    1C
    1UUSER                                                              
    1UDATE              27.october.2022                                 
    1UTIME              00:25:21                                        
    1UHOST                                                              
    1UPGM               CalculiX                                        
    1UVERSION           Version 2.17                             
    1UCOMPILETIME       Thu Jul 23 21:43:50 CEST 2020                    
    1UDIR                                                               
    1UDBN                                                               
    1UMAT    1SOLIDMATERIAL                                             
    2C                          4317                                     1
 -1         1 8.45443E+01 3.21056E+01 0.00000E+00
 -1         2 9.13535E+01 2.51082E+01 0.00000E+00
 -1         3 1.50000E+02 0.00000E+00 0.00000E+00
 -1         4 1.50000E+02 5.00000E+01 0.00000E+00
 -1         5 0.00000E+00 0.00000E+00 0.00000E+00
 -1         6 0.00000E+00 5.00000E+01 0.00000E+00
 -1         7 0.00000E+00 4.70500E+01 0.00000E+00
 -1         8 0.00000E+00 4.41000E+01 0.00000E+00
 -1         9 0.00000E+00 4.11500E+01 0.00000E+00
 -1        10 0.00000E+00 3.82000E+01 0.00000E+00
 -1        11 0.00000E+00 3.52500E+01 0.00000E+00
 -1        12 0.00000E+00 3.23500E+01 0.00000E+00
 -1        13 0.00000E+00 2.94000E+01 0.00000E+00
 -1        14 0.00000E+00 2.64500E+01 0.00000E+00
 -1        15 0.00000E+00 2.35000E+01 0.00000E+00
 -1        16 0.00000E+00 2.05500E+01 0.00000E+00
 -1        17 0.00000E+00 1.76000E+01 0.00000E+00
 -1        18 0.00000E+00 1.47000E+01 0.00000E+00
 -1        19 0.00000E+00 1.17500E+01 0.00000E+00
 -1        20 0.00000E+00 8.80000E+00 0.00000E+00
 -1        21 0.00000E+00 5.85000E+00 0.00000E+00
 -1        22 0.00000E+00 2.90000E+00 0.00000E+00
 -1        23 3.15000E+00 5.00000E+01 0.00000E+00
 -1        24 6.15000E+00 5.00000E+01 0.00000E+00
 -1        25 9.15000E+00 5.00000E+01 0.00000E+00
 -1        26 1.21500E+01 5.00000E+01 0.00000E+00
 -1        27 1.51500E+01 5.00000E+01 0.00000E+00
 -1        28 1.81500E+01 5.00000E+01 0.00000E+00
 -1        29 2.11500E+01 5.00000E+01 0.00000E+00
 -1        30 2.41500E+01 5.00000E+01 0.00000E+00
 -1        31 2.71500E+01 5.00000E+01 0.00000E+00
 -1        32 3.01500E+01 5.00000E+01 0.00000E+00
 -1        33 3.31500E+01 5.00000E+01 0.00000E+00
 -1        34 3.61500E+01 5.00000E+01 0.00000E+00
 -1        35 3.91500E+01 5.00000E+01 0.00000E+00
 -1        36 4.21500E+01 5.00000E+01 0.00000E+00
 -1        37 4.51500E+01 5.00000E+01 0.00000E+00
 -1        38 4.81500E+01 5.00000E+01 0.00000E+00
 -1        39 5.11500E+01 5.00000E+01 0.00000E+00
 -1        40 5.41500E+01 5.00000E+01 0.00000E+00
 -1        41 5.71500E+01 5.00000E+01 0.00000E+00
 -1        42 6.01500E+01 5.00000E+01 0.00000E+00
 -1        43 6.31500E+01 5.00000E+01 0.00000E+00
 -1        44 6.61500E+01 5.00000E+01 0.00000E+00
 -1        45 6.91500E+01 5.00000E+01 0.00000E+00
 -1        46 7.21500E+01 5.00000E+01 0.00000E+00
 -1        47 7.51500E+01 5.00000E+01 0.00000E+00
 -1        48 7.81500E+01 5.00000E+01 0.00000E+00
 -1        49 8.11500E+01 5.00000E+01 0.00000E+00
 -1        50 8.41500E+01 5.00000E+01 0.00000E+00
 -1        51 8.71500E+01 5.00000E+01 0.00000E+00
 -1        52 9.01500E+01 5.00000E+01 0.00000E+00
 -1        53 9.31500E+01 5.00000E+01 0.00000E+00
 -1        54 9.61500E+01 5.00000E+01 0.00000E+00
 -1        55 9.91500E+01 5.00000E+01 0.00000E+00
 -1        56 1.02150E+02 5.00000E+01 0.00000E+00
 -1        57 1.05150E+02 5.00000E+01 0.00000E+00
 -1        58 1.08150E+02 5.00000E+01 0.00000E+00
 -1        59 1.11150E+02 5.00000E+01 0.00000E+00
 -1        60 1.14150E+02 5.00000E+01 0.00000E+00
 -1        61 1.17150E+02 5.00000E+01 0.00000E+00
 -1        62 1.20150E+02 5.00000E+01 0.00000E+00
 -1        63 1.23150E+02 5.00000E+01 0.00000E+00
 -1        64 1.26150E+02 5.00000E+01 0.00000E+00
 -1        65 1.29150E+02 5.00000E+01 0.00000E+00
 -1        66 1.32150E+02 5.00000E+01 0.00000E+00
 -1        67 1.35150E+02 5.00000E+01 0.00000E+00
 -1        68 1.38150E+02 5.00000E+01 0.00000E+00
 -1        69 1.41150E+02 5.00000E+01 0.00000E+00
 -1        70 1.44150E+02 5.00000E+01 0.00000E+00
 -1        71 1.47150E+02 5.00000E+01 0.00000E+00
 -1        72 3.15000E+00 0.00000E+00 0.00000E+00
 -1        73 6.15000E+00 0.00000E+00 0.00000E+00
 -1        74 9.15000E+00 0.00000E+00 0.00000E+00
 -1        75 1.21500E+01 0.00000E+00 0.00000E+00
 -1        76 1.51500E+01 0.00000E+00 0.00000E+00
 -1        77 1.81500E+01 0.00000E+00 0.00000E+00
 -1        78 2.11500E+01 0.00000E+00 0.00000E+00
 -1        79 2.41500E+01 0.00000E+00 0.00000E+00
 -1        80 2.71500E+01 0.00000E+00 0.00000E+00
 -1        81 3.01500E+01 0.00000E+00 0.00000E+00
 -1        82 3.31500E+01 0.00000E+00 0.00000E+00
 -1        83 3.61500E+01 0.00000E+00 0.00000E+00
 -1        84 3.91500E+01 0.00000E+00 0.00000E+00
 -1        85 4.21500E+01 0.00000E+00 0.00000E+00
 -1        86 4.51500E+01 0.00000E+00 0.00000E+00
 -1        87 4.81500E+01 0.00000E+00 0.00000E+00
 -1        88 5.11500E+01 0.00000E+00 0.00000E+00
 -1        89 5.41500E+01 0.00000E+00 0.00000E+00
 -1        90 5.71500E+01 0.00000E+00 0.00000E+00
 -1        91 6.01500E+01 0.00000E+00 0.00000E+00
 -1        92 6.31500E+01 0.00000E+00 0.00000E+00
 -1        93 6.61500E+01 0.00000E+00 0.00000E+00
 -1        94 6.91500E+01 0.00000E+00 0.00000E+00
 -1        95 7.21500E+01 0.00000E+00 0.00000E+00
 -1        96 7.51500E+01 0.00000E+00 0.00000E+00
 -1        97 7.81500E+01 0.00000E+00 0.00000E+00
 -1        98 8.11500E+01 0.00000E+00 0.00000E+00
 -1        99 8.41500E+01 0.00000E+00 0.00000E+00
 -1       100 8.71500E+01 0.00000E+00 0.00000E+00
 -1       101 9.01500E+01 0.00000E+00 0.00000E+00
 -1       102 9.31500E+01 0.00000E+00 0.00000E+00
 -1       103 9.61500E+01 0.00000E+00 0.00000E+00
 -1       104 9.91500E+01 0.00000E+00 0.00000E+00
 -1       105 1.02150E+02 0.00000E+00 0.00000E+00
 -1       106 1.05150E+02 0.00000E+00 0.00000E+00
 -1       107 1.08150E+02 0.00000E+00 0.00000E+00
 -1       108 1.11150E+02 0.00000E+00 0.00000E+00
 -1       109 1.14150E+02 0.00000E+00 0.00000E+00
 -1       110 1.17150E+02 0.00000E+00 0.00000E+00
 -1       111 1.20150E+02 0.00000E+00 0.00000E+00
 -1       112 1.23150E+02 0.00000E+00 0.00000E+00
 -1       113 1.26150E+02 0.00000E+00 0.00000E+00
 -1       114 1.29150E+02 0.00000E+00 0.00000E+00
 -1       115 1.32150E+02 0.00000E+00 0.00000E+00
 -1       116 1.35150E+02 0.00000E+00 0.00000E+00
 -1       117 1.38150E+02 0.00000E+00 0.00000E+00
 -1       118 1.41150E+02 0.00000E+00 0.00000E+00
 -1       119 1.44150E+02 0.00000E+00 0.00000E+00
 -1       120 1.47150E+02 0.00000E+00 0.00000E+00
 -1       121 1.50000E+02 2.95000E+00 0.00000E+00
 -1       122 1.50000E+02 5.90000E+00 0.00000E+00
 -1       123 1.50000E+02 8.85000E+00 0.00000E+00
 -1       124 1.50000E+02 1.18000E+01 0.00000E+00
 -1       125 1.50000E+02 1.47500E+01 0.00000E+00
 -1       126 1.50000E+02 1.76500E+01 0.00000E+00
 -1       127 1.50000E+02 2.06000E+01 0.00000E+00
 -1       128 1.50000E+02 2.35500E+01 0.00000E+00
 -1       129 1.50000E+02 2.65000E+01 0.00000E+00
 -1       130 1.50000E+02 2.94500E+01 0.00000E+00
 -1       131 1.50000E+02 3.24000E+01 0.00000E+00
 -1       132 1.50000E+02 3.53000E+01 0.00000E+00
 -1       133 1.50000E+02 3.82500E+01 0.00000E+00
 -1       134 1.50000E+02 4.12000E+01 0.00000E+00
 -1       135 1.50000E+02 4.41500E+01 0.00000E+00
 -1       136 1.50000E+02 4.71000E+01 0.00000E+00
 -1       137 9.12017E+01 2.36579E+01 0.00000E+00
 -1       138 9.07638E+01 2.22959E+01 0.00000E+00
 -1       139 9.00229E+01 2.10023E+01 0.00000E+00
 -1       140 8.90286E+01 1.98982E+01 0.00000E+00
 -1       141 8.79121E+01 1.90802E+01 0.00000E+00
 -1       142 8.64896E+01 1.84421E+01 0.00000E+00
 -1       143 8.50680E+01 1.81447E+01 0.00000E+00
 -1       144 8.35068E+01 1.81596E+01 0.00000E+00
 -1       145 8.19877E+01 1.85201E+01 0.00000E+00
 -1       146 8.06624E+01 1.91605E+01 0.00000E+00
 -1       147 7.95474E+01 2.00189E+01 0.00000E+00
 -1       148 7.85013E+01 2.12675E+01 0.00000E+00
 -1       149 7.78477E+01 2.25246E+01 0.00000E+00
 -1       150 7.74406E+01 2.40079E+01 0.00000E+00
 -1       151 7.73691E+01 2.55753E+01 0.00000E+00
 -1       152 7.76115E+01 2.69908E+01 0.00000E+00
 -1       153 7.81846E+01 2.84163E+01 0.00000E+00
 -1       154 7.91092E+01 2.97447E+01 0.00000E+00
 -1       155 8.02462E+01 3.07765E+01 0.00000E+00
 -1       156 8.14917E+01 3.14964E+01 0.00000E+00
 -1       157 8.30697E+01 3.19894E+01 0.00000E+00
 -1       158 8.60863E+01 3.18903E+01 0.00000E+00
 -1       159 8.75113E+01 3.13555E+01 0.00000E+00
 -1       160 8.88384E+01 3.04828E+01 0.00000E+00
 -1       161 8.99094E+01 2.93664E+01 0.00000E+00
 -1       162 9.06901E+01 2.80827E+01 0.00000E+00
 -1       163 9.11936E+01 2.65960E+01 0.00000E+00
 -1       164 2.59800E+00 4.55750E+01 0.00000E+00
 -1       165 2.59800E+00 4.26250E+01 0.00000E+00
 -1       166 2.59800E+00 3.96750E+01 0.00000E+00
 -1       167 2.59800E+00 3.67250E+01 0.00000E+00
 -1       168 2.59800E+00 3.38250E+01 0.00000E+00
 -1       169 2.59800E+00 3.08750E+01 0.00000E+00
 -1       170 2.59800E+00 2.79250E+01 0.00000E+00
 -1       171 2.59800E+00 2.49750E+01 0.00000E+00
 -1       172 2.59800E+00 2.20250E+01 0.00000E+00
 -1       173 2.59800E+00 1.90750E+01 0.00000E+00
 -1       174 2.59800E+00 1.61750E+01 0.00000E+00
 -1       175 2.59800E+00 1.32250E+01 0.00000E+00
 -1       176 2.59800E+00 1.02750E+01 0.00000E+00
 -1       177 2.59800E+00 7.32500E+00 0.00000E+00
 -1       178 2.59800E+00 4.37500E+00 0.00000E+00
 -1       179 2.87400E+00 2.18750E+00 0.00000E+00
 -1       180 4.65000E+00 4.74020E+01 0.00000E+00
 -1       181 7.65000E+00 4.74020E+01 0.00000E+00
 -1       182 1.06500E+01 4.74020E+01 0.00000E+00
 -1       183 1.36500E+01 4.74020E+01 0.00000E+00
 -1       184 1.66500E+01 4.74020E+01 0.00000E+00
 -1       185 1.96500E+01 4.74020E+01 0.00000E+00
 -1       186 2.26500E+01 4.74020E+01 0.00000E+00
 -1       187 2.56500E+01 4.74020E+01 0.00000E+00
 -1       188 2.86500E+01 4.74020E+01 0.00000E+00
 -1       189 3.16500E+01 4.74020E+01 0.00000E+00
 -1       190 3.46500E+01 4.74020E+01 0.00000E+00
 -1       191 3.76500E+01 4.74020E+01 0.00000E+00
 -1       192 4.06500E+01 4.74020E+01 0.00000E+00
 -1       193 4.36500E+01 4.74020E+01 0.00000E+00
 -1       194 4.66500E+01 4.74020E+01 0.00000E+00
 -1       195 4.96500E+01 4.74020E+01 0.00000E+00
 -1       196 5.26500E+01 4.74020E+01 0.00000E+00
 -1       197 5.56500E+01 4.74020E+01 0.00000E+00
 -1       198 5.86500E+01 4.74020E+01 0.00000E+00
 -1       199 6.16500E+01 4.74020E+01 0.00000E+00
 -1       200 6.46500E+01 4.74020E+01 0.00000E+00
 -1       201 6.76500E+01 4.74020E+01 0.00000E+00
 -1       202 7.06500E+01 4.74020E+01 0.00000E+00
 -1       203 7.36500E+01 4.74020E+01 0.00000E+00
 -1       204 7.66500E+01 4.74020E+01 0.00000E+00
 -1       205 7.96500E+01 4.74020E+01 0.00000E+00
 -1       206 8.26500E+01 4.74020E+01 0.00000E+00
 -1       207 8.56500E+01 4.74020E+01 0.00000E+00
 -1       208 8.86500E+01 4.74020E+01 0.00000E+00
 -1       209 9.16500E+01 4.74020E+01 0.00000E+00
 -1       210 9.46500E+01 4.74020E+01 0.00000E+00
 -1       211 9.76500E+01 4.74020E+01 0.00000E+00
 -1       212 1.00650E+02 4.74020E+01 0.00000E+00
 -1       213 1.03650E+02 4.74020E+01 0.00000E+00
 -1       214 1.06650E+02 4.74020E+01 0.00000E+00
 -1       215 1.09650E+02 4.74020E+01 0.00000E+00
 -1       216 1.12650E+02 4.74020E+01 0.00000E+00
 -1       217 1.15650E+02 4.74020E+01 0.00000E+00
 -1       218 1.18650E+02 4.74020E+01 0.00000E+00
 -1       219 1.21650E+02 4.74020E+01 0.00000E+00
 -1       220 1.24650E+02 4.74020E+01 0.00000E+00
 -1       221 1.27650E+02 4.74020E+01 0.00000E+00
 -1       222 1.30650E+02 4.74020E+01 0.00000E+00
 -1       223 1.33650E+02 4.74020E+01 0.00000E+00
 -1       224 1.36650E+02 4.74020E+01 0.00000E+00
 -1       225 1.39650E+02 4.74020E+01 0.00000E+00
 -1       226 1.42650E+02 4.74020E+01 0.00000E+00
 -1       227 1.45650E+02 4.74020E+01 0.00000E+00
 -1       228 5.87400E+00 2.18750E+00 0.00000E+00
 -1       229 8.87400E+00 2.18750E+00 0.00000E+00
 -1       230 1.18740E+01 2.18750E+00 0.00000E+00
 -1       231 1.48740E+01 2.18750E+00 0.00000E+00
 -1       232 1.78740E+01 2.18750E+00 0.00000E+00
 -1       233 2.08740E+01 2.18750E+00 0.00000E+00
 -1       234 2.38740E+01 2.18750E+00 0.00000E+00
 -1       235 2.68740E+01 2.18750E+00 0.00000E+00
 -1       236 2.98740E+01 2.18750E+00 0.00000E+00
 -1       237 3.28740E+01 2.18750E+00 0.00000E+00
 -1       238 3.58740E+01 2.18750E+00 0.00000E+00
 -1       239 3.88740E+01 2.18750E+00 0.00000E+00
 -1       240 4.18740E+01 2.18750E+00 0.00000E+00
 -1       241 4.48740E+01 2.18750E+00 0.00000E+00
 -1       242 4.78740E+01 2.18750E+00 0.00000E+00
 -1       243 5.08740E+01 2.18750E+00 0.00000E+00
 -1       244 5.38740E+01 2.18750E+00 0.00000E+00
 -1       245 5.68740E+01 2.18750E+00 0.00000E+00
 -1       246 5.98740E+01 2.18750E+00 0.00000E+00
 -1       247 6.28740E+01 2.18750E+00 0.00000E+00
 -1       248 6.58740E+01 2.18750E+00 0.00000E+00
 -1       249 6.88740E+01 2.18750E+00 0.00000E+00
 -1       250 7.18740E+01 2.18750E+00 0.00000E+00
 -1       251 7.48740E+01 2.18750E+00 0.00000E+00
 -1       252 7.78740E+01 2.18750E+00 0.00000E+00
 -1       253 8.08740E+01 2.18750E+00 0.00000E+00
 -1       254 8.38740E+01 2.18750E+00 0.00000E+00
 -1       255 8.68740E+01 2.18750E+00 0.00000E+00
 -1       256 8.98740E+01 2.18750E+00 0.00000E+00
 -1       257 9.28740E+01 2.18750E+00 0.00000E+00
 -1       258 9.58740E+01 2.18750E+00 0.00000E+00
 -1       259 9.88740E+01 2.18750E+00 0.00000E+00
 -1       260 1.01874E+02 2.18750E+00 0.00000E+00
 -1       261 1.04874E+02 2.18750E+00 0.00000E+00
 -1       262 1.07874E+02 2.18750E+00 0.00000E+00
 -1       263 1.10874E+02 2.18750E+00 0.00000E+00
 -1       264 1.13874E+02 2.18750E+00 0.00000E+00
 -1       265 1.16874E+02 2.18750E+00 0.00000E+00
 -1       266 1.19874E+02 2.18750E+00 0.00000E+00
 -1       267 1.22874E+02 2.18750E+00 0.00000E+00
 -1       268 1.25874E+02 2.18750E+00 0.00000E+00
 -1       269 1.28874E+02 2.18750E+00 0.00000E+00
 -1       270 1.31874E+02 2.18750E+00 0.00000E+00
 -1       271 1.34874E+02 2.18750E+00 0.00000E+00
 -1       272 1.37874E+02 2.18750E+00 0.00000E+00
 -1       273 1.40874E+02 2.18750E+00 0.00000E+00
 -1       274 1.43874E+02 2.18750E+00 0.00000E+00
 -1       275 1.46874E+02 2.18750E+00 0.00000E+00
 -1       276 1.47402E+02 4.42500E+00 0.00000E+00
 -1       277 1.47402E+02 7.37500E+00 0.00000E+00
 -1       278 1.47402E+02 1.03250E+01 0.00000E+00
 -1       279 1.47402E+02 1.32750E+01 0.00000E+00
 -1       280 1.47402E+02 1.61750E+01 0.00000E+00
 -1       281 1.47402E+02 1.91250E+01 0.00000E+00
 -1       282 1.47402E+02 2.20750E+01 0.00000E+00
 -1       283 1.47402E+02 2.50250E+01 0.00000E+00
 -1       284 1.47402E+02 2.79750E+01 0.00000E+00
 -1       285 1.47402E+02 3.09250E+01 0.00000E+00
 -1       286 1.47402E+02 3.38250E+01 0.00000E+00
 -1       287 1.47402E+02 3.67750E+01 0.00000E+00
 -1       288 1.47402E+02 3.97250E+01 0.00000E+00
 -1       289 1.47402E+02 4.26750E+01 0.00000E+00
 -1       290 1.46526E+02 4.50385E+01 0.00000E+00
 -1       291 9.24834E+01 2.42568E+01 0.00000E+00
 -1       292 9.21369E+01 2.26058E+01 0.00000E+00
 -1       293 9.15181E+01 2.10049E+01 0.00000E+00
 -1       294 9.04267E+01 1.96389E+01 0.00000E+00
 -1       295 8.91869E+01 1.85112E+01 0.00000E+00
 -1       296 8.78000E+01 1.74256E+01 0.00000E+00
 -1       297 8.60270E+01 1.71067E+01 0.00000E+00
 -1       298 8.42743E+01 1.67723E+01 0.00000E+00
 -1       299 8.24093E+01 1.69156E+01 0.00000E+00
 -1       300 8.07611E+01 1.76732E+01 0.00000E+00
 -1       301 7.93652E+01 1.86290E+01 0.00000E+00
 -1       302 7.79665E+01 1.97570E+01 0.00000E+00
 -1       303 7.70988E+01 2.13369E+01 0.00000E+00
 -1       304 7.64750E+01 2.29453E+01 0.00000E+00
 -1       305 7.60263E+01 2.47288E+01 0.00000E+00
 -1       306 7.62953E+01 2.64876E+01 0.00000E+00
 -1       307 7.66176E+01 2.82183E+01 0.00000E+00
 -1       308 7.73768E+01 2.99646E+01 0.00000E+00
 -1       309 7.88066E+01 3.12204E+01 0.00000E+00
 -1       310 8.02622E+01 3.21861E+01 0.00000E+00
 -1       311 8.18192E+01 3.32201E+01 0.00000E+00
 -1       312 8.37052E+01 3.33397E+01 0.00000E+00
 -1       313 8.54945E+01 3.32817E+01 0.00000E+00
 -1       314 8.72248E+01 3.27580E+01 0.00000E+00
 -1       315 8.88870E+01 3.20021E+01 0.00000E+00
 -1       316 9.02488E+01 3.07639E+01 0.00000E+00
 -1       317 9.13356E+01 2.93546E+01 0.00000E+00
 -1       318 9.21695E+01 2.77552E+01 0.00000E+00
 -1       319 9.24790E+01 2.59817E+01 0.00000E+00
 -1       320 5.19600E+00 4.11500E+01 0.00000E+00
 -1       321 5.19600E+00 4.41000E+01 0.00000E+00
 -1       322 5.19600E+00 3.52750E+01 0.00000E+00
 -1       323 5.19600E+00 3.23250E+01 0.00000E+00
 -1       324 5.19600E+00 2.93750E+01 0.00000E+00
 -1       325 5.19600E+00 2.64250E+01 0.00000E+00
 -1       326 5.19600E+00 2.34750E+01 0.00000E+00
 -1       327 5.19600E+00 2.05250E+01 0.00000E+00
 -1       328 5.19600E+00 1.76250E+01 0.00000E+00
 -1       329 5.19600E+00 1.46750E+01 0.00000E+00
 -1       330 5.19600E+00 1.17250E+01 0.00000E+00
 -1       331 5.19600E+00 8.77500E+00 0.00000E+00
 -1       332 5.19600E+00 5.82500E+00 0.00000E+00
 -1       333 5.53500E+00 4.00625E+00 0.00000E+00
 -1       334 8.53500E+00 4.00625E+00 0.00000E+00
 -1       335 9.15000E+00 4.48040E+01 0.00000E+00
 -1       336 1.21500E+01 4.48040E+01 0.00000E+00
 -1       337 1.51500E+01 4.48040E+01 0.00000E+00
 -1       338 1.81500E+01 4.48040E+01 0.00000E+00
 -1       339 2.11500E+01 4.48040E+01 0.00000E+00
 -1       340 2.41500E+01 4.48040E+01 0.00000E+00
 -1       341 2.71500E+01 4.48040E+01 0.00000E+00
 -1       342 3.01500E+01 4.48040E+01 0.00000E+00
 -1       343 3.31500E+01 4.48040E+01 0.00000E+00
 -1       344 3.61500E+01 4.48040E+01 0.00000E+00
 -1       345 3.91500E+01 4.48040E+01 0.00000E+00
 -1       346 4.21500E+01 4.48040E+01 0.00000E+00
 -1       347 4.51500E+01 4.48040E+01 0.00000E+00
 -1       348 4.81500E+01 4.48040E+01 0.00000E+00
 -1       349 5.11500E+01 4.48040E+01 0.00000E+00
 -1       350 5.41500E+01 4.48040E+01 0.00000E+00
 -1       351 5.71500E+01 4.48040E+01 0.00000E+00
 -1       352 6.01500E+01 4.48040E+01 0.00000E+00
 -1       353 6.31500E+01 4.48040E+01 0.00000E+00
 -1       354 6.61500E+01 4.48040E+01 0.00000E+00
 -1       355 6.91500E+01 4.48040E+01 0.00000E+00
 -1       356 7.21500E+01 4.48040E+01 0.00000E+00
 -1       357 7.51500E+01 4.48040E+01 0.00000E+00
 -1       358 7.81500E+01 4.48040E+01 0.00000E+00
 -1       359 8.11500E+01 4.48040E+01 0.00000E+00
 -1       360 8.41500E+01 4.48040E+01 0.00000E+00
 -1       361 8.71500E+01 4.48040E+01 0.00000E+00
 -1       362 9.01500E+01 4.48040E+01 0.00000E+00
 -1       363 9.31500E+01 4.48040E+01 0.00000E+00
 -1       364 9.61500E+01 4.48040E+01 0.00000E+00
 -1       365 9.91500E+01 4.48040E+01 0.00000E+00
 -1       366 1.02150E+02 4.48040E+01 0.00000E+00
 -1       367 1.05150E+02 4.48040E+01 0.00000E+00
 -1       368 1.08150E+02 4.48040E+01 0.00000E+00
 -1       369 1.11150E+02 4.48040E+01 0.00000E+00
 -1       370 1.14150E+02 4.48040E+01 0.00000E+00
 -1       371 1.17150E+02 4.48040E+01 0.00000E+00
 -1       372 1.20150E+02 4.48040E+01 0.00000E+00
 -1       373 1.23150E+02 4.48040E+01 0.00000E+00
 -1       374 1.26150E+02 4.48040E+01 0.00000E+00
 -1       375 1.29150E+02 4.48040E+01 0.00000E+00
 -1       376 1.32150E+02 4.48040E+01 0.00000E+00
 -1       377 1.35150E+02 4.48040E+01 0.00000E+00
 -1       378 1.38150E+02 4.48040E+01 0.00000E+00
 -1       379 1.41150E+02 4.48040E+01 0.00000E+00
 -1       380 1.43838E+02 4.49212E+01 0.00000E+00
 -1       381 1.15350E+01 4.00625E+00 0.00000E+00
 -1       382 1.45350E+01 4.00625E+00 0.00000E+00
 -1       383 1.75350E+01 4.00625E+00 0.00000E+00
 -1       384 2.05350E+01 4.00625E+00 0.00000E+00
 -1       385 2.35350E+01 4.00625E+00 0.00000E+00
 -1       386 2.65350E+01 4.00625E+00 0.00000E+00
 -1       387 2.95350E+01 4.00625E+00 0.00000E+00
 -1       388 3.25350E+01 4.00625E+00 0.00000E+00
 -1       389 3.55350E+01 4.00625E+00 0.00000E+00
 -1       390 3.85350E+01 4.00625E+00 0.00000E+00
 -1       391 4.15350E+01 4.00625E+00 0.00000E+00
 -1       392 4.45350E+01 4.00625E+00 0.00000E+00
 -1       393 4.75350E+01 4.00625E+00 0.00000E+00
 -1       394 5.05350E+01 4.00625E+00 0.00000E+00
 -1       395 5.35350E+01 4.00625E+00 0.00000E+00
 -1       396 5.65350E+01 4.00625E+00 0.00000E+00
 -1       397 5.95350E+01 4.00625E+00 0.00000E+00
 -1       398 6.25350E+01 4.00625E+00 0.00000E+00
 -1       399 6.55350E+01 4.00625E+00 0.00000E+00
 -1       400 6.85350E+01 4.00625E+00 0.00000E+00
 -1       401 7.15350E+01 4.00625E+00 0.00000E+00
 -1       402 7.45350E+01 4.00625E+00 0.00000E+00
 -1       403 7.75350E+01 4.00625E+00 0.00000E+00
 -1       404 8.05350E+01 4.00625E+00 0.00000E+00
 -1       405 8.35350E+01 4.00625E+00 0.00000E+00
 -1       406 8.65350E+01 4.00625E+00 0.00000E+00
 -1       407 8.95350E+01 4.00625E+00 0.00000E+00
 -1       408 9.25350E+01 4.00625E+00 0.00000E+00
 -1       409 9.55350E+01 4.00625E+00 0.00000E+00
 -1       410 9.85350E+01 4.00625E+00 0.00000E+00
 -1       411 1.01535E+02 4.00625E+00 0.00000E+00
 -1       412 1.04535E+02 4.00625E+00 0.00000E+00
 -1       413 1.07535E+02 4.00625E+00 0.00000E+00
 -1       414 1.10535E+02 4.00625E+00 0.00000E+00
 -1       415 1.13535E+02 4.00625E+00 0.00000E+00
 -1       416 1.16535E+02 4.00625E+00 0.00000E+00
 -1       417 1.19535E+02 4.00625E+00 0.00000E+00
 -1       418 1.22535E+02 4.00625E+00 0.00000E+00
 -1       419 1.25535E+02 4.00625E+00 0.00000E+00
 -1       420 1.28535E+02 4.00625E+00 0.00000E+00
 -1       421 1.31535E+02 4.00625E+00 0.00000E+00
 -1       422 1.34535E+02 4.00625E+00 0.00000E+00
 -1       423 1.37535E+02 4.00625E+00 0.00000E+00
 -1       424 1.40535E+02 4.00625E+00 0.00000E+00
 -1       425 1.43535E+02 4.00625E+00 0.00000E+00
 -1       426 1.45469E+02 4.21562E+00 0.00000E+00
 -1       427 1.44804E+02 1.18000E+01 0.00000E+00
 -1       428 1.44804E+02 8.85000E+00 0.00000E+00
 -1       429 1.45136E+02 6.53281E+00 0.00000E+00
 -1       430 1.44804E+02 1.47000E+01 0.00000E+00
 -1       431 1.44804E+02 1.76500E+01 0.00000E+00
 -1       432 1.44804E+02 2.06000E+01 0.00000E+00
 -1       433 1.44804E+02 2.35500E+01 0.00000E+00
 -1       434 1.44804E+02 2.65000E+01 0.00000E+00
 -1       435 1.44804E+02 2.94500E+01 0.00000E+00
 -1       436 1.44804E+02 3.23500E+01 0.00000E+00
 -1       437 1.44804E+02 3.53000E+01 0.00000E+00
 -1       438 1.44804E+02 3.82500E+01 0.00000E+00
 -1       439 1.44804E+02 4.12000E+01 0.00000E+00
 -1       440 9.31147E+01 2.13078E+01 0.00000E+00
 -1       441 9.37774E+01 2.51225E+01 0.00000E+00
 -1       442 9.36607E+01 2.31479E+01 0.00000E+00
 -1       443 9.20505E+01 1.94605E+01 0.00000E+00
 -1       444 9.09045E+01 1.78683E+01 0.00000E+00
 -1       445 5.19600E+00 3.82125E+01 0.00000E+00
 -1       446 8.72023E+01 1.56606E+01 0.00000E+00
 -1       447 8.54495E+01 1.53261E+01 0.00000E+00
 -1       448 8.32231E+01 1.53010E+01 0.00000E+00
 -1       449 8.09039E+01 1.58122E+01 0.00000E+00
 -1       450 7.95080E+01 1.67680E+01 0.00000E+00
 -1       451 7.77470E+01 1.80536E+01 0.00000E+00
 -1       452 7.61762E+01 1.98019E+01 0.00000E+00
 -1       453 7.55784E+01 2.16724E+01 0.00000E+00
 -1       454 7.45874E+01 2.34186E+01 0.00000E+00
 -1       455 7.46310E+01 2.58422E+01 0.00000E+00
 -1       456 7.49534E+01 2.75729E+01 0.00000E+00
 -1       457 7.55011E+01 2.97418E+01 0.00000E+00
 -1       458 7.70705E+01 3.17553E+01 0.00000E+00
 -1       459 7.87715E+01 3.28532E+01 0.00000E+00
 -1       460 8.03285E+01 3.38871E+01 0.00000E+00
 -1       461 8.26536E+01 3.49915E+01 0.00000E+00
 -1       462 8.46419E+01 3.46062E+01 0.00000E+00
 -1       463 8.67837E+01 3.44208E+01 0.00000E+00
 -1       464 8.86618E+01 3.37125E+01 0.00000E+00
 -1       465 9.04963E+01 3.24040E+01 0.00000E+00
 -1       466 9.20177E+01 3.10043E+01 0.00000E+00
 -1       467 9.29019E+01 2.91541E+01 0.00000E+00
 -1       468 9.38488E+01 2.71345E+01 0.00000E+00
 -1       469 8.95175E+01 1.67827E+01 0.00000E+00
 -1       470 8.11630E+01 3.56586E+01 0.00000E+00
 -1       471 1.00350E+01 6.60425E+00 0.00000E+00
 -1       472 7.79400E+00 3.08500E+01 0.00000E+00
 -1       473 7.79400E+00 3.38000E+01 0.00000E+00
 -1       474 7.79400E+00 2.49500E+01 0.00000E+00
 -1       475 7.79400E+00 2.20000E+01 0.00000E+00
 -1       476 7.79400E+00 1.91000E+01 0.00000E+00
 -1       477 7.79400E+00 1.61500E+01 0.00000E+00
 -1       478 7.79400E+00 1.32000E+01 0.00000E+00
 -1       479 7.79400E+00 1.02500E+01 0.00000E+00
 -1       480 9.30055E+01 1.75646E+01 0.00000E+00
 -1       481 1.30350E+01 6.60425E+00 0.00000E+00
 -1       482 1.06500E+01 4.22060E+01 0.00000E+00
 -1       483 8.91810E+01 1.45274E+01 0.00000E+00
 -1       484 1.36500E+01 4.22060E+01 0.00000E+00
 -1       485 1.66500E+01 4.22060E+01 0.00000E+00
 -1       486 1.96500E+01 4.22060E+01 0.00000E+00
 -1       487 2.26500E+01 4.22060E+01 0.00000E+00
 -1       488 2.56500E+01 4.22060E+01 0.00000E+00
 -1       489 2.86500E+01 4.22060E+01 0.00000E+00
 -1       490 3.16500E+01 4.22060E+01 0.00000E+00
 -1       491 3.46500E+01 4.22060E+01 0.00000E+00
 -1       492 3.76500E+01 4.22060E+01 0.00000E+00
 -1       493 4.06500E+01 4.22060E+01 0.00000E+00
 -1       494 4.36500E+01 4.22060E+01 0.00000E+00
 -1       495 4.66500E+01 4.22060E+01 0.00000E+00
 -1       496 4.96500E+01 4.22060E+01 0.00000E+00
 -1       497 5.26500E+01 4.22060E+01 0.00000E+00
 -1       498 5.56500E+01 4.22060E+01 0.00000E+00
 -1       499 5.86500E+01 4.22060E+01 0.00000E+00
 -1       500 6.16500E+01 4.22060E+01 0.00000E+00
 -1       501 6.46500E+01 4.22060E+01 0.00000E+00
 -1       502 6.76500E+01 4.22060E+01 0.00000E+00
 -1       503 7.06500E+01 4.22060E+01 0.00000E+00
 -1       504 7.36500E+01 4.22060E+01 0.00000E+00
 -1       505 7.66500E+01 4.22060E+01 0.00000E+00
 -1       506 7.96500E+01 4.22060E+01 0.00000E+00
 -1       507 8.26500E+01 4.22060E+01 0.00000E+00
 -1       508 8.56500E+01 4.22060E+01 0.00000E+00
 -1       509 8.86500E+01 4.22060E+01 0.00000E+00
 -1       510 9.16500E+01 4.22060E+01 0.00000E+00
 -1       511 9.46500E+01 4.22060E+01 0.00000E+00
 -1       512 9.76500E+01 4.22060E+01 0.00000E+00
 -1       513 1.00650E+02 4.22060E+01 0.00000E+00
 -1       514 1.03650E+02 4.22060E+01 0.00000E+00
 -1       515 1.06650E+02 4.22060E+01 0.00000E+00
 -1       516 1.09650E+02 4.22060E+01 0.00000E+00
 -1       517 1.12650E+02 4.22060E+01 0.00000E+00
 -1       518 1.15650E+02 4.22060E+01 0.00000E+00
 -1       519 1.18650E+02 4.22060E+01 0.00000E+00
 -1       520 1.21650E+02 4.22060E+01 0.00000E+00
 -1       521 1.24650E+02 4.22060E+01 0.00000E+00
 -1       522 1.27650E+02 4.22060E+01 0.00000E+00
 -1       523 1.30650E+02 4.22060E+01 0.00000E+00
 -1       524 1.33650E+02 4.22060E+01 0.00000E+00
 -1       525 1.36650E+02 4.22060E+01 0.00000E+00
 -1       526 1.39650E+02 4.22060E+01 0.00000E+00
 -1       527 1.90350E+01 6.60425E+00 0.00000E+00
 -1       528 2.20350E+01 6.60425E+00 0.00000E+00
 -1       529 2.50350E+01 6.60425E+00 0.00000E+00
 -1       530 2.80350E+01 6.60425E+00 0.00000E+00
 -1       531 3.10350E+01 6.60425E+00 0.00000E+00
 -1       532 3.40350E+01 6.60425E+00 0.00000E+00
 -1       533 3.70350E+01 6.60425E+00 0.00000E+00
 -1       534 4.00350E+01 6.60425E+00 0.00000E+00
 -1       535 4.30350E+01 6.60425E+00 0.00000E+00
 -1       536 4.60350E+01 6.60425E+00 0.00000E+00
 -1       537 4.90350E+01 6.60425E+00 0.00000E+00
 -1       538 5.20350E+01 6.60425E+00 0.00000E+00
 -1       539 5.50350E+01 6.60425E+00 0.00000E+00
 -1       540 5.80350E+01 6.60425E+00 0.00000E+00
 -1       541 6.10350E+01 6.60425E+00 0.00000E+00
 -1       542 6.40350E+01 6.60425E+00 0.00000E+00
 -1       543 6.70350E+01 6.60425E+00 0.00000E+00
 -1       544 7.00350E+01 6.60425E+00 0.00000E+00
 -1       545 7.30350E+01 6.60425E+00 0.00000E+00
 -1       546 7.60350E+01 6.60425E+00 0.00000E+00
 -1       547 7.90350E+01 6.60425E+00 0.00000E+00
 -1       548 8.20350E+01 6.60425E+00 0.00000E+00
 -1       549 8.50350E+01 6.60425E+00 0.00000E+00
 -1       550 8.80350E+01 6.60425E+00 0.00000E+00
 -1       551 9.10350E+01 6.60425E+00 0.00000E+00
 -1       552 9.40350E+01 6.60425E+00 0.00000E+00
 -1       553 9.70350E+01 6.60425E+00 0.00000E+00
 -1       554 1.00035E+02 6.60425E+00 0.00000E+00
 -1       555 1.03035E+02 6.60425E+00 0.00000E+00
 -1       556 1.06035E+02 6.60425E+00 0.00000E+00
 -1       557 1.09035E+02 6.60425E+00 0.00000E+00
 -1       558 1.12035E+02 6.60425E+00 0.00000E+00
 -1       559 1.15035E+02 6.60425E+00 0.00000E+00
 -1       560 1.18035E+02 6.60425E+00 0.00000E+00
 -1       561 1.21035E+02 6.60425E+00 0.00000E+00
 -1       562 1.24035E+02 6.60425E+00 0.00000E+00
 -1       563 1.27035E+02 6.60425E+00 0.00000E+00
 -1       564 1.30035E+02 6.60425E+00 0.00000E+00
 -1       565 1.33035E+02 6.60425E+00 0.00000E+00
 -1       566 1.36035E+02 6.60425E+00 0.00000E+00
 -1       567 1.39035E+02 6.60425E+00 0.00000E+00
 -1       568 1.42035E+02 6.60425E+00 0.00000E+00
 -1       569 1.42206E+02 1.61750E+01 0.00000E+00
 -1       570 1.42206E+02 1.91250E+01 0.00000E+00
 -1       571 1.42206E+02 1.03250E+01 0.00000E+00
 -1       572 1.42206E+02 1.32500E+01 0.00000E+00
 -1       573 1.42206E+02 2.20750E+01 0.00000E+00
 -1       574 1.42206E+02 2.50250E+01 0.00000E+00
 -1       575 1.42206E+02 2.79750E+01 0.00000E+00
 -1       576 1.42206E+02 3.08750E+01 0.00000E+00
 -1       577 1.42206E+02 3.38250E+01 0.00000E+00
 -1       578 1.42206E+02 3.67750E+01 0.00000E+00
 -1       579 1.42206E+02 3.97250E+01 0.00000E+00
 -1       580 9.54312E+01 2.40340E+01 0.00000E+00
 -1       581 9.40697E+01 1.94119E+01 0.00000E+00
 -1       582 1.60350E+01 6.60425E+00 0.00000E+00
 -1       583 9.55026E+01 2.60460E+01 0.00000E+00
 -1       584 9.48713E+01 2.17876E+01 0.00000E+00
 -1       585 7.92300E+00 4.16780E+01 0.00000E+00
 -1       586 9.49283E+01 2.88723E+01 0.00000E+00
 -1       587 7.71272E+01 3.35340E+01 0.00000E+00
 -1       588 7.29781E+01 2.46598E+01 0.00000E+00
 -1       589 8.43538E+01 1.37661E+01 0.00000E+00
 -1       590 7.79400E+00 2.79000E+01 0.00000E+00
 -1       591 8.16944E+01 1.38817E+01 0.00000E+00
 -1       592 8.66474E+01 1.38086E+01 0.00000E+00
 -1       593 7.57481E+01 1.78375E+01 0.00000E+00
 -1       594 7.91423E+01 1.47367E+01 0.00000E+00
 -1       595 7.49991E+01 3.17514E+01 0.00000E+00
 -1       596 7.73813E+01 1.60223E+01 0.00000E+00
 -1       597 7.43234E+01 2.02405E+01 0.00000E+00
 -1       598 7.33324E+01 2.19867E+01 0.00000E+00
 -1       599 7.34356E+01 2.69602E+01 0.00000E+00
 -1       600 8.39263E+01 3.62359E+01 0.00000E+00
 -1       601 7.35644E+01 2.90773E+01 0.00000E+00
 -1       602 7.86842E+01 3.45680E+01 0.00000E+00
 -1       603 8.60681E+01 3.60505E+01 0.00000E+00
 -1       604 8.82984E+01 3.55930E+01 0.00000E+00
 -1       605 9.05750E+01 3.44545E+01 0.00000E+00
 -1       606 9.23047E+01 3.28430E+01 0.00000E+00
 -1       607 9.40440E+01 3.07225E+01 0.00000E+00
 -1       608 9.14747E+01 1.57110E+01 0.00000E+00
 -1       609 7.61550E+00 6.21462E+00 0.00000E+00
 -1       610 7.79400E+00 3.67375E+01 0.00000E+00
 -1       611 9.65821E+01 2.77838E+01 0.00000E+00
 -1       612 7.95187E+01 3.63395E+01 0.00000E+00
 -1       613 7.30624E+01 3.10869E+01 0.00000E+00
 -1       614 7.50559E+01 3.35302E+01 0.00000E+00
 -1       615 7.38953E+01 1.82761E+01 0.00000E+00
 -1       616 8.24356E+01 3.69029E+01 0.00000E+00
 -1       617 1.41678E+02 4.22645E+01 0.00000E+00
 -1       618 1.03920E+01 2.05500E+01 0.00000E+00
 -1       619 1.03920E+01 2.35000E+01 0.00000E+00
 -1       620 1.03920E+01 1.46750E+01 0.00000E+00
 -1       621 1.03920E+01 1.17250E+01 0.00000E+00
 -1       622 7.97670E+01 1.23652E+01 0.00000E+00
 -1       623 1.15350E+01 9.20225E+00 0.00000E+00
 -1       624 9.61848E+01 3.06093E+01 0.00000E+00
 -1       625 9.13448E+01 1.31483E+01 0.00000E+00
 -1       626 1.51500E+01 3.96080E+01 0.00000E+00
 -1       627 1.81500E+01 3.96080E+01 0.00000E+00
 -1       628 2.11500E+01 3.96080E+01 0.00000E+00
 -1       629 2.41500E+01 3.96080E+01 0.00000E+00
 -1       630 2.71500E+01 3.96080E+01 0.00000E+00
 -1       631 3.01500E+01 3.96080E+01 0.00000E+00
 -1       632 3.31500E+01 3.96080E+01 0.00000E+00
 -1       633 3.61500E+01 3.96080E+01 0.00000E+00
 -1       634 3.91500E+01 3.96080E+01 0.00000E+00
 -1       635 4.21500E+01 3.96080E+01 0.00000E+00
 -1       636 4.51500E+01 3.96080E+01 0.00000E+00
 -1       637 4.81500E+01 3.96080E+01 0.00000E+00
 -1       638 5.11500E+01 3.96080E+01 0.00000E+00
 -1       639 5.41500E+01 3.96080E+01 0.00000E+00
 -1       640 5.71500E+01 3.96080E+01 0.00000E+00
 -1       641 6.01500E+01 3.96080E+01 0.00000E+00
 -1       642 6.31500E+01 3.96080E+01 0.00000E+00
 -1       643 6.61500E+01 3.96080E+01 0.00000E+00
 -1       644 6.91500E+01 3.96080E+01 0.00000E+00
 -1       645 7.21500E+01 3.96080E+01 0.00000E+00
 -1       646 7.51500E+01 3.96080E+01 0.00000E+00
 -1       647 7.81500E+01 3.96080E+01 0.00000E+00
 -1       648 8.11500E+01 3.96080E+01 0.00000E+00
 -1       649 8.41500E+01 3.96080E+01 0.00000E+00
 -1       650 8.71500E+01 3.96080E+01 0.00000E+00
 -1       651 9.01500E+01 3.96080E+01 0.00000E+00
 -1       652 9.31500E+01 3.96080E+01 0.00000E+00
 -1       653 9.61500E+01 3.96080E+01 0.00000E+00
 -1       654 9.91500E+01 3.96080E+01 0.00000E+00
 -1       655 1.02150E+02 3.96080E+01 0.00000E+00
 -1       656 1.05150E+02 3.96080E+01 0.00000E+00
 -1       657 1.08150E+02 3.96080E+01 0.00000E+00
 -1       658 1.11150E+02 3.96080E+01 0.00000E+00
 -1       659 1.14150E+02 3.96080E+01 0.00000E+00
 -1       660 1.17150E+02 3.96080E+01 0.00000E+00
 -1       661 1.20150E+02 3.96080E+01 0.00000E+00
 -1       662 1.23150E+02 3.96080E+01 0.00000E+00
 -1       663 1.26150E+02 3.96080E+01 0.00000E+00
 -1       664 1.29150E+02 3.96080E+01 0.00000E+00
 -1       665 1.32150E+02 3.96080E+01 0.00000E+00
 -1       666 1.35150E+02 3.96080E+01 0.00000E+00
 -1       667 1.38150E+02 3.96080E+01 0.00000E+00
 -1       668 2.35350E+01 9.20225E+00 0.00000E+00
 -1       669 9.02788E+01 3.67076E+01 0.00000E+00
 -1       670 2.05350E+01 9.20225E+00 0.00000E+00
 -1       671 2.95350E+01 9.20225E+00 0.00000E+00
 -1       672 3.25350E+01 9.20225E+00 0.00000E+00
 -1       673 3.55350E+01 9.20225E+00 0.00000E+00
 -1       674 3.85350E+01 9.20225E+00 0.00000E+00
 -1       675 4.15350E+01 9.20225E+00 0.00000E+00
 -1       676 4.45350E+01 9.20225E+00 0.00000E+00
 -1       677 4.75350E+01 9.20225E+00 0.00000E+00
 -1       678 5.05350E+01 9.20225E+00 0.00000E+00
 -1       679 5.35350E+01 9.20225E+00 0.00000E+00
 -1       680 5.65350E+01 9.20225E+00 0.00000E+00
 -1       681 5.95350E+01 9.20225E+00 0.00000E+00
 -1       682 6.25350E+01 9.20225E+00 0.00000E+00
 -1       683 6.55350E+01 9.20225E+00 0.00000E+00
 -1       684 6.85350E+01 9.20225E+00 0.00000E+00
 -1       685 7.15350E+01 9.20225E+00 0.00000E+00
 -1       686 7.45350E+01 9.20225E+00 0.00000E+00
 -1       687 7.75350E+01 9.20225E+00 0.00000E+00
 -1       688 8.05350E+01 9.20225E+00 0.00000E+00
 -1       689 8.35350E+01 9.20225E+00 0.00000E+00
 -1       690 8.65350E+01 9.20225E+00 0.00000E+00
 -1       691 8.95350E+01 9.20225E+00 0.00000E+00
 -1       692 9.25350E+01 9.20225E+00 0.00000E+00
 -1       693 9.55350E+01 9.20225E+00 0.00000E+00
 -1       694 9.85350E+01 9.20225E+00 0.00000E+00
 -1       695 1.01535E+02 9.20225E+00 0.00000E+00
 -1       696 1.04535E+02 9.20225E+00 0.00000E+00
 -1       697 1.07535E+02 9.20225E+00 0.00000E+00
 -1       698 1.10535E+02 9.20225E+00 0.00000E+00
 -1       699 1.13535E+02 9.20225E+00 0.00000E+00
 -1       700 1.16535E+02 9.20225E+00 0.00000E+00
 -1       701 1.19535E+02 9.20225E+00 0.00000E+00
 -1       702 1.22535E+02 9.20225E+00 0.00000E+00
 -1       703 1.25535E+02 9.20225E+00 0.00000E+00
 -1       704 1.28535E+02 9.20225E+00 0.00000E+00
 -1       705 1.31535E+02 9.20225E+00 0.00000E+00
 -1       706 1.34535E+02 9.20225E+00 0.00000E+00
 -1       707 1.37535E+02 9.20225E+00 0.00000E+00
 -1       708 1.39870E+02 9.76363E+00 0.00000E+00
 -1       709 1.39608E+02 2.35500E+01 0.00000E+00
 -1       710 1.40178E+02 3.96665E+01 0.00000E+00
 -1       711 1.39608E+02 1.76500E+01 0.00000E+00
 -1       712 1.39608E+02 2.65000E+01 0.00000E+00
 -1       713 1.39608E+02 2.06000E+01 0.00000E+00
 -1       714 9.53141E+01 1.74648E+01 0.00000E+00
 -1       715 1.39608E+02 2.94000E+01 0.00000E+00
 -1       716 1.39608E+02 3.23500E+01 0.00000E+00
 -1       717 1.39608E+02 3.53000E+01 0.00000E+00
 -1       718 9.64131E+01 1.99443E+01 0.00000E+00
 -1       719 1.75350E+01 9.20225E+00 0.00000E+00
 -1       720 9.71809E+01 2.49792E+01 0.00000E+00
 -1       721 9.78035E+00 3.93914E+01 0.00000E+00
 -1       722 8.51451E+01 3.78519E+01 0.00000E+00
 -1       723 7.14550E+01 2.30979E+01 0.00000E+00
 -1       724 7.50406E+01 1.55586E+01 0.00000E+00
 -1       725 2.65350E+01 9.20225E+00 0.00000E+00
 -1       726 1.24652E+01 3.94997E+01 0.00000E+00
 -1       727 1.45350E+01 9.20225E+00 0.00000E+00
 -1       728 8.88112E+01 1.24295E+01 0.00000E+00
 -1       729 8.75279E+01 3.75019E+01 0.00000E+00
 -1       730 9.37834E+01 1.56112E+01 0.00000E+00
 -1       731 1.03920E+01 1.76125E+01 0.00000E+00
 -1       732 1.03920E+01 3.23250E+01 0.00000E+00
 -1       733 7.68553E+01 1.34529E+01 0.00000E+00
 -1       734 8.55386E+01 1.17375E+01 0.00000E+00
 -1       735 7.24092E+01 2.03084E+01 0.00000E+00
 -1       736 7.16069E+01 2.61281E+01 0.00000E+00
 -1       737 7.17356E+01 2.82452E+01 0.00000E+00
 -1       738 7.70033E+01 3.54100E+01 0.00000E+00
 -1       739 8.28791E+01 1.18530E+01 0.00000E+00
 -1       740 9.69780E+01 2.24555E+01 0.00000E+00
 -1       741 9.26090E+01 3.49037E+01 0.00000E+00
 -1       742 9.45005E+01 3.28704E+01 0.00000E+00
 -1       743 1.03920E+01 3.52625E+01 0.00000E+00
 -1       744 1.03920E+01 2.64500E+01 0.00000E+00
 -1       745 9.82604E+01 2.67171E+01 0.00000E+00
 -1       746 9.36535E+01 1.30486E+01 0.00000E+00
 -1       747 1.39608E+02 1.47250E+01 0.00000E+00
 -1       748 1.39739E+02 1.22443E+01 0.00000E+00
 -1       749 7.12337E+01 3.02548E+01 0.00000E+00
 -1       750 8.07913E+01 3.75838E+01 0.00000E+00
 -1       751 7.31191E+01 3.28656E+01 0.00000E+00
 -1       752 7.00838E+01 2.45663E+01 0.00000E+00
 -1       753 7.05318E+01 2.14196E+01 0.00000E+00
 -1       754 1.03920E+01 2.93875E+01 0.00000E+00
 -1       755 1.38879E+02 3.74540E+01 0.00000E+00
 -1       756 1.29900E+01 1.32000E+01 0.00000E+00
 -1       757 1.96500E+01 3.70100E+01 0.00000E+00
 -1       758 2.26500E+01 3.70100E+01 0.00000E+00
 -1       759 2.56500E+01 3.70100E+01 0.00000E+00
 -1       760 2.86500E+01 3.70100E+01 0.00000E+00
 -1       761 3.16500E+01 3.70100E+01 0.00000E+00
 -1       762 3.46500E+01 3.70100E+01 0.00000E+00
 -1       763 3.76500E+01 3.70100E+01 0.00000E+00
 -1       764 4.06500E+01 3.70100E+01 0.00000E+00
 -1       765 4.36500E+01 3.70100E+01 0.00000E+00
 -1       766 4.66500E+01 3.70100E+01 0.00000E+00
 -1       767 4.96500E+01 3.70100E+01 0.00000E+00
 -1       768 5.26500E+01 3.70100E+01 0.00000E+00
 -1       769 5.56500E+01 3.70100E+01 0.00000E+00
 -1       770 5.86500E+01 3.70100E+01 0.00000E+00
 -1       771 6.16500E+01 3.70100E+01 0.00000E+00
 -1       772 6.46500E+01 3.70100E+01 0.00000E+00
 -1       773 6.76500E+01 3.70100E+01 0.00000E+00
 -1       774 7.06500E+01 3.70100E+01 0.00000E+00
 -1       775 7.36500E+01 3.70100E+01 0.00000E+00
 -1       776 9.46500E+01 3.70100E+01 0.00000E+00
 -1       777 9.76500E+01 3.70100E+01 0.00000E+00
 -1       778 1.00650E+02 3.70100E+01 0.00000E+00
 -1       779 1.03650E+02 3.70100E+01 0.00000E+00
 -1       780 1.06650E+02 3.70100E+01 0.00000E+00
 -1       781 1.09650E+02 3.70100E+01 0.00000E+00
 -1       782 1.12650E+02 3.70100E+01 0.00000E+00
 -1       783 1.15650E+02 3.70100E+01 0.00000E+00
 -1       784 1.18650E+02 3.70100E+01 0.00000E+00
 -1       785 1.21650E+02 3.70100E+01 0.00000E+00
 -1       786 1.24650E+02 3.70100E+01 0.00000E+00
 -1       787 1.27650E+02 3.70100E+01 0.00000E+00
 -1       788 1.30650E+02 3.70100E+01 0.00000E+00
 -1       789 1.33650E+02 3.70100E+01 0.00000E+00
 -1       790 1.36264E+02 3.72320E+01 0.00000E+00
 -1       791 3.40350E+01 1.18003E+01 0.00000E+00
 -1       792 3.10350E+01 1.18003E+01 0.00000E+00
 -1       793 4.00350E+01 1.18003E+01 0.00000E+00
 -1       794 4.30350E+01 1.18003E+01 0.00000E+00
 -1       795 4.60350E+01 1.18003E+01 0.00000E+00
 -1       796 4.90350E+01 1.18003E+01 0.00000E+00
 -1       797 5.20350E+01 1.18003E+01 0.00000E+00
 -1       798 5.50350E+01 1.18003E+01 0.00000E+00
 -1       799 5.80350E+01 1.18003E+01 0.00000E+00
 -1       800 6.10350E+01 1.18003E+01 0.00000E+00
 -1       801 6.40350E+01 1.18003E+01 0.00000E+00
 -1       802 6.70350E+01 1.18003E+01 0.00000E+00
 -1       803 7.00350E+01 1.18003E+01 0.00000E+00
 -1       804 7.30350E+01 1.18003E+01 0.00000E+00
 -1       805 1.00035E+02 1.18003E+01 0.00000E+00
 -1       806 1.03035E+02 1.18003E+01 0.00000E+00
 -1       807 1.06035E+02 1.18003E+01 0.00000E+00
 -1       808 1.09035E+02 1.18003E+01 0.00000E+00
 -1       809 1.12035E+02 1.18003E+01 0.00000E+00
 -1       810 1.15035E+02 1.18003E+01 0.00000E+00
 -1       811 1.18035E+02 1.18003E+01 0.00000E+00
 -1       812 1.21035E+02 1.18003E+01 0.00000E+00
 -1       813 1.24035E+02 1.18003E+01 0.00000E+00
 -1       814 1.27035E+02 1.18003E+01 0.00000E+00
 -1       815 1.30035E+02 1.18003E+01 0.00000E+00
 -1       816 1.33035E+02 1.18003E+01 0.00000E+00
 -1       817 1.36035E+02 1.18003E+01 0.00000E+00
 -1       818 1.37887E+02 1.20223E+01 0.00000E+00
 -1       819 1.29900E+01 2.20250E+01 0.00000E+00
 -1       820 1.37010E+02 2.50250E+01 0.00000E+00
 -1       821 1.37010E+02 3.38250E+01 0.00000E+00
 -1       822 1.37010E+02 2.79250E+01 0.00000E+00
 -1       823 8.31664E+01 3.80766E+01 0.00000E+00
 -1       824 1.90350E+01 1.18003E+01 0.00000E+00
 -1       825 1.37010E+02 3.08750E+01 0.00000E+00
 -1       826 9.84137E+01 2.94820E+01 0.00000E+00
 -1       827 3.70350E+01 1.18003E+01 0.00000E+00
 -1       828 2.20350E+01 1.18003E+01 0.00000E+00
 -1       829 7.24242E+01 1.60561E+01 0.00000E+00
 -1       830 7.09380E+01 1.80884E+01 0.00000E+00
 -1       831 1.37625E+01 1.12011E+01 0.00000E+00
 -1       832 1.66500E+01 3.70100E+01 0.00000E+00
 -1       833 9.63880E+01 1.50191E+01 0.00000E+00
 -1       834 9.50559E+01 3.52835E+01 0.00000E+00
 -1       835 9.94572E+01 2.35262E+01 0.00000E+00
 -1       836 6.99593E+01 2.72908E+01 0.00000E+00
 -1       837 9.78912E+01 1.78058E+01 0.00000E+00
 -1       838 9.86959E+01 2.07500E+01 0.00000E+00
 -1       839 9.71213E+01 3.30647E+01 0.00000E+00
 -1       840 1.29900E+01 2.49750E+01 0.00000E+00
 -1       841 1.00537E+02 2.52641E+01 0.00000E+00
 -1       842 1.29900E+01 3.37938E+01 0.00000E+00
 -1       843 1.37010E+02 1.61875E+01 0.00000E+00
 -1       844 1.39652E+01 3.69017E+01 0.00000E+00
 -1       845 2.80350E+01 1.18003E+01 0.00000E+00
 -1       846 9.70350E+01 1.18003E+01 0.00000E+00
 -1       847 1.29900E+01 1.90875E+01 0.00000E+00
 -1       848 1.37010E+02 1.91375E+01 0.00000E+00
 -1       849 7.12904E+01 3.20336E+01 0.00000E+00
 -1       850 1.29900E+01 1.61375E+01 0.00000E+00
 -1       851 9.93502E+01 3.19375E+01 0.00000E+00
 -1       852 1.37010E+02 2.20812E+01 0.00000E+00
 -1       853 1.29900E+01 3.08563E+01 0.00000E+00
 -1       854 6.91605E+01 2.28880E+01 0.00000E+00
 -1       855 1.36637E+02 3.55285E+01 0.00000E+00
 -1       856 2.50350E+01 1.18003E+01 0.00000E+00
 -1       857 6.94573E+01 2.93004E+01 0.00000E+00
 -1       858 1.63988E+01 1.15007E+01 0.00000E+00
 -1       859 2.41500E+01 3.44120E+01 0.00000E+00
 -1       860 2.71500E+01 3.44120E+01 0.00000E+00
 -1       861 3.01500E+01 3.44120E+01 0.00000E+00
 -1       862 3.31500E+01 3.44120E+01 0.00000E+00
 -1       863 3.61500E+01 3.44120E+01 0.00000E+00
 -1       864 3.91500E+01 3.44120E+01 0.00000E+00
 -1       865 4.21500E+01 3.44120E+01 0.00000E+00
 -1       866 4.51500E+01 3.44120E+01 0.00000E+00
 -1       867 4.81500E+01 3.44120E+01 0.00000E+00
 -1       868 5.11500E+01 3.44120E+01 0.00000E+00
 -1       869 5.41500E+01 3.44120E+01 0.00000E+00
 -1       870 5.71500E+01 3.44120E+01 0.00000E+00
 -1       871 6.01500E+01 3.44120E+01 0.00000E+00
 -1       872 6.31500E+01 3.44120E+01 0.00000E+00
 -1       873 6.61500E+01 3.44120E+01 0.00000E+00
 -1       874 6.91500E+01 3.44120E+01 0.00000E+00
 -1       875 1.01215E+02 2.15515E+01 0.00000E+00
 -1       876 2.05350E+01 1.43982E+01 0.00000E+00
 -1       877 9.91500E+01 3.44120E+01 0.00000E+00
 -1       878 1.02150E+02 3.44120E+01 0.00000E+00
 -1       879 1.05150E+02 3.44120E+01 0.00000E+00
 -1       880 1.08150E+02 3.44120E+01 0.00000E+00
 -1       881 1.11150E+02 3.44120E+01 0.00000E+00
 -1       882 1.14150E+02 3.44120E+01 0.00000E+00
 -1       883 1.17150E+02 3.44120E+01 0.00000E+00
 -1       884 1.20150E+02 3.44120E+01 0.00000E+00
 -1       885 1.23150E+02 3.44120E+01 0.00000E+00
 -1       886 1.26150E+02 3.44120E+01 0.00000E+00
 -1       887 1.29150E+02 3.44120E+01 0.00000E+00
 -1       888 1.32150E+02 3.44120E+01 0.00000E+00
 -1       889 3.25350E+01 1.43982E+01 0.00000E+00
 -1       890 1.07535E+02 1.43982E+01 0.00000E+00
 -1       891 4.45350E+01 1.43982E+01 0.00000E+00
 -1       892 4.15350E+01 1.43982E+01 0.00000E+00
 -1       893 5.05350E+01 1.43982E+01 0.00000E+00
 -1       894 5.35350E+01 1.43982E+01 0.00000E+00
 -1       895 5.65350E+01 1.43982E+01 0.00000E+00
 -1       896 5.95350E+01 1.43982E+01 0.00000E+00
 -1       897 6.25350E+01 1.43982E+01 0.00000E+00
 -1       898 6.55350E+01 1.43982E+01 0.00000E+00
 -1       899 6.85350E+01 1.43982E+01 0.00000E+00
 -1       900 1.01535E+02 1.43982E+01 0.00000E+00
 -1       901 1.10535E+02 1.43982E+01 0.00000E+00
 -1       902 1.13535E+02 1.43982E+01 0.00000E+00
 -1       903 1.16535E+02 1.43982E+01 0.00000E+00
 -1       904 1.19535E+02 1.43982E+01 0.00000E+00
 -1       905 1.22535E+02 1.43982E+01 0.00000E+00
 -1       906 1.25535E+02 1.43982E+01 0.00000E+00
 -1       907 1.28535E+02 1.43982E+01 0.00000E+00
 -1       908 1.31535E+02 1.43982E+01 0.00000E+00
 -1       909 1.34535E+02 1.43982E+01 0.00000E+00
 -1       910 1.04535E+02 1.43982E+01 0.00000E+00
 -1       911 1.37449E+02 1.41049E+01 0.00000E+00
 -1       912 1.34412E+02 2.64750E+01 0.00000E+00
 -1       913 1.00595E+02 1.86490E+01 0.00000E+00
 -1       914 1.00690E+02 2.80291E+01 0.00000E+00
 -1       915 4.75350E+01 1.43982E+01 0.00000E+00
 -1       916 1.81500E+01 3.44120E+01 0.00000E+00
 -1       917 1.29900E+01 2.79188E+01 0.00000E+00
 -1       918 6.78060E+01 2.58273E+01 0.00000E+00
 -1       919 6.85334E+01 1.94855E+01 0.00000E+00
 -1       920 9.94262E+01 1.51791E+01 0.00000E+00
 -1       921 2.11500E+01 3.44120E+01 0.00000E+00
 -1       922 1.02295E+02 2.32894E+01 0.00000E+00
 -1       923 6.95141E+01 3.10792E+01 0.00000E+00
 -1       924 1.34412E+02 2.35313E+01 0.00000E+00
 -1       925 1.55700E+01 3.41029E+01 0.00000E+00
 -1       926 1.75351E+01 1.43983E+01 0.00000E+00
 -1       927 2.95350E+01 1.43982E+01 0.00000E+00
 -1       928 3.55350E+01 1.43982E+01 0.00000E+00
 -1       929 1.34394E+02 3.49702E+01 0.00000E+00
 -1       930 6.68828E+01 2.41491E+01 0.00000E+00
 -1       931 3.85350E+01 1.43982E+01 0.00000E+00
 -1       932 1.55880E+01 2.05562E+01 0.00000E+00
 -1       933 1.34412E+02 2.94250E+01 0.00000E+00
 -1       934 1.55880E+01 1.46687E+01 0.00000E+00
 -1       935 1.01626E+02 3.04845E+01 0.00000E+00
 -1       936 1.34535E+02 1.73482E+01 0.00000E+00
 -1       937 1.55700E+01 3.11654E+01 0.00000E+00
 -1       938 6.70342E+01 1.69419E+01 0.00000E+00
 -1       939 1.55880E+01 2.35063E+01 0.00000E+00
 -1       940 6.71621E+01 2.09539E+01 0.00000E+00
 -1       941 2.35350E+01 1.43982E+01 0.00000E+00
 -1       942 6.73040E+01 2.78369E+01 0.00000E+00
 -1       943 1.34580E+02 3.26435E+01 0.00000E+00
 -1       944 2.86500E+01 3.18140E+01 0.00000E+00
 -1       945 3.16500E+01 3.18140E+01 0.00000E+00
 -1       946 3.46500E+01 3.18140E+01 0.00000E+00
 -1       947 3.76500E+01 3.18140E+01 0.00000E+00
 -1       948 4.06500E+01 3.18140E+01 0.00000E+00
 -1       949 4.36500E+01 3.18140E+01 0.00000E+00
 -1       950 4.66500E+01 3.18140E+01 0.00000E+00
 -1       951 4.96500E+01 3.18140E+01 0.00000E+00
 -1       952 5.26500E+01 3.18140E+01 0.00000E+00
 -1       953 5.56500E+01 3.18140E+01 0.00000E+00
 -1       954 5.86500E+01 3.18140E+01 0.00000E+00
 -1       955 6.16500E+01 3.18140E+01 0.00000E+00
 -1       956 6.46500E+01 3.18140E+01 0.00000E+00
 -1       957 1.96500E+01 3.18140E+01 0.00000E+00
 -1       958 1.90351E+01 1.69963E+01 0.00000E+00
 -1       959 1.06035E+02 1.69963E+01 0.00000E+00
 -1       960 1.03650E+02 3.18140E+01 0.00000E+00
 -1       961 1.06650E+02 3.18140E+01 0.00000E+00
 -1       962 1.09650E+02 3.18140E+01 0.00000E+00
 -1       963 1.12650E+02 3.18140E+01 0.00000E+00
 -1       964 1.15650E+02 3.18140E+01 0.00000E+00
 -1       965 1.18650E+02 3.18140E+01 0.00000E+00
 -1       966 1.21650E+02 3.18140E+01 0.00000E+00
 -1       967 1.24650E+02 3.18140E+01 0.00000E+00
 -1       968 1.27650E+02 3.18140E+01 0.00000E+00
 -1       969 1.30650E+02 3.18140E+01 0.00000E+00
 -1       970 2.26500E+01 3.18140E+01 0.00000E+00
 -1       971 5.50350E+01 1.69963E+01 0.00000E+00
 -1       972 5.20350E+01 1.69963E+01 0.00000E+00
 -1       973 6.10350E+01 1.69963E+01 0.00000E+00
 -1       974 6.40350E+01 1.69963E+01 0.00000E+00
 -1       975 1.03445E+02 1.95569E+01 0.00000E+00
 -1       976 1.15035E+02 1.69963E+01 0.00000E+00
 -1       977 1.09035E+02 1.69963E+01 0.00000E+00
 -1       978 1.18035E+02 1.69963E+01 0.00000E+00
 -1       979 1.21035E+02 1.69963E+01 0.00000E+00
 -1       980 1.24035E+02 1.69963E+01 0.00000E+00
 -1       981 1.27035E+02 1.69963E+01 0.00000E+00
 -1       982 1.30035E+02 1.69963E+01 0.00000E+00
 -1       983 1.32285E+02 1.71723E+01 0.00000E+00
 -1       984 1.02490E+02 1.69776E+01 0.00000E+00
 -1       985 1.76100E+01 3.14897E+01 0.00000E+00
 -1       986 1.55880E+01 2.64500E+01 0.00000E+00
 -1       987 5.80350E+01 1.69963E+01 0.00000E+00
 -1       988 1.02995E+02 2.65145E+01 0.00000E+00
 -1       989 4.30350E+01 1.69963E+01 0.00000E+00
 -1       990 2.65350E+01 1.43982E+01 0.00000E+00
 -1       991 1.70880E+01 1.72667E+01 0.00000E+00
 -1       992 1.50390E+01 1.81771E+01 0.00000E+00
 -1       993 1.12035E+02 1.69963E+01 0.00000E+00
 -1       994 1.55790E+01 2.88077E+01 0.00000E+00
 -1       995 2.56500E+01 3.18140E+01 0.00000E+00
 -1       996 1.34412E+02 2.05875E+01 0.00000E+00
 -1       997 1.04525E+02 2.12948E+01 0.00000E+00
 -1       998 1.31814E+02 2.50031E+01 0.00000E+00
 -1       999 1.03932E+02 2.89699E+01 0.00000E+00
 -1      1000 3.10350E+01 1.69963E+01 0.00000E+00
 -1      1001 6.52544E+01 2.61379E+01 0.00000E+00
 -1      1002 4.60350E+01 1.69963E+01 0.00000E+00
 -1      1003 3.40350E+01 1.69963E+01 0.00000E+00
 -1      1004 4.00350E+01 1.69963E+01 0.00000E+00
 -1      1005 1.81860E+01 2.20313E+01 0.00000E+00
 -1      1006 4.90350E+01 1.69963E+01 0.00000E+00
 -1      1007 2.20351E+01 1.69963E+01 0.00000E+00
 -1      1008 6.73608E+01 2.96157E+01 0.00000E+00
 -1      1009 1.31814E+02 2.79531E+01 0.00000E+00
 -1      1010 1.76370E+01 1.96459E+01 0.00000E+00
 -1      1011 3.31500E+01 2.92160E+01 0.00000E+00
 -1      1012 3.61500E+01 2.92160E+01 0.00000E+00
 -1      1013 3.91500E+01 2.92160E+01 0.00000E+00
 -1      1014 4.21500E+01 2.92160E+01 0.00000E+00
 -1      1015 4.51500E+01 2.92160E+01 0.00000E+00
 -1      1016 4.81500E+01 2.92160E+01 0.00000E+00
 -1      1017 5.11500E+01 2.92160E+01 0.00000E+00
 -1      1018 5.41500E+01 2.92160E+01 0.00000E+00
 -1      1019 5.71500E+01 2.92160E+01 0.00000E+00
 -1      1020 6.01500E+01 2.92160E+01 0.00000E+00
 -1      1021 6.31500E+01 2.92160E+01 0.00000E+00
 -1      1022 1.81860E+01 2.49750E+01 0.00000E+00
 -1      1023 3.70350E+01 1.69963E+01 0.00000E+00
 -1      1024 1.10535E+02 1.95942E+01 0.00000E+00
 -1      1025 1.08150E+02 2.92160E+01 0.00000E+00
 -1      1026 1.11150E+02 2.92160E+01 0.00000E+00
 -1      1027 1.14150E+02 2.92160E+01 0.00000E+00
 -1      1028 1.17150E+02 2.92160E+01 0.00000E+00
 -1      1029 1.20150E+02 2.92160E+01 0.00000E+00
 -1      1030 1.23150E+02 2.92160E+01 0.00000E+00
 -1      1031 1.26150E+02 2.92160E+01 0.00000E+00
 -1      1032 1.29150E+02 2.92160E+01 0.00000E+00
 -1      1033 5.35350E+01 1.95942E+01 0.00000E+00
 -1      1034 2.11500E+01 2.92160E+01 0.00000E+00
 -1      1035 1.31814E+02 2.20594E+01 0.00000E+00
 -1      1036 6.25350E+01 1.95942E+01 0.00000E+00
 -1      1037 1.13535E+02 1.95942E+01 0.00000E+00
 -1      1038 1.07535E+02 1.95942E+01 0.00000E+00
 -1      1039 3.01500E+01 2.92160E+01 0.00000E+00
 -1      1040 1.22535E+02 1.95942E+01 0.00000E+00
 -1      1041 1.25535E+02 1.95942E+01 0.00000E+00
 -1      1042 1.28535E+02 1.95942E+01 0.00000E+00
 -1      1043 6.48131E+01 2.23583E+01 0.00000E+00
 -1      1044 2.80350E+01 1.69963E+01 0.00000E+00
 -1      1045 5.05350E+01 1.95942E+01 0.00000E+00
 -1      1046 5.95350E+01 1.95942E+01 0.00000E+00
 -1      1047 5.65350E+01 1.95942E+01 0.00000E+00
 -1      1048 1.19535E+02 1.95942E+01 0.00000E+00
 -1      1049 6.55456E+01 1.95329E+01 0.00000E+00
 -1      1050 2.04433E+01 2.02558E+01 0.00000E+00
 -1      1051 1.32049E+02 1.96158E+01 0.00000E+00
 -1      1052 2.50350E+01 1.69963E+01 0.00000E+00
 -1      1053 6.48639E+01 2.86949E+01 0.00000E+00
 -1      1054 1.16535E+02 1.95942E+01 0.00000E+00
 -1      1055 1.05225E+02 2.45198E+01 0.00000E+00
 -1      1056 6.31847E+01 2.43472E+01 0.00000E+00
 -1      1057 1.81770E+01 2.73327E+01 0.00000E+00
 -1      1058 2.07840E+01 2.35031E+01 0.00000E+00
 -1      1059 1.29216E+02 2.64781E+01 0.00000E+00
 -1      1060 2.41500E+01 2.92160E+01 0.00000E+00
 -1      1061 4.45350E+01 1.95942E+01 0.00000E+00
 -1      1062 4.15350E+01 1.95942E+01 0.00000E+00
 -1      1063 1.29216E+02 2.35344E+01 0.00000E+00
 -1      1064 2.71500E+01 2.92160E+01 0.00000E+00
 -1      1065 2.95350E+01 1.95942E+01 0.00000E+00
 -1      1066 3.25350E+01 1.95942E+01 0.00000E+00
 -1      1067 4.75350E+01 1.95942E+01 0.00000E+00
 -1      1068 1.06688E+02 2.68679E+01 0.00000E+00
 -1      1069 2.07750E+01 2.58608E+01 0.00000E+00
 -1      1070 3.76500E+01 2.66180E+01 0.00000E+00
 -1      1071 4.06500E+01 2.66180E+01 0.00000E+00
 -1      1072 4.36500E+01 2.66180E+01 0.00000E+00
 -1      1073 4.66500E+01 2.66180E+01 0.00000E+00
 -1      1074 4.96500E+01 2.66180E+01 0.00000E+00
 -1      1075 5.26500E+01 2.66180E+01 0.00000E+00
 -1      1076 5.56500E+01 2.66180E+01 0.00000E+00
 -1      1077 5.86500E+01 2.66180E+01 0.00000E+00
 -1      1078 1.09688E+02 2.68679E+01 0.00000E+00
 -1      1079 3.16500E+01 2.66180E+01 0.00000E+00
 -1      1080 1.12688E+02 2.68679E+01 0.00000E+00
 -1      1081 1.15688E+02 2.68679E+01 0.00000E+00
 -1      1082 1.18688E+02 2.68679E+01 0.00000E+00
 -1      1083 1.21688E+02 2.68679E+01 0.00000E+00
 -1      1084 1.24688E+02 2.68679E+01 0.00000E+00
 -1      1085 1.26952E+02 2.66730E+01 0.00000E+00
 -1      1086 6.28667E+01 2.70816E+01 0.00000E+00
 -1      1087 1.12035E+02 2.21922E+01 0.00000E+00
 -1      1088 1.09035E+02 2.21922E+01 0.00000E+00
 -1      1089 4.60350E+01 2.21922E+01 0.00000E+00
 -1      1090 1.27035E+02 2.21922E+01 0.00000E+00
 -1      1091 1.24035E+02 2.21922E+01 0.00000E+00
 -1      1092 4.90350E+01 2.21922E+01 0.00000E+00
 -1      1093 5.80350E+01 2.21922E+01 0.00000E+00
 -1      1094 5.20350E+01 2.21922E+01 0.00000E+00
 -1      1095 6.10350E+01 2.21922E+01 0.00000E+00
 -1      1096 2.65350E+01 1.95943E+01 0.00000E+00
 -1      1097 3.46500E+01 2.66180E+01 0.00000E+00
 -1      1098 1.21035E+02 2.21922E+01 0.00000E+00
 -1      1099 2.34433E+01 2.02558E+01 0.00000E+00
 -1      1100 5.50350E+01 2.21922E+01 0.00000E+00
 -1      1101 6.04451E+01 2.54143E+01 0.00000E+00
 -1      1102 2.86500E+01 2.66180E+01 0.00000E+00
 -1      1103 2.41236E+01 2.35255E+01 0.00000E+00
 -1      1104 3.85350E+01 1.95942E+01 0.00000E+00
 -1      1105 4.30350E+01 2.21922E+01 0.00000E+00
 -1      1106 3.55350E+01 1.95942E+01 0.00000E+00
 -1      1107 1.18035E+02 2.21922E+01 0.00000E+00
 -1      1108 1.15035E+02 2.21922E+01 0.00000E+00
 -1      1109 2.80350E+01 2.21923E+01 0.00000E+00
 -1      1110 3.10350E+01 2.21923E+01 0.00000E+00
 -1      1111 1.09361E+02 2.45301E+01 0.00000E+00
 -1      1112 3.91500E+01 2.40200E+01 0.00000E+00
 -1      1113 5.81007E+01 2.38584E+01 0.00000E+00
 -1      1114 1.25535E+02 2.47903E+01 0.00000E+00
 -1      1115 1.14188E+02 2.42699E+01 0.00000E+00
 -1      1116 3.61500E+01 2.40200E+01 0.00000E+00
 -1      1117 2.56500E+01 2.66180E+01 0.00000E+00
 -1      1118 1.11774E+02 2.44000E+01 0.00000E+00
 -1      1119 3.31500E+01 2.40200E+01 0.00000E+00
 -1      1120 3.43425E+01 2.18071E+01 0.00000E+00
 -1      1121 0.00000E+00 4.85250E+01 0.00000E+00
 -1      1122 0.00000E+00 4.55750E+01 0.00000E+00
 -1      1123 0.00000E+00 4.26250E+01 0.00000E+00
 -1      1124 0.00000E+00 3.96750E+01 0.00000E+00
 -1      1125 0.00000E+00 3.67250E+01 0.00000E+00
 -1      1126 0.00000E+00 3.38000E+01 0.00000E+00
 -1      1127 0.00000E+00 3.08750E+01 0.00000E+00
 -1      1128 0.00000E+00 2.79250E+01 0.00000E+00
 -1      1129 0.00000E+00 2.49750E+01 0.00000E+00
 -1      1130 0.00000E+00 2.20250E+01 0.00000E+00
 -1      1131 0.00000E+00 1.90750E+01 0.00000E+00
 -1      1132 0.00000E+00 1.61500E+01 0.00000E+00
 -1      1133 0.00000E+00 1.32250E+01 0.00000E+00
 -1      1134 0.00000E+00 1.02750E+01 0.00000E+00
 -1      1135 0.00000E+00 7.32500E+00 0.00000E+00
 -1      1136 0.00000E+00 4.37500E+00 0.00000E+00
 -1      1137 0.00000E+00 1.45000E+00 0.00000E+00
 -1      1138 1.57500E+00 5.00000E+01 0.00000E+00
 -1      1139 4.65000E+00 5.00000E+01 0.00000E+00
 -1      1140 7.65000E+00 5.00000E+01 0.00000E+00
 -1      1141 1.06500E+01 5.00000E+01 0.00000E+00
 -1      1142 1.36500E+01 5.00000E+01 0.00000E+00
 -1      1143 1.66500E+01 5.00000E+01 0.00000E+00
 -1      1144 1.96500E+01 5.00000E+01 0.00000E+00
 -1      1145 2.26500E+01 5.00000E+01 0.00000E+00
 -1      1146 2.56500E+01 5.00000E+01 0.00000E+00
 -1      1147 2.86500E+01 5.00000E+01 0.00000E+00
 -1      1148 3.16500E+01 5.00000E+01 0.00000E+00
 -1      1149 3.46500E+01 5.00000E+01 0.00000E+00
 -1      1150 3.76500E+01 5.00000E+01 0.00000E+00
 -1      1151 4.06500E+01 5.00000E+01 0.00000E+00
 -1      1152 4.36500E+01 5.00000E+01 0.00000E+00
 -1      1153 4.66500E+01 5.00000E+01 0.00000E+00
 -1      1154 4.96500E+01 5.00000E+01 0.00000E+00
 -1      1155 5.26500E+01 5.00000E+01 0.00000E+00
 -1      1156 5.56500E+01 5.00000E+01 0.00000E+00
 -1      1157 5.86500E+01 5.00000E+01 0.00000E+00
 -1      1158 6.16500E+01 5.00000E+01 0.00000E+00
 -1      1159 6.46500E+01 5.00000E+01 0.00000E+00
 -1      1160 6.76500E+01 5.00000E+01 0.00000E+00
 -1      1161 7.06500E+01 5.00000E+01 0.00000E+00
 -1      1162 7.36500E+01 5.00000E+01 0.00000E+00
 -1      1163 7.66500E+01 5.00000E+01 0.00000E+00
 -1      1164 7.96500E+01 5.00000E+01 0.00000E+00
 -1      1165 8.26500E+01 5.00000E+01 0.00000E+00
 -1      1166 8.56500E+01 5.00000E+01 0.00000E+00
 -1      1167 8.86500E+01 5.00000E+01 0.00000E+00
 -1      1168 9.16500E+01 5.00000E+01 0.00000E+00
 -1      1169 9.46500E+01 5.00000E+01 0.00000E+00
 -1      1170 9.76500E+01 5.00000E+01 0.00000E+00
 -1      1171 1.00650E+02 5.00000E+01 0.00000E+00
 -1      1172 1.03650E+02 5.00000E+01 0.00000E+00
 -1      1173 1.06650E+02 5.00000E+01 0.00000E+00
 -1      1174 1.09650E+02 5.00000E+01 0.00000E+00
 -1      1175 1.12650E+02 5.00000E+01 0.00000E+00
 -1      1176 1.15650E+02 5.00000E+01 0.00000E+00
 -1      1177 1.18650E+02 5.00000E+01 0.00000E+00
 -1      1178 1.21650E+02 5.00000E+01 0.00000E+00
 -1      1179 1.24650E+02 5.00000E+01 0.00000E+00
 -1      1180 1.27650E+02 5.00000E+01 0.00000E+00
 -1      1181 1.30650E+02 5.00000E+01 0.00000E+00
 -1      1182 1.33650E+02 5.00000E+01 0.00000E+00
 -1      1183 1.36650E+02 5.00000E+01 0.00000E+00
 -1      1184 1.39650E+02 5.00000E+01 0.00000E+00
 -1      1185 1.42650E+02 5.00000E+01 0.00000E+00
 -1      1186 1.45650E+02 5.00000E+01 0.00000E+00
 -1      1187 1.48575E+02 5.00000E+01 0.00000E+00
 -1      1188 1.57500E+00 0.00000E+00 0.00000E+00
 -1      1189 4.65000E+00 0.00000E+00 0.00000E+00
 -1      1190 7.65000E+00 0.00000E+00 0.00000E+00
 -1      1191 1.06500E+01 0.00000E+00 0.00000E+00
 -1      1192 1.36500E+01 0.00000E+00 0.00000E+00
 -1      1193 1.66500E+01 0.00000E+00 0.00000E+00
 -1      1194 1.96500E+01 0.00000E+00 0.00000E+00
 -1      1195 2.26500E+01 0.00000E+00 0.00000E+00
 -1      1196 2.56500E+01 0.00000E+00 0.00000E+00
 -1      1197 2.86500E+01 0.00000E+00 0.00000E+00
 -1      1198 3.16500E+01 0.00000E+00 0.00000E+00
 -1      1199 3.46500E+01 0.00000E+00 0.00000E+00
 -1      1200 3.76500E+01 0.00000E+00 0.00000E+00
 -1      1201 4.06500E+01 0.00000E+00 0.00000E+00
 -1      1202 4.36500E+01 0.00000E+00 0.00000E+00
 -1      1203 4.66500E+01 0.00000E+00 0.00000E+00
 -1      1204 4.96500E+01 0.00000E+00 0.00000E+00
 -1      1205 5.26500E+01 0.00000E+00 0.00000E+00
 -1      1206 5.56500E+01 0.00000E+00 0.00000E+00
 -1      1207 5.86500E+01 0.00000E+00 0.00000E+00
 -1      1208 6.16500E+01 0.00000E+00 0.00000E+00
 -1      1209 6.46500E+01 0.00000E+00 0.00000E+00
 -1      1210 6.76500E+01 0.00000E+00 0.00000E+00
 -1      1211 7.06500E+01 0.00000E+00 0.00000E+00
 -1      1212 7.36500E+01 0.00000E+00 0.00000E+00
 -1      1213 7.66500E+01 0.00000E+00 0.00000E+00
 -1      1214 7.96500E+01 0.00000E+00 0.00000E+00
 -1      1215 8.26500E+01 0.00000E+00 0.00000E+00
 -1      1216 8.56500E+01 0.00000E+00 0.00000E+00
 -1      1217 8.86500E+01 0.00000E+00 0.00000E+00
 -1      1218 9.16500E+01 0.00000E+00 0.00000E+00
 -1      1219 9.46500E+01 0.00000E+00 0.00000E+00
 -1      1220 9.76500E+01 0.00000E+00 0.00000E+00
 -1      1221 1.00650E+02 0.00000E+00 0.00000E+00
 -1      1222 1.03650E+02 0.00000E+00 0.00000E+00
 -1      1223 1.06650E+02 0.00000E+00 0.00000E+00
 -1      1224 1.09650E+02 0.00000E+00 0.00000E+00
 -1      1225 1.12650E+02 0.00000E+00 0.00000E+00
 -1      1226 1.15650E+02 0.00000E+00 0.00000E+00
 -1      1227 1.18650E+02 0.00000E+00 0.00000E+00
 -1      1228 1.21650E+02 0.00000E+00 0.00000E+00
 -1      1229 1.24650E+02 0.00000E+00 0.00000E+00
 -1      1230 1.27650E+02 0.00000E+00 0.00000E+00
 -1      1231 1.30650E+02 0.00000E+00 0.00000E+00
 -1      1232 1.33650E+02 0.00000E+00 0.00000E+00
 -1      1233 1.36650E+02 0.00000E+00 0.00000E+00
 -1      1234 1.39650E+02 0.00000E+00 0.00000E+00
 -1      1235 1.42650E+02 0.00000E+00 0.00000E+00
 -1      1236 1.45650E+02 0.00000E+00 0.00000E+00
 -1      1237 1.48575E+02 0.00000E+00 0.00000E+00
 -1      1238 1.50000E+02 1.47500E+00 0.00000E+00
 -1      1239 1.50000E+02 4.42500E+00 0.00000E+00
 -1      1240 1.50000E+02 7.37500E+00 0.00000E+00
 -1      1241 1.50000E+02 1.03250E+01 0.00000E+00
 -1      1242 1.50000E+02 1.32750E+01 0.00000E+00
 -1      1243 1.50000E+02 1.62000E+01 0.00000E+00
 -1      1244 1.50000E+02 1.91250E+01 0.00000E+00
 -1      1245 1.50000E+02 2.20750E+01 0.00000E+00
 -1      1246 1.50000E+02 2.50250E+01 0.00000E+00
 -1      1247 1.50000E+02 2.79750E+01 0.00000E+00
 -1      1248 1.50000E+02 3.09250E+01 0.00000E+00
 -1      1249 1.50000E+02 3.38500E+01 0.00000E+00
 -1      1250 1.50000E+02 3.67750E+01 0.00000E+00
 -1      1251 1.50000E+02 3.97250E+01 0.00000E+00
 -1      1252 1.50000E+02 4.26750E+01 0.00000E+00
 -1      1253 1.50000E+02 4.56250E+01 0.00000E+00
 -1      1254 1.50000E+02 4.85500E+01 0.00000E+00
 -1      1255 9.13155E+01 2.43791E+01 0.00000E+00
 -1      1256 9.10176E+01 2.29657E+01 0.00000E+00
 -1      1257 9.04279E+01 2.16293E+01 0.00000E+00
 -1      1258 8.95551E+01 2.04238E+01 0.00000E+00
 -1      1259 8.84906E+01 1.94615E+01 0.00000E+00
 -1      1260 8.72187E+01 1.87214E+01 0.00000E+00
 -1      1261 8.57865E+01 1.82564E+01 0.00000E+00
 -1      1262 8.42870E+01 1.81085E+01 0.00000E+00
 -1      1263 8.27372E+01 1.82973E+01 0.00000E+00
 -1      1264 8.13082E+01 1.88053E+01 0.00000E+00
 -1      1265 8.00832E+01 1.95616E+01 0.00000E+00
 -1      1266 7.89879E+01 2.06127E+01 0.00000E+00
 -1      1267 7.81426E+01 2.18795E+01 0.00000E+00
 -1      1268 7.76033E+01 2.32550E+01 0.00000E+00
 -1      1269 7.73608E+01 2.47896E+01 0.00000E+00
 -1      1270 7.74539E+01 2.62893E+01 0.00000E+00
 -1      1271 7.78588E+01 2.77193E+01 0.00000E+00
 -1      1272 7.86084E+01 2.91073E+01 0.00000E+00
 -1      1273 7.96493E+01 3.02918E+01 0.00000E+00
 -1      1274 8.08504E+01 3.11685E+01 0.00000E+00
 -1      1275 8.22661E+01 3.17897E+01 0.00000E+00
 -1      1276 8.38039E+01 3.20866E+01 0.00000E+00
 -1      1277 8.53213E+01 3.20410E+01 0.00000E+00
 -1      1278 8.68134E+01 3.16617E+01 0.00000E+00
 -1      1279 8.81997E+01 3.09569E+01 0.00000E+00
 -1      1280 8.94048E+01 2.99543E+01 0.00000E+00
 -1      1281 9.03343E+01 2.87456E+01 0.00000E+00
 -1      1282 9.09836E+01 2.73535E+01 0.00000E+00
 -1      1283 9.13134E+01 2.58564E+01 0.00000E+00
 -1      1284 1.57500E+00 4.85250E+01 0.00000E+00
 -1      1285 1.29900E+00 4.48375E+01 0.00000E+00
 -1      1286 1.29900E+00 4.63125E+01 0.00000E+00
 -1      1287 1.29900E+00 4.18875E+01 0.00000E+00
 -1      1288 1.29900E+00 4.33625E+01 0.00000E+00
 -1      1289 2.59800E+00 4.41000E+01 0.00000E+00
 -1      1290 1.29900E+00 3.89375E+01 0.00000E+00
 -1      1291 1.29900E+00 4.04125E+01 0.00000E+00
 -1      1292 2.59800E+00 4.11500E+01 0.00000E+00
 -1      1293 1.29900E+00 3.59875E+01 0.00000E+00
 -1      1294 1.29900E+00 3.74625E+01 0.00000E+00
 -1      1295 2.59800E+00 3.82000E+01 0.00000E+00
 -1      1296 1.29900E+00 3.30875E+01 0.00000E+00
 -1      1297 1.29900E+00 3.45375E+01 0.00000E+00
 -1      1298 2.59800E+00 3.52750E+01 0.00000E+00
 -1      1299 1.29900E+00 3.01375E+01 0.00000E+00
 -1      1300 1.29900E+00 3.16125E+01 0.00000E+00
 -1      1301 2.59800E+00 3.23500E+01 0.00000E+00
 -1      1302 1.29900E+00 2.71875E+01 0.00000E+00
 -1      1303 1.29900E+00 2.86625E+01 0.00000E+00
 -1      1304 2.59800E+00 2.94000E+01 0.00000E+00
 -1      1305 1.29900E+00 2.42375E+01 0.00000E+00
 -1      1306 1.29900E+00 2.57125E+01 0.00000E+00
 -1      1307 2.59800E+00 2.64500E+01 0.00000E+00
 -1      1308 1.29900E+00 2.12875E+01 0.00000E+00
 -1      1309 1.29900E+00 2.27625E+01 0.00000E+00
 -1      1310 2.59800E+00 2.35000E+01 0.00000E+00
 -1      1311 1.29900E+00 1.83375E+01 0.00000E+00
 -1      1312 1.29900E+00 1.98125E+01 0.00000E+00
 -1      1313 2.59800E+00 2.05500E+01 0.00000E+00
 -1      1314 1.29900E+00 1.54375E+01 0.00000E+00
 -1      1315 1.29900E+00 1.68875E+01 0.00000E+00
 -1      1316 2.59800E+00 1.76250E+01 0.00000E+00
 -1      1317 1.29900E+00 1.24875E+01 0.00000E+00
 -1      1318 1.29900E+00 1.39625E+01 0.00000E+00
 -1      1319 2.59800E+00 1.47000E+01 0.00000E+00
 -1      1320 1.29900E+00 9.53750E+00 0.00000E+00
 -1      1321 1.29900E+00 1.10125E+01 0.00000E+00
 -1      1322 2.59800E+00 1.17500E+01 0.00000E+00
 -1      1323 1.29900E+00 6.58750E+00 0.00000E+00
 -1      1324 1.29900E+00 8.06250E+00 0.00000E+00
 -1      1325 2.59800E+00 8.80000E+00 0.00000E+00
 -1      1326 1.29900E+00 3.63750E+00 0.00000E+00
 -1      1327 1.29900E+00 5.11250E+00 0.00000E+00
 -1      1328 2.59800E+00 5.85000E+00 0.00000E+00
 -1      1329 1.43700E+00 1.09375E+00 0.00000E+00
 -1      1330 1.43700E+00 2.54375E+00 0.00000E+00
 -1      1331 2.73600E+00 3.28125E+00 0.00000E+00
 -1      1332 3.01200E+00 1.09375E+00 0.00000E+00
 -1      1333 3.90000E+00 4.87010E+01 0.00000E+00
 -1      1334 5.40000E+00 4.87010E+01 0.00000E+00
 -1      1335 6.90000E+00 4.87010E+01 0.00000E+00
 -1      1336 8.40000E+00 4.87010E+01 0.00000E+00
 -1      1337 6.15000E+00 4.74020E+01 0.00000E+00
 -1      1338 9.90000E+00 4.87010E+01 0.00000E+00
 -1      1339 1.14000E+01 4.87010E+01 0.00000E+00
 -1      1340 9.15000E+00 4.74020E+01 0.00000E+00
 -1      1341 1.29000E+01 4.87010E+01 0.00000E+00
 -1      1342 1.44000E+01 4.87010E+01 0.00000E+00
 -1      1343 1.21500E+01 4.74020E+01 0.00000E+00
 -1      1344 1.59000E+01 4.87010E+01 0.00000E+00
 -1      1345 1.74000E+01 4.87010E+01 0.00000E+00
 -1      1346 1.51500E+01 4.74020E+01 0.00000E+00
 -1      1347 1.89000E+01 4.87010E+01 0.00000E+00
 -1      1348 2.04000E+01 4.87010E+01 0.00000E+00
 -1      1349 1.81500E+01 4.74020E+01 0.00000E+00
 -1      1350 2.19000E+01 4.87010E+01 0.00000E+00
 -1      1351 2.34000E+01 4.87010E+01 0.00000E+00
 -1      1352 2.11500E+01 4.74020E+01 0.00000E+00
 -1      1353 2.49000E+01 4.87010E+01 0.00000E+00
 -1      1354 2.64000E+01 4.87010E+01 0.00000E+00
 -1      1355 2.41500E+01 4.74020E+01 0.00000E+00
 -1      1356 2.79000E+01 4.87010E+01 0.00000E+00
 -1      1357 2.94000E+01 4.87010E+01 0.00000E+00
 -1      1358 2.71500E+01 4.74020E+01 0.00000E+00
 -1      1359 3.09000E+01 4.87010E+01 0.00000E+00
 -1      1360 3.24000E+01 4.87010E+01 0.00000E+00
 -1      1361 3.01500E+01 4.74020E+01 0.00000E+00
 -1      1362 3.39000E+01 4.87010E+01 0.00000E+00
 -1      1363 3.54000E+01 4.87010E+01 0.00000E+00
 -1      1364 3.31500E+01 4.74020E+01 0.00000E+00
 -1      1365 3.69000E+01 4.87010E+01 0.00000E+00
 -1      1366 3.84000E+01 4.87010E+01 0.00000E+00
 -1      1367 3.61500E+01 4.74020E+01 0.00000E+00
 -1      1368 3.99000E+01 4.87010E+01 0.00000E+00
 -1      1369 4.14000E+01 4.87010E+01 0.00000E+00
 -1      1370 3.91500E+01 4.74020E+01 0.00000E+00
 -1      1371 4.29000E+01 4.87010E+01 0.00000E+00
 -1      1372 4.44000E+01 4.87010E+01 0.00000E+00
 -1      1373 4.21500E+01 4.74020E+01 0.00000E+00
 -1      1374 4.59000E+01 4.87010E+01 0.00000E+00
 -1      1375 4.74000E+01 4.87010E+01 0.00000E+00
 -1      1376 4.51500E+01 4.74020E+01 0.00000E+00
 -1      1377 4.89000E+01 4.87010E+01 0.00000E+00
 -1      1378 5.04000E+01 4.87010E+01 0.00000E+00
 -1      1379 4.81500E+01 4.74020E+01 0.00000E+00
 -1      1380 5.19000E+01 4.87010E+01 0.00000E+00
 -1      1381 5.34000E+01 4.87010E+01 0.00000E+00
 -1      1382 5.11500E+01 4.74020E+01 0.00000E+00
 -1      1383 5.49000E+01 4.87010E+01 0.00000E+00
 -1      1384 5.64000E+01 4.87010E+01 0.00000E+00
 -1      1385 5.41500E+01 4.74020E+01 0.00000E+00
 -1      1386 5.79000E+01 4.87010E+01 0.00000E+00
 -1      1387 5.94000E+01 4.87010E+01 0.00000E+00
 -1      1388 5.71500E+01 4.74020E+01 0.00000E+00
 -1      1389 6.09000E+01 4.87010E+01 0.00000E+00
 -1      1390 6.24000E+01 4.87010E+01 0.00000E+00
 -1      1391 6.01500E+01 4.74020E+01 0.00000E+00
 -1      1392 6.39000E+01 4.87010E+01 0.00000E+00
 -1      1393 6.54000E+01 4.87010E+01 0.00000E+00
 -1      1394 6.31500E+01 4.74020E+01 0.00000E+00
 -1      1395 6.69000E+01 4.87010E+01 0.00000E+00
 -1      1396 6.84000E+01 4.87010E+01 0.00000E+00
 -1      1397 6.61500E+01 4.74020E+01 0.00000E+00
 -1      1398 6.99000E+01 4.87010E+01 0.00000E+00
 -1      1399 7.14000E+01 4.87010E+01 0.00000E+00
 -1      1400 6.91500E+01 4.74020E+01 0.00000E+00
 -1      1401 7.29000E+01 4.87010E+01 0.00000E+00
 -1      1402 7.44000E+01 4.87010E+01 0.00000E+00
 -1      1403 7.21500E+01 4.74020E+01 0.00000E+00
 -1      1404 7.59000E+01 4.87010E+01 0.00000E+00
 -1      1405 7.74000E+01 4.87010E+01 0.00000E+00
 -1      1406 7.51500E+01 4.74020E+01 0.00000E+00
 -1      1407 7.89000E+01 4.87010E+01 0.00000E+00
 -1      1408 8.04000E+01 4.87010E+01 0.00000E+00
 -1      1409 7.81500E+01 4.74020E+01 0.00000E+00
 -1      1410 8.19000E+01 4.87010E+01 0.00000E+00
 -1      1411 8.34000E+01 4.87010E+01 0.00000E+00
 -1      1412 8.11500E+01 4.74020E+01 0.00000E+00
 -1      1413 8.49000E+01 4.87010E+01 0.00000E+00
 -1      1414 8.64000E+01 4.87010E+01 0.00000E+00
 -1      1415 8.41500E+01 4.74020E+01 0.00000E+00
 -1      1416 8.79000E+01 4.87010E+01 0.00000E+00
 -1      1417 8.94000E+01 4.87010E+01 0.00000E+00
 -1      1418 8.71500E+01 4.74020E+01 0.00000E+00
 -1      1419 9.09000E+01 4.87010E+01 0.00000E+00
 -1      1420 9.24000E+01 4.87010E+01 0.00000E+00
 -1      1421 9.01500E+01 4.74020E+01 0.00000E+00
 -1      1422 9.39000E+01 4.87010E+01 0.00000E+00
 -1      1423 9.54000E+01 4.87010E+01 0.00000E+00
 -1      1424 9.31500E+01 4.74020E+01 0.00000E+00
 -1      1425 9.69000E+01 4.87010E+01 0.00000E+00
 -1      1426 9.84000E+01 4.87010E+01 0.00000E+00
 -1      1427 9.61500E+01 4.74020E+01 0.00000E+00
 -1      1428 9.99000E+01 4.87010E+01 0.00000E+00
 -1      1429 1.01400E+02 4.87010E+01 0.00000E+00
 -1      1430 9.91500E+01 4.74020E+01 0.00000E+00
 -1      1431 1.02900E+02 4.87010E+01 0.00000E+00
 -1      1432 1.04400E+02 4.87010E+01 0.00000E+00
 -1      1433 1.02150E+02 4.74020E+01 0.00000E+00
 -1      1434 1.05900E+02 4.87010E+01 0.00000E+00
 -1      1435 1.07400E+02 4.87010E+01 0.00000E+00
 -1      1436 1.05150E+02 4.74020E+01 0.00000E+00
 -1      1437 1.08900E+02 4.87010E+01 0.00000E+00
 -1      1438 1.10400E+02 4.87010E+01 0.00000E+00
 -1      1439 1.08150E+02 4.74020E+01 0.00000E+00
 -1      1440 1.11900E+02 4.87010E+01 0.00000E+00
 -1      1441 1.13400E+02 4.87010E+01 0.00000E+00
 -1      1442 1.11150E+02 4.74020E+01 0.00000E+00
 -1      1443 1.14900E+02 4.87010E+01 0.00000E+00
 -1      1444 1.16400E+02 4.87010E+01 0.00000E+00
 -1      1445 1.14150E+02 4.74020E+01 0.00000E+00
 -1      1446 1.17900E+02 4.87010E+01 0.00000E+00
 -1      1447 1.19400E+02 4.87010E+01 0.00000E+00
 -1      1448 1.17150E+02 4.74020E+01 0.00000E+00
 -1      1449 1.20900E+02 4.87010E+01 0.00000E+00
 -1      1450 1.22400E+02 4.87010E+01 0.00000E+00
 -1      1451 1.20150E+02 4.74020E+01 0.00000E+00
 -1      1452 1.23900E+02 4.87010E+01 0.00000E+00
 -1      1453 1.25400E+02 4.87010E+01 0.00000E+00
 -1      1454 1.23150E+02 4.74020E+01 0.00000E+00
 -1      1455 1.26900E+02 4.87010E+01 0.00000E+00
 -1      1456 1.28400E+02 4.87010E+01 0.00000E+00
 -1      1457 1.26150E+02 4.74020E+01 0.00000E+00
 -1      1458 1.29900E+02 4.87010E+01 0.00000E+00
 -1      1459 1.31400E+02 4.87010E+01 0.00000E+00
 -1      1460 1.29150E+02 4.74020E+01 0.00000E+00
 -1      1461 1.32900E+02 4.87010E+01 0.00000E+00
 -1      1462 1.34400E+02 4.87010E+01 0.00000E+00
 -1      1463 1.32150E+02 4.74020E+01 0.00000E+00
 -1      1464 1.35900E+02 4.87010E+01 0.00000E+00
 -1      1465 1.37400E+02 4.87010E+01 0.00000E+00
 -1      1466 1.35150E+02 4.74020E+01 0.00000E+00
 -1      1467 1.38900E+02 4.87010E+01 0.00000E+00
 -1      1468 1.40400E+02 4.87010E+01 0.00000E+00
 -1      1469 1.38150E+02 4.74020E+01 0.00000E+00
 -1      1470 1.41900E+02 4.87010E+01 0.00000E+00
 -1      1471 1.43400E+02 4.87010E+01 0.00000E+00
 -1      1472 1.41150E+02 4.74020E+01 0.00000E+00
 -1      1473 1.44900E+02 4.87010E+01 0.00000E+00
 -1      1474 1.46400E+02 4.87010E+01 0.00000E+00
 -1      1475 1.44150E+02 4.74020E+01 0.00000E+00
 -1      1476 1.48575E+02 4.85500E+01 0.00000E+00
 -1      1477 1.47825E+02 4.72510E+01 0.00000E+00
 -1      1478 6.01200E+00 1.09375E+00 0.00000E+00
 -1      1479 4.51200E+00 1.09375E+00 0.00000E+00
 -1      1480 4.37400E+00 2.18750E+00 0.00000E+00
 -1      1481 9.01200E+00 1.09375E+00 0.00000E+00
 -1      1482 7.51200E+00 1.09375E+00 0.00000E+00
 -1      1483 7.37400E+00 2.18750E+00 0.00000E+00
 -1      1484 1.20120E+01 1.09375E+00 0.00000E+00
 -1      1485 1.05120E+01 1.09375E+00 0.00000E+00
 -1      1486 1.03740E+01 2.18750E+00 0.00000E+00
 -1      1487 1.50120E+01 1.09375E+00 0.00000E+00
 -1      1488 1.35120E+01 1.09375E+00 0.00000E+00
 -1      1489 1.33740E+01 2.18750E+00 0.00000E+00
 -1      1490 1.80120E+01 1.09375E+00 0.00000E+00
 -1      1491 1.65120E+01 1.09375E+00 0.00000E+00
 -1      1492 1.63740E+01 2.18750E+00 0.00000E+00
 -1      1493 2.10120E+01 1.09375E+00 0.00000E+00
 -1      1494 1.95120E+01 1.09375E+00 0.00000E+00
 -1      1495 1.93740E+01 2.18750E+00 0.00000E+00
 -1      1496 2.40120E+01 1.09375E+00 0.00000E+00
 -1      1497 2.25120E+01 1.09375E+00 0.00000E+00
 -1      1498 2.23740E+01 2.18750E+00 0.00000E+00
 -1      1499 2.70120E+01 1.09375E+00 0.00000E+00
 -1      1500 2.55120E+01 1.09375E+00 0.00000E+00
 -1      1501 2.53740E+01 2.18750E+00 0.00000E+00
 -1      1502 3.00120E+01 1.09375E+00 0.00000E+00
 -1      1503 2.85120E+01 1.09375E+00 0.00000E+00
 -1      1504 2.83740E+01 2.18750E+00 0.00000E+00
 -1      1505 3.30120E+01 1.09375E+00 0.00000E+00
 -1      1506 3.15120E+01 1.09375E+00 0.00000E+00
 -1      1507 3.13740E+01 2.18750E+00 0.00000E+00
 -1      1508 3.60120E+01 1.09375E+00 0.00000E+00
 -1      1509 3.45120E+01 1.09375E+00 0.00000E+00
 -1      1510 3.43740E+01 2.18750E+00 0.00000E+00
 -1      1511 3.90120E+01 1.09375E+00 0.00000E+00
 -1      1512 3.75120E+01 1.09375E+00 0.00000E+00
 -1      1513 3.73740E+01 2.18750E+00 0.00000E+00
 -1      1514 4.20120E+01 1.09375E+00 0.00000E+00
 -1      1515 4.05120E+01 1.09375E+00 0.00000E+00
 -1      1516 4.03740E+01 2.18750E+00 0.00000E+00
 -1      1517 4.50120E+01 1.09375E+00 0.00000E+00
 -1      1518 4.35120E+01 1.09375E+00 0.00000E+00
 -1      1519 4.33740E+01 2.18750E+00 0.00000E+00
 -1      1520 4.80120E+01 1.09375E+00 0.00000E+00
 -1      1521 4.65120E+01 1.09375E+00 0.00000E+00
 -1      1522 4.63740E+01 2.18750E+00 0.00000E+00
 -1      1523 5.10120E+01 1.09375E+00 0.00000E+00
 -1      1524 4.95120E+01 1.09375E+00 0.00000E+00
 -1      1525 4.93740E+01 2.18750E+00 0.00000E+00
 -1      1526 5.40120E+01 1.09375E+00 0.00000E+00
 -1      1527 5.25120E+01 1.09375E+00 0.00000E+00
 -1      1528 5.23740E+01 2.18750E+00 0.00000E+00
 -1      1529 5.70120E+01 1.09375E+00 0.00000E+00
 -1      1530 5.55120E+01 1.09375E+00 0.00000E+00
 -1      1531 5.53740E+01 2.18750E+00 0.00000E+00
 -1      1532 6.00120E+01 1.09375E+00 0.00000E+00
 -1      1533 5.85120E+01 1.09375E+00 0.00000E+00
 -1      1534 5.83740E+01 2.18750E+00 0.00000E+00
 -1      1535 6.30120E+01 1.09375E+00 0.00000E+00
 -1      1536 6.15120E+01 1.09375E+00 0.00000E+00
 -1      1537 6.13740E+01 2.18750E+00 0.00000E+00
 -1      1538 6.60120E+01 1.09375E+00 0.00000E+00
 -1      1539 6.45120E+01 1.09375E+00 0.00000E+00
 -1      1540 6.43740E+01 2.18750E+00 0.00000E+00
 -1      1541 6.90120E+01 1.09375E+00 0.00000E+00
 -1      1542 6.75120E+01 1.09375E+00 0.00000E+00
 -1      1543 6.73740E+01 2.18750E+00 0.00000E+00
 -1      1544 7.20120E+01 1.09375E+00 0.00000E+00
 -1      1545 7.05120E+01 1.09375E+00 0.00000E+00
 -1      1546 7.03740E+01 2.18750E+00 0.00000E+00
 -1      1547 7.50120E+01 1.09375E+00 0.00000E+00
 -1      1548 7.35120E+01 1.09375E+00 0.00000E+00
 -1      1549 7.33740E+01 2.18750E+00 0.00000E+00
 -1      1550 7.80120E+01 1.09375E+00 0.00000E+00
 -1      1551 7.65120E+01 1.09375E+00 0.00000E+00
 -1      1552 7.63740E+01 2.18750E+00 0.00000E+00
 -1      1553 8.10120E+01 1.09375E+00 0.00000E+00
 -1      1554 7.95120E+01 1.09375E+00 0.00000E+00
 -1      1555 7.93740E+01 2.18750E+00 0.00000E+00
 -1      1556 8.40120E+01 1.09375E+00 0.00000E+00
 -1      1557 8.25120E+01 1.09375E+00 0.00000E+00
 -1      1558 8.23740E+01 2.18750E+00 0.00000E+00
 -1      1559 8.70120E+01 1.09375E+00 0.00000E+00
 -1      1560 8.55120E+01 1.09375E+00 0.00000E+00
 -1      1561 8.53740E+01 2.18750E+00 0.00000E+00
 -1      1562 9.00120E+01 1.09375E+00 0.00000E+00
 -1      1563 8.85120E+01 1.09375E+00 0.00000E+00
 -1      1564 8.83740E+01 2.18750E+00 0.00000E+00
 -1      1565 9.30120E+01 1.09375E+00 0.00000E+00
 -1      1566 9.15120E+01 1.09375E+00 0.00000E+00
 -1      1567 9.13740E+01 2.18750E+00 0.00000E+00
 -1      1568 9.60120E+01 1.09375E+00 0.00000E+00
 -1      1569 9.45120E+01 1.09375E+00 0.00000E+00
 -1      1570 9.43740E+01 2.18750E+00 0.00000E+00
 -1      1571 9.90120E+01 1.09375E+00 0.00000E+00
 -1      1572 9.75120E+01 1.09375E+00 0.00000E+00
 -1      1573 9.73740E+01 2.18750E+00 0.00000E+00
 -1      1574 1.02012E+02 1.09375E+00 0.00000E+00
 -1      1575 1.00512E+02 1.09375E+00 0.00000E+00
 -1      1576 1.00374E+02 2.18750E+00 0.00000E+00
 -1      1577 1.05012E+02 1.09375E+00 0.00000E+00
 -1      1578 1.03512E+02 1.09375E+00 0.00000E+00
 -1      1579 1.03374E+02 2.18750E+00 0.00000E+00
 -1      1580 1.08012E+02 1.09375E+00 0.00000E+00
 -1      1581 1.06512E+02 1.09375E+00 0.00000E+00
 -1      1582 1.06374E+02 2.18750E+00 0.00000E+00
 -1      1583 1.11012E+02 1.09375E+00 0.00000E+00
 -1      1584 1.09512E+02 1.09375E+00 0.00000E+00
 -1      1585 1.09374E+02 2.18750E+00 0.00000E+00
 -1      1586 1.14012E+02 1.09375E+00 0.00000E+00
 -1      1587 1.12512E+02 1.09375E+00 0.00000E+00
 -1      1588 1.12374E+02 2.18750E+00 0.00000E+00
 -1      1589 1.17012E+02 1.09375E+00 0.00000E+00
 -1      1590 1.15512E+02 1.09375E+00 0.00000E+00
 -1      1591 1.15374E+02 2.18750E+00 0.00000E+00
 -1      1592 1.20012E+02 1.09375E+00 0.00000E+00
 -1      1593 1.18512E+02 1.09375E+00 0.00000E+00
 -1      1594 1.18374E+02 2.18750E+00 0.00000E+00
 -1      1595 1.23012E+02 1.09375E+00 0.00000E+00
 -1      1596 1.21512E+02 1.09375E+00 0.00000E+00
 -1      1597 1.21374E+02 2.18750E+00 0.00000E+00
 -1      1598 1.26012E+02 1.09375E+00 0.00000E+00
 -1      1599 1.24512E+02 1.09375E+00 0.00000E+00
 -1      1600 1.24374E+02 2.18750E+00 0.00000E+00
 -1      1601 1.29012E+02 1.09375E+00 0.00000E+00
 -1      1602 1.27512E+02 1.09375E+00 0.00000E+00
 -1      1603 1.27374E+02 2.18750E+00 0.00000E+00
 -1      1604 1.32012E+02 1.09375E+00 0.00000E+00
 -1      1605 1.30512E+02 1.09375E+00 0.00000E+00
 -1      1606 1.30374E+02 2.18750E+00 0.00000E+00
 -1      1607 1.35012E+02 1.09375E+00 0.00000E+00
 -1      1608 1.33512E+02 1.09375E+00 0.00000E+00
 -1      1609 1.33374E+02 2.18750E+00 0.00000E+00
 -1      1610 1.38012E+02 1.09375E+00 0.00000E+00
 -1      1611 1.36512E+02 1.09375E+00 0.00000E+00
 -1      1612 1.36374E+02 2.18750E+00 0.00000E+00
 -1      1613 1.41012E+02 1.09375E+00 0.00000E+00
 -1      1614 1.39512E+02 1.09375E+00 0.00000E+00
 -1      1615 1.39374E+02 2.18750E+00 0.00000E+00
 -1      1616 1.44012E+02 1.09375E+00 0.00000E+00
 -1      1617 1.42512E+02 1.09375E+00 0.00000E+00
 -1      1618 1.42374E+02 2.18750E+00 0.00000E+00
 -1      1619 1.47012E+02 1.09375E+00 0.00000E+00
 -1      1620 1.45512E+02 1.09375E+00 0.00000E+00
 -1      1621 1.45374E+02 2.18750E+00 0.00000E+00
 -1      1622 1.48575E+02 1.47500E+00 0.00000E+00
 -1      1623 1.48701E+02 5.16250E+00 0.00000E+00
 -1      1624 1.48701E+02 3.68750E+00 0.00000E+00
 -1      1625 1.48701E+02 8.11250E+00 0.00000E+00
 -1      1626 1.48701E+02 6.63750E+00 0.00000E+00
 -1      1627 1.47402E+02 5.90000E+00 0.00000E+00
 -1      1628 1.48701E+02 1.10625E+01 0.00000E+00
 -1      1629 1.48701E+02 9.58750E+00 0.00000E+00
 -1      1630 1.47402E+02 8.85000E+00 0.00000E+00
 -1      1631 1.48701E+02 1.40125E+01 0.00000E+00
 -1      1632 1.48701E+02 1.25375E+01 0.00000E+00
 -1      1633 1.47402E+02 1.18000E+01 0.00000E+00
 -1      1634 1.48701E+02 1.69125E+01 0.00000E+00
 -1      1635 1.48701E+02 1.54625E+01 0.00000E+00
 -1      1636 1.47402E+02 1.47250E+01 0.00000E+00
 -1      1637 1.48701E+02 1.98625E+01 0.00000E+00
 -1      1638 1.48701E+02 1.83875E+01 0.00000E+00
 -1      1639 1.47402E+02 1.76500E+01 0.00000E+00
 -1      1640 1.48701E+02 2.28125E+01 0.00000E+00
 -1      1641 1.48701E+02 2.13375E+01 0.00000E+00
 -1      1642 1.47402E+02 2.06000E+01 0.00000E+00
 -1      1643 1.48701E+02 2.57625E+01 0.00000E+00
 -1      1644 1.48701E+02 2.42875E+01 0.00000E+00
 -1      1645 1.47402E+02 2.35500E+01 0.00000E+00
 -1      1646 1.48701E+02 2.87125E+01 0.00000E+00
 -1      1647 1.48701E+02 2.72375E+01 0.00000E+00
 -1      1648 1.47402E+02 2.65000E+01 0.00000E+00
 -1      1649 1.48701E+02 3.16625E+01 0.00000E+00
 -1      1650 1.48701E+02 3.01875E+01 0.00000E+00
 -1      1651 1.47402E+02 2.94500E+01 0.00000E+00
 -1      1652 1.48701E+02 3.45625E+01 0.00000E+00
 -1      1653 1.48701E+02 3.31125E+01 0.00000E+00
 -1      1654 1.47402E+02 3.23750E+01 0.00000E+00
 -1      1655 1.48701E+02 3.75125E+01 0.00000E+00
 -1      1656 1.48701E+02 3.60375E+01 0.00000E+00
 -1      1657 1.47402E+02 3.53000E+01 0.00000E+00
 -1      1658 1.48701E+02 4.04625E+01 0.00000E+00
 -1      1659 1.48701E+02 3.89875E+01 0.00000E+00
 -1      1660 1.47402E+02 3.82500E+01 0.00000E+00
 -1      1661 1.48701E+02 4.34125E+01 0.00000E+00
 -1      1662 1.48701E+02 4.19375E+01 0.00000E+00
 -1      1663 1.47402E+02 4.12000E+01 0.00000E+00
 -1      1664 1.48263E+02 4.60692E+01 0.00000E+00
 -1      1665 1.48263E+02 4.45942E+01 0.00000E+00
 -1      1666 1.46964E+02 4.38568E+01 0.00000E+00
 -1      1667 1.46088E+02 4.62202E+01 0.00000E+00
 -1      1668 9.18425E+01 2.39573E+01 0.00000E+00
 -1      1669 9.19185E+01 2.46825E+01 0.00000E+00
 -1      1670 9.14503E+01 2.24509E+01 0.00000E+00
 -1      1671 9.16693E+01 2.31319E+01 0.00000E+00
 -1      1672 9.07705E+01 2.10036E+01 0.00000E+00
 -1      1673 9.11409E+01 2.16504E+01 0.00000E+00
 -1      1674 8.97276E+01 1.97686E+01 0.00000E+00
 -1      1675 9.02248E+01 2.03206E+01 0.00000E+00
 -1      1676 8.85495E+01 1.87957E+01 0.00000E+00
 -1      1677 8.91077E+01 1.92047E+01 0.00000E+00
 -1      1678 8.71448E+01 1.79338E+01 0.00000E+00
 -1      1679 8.78560E+01 1.82529E+01 0.00000E+00
 -1      1680 8.55475E+01 1.76257E+01 0.00000E+00
 -1      1681 8.62583E+01 1.77744E+01 0.00000E+00
 -1      1682 8.38905E+01 1.74659E+01 0.00000E+00
 -1      1683 8.46711E+01 1.74585E+01 0.00000E+00
 -1      1684 8.21985E+01 1.77179E+01 0.00000E+00
 -1      1685 8.29580E+01 1.75376E+01 0.00000E+00
 -1      1686 8.07117E+01 1.84168E+01 0.00000E+00
 -1      1687 8.13744E+01 1.80966E+01 0.00000E+00
 -1      1688 7.94563E+01 1.93240E+01 0.00000E+00
 -1      1689 8.00138E+01 1.88947E+01 0.00000E+00
 -1      1690 7.82339E+01 2.05122E+01 0.00000E+00
 -1      1691 7.87569E+01 1.98879E+01 0.00000E+00
 -1      1692 7.74733E+01 2.19308E+01 0.00000E+00
 -1      1693 7.78000E+01 2.13022E+01 0.00000E+00
 -1      1694 7.69578E+01 2.34766E+01 0.00000E+00
 -1      1695 7.71614E+01 2.27350E+01 0.00000E+00
 -1      1696 7.66977E+01 2.51521E+01 0.00000E+00
 -1      1697 7.67334E+01 2.43683E+01 0.00000E+00
 -1      1698 7.69534E+01 2.67392E+01 0.00000E+00
 -1      1699 7.68322E+01 2.60315E+01 0.00000E+00
 -1      1700 7.74011E+01 2.83173E+01 0.00000E+00
 -1      1701 7.71145E+01 2.76046E+01 0.00000E+00
 -1      1702 7.82430E+01 2.98546E+01 0.00000E+00
 -1      1703 7.77807E+01 2.91905E+01 0.00000E+00
 -1      1704 7.95264E+01 3.09985E+01 0.00000E+00
 -1      1705 7.89579E+01 3.04825E+01 0.00000E+00
 -1      1706 8.08769E+01 3.18413E+01 0.00000E+00
 -1      1707 8.02542E+01 3.14813E+01 0.00000E+00
 -1      1708 8.24444E+01 3.26047E+01 0.00000E+00
 -1      1709 8.16554E+01 3.23582E+01 0.00000E+00
 -1      1710 8.41248E+01 3.27226E+01 0.00000E+00
 -1      1711 8.33875E+01 3.26646E+01 0.00000E+00
 -1      1712 8.57904E+01 3.25860E+01 0.00000E+00
 -1      1713 8.50194E+01 3.26936E+01 0.00000E+00
 -1      1714 8.73681E+01 3.20567E+01 0.00000E+00
 -1      1715 8.66556E+01 3.23241E+01 0.00000E+00
 -1      1716 8.88627E+01 3.12424E+01 0.00000E+00
 -1      1717 8.81991E+01 3.16788E+01 0.00000E+00
 -1      1718 9.00791E+01 3.00651E+01 0.00000E+00
 -1      1719 8.95436E+01 3.06233E+01 0.00000E+00
 -1      1720 9.10129E+01 2.87186E+01 0.00000E+00
 -1      1721 9.06225E+01 2.93605E+01 0.00000E+00
 -1      1722 9.16816E+01 2.71756E+01 0.00000E+00
 -1      1723 9.14298E+01 2.79189E+01 0.00000E+00
 -1      1724 9.19163E+01 2.55449E+01 0.00000E+00
 -1      1725 9.18363E+01 2.62889E+01 0.00000E+00
 -1      1726 8.98068E+01 1.90750E+01 0.00000E+00
 -1      1727 9.09724E+01 2.03219E+01 0.00000E+00
 -1      1728 1.48437E+02 2.56875E+00 0.00000E+00
 -1      1729 1.47138E+02 3.30625E+00 0.00000E+00
 -1      1730 9.23102E+01 2.34313E+01 0.00000E+00
 -1      1731 9.18275E+01 2.18054E+01 0.00000E+00
 -1      1732 9.24812E+01 2.51192E+01 0.00000E+00
 -1      1733 8.84934E+01 1.79684E+01 0.00000E+00
 -1      1734 8.69135E+01 1.72661E+01 0.00000E+00
 -1      1735 8.51506E+01 1.69395E+01 0.00000E+00
 -1      1736 8.33418E+01 1.68440E+01 0.00000E+00
 -1      1737 8.15852E+01 1.72944E+01 0.00000E+00
 -1      1738 8.00632E+01 1.81511E+01 0.00000E+00
 -1      1739 7.86659E+01 1.91930E+01 0.00000E+00
 -1      1740 7.75326E+01 2.05469E+01 0.00000E+00
 -1      1741 7.67869E+01 2.21411E+01 0.00000E+00
 -1      1742 7.62506E+01 2.38370E+01 0.00000E+00
 -1      1743 7.61608E+01 2.56082E+01 0.00000E+00
 -1      1744 7.64565E+01 2.73530E+01 0.00000E+00
 -1      1745 7.69972E+01 2.90915E+01 0.00000E+00
 -1      1746 7.80917E+01 3.05925E+01 0.00000E+00
 -1      1747 7.95344E+01 3.17033E+01 0.00000E+00
 -1      1748 8.10407E+01 3.27031E+01 0.00000E+00
 -1      1749 8.27622E+01 3.32799E+01 0.00000E+00
 -1      1750 8.45999E+01 3.33107E+01 0.00000E+00
 -1      1751 8.63597E+01 3.30198E+01 0.00000E+00
 -1      1752 8.80559E+01 3.23800E+01 0.00000E+00
 -1      1753 8.95679E+01 3.13830E+01 0.00000E+00
 -1      1754 9.07922E+01 3.00592E+01 0.00000E+00
 -1      1755 9.17526E+01 2.85549E+01 0.00000E+00
 -1      1756 9.23243E+01 2.68684E+01 0.00000E+00
 -1      1757 2.87400E+00 4.77875E+01 0.00000E+00
 -1      1758 3.89700E+00 4.04125E+01 0.00000E+00
 -1      1759 3.89700E+00 4.18875E+01 0.00000E+00
 -1      1760 3.89700E+00 4.33625E+01 0.00000E+00
 -1      1761 3.89700E+00 4.48375E+01 0.00000E+00
 -1      1762 5.19600E+00 4.26250E+01 0.00000E+00
 -1      1763 3.89700E+00 3.45500E+01 0.00000E+00
 -1      1764 3.89700E+00 3.60000E+01 0.00000E+00
 -1      1765 3.89700E+00 3.16000E+01 0.00000E+00
 -1      1766 3.89700E+00 3.30750E+01 0.00000E+00
 -1      1767 5.19600E+00 3.38000E+01 0.00000E+00
 -1      1768 3.89700E+00 2.86500E+01 0.00000E+00
 -1      1769 3.89700E+00 3.01250E+01 0.00000E+00
 -1      1770 5.19600E+00 3.08500E+01 0.00000E+00
 -1      1771 3.89700E+00 2.57000E+01 0.00000E+00
 -1      1772 3.89700E+00 2.71750E+01 0.00000E+00
 -1      1773 5.19600E+00 2.79000E+01 0.00000E+00
 -1      1774 3.89700E+00 2.27500E+01 0.00000E+00
 -1      1775 3.89700E+00 2.42250E+01 0.00000E+00
 -1      1776 5.19600E+00 2.49500E+01 0.00000E+00
 -1      1777 3.89700E+00 1.98000E+01 0.00000E+00
 -1      1778 3.89700E+00 2.12750E+01 0.00000E+00
 -1      1779 5.19600E+00 2.20000E+01 0.00000E+00
 -1      1780 3.89700E+00 1.69000E+01 0.00000E+00
 -1      1781 3.89700E+00 1.83500E+01 0.00000E+00
 -1      1782 5.19600E+00 1.90750E+01 0.00000E+00
 -1      1783 3.89700E+00 1.39500E+01 0.00000E+00
 -1      1784 3.89700E+00 1.54250E+01 0.00000E+00
 -1      1785 5.19600E+00 1.61500E+01 0.00000E+00
 -1      1786 3.89700E+00 1.10000E+01 0.00000E+00
 -1      1787 3.89700E+00 1.24750E+01 0.00000E+00
 -1      1788 5.19600E+00 1.32000E+01 0.00000E+00
 -1      1789 3.89700E+00 8.05000E+00 0.00000E+00
 -1      1790 3.89700E+00 9.52500E+00 0.00000E+00
 -1      1791 5.19600E+00 1.02500E+01 0.00000E+00
 -1      1792 3.89700E+00 5.10000E+00 0.00000E+00
 -1      1793 3.89700E+00 6.57500E+00 0.00000E+00
 -1      1794 5.19600E+00 7.30000E+00 0.00000E+00
 -1      1795 4.20450E+00 3.09687E+00 0.00000E+00
 -1      1796 4.06650E+00 4.19063E+00 0.00000E+00
 -1      1797 5.36550E+00 4.91563E+00 0.00000E+00
 -1      1798 5.70450E+00 3.09687E+00 0.00000E+00
 -1      1799 3.62400E+00 4.64885E+01 0.00000E+00
 -1      1800 8.70450E+00 3.09687E+00 0.00000E+00
 -1      1801 7.20450E+00 3.09687E+00 0.00000E+00
 -1      1802 7.03500E+00 4.00625E+00 0.00000E+00
 -1      1803 4.92300E+00 4.57510E+01 0.00000E+00
 -1      1804 8.40000E+00 4.61030E+01 0.00000E+00
 -1      1805 9.90000E+00 4.61030E+01 0.00000E+00
 -1      1806 1.14000E+01 4.61030E+01 0.00000E+00
 -1      1807 1.29000E+01 4.61030E+01 0.00000E+00
 -1      1808 1.06500E+01 4.48040E+01 0.00000E+00
 -1      1809 1.44000E+01 4.61030E+01 0.00000E+00
 -1      1810 1.59000E+01 4.61030E+01 0.00000E+00
 -1      1811 1.36500E+01 4.48040E+01 0.00000E+00
 -1      1812 1.74000E+01 4.61030E+01 0.00000E+00
 -1      1813 1.89000E+01 4.61030E+01 0.00000E+00
 -1      1814 1.66500E+01 4.48040E+01 0.00000E+00
 -1      1815 2.04000E+01 4.61030E+01 0.00000E+00
 -1      1816 2.19000E+01 4.61030E+01 0.00000E+00
 -1      1817 1.96500E+01 4.48040E+01 0.00000E+00
 -1      1818 2.34000E+01 4.61030E+01 0.00000E+00
 -1      1819 2.49000E+01 4.61030E+01 0.00000E+00
 -1      1820 2.26500E+01 4.48040E+01 0.00000E+00
 -1      1821 2.64000E+01 4.61030E+01 0.00000E+00
 -1      1822 2.79000E+01 4.61030E+01 0.00000E+00
 -1      1823 2.56500E+01 4.48040E+01 0.00000E+00
 -1      1824 2.94000E+01 4.61030E+01 0.00000E+00
 -1      1825 3.09000E+01 4.61030E+01 0.00000E+00
 -1      1826 2.86500E+01 4.48040E+01 0.00000E+00
 -1      1827 3.24000E+01 4.61030E+01 0.00000E+00
 -1      1828 3.39000E+01 4.61030E+01 0.00000E+00
 -1      1829 3.16500E+01 4.48040E+01 0.00000E+00
 -1      1830 3.54000E+01 4.61030E+01 0.00000E+00
 -1      1831 3.69000E+01 4.61030E+01 0.00000E+00
 -1      1832 3.46500E+01 4.48040E+01 0.00000E+00
 -1      1833 3.84000E+01 4.61030E+01 0.00000E+00
 -1      1834 3.99000E+01 4.61030E+01 0.00000E+00
 -1      1835 3.76500E+01 4.48040E+01 0.00000E+00
 -1      1836 4.14000E+01 4.61030E+01 0.00000E+00
 -1      1837 4.29000E+01 4.61030E+01 0.00000E+00
 -1      1838 4.06500E+01 4.48040E+01 0.00000E+00
 -1      1839 4.44000E+01 4.61030E+01 0.00000E+00
 -1      1840 4.59000E+01 4.61030E+01 0.00000E+00
 -1      1841 4.36500E+01 4.48040E+01 0.00000E+00
 -1      1842 4.74000E+01 4.61030E+01 0.00000E+00
 -1      1843 4.89000E+01 4.61030E+01 0.00000E+00
 -1      1844 4.66500E+01 4.48040E+01 0.00000E+00
 -1      1845 5.04000E+01 4.61030E+01 0.00000E+00
 -1      1846 5.19000E+01 4.61030E+01 0.00000E+00
 -1      1847 4.96500E+01 4.48040E+01 0.00000E+00
 -1      1848 5.34000E+01 4.61030E+01 0.00000E+00
 -1      1849 5.49000E+01 4.61030E+01 0.00000E+00
 -1      1850 5.26500E+01 4.48040E+01 0.00000E+00
 -1      1851 5.64000E+01 4.61030E+01 0.00000E+00
 -1      1852 5.79000E+01 4.61030E+01 0.00000E+00
 -1      1853 5.56500E+01 4.48040E+01 0.00000E+00
 -1      1854 5.94000E+01 4.61030E+01 0.00000E+00
 -1      1855 6.09000E+01 4.61030E+01 0.00000E+00
 -1      1856 5.86500E+01 4.48040E+01 0.00000E+00
 -1      1857 6.24000E+01 4.61030E+01 0.00000E+00
 -1      1858 6.39000E+01 4.61030E+01 0.00000E+00
 -1      1859 6.16500E+01 4.48040E+01 0.00000E+00
 -1      1860 6.54000E+01 4.61030E+01 0.00000E+00
 -1      1861 6.69000E+01 4.61030E+01 0.00000E+00
 -1      1862 6.46500E+01 4.48040E+01 0.00000E+00
 -1      1863 6.84000E+01 4.61030E+01 0.00000E+00
 -1      1864 6.99000E+01 4.61030E+01 0.00000E+00
 -1      1865 6.76500E+01 4.48040E+01 0.00000E+00
 -1      1866 7.14000E+01 4.61030E+01 0.00000E+00
 -1      1867 7.29000E+01 4.61030E+01 0.00000E+00
 -1      1868 7.06500E+01 4.48040E+01 0.00000E+00
 -1      1869 7.44000E+01 4.61030E+01 0.00000E+00
 -1      1870 7.59000E+01 4.61030E+01 0.00000E+00
 -1      1871 7.36500E+01 4.48040E+01 0.00000E+00
 -1      1872 7.74000E+01 4.61030E+01 0.00000E+00
 -1      1873 7.89000E+01 4.61030E+01 0.00000E+00
 -1      1874 7.66500E+01 4.48040E+01 0.00000E+00
 -1      1875 8.04000E+01 4.61030E+01 0.00000E+00
 -1      1876 8.19000E+01 4.61030E+01 0.00000E+00
 -1      1877 7.96500E+01 4.48040E+01 0.00000E+00
 -1      1878 8.34000E+01 4.61030E+01 0.00000E+00
 -1      1879 8.49000E+01 4.61030E+01 0.00000E+00
 -1      1880 8.26500E+01 4.48040E+01 0.00000E+00
 -1      1881 8.64000E+01 4.61030E+01 0.00000E+00
 -1      1882 8.79000E+01 4.61030E+01 0.00000E+00
 -1      1883 8.56500E+01 4.48040E+01 0.00000E+00
 -1      1884 8.94000E+01 4.61030E+01 0.00000E+00
 -1      1885 9.09000E+01 4.61030E+01 0.00000E+00
 -1      1886 8.86500E+01 4.48040E+01 0.00000E+00
 -1      1887 9.24000E+01 4.61030E+01 0.00000E+00
 -1      1888 9.39000E+01 4.61030E+01 0.00000E+00
 -1      1889 9.16500E+01 4.48040E+01 0.00000E+00
 -1      1890 9.54000E+01 4.61030E+01 0.00000E+00
 -1      1891 9.69000E+01 4.61030E+01 0.00000E+00
 -1      1892 9.46500E+01 4.48040E+01 0.00000E+00
 -1      1893 9.84000E+01 4.61030E+01 0.00000E+00
 -1      1894 9.99000E+01 4.61030E+01 0.00000E+00
 -1      1895 9.76500E+01 4.48040E+01 0.00000E+00
 -1      1896 1.01400E+02 4.61030E+01 0.00000E+00
 -1      1897 1.02900E+02 4.61030E+01 0.00000E+00
 -1      1898 1.00650E+02 4.48040E+01 0.00000E+00
 -1      1899 1.04400E+02 4.61030E+01 0.00000E+00
 -1      1900 1.05900E+02 4.61030E+01 0.00000E+00
 -1      1901 1.03650E+02 4.48040E+01 0.00000E+00
 -1      1902 1.07400E+02 4.61030E+01 0.00000E+00
 -1      1903 1.08900E+02 4.61030E+01 0.00000E+00
 -1      1904 1.06650E+02 4.48040E+01 0.00000E+00
 -1      1905 1.10400E+02 4.61030E+01 0.00000E+00
 -1      1906 1.11900E+02 4.61030E+01 0.00000E+00
 -1      1907 1.09650E+02 4.48040E+01 0.00000E+00
 -1      1908 1.13400E+02 4.61030E+01 0.00000E+00
 -1      1909 1.14900E+02 4.61030E+01 0.00000E+00
 -1      1910 1.12650E+02 4.48040E+01 0.00000E+00
 -1      1911 1.16400E+02 4.61030E+01 0.00000E+00
 -1      1912 1.17900E+02 4.61030E+01 0.00000E+00
 -1      1913 1.15650E+02 4.48040E+01 0.00000E+00
 -1      1914 1.19400E+02 4.61030E+01 0.00000E+00
 -1      1915 1.20900E+02 4.61030E+01 0.00000E+00
 -1      1916 1.18650E+02 4.48040E+01 0.00000E+00
 -1      1917 1.22400E+02 4.61030E+01 0.00000E+00
 -1      1918 1.23900E+02 4.61030E+01 0.00000E+00
 -1      1919 1.21650E+02 4.48040E+01 0.00000E+00
 -1      1920 1.25400E+02 4.61030E+01 0.00000E+00
 -1      1921 1.26900E+02 4.61030E+01 0.00000E+00
 -1      1922 1.24650E+02 4.48040E+01 0.00000E+00
 -1      1923 1.28400E+02 4.61030E+01 0.00000E+00
 -1      1924 1.29900E+02 4.61030E+01 0.00000E+00
 -1      1925 1.27650E+02 4.48040E+01 0.00000E+00
 -1      1926 1.31400E+02 4.61030E+01 0.00000E+00
 -1      1927 1.32900E+02 4.61030E+01 0.00000E+00
 -1      1928 1.30650E+02 4.48040E+01 0.00000E+00
 -1      1929 1.34400E+02 4.61030E+01 0.00000E+00
 -1      1930 1.35900E+02 4.61030E+01 0.00000E+00
 -1      1931 1.33650E+02 4.48040E+01 0.00000E+00
 -1      1932 1.37400E+02 4.61030E+01 0.00000E+00
 -1      1933 1.38900E+02 4.61030E+01 0.00000E+00
 -1      1934 1.36650E+02 4.48040E+01 0.00000E+00
 -1      1935 1.40400E+02 4.61030E+01 0.00000E+00
 -1      1936 1.41900E+02 4.61030E+01 0.00000E+00
 -1      1937 1.39650E+02 4.48040E+01 0.00000E+00
 -1      1938 1.43244E+02 4.61616E+01 0.00000E+00
 -1      1939 1.44744E+02 4.61616E+01 0.00000E+00
 -1      1940 1.45182E+02 4.49799E+01 0.00000E+00
 -1      1941 1.42494E+02 4.48626E+01 0.00000E+00
 -1      1942 1.17045E+01 3.09687E+00 0.00000E+00
 -1      1943 1.02045E+01 3.09687E+00 0.00000E+00
 -1      1944 1.00350E+01 4.00625E+00 0.00000E+00
 -1      1945 1.47045E+01 3.09687E+00 0.00000E+00
 -1      1946 1.32045E+01 3.09687E+00 0.00000E+00
 -1      1947 1.30350E+01 4.00625E+00 0.00000E+00
 -1      1948 1.77045E+01 3.09687E+00 0.00000E+00
 -1      1949 1.62045E+01 3.09687E+00 0.00000E+00
 -1      1950 1.60350E+01 4.00625E+00 0.00000E+00
 -1      1951 2.07045E+01 3.09687E+00 0.00000E+00
 -1      1952 1.92045E+01 3.09687E+00 0.00000E+00
 -1      1953 1.90350E+01 4.00625E+00 0.00000E+00
 -1      1954 2.37045E+01 3.09687E+00 0.00000E+00
 -1      1955 2.22045E+01 3.09687E+00 0.00000E+00
 -1      1956 2.20350E+01 4.00625E+00 0.00000E+00
 -1      1957 2.67045E+01 3.09687E+00 0.00000E+00
 -1      1958 2.52045E+01 3.09687E+00 0.00000E+00
 -1      1959 2.50350E+01 4.00625E+00 0.00000E+00
 -1      1960 2.97045E+01 3.09687E+00 0.00000E+00
 -1      1961 2.82045E+01 3.09687E+00 0.00000E+00
 -1      1962 2.80350E+01 4.00625E+00 0.00000E+00
 -1      1963 3.27045E+01 3.09687E+00 0.00000E+00
 -1      1964 3.12045E+01 3.09687E+00 0.00000E+00
 -1      1965 3.10350E+01 4.00625E+00 0.00000E+00
 -1      1966 3.57045E+01 3.09687E+00 0.00000E+00
 -1      1967 3.42045E+01 3.09687E+00 0.00000E+00
 -1      1968 3.40350E+01 4.00625E+00 0.00000E+00
 -1      1969 3.87045E+01 3.09687E+00 0.00000E+00
 -1      1970 3.72045E+01 3.09687E+00 0.00000E+00
 -1      1971 3.70350E+01 4.00625E+00 0.00000E+00
 -1      1972 4.17045E+01 3.09687E+00 0.00000E+00
 -1      1973 4.02045E+01 3.09687E+00 0.00000E+00
 -1      1974 4.00350E+01 4.00625E+00 0.00000E+00
 -1      1975 4.47045E+01 3.09687E+00 0.00000E+00
 -1      1976 4.32045E+01 3.09687E+00 0.00000E+00
 -1      1977 4.30350E+01 4.00625E+00 0.00000E+00
 -1      1978 4.77045E+01 3.09687E+00 0.00000E+00
 -1      1979 4.62045E+01 3.09687E+00 0.00000E+00
 -1      1980 4.60350E+01 4.00625E+00 0.00000E+00
 -1      1981 5.07045E+01 3.09687E+00 0.00000E+00
 -1      1982 4.92045E+01 3.09687E+00 0.00000E+00
 -1      1983 4.90350E+01 4.00625E+00 0.00000E+00
 -1      1984 5.37045E+01 3.09687E+00 0.00000E+00
 -1      1985 5.22045E+01 3.09687E+00 0.00000E+00
 -1      1986 5.20350E+01 4.00625E+00 0.00000E+00
 -1      1987 5.67045E+01 3.09687E+00 0.00000E+00
 -1      1988 5.52045E+01 3.09687E+00 0.00000E+00
 -1      1989 5.50350E+01 4.00625E+00 0.00000E+00
 -1      1990 5.97045E+01 3.09687E+00 0.00000E+00
 -1      1991 5.82045E+01 3.09687E+00 0.00000E+00
 -1      1992 5.80350E+01 4.00625E+00 0.00000E+00
 -1      1993 6.27045E+01 3.09687E+00 0.00000E+00
 -1      1994 6.12045E+01 3.09687E+00 0.00000E+00
 -1      1995 6.10350E+01 4.00625E+00 0.00000E+00
 -1      1996 6.57045E+01 3.09687E+00 0.00000E+00
 -1      1997 6.42045E+01 3.09687E+00 0.00000E+00
 -1      1998 6.40350E+01 4.00625E+00 0.00000E+00
 -1      1999 6.87045E+01 3.09687E+00 0.00000E+00
 -1      2000 6.72045E+01 3.09687E+00 0.00000E+00
 -1      2001 6.70350E+01 4.00625E+00 0.00000E+00
 -1      2002 7.17045E+01 3.09687E+00 0.00000E+00
 -1      2003 7.02045E+01 3.09687E+00 0.00000E+00
 -1      2004 7.00350E+01 4.00625E+00 0.00000E+00
 -1      2005 7.47045E+01 3.09687E+00 0.00000E+00
 -1      2006 7.32045E+01 3.09687E+00 0.00000E+00
 -1      2007 7.30350E+01 4.00625E+00 0.00000E+00
 -1      2008 7.77045E+01 3.09687E+00 0.00000E+00
 -1      2009 7.62045E+01 3.09687E+00 0.00000E+00
 -1      2010 7.60350E+01 4.00625E+00 0.00000E+00
 -1      2011 8.07045E+01 3.09687E+00 0.00000E+00
 -1      2012 7.92045E+01 3.09687E+00 0.00000E+00
 -1      2013 7.90350E+01 4.00625E+00 0.00000E+00
 -1      2014 8.37045E+01 3.09687E+00 0.00000E+00
 -1      2015 8.22045E+01 3.09687E+00 0.00000E+00
 -1      2016 8.20350E+01 4.00625E+00 0.00000E+00
 -1      2017 8.67045E+01 3.09687E+00 0.00000E+00
 -1      2018 8.52045E+01 3.09687E+00 0.00000E+00
 -1      2019 8.50350E+01 4.00625E+00 0.00000E+00
 -1      2020 8.97045E+01 3.09687E+00 0.00000E+00
 -1      2021 8.82045E+01 3.09687E+00 0.00000E+00
 -1      2022 8.80350E+01 4.00625E+00 0.00000E+00
 -1      2023 9.27045E+01 3.09687E+00 0.00000E+00
 -1      2024 9.12045E+01 3.09687E+00 0.00000E+00
 -1      2025 9.10350E+01 4.00625E+00 0.00000E+00
 -1      2026 9.57045E+01 3.09687E+00 0.00000E+00
 -1      2027 9.42045E+01 3.09687E+00 0.00000E+00
 -1      2028 9.40350E+01 4.00625E+00 0.00000E+00
 -1      2029 9.87045E+01 3.09687E+00 0.00000E+00
 -1      2030 9.72045E+01 3.09687E+00 0.00000E+00
 -1      2031 9.70350E+01 4.00625E+00 0.00000E+00
 -1      2032 1.01704E+02 3.09687E+00 0.00000E+00
 -1      2033 1.00204E+02 3.09687E+00 0.00000E+00
 -1      2034 1.00035E+02 4.00625E+00 0.00000E+00
 -1      2035 1.04704E+02 3.09687E+00 0.00000E+00
 -1      2036 1.03204E+02 3.09687E+00 0.00000E+00
 -1      2037 1.03035E+02 4.00625E+00 0.00000E+00
 -1      2038 1.07704E+02 3.09687E+00 0.00000E+00
 -1      2039 1.06204E+02 3.09687E+00 0.00000E+00
 -1      2040 1.06035E+02 4.00625E+00 0.00000E+00
 -1      2041 1.10704E+02 3.09687E+00 0.00000E+00
 -1      2042 1.09204E+02 3.09687E+00 0.00000E+00
 -1      2043 1.09035E+02 4.00625E+00 0.00000E+00
 -1      2044 1.13704E+02 3.09687E+00 0.00000E+00
 -1      2045 1.12204E+02 3.09687E+00 0.00000E+00
 -1      2046 1.12035E+02 4.00625E+00 0.00000E+00
 -1      2047 1.16704E+02 3.09687E+00 0.00000E+00
 -1      2048 1.15204E+02 3.09687E+00 0.00000E+00
 -1      2049 1.15035E+02 4.00625E+00 0.00000E+00
 -1      2050 1.19704E+02 3.09687E+00 0.00000E+00
 -1      2051 1.18204E+02 3.09687E+00 0.00000E+00
 -1      2052 1.18035E+02 4.00625E+00 0.00000E+00
 -1      2053 1.22704E+02 3.09687E+00 0.00000E+00
 -1      2054 1.21204E+02 3.09687E+00 0.00000E+00
 -1      2055 1.21035E+02 4.00625E+00 0.00000E+00
 -1      2056 1.25704E+02 3.09687E+00 0.00000E+00
 -1      2057 1.24204E+02 3.09687E+00 0.00000E+00
 -1      2058 1.24035E+02 4.00625E+00 0.00000E+00
 -1      2059 1.28704E+02 3.09687E+00 0.00000E+00
 -1      2060 1.27204E+02 3.09687E+00 0.00000E+00
 -1      2061 1.27035E+02 4.00625E+00 0.00000E+00
 -1      2062 1.31704E+02 3.09687E+00 0.00000E+00
 -1      2063 1.30204E+02 3.09687E+00 0.00000E+00
 -1      2064 1.30035E+02 4.00625E+00 0.00000E+00
 -1      2065 1.34704E+02 3.09687E+00 0.00000E+00
 -1      2066 1.33204E+02 3.09687E+00 0.00000E+00
 -1      2067 1.33035E+02 4.00625E+00 0.00000E+00
 -1      2068 1.37704E+02 3.09687E+00 0.00000E+00
 -1      2069 1.36204E+02 3.09687E+00 0.00000E+00
 -1      2070 1.36035E+02 4.00625E+00 0.00000E+00
 -1      2071 1.40704E+02 3.09687E+00 0.00000E+00
 -1      2072 1.39204E+02 3.09687E+00 0.00000E+00
 -1      2073 1.39035E+02 4.00625E+00 0.00000E+00
 -1      2074 1.43704E+02 3.09687E+00 0.00000E+00
 -1      2075 1.42204E+02 3.09687E+00 0.00000E+00
 -1      2076 1.42035E+02 4.00625E+00 0.00000E+00
 -1      2077 1.46171E+02 3.20156E+00 0.00000E+00
 -1      2078 1.44671E+02 3.20156E+00 0.00000E+00
 -1      2079 1.44502E+02 4.11094E+00 0.00000E+00
 -1      2080 1.46435E+02 4.32031E+00 0.00000E+00
 -1      2081 1.46103E+02 1.25375E+01 0.00000E+00
 -1      2082 1.46103E+02 1.10625E+01 0.00000E+00
 -1      2083 1.46103E+02 9.58750E+00 0.00000E+00
 -1      2084 1.46103E+02 8.11250E+00 0.00000E+00
 -1      2085 1.44804E+02 1.03250E+01 0.00000E+00
 -1      2086 1.46269E+02 6.95391E+00 0.00000E+00
 -1      2087 1.46269E+02 5.47891E+00 0.00000E+00
 -1      2088 1.45302E+02 5.37422E+00 0.00000E+00
 -1      2089 1.44970E+02 7.69141E+00 0.00000E+00
 -1      2090 1.46103E+02 1.54375E+01 0.00000E+00
 -1      2091 1.46103E+02 1.39875E+01 0.00000E+00
 -1      2092 1.44804E+02 1.32500E+01 0.00000E+00
 -1      2093 1.46103E+02 1.83875E+01 0.00000E+00
 -1      2094 1.46103E+02 1.69125E+01 0.00000E+00
 -1      2095 1.44804E+02 1.61750E+01 0.00000E+00
 -1      2096 1.46103E+02 2.13375E+01 0.00000E+00
 -1      2097 1.46103E+02 1.98625E+01 0.00000E+00
 -1      2098 1.44804E+02 1.91250E+01 0.00000E+00
 -1      2099 1.46103E+02 2.42875E+01 0.00000E+00
 -1      2100 1.46103E+02 2.28125E+01 0.00000E+00
 -1      2101 1.44804E+02 2.20750E+01 0.00000E+00
 -1      2102 1.46103E+02 2.72375E+01 0.00000E+00
 -1      2103 1.46103E+02 2.57625E+01 0.00000E+00
 -1      2104 1.44804E+02 2.50250E+01 0.00000E+00
 -1      2105 1.46103E+02 3.01875E+01 0.00000E+00
 -1      2106 1.46103E+02 2.87125E+01 0.00000E+00
 -1      2107 1.44804E+02 2.79750E+01 0.00000E+00
 -1      2108 1.46103E+02 3.30875E+01 0.00000E+00
 -1      2109 1.46103E+02 3.16375E+01 0.00000E+00
 -1      2110 1.44804E+02 3.09000E+01 0.00000E+00
 -1      2111 1.46103E+02 3.60375E+01 0.00000E+00
 -1      2112 1.46103E+02 3.45625E+01 0.00000E+00
 -1      2113 1.44804E+02 3.38250E+01 0.00000E+00
 -1      2114 1.46103E+02 3.89875E+01 0.00000E+00
 -1      2115 1.46103E+02 3.75125E+01 0.00000E+00
 -1      2116 1.44804E+02 3.67750E+01 0.00000E+00
 -1      2117 1.46103E+02 4.19375E+01 0.00000E+00
 -1      2118 1.46103E+02 4.04625E+01 0.00000E+00
 -1      2119 1.44804E+02 3.97250E+01 0.00000E+00
 -1      2120 9.23164E+01 2.11564E+01 0.00000E+00
 -1      2121 9.26258E+01 2.19568E+01 0.00000E+00
 -1      2122 9.31304E+01 2.46897E+01 0.00000E+00
 -1      2123 9.31282E+01 2.55521E+01 0.00000E+00
 -1      2124 9.28988E+01 2.28769E+01 0.00000E+00
 -1      2125 9.30721E+01 2.37023E+01 0.00000E+00
 -1      2126 9.12386E+01 1.95497E+01 0.00000E+00
 -1      2127 9.17843E+01 2.02327E+01 0.00000E+00
 -1      2128 9.00457E+01 1.81897E+01 0.00000E+00
 -1      2129 9.06656E+01 1.87536E+01 0.00000E+00
 -1      2130 3.89700E+00 3.74688E+01 0.00000E+00
 -1      2131 3.89700E+00 3.89437E+01 0.00000E+00
 -1      2132 5.19600E+00 3.96813E+01 0.00000E+00
 -1      2133 5.19600E+00 3.67438E+01 0.00000E+00
 -1      2134 8.66146E+01 1.63836E+01 0.00000E+00
 -1      2135 8.75011E+01 1.65431E+01 0.00000E+00
 -1      2136 8.48619E+01 1.60492E+01 0.00000E+00
 -1      2137 8.57383E+01 1.62164E+01 0.00000E+00
 -1      2138 8.63259E+01 1.54934E+01 0.00000E+00
 -1      2139 8.28162E+01 1.61083E+01 0.00000E+00
 -1      2140 8.37487E+01 1.60366E+01 0.00000E+00
 -1      2141 8.08325E+01 1.67427E+01 0.00000E+00
 -1      2142 8.16566E+01 1.63639E+01 0.00000E+00
 -1      2143 7.94366E+01 1.76985E+01 0.00000E+00
 -1      2144 8.01346E+01 1.72206E+01 0.00000E+00
 -1      2145 8.02060E+01 1.62901E+01 0.00000E+00
 -1      2146 7.78568E+01 1.89053E+01 0.00000E+00
 -1      2147 7.85561E+01 1.83413E+01 0.00000E+00
 -1      2148 7.66375E+01 2.05694E+01 0.00000E+00
 -1      2149 7.70714E+01 1.97794E+01 0.00000E+00
 -1      2150 7.60267E+01 2.23089E+01 0.00000E+00
 -1      2151 7.63386E+01 2.15046E+01 0.00000E+00
 -1      2152 7.53068E+01 2.40737E+01 0.00000E+00
 -1      2153 7.55312E+01 2.31819E+01 0.00000E+00
 -1      2154 7.54632E+01 2.61649E+01 0.00000E+00
 -1      2155 7.53287E+01 2.52855E+01 0.00000E+00
 -1      2156 7.57855E+01 2.78956E+01 0.00000E+00
 -1      2157 7.56243E+01 2.70302E+01 0.00000E+00
 -1      2158 7.47922E+01 2.67075E+01 0.00000E+00
 -1      2159 7.64389E+01 2.98532E+01 0.00000E+00
 -1      2160 7.60594E+01 2.89801E+01 0.00000E+00
 -1      2161 7.79385E+01 3.14878E+01 0.00000E+00
 -1      2162 7.72236E+01 3.08599E+01 0.00000E+00
 -1      2163 7.95168E+01 3.25196E+01 0.00000E+00
 -1      2164 7.87891E+01 3.20368E+01 0.00000E+00
 -1      2165 8.10738E+01 3.35536E+01 0.00000E+00
 -1      2166 8.02953E+01 3.30366E+01 0.00000E+00
 -1      2167 7.95500E+01 3.33702E+01 0.00000E+00
 -1      2168 8.31794E+01 3.41656E+01 0.00000E+00
 -1      2169 8.22364E+01 3.41058E+01 0.00000E+00
 -1      2170 8.50682E+01 3.39439E+01 0.00000E+00
 -1      2171 8.41736E+01 3.39729E+01 0.00000E+00
 -1      2172 8.70043E+01 3.35894E+01 0.00000E+00
 -1      2173 8.61391E+01 3.38512E+01 0.00000E+00
 -1      2174 8.87744E+01 3.28573E+01 0.00000E+00
 -1      2175 8.79433E+01 3.32352E+01 0.00000E+00
 -1      2176 9.03725E+01 3.15840E+01 0.00000E+00
 -1      2177 8.96916E+01 3.22031E+01 0.00000E+00
 -1      2178 9.16766E+01 3.01794E+01 0.00000E+00
 -1      2179 9.11332E+01 3.08841E+01 0.00000E+00
 -1      2180 9.25357E+01 2.84546E+01 0.00000E+00
 -1      2181 9.21188E+01 2.92543E+01 0.00000E+00
 -1      2182 9.31639E+01 2.65581E+01 0.00000E+00
 -1      2183 9.30092E+01 2.74448E+01 0.00000E+00
 -1      2184 8.86587E+01 1.71041E+01 0.00000E+00
 -1      2185 8.93522E+01 1.76469E+01 0.00000E+00
 -1      2186 9.02110E+01 1.73255E+01 0.00000E+00
 -1      2187 9.14775E+01 1.86644E+01 0.00000E+00
 -1      2188 6.42300E+00 4.57510E+01 0.00000E+00
 -1      2189 8.83599E+01 1.62216E+01 0.00000E+00
 -1      2190 7.17300E+00 4.44520E+01 0.00000E+00
 -1      2191 9.33877E+01 2.22279E+01 0.00000E+00
 -1      2192 9.37190E+01 2.41352E+01 0.00000E+00
 -1      2193 1.45665E+02 4.31193E+01 0.00000E+00
 -1      2194 9.25826E+01 2.03842E+01 0.00000E+00
 -1      2195 9.38131E+01 2.61285E+01 0.00000E+00
 -1      2196 9.33754E+01 2.81443E+01 0.00000E+00
 -1      2197 9.24598E+01 3.00792E+01 0.00000E+00
 -1      2198 9.12570E+01 3.17041E+01 0.00000E+00
 -1      2199 8.95790E+01 3.30583E+01 0.00000E+00
 -1      2200 8.77228E+01 3.40667E+01 0.00000E+00
 -1      2201 8.57128E+01 3.45135E+01 0.00000E+00
 -1      2202 8.14911E+01 3.44393E+01 0.00000E+00
 -1      2203 8.07457E+01 3.47729E+01 0.00000E+00
 -1      2204 8.19083E+01 3.53251E+01 0.00000E+00
 -1      2205 7.79210E+01 3.23042E+01 0.00000E+00
 -1      2206 7.52273E+01 2.86573E+01 0.00000E+00
 -1      2207 7.46092E+01 2.46304E+01 0.00000E+00
 -1      2208 7.50829E+01 2.25455E+01 0.00000E+00
 -1      2209 7.58773E+01 2.07372E+01 0.00000E+00
 -1      2210 7.86275E+01 1.74108E+01 0.00000E+00
 -1      2211 8.43363E+01 1.53136E+01 0.00000E+00
 -1      2212 8.20635E+01 1.55566E+01 0.00000E+00
 -1      2213 7.69616E+01 1.89277E+01 0.00000E+00
 -1      2214 7.62858E+01 3.07485E+01 0.00000E+00
 -1      2215 8.36478E+01 3.47989E+01 0.00000E+00
 -1      2216 1.07850E+01 5.30525E+00 0.00000E+00
 -1      2217 9.28500E+00 5.30525E+00 0.00000E+00
 -1      2218 6.49500E+00 3.01125E+01 0.00000E+00
 -1      2219 6.49500E+00 3.15875E+01 0.00000E+00
 -1      2220 6.49500E+00 3.30625E+01 0.00000E+00
 -1      2221 6.49500E+00 3.45375E+01 0.00000E+00
 -1      2222 7.79400E+00 3.23250E+01 0.00000E+00
 -1      2223 6.49500E+00 2.42125E+01 0.00000E+00
 -1      2224 6.49500E+00 2.56875E+01 0.00000E+00
 -1      2225 6.49500E+00 2.12625E+01 0.00000E+00
 -1      2226 6.49500E+00 2.27375E+01 0.00000E+00
 -1      2227 7.79400E+00 2.34750E+01 0.00000E+00
 -1      2228 6.49500E+00 1.83625E+01 0.00000E+00
 -1      2229 6.49500E+00 1.98125E+01 0.00000E+00
 -1      2230 7.79400E+00 2.05500E+01 0.00000E+00
 -1      2231 6.49500E+00 1.54125E+01 0.00000E+00
 -1      2232 6.49500E+00 1.68875E+01 0.00000E+00
 -1      2233 7.79400E+00 1.76250E+01 0.00000E+00
 -1      2234 6.49500E+00 1.24625E+01 0.00000E+00
 -1      2235 6.49500E+00 1.39375E+01 0.00000E+00
 -1      2236 7.79400E+00 1.46750E+01 0.00000E+00
 -1      2237 6.49500E+00 9.51250E+00 0.00000E+00
 -1      2238 6.49500E+00 1.09875E+01 0.00000E+00
 -1      2239 7.79400E+00 1.17250E+01 0.00000E+00
 -1      2240 9.19550E+01 1.77164E+01 0.00000E+00
 -1      2241 9.25280E+01 1.85125E+01 0.00000E+00
 -1      2242 1.37850E+01 5.30525E+00 0.00000E+00
 -1      2243 1.22850E+01 5.30525E+00 0.00000E+00
 -1      2244 1.15350E+01 6.60425E+00 0.00000E+00
 -1      2245 9.90000E+00 4.35050E+01 0.00000E+00
 -1      2246 1.14000E+01 4.35050E+01 0.00000E+00
 -1      2247 8.81916E+01 1.50940E+01 0.00000E+00
 -1      2248 8.93493E+01 1.56550E+01 0.00000E+00
 -1      2249 1.29000E+01 4.35050E+01 0.00000E+00
 -1      2250 1.44000E+01 4.35050E+01 0.00000E+00
 -1      2251 1.21500E+01 4.22060E+01 0.00000E+00
 -1      2252 1.59000E+01 4.35050E+01 0.00000E+00
 -1      2253 1.74000E+01 4.35050E+01 0.00000E+00
 -1      2254 1.51500E+01 4.22060E+01 0.00000E+00
 -1      2255 1.89000E+01 4.35050E+01 0.00000E+00
 -1      2256 2.04000E+01 4.35050E+01 0.00000E+00
 -1      2257 1.81500E+01 4.22060E+01 0.00000E+00
 -1      2258 2.19000E+01 4.35050E+01 0.00000E+00
 -1      2259 2.34000E+01 4.35050E+01 0.00000E+00
 -1      2260 2.11500E+01 4.22060E+01 0.00000E+00
 -1      2261 2.49000E+01 4.35050E+01 0.00000E+00
 -1      2262 2.64000E+01 4.35050E+01 0.00000E+00
 -1      2263 2.41500E+01 4.22060E+01 0.00000E+00
 -1      2264 2.79000E+01 4.35050E+01 0.00000E+00
 -1      2265 2.94000E+01 4.35050E+01 0.00000E+00
 -1      2266 2.71500E+01 4.22060E+01 0.00000E+00
 -1      2267 3.09000E+01 4.35050E+01 0.00000E+00
 -1      2268 3.24000E+01 4.35050E+01 0.00000E+00
 -1      2269 3.01500E+01 4.22060E+01 0.00000E+00
 -1      2270 3.39000E+01 4.35050E+01 0.00000E+00
 -1      2271 3.54000E+01 4.35050E+01 0.00000E+00
 -1      2272 3.31500E+01 4.22060E+01 0.00000E+00
 -1      2273 3.69000E+01 4.35050E+01 0.00000E+00
 -1      2274 3.84000E+01 4.35050E+01 0.00000E+00
 -1      2275 3.61500E+01 4.22060E+01 0.00000E+00
 -1      2276 3.99000E+01 4.35050E+01 0.00000E+00
 -1      2277 4.14000E+01 4.35050E+01 0.00000E+00
 -1      2278 3.91500E+01 4.22060E+01 0.00000E+00
 -1      2279 4.29000E+01 4.35050E+01 0.00000E+00
 -1      2280 4.44000E+01 4.35050E+01 0.00000E+00
 -1      2281 4.21500E+01 4.22060E+01 0.00000E+00
 -1      2282 4.59000E+01 4.35050E+01 0.00000E+00
 -1      2283 4.74000E+01 4.35050E+01 0.00000E+00
 -1      2284 4.51500E+01 4.22060E+01 0.00000E+00
 -1      2285 4.89000E+01 4.35050E+01 0.00000E+00
 -1      2286 5.04000E+01 4.35050E+01 0.00000E+00
 -1      2287 4.81500E+01 4.22060E+01 0.00000E+00
 -1      2288 5.19000E+01 4.35050E+01 0.00000E+00
 -1      2289 5.34000E+01 4.35050E+01 0.00000E+00
 -1      2290 5.11500E+01 4.22060E+01 0.00000E+00
 -1      2291 5.49000E+01 4.35050E+01 0.00000E+00
 -1      2292 5.64000E+01 4.35050E+01 0.00000E+00
 -1      2293 5.41500E+01 4.22060E+01 0.00000E+00
 -1      2294 5.79000E+01 4.35050E+01 0.00000E+00
 -1      2295 5.94000E+01 4.35050E+01 0.00000E+00
 -1      2296 5.71500E+01 4.22060E+01 0.00000E+00
 -1      2297 6.09000E+01 4.35050E+01 0.00000E+00
 -1      2298 6.24000E+01 4.35050E+01 0.00000E+00
 -1      2299 6.01500E+01 4.22060E+01 0.00000E+00
 -1      2300 6.39000E+01 4.35050E+01 0.00000E+00
 -1      2301 6.54000E+01 4.35050E+01 0.00000E+00
 -1      2302 6.31500E+01 4.22060E+01 0.00000E+00
 -1      2303 6.69000E+01 4.35050E+01 0.00000E+00
 -1      2304 6.84000E+01 4.35050E+01 0.00000E+00
 -1      2305 6.61500E+01 4.22060E+01 0.00000E+00
 -1      2306 6.99000E+01 4.35050E+01 0.00000E+00
 -1      2307 7.14000E+01 4.35050E+01 0.00000E+00
 -1      2308 6.91500E+01 4.22060E+01 0.00000E+00
 -1      2309 7.29000E+01 4.35050E+01 0.00000E+00
 -1      2310 7.44000E+01 4.35050E+01 0.00000E+00
 -1      2311 7.21500E+01 4.22060E+01 0.00000E+00
 -1      2312 7.59000E+01 4.35050E+01 0.00000E+00
 -1      2313 7.74000E+01 4.35050E+01 0.00000E+00
 -1      2314 7.51500E+01 4.22060E+01 0.00000E+00
 -1      2315 7.89000E+01 4.35050E+01 0.00000E+00
 -1      2316 8.04000E+01 4.35050E+01 0.00000E+00
 -1      2317 7.81500E+01 4.22060E+01 0.00000E+00
 -1      2318 8.19000E+01 4.35050E+01 0.00000E+00
 -1      2319 8.34000E+01 4.35050E+01 0.00000E+00
 -1      2320 8.11500E+01 4.22060E+01 0.00000E+00
 -1      2321 8.49000E+01 4.35050E+01 0.00000E+00
 -1      2322 8.64000E+01 4.35050E+01 0.00000E+00
 -1      2323 8.41500E+01 4.22060E+01 0.00000E+00
 -1      2324 8.79000E+01 4.35050E+01 0.00000E+00
 -1      2325 8.94000E+01 4.35050E+01 0.00000E+00
 -1      2326 8.71500E+01 4.22060E+01 0.00000E+00
 -1      2327 9.09000E+01 4.35050E+01 0.00000E+00
 -1      2328 9.24000E+01 4.35050E+01 0.00000E+00
 -1      2329 9.01500E+01 4.22060E+01 0.00000E+00
 -1      2330 9.39000E+01 4.35050E+01 0.00000E+00
 -1      2331 9.54000E+01 4.35050E+01 0.00000E+00
 -1      2332 9.31500E+01 4.22060E+01 0.00000E+00
 -1      2333 9.69000E+01 4.35050E+01 0.00000E+00
 -1      2334 9.84000E+01 4.35050E+01 0.00000E+00
 -1      2335 9.61500E+01 4.22060E+01 0.00000E+00
 -1      2336 9.99000E+01 4.35050E+01 0.00000E+00
 -1      2337 1.01400E+02 4.35050E+01 0.00000E+00
 -1      2338 9.91500E+01 4.22060E+01 0.00000E+00
 -1      2339 1.02900E+02 4.35050E+01 0.00000E+00
 -1      2340 1.04400E+02 4.35050E+01 0.00000E+00
 -1      2341 1.02150E+02 4.22060E+01 0.00000E+00
 -1      2342 1.05900E+02 4.35050E+01 0.00000E+00
 -1      2343 1.07400E+02 4.35050E+01 0.00000E+00
 -1      2344 1.05150E+02 4.22060E+01 0.00000E+00
 -1      2345 1.08900E+02 4.35050E+01 0.00000E+00
 -1      2346 1.10400E+02 4.35050E+01 0.00000E+00
 -1      2347 1.08150E+02 4.22060E+01 0.00000E+00
 -1      2348 1.11900E+02 4.35050E+01 0.00000E+00
 -1      2349 1.13400E+02 4.35050E+01 0.00000E+00
 -1      2350 1.11150E+02 4.22060E+01 0.00000E+00
 -1      2351 1.14900E+02 4.35050E+01 0.00000E+00
 -1      2352 1.16400E+02 4.35050E+01 0.00000E+00
 -1      2353 1.14150E+02 4.22060E+01 0.00000E+00
 -1      2354 1.17900E+02 4.35050E+01 0.00000E+00
 -1      2355 1.19400E+02 4.35050E+01 0.00000E+00
 -1      2356 1.17150E+02 4.22060E+01 0.00000E+00
 -1      2357 1.20900E+02 4.35050E+01 0.00000E+00
 -1      2358 1.22400E+02 4.35050E+01 0.00000E+00
 -1      2359 1.20150E+02 4.22060E+01 0.00000E+00
 -1      2360 1.23900E+02 4.35050E+01 0.00000E+00
 -1      2361 1.25400E+02 4.35050E+01 0.00000E+00
 -1      2362 1.23150E+02 4.22060E+01 0.00000E+00
 -1      2363 1.26900E+02 4.35050E+01 0.00000E+00
 -1      2364 1.28400E+02 4.35050E+01 0.00000E+00
 -1      2365 1.26150E+02 4.22060E+01 0.00000E+00
 -1      2366 1.29900E+02 4.35050E+01 0.00000E+00
 -1      2367 1.31400E+02 4.35050E+01 0.00000E+00
 -1      2368 1.29150E+02 4.22060E+01 0.00000E+00
 -1      2369 1.32900E+02 4.35050E+01 0.00000E+00
 -1      2370 1.34400E+02 4.35050E+01 0.00000E+00
 -1      2371 1.32150E+02 4.22060E+01 0.00000E+00
 -1      2372 1.35900E+02 4.35050E+01 0.00000E+00
 -1      2373 1.37400E+02 4.35050E+01 0.00000E+00
 -1      2374 1.35150E+02 4.22060E+01 0.00000E+00
 -1      2375 1.38900E+02 4.35050E+01 0.00000E+00
 -1      2376 1.40400E+02 4.35050E+01 0.00000E+00
 -1      2377 1.38150E+02 4.22060E+01 0.00000E+00
 -1      2378 1.97850E+01 5.30525E+00 0.00000E+00
 -1      2379 1.82850E+01 5.30525E+00 0.00000E+00
 -1      2380 2.27850E+01 5.30525E+00 0.00000E+00
 -1      2381 2.12850E+01 5.30525E+00 0.00000E+00
 -1      2382 2.05350E+01 6.60425E+00 0.00000E+00
 -1      2383 2.57850E+01 5.30525E+00 0.00000E+00
 -1      2384 2.42850E+01 5.30525E+00 0.00000E+00
 -1      2385 2.35350E+01 6.60425E+00 0.00000E+00
 -1      2386 2.87850E+01 5.30525E+00 0.00000E+00
 -1      2387 2.72850E+01 5.30525E+00 0.00000E+00
 -1      2388 2.65350E+01 6.60425E+00 0.00000E+00
 -1      2389 3.17850E+01 5.30525E+00 0.00000E+00
 -1      2390 3.02850E+01 5.30525E+00 0.00000E+00
 -1      2391 2.95350E+01 6.60425E+00 0.00000E+00
 -1      2392 3.47850E+01 5.30525E+00 0.00000E+00
 -1      2393 3.32850E+01 5.30525E+00 0.00000E+00
 -1      2394 3.25350E+01 6.60425E+00 0.00000E+00
 -1      2395 3.77850E+01 5.30525E+00 0.00000E+00
 -1      2396 3.62850E+01 5.30525E+00 0.00000E+00
 -1      2397 3.55350E+01 6.60425E+00 0.00000E+00
 -1      2398 4.07850E+01 5.30525E+00 0.00000E+00
 -1      2399 3.92850E+01 5.30525E+00 0.00000E+00
 -1      2400 3.85350E+01 6.60425E+00 0.00000E+00
 -1      2401 4.37850E+01 5.30525E+00 0.00000E+00
 -1      2402 4.22850E+01 5.30525E+00 0.00000E+00
 -1      2403 4.15350E+01 6.60425E+00 0.00000E+00
 -1      2404 4.67850E+01 5.30525E+00 0.00000E+00
 -1      2405 4.52850E+01 5.30525E+00 0.00000E+00
 -1      2406 4.45350E+01 6.60425E+00 0.00000E+00
 -1      2407 4.97850E+01 5.30525E+00 0.00000E+00
 -1      2408 4.82850E+01 5.30525E+00 0.00000E+00
 -1      2409 4.75350E+01 6.60425E+00 0.00000E+00
 -1      2410 5.27850E+01 5.30525E+00 0.00000E+00
 -1      2411 5.12850E+01 5.30525E+00 0.00000E+00
 -1      2412 5.05350E+01 6.60425E+00 0.00000E+00
 -1      2413 5.57850E+01 5.30525E+00 0.00000E+00
 -1      2414 5.42850E+01 5.30525E+00 0.00000E+00
 -1      2415 5.35350E+01 6.60425E+00 0.00000E+00
 -1      2416 5.87850E+01 5.30525E+00 0.00000E+00
 -1      2417 5.72850E+01 5.30525E+00 0.00000E+00
 -1      2418 5.65350E+01 6.60425E+00 0.00000E+00
 -1      2419 6.17850E+01 5.30525E+00 0.00000E+00
 -1      2420 6.02850E+01 5.30525E+00 0.00000E+00
 -1      2421 5.95350E+01 6.60425E+00 0.00000E+00
 -1      2422 6.47850E+01 5.30525E+00 0.00000E+00
 -1      2423 6.32850E+01 5.30525E+00 0.00000E+00
 -1      2424 6.25350E+01 6.60425E+00 0.00000E+00
 -1      2425 6.77850E+01 5.30525E+00 0.00000E+00
 -1      2426 6.62850E+01 5.30525E+00 0.00000E+00
 -1      2427 6.55350E+01 6.60425E+00 0.00000E+00
 -1      2428 7.07850E+01 5.30525E+00 0.00000E+00
 -1      2429 6.92850E+01 5.30525E+00 0.00000E+00
 -1      2430 6.85350E+01 6.60425E+00 0.00000E+00
 -1      2431 7.37850E+01 5.30525E+00 0.00000E+00
 -1      2432 7.22850E+01 5.30525E+00 0.00000E+00
 -1      2433 7.15350E+01 6.60425E+00 0.00000E+00
 -1      2434 7.67850E+01 5.30525E+00 0.00000E+00
 -1      2435 7.52850E+01 5.30525E+00 0.00000E+00
 -1      2436 7.45350E+01 6.60425E+00 0.00000E+00
 -1      2437 7.97850E+01 5.30525E+00 0.00000E+00
 -1      2438 7.82850E+01 5.30525E+00 0.00000E+00
 -1      2439 7.75350E+01 6.60425E+00 0.00000E+00
 -1      2440 8.27850E+01 5.30525E+00 0.00000E+00
 -1      2441 8.12850E+01 5.30525E+00 0.00000E+00
 -1      2442 8.05350E+01 6.60425E+00 0.00000E+00
 -1      2443 8.57850E+01 5.30525E+00 0.00000E+00
 -1      2444 8.42850E+01 5.30525E+00 0.00000E+00
 -1      2445 8.35350E+01 6.60425E+00 0.00000E+00
 -1      2446 8.87850E+01 5.30525E+00 0.00000E+00
 -1      2447 8.72850E+01 5.30525E+00 0.00000E+00
 -1      2448 8.65350E+01 6.60425E+00 0.00000E+00
 -1      2449 9.17850E+01 5.30525E+00 0.00000E+00
 -1      2450 9.02850E+01 5.30525E+00 0.00000E+00
 -1      2451 8.95350E+01 6.60425E+00 0.00000E+00
 -1      2452 9.47850E+01 5.30525E+00 0.00000E+00
 -1      2453 9.32850E+01 5.30525E+00 0.00000E+00
 -1      2454 9.25350E+01 6.60425E+00 0.00000E+00
 -1      2455 9.77850E+01 5.30525E+00 0.00000E+00
 -1      2456 9.62850E+01 5.30525E+00 0.00000E+00
 -1      2457 9.55350E+01 6.60425E+00 0.00000E+00
 -1      2458 1.00785E+02 5.30525E+00 0.00000E+00
 -1      2459 9.92850E+01 5.30525E+00 0.00000E+00
 -1      2460 9.85350E+01 6.60425E+00 0.00000E+00
 -1      2461 1.03785E+02 5.30525E+00 0.00000E+00
 -1      2462 1.02285E+02 5.30525E+00 0.00000E+00
 -1      2463 1.01535E+02 6.60425E+00 0.00000E+00
 -1      2464 1.06785E+02 5.30525E+00 0.00000E+00
 -1      2465 1.05285E+02 5.30525E+00 0.00000E+00
 -1      2466 1.04535E+02 6.60425E+00 0.00000E+00
 -1      2467 1.09785E+02 5.30525E+00 0.00000E+00
 -1      2468 1.08285E+02 5.30525E+00 0.00000E+00
 -1      2469 1.07535E+02 6.60425E+00 0.00000E+00
 -1      2470 1.12785E+02 5.30525E+00 0.00000E+00
 -1      2471 1.11285E+02 5.30525E+00 0.00000E+00
 -1      2472 1.10535E+02 6.60425E+00 0.00000E+00
 -1      2473 1.15785E+02 5.30525E+00 0.00000E+00
 -1      2474 1.14285E+02 5.30525E+00 0.00000E+00
 -1      2475 1.13535E+02 6.60425E+00 0.00000E+00
 -1      2476 1.18785E+02 5.30525E+00 0.00000E+00
 -1      2477 1.17285E+02 5.30525E+00 0.00000E+00
 -1      2478 1.16535E+02 6.60425E+00 0.00000E+00
 -1      2479 1.21785E+02 5.30525E+00 0.00000E+00
 -1      2480 1.20285E+02 5.30525E+00 0.00000E+00
 -1      2481 1.19535E+02 6.60425E+00 0.00000E+00
 -1      2482 1.24785E+02 5.30525E+00 0.00000E+00
 -1      2483 1.23285E+02 5.30525E+00 0.00000E+00
 -1      2484 1.22535E+02 6.60425E+00 0.00000E+00
 -1      2485 1.27785E+02 5.30525E+00 0.00000E+00
 -1      2486 1.26285E+02 5.30525E+00 0.00000E+00
 -1      2487 1.25535E+02 6.60425E+00 0.00000E+00
 -1      2488 1.30785E+02 5.30525E+00 0.00000E+00
 -1      2489 1.29285E+02 5.30525E+00 0.00000E+00
 -1      2490 1.28535E+02 6.60425E+00 0.00000E+00
 -1      2491 1.33785E+02 5.30525E+00 0.00000E+00
 -1      2492 1.32285E+02 5.30525E+00 0.00000E+00
 -1      2493 1.31535E+02 6.60425E+00 0.00000E+00
 -1      2494 1.36785E+02 5.30525E+00 0.00000E+00
 -1      2495 1.35285E+02 5.30525E+00 0.00000E+00
 -1      2496 1.34535E+02 6.60425E+00 0.00000E+00
 -1      2497 1.39785E+02 5.30525E+00 0.00000E+00
 -1      2498 1.38285E+02 5.30525E+00 0.00000E+00
 -1      2499 1.37535E+02 6.60425E+00 0.00000E+00
 -1      2500 1.42785E+02 5.30525E+00 0.00000E+00
 -1      2501 1.41285E+02 5.30525E+00 0.00000E+00
 -1      2502 1.40535E+02 6.60425E+00 0.00000E+00
 -1      2503 1.44336E+02 5.26953E+00 0.00000E+00
 -1      2504 1.43505E+02 1.69125E+01 0.00000E+00
 -1      2505 1.43505E+02 1.54375E+01 0.00000E+00
 -1      2506 1.43505E+02 1.98625E+01 0.00000E+00
 -1      2507 1.43505E+02 1.83875E+01 0.00000E+00
 -1      2508 1.42206E+02 1.76500E+01 0.00000E+00
 -1      2509 1.43505E+02 1.10625E+01 0.00000E+00
 -1      2510 1.43505E+02 9.58750E+00 0.00000E+00
 -1      2511 1.43505E+02 1.39750E+01 0.00000E+00
 -1      2512 1.43505E+02 1.25250E+01 0.00000E+00
 -1      2513 1.42206E+02 1.17875E+01 0.00000E+00
 -1      2514 1.42206E+02 1.47125E+01 0.00000E+00
 -1      2515 1.43505E+02 2.28125E+01 0.00000E+00
 -1      2516 1.43505E+02 2.13375E+01 0.00000E+00
 -1      2517 1.42206E+02 2.06000E+01 0.00000E+00
 -1      2518 1.43505E+02 2.57625E+01 0.00000E+00
 -1      2519 1.43505E+02 2.42875E+01 0.00000E+00
 -1      2520 1.42206E+02 2.35500E+01 0.00000E+00
 -1      2521 1.43505E+02 2.87125E+01 0.00000E+00
 -1      2522 1.43505E+02 2.72375E+01 0.00000E+00
 -1      2523 1.42206E+02 2.65000E+01 0.00000E+00
 -1      2524 1.43505E+02 3.16125E+01 0.00000E+00
 -1      2525 1.43505E+02 3.01625E+01 0.00000E+00
 -1      2526 1.42206E+02 2.94250E+01 0.00000E+00
 -1      2527 1.43505E+02 3.45625E+01 0.00000E+00
 -1      2528 1.43505E+02 3.30875E+01 0.00000E+00
 -1      2529 1.42206E+02 3.23500E+01 0.00000E+00
 -1      2530 1.43505E+02 3.75125E+01 0.00000E+00
 -1      2531 1.43505E+02 3.60375E+01 0.00000E+00
 -1      2532 1.42206E+02 3.53000E+01 0.00000E+00
 -1      2533 1.43505E+02 4.04625E+01 0.00000E+00
 -1      2534 1.43505E+02 3.89875E+01 0.00000E+00
 -1      2535 1.42206E+02 3.82500E+01 0.00000E+00
 -1      2536 9.45459E+01 2.35910E+01 0.00000E+00
 -1      2537 9.46043E+01 2.45783E+01 0.00000E+00
 -1      2538 9.30601E+01 1.94362E+01 0.00000E+00
 -1      2539 9.35922E+01 2.03599E+01 0.00000E+00
 -1      2540 9.35376E+01 1.84882E+01 0.00000E+00
 -1      2541 1.67850E+01 5.30525E+00 0.00000E+00
 -1      2542 1.52850E+01 5.30525E+00 0.00000E+00
 -1      2543 1.75350E+01 6.60425E+00 0.00000E+00
 -1      2544 1.44321E+02 4.30606E+01 0.00000E+00
 -1      2545 9.46400E+01 2.55843E+01 0.00000E+00
 -1      2546 9.46757E+01 2.65902E+01 0.00000E+00
 -1      2547 9.54669E+01 2.50400E+01 0.00000E+00
 -1      2548 9.39930E+01 2.15477E+01 0.00000E+00
 -1      2549 9.42660E+01 2.24677E+01 0.00000E+00
 -1      2550 6.55950E+00 4.28890E+01 0.00000E+00
 -1      2551 8.53650E+00 4.32410E+01 0.00000E+00
 -1      2552 9.28650E+00 4.19420E+01 0.00000E+00
 -1      2553 6.55950E+00 4.14140E+01 0.00000E+00
 -1      2554 9.43885E+01 2.80034E+01 0.00000E+00
 -1      2555 9.39151E+01 2.90132E+01 0.00000E+00
 -1      2556 7.79493E+01 3.31936E+01 0.00000E+00
 -1      2557 7.70988E+01 3.26447E+01 0.00000E+00
 -1      2558 7.38046E+01 2.52510E+01 0.00000E+00
 -1      2559 7.37828E+01 2.40392E+01 0.00000E+00
 -1      2560 8.37885E+01 1.45336E+01 0.00000E+00
 -1      2561 8.49017E+01 1.45461E+01 0.00000E+00
 -1      2562 6.49500E+00 2.71625E+01 0.00000E+00
 -1      2563 6.49500E+00 2.86375E+01 0.00000E+00
 -1      2564 7.79400E+00 2.93750E+01 0.00000E+00
 -1      2565 7.79400E+00 2.64250E+01 0.00000E+00
 -1      2566 8.12991E+01 1.48469E+01 0.00000E+00
 -1      2567 8.24587E+01 1.45913E+01 0.00000E+00
 -1      2568 8.60484E+01 1.45674E+01 0.00000E+00
 -1      2569 8.69248E+01 1.47346E+01 0.00000E+00
 -1      2570 7.59622E+01 1.88197E+01 0.00000E+00
 -1      2571 7.67476E+01 1.79455E+01 0.00000E+00
 -1      2572 7.93251E+01 1.57524E+01 0.00000E+00
 -1      2573 8.00231E+01 1.52744E+01 0.00000E+00
 -1      2574 7.60348E+01 3.17533E+01 0.00000E+00
 -1      2575 7.52501E+01 3.07466E+01 0.00000E+00
 -1      2576 7.75642E+01 1.70379E+01 0.00000E+00
 -1      2577 7.84447E+01 1.63951E+01 0.00000E+00
 -1      2578 7.82618E+01 1.53795E+01 0.00000E+00
 -1      2579 7.49509E+01 2.09565E+01 0.00000E+00
 -1      2580 7.52498E+01 2.00212E+01 0.00000E+00
 -1      2581 7.39599E+01 2.27026E+01 0.00000E+00
 -1      2582 7.44554E+01 2.18296E+01 0.00000E+00
 -1      2583 7.38279E+01 2.11136E+01 0.00000E+00
 -1      2584 7.41945E+01 2.72665E+01 0.00000E+00
 -1      2585 7.40333E+01 2.64012E+01 0.00000E+00
 -1      2586 8.42841E+01 3.54210E+01 0.00000E+00
 -1      2587 8.32900E+01 3.56137E+01 0.00000E+00
 -1      2588 7.45327E+01 2.94096E+01 0.00000E+00
 -1      2589 7.42589E+01 2.83251E+01 0.00000E+00
 -1      2590 7.95063E+01 3.42276E+01 0.00000E+00
 -1      2591 7.87278E+01 3.37106E+01 0.00000E+00
 -1      2592 7.79057E+01 3.40510E+01 0.00000E+00
 -1      2593 8.64259E+01 3.52356E+01 0.00000E+00
 -1      2594 8.53550E+01 3.53283E+01 0.00000E+00
 -1      2595 8.49972E+01 3.61432E+01 0.00000E+00
 -1      2596 8.84801E+01 3.46528E+01 0.00000E+00
 -1      2597 8.75411E+01 3.50069E+01 0.00000E+00
 -1      2598 9.05356E+01 3.34293E+01 0.00000E+00
 -1      2599 8.96184E+01 3.40835E+01 0.00000E+00
 -1      2600 9.21612E+01 3.19236E+01 0.00000E+00
 -1      2601 9.14005E+01 3.26235E+01 0.00000E+00
 -1      2602 9.34730E+01 2.99383E+01 0.00000E+00
 -1      2603 9.30308E+01 3.08634E+01 0.00000E+00
 -1      2604 9.44861E+01 2.97974E+01 0.00000E+00
 -1      2605 9.04961E+01 1.62468E+01 0.00000E+00
 -1      2606 9.11896E+01 1.67896E+01 0.00000E+00
 -1      2607 8.07525E+00 5.11044E+00 0.00000E+00
 -1      2608 6.57525E+00 5.11044E+00 0.00000E+00
 -1      2609 6.40575E+00 6.01981E+00 0.00000E+00
 -1      2610 8.82525E+00 6.40944E+00 0.00000E+00
 -1      2611 8.30241E+01 1.38239E+01 0.00000E+00
 -1      2612 7.79400E+00 3.52687E+01 0.00000E+00
 -1      2613 6.49500E+00 3.60062E+01 0.00000E+00
 -1      2614 6.49500E+00 3.74750E+01 0.00000E+00
 -1      2615 1.45350E+01 6.60425E+00 0.00000E+00
 -1      2616 9.22401E+01 1.66378E+01 0.00000E+00
 -1      2617 6.40575E+00 7.49481E+00 0.00000E+00
 -1      2618 9.52154E+01 2.74592E+01 0.00000E+00
 -1      2619 9.57552E+01 2.83281E+01 0.00000E+00
 -1      2620 9.60423E+01 2.69149E+01 0.00000E+00
 -1      2621 9.03279E+01 1.51192E+01 0.00000E+00
 -1      2622 9.31744E+01 3.17827E+01 0.00000E+00
 -1      2623 1.43586E+02 6.56853E+00 0.00000E+00
 -1      2624 1.43419E+02 7.72713E+00 0.00000E+00
 -1      2625 9.14399E+01 3.36488E+01 0.00000E+00
 -1      2626 9.51512E+01 2.29108E+01 0.00000E+00
 -1      2627 9.44705E+01 2.05997E+01 0.00000E+00
 -1      2628 7.99236E+01 3.51133E+01 0.00000E+00
 -1      2629 7.91014E+01 3.54537E+01 0.00000E+00
 -1      2630 8.03408E+01 3.59990E+01 0.00000E+00
 -1      2631 7.42818E+01 3.04143E+01 0.00000E+00
 -1      2632 7.33134E+01 3.00821E+01 0.00000E+00
 -1      2633 7.40308E+01 3.14191E+01 0.00000E+00
 -1      2634 6.55950E+00 3.99453E+01 0.00000E+00
 -1      2635 8.71833E+01 3.58218E+01 0.00000E+00
 -1      2636 7.60915E+01 3.35321E+01 0.00000E+00
 -1      2637 7.60632E+01 3.26427E+01 0.00000E+00
 -1      2638 7.50275E+01 3.26408E+01 0.00000E+00
 -1      2639 7.31553E+01 2.33232E+01 0.00000E+00
 -1      2640 7.65647E+01 1.69299E+01 0.00000E+00
 -1      2641 7.41094E+01 1.92583E+01 0.00000E+00
 -1      2642 7.50358E+01 1.90390E+01 0.00000E+00
 -1      2643 7.48217E+01 1.80568E+01 0.00000E+00
 -1      2644 8.25446E+01 3.59472E+01 0.00000E+00
 -1      2645 8.17993E+01 3.62808E+01 0.00000E+00
 -1      2646 8.31809E+01 3.65694E+01 0.00000E+00
 -1      2647 7.32069E+01 2.58100E+01 0.00000E+00
 -1      2648 8.55006E+01 1.37874E+01 0.00000E+00
 -1      2649 8.79142E+01 1.41680E+01 0.00000E+00
 -1      2650 7.70475E+00 8.23231E+00 0.00000E+00
 -1      2651 8.04183E+01 1.43092E+01 0.00000E+00
 -1      2652 7.35000E+01 2.80187E+01 0.00000E+00
 -1      2653 1.42758E+02 4.35929E+01 0.00000E+00
 -1      2654 1.43241E+02 4.17323E+01 0.00000E+00
 -1      2655 1.41942E+02 4.09948E+01 0.00000E+00
 -1      2656 1.41414E+02 4.35342E+01 0.00000E+00
 -1      2657 8.94367E+01 3.50238E+01 0.00000E+00
 -1      2658 1.42120E+02 8.46463E+00 0.00000E+00
 -1      2659 1.40664E+02 4.22352E+01 0.00000E+00
 -1      2660 9.09300E+00 1.98250E+01 0.00000E+00
 -1      2661 9.09300E+00 2.12750E+01 0.00000E+00
 -1      2662 9.09300E+00 2.27500E+01 0.00000E+00
 -1      2663 9.09300E+00 2.42250E+01 0.00000E+00
 -1      2664 1.03920E+01 2.20250E+01 0.00000E+00
 -1      2665 9.09300E+00 1.39375E+01 0.00000E+00
 -1      2666 9.09300E+00 1.54125E+01 0.00000E+00
 -1      2667 9.09300E+00 1.09875E+01 0.00000E+00
 -1      2668 9.09300E+00 1.24625E+01 0.00000E+00
 -1      2669 1.03920E+01 1.32000E+01 0.00000E+00
 -1      2670 7.94546E+01 1.35509E+01 0.00000E+00
 -1      2671 8.07307E+01 1.31234E+01 0.00000E+00
 -1      2672 1.22850E+01 7.90325E+00 0.00000E+00
 -1      2673 1.07850E+01 7.90325E+00 0.00000E+00
 -1      2674 8.91450E+00 8.42712E+00 0.00000E+00
 -1      2675 9.55565E+01 2.97408E+01 0.00000E+00
 -1      2676 9.51144E+01 3.06659E+01 0.00000E+00
 -1      2677 9.02629E+01 1.38379E+01 0.00000E+00
 -1      2678 9.14098E+01 1.44296E+01 0.00000E+00
 -1      2679 1.44000E+01 4.09070E+01 0.00000E+00
 -1      2680 1.59000E+01 4.09070E+01 0.00000E+00
 -1      2681 1.74000E+01 4.09070E+01 0.00000E+00
 -1      2682 1.89000E+01 4.09070E+01 0.00000E+00
 -1      2683 1.66500E+01 3.96080E+01 0.00000E+00
 -1      2684 2.04000E+01 4.09070E+01 0.00000E+00
 -1      2685 2.19000E+01 4.09070E+01 0.00000E+00
 -1      2686 1.96500E+01 3.96080E+01 0.00000E+00
 -1      2687 2.34000E+01 4.09070E+01 0.00000E+00
 -1      2688 2.49000E+01 4.09070E+01 0.00000E+00
 -1      2689 2.26500E+01 3.96080E+01 0.00000E+00
 -1      2690 2.64000E+01 4.09070E+01 0.00000E+00
 -1      2691 2.79000E+01 4.09070E+01 0.00000E+00
 -1      2692 2.56500E+01 3.96080E+01 0.00000E+00
 -1      2693 2.94000E+01 4.09070E+01 0.00000E+00
 -1      2694 3.09000E+01 4.09070E+01 0.00000E+00
 -1      2695 2.86500E+01 3.96080E+01 0.00000E+00
 -1      2696 3.24000E+01 4.09070E+01 0.00000E+00
 -1      2697 3.39000E+01 4.09070E+01 0.00000E+00
 -1      2698 3.16500E+01 3.96080E+01 0.00000E+00
 -1      2699 3.54000E+01 4.09070E+01 0.00000E+00
 -1      2700 3.69000E+01 4.09070E+01 0.00000E+00
 -1      2701 3.46500E+01 3.96080E+01 0.00000E+00
 -1      2702 3.84000E+01 4.09070E+01 0.00000E+00
 -1      2703 3.99000E+01 4.09070E+01 0.00000E+00
 -1      2704 3.76500E+01 3.96080E+01 0.00000E+00
 -1      2705 4.14000E+01 4.09070E+01 0.00000E+00
 -1      2706 4.29000E+01 4.09070E+01 0.00000E+00
 -1      2707 4.06500E+01 3.96080E+01 0.00000E+00
 -1      2708 4.44000E+01 4.09070E+01 0.00000E+00
 -1      2709 4.59000E+01 4.09070E+01 0.00000E+00
 -1      2710 4.36500E+01 3.96080E+01 0.00000E+00
 -1      2711 4.74000E+01 4.09070E+01 0.00000E+00
 -1      2712 4.89000E+01 4.09070E+01 0.00000E+00
 -1      2713 4.66500E+01 3.96080E+01 0.00000E+00
 -1      2714 5.04000E+01 4.09070E+01 0.00000E+00
 -1      2715 5.19000E+01 4.09070E+01 0.00000E+00
 -1      2716 4.96500E+01 3.96080E+01 0.00000E+00
 -1      2717 5.34000E+01 4.09070E+01 0.00000E+00
 -1      2718 5.49000E+01 4.09070E+01 0.00000E+00
 -1      2719 5.26500E+01 3.96080E+01 0.00000E+00
 -1      2720 5.64000E+01 4.09070E+01 0.00000E+00
 -1      2721 5.79000E+01 4.09070E+01 0.00000E+00
 -1      2722 5.56500E+01 3.96080E+01 0.00000E+00
 -1      2723 5.94000E+01 4.09070E+01 0.00000E+00
 -1      2724 6.09000E+01 4.09070E+01 0.00000E+00
 -1      2725 5.86500E+01 3.96080E+01 0.00000E+00
 -1      2726 6.24000E+01 4.09070E+01 0.00000E+00
 -1      2727 6.39000E+01 4.09070E+01 0.00000E+00
 -1      2728 6.16500E+01 3.96080E+01 0.00000E+00
 -1      2729 6.54000E+01 4.09070E+01 0.00000E+00
 -1      2730 6.69000E+01 4.09070E+01 0.00000E+00
 -1      2731 6.46500E+01 3.96080E+01 0.00000E+00
 -1      2732 6.84000E+01 4.09070E+01 0.00000E+00
 -1      2733 6.99000E+01 4.09070E+01 0.00000E+00
 -1      2734 6.76500E+01 3.96080E+01 0.00000E+00
 -1      2735 7.14000E+01 4.09070E+01 0.00000E+00
 -1      2736 7.29000E+01 4.09070E+01 0.00000E+00
 -1      2737 7.06500E+01 3.96080E+01 0.00000E+00
 -1      2738 7.44000E+01 4.09070E+01 0.00000E+00
 -1      2739 7.59000E+01 4.09070E+01 0.00000E+00
 -1      2740 7.36500E+01 3.96080E+01 0.00000E+00
 -1      2741 7.74000E+01 4.09070E+01 0.00000E+00
 -1      2742 7.89000E+01 4.09070E+01 0.00000E+00
 -1      2743 7.66500E+01 3.96080E+01 0.00000E+00
 -1      2744 8.04000E+01 4.09070E+01 0.00000E+00
 -1      2745 8.19000E+01 4.09070E+01 0.00000E+00
 -1      2746 7.96500E+01 3.96080E+01 0.00000E+00
 -1      2747 8.34000E+01 4.09070E+01 0.00000E+00
 -1      2748 8.49000E+01 4.09070E+01 0.00000E+00
 -1      2749 8.26500E+01 3.96080E+01 0.00000E+00
 -1      2750 8.64000E+01 4.09070E+01 0.00000E+00
 -1      2751 8.79000E+01 4.09070E+01 0.00000E+00
 -1      2752 8.56500E+01 3.96080E+01 0.00000E+00
 -1      2753 8.94000E+01 4.09070E+01 0.00000E+00
 -1      2754 9.09000E+01 4.09070E+01 0.00000E+00
 -1      2755 8.86500E+01 3.96080E+01 0.00000E+00
 -1      2756 9.24000E+01 4.09070E+01 0.00000E+00
 -1      2757 9.39000E+01 4.09070E+01 0.00000E+00
 -1      2758 9.16500E+01 3.96080E+01 0.00000E+00
 -1      2759 9.54000E+01 4.09070E+01 0.00000E+00
 -1      2760 9.69000E+01 4.09070E+01 0.00000E+00
 -1      2761 9.46500E+01 3.96080E+01 0.00000E+00
 -1      2762 9.84000E+01 4.09070E+01 0.00000E+00
 -1      2763 9.99000E+01 4.09070E+01 0.00000E+00
 -1      2764 9.76500E+01 3.96080E+01 0.00000E+00
 -1      2765 1.01400E+02 4.09070E+01 0.00000E+00
 -1      2766 1.02900E+02 4.09070E+01 0.00000E+00
 -1      2767 1.00650E+02 3.96080E+01 0.00000E+00
 -1      2768 1.04400E+02 4.09070E+01 0.00000E+00
 -1      2769 1.05900E+02 4.09070E+01 0.00000E+00
 -1      2770 1.03650E+02 3.96080E+01 0.00000E+00
 -1      2771 1.07400E+02 4.09070E+01 0.00000E+00
 -1      2772 1.08900E+02 4.09070E+01 0.00000E+00
 -1      2773 1.06650E+02 3.96080E+01 0.00000E+00
 -1      2774 1.10400E+02 4.09070E+01 0.00000E+00
 -1      2775 1.11900E+02 4.09070E+01 0.00000E+00
 -1      2776 1.09650E+02 3.96080E+01 0.00000E+00
 -1      2777 1.13400E+02 4.09070E+01 0.00000E+00
 -1      2778 1.14900E+02 4.09070E+01 0.00000E+00
 -1      2779 1.12650E+02 3.96080E+01 0.00000E+00
 -1      2780 1.16400E+02 4.09070E+01 0.00000E+00
 -1      2781 1.17900E+02 4.09070E+01 0.00000E+00
 -1      2782 1.15650E+02 3.96080E+01 0.00000E+00
 -1      2783 1.19400E+02 4.09070E+01 0.00000E+00
 -1      2784 1.20900E+02 4.09070E+01 0.00000E+00
 -1      2785 1.18650E+02 3.96080E+01 0.00000E+00
 -1      2786 1.22400E+02 4.09070E+01 0.00000E+00
 -1      2787 1.23900E+02 4.09070E+01 0.00000E+00
 -1      2788 1.21650E+02 3.96080E+01 0.00000E+00
 -1      2789 1.25400E+02 4.09070E+01 0.00000E+00
 -1      2790 1.26900E+02 4.09070E+01 0.00000E+00
 -1      2791 1.24650E+02 3.96080E+01 0.00000E+00
 -1      2792 1.28400E+02 4.09070E+01 0.00000E+00
 -1      2793 1.29900E+02 4.09070E+01 0.00000E+00
 -1      2794 1.27650E+02 3.96080E+01 0.00000E+00
 -1      2795 1.31400E+02 4.09070E+01 0.00000E+00
 -1      2796 1.32900E+02 4.09070E+01 0.00000E+00
 -1      2797 1.30650E+02 3.96080E+01 0.00000E+00
 -1      2798 1.34400E+02 4.09070E+01 0.00000E+00
 -1      2799 1.35900E+02 4.09070E+01 0.00000E+00
 -1      2800 1.33650E+02 3.96080E+01 0.00000E+00
 -1      2801 1.37400E+02 4.09070E+01 0.00000E+00
 -1      2802 1.38900E+02 4.09070E+01 0.00000E+00
 -1      2803 1.36650E+02 3.96080E+01 0.00000E+00
 -1      2804 2.42850E+01 7.90325E+00 0.00000E+00
 -1      2805 2.27850E+01 7.90325E+00 0.00000E+00
 -1      2806 9.04269E+01 3.55811E+01 0.00000E+00
 -1      2807 8.92886E+01 3.61503E+01 0.00000E+00
 -1      2808 2.12850E+01 7.90325E+00 0.00000E+00
 -1      2809 1.97850E+01 7.90325E+00 0.00000E+00
 -1      2810 2.20350E+01 9.20225E+00 0.00000E+00
 -1      2811 3.02850E+01 7.90325E+00 0.00000E+00
 -1      2812 2.87850E+01 7.90325E+00 0.00000E+00
 -1      2813 3.32850E+01 7.90325E+00 0.00000E+00
 -1      2814 3.17850E+01 7.90325E+00 0.00000E+00
 -1      2815 3.10350E+01 9.20225E+00 0.00000E+00
 -1      2816 3.62850E+01 7.90325E+00 0.00000E+00
 -1      2817 3.47850E+01 7.90325E+00 0.00000E+00
 -1      2818 3.40350E+01 9.20225E+00 0.00000E+00
 -1      2819 3.92850E+01 7.90325E+00 0.00000E+00
 -1      2820 3.77850E+01 7.90325E+00 0.00000E+00
 -1      2821 3.70350E+01 9.20225E+00 0.00000E+00
 -1      2822 4.22850E+01 7.90325E+00 0.00000E+00
 -1      2823 4.07850E+01 7.90325E+00 0.00000E+00
 -1      2824 4.00350E+01 9.20225E+00 0.00000E+00
 -1      2825 4.52850E+01 7.90325E+00 0.00000E+00
 -1      2826 4.37850E+01 7.90325E+00 0.00000E+00
 -1      2827 4.30350E+01 9.20225E+00 0.00000E+00
 -1      2828 4.82850E+01 7.90325E+00 0.00000E+00
 -1      2829 4.67850E+01 7.90325E+00 0.00000E+00
 -1      2830 4.60350E+01 9.20225E+00 0.00000E+00
 -1      2831 5.12850E+01 7.90325E+00 0.00000E+00
 -1      2832 4.97850E+01 7.90325E+00 0.00000E+00
 -1      2833 4.90350E+01 9.20225E+00 0.00000E+00
 -1      2834 5.42850E+01 7.90325E+00 0.00000E+00
 -1      2835 5.27850E+01 7.90325E+00 0.00000E+00
 -1      2836 5.20350E+01 9.20225E+00 0.00000E+00
 -1      2837 5.72850E+01 7.90325E+00 0.00000E+00
 -1      2838 5.57850E+01 7.90325E+00 0.00000E+00
 -1      2839 5.50350E+01 9.20225E+00 0.00000E+00
 -1      2840 6.02850E+01 7.90325E+00 0.00000E+00
 -1      2841 5.87850E+01 7.90325E+00 0.00000E+00
 -1      2842 5.80350E+01 9.20225E+00 0.00000E+00
 -1      2843 6.32850E+01 7.90325E+00 0.00000E+00
 -1      2844 6.17850E+01 7.90325E+00 0.00000E+00
 -1      2845 6.10350E+01 9.20225E+00 0.00000E+00
 -1      2846 6.62850E+01 7.90325E+00 0.00000E+00
 -1      2847 6.47850E+01 7.90325E+00 0.00000E+00
 -1      2848 6.40350E+01 9.20225E+00 0.00000E+00
 -1      2849 6.92850E+01 7.90325E+00 0.00000E+00
 -1      2850 6.77850E+01 7.90325E+00 0.00000E+00
 -1      2851 6.70350E+01 9.20225E+00 0.00000E+00
 -1      2852 7.22850E+01 7.90325E+00 0.00000E+00
 -1      2853 7.07850E+01 7.90325E+00 0.00000E+00
 -1      2854 7.00350E+01 9.20225E+00 0.00000E+00
 -1      2855 7.52850E+01 7.90325E+00 0.00000E+00
 -1      2856 7.37850E+01 7.90325E+00 0.00000E+00
 -1      2857 7.30350E+01 9.20225E+00 0.00000E+00
 -1      2858 7.82850E+01 7.90325E+00 0.00000E+00
 -1      2859 7.67850E+01 7.90325E+00 0.00000E+00
 -1      2860 7.60350E+01 9.20225E+00 0.00000E+00
 -1      2861 8.12850E+01 7.90325E+00 0.00000E+00
 -1      2862 7.97850E+01 7.90325E+00 0.00000E+00
 -1      2863 7.90350E+01 9.20225E+00 0.00000E+00
 -1      2864 8.42850E+01 7.90325E+00 0.00000E+00
 -1      2865 8.27850E+01 7.90325E+00 0.00000E+00
 -1      2866 8.20350E+01 9.20225E+00 0.00000E+00
 -1      2867 8.72850E+01 7.90325E+00 0.00000E+00
 -1      2868 8.57850E+01 7.90325E+00 0.00000E+00
 -1      2869 8.50350E+01 9.20225E+00 0.00000E+00
 -1      2870 9.02850E+01 7.90325E+00 0.00000E+00
 -1      2871 8.87850E+01 7.90325E+00 0.00000E+00
 -1      2872 8.80350E+01 9.20225E+00 0.00000E+00
 -1      2873 9.32850E+01 7.90325E+00 0.00000E+00
 -1      2874 9.17850E+01 7.90325E+00 0.00000E+00
 -1      2875 9.10350E+01 9.20225E+00 0.00000E+00
 -1      2876 9.62850E+01 7.90325E+00 0.00000E+00
 -1      2877 9.47850E+01 7.90325E+00 0.00000E+00
 -1      2878 9.40350E+01 9.20225E+00 0.00000E+00
 -1      2879 9.92850E+01 7.90325E+00 0.00000E+00
 -1      2880 9.77850E+01 7.90325E+00 0.00000E+00
 -1      2881 9.70350E+01 9.20225E+00 0.00000E+00
 -1      2882 1.02285E+02 7.90325E+00 0.00000E+00
 -1      2883 1.00785E+02 7.90325E+00 0.00000E+00
 -1      2884 1.00035E+02 9.20225E+00 0.00000E+00
 -1      2885 1.05285E+02 7.90325E+00 0.00000E+00
 -1      2886 1.03785E+02 7.90325E+00 0.00000E+00
 -1      2887 1.03035E+02 9.20225E+00 0.00000E+00
 -1      2888 1.08285E+02 7.90325E+00 0.00000E+00
 -1      2889 1.06785E+02 7.90325E+00 0.00000E+00
 -1      2890 1.06035E+02 9.20225E+00 0.00000E+00
 -1      2891 1.11285E+02 7.90325E+00 0.00000E+00
 -1      2892 1.09785E+02 7.90325E+00 0.00000E+00
 -1      2893 1.09035E+02 9.20225E+00 0.00000E+00
 -1      2894 1.14285E+02 7.90325E+00 0.00000E+00
 -1      2895 1.12785E+02 7.90325E+00 0.00000E+00
 -1      2896 1.12035E+02 9.20225E+00 0.00000E+00
 -1      2897 1.17285E+02 7.90325E+00 0.00000E+00
 -1      2898 1.15785E+02 7.90325E+00 0.00000E+00
 -1      2899 1.15035E+02 9.20225E+00 0.00000E+00
 -1      2900 1.20285E+02 7.90325E+00 0.00000E+00
 -1      2901 1.18785E+02 7.90325E+00 0.00000E+00
 -1      2902 1.18035E+02 9.20225E+00 0.00000E+00
 -1      2903 1.23285E+02 7.90325E+00 0.00000E+00
 -1      2904 1.21785E+02 7.90325E+00 0.00000E+00
 -1      2905 1.21035E+02 9.20225E+00 0.00000E+00
 -1      2906 1.26285E+02 7.90325E+00 0.00000E+00
 -1      2907 1.24785E+02 7.90325E+00 0.00000E+00
 -1      2908 1.24035E+02 9.20225E+00 0.00000E+00
 -1      2909 1.29285E+02 7.90325E+00 0.00000E+00
 -1      2910 1.27785E+02 7.90325E+00 0.00000E+00
 -1      2911 1.27035E+02 9.20225E+00 0.00000E+00
 -1      2912 1.32285E+02 7.90325E+00 0.00000E+00
 -1      2913 1.30785E+02 7.90325E+00 0.00000E+00
 -1      2914 1.30035E+02 9.20225E+00 0.00000E+00
 -1      2915 1.35285E+02 7.90325E+00 0.00000E+00
 -1      2916 1.33785E+02 7.90325E+00 0.00000E+00
 -1      2917 1.33035E+02 9.20225E+00 0.00000E+00
 -1      2918 1.38285E+02 7.90325E+00 0.00000E+00
 -1      2919 1.36785E+02 7.90325E+00 0.00000E+00
 -1      2920 1.36035E+02 9.20225E+00 0.00000E+00
 -1      2921 1.40953E+02 8.18394E+00 0.00000E+00
 -1      2922 1.39453E+02 8.18394E+00 0.00000E+00
 -1      2923 1.38703E+02 9.48294E+00 0.00000E+00
 -1      2924 1.41038E+02 1.00443E+01 0.00000E+00
 -1      2925 1.40907E+02 2.42875E+01 0.00000E+00
 -1      2926 1.40907E+02 2.28125E+01 0.00000E+00
 -1      2927 1.39914E+02 4.09362E+01 0.00000E+00
 -1      2928 1.40928E+02 4.09655E+01 0.00000E+00
 -1      2929 1.39164E+02 3.96372E+01 0.00000E+00
 -1      2930 1.40907E+02 1.83875E+01 0.00000E+00
 -1      2931 1.40907E+02 1.69125E+01 0.00000E+00
 -1      2932 1.40907E+02 2.72375E+01 0.00000E+00
 -1      2933 1.40907E+02 2.57625E+01 0.00000E+00
 -1      2934 1.39608E+02 2.50250E+01 0.00000E+00
 -1      2935 1.40907E+02 2.13375E+01 0.00000E+00
 -1      2936 1.40907E+02 1.98625E+01 0.00000E+00
 -1      2937 1.39608E+02 1.91250E+01 0.00000E+00
 -1      2938 1.39608E+02 2.20750E+01 0.00000E+00
 -1      2939 9.41598E+01 1.75147E+01 0.00000E+00
 -1      2940 9.46919E+01 1.84384E+01 0.00000E+00
 -1      2941 1.40907E+02 3.01375E+01 0.00000E+00
 -1      2942 1.40907E+02 2.86875E+01 0.00000E+00
 -1      2943 1.39608E+02 2.79500E+01 0.00000E+00
 -1      2944 1.40907E+02 3.30875E+01 0.00000E+00
 -1      2945 1.40907E+02 3.16125E+01 0.00000E+00
 -1      2946 1.39608E+02 3.08750E+01 0.00000E+00
 -1      2947 1.40907E+02 3.60375E+01 0.00000E+00
 -1      2948 1.40907E+02 3.45625E+01 0.00000E+00
 -1      2949 1.39608E+02 3.38250E+01 0.00000E+00
 -1      2950 9.52414E+01 1.96781E+01 0.00000E+00
 -1      2951 9.56422E+01 2.08659E+01 0.00000E+00
 -1      2952 1.82850E+01 7.90325E+00 0.00000E+00
 -1      2953 1.67850E+01 7.90325E+00 0.00000E+00
 -1      2954 1.90350E+01 9.20225E+00 0.00000E+00
 -1      2955 9.63060E+01 2.45066E+01 0.00000E+00
 -1      2956 9.63417E+01 2.55126E+01 0.00000E+00
 -1      2957 8.85168E+00 4.05347E+01 0.00000E+00
 -1      2958 1.02152E+01 4.07987E+01 0.00000E+00
 -1      2959 8.56066E+01 3.69512E+01 0.00000E+00
 -1      2960 8.45357E+01 3.70439E+01 0.00000E+00
 -1      2961 7.22166E+01 2.38788E+01 0.00000E+00
 -1      2962 7.23937E+01 2.25423E+01 0.00000E+00
 -1      2963 7.53943E+01 1.66980E+01 0.00000E+00
 -1      2964 7.62109E+01 1.57904E+01 0.00000E+00
 -1      2965 2.72850E+01 7.90325E+00 0.00000E+00
 -1      2966 2.57850E+01 7.90325E+00 0.00000E+00
 -1      2967 2.50350E+01 9.20225E+00 0.00000E+00
 -1      2968 2.80350E+01 9.20225E+00 0.00000E+00
 -1      2969 1.15576E+01 4.08528E+01 0.00000E+00
 -1      2970 1.30576E+01 4.08528E+01 0.00000E+00
 -1      2971 1.38076E+01 3.95538E+01 0.00000E+00
 -1      2972 1.11228E+01 3.94455E+01 0.00000E+00
 -1      2973 1.52850E+01 7.90325E+00 0.00000E+00
 -1      2974 1.37850E+01 7.90325E+00 0.00000E+00
 -1      2975 1.30350E+01 9.20225E+00 0.00000E+00
 -1      2976 1.60350E+01 9.20225E+00 0.00000E+00
 -1      2977 8.77293E+01 1.31191E+01 0.00000E+00
 -1      2978 8.89961E+01 1.34785E+01 0.00000E+00
 -1      2979 9.00780E+01 1.27889E+01 0.00000E+00
 -1      2980 8.79132E+01 3.65475E+01 0.00000E+00
 -1      2981 8.67980E+01 3.67762E+01 0.00000E+00
 -1      2982 9.26290E+01 1.56611E+01 0.00000E+00
 -1      2983 9.33944E+01 1.65879E+01 0.00000E+00
 -1      2984 9.45488E+01 1.65380E+01 0.00000E+00
 -1      2985 9.09300E+00 1.68813E+01 0.00000E+00
 -1      2986 9.09300E+00 1.83563E+01 0.00000E+00
 -1      2987 1.03920E+01 1.90812E+01 0.00000E+00
 -1      2988 1.03920E+01 1.61437E+01 0.00000E+00
 -1      2989 7.48818E+00 3.88019E+01 0.00000E+00
 -1      2990 9.09300E+00 3.15875E+01 0.00000E+00
 -1      2991 9.09300E+00 3.30625E+01 0.00000E+00
 -1      2992 7.71183E+01 1.47376E+01 0.00000E+00
 -1      2993 7.79988E+01 1.40948E+01 0.00000E+00
 -1      2994 8.49462E+01 1.27518E+01 0.00000E+00
 -1      2995 8.60930E+01 1.27731E+01 0.00000E+00
 -1      2996 7.28708E+01 2.11476E+01 0.00000E+00
 -1      2997 7.33663E+01 2.02745E+01 0.00000E+00
 -1      2998 7.25212E+01 2.65442E+01 0.00000E+00
 -1      2999 7.22925E+01 2.53939E+01 0.00000E+00
 -1      3000 7.26500E+01 2.86612E+01 0.00000E+00
 -1      3001 7.25856E+01 2.76027E+01 0.00000E+00
 -1      3002 7.16713E+01 2.71867E+01 0.00000E+00
 -1      3003 1.41192E+02 3.96958E+01 0.00000E+00
 -1      3004 7.78437E+01 3.49890E+01 0.00000E+00
 -1      3005 7.70652E+01 3.44720E+01 0.00000E+00
 -1      3006 8.22867E+01 1.28674E+01 0.00000E+00
 -1      3007 8.36165E+01 1.28096E+01 0.00000E+00
 -1      3008 8.42088E+01 1.17953E+01 0.00000E+00
 -1      3009 9.59247E+01 2.21216E+01 0.00000E+00
 -1      3010 9.62046E+01 2.32448E+01 0.00000E+00
 -1      3011 9.24569E+01 3.38733E+01 0.00000E+00
 -1      3012 9.15920E+01 3.46791E+01 0.00000E+00
 -1      3013 9.42722E+01 3.17965E+01 0.00000E+00
 -1      3014 9.34026E+01 3.28567E+01 0.00000E+00
 -1      3015 9.09300E+00 3.45313E+01 0.00000E+00
 -1      3016 9.09300E+00 3.60000E+01 0.00000E+00
 -1      3017 1.03920E+01 3.37938E+01 0.00000E+00
 -1      3018 1.03920E+01 2.49750E+01 0.00000E+00
 -1      3019 9.09300E+00 2.57000E+01 0.00000E+00
 -1      3020 9.09300E+00 2.71750E+01 0.00000E+00
 -1      3021 8.13231E+01 1.21091E+01 0.00000E+00
 -1      3022 7.83112E+01 1.29090E+01 0.00000E+00
 -1      3023 9.68815E+01 2.63815E+01 0.00000E+00
 -1      3024 9.74212E+01 2.72505E+01 0.00000E+00
 -1      3025 9.77206E+01 2.58481E+01 0.00000E+00
 -1      3026 9.66450E+00 9.72612E+00 0.00000E+00
 -1      3027 8.78718E+00 3.80644E+01 0.00000E+00
 -1      3028 9.63834E+01 2.91966E+01 0.00000E+00
 -1      3029 9.24992E+01 1.30984E+01 0.00000E+00
 -1      3030 9.25641E+01 1.43798E+01 0.00000E+00
 -1      3031 9.37184E+01 1.43299E+01 0.00000E+00
 -1      3032 1.39608E+02 1.61875E+01 0.00000E+00
 -1      3033 1.40907E+02 1.54500E+01 0.00000E+00
 -1      3034 1.40907E+02 1.39875E+01 0.00000E+00
 -1      3035 8.89033E+01 3.71048E+01 0.00000E+00
 -1      3036 1.09635E+01 1.04636E+01 0.00000E+00
 -1      3037 9.53426E+01 3.17398E+01 0.00000E+00
 -1      3038 9.35547E+01 3.38870E+01 0.00000E+00
 -1      3039 7.60296E+01 3.44701E+01 0.00000E+00
 -1      3040 1.40973E+02 1.27472E+01 0.00000E+00
 -1      3041 1.40973E+02 1.12847E+01 0.00000E+00
 -1      3042 1.39805E+02 1.10040E+01 0.00000E+00
 -1      3043 1.39674E+02 1.34847E+01 0.00000E+00
 -1      3044 7.23990E+01 2.96660E+01 0.00000E+00
 -1      3045 7.14846E+01 2.92500E+01 0.00000E+00
 -1      3046 7.21480E+01 3.06708E+01 0.00000E+00
 -1      3047 9.66956E+01 2.11999E+01 0.00000E+00
 -1      3048 9.58636E+01 1.87045E+01 0.00000E+00
 -1      3049 1.41192E+02 3.82207E+01 0.00000E+00
 -1      3050 7.44679E+01 1.69173E+01 0.00000E+00
 -1      3051 8.71749E+01 1.20835E+01 0.00000E+00
 -1      3052 8.09771E+01 3.66212E+01 0.00000E+00
 -1      3053 8.01550E+01 3.69617E+01 0.00000E+00
 -1      3054 8.16134E+01 3.72434E+01 0.00000E+00
 -1      3055 7.40591E+01 3.23085E+01 0.00000E+00
 -1      3056 7.30907E+01 3.19763E+01 0.00000E+00
 -1      3057 7.40875E+01 3.31979E+01 0.00000E+00
 -1      3058 7.15310E+01 2.46130E+01 0.00000E+00
 -1      3059 7.07694E+01 2.38321E+01 0.00000E+00
 -1      3060 7.08453E+01 2.53472E+01 0.00000E+00
 -1      3061 9.70795E+01 2.37174E+01 0.00000E+00
 -1      3062 8.63365E+01 3.76769E+01 0.00000E+00
 -1      3063 7.82610E+01 3.58747E+01 0.00000E+00
 -1      3064 7.09934E+01 2.22587E+01 0.00000E+00
 -1      3065 7.19321E+01 2.17032E+01 0.00000E+00
 -1      3066 7.14705E+01 2.08640E+01 0.00000E+00
 -1      3067 7.31523E+01 1.92923E+01 0.00000E+00
 -1      3068 7.59479E+01 1.45057E+01 0.00000E+00
 -1      3069 9.14439E+01 3.58056E+01 0.00000E+00
 -1      3070 9.09300E+00 2.86437E+01 0.00000E+00
 -1      3071 9.09300E+00 3.01187E+01 0.00000E+00
 -1      3072 1.03920E+01 3.08563E+01 0.00000E+00
 -1      3073 1.03920E+01 2.79188E+01 0.00000E+00
 -1      3074 1.39529E+02 3.85602E+01 0.00000E+00
 -1      3075 1.40542E+02 3.71145E+01 0.00000E+00
 -1      3076 1.39243E+02 3.63770E+01 0.00000E+00
 -1      3077 1.38514E+02 3.85310E+01 0.00000E+00
 -1      3078 1.16910E+01 1.24625E+01 0.00000E+00
 -1      3079 1.16910E+01 1.39375E+01 0.00000E+00
 -1      3080 1.00862E+01 3.73269E+01 0.00000E+00
 -1      3081 1.89000E+01 3.83090E+01 0.00000E+00
 -1      3082 2.04000E+01 3.83090E+01 0.00000E+00
 -1      3083 2.19000E+01 3.83090E+01 0.00000E+00
 -1      3084 2.34000E+01 3.83090E+01 0.00000E+00
 -1      3085 2.11500E+01 3.70100E+01 0.00000E+00
 -1      3086 2.49000E+01 3.83090E+01 0.00000E+00
 -1      3087 2.64000E+01 3.83090E+01 0.00000E+00
 -1      3088 2.41500E+01 3.70100E+01 0.00000E+00
 -1      3089 2.79000E+01 3.83090E+01 0.00000E+00
 -1      3090 2.94000E+01 3.83090E+01 0.00000E+00
 -1      3091 2.71500E+01 3.70100E+01 0.00000E+00
 -1      3092 3.09000E+01 3.83090E+01 0.00000E+00
 -1      3093 3.24000E+01 3.83090E+01 0.00000E+00
 -1      3094 3.01500E+01 3.70100E+01 0.00000E+00
 -1      3095 3.39000E+01 3.83090E+01 0.00000E+00
 -1      3096 3.54000E+01 3.83090E+01 0.00000E+00
 -1      3097 3.31500E+01 3.70100E+01 0.00000E+00
 -1      3098 3.69000E+01 3.83090E+01 0.00000E+00
 -1      3099 3.84000E+01 3.83090E+01 0.00000E+00
 -1      3100 3.61500E+01 3.70100E+01 0.00000E+00
 -1      3101 3.99000E+01 3.83090E+01 0.00000E+00
 -1      3102 4.14000E+01 3.83090E+01 0.00000E+00
 -1      3103 3.91500E+01 3.70100E+01 0.00000E+00
 -1      3104 4.29000E+01 3.83090E+01 0.00000E+00
 -1      3105 4.44000E+01 3.83090E+01 0.00000E+00
 -1      3106 4.21500E+01 3.70100E+01 0.00000E+00
 -1      3107 4.59000E+01 3.83090E+01 0.00000E+00
 -1      3108 4.74000E+01 3.83090E+01 0.00000E+00
 -1      3109 4.51500E+01 3.70100E+01 0.00000E+00
 -1      3110 4.89000E+01 3.83090E+01 0.00000E+00
 -1      3111 5.04000E+01 3.83090E+01 0.00000E+00
 -1      3112 4.81500E+01 3.70100E+01 0.00000E+00
 -1      3113 5.19000E+01 3.83090E+01 0.00000E+00
 -1      3114 5.34000E+01 3.83090E+01 0.00000E+00
 -1      3115 5.11500E+01 3.70100E+01 0.00000E+00
 -1      3116 5.49000E+01 3.83090E+01 0.00000E+00
 -1      3117 5.64000E+01 3.83090E+01 0.00000E+00
 -1      3118 5.41500E+01 3.70100E+01 0.00000E+00
 -1      3119 5.79000E+01 3.83090E+01 0.00000E+00
 -1      3120 5.94000E+01 3.83090E+01 0.00000E+00
 -1      3121 5.71500E+01 3.70100E+01 0.00000E+00
 -1      3122 6.09000E+01 3.83090E+01 0.00000E+00
 -1      3123 6.24000E+01 3.83090E+01 0.00000E+00
 -1      3124 6.01500E+01 3.70100E+01 0.00000E+00
 -1      3125 6.39000E+01 3.83090E+01 0.00000E+00
 -1      3126 6.54000E+01 3.83090E+01 0.00000E+00
 -1      3127 6.31500E+01 3.70100E+01 0.00000E+00
 -1      3128 6.69000E+01 3.83090E+01 0.00000E+00
 -1      3129 6.84000E+01 3.83090E+01 0.00000E+00
 -1      3130 6.61500E+01 3.70100E+01 0.00000E+00
 -1      3131 6.99000E+01 3.83090E+01 0.00000E+00
 -1      3132 7.14000E+01 3.83090E+01 0.00000E+00
 -1      3133 6.91500E+01 3.70100E+01 0.00000E+00
 -1      3134 7.29000E+01 3.83090E+01 0.00000E+00
 -1      3135 7.44000E+01 3.83090E+01 0.00000E+00
 -1      3136 7.21500E+01 3.70100E+01 0.00000E+00
 -1      3137 7.60766E+01 3.75090E+01 0.00000E+00
 -1      3138 7.75766E+01 3.75090E+01 0.00000E+00
 -1      3139 7.94706E+01 3.85959E+01 0.00000E+00
 -1      3140 8.09706E+01 3.85959E+01 0.00000E+00
 -1      3141 8.46475E+01 3.87299E+01 0.00000E+00
 -1      3142 8.61475E+01 3.87299E+01 0.00000E+00
 -1      3143 8.73389E+01 3.85549E+01 0.00000E+00
 -1      3144 8.88389E+01 3.85549E+01 0.00000E+00
 -1      3145 9.02144E+01 3.81578E+01 0.00000E+00
 -1      3146 9.17144E+01 3.81578E+01 0.00000E+00
 -1      3147 9.39000E+01 3.83090E+01 0.00000E+00
 -1      3148 9.54000E+01 3.83090E+01 0.00000E+00
 -1      3149 9.69000E+01 3.83090E+01 0.00000E+00
 -1      3150 9.84000E+01 3.83090E+01 0.00000E+00
 -1      3151 9.61500E+01 3.70100E+01 0.00000E+00
 -1      3152 9.99000E+01 3.83090E+01 0.00000E+00
 -1      3153 1.01400E+02 3.83090E+01 0.00000E+00
 -1      3154 9.91500E+01 3.70100E+01 0.00000E+00
 -1      3155 1.02900E+02 3.83090E+01 0.00000E+00
 -1      3156 1.04400E+02 3.83090E+01 0.00000E+00
 -1      3157 1.02150E+02 3.70100E+01 0.00000E+00
 -1      3158 1.05900E+02 3.83090E+01 0.00000E+00
 -1      3159 1.07400E+02 3.83090E+01 0.00000E+00
 -1      3160 1.05150E+02 3.70100E+01 0.00000E+00
 -1      3161 1.08900E+02 3.83090E+01 0.00000E+00
 -1      3162 1.10400E+02 3.83090E+01 0.00000E+00
 -1      3163 1.08150E+02 3.70100E+01 0.00000E+00
 -1      3164 1.11900E+02 3.83090E+01 0.00000E+00
 -1      3165 1.13400E+02 3.83090E+01 0.00000E+00
 -1      3166 1.11150E+02 3.70100E+01 0.00000E+00
 -1      3167 1.14900E+02 3.83090E+01 0.00000E+00
 -1      3168 1.16400E+02 3.83090E+01 0.00000E+00
 -1      3169 1.14150E+02 3.70100E+01 0.00000E+00
 -1      3170 1.17900E+02 3.83090E+01 0.00000E+00
 -1      3171 1.19400E+02 3.83090E+01 0.00000E+00
 -1      3172 1.17150E+02 3.70100E+01 0.00000E+00
 -1      3173 1.20900E+02 3.83090E+01 0.00000E+00
 -1      3174 1.22400E+02 3.83090E+01 0.00000E+00
 -1      3175 1.20150E+02 3.70100E+01 0.00000E+00
 -1      3176 1.23900E+02 3.83090E+01 0.00000E+00
 -1      3177 1.25400E+02 3.83090E+01 0.00000E+00
 -1      3178 1.23150E+02 3.70100E+01 0.00000E+00
 -1      3179 1.26900E+02 3.83090E+01 0.00000E+00
 -1      3180 1.28400E+02 3.83090E+01 0.00000E+00
 -1      3181 1.26150E+02 3.70100E+01 0.00000E+00
 -1      3182 1.29900E+02 3.83090E+01 0.00000E+00
 -1      3183 1.31400E+02 3.83090E+01 0.00000E+00
 -1      3184 1.29150E+02 3.70100E+01 0.00000E+00
 -1      3185 1.32900E+02 3.83090E+01 0.00000E+00
 -1      3186 1.34400E+02 3.83090E+01 0.00000E+00
 -1      3187 1.32150E+02 3.70100E+01 0.00000E+00
 -1      3188 1.35707E+02 3.84200E+01 0.00000E+00
 -1      3189 1.37207E+02 3.84200E+01 0.00000E+00
 -1      3190 1.37572E+02 3.73430E+01 0.00000E+00
 -1      3191 1.34957E+02 3.71210E+01 0.00000E+00
 -1      3192 3.47850E+01 1.05013E+01 0.00000E+00
 -1      3193 3.32850E+01 1.05013E+01 0.00000E+00
 -1      3194 3.17850E+01 1.05013E+01 0.00000E+00
 -1      3195 3.02850E+01 1.05013E+01 0.00000E+00
 -1      3196 3.25350E+01 1.18003E+01 0.00000E+00
 -1      3197 4.07850E+01 1.05013E+01 0.00000E+00
 -1      3198 3.92850E+01 1.05013E+01 0.00000E+00
 -1      3199 4.37850E+01 1.05013E+01 0.00000E+00
 -1      3200 4.22850E+01 1.05013E+01 0.00000E+00
 -1      3201 4.15350E+01 1.18003E+01 0.00000E+00
 -1      3202 4.67850E+01 1.05013E+01 0.00000E+00
 -1      3203 4.52850E+01 1.05013E+01 0.00000E+00
 -1      3204 4.45350E+01 1.18003E+01 0.00000E+00
 -1      3205 4.97850E+01 1.05013E+01 0.00000E+00
 -1      3206 4.82850E+01 1.05013E+01 0.00000E+00
 -1      3207 4.75350E+01 1.18003E+01 0.00000E+00
 -1      3208 5.27850E+01 1.05013E+01 0.00000E+00
 -1      3209 5.12850E+01 1.05013E+01 0.00000E+00
 -1      3210 5.05350E+01 1.18003E+01 0.00000E+00
 -1      3211 5.57850E+01 1.05013E+01 0.00000E+00
 -1      3212 5.42850E+01 1.05013E+01 0.00000E+00
 -1      3213 5.35350E+01 1.18003E+01 0.00000E+00
 -1      3214 5.87850E+01 1.05013E+01 0.00000E+00
 -1      3215 5.72850E+01 1.05013E+01 0.00000E+00
 -1      3216 5.65350E+01 1.18003E+01 0.00000E+00
 -1      3217 6.17850E+01 1.05013E+01 0.00000E+00
 -1      3218 6.02850E+01 1.05013E+01 0.00000E+00
 -1      3219 5.95350E+01 1.18003E+01 0.00000E+00
 -1      3220 6.47850E+01 1.05013E+01 0.00000E+00
 -1      3221 6.32850E+01 1.05013E+01 0.00000E+00
 -1      3222 6.25350E+01 1.18003E+01 0.00000E+00
 -1      3223 6.77850E+01 1.05013E+01 0.00000E+00
 -1      3224 6.62850E+01 1.05013E+01 0.00000E+00
 -1      3225 6.55350E+01 1.18003E+01 0.00000E+00
 -1      3226 7.07850E+01 1.05013E+01 0.00000E+00
 -1      3227 6.92850E+01 1.05013E+01 0.00000E+00
 -1      3228 6.85350E+01 1.18003E+01 0.00000E+00
 -1      3229 7.37850E+01 1.05013E+01 0.00000E+00
 -1      3230 7.22850E+01 1.05013E+01 0.00000E+00
 -1      3231 7.15350E+01 1.18003E+01 0.00000E+00
 -1      3232 7.71952E+01 1.13276E+01 0.00000E+00
 -1      3233 7.56952E+01 1.13276E+01 0.00000E+00
 -1      3234 8.01510E+01 1.07837E+01 0.00000E+00
 -1      3235 7.86510E+01 1.07837E+01 0.00000E+00
 -1      3236 8.32070E+01 1.05276E+01 0.00000E+00
 -1      3237 8.17070E+01 1.05276E+01 0.00000E+00
 -1      3238 8.60368E+01 1.04699E+01 0.00000E+00
 -1      3239 8.45368E+01 1.04699E+01 0.00000E+00
 -1      3240 8.91731E+01 1.08159E+01 0.00000E+00
 -1      3241 8.76731E+01 1.08159E+01 0.00000E+00
 -1      3242 9.19399E+01 1.11753E+01 0.00000E+00
 -1      3243 9.04399E+01 1.11753E+01 0.00000E+00
 -1      3244 9.45943E+01 1.11254E+01 0.00000E+00
 -1      3245 9.30943E+01 1.11254E+01 0.00000E+00
 -1      3246 1.00785E+02 1.05013E+01 0.00000E+00
 -1      3247 9.92850E+01 1.05013E+01 0.00000E+00
 -1      3248 1.03785E+02 1.05013E+01 0.00000E+00
 -1      3249 1.02285E+02 1.05013E+01 0.00000E+00
 -1      3250 1.01535E+02 1.18003E+01 0.00000E+00
 -1      3251 1.06785E+02 1.05013E+01 0.00000E+00
 -1      3252 1.05285E+02 1.05013E+01 0.00000E+00
 -1      3253 1.04535E+02 1.18003E+01 0.00000E+00
 -1      3254 1.09785E+02 1.05013E+01 0.00000E+00
 -1      3255 1.08285E+02 1.05013E+01 0.00000E+00
 -1      3256 1.07535E+02 1.18003E+01 0.00000E+00
 -1      3257 1.12785E+02 1.05013E+01 0.00000E+00
 -1      3258 1.11285E+02 1.05013E+01 0.00000E+00
 -1      3259 1.10535E+02 1.18003E+01 0.00000E+00
 -1      3260 1.15785E+02 1.05013E+01 0.00000E+00
 -1      3261 1.14285E+02 1.05013E+01 0.00000E+00
 -1      3262 1.13535E+02 1.18003E+01 0.00000E+00
 -1      3263 1.18785E+02 1.05013E+01 0.00000E+00
 -1      3264 1.17285E+02 1.05013E+01 0.00000E+00
 -1      3265 1.16535E+02 1.18003E+01 0.00000E+00
 -1      3266 1.21785E+02 1.05013E+01 0.00000E+00
 -1      3267 1.20285E+02 1.05013E+01 0.00000E+00
 -1      3268 1.19535E+02 1.18003E+01 0.00000E+00
 -1      3269 1.24785E+02 1.05013E+01 0.00000E+00
 -1      3270 1.23285E+02 1.05013E+01 0.00000E+00
 -1      3271 1.22535E+02 1.18003E+01 0.00000E+00
 -1      3272 1.27785E+02 1.05013E+01 0.00000E+00
 -1      3273 1.26285E+02 1.05013E+01 0.00000E+00
 -1      3274 1.25535E+02 1.18003E+01 0.00000E+00
 -1      3275 1.30785E+02 1.05013E+01 0.00000E+00
 -1      3276 1.29285E+02 1.05013E+01 0.00000E+00
 -1      3277 1.28535E+02 1.18003E+01 0.00000E+00
 -1      3278 1.33785E+02 1.05013E+01 0.00000E+00
 -1      3279 1.32285E+02 1.05013E+01 0.00000E+00
 -1      3280 1.31535E+02 1.18003E+01 0.00000E+00
 -1      3281 1.36785E+02 1.05013E+01 0.00000E+00
 -1      3282 1.35285E+02 1.05013E+01 0.00000E+00
 -1      3283 1.34535E+02 1.18003E+01 0.00000E+00
 -1      3284 1.38879E+02 1.08930E+01 0.00000E+00
 -1      3285 1.37711E+02 1.06123E+01 0.00000E+00
 -1      3286 1.36961E+02 1.19113E+01 0.00000E+00
 -1      3287 1.38813E+02 1.21333E+01 0.00000E+00
 -1      3288 1.16910E+01 2.12875E+01 0.00000E+00
 -1      3289 1.16910E+01 2.27625E+01 0.00000E+00
 -1      3290 1.38309E+02 2.57625E+01 0.00000E+00
 -1      3291 1.38309E+02 2.42875E+01 0.00000E+00
 -1      3292 1.38309E+02 3.45625E+01 0.00000E+00
 -1      3293 1.38309E+02 3.30875E+01 0.00000E+00
 -1      3294 1.38309E+02 2.86625E+01 0.00000E+00
 -1      3295 1.38309E+02 2.72125E+01 0.00000E+00
 -1      3296 1.37010E+02 2.64750E+01 0.00000E+00
 -1      3297 8.41557E+01 3.79643E+01 0.00000E+00
 -1      3298 8.35463E+01 3.71562E+01 0.00000E+00
 -1      3299 1.97850E+01 1.05013E+01 0.00000E+00
 -1      3300 1.82850E+01 1.05013E+01 0.00000E+00
 -1      3301 8.36582E+01 3.88423E+01 0.00000E+00
 -1      3302 8.28010E+01 3.74898E+01 0.00000E+00
 -1      3303 1.38309E+02 3.16125E+01 0.00000E+00
 -1      3304 1.38309E+02 3.01375E+01 0.00000E+00
 -1      3305 1.37010E+02 2.94000E+01 0.00000E+00
 -1      3306 1.37010E+02 3.23500E+01 0.00000E+00
 -1      3307 9.74979E+01 2.86329E+01 0.00000E+00
 -1      3308 9.72993E+01 3.00456E+01 0.00000E+00
 -1      3309 3.77850E+01 1.05013E+01 0.00000E+00
 -1      3310 3.62850E+01 1.05013E+01 0.00000E+00
 -1      3311 3.55350E+01 1.18003E+01 0.00000E+00
 -1      3312 3.85350E+01 1.18003E+01 0.00000E+00
 -1      3313 2.27850E+01 1.05013E+01 0.00000E+00
 -1      3314 2.12850E+01 1.05013E+01 0.00000E+00
 -1      3315 2.05350E+01 1.18003E+01 0.00000E+00
 -1      3316 7.31598E+01 1.71661E+01 0.00000E+00
 -1      3317 7.37324E+01 1.58073E+01 0.00000E+00
 -1      3318 7.16736E+01 1.91984E+01 0.00000E+00
 -1      3319 7.24167E+01 1.81822E+01 0.00000E+00
 -1      3320 7.16811E+01 1.70722E+01 0.00000E+00
 -1      3321 1.26488E+01 1.02017E+01 0.00000E+00
 -1      3322 1.20772E+01 1.14631E+01 0.00000E+00
 -1      3323 1.33763E+01 1.22006E+01 0.00000E+00
 -1      3324 1.41488E+01 1.02017E+01 0.00000E+00
 -1      3325 1.59000E+01 3.83090E+01 0.00000E+00
 -1      3326 1.74000E+01 3.83090E+01 0.00000E+00
 -1      3327 1.81500E+01 3.70100E+01 0.00000E+00
 -1      3328 9.50857E+01 1.53152E+01 0.00000E+00
 -1      3329 9.58511E+01 1.62419E+01 0.00000E+00
 -1      3330 9.47782E+01 3.40770E+01 0.00000E+00
 -1      3331 9.38324E+01 3.50936E+01 0.00000E+00
 -1      3332 8.21582E+01 3.88423E+01 0.00000E+00
 -1      3333 7.40378E+01 1.36794E+01 0.00000E+00
 -1      3334 7.49452E+01 1.26266E+01 0.00000E+00
 -1      3335 9.82176E+01 2.29909E+01 0.00000E+00
 -1      3336 9.83190E+01 2.42527E+01 0.00000E+00
 -1      3337 9.28795E+01 3.72558E+01 0.00000E+00
 -1      3338 7.08475E+01 2.77680E+01 0.00000E+00
 -1      3339 7.07831E+01 2.67095E+01 0.00000E+00
 -1      3340 9.66027E+01 1.76353E+01 0.00000E+00
 -1      3341 9.71522E+01 1.88751E+01 0.00000E+00
 -1      3342 9.75545E+01 2.03471E+01 0.00000E+00
 -1      3343 9.78369E+01 2.16027E+01 0.00000E+00
 -1      3344 9.66530E+01 3.18370E+01 0.00000E+00
 -1      3345 9.58109E+01 3.29676E+01 0.00000E+00
 -1      3346 7.53266E+01 3.62100E+01 0.00000E+00
 -1      3347 7.43529E+01 3.52701E+01 0.00000E+00
 -1      3348 8.19788E+01 3.78302E+01 0.00000E+00
 -1      3349 1.16910E+01 2.42375E+01 0.00000E+00
 -1      3350 1.16910E+01 2.57125E+01 0.00000E+00
 -1      3351 1.29900E+01 2.35000E+01 0.00000E+00
 -1      3352 1.14286E+01 3.73811E+01 0.00000E+00
 -1      3353 9.88588E+01 2.51216E+01 0.00000E+00
 -1      3354 9.93985E+01 2.59906E+01 0.00000E+00
 -1      3355 9.99969E+01 2.43951E+01 0.00000E+00
 -1      3356 9.71396E+01 1.64125E+01 0.00000E+00
 -1      3357 1.16910E+01 3.30594E+01 0.00000E+00
 -1      3358 1.16910E+01 3.45281E+01 0.00000E+00
 -1      3359 1.38309E+02 1.69188E+01 0.00000E+00
 -1      3360 1.38309E+02 1.54563E+01 0.00000E+00
 -1      3361 1.32152E+01 3.82007E+01 0.00000E+00
 -1      3362 1.45576E+01 3.82548E+01 0.00000E+00
 -1      3363 1.53076E+01 3.69558E+01 0.00000E+00
 -1      3364 7.88343E+01 3.79737E+01 0.00000E+00
 -1      3365 7.27296E+01 1.39282E+01 0.00000E+00
 -1      3366 7.00215E+01 2.59285E+01 0.00000E+00
 -1      3367 9.83371E+01 2.80995E+01 0.00000E+00
 -1      3368 2.95350E+01 1.18003E+01 0.00000E+00
 -1      3369 2.87850E+01 1.05013E+01 0.00000E+00
 -1      3370 2.72850E+01 1.05013E+01 0.00000E+00
 -1      3371 9.82935E+01 1.92779E+01 0.00000E+00
 -1      3372 9.77850E+01 1.05013E+01 0.00000E+00
 -1      3373 9.62850E+01 1.05013E+01 0.00000E+00
 -1      3374 1.16910E+01 1.98188E+01 0.00000E+00
 -1      3375 1.29900E+01 2.05562E+01 0.00000E+00
 -1      3376 1.16910E+01 1.83500E+01 0.00000E+00
 -1      3377 1.38309E+02 1.98687E+01 0.00000E+00
 -1      3378 1.38309E+02 1.83937E+01 0.00000E+00
 -1      3379 1.37010E+02 1.76625E+01 0.00000E+00
 -1      3380 7.21764E+01 3.15602E+01 0.00000E+00
 -1      3381 7.12620E+01 3.11442E+01 0.00000E+00
 -1      3382 7.22047E+01 3.24496E+01 0.00000E+00
 -1      3383 1.29900E+01 1.46687E+01 0.00000E+00
 -1      3384 1.16910E+01 1.54063E+01 0.00000E+00
 -1      3385 1.16910E+01 1.68750E+01 0.00000E+00
 -1      3386 9.88819E+01 3.07097E+01 0.00000E+00
 -1      3387 9.77675E+01 3.12734E+01 0.00000E+00
 -1      3388 9.82357E+01 3.25011E+01 0.00000E+00
 -1      3389 1.38309E+02 2.28156E+01 0.00000E+00
 -1      3390 1.38309E+02 2.13406E+01 0.00000E+00
 -1      3391 1.37010E+02 2.06094E+01 0.00000E+00
 -1      3392 1.37010E+02 2.35531E+01 0.00000E+00
 -1      3393 9.53443E+01 1.24244E+01 0.00000E+00
 -1      3394 1.16910E+01 3.15906E+01 0.00000E+00
 -1      3395 1.29900E+01 3.23250E+01 0.00000E+00
 -1      3396 1.16910E+01 3.01219E+01 0.00000E+00
 -1      3397 9.85350E+01 1.18003E+01 0.00000E+00
 -1      3398 7.03078E+01 2.29929E+01 0.00000E+00
 -1      3399 6.98462E+01 2.21538E+01 0.00000E+00
 -1      3400 6.96221E+01 2.37271E+01 0.00000E+00
 -1      3401 1.37758E+02 3.64912E+01 0.00000E+00
 -1      3402 1.38123E+02 3.54142E+01 0.00000E+00
 -1      3403 1.36824E+02 3.46768E+01 0.00000E+00
 -1      3404 1.36451E+02 3.63802E+01 0.00000E+00
 -1      3405 9.90765E+01 2.21381E+01 0.00000E+00
 -1      3406 2.57850E+01 1.05013E+01 0.00000E+00
 -1      3407 2.42850E+01 1.05013E+01 0.00000E+00
 -1      3408 2.35350E+01 1.18003E+01 0.00000E+00
 -1      3409 2.65350E+01 1.18003E+01 0.00000E+00
 -1      3410 7.07349E+01 1.97540E+01 0.00000E+00
 -1      3411 7.03455E+01 2.97776E+01 0.00000E+00
 -1      3412 7.05965E+01 2.87728E+01 0.00000E+00
 -1      3413 6.97083E+01 2.82956E+01 0.00000E+00
 -1      3414 9.60886E+01 3.41741E+01 0.00000E+00
 -1      3415 9.50208E+01 1.40338E+01 0.00000E+00
 -1      3416 1.69669E+01 1.03515E+01 0.00000E+00
 -1      3417 1.54669E+01 1.03515E+01 0.00000E+00
 -1      3418 1.50806E+01 1.13509E+01 0.00000E+00
 -1      3419 1.77169E+01 1.16505E+01 0.00000E+00
 -1      3420 2.34000E+01 3.57110E+01 0.00000E+00
 -1      3421 2.49000E+01 3.57110E+01 0.00000E+00
 -1      3422 2.64000E+01 3.57110E+01 0.00000E+00
 -1      3423 2.79000E+01 3.57110E+01 0.00000E+00
 -1      3424 2.56500E+01 3.44120E+01 0.00000E+00
 -1      3425 2.94000E+01 3.57110E+01 0.00000E+00
 -1      3426 3.09000E+01 3.57110E+01 0.00000E+00
 -1      3427 2.86500E+01 3.44120E+01 0.00000E+00
 -1      3428 3.24000E+01 3.57110E+01 0.00000E+00
 -1      3429 3.39000E+01 3.57110E+01 0.00000E+00
 -1      3430 3.16500E+01 3.44120E+01 0.00000E+00
 -1      3431 3.54000E+01 3.57110E+01 0.00000E+00
 -1      3432 3.69000E+01 3.57110E+01 0.00000E+00
 -1      3433 3.46500E+01 3.44120E+01 0.00000E+00
 -1      3434 3.84000E+01 3.57110E+01 0.00000E+00
 -1      3435 3.99000E+01 3.57110E+01 0.00000E+00
 -1      3436 3.76500E+01 3.44120E+01 0.00000E+00
 -1      3437 4.14000E+01 3.57110E+01 0.00000E+00
 -1      3438 4.29000E+01 3.57110E+01 0.00000E+00
 -1      3439 4.06500E+01 3.44120E+01 0.00000E+00
 -1      3440 4.44000E+01 3.57110E+01 0.00000E+00
 -1      3441 4.59000E+01 3.57110E+01 0.00000E+00
 -1      3442 4.36500E+01 3.44120E+01 0.00000E+00
 -1      3443 4.74000E+01 3.57110E+01 0.00000E+00
 -1      3444 4.89000E+01 3.57110E+01 0.00000E+00
 -1      3445 4.66500E+01 3.44120E+01 0.00000E+00
 -1      3446 5.04000E+01 3.57110E+01 0.00000E+00
 -1      3447 5.19000E+01 3.57110E+01 0.00000E+00
 -1      3448 4.96500E+01 3.44120E+01 0.00000E+00
 -1      3449 5.34000E+01 3.57110E+01 0.00000E+00
 -1      3450 5.49000E+01 3.57110E+01 0.00000E+00
 -1      3451 5.26500E+01 3.44120E+01 0.00000E+00
 -1      3452 5.64000E+01 3.57110E+01 0.00000E+00
 -1      3453 5.79000E+01 3.57110E+01 0.00000E+00
 -1      3454 5.56500E+01 3.44120E+01 0.00000E+00
 -1      3455 5.94000E+01 3.57110E+01 0.00000E+00
 -1      3456 6.09000E+01 3.57110E+01 0.00000E+00
 -1      3457 5.86500E+01 3.44120E+01 0.00000E+00
 -1      3458 6.24000E+01 3.57110E+01 0.00000E+00
 -1      3459 6.39000E+01 3.57110E+01 0.00000E+00
 -1      3460 6.16500E+01 3.44120E+01 0.00000E+00
 -1      3461 6.54000E+01 3.57110E+01 0.00000E+00
 -1      3462 6.69000E+01 3.57110E+01 0.00000E+00
 -1      3463 6.46500E+01 3.44120E+01 0.00000E+00
 -1      3464 6.84000E+01 3.57110E+01 0.00000E+00
 -1      3465 6.99000E+01 3.57110E+01 0.00000E+00
 -1      3466 6.76500E+01 3.44120E+01 0.00000E+00
 -1      3467 9.99556E+01 2.11507E+01 0.00000E+00
 -1      3468 1.00336E+02 2.25389E+01 0.00000E+00
 -1      3469 2.12850E+01 1.30992E+01 0.00000E+00
 -1      3470 1.97850E+01 1.30992E+01 0.00000E+00
 -1      3471 9.84000E+01 3.57110E+01 0.00000E+00
 -1      3472 9.99000E+01 3.57110E+01 0.00000E+00
 -1      3473 1.01400E+02 3.57110E+01 0.00000E+00
 -1      3474 1.02900E+02 3.57110E+01 0.00000E+00
 -1      3475 1.00650E+02 3.44120E+01 0.00000E+00
 -1      3476 1.04400E+02 3.57110E+01 0.00000E+00
 -1      3477 1.05900E+02 3.57110E+01 0.00000E+00
 -1      3478 1.03650E+02 3.44120E+01 0.00000E+00
 -1      3479 1.07400E+02 3.57110E+01 0.00000E+00
 -1      3480 1.08900E+02 3.57110E+01 0.00000E+00
 -1      3481 1.06650E+02 3.44120E+01 0.00000E+00
 -1      3482 1.10400E+02 3.57110E+01 0.00000E+00
 -1      3483 1.11900E+02 3.57110E+01 0.00000E+00
 -1      3484 1.09650E+02 3.44120E+01 0.00000E+00
 -1      3485 1.13400E+02 3.57110E+01 0.00000E+00
 -1      3486 1.14900E+02 3.57110E+01 0.00000E+00
 -1      3487 1.12650E+02 3.44120E+01 0.00000E+00
 -1      3488 1.16400E+02 3.57110E+01 0.00000E+00
 -1      3489 1.17900E+02 3.57110E+01 0.00000E+00
 -1      3490 1.15650E+02 3.44120E+01 0.00000E+00
 -1      3491 1.19400E+02 3.57110E+01 0.00000E+00
 -1      3492 1.20900E+02 3.57110E+01 0.00000E+00
 -1      3493 1.18650E+02 3.44120E+01 0.00000E+00
 -1      3494 1.22400E+02 3.57110E+01 0.00000E+00
 -1      3495 1.23900E+02 3.57110E+01 0.00000E+00
 -1      3496 1.21650E+02 3.44120E+01 0.00000E+00
 -1      3497 1.25400E+02 3.57110E+01 0.00000E+00
 -1      3498 1.26900E+02 3.57110E+01 0.00000E+00
 -1      3499 1.24650E+02 3.44120E+01 0.00000E+00
 -1      3500 1.28400E+02 3.57110E+01 0.00000E+00
 -1      3501 1.29900E+02 3.57110E+01 0.00000E+00
 -1      3502 1.27650E+02 3.44120E+01 0.00000E+00
 -1      3503 1.31400E+02 3.57110E+01 0.00000E+00
 -1      3504 1.32900E+02 3.57110E+01 0.00000E+00
 -1      3505 1.30650E+02 3.44120E+01 0.00000E+00
 -1      3506 3.32850E+01 1.30992E+01 0.00000E+00
 -1      3507 3.17850E+01 1.30992E+01 0.00000E+00
 -1      3508 1.08285E+02 1.30992E+01 0.00000E+00
 -1      3509 1.06785E+02 1.30992E+01 0.00000E+00
 -1      3510 4.52850E+01 1.30992E+01 0.00000E+00
 -1      3511 4.37850E+01 1.30992E+01 0.00000E+00
 -1      3512 4.22850E+01 1.30992E+01 0.00000E+00
 -1      3513 4.07850E+01 1.30992E+01 0.00000E+00
 -1      3514 4.30350E+01 1.43982E+01 0.00000E+00
 -1      3515 5.12850E+01 1.30992E+01 0.00000E+00
 -1      3516 4.97850E+01 1.30992E+01 0.00000E+00
 -1      3517 5.42850E+01 1.30992E+01 0.00000E+00
 -1      3518 5.27850E+01 1.30992E+01 0.00000E+00
 -1      3519 5.20350E+01 1.43982E+01 0.00000E+00
 -1      3520 5.72850E+01 1.30992E+01 0.00000E+00
 -1      3521 5.57850E+01 1.30992E+01 0.00000E+00
 -1      3522 5.50350E+01 1.43982E+01 0.00000E+00
 -1      3523 6.02850E+01 1.30992E+01 0.00000E+00
 -1      3524 5.87850E+01 1.30992E+01 0.00000E+00
 -1      3525 5.80350E+01 1.43982E+01 0.00000E+00
 -1      3526 6.32850E+01 1.30992E+01 0.00000E+00
 -1      3527 6.17850E+01 1.30992E+01 0.00000E+00
 -1      3528 6.10350E+01 1.43982E+01 0.00000E+00
 -1      3529 6.62850E+01 1.30992E+01 0.00000E+00
 -1      3530 6.47850E+01 1.30992E+01 0.00000E+00
 -1      3531 6.40350E+01 1.43982E+01 0.00000E+00
 -1      3532 6.92850E+01 1.30992E+01 0.00000E+00
 -1      3533 6.77850E+01 1.30992E+01 0.00000E+00
 -1      3534 6.70350E+01 1.43982E+01 0.00000E+00
 -1      3535 7.12296E+01 1.39282E+01 0.00000E+00
 -1      3536 1.34776E+01 3.53477E+01 0.00000E+00
 -1      3537 1.21786E+01 3.60821E+01 0.00000E+00
 -1      3538 1.02285E+02 1.30992E+01 0.00000E+00
 -1      3539 1.00785E+02 1.30992E+01 0.00000E+00
 -1      3540 1.11285E+02 1.30992E+01 0.00000E+00
 -1      3541 1.09785E+02 1.30992E+01 0.00000E+00
 -1      3542 1.09035E+02 1.43982E+01 0.00000E+00
 -1      3543 1.14285E+02 1.30992E+01 0.00000E+00
 -1      3544 1.12785E+02 1.30992E+01 0.00000E+00
 -1      3545 1.12035E+02 1.43982E+01 0.00000E+00
 -1      3546 1.17285E+02 1.30992E+01 0.00000E+00
 -1      3547 1.15785E+02 1.30992E+01 0.00000E+00
 -1      3548 1.15035E+02 1.43982E+01 0.00000E+00
 -1      3549 1.20285E+02 1.30992E+01 0.00000E+00
 -1      3550 1.18785E+02 1.30992E+01 0.00000E+00
 -1      3551 1.18035E+02 1.43982E+01 0.00000E+00
 -1      3552 1.23285E+02 1.30992E+01 0.00000E+00
 -1      3553 1.21785E+02 1.30992E+01 0.00000E+00
 -1      3554 1.21035E+02 1.43982E+01 0.00000E+00
 -1      3555 1.26285E+02 1.30992E+01 0.00000E+00
 -1      3556 1.24785E+02 1.30992E+01 0.00000E+00
 -1      3557 1.24035E+02 1.43982E+01 0.00000E+00
 -1      3558 1.29285E+02 1.30992E+01 0.00000E+00
 -1      3559 1.27785E+02 1.30992E+01 0.00000E+00
 -1      3560 1.27035E+02 1.43982E+01 0.00000E+00
 -1      3561 1.32285E+02 1.30992E+01 0.00000E+00
 -1      3562 1.30785E+02 1.30992E+01 0.00000E+00
 -1      3563 1.30035E+02 1.43982E+01 0.00000E+00
 -1      3564 1.35285E+02 1.30992E+01 0.00000E+00
 -1      3565 1.33785E+02 1.30992E+01 0.00000E+00
 -1      3566 1.33035E+02 1.43982E+01 0.00000E+00
 -1      3567 1.05285E+02 1.30992E+01 0.00000E+00
 -1      3568 1.03785E+02 1.30992E+01 0.00000E+00
 -1      3569 1.03035E+02 1.43982E+01 0.00000E+00
 -1      3570 9.67115E+01 1.34097E+01 0.00000E+00
 -1      3571 1.38528E+02 1.44149E+01 0.00000E+00
 -1      3572 1.38594E+02 1.31746E+01 0.00000E+00
 -1      3573 1.37668E+02 1.30636E+01 0.00000E+00
 -1      3574 1.37229E+02 1.51462E+01 0.00000E+00
 -1      3575 1.35711E+02 2.72000E+01 0.00000E+00
 -1      3576 1.35711E+02 2.57500E+01 0.00000E+00
 -1      3577 9.92429E+01 1.82274E+01 0.00000E+00
 -1      3578 9.96452E+01 1.96995E+01 0.00000E+00
 -1      3579 7.33846E+01 3.49378E+01 0.00000E+00
 -1      3580 9.94752E+01 2.73731E+01 0.00000E+00
 -1      3581 9.95519E+01 2.87555E+01 0.00000E+00
 -1      3582 1.00613E+02 2.66466E+01 0.00000E+00
 -1      3583 4.82850E+01 1.30992E+01 0.00000E+00
 -1      3584 4.67850E+01 1.30992E+01 0.00000E+00
 -1      3585 4.60350E+01 1.43982E+01 0.00000E+00
 -1      3586 4.90350E+01 1.43982E+01 0.00000E+00
 -1      3587 9.48529E+01 3.61468E+01 0.00000E+00
 -1      3588 9.63529E+01 3.61468E+01 0.00000E+00
 -1      3589 1.74000E+01 3.57110E+01 0.00000E+00
 -1      3590 1.89000E+01 3.57110E+01 0.00000E+00
 -1      3591 6.97365E+01 1.62433E+01 0.00000E+00
 -1      3592 7.04796E+01 1.52272E+01 0.00000E+00
 -1      3593 1.16910E+01 2.71844E+01 0.00000E+00
 -1      3594 1.16910E+01 2.86531E+01 0.00000E+00
 -1      3595 1.29900E+01 2.93875E+01 0.00000E+00
 -1      3596 9.36295E+01 3.59568E+01 0.00000E+00
 -1      3597 6.88827E+01 2.65591E+01 0.00000E+00
 -1      3598 6.89449E+01 2.51968E+01 0.00000E+00
 -1      3599 6.95326E+01 2.04526E+01 0.00000E+00
 -1      3600 6.97357E+01 1.87870E+01 0.00000E+00
 -1      3601 9.79071E+01 1.50991E+01 0.00000E+00
 -1      3602 9.86587E+01 1.64925E+01 0.00000E+00
 -1      3603 9.73856E+01 3.50374E+01 0.00000E+00
 -1      3604 2.04000E+01 3.57110E+01 0.00000E+00
 -1      3605 2.19000E+01 3.57110E+01 0.00000E+00
 -1      3606 2.26500E+01 3.44120E+01 0.00000E+00
 -1      3607 9.97306E+01 1.34897E+01 0.00000E+00
 -1      3608 9.82306E+01 1.34897E+01 0.00000E+00
 -1      3609 7.18846E+01 3.49378E+01 0.00000E+00
 -1      3610 1.96500E+01 3.44120E+01 0.00000E+00
 -1      3611 1.00876E+02 2.34078E+01 0.00000E+00
 -1      3612 1.01416E+02 2.42768E+01 0.00000E+00
 -1      3613 1.01755E+02 2.24205E+01 0.00000E+00
 -1      3614 7.04022E+01 3.15564E+01 0.00000E+00
 -1      3615 7.03739E+01 3.06670E+01 0.00000E+00
 -1      3616 6.94857E+01 3.01898E+01 0.00000E+00
 -1      3617 1.34412E+02 2.50031E+01 0.00000E+00
 -1      3618 1.35711E+02 2.42781E+01 0.00000E+00
 -1      3619 1.35711E+02 2.28062E+01 0.00000E+00
 -1      3620 1.47676E+01 3.55023E+01 0.00000E+00
 -1      3621 1.61100E+01 3.55564E+01 0.00000E+00
 -1      3622 1.68600E+01 3.42574E+01 0.00000E+00
 -1      3623 1.42800E+01 3.39483E+01 0.00000E+00
 -1      3624 1.00905E+02 2.01003E+01 0.00000E+00
 -1      3625 1.29900E+01 2.64469E+01 0.00000E+00
 -1      3626 1.90350E+01 1.43983E+01 0.00000E+00
 -1      3627 1.82850E+01 1.30993E+01 0.00000E+00
 -1      3628 3.10350E+01 1.43982E+01 0.00000E+00
 -1      3629 3.02850E+01 1.30992E+01 0.00000E+00
 -1      3630 2.87850E+01 1.30992E+01 0.00000E+00
 -1      3631 3.47850E+01 1.30992E+01 0.00000E+00
 -1      3632 3.40350E+01 1.43982E+01 0.00000E+00
 -1      3633 3.62850E+01 1.30992E+01 0.00000E+00
 -1      3634 1.34022E+02 3.59901E+01 0.00000E+00
 -1      3635 1.35329E+02 3.61011E+01 0.00000E+00
 -1      3636 1.35515E+02 3.52494E+01 0.00000E+00
 -1      3637 1.33272E+02 3.46911E+01 0.00000E+00
 -1      3638 1.06035E+02 1.43982E+01 0.00000E+00
 -1      3639 6.73444E+01 2.49882E+01 0.00000E+00
 -1      3640 6.84833E+01 2.43577E+01 0.00000E+00
 -1      3641 6.80217E+01 2.35185E+01 0.00000E+00
 -1      3642 4.00350E+01 1.43982E+01 0.00000E+00
 -1      3643 3.92850E+01 1.30992E+01 0.00000E+00
 -1      3644 3.77850E+01 1.30992E+01 0.00000E+00
 -1      3645 1.00481E+02 1.47887E+01 0.00000E+00
 -1      3646 1.29900E+01 1.76125E+01 0.00000E+00
 -1      3647 1.42890E+01 1.98219E+01 0.00000E+00
 -1      3648 1.42890E+01 2.12906E+01 0.00000E+00
 -1      3649 1.36742E+02 1.29526E+01 0.00000E+00
 -1      3650 1.35711E+02 2.86750E+01 0.00000E+00
 -1      3651 1.34412E+02 2.79500E+01 0.00000E+00
 -1      3652 1.35711E+02 3.01500E+01 0.00000E+00
 -1      3653 1.42890E+01 1.39344E+01 0.00000E+00
 -1      3654 1.42890E+01 1.54031E+01 0.00000E+00
 -1      3655 1.00020E+02 2.99833E+01 0.00000E+00
 -1      3656 1.00488E+02 3.12110E+01 0.00000E+00
 -1      3657 1.01158E+02 2.92568E+01 0.00000E+00
 -1      3658 1.35773E+02 1.52929E+01 0.00000E+00
 -1      3659 1.35992E+02 1.42516E+01 0.00000E+00
 -1      3660 1.00010E+02 1.69140E+01 0.00000E+00
 -1      3661 1.35773E+02 1.82429E+01 0.00000E+00
 -1      3662 1.35773E+02 1.67679E+01 0.00000E+00
 -1      3663 1.34535E+02 1.58733E+01 0.00000E+00
 -1      3664 1.42800E+01 3.10108E+01 0.00000E+00
 -1      3665 1.42800E+01 3.24796E+01 0.00000E+00
 -1      3666 1.55700E+01 3.26341E+01 0.00000E+00
 -1      3667 7.11346E+01 3.36388E+01 0.00000E+00
 -1      3668 1.69669E+01 1.29495E+01 0.00000E+00
 -1      3669 9.81356E+01 3.37384E+01 0.00000E+00
 -1      3670 6.89861E+01 1.75151E+01 0.00000E+00
 -1      3671 6.77846E+01 1.56701E+01 0.00000E+00
 -1      3672 6.62846E+01 1.56701E+01 0.00000E+00
 -1      3673 6.77838E+01 1.82137E+01 0.00000E+00
 -1      3674 1.55880E+01 2.20313E+01 0.00000E+00
 -1      3675 1.42890E+01 2.27656E+01 0.00000E+00
 -1      3676 1.42890E+01 2.42406E+01 0.00000E+00
 -1      3677 6.88470E+01 2.11868E+01 0.00000E+00
 -1      3678 6.78478E+01 2.02197E+01 0.00000E+00
 -1      3679 6.81613E+01 2.19209E+01 0.00000E+00
 -1      3680 2.27850E+01 1.30992E+01 0.00000E+00
 -1      3681 2.20350E+01 1.43982E+01 0.00000E+00
 -1      3682 2.42850E+01 1.30992E+01 0.00000E+00
 -1      3683 9.92501E+01 3.31747E+01 0.00000E+00
 -1      3684 6.86317E+01 2.75639E+01 0.00000E+00
 -1      3685 6.75550E+01 2.68321E+01 0.00000E+00
 -1      3686 6.83807E+01 2.85687E+01 0.00000E+00
 -1      3687 1.35702E+02 3.43976E+01 0.00000E+00
 -1      3688 1.34487E+02 3.38069E+01 0.00000E+00
 -1      3689 1.35795E+02 3.32342E+01 0.00000E+00
 -1      3690 1.35795E+02 3.17593E+01 0.00000E+00
 -1      3691 1.33365E+02 3.35277E+01 0.00000E+00
 -1      3692 1.65615E+01 1.45335E+01 0.00000E+00
 -1      3693 1.59934E+01 1.30847E+01 0.00000E+00
 -1      3694 2.79000E+01 3.31130E+01 0.00000E+00
 -1      3695 2.94000E+01 3.31130E+01 0.00000E+00
 -1      3696 3.09000E+01 3.31130E+01 0.00000E+00
 -1      3697 3.24000E+01 3.31130E+01 0.00000E+00
 -1      3698 3.01500E+01 3.18140E+01 0.00000E+00
 -1      3699 3.39000E+01 3.31130E+01 0.00000E+00
 -1      3700 3.54000E+01 3.31130E+01 0.00000E+00
 -1      3701 3.31500E+01 3.18140E+01 0.00000E+00
 -1      3702 3.69000E+01 3.31130E+01 0.00000E+00
 -1      3703 3.84000E+01 3.31130E+01 0.00000E+00
 -1      3704 3.61500E+01 3.18140E+01 0.00000E+00
 -1      3705 3.99000E+01 3.31130E+01 0.00000E+00
 -1      3706 4.14000E+01 3.31130E+01 0.00000E+00
 -1      3707 3.91500E+01 3.18140E+01 0.00000E+00
 -1      3708 4.29000E+01 3.31130E+01 0.00000E+00
 -1      3709 4.44000E+01 3.31130E+01 0.00000E+00
 -1      3710 4.21500E+01 3.18140E+01 0.00000E+00
 -1      3711 4.59000E+01 3.31130E+01 0.00000E+00
 -1      3712 4.74000E+01 3.31130E+01 0.00000E+00
 -1      3713 4.51500E+01 3.18140E+01 0.00000E+00
 -1      3714 4.89000E+01 3.31130E+01 0.00000E+00
 -1      3715 5.04000E+01 3.31130E+01 0.00000E+00
 -1      3716 4.81500E+01 3.18140E+01 0.00000E+00
 -1      3717 5.19000E+01 3.31130E+01 0.00000E+00
 -1      3718 5.34000E+01 3.31130E+01 0.00000E+00
 -1      3719 5.11500E+01 3.18140E+01 0.00000E+00
 -1      3720 5.49000E+01 3.31130E+01 0.00000E+00
 -1      3721 5.64000E+01 3.31130E+01 0.00000E+00
 -1      3722 5.41500E+01 3.18140E+01 0.00000E+00
 -1      3723 5.79000E+01 3.31130E+01 0.00000E+00
 -1      3724 5.94000E+01 3.31130E+01 0.00000E+00
 -1      3725 5.71500E+01 3.18140E+01 0.00000E+00
 -1      3726 6.09000E+01 3.31130E+01 0.00000E+00
 -1      3727 6.24000E+01 3.31130E+01 0.00000E+00
 -1      3728 6.01500E+01 3.18140E+01 0.00000E+00
 -1      3729 6.39000E+01 3.31130E+01 0.00000E+00
 -1      3730 6.54000E+01 3.31130E+01 0.00000E+00
 -1      3731 6.31500E+01 3.18140E+01 0.00000E+00
 -1      3732 1.89000E+01 3.31130E+01 0.00000E+00
 -1      3733 2.04000E+01 3.31130E+01 0.00000E+00
 -1      3734 1.97850E+01 1.56973E+01 0.00000E+00
 -1      3735 1.82851E+01 1.56973E+01 0.00000E+00
 -1      3736 1.06785E+02 1.56973E+01 0.00000E+00
 -1      3737 1.05285E+02 1.56973E+01 0.00000E+00
 -1      3738 1.02900E+02 3.31130E+01 0.00000E+00
 -1      3739 1.04400E+02 3.31130E+01 0.00000E+00
 -1      3740 1.05900E+02 3.31130E+01 0.00000E+00
 -1      3741 1.07400E+02 3.31130E+01 0.00000E+00
 -1      3742 1.05150E+02 3.18140E+01 0.00000E+00
 -1      3743 1.08900E+02 3.31130E+01 0.00000E+00
 -1      3744 1.10400E+02 3.31130E+01 0.00000E+00
 -1      3745 1.08150E+02 3.18140E+01 0.00000E+00
 -1      3746 1.11900E+02 3.31130E+01 0.00000E+00
 -1      3747 1.13400E+02 3.31130E+01 0.00000E+00
 -1      3748 1.11150E+02 3.18140E+01 0.00000E+00
 -1      3749 1.14900E+02 3.31130E+01 0.00000E+00
 -1      3750 1.16400E+02 3.31130E+01 0.00000E+00
 -1      3751 1.14150E+02 3.18140E+01 0.00000E+00
 -1      3752 1.17900E+02 3.31130E+01 0.00000E+00
 -1      3753 1.19400E+02 3.31130E+01 0.00000E+00
 -1      3754 1.17150E+02 3.18140E+01 0.00000E+00
 -1      3755 1.20900E+02 3.31130E+01 0.00000E+00
 -1      3756 1.22400E+02 3.31130E+01 0.00000E+00
 -1      3757 1.20150E+02 3.18140E+01 0.00000E+00
 -1      3758 1.23900E+02 3.31130E+01 0.00000E+00
 -1      3759 1.25400E+02 3.31130E+01 0.00000E+00
 -1      3760 1.23150E+02 3.18140E+01 0.00000E+00
 -1      3761 1.26900E+02 3.31130E+01 0.00000E+00
 -1      3762 1.28400E+02 3.31130E+01 0.00000E+00
 -1      3763 1.26150E+02 3.18140E+01 0.00000E+00
 -1      3764 1.29900E+02 3.31130E+01 0.00000E+00
 -1      3765 1.31400E+02 3.31130E+01 0.00000E+00
 -1      3766 1.29150E+02 3.18140E+01 0.00000E+00
 -1      3767 1.46753E+01 1.29349E+01 0.00000E+00
 -1      3768 2.19000E+01 3.31130E+01 0.00000E+00
 -1      3769 2.34000E+01 3.31130E+01 0.00000E+00
 -1      3770 2.11500E+01 3.18140E+01 0.00000E+00
 -1      3771 5.57850E+01 1.56973E+01 0.00000E+00
 -1      3772 5.42850E+01 1.56973E+01 0.00000E+00
 -1      3773 5.27850E+01 1.56973E+01 0.00000E+00
 -1      3774 5.12850E+01 1.56973E+01 0.00000E+00
 -1      3775 5.35350E+01 1.69963E+01 0.00000E+00
 -1      3776 6.17850E+01 1.56973E+01 0.00000E+00
 -1      3777 6.02850E+01 1.56973E+01 0.00000E+00
 -1      3778 6.47850E+01 1.56973E+01 0.00000E+00
 -1      3779 6.32850E+01 1.56973E+01 0.00000E+00
 -1      3780 6.25350E+01 1.69963E+01 0.00000E+00
 -1      3781 1.02020E+02 1.91030E+01 0.00000E+00
 -1      3782 1.02330E+02 2.05542E+01 0.00000E+00
 -1      3783 1.15785E+02 1.56973E+01 0.00000E+00
 -1      3784 1.14285E+02 1.56973E+01 0.00000E+00
 -1      3785 1.09785E+02 1.56973E+01 0.00000E+00
 -1      3786 1.08285E+02 1.56973E+01 0.00000E+00
 -1      3787 1.07535E+02 1.69963E+01 0.00000E+00
 -1      3788 1.18785E+02 1.56973E+01 0.00000E+00
 -1      3789 1.17285E+02 1.56973E+01 0.00000E+00
 -1      3790 1.16535E+02 1.69963E+01 0.00000E+00
 -1      3791 1.21785E+02 1.56973E+01 0.00000E+00
 -1      3792 1.20285E+02 1.56973E+01 0.00000E+00
 -1      3793 1.19535E+02 1.69963E+01 0.00000E+00
 -1      3794 1.24785E+02 1.56973E+01 0.00000E+00
 -1      3795 1.23285E+02 1.56973E+01 0.00000E+00
 -1      3796 1.22535E+02 1.69963E+01 0.00000E+00
 -1      3797 1.27785E+02 1.56973E+01 0.00000E+00
 -1      3798 1.26285E+02 1.56973E+01 0.00000E+00
 -1      3799 1.25535E+02 1.69963E+01 0.00000E+00
 -1      3800 1.30785E+02 1.56973E+01 0.00000E+00
 -1      3801 1.29285E+02 1.56973E+01 0.00000E+00
 -1      3802 1.28535E+02 1.69963E+01 0.00000E+00
 -1      3803 1.33410E+02 1.57852E+01 0.00000E+00
 -1      3804 1.31910E+02 1.57852E+01 0.00000E+00
 -1      3805 1.31160E+02 1.70842E+01 0.00000E+00
 -1      3806 1.33410E+02 1.72603E+01 0.00000E+00
 -1      3807 1.00958E+02 1.60783E+01 0.00000E+00
 -1      3808 1.01542E+02 1.78133E+01 0.00000E+00
 -1      3809 1.02968E+02 1.82672E+01 0.00000E+00
 -1      3810 1.02013E+02 1.56879E+01 0.00000E+00
 -1      3811 1.65900E+01 3.27963E+01 0.00000E+00
 -1      3812 1.78800E+01 3.29508E+01 0.00000E+00
 -1      3813 1.86300E+01 3.16518E+01 0.00000E+00
 -1      3814 1.65900E+01 3.13275E+01 0.00000E+00
 -1      3815 1.42890E+01 2.57125E+01 0.00000E+00
 -1      3816 1.42890E+01 2.71844E+01 0.00000E+00
 -1      3817 1.55880E+01 2.49781E+01 0.00000E+00
 -1      3818 5.87850E+01 1.56973E+01 0.00000E+00
 -1      3819 5.72850E+01 1.56973E+01 0.00000E+00
 -1      3820 5.95350E+01 1.69963E+01 0.00000E+00
 -1      3821 1.01766E+02 2.58893E+01 0.00000E+00
 -1      3822 1.01843E+02 2.72718E+01 0.00000E+00
 -1      3823 4.37850E+01 1.56973E+01 0.00000E+00
 -1      3824 4.22850E+01 1.56973E+01 0.00000E+00
 -1      3825 2.72850E+01 1.30992E+01 0.00000E+00
 -1      3826 2.57850E+01 1.30992E+01 0.00000E+00
 -1      3827 2.80350E+01 1.43982E+01 0.00000E+00
 -1      3828 1.73115E+01 1.58325E+01 0.00000E+00
 -1      3829 1.63380E+01 1.59677E+01 0.00000E+00
 -1      3830 1.80615E+01 1.71315E+01 0.00000E+00
 -1      3831 1.53135E+01 1.64229E+01 0.00000E+00
 -1      3832 1.40145E+01 1.71573E+01 0.00000E+00
 -1      3833 1.40145E+01 1.86323E+01 0.00000E+00
 -1      3834 1.60635E+01 1.77219E+01 0.00000E+00
 -1      3835 1.12785E+02 1.56973E+01 0.00000E+00
 -1      3836 1.11285E+02 1.56973E+01 0.00000E+00
 -1      3837 1.10535E+02 1.69963E+01 0.00000E+00
 -1      3838 1.42845E+01 2.83632E+01 0.00000E+00
 -1      3839 1.42845E+01 2.98320E+01 0.00000E+00
 -1      3840 1.55745E+01 2.99865E+01 0.00000E+00
 -1      3841 1.55835E+01 2.76288E+01 0.00000E+00
 -1      3842 2.49000E+01 3.31130E+01 0.00000E+00
 -1      3843 2.64000E+01 3.31130E+01 0.00000E+00
 -1      3844 2.71500E+01 3.18140E+01 0.00000E+00
 -1      3845 2.41500E+01 3.18140E+01 0.00000E+00
 -1      3846 1.00750E+02 3.31747E+01 0.00000E+00
 -1      3847 1.35711E+02 2.13344E+01 0.00000E+00
 -1      3848 1.35711E+02 1.98625E+01 0.00000E+00
 -1      3849 1.34412E+02 2.20594E+01 0.00000E+00
 -1      3850 1.02870E+02 2.14231E+01 0.00000E+00
 -1      3851 1.03410E+02 2.22921E+01 0.00000E+00
 -1      3852 1.03985E+02 2.04258E+01 0.00000E+00
 -1      3853 1.33113E+02 2.57391E+01 0.00000E+00
 -1      3854 1.33113E+02 2.42672E+01 0.00000E+00
 -1      3855 7.02202E+01 3.32228E+01 0.00000E+00
 -1      3856 6.70820E+01 3.14466E+01 0.00000E+00
 -1      3857 6.78320E+01 3.27456E+01 0.00000E+00
 -1      3858 1.03463E+02 2.77422E+01 0.00000E+00
 -1      3859 1.02311E+02 2.84995E+01 0.00000E+00
 -1      3860 1.02779E+02 2.97272E+01 0.00000E+00
 -1      3861 6.93320E+01 3.27456E+01 0.00000E+00
 -1      3862 3.17850E+01 1.56973E+01 0.00000E+00
 -1      3863 3.02850E+01 1.56973E+01 0.00000E+00
 -1      3864 1.53135E+01 1.93667E+01 0.00000E+00
 -1      3865 1.04263E+02 1.69869E+01 0.00000E+00
 -1      3866 1.03513E+02 1.56879E+01 0.00000E+00
 -1      3867 3.70350E+01 1.43982E+01 0.00000E+00
 -1      3868 1.32615E+02 3.22287E+01 0.00000E+00
 -1      3869 6.65302E+01 2.59826E+01 0.00000E+00
 -1      3870 6.60686E+01 2.51435E+01 0.00000E+00
 -1      3871 4.67850E+01 1.56973E+01 0.00000E+00
 -1      3872 4.52850E+01 1.56973E+01 0.00000E+00
 -1      3873 4.45350E+01 1.69963E+01 0.00000E+00
 -1      3874 3.47850E+01 1.56973E+01 0.00000E+00
 -1      3875 3.32850E+01 1.56973E+01 0.00000E+00
 -1      3876 3.25350E+01 1.69963E+01 0.00000E+00
 -1      3877 4.07850E+01 1.56973E+01 0.00000E+00
 -1      3878 3.92850E+01 1.56973E+01 0.00000E+00
 -1      3879 4.15350E+01 1.69963E+01 0.00000E+00
 -1      3880 5.65350E+01 1.69963E+01 0.00000E+00
 -1      3881 1.68870E+01 2.12938E+01 0.00000E+00
 -1      3882 1.68870E+01 2.27687E+01 0.00000E+00
 -1      3883 1.13535E+02 1.69963E+01 0.00000E+00
 -1      3884 1.34496E+02 3.10343E+01 0.00000E+00
 -1      3885 6.70225E+01 2.25515E+01 0.00000E+00
 -1      3886 1.34473E+02 1.89679E+01 0.00000E+00
 -1      3887 1.02645E+02 2.49020E+01 0.00000E+00
 -1      3888 4.97850E+01 1.56973E+01 0.00000E+00
 -1      3889 4.82850E+01 1.56973E+01 0.00000E+00
 -1      3890 4.75350E+01 1.69963E+01 0.00000E+00
 -1      3891 6.55346E+01 1.69691E+01 0.00000E+00
 -1      3892 2.50350E+01 1.43982E+01 0.00000E+00
 -1      3893 2.12850E+01 1.56973E+01 0.00000E+00
 -1      3894 2.05351E+01 1.69963E+01 0.00000E+00
 -1      3895 2.27850E+01 1.56973E+01 0.00000E+00
 -1      3896 6.84374E+01 3.03474E+01 0.00000E+00
 -1      3897 6.84090E+01 2.94581E+01 0.00000E+00
 -1      3898 6.73324E+01 2.87263E+01 0.00000E+00
 -1      3899 6.62792E+01 2.69874E+01 0.00000E+00
 -1      3900 1.33113E+02 2.86891E+01 0.00000E+00
 -1      3901 1.33113E+02 2.72141E+01 0.00000E+00
 -1      3902 1.31814E+02 2.64781E+01 0.00000E+00
 -1      3903 1.01888E+02 3.24482E+01 0.00000E+00
 -1      3904 1.63380E+01 1.89115E+01 0.00000E+00
 -1      3905 1.66125E+01 2.01011E+01 0.00000E+00
 -1      3906 1.73625E+01 1.84563E+01 0.00000E+00
 -1      3907 1.79115E+01 2.08386E+01 0.00000E+00
 -1      3908 5.05350E+01 1.69963E+01 0.00000E+00
 -1      3909 1.02638E+02 3.11493E+01 0.00000E+00
 -1      3910 3.24000E+01 3.05150E+01 0.00000E+00
 -1      3911 3.39000E+01 3.05150E+01 0.00000E+00
 -1      3912 3.54000E+01 3.05150E+01 0.00000E+00
 -1      3913 3.69000E+01 3.05150E+01 0.00000E+00
 -1      3914 3.46500E+01 2.92160E+01 0.00000E+00
 -1      3915 3.84000E+01 3.05150E+01 0.00000E+00
 -1      3916 3.99000E+01 3.05150E+01 0.00000E+00
 -1      3917 3.76500E+01 2.92160E+01 0.00000E+00
 -1      3918 4.14000E+01 3.05150E+01 0.00000E+00
 -1      3919 4.29000E+01 3.05150E+01 0.00000E+00
 -1      3920 4.06500E+01 2.92160E+01 0.00000E+00
 -1      3921 4.44000E+01 3.05150E+01 0.00000E+00
 -1      3922 4.59000E+01 3.05150E+01 0.00000E+00
 -1      3923 4.36500E+01 2.92160E+01 0.00000E+00
 -1      3924 4.74000E+01 3.05150E+01 0.00000E+00
 -1      3925 4.89000E+01 3.05150E+01 0.00000E+00
 -1      3926 4.66500E+01 2.92160E+01 0.00000E+00
 -1      3927 5.04000E+01 3.05150E+01 0.00000E+00
 -1      3928 5.19000E+01 3.05150E+01 0.00000E+00
 -1      3929 4.96500E+01 2.92160E+01 0.00000E+00
 -1      3930 5.34000E+01 3.05150E+01 0.00000E+00
 -1      3931 5.49000E+01 3.05150E+01 0.00000E+00
 -1      3932 5.26500E+01 2.92160E+01 0.00000E+00
 -1      3933 5.64000E+01 3.05150E+01 0.00000E+00
 -1      3934 5.79000E+01 3.05150E+01 0.00000E+00
 -1      3935 5.56500E+01 2.92160E+01 0.00000E+00
 -1      3936 5.94000E+01 3.05150E+01 0.00000E+00
 -1      3937 6.09000E+01 3.05150E+01 0.00000E+00
 -1      3938 5.86500E+01 2.92160E+01 0.00000E+00
 -1      3939 6.24000E+01 3.05150E+01 0.00000E+00
 -1      3940 6.39000E+01 3.05150E+01 0.00000E+00
 -1      3941 6.16500E+01 2.92160E+01 0.00000E+00
 -1      3942 1.68870E+01 2.42406E+01 0.00000E+00
 -1      3943 1.68870E+01 2.57125E+01 0.00000E+00
 -1      3944 1.81860E+01 2.35031E+01 0.00000E+00
 -1      3945 1.04740E+02 1.82766E+01 0.00000E+00
 -1      3946 3.77850E+01 1.56973E+01 0.00000E+00
 -1      3947 3.62850E+01 1.56973E+01 0.00000E+00
 -1      3948 3.55350E+01 1.69963E+01 0.00000E+00
 -1      3949 3.85350E+01 1.69963E+01 0.00000E+00
 -1      3950 1.11285E+02 1.82952E+01 0.00000E+00
 -1      3951 1.09785E+02 1.82952E+01 0.00000E+00
 -1      3952 1.07400E+02 3.05150E+01 0.00000E+00
 -1      3953 1.08900E+02 3.05150E+01 0.00000E+00
 -1      3954 1.10400E+02 3.05150E+01 0.00000E+00
 -1      3955 1.11900E+02 3.05150E+01 0.00000E+00
 -1      3956 1.09650E+02 2.92160E+01 0.00000E+00
 -1      3957 1.13400E+02 3.05150E+01 0.00000E+00
 -1      3958 1.14900E+02 3.05150E+01 0.00000E+00
 -1      3959 1.12650E+02 2.92160E+01 0.00000E+00
 -1      3960 1.16400E+02 3.05150E+01 0.00000E+00
 -1      3961 1.17900E+02 3.05150E+01 0.00000E+00
 -1      3962 1.15650E+02 2.92160E+01 0.00000E+00
 -1      3963 1.19400E+02 3.05150E+01 0.00000E+00
 -1      3964 1.20900E+02 3.05150E+01 0.00000E+00
 -1      3965 1.18650E+02 2.92160E+01 0.00000E+00
 -1      3966 1.22400E+02 3.05150E+01 0.00000E+00
 -1      3967 1.23900E+02 3.05150E+01 0.00000E+00
 -1      3968 1.21650E+02 2.92160E+01 0.00000E+00
 -1      3969 1.25400E+02 3.05150E+01 0.00000E+00
 -1      3970 1.26900E+02 3.05150E+01 0.00000E+00
 -1      3971 1.24650E+02 2.92160E+01 0.00000E+00
 -1      3972 1.28400E+02 3.05150E+01 0.00000E+00
 -1      3973 1.29900E+02 3.05150E+01 0.00000E+00
 -1      3974 1.27650E+02 2.92160E+01 0.00000E+00
 -1      3975 5.42850E+01 1.82952E+01 0.00000E+00
 -1      3976 5.27850E+01 1.82952E+01 0.00000E+00
 -1      3977 2.04000E+01 3.05150E+01 0.00000E+00
 -1      3978 2.19000E+01 3.05150E+01 0.00000E+00
 -1      3979 1.03791E+02 3.03920E+01 0.00000E+00
 -1      3980 1.31814E+02 2.35313E+01 0.00000E+00
 -1      3981 1.33113E+02 2.27953E+01 0.00000E+00
 -1      3982 1.33113E+02 2.13234E+01 0.00000E+00
 -1      3983 6.32850E+01 1.82952E+01 0.00000E+00
 -1      3984 6.17850E+01 1.82952E+01 0.00000E+00
 -1      3985 1.14285E+02 1.82952E+01 0.00000E+00
 -1      3986 1.12785E+02 1.82952E+01 0.00000E+00
 -1      3987 1.12035E+02 1.95942E+01 0.00000E+00
 -1      3988 1.08285E+02 1.82952E+01 0.00000E+00
 -1      3989 1.06785E+02 1.82952E+01 0.00000E+00
 -1      3990 1.09035E+02 1.95942E+01 0.00000E+00
 -1      3991 2.94000E+01 3.05150E+01 0.00000E+00
 -1      3992 3.09000E+01 3.05150E+01 0.00000E+00
 -1      3993 3.16500E+01 2.92160E+01 0.00000E+00
 -1      3994 1.23285E+02 1.82952E+01 0.00000E+00
 -1      3995 1.21785E+02 1.82952E+01 0.00000E+00
 -1      3996 1.26285E+02 1.82952E+01 0.00000E+00
 -1      3997 1.24785E+02 1.82952E+01 0.00000E+00
 -1      3998 1.24035E+02 1.95942E+01 0.00000E+00
 -1      3999 1.29285E+02 1.82952E+01 0.00000E+00
 -1      4000 1.27785E+02 1.82952E+01 0.00000E+00
 -1      4001 1.27035E+02 1.95942E+01 0.00000E+00
 -1      4002 1.32531E+02 3.06195E+01 0.00000E+00
 -1      4003 6.58479E+01 2.32537E+01 0.00000E+00
 -1      4004 6.59876E+01 2.16561E+01 0.00000E+00
 -1      4005 2.95350E+01 1.69963E+01 0.00000E+00
 -1      4006 2.87850E+01 1.56973E+01 0.00000E+00
 -1      4007 2.72850E+01 1.56973E+01 0.00000E+00
 -1      4008 5.12850E+01 1.82952E+01 0.00000E+00
 -1      4009 4.97850E+01 1.82952E+01 0.00000E+00
 -1      4010 5.20350E+01 1.95942E+01 0.00000E+00
 -1      4011 6.02850E+01 1.82952E+01 0.00000E+00
 -1      4012 5.87850E+01 1.82952E+01 0.00000E+00
 -1      4013 6.10350E+01 1.95942E+01 0.00000E+00
 -1      4014 5.72850E+01 1.82952E+01 0.00000E+00
 -1      4015 5.57850E+01 1.82952E+01 0.00000E+00
 -1      4016 5.50350E+01 1.95942E+01 0.00000E+00
 -1      4017 1.20285E+02 1.82952E+01 0.00000E+00
 -1      4018 1.18785E+02 1.82952E+01 0.00000E+00
 -1      4019 1.21035E+02 1.95942E+01 0.00000E+00
 -1      4020 6.70395E+01 1.95092E+01 0.00000E+00
 -1      4021 6.62899E+01 1.82374E+01 0.00000E+00
 -1      4022 1.83360E+01 1.83211E+01 0.00000E+00
 -1      4023 1.90401E+01 1.99509E+01 0.00000E+00
 -1      4024 1.93147E+01 2.11436E+01 0.00000E+00
 -1      4025 1.33231E+02 2.01017E+01 0.00000E+00
 -1      4026 1.33292E+02 1.84820E+01 0.00000E+00
 -1      4027 1.32167E+02 1.83940E+01 0.00000E+00
 -1      4028 1.31932E+02 2.08376E+01 0.00000E+00
 -1      4029 2.57850E+01 1.56973E+01 0.00000E+00
 -1      4030 2.42850E+01 1.56973E+01 0.00000E+00
 -1      4031 2.35350E+01 1.69963E+01 0.00000E+00
 -1      4032 2.65350E+01 1.69963E+01 0.00000E+00
 -1      4033 1.05291E+02 3.03920E+01 0.00000E+00
 -1      4034 6.60840E+01 2.82659E+01 0.00000E+00
 -1      4035 6.50591E+01 2.74164E+01 0.00000E+00
 -1      4036 6.63539E+01 2.02434E+01 0.00000E+00
 -1      4037 1.05490E+02 1.95756E+01 0.00000E+00
 -1      4038 1.17285E+02 1.82952E+01 0.00000E+00
 -1      4039 1.15785E+02 1.82952E+01 0.00000E+00
 -1      4040 1.15035E+02 1.95942E+01 0.00000E+00
 -1      4041 1.18035E+02 1.95942E+01 0.00000E+00
 -1      4042 1.03760E+02 2.39046E+01 0.00000E+00
 -1      4043 1.04110E+02 2.55172E+01 0.00000E+00
 -1      4044 1.04875E+02 2.29073E+01 0.00000E+00
 -1      4045 6.42195E+01 2.52426E+01 0.00000E+00
 -1      4046 6.50337E+01 2.42481E+01 0.00000E+00
 -1      4047 6.39989E+01 2.33528E+01 0.00000E+00
 -1      4048 6.47903E+01 1.82646E+01 0.00000E+00
 -1      4049 6.40403E+01 1.95636E+01 0.00000E+00
 -1      4050 1.97392E+01 1.86261E+01 0.00000E+00
 -1      4051 6.51794E+01 2.09456E+01 0.00000E+00
 -1      4052 6.60054E+01 3.07149E+01 0.00000E+00
 -1      4053 1.81815E+01 2.61538E+01 0.00000E+00
 -1      4054 1.68825E+01 2.68913E+01 0.00000E+00
 -1      4055 1.68780E+01 2.80702E+01 0.00000E+00
 -1      4056 1.94850E+01 2.27672E+01 0.00000E+00
 -1      4057 1.94850E+01 2.42391E+01 0.00000E+00
 -1      4058 1.06041E+02 2.90930E+01 0.00000E+00
 -1      4059 5.80350E+01 1.95942E+01 0.00000E+00
 -1      4060 6.36740E+01 2.09763E+01 0.00000E+00
 -1      4061 1.30515E+02 2.72156E+01 0.00000E+00
 -1      4062 1.30515E+02 2.57406E+01 0.00000E+00
 -1      4063 2.26500E+01 2.92160E+01 0.00000E+00
 -1      4064 2.34000E+01 3.05150E+01 0.00000E+00
 -1      4065 2.49000E+01 3.05150E+01 0.00000E+00
 -1      4066 4.52850E+01 1.82952E+01 0.00000E+00
 -1      4067 4.37850E+01 1.82952E+01 0.00000E+00
 -1      4068 4.22850E+01 1.82952E+01 0.00000E+00
 -1      4069 4.07850E+01 1.82952E+01 0.00000E+00
 -1      4070 4.30350E+01 1.95942E+01 0.00000E+00
 -1      4071 1.89135E+01 2.95733E+01 0.00000E+00
 -1      4072 1.96635E+01 2.82743E+01 0.00000E+00
 -1      4073 1.30515E+02 2.42687E+01 0.00000E+00
 -1      4074 1.30515E+02 2.27969E+01 0.00000E+00
 -1      4075 1.29216E+02 2.50063E+01 0.00000E+00
 -1      4076 2.12392E+01 1.86261E+01 0.00000E+00
 -1      4077 1.65945E+01 3.01487E+01 0.00000E+00
 -1      4078 2.79000E+01 3.05150E+01 0.00000E+00
 -1      4079 2.86500E+01 2.92160E+01 0.00000E+00
 -1      4080 2.64000E+01 3.05150E+01 0.00000E+00
 -1      4081 3.02850E+01 1.82952E+01 0.00000E+00
 -1      4082 2.87850E+01 1.82952E+01 0.00000E+00
 -1      4083 1.31042E+02 1.83060E+01 0.00000E+00
 -1      4084 3.32850E+01 1.82952E+01 0.00000E+00
 -1      4085 3.17850E+01 1.82952E+01 0.00000E+00
 -1      4086 3.10350E+01 1.95942E+01 0.00000E+00
 -1      4087 6.61123E+01 2.91553E+01 0.00000E+00
 -1      4088 6.40069E+01 2.89555E+01 0.00000E+00
 -1      4089 6.47569E+01 3.02545E+01 0.00000E+00
 -1      4090 4.82850E+01 1.82952E+01 0.00000E+00
 -1      4091 4.67850E+01 1.82952E+01 0.00000E+00
 -1      4092 4.60350E+01 1.95942E+01 0.00000E+00
 -1      4093 1.04841E+02 2.66912E+01 0.00000E+00
 -1      4094 1.05310E+02 2.79189E+01 0.00000E+00
 -1      4095 1.07419E+02 2.80420E+01 0.00000E+00
 -1      4096 1.05956E+02 2.56939E+01 0.00000E+00
 -1      4097 1.31232E+02 2.98836E+01 0.00000E+00
 -1      4098 2.06137E+01 2.18795E+01 0.00000E+00
 -1      4099 1.30292E+02 1.96050E+01 0.00000E+00
 -1      4100 4.90350E+01 1.95942E+01 0.00000E+00
 -1      4101 1.94805E+01 2.54179E+01 0.00000E+00
 -1      4102 1.94760E+01 2.65968E+01 0.00000E+00
 -1      4103 2.07795E+01 2.46820E+01 0.00000E+00
 -1      4104 1.30174E+02 2.08268E+01 0.00000E+00
 -1      4105 3.69000E+01 2.79170E+01 0.00000E+00
 -1      4106 3.84000E+01 2.79170E+01 0.00000E+00
 -1      4107 3.99000E+01 2.79170E+01 0.00000E+00
 -1      4108 4.14000E+01 2.79170E+01 0.00000E+00
 -1      4109 3.91500E+01 2.66180E+01 0.00000E+00
 -1      4110 4.29000E+01 2.79170E+01 0.00000E+00
 -1      4111 4.44000E+01 2.79170E+01 0.00000E+00
 -1      4112 4.21500E+01 2.66180E+01 0.00000E+00
 -1      4113 4.59000E+01 2.79170E+01 0.00000E+00
 -1      4114 4.74000E+01 2.79170E+01 0.00000E+00
 -1      4115 4.51500E+01 2.66180E+01 0.00000E+00
 -1      4116 4.89000E+01 2.79170E+01 0.00000E+00
 -1      4117 5.04000E+01 2.79170E+01 0.00000E+00
 -1      4118 4.81500E+01 2.66180E+01 0.00000E+00
 -1      4119 5.19000E+01 2.79170E+01 0.00000E+00
 -1      4120 5.34000E+01 2.79170E+01 0.00000E+00
 -1      4121 5.11500E+01 2.66180E+01 0.00000E+00
 -1      4122 5.49000E+01 2.79170E+01 0.00000E+00
 -1      4123 5.64000E+01 2.79170E+01 0.00000E+00
 -1      4124 5.41500E+01 2.66180E+01 0.00000E+00
 -1      4125 5.79000E+01 2.79170E+01 0.00000E+00
 -1      4126 5.94000E+01 2.79170E+01 0.00000E+00
 -1      4127 5.71500E+01 2.66180E+01 0.00000E+00
 -1      4128 1.08919E+02 2.80420E+01 0.00000E+00
 -1      4129 1.10419E+02 2.80420E+01 0.00000E+00
 -1      4130 1.08188E+02 2.68679E+01 0.00000E+00
 -1      4131 3.09000E+01 2.79170E+01 0.00000E+00
 -1      4132 3.24000E+01 2.79170E+01 0.00000E+00
 -1      4133 1.30482E+02 2.85846E+01 0.00000E+00
 -1      4134 1.29183E+02 2.78471E+01 0.00000E+00
 -1      4135 1.11919E+02 2.80420E+01 0.00000E+00
 -1      4136 1.13419E+02 2.80420E+01 0.00000E+00
 -1      4137 1.11188E+02 2.68679E+01 0.00000E+00
 -1      4138 1.14919E+02 2.80420E+01 0.00000E+00
 -1      4139 1.16419E+02 2.80420E+01 0.00000E+00
 -1      4140 1.14188E+02 2.68679E+01 0.00000E+00
 -1      4141 1.17919E+02 2.80420E+01 0.00000E+00
 -1      4142 1.19419E+02 2.80420E+01 0.00000E+00
 -1      4143 1.17188E+02 2.68679E+01 0.00000E+00
 -1      4144 1.20919E+02 2.80420E+01 0.00000E+00
 -1      4145 1.22419E+02 2.80420E+01 0.00000E+00
 -1      4146 1.20188E+02 2.68679E+01 0.00000E+00
 -1      4147 1.23919E+02 2.80420E+01 0.00000E+00
 -1      4148 1.25419E+02 2.80420E+01 0.00000E+00
 -1      4149 1.23188E+02 2.68679E+01 0.00000E+00
 -1      4150 1.26551E+02 2.79445E+01 0.00000E+00
 -1      4151 1.28051E+02 2.79445E+01 0.00000E+00
 -1      4152 1.28084E+02 2.65756E+01 0.00000E+00
 -1      4153 1.25820E+02 2.67705E+01 0.00000E+00
 -1      4154 6.38653E+01 2.78882E+01 0.00000E+00
 -1      4155 6.40606E+01 2.66098E+01 0.00000E+00
 -1      4156 1.76145E+01 3.03108E+01 0.00000E+00
 -1      4157 1.12785E+02 2.08932E+01 0.00000E+00
 -1      4158 1.11285E+02 2.08932E+01 0.00000E+00
 -1      4159 1.09785E+02 2.08932E+01 0.00000E+00
 -1      4160 1.08285E+02 2.08932E+01 0.00000E+00
 -1      4161 1.10535E+02 2.21922E+01 0.00000E+00
 -1      4162 4.67850E+01 2.08932E+01 0.00000E+00
 -1      4163 4.52850E+01 2.08932E+01 0.00000E+00
 -1      4164 1.27785E+02 2.08932E+01 0.00000E+00
 -1      4165 1.26285E+02 2.08932E+01 0.00000E+00
 -1      4166 1.24785E+02 2.08932E+01 0.00000E+00
 -1      4167 1.23285E+02 2.08932E+01 0.00000E+00
 -1      4168 1.25535E+02 2.21922E+01 0.00000E+00
 -1      4169 4.97850E+01 2.08932E+01 0.00000E+00
 -1      4170 4.82850E+01 2.08932E+01 0.00000E+00
 -1      4171 4.75350E+01 2.21922E+01 0.00000E+00
 -1      4172 5.87850E+01 2.08932E+01 0.00000E+00
 -1      4173 5.72850E+01 2.08932E+01 0.00000E+00
 -1      4174 5.27850E+01 2.08932E+01 0.00000E+00
 -1      4175 5.12850E+01 2.08932E+01 0.00000E+00
 -1      4176 5.05350E+01 2.21922E+01 0.00000E+00
 -1      4177 6.17850E+01 2.08932E+01 0.00000E+00
 -1      4178 6.02850E+01 2.08932E+01 0.00000E+00
 -1      4179 5.95350E+01 2.21922E+01 0.00000E+00
 -1      4180 2.80350E+01 1.95943E+01 0.00000E+00
 -1      4181 2.72850E+01 1.82953E+01 0.00000E+00
 -1      4182 2.57850E+01 1.82953E+01 0.00000E+00
 -1      4183 2.09625E+01 2.75384E+01 0.00000E+00
 -1      4184 6.29240E+01 2.22753E+01 0.00000E+00
 -1      4185 3.39000E+01 2.79170E+01 0.00000E+00
 -1      4186 3.54000E+01 2.79170E+01 0.00000E+00
 -1      4187 3.31500E+01 2.66180E+01 0.00000E+00
 -1      4188 1.21785E+02 2.08932E+01 0.00000E+00
 -1      4189 1.20285E+02 2.08932E+01 0.00000E+00
 -1      4190 1.22535E+02 2.21922E+01 0.00000E+00
 -1      4191 1.06030E+02 2.04445E+01 0.00000E+00
 -1      4192 2.27392E+01 1.86261E+01 0.00000E+00
 -1      4193 2.19433E+01 2.02558E+01 0.00000E+00
 -1      4194 2.42392E+01 1.86260E+01 0.00000E+00
 -1      4195 6.21098E+01 2.32697E+01 0.00000E+00
 -1      4196 6.30084E+01 2.81488E+01 0.00000E+00
 -1      4197 2.21136E+01 2.18795E+01 0.00000E+00
 -1      4198 5.57850E+01 2.08932E+01 0.00000E+00
 -1      4199 5.42850E+01 2.08932E+01 0.00000E+00
 -1      4200 5.65350E+01 2.21922E+01 0.00000E+00
 -1      4201 6.30257E+01 2.57144E+01 0.00000E+00
 -1      4202 6.16559E+01 2.62480E+01 0.00000E+00
 -1      4203 6.18149E+01 2.48808E+01 0.00000E+00
 -1      4204 1.06780E+02 2.17435E+01 0.00000E+00
 -1      4205 6.15084E+01 2.81488E+01 0.00000E+00
 -1      4206 6.07400E+01 2.38033E+01 0.00000E+00
 -1      4207 3.61500E+01 2.66180E+01 0.00000E+00
 -1      4208 5.95475E+01 2.60162E+01 0.00000E+00
 -1      4209 6.02975E+01 2.73152E+01 0.00000E+00
 -1      4210 2.94000E+01 2.79170E+01 0.00000E+00
 -1      4211 3.01500E+01 2.66180E+01 0.00000E+00
 -1      4212 2.79000E+01 2.79170E+01 0.00000E+00
 -1      4213 2.37835E+01 2.18907E+01 0.00000E+00
 -1      4214 2.24538E+01 2.35143E+01 0.00000E+00
 -1      4215 1.07130E+02 2.33560E+01 0.00000E+00
 -1      4216 3.92850E+01 1.82952E+01 0.00000E+00
 -1      4217 3.77850E+01 1.82952E+01 0.00000E+00
 -1      4218 4.00350E+01 1.95942E+01 0.00000E+00
 -1      4219 4.37850E+01 2.08932E+01 0.00000E+00
 -1      4220 4.22850E+01 2.08932E+01 0.00000E+00
 -1      4221 4.45350E+01 2.21922E+01 0.00000E+00
 -1      4222 2.24625E+01 2.75384E+01 0.00000E+00
 -1      4223 3.62850E+01 1.82952E+01 0.00000E+00
 -1      4224 3.47850E+01 1.82952E+01 0.00000E+00
 -1      4225 3.40350E+01 1.95942E+01 0.00000E+00
 -1      4226 3.70350E+01 1.95942E+01 0.00000E+00
 -1      4227 2.56500E+01 2.92160E+01 0.00000E+00
 -1      4228 1.28876E+02 2.15643E+01 0.00000E+00
 -1      4229 1.28126E+02 2.28633E+01 0.00000E+00
 -1      4230 1.19535E+02 2.21922E+01 0.00000E+00
 -1      4231 1.18785E+02 2.08932E+01 0.00000E+00
 -1      4232 1.17285E+02 2.08932E+01 0.00000E+00
 -1      4233 1.15785E+02 2.08932E+01 0.00000E+00
 -1      4234 1.14285E+02 2.08932E+01 0.00000E+00
 -1      4235 1.13535E+02 2.21922E+01 0.00000E+00
 -1      4236 1.16535E+02 2.21922E+01 0.00000E+00
 -1      4237 2.87850E+01 2.08933E+01 0.00000E+00
 -1      4238 2.72850E+01 2.08933E+01 0.00000E+00
 -1      4239 2.24493E+01 2.46932E+01 0.00000E+00
 -1      4240 3.17850E+01 2.08933E+01 0.00000E+00
 -1      4241 3.02850E+01 2.08933E+01 0.00000E+00
 -1      4242 2.95350E+01 2.21923E+01 0.00000E+00
 -1      4243 1.28084E+02 2.51037E+01 0.00000E+00
 -1      4244 1.07293E+02 2.45250E+01 0.00000E+00
 -1      4245 1.08024E+02 2.56990E+01 0.00000E+00
 -1      4246 1.09524E+02 2.56990E+01 0.00000E+00
 -1      4247 1.09198E+02 2.33612E+01 0.00000E+00
 -1      4248 5.35350E+01 2.21922E+01 0.00000E+00
 -1      4249 3.84000E+01 2.53190E+01 0.00000E+00
 -1      4250 3.99000E+01 2.53190E+01 0.00000E+00
 -1      4251 5.83753E+01 2.52382E+01 0.00000E+00
 -1      4252 5.92729E+01 2.46363E+01 0.00000E+00
 -1      4253 4.18425E+01 2.44051E+01 0.00000E+00
 -1      4254 4.33425E+01 2.44051E+01 0.00000E+00
 -1      4255 4.48425E+01 2.44051E+01 0.00000E+00
 -1      4256 4.63425E+01 2.44051E+01 0.00000E+00
 -1      4257 4.78425E+01 2.44051E+01 0.00000E+00
 -1      4258 4.93425E+01 2.44051E+01 0.00000E+00
 -1      4259 5.08425E+01 2.44051E+01 0.00000E+00
 -1      4260 5.23425E+01 2.44051E+01 0.00000E+00
 -1      4261 5.38425E+01 2.44051E+01 0.00000E+00
 -1      4262 5.53425E+01 2.44051E+01 0.00000E+00
 -1      4263 5.68753E+01 2.52382E+01 0.00000E+00
 -1      4264 1.26285E+02 2.34912E+01 0.00000E+00
 -1      4265 1.24785E+02 2.34912E+01 0.00000E+00
 -1      4266 1.13438E+02 2.55689E+01 0.00000E+00
 -1      4267 1.14938E+02 2.55689E+01 0.00000E+00
 -1      4268 1.16861E+02 2.45301E+01 0.00000E+00
 -1      4269 1.18361E+02 2.45301E+01 0.00000E+00
 -1      4270 1.19861E+02 2.45301E+01 0.00000E+00
 -1      4271 1.21361E+02 2.45301E+01 0.00000E+00
 -1      4272 1.25111E+02 2.58291E+01 0.00000E+00
 -1      4273 1.26243E+02 2.57316E+01 0.00000E+00
 -1      4274 1.10698E+02 2.33612E+01 0.00000E+00
 -1      4275 3.54000E+01 2.53190E+01 0.00000E+00
 -1      4276 3.69000E+01 2.53190E+01 0.00000E+00
 -1      4277 3.76500E+01 2.40200E+01 0.00000E+00
 -1      4278 1.27376E+02 2.41623E+01 0.00000E+00
 -1      4279 2.49000E+01 2.79170E+01 0.00000E+00
 -1      4280 2.64000E+01 2.79170E+01 0.00000E+00
 -1      4281 2.71500E+01 2.66180E+01 0.00000E+00
 -1      4282 2.49892E+01 1.99251E+01 0.00000E+00
 -1      4283 1.10731E+02 2.56340E+01 0.00000E+00
 -1      4284 1.12231E+02 2.56340E+01 0.00000E+00
 -1      4285 1.12981E+02 2.43350E+01 0.00000E+00
 -1      4286 1.10568E+02 2.44650E+01 0.00000E+00
 -1      4287 3.24000E+01 2.53190E+01 0.00000E+00
 -1      4288 3.39000E+01 2.53190E+01 0.00000E+00
 -1      4289 3.46500E+01 2.40200E+01 0.00000E+00
 -1      4290 1.22861E+02 2.45301E+01 0.00000E+00
 -1      4291 2.32125E+01 2.62394E+01 0.00000E+00
 -1      4292 2.60793E+01 2.28589E+01 0.00000E+00
 -1      4293 2.53293E+01 2.15599E+01 0.00000E+00
 -1      4294 2.98425E+01 2.44051E+01 0.00000E+00
 -1      4295 3.13425E+01 2.44051E+01 0.00000E+00
 -1      4296 5.95678E+01 2.30253E+01 0.00000E+00
 -1      4297 4.03425E+01 2.18071E+01 0.00000E+00
 -1      4298 3.88425E+01 2.18071E+01 0.00000E+00
 -1      4299 2.48868E+01 2.50718E+01 0.00000E+00
 -1      4300 3.20925E+01 2.31061E+01 0.00000E+00
 -1      4301 1.24361E+02 2.45301E+01 0.00000E+00
 -1      4302 1.11905E+02 2.32961E+01 0.00000E+00
 -1      4303 1.13111E+02 2.32311E+01 0.00000E+00
 -1      4304 4.10925E+01 2.31061E+01 0.00000E+00
 -1      4305 5.80678E+01 2.30253E+01 0.00000E+00
 -1      4306 1.14611E+02 2.32311E+01 0.00000E+00
 -1      4307 2.68425E+01 2.44051E+01 0.00000E+00
 -1      4308 3.34388E+01 2.07007E+01 0.00000E+00
 -1      4309 3.26888E+01 2.19997E+01 0.00000E+00
 -1      4310 3.37463E+01 2.29136E+01 0.00000E+00
 -1      4311 3.49388E+01 2.07007E+01 0.00000E+00
 -1      4312 2.83425E+01 2.44051E+01 0.00000E+00
 -1      4313 5.65678E+01 2.30253E+01 0.00000E+00
 -1      4314 3.73425E+01 2.18071E+01 0.00000E+00
 -1      4315 3.58425E+01 2.18071E+01 0.00000E+00
 -1      4316 1.15361E+02 2.45301E+01 0.00000E+00
 -1      4317 3.52463E+01 2.29136E+01 0.00000E+00
 -3
    3C                          2077                                     1
 -1       164    8    0    1
 -2         6         7        23      1121      1284      1138
 -1       165    8    0    1
 -2         7         8       164      1122      1285      1286
 -1       166    8    0    1
 -2         8         9       165      1123      1287      1288
 -1       167    8    0    1
 -2         8       165       164      1288      1289      1285
 -1       168    8    0    1
 -2         9        10       166      1124      1290      1291
 -1       169    8    0    1
 -2         9       166       165      1291      1292      1287
 -1       170    8    0    1
 -2        10        11       167      1125      1293      1294
 -1       171    8    0    1
 -2        10       167       166      1294      1295      1290
 -1       172    8    0    1
 -2        11        12       168      1126      1296      1297
 -1       173    8    0    1
 -2        11       168       167      1297      1298      1293
 -1       174    8    0    1
 -2        12        13       169      1127      1299      1300
 -1       175    8    0    1
 -2        12       169       168      1300      1301      1296
 -1       176    8    0    1
 -2        13        14       170      1128      1302      1303
 -1       177    8    0    1
 -2        13       170       169      1303      1304      1299
 -1       178    8    0    1
 -2        14        15       171      1129      1305      1306
 -1       179    8    0    1
 -2        14       171       170      1306      1307      1302
 -1       180    8    0    1
 -2        15        16       172      1130      1308      1309
 -1       181    8    0    1
 -2        15       172       171      1309      1310      1305
 -1       182    8    0    1
 -2        16        17       173      1131      1311      1312
 -1       183    8    0    1
 -2        16       173       172      1312      1313      1308
 -1       184    8    0    1
 -2        17        18       174      1132      1314      1315
 -1       185    8    0    1
 -2        17       174       173      1315      1316      1311
 -1       186    8    0    1
 -2        18        19       175      1133      1317      1318
 -1       187    8    0    1
 -2        18       175       174      1318      1319      1314
 -1       188    8    0    1
 -2        19        20       176      1134      1320      1321
 -1       189    8    0    1
 -2        19       176       175      1321      1322      1317
 -1       190    8    0    1
 -2        20        21       177      1135      1323      1324
 -1       191    8    0    1
 -2        20       177       176      1324      1325      1320
 -1       192    8    0    1
 -2        21        22       178      1136      1326      1327
 -1       193    8    0    1
 -2        21       178       177      1327      1328      1323
 -1       194    8    0    1
 -2        22         5       179      1137      1329      1330
 -1       195    8    0    1
 -2       178        22       179      1326      1330      1331
 -1       196    8    0    1
 -2         5        72       179      1188      1332      1329
 -1       197    8    0    1
 -2        24        23       180      1139      1333      1334
 -1       198    8    0    1
 -2        25        24       181      1140      1335      1336
 -1       199    8    0    1
 -2        24       180       181      1334      1337      1335
 -1       200    8    0    1
 -2        26        25       182      1141      1338      1339
 -1       201    8    0    1
 -2        25       181       182      1336      1340      1338
 -1       202    8    0    1
 -2        27        26       183      1142      1341      1342
 -1       203    8    0    1
 -2        26       182       183      1339      1343      1341
 -1       204    8    0    1
 -2        28        27       184      1143      1344      1345
 -1       205    8    0    1
 -2        27       183       184      1342      1346      1344
 -1       206    8    0    1
 -2        29        28       185      1144      1347      1348
 -1       207    8    0    1
 -2        28       184       185      1345      1349      1347
 -1       208    8    0    1
 -2        30        29       186      1145      1350      1351
 -1       209    8    0    1
 -2        29       185       186      1348      1352      1350
 -1       210    8    0    1
 -2        31        30       187      1146      1353      1354
 -1       211    8    0    1
 -2        30       186       187      1351      1355      1353
 -1       212    8    0    1
 -2        32        31       188      1147      1356      1357
 -1       213    8    0    1
 -2        31       187       188      1354      1358      1356
 -1       214    8    0    1
 -2        33        32       189      1148      1359      1360
 -1       215    8    0    1
 -2        32       188       189      1357      1361      1359
 -1       216    8    0    1
 -2        34        33       190      1149      1362      1363
 -1       217    8    0    1
 -2        33       189       190      1360      1364      1362
 -1       218    8    0    1
 -2        35        34       191      1150      1365      1366
 -1       219    8    0    1
 -2        34       190       191      1363      1367      1365
 -1       220    8    0    1
 -2        36        35       192      1151      1368      1369
 -1       221    8    0    1
 -2        35       191       192      1366      1370      1368
 -1       222    8    0    1
 -2        37        36       193      1152      1371      1372
 -1       223    8    0    1
 -2        36       192       193      1369      1373      1371
 -1       224    8    0    1
 -2        38        37       194      1153      1374      1375
 -1       225    8    0    1
 -2        37       193       194      1372      1376      1374
 -1       226    8    0    1
 -2        39        38       195      1154      1377      1378
 -1       227    8    0    1
 -2        38       194       195      1375      1379      1377
 -1       228    8    0    1
 -2        40        39       196      1155      1380      1381
 -1       229    8    0    1
 -2        39       195       196      1378      1382      1380
 -1       230    8    0    1
 -2        41        40       197      1156      1383      1384
 -1       231    8    0    1
 -2        40       196       197      1381      1385      1383
 -1       232    8    0    1
 -2        42        41       198      1157      1386      1387
 -1       233    8    0    1
 -2        41       197       198      1384      1388      1386
 -1       234    8    0    1
 -2        43        42       199      1158      1389      1390
 -1       235    8    0    1
 -2        42       198       199      1387      1391      1389
 -1       236    8    0    1
 -2        44        43       200      1159      1392      1393
 -1       237    8    0    1
 -2        43       199       200      1390      1394      1392
 -1       238    8    0    1
 -2        45        44       201      1160      1395      1396
 -1       239    8    0    1
 -2        44       200       201      1393      1397      1395
 -1       240    8    0    1
 -2        46        45       202      1161      1398      1399
 -1       241    8    0    1
 -2        45       201       202      1396      1400      1398
 -1       242    8    0    1
 -2        47        46       203      1162      1401      1402
 -1       243    8    0    1
 -2        46       202       203      1399      1403      1401
 -1       244    8    0    1
 -2        48        47       204      1163      1404      1405
 -1       245    8    0    1
 -2        47       203       204      1402      1406      1404
 -1       246    8    0    1
 -2        49        48       205      1164      1407      1408
 -1       247    8    0    1
 -2        48       204       205      1405      1409      1407
 -1       248    8    0    1
 -2        50        49       206      1165      1410      1411
 -1       249    8    0    1
 -2        49       205       206      1408      1412      1410
 -1       250    8    0    1
 -2        51        50       207      1166      1413      1414
 -1       251    8    0    1
 -2        50       206       207      1411      1415      1413
 -1       252    8    0    1
 -2        52        51       208      1167      1416      1417
 -1       253    8    0    1
 -2        51       207       208      1414      1418      1416
 -1       254    8    0    1
 -2        53        52       209      1168      1419      1420
 -1       255    8    0    1
 -2        52       208       209      1417      1421      1419
 -1       256    8    0    1
 -2        54        53       210      1169      1422      1423
 -1       257    8    0    1
 -2        53       209       210      1420      1424      1422
 -1       258    8    0    1
 -2        55        54       211      1170      1425      1426
 -1       259    8    0    1
 -2        54       210       211      1423      1427      1425
 -1       260    8    0    1
 -2        56        55       212      1171      1428      1429
 -1       261    8    0    1
 -2        55       211       212      1426      1430      1428
 -1       262    8    0    1
 -2        57        56       213      1172      1431      1432
 -1       263    8    0    1
 -2        56       212       213      1429      1433      1431
 -1       264    8    0    1
 -2        58        57       214      1173      1434      1435
 -1       265    8    0    1
 -2        57       213       214      1432      1436      1434
 -1       266    8    0    1
 -2        59        58       215      1174      1437      1438
 -1       267    8    0    1
 -2        58       214       215      1435      1439      1437
 -1       268    8    0    1
 -2        60        59       216      1175      1440      1441
 -1       269    8    0    1
 -2        59       215       216      1438      1442      1440
 -1       270    8    0    1
 -2        61        60       217      1176      1443      1444
 -1       271    8    0    1
 -2        60       216       217      1441      1445      1443
 -1       272    8    0    1
 -2        62        61       218      1177      1446      1447
 -1       273    8    0    1
 -2        61       217       218      1444      1448      1446
 -1       274    8    0    1
 -2        63        62       219      1178      1449      1450
 -1       275    8    0    1
 -2        62       218       219      1447      1451      1449
 -1       276    8    0    1
 -2        64        63       220      1179      1452      1453
 -1       277    8    0    1
 -2        63       219       220      1450      1454      1452
 -1       278    8    0    1
 -2        65        64       221      1180      1455      1456
 -1       279    8    0    1
 -2        64       220       221      1453      1457      1455
 -1       280    8    0    1
 -2        66        65       222      1181      1458      1459
 -1       281    8    0    1
 -2        65       221       222      1456      1460      1458
 -1       282    8    0    1
 -2        67        66       223      1182      1461      1462
 -1       283    8    0    1
 -2        66       222       223      1459      1463      1461
 -1       284    8    0    1
 -2        68        67       224      1183      1464      1465
 -1       285    8    0    1
 -2        67       223       224      1462      1466      1464
 -1       286    8    0    1
 -2        69        68       225      1184      1467      1468
 -1       287    8    0    1
 -2        68       224       225      1465      1469      1467
 -1       288    8    0    1
 -2        70        69       226      1185      1470      1471
 -1       289    8    0    1
 -2        69       225       226      1468      1472      1470
 -1       290    8    0    1
 -2        71        70       227      1186      1473      1474
 -1       291    8    0    1
 -2        70       226       227      1471      1475      1473
 -1       292    8    0    1
 -2         4        71       136      1187      1476      1254
 -1       293    8    0    1
 -2       136        71       227      1476      1474      1477
 -1       294    8    0    1
 -2        72        73       228      1189      1478      1479
 -1       295    8    0    1
 -2        72       228       179      1479      1480      1332
 -1       296    8    0    1
 -2        73        74       229      1190      1481      1482
 -1       297    8    0    1
 -2        73       229       228      1482      1483      1478
 -1       298    8    0    1
 -2        74        75       230      1191      1484      1485
 -1       299    8    0    1
 -2        74       230       229      1485      1486      1481
 -1       300    8    0    1
 -2        75        76       231      1192      1487      1488
 -1       301    8    0    1
 -2        75       231       230      1488      1489      1484
 -1       302    8    0    1
 -2        76        77       232      1193      1490      1491
 -1       303    8    0    1
 -2        76       232       231      1491      1492      1487
 -1       304    8    0    1
 -2        77        78       233      1194      1493      1494
 -1       305    8    0    1
 -2        77       233       232      1494      1495      1490
 -1       306    8    0    1
 -2        78        79       234      1195      1496      1497
 -1       307    8    0    1
 -2        78       234       233      1497      1498      1493
 -1       308    8    0    1
 -2        79        80       235      1196      1499      1500
 -1       309    8    0    1
 -2        79       235       234      1500      1501      1496
 -1       310    8    0    1
 -2        80        81       236      1197      1502      1503
 -1       311    8    0    1
 -2        80       236       235      1503      1504      1499
 -1       312    8    0    1
 -2        81        82       237      1198      1505      1506
 -1       313    8    0    1
 -2        81       237       236      1506      1507      1502
 -1       314    8    0    1
 -2        82        83       238      1199      1508      1509
 -1       315    8    0    1
 -2        82       238       237      1509      1510      1505
 -1       316    8    0    1
 -2        83        84       239      1200      1511      1512
 -1       317    8    0    1
 -2        83       239       238      1512      1513      1508
 -1       318    8    0    1
 -2        84        85       240      1201      1514      1515
 -1       319    8    0    1
 -2        84       240       239      1515      1516      1511
 -1       320    8    0    1
 -2        85        86       241      1202      1517      1518
 -1       321    8    0    1
 -2        85       241       240      1518      1519      1514
 -1       322    8    0    1
 -2        86        87       242      1203      1520      1521
 -1       323    8    0    1
 -2        86       242       241      1521      1522      1517
 -1       324    8    0    1
 -2        87        88       243      1204      1523      1524
 -1       325    8    0    1
 -2        87       243       242      1524      1525      1520
 -1       326    8    0    1
 -2        88        89       244      1205      1526      1527
 -1       327    8    0    1
 -2        88       244       243      1527      1528      1523
 -1       328    8    0    1
 -2        89        90       245      1206      1529      1530
 -1       329    8    0    1
 -2        89       245       244      1530      1531      1526
 -1       330    8    0    1
 -2        90        91       246      1207      1532      1533
 -1       331    8    0    1
 -2        90       246       245      1533      1534      1529
 -1       332    8    0    1
 -2        91        92       247      1208      1535      1536
 -1       333    8    0    1
 -2        91       247       246      1536      1537      1532
 -1       334    8    0    1
 -2        92        93       248      1209      1538      1539
 -1       335    8    0    1
 -2        92       248       247      1539      1540      1535
 -1       336    8    0    1
 -2        93        94       249      1210      1541      1542
 -1       337    8    0    1
 -2        93       249       248      1542      1543      1538
 -1       338    8    0    1
 -2        94        95       250      1211      1544      1545
 -1       339    8    0    1
 -2        94       250       249      1545      1546      1541
 -1       340    8    0    1
 -2        95        96       251      1212      1547      1548
 -1       341    8    0    1
 -2        95       251       250      1548      1549      1544
 -1       342    8    0    1
 -2        96        97       252      1213      1550      1551
 -1       343    8    0    1
 -2        96       252       251      1551      1552      1547
 -1       344    8    0    1
 -2        97        98       253      1214      1553      1554
 -1       345    8    0    1
 -2        97       253       252      1554      1555      1550
 -1       346    8    0    1
 -2        98        99       254      1215      1556      1557
 -1       347    8    0    1
 -2        98       254       253      1557      1558      1553
 -1       348    8    0    1
 -2        99       100       255      1216      1559      1560
 -1       349    8    0    1
 -2        99       255       254      1560      1561      1556
 -1       350    8    0    1
 -2       100       101       256      1217      1562      1563
 -1       351    8    0    1
 -2       100       256       255      1563      1564      1559
 -1       352    8    0    1
 -2       101       102       257      1218      1565      1566
 -1       353    8    0    1
 -2       101       257       256      1566      1567      1562
 -1       354    8    0    1
 -2       102       103       258      1219      1568      1569
 -1       355    8    0    1
 -2       102       258       257      1569      1570      1565
 -1       356    8    0    1
 -2       103       104       259      1220      1571      1572
 -1       357    8    0    1
 -2       103       259       258      1572      1573      1568
 -1       358    8    0    1
 -2       104       105       260      1221      1574      1575
 -1       359    8    0    1
 -2       104       260       259      1575      1576      1571
 -1       360    8    0    1
 -2       105       106       261      1222      1577      1578
 -1       361    8    0    1
 -2       105       261       260      1578      1579      1574
 -1       362    8    0    1
 -2       106       107       262      1223      1580      1581
 -1       363    8    0    1
 -2       106       262       261      1581      1582      1577
 -1       364    8    0    1
 -2       107       108       263      1224      1583      1584
 -1       365    8    0    1
 -2       107       263       262      1584      1585      1580
 -1       366    8    0    1
 -2       108       109       264      1225      1586      1587
 -1       367    8    0    1
 -2       108       264       263      1587      1588      1583
 -1       368    8    0    1
 -2       109       110       265      1226      1589      1590
 -1       369    8    0    1
 -2       109       265       264      1590      1591      1586
 -1       370    8    0    1
 -2       110       111       266      1227      1592      1593
 -1       371    8    0    1
 -2       110       266       265      1593      1594      1589
 -1       372    8    0    1
 -2       111       112       267      1228      1595      1596
 -1       373    8    0    1
 -2       111       267       266      1596      1597      1592
 -1       374    8    0    1
 -2       112       113       268      1229      1598      1599
 -1       375    8    0    1
 -2       112       268       267      1599      1600      1595
 -1       376    8    0    1
 -2       113       114       269      1230      1601      1602
 -1       377    8    0    1
 -2       113       269       268      1602      1603      1598
 -1       378    8    0    1
 -2       114       115       270      1231      1604      1605
 -1       379    8    0    1
 -2       114       270       269      1605      1606      1601
 -1       380    8    0    1
 -2       115       116       271      1232      1607      1608
 -1       381    8    0    1
 -2       115       271       270      1608      1609      1604
 -1       382    8    0    1
 -2       116       117       272      1233      1610      1611
 -1       383    8    0    1
 -2       116       272       271      1611      1612      1607
 -1       384    8    0    1
 -2       117       118       273      1234      1613      1614
 -1       385    8    0    1
 -2       117       273       272      1614      1615      1610
 -1       386    8    0    1
 -2       118       119       274      1235      1616      1617
 -1       387    8    0    1
 -2       118       274       273      1617      1618      1613
 -1       388    8    0    1
 -2       119       120       275      1236      1619      1620
 -1       389    8    0    1
 -2       119       275       274      1620      1621      1616
 -1       390    8    0    1
 -2       120         3       121      1237      1238      1622
 -1       391    8    0    1
 -2       121       122       276      1239      1623      1624
 -1       392    8    0    1
 -2       122       123       277      1240      1625      1626
 -1       393    8    0    1
 -2       122       277       276      1626      1627      1623
 -1       394    8    0    1
 -2       123       124       278      1241      1628      1629
 -1       395    8    0    1
 -2       123       278       277      1629      1630      1625
 -1       396    8    0    1
 -2       124       125       279      1242      1631      1632
 -1       397    8    0    1
 -2       124       279       278      1632      1633      1628
 -1       398    8    0    1
 -2       125       126       280      1243      1634      1635
 -1       399    8    0    1
 -2       125       280       279      1635      1636      1631
 -1       400    8    0    1
 -2       126       127       281      1244      1637      1638
 -1       401    8    0    1
 -2       126       281       280      1638      1639      1634
 -1       402    8    0    1
 -2       127       128       282      1245      1640      1641
 -1       403    8    0    1
 -2       127       282       281      1641      1642      1637
 -1       404    8    0    1
 -2       128       129       283      1246      1643      1644
 -1       405    8    0    1
 -2       128       283       282      1644      1645      1640
 -1       406    8    0    1
 -2       129       130       284      1247      1646      1647
 -1       407    8    0    1
 -2       129       284       283      1647      1648      1643
 -1       408    8    0    1
 -2       130       131       285      1248      1649      1650
 -1       409    8    0    1
 -2       130       285       284      1650      1651      1646
 -1       410    8    0    1
 -2       131       132       286      1249      1652      1653
 -1       411    8    0    1
 -2       131       286       285      1653      1654      1649
 -1       412    8    0    1
 -2       132       133       287      1250      1655      1656
 -1       413    8    0    1
 -2       132       287       286      1656      1657      1652
 -1       414    8    0    1
 -2       133       134       288      1251      1658      1659
 -1       415    8    0    1
 -2       133       288       287      1659      1660      1655
 -1       416    8    0    1
 -2       134       135       289      1252      1661      1662
 -1       417    8    0    1
 -2       134       289       288      1662      1663      1658
 -1       418    8    0    1
 -2       135       136       290      1253      1664      1665
 -1       419    8    0    1
 -2       289       135       290      1661      1665      1666
 -1       420    8    0    1
 -2       136       227       290      1477      1667      1664
 -1       421    8    0    1
 -2         2       137       291      1255      1668      1669
 -1       422    8    0    1
 -2       137       138       292      1256      1670      1671
 -1       423    8    0    1
 -2       138       139       293      1257      1672      1673
 -1       424    8    0    1
 -2       139       140       294      1258      1674      1675
 -1       425    8    0    1
 -2       140       141       295      1259      1676      1677
 -1       426    8    0    1
 -2       141       142       296      1260      1678      1679
 -1       427    8    0    1
 -2       142       143       297      1261      1680      1681
 -1       428    8    0    1
 -2       143       144       298      1262      1682      1683
 -1       429    8    0    1
 -2       144       145       299      1263      1684      1685
 -1       430    8    0    1
 -2       145       146       300      1264      1686      1687
 -1       431    8    0    1
 -2       146       147       301      1265      1688      1689
 -1       432    8    0    1
 -2       147       148       302      1266      1690      1691
 -1       433    8    0    1
 -2       148       149       303      1267      1692      1693
 -1       434    8    0    1
 -2       149       150       304      1268      1694      1695
 -1       435    8    0    1
 -2       150       151       305      1269      1696      1697
 -1       436    8    0    1
 -2       151       152       306      1270      1698      1699
 -1       437    8    0    1
 -2       152       153       307      1271      1700      1701
 -1       438    8    0    1
 -2       153       154       308      1272      1702      1703
 -1       439    8    0    1
 -2       154       155       309      1273      1704      1705
 -1       440    8    0    1
 -2       155       156       310      1274      1706      1707
 -1       441    8    0    1
 -2       156       157       311      1275      1708      1709
 -1       442    8    0    1
 -2       157         1       312      1276      1710      1711
 -1       443    8    0    1
 -2         1       158       313      1277      1712      1713
 -1       444    8    0    1
 -2       158       159       314      1278      1714      1715
 -1       445    8    0    1
 -2       159       160       315      1279      1716      1717
 -1       446    8    0    1
 -2       160       161       316      1280      1718      1719
 -1       447    8    0    1
 -2       161       162       317      1281      1720      1721
 -1       448    8    0    1
 -2       162       163       318      1282      1722      1723
 -1       449    8    0    1
 -2       163         2       319      1283      1724      1725
 -1       450    8    0    1
 -2       294       140       295      1674      1677      1726
 -1       451    8    0    1
 -2       293       139       294      1672      1675      1727
 -1       452    8    0    1
 -2       120       121       275      1622      1728      1619
 -1       453    8    0    1
 -2       121       276       275      1624      1729      1728
 -1       454    8    0    1
 -2       291       137       292      1668      1671      1730
 -1       455    8    0    1
 -2       292       138       293      1670      1673      1731
 -1       456    8    0    1
 -2         2       291       319      1669      1732      1724
 -1       457    8    0    1
 -2       141       296       295      1679      1733      1676
 -1       458    8    0    1
 -2       142       297       296      1681      1734      1678
 -1       459    8    0    1
 -2       143       298       297      1683      1735      1680
 -1       460    8    0    1
 -2       144       299       298      1685      1736      1682
 -1       461    8    0    1
 -2       145       300       299      1687      1737      1684
 -1       462    8    0    1
 -2       146       301       300      1689      1738      1686
 -1       463    8    0    1
 -2       147       302       301      1691      1739      1688
 -1       464    8    0    1
 -2       148       303       302      1693      1740      1690
 -1       465    8    0    1
 -2       149       304       303      1695      1741      1692
 -1       466    8    0    1
 -2       150       305       304      1697      1742      1694
 -1       467    8    0    1
 -2       151       306       305      1699      1743      1696
 -1       468    8    0    1
 -2       152       307       306      1701      1744      1698
 -1       469    8    0    1
 -2       153       308       307      1703      1745      1700
 -1       470    8    0    1
 -2       154       309       308      1705      1746      1702
 -1       471    8    0    1
 -2       155       310       309      1707      1747      1704
 -1       472    8    0    1
 -2       156       311       310      1709      1748      1706
 -1       473    8    0    1
 -2       157       312       311      1711      1749      1708
 -1       474    8    0    1
 -2         1       313       312      1713      1750      1710
 -1       475    8    0    1
 -2       158       314       313      1715      1751      1712
 -1       476    8    0    1
 -2       159       315       314      1717      1752      1714
 -1       477    8    0    1
 -2       160       316       315      1719      1753      1716
 -1       478    8    0    1
 -2       161       317       316      1721      1754      1718
 -1       479    8    0    1
 -2       162       318       317      1723      1755      1720
 -1       480    8    0    1
 -2       163       319       318      1725      1756      1722
 -1       481    8    0    1
 -2        23         7       164      1284      1286      1757
 -1       482    8    0    1
 -2       165       166       320      1292      1758      1759
 -1       483    8    0    1
 -2       164       165       321      1289      1760      1761
 -1       484    8    0    1
 -2       165       320       321      1759      1762      1760
 -1       485    8    0    1
 -2       167       168       322      1298      1763      1764
 -1       486    8    0    1
 -2       168       169       323      1301      1765      1766
 -1       487    8    0    1
 -2       168       323       322      1766      1767      1763
 -1       488    8    0    1
 -2       169       170       324      1304      1768      1769
 -1       489    8    0    1
 -2       169       324       323      1769      1770      1765
 -1       490    8    0    1
 -2       170       171       325      1307      1771      1772
 -1       491    8    0    1
 -2       170       325       324      1772      1773      1768
 -1       492    8    0    1
 -2       171       172       326      1310      1774      1775
 -1       493    8    0    1
 -2       171       326       325      1775      1776      1771
 -1       494    8    0    1
 -2       172       173       327      1313      1777      1778
 -1       495    8    0    1
 -2       172       327       326      1778      1779      1774
 -1       496    8    0    1
 -2       173       174       328      1316      1780      1781
 -1       497    8    0    1
 -2       173       328       327      1781      1782      1777
 -1       498    8    0    1
 -2       174       175       329      1319      1783      1784
 -1       499    8    0    1
 -2       174       329       328      1784      1785      1780
 -1       500    8    0    1
 -2       175       176       330      1322      1786      1787
 -1       501    8    0    1
 -2       175       330       329      1787      1788      1783
 -1       502    8    0    1
 -2       176       177       331      1325      1789      1790
 -1       503    8    0    1
 -2       176       331       330      1790      1791      1786
 -1       504    8    0    1
 -2       177       178       332      1328      1792      1793
 -1       505    8    0    1
 -2       177       332       331      1793      1794      1789
 -1       506    8    0    1
 -2       178       179       333      1331      1795      1796
 -1       507    8    0    1
 -2       332       178       333      1792      1796      1797
 -1       508    8    0    1
 -2       179       228       333      1480      1798      1795
 -1       509    8    0    1
 -2       180        23       164      1333      1757      1799
 -1       510    8    0    1
 -2       228       229       334      1483      1800      1801
 -1       511    8    0    1
 -2       228       334       333      1801      1802      1798
 -1       512    8    0    1
 -2       180       164       321      1799      1761      1803
 -1       513    8    0    1
 -2       182       181       335      1340      1804      1805
 -1       514    8    0    1
 -2       183       182       336      1343      1806      1807
 -1       515    8    0    1
 -2       182       335       336      1805      1808      1806
 -1       516    8    0    1
 -2       184       183       337      1346      1809      1810
 -1       517    8    0    1
 -2       183       336       337      1807      1811      1809
 -1       518    8    0    1
 -2       185       184       338      1349      1812      1813
 -1       519    8    0    1
 -2       184       337       338      1810      1814      1812
 -1       520    8    0    1
 -2       186       185       339      1352      1815      1816
 -1       521    8    0    1
 -2       185       338       339      1813      1817      1815
 -1       522    8    0    1
 -2       187       186       340      1355      1818      1819
 -1       523    8    0    1
 -2       186       339       340      1816      1820      1818
 -1       524    8    0    1
 -2       188       187       341      1358      1821      1822
 -1       525    8    0    1
 -2       187       340       341      1819      1823      1821
 -1       526    8    0    1
 -2       189       188       342      1361      1824      1825
 -1       527    8    0    1
 -2       188       341       342      1822      1826      1824
 -1       528    8    0    1
 -2       190       189       343      1364      1827      1828
 -1       529    8    0    1
 -2       189       342       343      1825      1829      1827
 -1       530    8    0    1
 -2       191       190       344      1367      1830      1831
 -1       531    8    0    1
 -2       190       343       344      1828      1832      1830
 -1       532    8    0    1
 -2       192       191       345      1370      1833      1834
 -1       533    8    0    1
 -2       191       344       345      1831      1835      1833
 -1       534    8    0    1
 -2       193       192       346      1373      1836      1837
 -1       535    8    0    1
 -2       192       345       346      1834      1838      1836
 -1       536    8    0    1
 -2       194       193       347      1376      1839      1840
 -1       537    8    0    1
 -2       193       346       347      1837      1841      1839
 -1       538    8    0    1
 -2       195       194       348      1379      1842      1843
 -1       539    8    0    1
 -2       194       347       348      1840      1844      1842
 -1       540    8    0    1
 -2       196       195       349      1382      1845      1846
 -1       541    8    0    1
 -2       195       348       349      1843      1847      1845
 -1       542    8    0    1
 -2       197       196       350      1385      1848      1849
 -1       543    8    0    1
 -2       196       349       350      1846      1850      1848
 -1       544    8    0    1
 -2       198       197       351      1388      1851      1852
 -1       545    8    0    1
 -2       197       350       351      1849      1853      1851
 -1       546    8    0    1
 -2       199       198       352      1391      1854      1855
 -1       547    8    0    1
 -2       198       351       352      1852      1856      1854
 -1       548    8    0    1
 -2       200       199       353      1394      1857      1858
 -1       549    8    0    1
 -2       199       352       353      1855      1859      1857
 -1       550    8    0    1
 -2       201       200       354      1397      1860      1861
 -1       551    8    0    1
 -2       200       353       354      1858      1862      1860
 -1       552    8    0    1
 -2       202       201       355      1400      1863      1864
 -1       553    8    0    1
 -2       201       354       355      1861      1865      1863
 -1       554    8    0    1
 -2       203       202       356      1403      1866      1867
 -1       555    8    0    1
 -2       202       355       356      1864      1868      1866
 -1       556    8    0    1
 -2       204       203       357      1406      1869      1870
 -1       557    8    0    1
 -2       203       356       357      1867      1871      1869
 -1       558    8    0    1
 -2       205       204       358      1409      1872      1873
 -1       559    8    0    1
 -2       204       357       358      1870      1874      1872
 -1       560    8    0    1
 -2       206       205       359      1412      1875      1876
 -1       561    8    0    1
 -2       205       358       359      1873      1877      1875
 -1       562    8    0    1
 -2       207       206       360      1415      1878      1879
 -1       563    8    0    1
 -2       206       359       360      1876      1880      1878
 -1       564    8    0    1
 -2       208       207       361      1418      1881      1882
 -1       565    8    0    1
 -2       207       360       361      1879      1883      1881
 -1       566    8    0    1
 -2       209       208       362      1421      1884      1885
 -1       567    8    0    1
 -2       208       361       362      1882      1886      1884
 -1       568    8    0    1
 -2       210       209       363      1424      1887      1888
 -1       569    8    0    1
 -2       209       362       363      1885      1889      1887
 -1       570    8    0    1
 -2       211       210       364      1427      1890      1891
 -1       571    8    0    1
 -2       210       363       364      1888      1892      1890
 -1       572    8    0    1
 -2       212       211       365      1430      1893      1894
 -1       573    8    0    1
 -2       211       364       365      1891      1895      1893
 -1       574    8    0    1
 -2       213       212       366      1433      1896      1897
 -1       575    8    0    1
 -2       212       365       366      1894      1898      1896
 -1       576    8    0    1
 -2       214       213       367      1436      1899      1900
 -1       577    8    0    1
 -2       213       366       367      1897      1901      1899
 -1       578    8    0    1
 -2       215       214       368      1439      1902      1903
 -1       579    8    0    1
 -2       214       367       368      1900      1904      1902
 -1       580    8    0    1
 -2       216       215       369      1442      1905      1906
 -1       581    8    0    1
 -2       215       368       369      1903      1907      1905
 -1       582    8    0    1
 -2       217       216       370      1445      1908      1909
 -1       583    8    0    1
 -2       216       369       370      1906      1910      1908
 -1       584    8    0    1
 -2       218       217       371      1448      1911      1912
 -1       585    8    0    1
 -2       217       370       371      1909      1913      1911
 -1       586    8    0    1
 -2       219       218       372      1451      1914      1915
 -1       587    8    0    1
 -2       218       371       372      1912      1916      1914
 -1       588    8    0    1
 -2       220       219       373      1454      1917      1918
 -1       589    8    0    1
 -2       219       372       373      1915      1919      1917
 -1       590    8    0    1
 -2       221       220       374      1457      1920      1921
 -1       591    8    0    1
 -2       220       373       374      1918      1922      1920
 -1       592    8    0    1
 -2       222       221       375      1460      1923      1924
 -1       593    8    0    1
 -2       221       374       375      1921      1925      1923
 -1       594    8    0    1
 -2       223       222       376      1463      1926      1927
 -1       595    8    0    1
 -2       222       375       376      1924      1928      1926
 -1       596    8    0    1
 -2       224       223       377      1466      1929      1930
 -1       597    8    0    1
 -2       223       376       377      1927      1931      1929
 -1       598    8    0    1
 -2       225       224       378      1469      1932      1933
 -1       599    8    0    1
 -2       224       377       378      1930      1934      1932
 -1       600    8    0    1
 -2       226       225       379      1472      1935      1936
 -1       601    8    0    1
 -2       225       378       379      1933      1937      1935
 -1       602    8    0    1
 -2       227       226       380      1475      1938      1939
 -1       603    8    0    1
 -2       290       227       380      1667      1939      1940
 -1       604    8    0    1
 -2       226       379       380      1936      1941      1938
 -1       605    8    0    1
 -2       229       230       381      1486      1942      1943
 -1       606    8    0    1
 -2       229       381       334      1943      1944      1800
 -1       607    8    0    1
 -2       230       231       382      1489      1945      1946
 -1       608    8    0    1
 -2       230       382       381      1946      1947      1942
 -1       609    8    0    1
 -2       231       232       383      1492      1948      1949
 -1       610    8    0    1
 -2       231       383       382      1949      1950      1945
 -1       611    8    0    1
 -2       232       233       384      1495      1951      1952
 -1       612    8    0    1
 -2       232       384       383      1952      1953      1948
 -1       613    8    0    1
 -2       233       234       385      1498      1954      1955
 -1       614    8    0    1
 -2       233       385       384      1955      1956      1951
 -1       615    8    0    1
 -2       234       235       386      1501      1957      1958
 -1       616    8    0    1
 -2       234       386       385      1958      1959      1954
 -1       617    8    0    1
 -2       235       236       387      1504      1960      1961
 -1       618    8    0    1
 -2       235       387       386      1961      1962      1957
 -1       619    8    0    1
 -2       236       237       388      1507      1963      1964
 -1       620    8    0    1
 -2       236       388       387      1964      1965      1960
 -1       621    8    0    1
 -2       237       238       389      1510      1966      1967
 -1       622    8    0    1
 -2       237       389       388      1967      1968      1963
 -1       623    8    0    1
 -2       238       239       390      1513      1969      1970
 -1       624    8    0    1
 -2       238       390       389      1970      1971      1966
 -1       625    8    0    1
 -2       239       240       391      1516      1972      1973
 -1       626    8    0    1
 -2       239       391       390      1973      1974      1969
 -1       627    8    0    1
 -2       240       241       392      1519      1975      1976
 -1       628    8    0    1
 -2       240       392       391      1976      1977      1972
 -1       629    8    0    1
 -2       241       242       393      1522      1978      1979
 -1       630    8    0    1
 -2       241       393       392      1979      1980      1975
 -1       631    8    0    1
 -2       242       243       394      1525      1981      1982
 -1       632    8    0    1
 -2       242       394       393      1982      1983      1978
 -1       633    8    0    1
 -2       243       244       395      1528      1984      1985
 -1       634    8    0    1
 -2       243       395       394      1985      1986      1981
 -1       635    8    0    1
 -2       244       245       396      1531      1987      1988
 -1       636    8    0    1
 -2       244       396       395      1988      1989      1984
 -1       637    8    0    1
 -2       245       246       397      1534      1990      1991
 -1       638    8    0    1
 -2       245       397       396      1991      1992      1987
 -1       639    8    0    1
 -2       246       247       398      1537      1993      1994
 -1       640    8    0    1
 -2       246       398       397      1994      1995      1990
 -1       641    8    0    1
 -2       247       248       399      1540      1996      1997
 -1       642    8    0    1
 -2       247       399       398      1997      1998      1993
 -1       643    8    0    1
 -2       248       249       400      1543      1999      2000
 -1       644    8    0    1
 -2       248       400       399      2000      2001      1996
 -1       645    8    0    1
 -2       249       250       401      1546      2002      2003
 -1       646    8    0    1
 -2       249       401       400      2003      2004      1999
 -1       647    8    0    1
 -2       250       251       402      1549      2005      2006
 -1       648    8    0    1
 -2       250       402       401      2006      2007      2002
 -1       649    8    0    1
 -2       251       252       403      1552      2008      2009
 -1       650    8    0    1
 -2       251       403       402      2009      2010      2005
 -1       651    8    0    1
 -2       252       253       404      1555      2011      2012
 -1       652    8    0    1
 -2       252       404       403      2012      2013      2008
 -1       653    8    0    1
 -2       253       254       405      1558      2014      2015
 -1       654    8    0    1
 -2       253       405       404      2015      2016      2011
 -1       655    8    0    1
 -2       254       255       406      1561      2017      2018
 -1       656    8    0    1
 -2       254       406       405      2018      2019      2014
 -1       657    8    0    1
 -2       255       256       407      1564      2020      2021
 -1       658    8    0    1
 -2       255       407       406      2021      2022      2017
 -1       659    8    0    1
 -2       256       257       408      1567      2023      2024
 -1       660    8    0    1
 -2       256       408       407      2024      2025      2020
 -1       661    8    0    1
 -2       257       258       409      1570      2026      2027
 -1       662    8    0    1
 -2       257       409       408      2027      2028      2023
 -1       663    8    0    1
 -2       258       259       410      1573      2029      2030
 -1       664    8    0    1
 -2       258       410       409      2030      2031      2026
 -1       665    8    0    1
 -2       259       260       411      1576      2032      2033
 -1       666    8    0    1
 -2       259       411       410      2033      2034      2029
 -1       667    8    0    1
 -2       260       261       412      1579      2035      2036
 -1       668    8    0    1
 -2       260       412       411      2036      2037      2032
 -1       669    8    0    1
 -2       261       262       413      1582      2038      2039
 -1       670    8    0    1
 -2       261       413       412      2039      2040      2035
 -1       671    8    0    1
 -2       262       263       414      1585      2041      2042
 -1       672    8    0    1
 -2       262       414       413      2042      2043      2038
 -1       673    8    0    1
 -2       263       264       415      1588      2044      2045
 -1       674    8    0    1
 -2       263       415       414      2045      2046      2041
 -1       675    8    0    1
 -2       264       265       416      1591      2047      2048
 -1       676    8    0    1
 -2       264       416       415      2048      2049      2044
 -1       677    8    0    1
 -2       265       266       417      1594      2050      2051
 -1       678    8    0    1
 -2       265       417       416      2051      2052      2047
 -1       679    8    0    1
 -2       266       267       418      1597      2053      2054
 -1       680    8    0    1
 -2       266       418       417      2054      2055      2050
 -1       681    8    0    1
 -2       267       268       419      1600      2056      2057
 -1       682    8    0    1
 -2       267       419       418      2057      2058      2053
 -1       683    8    0    1
 -2       268       269       420      1603      2059      2060
 -1       684    8    0    1
 -2       268       420       419      2060      2061      2056
 -1       685    8    0    1
 -2       269       270       421      1606      2062      2063
 -1       686    8    0    1
 -2       269       421       420      2063      2064      2059
 -1       687    8    0    1
 -2       270       271       422      1609      2065      2066
 -1       688    8    0    1
 -2       270       422       421      2066      2067      2062
 -1       689    8    0    1
 -2       271       272       423      1612      2068      2069
 -1       690    8    0    1
 -2       271       423       422      2069      2070      2065
 -1       691    8    0    1
 -2       272       273       424      1615      2071      2072
 -1       692    8    0    1
 -2       272       424       423      2072      2073      2068
 -1       693    8    0    1
 -2       273       274       425      1618      2074      2075
 -1       694    8    0    1
 -2       273       425       424      2075      2076      2071
 -1       695    8    0    1
 -2       274       275       426      1621      2077      2078
 -1       696    8    0    1
 -2       425       274       426      2074      2078      2079
 -1       697    8    0    1
 -2       275       276       426      1729      2080      2077
 -1       698    8    0    1
 -2       278       279       427      1633      2081      2082
 -1       699    8    0    1
 -2       277       278       428      1630      2083      2084
 -1       700    8    0    1
 -2       278       427       428      2082      2085      2083
 -1       701    8    0    1
 -2       276       277       429      1627      2086      2087
 -1       702    8    0    1
 -2       426       276       429      2080      2087      2088
 -1       703    8    0    1
 -2       277       428       429      2084      2089      2086
 -1       704    8    0    1
 -2       279       280       430      1636      2090      2091
 -1       705    8    0    1
 -2       279       430       427      2091      2092      2081
 -1       706    8    0    1
 -2       280       281       431      1639      2093      2094
 -1       707    8    0    1
 -2       280       431       430      2094      2095      2090
 -1       708    8    0    1
 -2       281       282       432      1642      2096      2097
 -1       709    8    0    1
 -2       281       432       431      2097      2098      2093
 -1       710    8    0    1
 -2       282       283       433      1645      2099      2100
 -1       711    8    0    1
 -2       282       433       432      2100      2101      2096
 -1       712    8    0    1
 -2       283       284       434      1648      2102      2103
 -1       713    8    0    1
 -2       283       434       433      2103      2104      2099
 -1       714    8    0    1
 -2       284       285       435      1651      2105      2106
 -1       715    8    0    1
 -2       284       435       434      2106      2107      2102
 -1       716    8    0    1
 -2       285       286       436      1654      2108      2109
 -1       717    8    0    1
 -2       285       436       435      2109      2110      2105
 -1       718    8    0    1
 -2       286       287       437      1657      2111      2112
 -1       719    8    0    1
 -2       286       437       436      2112      2113      2108
 -1       720    8    0    1
 -2       287       288       438      1660      2114      2115
 -1       721    8    0    1
 -2       287       438       437      2115      2116      2111
 -1       722    8    0    1
 -2       288       289       439      1663      2117      2118
 -1       723    8    0    1
 -2       288       439       438      2118      2119      2114
 -1       724    8    0    1
 -2       292       293       440      1731      2120      2121
 -1       725    8    0    1
 -2       319       291       441      1732      2122      2123
 -1       726    8    0    1
 -2       291       292       442      1730      2124      2125
 -1       727    8    0    1
 -2       293       294       443      1727      2126      2127
 -1       728    8    0    1
 -2       294       295       444      1726      2128      2129
 -1       729    8    0    1
 -2       166       167       445      1295      2130      2131
 -1       730    8    0    1
 -2       320       166       445      1758      2131      2132
 -1       731    8    0    1
 -2       167       322       445      1764      2133      2130
 -1       732    8    0    1
 -2       296       297       446      1734      2134      2135
 -1       733    8    0    1
 -2       297       298       447      1735      2136      2137
 -1       734    8    0    1
 -2       297       447       446      2137      2138      2134
 -1       735    8    0    1
 -2       298       299       448      1736      2139      2140
 -1       736    8    0    1
 -2       299       300       449      1737      2141      2142
 -1       737    8    0    1
 -2       300       301       450      1738      2143      2144
 -1       738    8    0    1
 -2       300       450       449      2144      2145      2141
 -1       739    8    0    1
 -2       301       302       451      1739      2146      2147
 -1       740    8    0    1
 -2       302       303       452      1740      2148      2149
 -1       741    8    0    1
 -2       303       304       453      1741      2150      2151
 -1       742    8    0    1
 -2       304       305       454      1742      2152      2153
 -1       743    8    0    1
 -2       305       306       455      1743      2154      2155
 -1       744    8    0    1
 -2       306       307       456      1744      2156      2157
 -1       745    8    0    1
 -2       306       456       455      2157      2158      2154
 -1       746    8    0    1
 -2       307       308       457      1745      2159      2160
 -1       747    8    0    1
 -2       308       309       458      1746      2161      2162
 -1       748    8    0    1
 -2       309       310       459      1747      2163      2164
 -1       749    8    0    1
 -2       310       311       460      1748      2165      2166
 -1       750    8    0    1
 -2       310       460       459      2166      2167      2163
 -1       751    8    0    1
 -2       311       312       461      1749      2168      2169
 -1       752    8    0    1
 -2       312       313       462      1750      2170      2171
 -1       753    8    0    1
 -2       313       314       463      1751      2172      2173
 -1       754    8    0    1
 -2       314       315       464      1752      2174      2175
 -1       755    8    0    1
 -2       315       316       465      1753      2176      2177
 -1       756    8    0    1
 -2       316       317       466      1754      2178      2179
 -1       757    8    0    1
 -2       317       318       467      1755      2180      2181
 -1       758    8    0    1
 -2       318       319       468      1756      2182      2183
 -1       759    8    0    1
 -2       295       296       469      1733      2184      2185
 -1       760    8    0    1
 -2       295       469       444      2185      2186      2128
 -1       761    8    0    1
 -2       443       294       444      2126      2129      2187
 -1       762    8    0    1
 -2       180       321       181      1803      2188      1337
 -1       763    8    0    1
 -2       296       446       469      2135      2189      2184
 -1       764    8    0    1
 -2       335       181       321      1804      2188      2190
 -1       765    8    0    1
 -2       442       292       440      2124      2121      2191
 -1       766    8    0    1
 -2       441       291       442      2122      2125      2192
 -1       767    8    0    1
 -2       439       289       290      2117      1666      2193
 -1       768    8    0    1
 -2       440       293       443      2120      2127      2194
 -1       769    8    0    1
 -2       319       441       468      2123      2195      2182
 -1       770    8    0    1
 -2       467       318       468      2180      2183      2196
 -1       771    8    0    1
 -2       466       317       467      2178      2181      2197
 -1       772    8    0    1
 -2       465       316       466      2176      2179      2198
 -1       773    8    0    1
 -2       464       315       465      2174      2177      2199
 -1       774    8    0    1
 -2       463       314       464      2172      2175      2200
 -1       775    8    0    1
 -2       462       313       463      2170      2173      2201
 -1       776    8    0    1
 -2       460       311       470      2165      2202      2203
 -1       777    8    0    1
 -2       311       461       470      2169      2204      2202
 -1       778    8    0    1
 -2       458       309       459      2161      2164      2205
 -1       779    8    0    1
 -2       456       307       457      2156      2160      2206
 -1       780    8    0    1
 -2       454       305       455      2152      2155      2207
 -1       781    8    0    1
 -2       453       304       454      2150      2153      2208
 -1       782    8    0    1
 -2       452       303       453      2148      2151      2209
 -1       783    8    0    1
 -2       450       301       451      2143      2147      2210
 -1       784    8    0    1
 -2       298       448       447      2140      2211      2136
 -1       785    8    0    1
 -2       448       299       449      2139      2142      2212
 -1       786    8    0    1
 -2       451       302       452      2146      2149      2213
 -1       787    8    0    1
 -2       457       308       458      2159      2162      2214
 -1       788    8    0    1
 -2       461       312       462      2168      2171      2215
 -1       789    8    0    1
 -2       334       381       471      1944      2216      2217
 -1       790    8    0    1
 -2       323       324       472      1770      2218      2219
 -1       791    8    0    1
 -2       322       323       473      1767      2220      2221
 -1       792    8    0    1
 -2       323       472       473      2219      2222      2220
 -1       793    8    0    1
 -2       325       326       474      1776      2223      2224
 -1       794    8    0    1
 -2       326       327       475      1779      2225      2226
 -1       795    8    0    1
 -2       326       475       474      2226      2227      2223
 -1       796    8    0    1
 -2       327       328       476      1782      2228      2229
 -1       797    8    0    1
 -2       327       476       475      2229      2230      2225
 -1       798    8    0    1
 -2       328       329       477      1785      2231      2232
 -1       799    8    0    1
 -2       328       477       476      2232      2233      2228
 -1       800    8    0    1
 -2       329       330       478      1788      2234      2235
 -1       801    8    0    1
 -2       329       478       477      2235      2236      2231
 -1       802    8    0    1
 -2       330       331       479      1791      2237      2238
 -1       803    8    0    1
 -2       330       479       478      2238      2239      2234
 -1       804    8    0    1
 -2       443       444       480      2187      2240      2241
 -1       805    8    0    1
 -2       381       382       481      1947      2242      2243
 -1       806    8    0    1
 -2       381       481       471      2243      2244      2216
 -1       807    8    0    1
 -2       336       335       482      1808      2245      2246
 -1       808    8    0    1
 -2       469       446       483      2189      2247      2248
 -1       809    8    0    1
 -2       337       336       484      1811      2249      2250
 -1       810    8    0    1
 -2       336       482       484      2246      2251      2249
 -1       811    8    0    1
 -2       338       337       485      1814      2252      2253
 -1       812    8    0    1
 -2       337       484       485      2250      2254      2252
 -1       813    8    0    1
 -2       339       338       486      1817      2255      2256
 -1       814    8    0    1
 -2       338       485       486      2253      2257      2255
 -1       815    8    0    1
 -2       340       339       487      1820      2258      2259
 -1       816    8    0    1
 -2       339       486       487      2256      2260      2258
 -1       817    8    0    1
 -2       341       340       488      1823      2261      2262
 -1       818    8    0    1
 -2       340       487       488      2259      2263      2261
 -1       819    8    0    1
 -2       342       341       489      1826      2264      2265
 -1       820    8    0    1
 -2       341       488       489      2262      2266      2264
 -1       821    8    0    1
 -2       343       342       490      1829      2267      2268
 -1       822    8    0    1
 -2       342       489       490      2265      2269      2267
 -1       823    8    0    1
 -2       344       343       491      1832      2270      2271
 -1       824    8    0    1
 -2       343       490       491      2268      2272      2270
 -1       825    8    0    1
 -2       345       344       492      1835      2273      2274
 -1       826    8    0    1
 -2       344       491       492      2271      2275      2273
 -1       827    8    0    1
 -2       346       345       493      1838      2276      2277
 -1       828    8    0    1
 -2       345       492       493      2274      2278      2276
 -1       829    8    0    1
 -2       347       346       494      1841      2279      2280
 -1       830    8    0    1
 -2       346       493       494      2277      2281      2279
 -1       831    8    0    1
 -2       348       347       495      1844      2282      2283
 -1       832    8    0    1
 -2       347       494       495      2280      2284      2282
 -1       833    8    0    1
 -2       349       348       496      1847      2285      2286
 -1       834    8    0    1
 -2       348       495       496      2283      2287      2285
 -1       835    8    0    1
 -2       350       349       497      1850      2288      2289
 -1       836    8    0    1
 -2       349       496       497      2286      2290      2288
 -1       837    8    0    1
 -2       351       350       498      1853      2291      2292
 -1       838    8    0    1
 -2       350       497       498      2289      2293      2291
 -1       839    8    0    1
 -2       352       351       499      1856      2294      2295
 -1       840    8    0    1
 -2       351       498       499      2292      2296      2294
 -1       841    8    0    1
 -2       353       352       500      1859      2297      2298
 -1       842    8    0    1
 -2       352       499       500      2295      2299      2297
 -1       843    8    0    1
 -2       354       353       501      1862      2300      2301
 -1       844    8    0    1
 -2       353       500       501      2298      2302      2300
 -1       845    8    0    1
 -2       355       354       502      1865      2303      2304
 -1       846    8    0    1
 -2       354       501       502      2301      2305      2303
 -1       847    8    0    1
 -2       356       355       503      1868      2306      2307
 -1       848    8    0    1
 -2       355       502       503      2304      2308      2306
 -1       849    8    0    1
 -2       357       356       504      1871      2309      2310
 -1       850    8    0    1
 -2       356       503       504      2307      2311      2309
 -1       851    8    0    1
 -2       358       357       505      1874      2312      2313
 -1       852    8    0    1
 -2       357       504       505      2310      2314      2312
 -1       853    8    0    1
 -2       359       358       506      1877      2315      2316
 -1       854    8    0    1
 -2       358       505       506      2313      2317      2315
 -1       855    8    0    1
 -2       360       359       507      1880      2318      2319
 -1       856    8    0    1
 -2       359       506       507      2316      2320      2318
 -1       857    8    0    1
 -2       361       360       508      1883      2321      2322
 -1       858    8    0    1
 -2       360       507       508      2319      2323      2321
 -1       859    8    0    1
 -2       362       361       509      1886      2324      2325
 -1       860    8    0    1
 -2       361       508       509      2322      2326      2324
 -1       861    8    0    1
 -2       363       362       510      1889      2327      2328
 -1       862    8    0    1
 -2       362       509       510      2325      2329      2327
 -1       863    8    0    1
 -2       364       363       511      1892      2330      2331
 -1       864    8    0    1
 -2       363       510       511      2328      2332      2330
 -1       865    8    0    1
 -2       365       364       512      1895      2333      2334
 -1       866    8    0    1
 -2       364       511       512      2331      2335      2333
 -1       867    8    0    1
 -2       366       365       513      1898      2336      2337
 -1       868    8    0    1
 -2       365       512       513      2334      2338      2336
 -1       869    8    0    1
 -2       367       366       514      1901      2339      2340
 -1       870    8    0    1
 -2       366       513       514      2337      2341      2339
 -1       871    8    0    1
 -2       368       367       515      1904      2342      2343
 -1       872    8    0    1
 -2       367       514       515      2340      2344      2342
 -1       873    8    0    1
 -2       369       368       516      1907      2345      2346
 -1       874    8    0    1
 -2       368       515       516      2343      2347      2345
 -1       875    8    0    1
 -2       370       369       517      1910      2348      2349
 -1       876    8    0    1
 -2       369       516       517      2346      2350      2348
 -1       877    8    0    1
 -2       371       370       518      1913      2351      2352
 -1       878    8    0    1
 -2       370       517       518      2349      2353      2351
 -1       879    8    0    1
 -2       372       371       519      1916      2354      2355
 -1       880    8    0    1
 -2       371       518       519      2352      2356      2354
 -1       881    8    0    1
 -2       373       372       520      1919      2357      2358
 -1       882    8    0    1
 -2       372       519       520      2355      2359      2357
 -1       883    8    0    1
 -2       374       373       521      1922      2360      2361
 -1       884    8    0    1
 -2       373       520       521      2358      2362      2360
 -1       885    8    0    1
 -2       375       374       522      1925      2363      2364
 -1       886    8    0    1
 -2       374       521       522      2361      2365      2363
 -1       887    8    0    1
 -2       376       375       523      1928      2366      2367
 -1       888    8    0    1
 -2       375       522       523      2364      2368      2366
 -1       889    8    0    1
 -2       377       376       524      1931      2369      2370
 -1       890    8    0    1
 -2       376       523       524      2367      2371      2369
 -1       891    8    0    1
 -2       378       377       525      1934      2372      2373
 -1       892    8    0    1
 -2       377       524       525      2370      2374      2372
 -1       893    8    0    1
 -2       379       378       526      1937      2375      2376
 -1       894    8    0    1
 -2       378       525       526      2373      2377      2375
 -1       895    8    0    1
 -2       383       384       527      1953      2378      2379
 -1       896    8    0    1
 -2       384       385       528      1956      2380      2381
 -1       897    8    0    1
 -2       384       528       527      2381      2382      2378
 -1       898    8    0    1
 -2       385       386       529      1959      2383      2384
 -1       899    8    0    1
 -2       385       529       528      2384      2385      2380
 -1       900    8    0    1
 -2       386       387       530      1962      2386      2387
 -1       901    8    0    1
 -2       386       530       529      2387      2388      2383
 -1       902    8    0    1
 -2       387       388       531      1965      2389      2390
 -1       903    8    0    1
 -2       387       531       530      2390      2391      2386
 -1       904    8    0    1
 -2       388       389       532      1968      2392      2393
 -1       905    8    0    1
 -2       388       532       531      2393      2394      2389
 -1       906    8    0    1
 -2       389       390       533      1971      2395      2396
 -1       907    8    0    1
 -2       389       533       532      2396      2397      2392
 -1       908    8    0    1
 -2       390       391       534      1974      2398      2399
 -1       909    8    0    1
 -2       390       534       533      2399      2400      2395
 -1       910    8    0    1
 -2       391       392       535      1977      2401      2402
 -1       911    8    0    1
 -2       391       535       534      2402      2403      2398
 -1       912    8    0    1
 -2       392       393       536      1980      2404      2405
 -1       913    8    0    1
 -2       392       536       535      2405      2406      2401
 -1       914    8    0    1
 -2       393       394       537      1983      2407      2408
 -1       915    8    0    1
 -2       393       537       536      2408      2409      2404
 -1       916    8    0    1
 -2       394       395       538      1986      2410      2411
 -1       917    8    0    1
 -2       394       538       537      2411      2412      2407
 -1       918    8    0    1
 -2       395       396       539      1989      2413      2414
 -1       919    8    0    1
 -2       395       539       538      2414      2415      2410
 -1       920    8    0    1
 -2       396       397       540      1992      2416      2417
 -1       921    8    0    1
 -2       396       540       539      2417      2418      2413
 -1       922    8    0    1
 -2       397       398       541      1995      2419      2420
 -1       923    8    0    1
 -2       397       541       540      2420      2421      2416
 -1       924    8    0    1
 -2       398       399       542      1998      2422      2423
 -1       925    8    0    1
 -2       398       542       541      2423      2424      2419
 -1       926    8    0    1
 -2       399       400       543      2001      2425      2426
 -1       927    8    0    1
 -2       399       543       542      2426      2427      2422
 -1       928    8    0    1
 -2       400       401       544      2004      2428      2429
 -1       929    8    0    1
 -2       400       544       543      2429      2430      2425
 -1       930    8    0    1
 -2       401       402       545      2007      2431      2432
 -1       931    8    0    1
 -2       401       545       544      2432      2433      2428
 -1       932    8    0    1
 -2       402       403       546      2010      2434      2435
 -1       933    8    0    1
 -2       402       546       545      2435      2436      2431
 -1       934    8    0    1
 -2       403       404       547      2013      2437      2438
 -1       935    8    0    1
 -2       403       547       546      2438      2439      2434
 -1       936    8    0    1
 -2       404       405       548      2016      2440      2441
 -1       937    8    0    1
 -2       404       548       547      2441      2442      2437
 -1       938    8    0    1
 -2       405       406       549      2019      2443      2444
 -1       939    8    0    1
 -2       405       549       548      2444      2445      2440
 -1       940    8    0    1
 -2       406       407       550      2022      2446      2447
 -1       941    8    0    1
 -2       406       550       549      2447      2448      2443
 -1       942    8    0    1
 -2       407       408       551      2025      2449      2450
 -1       943    8    0    1
 -2       407       551       550      2450      2451      2446
 -1       944    8    0    1
 -2       408       409       552      2028      2452      2453
 -1       945    8    0    1
 -2       408       552       551      2453      2454      2449
 -1       946    8    0    1
 -2       409       410       553      2031      2455      2456
 -1       947    8    0    1
 -2       409       553       552      2456      2457      2452
 -1       948    8    0    1
 -2       410       411       554      2034      2458      2459
 -1       949    8    0    1
 -2       410       554       553      2459      2460      2455
 -1       950    8    0    1
 -2       411       412       555      2037      2461      2462
 -1       951    8    0    1
 -2       411       555       554      2462      2463      2458
 -1       952    8    0    1
 -2       412       413       556      2040      2464      2465
 -1       953    8    0    1
 -2       412       556       555      2465      2466      2461
 -1       954    8    0    1
 -2       413       414       557      2043      2467      2468
 -1       955    8    0    1
 -2       413       557       556      2468      2469      2464
 -1       956    8    0    1
 -2       414       415       558      2046      2470      2471
 -1       957    8    0    1
 -2       414       558       557      2471      2472      2467
 -1       958    8    0    1
 -2       415       416       559      2049      2473      2474
 -1       959    8    0    1
 -2       415       559       558      2474      2475      2470
 -1       960    8    0    1
 -2       416       417       560      2052      2476      2477
 -1       961    8    0    1
 -2       416       560       559      2477      2478      2473
 -1       962    8    0    1
 -2       417       418       561      2055      2479      2480
 -1       963    8    0    1
 -2       417       561       560      2480      2481      2476
 -1       964    8    0    1
 -2       418       419       562      2058      2482      2483
 -1       965    8    0    1
 -2       418       562       561      2483      2484      2479
 -1       966    8    0    1
 -2       419       420       563      2061      2485      2486
 -1       967    8    0    1
 -2       419       563       562      2486      2487      2482
 -1       968    8    0    1
 -2       420       421       564      2064      2488      2489
 -1       969    8    0    1
 -2       420       564       563      2489      2490      2485
 -1       970    8    0    1
 -2       421       422       565      2067      2491      2492
 -1       971    8    0    1
 -2       421       565       564      2492      2493      2488
 -1       972    8    0    1
 -2       422       423       566      2070      2494      2495
 -1       973    8    0    1
 -2       422       566       565      2495      2496      2491
 -1       974    8    0    1
 -2       423       424       567      2073      2497      2498
 -1       975    8    0    1
 -2       423       567       566      2498      2499      2494
 -1       976    8    0    1
 -2       424       425       568      2076      2500      2501
 -1       977    8    0    1
 -2       424       568       567      2501      2502      2497
 -1       978    8    0    1
 -2       425       426       429      2079      2088      2503
 -1       979    8    0    1
 -2       430       431       569      2095      2504      2505
 -1       980    8    0    1
 -2       431       432       570      2098      2506      2507
 -1       981    8    0    1
 -2       431       570       569      2507      2508      2504
 -1       982    8    0    1
 -2       428       427       571      2085      2509      2510
 -1       983    8    0    1
 -2       427       430       572      2092      2511      2512
 -1       984    8    0    1
 -2       571       427       572      2509      2512      2513
 -1       985    8    0    1
 -2       430       569       572      2505      2514      2511
 -1       986    8    0    1
 -2       432       433       573      2101      2515      2516
 -1       987    8    0    1
 -2       432       573       570      2516      2517      2506
 -1       988    8    0    1
 -2       433       434       574      2104      2518      2519
 -1       989    8    0    1
 -2       433       574       573      2519      2520      2515
 -1       990    8    0    1
 -2       434       435       575      2107      2521      2522
 -1       991    8    0    1
 -2       434       575       574      2522      2523      2518
 -1       992    8    0    1
 -2       435       436       576      2110      2524      2525
 -1       993    8    0    1
 -2       435       576       575      2525      2526      2521
 -1       994    8    0    1
 -2       436       437       577      2113      2527      2528
 -1       995    8    0    1
 -2       436       577       576      2528      2529      2524
 -1       996    8    0    1
 -2       437       438       578      2116      2530      2531
 -1       997    8    0    1
 -2       437       578       577      2531      2532      2527
 -1       998    8    0    1
 -2       438       439       579      2119      2533      2534
 -1       999    8    0    1
 -2       438       579       578      2534      2535      2530
 -1      1000    8    0    1
 -2       441       442       580      2192      2536      2537
 -1      1001    8    0    1
 -2       440       443       581      2194      2538      2539
 -1      1002    8    0    1
 -2       443       480       581      2241      2540      2538
 -1      1003    8    0    1
 -2       382       383       582      1950      2541      2542
 -1      1004    8    0    1
 -2       383       527       582      2379      2543      2541
 -1      1005    8    0    1
 -2       439       290       380      2193      1940      2544
 -1      1006    8    0    1
 -2       468       441       583      2195      2545      2546
 -1      1007    8    0    1
 -2       441       580       583      2537      2547      2545
 -1      1008    8    0    1
 -2       442       440       584      2191      2548      2549
 -1      1009    8    0    1
 -2       335       321       585      2190      2550      2551
 -1      1010    8    0    1
 -2       482       335       585      2245      2551      2552
 -1      1011    8    0    1
 -2       321       320       585      1762      2553      2550
 -1      1012    8    0    1
 -2       467       468       586      2196      2554      2555
 -1      1013    8    0    1
 -2       458       459       587      2205      2556      2557
 -1      1014    8    0    1
 -2       454       455       588      2207      2558      2559
 -1      1015    8    0    1
 -2       447       448       589      2211      2560      2561
 -1      1016    8    0    1
 -2       324       325       590      1773      2562      2563
 -1      1017    8    0    1
 -2       472       324       590      2218      2563      2564
 -1      1018    8    0    1
 -2       325       474       590      2224      2565      2562
 -1      1019    8    0    1
 -2       448       449       591      2212      2566      2567
 -1      1020    8    0    1
 -2       446       447       592      2138      2568      2569
 -1      1021    8    0    1
 -2       451       452       593      2213      2570      2571
 -1      1022    8    0    1
 -2       449       450       594      2145      2572      2573
 -1      1023    8    0    1
 -2       457       458       595      2214      2574      2575
 -1      1024    8    0    1
 -2       450       451       596      2210      2576      2577
 -1      1025    8    0    1
 -2       450       596       594      2577      2578      2572
 -1      1026    8    0    1
 -2       452       453       597      2209      2579      2580
 -1      1027    8    0    1
 -2       453       454       598      2208      2581      2582
 -1      1028    8    0    1
 -2       453       598       597      2582      2583      2579
 -1      1029    8    0    1
 -2       455       456       599      2158      2584      2585
 -1      1030    8    0    1
 -2       461       462       600      2215      2586      2587
 -1      1031    8    0    1
 -2       456       457       601      2206      2588      2589
 -1      1032    8    0    1
 -2       459       460       602      2167      2590      2591
 -1      1033    8    0    1
 -2       459       602       587      2591      2592      2556
 -1      1034    8    0    1
 -2       462       463       603      2201      2593      2594
 -1      1035    8    0    1
 -2       462       603       600      2594      2595      2586
 -1      1036    8    0    1
 -2       463       464       604      2200      2596      2597
 -1      1037    8    0    1
 -2       464       465       605      2199      2598      2599
 -1      1038    8    0    1
 -2       465       466       606      2198      2600      2601
 -1      1039    8    0    1
 -2       466       467       607      2197      2602      2603
 -1      1040    8    0    1
 -2       467       586       607      2555      2604      2602
 -1      1041    8    0    1
 -2       444       469       608      2186      2605      2606
 -1      1042    8    0    1
 -2       333       334       609      1802      2607      2608
 -1      1043    8    0    1
 -2       332       333       609      1797      2608      2609
 -1      1044    8    0    1
 -2       334       471       609      2217      2610      2607
 -1      1045    8    0    1
 -2       448       591       589      2567      2611      2560
 -1      1046    8    0    1
 -2       322       473       610      2221      2612      2613
 -1      1047    8    0    1
 -2       322       610       445      2613      2614      2133
 -1      1048    8    0    1
 -2       382       582       481      2542      2615      2242
 -1      1049    8    0    1
 -2       480       444       608      2240      2606      2616
 -1      1050    8    0    1
 -2       331       332       609      1794      2609      2617
 -1      1051    8    0    1
 -2       586       468       611      2554      2618      2619
 -1      1052    8    0    1
 -2       468       583       611      2546      2620      2618
 -1      1053    8    0    1
 -2       469       483       608      2248      2621      2605
 -1      1054    8    0    1
 -2       606       466       607      2600      2603      2622
 -1      1055    8    0    1
 -2       425       429       568      2503      2623      2500
 -1      1056    8    0    1
 -2       429       428       568      2089      2624      2623
 -1      1057    8    0    1
 -2       605       465       606      2598      2601      2625
 -1      1058    8    0    1
 -2       442       584       580      2549      2626      2536
 -1      1059    8    0    1
 -2       440       581       584      2539      2627      2548
 -1      1060    8    0    1
 -2       602       460       612      2590      2628      2629
 -1      1061    8    0    1
 -2       460       470       612      2203      2630      2628
 -1      1062    8    0    1
 -2       601       457       613      2588      2631      2632
 -1      1063    8    0    1
 -2       457       595       613      2575      2633      2631
 -1      1064    8    0    1
 -2       585       320       445      2553      2132      2634
 -1      1065    8    0    1
 -2       463       604       603      2597      2635      2593
 -1      1066    8    0    1
 -2       458       587       614      2557      2636      2637
 -1      1067    8    0    1
 -2       458       614       595      2637      2638      2574
 -1      1068    8    0    1
 -2       598       454       588      2581      2559      2639
 -1      1069    8    0    1
 -2       596       451       593      2576      2571      2640
 -1      1070    8    0    1
 -2       452       597       615      2580      2641      2642
 -1      1071    8    0    1
 -2       452       615       593      2642      2643      2570
 -1      1072    8    0    1
 -2       470       461       616      2204      2644      2645
 -1      1073    8    0    1
 -2       461       600       616      2587      2646      2644
 -1      1074    8    0    1
 -2       588       455       599      2558      2585      2647
 -1      1075    8    0    1
 -2       447       589       592      2561      2648      2568
 -1      1076    8    0    1
 -2       483       446       592      2247      2569      2649
 -1      1077    8    0    1
 -2       331       609       479      2617      2650      2237
 -1      1078    8    0    1
 -2       449       594       591      2573      2651      2566
 -1      1079    8    0    1
 -2       599       456       601      2584      2589      2652
 -1      1080    8    0    1
 -2       439       380       617      2544      2653      2654
 -1      1081    8    0    1
 -2       579       439       617      2533      2654      2655
 -1      1082    8    0    1
 -2       380       379       617      1941      2656      2653
 -1      1083    8    0    1
 -2       604       464       605      2596      2599      2657
 -1      1084    8    0    1
 -2       568       428       571      2624      2510      2658
 -1      1085    8    0    1
 -2       617       379       526      2656      2376      2659
 -1      1086    8    0    1
 -2       475       476       618      2230      2660      2661
 -1      1087    8    0    1
 -2       474       475       619      2227      2662      2663
 -1      1088    8    0    1
 -2       475       618       619      2661      2664      2662
 -1      1089    8    0    1
 -2       477       478       620      2236      2665      2666
 -1      1090    8    0    1
 -2       478       479       621      2239      2667      2668
 -1      1091    8    0    1
 -2       478       621       620      2668      2669      2665
 -1      1092    8    0    1
 -2       591       594       622      2651      2670      2671
 -1      1093    8    0    1
 -2       471       481       623      2244      2672      2673
 -1      1094    8    0    1
 -2       609       471       479      2610      2674      2650
 -1      1095    8    0    1
 -2       607       586       624      2604      2675      2676
 -1      1096    8    0    1
 -2       608       483       625      2621      2677      2678
 -1      1097    8    0    1
 -2       485       484       626      2254      2679      2680
 -1      1098    8    0    1
 -2       486       485       627      2257      2681      2682
 -1      1099    8    0    1
 -2       485       626       627      2680      2683      2681
 -1      1100    8    0    1
 -2       487       486       628      2260      2684      2685
 -1      1101    8    0    1
 -2       486       627       628      2682      2686      2684
 -1      1102    8    0    1
 -2       488       487       629      2263      2687      2688
 -1      1103    8    0    1
 -2       487       628       629      2685      2689      2687
 -1      1104    8    0    1
 -2       489       488       630      2266      2690      2691
 -1      1105    8    0    1
 -2       488       629       630      2688      2692      2690
 -1      1106    8    0    1
 -2       490       489       631      2269      2693      2694
 -1      1107    8    0    1
 -2       489       630       631      2691      2695      2693
 -1      1108    8    0    1
 -2       491       490       632      2272      2696      2697
 -1      1109    8    0    1
 -2       490       631       632      2694      2698      2696
 -1      1110    8    0    1
 -2       492       491       633      2275      2699      2700
 -1      1111    8    0    1
 -2       491       632       633      2697      2701      2699
 -1      1112    8    0    1
 -2       493       492       634      2278      2702      2703
 -1      1113    8    0    1
 -2       492       633       634      2700      2704      2702
 -1      1114    8    0    1
 -2       494       493       635      2281      2705      2706
 -1      1115    8    0    1
 -2       493       634       635      2703      2707      2705
 -1      1116    8    0    1
 -2       495       494       636      2284      2708      2709
 -1      1117    8    0    1
 -2       494       635       636      2706      2710      2708
 -1      1118    8    0    1
 -2       496       495       637      2287      2711      2712
 -1      1119    8    0    1
 -2       495       636       637      2709      2713      2711
 -1      1120    8    0    1
 -2       497       496       638      2290      2714      2715
 -1      1121    8    0    1
 -2       496       637       638      2712      2716      2714
 -1      1122    8    0    1
 -2       498       497       639      2293      2717      2718
 -1      1123    8    0    1
 -2       497       638       639      2715      2719      2717
 -1      1124    8    0    1
 -2       499       498       640      2296      2720      2721
 -1      1125    8    0    1
 -2       498       639       640      2718      2722      2720
 -1      1126    8    0    1
 -2       500       499       641      2299      2723      2724
 -1      1127    8    0    1
 -2       499       640       641      2721      2725      2723
 -1      1128    8    0    1
 -2       501       500       642      2302      2726      2727
 -1      1129    8    0    1
 -2       500       641       642      2724      2728      2726
 -1      1130    8    0    1
 -2       502       501       643      2305      2729      2730
 -1      1131    8    0    1
 -2       501       642       643      2727      2731      2729
 -1      1132    8    0    1
 -2       503       502       644      2308      2732      2733
 -1      1133    8    0    1
 -2       502       643       644      2730      2734      2732
 -1      1134    8    0    1
 -2       504       503       645      2311      2735      2736
 -1      1135    8    0    1
 -2       503       644       645      2733      2737      2735
 -1      1136    8    0    1
 -2       505       504       646      2314      2738      2739
 -1      1137    8    0    1
 -2       504       645       646      2736      2740      2738
 -1      1138    8    0    1
 -2       506       505       647      2317      2741      2742
 -1      1139    8    0    1
 -2       505       646       647      2739      2743      2741
 -1      1140    8    0    1
 -2       507       506       648      2320      2744      2745
 -1      1141    8    0    1
 -2       506       647       648      2742      2746      2744
 -1      1142    8    0    1
 -2       508       507       649      2323      2747      2748
 -1      1143    8    0    1
 -2       507       648       649      2745      2749      2747
 -1      1144    8    0    1
 -2       509       508       650      2326      2750      2751
 -1      1145    8    0    1
 -2       508       649       650      2748      2752      2750
 -1      1146    8    0    1
 -2       510       509       651      2329      2753      2754
 -1      1147    8    0    1
 -2       509       650       651      2751      2755      2753
 -1      1148    8    0    1
 -2       511       510       652      2332      2756      2757
 -1      1149    8    0    1
 -2       510       651       652      2754      2758      2756
 -1      1150    8    0    1
 -2       512       511       653      2335      2759      2760
 -1      1151    8    0    1
 -2       511       652       653      2757      2761      2759
 -1      1152    8    0    1
 -2       513       512       654      2338      2762      2763
 -1      1153    8    0    1
 -2       512       653       654      2760      2764      2762
 -1      1154    8    0    1
 -2       514       513       655      2341      2765      2766
 -1      1155    8    0    1
 -2       513       654       655      2763      2767      2765
 -1      1156    8    0    1
 -2       515       514       656      2344      2768      2769
 -1      1157    8    0    1
 -2       514       655       656      2766      2770      2768
 -1      1158    8    0    1
 -2       516       515       657      2347      2771      2772
 -1      1159    8    0    1
 -2       515       656       657      2769      2773      2771
 -1      1160    8    0    1
 -2       517       516       658      2350      2774      2775
 -1      1161    8    0    1
 -2       516       657       658      2772      2776      2774
 -1      1162    8    0    1
 -2       518       517       659      2353      2777      2778
 -1      1163    8    0    1
 -2       517       658       659      2775      2779      2777
 -1      1164    8    0    1
 -2       519       518       660      2356      2780      2781
 -1      1165    8    0    1
 -2       518       659       660      2778      2782      2780
 -1      1166    8    0    1
 -2       520       519       661      2359      2783      2784
 -1      1167    8    0    1
 -2       519       660       661      2781      2785      2783
 -1      1168    8    0    1
 -2       521       520       662      2362      2786      2787
 -1      1169    8    0    1
 -2       520       661       662      2784      2788      2786
 -1      1170    8    0    1
 -2       522       521       663      2365      2789      2790
 -1      1171    8    0    1
 -2       521       662       663      2787      2791      2789
 -1      1172    8    0    1
 -2       523       522       664      2368      2792      2793
 -1      1173    8    0    1
 -2       522       663       664      2790      2794      2792
 -1      1174    8    0    1
 -2       524       523       665      2371      2795      2796
 -1      1175    8    0    1
 -2       523       664       665      2793      2797      2795
 -1      1176    8    0    1
 -2       525       524       666      2374      2798      2799
 -1      1177    8    0    1
 -2       524       665       666      2796      2800      2798
 -1      1178    8    0    1
 -2       526       525       667      2377      2801      2802
 -1      1179    8    0    1
 -2       525       666       667      2799      2803      2801
 -1      1180    8    0    1
 -2       528       529       668      2385      2804      2805
 -1      1181    8    0    1
 -2       604       605       669      2657      2806      2807
 -1      1182    8    0    1
 -2       527       528       670      2382      2808      2809
 -1      1183    8    0    1
 -2       528       668       670      2805      2810      2808
 -1      1184    8    0    1
 -2       530       531       671      2391      2811      2812
 -1      1185    8    0    1
 -2       531       532       672      2394      2813      2814
 -1      1186    8    0    1
 -2       531       672       671      2814      2815      2811
 -1      1187    8    0    1
 -2       532       533       673      2397      2816      2817
 -1      1188    8    0    1
 -2       532       673       672      2817      2818      2813
 -1      1189    8    0    1
 -2       533       534       674      2400      2819      2820
 -1      1190    8    0    1
 -2       533       674       673      2820      2821      2816
 -1      1191    8    0    1
 -2       534       535       675      2403      2822      2823
 -1      1192    8    0    1
 -2       534       675       674      2823      2824      2819
 -1      1193    8    0    1
 -2       535       536       676      2406      2825      2826
 -1      1194    8    0    1
 -2       535       676       675      2826      2827      2822
 -1      1195    8    0    1
 -2       536       537       677      2409      2828      2829
 -1      1196    8    0    1
 -2       536       677       676      2829      2830      2825
 -1      1197    8    0    1
 -2       537       538       678      2412      2831      2832
 -1      1198    8    0    1
 -2       537       678       677      2832      2833      2828
 -1      1199    8    0    1
 -2       538       539       679      2415      2834      2835
 -1      1200    8    0    1
 -2       538       679       678      2835      2836      2831
 -1      1201    8    0    1
 -2       539       540       680      2418      2837      2838
 -1      1202    8    0    1
 -2       539       680       679      2838      2839      2834
 -1      1203    8    0    1
 -2       540       541       681      2421      2840      2841
 -1      1204    8    0    1
 -2       540       681       680      2841      2842      2837
 -1      1205    8    0    1
 -2       541       542       682      2424      2843      2844
 -1      1206    8    0    1
 -2       541       682       681      2844      2845      2840
 -1      1207    8    0    1
 -2       542       543       683      2427      2846      2847
 -1      1208    8    0    1
 -2       542       683       682      2847      2848      2843
 -1      1209    8    0    1
 -2       543       544       684      2430      2849      2850
 -1      1210    8    0    1
 -2       543       684       683      2850      2851      2846
 -1      1211    8    0    1
 -2       544       545       685      2433      2852      2853
 -1      1212    8    0    1
 -2       544       685       684      2853      2854      2849
 -1      1213    8    0    1
 -2       545       546       686      2436      2855      2856
 -1      1214    8    0    1
 -2       545       686       685      2856      2857      2852
 -1      1215    8    0    1
 -2       546       547       687      2439      2858      2859
 -1      1216    8    0    1
 -2       546       687       686      2859      2860      2855
 -1      1217    8    0    1
 -2       547       548       688      2442      2861      2862
 -1      1218    8    0    1
 -2       547       688       687      2862      2863      2858
 -1      1219    8    0    1
 -2       548       549       689      2445      2864      2865
 -1      1220    8    0    1
 -2       548       689       688      2865      2866      2861
 -1      1221    8    0    1
 -2       549       550       690      2448      2867      2868
 -1      1222    8    0    1
 -2       549       690       689      2868      2869      2864
 -1      1223    8    0    1
 -2       550       551       691      2451      2870      2871
 -1      1224    8    0    1
 -2       550       691       690      2871      2872      2867
 -1      1225    8    0    1
 -2       551       552       692      2454      2873      2874
 -1      1226    8    0    1
 -2       551       692       691      2874      2875      2870
 -1      1227    8    0    1
 -2       552       553       693      2457      2876      2877
 -1      1228    8    0    1
 -2       552       693       692      2877      2878      2873
 -1      1229    8    0    1
 -2       553       554       694      2460      2879      2880
 -1      1230    8    0    1
 -2       553       694       693      2880      2881      2876
 -1      1231    8    0    1
 -2       554       555       695      2463      2882      2883
 -1      1232    8    0    1
 -2       554       695       694      2883      2884      2879
 -1      1233    8    0    1
 -2       555       556       696      2466      2885      2886
 -1      1234    8    0    1
 -2       555       696       695      2886      2887      2882
 -1      1235    8    0    1
 -2       556       557       697      2469      2888      2889
 -1      1236    8    0    1
 -2       556       697       696      2889      2890      2885
 -1      1237    8    0    1
 -2       557       558       698      2472      2891      2892
 -1      1238    8    0    1
 -2       557       698       697      2892      2893      2888
 -1      1239    8    0    1
 -2       558       559       699      2475      2894      2895
 -1      1240    8    0    1
 -2       558       699       698      2895      2896      2891
 -1      1241    8    0    1
 -2       559       560       700      2478      2897      2898
 -1      1242    8    0    1
 -2       559       700       699      2898      2899      2894
 -1      1243    8    0    1
 -2       560       561       701      2481      2900      2901
 -1      1244    8    0    1
 -2       560       701       700      2901      2902      2897
 -1      1245    8    0    1
 -2       561       562       702      2484      2903      2904
 -1      1246    8    0    1
 -2       561       702       701      2904      2905      2900
 -1      1247    8    0    1
 -2       562       563       703      2487      2906      2907
 -1      1248    8    0    1
 -2       562       703       702      2907      2908      2903
 -1      1249    8    0    1
 -2       563       564       704      2490      2909      2910
 -1      1250    8    0    1
 -2       563       704       703      2910      2911      2906
 -1      1251    8    0    1
 -2       564       565       705      2493      2912      2913
 -1      1252    8    0    1
 -2       564       705       704      2913      2914      2909
 -1      1253    8    0    1
 -2       565       566       706      2496      2915      2916
 -1      1254    8    0    1
 -2       565       706       705      2916      2917      2912
 -1      1255    8    0    1
 -2       566       567       707      2499      2918      2919
 -1      1256    8    0    1
 -2       566       707       706      2919      2920      2915
 -1      1257    8    0    1
 -2       567       568       708      2502      2921      2922
 -1      1258    8    0    1
 -2       707       567       708      2918      2922      2923
 -1      1259    8    0    1
 -2       568       571       708      2658      2924      2921
 -1      1260    8    0    1
 -2       573       574       709      2520      2925      2926
 -1      1261    8    0    1
 -2       617       526       710      2659      2927      2928
 -1      1262    8    0    1
 -2       526       667       710      2802      2929      2927
 -1      1263    8    0    1
 -2       569       570       711      2508      2930      2931
 -1      1264    8    0    1
 -2       574       575       712      2523      2932      2933
 -1      1265    8    0    1
 -2       574       712       709      2933      2934      2925
 -1      1266    8    0    1
 -2       570       573       713      2517      2935      2936
 -1      1267    8    0    1
 -2       711       570       713      2930      2936      2937
 -1      1268    8    0    1
 -2       573       709       713      2926      2938      2935
 -1      1269    8    0    1
 -2       581       480       714      2540      2939      2940
 -1      1270    8    0    1
 -2       575       576       715      2526      2941      2942
 -1      1271    8    0    1
 -2       575       715       712      2942      2943      2932
 -1      1272    8    0    1
 -2       576       577       716      2529      2944      2945
 -1      1273    8    0    1
 -2       576       716       715      2945      2946      2941
 -1      1274    8    0    1
 -2       577       578       717      2532      2947      2948
 -1      1275    8    0    1
 -2       577       717       716      2948      2949      2944
 -1      1276    8    0    1
 -2       584       581       718      2627      2950      2951
 -1      1277    8    0    1
 -2       582       527       719      2543      2952      2953
 -1      1278    8    0    1
 -2       527       670       719      2809      2954      2952
 -1      1279    8    0    1
 -2       583       580       720      2547      2955      2956
 -1      1280    8    0    1
 -2       482       585       721      2552      2957      2958
 -1      1281    8    0    1
 -2       600       603       722      2595      2959      2960
 -1      1282    8    0    1
 -2       598       588       723      2639      2961      2962
 -1      1283    8    0    1
 -2       596       593       724      2640      2963      2964
 -1      1284    8    0    1
 -2       529       530       725      2388      2965      2966
 -1      1285    8    0    1
 -2       668       529       725      2804      2966      2967
 -1      1286    8    0    1
 -2       530       671       725      2812      2968      2965
 -1      1287    8    0    1
 -2       484       482       726      2251      2969      2970
 -1      1288    8    0    1
 -2       626       484       726      2679      2970      2971
 -1      1289    8    0    1
 -2       482       721       726      2958      2972      2969
 -1      1290    8    0    1
 -2       481       582       727      2615      2973      2974
 -1      1291    8    0    1
 -2       623       481       727      2672      2974      2975
 -1      1292    8    0    1
 -2       582       719       727      2953      2976      2973
 -1      1293    8    0    1
 -2       483       592       728      2649      2977      2978
 -1      1294    8    0    1
 -2       483       728       625      2978      2979      2677
 -1      1295    8    0    1
 -2       603       604       729      2635      2980      2981
 -1      1296    8    0    1
 -2       480       608       730      2616      2982      2983
 -1      1297    8    0    1
 -2       480       730       714      2983      2984      2939
 -1      1298    8    0    1
 -2       476       477       731      2233      2985      2986
 -1      1299    8    0    1
 -2       618       476       731      2660      2986      2987
 -1      1300    8    0    1
 -2       477       620       731      2666      2988      2985
 -1      1301    8    0    1
 -2       585       445       721      2634      2989      2957
 -1      1302    8    0    1
 -2       473       472       732      2222      2990      2991
 -1      1303    8    0    1
 -2       594       596       733      2578      2992      2993
 -1      1304    8    0    1
 -2       592       589       734      2648      2994      2995
 -1      1305    8    0    1
 -2       597       598       735      2583      2996      2997
 -1      1306    8    0    1
 -2       588       599       736      2647      2998      2999
 -1      1307    8    0    1
 -2       599       601       737      2652      3000      3001
 -1      1308    8    0    1
 -2       599       737       736      3001      3002      2998
 -1      1309    8    0    1
 -2       579       617       710      2655      2928      3003
 -1      1310    8    0    1
 -2       587       602       738      2592      3004      3005
 -1      1311    8    0    1
 -2       589       591       739      2611      3006      3007
 -1      1312    8    0    1
 -2       589       739       734      3007      3008      2994
 -1      1313    8    0    1
 -2       580       584       740      2626      3009      3010
 -1      1314    8    0    1
 -2       605       606       741      2625      3011      3012
 -1      1315    8    0    1
 -2       606       607       742      2622      3013      3014
 -1      1316    8    0    1
 -2       610       473       743      2612      3015      3016
 -1      1317    8    0    1
 -2       473       732       743      2991      3017      3015
 -1      1318    8    0    1
 -2       474       619       744      2663      3018      3019
 -1      1319    8    0    1
 -2       474       744       590      3019      3020      2565
 -1      1320    8    0    1
 -2       591       622       739      2671      3021      3006
 -1      1321    8    0    1
 -2       622       594       733      2670      2993      3022
 -1      1322    8    0    1
 -2       611       583       745      2620      3023      3024
 -1      1323    8    0    1
 -2       583       720       745      2956      3025      3023
 -1      1324    8    0    1
 -2       479       471       623      2674      2673      3026
 -1      1325    8    0    1
 -2       721       445       610      2989      2614      3027
 -1      1326    8    0    1
 -2       624       586       611      2675      2619      3028
 -1      1327    8    0    1
 -2       608       625       746      2678      3029      3030
 -1      1328    8    0    1
 -2       608       746       730      3030      3031      2982
 -1      1329    8    0    1
 -2       569       711       747      2931      3032      3033
 -1      1330    8    0    1
 -2       569       747       572      3033      3034      2514
 -1      1331    8    0    1
 -2       604       669       729      2807      3035      2980
 -1      1332    8    0    1
 -2       479       623       621      3026      3036      2667
 -1      1333    8    0    1
 -2       742       607       624      3013      2676      3037
 -1      1334    8    0    1
 -2       741       606       742      3011      3014      3038
 -1      1335    8    0    1
 -2       587       738       614      3005      3039      2636
 -1      1336    8    0    1
 -2       571       572       748      2513      3040      3041
 -1      1337    8    0    1
 -2       708       571       748      2924      3041      3042
 -1      1338    8    0    1
 -2       572       747       748      3034      3043      3040
 -1      1339    8    0    1
 -2       737       601       749      3000      3044      3045
 -1      1340    8    0    1
 -2       601       613       749      2632      3046      3044
 -1      1341    8    0    1
 -2       584       718       740      2951      3047      3009
 -1      1342    8    0    1
 -2       718       581       714      2950      2940      3048
 -1      1343    8    0    1
 -2       578       579       710      2535      3003      3049
 -1      1344    8    0    1
 -2       724       593       615      2963      2643      3050
 -1      1345    8    0    1
 -2       728       592       734      2977      2995      3051
 -1      1346    8    0    1
 -2       612       470       750      2630      3052      3053
 -1      1347    8    0    1
 -2       470       616       750      2645      3054      3052
 -1      1348    8    0    1
 -2       613       595       751      2633      3055      3056
 -1      1349    8    0    1
 -2       595       614       751      2638      3057      3055
 -1      1350    8    0    1
 -2       723       588       752      2961      3058      3059
 -1      1351    8    0    1
 -2       588       736       752      2999      3060      3058
 -1      1352    8    0    1
 -2       720       580       740      2955      3010      3061
 -1      1353    8    0    1
 -2       722       603       729      2959      2981      3062
 -1      1354    8    0    1
 -2       602       612       738      2629      3063      3004
 -1      1355    8    0    1
 -2       598       723       753      2962      3064      3065
 -1      1356    8    0    1
 -2       598       753       735      3065      3066      2996
 -1      1357    8    0    1
 -2       615       597       735      2641      2997      3067
 -1      1358    8    0    1
 -2       596       724       733      2964      3068      2992
 -1      1359    8    0    1
 -2       669       605       741      2806      3012      3069
 -1      1360    8    0    1
 -2       472       590       754      2564      3070      3071
 -1      1361    8    0    1
 -2       732       472       754      2990      3071      3072
 -1      1362    8    0    1
 -2       590       744       754      3020      3073      3070
 -1      1363    8    0    1
 -2       578       710       755      3049      3074      3075
 -1      1364    8    0    1
 -2       717       578       755      2947      3075      3076
 -1      1365    8    0    1
 -2       710       667       755      2929      3077      3074
 -1      1366    8    0    1
 -2       620       621       756      2669      3078      3079
 -1      1367    8    0    1
 -2       721       610       743      3027      3016      3080
 -1      1368    8    0    1
 -2       628       627       757      2686      3081      3082
 -1      1369    8    0    1
 -2       629       628       758      2689      3083      3084
 -1      1370    8    0    1
 -2       628       757       758      3082      3085      3083
 -1      1371    8    0    1
 -2       630       629       759      2692      3086      3087
 -1      1372    8    0    1
 -2       629       758       759      3084      3088      3086
 -1      1373    8    0    1
 -2       631       630       760      2695      3089      3090
 -1      1374    8    0    1
 -2       630       759       760      3087      3091      3089
 -1      1375    8    0    1
 -2       632       631       761      2698      3092      3093
 -1      1376    8    0    1
 -2       631       760       761      3090      3094      3092
 -1      1377    8    0    1
 -2       633       632       762      2701      3095      3096
 -1      1378    8    0    1
 -2       632       761       762      3093      3097      3095
 -1      1379    8    0    1
 -2       634       633       763      2704      3098      3099
 -1      1380    8    0    1
 -2       633       762       763      3096      3100      3098
 -1      1381    8    0    1
 -2       635       634       764      2707      3101      3102
 -1      1382    8    0    1
 -2       634       763       764      3099      3103      3101
 -1      1383    8    0    1
 -2       636       635       765      2710      3104      3105
 -1      1384    8    0    1
 -2       635       764       765      3102      3106      3104
 -1      1385    8    0    1
 -2       637       636       766      2713      3107      3108
 -1      1386    8    0    1
 -2       636       765       766      3105      3109      3107
 -1      1387    8    0    1
 -2       638       637       767      2716      3110      3111
 -1      1388    8    0    1
 -2       637       766       767      3108      3112      3110
 -1      1389    8    0    1
 -2       639       638       768      2719      3113      3114
 -1      1390    8    0    1
 -2       638       767       768      3111      3115      3113
 -1      1391    8    0    1
 -2       640       639       769      2722      3116      3117
 -1      1392    8    0    1
 -2       639       768       769      3114      3118      3116
 -1      1393    8    0    1
 -2       641       640       770      2725      3119      3120
 -1      1394    8    0    1
 -2       640       769       770      3117      3121      3119
 -1      1395    8    0    1
 -2       642       641       771      2728      3122      3123
 -1      1396    8    0    1
 -2       641       770       771      3120      3124      3122
 -1      1397    8    0    1
 -2       643       642       772      2731      3125      3126
 -1      1398    8    0    1
 -2       642       771       772      3123      3127      3125
 -1      1399    8    0    1
 -2       644       643       773      2734      3128      3129
 -1      1400    8    0    1
 -2       643       772       773      3126      3130      3128
 -1      1401    8    0    1
 -2       645       644       774      2737      3131      3132
 -1      1402    8    0    1
 -2       644       773       774      3129      3133      3131
 -1      1403    8    0    1
 -2       646       645       775      2740      3134      3135
 -1      1404    8    0    1
 -2       645       774       775      3132      3136      3134
 -1      1405    8    0    1
 -2       647       646       738      2743      3137      3138
 -1      1406    8    0    1
 -2       648       647       750      2746      3139      3140
 -1      1407    8    0    1
 -2       650       649       722      2752      3141      3142
 -1      1408    8    0    1
 -2       651       650       729      2755      3143      3144
 -1      1409    8    0    1
 -2       652       651       669      2758      3145      3146
 -1      1410    8    0    1
 -2       653       652       776      2761      3147      3148
 -1      1411    8    0    1
 -2       654       653       777      2764      3149      3150
 -1      1412    8    0    1
 -2       653       776       777      3148      3151      3149
 -1      1413    8    0    1
 -2       655       654       778      2767      3152      3153
 -1      1414    8    0    1
 -2       654       777       778      3150      3154      3152
 -1      1415    8    0    1
 -2       656       655       779      2770      3155      3156
 -1      1416    8    0    1
 -2       655       778       779      3153      3157      3155
 -1      1417    8    0    1
 -2       657       656       780      2773      3158      3159
 -1      1418    8    0    1
 -2       656       779       780      3156      3160      3158
 -1      1419    8    0    1
 -2       658       657       781      2776      3161      3162
 -1      1420    8    0    1
 -2       657       780       781      3159      3163      3161
 -1      1421    8    0    1
 -2       659       658       782      2779      3164      3165
 -1      1422    8    0    1
 -2       658       781       782      3162      3166      3164
 -1      1423    8    0    1
 -2       660       659       783      2782      3167      3168
 -1      1424    8    0    1
 -2       659       782       783      3165      3169      3167
 -1      1425    8    0    1
 -2       661       660       784      2785      3170      3171
 -1      1426    8    0    1
 -2       660       783       784      3168      3172      3170
 -1      1427    8    0    1
 -2       662       661       785      2788      3173      3174
 -1      1428    8    0    1
 -2       661       784       785      3171      3175      3173
 -1      1429    8    0    1
 -2       663       662       786      2791      3176      3177
 -1      1430    8    0    1
 -2       662       785       786      3174      3178      3176
 -1      1431    8    0    1
 -2       664       663       787      2794      3179      3180
 -1      1432    8    0    1
 -2       663       786       787      3177      3181      3179
 -1      1433    8    0    1
 -2       665       664       788      2797      3182      3183
 -1      1434    8    0    1
 -2       664       787       788      3180      3184      3182
 -1      1435    8    0    1
 -2       666       665       789      2800      3185      3186
 -1      1436    8    0    1
 -2       665       788       789      3183      3187      3185
 -1      1437    8    0    1
 -2       667       666       790      2803      3188      3189
 -1      1438    8    0    1
 -2       755       667       790      3077      3189      3190
 -1      1439    8    0    1
 -2       666       789       790      3186      3191      3188
 -1      1440    8    0    1
 -2       672       673       791      2818      3192      3193
 -1      1441    8    0    1
 -2       671       672       792      2815      3194      3195
 -1      1442    8    0    1
 -2       672       791       792      3193      3196      3194
 -1      1443    8    0    1
 -2       674       675       793      2824      3197      3198
 -1      1444    8    0    1
 -2       675       676       794      2827      3199      3200
 -1      1445    8    0    1
 -2       675       794       793      3200      3201      3197
 -1      1446    8    0    1
 -2       676       677       795      2830      3202      3203
 -1      1447    8    0    1
 -2       676       795       794      3203      3204      3199
 -1      1448    8    0    1
 -2       677       678       796      2833      3205      3206
 -1      1449    8    0    1
 -2       677       796       795      3206      3207      3202
 -1      1450    8    0    1
 -2       678       679       797      2836      3208      3209
 -1      1451    8    0    1
 -2       678       797       796      3209      3210      3205
 -1      1452    8    0    1
 -2       679       680       798      2839      3211      3212
 -1      1453    8    0    1
 -2       679       798       797      3212      3213      3208
 -1      1454    8    0    1
 -2       680       681       799      2842      3214      3215
 -1      1455    8    0    1
 -2       680       799       798      3215      3216      3211
 -1      1456    8    0    1
 -2       681       682       800      2845      3217      3218
 -1      1457    8    0    1
 -2       681       800       799      3218      3219      3214
 -1      1458    8    0    1
 -2       682       683       801      2848      3220      3221
 -1      1459    8    0    1
 -2       682       801       800      3221      3222      3217
 -1      1460    8    0    1
 -2       683       684       802      2851      3223      3224
 -1      1461    8    0    1
 -2       683       802       801      3224      3225      3220
 -1      1462    8    0    1
 -2       684       685       803      2854      3226      3227
 -1      1463    8    0    1
 -2       684       803       802      3227      3228      3223
 -1      1464    8    0    1
 -2       685       686       804      2857      3229      3230
 -1      1465    8    0    1
 -2       685       804       803      3230      3231      3226
 -1      1466    8    0    1
 -2       686       687       733      2860      3232      3233
 -1      1467    8    0    1
 -2       687       688       622      2863      3234      3235
 -1      1468    8    0    1
 -2       688       689       739      2866      3236      3237
 -1      1469    8    0    1
 -2       689       690       734      2869      3238      3239
 -1      1470    8    0    1
 -2       690       691       728      2872      3240      3241
 -1      1471    8    0    1
 -2       691       692       625      2875      3242      3243
 -1      1472    8    0    1
 -2       692       693       746      2878      3244      3245
 -1      1473    8    0    1
 -2       694       695       805      2884      3246      3247
 -1      1474    8    0    1
 -2       695       696       806      2887      3248      3249
 -1      1475    8    0    1
 -2       695       806       805      3249      3250      3246
 -1      1476    8    0    1
 -2       696       697       807      2890      3251      3252
 -1      1477    8    0    1
 -2       696       807       806      3252      3253      3248
 -1      1478    8    0    1
 -2       697       698       808      2893      3254      3255
 -1      1479    8    0    1
 -2       697       808       807      3255      3256      3251
 -1      1480    8    0    1
 -2       698       699       809      2896      3257      3258
 -1      1481    8    0    1
 -2       698       809       808      3258      3259      3254
 -1      1482    8    0    1
 -2       699       700       810      2899      3260      3261
 -1      1483    8    0    1
 -2       699       810       809      3261      3262      3257
 -1      1484    8    0    1
 -2       700       701       811      2902      3263      3264
 -1      1485    8    0    1
 -2       700       811       810      3264      3265      3260
 -1      1486    8    0    1
 -2       701       702       812      2905      3266      3267
 -1      1487    8    0    1
 -2       701       812       811      3267      3268      3263
 -1      1488    8    0    1
 -2       702       703       813      2908      3269      3270
 -1      1489    8    0    1
 -2       702       813       812      3270      3271      3266
 -1      1490    8    0    1
 -2       703       704       814      2911      3272      3273
 -1      1491    8    0    1
 -2       703       814       813      3273      3274      3269
 -1      1492    8    0    1
 -2       704       705       815      2914      3275      3276
 -1      1493    8    0    1
 -2       704       815       814      3276      3277      3272
 -1      1494    8    0    1
 -2       705       706       816      2917      3278      3279
 -1      1495    8    0    1
 -2       705       816       815      3279      3280      3275
 -1      1496    8    0    1
 -2       706       707       817      2920      3281      3282
 -1      1497    8    0    1
 -2       706       817       816      3282      3283      3278
 -1      1498    8    0    1
 -2       707       708       818      2923      3284      3285
 -1      1499    8    0    1
 -2       817       707       818      3281      3285      3286
 -1      1500    8    0    1
 -2       708       748       818      3042      3287      3284
 -1      1501    8    0    1
 -2       619       618       819      2664      3288      3289
 -1      1502    8    0    1
 -2       709       712       820      2934      3290      3291
 -1      1503    8    0    1
 -2       716       717       821      2949      3292      3293
 -1      1504    8    0    1
 -2       712       715       822      2943      3294      3295
 -1      1505    8    0    1
 -2       712       822       820      3295      3296      3290
 -1      1506    8    0    1
 -2       625       692       746      3242      3245      3029
 -1      1507    8    0    1
 -2       728       691       625      3240      3243      2979
 -1      1508    8    0    1
 -2       734       690       728      3238      3241      3051
 -1      1509    8    0    1
 -2       739       689       734      3236      3239      3008
 -1      1510    8    0    1
 -2       622       688       739      3234      3237      3021
 -1      1511    8    0    1
 -2       600       722       823      2960      3297      3298
 -1      1512    8    0    1
 -2       669       651       729      3145      3144      3035
 -1      1513    8    0    1
 -2       719       670       824      2954      3299      3300
 -1      1514    8    0    1
 -2       729       650       722      3143      3142      3062
 -1      1515    8    0    1
 -2       722       649       823      3141      3301      3297
 -1      1516    8    0    1
 -2       616       600       823      2646      3298      3302
 -1      1517    8    0    1
 -2       715       716       825      2946      3303      3304
 -1      1518    8    0    1
 -2       822       715       825      3294      3304      3305
 -1      1519    8    0    1
 -2       716       821       825      3293      3306      3303
 -1      1520    8    0    1
 -2       624       611       826      3028      3307      3308
 -1      1521    8    0    1
 -2       673       674       827      2821      3309      3310
 -1      1522    8    0    1
 -2       791       673       827      3192      3310      3311
 -1      1523    8    0    1
 -2       674       793       827      3198      3312      3309
 -1      1524    8    0    1
 -2       670       668       828      2810      3313      3314
 -1      1525    8    0    1
 -2       670       828       824      3314      3315      3299
 -1      1526    8    0    1
 -2       724       615       829      3050      3316      3317
 -1      1527    8    0    1
 -2       615       735       830      3067      3318      3319
 -1      1528    8    0    1
 -2       615       830       829      3319      3320      3316
 -1      1529    8    0    1
 -2       621       623       831      3036      3321      3322
 -1      1530    8    0    1
 -2       756       621       831      3078      3322      3323
 -1      1531    8    0    1
 -2       623       727       831      2975      3324      3321
 -1      1532    8    0    1
 -2       627       626       832      2683      3325      3326
 -1      1533    8    0    1
 -2       627       832       757      3326      3327      3081
 -1      1534    8    0    1
 -2       714       730       833      2984      3328      3329
 -1      1535    8    0    1
 -2       741       742       834      3038      3330      3331
 -1      1536    8    0    1
 -2       823       649       648      3301      2749      3332
 -1      1537    8    0    1
 -2       733       724       804      3068      3333      3334
 -1      1538    8    0    1
 -2       720       740       835      3061      3335      3336
 -1      1539    8    0    1
 -2       669       741       652      3069      3337      3146
 -1      1540    8    0    1
 -2       736       737       836      3002      3338      3339
 -1      1541    8    0    1
 -2       622       733       687      3022      3232      3235
 -1      1542    8    0    1
 -2       718       714       837      3048      3340      3341
 -1      1543    8    0    1
 -2       740       718       838      3047      3342      3343
 -1      1544    8    0    1
 -2       742       624       839      3037      3344      3345
 -1      1545    8    0    1
 -2       614       738       775      3039      3346      3347
 -1      1546    8    0    1
 -2       738       646       775      3137      3135      3346
 -1      1547    8    0    1
 -2       686       733       804      3233      3334      3229
 -1      1548    8    0    1
 -2       823       648       750      3332      3140      3348
 -1      1549    8    0    1
 -2       744       619       840      3018      3349      3350
 -1      1550    8    0    1
 -2       619       819       840      3289      3351      3349
 -1      1551    8    0    1
 -2       721       743       726      3080      3352      2972
 -1      1552    8    0    1
 -2       745       720       841      3025      3353      3354
 -1      1553    8    0    1
 -2       720       835       841      3336      3355      3353
 -1      1554    8    0    1
 -2       714       833       837      3329      3356      3340
 -1      1555    8    0    1
 -2       743       732       842      3017      3357      3358
 -1      1556    8    0    1
 -2       747       711       843      3032      3359      3360
 -1      1557    8    0    1
 -2       626       726       844      2971      3361      3362
 -1      1558    8    0    1
 -2       626       844       832      3362      3363      3325
 -1      1559    8    0    1
 -2       647       738       612      3138      3063      3364
 -1      1560    8    0    1
 -2       724       829       804      3317      3365      3333
 -1      1561    8    0    1
 -2       736       836       752      3339      3366      3060
 -1      1562    8    0    1
 -2       826       611       745      3307      3024      3367
 -1      1563    8    0    1
 -2       671       792       845      3195      3368      3369
 -1      1564    8    0    1
 -2       671       845       725      3369      3370      2968
 -1      1565    8    0    1
 -2       718       837       838      3341      3371      3342
 -1      1566    8    0    1
 -2       616       823       750      3302      3348      3054
 -1      1567    8    0    1
 -2       693       694       846      2881      3372      3373
 -1      1568    8    0    1
 -2       819       618       847      3288      3374      3375
 -1      1569    8    0    1
 -2       618       731       847      2987      3376      3374
 -1      1570    8    0    1
 -2       711       713       848      2937      3377      3378
 -1      1571    8    0    1
 -2       711       848       843      3378      3379      3359
 -1      1572    8    0    1
 -2       749       613       849      3046      3380      3381
 -1      1573    8    0    1
 -2       613       751       849      3056      3382      3380
 -1      1574    8    0    1
 -2       620       756       850      3079      3383      3384
 -1      1575    8    0    1
 -2       620       850       731      3384      3385      2988
 -1      1576    8    0    1
 -2       624       826       851      3308      3386      3387
 -1      1577    8    0    1
 -2       624       851       839      3387      3388      3344
 -1      1578    8    0    1
 -2       713       709       852      2938      3389      3390
 -1      1579    8    0    1
 -2       848       713       852      3377      3390      3391
 -1      1580    8    0    1
 -2       709       820       852      3291      3392      3389
 -1      1581    8    0    1
 -2       746       693       846      3244      3373      3393
 -1      1582    8    0    1
 -2       842       732       853      3357      3394      3395
 -1      1583    8    0    1
 -2       732       754       853      3072      3396      3394
 -1      1584    8    0    1
 -2       846       694       805      3372      3247      3397
 -1      1585    8    0    1
 -2       647       612       750      3364      3053      3139
 -1      1586    8    0    1
 -2       753       723       854      3064      3398      3399
 -1      1587    8    0    1
 -2       723       752       854      3059      3400      3398
 -1      1588    8    0    1
 -2       717       755       855      3076      3401      3402
 -1      1589    8    0    1
 -2       821       717       855      3292      3402      3403
 -1      1590    8    0    1
 -2       755       790       855      3190      3404      3401
 -1      1591    8    0    1
 -2       835       740       838      3335      3343      3405
 -1      1592    8    0    1
 -2       668       725       856      2967      3406      3407
 -1      1593    8    0    1
 -2       828       668       856      3313      3407      3408
 -1      1594    8    0    1
 -2       725       845       856      3370      3409      3406
 -1      1595    8    0    1
 -2       830       735       753      3318      3066      3410
 -1      1596    8    0    1
 -2       737       749       857      3045      3411      3412
 -1      1597    8    0    1
 -2       737       857       836      3412      3413      3338
 -1      1598    8    0    1
 -2       834       742       839      3330      3345      3414
 -1      1599    8    0    1
 -2       833       730       746      3328      3031      3415
 -1      1600    8    0    1
 -2       727       719       858      2976      3416      3417
 -1      1601    8    0    1
 -2       831       727       858      3324      3417      3418
 -1      1602    8    0    1
 -2       719       824       858      3300      3419      3416
 -1      1603    8    0    1
 -2       759       758       859      3088      3420      3421
 -1      1604    8    0    1
 -2       760       759       860      3091      3422      3423
 -1      1605    8    0    1
 -2       759       859       860      3421      3424      3422
 -1      1606    8    0    1
 -2       761       760       861      3094      3425      3426
 -1      1607    8    0    1
 -2       760       860       861      3423      3427      3425
 -1      1608    8    0    1
 -2       762       761       862      3097      3428      3429
 -1      1609    8    0    1
 -2       761       861       862      3426      3430      3428
 -1      1610    8    0    1
 -2       763       762       863      3100      3431      3432
 -1      1611    8    0    1
 -2       762       862       863      3429      3433      3431
 -1      1612    8    0    1
 -2       764       763       864      3103      3434      3435
 -1      1613    8    0    1
 -2       763       863       864      3432      3436      3434
 -1      1614    8    0    1
 -2       765       764       865      3106      3437      3438
 -1      1615    8    0    1
 -2       764       864       865      3435      3439      3437
 -1      1616    8    0    1
 -2       766       765       866      3109      3440      3441
 -1      1617    8    0    1
 -2       765       865       866      3438      3442      3440
 -1      1618    8    0    1
 -2       767       766       867      3112      3443      3444
 -1      1619    8    0    1
 -2       766       866       867      3441      3445      3443
 -1      1620    8    0    1
 -2       768       767       868      3115      3446      3447
 -1      1621    8    0    1
 -2       767       867       868      3444      3448      3446
 -1      1622    8    0    1
 -2       769       768       869      3118      3449      3450
 -1      1623    8    0    1
 -2       768       868       869      3447      3451      3449
 -1      1624    8    0    1
 -2       770       769       870      3121      3452      3453
 -1      1625    8    0    1
 -2       769       869       870      3450      3454      3452
 -1      1626    8    0    1
 -2       771       770       871      3124      3455      3456
 -1      1627    8    0    1
 -2       770       870       871      3453      3457      3455
 -1      1628    8    0    1
 -2       772       771       872      3127      3458      3459
 -1      1629    8    0    1
 -2       771       871       872      3456      3460      3458
 -1      1630    8    0    1
 -2       773       772       873      3130      3461      3462
 -1      1631    8    0    1
 -2       772       872       873      3459      3463      3461
 -1      1632    8    0    1
 -2       774       773       874      3133      3464      3465
 -1      1633    8    0    1
 -2       773       873       874      3462      3466      3464
 -1      1634    8    0    1
 -2       835       838       875      3405      3467      3468
 -1      1635    8    0    1
 -2       824       828       876      3315      3469      3470
 -1      1636    8    0    1
 -2       778       777       877      3154      3471      3472
 -1      1637    8    0    1
 -2       779       778       878      3157      3473      3474
 -1      1638    8    0    1
 -2       778       877       878      3472      3475      3473
 -1      1639    8    0    1
 -2       780       779       879      3160      3476      3477
 -1      1640    8    0    1
 -2       779       878       879      3474      3478      3476
 -1      1641    8    0    1
 -2       781       780       880      3163      3479      3480
 -1      1642    8    0    1
 -2       780       879       880      3477      3481      3479
 -1      1643    8    0    1
 -2       782       781       881      3166      3482      3483
 -1      1644    8    0    1
 -2       781       880       881      3480      3484      3482
 -1      1645    8    0    1
 -2       783       782       882      3169      3485      3486
 -1      1646    8    0    1
 -2       782       881       882      3483      3487      3485
 -1      1647    8    0    1
 -2       784       783       883      3172      3488      3489
 -1      1648    8    0    1
 -2       783       882       883      3486      3490      3488
 -1      1649    8    0    1
 -2       785       784       884      3175      3491      3492
 -1      1650    8    0    1
 -2       784       883       884      3489      3493      3491
 -1      1651    8    0    1
 -2       786       785       885      3178      3494      3495
 -1      1652    8    0    1
 -2       785       884       885      3492      3496      3494
 -1      1653    8    0    1
 -2       787       786       886      3181      3497      3498
 -1      1654    8    0    1
 -2       786       885       886      3495      3499      3497
 -1      1655    8    0    1
 -2       788       787       887      3184      3500      3501
 -1      1656    8    0    1
 -2       787       886       887      3498      3502      3500
 -1      1657    8    0    1
 -2       789       788       888      3187      3503      3504
 -1      1658    8    0    1
 -2       788       887       888      3501      3505      3503
 -1      1659    8    0    1
 -2       792       791       889      3196      3506      3507
 -1      1660    8    0    1
 -2       807       808       890      3256      3508      3509
 -1      1661    8    0    1
 -2       794       795       891      3204      3510      3511
 -1      1662    8    0    1
 -2       793       794       892      3201      3512      3513
 -1      1663    8    0    1
 -2       794       891       892      3511      3514      3512
 -1      1664    8    0    1
 -2       796       797       893      3210      3515      3516
 -1      1665    8    0    1
 -2       797       798       894      3213      3517      3518
 -1      1666    8    0    1
 -2       797       894       893      3518      3519      3515
 -1      1667    8    0    1
 -2       798       799       895      3216      3520      3521
 -1      1668    8    0    1
 -2       798       895       894      3521      3522      3517
 -1      1669    8    0    1
 -2       799       800       896      3219      3523      3524
 -1      1670    8    0    1
 -2       799       896       895      3524      3525      3520
 -1      1671    8    0    1
 -2       800       801       897      3222      3526      3527
 -1      1672    8    0    1
 -2       800       897       896      3527      3528      3523
 -1      1673    8    0    1
 -2       801       802       898      3225      3529      3530
 -1      1674    8    0    1
 -2       801       898       897      3530      3531      3526
 -1      1675    8    0    1
 -2       802       803       899      3228      3532      3533
 -1      1676    8    0    1
 -2       802       899       898      3533      3534      3529
 -1      1677    8    0    1
 -2       803       804       829      3231      3365      3535
 -1      1678    8    0    1
 -2       743       842       844      3358      3536      3537
 -1      1679    8    0    1
 -2       805       806       900      3250      3538      3539
 -1      1680    8    0    1
 -2       808       809       901      3259      3540      3541
 -1      1681    8    0    1
 -2       808       901       890      3541      3542      3508
 -1      1682    8    0    1
 -2       809       810       902      3262      3543      3544
 -1      1683    8    0    1
 -2       809       902       901      3544      3545      3540
 -1      1684    8    0    1
 -2       810       811       903      3265      3546      3547
 -1      1685    8    0    1
 -2       810       903       902      3547      3548      3543
 -1      1686    8    0    1
 -2       811       812       904      3268      3549      3550
 -1      1687    8    0    1
 -2       811       904       903      3550      3551      3546
 -1      1688    8    0    1
 -2       812       813       905      3271      3552      3553
 -1      1689    8    0    1
 -2       812       905       904      3553      3554      3549
 -1      1690    8    0    1
 -2       813       814       906      3274      3555      3556
 -1      1691    8    0    1
 -2       813       906       905      3556      3557      3552
 -1      1692    8    0    1
 -2       814       815       907      3277      3558      3559
 -1      1693    8    0    1
 -2       814       907       906      3559      3560      3555
 -1      1694    8    0    1
 -2       815       816       908      3280      3561      3562
 -1      1695    8    0    1
 -2       815       908       907      3562      3563      3558
 -1      1696    8    0    1
 -2       816       817       909      3283      3564      3565
 -1      1697    8    0    1
 -2       816       909       908      3565      3566      3561
 -1      1698    8    0    1
 -2       806       807       910      3253      3567      3568
 -1      1699    8    0    1
 -2       806       910       900      3568      3569      3538
 -1      1700    8    0    1
 -2       746       846       833      3393      3570      3415
 -1      1701    8    0    1
 -2       748       747       911      3043      3571      3572
 -1      1702    8    0    1
 -2       818       748       911      3287      3572      3573
 -1      1703    8    0    1
 -2       747       843       911      3360      3574      3571
 -1      1704    8    0    1
 -2       820       822       912      3296      3575      3576
 -1      1705    8    0    1
 -2       838       837       913      3371      3577      3578
 -1      1706    8    0    1
 -2       751       614       775      3057      3347      3579
 -1      1707    8    0    1
 -2       826       745       914      3367      3580      3581
 -1      1708    8    0    1
 -2       745       841       914      3354      3582      3580
 -1      1709    8    0    1
 -2       795       796       915      3207      3583      3584
 -1      1710    8    0    1
 -2       891       795       915      3510      3584      3585
 -1      1711    8    0    1
 -2       796       893       915      3516      3586      3583
 -1      1712    8    0    1
 -2       777       776       834      3151      3587      3588
 -1      1713    8    0    1
 -2       726       743       844      3352      3537      3361
 -1      1714    8    0    1
 -2       757       832       916      3327      3589      3590
 -1      1715    8    0    1
 -2       829       830       899      3320      3591      3592
 -1      1716    8    0    1
 -2       754       744       917      3073      3593      3594
 -1      1717    8    0    1
 -2       754       917       853      3594      3595      3396
 -1      1718    8    0    1
 -2       741       834       776      3331      3587      3596
 -1      1719    8    0    1
 -2       752       836       918      3366      3597      3598
 -1      1720    8    0    1
 -2       830       753       919      3410      3599      3600
 -1      1721    8    0    1
 -2       837       833       920      3356      3601      3602
 -1      1722    8    0    1
 -2       652       741       776      3337      3596      3147
 -1      1723    8    0    1
 -2       834       839       777      3414      3603      3588
 -1      1724    8    0    1
 -2       758       757       921      3085      3604      3605
 -1      1725    8    0    1
 -2       758       921       859      3605      3606      3420
 -1      1726    8    0    1
 -2       846       805       920      3397      3607      3608
 -1      1727    8    0    1
 -2       803       829       899      3535      3592      3532
 -1      1728    8    0    1
 -2       833       846       920      3570      3608      3601
 -1      1729    8    0    1
 -2       751       775       774      3579      3136      3609
 -1      1730    8    0    1
 -2       757       916       921      3590      3610      3604
 -1      1731    8    0    1
 -2       841       835       922      3355      3611      3612
 -1      1732    8    0    1
 -2       835       875       922      3468      3613      3611
 -1      1733    8    0    1
 -2       749       849       923      3381      3614      3615
 -1      1734    8    0    1
 -2       749       923       857      3615      3616      3411
 -1      1735    8    0    1
 -2       820       912       924      3576      3617      3618
 -1      1736    8    0    1
 -2       820       924       852      3618      3619      3392
 -1      1737    8    0    1
 -2       832       844       925      3363      3620      3621
 -1      1738    8    0    1
 -2       916       832       925      3589      3621      3622
 -1      1739    8    0    1
 -2       844       842       925      3536      3623      3620
 -1      1740    8    0    1
 -2       875       838       913      3467      3578      3624
 -1      1741    8    0    1
 -2       744       840       917      3350      3625      3593
 -1      1742    8    0    1
 -2       824       876       926      3470      3626      3627
 -1      1743    8    0    1
 -2       792       889       927      3507      3628      3629
 -1      1744    8    0    1
 -2       792       927       845      3629      3630      3368
 -1      1745    8    0    1
 -2       889       791       928      3506      3631      3632
 -1      1746    8    0    1
 -2       791       827       928      3311      3633      3631
 -1      1747    8    0    1
 -2       790       789       929      3191      3634      3635
 -1      1748    8    0    1
 -2       855       790       929      3404      3635      3636
 -1      1749    8    0    1
 -2       789       888       929      3504      3637      3634
 -1      1750    8    0    1
 -2       807       890       910      3509      3638      3567
 -1      1751    8    0    1
 -2       752       918       930      3598      3639      3640
 -1      1752    8    0    1
 -2       752       930       854      3640      3641      3400
 -1      1753    8    0    1
 -2       793       892       931      3513      3642      3643
 -1      1754    8    0    1
 -2       793       931       827      3643      3644      3312
 -1      1755    8    0    1
 -2       805       900       920      3539      3645      3607
 -1      1756    8    0    1
 -2       847       731       850      3376      3385      3646
 -1      1757    8    0    1
 -2       819       847       932      3375      3647      3648
 -1      1758    8    0    1
 -2       817       818       911      3286      3573      3649
 -1      1759    8    0    1
 -2       912       822       933      3575      3650      3651
 -1      1760    8    0    1
 -2       822       825       933      3305      3652      3650
 -1      1761    8    0    1
 -2       850       756       934      3383      3653      3654
 -1      1762    8    0    1
 -2       851       826       935      3386      3655      3656
 -1      1763    8    0    1
 -2       826       914       935      3581      3657      3655
 -1      1764    8    0    1
 -2       911       843       909      3574      3658      3659
 -1      1765    8    0    1
 -2       913       837       920      3577      3602      3660
 -1      1766    8    0    1
 -2       843       848       936      3379      3661      3662
 -1      1767    8    0    1
 -2       843       936       909      3662      3663      3658
 -1      1768    8    0    1
 -2       842       853       937      3395      3664      3665
 -1      1769    8    0    1
 -2       842       937       925      3665      3666      3623
 -1      1770    8    0    1
 -2       751       774       874      3609      3465      3667
 -1      1771    8    0    1
 -2       824       926       858      3627      3668      3419
 -1      1772    8    0    1
 -2       777       839       877      3603      3669      3471
 -1      1773    8    0    1
 -2       899       830       938      3591      3670      3671
 -1      1774    8    0    1
 -2       898       899       938      3534      3671      3672
 -1      1775    8    0    1
 -2       830       919       938      3600      3673      3670
 -1      1776    8    0    1
 -2       819       932       939      3648      3674      3675
 -1      1777    8    0    1
 -2       819       939       840      3675      3676      3351
 -1      1778    8    0    1
 -2       919       753       940      3599      3677      3678
 -1      1779    8    0    1
 -2       753       854       940      3399      3679      3677
 -1      1780    8    0    1
 -2       876       828       941      3469      3680      3681
 -1      1781    8    0    1
 -2       828       856       941      3408      3682      3680
 -1      1782    8    0    1
 -2       877       839       851      3669      3388      3683
 -1      1783    8    0    1
 -2       918       836       942      3597      3684      3685
 -1      1784    8    0    1
 -2       836       857       942      3413      3686      3684
 -1      1785    8    0    1
 -2       821       855       929      3403      3636      3687
 -1      1786    8    0    1
 -2       817       911       909      3649      3659      3564
 -1      1787    8    0    1
 -2       821       929       943      3687      3688      3689
 -1      1788    8    0    1
 -2       825       821       943      3306      3689      3690
 -1      1789    8    0    1
 -2       929       888       943      3637      3691      3688
 -1      1790    8    0    1
 -2       858       926       934      3668      3692      3693
 -1      1791    8    0    1
 -2       861       860       944      3427      3694      3695
 -1      1792    8    0    1
 -2       862       861       945      3430      3696      3697
 -1      1793    8    0    1
 -2       861       944       945      3695      3698      3696
 -1      1794    8    0    1
 -2       863       862       946      3433      3699      3700
 -1      1795    8    0    1
 -2       862       945       946      3697      3701      3699
 -1      1796    8    0    1
 -2       864       863       947      3436      3702      3703
 -1      1797    8    0    1
 -2       863       946       947      3700      3704      3702
 -1      1798    8    0    1
 -2       865       864       948      3439      3705      3706
 -1      1799    8    0    1
 -2       864       947       948      3703      3707      3705
 -1      1800    8    0    1
 -2       866       865       949      3442      3708      3709
 -1      1801    8    0    1
 -2       865       948       949      3706      3710      3708
 -1      1802    8    0    1
 -2       867       866       950      3445      3711      3712
 -1      1803    8    0    1
 -2       866       949       950      3709      3713      3711
 -1      1804    8    0    1
 -2       868       867       951      3448      3714      3715
 -1      1805    8    0    1
 -2       867       950       951      3712      3716      3714
 -1      1806    8    0    1
 -2       869       868       952      3451      3717      3718
 -1      1807    8    0    1
 -2       868       951       952      3715      3719      3717
 -1      1808    8    0    1
 -2       870       869       953      3454      3720      3721
 -1      1809    8    0    1
 -2       869       952       953      3718      3722      3720
 -1      1810    8    0    1
 -2       871       870       954      3457      3723      3724
 -1      1811    8    0    1
 -2       870       953       954      3721      3725      3723
 -1      1812    8    0    1
 -2       872       871       955      3460      3726      3727
 -1      1813    8    0    1
 -2       871       954       955      3724      3728      3726
 -1      1814    8    0    1
 -2       873       872       956      3463      3729      3730
 -1      1815    8    0    1
 -2       872       955       956      3727      3731      3729
 -1      1816    8    0    1
 -2       921       916       957      3610      3732      3733
 -1      1817    8    0    1
 -2       926       876       958      3626      3734      3735
 -1      1818    8    0    1
 -2       910       890       959      3638      3736      3737
 -1      1819    8    0    1
 -2       879       878       960      3478      3738      3739
 -1      1820    8    0    1
 -2       880       879       961      3481      3740      3741
 -1      1821    8    0    1
 -2       879       960       961      3739      3742      3740
 -1      1822    8    0    1
 -2       881       880       962      3484      3743      3744
 -1      1823    8    0    1
 -2       880       961       962      3741      3745      3743
 -1      1824    8    0    1
 -2       882       881       963      3487      3746      3747
 -1      1825    8    0    1
 -2       881       962       963      3744      3748      3746
 -1      1826    8    0    1
 -2       883       882       964      3490      3749      3750
 -1      1827    8    0    1
 -2       882       963       964      3747      3751      3749
 -1      1828    8    0    1
 -2       884       883       965      3493      3752      3753
 -1      1829    8    0    1
 -2       883       964       965      3750      3754      3752
 -1      1830    8    0    1
 -2       885       884       966      3496      3755      3756
 -1      1831    8    0    1
 -2       884       965       966      3753      3757      3755
 -1      1832    8    0    1
 -2       886       885       967      3499      3758      3759
 -1      1833    8    0    1
 -2       885       966       967      3756      3760      3758
 -1      1834    8    0    1
 -2       887       886       968      3502      3761      3762
 -1      1835    8    0    1
 -2       886       967       968      3759      3763      3761
 -1      1836    8    0    1
 -2       888       887       969      3505      3764      3765
 -1      1837    8    0    1
 -2       887       968       969      3762      3766      3764
 -1      1838    8    0    1
 -2       858       934       831      3693      3767      3418
 -1      1839    8    0    1
 -2       859       921       970      3606      3768      3769
 -1      1840    8    0    1
 -2       921       957       970      3733      3770      3768
 -1      1841    8    0    1
 -2       894       895       971      3522      3771      3772
 -1      1842    8    0    1
 -2       893       894       972      3519      3773      3774
 -1      1843    8    0    1
 -2       894       971       972      3772      3775      3773
 -1      1844    8    0    1
 -2       896       897       973      3528      3776      3777
 -1      1845    8    0    1
 -2       897       898       974      3531      3778      3779
 -1      1846    8    0    1
 -2       897       974       973      3779      3780      3776
 -1      1847    8    0    1
 -2       875       913       975      3624      3781      3782
 -1      1848    8    0    1
 -2       902       903       976      3548      3783      3784
 -1      1849    8    0    1
 -2       890       901       977      3542      3785      3786
 -1      1850    8    0    1
 -2       890       977       959      3786      3787      3736
 -1      1851    8    0    1
 -2       903       904       978      3551      3788      3789
 -1      1852    8    0    1
 -2       903       978       976      3789      3790      3783
 -1      1853    8    0    1
 -2       904       905       979      3554      3791      3792
 -1      1854    8    0    1
 -2       904       979       978      3792      3793      3788
 -1      1855    8    0    1
 -2       905       906       980      3557      3794      3795
 -1      1856    8    0    1
 -2       905       980       979      3795      3796      3791
 -1      1857    8    0    1
 -2       906       907       981      3560      3797      3798
 -1      1858    8    0    1
 -2       906       981       980      3798      3799      3794
 -1      1859    8    0    1
 -2       907       908       982      3563      3800      3801
 -1      1860    8    0    1
 -2       907       982       981      3801      3802      3797
 -1      1861    8    0    1
 -2       908       909       983      3566      3803      3804
 -1      1862    8    0    1
 -2       982       908       983      3800      3804      3805
 -1      1863    8    0    1
 -2       909       936       983      3663      3806      3803
 -1      1864    8    0    1
 -2       934       756       831      3653      3323      3767
 -1      1865    8    0    1
 -2       913       920       984      3660      3807      3808
 -1      1866    8    0    1
 -2       975       913       984      3781      3808      3809
 -1      1867    8    0    1
 -2       920       900       984      3645      3810      3807
 -1      1868    8    0    1
 -2       916       925       985      3622      3811      3812
 -1      1869    8    0    1
 -2       957       916       985      3732      3812      3813
 -1      1870    8    0    1
 -2       925       937       985      3666      3814      3811
 -1      1871    8    0    1
 -2       917       840       986      3625      3815      3816
 -1      1872    8    0    1
 -2       840       939       986      3676      3817      3815
 -1      1873    8    0    1
 -2       895       896       987      3525      3818      3819
 -1      1874    8    0    1
 -2       896       973       987      3777      3820      3818
 -1      1875    8    0    1
 -2       914       841       988      3582      3821      3822
 -1      1876    8    0    1
 -2       892       891       989      3514      3823      3824
 -1      1877    8    0    1
 -2       856       845       990      3409      3825      3826
 -1      1878    8    0    1
 -2       845       927       990      3630      3827      3825
 -1      1879    8    0    1
 -2       934       926       991      3692      3828      3829
 -1      1880    8    0    1
 -2       926       958       991      3735      3830      3828
 -1      1881    8    0    1
 -2       850       934       992      3654      3831      3832
 -1      1882    8    0    1
 -2       847       850       992      3646      3832      3833
 -1      1883    8    0    1
 -2       934       991       992      3829      3834      3831
 -1      1884    8    0    1
 -2       901       902       993      3545      3835      3836
 -1      1885    8    0    1
 -2       901       993       977      3836      3837      3785
 -1      1886    8    0    1
 -2       853       917       994      3595      3838      3839
 -1      1887    8    0    1
 -2       937       853       994      3664      3839      3840
 -1      1888    8    0    1
 -2       917       986       994      3816      3841      3838
 -1      1889    8    0    1
 -2       860       859       995      3424      3842      3843
 -1      1890    8    0    1
 -2       944       860       995      3694      3843      3844
 -1      1891    8    0    1
 -2       859       970       995      3769      3845      3842
 -1      1892    8    0    1
 -2       878       877       851      3475      3683      3846
 -1      1893    8    0    1
 -2       848       852       996      3391      3847      3848
 -1      1894    8    0    1
 -2       852       924       996      3619      3849      3847
 -1      1895    8    0    1
 -2       922       875       997      3613      3850      3851
 -1      1896    8    0    1
 -2       875       975       997      3782      3852      3850
 -1      1897    8    0    1
 -2       924       912       998      3617      3853      3854
 -1      1898    8    0    1
 -2       751       874       849      3667      3855      3382
 -1      1899    8    0    1
 -2       873       956       923      3730      3856      3857
 -1      1900    8    0    1
 -2       914       988       999      3822      3858      3859
 -1      1901    8    0    1
 -2       914       999       935      3859      3860      3657
 -1      1902    8    0    1
 -2       874       873       923      3466      3857      3861
 -1      1903    8    0    1
 -2       927       889      1000      3628      3862      3863
 -1      1904    8    0    1
 -2       847       992       932      3833      3864      3647
 -1      1905    8    0    1
 -2       910       959       984      3737      3865      3866
 -1      1906    8    0    1
 -2       928       827       931      3633      3644      3867
 -1      1907    8    0    1
 -2       888       969       943      3765      3868      3691
 -1      1908    8    0    1
 -2       930       918      1001      3639      3869      3870
 -1      1909    8    0    1
 -2       891       915      1002      3585      3871      3872
 -1      1910    8    0    1
 -2       891      1002       989      3872      3873      3823
 -1      1911    8    0    1
 -2       889       928      1003      3632      3874      3875
 -1      1912    8    0    1
 -2       889      1003      1000      3875      3876      3862
 -1      1913    8    0    1
 -2       931       892      1004      3642      3877      3878
 -1      1914    8    0    1
 -2       892       989      1004      3824      3879      3877
 -1      1915    8    0    1
 -2       971       895       987      3771      3819      3880
 -1      1916    8    0    1
 -2       939       932      1005      3674      3881      3882
 -1      1917    8    0    1
 -2       902       976       993      3784      3883      3835
 -1      1918    8    0    1
 -2       874       923       849      3861      3614      3855
 -1      1919    8    0    1
 -2       910       984       900      3866      3810      3569
 -1      1920    8    0    1
 -2       825       943       933      3690      3884      3652
 -1      1921    8    0    1
 -2       854       930       940      3641      3885      3679
 -1      1922    8    0    1
 -2       936       848       996      3661      3848      3886
 -1      1923    8    0    1
 -2       988       841       922      3821      3612      3887
 -1      1924    8    0    1
 -2       915       893      1006      3586      3888      3889
 -1      1925    8    0    1
 -2       915      1006      1002      3889      3890      3871
 -1      1926    8    0    1
 -2       974       898       938      3778      3672      3891
 -1      1927    8    0    1
 -2       856       990       941      3826      3892      3682
 -1      1928    8    0    1
 -2       958       876      1007      3734      3893      3894
 -1      1929    8    0    1
 -2       876       941      1007      3681      3895      3893
 -1      1930    8    0    1
 -2       857       923      1008      3616      3896      3897
 -1      1931    8    0    1
 -2       857      1008       942      3897      3898      3686
 -1      1932    8    0    1
 -2       918       942      1001      3685      3899      3869
 -1      1933    8    0    1
 -2       912       933      1009      3651      3900      3901
 -1      1934    8    0    1
 -2       912      1009       998      3901      3902      3853
 -1      1935    8    0    1
 -2       878       851       935      3846      3656      3903
 -1      1936    8    0    1
 -2       932       992      1010      3864      3904      3905
 -1      1937    8    0    1
 -2       992       991      1010      3834      3906      3904
 -1      1938    8    0    1
 -2      1005       932      1010      3881      3905      3907
 -1      1939    8    0    1
 -2      1006       893       972      3888      3774      3908
 -1      1940    8    0    1
 -2       878       935       960      3903      3909      3738
 -1      1941    8    0    1
 -2       946       945      1011      3701      3910      3911
 -1      1942    8    0    1
 -2       947       946      1012      3704      3912      3913
 -1      1943    8    0    1
 -2       946      1011      1012      3911      3914      3912
 -1      1944    8    0    1
 -2       948       947      1013      3707      3915      3916
 -1      1945    8    0    1
 -2       947      1012      1013      3913      3917      3915
 -1      1946    8    0    1
 -2       949       948      1014      3710      3918      3919
 -1      1947    8    0    1
 -2       948      1013      1014      3916      3920      3918
 -1      1948    8    0    1
 -2       950       949      1015      3713      3921      3922
 -1      1949    8    0    1
 -2       949      1014      1015      3919      3923      3921
 -1      1950    8    0    1
 -2       951       950      1016      3716      3924      3925
 -1      1951    8    0    1
 -2       950      1015      1016      3922      3926      3924
 -1      1952    8    0    1
 -2       952       951      1017      3719      3927      3928
 -1      1953    8    0    1
 -2       951      1016      1017      3925      3929      3927
 -1      1954    8    0    1
 -2       953       952      1018      3722      3930      3931
 -1      1955    8    0    1
 -2       952      1017      1018      3928      3932      3930
 -1      1956    8    0    1
 -2       954       953      1019      3725      3933      3934
 -1      1957    8    0    1
 -2       953      1018      1019      3931      3935      3933
 -1      1958    8    0    1
 -2       955       954      1020      3728      3936      3937
 -1      1959    8    0    1
 -2       954      1019      1020      3934      3938      3936
 -1      1960    8    0    1
 -2       956       955      1021      3731      3939      3940
 -1      1961    8    0    1
 -2       955      1020      1021      3937      3941      3939
 -1      1962    8    0    1
 -2       986       939      1022      3817      3942      3943
 -1      1963    8    0    1
 -2       939      1005      1022      3882      3944      3942
 -1      1964    8    0    1
 -2       984       959       975      3865      3945      3809
 -1      1965    8    0    1
 -2       928       931      1023      3867      3946      3947
 -1      1966    8    0    1
 -2      1003       928      1023      3874      3947      3948
 -1      1967    8    0    1
 -2       931      1004      1023      3878      3949      3946
 -1      1968    8    0    1
 -2       977       993      1024      3837      3950      3951
 -1      1969    8    0    1
 -2       962       961      1025      3745      3952      3953
 -1      1970    8    0    1
 -2       963       962      1026      3748      3954      3955
 -1      1971    8    0    1
 -2       962      1025      1026      3953      3956      3954
 -1      1972    8    0    1
 -2       964       963      1027      3751      3957      3958
 -1      1973    8    0    1
 -2       963      1026      1027      3955      3959      3957
 -1      1974    8    0    1
 -2       965       964      1028      3754      3960      3961
 -1      1975    8    0    1
 -2       964      1027      1028      3958      3962      3960
 -1      1976    8    0    1
 -2       966       965      1029      3757      3963      3964
 -1      1977    8    0    1
 -2       965      1028      1029      3961      3965      3963
 -1      1978    8    0    1
 -2       967       966      1030      3760      3966      3967
 -1      1979    8    0    1
 -2       966      1029      1030      3964      3968      3966
 -1      1980    8    0    1
 -2       968       967      1031      3763      3969      3970
 -1      1981    8    0    1
 -2       967      1030      1031      3967      3971      3969
 -1      1982    8    0    1
 -2       969       968      1032      3766      3972      3973
 -1      1983    8    0    1
 -2       968      1031      1032      3970      3974      3972
 -1      1984    8    0    1
 -2       972       971      1033      3775      3975      3976
 -1      1985    8    0    1
 -2       970       957      1034      3770      3977      3978
 -1      1986    8    0    1
 -2       960       935       999      3909      3860      3979
 -1      1987    8    0    1
 -2       924       998      1035      3854      3980      3981
 -1      1988    8    0    1
 -2       924      1035       996      3981      3982      3849
 -1      1989    8    0    1
 -2       973       974      1036      3780      3983      3984
 -1      1990    8    0    1
 -2       993       976      1037      3883      3985      3986
 -1      1991    8    0    1
 -2       993      1037      1024      3986      3987      3950
 -1      1992    8    0    1
 -2       959       977      1038      3787      3988      3989
 -1      1993    8    0    1
 -2       977      1024      1038      3951      3990      3988
 -1      1994    8    0    1
 -2       945       944      1039      3698      3991      3992
 -1      1995    8    0    1
 -2       945      1039      1011      3992      3993      3910
 -1      1996    8    0    1
 -2       979       980      1040      3796      3994      3995
 -1      1997    8    0    1
 -2       980       981      1041      3799      3996      3997
 -1      1998    8    0    1
 -2       980      1041      1040      3997      3998      3994
 -1      1999    8    0    1
 -2       981       982      1042      3802      3999      4000
 -1      2000    8    0    1
 -2       981      1042      1041      4000      4001      3996
 -1      2001    8    0    1
 -2       933       943       969      3884      3868      4002
 -1      2002    8    0    1
 -2       940       930      1043      3885      4003      4004
 -1      2003    8    0    1
 -2       927      1000      1044      3863      4005      4006
 -1      2004    8    0    1
 -2       927      1044       990      4006      4007      3827
 -1      2005    8    0    1
 -2      1006       972      1045      3908      4008      4009
 -1      2006    8    0    1
 -2       972      1033      1045      3976      4010      4008
 -1      2007    8    0    1
 -2       987       973      1046      3820      4011      4012
 -1      2008    8    0    1
 -2       973      1036      1046      3984      4013      4011
 -1      2009    8    0    1
 -2       971       987      1047      3880      4014      4015
 -1      2010    8    0    1
 -2       971      1047      1033      4015      4016      3975
 -1      2011    8    0    1
 -2       978       979      1048      3793      4017      4018
 -1      2012    8    0    1
 -2       979      1040      1048      3995      4019      4017
 -1      2013    8    0    1
 -2       938       919      1049      3673      4020      4021
 -1      2014    8    0    1
 -2       991       958      1010      3830      4022      3906
 -1      2015    8    0    1
 -2      1005      1010      1050      3907      4023      4024
 -1      2016    8    0    1
 -2       936       996      1051      3886      4025      4026
 -1      2017    8    0    1
 -2       983       936      1051      3806      4026      4027
 -1      2018    8    0    1
 -2       996      1035      1051      3982      4028      4025
 -1      2019    8    0    1
 -2       941       990      1052      3892      4029      4030
 -1      2020    8    0    1
 -2      1007       941      1052      3895      4030      4031
 -1      2021    8    0    1
 -2       990      1044      1052      4007      4032      4029
 -1      2022    8    0    1
 -2       961       960       999      3742      3979      4033
 -1      2023    8    0    1
 -2      1001       942      1053      3899      4034      4035
 -1      2024    8    0    1
 -2       919       940      1049      3678      4036      4020
 -1      2025    8    0    1
 -2       975       959      1038      3945      3989      4037
 -1      2026    8    0    1
 -2       976       978      1054      3790      4038      4039
 -1      2027    8    0    1
 -2      1037       976      1054      3985      4039      4040
 -1      2028    8    0    1
 -2       978      1048      1054      4018      4041      4038
 -1      2029    8    0    1
 -2       988       922      1055      3887      4042      4043
 -1      2030    8    0    1
 -2       922       997      1055      3851      4044      4042
 -1      2031    8    0    1
 -2       930      1001      1056      3870      4045      4046
 -1      2032    8    0    1
 -2       930      1056      1043      4046      4047      4003
 -1      2033    8    0    1
 -2       938      1049       974      4021      4048      3891
 -1      2034    8    0    1
 -2       974      1049      1036      4048      4049      3983
 -1      2035    8    0    1
 -2      1010       958      1050      4022      4050      4023
 -1      2036    8    0    1
 -2      1049       940      1043      4036      4004      4051
 -1      2037    8    0    1
 -2       923       956      1008      3856      4052      3896
 -1      2038    8    0    1
 -2       986      1022      1057      3943      4053      4054
 -1      2039    8    0    1
 -2       986      1057       994      4054      4055      3841
 -1      2040    8    0    1
 -2      1022      1005      1058      3944      4056      4057
 -1      2041    8    0    1
 -2      1025       961       999      3952      4033      4058
 -1      2042    8    0    1
 -2       987      1046      1047      4012      4059      4014
 -1      2043    8    0    1
 -2      1036      1049      1043      4049      4051      4060
 -1      2044    8    0    1
 -2       998      1009      1059      3902      4061      4062
 -1      2045    8    0    1
 -2       970      1034      1060      3978      4063      4064
 -1      2046    8    0    1
 -2       970      1060       995      4064      4065      3845
 -1      2047    8    0    1
 -2       989      1002      1061      3873      4066      4067
 -1      2048    8    0    1
 -2      1004       989      1062      3879      4068      4069
 -1      2049    8    0    1
 -2       989      1061      1062      4067      4070      4068
 -1      2050    8    0    1
 -2      1034       957      1057      3977      4071      4072
 -1      2051    8    0    1
 -2      1035       998      1063      3980      4073      4074
 -1      2052    8    0    1
 -2       998      1059      1063      4062      4075      4073
 -1      2053    8    0    1
 -2      1050       958      1007      4050      3894      4076
 -1      2054    8    0    1
 -2       985       937       994      3814      3840      4077
 -1      2055    8    0    1
 -2      1039       944      1064      3991      4078      4079
 -1      2056    8    0    1
 -2       944       995      1064      3844      4080      4078
 -1      2057    8    0    1
 -2      1044      1000      1065      4005      4081      4082
 -1      2058    8    0    1
 -2       982       983      1051      3805      4027      4083
 -1      2059    8    0    1
 -2      1000      1003      1066      3876      4084      4085
 -1      2060    8    0    1
 -2      1000      1066      1065      4085      4086      4081
 -1      2061    8    0    1
 -2       942      1008      1053      3898      4087      4034
 -1      2062    8    0    1
 -2       956      1021      1053      3940      4088      4089
 -1      2063    8    0    1
 -2      1008       956      1053      4052      4089      4087
 -1      2064    8    0    1
 -2      1002      1006      1067      3890      4090      4091
 -1      2065    8    0    1
 -2      1002      1067      1061      4091      4092      4066
 -1      2066    8    0    1
 -2       999       988      1068      3858      4093      4094
 -1      2067    8    0    1
 -2      1025       999      1068      4058      4094      4095
 -1      2068    8    0    1
 -2       988      1055      1068      4043      4096      4093
 -1      2069    8    0    1
 -2       933       969      1009      4002      4097      3900
 -1      2070    8    0    1
 -2      1005      1050      1058      4024      4098      4056
 -1      2071    8    0    1
 -2       982      1051      1042      4083      4099      3999
 -1      2072    8    0    1
 -2      1067      1006      1045      4090      4009      4100
 -1      2073    8    0    1
 -2      1057      1022      1069      4053      4101      4102
 -1      2074    8    0    1
 -2      1022      1058      1069      4057      4103      4101
 -1      2075    8    0    1
 -2      1042      1051      1035      4099      4028      4104
 -1      2076    8    0    1
 -2      1013      1012      1070      3917      4105      4106
 -1      2077    8    0    1
 -2      1014      1013      1071      3920      4107      4108
 -1      2078    8    0    1
 -2      1013      1070      1071      4106      4109      4107
 -1      2079    8    0    1
 -2      1015      1014      1072      3923      4110      4111
 -1      2080    8    0    1
 -2      1014      1071      1072      4108      4112      4110
 -1      2081    8    0    1
 -2      1016      1015      1073      3926      4113      4114
 -1      2082    8    0    1
 -2      1015      1072      1073      4111      4115      4113
 -1      2083    8    0    1
 -2      1017      1016      1074      3929      4116      4117
 -1      2084    8    0    1
 -2      1016      1073      1074      4114      4118      4116
 -1      2085    8    0    1
 -2      1018      1017      1075      3932      4119      4120
 -1      2086    8    0    1
 -2      1017      1074      1075      4117      4121      4119
 -1      2087    8    0    1
 -2      1019      1018      1076      3935      4122      4123
 -1      2088    8    0    1
 -2      1018      1075      1076      4120      4124      4122
 -1      2089    8    0    1
 -2      1020      1019      1077      3938      4125      4126
 -1      2090    8    0    1
 -2      1019      1076      1077      4123      4127      4125
 -1      2091    8    0    1
 -2      1026      1025      1078      3956      4128      4129
 -1      2092    8    0    1
 -2      1025      1068      1078      4095      4130      4128
 -1      2093    8    0    1
 -2      1011      1039      1079      3993      4131      4132
 -1      2094    8    0    1
 -2      1059      1009      1032      4061      4133      4134
 -1      2095    8    0    1
 -2       969      1032      1009      3973      4133      4097
 -1      2096    8    0    1
 -2      1027      1026      1080      3959      4135      4136
 -1      2097    8    0    1
 -2      1026      1078      1080      4129      4137      4135
 -1      2098    8    0    1
 -2      1028      1027      1081      3962      4138      4139
 -1      2099    8    0    1
 -2      1027      1080      1081      4136      4140      4138
 -1      2100    8    0    1
 -2      1029      1028      1082      3965      4141      4142
 -1      2101    8    0    1
 -2      1028      1081      1082      4139      4143      4141
 -1      2102    8    0    1
 -2      1030      1029      1083      3968      4144      4145
 -1      2103    8    0    1
 -2      1029      1082      1083      4142      4146      4144
 -1      2104    8    0    1
 -2      1031      1030      1084      3971      4147      4148
 -1      2105    8    0    1
 -2      1030      1083      1084      4145      4149      4147
 -1      2106    8    0    1
 -2      1032      1031      1085      3974      4150      4151
 -1      2107    8    0    1
 -2      1059      1032      1085      4134      4151      4152
 -1      2108    8    0    1
 -2      1031      1084      1085      4148      4153      4150
 -1      2109    8    0    1
 -2      1001      1053      1086      4035      4154      4155
 -1      2110    8    0    1
 -2      1057       957       994      4071      4156      4055
 -1      2111    8    0    1
 -2      1024      1037      1087      3987      4157      4158
 -1      2112    8    0    1
 -2      1038      1024      1088      3990      4159      4160
 -1      2113    8    0    1
 -2      1024      1087      1088      4158      4161      4159
 -1      2114    8    0    1
 -2      1061      1067      1089      4092      4162      4163
 -1      2115    8    0    1
 -2      1041      1042      1090      4001      4164      4165
 -1      2116    8    0    1
 -2      1040      1041      1091      3998      4166      4167
 -1      2117    8    0    1
 -2      1041      1090      1091      4165      4168      4166
 -1      2118    8    0    1
 -2      1067      1045      1092      4100      4169      4170
 -1      2119    8    0    1
 -2      1067      1092      1089      4170      4171      4162
 -1      2120    8    0    1
 -2      1047      1046      1093      4059      4172      4173
 -1      2121    8    0    1
 -2      1045      1033      1094      4010      4174      4175
 -1      2122    8    0    1
 -2      1045      1094      1092      4175      4176      4169
 -1      2123    8    0    1
 -2      1046      1036      1095      4013      4177      4178
 -1      2124    8    0    1
 -2      1046      1095      1093      4178      4179      4172
 -1      2125    8    0    1
 -2      1044      1065      1096      4082      4180      4181
 -1      2126    8    0    1
 -2      1044      1096      1052      4181      4182      4032
 -1      2127    8    0    1
 -2      1034      1057      1069      4072      4102      4183
 -1      2128    8    0    1
 -2      1036      1043      1095      4060      4184      4177
 -1      2129    8    0    1
 -2      1012      1011      1097      3914      4185      4186
 -1      2130    8    0    1
 -2      1011      1079      1097      4132      4187      4185
 -1      2131    8    0    1
 -2      1048      1040      1098      4019      4188      4189
 -1      2132    8    0    1
 -2      1040      1091      1098      4167      4190      4188
 -1      2133    8    0    1
 -2       975      1038       997      4037      4191      3852
 -1      2134    8    0    1
 -2      1050      1007      1099      4076      4192      4193
 -1      2135    8    0    1
 -2      1007      1052      1099      4031      4194      4192
 -1      2136    8    0    1
 -2      1043      1056      1095      4047      4195      4184
 -1      2137    8    0    1
 -2      1053      1021      1086      4088      4196      4154
 -1      2138    8    0    1
 -2      1058      1050      1099      4098      4193      4197
 -1      2139    8    0    1
 -2      1033      1047      1100      4016      4198      4199
 -1      2140    8    0    1
 -2      1047      1093      1100      4173      4200      4198
 -1      2141    8    0    1
 -2      1056      1001      1086      4045      4155      4201
 -1      2142    8    0    1
 -2      1056      1086      1101      4201      4202      4203
 -1      2143    8    0    1
 -2       997      1038      1088      4191      4160      4204
 -1      2144    8    0    1
 -2      1086      1021      1020      4196      3941      4205
 -1      2145    8    0    1
 -2      1095      1056      1101      4195      4203      4206
 -1      2146    8    0    1
 -2      1070      1012      1097      4105      4186      4207
 -1      2147    8    0    1
 -2      1020      1077      1101      4126      4208      4209
 -1      2148    8    0    1
 -2      1079      1039      1102      4131      4210      4211
 -1      2149    8    0    1
 -2      1039      1064      1102      4079      4212      4210
 -1      2150    8    0    1
 -2      1058      1099      1103      4197      4213      4214
 -1      2151    8    0    1
 -2      1055       997      1088      4044      4204      4215
 -1      2152    8    0    1
 -2      1023      1004      1104      3949      4216      4217
 -1      2153    8    0    1
 -2      1004      1062      1104      4069      4218      4216
 -1      2154    8    0    1
 -2      1062      1061      1105      4070      4219      4220
 -1      2155    8    0    1
 -2      1061      1089      1105      4163      4221      4219
 -1      2156    8    0    1
 -2      1060      1034      1069      4063      4183      4222
 -1      2157    8    0    1
 -2      1003      1023      1106      3948      4223      4224
 -1      2158    8    0    1
 -2      1066      1003      1106      4084      4224      4225
 -1      2159    8    0    1
 -2      1023      1104      1106      4217      4226      4223
 -1      2160    8    0    1
 -2       995      1060      1064      4065      4227      4080
 -1      2161    8    0    1
 -2      1090      1042      1063      4164      4228      4229
 -1      2162    8    0    1
 -2      1048      1098      1107      4189      4230      4231
 -1      2163    8    0    1
 -2      1048      1107      1054      4231      4232      4041
 -1      2164    8    0    1
 -2      1037      1054      1108      4040      4233      4234
 -1      2165    8    0    1
 -2      1087      1037      1108      4157      4234      4235
 -1      2166    8    0    1
 -2      1054      1107      1108      4232      4236      4233
 -1      2167    8    0    1
 -2      1035      1063      1042      4074      4228      4104
 -1      2168    8    0    1
 -2      1086      1020      1101      4205      4209      4202
 -1      2169    8    0    1
 -2      1096      1065      1109      4180      4237      4238
 -1      2170    8    0    1
 -2      1058      1103      1069      4214      4239      4103
 -1      2171    8    0    1
 -2      1065      1066      1110      4086      4240      4241
 -1      2172    8    0    1
 -2      1065      1110      1109      4241      4242      4237
 -1      2173    8    0    1
 -2      1059      1085      1063      4152      4243      4075
 -1      2174    8    0    1
 -2      1068      1055      1111      4096      4244      4245
 -1      2175    8    0    1
 -2      1078      1068      1111      4130      4245      4246
 -1      2176    8    0    1
 -2      1055      1088      1111      4215      4247      4244
 -1      2177    8    0    1
 -2      1033      1100      1094      4199      4248      4174
 -1      2178    8    0    1
 -2      1071      1070      1112      4109      4249      4250
 -1      2179    8    0    1
 -2      1101      1077      1113      4208      4251      4252
 -1      2180    8    0    1
 -2      1072      1071      1105      4112      4253      4254
 -1      2181    8    0    1
 -2      1073      1072      1089      4115      4255      4256
 -1      2182    8    0    1
 -2      1074      1073      1092      4118      4257      4258
 -1      2183    8    0    1
 -2      1075      1074      1094      4121      4259      4260
 -1      2184    8    0    1
 -2      1076      1075      1100      4124      4261      4262
 -1      2185    8    0    1
 -2      1077      1076      1113      4127      4263      4251
 -1      2186    8    0    1
 -2      1094      1100      1075      4248      4261      4260
 -1      2187    8    0    1
 -2      1091      1090      1114      4168      4264      4265
 -1      2188    8    0    1
 -2      1081      1080      1115      4140      4266      4267
 -1      2189    8    0    1
 -2      1082      1081      1107      4143      4268      4269
 -1      2190    8    0    1
 -2      1083      1082      1098      4146      4270      4271
 -1      2191    8    0    1
 -2      1085      1084      1114      4153      4272      4273
 -1      2192    8    0    1
 -2      1088      1087      1111      4161      4274      4247
 -1      2193    8    0    1
 -2      1070      1097      1116      4207      4275      4276
 -1      2194    8    0    1
 -2      1070      1116      1112      4276      4277      4249
 -1      2195    8    0    1
 -2      1092      1073      1089      4257      4256      4171
 -1      2196    8    0    1
 -2      1090      1063      1114      4229      4278      4264
 -1      2197    8    0    1
 -2      1064      1060      1117      4227      4279      4280
 -1      2198    8    0    1
 -2      1064      1117      1102      4280      4281      4212
 -1      2199    8    0    1
 -2      1052      1096      1099      4182      4282      4194
 -1      2200    8    0    1
 -2      1080      1078      1118      4137      4283      4284
 -1      2201    8    0    1
 -2      1115      1080      1118      4266      4284      4285
 -1      2202    8    0    1
 -2      1078      1111      1118      4246      4286      4283
 -1      2203    8    0    1
 -2      1092      1094      1074      4176      4259      4258
 -1      2204    8    0    1
 -2      1063      1085      1114      4243      4273      4278
 -1      2205    8    0    1
 -2      1097      1079      1119      4187      4287      4288
 -1      2206    8    0    1
 -2      1097      1119      1116      4288      4289      4275
 -1      2207    8    0    1
 -2      1098      1091      1083      4190      4290      4271
 -1      2208    8    0    1
 -2      1089      1072      1105      4255      4254      4221
 -1      2209    8    0    1
 -2      1060      1069      1117      4222      4291      4279
 -1      2210    8    0    1
 -2      1096      1109      1103      4238      4292      4293
 -1      2211    8    0    1
 -2      1099      1096      1103      4282      4293      4213
 -1      2212    8    0    1
 -2      1098      1082      1107      4270      4269      4230
 -1      2213    8    0    1
 -2      1079      1102      1110      4211      4294      4295
 -1      2214    8    0    1
 -2      1095      1101      1113      4206      4252      4296
 -1      2215    8    0    1
 -2      1104      1062      1112      4218      4297      4298
 -1      2216    8    0    1
 -2      1117      1069      1103      4291      4239      4299
 -1      2217    8    0    1
 -2      1119      1079      1110      4287      4295      4300
 -1      2218    8    0    1
 -2      1084      1083      1091      4149      4290      4301
 -1      2219    8    0    1
 -2      1111      1087      1118      4274      4302      4286
 -1      2220    8    0    1
 -2      1118      1087      1115      4302      4303      4285
 -1      2221    8    0    1
 -2       994       957       985      4156      3813      4077
 -1      2222    8    0    1
 -2      1062      1105      1112      4220      4304      4297
 -1      2223    8    0    1
 -2      1093      1095      1113      4179      4296      4305
 -1      2224    8    0    1
 -2      1115      1087      1108      4303      4235      4306
 -1      2225    8    0    1
 -2      1117      1103      1109      4299      4292      4307
 -1      2226    8    0    1
 -2      1110      1066      1120      4240      4308      4309
 -1      2227    8    0    1
 -2      1119      1110      1120      4300      4309      4310
 -1      2228    8    0    1
 -2      1066      1106      1120      4225      4311      4308
 -1      2229    8    0    1
 -2      1109      1110      1102      4242      4294      4312
 -1      2230    8    0    1
 -2      1100      1093      1113      4200      4305      4313
 -1      2231    8    0    1
 -2      1117      1109      1102      4307      4312      4281
 -1      2232    8    0    1
 -2      1105      1071      1112      4253      4250      4304
 -1      2233    8    0    1
 -2      1100      1113      1076      4313      4263      4262
 -1      2234    8    0    1
 -2      1104      1112      1116      4298      4277      4314
 -1      2235    8    0    1
 -2      1104      1116      1106      4314      4315      4226
 -1      2236    8    0    1
 -2      1107      1081      1108      4268      4316      4236
 -1      2237    8    0    1
 -2      1116      1119      1120      4289      4310      4317
 -1      2238    8    0    1
 -2      1084      1091      1114      4301      4265      4272
 -1      2239    8    0    1
 -2      1108      1081      1115      4316      4267      4306
 -1      2240    8    0    1
 -2      1106      1116      1120      4315      4317      4311
 -3
    1PSTEP                         1           1           1          
  100CL  101 1.000000000        4317                     0    1           1
 -4  DISP        4    1
 -5  D1          1    2    1    0
 -5  D2          1    2    2    0
 -5  D3          1    2    3    0
 -5  ALL         1    2    0    0    1ALL
 -1         1 8.51731E-03-8.49032E-04-4.23818E-14
 -1         2 1.06392E-02-7.57544E-06-4.94277E-14
 -1         3 1.51746E-02 6.70035E-04-1.24587E-13
 -1         4 1.51986E-02-7.28385E-04-1.22299E-13
 -1         5 0.00000E+00 0.00000E+00 0.00000E+00
 -1         6 0.00000E+00 0.00000E+00 0.00000E+00
 -1         7 0.00000E+00 0.00000E+00 0.00000E+00
 -1         8 0.00000E+00 0.00000E+00 0.00000E+00
 -1         9 0.00000E+00 0.00000E+00 0.00000E+00
 -1        10 0.00000E+00 0.00000E+00 0.00000E+00
 -1        11 0.00000E+00 0.00000E+00 0.00000E+00
 -1        12 0.00000E+00 0.00000E+00 0.00000E+00
 -1        13 0.00000E+00 0.00000E+00 0.00000E+00
 -1        14 0.00000E+00 0.00000E+00 0.00000E+00
 -1        15 0.00000E+00 0.00000E+00 0.00000E+00
 -1        16 0.00000E+00 0.00000E+00 0.00000E+00
 -1        17 0.00000E+00 0.00000E+00 0.00000E+00
 -1        18 0.00000E+00 0.00000E+00 0.00000E+00
 -1        19 0.00000E+00 0.00000E+00 0.00000E+00
 -1        20 0.00000E+00 0.00000E+00 0.00000E+00
 -1        21 0.00000E+00 0.00000E+00 0.00000E+00
 -1        22 0.00000E+00 0.00000E+00 0.00000E+00
 -1        23 4.10546E-04-2.60214E-04 4.87518E-17
 -1        24 7.01870E-04-3.99862E-04-2.69018E-17
 -1        25 9.71330E-04-4.96406E-04-2.25809E-16
 -1        26 1.23526E-03-5.64026E-04-5.47888E-16
 -1        27 1.49831E-03-6.11800E-04-9.91117E-16
 -1        28 1.76264E-03-6.45039E-04-1.55565E-15
 -1        29 2.02929E-03-6.67373E-04-2.23978E-15
 -1        30 2.29876E-03-6.81417E-04-3.04280E-15
 -1        31 2.57131E-03-6.89115E-04-3.96401E-15
 -1        32 2.84709E-03-6.91938E-04-5.00055E-15
 -1        33 3.12623E-03-6.91028E-04-6.14789E-15
 -1        34 3.40895E-03-6.87309E-04-7.40207E-15
 -1        35 3.69561E-03-6.81593E-04-8.76430E-15
 -1        36 3.98674E-03-6.74691E-04-1.02306E-14
 -1        37 4.28308E-03-6.67534E-04-1.17963E-14
 -1        38 4.58556E-03-6.61310E-04-1.34592E-14
 -1        39 4.89530E-03-6.57620E-04-1.52179E-14
 -1        40 5.21344E-03-6.58636E-04-1.70755E-14
 -1        41 5.54097E-03-6.67239E-04-1.90294E-14
 -1        42 5.87827E-03-6.87048E-04-2.10798E-14
 -1        43 6.22456E-03-7.22198E-04-2.32257E-14
 -1        44 6.57706E-03-7.76628E-04-2.54673E-14
 -1        45 6.93029E-03-8.52614E-04-2.78113E-14
 -1        46 7.27590E-03-9.48444E-04-3.02516E-14
 -1        47 7.60415E-03-1.05582E-03-3.27846E-14
 -1        48 7.90726E-03-1.15862E-03-3.54048E-14
 -1        49 8.18419E-03-1.23541E-03-3.81148E-14
 -1        50 8.44359E-03-1.26668E-03-4.09215E-14
 -1        51 8.70178E-03-1.24374E-03-4.38268E-14
 -1        52 8.97559E-03-1.17329E-03-4.68329E-14
 -1        53 9.27501E-03-1.07383E-03-4.99292E-14
 -1        54 9.60021E-03-9.67042E-04-5.31158E-14
 -1        55 9.94409E-03-8.70013E-04-5.63917E-14
 -1        56 1.02969E-02-7.92072E-04-5.97492E-14
 -1        57 1.06500E-02-7.35665E-04-6.31956E-14
 -1        58 1.09977E-02-6.98896E-04-6.67228E-14
 -1        59 1.13367E-02-6.77943E-04-7.03298E-14
 -1        60 1.16662E-02-6.68654E-04-7.40061E-14
 -1        61 1.19866E-02-6.67344E-04-7.77409E-14
 -1        62 1.22989E-02-6.71081E-04-8.15396E-14
 -1        63 1.26043E-02-6.77687E-04-8.54136E-14
 -1        64 1.29042E-02-6.85624E-04-8.93544E-14
 -1        65 1.31998E-02-6.93855E-04-9.33577E-14
 -1        66 1.34919E-02-7.01706E-04-9.74124E-14
 -1        67 1.37816E-02-7.08761E-04-1.01506E-13
 -1        68 1.40694E-02-7.14782E-04-1.05646E-13
 -1        69 1.43559E-02-7.19656E-04-1.09825E-13
 -1        70 1.46417E-02-7.23390E-04-1.14025E-13
 -1        71 1.49273E-02-7.26172E-04-1.18256E-13
 -1        72 4.12990E-04 2.60915E-04 4.31750E-17
 -1        73 7.01695E-04 4.02564E-04-4.53569E-17
 -1        74 9.71867E-04 4.98176E-04-2.59395E-16
 -1        75 1.23609E-03 5.65734E-04-5.99103E-16
 -1        76 1.49927E-03 6.13556E-04-1.06449E-15
 -1        77 1.76367E-03 6.46887E-04-1.65383E-15
 -1        78 2.03035E-03 6.69334E-04-2.36522E-15
 -1        79 2.29985E-03 6.83503E-04-3.19347E-15
 -1        80 2.57243E-03 6.91334E-04-4.13891E-15
 -1        81 2.84821E-03 6.94298E-04-5.20069E-15
 -1        82 3.12736E-03 6.93536E-04-6.37483E-15
 -1        83 3.41009E-03 6.89974E-04-7.65258E-15
 -1        84 3.69674E-03 6.84428E-04-9.03535E-15
 -1        85 3.98785E-03 6.77711E-04-1.05288E-14
 -1        86 4.28413E-03 6.70759E-04-1.21366E-14
 -1        87 4.58652E-03 6.64761E-04-1.38632E-14
 -1        88 4.89608E-03 6.61315E-04-1.56953E-14
 -1        89 5.21392E-03 6.62579E-04-1.76294E-14
 -1        90 5.54096E-03 6.71397E-04-1.96647E-14
 -1        91 5.87751E-03 6.91316E-04-2.17914E-14
 -1        92 6.22271E-03 7.26351E-04-2.40154E-14
 -1        93 6.57372E-03 7.80260E-04-2.63349E-14
 -1        94 6.92511E-03 8.55096E-04-2.87569E-14
 -1        95 7.26871E-03 9.48958E-04-3.12708E-14
 -1        96 7.59510E-03 1.05354E-03-3.38790E-14
 -1        97 7.89686E-03 1.15307E-03-3.65833E-14
 -1        98 8.17309E-03 1.22680E-03-3.93812E-14
 -1        99 8.43226E-03 1.25599E-03-4.22749E-14
 -1       100 8.69019E-03 1.23233E-03-4.52727E-14
 -1       101 8.96327E-03 1.16219E-03-4.83643E-14
 -1       102 9.26130E-03 1.06332E-03-5.15532E-14
 -1       103 9.58464E-03 9.56646E-04-5.48349E-14
 -1       104 9.92651E-03 8.58883E-04-5.81919E-14
 -1       105 1.02775E-02 7.79369E-04-6.16349E-14
 -1       106 1.06291E-02 7.20745E-04-6.51718E-14
 -1       107 1.09756E-02 6.81347E-04-6.87939E-14
 -1       108 1.13139E-02 6.57537E-04-7.24929E-14
 -1       109 1.16429E-02 6.45287E-04-7.62625E-14
 -1       110 1.19630E-02 6.40984E-04-8.01008E-14
 -1       111 1.22750E-02 6.41730E-04-8.40136E-14
 -1       112 1.25804E-02 6.45363E-04-8.79895E-14
 -1       113 1.28802E-02 6.50349E-04-9.20085E-14
 -1       114 1.31757E-02 6.55646E-04-9.60427E-14
 -1       115 1.34679E-02 6.60579E-04-1.00093E-13
 -1       116 1.37575E-02 6.64727E-04-1.04165E-13
 -1       117 1.40453E-02 6.67849E-04-1.08257E-13
 -1       118 1.43319E-02 6.69829E-04-1.12389E-13
 -1       119 1.46177E-02 6.70675E-04-1.16533E-13
 -1       120 1.49032E-02 6.70566E-04-1.20668E-13
 -1       121 1.51752E-02 5.85660E-04-1.24479E-13
 -1       122 1.51762E-02 5.01220E-04-1.24377E-13
 -1       123 1.51781E-02 4.17076E-04-1.24275E-13
 -1       124 1.51807E-02 3.33624E-04-1.24166E-13
 -1       125 1.51839E-02 2.51105E-04-1.24049E-13
 -1       126 1.51871E-02 1.70943E-04-1.23961E-13
 -1       127 1.51900E-02 9.02413E-05-1.23866E-13
 -1       128 1.51922E-02 1.01123E-05-1.23773E-13
 -1       129 1.51936E-02-6.98170E-05-1.23668E-13
 -1       130 1.51942E-02-1.49952E-04-1.23528E-13
 -1       131 1.51941E-02-2.30665E-04-1.23392E-13
 -1       132 1.51937E-02-3.10843E-04-1.23264E-13
 -1       133 1.51934E-02-3.93378E-04-1.23111E-13
 -1       134 1.51936E-02-4.76844E-04-1.22936E-13
 -1       135 1.51946E-02-5.61010E-04-1.22758E-13
 -1       136 1.51964E-02-6.45430E-04-1.22534E-13
 -1       137 1.05919E-02 1.59953E-04-4.93167E-14
 -1       138 1.04566E-02 3.18880E-04-4.89176E-14
 -1       139 1.02274E-02 4.72186E-04-4.82041E-14
 -1       140 9.91858E-03 6.06852E-04-4.72212E-14
 -1       141 9.56954E-03 7.08911E-04-4.61139E-14
 -1       142 9.12599E-03 7.91324E-04-4.47072E-14
 -1       143 8.67786E-03 8.30319E-04-4.33124E-14
 -1       144 8.18757E-03 8.28848E-04-4.17940E-14
 -1       145 7.71213E-03 7.82166E-04-4.03332E-14
 -1       146 7.29701E-03 7.00960E-04-3.90696E-14
 -1       147 6.94943E-03 5.94381E-04-3.80162E-14
 -1       148 6.62544E-03 4.43723E-04-3.70297E-14
 -1       149 6.42371E-03 2.95112E-04-3.64071E-14
 -1       150 6.29856E-03 1.22047E-04-3.60064E-14
 -1       151 6.27668E-03-5.77041E-05-3.59073E-14
 -1       152 6.35121E-03-2.22827E-04-3.60843E-14
 -1       153 6.52824E-03-3.90004E-04-3.65523E-14
 -1       154 6.81447E-03-5.49121E-04-3.73422E-14
 -1       155 7.16824E-03-6.77369E-04-3.83497E-14
 -1       156 7.55943E-03-7.68751E-04-3.94846E-14
 -1       157 8.05219E-03-8.33675E-04-4.09651E-14
 -1       158 9.00194E-03-8.20883E-04-4.38923E-14
 -1       159 9.44923E-03-7.52017E-04-4.53187E-14
 -1       160 9.86284E-03-6.42210E-04-4.66810E-14
 -1       161 1.01953E-02-5.05808E-04-4.78054E-14
 -1       162 1.04361E-02-3.52762E-04-4.86473E-14
 -1       163 1.05907E-02-1.79689E-04-4.92162E-14
 -1       164 2.40149E-04-1.25273E-04-1.53821E-17
 -1       165 2.25188E-04-9.43920E-05-3.52400E-17
 -1       166 2.19548E-04-7.25525E-05-4.68579E-17
 -1       167 2.16830E-04-5.48849E-05-5.38476E-17
 -1       168 2.15386E-04-3.97726E-05-5.77676E-17
 -1       169 2.14580E-04-2.57710E-05-6.02749E-17
 -1       170 2.14176E-04-1.25671E-05-6.17318E-17
 -1       171 2.14058E-04 2.71800E-07-6.25957E-17
 -1       172 2.14195E-04 1.31230E-05-6.24399E-17
 -1       173 2.14621E-04 2.63669E-05-6.17487E-17
 -1       174 2.15435E-04 4.01999E-05-6.00750E-17
 -1       175 2.16932E-04 5.56946E-05-5.67749E-17
 -1       176 2.19705E-04 7.35900E-05-5.06932E-17
 -1       177 2.25356E-04 9.57896E-05-3.98478E-17
 -1       178 2.39076E-04 1.27346E-04-2.01831E-17
 -1       179 2.97225E-04 1.85143E-04 2.84603E-19
 -1       180 4.67912E-04-2.62899E-04-4.45980E-17
 -1       181 7.65631E-04-3.80768E-04-2.10223E-16
 -1       182 1.04913E-03-4.62661E-04-4.92800E-16
 -1       183 1.32626E-03-5.20115E-04-8.93555E-16
 -1       184 1.60074E-03-5.60073E-04-1.41235E-15
 -1       185 1.87473E-03-5.87139E-04-2.04914E-15
 -1       186 2.14946E-03-6.04523E-04-2.80281E-15
 -1       187 2.42568E-03-6.14555E-04-3.67317E-15
 -1       188 2.70385E-03-6.18960E-04-4.65782E-15
 -1       189 2.98432E-03-6.19041E-04-5.75438E-15
 -1       190 3.26738E-03-6.15805E-04-6.95896E-15
 -1       191 3.55338E-03-6.10082E-04-8.27037E-15
 -1       192 3.84271E-03-6.02632E-04-9.68857E-15
 -1       193 4.13591E-03-5.94268E-04-1.12076E-14
 -1       194 4.43360E-03-5.85990E-04-1.28257E-14
 -1       195 4.73652E-03-5.79134E-04-1.45404E-14
 -1       196 5.04545E-03-5.75557E-04-1.63521E-14
 -1       197 5.36111E-03-5.77805E-04-1.82602E-14
 -1       198 5.68397E-03-5.89245E-04-2.02652E-14
 -1       199 6.01395E-03-6.14039E-04-2.23647E-14
 -1       200 6.35009E-03-6.56753E-04-2.45598E-14
 -1       201 6.69006E-03-7.21307E-04-2.68514E-14
 -1       202 7.02996E-03-8.08975E-04-2.92434E-14
 -1       203 7.36450E-03-9.15499E-04-3.17277E-14
 -1       204 7.68821E-03-1.02839E-03-3.43021E-14
 -1       205 7.99782E-03-1.12686E-03-3.69687E-14
 -1       206 8.29485E-03-1.18692E-03-3.97303E-14
 -1       207 8.58636E-03-1.19152E-03-4.25919E-14
 -1       208 8.88213E-03-1.13942E-03-4.55479E-14
 -1       209 9.18982E-03-1.04594E-03-4.86039E-14
 -1       210 9.51176E-03-9.34720E-04-5.17491E-14
 -1       211 9.84518E-03-8.27440E-04-5.49850E-14
 -1       212 1.01848E-02-7.37788E-04-5.83049E-14
 -1       213 1.05252E-02-6.70982E-04-6.17108E-14
 -1       214 1.08622E-02-6.26303E-04-6.52013E-14
 -1       215 1.11935E-02-6.00040E-04-6.87716E-14
 -1       216 1.15179E-02-5.87636E-04-7.24123E-14
 -1       217 1.18354E-02-5.84853E-04-7.61184E-14
 -1       218 1.21463E-02-5.88242E-04-7.98886E-14
 -1       219 1.24515E-02-5.95209E-04-8.37247E-14
 -1       220 1.27520E-02-6.03915E-04-8.76317E-14
 -1       221 1.30484E-02-6.13118E-04-9.16005E-14
 -1       222 1.33418E-02-6.22012E-04-9.56256E-14
 -1       223 1.36327E-02-6.30103E-04-9.96941E-14
 -1       224 1.39217E-02-6.37104E-04-1.03801E-13
 -1       225 1.42094E-02-6.42869E-04-1.07953E-13
 -1       226 1.44961E-02-6.47360E-04-1.12136E-13
 -1       227 1.47823E-02-6.50672E-04-1.16348E-13
 -1       228 6.03592E-04 3.30097E-04-1.04385E-16
 -1       229 8.92255E-04 4.30891E-04-3.27148E-16
 -1       230 1.17079E-03 5.01523E-04-6.70847E-16
 -1       231 1.44489E-03 5.51134E-04-1.13619E-15
 -1       232 1.71762E-03 5.85467E-04-1.72261E-15
 -1       233 1.99070E-03 6.08415E-04-2.42931E-15
 -1       234 2.26508E-03 6.22756E-04-3.25354E-15
 -1       235 2.54136E-03 6.30533E-04-4.19347E-15
 -1       236 2.81990E-03 6.33276E-04-5.24694E-15
 -1       237 3.10100E-03 6.32151E-04-6.40998E-15
 -1       238 3.38496E-03 6.28084E-04-7.68071E-15
 -1       239 3.67215E-03 6.21869E-04-9.05672E-15
 -1       240 3.96301E-03 6.14282E-04-1.05424E-14
 -1       241 4.25813E-03 6.06206E-04-1.21398E-14
 -1       242 4.55821E-03 5.98765E-04-1.38515E-14
 -1       243 4.86403E-03 5.93492E-04-1.56692E-14
 -1       244 5.17637E-03 5.92494E-04-1.75879E-14
 -1       245 5.49586E-03 5.98607E-04-1.96075E-14
 -1       246 5.82271E-03 6.15462E-04-2.17214E-14
 -1       247 6.15638E-03 6.47317E-04-2.39313E-14
 -1       248 6.49514E-03 6.98417E-04-2.62366E-14
 -1       249 6.83568E-03 7.71587E-04-2.86415E-14
 -1       250 7.17306E-03 8.65892E-04-3.11397E-14
 -1       251 7.50149E-03 9.73824E-04-3.37311E-14
 -1       252 7.81607E-03 1.07959E-03-3.64210E-14
 -1       253 8.11558E-03 1.16107E-03-3.92073E-14
 -1       254 8.40433E-03 1.19702E-03-4.20896E-14
 -1       255 8.69143E-03 1.17688E-03-4.50729E-14
 -1       256 8.98675E-03 1.10632E-03-4.81517E-14
 -1       257 9.29643E-03 1.00418E-03-5.13268E-14
 -1       258 9.62089E-03 8.93235E-04-5.45906E-14
 -1       259 9.95611E-03 7.91706E-04-5.79364E-14
 -1       260 1.02964E-02 7.09654E-04-6.13687E-14
 -1       261 1.06363E-02 6.49805E-04-6.48916E-14
 -1       262 1.09722E-02 6.10235E-04-6.84967E-14
 -1       263 1.13017E-02 5.86961E-04-7.21789E-14
 -1       264 1.16243E-02 5.75640E-04-7.59297E-14
 -1       265 1.19398E-02 5.72430E-04-7.97542E-14
 -1       266 1.22489E-02 5.74283E-04-8.36519E-14
 -1       267 1.25525E-02 5.78947E-04-8.76096E-14
 -1       268 1.28516E-02 5.84847E-04-9.16138E-14
 -1       269 1.31469E-02 5.90927E-04-9.56419E-14
 -1       270 1.34392E-02 5.96514E-04-9.96859E-14
 -1       271 1.37293E-02 6.01197E-04-1.03747E-13
 -1       272 1.40178E-02 6.04746E-04-1.07832E-13
 -1       273 1.43049E-02 6.07054E-04-1.11950E-13
 -1       274 1.45913E-02 6.08126E-04-1.16079E-13
 -1       275 1.48773E-02 6.08123E-04-1.20208E-13
 -1       276 1.49281E-02 5.44187E-04-1.20858E-13
 -1       277 1.49297E-02 4.60283E-04-1.20758E-13
 -1       278 1.49322E-02 3.76911E-04-1.20661E-13
 -1       279 1.49354E-02 2.94234E-04-1.20555E-13
 -1       280 1.49388E-02 2.13700E-04-1.20450E-13
 -1       281 1.49421E-02 1.32474E-04-1.20346E-13
 -1       282 1.49448E-02 5.17883E-05-1.20236E-13
 -1       283 1.49467E-02-2.86069E-05-1.20121E-13
 -1       284 1.49476E-02-1.09004E-04-1.19995E-13
 -1       285 1.49477E-02-1.89696E-04-1.19857E-13
 -1       286 1.49473E-02-2.69548E-04-1.19711E-13
 -1       287 1.49466E-02-3.51477E-04-1.19547E-13
 -1       288 1.49463E-02-4.34165E-04-1.19367E-13
 -1       289 1.49466E-02-5.17543E-04-1.19173E-13
 -1       290 1.48642E-02-5.84049E-04-1.17766E-13
 -1       291 1.06489E-02 3.75371E-05-5.07058E-14
 -1       292 1.05204E-02 1.37293E-04-5.03946E-14
 -1       293 1.02761E-02 2.58118E-04-4.97979E-14
 -1       294 9.95126E-03 4.22691E-04-4.86961E-14
 -1       295 9.59066E-03 5.90615E-04-4.74438E-14
 -1       296 9.18958E-03 7.51267E-04-4.60568E-14
 -1       297 8.81880E-03 8.68831E-04-4.42843E-14
 -1       298 8.43733E-03 9.15827E-04-4.25682E-14
 -1       299 8.05234E-03 8.65025E-04-4.07707E-14
 -1       300 7.65530E-03 7.32958E-04-3.92057E-14
 -1       301 7.27478E-03 5.73582E-04-3.79018E-14
 -1       302 6.90850E-03 3.87142E-04-3.66217E-14
 -1       303 6.57589E-03 2.40322E-04-3.58167E-14
 -1       304 6.35298E-03 1.18478E-04-3.52358E-14
 -1       305 6.24627E-03 1.41464E-05-3.48120E-14
 -1       306 6.28916E-03-7.91797E-05-3.49956E-14
 -1       307 6.46399E-03-1.79335E-04-3.52322E-14
 -1       308 6.77437E-03-3.17181E-04-3.58439E-14
 -1       309 7.13879E-03-5.13073E-04-3.70613E-14
 -1       310 7.51635E-03-6.90202E-04-3.83428E-14
 -1       311 7.93757E-03-8.42759E-04-3.97479E-14
 -1       312 8.31977E-03-9.20506E-04-4.15271E-14
 -1       313 8.70054E-03-9.08306E-04-4.32596E-14
 -1       314 9.09813E-03-8.07036E-04-4.49875E-14
 -1       315 9.49669E-03-6.44659E-04-4.66906E-14
 -1       316 9.90191E-03-4.63571E-04-4.81318E-14
 -1       317 1.02457E-02-2.97861E-04-4.93137E-14
 -1       318 1.05072E-02-1.56969E-04-5.02504E-14
 -1       319 1.06486E-02-5.47387E-05-5.06401E-14
 -1       320 4.55351E-04-1.64170E-04-1.61749E-16
 -1       321 4.73933E-04-2.12309E-04-1.27766E-16
 -1       322 4.40712E-04-9.34828E-05-1.97603E-16
 -1       323 4.37817E-04-6.44875E-05-2.06561E-16
 -1       324 4.36226E-04-3.76318E-05-2.12432E-16
 -1       325 4.35526E-04-1.19250E-05-2.15709E-16
 -1       326 4.35557E-04 1.34359E-05-2.16732E-16
 -1       327 4.36323E-04 3.92004E-05-2.15424E-16
 -1       328 4.37959E-04 6.57083E-05-2.11643E-16
 -1       329 4.40950E-04 9.48738E-05-2.04731E-16
 -1       330 4.46217E-04 1.27719E-04-1.92700E-16
 -1       331 4.55855E-04 1.66661E-04-1.72635E-16
 -1       332 4.75553E-04 2.16364E-04-1.40123E-16
 -1       333 5.31404E-04 2.69176E-04-1.28861E-16
 -1       334 8.23590E-04 3.71914E-04-3.55164E-16
 -1       335 8.62591E-04-3.55646E-04-4.19708E-16
 -1       336 1.14882E-03-4.23248E-04-7.81090E-16
 -1       337 1.43159E-03-4.70883E-04-1.25753E-15
 -1       338 1.71245E-03-5.03618E-04-1.84886E-15
 -1       339 1.99261E-03-5.25155E-04-2.55596E-15
 -1       340 2.27291E-03-5.38213E-04-3.37703E-15
 -1       341 2.55398E-03-5.44807E-04-4.31193E-15
 -1       342 2.83622E-03-5.46436E-04-5.35833E-15
 -1       343 3.11999E-03-5.44238E-04-6.51378E-15
 -1       344 3.40559E-03-5.39102E-04-7.77682E-15
 -1       345 3.69334E-03-5.31784E-04-9.14590E-15
 -1       346 3.98360E-03-5.23022E-04-1.06181E-14
 -1       347 4.27680E-03-5.13660E-04-1.21908E-14
 -1       348 4.57342E-03-5.04793E-04-1.38609E-14
 -1       349 4.87407E-03-4.97929E-04-1.56278E-14
 -1       350 5.17936E-03-4.95178E-04-1.74913E-14
 -1       351 5.49000E-03-4.99421E-04-1.94501E-14
 -1       352 5.80664E-03-5.14416E-04-2.15033E-14
 -1       353 6.12980E-03-5.44713E-04-2.36532E-14
 -1       354 6.45960E-03-5.95122E-04-2.58979E-14
 -1       355 6.79528E-03-6.69421E-04-2.82379E-14
 -1       356 7.13446E-03-7.67883E-04-3.06761E-14
 -1       357 7.47275E-03-8.83725E-04-3.32042E-14
 -1       358 7.80450E-03-9.99947E-04-3.58234E-14
 -1       359 8.12588E-03-1.09021E-03-3.85389E-14
 -1       360 8.43882E-03-1.12776E-03-4.13526E-14
 -1       361 8.75114E-03-1.09997E-03-4.42643E-14
 -1       362 9.07114E-03-1.01661E-03-4.72731E-14
 -1       363 9.40164E-03-9.03333E-04-5.03789E-14
 -1       364 9.73942E-03-7.87255E-04-5.35736E-14
 -1       365 1.00789E-02-6.86850E-04-5.68589E-14
 -1       366 1.04153E-02-6.10109E-04-6.02258E-14
 -1       367 1.07462E-02-5.57469E-04-6.36782E-14
 -1       368 1.10705E-02-5.25447E-04-6.72131E-14
 -1       369 1.13884E-02-5.09266E-04-7.08203E-14
 -1       370 1.17004E-02-5.04301E-04-7.44978E-14
 -1       371 1.20071E-02-5.06693E-04-7.82351E-14
 -1       372 1.23093E-02-5.13486E-04-8.20405E-14
 -1       373 1.26078E-02-5.22552E-04-8.59127E-14
 -1       374 1.29032E-02-5.32430E-04-8.98478E-14
 -1       375 1.31960E-02-5.42166E-04-9.38452E-14
 -1       376 1.34868E-02-5.51167E-04-9.78901E-14
 -1       377 1.37760E-02-5.59087E-04-1.01969E-13
 -1       378 1.40641E-02-5.65742E-04-1.06091E-13
 -1       379 1.43512E-02-5.71060E-04-1.10250E-13
 -1       380 1.46079E-02-5.78043E-04-1.13997E-13
 -1       381 1.10885E-03 4.45145E-04-6.98240E-16
 -1       382 1.38949E-03 4.96759E-04-1.16009E-15
 -1       383 1.66785E-03 5.32483E-04-1.74121E-15
 -1       384 1.94553E-03 5.56345E-04-2.44058E-15
 -1       385 2.22358E-03 5.71254E-04-3.25670E-15
 -1       386 2.50268E-03 5.79349E-04-4.18759E-15
 -1       387 2.78330E-03 5.82221E-04-5.23094E-15
 -1       388 3.06578E-03 5.81074E-04-6.38350E-15
 -1       389 3.35046E-03 5.76845E-04-7.64329E-15
 -1       390 3.63766E-03 5.70324E-04-9.00923E-15
 -1       391 3.92777E-03 5.62262E-04-1.04840E-14
 -1       392 4.22127E-03 5.53493E-04-1.20689E-14
 -1       393 4.51872E-03 5.45079E-04-1.37652E-14
 -1       394 4.82073E-03 5.38468E-04-1.55681E-14
 -1       395 5.12796E-03 5.35667E-04-1.74720E-14
 -1       396 5.44103E-03 5.39414E-04-1.94748E-14
 -1       397 5.76038E-03 5.53276E-04-2.15743E-14
 -1       398 6.08610E-03 5.81559E-04-2.37695E-14
 -1       399 6.41760E-03 6.28798E-04-2.60599E-14
 -1       400 6.75327E-03 6.98526E-04-2.84478E-14
 -1       401 7.09009E-03 7.91031E-04-3.09294E-14
 -1       402 7.42361E-03 9.00307E-04-3.35045E-14
 -1       403 7.74894E-03 1.01150E-03-3.61770E-14
 -1       404 8.06317E-03 1.10161E-03-3.89482E-14
 -1       405 8.36811E-03 1.14637E-03-4.18165E-14
 -1       406 8.67070E-03 1.13179E-03-4.47859E-14
 -1       407 8.97929E-03 1.06221E-03-4.78509E-14
 -1       408 9.29870E-03 9.57694E-04-5.10105E-14
 -1       409 9.62835E-03 8.43208E-04-5.42577E-14
 -1       410 9.96406E-03 7.38528E-04-5.75908E-14
 -1       411 1.03009E-02 6.54300E-04-6.10087E-14
 -1       412 1.06352E-02 5.93233E-04-6.45178E-14
 -1       413 1.09645E-02 5.53184E-04-6.81077E-14
 -1       414 1.12877E-02 5.29938E-04-7.17758E-14
 -1       415 1.16047E-02 5.18962E-04-7.55114E-14
 -1       416 1.19159E-02 5.16276E-04-7.93200E-14
 -1       417 1.22218E-02 5.18732E-04-8.32024E-14
 -1       418 1.25231E-02 5.24013E-04-8.71466E-14
 -1       419 1.28206E-02 5.30502E-04-9.11397E-14
 -1       420 1.31150E-02 5.37122E-04-9.51599E-14
 -1       421 1.34070E-02 5.43189E-04-9.91940E-14
 -1       422 1.36969E-02 5.48291E-04-1.03250E-13
 -1       423 1.39854E-02 5.52201E-04-1.07328E-13
 -1       424 1.42728E-02 5.54813E-04-1.11436E-13
 -1       425 1.45594E-02 5.56128E-04-1.15555E-13
 -1       426 1.47438E-02 5.50366E-04-1.18205E-13
 -1       427 1.46866E-02 3.36051E-04-1.17049E-13
 -1       428 1.46835E-02 4.18889E-04-1.17148E-13
 -1       429 1.47133E-02 4.84456E-04-1.17676E-13
 -1       430 1.46903E-02 2.55350E-04-1.16941E-13
 -1       431 1.46940E-02 1.73969E-04-1.16827E-13
 -1       432 1.46973E-02 9.31783E-05-1.16714E-13
 -1       433 1.46997E-02 1.27758E-05-1.16590E-13
 -1       434 1.47011E-02-6.74925E-05-1.16463E-13
 -1       435 1.47015E-02-1.47898E-04-1.16327E-13
 -1       436 1.47011E-02-2.27320E-04-1.16177E-13
 -1       437 1.47002E-02-3.08699E-04-1.16006E-13
 -1       438 1.46993E-02-3.90795E-04-1.15819E-13
 -1       439 1.46990E-02-4.73640E-04-1.15625E-13
 -1       440 1.04038E-02 1.31536E-04-5.15137E-14
 -1       441 1.06817E-02-8.61593E-06-5.20952E-14
 -1       442 1.06076E-02 4.82522E-05-5.20422E-14
 -1       443 1.00661E-02 2.78599E-04-5.04296E-14
 -1       444 9.70180E-03 4.51749E-04-4.92609E-14
 -1       445 4.45833E-04-1.25816E-04-1.83457E-16
 -1       446 8.91546E-03 8.47452E-04-4.54953E-14
 -1       447 8.62665E-03 9.33612E-04-4.37519E-14
 -1       448 8.27572E-03 9.33698E-04-4.15825E-14
 -1       449 7.88751E-03 8.04541E-04-3.93787E-14
 -1       450 7.58508E-03 6.57669E-04-3.80757E-14
 -1       451 7.17299E-03 4.40772E-04-3.64727E-14
 -1       452 6.74956E-03 2.33569E-04-3.50675E-14
 -1       453 6.46106E-03 1.20838E-04-3.45157E-14
 -1       454 6.27428E-03 3.66472E-05-3.36450E-14
 -1       455 6.23500E-03-2.14766E-05-3.36249E-14
 -1       456 6.33955E-03-7.35657E-05-3.38525E-14
 -1       457 6.60655E-03-1.74441E-04-3.42571E-14
 -1       458 7.03582E-03-3.73901E-04-3.55390E-14
 -1       459 7.40728E-03-5.75647E-04-3.69924E-14
 -1       460 7.75821E-03-7.55225E-04-3.83574E-14
 -1       461 8.19445E-03-9.29542E-04-4.04694E-14
 -1       462 8.50554E-03-9.57153E-04-4.23806E-14
 -1       463 8.86279E-03-8.83796E-04-4.44871E-14
 -1       464 9.21724E-03-7.27181E-04-4.64009E-14
 -1       465 9.64581E-03-5.05665E-04-4.83366E-14
 -1       466 1.00293E-02-3.09317E-04-4.99872E-14
 -1       467 1.03637E-02-1.68125E-04-5.09983E-14
 -1       468 1.06093E-02-6.24581E-05-5.20986E-14
 -1       469 9.37152E-03 6.26448E-04-4.78387E-14
 -1       470 7.99999E-03-8.68539E-04-3.90572E-14
 -1       471 9.30827E-04 3.44008E-04-5.85215E-16
 -1       472 6.66296E-04-7.44841E-05-4.47257E-16
 -1       473 6.70216E-04-1.14990E-04-4.33210E-16
 -1       474 6.63638E-04 1.09815E-06-4.59824E-16
 -1       475 6.64356E-04 3.84162E-05-4.59471E-16
 -1       476 6.66482E-04 7.61640E-05-4.54704E-16
 -1       477 6.70526E-04 1.16822E-04-4.44577E-16
 -1       478 6.77422E-04 1.61257E-04-4.27989E-16
 -1       479 6.89120E-04 2.11503E-04-4.00958E-16
 -1       480 9.92274E-03 3.23609E-04-5.15068E-14
 -1       481 1.21668E-03 4.03241E-04-1.00385E-15
 -1       482 9.76087E-04-3.26415E-04-6.56583E-16
 -1       483 9.14070E-03 7.47663E-04-4.75367E-14
 -1       484 1.26202E-03-3.79983E-04-1.09246E-15
 -1       485 1.54716E-03-4.17996E-04-1.64102E-15
 -1       486 1.83152E-03-4.43807E-04-2.30272E-15
 -1       487 2.11548E-03-4.60214E-04-3.07685E-15
 -1       488 2.39941E-03-4.69401E-04-3.96299E-15
 -1       489 2.68364E-03-4.73032E-04-4.96053E-15
 -1       490 2.96846E-03-4.72370E-04-6.06609E-15
 -1       491 3.25408E-03-4.68382E-04-7.28087E-15
 -1       492 3.54072E-03-4.61846E-04-8.60251E-15
 -1       493 3.82860E-03-4.53455E-04-1.00288E-14
 -1       494 4.11798E-03-4.43928E-04-1.15550E-14
 -1       495 4.40915E-03-4.34139E-04-1.31791E-14
 -1       496 4.70252E-03-4.25250E-04-1.49018E-14
 -1       497 4.99861E-03-4.18882E-04-1.67202E-14
 -1       498 5.29818E-03-4.17277E-04-1.86356E-14
 -1       499 5.60229E-03-4.23475E-04-2.06439E-14
 -1       500 5.91240E-03-4.41428E-04-2.27487E-14
 -1       501 6.23038E-03-4.75956E-04-2.49489E-14
 -1       502 6.55818E-03-5.32323E-04-2.72421E-14
 -1       503 6.89683E-03-6.14971E-04-2.96293E-14
 -1       504 7.24462E-03-7.24429E-04-3.21110E-14
 -1       505 7.59551E-03-8.51963E-04-3.46812E-14
 -1       506 7.94043E-03-9.74079E-04-3.73469E-14
 -1       507 8.27379E-03-1.05393E-03-4.01103E-14
 -1       508 8.60053E-03-1.06002E-03-4.29758E-14
 -1       509 8.93247E-03-9.89918E-04-4.59416E-14
 -1       510 9.27599E-03-8.72423E-04-4.90055E-14
 -1       511 9.62667E-03-7.44907E-04-5.21619E-14
 -1       512 9.97537E-03-6.33262E-04-5.54094E-14
 -1       513 1.03155E-02-5.47857E-04-5.87401E-14
 -1       514 1.06448E-02-4.89025E-04-6.21534E-14
 -1       515 1.09642E-02-4.52626E-04-6.56522E-14
 -1       516 1.12755E-02-4.33392E-04-6.92292E-14
 -1       517 1.15806E-02-4.26398E-04-7.28736E-14
 -1       518 1.18811E-02-4.27578E-04-7.65825E-14
 -1       519 1.21781E-02-4.33800E-04-8.03538E-14
 -1       520 1.24725E-02-4.42775E-04-8.41942E-14
 -1       521 1.27648E-02-4.52902E-04-8.80996E-14
 -1       522 1.30554E-02-4.63112E-04-9.20645E-14
 -1       523 1.33448E-02-4.72726E-04-9.60842E-14
 -1       524 1.36331E-02-4.81339E-04-1.00143E-13
 -1       525 1.39206E-02-4.88728E-04-1.04240E-13
 -1       526 1.42075E-02-4.94789E-04-1.08370E-13
 -1       527 1.78383E-03 4.73991E-04-2.18878E-15
 -1       528 2.06626E-03 4.92596E-04-2.95492E-15
 -1       529 2.34874E-03 5.03465E-04-3.83416E-15
 -1       530 2.63173E-03 5.08405E-04-4.82546E-15
 -1       531 2.91557E-03 5.08779E-04-5.92762E-15
 -1       532 3.20054E-03 5.05624E-04-7.13719E-15
 -1       533 3.48693E-03 4.99767E-04-8.45254E-15
 -1       534 3.77499E-03 4.91933E-04-9.87445E-15
 -1       535 4.06504E-03 4.82857E-04-1.14055E-14
 -1       536 4.35743E-03 4.73408E-04-1.30452E-14
 -1       537 4.65260E-03 4.64740E-04-1.47922E-14
 -1       538 4.95110E-03 4.58447E-04-1.66413E-14
 -1       539 5.25358E-03 4.56738E-04-1.85891E-14
 -1       540 5.56090E-03 4.62602E-04-2.06361E-14
 -1       541 5.87405E-03 4.79888E-04-2.27783E-14
 -1       542 6.19416E-03 5.13197E-04-2.50158E-14
 -1       543 6.52215E-03 5.67339E-04-2.73484E-14
 -1       544 6.85806E-03 6.45957E-04-2.97748E-14
 -1       545 7.19980E-03 7.48783E-04-3.22943E-14
 -1       546 7.54234E-03 8.67521E-04-3.49079E-14
 -1       547 7.87875E-03 9.82195E-04-3.76215E-14
 -1       548 8.20470E-03 1.06258E-03-4.04368E-14
 -1       549 8.52348E-03 1.08110E-03-4.33489E-14
 -1       550 8.84456E-03 1.03042E-03-4.63596E-14
 -1       551 9.17536E-03 9.28857E-04-4.94692E-14
 -1       552 9.51541E-03 8.07417E-04-5.26674E-14
 -1       553 9.85847E-03 6.92480E-04-5.59519E-14
 -1       554 1.01981E-02 5.98445E-04-5.93208E-14
 -1       555 1.05306E-02 5.29399E-04-6.27794E-14
 -1       556 1.08551E-02 4.83344E-04-6.63207E-14
 -1       557 1.11722E-02 4.55856E-04-6.99452E-14
 -1       558 1.14829E-02 4.42109E-04-7.36410E-14
 -1       559 1.17884E-02 4.37815E-04-7.74046E-14
 -1       560 1.20896E-02 4.39542E-04-8.12435E-14
 -1       561 1.23874E-02 4.44721E-04-8.51501E-14
 -1       562 1.26823E-02 4.51528E-04-8.91095E-14
 -1       563 1.29750E-02 4.58728E-04-9.31085E-14
 -1       564 1.32659E-02 4.65522E-04-9.71247E-14
 -1       565 1.35553E-02 4.71424E-04-1.01162E-13
 -1       566 1.38435E-02 4.76158E-04-1.05221E-13
 -1       567 1.41309E-02 4.79587E-04-1.09307E-13
 -1       568 1.44176E-02 4.81667E-04-1.13419E-13
 -1       569 1.44458E-02 2.14508E-04-1.13320E-13
 -1       570 1.44497E-02 1.33839E-04-1.13202E-13
 -1       571 1.44377E-02 3.76790E-04-1.13539E-13
 -1       572 1.44416E-02 2.95229E-04-1.13435E-13
 -1       573 1.44529E-02 5.37202E-05-1.13074E-13
 -1       574 1.44549E-02-2.61072E-05-1.12943E-13
 -1       575 1.44557E-02-1.05936E-04-1.12804E-13
 -1       576 1.44554E-02-1.84696E-04-1.12655E-13
 -1       577 1.44543E-02-2.65360E-04-1.12481E-13
 -1       578 1.44529E-02-3.46768E-04-1.12297E-13
 -1       579 1.44518E-02-4.29030E-04-1.12099E-13
 -1       580 1.06959E-02 8.31893E-06-5.39558E-14
 -1       581 1.02432E-02 1.76701E-04-5.26108E-14
 -1       582 1.50086E-03 4.45254E-04-1.53821E-15
 -1       583 1.07025E-02-2.30920E-05-5.39574E-14
 -1       584 1.05429E-02 6.38113E-05-5.34178E-14
 -1       585 7.12533E-04-2.50436E-04-3.66887E-16
 -1       586 1.05091E-02-9.36416E-05-5.32117E-14
 -1       587 7.26235E-03-4.77918E-04-3.55318E-14
 -1       588 6.19347E-03 2.95029E-06-3.22866E-14
 -1       589 8.45313E-03 9.66622E-04-4.27027E-14
 -1       590 6.64245E-04-3.61837E-05-4.55866E-16
 -1       591 8.09263E-03 8.99115E-04-4.01487E-14
 -1       592 8.76204E-03 9.15271E-04-4.49694E-14
 -1       593 6.96053E-03 3.14676E-04-3.47334E-14
 -1       594 7.70005E-03 7.14799E-04-3.77738E-14
 -1       595 6.80901E-03-2.51961E-04-3.37736E-14
 -1       596 7.35734E-03 5.23565E-04-3.61806E-14
 -1       597 6.54786E-03 1.34623E-04-3.34863E-14
 -1       598 6.32680E-03 5.69316E-05-3.26320E-14
 -1       599 6.25058E-03-3.57239E-05-3.26089E-14
 -1       600 8.39995E-03-9.76688E-04-4.16271E-14
 -1       601 6.40956E-03-9.22891E-05-3.26584E-14
 -1       602 7.57505E-03-6.50901E-04-3.68595E-14
 -1       603 8.69601E-03-9.46806E-04-4.37125E-14
 -1       604 9.02625E-03-8.20488E-04-4.59549E-14
 -1       605 9.42806E-03-6.05047E-04-4.83343E-14
 -1       606 9.82095E-03-3.92072E-04-5.02183E-14
 -1       607 1.02543E-02-1.90518E-04-5.21705E-14
 -1       608 9.54330E-03 5.26423E-04-4.99139E-14
 -1       609 7.03399E-04 2.89633E-04-3.23641E-16
 -1       610 6.76902E-04-1.59037E-04-4.13034E-16
 -1       611 1.06703E-02-5.06260E-05-5.50752E-14
 -1       612 7.79956E-03-7.85275E-04-3.75349E-14
 -1       613 6.55760E-03-1.60798E-04-3.21796E-14
 -1       614 6.99803E-03-3.54427E-04-3.37573E-14
 -1       615 6.71385E-03 2.14371E-04-3.31493E-14
 -1       616 8.20857E-03-9.52024E-04-4.01882E-14
 -1       617 1.44011E-02-4.99774E-04-1.11182E-13
 -1       618 9.00256E-04 7.32944E-05-7.85698E-16
 -1       619 8.98156E-04 2.48943E-05-7.89652E-16
 -1       620 9.12267E-04 1.76581E-04-7.54520E-16
 -1       621 9.24471E-04 2.34886E-04-7.23173E-16
 -1       622 7.87932E-03 8.38880E-04-3.83608E-14
 -1       623 1.04890E-03 3.11434E-04-8.41114E-16
 -1       624 1.04427E-02-1.36708E-04-5.45083E-14
 -1       625 9.36754E-03 6.64792E-04-4.98123E-14
 -1       626 1.38353E-03-3.32956E-04-1.42769E-15
 -1       627 1.66981E-03-3.61985E-04-2.04502E-15
 -1       628 1.95614E-03-3.81342E-04-2.77348E-15
 -1       629 2.24235E-03-3.93073E-04-3.61267E-15
 -1       630 2.52843E-03-3.98864E-04-4.56126E-15
 -1       631 2.81444E-03-4.00037E-04-5.61849E-15
 -1       632 3.10045E-03-3.97612E-04-6.78427E-15
 -1       633 3.38654E-03-3.92391E-04-8.05760E-15
 -1       634 3.67277E-03-3.85037E-04-9.43676E-15
 -1       635 3.95923E-03-3.76176E-04-1.09172E-14
 -1       636 4.24602E-03-3.66494E-04-1.24965E-14
 -1       637 4.53334E-03-3.56847E-04-1.41748E-14
 -1       638 4.82152E-03-3.48386E-04-1.59485E-14
 -1       639 5.11115E-03-3.42697E-04-1.78203E-14
 -1       640 5.40323E-03-3.41953E-04-1.97864E-14
 -1       641 5.69944E-03-3.49099E-04-2.18467E-14
 -1       642 6.00240E-03-3.68081E-04-2.40028E-14
 -1       643 6.31579E-03-4.04094E-04-2.62527E-14
 -1       644 6.64400E-03-4.63679E-04-2.85922E-14
 -1       645 6.99040E-03-5.53982E-04-3.10229E-14
 -1       646 7.35341E-03-6.78529E-04-3.35432E-14
 -1       647 7.72342E-03-8.25922E-04-3.61551E-14
 -1       648 8.08643E-03-9.59246E-04-3.88656E-14
 -1       649 8.43545E-03-1.01972E-03-4.16799E-14
 -1       650 8.78329E-03-9.74066E-04-4.46044E-14
 -1       651 9.14404E-03-8.48501E-04-4.76266E-14
 -1       652 9.51486E-03-7.00900E-04-5.07481E-14
 -1       653 9.87892E-03-5.73423E-04-5.39570E-14
 -1       654 1.02279E-02-4.79511E-04-5.72521E-14
 -1       655 1.05584E-02-4.17099E-04-6.06306E-14
 -1       656 1.08736E-02-3.79164E-04-6.40906E-14
 -1       657 1.11778E-02-3.58965E-04-6.76334E-14
 -1       658 1.14748E-02-3.51109E-04-7.12471E-14
 -1       659 1.17674E-02-3.51500E-04-7.49257E-14
 -1       660 1.20574E-02-3.57088E-04-7.86672E-14
 -1       661 1.23458E-02-3.65642E-04-8.24778E-14
 -1       662 1.26333E-02-3.75577E-04-8.63531E-14
 -1       663 1.29203E-02-3.85802E-04-9.02861E-14
 -1       664 1.32069E-02-3.95603E-04-9.42800E-14
 -1       665 1.34933E-02-4.04539E-04-9.83188E-14
 -1       666 1.37795E-02-4.12359E-04-1.02390E-13
 -1       667 1.40654E-02-4.18934E-04-1.06497E-13
 -1       668 2.19138E-03 4.26349E-04-3.48020E-15
 -1       669 9.24822E-03-7.31304E-04-4.79211E-14
 -1       670 1.90607E-03 4.12600E-04-2.65134E-15
 -1       671 2.76198E-03 4.35887E-04-5.47117E-15
 -1       672 3.04761E-03 4.34262E-04-6.63044E-15
 -1       673 3.33366E-03 4.29619E-04-7.89522E-15
 -1       674 3.62028E-03 4.22676E-04-9.26717E-15
 -1       675 3.90760E-03 4.14093E-04-1.07448E-14
 -1       676 4.19583E-03 4.04580E-04-1.23311E-14
 -1       677 4.48521E-03 3.95016E-04-1.40242E-14
 -1       678 4.77611E-03 3.86585E-04-1.58185E-14
 -1       679 5.06911E-03 3.80917E-04-1.77124E-14
 -1       680 5.36510E-03 3.80258E-04-1.97054E-14
 -1       681 5.66548E-03 3.87628E-04-2.17951E-14
 -1       682 5.97232E-03 4.06969E-04-2.39812E-14
 -1       683 6.28833E-03 4.43204E-04-2.62612E-14
 -1       684 6.61651E-03 5.01992E-04-2.86333E-14
 -1       685 6.95876E-03 5.88471E-04-3.10958E-14
 -1       686 7.31302E-03 7.03767E-04-3.36490E-14
 -1       687 7.67119E-03 8.37283E-04-3.63040E-14
 -1       688 8.02248E-03 9.59543E-04-3.90590E-14
 -1       689 8.36099E-03 1.02541E-03-4.19182E-14
 -1       690 8.69559E-03 1.00376E-03-4.48720E-14
 -1       691 9.03926E-03 9.05320E-04-4.79287E-14
 -1       692 9.39481E-03 7.71531E-04-5.10824E-14
 -1       693 9.75291E-03 6.42132E-04-5.43203E-14
 -1       694 1.01023E-02 5.37796E-04-5.76428E-14
 -1       695 1.04382E-02 4.62623E-04-6.10502E-14
 -1       696 1.07605E-02 4.12929E-04-6.45451E-14
 -1       697 1.10721E-02 3.83049E-04-6.81223E-14
 -1       698 1.13758E-02 3.67593E-04-7.17751E-14
 -1       699 1.16742E-02 3.62078E-04-7.54977E-14
 -1       700 1.19689E-02 3.63006E-04-7.92953E-14
 -1       701 1.22612E-02 3.67764E-04-8.31651E-14
 -1       702 1.25517E-02 3.74470E-04-8.70898E-14
 -1       703 1.28410E-02 3.81819E-04-9.10568E-14
 -1       704 1.31294E-02 3.88948E-04-9.50575E-14
 -1       705 1.34171E-02 3.95316E-04-9.90778E-14
 -1       706 1.37042E-02 4.00606E-04-1.03121E-13
 -1       707 1.39908E-02 4.04651E-04-1.07190E-13
 -1       708 1.42144E-02 3.91129E-04-1.10358E-13
 -1       709 1.42090E-02 1.46418E-05-1.09455E-13
 -1       710 1.42586E-02-4.24281E-04-1.09291E-13
 -1       711 1.42021E-02 1.73502E-04-1.09713E-13
 -1       712 1.42104E-02-6.43525E-05-1.09310E-13
 -1       713 1.42062E-02 9.38141E-05-1.09588E-13
 -1       714 1.01706E-02 2.35601E-04-5.40165E-14
 -1       715 1.42104E-02-1.42181E-04-1.09157E-13
 -1       716 1.42092E-02-2.21862E-04-1.08987E-13
 -1       717 1.42072E-02-3.02333E-04-1.08801E-13
 -1       718 1.04845E-02 1.03738E-04-5.51679E-14
 -1       719 1.62052E-03 3.90488E-04-1.93445E-15
 -1       720 1.07662E-02-7.50498E-06-5.58553E-14
 -1       721 8.72509E-04-2.45383E-04-6.02898E-16
 -1       722 8.55595E-03-9.91164E-04-4.27284E-14
 -1       723 6.18043E-03 2.48804E-05-3.10722E-14
 -1       724 7.08765E-03 4.10289E-04-3.41401E-14
 -1       725 2.47662E-03 4.33623E-04-4.41986E-15
 -1       726 1.12712E-03-2.94329E-04-9.71689E-16
 -1       727 1.33469E-03 3.57667E-04-1.33074E-15
 -1       728 9.01126E-03 8.41393E-04-4.71803E-14
 -1       729 8.85943E-03-9.14042E-04-4.50915E-14
 -1       730 9.83807E-03 3.97311E-04-5.23842E-14
 -1       731 9.04703E-04 1.23336E-04-7.74432E-16
 -1       732 9.04333E-04-1.20934E-04-7.59612E-16
 -1       733 7.45715E-03 6.24056E-04-3.57271E-14
 -1       734 8.59412E-03 9.79306E-04-4.38827E-14
 -1       735 6.40374E-03 9.78984E-05-3.18925E-14
 -1       736 6.15833E-03-1.63579E-05-3.11334E-14
 -1       737 6.24814E-03-5.38632E-05-3.11821E-14
 -1       738 7.40358E-03-5.73624E-04-3.53525E-14
 -1       739 8.27507E-03 9.72632E-04-4.12903E-14
 -1       740 1.06885E-02 3.09490E-05-5.57208E-14
 -1       741 9.66926E-03-4.93022E-04-5.04442E-14
 -1       742 1.00768E-02-2.85671E-04-5.25647E-14
 -1       743 9.11670E-04-1.73952E-04-7.34249E-16
 -1       744 8.98093E-04-2.28833E-05-7.86707E-16
 -1       745 1.07898E-02-3.05515E-05-5.69857E-14
 -1       746 9.66323E-03 5.43367E-04-5.22739E-14
 -1       747 1.41973E-02 2.53300E-04-1.09827E-13
 -1       748 1.42057E-02 3.21829E-04-1.10096E-13
 -1       749 6.34496E-03-1.06326E-04-3.07124E-14
 -1       750 8.00946E-03-8.96253E-04-3.86353E-14
 -1       751 6.71967E-03-2.46310E-04-3.21592E-14
 -1       752 6.08678E-03 4.03368E-06-2.99379E-14
 -1       753 6.20776E-03 5.70929E-05-3.03462E-14
 -1       754 9.00049E-04-7.10194E-05-7.76678E-16
 -1       755 1.41364E-02-3.60454E-04-1.07653E-13
 -1       756 1.16194E-03 2.40930E-04-1.13624E-15
 -1       757 1.79754E-03-3.03031E-04-2.46952E-15
 -1       758 2.08498E-03-3.16632E-04-3.26189E-15
 -1       759 2.37240E-03-3.24293E-04-4.16320E-15
 -1       760 2.65951E-03-3.27272E-04-5.17266E-15
 -1       761 2.94614E-03-3.26575E-04-6.28961E-15
 -1       762 3.23217E-03-3.22994E-04-7.51417E-15
 -1       763 3.51749E-03-3.17166E-04-8.84524E-15
 -1       764 3.80202E-03-3.09640E-04-1.02787E-14
 -1       765 4.08567E-03-3.00956E-04-1.18125E-14
 -1       766 4.36841E-03-2.91727E-04-1.34461E-14
 -1       767 4.65030E-03-2.82723E-04-1.51771E-14
 -1       768 4.93160E-03-2.74960E-04-1.70033E-14
 -1       769 5.21290E-03-2.69804E-04-1.89285E-14
 -1       770 5.49545E-03-2.69108E-04-2.09457E-14
 -1       771 5.78147E-03-2.75446E-04-2.30583E-14
 -1       772 6.07473E-03-2.92601E-04-2.52650E-14
 -1       773 6.38093E-03-3.26373E-04-2.75608E-14
 -1       774 6.70737E-03-3.86273E-04-2.99437E-14
 -1       775 7.06267E-03-4.84724E-04-3.24132E-14
 -1       776 9.80375E-03-5.05719E-04-5.25047E-14
 -1       777 1.01626E-02-4.01779E-04-5.57644E-14
 -1       778 1.04927E-02-3.38812E-04-5.91057E-14
 -1       779 1.08011E-02-3.03117E-04-6.25305E-14
 -1       780 1.10957E-02-2.84990E-04-6.60369E-14
 -1       781 1.13823E-02-2.78203E-04-6.96194E-14
 -1       782 1.16650E-02-2.78770E-04-7.32683E-14
 -1       783 1.19461E-02-2.83998E-04-7.69804E-14
 -1       784 1.22270E-02-2.91978E-04-8.07581E-14
 -1       785 1.25084E-02-3.01336E-04-8.46049E-14
 -1       786 1.27904E-02-3.11093E-04-8.85148E-14
 -1       787 1.30732E-02-3.20580E-04-9.24814E-14
 -1       788 1.33566E-02-3.29368E-04-9.64941E-14
 -1       789 1.36407E-02-3.37199E-04-1.00546E-13
 -1       790 1.38883E-02-3.49226E-04-1.04086E-13
 -1       791 3.17935E-03 3.59515E-04-7.34014E-15
 -1       792 2.89320E-03 3.62572E-04-6.12554E-15
 -1       793 3.75064E-03 3.46558E-04-1.00883E-14
 -1       794 4.03577E-03 3.37844E-04-1.16211E-14
 -1       795 4.32061E-03 3.28489E-04-1.32603E-14
 -1       796 4.60530E-03 3.19318E-04-1.50031E-14
 -1       797 4.89017E-03 3.11432E-04-1.68432E-14
 -1       798 5.17587E-03 3.06335E-04-1.87828E-14
 -1       799 5.46360E-03 3.06070E-04-2.08200E-14
 -1       800 5.75542E-03 3.13435E-04-2.29543E-14
 -1       801 6.05462E-03 3.32317E-04-2.51832E-14
 -1       802 6.36594E-03 3.68256E-04-2.75031E-14
 -1       803 6.69472E-03 4.29096E-04-2.99103E-14
 -1       804 7.04676E-03 5.23496E-04-3.24064E-14
 -1       805 1.03623E-02 3.89157E-04-5.93351E-14
 -1       806 1.06823E-02 3.39096E-04-6.27787E-14
 -1       807 1.09875E-02 3.09827E-04-6.63086E-14
 -1       808 1.12828E-02 2.94749E-04-6.99216E-14
 -1       809 1.15724E-02 2.89146E-04-7.36023E-14
 -1       810 1.18589E-02 2.89683E-04-7.73553E-14
 -1       811 1.21439E-02 2.93958E-04-8.11846E-14
 -1       812 1.24285E-02 3.00238E-04-8.50728E-14
 -1       813 1.27130E-02 3.07298E-04-8.90114E-14
 -1       814 1.29976E-02 3.14297E-04-9.29865E-14
 -1       815 1.32824E-02 3.20690E-04-9.69927E-14
 -1       816 1.35675E-02 3.26146E-04-1.01024E-13
 -1       817 1.38527E-02 3.30481E-04-1.05077E-13
 -1       818 1.40292E-02 3.26407E-04-1.07580E-13
 -1       819 1.13862E-03 5.82194E-05-1.20082E-15
 -1       820 1.39659E-02-2.36035E-05-1.05850E-13
 -1       821 1.39627E-02-2.57862E-04-1.05335E-13
 -1       822 1.39664E-02-1.00248E-04-1.05692E-13
 -1       823 8.31390E-03-9.87609E-04-4.08229E-14
 -1       824 1.74603E-03 3.32742E-04-2.34846E-15
 -1       825 1.39652E-02-1.78646E-04-1.05523E-13
 -1       826 1.06824E-02-8.56017E-05-5.70289E-14
 -1       827 3.46517E-03 3.53976E-04-8.66131E-15
 -1       828 2.03303E-03 3.48809E-04-3.12766E-15
 -1       829 6.74076E-03 2.86958E-04-3.19245E-14
 -1       830 6.44848E-03 1.65384E-04-3.06995E-14
 -1       831 1.24651E-03 2.97548E-04-1.23612E-15
 -1       832 1.51057E-03-2.82013E-04-1.78660E-15
 -1       833 1.01090E-02 3.30173E-04-5.52360E-14
 -1       834 9.95346E-03-3.97773E-04-5.30389E-14
 -1       835 1.08496E-02 1.17449E-05-5.84574E-14
 -1       836 6.11390E-03-3.34588E-05-2.97768E-14
 -1       837 1.04518E-02 1.68606E-04-5.68595E-14
 -1       838 1.06995E-02 6.56527E-05-5.76904E-14
 -1       839 1.03375E-02-2.26579E-04-5.54132E-14
 -1       840 1.13722E-03 1.18841E-06-1.20145E-15
 -1       841 1.09235E-02-1.19401E-05-5.96140E-14
 -1       842 1.14969E-03-1.73914E-04-1.14607E-15
 -1       843 1.39542E-02 2.11669E-04-1.06242E-13
 -1       844 1.25428E-03-2.53088E-04-1.27011E-15
 -1       845 2.60673E-03 3.62441E-04-5.01701E-15
 -1       846 1.00211E-02 4.69151E-04-5.59746E-14
 -1       847 1.14278E-03 1.16224E-04-1.19076E-15
 -1       848 1.39595E-02 1.32439E-04-1.06124E-13
 -1       849 6.47536E-03-1.72248E-04-3.06931E-14
 -1       850 1.15026E-03 1.76872E-04-1.16971E-15
 -1       851 1.06161E-02-1.56386E-04-5.79500E-14
 -1       852 1.39636E-02 5.41995E-05-1.05995E-13
 -1       853 1.14245E-03-1.13616E-04-1.17436E-15
 -1       854 6.07113E-03 2.88705E-05-2.92275E-14
 -1       855 1.39256E-02-3.03395E-04-1.04712E-13
 -1       856 2.31998E-03 3.58233E-04-4.01689E-15
 -1       857 6.16488E-03-7.35098E-05-2.93183E-14
 -1       858 1.49592E-03 3.19463E-04-1.74813E-15
 -1       859 2.21719E-03-2.50018E-04-3.76771E-15
 -1       860 2.50508E-03-2.54368E-04-4.72915E-15
 -1       861 2.79237E-03-2.55236E-04-5.79793E-15
 -1       862 3.07869E-03-2.53349E-04-6.97378E-15
 -1       863 3.36376E-03-2.49288E-04-8.25567E-15
 -1       864 3.64731E-03-2.43534E-04-9.64055E-15
 -1       865 3.92908E-03-2.36513E-04-1.11283E-14
 -1       866 4.20883E-03-2.28660E-04-1.27163E-14
 -1       867 4.48634E-03-2.20468E-04-1.44041E-14
 -1       868 4.76149E-03-2.12542E-04-1.61880E-14
 -1       869 5.03435E-03-2.05642E-04-1.80690E-14
 -1       870 5.30533E-03-2.00741E-04-2.00456E-14
 -1       871 5.57553E-03-1.99134E-04-2.21152E-14
 -1       872 5.84716E-03-2.02735E-04-2.42791E-14
 -1       873 6.12450E-03-2.15126E-04-2.65328E-14
 -1       874 6.41556E-03-2.42099E-04-2.88720E-14
 -1       875 1.09020E-02 4.67135E-05-6.05176E-14
 -1       876 1.87587E-03 2.72145E-04-2.77998E-15
 -1       877 1.04591E-02-2.53465E-04-5.75855E-14
 -1       878 1.07521E-02-2.24394E-04-6.09780E-14
 -1       879 1.10307E-02-2.11600E-04-6.44476E-14
 -1       880 1.13025E-02-2.08007E-04-6.79912E-14
 -1       881 1.15724E-02-2.09843E-04-7.16090E-14
 -1       882 1.18427E-02-2.15103E-04-7.52914E-14
 -1       883 1.21147E-02-2.22442E-04-7.90420E-14
 -1       884 1.23887E-02-2.30883E-04-8.28594E-14
 -1       885 1.26648E-02-2.39693E-04-8.67422E-14
 -1       886 1.29429E-02-2.48337E-04-9.06860E-14
 -1       887 1.32227E-02-2.56448E-04-9.46738E-14
 -1       888 1.35040E-02-2.63787E-04-9.87030E-14
 -1       889 3.02524E-03 2.89187E-04-6.78832E-15
 -1       890 1.12039E-02 2.23296E-04-6.80719E-14
 -1       891 4.16017E-03 2.64110E-04-1.25008E-14
 -1       892 3.87847E-03 2.72317E-04-1.09156E-14
 -1       893 4.71888E-03 2.47126E-04-1.59814E-14
 -1       894 4.99611E-03 2.39932E-04-1.78685E-14
 -1       895 5.27261E-03 2.35086E-04-1.98532E-14
 -1       896 5.54968E-03 2.34186E-04-2.19350E-14
 -1       897 5.82980E-03 2.39533E-04-2.41130E-14
 -1       898 6.11721E-03 2.54786E-04-2.63818E-14
 -1       899 6.41884E-03 2.86391E-04-2.87375E-14
 -1       900 1.06266E-02 2.60077E-04-6.10267E-14
 -1       901 1.14820E-02 2.19165E-04-7.17112E-14
 -1       902 1.17582E-02 2.20022E-04-7.54249E-14
 -1       903 1.20345E-02 2.23947E-04-7.92088E-14
 -1       904 1.23117E-02 2.29581E-04-8.30609E-14
 -1       905 1.25902E-02 2.35939E-04-8.69682E-14
 -1       906 1.28700E-02 2.42317E-04-9.09189E-14
 -1       907 1.31512E-02 2.48232E-04-9.49043E-14
 -1       908 1.34334E-02 2.53383E-04-9.89238E-14
 -1       909 1.37165E-02 2.57576E-04-1.02963E-13
 -1       910 1.09207E-02 2.35355E-04-6.45057E-14
 -1       911 1.39916E-02 2.68672E-04-1.06915E-13
 -1       912 1.37235E-02-5.99854E-05-1.02254E-13
 -1       913 1.07365E-02 1.19363E-04-5.98846E-14
 -1       914 1.08889E-02-5.45280E-05-5.96650E-14
 -1       915 4.44030E-03 2.55483E-04-1.41908E-14
 -1       916 1.64171E-03-2.27135E-04-2.16877E-15
 -1       917 1.13845E-03-5.56961E-05-1.19267E-15
 -1       918 5.96930E-03-1.25846E-05-2.81072E-14
 -1       919 6.16535E-03 1.04400E-04-2.87600E-14
 -1       920 1.04485E-02 2.56799E-04-5.86209E-14
 -1       921 1.92918E-03-2.41291E-04-2.91401E-15
 -1       922 1.10127E-02 1.70188E-05-6.16973E-14
 -1       923 6.26250E-03-1.22900E-04-2.93012E-14
 -1       924 1.37221E-02 1.64142E-05-1.02411E-13
 -1       925 1.39451E-03-2.02524E-04-1.61832E-15
 -1       926 1.58859E-03 2.55040E-04-2.04924E-15
 -1       927 2.73869E-03 2.90552E-04-5.62440E-15
 -1       928 3.31084E-03 2.85340E-04-8.05822E-15
 -1       929 1.37143E-02-2.83704E-04-1.01699E-13
 -1       930 5.91633E-03 1.17538E-05-2.74189E-14
 -1       931 3.59531E-03 2.79555E-04-9.43396E-15
 -1       932 1.38429E-03 9.82332E-05-1.68961E-15
 -1       933 1.37226E-02-1.36820E-04-1.02083E-13
 -1       934 1.40164E-03 2.33469E-04-1.63748E-15
 -1       935 1.08697E-02-1.07946E-04-6.06052E-14
 -1       936 1.37235E-02 1.78512E-04-1.02854E-13
 -1       937 1.38580E-03-1.35051E-04-1.65484E-15
 -1       938 6.15641E-03 1.77519E-04-2.75740E-14
 -1       939 1.38102E-03 3.33631E-05-1.69609E-15
 -1       940 6.00419E-03 6.76857E-05-2.76736E-14
 -1       941 2.16367E-03 2.82978E-04-3.61884E-15
 -1       942 5.97258E-03-4.44219E-05-2.76670E-14
 -1       943 1.37352E-02-2.21876E-04-1.02109E-13
 -1       944 2.64012E-03-1.83777E-04-5.31057E-15
 -1       945 2.92692E-03-1.83324E-04-6.43746E-15
 -1       946 3.21224E-03-1.80989E-04-7.67002E-15
 -1       947 3.49563E-03-1.77165E-04-9.00660E-15
 -1       948 3.77668E-03-1.72182E-04-1.04459E-14
 -1       949 4.05498E-03-1.66345E-04-1.19877E-14
 -1       950 4.33010E-03-1.59962E-04-1.36312E-14
 -1       951 4.60159E-03-1.53373E-04-1.53725E-14
 -1       952 4.86905E-03-1.46966E-04-1.72081E-14
 -1       953 5.13214E-03-1.41181E-04-1.91421E-14
 -1       954 5.39069E-03-1.36498E-04-2.11718E-14
 -1       955 5.64491E-03-1.33505E-04-2.32934E-14
 -1       956 5.89607E-03-1.33309E-04-2.55058E-14
 -1       957 1.77627E-03-1.68505E-04-2.57171E-15
 -1       958 1.72153E-03 1.97962E-04-2.43837E-15
 -1       959 1.11395E-02 1.54283E-04-6.62334E-14
 -1       960 1.09837E-02-1.41441E-04-6.28595E-14
 -1       961 1.12343E-02-1.42125E-04-6.63707E-14
 -1       962 1.14876E-02-1.45694E-04-6.99507E-14
 -1       963 1.17449E-02-1.51094E-04-7.36032E-14
 -1       964 1.20066E-02-1.57603E-04-7.73229E-14
 -1       965 1.22724E-02-1.64752E-04-8.11114E-14
 -1       966 1.25420E-02-1.72128E-04-8.49680E-14
 -1       967 1.28150E-02-1.79389E-04-8.88870E-14
 -1       968 1.30908E-02-1.86274E-04-9.28566E-14
 -1       969 1.33689E-02-1.92603E-04-9.68650E-14
 -1       970 2.06410E-03-1.76990E-04-3.37741E-15
 -1       971 5.09576E-03 1.72765E-04-1.88944E-14
 -1       972 4.82767E-03 1.79139E-04-1.69610E-14
 -1       973 5.62398E-03 1.65487E-04-2.30494E-14
 -1       974 5.88696E-03 1.67062E-04-2.52691E-14
 -1       975 1.10011E-02 9.12087E-05-6.31401E-14
 -1       976 1.19310E-02 1.58324E-04-7.72397E-14
 -1       977 1.14018E-02 1.52875E-04-6.98270E-14
 -1       978 1.21996E-02 1.63096E-04-8.10510E-14
 -1       979 1.24713E-02 1.68350E-04-8.49225E-14
 -1       980 1.27456E-02 1.73608E-04-8.88477E-14
 -1       981 1.30224E-02 1.78517E-04-9.28154E-14
 -1       982 1.33013E-02 1.82825E-04-9.68179E-14
 -1       983 1.35121E-02 1.80959E-04-9.98311E-14
 -1       984 1.08257E-02 1.63798E-04-6.20875E-14
 -1       985 1.58039E-03-1.52352E-04-2.08920E-15
 -1       986 1.38094E-03-3.08023E-05-1.69102E-15
 -1       987 5.36091E-03 1.67899E-04-2.09234E-14
 -1       988 1.10645E-02-3.22206E-05-6.23768E-14
 -1       989 4.00459E-03 2.00723E-04-1.17473E-14
 -1       990 2.45141E-03 2.88764E-04-4.56706E-15
 -1       991 1.53463E-03 1.81520E-04-1.98655E-15
 -1       992 1.33746E-03 1.48410E-04-1.56512E-15
 -1       993 1.16652E-02 1.54645E-04-7.34977E-14
 -1       994 1.38225E-03-8.24695E-05-1.67668E-15
 -1       995 2.35231E-03-1.81865E-04-4.29043E-15
 -1       996 1.37184E-02 9.30932E-05-1.02551E-13
 -1       997 1.11297E-02 5.43652E-05-6.43494E-14
 -1       998 1.34818E-02-2.05524E-05-9.88333E-14
 -1       999 1.10875E-02-7.65701E-05-6.33421E-14
 -1      1000 2.87234E-03 2.18544E-04-6.24179E-15
 -1      1001 5.81318E-03-1.80663E-05-2.61321E-14
 -1      1002 4.28194E-03 1.93650E-04-1.33846E-14
 -1      1003 3.15817E-03 2.16396E-04-7.45928E-15
 -1      1004 3.72463E-03 2.07112E-04-1.02141E-14
 -1      1005 1.62874E-03 7.15435E-05-2.26887E-15
 -1      1006 4.55638E-03 1.86295E-04-1.51231E-14
 -1      1007 2.00923E-03 2.08920E-04-3.22770E-15
 -1      1008 6.03165E-03-8.00227E-05-2.76578E-14
 -1      1009 1.34817E-02-9.55806E-05-9.86657E-14
 -1      1010 1.58052E-03 1.26984E-04-2.12994E-15
 -1      1011 3.06331E-03-1.12046E-04-7.08968E-15
 -1      1012 3.34716E-03-1.10020E-04-8.37744E-15
 -1      1013 3.62845E-03-1.07143E-04-9.76785E-15
 -1      1014 3.90665E-03-1.03605E-04-1.12623E-14
 -1      1015 4.18118E-03-9.95921E-05-1.28594E-14
 -1      1016 4.45142E-03-9.52813E-05-1.45566E-14
 -1      1017 4.71667E-03-9.08600E-05-1.63493E-14
 -1      1018 4.97610E-03-8.65098E-05-1.82373E-14
 -1      1019 5.22872E-03-8.23698E-05-2.02253E-14
 -1      1020 5.47335E-03-7.85639E-05-2.23052E-14
 -1      1021 5.70823E-03-7.51007E-05-2.44775E-14
 -1      1022 1.62690E-03 1.46910E-06-2.26903E-15
 -1      1023 3.44238E-03 2.12456E-04-8.78385E-15
 -1      1024 1.15768E-02 9.45179E-05-7.15767E-14
 -1      1025 1.14059E-02-8.78114E-05-6.82965E-14
 -1      1026 1.16487E-02-9.27665E-05-7.19149E-14
 -1      1027 1.18994E-02-9.79168E-05-7.56059E-14
 -1      1028 1.21569E-02-1.03258E-04-7.93648E-14
 -1      1029 1.24199E-02-1.08686E-04-8.31922E-14
 -1      1030 1.26877E-02-1.14030E-04-8.70841E-14
 -1      1031 1.29594E-02-1.19158E-04-9.10330E-14
 -1      1032 1.32344E-02-1.23957E-04-9.50219E-14
 -1      1033 4.93421E-03 1.15975E-04-1.79402E-14
 -1      1034 1.91393E-03-1.06316E-04-2.99457E-15
 -1      1035 1.34789E-02 5.43342E-05-9.89823E-14
 -1      1036 5.68882E-03 1.02201E-04-2.41610E-14
 -1      1037 1.18306E-02 9.77018E-05-7.52766E-14
 -1      1038 1.13291E-02 9.20287E-05-6.79542E-14
 -1      1039 2.77743E-03-1.12989E-04-5.90665E-15
 -1      1040 1.26229E-02 1.08579E-04-8.67774E-14
 -1      1041 1.28951E-02 1.11948E-04-9.07195E-14
 -1      1042 1.31704E-02 1.14898E-04-9.47043E-14
 -1      1043 5.80404E-03 4.34221E-05-2.58538E-14
 -1      1044 2.58527E-03 2.18427E-04-5.12954E-15
 -1      1045 4.67093E-03 1.21478E-04-1.60576E-14
 -1      1046 5.44370E-03 1.06073E-04-2.19926E-14
 -1      1047 5.19201E-03 1.10758E-04-1.99177E-14
 -1      1048 1.23543E-02 1.04952E-04-8.28845E-14
 -1      1049 5.93015E-03 1.01337E-04-2.64273E-14
 -1      1050 1.84743E-03 1.20223E-04-2.82528E-15
 -1      1051 1.34962E-02 1.17136E-04-9.94119E-14
 -1      1052 2.29738E-03 2.15460E-04-4.12447E-15
 -1      1053 5.82490E-03-6.29024E-05-2.57727E-14
 -1      1054 1.20900E-02 1.01256E-04-7.90497E-14
 -1      1055 1.12206E-02-1.91058E-06-6.50578E-14
 -1      1056 5.66901E-03 1.09658E-05-2.46095E-14
 -1      1057 1.62710E-03-5.46018E-05-2.25732E-15
 -1      1058 1.87565E-03 3.86896E-05-2.92523E-15
 -1      1059 1.32426E-02-5.58670E-05-9.52696E-14
 -1      1060 2.20201E-03-1.10473E-04-3.85837E-15
 -1      1061 4.13025E-03 1.32349E-04-1.25842E-14
 -1      1062 3.85397E-03 1.37228E-04-1.09992E-14
 -1      1063 1.32412E-02 1.70601E-05-9.54264E-14
 -1      1064 2.49011E-03-1.12579E-04-4.82895E-15
 -1      1065 2.72140E-03 1.47698E-04-5.70308E-15
 -1      1066 3.00772E-03 1.46955E-04-6.86886E-15
 -1      1067 4.40275E-03 1.27016E-04-1.42711E-14
 -1      1068 1.13201E-02-4.20167E-05-6.66754E-14
 -1      1069 1.87439E-03-2.07288E-05-2.91762E-15
 -1      1070 3.48403E-03-4.08181E-05-9.09465E-15
 -1      1071 3.76317E-03-3.95183E-05-1.05410E-14
 -1      1072 4.03854E-03-3.80295E-05-1.20897E-14
 -1      1073 4.30954E-03-3.63708E-05-1.37404E-14
 -1      1074 4.57535E-03-3.46444E-05-1.54907E-14
 -1      1075 4.83497E-03-3.29172E-05-1.73351E-14
 -1      1076 5.08705E-03-3.12533E-05-1.92763E-14
 -1      1077 5.33011E-03-2.96655E-05-2.13141E-14
 -1      1078 1.15495E-02-4.51765E-05-7.02603E-14
 -1      1079 2.91713E-03-4.24513E-05-6.51567E-15
 -1      1080 1.17908E-02-4.83187E-05-7.39196E-14
 -1      1081 1.20412E-02-5.14458E-05-7.76520E-14
 -1      1082 1.22986E-02-5.47061E-05-8.14525E-14
 -1      1083 1.25620E-02-5.79056E-05-8.53162E-14
 -1      1084 1.28303E-02-6.10564E-05-8.92402E-14
 -1      1085 1.30356E-02-5.85976E-05-9.22438E-14
 -1      1086 5.65503E-03-3.53565E-05-2.43241E-14
 -1      1087 1.17292E-02 4.25572E-05-7.33220E-14
 -1      1088 1.14878E-02 4.07703E-05-6.96696E-14
 -1      1089 4.25710E-03 6.74907E-05-1.34246E-14
 -1      1090 1.30395E-02 4.97889E-05-9.25874E-14
 -1      1091 1.27676E-02 4.86681E-05-8.86265E-14
 -1      1092 4.52481E-03 6.44508E-05-1.51588E-14
 -1      1093 5.28954E-03 5.47228E-05-2.09414E-14
 -1      1094 4.78688E-03 6.12724E-05-1.69914E-14
 -1      1095 5.52692E-03 5.12024E-05-2.30592E-14
 -1      1096 2.43384E-03 1.46638E-04-4.64363E-15
 -1      1097 3.20184E-03-4.18176E-05-7.75358E-15
 -1      1098 1.24997E-02 4.73648E-05-8.47113E-14
 -1      1099 2.13536E-03 1.25685E-04-3.66829E-15
 -1      1100 5.04219E-03 5.80036E-05-1.89186E-14
 -1      1101 5.46580E-03-6.97816E-06-2.25995E-14
 -1      1102 2.63056E-03-4.26097E-05-5.38284E-15
 -1      1103 2.19616E-03 3.99199E-05-3.88483E-15
 -1      1104 3.57450E-03 1.41461E-04-9.51861E-15
 -1      1105 3.98463E-03 7.03060E-05-1.17902E-14
 -1      1106 3.29226E-03 1.44782E-04-8.14044E-15
 -1      1107 1.22366E-02 4.58677E-05-8.08512E-14
 -1      1108 1.19795E-02 4.42878E-05-7.70521E-14
 -1      1109 2.57294E-03 7.69591E-05-5.17462E-15
 -1      1110 2.85985E-03 7.70367E-05-6.28823E-15
 -1      1111 1.15277E-02-2.40295E-06-6.99707E-14
 -1      1112 3.62355E-03 2.64248E-05-9.82463E-15
 -1      1113 5.28513E-03 2.23504E-05-2.09742E-14
 -1      1114 1.29070E-02-1.25570E-05-9.04702E-14
 -1      1115 1.19162E-02 1.91609E-06-7.59010E-14
 -1      1116 3.34292E-03 2.70782E-05-8.42791E-15
 -1      1117 2.34279E-03-4.21663E-05-4.35552E-15
 -1      1118 1.17186E-02-3.12112E-07-7.29112E-14
 -1      1119 3.05943E-03 2.74921E-05-7.13673E-15
 -1      1120 3.17474E-03 8.64395E-05-7.63633E-15
 -1      1121 0.00000E+00 0.00000E+00 0.00000E+00
 -1      1122 0.00000E+00 0.00000E+00 0.00000E+00
 -1      1123 0.00000E+00 0.00000E+00 0.00000E+00
 -1      1124 0.00000E+00 0.00000E+00 0.00000E+00
 -1      1125 0.00000E+00 0.00000E+00 0.00000E+00
 -1      1126 0.00000E+00 0.00000E+00 0.00000E+00
 -1      1127 0.00000E+00 0.00000E+00 0.00000E+00
 -1      1128 0.00000E+00 0.00000E+00 0.00000E+00
 -1      1129 0.00000E+00 0.00000E+00 0.00000E+00
 -1      1130 0.00000E+00 0.00000E+00 0.00000E+00
 -1      1131 0.00000E+00 0.00000E+00 0.00000E+00
 -1      1132 0.00000E+00 0.00000E+00 0.00000E+00
 -1      1133 0.00000E+00 0.00000E+00 0.00000E+00
 -1      1134 0.00000E+00 0.00000E+00 0.00000E+00
 -1      1135 0.00000E+00 0.00000E+00 0.00000E+00
 -1      1136 0.00000E+00 0.00000E+00 0.00000E+00
 -1      1137 0.00000E+00 0.00000E+00 0.00000E+00
 -1      1138 2.11247E-04-1.48101E-04 2.20906E-17
 -1      1139 5.50476E-04-3.36783E-04-5.55654E-18
 -1      1140 8.31660E-04-4.57561E-04-1.40716E-16
 -1      1141 1.10065E-03-5.38273E-04-4.02225E-16
 -1      1142 1.36555E-03-5.94231E-04-7.86060E-16
 -1      1143 1.62997E-03-6.33257E-04-1.29063E-15
 -1      1144 1.89583E-03-6.59922E-04-1.91503E-15
 -1      1145 2.16409E-03-6.77260E-04-2.65762E-15
 -1      1146 2.43523E-03-6.87473E-04-3.51943E-15
 -1      1147 2.70949E-03-6.92213E-04-4.49808E-15
 -1      1148 2.98702E-03-6.92742E-04-5.59046E-15
 -1      1149 3.26801E-03-6.90052E-04-6.79152E-15
 -1      1150 3.55277E-03-6.84972E-04-8.09902E-15
 -1      1151 3.84174E-03-6.78271E-04-9.51370E-15
 -1      1152 4.13555E-03-6.70775E-04-1.10283E-14
 -1      1153 4.43504E-03-6.63493E-04-1.26426E-14
 -1      1154 4.74121E-03-6.57773E-04-1.43540E-14
 -1      1155 5.05516E-03-6.55467E-04-1.61609E-14
 -1      1156 5.37795E-03-6.59101E-04-1.80652E-14
 -1      1157 5.71023E-03-6.72003E-04-2.00679E-14
 -1      1158 6.05179E-03-6.98264E-04-2.21682E-14
 -1      1159 6.40089E-03-7.42332E-04-2.43620E-14
 -1      1160 6.75349E-03-8.07939E-04-2.66538E-14
 -1      1161 7.10284E-03-8.96071E-04-2.90452E-14
 -1      1162 7.43994E-03-1.00213E-03-3.15315E-14
 -1      1163 7.75593E-03-1.11350E-03-3.41122E-14
 -1      1164 8.04611E-03-1.20978E-03-3.67771E-14
 -1      1165 8.31410E-03-1.26814E-03-3.95299E-14
 -1      1166 8.57252E-03-1.27261E-03-4.23876E-14
 -1      1167 8.83830E-03-1.22206E-03-4.53448E-14
 -1      1168 9.12504E-03-1.13077E-03-4.83949E-14
 -1      1169 9.43766E-03-1.02122E-03-5.15362E-14
 -1      1170 9.77241E-03-9.14560E-04-5.47673E-14
 -1      1171 1.01207E-02-8.24564E-04-5.80810E-14
 -1      1172 1.04735E-02-7.56786E-04-6.14822E-14
 -1      1173 1.08235E-02-7.10808E-04-6.49690E-14
 -1      1174 1.11666E-02-6.83122E-04-6.85383E-14
 -1      1175 1.15008E-02-6.69299E-04-7.21795E-14
 -1      1176 1.18257E-02-6.65178E-04-7.58828E-14
 -1      1177 1.21420E-02-6.67358E-04-7.96454E-14
 -1      1178 1.24510E-02-6.73269E-04-8.34843E-14
 -1      1179 1.27537E-02-6.81079E-04-8.73917E-14
 -1      1180 1.30515E-02-6.89540E-04-9.13646E-14
 -1      1181 1.33455E-02-6.97834E-04-9.53945E-14
 -1      1182 1.36365E-02-7.05450E-04-9.94689E-14
 -1      1183 1.39253E-02-7.12082E-04-1.03585E-13
 -1      1184 1.42125E-02-7.17567E-04-1.07739E-13
 -1      1185 1.44987E-02-7.21850E-04-1.11927E-13
 -1      1186 1.47844E-02-7.25019E-04-1.16145E-13
 -1      1187 1.50628E-02-7.27397E-04-1.20285E-13
 -1      1188 2.27976E-04 1.60458E-04 2.25921E-17
 -1      1189 5.52647E-04 3.41406E-04-1.58429E-17
 -1      1190 8.32590E-04 4.59727E-04-1.67143E-16
 -1      1191 1.10155E-03 5.39958E-04-4.44997E-16
 -1      1192 1.36646E-03 5.95910E-04-8.48415E-16
 -1      1193 1.63092E-03 6.35026E-04-1.37634E-15
 -1      1194 1.89684E-03 6.61798E-04-2.02736E-15
 -1      1195 2.16514E-03 6.79258E-04-2.79647E-15
 -1      1196 2.43631E-03 6.89604E-04-3.68224E-15
 -1      1197 2.71059E-03 6.94484E-04-4.68520E-15
 -1      1198 2.98813E-03 6.95161E-04-5.80384E-15
 -1      1199 3.26913E-03 6.92627E-04-7.03066E-15
 -1      1200 3.55389E-03 6.87712E-04-8.36089E-15
 -1      1201 3.84284E-03 6.81190E-04-9.79833E-15
 -1      1202 4.13661E-03 6.73890E-04-1.13482E-14
 -1      1203 4.43602E-03 6.66825E-04-1.30154E-14
 -1      1204 4.74205E-03 6.61341E-04-1.47939E-14
 -1      1205 5.05576E-03 6.59285E-04-1.66771E-14
 -1      1206 5.37816E-03 6.63161E-04-1.86636E-14
 -1      1207 5.70982E-03 6.76247E-04-2.07436E-14
 -1      1208 6.05047E-03 7.02542E-04-2.29179E-14
 -1      1209 6.39830E-03 7.46341E-04-2.51892E-14
 -1      1210 6.74927E-03 8.11162E-04-2.75598E-14
 -1      1211 7.09669E-03 8.97759E-04-3.00283E-14
 -1      1212 7.43185E-03 1.00143E-03-3.25912E-14
 -1      1213 7.74621E-03 1.10971E-03-3.52471E-14
 -1      1214 8.03535E-03 1.20278E-03-3.79966E-14
 -1      1215 8.30289E-03 1.25853E-03-4.08430E-14
 -1      1216 8.56110E-03 1.26155E-03-4.37887E-14
 -1      1217 8.82640E-03 1.21072E-03-4.68326E-14
 -1      1218 9.11205E-03 1.11983E-03-4.99694E-14
 -1      1219 9.42299E-03 1.01063E-03-5.32080E-14
 -1      1220 9.75577E-03 9.03706E-04-5.65276E-14
 -1      1221 1.01022E-02 8.12634E-04-5.99239E-14
 -1      1222 1.04533E-02 7.43025E-04-6.34133E-14
 -1      1223 1.08021E-02 6.94659E-04-6.69925E-14
 -1      1224 1.11442E-02 6.64240E-04-7.06492E-14
 -1      1225 1.14777E-02 6.47503E-04-7.43871E-14
 -1      1226 1.18022E-02 6.40394E-04-7.81935E-14
 -1      1227 1.21183E-02 6.39568E-04-8.20695E-14
 -1      1228 1.24271E-02 6.42484E-04-8.60113E-14
 -1      1229 1.27298E-02 6.47320E-04-9.00061E-14
 -1      1230 1.30275E-02 6.52829E-04-9.40299E-14
 -1      1231 1.33214E-02 6.58190E-04-9.80699E-14
 -1      1232 1.36124E-02 6.62888E-04-1.02129E-13
 -1      1233 1.39012E-02 6.66612E-04-1.06213E-13
 -1      1234 1.41884E-02 6.69196E-04-1.10326E-13
 -1      1235 1.44747E-02 6.70586E-04-1.14465E-13
 -1      1236 1.47603E-02 6.70865E-04-1.18604E-13
 -1      1237 1.50388E-02 6.70418E-04-1.22631E-13
 -1      1238 1.51747E-02 6.27956E-04-1.24533E-13
 -1      1239 1.51755E-02 5.43533E-04-1.24428E-13
 -1      1240 1.51769E-02 4.59224E-04-1.24325E-13
 -1      1241 1.51792E-02 3.75421E-04-1.24219E-13
 -1      1242 1.51822E-02 2.92435E-04-1.24109E-13
 -1      1243 1.51855E-02 2.11092E-04-1.24004E-13
 -1      1244 1.51887E-02 1.30641E-04-1.23910E-13
 -1      1245 1.51913E-02 5.02032E-05-1.23818E-13
 -1      1246 1.51931E-02-2.98525E-05-1.23726E-13
 -1      1247 1.51941E-02-1.09911E-04-1.23597E-13
 -1      1248 1.51943E-02-1.90357E-04-1.23452E-13
 -1      1249 1.51940E-02-2.70821E-04-1.23325E-13
 -1      1250 1.51935E-02-3.52180E-04-1.23190E-13
 -1      1251 1.51933E-02-4.35182E-04-1.23019E-13
 -1      1252 1.51938E-02-5.19000E-04-1.22846E-13
 -1      1253 1.51953E-02-6.03308E-04-1.22653E-13
 -1      1254 1.51974E-02-6.87016E-04-1.22423E-13
 -1      1255 1.06665E-02 6.38102E-05-4.94112E-14
 -1      1256 1.05595E-02 2.06793E-04-4.91583E-14
 -1      1257 1.03528E-02 3.55284E-04-4.86107E-14
 -1      1258 1.00578E-02 5.07705E-04-4.77602E-14
 -1      1259 9.71094E-03 6.46575E-04-4.67107E-14
 -1      1260 9.31343E-03 7.65471E-04-4.54575E-14
 -1      1261 8.88003E-03 8.48753E-04-4.40556E-14
 -1      1262 8.43409E-03 8.75315E-04-4.25955E-14
 -1      1263 7.97353E-03 8.40710E-04-4.10953E-14
 -1      1264 7.53986E-03 7.53707E-04-3.97246E-14
 -1      1265 7.15482E-03 6.33587E-04-3.85528E-14
 -1      1266 6.79690E-03 4.84977E-04-3.75113E-14
 -1      1267 6.50903E-03 3.29144E-04-3.67034E-14
 -1      1268 6.32028E-03 1.79773E-04-3.61759E-14
 -1      1269 6.23449E-03 2.69287E-05-3.59194E-14
 -1      1270 6.26663E-03-1.20250E-04-3.59674E-14
 -1      1271 6.41115E-03-2.69300E-04-3.62895E-14
 -1      1272 6.67061E-03-4.30835E-04-3.69246E-14
 -1      1273 7.01585E-03-5.90441E-04-3.78448E-14
 -1      1274 7.39952E-03-7.26101E-04-3.89334E-14
 -1      1275 7.83434E-03-8.30844E-04-4.02454E-14
 -1      1276 8.29431E-03-8.86333E-04-4.17092E-14
 -1      1277 8.74488E-03-8.77528E-04-4.31847E-14
 -1      1278 9.19346E-03-8.09708E-04-4.46591E-14
 -1      1279 9.62290E-03-6.92560E-04-4.60550E-14
 -1      1280 1.00114E-02-5.44908E-04-4.72959E-14
 -1      1281 1.03236E-02-3.89317E-04-4.82734E-14
 -1      1282 1.05488E-02-2.32861E-04-4.89828E-14
 -1      1283 1.06661E-02-8.07225E-05-4.93679E-14
 -1      1284 1.66403E-04-1.10193E-04 3.51010E-18
 -1      1285 1.12443E-04-5.69156E-05-2.05456E-17
 -1      1286 1.17475E-04-6.75116E-05-1.40133E-17
 -1      1287 1.08400E-04-4.34313E-05-3.12657E-17
 -1      1288 1.10228E-04-4.95470E-05-2.78369E-17
 -1      1289 2.26176E-04-1.07451E-04-6.55400E-17
 -1      1290 1.06874E-04-3.35439E-05-3.76625E-17
 -1      1291 1.07694E-04-3.82679E-05-3.57516E-17
 -1      1292 2.19092E-04-8.22837E-05-8.53403E-17
 -1      1293 1.06134E-04-2.52778E-05-4.18638E-17
 -1      1294 1.06547E-04-2.93096E-05-4.07524E-17
 -1      1295 2.15957E-04-6.30963E-05-9.79441E-17
 -1      1296 1.05755E-04-1.80236E-05-4.43032E-17
 -1      1297 1.05975E-04-2.15843E-05-4.36933E-17
 -1      1298 2.14364E-04-4.70104E-05-1.05899E-16
 -1      1299 1.05550E-04-1.11894E-05-4.61057E-17
 -1      1300 1.05667E-04-1.45619E-05-4.57398E-17
 -1      1301 2.13488E-04-3.26037E-05-1.11131E-16
 -1      1302 1.05457E-04-4.66667E-06-4.70137E-17
 -1      1303 1.05507E-04-7.90341E-06-4.67969E-17
 -1      1304 2.13014E-04-1.90901E-05-1.14478E-16
 -1      1305 1.05447E-04 1.73348E-06-4.74745E-17
 -1      1306 1.05446E-04-1.46189E-06-4.74474E-17
 -1      1307 2.12810E-04-6.12568E-06-1.16376E-16
 -1      1308 1.05516E-04 8.18483E-06-4.71763E-17
 -1      1309 1.05462E-04 4.94154E-06-4.72306E-17
 -1      1310 2.12818E-04 6.67192E-06-1.16701E-16
 -1      1311 1.05683E-04 1.48691E-05-4.67427E-17
 -1      1312 1.05561E-04 1.14815E-05-4.69324E-17
 -1      1313 2.13040E-04 1.96624E-05-1.15901E-16
 -1      1314 1.05997E-04 2.18764E-05-4.51435E-17
 -1      1315 1.05772E-04 1.82918E-05-4.55771E-17
 -1      1316 2.13529E-04 3.31163E-05-1.13760E-16
 -1      1317 1.06589E-04 2.97433E-05-4.26091E-17
 -1      1318 1.06167E-04 2.56675E-05-4.34901E-17
 -1      1319 2.14429E-04 4.76178E-05-1.09586E-16
 -1      1320 1.07732E-04 3.88508E-05-3.81775E-17
 -1      1321 1.06907E-04 3.40550E-05-3.98580E-17
 -1      1322 2.16066E-04 6.40262E-05-1.02579E-16
 -1      1323 1.10206E-04 5.02857E-05-3.06016E-17
 -1      1324 1.08404E-04 4.41013E-05-3.39491E-17
 -1      1325 2.19191E-04 8.35322E-05-9.11136E-17
 -1      1326 1.16791E-04 6.75468E-05-1.75641E-17
 -1      1327 1.12088E-04 5.77137E-05-2.39338E-17
 -1      1328 2.26161E-04 1.09267E-04-7.24789E-17
 -1      1329 1.57288E-04 1.09707E-04 3.44234E-18
 -1      1330 1.35453E-04 8.59866E-05-1.00695E-17
 -1      1331 2.55693E-04 1.51857E-04-4.96294E-17
 -1      1332 3.34460E-04 2.20363E-04-1.53279E-17
 -1      1333 4.20768E-04-2.61229E-04-2.63326E-17
 -1      1334 5.73583E-04-3.35983E-04-6.98633E-17
 -1      1335 7.20506E-04-3.96226E-04-1.45771E-16
 -1      1336 8.63425E-04-4.45101E-04-2.52348E-16
 -1      1337 6.11155E-04-3.29966E-04-1.44565E-16
 -1      1338 1.00322E-03-4.85685E-04-3.88212E-16
 -1      1339 1.14085E-03-5.19109E-04-5.54312E-16
 -1      1340 9.04001E-04-4.29814E-04-3.68697E-16
 -1      1341 1.27716E-03-5.47231E-04-7.50187E-16
 -1      1342 1.41265E-03-5.70523E-04-9.76582E-16
 -1      1343 1.18613E-03-4.98092E-04-7.10803E-16
 -1      1344 1.54778E-03-5.90035E-04-1.23237E-15
 -1      1345 1.68280E-03-6.06097E-04-1.51802E-15
 -1      1346 1.46288E-03-5.45353E-04-1.17064E-15
 -1      1347 1.81798E-03-6.19319E-04-1.83310E-15
 -1      1348 1.95343E-03-6.29990E-04-2.17747E-15
 -1      1349 1.73757E-03-5.77694E-04-1.74836E-15
 -1      1350 2.08931E-03-6.38492E-04-2.55163E-15
 -1      1351 2.22566E-03-6.45072E-04-2.95525E-15
 -1      1352 2.01217E-03-5.99003E-04-2.44341E-15
 -1      1353 2.36258E-03-6.49984E-04-3.38808E-15
 -1      1354 2.50009E-03-6.53433E-04-3.84969E-15
 -1      1355 2.28778E-03-6.11996E-04-3.25487E-15
 -1      1356 2.63825E-03-6.55594E-04-4.34064E-15
 -1      1357 2.77708E-03-6.56636E-04-4.85995E-15
 -1      1358 2.56507E-03-6.18649E-04-4.18207E-15
 -1      1359 2.91663E-03-6.56680E-04-5.40639E-15
 -1      1360 3.05692E-03-6.55869E-04-5.98115E-15
 -1      1361 2.84445E-03-6.20432E-04-5.22245E-15
 -1      1362 3.19799E-03-6.54286E-04-6.58226E-15
 -1      1363 3.33988E-03-6.52064E-04-7.21028E-15
 -1      1364 3.12628E-03-6.18464E-04-6.37263E-15
 -1      1365 3.48264E-03-6.49262E-04-7.86518E-15
 -1      1366 3.62632E-03-6.46010E-04-8.54697E-15
 -1      1367 3.41088E-03-6.13624E-04-7.63079E-15
 -1      1368 3.77099E-03-6.42363E-04-9.25489E-15
 -1      1369 3.91671E-03-6.38460E-04-9.98787E-15
 -1      1370 3.69862E-03-6.06669E-04-8.99579E-15
 -1      1371 4.06357E-03-6.34367E-04-1.07463E-14
 -1      1372 4.21166E-03-6.30248E-04-1.15293E-14
 -1      1373 3.98997E-03-5.98343E-04-1.04639E-14
 -1      1374 4.36108E-03-6.26202E-04-1.23372E-14
 -1      1375 4.51194E-03-6.22433E-04-1.31698E-14
 -1      1376 4.28550E-03-5.89505E-04-1.20321E-14
 -1      1377 4.66434E-03-6.19096E-04-1.40262E-14
 -1      1378 4.81841E-03-6.16454E-04-1.49066E-14
 -1      1379 4.58590E-03-5.81277E-04-1.36981E-14
 -1      1380 4.97424E-03-6.14749E-04-1.58112E-14
 -1      1381 5.13195E-03-6.14315E-04-1.67394E-14
 -1      1382 4.89189E-03-5.75212E-04-1.54606E-14
 -1      1383 5.29163E-03-6.15516E-04-1.76934E-14
 -1      1384 5.45331E-03-6.18763E-04-1.86710E-14
 -1      1385 5.20420E-03-5.73489E-04-1.73206E-14
 -1      1386 5.61705E-03-6.24569E-04-1.96721E-14
 -1      1387 5.78279E-03-6.33405E-04-2.06983E-14
 -1      1388 5.52337E-03-5.79092E-04-1.92768E-14
 -1      1389 5.95045E-03-6.45932E-04-2.17483E-14
 -1      1390 6.11983E-03-6.62627E-04-2.28234E-14
 -1      1391 5.84959E-03-5.95910E-04-2.13295E-14
 -1      1392 6.29068E-03-6.84221E-04-2.39200E-14
 -1      1393 6.46256E-03-7.11077E-04-2.50400E-14
 -1      1394 6.18230E-03-6.28591E-04-2.34772E-14
 -1      1395 6.63499E-03-7.43786E-04-2.61881E-14
 -1      1396 6.80728E-03-7.82368E-04-2.73595E-14
 -1      1397 6.51993E-03-6.81883E-04-2.57219E-14
 -1      1398 6.97872E-03-8.26897E-04-2.85546E-14
 -1      1399 7.14841E-03-8.76732E-04-2.97726E-14
 -1      1400 6.85947E-03-7.59090E-04-2.80639E-14
 -1      1401 7.31553E-03-9.30947E-04-3.10143E-14
 -1      1402 7.47921E-03-9.87922E-04-3.22813E-14
 -1      1403 7.19652E-03-8.59417E-04-3.05004E-14
 -1      1404 7.63878E-03-1.04543E-03-3.35699E-14
 -1      1405 7.79378E-03-1.10087E-03-3.48811E-14
 -1      1406 7.52578E-03-9.74684E-04-3.30295E-14
 -1      1407 7.94409E-03-1.15101E-03-3.62149E-14
 -1      1408 8.09008E-03-1.19291E-03-3.75687E-14
 -1      1409 7.84277E-03-1.08731E-03-3.56504E-14
 -1      1410 8.23242E-03-1.22346E-03-3.89483E-14
 -1      1411 8.37237E-03-1.24061E-03-4.03525E-14
 -1      1412 8.14632E-03-1.17269E-03-3.83650E-14
 -1      1413 8.51127E-03-1.24294E-03-4.17806E-14
 -1      1414 8.65081E-03-1.23031E-03-4.32351E-14
 -1      1415 8.44061E-03-1.20769E-03-4.11751E-14
 -1      1416 8.79236E-03-1.20380E-03-4.47152E-14
 -1      1417 8.93728E-03-1.16527E-03-4.62178E-14
 -1      1418 8.73424E-03-1.18188E-03-4.40838E-14
 -1      1419 9.08636E-03-1.11766E-03-4.77438E-14
 -1      1420 9.24010E-03-1.06388E-03-4.92922E-14
 -1      1421 9.03618E-03-1.10331E-03-4.70909E-14
 -1      1422 9.39846E-03-1.00722E-03-5.08634E-14
 -1      1423 9.56110E-03-9.50377E-04-5.24586E-14
 -1      1424 9.35133E-03-9.93974E-04-5.01913E-14
 -1      1425 9.72739E-03-8.95765E-04-5.40741E-14
 -1      1426 9.89650E-03-8.45136E-04-5.57117E-14
 -1      1427 9.67919E-03-8.78899E-04-5.33800E-14
 -1      1428 1.00676E-02-7.99579E-04-5.73714E-14
 -1      1429 1.02398E-02-7.59855E-04-5.90503E-14
 -1      1430 1.00156E-02-7.76885E-04-5.66583E-14
 -1      1431 1.04123E-02-7.25993E-04-6.07517E-14
 -1      1432 1.05845E-02-6.98041E-04-6.24752E-14
 -1      1433 1.03552E-02-6.97310E-04-6.00217E-14
 -1      1434 1.07558E-02-6.75449E-04-6.42195E-14
 -1      1435 1.09258E-02-6.57885E-04-6.59833E-14
 -1      1436 1.06935E-02-6.41759E-04-6.34683E-14
 -1      1437 1.10941E-02-6.44621E-04-6.77668E-14
 -1      1438 1.12606E-02-6.35186E-04-6.95699E-14
 -1      1439 1.10273E-02-6.07293E-04-6.69974E-14
 -1      1440 1.14252E-02-6.28903E-04-7.13906E-14
 -1      1441 1.15878E-02-6.25299E-04-7.32297E-14
 -1      1442 1.13550E-02-5.89241E-04-7.06026E-14
 -1      1443 1.17485E-02-6.23839E-04-7.50807E-14
 -1      1444 1.19072E-02-6.24111E-04-7.69443E-14
 -1      1445 1.16758E-02-5.82891E-04-7.42758E-14
 -1      1446 1.20642E-02-6.25733E-04-7.88300E-14
 -1      1447 1.22194E-02-6.28372E-04-8.07325E-14
 -1      1448 1.19900E-02-5.84254E-04-7.80130E-14
 -1      1449 1.23731E-02-6.31776E-04-8.26487E-14
 -1      1450 1.25254E-02-6.35690E-04-8.45862E-14
 -1      1451 1.22981E-02-5.90267E-04-8.18150E-14
 -1      1452 1.26763E-02-6.39961E-04-8.65415E-14
 -1      1453 1.28261E-02-6.44399E-04-8.85099E-14
 -1      1454 1.26011E-02-5.98728E-04-8.56874E-14
 -1      1455 1.29748E-02-6.48919E-04-9.04948E-14
 -1      1456 1.31226E-02-6.53386E-04-9.24954E-14
 -1      1457 1.28996E-02-6.08130E-04-8.96274E-14
 -1      1458 1.32695E-02-6.57757E-04-9.45061E-14
 -1      1459 1.34157E-02-6.61939E-04-9.65293E-14
 -1      1460 1.31947E-02-6.17486E-04-9.36207E-14
 -1      1461 1.35613E-02-6.65916E-04-9.85659E-14
 -1      1462 1.37063E-02-6.69626E-04-1.00613E-13
 -1      1463 1.34869E-02-6.26183E-04-9.76676E-14
 -1      1464 1.38509E-02-6.73066E-04-1.02670E-13
 -1      1465 1.39950E-02-6.76197E-04-1.04735E-13
 -1      1466 1.37770E-02-6.33857E-04-1.01755E-13
 -1      1467 1.41388E-02-6.79026E-04-1.06810E-13
 -1      1468 1.42823E-02-6.81531E-04-1.08893E-13
 -1      1469 1.40654E-02-6.40308E-04-1.05883E-13
 -1      1470 1.44256E-02-6.83727E-04-1.10986E-13
 -1      1471 1.45688E-02-6.85610E-04-1.13086E-13
 -1      1472 1.43526E-02-6.45453E-04-1.10047E-13
 -1      1473 1.47118E-02-6.87214E-04-1.15194E-13
 -1      1474 1.48547E-02-6.88567E-04-1.17311E-13
 -1      1475 1.46391E-02-6.49313E-04-1.14244E-13
 -1      1476 1.50617E-02-6.85967E-04-1.20400E-13
 -1      1477 1.49892E-02-6.48297E-04-1.19441E-13
 -1      1478 6.41869E-04 3.71042E-04-1.08637E-16
 -1      1479 4.92028E-04 3.03043E-04-4.58482E-17
 -1      1480 4.44161E-04 2.65330E-04-7.12592E-17
 -1      1481 9.26936E-04 4.70179E-04-3.28269E-16
 -1      1482 7.86325E-04 4.25134E-04-2.03152E-16
 -1      1483 7.43561E-04 3.89453E-04-2.32616E-16
 -1      1484 1.20138E-03 5.38483E-04-6.70349E-16
 -1      1485 1.06493E-03 5.07402E-04-4.83757E-16
 -1      1486 1.02922E-03 4.73935E-04-5.16460E-16
 -1      1487 1.47159E-03 5.86206E-04-1.13581E-15
 -1      1488 1.33669E-03 5.64533E-04-8.87663E-16
 -1      1489 1.30684E-03 5.32478E-04-9.21355E-16
 -1      1490 1.74095E-03 6.19191E-04-1.72395E-15
 -1      1491 1.60620E-03 6.04304E-04-1.41441E-15
 -1      1492 1.58091E-03 5.73086E-04-1.44737E-15
 -1      1493 2.01125E-03 6.41220E-04-2.43218E-15
 -1      1494 1.87589E-03 6.31407E-04-2.06310E-15
 -1      1495 1.85414E-03 6.00650E-04-2.09412E-15
 -1      1496 2.28342E-03 6.54949E-04-3.25738E-15
 -1      1497 2.14705E-03 6.48994E-04-2.83035E-15
 -1      1498 2.12805E-03 6.18458E-04-2.85916E-15
 -1      1499 2.55799E-03 6.62331E-04-4.19894E-15
 -1      1500 2.42038E-03 6.59333E-04-3.71366E-15
 -1      1501 2.40348E-03 6.28864E-04-3.74023E-15
 -1      1502 2.83527E-03 6.64836E-04-5.25544E-15
 -1      1503 2.69627E-03 6.64113E-04-4.71293E-15
 -1      1504 2.68096E-03 6.33602E-04-4.73603E-15
 -1      1505 3.11551E-03 6.63591E-04-6.42441E-15
 -1      1506 2.97501E-03 6.64615E-04-5.82661E-15
 -1      1507 2.96085E-03 6.33982E-04-5.84465E-15
 -1      1508 3.39900E-03 6.59495E-04-7.69826E-15
 -1      1509 3.25683E-03 6.61839E-04-7.04777E-15
 -1      1510 3.24344E-03 6.31010E-04-7.06177E-15
 -1      1511 3.68611E-03 6.53324E-04-9.07876E-15
 -1      1512 3.54208E-03 6.56607E-04-8.37510E-15
 -1      1513 3.52908E-03 6.25509E-04-8.38480E-15
 -1      1514 3.97734E-03 6.45845E-04-1.05680E-14
 -1      1515 3.83118E-03 6.49678E-04-9.80960E-15
 -1      1516 3.81818E-03 6.18224E-04-9.81584E-15
 -1      1517 4.27333E-03 6.37933E-04-1.21716E-14
 -1      1518 4.12469E-03 6.41856E-04-1.13554E-14
 -1      1519 4.11126E-03 6.09940E-04-1.13576E-14
 -1      1520 4.57487E-03 6.30717E-04-1.38874E-14
 -1      1521 4.42335E-03 6.34126E-04-1.30153E-14
 -1      1522 4.40895E-03 6.01614E-04-1.30113E-14
 -1      1523 4.88284E-03 6.25738E-04-1.57112E-14
 -1      1524 4.72799E-03 6.27803E-04-1.47868E-14
 -1      1525 4.71198E-03 5.94532E-04-1.47751E-14
 -1      1526 5.19810E-03 6.25124E-04-1.76394E-14
 -1      1527 5.03950E-03 6.24702E-04-1.66620E-14
 -1      1528 5.02111E-03 5.90477E-04-1.66438E-14
 -1      1529 5.52132E-03 6.31756E-04-1.96646E-14
 -1      1530 5.35868E-03 6.27314E-04-1.86402E-14
 -1      1531 5.33701E-03 5.91921E-04-1.86132E-14
 -1      1532 5.85259E-03 6.49332E-04-2.17855E-14
 -1      1533 5.68595E-03 6.38935E-04-2.07132E-14
 -1      1534 5.66005E-03 6.02162E-04-2.06798E-14
 -1      1535 6.19106E-03 6.82209E-04-2.40015E-14
 -1      1536 6.02101E-03 6.63639E-04-2.28815E-14
 -1      1537 5.99006E-03 6.25327E-04-2.28413E-14
 -1      1538 6.53439E-03 7.34732E-04-2.63151E-14
 -1      1539 6.36232E-03 7.05900E-04-2.51460E-14
 -1      1540 6.32589E-03 6.66031E-04-2.50995E-14
 -1      1541 6.87831E-03 8.09761E-04-2.87262E-14
 -1      1542 6.70661E-03 7.69551E-04-2.75084E-14
 -1      1543 6.66510E-03 7.28379E-04-2.74542E-14
 -1      1544 7.21674E-03 9.06205E-04-3.12337E-14
 -1      1545 7.04867E-03 8.55807E-04-2.99684E-14
 -1      1546 7.00371E-03 8.14007E-04-2.99056E-14
 -1      1547 7.54282E-03 1.01612E-03-3.38354E-14
 -1      1548 7.38178E-03 9.60453E-04-3.25229E-14
 -1      1549 7.33649E-03 9.19203E-04-3.24514E-14
 -1      1550 7.85122E-03 1.12303E-03-3.65306E-14
 -1      1551 7.69948E-03 1.07130E-03-3.51707E-14
 -1      1552 7.65814E-03 1.03212E-03-3.50916E-14
 -1      1553 8.14120E-03 1.20424E-03-3.93221E-14
 -1      1554 7.99833E-03 1.16818E-03-3.79150E-14
 -1      1555 7.96548E-03 1.13241E-03-3.78291E-14
 -1      1556 8.41861E-03 1.23843E-03-4.22131E-14
 -1      1557 8.28084E-03 1.22794E-03-4.07549E-14
 -1      1558 8.25984E-03 1.19598E-03-4.06637E-14
 -1      1559 8.69457E-03 1.21549E-03-4.52004E-14
 -1      1560 8.55592E-03 1.23383E-03-4.36941E-14
 -1      1561 8.54793E-03 1.20477E-03-4.35962E-14
 -1      1562 8.98086E-03 1.14184E-03-4.82849E-14
 -1      1563 8.83575E-03 1.18383E-03-4.67314E-14
 -1      1564 8.83936E-03 1.15585E-03-4.66270E-14
 -1      1565 9.28483E-03 1.03705E-03-5.14643E-14
 -1      1566 9.13039E-03 1.09183E-03-4.98617E-14
 -1      1567 9.14216E-03 1.06315E-03-4.97507E-14
 -1      1568 9.60721E-03 9.24347E-04-5.47370E-14
 -1      1569 9.44389E-03 9.80426E-04-5.30902E-14
 -1      1570 9.45944E-03 9.50009E-04-5.29699E-14
 -1      1571 9.94347E-03 8.22050E-04-5.80893E-14
 -1      1572 9.77402E-03 8.71176E-04-5.64031E-14
 -1      1573 9.78924E-03 8.38837E-04-5.62755E-14
 -1      1574 1.02869E-02 7.40015E-04-6.15265E-14
 -1      1575 1.01147E-02 7.78288E-04-5.97967E-14
 -1      1576 1.01267E-02 7.44403E-04-5.96642E-14
 -1      1577 1.06310E-02 6.80620E-04-6.50538E-14
 -1      1578 1.04592E-02 7.07603E-04-6.32786E-14
 -1      1579 1.04664E-02 6.72755E-04-6.31408E-14
 -1      1580 1.09712E-02 6.41639E-04-6.86652E-14
 -1      1581 1.08018E-02 6.58840E-04-6.68494E-14
 -1      1582 1.08038E-02 6.23586E-04-6.67037E-14
 -1      1583 1.13047E-02 6.18888E-04-7.23525E-14
 -1      1584 1.11389E-02 6.28524E-04-7.04992E-14
 -1      1585 1.11363E-02 5.93289E-04-7.03453E-14
 -1      1586 1.16305E-02 6.07936E-04-7.61184E-14
 -1      1587 1.14686E-02 6.12193E-04-7.42277E-14
 -1      1588 1.14622E-02 5.77258E-04-7.40654E-14
 -1      1589 1.19485E-02 6.04925E-04-7.99515E-14
 -1      1590 1.17904E-02 6.05642E-04-7.80249E-14
 -1      1591 1.17811E-02 5.71157E-04-7.78550E-14
 -1      1592 1.22595E-02 6.06834E-04-8.38523E-14
 -1      1593 1.21048E-02 6.05416E-04-8.18937E-14
 -1      1594 1.20935E-02 5.71441E-04-8.17152E-14
 -1      1595 1.25644E-02 6.11450E-04-8.78148E-14
 -1      1596 1.24126E-02 6.08911E-04-8.58266E-14
 -1      1597 1.24000E-02 5.75443E-04-8.56409E-14
 -1      1598 1.28642E-02 6.17235E-04-9.18185E-14
 -1      1599 1.27149E-02 6.14269E-04-8.98121E-14
 -1      1600 1.27014E-02 5.81271E-04-8.96184E-14
 -1      1601 1.31600E-02 6.23165E-04-9.58451E-14
 -1      1602 1.30126E-02 6.20229E-04-9.38295E-14
 -1      1603 1.29987E-02 5.87646E-04-9.36304E-14
 -1      1604 1.34526E-02 6.28588E-04-9.98943E-14
 -1      1605 1.33066E-02 6.25969E-04-9.78684E-14
 -1      1606 1.32926E-02 5.93741E-04-9.76640E-14
 -1      1607 1.37427E-02 6.33108E-04-1.03961E-13
 -1      1608 1.35979E-02 6.30978E-04-1.01925E-13
 -1      1609 1.35840E-02 5.99046E-04-1.01719E-13
 -1      1610 1.40310E-02 6.36500E-04-1.08055E-13
 -1      1611 1.38870E-02 6.34953E-04-1.06004E-13
 -1      1612 1.38733E-02 6.03263E-04-1.05794E-13
 -1      1613 1.43181E-02 6.38658E-04-1.12172E-13
 -1      1614 1.41747E-02 6.37734E-04-1.10110E-13
 -1      1615 1.41612E-02 6.06238E-04-1.09895E-13
 -1      1616 1.46043E-02 6.39588E-04-1.16309E-13
 -1      1617 1.44613E-02 6.39269E-04-1.14241E-13
 -1      1618 1.44480E-02 6.07922E-04-1.14018E-13
 -1      1619 1.48901E-02 6.39468E-04-1.20438E-13
 -1      1620 1.47472E-02 6.39636E-04-1.18374E-13
 -1      1621 1.47342E-02 6.08388E-04-1.18145E-13
 -1      1622 1.50390E-02 6.28273E-04-1.22575E-13
 -1      1623 1.50520E-02 5.22929E-04-1.22617E-13
 -1      1624 1.50515E-02 5.65025E-04-1.22669E-13
 -1      1625 1.50537E-02 4.38999E-04-1.22515E-13
 -1      1626 1.50527E-02 4.80907E-04-1.22566E-13
 -1      1627 1.49286E-02 5.02311E-04-1.20808E-13
 -1      1628 1.50563E-02 3.55640E-04-1.22412E-13
 -1      1629 1.50549E-02 3.97233E-04-1.22463E-13
 -1      1630 1.49307E-02 4.18673E-04-1.20707E-13
 -1      1631 1.50596E-02 2.73036E-04-1.22303E-13
 -1      1632 1.50579E-02 3.14237E-04-1.22359E-13
 -1      1633 1.49336E-02 3.35654E-04-1.20605E-13
 -1      1634 1.50630E-02 1.92624E-04-1.22203E-13
 -1      1635 1.50613E-02 2.32733E-04-1.22253E-13
 -1      1636 1.49370E-02 2.54051E-04-1.20499E-13
 -1      1637 1.50661E-02 1.11549E-04-1.22099E-13
 -1      1638 1.50646E-02 1.52004E-04-1.22151E-13
 -1      1639 1.49405E-02 1.73156E-04-1.20395E-13
 -1      1640 1.50687E-02 3.10031E-05-1.21999E-13
 -1      1641 1.50675E-02 7.12254E-05-1.22048E-13
 -1      1642 1.49436E-02 9.21778E-05-1.20285E-13
 -1      1643 1.50703E-02-4.93011E-05-1.21892E-13
 -1      1644 1.50696E-02-9.16007E-06-1.21948E-13
 -1      1645 1.49460E-02 1.16070E-05-1.20175E-13
 -1      1646 1.50710E-02-1.29690E-04-1.21754E-13
 -1      1647 1.50708E-02-8.94655E-05-1.21829E-13
 -1      1648 1.49474E-02-6.88222E-05-1.20056E-13
 -1      1649 1.50710E-02-2.10477E-04-1.21619E-13
 -1      1650 1.50711E-02-1.70017E-04-1.21686E-13
 -1      1651 1.49479E-02-1.49397E-04-1.19922E-13
 -1      1652 1.50705E-02-2.90524E-04-1.21479E-13
 -1      1653 1.50707E-02-2.50412E-04-1.21549E-13
 -1      1654 1.49476E-02-2.29694E-04-1.19780E-13
 -1      1655 1.50699E-02-3.72734E-04-1.21323E-13
 -1      1656 1.50701E-02-3.31527E-04-1.21404E-13
 -1      1657 1.49469E-02-3.10593E-04-1.19627E-13
 -1      1658 1.50697E-02-4.55743E-04-1.21146E-13
 -1      1659 1.50697E-02-4.14144E-04-1.21239E-13
 -1      1660 1.49463E-02-3.92902E-04-1.19458E-13
 -1      1661 1.50704E-02-5.39426E-04-1.20962E-13
 -1      1662 1.50700E-02-4.97515E-04-1.21055E-13
 -1      1663 1.49462E-02-4.75933E-04-1.19274E-13
 -1      1664 1.50301E-02-6.14877E-04-1.20152E-13
 -1      1665 1.50292E-02-5.72812E-04-1.20259E-13
 -1      1666 1.49052E-02-5.50922E-04-1.18475E-13
 -1      1667 1.48230E-02-6.17483E-04-1.17065E-13
 -1      1668 1.06606E-02 6.28692E-05-5.00118E-14
 -1      1669 1.06918E-02 1.81045E-05-5.00674E-14
 -1      1670 1.05048E-02 1.71404E-04-4.96632E-14
 -1      1671 1.05912E-02 1.19001E-04-4.98627E-14
 -1      1672 1.02356E-02 3.05081E-04-4.90119E-14
 -1      1673 1.03723E-02 2.37327E-04-4.93732E-14
 -1      1674 9.89433E-03 4.75549E-04-4.79733E-14
 -1      1675 1.00608E-02 3.96168E-04-4.84681E-14
 -1      1676 9.53004E-03 6.41555E-04-4.67999E-14
 -1      1677 9.69749E-03 5.66300E-04-4.73543E-14
 -1      1678 9.11796E-03 7.97978E-04-4.54095E-14
 -1      1679 9.30456E-03 7.25591E-04-4.61155E-14
 -1      1680 8.74088E-03 8.98338E-04-4.38365E-14
 -1      1681 8.91567E-03 8.61315E-04-4.45314E-14
 -1      1682 8.34622E-03 9.22122E-04-4.22215E-14
 -1      1683 8.52795E-03 9.24123E-04-4.29815E-14
 -1      1684 7.94820E-03 8.50287E-04-4.05946E-14
 -1      1685 8.13055E-03 8.95289E-04-4.13232E-14
 -1      1686 7.54598E-03 7.10545E-04-3.91773E-14
 -1      1687 7.72470E-03 7.80035E-04-3.98068E-14
 -1      1688 7.16646E-03 5.48135E-04-3.79887E-14
 -1      1689 7.33591E-03 6.25175E-04-3.85158E-14
 -1      1690 6.79109E-03 3.60051E-04-3.68501E-14
 -1      1691 6.96893E-03 4.45325E-04-3.73388E-14
 -1      1692 6.48688E-03 2.19790E-04-3.61281E-14
 -1      1693 6.60906E-03 2.82007E-04-3.64382E-14
 -1      1694 6.28582E-03 9.89410E-05-3.56282E-14
 -1      1695 6.36600E-03 1.52729E-04-3.58291E-14
 -1      1696 6.21384E-03-6.67594E-06-3.53628E-14
 -1      1697 6.22881E-03 3.78069E-05-3.54122E-14
 -1      1698 6.28545E-03-1.06711E-04-3.55447E-14
 -1      1699 6.23674E-03-6.07924E-05-3.54564E-14
 -1      1700 6.49189E-03-2.21078E-04-3.58983E-14
 -1      1701 6.38028E-03-1.61736E-04-3.56652E-14
 -1      1702 6.82680E-03-3.74678E-04-3.66070E-14
 -1      1703 6.66230E-03-2.95452E-04-3.62127E-14
 -1      1704 7.20209E-03-5.70231E-04-3.77329E-14
 -1      1705 7.02170E-03-4.85283E-04-3.72288E-14
 -1      1706 7.58380E-03-7.40593E-04-3.89479E-14
 -1      1707 7.40746E-03-6.66380E-04-3.83841E-14
 -1      1708 8.01668E-03-8.82739E-04-4.03925E-14
 -1      1709 7.82288E-03-8.21884E-04-3.96582E-14
 -1      1710 8.40347E-03-9.37594E-04-4.19948E-14
 -1      1711 8.22915E-03-9.22708E-04-4.12874E-14
 -1      1712 8.79955E-03-9.03056E-04-4.36197E-14
 -1      1713 8.61487E-03-9.30696E-04-4.28619E-14
 -1      1714 9.20634E-03-7.87344E-04-4.51942E-14
 -1      1715 9.02034E-03-8.48775E-04-4.44807E-14
 -1      1716 9.61686E-03-6.14999E-04-4.67172E-14
 -1      1717 9.42398E-03-6.99762E-04-4.60359E-14
 -1      1718 1.00155E-02-4.35002E-04-4.79925E-14
 -1      1719 9.83936E-03-5.18539E-04-4.74294E-14
 -1      1720 1.03439E-02-2.74199E-04-4.89943E-14
 -1      1721 1.02019E-02-3.44608E-04-4.85722E-14
 -1      1722 1.05833E-02-1.37781E-04-4.97448E-14
 -1      1723 1.04849E-02-1.95322E-04-4.94565E-14
 -1      1724 1.06920E-02-3.40406E-05-5.00398E-14
 -1      1725 1.06597E-02-8.02398E-05-4.99339E-14
 -1      1726 9.74033E-03 4.79171E-04-4.80860E-14
 -1      1727 1.01076E-02 2.96890E-04-4.92601E-14
 -1      1728 1.50261E-02 5.97050E-04-1.22345E-13
 -1      1729 1.49025E-02 5.76265E-04-1.20533E-13
 -1      1730 1.06282E-02 6.13624E-05-5.05526E-14
 -1      1731 1.04199E-02 1.55725E-04-5.01060E-14
 -1      1732 1.07016E-02-8.21776E-06-5.06753E-14
 -1      1733 9.34571E-03 6.68328E-04-4.67723E-14
 -1      1734 8.97469E-03 8.37476E-04-4.51977E-14
 -1      1735 8.61192E-03 9.36405E-04-4.34592E-14
 -1      1736 8.25795E-03 9.33418E-04-4.17043E-14
 -1      1737 7.89271E-03 8.21804E-04-4.00235E-14
 -1      1738 7.50659E-03 6.48435E-04-3.85837E-14
 -1      1739 7.11779E-03 4.49896E-04-3.72838E-14
 -1      1740 6.74306E-03 2.69606E-04-3.62371E-14
 -1      1741 6.43669E-03 1.39409E-04-3.55369E-14
 -1      1742 6.25114E-03 4.40133E-05-3.50286E-14
 -1      1743 6.21561E-03-2.22165E-05-3.49078E-14
 -1      1744 6.33762E-03-9.79001E-05-3.51195E-14
 -1      1745 6.60671E-03-2.03790E-04-3.55471E-14
 -1      1746 6.97304E-03-3.76483E-04-3.64685E-14
 -1      1747 7.36411E-03-5.87364E-04-3.77297E-14
 -1      1748 7.77219E-03-7.80630E-04-3.90792E-14
 -1      1749 8.14676E-03-9.22273E-04-4.06716E-14
 -1      1750 8.50616E-03-9.60824E-04-4.24300E-14
 -1      1751 8.86882E-03-8.91142E-04-4.41601E-14
 -1      1752 9.25870E-03-7.33250E-04-4.58701E-14
 -1      1753 9.66622E-03-5.31413E-04-4.74353E-14
 -1      1754 1.00644E-02-3.38807E-04-4.87387E-14
 -1      1755 1.03968E-02-1.83471E-04-4.97921E-14
 -1      1756 1.06226E-02-7.97110E-05-5.04525E-14
 -1      1757 2.84778E-04-1.75946E-04-2.89753E-17
 -1      1758 3.32197E-04-1.16412E-04-1.37734E-16
 -1      1759 3.36258E-04-1.32656E-04-1.26255E-16
 -1      1760 3.42040E-04-1.51639E-04-1.12811E-16
 -1      1761 3.51462E-04-1.73626E-04-9.46780E-17
 -1      1762 4.58178E-04-1.87481E-04-1.82905E-16
 -1      1763 3.24800E-04-6.50635E-05-1.64324E-16
 -1      1764 3.25910E-04-7.63318E-05-1.59676E-16
 -1      1765 3.23364E-04-4.36390E-05-1.71412E-16
 -1      1766 3.23994E-04-5.40892E-05-1.68078E-16
 -1      1767 4.36832E-04-7.88269E-05-2.45884E-16
 -1      1768 3.22605E-04-2.36212E-05-1.75546E-16
 -1      1769 3.22927E-04-3.34806E-05-1.73649E-16
 -1      1770 4.34891E-04-5.09741E-05-2.54462E-16
 -1      1771 3.22321E-04-4.30777E-06-1.77796E-16
 -1      1772 3.22415E-04-1.38976E-05-1.76888E-16
 -1      1773 4.33893E-04-2.47426E-05-2.59707E-16
 -1      1774 3.22440E-04 1.48848E-05-1.77918E-16
 -1      1775 3.22329E-04 5.28477E-06-1.78216E-16
 -1      1776 4.33602E-04 7.53521E-07-2.62228E-16
 -1      1777 3.22989E-04 3.45212E-05-1.76481E-16
 -1      1778 3.22648E-04 2.46292E-05-1.77375E-16
 -1      1779 4.33951E-04 2.62785E-05-2.61970E-16
 -1      1780 3.24082E-04 5.48739E-05-1.72456E-16
 -1      1781 3.23440E-04 4.45500E-05-1.74841E-16
 -1      1782 4.35005E-04 5.23721E-05-2.58840E-16
 -1      1783 3.26071E-04 7.74723E-05-1.65680E-16
 -1      1784 3.24911E-04 6.59136E-05-1.69542E-16
 -1      1785 4.37009E-04 8.01275E-05-2.52551E-16
 -1      1786 3.29647E-04 1.03288E-04-1.53970E-16
 -1      1787 3.27562E-04 8.99460E-05-1.60787E-16
 -1      1788 4.40561E-04 1.11017E-04-2.41791E-16
 -1      1789 3.36511E-04 1.34740E-04-1.35024E-16
 -1      1790 3.32422E-04 1.18244E-04-1.45757E-16
 -1      1791 4.46870E-04 1.46744E-04-2.23725E-16
 -1      1792 3.51994E-04 1.77211E-04-1.04598E-16
 -1      1793 3.42631E-04 1.54382E-04-1.21919E-16
 -1      1794 4.59156E-04 1.90841E-04-1.95224E-16
 -1      1795 4.07131E-04 2.33187E-04-8.44593E-17
 -1      1796 3.77671E-04 2.02221E-04-9.82016E-17
 -1      1797 4.95407E-04 2.43309E-04-1.70044E-16
 -1      1798 5.57779E-04 3.01690E-04-1.50460E-16
 -1      1799 3.39585E-04-1.90540E-04-6.23281E-17
 -1      1800 8.52444E-04 4.05487E-04-3.76015E-16
 -1      1801 7.06211E-04 3.58186E-04-2.48364E-16
 -1      1802 6.72652E-04 3.27695E-04-2.60751E-16
 -1      1803 4.58460E-04-2.36118E-04-1.21187E-16
 -1      1804 8.06335E-04-3.72606E-04-3.44383E-16
 -1      1805 9.51479E-04-4.13291E-04-4.91401E-16
 -1      1806 1.09422E-03-4.47401E-04-6.67055E-16
 -1      1807 1.23582E-03-4.75630E-04-8.71983E-16
 -1      1808 1.00321E-03-3.95662E-04-6.19879E-16
 -1      1809 1.37618E-03-4.99348E-04-1.10576E-15
 -1      1810 1.51587E-03-5.18845E-04-1.36909E-15
 -1      1811 1.28883E-03-4.52285E-04-1.03822E-15
 -1      1812 1.65509E-03-5.35025E-04-1.66147E-15
 -1      1813 1.79405E-03-5.48122E-04-1.98267E-15
 -1      1814 1.57132E-03-4.91466E-04-1.57184E-15
 -1      1815 1.93295E-03-5.58722E-04-2.33301E-15
 -1      1816 2.07189E-03-5.67025E-04-2.71221E-15
 -1      1817 1.85222E-03-5.17730E-04-2.22081E-15
 -1      1818 2.21101E-03-5.73426E-04-3.12058E-15
 -1      1819 2.35036E-03-5.78092E-04-3.55735E-15
 -1      1820 2.13269E-03-5.34312E-04-2.98444E-15
 -1      1821 2.49005E-03-5.81297E-04-4.02224E-15
 -1      1822 2.63009E-03-5.83181E-04-4.51615E-15
 -1      1823 2.41353E-03-5.43555E-04-3.86205E-15
 -1      1824 2.77058E-03-5.83935E-04-5.03785E-15
 -1      1825 2.91152E-03-5.83675E-04-5.58654E-15
 -1      1826 2.69530E-03-5.47187E-04-4.85209E-15
 -1      1827 3.05299E-03-5.82536E-04-6.16317E-15
 -1      1828 3.19500E-03-5.80621E-04-6.76626E-15
 -1      1829 2.97839E-03-5.46496E-04-5.95277E-15
 -1      1830 3.33761E-03-5.78029E-04-7.39622E-15
 -1      1831 3.48086E-03-5.74855E-04-8.05340E-15
 -1      1832 3.26315E-03-5.42463E-04-7.16158E-15
 -1      1833 3.62480E-03-5.71181E-04-8.73688E-15
 -1      1834 3.76949E-03-5.67106E-04-9.44636E-15
 -1      1835 3.54990E-03-5.35877E-04-8.47769E-15
 -1      1836 3.91496E-03-5.62715E-04-1.01811E-14
 -1      1837 4.06131E-03-5.58120E-04-1.09413E-14
 -1      1838 3.83897E-03-5.27448E-04-9.89831E-15
 -1      1839 4.20855E-03-5.53431E-04-1.17265E-14
 -1      1840 4.35684E-03-5.48788E-04-1.25358E-14
 -1      1841 4.13076E-03-5.17927E-04-1.14202E-14
 -1      1842 4.50615E-03-5.44351E-04-1.33692E-14
 -1      1843 4.65667E-03-5.40301E-04-1.42275E-14
 -1      1844 4.42571E-03-5.08240E-04-1.30405E-14
 -1      1845 4.80838E-03-5.36880E-04-1.51104E-14
 -1      1846 4.96145E-03-5.34329E-04-1.60166E-14
 -1      1847 4.72437E-03-4.99649E-04-1.47588E-14
 -1      1848 5.11588E-03-5.33002E-04-1.69472E-14
 -1      1849 5.27181E-03-5.33217E-04-1.79020E-14
 -1      1850 5.02731E-03-4.93933E-04-1.65738E-14
 -1      1851 5.42926E-03-5.35468E-04-1.88817E-14
 -1      1852 5.58828E-03-5.40164E-04-1.98838E-14
 -1      1853 5.33518E-03-4.93584E-04-1.84853E-14
 -1      1854 5.74894E-03-5.47940E-04-2.09102E-14
 -1      1855 5.91113E-03-5.59296E-04-2.19611E-14
 -1      1856 5.64864E-03-5.01981E-04-2.04919E-14
 -1      1857 6.07501E-03-5.74957E-04-2.30354E-14
 -1      1858 6.24017E-03-5.95466E-04-2.41331E-14
 -1      1859 5.96829E-03-5.23441E-04-2.25930E-14
 -1      1860 6.40693E-03-6.21484E-04-2.52555E-14
 -1      1861 6.57444E-03-6.53466E-04-2.64031E-14
 -1      1862 6.29453E-03-5.62976E-04-2.47912E-14
 -1      1863 6.74317E-03-6.91713E-04-2.75739E-14
 -1      1864 6.91181E-03-7.36289E-04-2.87679E-14
 -1      1865 6.62723E-03-6.25443E-04-2.70838E-14
 -1      1866 7.08088E-03-7.86711E-04-2.99851E-14
 -1      1867 7.24873E-03-8.42190E-04-3.12258E-14
 -1      1868 6.96504E-03-7.13625E-04-2.94720E-14
 -1      1869 7.41571E-03-9.01056E-04-3.24908E-14
 -1      1870 7.58034E-03-9.61171E-04-3.37783E-14
 -1      1871 7.30468E-03-8.24986E-04-3.19534E-14
 -1      1872 7.74256E-03-1.01961E-03-3.50884E-14
 -1      1873 7.90200E-03-1.07305E-03-3.64220E-14
 -1      1874 7.64073E-03-9.47628E-04-3.45268E-14
 -1      1875 8.05811E-03-1.11797E-03-3.77807E-14
 -1      1876 8.21233E-03-1.15099E-03-3.91620E-14
 -1      1877 7.96756E-03-1.05835E-03-3.71955E-14
 -1      1878 8.36376E-03-1.16956E-03-4.05681E-14
 -1      1879 8.51555E-03-1.17207E-03-4.19979E-14
 -1      1880 8.28352E-03-1.12758E-03-3.99596E-14
 -1      1881 8.66665E-03-1.15834E-03-4.34524E-14
 -1      1882 8.82032E-03-1.12961E-03-4.49332E-14
 -1      1883 8.59407E-03-1.13284E-03-4.28222E-14
 -1      1884 8.97564E-03-1.08817E-03-4.64377E-14
 -1      1885 9.13432E-03-1.03727E-03-4.79646E-14
 -1      1886 8.90885E-03-1.07247E-03-4.57826E-14
 -1      1887 9.29577E-03-9.80395E-04-4.95163E-14
 -1      1888 9.45981E-03-9.20966E-04-5.10900E-14
 -1      1889 9.23419E-03-9.66769E-04-4.88401E-14
 -1      1890 9.62631E-03-8.62072E-04-5.26867E-14
 -1      1891 9.79389E-03-8.06003E-04-5.43046E-14
 -1      1892 9.56932E-03-8.45249E-04-5.19917E-14
 -1      1893 9.96288E-03-7.54616E-04-5.59432E-14
 -1      1894 1.01316E-02-7.08868E-04-5.76054E-14
 -1      1895 9.90889E-03-7.32462E-04-5.52296E-14
 -1      1896 1.03006E-02-6.69374E-04-5.92890E-14
 -1      1897 1.04684E-02-6.36152E-04-6.09918E-14
 -1      1898 1.02473E-02-6.41798E-04-5.85550E-14
 -1      1899 1.06356E-02-6.08978E-04-6.27177E-14
 -1      1900 1.08012E-02-5.87429E-04-6.44638E-14
 -1      1901 1.05809E-02-5.76814E-04-6.19652E-14
 -1      1902 1.09657E-02-5.70870E-04-6.62275E-14
 -1      1903 1.11285E-02-5.58758E-04-6.80117E-14
 -1      1904 1.09083E-02-5.35209E-04-6.54585E-14
 -1      1905 1.12898E-02-5.50364E-04-6.98147E-14
 -1      1906 1.14495E-02-5.45179E-04-7.16364E-14
 -1      1907 1.12292E-02-5.12261E-04-6.90280E-14
 -1      1908 1.16077E-02-5.42553E-04-7.34725E-14
 -1      1909 1.17645E-02-5.42066E-04-7.53236E-14
 -1      1910 1.15439E-02-5.02905E-04-7.26684E-14
 -1      1911 1.19197E-02-5.43206E-04-7.71946E-14
 -1      1912 1.20737E-02-5.45650E-04-7.90808E-14
 -1      1913 1.18532E-02-5.02714E-04-7.63759E-14
 -1      1914 1.22263E-02-5.49031E-04-8.09828E-14
 -1      1915 1.23779E-02-5.53109E-04-8.28999E-14
 -1      1916 1.21576E-02-5.08207E-04-8.01477E-14
 -1      1917 1.25283E-02-5.57640E-04-8.48356E-14
 -1      1918 1.26778E-02-5.62452E-04-8.67907E-14
 -1      1919 1.24580E-02-5.16835E-04-8.39870E-14
 -1      1920 1.28264E-02-5.67390E-04-8.87579E-14
 -1      1921 1.29742E-02-5.72335E-04-9.07414E-14
 -1      1922 1.27550E-02-5.26825E-04-8.78902E-14
 -1      1923 1.31212E-02-5.77199E-04-9.27379E-14
 -1      1924 1.32676E-02-5.81899E-04-9.47461E-14
 -1      1925 1.30492E-02-5.37003E-04-9.18542E-14
 -1      1926 1.34134E-02-5.86391E-04-9.67677E-14
 -1      1927 1.35588E-02-5.90618E-04-9.88019E-14
 -1      1928 1.33411E-02-5.46627E-04-9.58719E-14
 -1      1929 1.37037E-02-5.94564E-04-1.00845E-13
 -1      1930 1.38482E-02-5.98191E-04-1.02898E-13
 -1      1931 1.36312E-02-5.55258E-04-9.99358E-14
 -1      1932 1.39924E-02-6.01500E-04-1.04960E-13
 -1      1933 1.41363E-02-6.04465E-04-1.07029E-13
 -1      1934 1.39198E-02-5.62651E-04-1.04037E-13
 -1      1935 1.42799E-02-6.07099E-04-1.09112E-13
 -1      1936 1.44233E-02-6.09388E-04-1.11200E-13
 -1      1937 1.42075E-02-5.68693E-04-1.08177E-13
 -1      1938 1.45517E-02-6.12844E-04-1.13073E-13
 -1      1939 1.46948E-02-6.14527E-04-1.15179E-13
 -1      1940 1.47359E-02-5.81294E-04-1.15884E-13
 -1      1941 1.44794E-02-5.74823E-04-1.12129E-13
 -1      1942 1.13722E-03 4.77345E-04-7.19490E-16
 -1      1943 9.95578E-04 4.44686E-04-5.32628E-16
 -1      1944 9.63468E-04 4.15321E-04-5.45313E-16
 -1      1945 1.41618E-03 5.27360E-04-1.18323E-15
 -1      1946 1.27709E-03 5.04693E-04-9.36385E-16
 -1      1947 1.24778E-03 4.76660E-04-9.47823E-16
 -1      1948 1.69258E-03 5.61747E-04-1.76695E-15
 -1      1949 1.55451E-03 5.46266E-04-1.46001E-15
 -1      1950 1.52803E-03 5.19212E-04-1.46938E-15
 -1      1951 1.96842E-03 5.84590E-04-2.46930E-15
 -1      1952 1.83047E-03 5.74445E-04-2.10341E-15
 -1      1953 1.80646E-03 5.48043E-04-2.10944E-15
 -1      1954 2.24492E-03 5.98744E-04-3.28844E-15
 -1      1955 2.10654E-03 5.92631E-04-2.86429E-15
 -1      1956 2.08456E-03 5.66646E-04-2.86643E-15
 -1      1957 2.52278E-03 6.06287E-04-4.22280E-15
 -1      1958 2.38365E-03 6.03250E-04-3.74149E-15
 -1      1959 2.36328E-03 5.77518E-04-3.73921E-15
 -1      1960 2.80249E-03 6.08759E-04-5.26983E-15
 -1      1961 2.66239E-03 6.08086E-04-4.73222E-15
 -1      1962 2.64324E-03 5.82490E-04-4.72544E-15
 -1      1963 3.08441E-03 6.07325E-04-6.42804E-15
 -1      1964 2.94316E-03 6.08473E-04-5.83527E-15
 -1      1965 2.92487E-03 5.82926E-04-5.82326E-15
 -1      1966 3.36885E-03 6.02893E-04-7.69235E-15
 -1      1967 3.22629E-03 6.05434E-04-7.04684E-15
 -1      1968 3.20852E-03 5.79862E-04-7.02921E-15
 -1      1969 3.65619E-03 5.96233E-04-9.06489E-15
 -1      1970 3.51213E-03 5.99794E-04-8.36539E-15
 -1      1971 3.49452E-03 5.74128E-04-8.34272E-15
 -1      1972 3.94686E-03 5.88080E-04-1.05450E-14
 -1      1973 3.80107E-03 5.92290E-04-9.79094E-15
 -1      1974 3.78325E-03 5.66455E-04-9.76316E-15
 -1      1975 4.24137E-03 5.79268E-04-1.21366E-14
 -1      1976 4.09359E-03 5.83691E-04-1.13265E-14
 -1      1977 4.07513E-03 5.57597E-04-1.12928E-14
 -1      1978 4.54034E-03 5.70865E-04-1.38382E-14
 -1      1979 4.39024E-03 5.74929E-04-1.29742E-14
 -1      1980 4.37067E-03 5.48458E-04-1.29334E-14
 -1      1981 4.84443E-03 5.64343E-04-1.56475E-14
 -1      1982 4.69168E-03 5.67253E-04-1.47296E-14
 -1      1983 4.67045E-03 5.40249E-04-1.46821E-14
 -1      1984 5.15432E-03 5.61762E-04-1.75589E-14
 -1      1985 4.99859E-03 5.62407E-04-1.65905E-14
 -1      1986 4.97508E-03 5.34665E-04-1.65354E-14
 -1      1987 5.47055E-03 5.65947E-04-1.95691E-14
 -1      1988 5.31160E-03 5.62814E-04-1.85519E-14
 -1      1989 5.28517E-03 5.34071E-04-1.84885E-14
 -1      1990 5.79337E-03 5.80602E-04-2.16762E-14
 -1      1991 5.63113E-03 5.71735E-04-2.06107E-14
 -1      1992 5.60124E-03 5.41670E-04-2.05400E-14
 -1      1993 6.12248E-03 6.10201E-04-2.38786E-14
 -1      1994 5.95720E-03 5.93292E-04-2.27654E-14
 -1      1995 5.92352E-03 5.61554E-04-2.26873E-14
 -1      1996 6.45671E-03 6.59433E-04-2.61779E-14
 -1      1997 6.28913E-03 6.32174E-04-2.50165E-14
 -1      1998 6.25183E-03 5.98463E-04-2.49308E-14
 -1      1999 6.79372E-03 7.31840E-04-2.85714E-14
 -1      2000 6.62519E-03 6.92723E-04-2.73623E-14
 -1      2001 6.58516E-03 6.56965E-04-2.72695E-14
 -1      2002 7.12980E-03 8.27387E-04-3.10633E-14
 -1      2003 6.96233E-03 7.77048E-04-2.98061E-14
 -1      2004 6.92141E-03 7.39676E-04-2.97041E-14
 -1      2005 7.46018E-03 9.39296E-04-3.36471E-14
 -1      2006 7.29620E-03 8.82129E-04-3.23424E-14
 -1      2007 7.25696E-03 8.44357E-04-3.22332E-14
 -1      2008 7.78027E-03 1.05164E-03-3.63264E-14
 -1      2009 7.62183E-03 9.96729E-04-3.49745E-14
 -1      2010 7.58702E-03 9.60559E-04-3.48557E-14
 -1      2011 8.08806E-03 1.14073E-03-3.91063E-14
 -1      2012 7.93559E-03 1.10053E-03-3.77046E-14
 -1      2013 7.90719E-03 1.06808E-03-3.75773E-14
 -1      2014 8.38635E-03 1.18267E-03-4.19822E-14
 -1      2015 8.23775E-03 1.16850E-03-4.05315E-14
 -1      2016 8.21642E-03 1.14082E-03-4.03981E-14
 -1      2017 8.68270E-03 1.16455E-03-4.49569E-14
 -1      2018 8.53386E-03 1.18096E-03-4.34572E-14
 -1      2019 8.51919E-03 1.15720E-03-4.33154E-14
 -1      2020 8.98572E-03 1.09172E-03-4.80276E-14
 -1      2021 8.83267E-03 1.13382E-03-4.64805E-14
 -1      2022 8.82398E-03 1.11176E-03-4.63314E-14
 -1      2023 9.30052E-03 9.84632E-04-5.11920E-14
 -1      2024 9.14142E-03 1.04092E-03-4.95981E-14
 -1      2025 9.13796E-03 1.01839E-03-4.94424E-14
 -1      2026 9.62696E-03 8.68345E-04-5.44473E-14
 -1      2027 9.46249E-03 9.26378E-04-5.28089E-14
 -1      2028 9.46306E-03 9.02252E-04-5.26471E-14
 -1      2029 9.96125E-03 7.62663E-04-5.77875E-14
 -1      2030 9.79355E-03 8.13497E-04-5.61068E-14
 -1      2031 9.79631E-03 7.87681E-04-5.59361E-14
 -1      2032 1.02985E-02 6.78149E-04-6.12138E-14
 -1      2033 1.01299E-02 7.17594E-04-5.94897E-14
 -1      2034 1.01328E-02 6.90503E-04-5.93118E-14
 -1      2035 1.06345E-02 6.17321E-04-6.47275E-14
 -1      2036 1.04670E-02 6.44920E-04-6.29602E-14
 -1      2037 1.04682E-02 6.17041E-04-6.27767E-14
 -1      2038 1.09663E-02 5.77798E-04-6.83231E-14
 -1      2039 1.08011E-02 5.95169E-04-6.65152E-14
 -1      2040 1.07997E-02 5.66892E-04-6.63249E-14
 -1      2041 1.12924E-02 5.55156E-04-7.19945E-14
 -1      2042 1.11302E-02 5.64651E-04-7.01492E-14
 -1      2043 1.11257E-02 5.36254E-04-6.99516E-14
 -1      2044 1.16121E-02 5.44726E-04-7.57424E-14
 -1      2045 1.14531E-02 5.48658E-04-7.38598E-14
 -1      2046 1.14456E-02 5.20327E-04-7.36547E-14
 -1      2047 1.19256E-02 5.42458E-04-7.95613E-14
 -1      2048 1.17696E-02 5.42759E-04-7.76430E-14
 -1      2049 1.17596E-02 5.14615E-04-7.74289E-14
 -1      2050 1.22334E-02 5.45194E-04-8.34476E-14
 -1      2051 1.20802E-02 5.43336E-04-8.14958E-14
 -1      2052 1.20682E-02 5.15445E-04-8.12757E-14
 -1      2053 1.25361E-02 5.50630E-04-8.73934E-14
 -1      2054 1.23853E-02 5.47666E-04-8.54131E-14
 -1      2055 1.23718E-02 5.20059E-04-8.51864E-14
 -1      2056 1.28347E-02 5.57175E-04-9.13832E-14
 -1      2057 1.26859E-02 5.53824E-04-8.93824E-14
 -1      2058 1.26713E-02 5.26503E-04-8.91485E-14
 -1      2059 1.31299E-02 5.63782E-04-9.54029E-14
 -1      2060 1.29827E-02 5.60508E-04-9.33918E-14
 -1      2061 1.29674E-02 5.33461E-04-9.31510E-14
 -1      2062 1.34222E-02 5.69789E-04-9.94445E-14
 -1      2063 1.32763E-02 5.66882E-04-9.74211E-14
 -1      2064 1.32606E-02 5.40084E-04-9.71787E-14
 -1      2065 1.37125E-02 5.74803E-04-1.03504E-13
 -1      2066 1.35676E-02 5.72431E-04-1.01472E-13
 -1      2067 1.35516E-02 5.45856E-04-1.01224E-13
 -1      2068 1.40011E-02 5.78605E-04-1.07589E-13
 -1      2069 1.38570E-02 5.76860E-04-1.05542E-13
 -1      2070 1.38409E-02 5.50480E-04-1.05291E-13
 -1      2071 1.42885E-02 5.81096E-04-1.11695E-13
 -1      2072 1.41449E-02 5.80014E-04-1.09639E-13
 -1      2073 1.41289E-02 5.53803E-04-1.09382E-13
 -1      2074 1.45751E-02 5.82281E-04-1.15818E-13
 -1      2075 1.44319E-02 5.81845E-04-1.13757E-13
 -1      2076 1.44159E-02 5.55780E-04-1.13496E-13
 -1      2077 1.48104E-02 5.79386E-04-1.19208E-13
 -1      2078 1.46674E-02 5.79416E-04-1.17146E-13
 -1      2079 1.46515E-02 5.53449E-04-1.16882E-13
 -1      2080 1.48359E-02 5.47454E-04-1.19534E-13
 -1      2081 1.48109E-02 3.15445E-04-1.18799E-13
 -1      2082 1.48092E-02 3.56721E-04-1.18852E-13
 -1      2083 1.48077E-02 3.98185E-04-1.18901E-13
 -1      2084 1.48064E-02 4.39805E-04-1.18950E-13
 -1      2085 1.46848E-02 3.77509E-04-1.17095E-13
 -1      2086 1.48213E-02 4.72599E-04-1.19216E-13
 -1      2087 1.48205E-02 5.14481E-04-1.19264E-13
 -1      2088 1.47283E-02 5.17514E-04-1.17941E-13
 -1      2089 1.46981E-02 4.51758E-04-1.17408E-13
 -1      2090 1.48145E-02 2.34807E-04-1.18695E-13
 -1      2091 1.48127E-02 2.75038E-04-1.18747E-13
 -1      2092 1.46884E-02 2.95737E-04-1.16994E-13
 -1      2093 1.48181E-02 1.53446E-04-1.18585E-13
 -1      2094 1.48164E-02 1.94051E-04-1.18641E-13
 -1      2095 1.46922E-02 2.14688E-04-1.16884E-13
 -1      2096 1.48211E-02 7.26200E-05-1.18472E-13
 -1      2097 1.48197E-02 1.12982E-04-1.18531E-13
 -1      2098 1.46958E-02 1.33595E-04-1.16773E-13
 -1      2099 1.48233E-02-7.88198E-06-1.18355E-13
 -1      2100 1.48224E-02 3.23503E-05-1.18412E-13
 -1      2101 1.46987E-02 5.29886E-05-1.16654E-13
 -1      2102 1.48245E-02-8.83177E-05-1.18227E-13
 -1      2103 1.48240E-02-4.80846E-05-1.18293E-13
 -1      2104 1.47007E-02-2.73584E-05-1.16530E-13
 -1      2105 1.48247E-02-1.68954E-04-1.18089E-13
 -1      2106 1.48247E-02-1.28589E-04-1.18158E-13
 -1      2107 1.47015E-02-1.07707E-04-1.16397E-13
 -1      2108 1.48241E-02-2.48651E-04-1.17940E-13
 -1      2109 1.48245E-02-2.08734E-04-1.18016E-13
 -1      2110 1.47014E-02-1.87633E-04-1.16253E-13
 -1      2111 1.48233E-02-3.30331E-04-1.17774E-13
 -1      2112 1.48237E-02-2.89406E-04-1.17857E-13
 -1      2113 1.47006E-02-2.68038E-04-1.16092E-13
 -1      2114 1.48226E-02-4.12720E-04-1.17594E-13
 -1      2115 1.48229E-02-3.71439E-04-1.17686E-13
 -1      2116 1.46996E-02-3.49780E-04-1.15917E-13
 -1      2117 1.48226E-02-4.95816E-04-1.17399E-13
 -1      2118 1.48225E-02-4.54189E-04-1.17498E-13
 -1      2119 1.46989E-02-4.32257E-04-1.15729E-13
 -1      2120 1.03423E-02 1.41953E-04-5.06656E-14
 -1      2121 1.04754E-02 9.46041E-05-5.09656E-14
 -1      2122 1.07039E-02 4.29814E-07-5.14031E-14
 -1      2123 1.07039E-02-1.72144E-05-5.13726E-14
 -1      2124 1.05896E-02 5.23138E-05-5.12218E-14
 -1      2125 1.06619E-02 2.66589E-05-5.13753E-14
 -1      2126 9.98309E-03 3.02361E-04-4.95764E-14
 -1      2127 1.01555E-02 2.21029E-04-5.01317E-14
 -1      2128 9.60252E-03 4.92820E-04-4.83691E-14
 -1      2129 9.77958E-03 3.97407E-04-4.89994E-14
 -1      2130 3.27332E-04-8.86123E-05-1.53957E-16
 -1      2131 3.29354E-04-1.01775E-04-1.46489E-16
 -1      2132 4.46379E-04-1.44518E-04-2.12856E-16
 -1      2133 4.40240E-04-1.09391E-04-2.32629E-16
 -1      2134 8.84108E-03 8.88090E-04-4.49207E-14
 -1      2135 8.99658E-03 8.13805E-04-4.58059E-14
 -1      2136 8.53811E-03 9.65898E-04-4.31932E-14
 -1      2137 8.68513E-03 9.37726E-04-4.40521E-14
 -1      2138 8.74879E-03 9.22753E-04-4.46483E-14
 -1      2139 8.20169E-03 9.32758E-04-4.12134E-14
 -1      2140 8.35345E-03 9.65058E-04-4.21103E-14
 -1      2141 7.83206E-03 7.78031E-04-3.93305E-14
 -1      2142 7.99696E-03 8.59028E-04-4.01100E-14
 -1      2143 7.49147E-03 5.98925E-04-3.80210E-14
 -1      2144 7.66574E-03 6.94771E-04-3.86732E-14
 -1      2145 7.77665E-03 7.39167E-04-3.87569E-14
 -1      2146 7.08054E-03 3.74216E-04-3.65739E-14
 -1      2147 7.26615E-03 4.76434E-04-3.72114E-14
 -1      2148 6.67413E-03 1.87671E-04-3.54636E-14
 -1      2149 6.84756E-03 2.59454E-04-3.58619E-14
 -1      2150 6.38744E-03 8.47694E-05-3.48890E-14
 -1      2151 6.51077E-03 1.29072E-04-3.51793E-14
 -1      2152 6.22452E-03 1.69257E-05-3.42373E-14
 -1      2153 6.28615E-03 3.94672E-05-3.44491E-14
 -1      2154 6.22714E-03-2.58310E-05-3.43182E-14
 -1      2155 6.20208E-03-8.99123E-06-3.42256E-14
 -1      2156 6.38077E-03-8.02800E-05-3.45496E-14
 -1      2157 6.28628E-03-5.16616E-05-3.44338E-14
 -1      2158 6.24807E-03-2.79215E-05-3.37508E-14
 -1      2159 6.69696E-03-1.92610E-04-3.50607E-14
 -1      2160 6.53357E-03-1.32170E-04-3.47559E-14
 -1      2161 7.12441E-03-4.02929E-04-3.63201E-14
 -1      2162 6.93387E-03-3.01853E-04-3.57105E-14
 -1      2163 7.50718E-03-6.20832E-04-3.76973E-14
 -1      2164 7.32559E-03-5.17256E-04-3.70575E-14
 -1      2165 7.88113E-03-8.15840E-04-3.90858E-14
 -1      2166 7.69923E-03-7.21776E-04-3.83883E-14
 -1      2167 7.62320E-03-6.63736E-04-3.77035E-14
 -1      2168 8.26431E-03-9.64113E-04-4.10357E-14
 -1      2169 8.11127E-03-9.15702E-04-4.01480E-14
 -1      2170 8.57824E-03-9.71868E-04-4.28582E-14
 -1      2171 8.42785E-03-9.80414E-04-4.19916E-14
 -1      2172 8.92699E-03-8.66861E-04-4.47754E-14
 -1      2173 8.76521E-03-9.30458E-04-4.39086E-14
 -1      2174 9.29636E-03-6.78344E-04-4.65771E-14
 -1      2175 9.11766E-03-7.77988E-04-4.57267E-14
 -1      2176 9.72598E-03-4.49008E-04-4.82615E-14
 -1      2177 9.52922E-03-5.53988E-04-4.75383E-14
 -1      2178 1.01159E-02-2.54598E-04-4.96705E-14
 -1      2179 9.93629E-03-3.38909E-04-4.90785E-14
 -1      2180 1.04476E-02-1.22458E-04-5.06404E-14
 -1      2181 1.03032E-02-1.79325E-04-5.01689E-14
 -1      2182 1.06622E-02-4.17405E-05-5.13809E-14
 -1      2183 1.05835E-02-6.75115E-05-5.11841E-14
 -1      2184 9.24066E-03 6.88914E-04-4.69681E-14
 -1      2185 9.41967E-03 5.91299E-04-4.76649E-14
 -1      2186 9.50090E-03 5.23238E-04-4.85683E-14
 -1      2187 9.86259E-03 3.30715E-04-4.98623E-14
 -1      2188 6.07233E-04-2.97180E-04-2.03586E-16
 -1      2189 9.10486E-03 7.52112E-04-4.66841E-14
 -1      2190 6.63119E-04-2.91302E-04-2.86013E-16
 -1      2191 1.05361E-02 5.60811E-05-5.17839E-14
 -1      2192 1.06911E-02 7.28067E-06-5.20716E-14
 -1      2193 1.47812E-02-5.28890E-04-1.16699E-13
 -1      2194 1.02427E-02 1.61408E-04-5.09840E-14
 -1      2195 1.06917E-02-2.41647E-05-5.21062E-14
 -1      2196 1.05201E-02-7.75562E-05-5.15620E-14
 -1      2197 1.01984E-02-1.96368E-04-5.05109E-14
 -1      2198 9.81599E-03-3.74048E-04-4.91819E-14
 -1      2199 9.39285E-03-6.08586E-04-4.73916E-14
 -1      2200 9.00462E-03-8.25027E-04-4.54703E-14
 -1      2201 8.66826E-03-9.61159E-04-4.34622E-14
 -1      2202 8.01489E-03-8.75673E-04-3.94424E-14
 -1      2203 7.92314E-03-8.27151E-04-3.87440E-14
 -1      2204 8.11498E-03-9.22852E-04-3.97969E-14
 -1      2205 7.24886E-03-4.48507E-04-3.62851E-14
 -1      2206 6.44721E-03-8.73517E-05-3.40676E-14
 -1      2207 6.20086E-03 2.18609E-06-3.36473E-14
 -1      2208 6.33293E-03 4.52386E-05-3.40927E-14
 -1      2209 6.59518E-03 1.36478E-04-3.48090E-14
 -1      2210 7.41372E-03 5.33821E-04-3.72966E-14
 -1      2211 8.45104E-03 9.77996E-04-4.26918E-14
 -1      2212 8.10706E-03 9.03776E-04-4.05058E-14
 -1      2213 6.97377E-03 2.98829E-04-3.57889E-14
 -1      2214 6.82068E-03-2.31281E-04-3.49107E-14
 -1      2215 8.35131E-03-9.84534E-04-4.14556E-14
 -1      2216 1.01588E-03 3.97511E-04-6.77220E-16
 -1      2217 8.71481E-04 3.61673E-04-5.01105E-16
 -1      2218 5.48234E-04-5.48769E-05-3.63790E-16
 -1      2219 5.49255E-04-7.14919E-05-3.59210E-16
 -1      2220 5.50652E-04-8.87265E-05-3.53260E-16
 -1      2221 5.52477E-04-1.06638E-04-3.46037E-16
 -1      2222 6.65762E-04-9.47220E-05-4.83324E-16
 -1      2223 5.46866E-04 8.78675E-06-3.72180E-16
 -1      2224 5.46846E-04-6.92150E-06-3.71393E-16
 -1      2225 5.47614E-04 4.05486E-05-3.70892E-16
 -1      2226 5.47119E-04 2.45961E-05-3.72030E-16
 -1      2227 6.61841E-04 1.97528E-05-5.03802E-16
 -1      2228 5.49417E-04 7.29578E-05-3.65837E-16
 -1      2229 5.48369E-04 5.65664E-05-3.69008E-16
 -1      2230 6.63162E-04 5.72862E-05-5.01050E-16
 -1      2231 5.52749E-04 1.08265E-04-3.55971E-16
 -1      2232 5.50861E-04 9.02660E-05-3.61500E-16
 -1      2233 6.65999E-04 9.64795E-05-4.93027E-16
 -1      2234 5.58508E-04 1.47491E-04-3.39694E-16
 -1      2235 5.55259E-04 1.27314E-04-3.48950E-16
 -1      2236 6.71017E-04 1.39039E-04-4.78689E-16
 -1      2237 5.68622E-04 1.93027E-04-3.13334E-16
 -1      2238 5.62904E-04 1.69336E-04-3.27958E-16
 -1      2239 6.79511E-04 1.86442E-04-4.55446E-16
 -1      2240 9.78906E-03 3.54375E-04-5.03998E-14
 -1      2241 9.96526E-03 2.65551E-04-5.09897E-14
 -1      2242 1.30129E-03 4.53090E-04-1.11722E-15
 -1      2243 1.15898E-03 4.27877E-04-8.82513E-16
 -1      2244 1.07135E-03 3.78762E-04-8.15008E-16
 -1      2245 9.14765E-04-3.44434E-04-5.69491E-16
 -1      2246 1.05884E-03-3.77178E-04-7.54632E-16
 -1      2247 9.00265E-03 8.09418E-04-4.65379E-14
 -1      2248 9.20616E-03 6.89126E-04-4.77138E-14
 -1      2249 1.20209E-03-4.04900E-04-9.67854E-16
 -1      2250 1.34492E-03-4.28004E-04-1.20996E-15
 -1      2251 1.11679E-03-3.57725E-04-8.95429E-16
 -1      2252 1.48715E-03-4.47336E-04-1.48030E-15
 -1      2253 1.62903E-03-4.63169E-04-1.77947E-15
 -1      2254 1.40320E-03-4.02958E-04-1.38703E-15
 -1      2255 1.77059E-03-4.76156E-04-2.10705E-15
 -1      2256 1.91197E-03-4.86506E-04-2.46302E-15
 -1      2257 1.68852E-03-4.34194E-04-1.99160E-15
 -1      2258 2.05326E-03-4.94690E-04-2.84714E-15
 -1      2259 2.19452E-03-5.00878E-04-3.25997E-15
 -1      2260 1.97305E-03-4.54671E-04-2.70904E-15
 -1      2261 2.33584E-03-5.05409E-04-3.70065E-15
 -1      2262 2.47727E-03-5.08421E-04-4.16930E-15
 -1      2263 2.25725E-03-4.66918E-04-3.53829E-15
 -1      2264 2.61887E-03-5.10155E-04-4.66615E-15
 -1      2265 2.76066E-03-5.10724E-04-5.19054E-15
 -1      2266 2.54151E-03-4.72858E-04-4.47967E-15
 -1      2267 2.90272E-03-5.10300E-04-5.74214E-15
 -1      2268 3.04505E-03-5.08977E-04-6.32101E-15
 -1      2269 2.82617E-03-4.73940E-04-5.53108E-15
 -1      2270 3.18771E-03-5.06882E-04-6.92647E-15
 -1      2271 3.33072E-03-5.04096E-04-7.55917E-15
 -1      2272 3.11148E-03-4.71255E-04-6.69095E-15
 -1      2273 3.47412E-03-5.00718E-04-8.21817E-15
 -1      2274 3.61795E-03-4.96826E-04-8.90386E-15
 -1      2275 3.39770E-03-4.65650E-04-7.95855E-15
 -1      2276 3.76224E-03-4.92512E-04-9.61476E-15
 -1      2277 3.90704E-03-4.87860E-04-1.03518E-14
 -1      2278 3.68502E-03-4.57829E-04-9.33142E-15
 -1      2279 4.05237E-03-4.82973E-04-1.11134E-14
 -1      2280 4.19832E-03-4.77954E-04-1.19001E-14
 -1      2281 3.97369E-03-4.48467E-04-1.08068E-14
 -1      2282 4.34488E-03-4.72940E-04-1.27124E-14
 -1      2283 4.49218E-03-4.68067E-04-1.35478E-14
 -1      2284 4.26398E-03-4.38323E-04-1.23821E-14
 -1      2285 4.64020E-03-4.63530E-04-1.44073E-14
 -1      2286 4.78910E-03-4.59518E-04-1.52916E-14
 -1      2287 4.55623E-03-4.28378E-04-1.40559E-14
 -1      2288 4.93886E-03-4.56309E-04-1.62004E-14
 -1      2289 5.08965E-03-4.54168E-04-1.71327E-14
 -1      2290 4.85088E-03-4.19990E-04-1.58258E-14
 -1      2291 5.24151E-03-4.53480E-04-1.80890E-14
 -1      2292 5.39458E-03-4.54615E-04-1.90696E-14
 -1      2293 5.14857E-03-4.15069E-04-1.76934E-14
 -1      2294 5.54897E-03-4.58070E-04-2.00739E-14
 -1      2295 5.70478E-03-4.64353E-04-2.11012E-14
 -1      2296 5.45018E-03-4.16262E-04-1.96552E-14
 -1      2297 5.86226E-03-4.74051E-04-2.21526E-14
 -1      2298 6.02137E-03-4.87831E-04-2.32284E-14
 -1      2299 5.75701E-03-4.27121E-04-2.17124E-14
 -1      2300 6.18256E-03-5.06286E-04-2.43271E-14
 -1      2301 6.34554E-03-5.30209E-04-2.54497E-14
 -1      2302 6.07082E-03-4.52186E-04-2.38648E-14
 -1      2303 6.51095E-03-5.60036E-04-2.65974E-14
 -1      2304 6.67809E-03-5.96519E-04-2.77679E-14
 -1      2305 6.39373E-03-4.96822E-04-2.61118E-14
 -1      2306 6.84773E-03-6.39659E-04-2.89615E-14
 -1      2307 7.01849E-03-6.89671E-04-3.01774E-14
 -1      2308 6.72763E-03-5.66518E-04-2.84523E-14
 -1      2309 7.19101E-03-7.45751E-04-3.14175E-14
 -1      2310 7.36336E-03-8.06754E-04-3.26812E-14
 -1      2311 7.07251E-03-6.64792E-04-3.08842E-14
 -1      2312 7.53564E-03-8.70751E-04-3.39683E-14
 -1      2313 7.70595E-03-9.34172E-04-3.52782E-14
 -1      2314 7.42433E-03-7.88795E-04-3.34098E-14
 -1      2315 7.87373E-03-9.93861E-04-3.66110E-14
 -1      2316 8.03869E-03-1.04462E-03-3.79699E-14
 -1      2317 7.77414E-03-9.22322E-04-3.60282E-14
 -1      2318 8.19971E-03-1.08311E-03-3.93518E-14
 -1      2319 8.35952E-03-1.10459E-03-4.07578E-14
 -1      2320 8.11214E-03-1.03259E-03-3.87426E-14
 -1      2321 8.51687E-03-1.10750E-03-4.21899E-14
 -1      2322 8.67628E-03-1.09150E-03-4.36466E-14
 -1      2323 8.43754E-03-1.08015E-03-4.15556E-14
 -1      2324 8.83650E-03-1.05778E-03-4.51291E-14
 -1      2325 9.00065E-03-1.01067E-03-4.66351E-14
 -1      2326 8.76192E-03-1.04454E-03-4.44740E-14
 -1      2327 9.16758E-03-9.53335E-04-4.81656E-14
 -1      2328 9.33733E-03-8.91178E-04-4.97192E-14
 -1      2329 9.09801E-03-9.41707E-04-4.74890E-14
 -1      2330 9.50925E-03-8.27528E-04-5.12946E-14
 -1      2331 9.68157E-03-7.66078E-04-5.28948E-14
 -1      2332 9.44671E-03-8.10202E-04-5.05989E-14
 -1      2333 9.85434E-03-7.09004E-04-5.45155E-14
 -1      2334 1.00255E-02-6.57752E-04-5.61567E-14
 -1      2335 9.79893E-03-6.84730E-04-5.37986E-14
 -1      2336 1.01957E-02-6.13254E-04-5.78216E-14
 -1      2337 1.03634E-02-5.75409E-04-5.95074E-14
 -1      2338 1.01452E-02-5.83609E-04-5.70876E-14
 -1      2339 1.05295E-02-5.44297E-04-6.12140E-14
 -1      2340 1.06931E-02-5.19210E-04-6.29416E-14
 -1      2341 1.04807E-02-5.11092E-04-6.04622E-14
 -1      2342 1.08550E-02-4.99749E-04-6.46884E-14
 -1      2343 1.10147E-02-4.85110E-04-6.64545E-14
 -1      2344 1.08051E-02-4.64191E-04-6.39176E-14
 -1      2345 1.11728E-02-4.74706E-04-6.82396E-14
 -1      2346 1.13292E-02-4.67851E-04-7.00438E-14
 -1      2347 1.11202E-02-4.37520E-04-6.74524E-14
 -1      2348 1.14841E-02-4.63948E-04-7.18646E-14
 -1      2349 1.16378E-02-4.62472E-04-7.37021E-14
 -1      2350 1.14281E-02-4.25618E-04-7.10597E-14
 -1      2351 1.17902E-02-4.62911E-04-7.55557E-14
 -1      2352 1.19416E-02-4.64883E-04-7.74261E-14
 -1      2353 1.17307E-02-4.23817E-04-7.47353E-14
 -1      2354 1.20920E-02-4.67990E-04-7.93134E-14
 -1      2355 1.22415E-02-4.71964E-04-8.12164E-14
 -1      2356 1.20293E-02-4.28448E-04-7.84775E-14
 -1      2357 1.23902E-02-4.76520E-04-8.31364E-14
 -1      2358 1.25383E-02-4.81472E-04-8.50728E-14
 -1      2359 1.23249E-02-4.36788E-04-8.22857E-14
 -1      2360 1.26856E-02-4.86630E-04-8.70234E-14
 -1      2361 1.28324E-02-4.91868E-04-8.89901E-14
 -1      2362 1.26182E-02-4.46904E-04-8.61579E-14
 -1      2363 1.29786E-02-4.97068E-04-9.09736E-14
 -1      2364 1.31245E-02-5.02147E-04-9.29703E-14
 -1      2365 1.29097E-02-4.57491E-04-9.00915E-14
 -1      2366 1.32698E-02-5.07036E-04-9.49752E-14
 -1      2367 1.34148E-02-5.11683E-04-9.69942E-14
 -1      2368 1.31998E-02-4.67702E-04-9.40818E-14
 -1      2369 1.35595E-02-5.16054E-04-9.90259E-14
 -1      2370 1.37038E-02-5.20114E-04-1.01068E-13
 -1      2371 1.34887E-02-4.77023E-04-9.81175E-14
 -1      2372 1.38479E-02-5.23854E-04-1.03117E-13
 -1      2373 1.39918E-02-5.27250E-04-1.05174E-13
 -1      2374 1.37766E-02-4.85163E-04-1.02195E-13
 -1      2375 1.41354E-02-5.30306E-04-1.07241E-13
 -1      2376 1.42789E-02-5.33010E-04-1.09319E-13
 -1      2377 1.40639E-02-4.91977E-04-1.06309E-13
 -1      2378 1.86482E-03 5.17483E-04-2.34837E-15
 -1      2379 1.72442E-03 5.05965E-04-1.99661E-15
 -1      2380 2.14547E-03 5.33805E-04-3.13814E-15
 -1      2381 2.00515E-03 5.26705E-04-2.72900E-15
 -1      2382 1.92466E-03 4.86231E-04-2.59057E-15
 -1      2383 2.42650E-03 5.42888E-04-4.04224E-15
 -1      2384 2.28591E-03 5.39150E-04-3.57598E-15
 -1      2385 2.20736E-03 5.00353E-04-3.41243E-15
 -1      2386 2.70844E-03 5.46434E-04-5.05858E-15
 -1      2387 2.56734E-03 5.45274E-04-4.53663E-15
 -1      2388 2.49026E-03 5.07743E-04-4.34714E-15
 -1      2389 2.99169E-03 5.45712E-04-6.18554E-15
 -1      2390 2.84989E-03 5.46544E-04-5.60802E-15
 -1      2391 2.77380E-03 5.09967E-04-5.39327E-15
 -1      2392 3.27658E-03 5.41694E-04-7.41945E-15
 -1      2393 3.13391E-03 5.44063E-04-6.78950E-15
 -1      2394 3.05830E-03 5.08197E-04-6.54880E-15
 -1      2395 3.56343E-03 5.35164E-04-8.76094E-15
 -1      2396 3.41974E-03 5.38697E-04-8.07643E-15
 -1      2397 3.34406E-03 5.03338E-04-7.81109E-15
 -1      2398 3.85256E-03 5.26837E-04-1.02095E-14
 -1      2399 3.70768E-03 5.31179E-04-9.47179E-15
 -1      2400 3.63135E-03 4.96135E-04-9.18021E-15
 -1      2401 4.14437E-03 5.17469E-04-1.17668E-14
 -1      2402 3.99809E-03 5.22229E-04-1.09743E-14
 -1      2403 3.92046E-03 4.87281E-04-1.06567E-14
 -1      2404 4.43931E-03 5.08003E-04-1.34346E-14
 -1      2405 4.29140E-03 5.12679E-04-1.25875E-14
 -1      2406 4.21171E-03 4.77542E-04-1.22422E-14
 -1      2407 4.73787E-03 4.99718E-04-1.52071E-14
 -1      2408 4.58808E-03 5.03618E-04-1.43077E-14
 -1      2409 4.50550E-03 4.67891E-04-1.39355E-14
 -1      2410 5.04065E-03 4.94412E-04-1.70830E-14
 -1      2411 4.88867E-03 4.96563E-04-1.61321E-14
 -1      2412 4.80230E-03 4.59667E-04-1.57314E-14
 -1      2413 5.34826E-03 4.94591E-04-1.90584E-14
 -1      2414 5.19380E-03 4.93640E-04-1.80585E-14
 -1      2415 5.10270E-03 4.54750E-04-1.76302E-14
 -1      2416 5.66136E-03 5.03625E-04-2.11309E-14
 -1      2417 5.50410E-03 4.97771E-04-2.00821E-14
 -1      2418 5.40744E-03 4.55747E-04-1.96274E-14
 -1      2419 5.98053E-03 5.25781E-04-2.32997E-14
 -1      2420 5.82021E-03 5.12779E-04-2.22034E-14
 -1      2421 5.71744E-03 4.66144E-04-2.17217E-14
 -1      2422 6.30619E-03 5.65944E-04-2.55651E-14
 -1      2423 6.14266E-03 5.43302E-04-2.44201E-14
 -1      2424 6.03383E-03 4.90340E-04-2.39124E-14
 -1      2425 6.63816E-03 6.28736E-04-2.79228E-14
 -1      2426 6.47162E-03 5.94258E-04-2.67325E-14
 -1      2427 6.35778E-03 5.33377E-04-2.61977E-14
 -1      2428 6.97510E-03 7.16580E-04-3.03780E-14
 -1      2429 6.80641E-03 6.69509E-04-2.91377E-14
 -1      2430 6.69006E-03 6.00074E-04-2.85772E-14
 -1      2431 7.31370E-03 8.26498E-04-3.29256E-14
 -1      2432 7.14475E-03 7.69267E-04-3.16406E-14
 -1      2433 7.02989E-03 6.92960E-04-3.10501E-14
 -1      2434 7.64859E-03 9.46319E-04-3.55675E-14
 -1      2435 7.48214E-03 8.86430E-04-3.42345E-14
 -1      2436 7.37364E-03 8.08582E-04-3.36159E-14
 -1      2437 7.97429E-03 1.05278E-03-3.83119E-14
 -1      2438 7.81273E-03 1.00305E-03-3.69271E-14
 -1      2439 7.71454E-03 9.32601E-04-3.62795E-14
 -1      2440 8.28921E-03 1.11716E-03-4.11523E-14
 -1      2441 8.13248E-03 1.09204E-03-3.97193E-14
 -1      2442 8.04542E-03 1.03799E-03-3.90429E-14
 -1      2443 8.59896E-03 1.11800E-03-4.40918E-14
 -1      2444 8.44354E-03 1.12614E-03-4.26099E-14
 -1      2445 8.36509E-03 1.09215E-03-4.19056E-14
 -1      2446 8.91318E-03 1.05468E-03-4.71303E-14
 -1      2447 8.75452E-03 1.09337E-03-4.55993E-14
 -1      2448 8.68158E-03 1.07463E-03-4.48671E-14
 -1      2449 9.23803E-03 9.47796E-04-5.02623E-14
 -1      2450 9.07405E-03 1.00479E-03-4.86841E-14
 -1      2451 9.00581E-03 9.91924E-04-4.79266E-14
 -1      2452 9.57250E-03 8.26284E-04-5.34842E-14
 -1      2453 9.40449E-03 8.87126E-04-5.18626E-14
 -1      2454 9.34191E-03 8.72354E-04-5.10810E-14
 -1      2455 9.91109E-03 7.13799E-04-5.67938E-14
 -1      2456 9.74189E-03 7.67877E-04-5.51283E-14
 -1      2457 9.68515E-03 7.47796E-04-5.43224E-14
 -1      2458 1.02483E-02 6.23072E-04-6.01889E-14
 -1      2459 1.00804E-02 6.65379E-04-5.84796E-14
 -1      2460 1.00279E-02 6.39772E-04-5.76507E-14
 -1      2461 1.05808E-02 5.57331E-04-6.36704E-14
 -1      2462 1.04155E-02 5.87153E-04-6.19193E-14
 -1      2463 1.03646E-02 5.57044E-04-6.10643E-14
 -1      2464 1.09070E-02 5.14274E-04-6.72350E-14
 -1      2465 1.07448E-02 5.33222E-04-6.54425E-14
 -1      2466 1.06932E-02 4.99731E-04-6.45632E-14
 -1      2467 1.12269E-02 4.89317E-04-7.08783E-14
 -1      2468 1.10678E-02 4.99827E-04-6.90479E-14
 -1      2469 1.10138E-02 4.63887E-04-6.81447E-14
 -1      2470 1.15408E-02 4.77566E-04-7.45950E-14
 -1      2471 1.13846E-02 4.82059E-04-7.27274E-14
 -1      2472 1.13275E-02 4.44427E-04-7.18044E-14
 -1      2473 1.18493E-02 4.74728E-04-7.83836E-14
 -1      2474 1.16957E-02 4.75250E-04-7.64795E-14
 -1      2475 1.16354E-02 4.36538E-04-7.55341E-14
 -1      2476 1.21532E-02 4.77424E-04-8.22420E-14
 -1      2477 1.20018E-02 4.75549E-04-8.03038E-14
 -1      2478 1.19386E-02 4.36238E-04-7.93350E-14
 -1      2479 1.24531E-02 4.83168E-04-8.61625E-14
 -1      2480 1.23036E-02 4.80034E-04-8.41949E-14
 -1      2481 1.22381E-02 4.40489E-04-8.32076E-14
 -1      2482 1.27497E-02 4.90229E-04-9.01308E-14
 -1      2483 1.26018E-02 4.86617E-04-8.81418E-14
 -1      2484 1.25344E-02 4.47096E-04-8.71361E-14
 -1      2485 1.30436E-02 4.97456E-04-9.41342E-14
 -1      2486 1.28969E-02 4.93877E-04-9.21279E-14
 -1      2487 1.28283E-02 4.54555E-04-9.11100E-14
 -1      2488 1.33353E-02 5.04121E-04-9.81613E-14
 -1      2489 1.31897E-02 5.00895E-04-9.61456E-14
 -1      2490 1.31201E-02 4.61878E-04-9.51146E-14
 -1      2491 1.36253E-02 5.09791E-04-1.02211E-13
 -1      2492 1.34805E-02 5.07103E-04-1.00185E-13
 -1      2493 1.34103E-02 4.68453E-04-9.91446E-14
 -1      2494 1.39139E-02 5.14226E-04-1.06282E-13
 -1      2495 1.37697E-02 5.12177E-04-1.04243E-13
 -1      2496 1.36992E-02 4.73923E-04-1.03196E-13
 -1      2497 1.42014E-02 5.17313E-04-1.10376E-13
 -1      2498 1.40577E-02 5.15946E-04-1.08326E-13
 -1      2499 1.39870E-02 4.78100E-04-1.07269E-13
 -1      2500 1.44881E-02 5.19032E-04-1.14486E-13
 -1      2501 1.43448E-02 5.18347E-04-1.12428E-13
 -1      2502 1.42741E-02 4.80901E-04-1.11365E-13
 -1      2503 1.46361E-02 5.20429E-04-1.16614E-13
 -1      2504 1.45699E-02 1.94447E-04-1.15075E-13
 -1      2505 1.45679E-02 2.35067E-04-1.15134E-13
 -1      2506 1.45735E-02 1.13675E-04-1.14959E-13
 -1      2507 1.45718E-02 1.53993E-04-1.15018E-13
 -1      2508 1.44478E-02 1.74143E-04-1.13268E-13
 -1      2509 1.45621E-02 3.56657E-04-1.15291E-13
 -1      2510 1.45604E-02 3.98038E-04-1.15339E-13
 -1      2511 1.45659E-02 2.75521E-04-1.15189E-13
 -1      2512 1.45639E-02 3.15815E-04-1.15241E-13
 -1      2513 1.44394E-02 3.35987E-04-1.13487E-13
 -1      2514 1.44436E-02 2.54837E-04-1.13382E-13
 -1      2515 1.45764E-02 3.33551E-05-1.14835E-13
 -1      2516 1.45751E-02 7.34778E-05-1.14898E-13
 -1      2517 1.44515E-02 9.37592E-05-1.13147E-13
 -1      2518 1.45781E-02-4.67605E-05-1.14705E-13
 -1      2519 1.45773E-02-6.70555E-06-1.14772E-13
 -1      2520 1.44541E-02 1.37995E-05-1.13018E-13
 -1      2521 1.45786E-02-1.26946E-04-1.14566E-13
 -1      2522 1.45785E-02-8.68219E-05-1.14636E-13
 -1      2523 1.44555E-02-6.60142E-05-1.12882E-13
 -1      2524 1.45782E-02-2.06097E-04-1.14414E-13
 -1      2525 1.45785E-02-1.66462E-04-1.14492E-13
 -1      2526 1.44557E-02-1.45297E-04-1.12735E-13
 -1      2527 1.45771E-02-2.87167E-04-1.14245E-13
 -1      2528 1.45777E-02-2.46549E-04-1.14333E-13
 -1      2529 1.44549E-02-2.24998E-04-1.12576E-13
 -1      2530 1.45759E-02-3.68956E-04-1.14063E-13
 -1      2531 1.45765E-02-3.27965E-04-1.14154E-13
 -1      2532 1.44535E-02-3.06031E-04-1.12400E-13
 -1      2533 1.45752E-02-4.51539E-04-1.13862E-13
 -1      2534 1.45755E-02-4.10151E-04-1.13962E-13
 -1      2535 1.44521E-02-3.87879E-04-1.12205E-13
 -1      2536 1.06804E-02 6.79885E-06-5.30024E-14
 -1      2537 1.07183E-02-2.62340E-06-5.30314E-14
 -1      2538 1.01464E-02 1.84286E-04-5.15329E-14
 -1      2539 1.03195E-02 1.17040E-04-5.20786E-14
 -1      2540 1.00764E-02 2.18260E-04-5.20778E-14
 -1      2541 1.58379E-03 4.91625E-04-1.67444E-15
 -1      2542 1.44279E-03 4.74254E-04-1.38114E-15
 -1      2543 1.64159E-03 4.63284E-04-1.88295E-15
 -1      2544 1.46531E-02-5.25875E-04-1.14819E-13
 -1      2545 1.07203E-02-1.38760E-05-5.30327E-14
 -1      2546 1.06864E-02-2.26690E-05-5.30378E-14
 -1      2547 1.07376E-02-8.23644E-06-5.39657E-14
 -1      2548 1.04878E-02 5.96991E-05-5.24737E-14
 -1      2549 1.05940E-02 3.12946E-05-5.27364E-14
 -1      2550 5.88254E-04-2.37061E-04-2.69099E-16
 -1      2551 7.80966E-04-3.03321E-04-4.31905E-16
 -1      2552 8.40586E-04-2.91920E-04-5.37222E-16
 -1      2553 5.78910E-04-2.09310E-04-2.91081E-16
 -1      2554 1.05775E-02-5.27455E-05-5.26708E-14
 -1      2555 1.04463E-02-8.95898E-05-5.21170E-14
 -1      2556 7.36859E-03-5.04929E-04-3.62859E-14
 -1      2557 7.18310E-03-4.00211E-04-3.55588E-14
 -1      2558 6.18336E-03-3.99158E-06-3.29679E-14
 -1      2559 6.20217E-03 4.62766E-06-3.29779E-14
 -1      2560 8.37856E-03 9.82568E-04-4.21715E-14
 -1      2561 8.52601E-03 9.82614E-04-4.32548E-14
 -1      2562 5.47058E-04-2.27140E-05-3.69754E-16
 -1      2563 5.47511E-04-3.86326E-05-3.67192E-16
 -1      2564 6.63014E-04-5.53247E-05-4.95331E-16
 -1      2565 6.61788E-04-1.75405E-05-5.01904E-16
 -1      2566 8.02815E-03 8.72220E-04-3.97967E-14
 -1      2567 8.19533E-03 9.43465E-04-4.08950E-14
 -1      2568 8.68343E-03 9.51418E-04-4.43892E-14
 -1      2569 8.80639E-03 9.03731E-04-4.52624E-14
 -1      2570 6.87693E-03 2.39520E-04-3.49254E-14
 -1      2571 7.08924E-03 3.42941E-04-3.56229E-14
 -1      2572 7.68921E-03 6.84924E-04-3.79571E-14
 -1      2573 7.82309E-03 7.66202E-04-3.86050E-14
 -1      2574 6.93670E-03-2.74281E-04-3.46703E-14
 -1      2575 6.71903E-03-1.78600E-04-3.40324E-14
 -1      2576 7.30819E-03 4.60487E-04-3.63564E-14
 -1      2577 7.50342E-03 5.76071E-04-3.71523E-14
 -1      2578 7.55946E-03 6.16486E-04-3.70006E-14
 -1      2579 6.50327E-03 9.19208E-05-3.40186E-14
 -1      2580 6.64731E-03 1.42084E-04-3.42917E-14
 -1      2581 6.27964E-03 2.62161E-05-3.31526E-14
 -1      2582 6.37842E-03 5.09417E-05-3.35840E-14
 -1      2583 6.41693E-03 6.48633E-05-3.30743E-14
 -1      2584 6.27071E-03-2.97182E-05-3.32442E-14
 -1      2585 6.21529E-03-1.77375E-05-3.31309E-14
 -1      2586 8.44714E-03-9.98985E-04-4.20395E-14
 -1      2587 8.31469E-03-9.85031E-04-4.10832E-14
 -1      2588 6.49629E-03-9.45836E-05-3.34686E-14
 -1      2589 6.36251E-03-5.51173E-05-3.32699E-14
 -1      2590 7.69989E-03-7.01832E-04-3.76378E-14
 -1      2591 7.53738E-03-6.03015E-04-3.69578E-14
 -1      2592 7.44857E-03-5.52970E-04-3.62198E-14
 -1      2593 8.74927E-03-9.41761E-04-4.41311E-14
 -1      2594 8.59858E-03-9.85205E-04-4.30770E-14
 -1      2595 8.54169E-03-9.98391E-04-4.26947E-14
 -1      2596 9.07613E-03-7.82368E-04-4.62089E-14
 -1      2597 8.91948E-03-8.69463E-04-4.52506E-14
 -1      2598 9.48919E-03-5.39242E-04-4.83648E-14
 -1      2599 9.28938E-03-6.59718E-04-4.73926E-14
 -1      2600 9.89631E-03-3.17996E-04-5.01274E-14
 -1      2601 9.70455E-03-4.19098E-04-4.92990E-14
 -1      2602 1.03023E-02-1.40929E-04-5.16036E-14
 -1      2603 1.01353E-02-2.06709E-04-5.10935E-14
 -1      2604 1.03952E-02-1.08448E-04-5.27070E-14
 -1      2605 9.42370E-03 5.61706E-04-4.88944E-14
 -1      2606 9.57855E-03 4.69264E-04-4.96104E-14
 -1      2607 7.57267E-04 3.32847E-04-3.75771E-16
 -1      2608 6.10956E-04 2.83897E-04-2.52091E-16
 -1      2609 5.84383E-04 2.57189E-04-2.57471E-16
 -1      2610 8.13307E-04 3.21318E-04-4.79800E-16
 -1      2611 8.28289E-03 9.71227E-04-4.14427E-14
 -1      2612 6.70605E-04-1.36998E-04-4.65014E-16
 -1      2613 5.54879E-04-1.25490E-04-3.37499E-16
 -1      2614 5.58000E-04-1.45443E-04-3.26846E-16
 -1      2615 1.35740E-03 4.28708E-04-1.29122E-15
 -1      2616 9.70967E-03 4.05227E-04-5.07304E-14
 -1      2617 5.72077E-04 2.27016E-04-2.81215E-16
 -1      2618 1.06519E-02-3.33455E-05-5.35984E-14
 -1      2619 1.06103E-02-4.79755E-05-5.41559E-14
 -1      2620 1.07103E-02-2.50771E-05-5.45287E-14
 -1      2621 9.31313E-03 6.37068E-04-4.87424E-14
 -1      2622 1.00335E-02-2.54978E-04-5.12109E-14
 -1      2623 1.45653E-02 4.83365E-04-1.15545E-13
 -1      2624 1.45504E-02 4.50500E-04-1.15280E-13
 -1      2625 9.59687E-03-4.81516E-04-4.92983E-14
 -1      2626 1.06563E-02 1.49087E-05-5.36960E-14
 -1      2627 1.04116E-02 8.58481E-05-5.30282E-14
 -1      2628 7.82300E-03-7.74665E-04-3.79825E-14
 -1      2629 7.72331E-03-7.22695E-04-3.72288E-14
 -1      2630 7.92129E-03-8.38383E-04-3.83268E-14
 -1      2631 6.59229E-03-1.30481E-04-3.32313E-14
 -1      2632 6.47909E-03-1.00527E-04-3.24382E-14
 -1      2633 6.68181E-03-1.74592E-04-3.29912E-14
 -1      2634 5.71819E-04-1.84455E-04-3.09092E-16
 -1      2635 8.83852E-03-9.10862E-04-4.48556E-14
 -1      2636 7.14721E-03-3.91318E-04-3.46626E-14
 -1      2637 7.04864E-03-3.30814E-04-3.46673E-14
 -1      2638 6.92031E-03-2.78787E-04-3.37864E-14
 -1      2639 6.21733E-03 1.34088E-05-3.24757E-14
 -1      2640 7.18138E-03 3.96334E-04-3.54786E-14
 -1      2641 6.63611E-03 1.45606E-04-3.33401E-14
 -1      2642 6.75190E-03 1.84341E-04-3.41281E-14
 -1      2643 6.84376E-03 2.33900E-04-3.39601E-14
 -1      2644 8.21944E-03-9.64188E-04-4.03665E-14
 -1      2645 8.12774E-03-9.34054E-04-3.96568E-14
 -1      2646 8.31001E-03-9.91894E-04-4.09395E-14
 -1      2647 6.18023E-03-8.67140E-06-3.24650E-14
 -1      2648 8.59951E-03 9.76317E-04-4.38552E-14
 -1      2649 8.92614E-03 8.55563E-04-4.62704E-14
 -1      2650 6.89432E-04 2.50045E-04-4.02984E-16
 -1      2651 7.92381E-03 8.28168E-04-3.89795E-14
 -1      2652 6.30274E-03-4.08127E-05-3.26513E-14
 -1      2653 1.45041E-02-5.39059E-04-1.12594E-13
 -1      2654 1.45499E-02-4.87004E-04-1.13406E-13
 -1      2655 1.44262E-02-4.64436E-04-1.11647E-13
 -1      2656 1.43758E-02-5.35477E-04-1.10725E-13
 -1      2657 9.19489E-03-7.19789E-04-4.71663E-14
 -1      2658 1.44272E-02 4.29177E-04-1.13478E-13
 -1      2659 1.43041E-02-4.97453E-04-1.09782E-13
 -1      2660 7.80718E-04 7.65942E-05-6.51524E-16
 -1      2661 7.79459E-04 5.49270E-05-6.54709E-16
 -1      2662 7.78611E-04 3.32252E-05-6.56322E-16
 -1      2663 7.78187E-04 1.17793E-05-6.56633E-16
 -1      2664 8.97012E-04 4.91272E-05-8.29482E-16
 -1      2665 7.91945E-04 1.71793E-04-6.19987E-16
 -1      2666 7.87995E-04 1.46495E-04-6.31128E-16
 -1      2667 8.03609E-04 2.26820E-04-5.88600E-16
 -1      2668 7.97103E-04 1.98503E-04-6.06096E-16
 -1      2669 9.15238E-04 2.06058E-04-7.79053E-16
 -1      2670 7.82187E-03 7.87751E-04-3.80974E-14
 -1      2671 8.00132E-03 8.82871E-04-3.92807E-14
 -1      2672 1.12965E-03 3.59122E-04-9.58313E-16
 -1      2673 9.86038E-04 3.30676E-04-7.45294E-16
 -1      2674 8.02998E-04 2.76693E-04-5.29714E-16
 -1      2675 1.04795E-02-9.04161E-05-5.38774E-14
 -1      2676 1.03522E-02-1.32680E-04-5.33540E-14
 -1      2677 9.23306E-03 7.04692E-04-4.86935E-14
 -1      2678 9.42210E-03 5.93483E-04-4.98878E-14
 -1      2679 1.32023E-03-3.58971E-04-1.29202E-15
 -1      2680 1.46351E-03-3.77097E-04-1.56950E-15
 -1      2681 1.60663E-03-3.92198E-04-1.87494E-15
 -1      2682 1.74967E-03-4.04495E-04-2.20842E-15
 -1      2683 1.52530E-03-3.50444E-04-1.75755E-15
 -1      2684 1.89256E-03-4.14442E-04-2.56960E-15
 -1      2685 2.03538E-03-4.22214E-04-2.95863E-15
 -1      2686 1.81210E-03-3.74181E-04-2.42959E-15
 -1      2687 2.17812E-03-4.28168E-04-3.37588E-15
 -1      2688 2.32083E-03-4.32449E-04-3.82050E-15
 -1      2689 2.09872E-03-3.89266E-04-3.21282E-15
 -1      2690 2.46352E-03-4.35325E-04-4.29267E-15
 -1      2691 2.60623E-03-4.36912E-04-4.79270E-15
 -1      2692 2.38512E-03-3.97607E-04-4.10606E-15
 -1      2693 2.74898E-03-4.37409E-04-5.32006E-15
 -1      2694 2.89179E-03-4.36906E-04-5.87411E-15
 -1      2695 2.67135E-03-4.00715E-04-5.10890E-15
 -1      2696 3.03469E-03-4.35554E-04-6.45548E-15
 -1      2697 3.17769E-03-4.33425E-04-7.06364E-15
 -1      2698 2.95750E-03-3.99752E-04-6.22024E-15
 -1      2699 3.32082E-03-4.30635E-04-7.69831E-15
 -1      2700 3.46409E-03-4.27246E-04-8.36017E-15
 -1      2701 3.24366E-03-3.95612E-04-7.43894E-15
 -1      2702 3.60751E-03-4.23358E-04-9.04765E-15
 -1      2703 3.75112E-03-4.19032E-04-9.76123E-15
 -1      2704 3.52989E-03-3.89005E-04-8.76405E-15
 -1      2705 3.89492E-03-4.14368E-04-1.05001E-14
 -1      2706 4.03897E-03-4.09435E-04-1.12633E-14
 -1      2707 3.81627E-03-3.80551E-04-1.01927E-14
 -1      2708 4.18325E-03-4.04353E-04-1.20527E-14
 -1      2709 4.32784E-03-3.99211E-04-1.28665E-14
 -1      2710 4.10290E-03-3.70875E-04-1.17226E-14
 -1      2711 4.47272E-03-3.94167E-04-1.37039E-14
 -1      2712 4.61801E-03-3.89348E-04-1.45651E-14
 -1      2713 4.38992E-03-3.60718E-04-1.33513E-14
 -1      2714 4.76369E-03-3.84967E-04-1.54520E-14
 -1      2715 4.90992E-03-3.81211E-04-1.63624E-14
 -1      2716 4.67757E-03-3.51051E-04-1.50776E-14
 -1      2717 5.05672E-03-3.78365E-04-1.72963E-14
 -1      2718 5.20428E-03-3.76710E-04-1.82550E-14
 -1      2719 4.96629E-03-3.43213E-04-1.68999E-14
 -1      2720 5.35268E-03-3.76605E-04-1.92372E-14
 -1      2721 5.50217E-03-3.78476E-04-2.02428E-14
 -1      2722 5.25686E-03-3.39057E-04-1.88189E-14
 -1      2723 5.65297E-03-3.82745E-04-2.12722E-14
 -1      2724 5.80534E-03-3.90045E-04-2.23253E-14
 -1      2725 5.55065E-03-3.41125E-04-2.08321E-14
 -1      2726 5.95970E-03-4.00823E-04-2.34021E-14
 -1      2727 6.11628E-03-4.16004E-04-2.45020E-14
 -1      2728 5.84987E-03-3.52864E-04-2.29402E-14
 -1      2729 6.27578E-03-4.35985E-04-2.56262E-14
 -1      2730 6.43821E-03-4.62001E-04-2.67747E-14
 -1      2731 6.15786E-03-3.78916E-04-2.51428E-14
 -1      2732 6.60455E-03-4.94299E-04-2.79447E-14
 -1      2733 6.77425E-03-5.34295E-04-2.91362E-14
 -1      2734 6.47906E-03-4.25376E-04-2.74373E-14
 -1      2735 6.94835E-03-5.81883E-04-3.03532E-14
 -1      2736 7.12517E-03-6.37717E-04-3.15909E-14
 -1      2737 6.81804E-03-4.99955E-04-2.98224E-14
 -1      2738 7.30537E-03-7.01029E-04-3.28519E-14
 -1      2739 7.48598E-03-7.70065E-04-3.41372E-14
 -1      2740 7.17622E-03-6.09689E-04-3.22973E-14
 -1      2741 7.66742E-03-8.42482E-04-3.54461E-14
 -1      2742 7.84552E-03-9.12365E-04-3.67770E-14
 -1      2743 7.54773E-03-7.53263E-04-3.48643E-14
 -1      2744 8.01918E-03-9.76033E-04-3.81335E-14
 -1      2745 8.18938E-03-1.02371E-03-3.95148E-14
 -1      2746 7.91621E-03-9.07560E-04-3.75252E-14
 -1      2747 8.35431E-03-1.05224E-03-4.09233E-14
 -1      2748 8.51953E-03-1.05588E-03-4.23564E-14
 -1      2749 8.26652E-03-1.01745E-03-4.02888E-14
 -1      2750 8.68363E-03-1.03431E-03-4.38154E-14
 -1      2751 8.85276E-03-9.92149E-04-4.53019E-14
 -1      2752 8.60524E-03-1.02588E-03-4.31580E-14
 -1      2753 9.02520E-03-9.32184E-04-4.68114E-14
 -1      2754 9.20240E-03-8.64401E-04-4.83453E-14
 -1      2755 8.95302E-03-9.27959E-04-4.61315E-14
 -1      2756 9.38297E-03-7.92554E-04-4.99025E-14
 -1      2757 9.56373E-03-7.22862E-04-5.14810E-14
 -1      2758 9.31930E-03-7.77108E-04-4.92030E-14
 -1      2759 9.74457E-03-6.58308E-04-5.30832E-14
 -1      2760 9.92216E-03-6.00908E-04-5.47073E-14
 -1      2761 9.69148E-03-6.31321E-04-5.23675E-14
 -1      2762 1.00973E-02-5.51692E-04-5.63534E-14
 -1      2763 1.02681E-02-5.10096E-04-5.80207E-14
 -1      2764 1.00521E-02-5.17642E-04-5.56197E-14
 -1      2765 1.04355E-02-4.76332E-04-5.97092E-14
 -1      2766 1.05989E-02-4.49035E-04-6.14187E-14
 -1      2767 1.03938E-02-4.39685E-04-5.89566E-14
 -1      2768 1.07593E-02-4.27995E-04-6.31474E-14
 -1      2769 1.09166E-02-4.11922E-04-6.48966E-14
 -1      2770 1.07173E-02-3.90771E-04-6.23765E-14
 -1      2771 1.10716E-02-4.00429E-04-6.66641E-14
 -1      2772 1.12245E-02-3.92552E-04-6.84507E-14
 -1      2773 1.10268E-02-3.63154E-04-6.58767E-14
 -1      2774 1.13758E-02-3.87842E-04-7.02546E-14
 -1      2775 1.15257E-02-3.85631E-04-7.20773E-14
 -1      2776 1.13271E-02-3.50465E-04-6.94496E-14
 -1      2777 1.16745E-02-3.85492E-04-7.39171E-14
 -1      2778 1.18224E-02-3.86976E-04-7.57702E-14
 -1      2779 1.16215E-02-3.47878E-04-7.30957E-14
 -1      2780 1.19695E-02-3.89719E-04-7.76415E-14
 -1      2781 1.21161E-02-3.93425E-04-7.95305E-14
 -1      2782 1.19125E-02-3.51811E-04-7.68062E-14
 -1      2783 1.22620E-02-3.97809E-04-8.14342E-14
 -1      2784 1.24076E-02-4.02679E-04-8.33545E-14
 -1      2785 1.22015E-02-3.59636E-04-8.05823E-14
 -1      2786 1.25528E-02-4.07826E-04-8.52914E-14
 -1      2787 1.26978E-02-4.13126E-04-8.72422E-14
 -1      2788 1.24894E-02-3.69465E-04-8.44240E-14
 -1      2789 1.28424E-02-4.18438E-04-8.92107E-14
 -1      2790 1.29868E-02-4.23683E-04-9.11927E-14
 -1      2791 1.27766E-02-3.79986E-04-8.83296E-14
 -1      2792 1.31309E-02-4.28773E-04-9.31866E-14
 -1      2793 1.32750E-02-4.33659E-04-9.51913E-14
 -1      2794 1.30634E-02-3.90324E-04-9.22914E-14
 -1      2795 1.34188E-02-4.38291E-04-9.72108E-14
 -1      2796 1.35625E-02-4.42640E-04-9.92401E-14
 -1      2797 1.33499E-02-3.99926E-04-9.63063E-14
 -1      2798 1.37060E-02-4.46682E-04-1.01277E-13
 -1      2799 1.38495E-02-4.50399E-04-1.03323E-13
 -1      2800 1.36362E-02-4.08468E-04-1.00360E-13
 -1      2801 1.39928E-02-4.53785E-04-1.05378E-13
 -1      2802 1.41360E-02-4.56831E-04-1.07442E-13
 -1      2803 1.39223E-02-4.15776E-04-1.04448E-13
 -1      2804 2.27017E-03 4.66306E-04-3.68915E-15
 -1      2805 2.12804E-03 4.61194E-04-3.24874E-15
 -1      2806 9.30216E-03-6.68295E-04-4.81575E-14
 -1      2807 9.11493E-03-7.80528E-04-4.69631E-14
 -1      2808 1.98588E-03 4.54275E-04-2.83635E-15
 -1      2809 1.84364E-03 4.45394E-04-2.45188E-15
 -1      2810 2.04824E-03 4.21781E-04-3.08507E-15
 -1      2811 2.83929E-03 4.73154E-04-5.72986E-15
 -1      2812 2.69685E-03 4.73173E-04-5.17850E-15
 -1      2813 3.12468E-03 4.70471E-04-6.91370E-15
 -1      2814 2.98189E-03 4.72226E-04-6.30815E-15
 -1      2815 2.90488E-03 4.36132E-04-6.06823E-15
 -1      2816 3.41095E-03 4.64912E-04-8.20404E-15
 -1      2817 3.26769E-03 4.68009E-04-7.54576E-15
 -1      2818 3.19082E-03 4.32662E-04-7.28019E-15
 -1      2819 3.69829E-03 4.57181E-04-9.60100E-15
 -1      2820 3.55446E-03 4.61280E-04-8.88883E-15
 -1      2821 3.47723E-03 4.26539E-04-8.59852E-15
 -1      2822 3.98695E-03 4.47953E-04-1.11053E-14
 -1      2823 3.84243E-03 4.52713E-04-1.03400E-14
 -1      2824 3.76425E-03 4.18423E-04-1.00229E-14
 -1      2825 4.27719E-03 4.37997E-04-1.27185E-14
 -1      2826 4.13184E-03 4.43015E-04-1.18980E-14
 -1      2827 4.05205E-03 4.08969E-04-1.15553E-14
 -1      2828 4.56936E-03 4.28305E-04-1.44354E-14
 -1      2829 4.42299E-03 4.33049E-04-1.35641E-14
 -1      2830 4.34084E-03 3.98939E-04-1.31937E-14
 -1      2831 4.86390E-03 4.20252E-04-1.62559E-14
 -1      2832 4.71628E-03 4.23976E-04-1.53336E-14
 -1      2833 4.63091E-03 3.89330E-04-1.49370E-14
 -1      2834 5.16145E-03 4.15761E-04-1.81780E-14
 -1      2835 5.01224E-03 4.17421E-04-1.72047E-14
 -1      2836 4.92272E-03 3.81521E-04-1.67810E-14
 -1      2837 5.46293E-03 4.17482E-04-2.01963E-14
 -1      2838 5.31163E-03 4.15647E-04-1.91748E-14
 -1      2839 5.21700E-03 3.77431E-04-1.87242E-14
 -1      2840 5.76965E-03 4.28952E-04-2.23127E-14
 -1      2841 5.61556E-03 4.21728E-04-2.12426E-14
 -1      2842 5.51490E-03 3.79693E-04-2.07649E-14
 -1      2843 6.08337E-03 4.54654E-04-2.45242E-14
 -1      2844 5.92557E-03 4.39669E-04-2.34059E-14
 -1      2845 5.81819E-03 3.91830E-04-2.29025E-14
 -1      2846 6.40622E-03 4.99836E-04-2.68297E-14
 -1      2847 6.24365E-03 4.74388E-04-2.56652E-14
 -1      2848 6.12943E-03 4.18402E-04-2.51349E-14
 -1      2849 6.73997E-03 5.69748E-04-2.92280E-14
 -1      2850 6.57188E-03 5.31299E-04-2.80175E-14
 -1      2851 6.45178E-03 4.64999E-04-2.74607E-14
 -1      2852 7.08450E-03 6.67545E-04-3.17205E-14
 -1      2853 6.91133E-03 6.15080E-04-3.04633E-14
 -1      2854 6.78816E-03 5.37786E-04-2.98791E-14
 -1      2855 7.43545E-03 7.89832E-04-3.43047E-14
 -1      2856 7.25994E-03 7.26358E-04-3.30006E-14
 -1      2857 7.13888E-03 6.41225E-04-3.23882E-14
 -1      2858 7.78438E-03 9.19840E-04-3.69883E-14
 -1      2859 7.61124E-03 8.55713E-04-3.56333E-14
 -1      2860 7.49877E-03 7.71911E-04-3.49909E-14
 -1      2861 8.12082E-03 1.02529E-03-3.97736E-14
 -1      2862 7.95413E-03 9.78641E-04-3.83687E-14
 -1      2863 7.85545E-03 9.10263E-04-3.76944E-14
 -1      2864 8.44469E-03 1.06771E-03-4.26570E-14
 -1      2865 8.28297E-03 1.05671E-03-4.12033E-14
 -1      2866 8.19697E-03 1.01501E-03-4.05016E-14
 -1      2867 8.76794E-03 1.02792E-03-4.56418E-14
 -1      2868 8.60453E-03 1.05763E-03-4.41371E-14
 -1      2869 8.52631E-03 1.04051E-03-4.34068E-14
 -1      2870 9.10309E-03 9.22948E-04-4.87228E-14
 -1      2871 8.93324E-03 9.80941E-04-4.71700E-14
 -1      2872 8.85971E-03 9.73433E-04-4.64134E-14
 -1      2873 9.45113E-03 7.91140E-04-5.18965E-14
 -1      2874 9.27626E-03 8.57612E-04-5.02993E-14
 -1      2875 9.20905E-03 8.45319E-04-4.95174E-14
 -1      2876 9.80250E-03 6.66170E-04-5.51593E-14
 -1      2877 9.62752E-03 7.26258E-04-5.35165E-14
 -1      2878 9.56909E-03 7.04611E-04-5.27124E-14
 -1      2879 1.01475E-02 5.65295E-04-5.85059E-14
 -1      2880 9.97643E-03 6.12319E-04-5.68220E-14
 -1      2881 9.92595E-03 5.83457E-04-5.59956E-14
 -1      2882 1.04819E-02 4.92372E-04-6.19379E-14
 -1      2883 1.03164E-02 5.25556E-04-6.02117E-14
 -1      2884 1.02704E-02 4.92470E-04-5.93611E-14
 -1      2885 1.08055E-02 4.44297E-04-6.54556E-14
 -1      2886 1.06451E-02 4.65622E-04-6.36879E-14
 -1      2887 1.06002E-02 4.30549E-04-6.28126E-14
 -1      2888 1.11198E-02 4.15818E-04-6.90529E-14
 -1      2889 1.09637E-02 4.27990E-04-6.72433E-14
 -1      2890 1.09172E-02 3.91854E-04-6.63470E-14
 -1      2891 1.14271E-02 4.01666E-04-7.27267E-14
 -1      2892 1.12742E-02 4.07271E-04-7.08813E-14
 -1      2893 1.12246E-02 3.70418E-04-6.99607E-14
 -1      2894 1.17291E-02 3.97311E-04-7.64724E-14
 -1      2895 1.15786E-02 3.98508E-04-7.45906E-14
 -1      2896 1.15253E-02 3.61092E-04-7.36490E-14
 -1      2897 1.20273E-02 3.99197E-04-8.02890E-14
 -1      2898 1.18786E-02 3.97653E-04-7.83712E-14
 -1      2899 1.18216E-02 3.59798E-04-7.74092E-14
 -1      2900 1.23225E-02 4.04676E-04-8.41691E-14
 -1      2901 1.21752E-02 4.01614E-04-8.22202E-14
 -1      2902 1.21149E-02 3.63459E-04-8.12381E-14
 -1      2903 1.26155E-02 4.11868E-04-8.81076E-14
 -1      2904 1.24692E-02 4.08144E-04-8.61335E-14
 -1      2905 1.24062E-02 3.69835E-04-8.51309E-14
 -1      2906 1.29067E-02 4.19498E-04-9.20843E-14
 -1      2907 1.27613E-02 4.15686E-04-9.00928E-14
 -1      2908 1.26961E-02 3.77351E-04-8.90749E-14
 -1      2909 1.31966E-02 4.26740E-04-9.60923E-14
 -1      2910 1.30518E-02 4.23204E-04-9.40855E-14
 -1      2911 1.29849E-02 3.84951E-04-9.30571E-14
 -1      2912 1.34853E-02 4.33088E-04-1.00125E-13
 -1      2913 1.33411E-02 4.30048E-04-9.81042E-14
 -1      2914 1.32730E-02 3.91959E-04-9.70671E-14
 -1      2915 1.37732E-02 4.38258E-04-1.04177E-13
 -1      2916 1.36294E-02 4.35833E-04-1.02148E-13
 -1      2917 1.35604E-02 3.97969E-04-1.01102E-13
 -1      2918 1.40604E-02 4.42109E-04-1.08256E-13
 -1      2919 1.39169E-02 4.40355E-04-1.06214E-13
 -1      2920 1.38473E-02 4.02762E-04-1.05160E-13
 -1      2921 1.43155E-02 4.36444E-04-1.11889E-13
 -1      2922 1.41723E-02 4.35309E-04-1.09842E-13
 -1      2923 1.41025E-02 3.98028E-04-1.08779E-13
 -1      2924 1.43259E-02 3.84139E-04-1.11950E-13
 -1      2925 1.43320E-02-5.62597E-06-1.11202E-13
 -1      2926 1.43309E-02 3.41149E-05-1.11270E-13
 -1      2927 1.42328E-02-4.59520E-04-1.08841E-13
 -1      2928 1.43295E-02-4.62052E-04-1.10243E-13
 -1      2929 1.41619E-02-4.21717E-04-1.07901E-13
 -1      2930 1.43259E-02 1.53832E-04-1.11462E-13
 -1      2931 1.43238E-02 1.94032E-04-1.11520E-13
 -1      2932 1.43330E-02-8.50779E-05-1.11060E-13
 -1      2933 1.43327E-02-4.53365E-05-1.11134E-13
 -1      2934 1.42100E-02-2.48551E-05-1.09392E-13
 -1      2935 1.43295E-02 7.39063E-05-1.11337E-13
 -1      2936 1.43279E-02 1.13806E-04-1.11400E-13
 -1      2937 1.42043E-02 1.33578E-04-1.09660E-13
 -1      2938 1.42078E-02 5.41851E-05-1.09531E-13
 -1      2939 1.00390E-02 2.50370E-04-5.27781E-14
 -1      2940 1.01940E-02 1.79661E-04-5.33335E-14
 -1      2941 1.43328E-02-1.63417E-04-1.10906E-13
 -1      2942 1.43331E-02-1.24195E-04-1.10985E-13
 -1      2943 1.42106E-02-1.03225E-04-1.09244E-13
 -1      2944 1.43316E-02-2.43636E-04-1.10739E-13
 -1      2945 1.43323E-02-2.03440E-04-1.10824E-13
 -1      2946 1.42099E-02-1.81942E-04-1.09082E-13
 -1      2947 1.43298E-02-3.24629E-04-1.10554E-13
 -1      2948 1.43307E-02-2.84022E-04-1.10648E-13
 -1      2949 1.42082E-02-2.61995E-04-1.08904E-13
 -1      2950 1.03716E-02 1.07919E-04-5.39020E-14
 -1      2951 1.05181E-02 5.93481E-05-5.43059E-14
 -1      2952 1.70128E-03 4.34152E-04-2.09598E-15
 -1      2953 1.55872E-03 4.20351E-04-1.76886E-15
 -1      2954 1.76245E-03 4.04380E-04-2.31324E-15
 -1      2955 1.07544E-02-5.51190E-06-5.49149E-14
 -1      2956 1.07582E-02-1.08062E-05-5.49163E-14
 -1      2957 7.88899E-04-2.51015E-04-5.15931E-16
 -1      2958 9.20063E-04-2.86340E-04-6.68709E-16
 -1      2959 8.61170E-03-9.94185E-04-4.32499E-14
 -1      2960 8.48158E-03-1.01032E-03-4.22100E-14
 -1      2961 6.16500E-03 7.08272E-06-3.16954E-14
 -1      2962 6.23118E-03 2.22003E-05-3.18644E-14
 -1      2963 7.05054E-03 3.42083E-04-3.44647E-14
 -1      2964 7.24009E-03 4.47016E-04-3.51809E-14
 -1      2965 2.55454E-03 4.72124E-04-4.65472E-15
 -1      2966 2.41233E-03 4.69907E-04-4.15827E-15
 -1      2967 2.33377E-03 4.31821E-04-3.96890E-15
 -1      2968 2.61925E-03 4.36177E-04-4.96417E-15
 -1      2969 1.04829E-03-3.13395E-04-8.44770E-16
 -1      2970 1.19158E-03-3.38385E-04-1.06913E-15
 -1      2971 1.25330E-03-3.16558E-04-1.22462E-15
 -1      2972 9.96945E-04-2.72647E-04-8.13450E-16
 -1      2973 1.41597E-03 4.03474E-04-1.47016E-15
 -1      2974 1.27287E-03 3.83268E-04-1.19997E-15
 -1      2975 1.18973E-03 3.38391E-04-1.10776E-15
 -1      2976 1.47627E-03 3.77471E-04-1.65361E-15
 -1      2977 8.87327E-03 8.94777E-04-4.60963E-14
 -1      2978 9.04739E-03 8.05277E-04-4.73863E-14
 -1      2979 9.17025E-03 7.61151E-04-4.85123E-14
 -1      2980 8.91422E-03-8.84469E-04-4.55523E-14
 -1      2981 8.76512E-03-9.50607E-04-4.44291E-14
 -1      2982 9.67462E-03 4.42891E-04-5.11655E-14
 -1      2983 9.85629E-03 3.40404E-04-5.19704E-14
 -1      2984 9.99617E-03 2.94220E-04-5.32213E-14
 -1      2985 7.84883E-04 1.22378E-04-6.39666E-16
 -1      2986 7.82515E-04 9.91038E-05-6.46564E-16
 -1      2987 9.00135E-04 9.83976E-05-8.21690E-16
 -1      2988 9.05850E-04 1.50126E-04-8.05508E-16
 -1      2989 6.53060E-04-1.87341E-04-4.02646E-16
 -1      2990 7.82249E-04-9.70542E-05-6.35790E-16
 -1      2991 7.84544E-04-1.20242E-04-6.26384E-16
 -1      2992 7.44110E-03 5.67178E-04-3.59852E-14
 -1      2993 7.59996E-03 6.64926E-04-3.67734E-14
 -1      2994 8.52467E-03 9.97250E-04-4.33195E-14
 -1      2995 8.66175E-03 9.71439E-04-4.44553E-14
 -1      2996 6.35474E-03 5.54110E-05-3.22788E-14
 -1      2997 6.46957E-03 8.72803E-05-3.27031E-14
 -1      2998 6.18207E-03-1.42954E-05-3.18859E-14
 -1      2999 6.15006E-03-6.37190E-06-3.17257E-14
 -1      3000 6.31148E-03-4.95695E-05-3.19346E-14
 -1      3001 6.23439E-03-2.89833E-05-3.19120E-14
 -1      3002 6.17653E-03-2.30865E-05-3.11778E-14
 -1      3003 1.43550E-02-4.26811E-04-1.10698E-13
 -1      3004 7.51540E-03-6.03239E-04-3.61307E-14
 -1      3005 7.36486E-03-5.13725E-04-3.54682E-14
 -1      3006 8.20315E-03 9.59782E-04-4.07459E-14
 -1      3007 8.36343E-03 9.94792E-04-4.20199E-14
 -1      3008 8.43606E-03 1.00782E-03-4.26024E-14
 -1      3009 1.06343E-02 2.48800E-05-5.45789E-14
 -1      3010 1.07124E-02 8.14166E-06-5.48497E-14
 -1      3011 9.71549E-03-4.25076E-04-5.03586E-14
 -1      3012 9.52657E-03-5.34655E-04-4.94120E-14
 -1      3013 1.01525E-02-2.10560E-04-5.23905E-14
 -1      3014 9.93714E-03-3.09086E-04-5.14097E-14
 -1      3015 7.87564E-04-1.44242E-04-6.15380E-16
 -1      3016 7.91372E-04-1.69279E-04-6.02003E-16
 -1      3017 9.05382E-04-1.47600E-04-7.88093E-16
 -1      3018 8.95979E-04 1.00488E-06-8.30119E-16
 -1      3019 7.78158E-04-9.61669E-06-6.55536E-16
 -1      3020 7.78523E-04-3.10457E-05-6.52852E-16
 -1      3021 8.09246E-03 9.33935E-04-3.98374E-14
 -1      3022 7.68905E-03 7.39348E-04-3.70579E-14
 -1      3023 1.07592E-02-1.91714E-05-5.54812E-14
 -1      3024 1.07500E-02-2.92036E-05-5.60451E-14
 -1      3025 1.08007E-02-1.58874E-05-5.64378E-14
 -1      3026 8.64937E-04 2.64814E-04-6.38378E-16
 -1      3027 7.70266E-04-2.01028E-04-5.44283E-16
 -1      3028 1.05798E-02-6.96091E-05-5.48096E-14
 -1      3029 9.50206E-03 5.98012E-04-5.10595E-14
 -1      3030 9.57637E-03 5.22700E-04-5.11148E-14
 -1      3031 9.72867E-03 4.61609E-04-5.23556E-14
 -1      3032 1.41997E-02 2.13300E-04-1.09778E-13
 -1      3033 1.43216E-02 2.34078E-04-1.11577E-13
 -1      3034 1.43193E-02 2.74341E-04-1.11632E-13
 -1      3035 9.03157E-03-8.39872E-04-4.65233E-14
 -1      3036 9.83137E-04 2.73629E-04-8.19603E-16
 -1      3037 1.02670E-02-1.81091E-04-5.35542E-14
 -1      3038 9.85998E-03-3.67236E-04-5.15249E-14
 -1      3039 7.21975E-03-4.47899E-04-3.45730E-14
 -1      3040 1.43236E-02 3.08702E-04-1.11769E-13
 -1      3041 1.43214E-02 3.49395E-04-1.11819E-13
 -1      3042 1.42098E-02 3.56428E-04-1.10235E-13
 -1      3043 1.42014E-02 2.87493E-04-1.09970E-13
 -1      3044 6.37577E-03-7.64861E-05-3.16989E-14
 -1      3045 6.28408E-03-6.25299E-05-3.09683E-14
 -1      3046 6.44152E-03-1.10341E-04-3.14621E-14
 -1      3047 1.06093E-02 4.55481E-05-5.54635E-14
 -1      3048 1.03346E-02 1.42471E-04-5.46121E-14
 -1      3049 1.43557E-02-3.85601E-04-1.10803E-13
 -1      3050 6.91397E-03 2.89522E-04-3.36686E-14
 -1      3051 8.78762E-03 9.41487E-04-4.55429E-14
 -1      3052 8.02800E-03-8.96810E-04-3.88815E-14
 -1      3053 7.92767E-03-8.55619E-04-3.81143E-14
 -1      3054 8.12168E-03-9.43895E-04-3.94409E-14
 -1      3055 6.77649E-03-2.23104E-04-3.29842E-14
 -1      3056 6.64183E-03-1.81814E-04-3.21914E-14
 -1      3057 6.86396E-03-2.76895E-04-3.29755E-14
 -1      3058 6.12665E-03 3.00290E-07-3.11219E-14
 -1      3059 6.11201E-03 7.80069E-06-3.05207E-14
 -1      3060 6.10067E-03-4.67805E-06-3.05527E-14
 -1      3061 1.07607E-02 2.86830E-06-5.58053E-14
 -1      3062 8.69582E-03-9.81236E-04-4.39309E-14
 -1      3063 7.62544E-03-6.81048E-04-3.64624E-14
 -1      3064 6.17907E-03 2.90061E-05-3.07284E-14
 -1      3065 6.25972E-03 3.80038E-05-3.15000E-14
 -1      3066 6.29022E-03 5.81257E-05-3.11341E-14
 -1      3067 6.54733E-03 1.26723E-04-3.25385E-14
 -1      3068 7.29336E-03 5.08868E-04-3.49557E-14
 -1      3069 9.43367E-03-6.09192E-04-4.92020E-14
 -1      3070 7.79302E-04-5.26204E-05-6.48692E-16
 -1      3071 7.80519E-04-7.46104E-05-6.43013E-16
 -1      3072 8.99853E-04-9.60558E-05-8.09926E-16
 -1      3073 8.96882E-04-4.69855E-05-8.23723E-16
 -1      3074 1.41972E-02-3.92327E-04-1.08480E-13
 -1      3075 1.42946E-02-3.53862E-04-1.09980E-13
 -1      3076 1.41717E-02-3.31367E-04-1.08237E-13
 -1      3077 1.41008E-02-3.89651E-04-1.07086E-13
 -1      3078 1.04065E-03 2.40994E-04-9.56022E-16
 -1      3079 1.03410E-03 2.09428E-04-9.74955E-16
 -1      3080 8.88258E-04-2.10114E-04-7.09028E-16
 -1      3081 1.73208E-03-3.34200E-04-2.28960E-15
 -1      3082 1.87575E-03-3.43233E-04-2.65562E-15
 -1      3083 2.01940E-03-3.50396E-04-3.04949E-15
 -1      3084 2.16303E-03-3.55832E-04-3.47101E-15
 -1      3085 1.94038E-03-3.11707E-04-2.88666E-15
 -1      3086 2.30659E-03-3.59803E-04-3.91947E-15
 -1      3087 2.45010E-03-3.62423E-04-4.39498E-15
 -1      3088 2.22814E-03-3.22001E-04-3.73285E-15
 -1      3089 2.59352E-03-3.63901E-04-4.89807E-15
 -1      3090 2.73687E-03-3.64323E-04-5.42829E-15
 -1      3091 2.51565E-03-3.27002E-04-4.68783E-15
 -1      3092 2.88013E-03-3.63852E-04-5.98484E-15
 -1      3093 3.02331E-03-3.62555E-04-6.56892E-15
 -1      3094 2.80271E-03-3.27847E-04-5.75057E-15
 -1      3095 3.16640E-03-3.60560E-04-7.18028E-15
 -1      3096 3.30941E-03-3.57916E-04-7.81752E-15
 -1      3097 3.08918E-03-3.25429E-04-6.92100E-15
 -1      3098 3.45233E-03-3.54732E-04-8.48070E-15
 -1      3099 3.59516E-03-3.51048E-04-9.17017E-15
 -1      3100 3.37495E-03-3.20450E-04-8.19830E-15
 -1      3101 3.73790E-03-3.46965E-04-9.88562E-15
 -1      3102 3.88056E-03-3.42524E-04-1.06260E-14
 -1      3103 3.65993E-03-3.13484E-04-9.57863E-15
 -1      3104 4.02312E-03-3.37831E-04-1.13917E-14
 -1      3105 4.16562E-03-3.32936E-04-1.21833E-14
 -1      3106 3.94402E-03-3.05054E-04-1.10619E-14
 -1      3107 4.30802E-03-3.27968E-04-1.29990E-14
 -1      3108 4.45041E-03-3.22996E-04-1.38388E-14
 -1      3109 4.22718E-03-2.95712E-04-1.26457E-14
 -1      3110 4.59274E-03-3.18183E-04-1.47024E-14
 -1      3111 4.73513E-03-3.13635E-04-1.55908E-14
 -1      3112 4.50939E-03-2.86121E-04-1.43281E-14
 -1      3113 4.87756E-03-3.09558E-04-1.65036E-14
 -1      3114 5.02021E-03-3.06123E-04-1.74395E-14
 -1      3115 4.79079E-03-2.77147E-04-1.61056E-14
 -1      3116 5.16311E-03-3.03577E-04-1.83997E-14
 -1      3117 5.30651E-03-3.02198E-04-1.93843E-14
 -1      3118 5.07179E-03-2.69944E-04-1.79817E-14
 -1      3119 5.45056E-03-3.02268E-04-2.03926E-14
 -1      3120 5.59562E-03-3.04242E-04-2.14239E-14
 -1      3121 5.35330E-03-2.66072E-04-1.99522E-14
 -1      3122 5.74199E-03-3.08417E-04-2.24789E-14
 -1      3123 5.89020E-03-3.15543E-04-2.35572E-14
 -1      3124 5.63708E-03-2.67668E-04-2.20172E-14
 -1      3125 6.04080E-03-3.25888E-04-2.46586E-14
 -1      3126 6.19445E-03-3.40748E-04-2.57843E-14
 -1      3127 5.92623E-03-2.77755E-04-2.41761E-14
 -1      3128 6.35206E-03-3.60301E-04-2.69315E-14
 -1      3129 6.51416E-03-3.86530E-04-2.81013E-14
 -1      3130 6.22582E-03-3.01057E-04-2.64265E-14
 -1      3131 6.68218E-03-4.19696E-04-2.92938E-14
 -1      3132 6.85573E-03-4.62540E-04-3.05079E-14
 -1      3133 6.54312E-03-3.45045E-04-2.87669E-14
 -1      3134 7.03744E-03-5.14616E-04-3.17442E-14
 -1      3135 7.22341E-03-5.78709E-04-3.30021E-14
 -1      3136 6.88758E-03-4.21828E-04-3.11924E-14
 -1      3137 7.40773E-03-6.22316E-04-3.44770E-14
 -1      3138 7.60456E-03-7.10590E-04-3.57836E-14
 -1      3139 7.87861E-03-8.68267E-04-3.74173E-14
 -1      3140 8.06306E-03-9.42587E-04-3.87816E-14
 -1      3141 8.49191E-03-1.02607E-03-4.22345E-14
 -1      3142 8.66631E-03-1.00310E-03-4.36913E-14
 -1      3143 8.80688E-03-9.60001E-04-4.48769E-14
 -1      3144 8.99053E-03-8.89777E-04-4.63820E-14
 -1      3145 9.17188E-03-7.97395E-04-4.78052E-14
 -1      3146 9.36504E-03-7.10837E-04-4.93563E-14
 -1      3147 9.64202E-03-6.01704E-04-5.16499E-14
 -1      3148 9.82985E-03-5.34984E-04-5.32561E-14
 -1      3149 1.00128E-02-4.80470E-04-5.48847E-14
 -1      3150 1.01882E-02-4.35468E-04-5.65333E-14
 -1      3151 9.97981E-03-4.40498E-04-5.41494E-14
 -1      3152 1.03580E-02-4.00661E-04-5.82032E-14
 -1      3153 1.05215E-02-3.72953E-04-5.98940E-14
 -1      3154 1.03283E-02-3.58838E-04-5.74504E-14
 -1      3155 1.06804E-02-3.52325E-04-6.16048E-14
 -1      3156 1.08350E-02-3.36616E-04-6.33371E-14
 -1      3157 1.06489E-02-3.12171E-04-6.08335E-14
 -1      3158 1.09864E-02-3.25636E-04-6.50885E-14
 -1      3159 1.11351E-02-3.18019E-04-6.68567E-14
 -1      3160 1.09503E-02-2.87536E-04-6.42993E-14
 -1      3161 1.12819E-02-3.13509E-04-6.86457E-14
 -1      3162 1.14273E-02-3.11285E-04-7.04515E-14
 -1      3163 1.12405E-02-2.76785E-04-6.78407E-14
 -1      3164 1.15715E-02-3.11057E-04-7.22735E-14
 -1      3165 1.17151E-02-3.12339E-04-7.41146E-14
 -1      3166 1.15246E-02-2.74943E-04-7.14540E-14
 -1      3167 1.18580E-02-3.14845E-04-7.59705E-14
 -1      3168 1.20007E-02-3.18284E-04-7.78419E-14
 -1      3169 1.18061E-02-2.78803E-04-7.51336E-14
 -1      3170 1.21431E-02-3.22408E-04-7.97324E-14
 -1      3171 1.22854E-02-3.27037E-04-8.16374E-14
 -1      3172 1.20868E-02-2.86150E-04-7.88805E-14
 -1      3173 1.24277E-02-3.31972E-04-8.35576E-14
 -1      3174 1.25700E-02-3.37104E-04-8.54948E-14
 -1      3175 1.23677E-02-2.95394E-04-8.26930E-14
 -1      3176 1.27122E-02-3.42284E-04-8.74495E-14
 -1      3177 1.28546E-02-3.47448E-04-8.94190E-14
 -1      3178 1.26493E-02-3.05389E-04-8.65698E-14
 -1      3179 1.29969E-02-3.52492E-04-9.13975E-14
 -1      3180 1.31394E-02-3.57382E-04-9.33900E-14
 -1      3181 1.29316E-02-3.15341E-04-9.05050E-14
 -1      3182 1.32818E-02-3.62048E-04-9.53975E-14
 -1      3183 1.34244E-02-3.66475E-04-9.74144E-14
 -1      3184 1.32147E-02-3.24720E-04-9.44907E-14
 -1      3185 1.35670E-02-3.70623E-04-9.94436E-14
 -1      3186 1.37096E-02-3.74484E-04-1.01477E-13
 -1      3187 1.34985E-02-3.33204E-04-9.85238E-14
 -1      3188 1.38338E-02-3.80664E-04-1.03247E-13
 -1      3189 1.39765E-02-3.83955E-04-1.05297E-13
 -1      3190 1.40122E-02-3.54917E-04-1.05874E-13
 -1      3191 1.37643E-02-3.43205E-04-1.02321E-13
 -1      3192 3.25673E-03 3.94871E-04-7.64842E-15
 -1      3193 3.11364E-03 3.97275E-04-7.01506E-15
 -1      3194 2.97056E-03 3.98976E-04-6.40818E-15
 -1      3195 2.82748E-03 3.99914E-04-5.82848E-15
 -1      3196 3.03631E-03 3.61806E-04-6.75058E-15
 -1      3197 3.82929E-03 3.80003E-04-1.04470E-14
 -1      3198 3.68609E-03 3.84367E-04-9.70724E-15
 -1      3199 4.11585E-03 3.70485E-04-1.20060E-14
 -1      3200 3.97252E-03 3.75356E-04-1.12130E-14
 -1      3201 3.89342E-03 3.42029E-04-1.08721E-14
 -1      3202 4.40278E-03 3.60530E-04-1.36698E-14
 -1      3203 4.25924E-03 3.65515E-04-1.28249E-14
 -1      3204 4.17839E-03 3.32599E-04-1.24566E-14
 -1      3205 4.69033E-03 3.51118E-04-1.54378E-14
 -1      3206 4.54644E-03 3.55690E-04-1.45412E-14
 -1      3207 4.46307E-03 3.22851E-04-1.41468E-14
 -1      3208 4.97897E-03 3.43594E-04-1.73050E-14
 -1      3209 4.83446E-03 3.47024E-04-1.63588E-14
 -1      3210 4.74770E-03 3.13721E-04-1.59384E-14
 -1      3211 5.26953E-03 3.39820E-04-1.92704E-14
 -1      3212 5.12392E-03 3.41097E-04-1.82758E-14
 -1      3213 5.03274E-03 3.06479E-04-1.78285E-14
 -1      3214 5.56339E-03 3.42338E-04-2.13339E-14
 -1      3215 5.41592E-03 3.40083E-04-2.02904E-14
 -1      3216 5.31911E-03 3.02864E-04-1.98174E-14
 -1      3217 5.86284E-03 3.54591E-04-2.34930E-14
 -1      3218 5.71224E-03 3.46938E-04-2.24015E-14
 -1      3219 5.60846E-03 3.05255E-04-2.19028E-14
 -1      3220 6.17124E-03 3.81194E-04-2.57466E-14
 -1      3221 6.01571E-03 3.65645E-04-2.46082E-14
 -1      3222 5.90357E-03 3.16944E-04-2.40837E-14
 -1      3223 6.49296E-03 4.28211E-04-2.80908E-14
 -1      3224 6.33027E-03 4.01533E-04-2.69072E-14
 -1      3225 6.20872E-03 3.42623E-04-2.63570E-14
 -1      3226 6.83228E-03 5.03125E-04-3.05278E-14
 -1      3227 6.66048E-03 4.61458E-04-2.92980E-14
 -1      3228 6.52955E-03 3.89166E-04-2.87206E-14
 -1      3229 7.19144E-03 6.12293E-04-3.30528E-14
 -1      3230 7.01035E-03 5.52878E-04-3.17786E-14
 -1      3231 6.87268E-03 4.65646E-04-3.11726E-14
 -1      3232 7.59340E-03 7.40110E-04-3.60488E-14
 -1      3233 7.40382E-03 6.61555E-04-3.47214E-14
 -1      3234 7.96964E-03 9.13416E-04-3.87409E-14
 -1      3235 7.78771E-03 8.41086E-04-3.73601E-14
 -1      3236 8.32447E-03 1.01574E-03-4.16305E-14
 -1      3237 8.15293E-03 9.80794E-04-4.01980E-14
 -1      3238 8.64065E-03 1.00670E-03-4.44061E-14
 -1      3239 8.47147E-03 1.02439E-03-4.29244E-14
 -1      3240 9.00970E-03 8.81518E-04-4.75840E-14
 -1      3241 8.83041E-03 9.47731E-04-4.60504E-14
 -1      3242 9.36131E-03 7.20083E-04-5.04742E-14
 -1      3243 9.17311E-03 8.01117E-04-4.88966E-14
 -1      3244 9.69317E-03 5.90747E-04-5.33224E-14
 -1      3245 9.50662E-03 6.62037E-04-5.17050E-14
 -1      3246 1.03962E-02 4.21703E-04-6.02160E-14
 -1      3247 1.02286E-02 4.56930E-04-5.85136E-14
 -1      3248 1.07188E-02 3.71876E-04-6.36874E-14
 -1      3249 1.05596E-02 3.93988E-04-6.19413E-14
 -1      3250 1.05235E-02 3.55530E-04-6.10724E-14
 -1      3251 1.10278E-02 3.42585E-04-6.72363E-14
 -1      3252 1.08748E-02 3.55183E-04-6.54511E-14
 -1      3253 1.08365E-02 3.17617E-04-6.45579E-14
 -1      3254 1.13277E-02 3.27777E-04-7.08666E-14
 -1      3255 1.11786E-02 3.33756E-04-6.90424E-14
 -1      3256 1.11364E-02 2.97038E-04-6.81269E-14
 -1      3257 1.16218E-02 3.22738E-04-7.45702E-14
 -1      3258 1.14753E-02 3.24297E-04-7.27092E-14
 -1      3259 1.14284E-02 2.88001E-04-7.17718E-14
 -1      3260 1.19125E-02 3.23999E-04-7.83444E-14
 -1      3261 1.17674E-02 3.22761E-04-7.64481E-14
 -1      3262 1.17161E-02 2.86503E-04-7.54893E-14
 -1      3263 1.22013E-02 3.29012E-04-8.21859E-14
 -1      3264 1.20571E-02 3.26160E-04-8.02573E-14
 -1      3265 1.20016E-02 2.89731E-04-7.92766E-14
 -1      3266 1.24890E-02 3.35944E-04-8.60890E-14
 -1      3267 1.23452E-02 3.32322E-04-8.41304E-14
 -1      3268 1.22862E-02 2.95653E-04-8.31325E-14
 -1      3269 1.27760E-02 3.43522E-04-9.00379E-14
 -1      3270 1.26325E-02 3.39708E-04-8.80590E-14
 -1      3271 1.25706E-02 3.02818E-04-8.70421E-14
 -1      3272 1.30627E-02 3.50892E-04-9.40260E-14
 -1      3273 1.29194E-02 3.47268E-04-9.20294E-14
 -1      3274 1.28551E-02 3.10221E-04-9.10004E-14
 -1      3275 1.33490E-02 3.57517E-04-9.80396E-14
 -1      3276 1.32059E-02 3.54319E-04-9.60285E-14
 -1      3277 1.31398E-02 3.17192E-04-9.49916E-14
 -1      3278 1.36353E-02 3.63081E-04-1.02079E-13
 -1      3279 1.34922E-02 3.60443E-04-1.00055E-13
 -1      3280 1.34247E-02 3.23315E-04-9.90095E-14
 -1      3281 1.39213E-02 3.67420E-04-1.06137E-13
 -1      3282 1.37783E-02 3.65408E-04-1.04105E-13
 -1      3283 1.37099E-02 3.28351E-04-1.03051E-13
 -1      3284 1.41215E-02 3.58742E-04-1.08975E-13
 -1      3285 1.40097E-02 3.65403E-04-1.07396E-13
 -1      3286 1.39408E-02 3.28477E-04-1.06333E-13
 -1      3287 1.41173E-02 3.24193E-04-1.08846E-13
 -1      3288 1.01704E-03 6.73590E-05-1.02305E-15
 -1      3289 1.01586E-03 4.07053E-05-1.02530E-15
 -1      3290 1.40882E-02-4.38478E-05-1.07584E-13
 -1      3291 1.40874E-02-4.61029E-06-1.07658E-13
 -1      3292 1.40847E-02-2.80064E-04-1.07073E-13
 -1      3293 1.40860E-02-2.39993E-04-1.07168E-13
 -1      3294 1.40883E-02-1.21103E-04-1.07429E-13
 -1      3295 1.40884E-02-8.24343E-05-1.07508E-13
 -1      3296 1.39664E-02-6.18880E-05-1.05779E-13
 -1      3297 8.43533E-03-1.01767E-03-4.18002E-14
 -1      3298 8.35991E-03-1.00551E-03-4.12586E-14
 -1      3299 1.82501E-03 3.73943E-04-2.53398E-15
 -1      3300 1.68159E-03 3.63511E-04-2.17420E-15
 -1      3301 8.37994E-03-1.02435E-03-4.12829E-14
 -1      3302 8.27229E-03-9.91901E-04-4.05394E-14
 -1      3303 1.40870E-02-2.00172E-04-1.07259E-13
 -1      3304 1.40878E-02-1.60550E-04-1.07346E-13
 -1      3305 1.39660E-02-1.39335E-04-1.05617E-13
 -1      3306 1.39640E-02-2.18085E-04-1.05440E-13
 -1      3307 1.06849E-02-5.33901E-05-5.60691E-14
 -1      3308 1.05775E-02-8.96617E-05-5.57832E-14
 -1      3309 3.54295E-03 3.88341E-04-8.99418E-15
 -1      3310 3.39982E-03 3.91876E-04-8.30805E-15
 -1      3311 3.32239E-03 3.57214E-04-8.01793E-15
 -1      3312 3.60810E-03 3.50432E-04-9.39221E-15
 -1      3313 2.11166E-03 3.88748E-04-3.33682E-15
 -1      3314 1.96836E-03 3.82302E-04-2.92165E-15
 -1      3315 1.88866E-03 3.42916E-04-2.75885E-15
 -1      3316 6.74209E-03 2.31403E-04-3.25615E-14
 -1      3317 6.91833E-03 3.27354E-04-3.30484E-14
 -1      3318 6.42764E-03 1.12989E-04-3.13154E-14
 -1      3319 6.57979E-03 1.64794E-04-3.19367E-14
 -1      3320 6.59194E-03 2.06383E-04-3.13319E-14
 -1      3321 1.14521E-03 3.07716E-04-1.06656E-15
 -1      3322 1.08267E-03 2.69121E-04-9.99933E-16
 -1      3323 1.20183E-03 2.70060E-04-1.22368E-15
 -1      3324 1.28841E-03 3.28975E-04-1.32048E-15
 -1      3325 1.44497E-03-3.09426E-04-1.63973E-15
 -1      3326 1.58849E-03-3.22990E-04-1.95087E-15
 -1      3327 1.65274E-03-2.94716E-04-2.14978E-15
 -1      3328 9.96603E-03 3.45193E-04-5.38256E-14
 -1      3329 1.01261E-02 2.67351E-04-5.46487E-14
 -1      3330 9.99700E-03-3.25319E-04-5.28277E-14
 -1      3331 9.80083E-03-4.27407E-04-5.17606E-14
 -1      3332 8.20545E-03-9.92989E-04-3.98688E-14
 -1      3333 7.09229E-03 4.59450E-04-3.33037E-14
 -1      3334 7.26012E-03 5.60480E-04-3.40775E-14
 -1      3335 1.07864E-02 1.13137E-05-5.71014E-14
 -1      3336 1.08232E-02-1.12812E-06-5.71685E-14
 -1      3337 9.55319E-03-5.98077E-04-5.06314E-14
 -1      3338 6.16376E-03-3.14276E-05-3.04951E-14
 -1      3339 6.12080E-03-1.84574E-05-3.04706E-14
 -1      3340 1.03144E-02 1.79371E-04-5.54507E-14
 -1      3341 1.04655E-02 1.18084E-04-5.60314E-14
 -1      3342 1.06048E-02 6.52255E-05-5.64420E-14
 -1      3343 1.07033E-02 3.47873E-05-5.67201E-14
 -1      3344 1.03852E-02-1.62563E-04-5.49827E-14
 -1      3345 1.02050E-02-2.32329E-04-5.40055E-14
 -1      3346 7.24609E-03-5.12747E-04-3.38963E-14
 -1      3347 7.05884E-03-4.08294E-04-3.31119E-14
 -1      3348 8.17521E-03-9.69013E-04-3.97521E-14
 -1      3349 1.01525E-03 1.42694E-05-1.02570E-15
 -1      3350 1.01522E-03-1.20634E-05-1.02410E-15
 -1      3351 1.13585E-03 2.97393E-05-1.24159E-15
 -1      3352 1.01464E-03-2.32238E-04-8.91567E-16
 -1      3353 1.08535E-02-9.77956E-06-5.77400E-14
 -1      3354 1.08729E-02-1.80460E-05-5.83144E-14
 -1      3355 1.09040E-02-2.28412E-06-5.90539E-14
 -1      3356 1.02810E-02 2.29689E-04-5.60666E-14
 -1      3357 1.02418E-03-1.47419E-04-9.83331E-16
 -1      3358 1.02822E-03-1.76429E-04-9.67962E-16
 -1      3359 1.40782E-02 1.92714E-04-1.07982E-13
 -1      3360 1.40755E-02 2.32449E-04-1.08038E-13
 -1      3361 1.18819E-03-2.75813E-04-1.15421E-15
 -1      3362 1.31646E-03-2.93704E-04-1.38608E-15
 -1      3363 1.38062E-03-2.69668E-04-1.55381E-15
 -1      3364 7.78491E-03-8.09639E-04-3.68780E-14
 -1      3365 6.91480E-03 3.96202E-04-3.21951E-14
 -1      3366 6.07179E-03-1.10871E-05-2.98775E-14
 -1      3367 1.07587E-02-4.50508E-05-5.70308E-14
 -1      3368 2.74986E-03 3.63573E-04-5.58990E-15
 -1      3369 2.68438E-03 3.99953E-04-5.27584E-15
 -1      3370 2.54126E-03 3.99016E-04-4.74996E-15
 -1      3371 1.05889E-02 9.75122E-05-5.72940E-14
 -1      3372 1.00554E-02 4.99731E-04-5.68299E-14
 -1      3373 9.87838E-03 5.51775E-04-5.51678E-14
 -1      3374 1.01886E-03 9.43115E-05-1.01859E-15
 -1      3375 1.13855E-03 8.73391E-05-1.23614E-15
 -1      3376 1.02135E-03 1.21797E-04-1.01172E-15
 -1      3377 1.40829E-02 1.13263E-04-1.07861E-13
 -1      3378 1.40807E-02 1.52889E-04-1.07923E-13
 -1      3379 1.39570E-02 1.71885E-04-1.06190E-13
 -1      3380 6.51802E-03-1.46353E-04-3.14535E-14
 -1      3381 6.40477E-03-1.21481E-04-3.07239E-14
 -1      3382 6.59441E-03-1.88463E-04-3.14436E-14
 -1      3383 1.15355E-03 2.09333E-04-1.19253E-15
 -1      3384 1.02882E-03 1.79239E-04-9.89985E-16
 -1      3385 1.02466E-03 1.50134E-04-1.00229E-15
 -1      3386 1.06541E-02-1.07037E-04-5.75147E-14
 -1      3387 1.05269E-02-1.28689E-04-5.62419E-14
 -1      3388 1.04839E-02-1.73536E-04-5.66997E-14
 -1      3389 1.40863E-02 3.45587E-05-1.07727E-13
 -1      3390 1.40848E-02 7.38959E-05-1.07794E-13
 -1      3391 1.39618E-02 9.32079E-05-1.06065E-13
 -1      3392 1.39650E-02 1.52596E-05-1.05928E-13
 -1      3393 9.83682E-03 4.94333E-04-5.41330E-14
 -1      3394 1.02099E-03-1.19276E-04-9.96043E-16
 -1      3395 1.14375E-03-1.43993E-04-1.20039E-15
 -1      3396 1.01859E-03-9.18465E-05-1.00632E-15
 -1      3397 1.01912E-02 4.18709E-04-5.76665E-14
 -1      3398 6.11471E-03 1.86518E-05-3.01627E-14
 -1      3399 6.12205E-03 3.26263E-05-2.98043E-14
 -1      3400 6.06148E-03 1.16747E-05-2.96013E-14
 -1      3401 1.40307E-02-3.31840E-04-1.06189E-13
 -1      3402 1.40663E-02-3.02992E-04-1.06761E-13
 -1      3403 1.39441E-02-2.80543E-04-1.05034E-13
 -1      3404 1.39069E-02-3.26211E-04-1.04408E-13
 -1      3405 1.07987E-02 2.64674E-05-5.80936E-14
 -1      3406 2.39811E-03 3.96924E-04-4.25152E-15
 -1      3407 2.25491E-03 3.93579E-04-3.78027E-15
 -1      3408 2.17597E-03 3.55278E-04-3.59269E-15
 -1      3409 2.46307E-03 3.61733E-04-4.53649E-15
 -1      3410 6.31302E-03 9.06491E-05-3.05468E-14
 -1      3411 6.24232E-03-7.47119E-05-3.00314E-14
 -1      3412 6.19986E-03-5.04999E-05-3.02647E-14
 -1      3413 6.12453E-03-4.32977E-05-2.95666E-14
 -1      3414 1.01438E-02-2.90637E-04-5.42446E-14
 -1      3415 9.87855E-03 4.21444E-04-5.37689E-14
 -1      3416 1.55663E-03 3.56316E-04-1.87736E-15
 -1      3417 1.41322E-03 3.41060E-04-1.57024E-15
 -1      3418 1.36946E-03 3.11170E-04-1.51738E-15
 -1      3419 1.61968E-03 3.28433E-04-2.07299E-15
 -1      3420 2.15001E-03-2.84359E-04-3.54691E-15
 -1      3421 2.29403E-03-2.87794E-04-3.99880E-15
 -1      3422 2.43797E-03-2.90108E-04-4.47770E-15
 -1      3423 2.58178E-03-2.91382E-04-4.98408E-15
 -1      3424 2.36060E-03-2.53285E-04-4.26887E-15
 -1      3425 2.72544E-03-2.91775E-04-5.51645E-15
 -1      3426 2.86890E-03-2.91345E-04-6.07596E-15
 -1      3427 2.64842E-03-2.55655E-04-5.28328E-15
 -1      3428 3.01215E-03-2.90224E-04-6.66271E-15
 -1      3429 3.15515E-03-2.88451E-04-7.27620E-15
 -1      3430 2.93540E-03-2.54917E-04-6.40522E-15
 -1      3431 3.29789E-03-2.86136E-04-7.91572E-15
 -1      3432 3.44034E-03-2.83306E-04-8.58082E-15
 -1      3433 3.22123E-03-2.51720E-04-7.63335E-15
 -1      3434 3.58247E-03-2.80061E-04-9.27223E-15
 -1      3435 3.72429E-03-2.76418E-04-9.98912E-15
 -1      3436 3.50561E-03-2.46583E-04-8.96623E-15
 -1      3437 3.86573E-03-2.72479E-04-1.07318E-14
 -1      3438 4.00682E-03-2.68257E-04-1.14996E-14
 -1      3439 3.78830E-03-2.39946E-04-1.04017E-14
 -1      3440 4.14750E-03-2.63866E-04-1.22924E-14
 -1      3441 4.28779E-03-2.59325E-04-1.31104E-14
 -1      3442 4.06903E-03-2.32221E-04-1.19397E-14
 -1      3443 4.42764E-03-2.54766E-04-1.39523E-14
 -1      3444 4.56711E-03-2.50224E-04-1.48185E-14
 -1      3445 4.34757E-03-2.23853E-04-1.35769E-14
 -1      3446 4.70614E-03-2.45856E-04-1.57091E-14
 -1      3447 4.84484E-03-2.41725E-04-1.66244E-14
 -1      3448 4.62372E-03-2.15365E-04-1.53124E-14
 -1      3449 4.98316E-03-2.38013E-04-1.75634E-14
 -1      3450 5.12132E-03-2.34835E-04-1.85259E-14
 -1      3451 4.89743E-03-2.07409E-04-1.71443E-14
 -1      3452 5.25929E-03-2.32387E-04-1.95123E-14
 -1      3453 5.39742E-03-2.30883E-04-2.05232E-14
 -1      3454 5.16893E-03-2.00804E-04-1.90721E-14
 -1      3455 5.53578E-03-2.30513E-04-2.15564E-14
 -1      3456 5.67495E-03-2.31695E-04-2.26132E-14
 -1      3457 5.43896E-03-1.96589E-04-2.10953E-14
 -1      3458 5.81513E-03-2.34589E-04-2.36936E-14
 -1      3459 5.95725E-03-2.39981E-04-2.47969E-14
 -1      3460 5.70919E-03-1.96206E-04-2.32113E-14
 -1      3461 6.10173E-03-2.48025E-04-2.59226E-14
 -1      3462 6.25002E-03-2.60376E-04-2.70708E-14
 -1      3463 5.98288E-03-2.01833E-04-2.54197E-14
 -1      3464 6.40310E-03-2.77063E-04-2.82398E-14
 -1      3465 6.56257E-03-3.01312E-04-2.94312E-14
 -1      3466 6.26668E-03-2.17986E-04-2.77151E-14
 -1      3467 1.08120E-02 4.60320E-05-5.91151E-14
 -1      3468 1.08862E-02 2.27533E-05-5.95042E-14
 -1      3469 1.95335E-03 3.11294E-04-2.98753E-15
 -1      3470 1.80946E-03 3.03895E-04-2.59689E-15
 -1      3471 1.03091E-02-3.14733E-04-5.66979E-14
 -1      3472 1.04704E-02-2.88638E-04-5.83719E-14
 -1      3473 1.06249E-02-2.70912E-04-6.00645E-14
 -1      3474 1.07743E-02-2.57845E-04-6.17784E-14
 -1      3475 1.06090E-02-2.27906E-04-5.92961E-14
 -1      3476 1.09196E-02-2.49319E-04-6.35132E-14
 -1      3477 1.10623E-02-2.43608E-04-6.52649E-14
 -1      3478 1.08945E-02-2.10651E-04-6.27267E-14
 -1      3479 1.12028E-02-2.40610E-04-6.70360E-14
 -1      3480 1.13421E-02-2.39365E-04-6.88263E-14
 -1      3481 1.11689E-02-2.04812E-04-6.62330E-14
 -1      3482 1.14804E-02-2.39750E-04-7.06334E-14
 -1      3483 1.16185E-02-2.41305E-04-7.24563E-14
 -1      3484 1.14391E-02-2.05410E-04-6.98124E-14
 -1      3485 1.17563E-02-2.43843E-04-7.42981E-14
 -1      3486 1.18942E-02-2.47139E-04-7.61563E-14
 -1      3487 1.17086E-02-2.09958E-04-7.34615E-14
 -1      3488 1.20322E-02-2.50998E-04-7.80277E-14
 -1      3489 1.21705E-02-2.55296E-04-7.99199E-14
 -1      3490 1.19792E-02-2.16970E-04-7.71781E-14
 -1      3491 1.23092E-02-2.59857E-04-8.18289E-14
 -1      3492 1.24482E-02-2.64614E-04-8.37508E-14
 -1      3493 1.22519E-02-2.25396E-04-8.09609E-14
 -1      3494 1.25875E-02-2.69423E-04-8.56899E-14
 -1      3495 1.27272E-02-2.74249E-04-8.76468E-14
 -1      3496 1.25268E-02-2.34429E-04-8.48126E-14
 -1      3497 1.28673E-02-2.78981E-04-8.96156E-14
 -1      3498 1.30077E-02-2.83606E-04-9.15949E-14
 -1      3499 1.28038E-02-2.43465E-04-8.87228E-14
 -1      3500 1.31483E-02-2.88044E-04-9.35869E-14
 -1      3501 1.32893E-02-2.92294E-04-9.55908E-14
 -1      3502 1.30827E-02-2.52073E-04-9.26854E-14
 -1      3503 1.34306E-02-2.96301E-04-9.76065E-14
 -1      3504 1.35720E-02-3.00076E-04-9.96324E-14
 -1      3505 1.33632E-02-2.59972E-04-9.66925E-14
 -1      3506 3.10215E-03 3.24701E-04-7.09507E-15
 -1      3507 2.95901E-03 3.26261E-04-6.48726E-15
 -1      3508 1.12423E-02 2.55255E-04-6.90153E-14
 -1      3509 1.10983E-02 2.60428E-04-6.72123E-14
 -1      3510 4.23984E-03 2.95446E-04-1.29094E-14
 -1      3511 4.09842E-03 3.00120E-04-1.20908E-14
 -1      3512 3.95679E-03 3.04627E-04-1.12985E-14
 -1      3513 3.81489E-03 3.08932E-04-1.05320E-14
 -1      3514 4.01944E-03 2.67890E-04-1.17255E-14
 -1      3515 4.80327E-03 2.77276E-04-1.64392E-14
 -1      3516 4.66266E-03 2.81525E-04-1.55190E-14
 -1      3517 5.08426E-03 2.70307E-04-1.83525E-14
 -1      3518 4.94373E-03 2.73486E-04-1.73837E-14
 -1      3519 4.85714E-03 2.41821E-04-1.69404E-14
 -1      3520 5.36590E-03 2.66696E-04-2.03633E-14
 -1      3521 5.22488E-03 2.67957E-04-1.93452E-14
 -1      3522 5.13364E-03 2.35077E-04-1.88762E-14
 -1      3523 5.65000E-03 2.68585E-04-2.24709E-14
 -1      3524 5.50744E-03 2.66752E-04-2.14050E-14
 -1      3525 5.40995E-03 2.31252E-04-2.09087E-14
 -1      3526 5.93976E-03 2.79044E-04-2.46723E-14
 -1      3527 5.79386E-03 2.72403E-04-2.35596E-14
 -1      3528 5.68796E-03 2.32162E-04-2.30378E-14
 -1      3529 6.24032E-03 3.02797E-04-2.69651E-14
 -1      3530 6.08825E-03 2.88662E-04-2.58075E-14
 -1      3531 5.97118E-03 2.40560E-04-2.52608E-14
 -1      3532 6.55912E-03 3.47656E-04-2.93460E-14
 -1      3533 6.39695E-03 3.21609E-04-2.81447E-14
 -1      3534 6.26556E-03 2.61209E-04-2.75725E-14
 -1      3535 6.73850E-03 3.50665E-04-3.09454E-14
 -1      3536 1.19922E-03-2.13284E-04-1.24729E-15
 -1      3537 1.07962E-03-2.14496E-04-1.02338E-15
 -1      3538 1.06512E-02 2.94324E-04-6.19253E-14
 -1      3539 1.04940E-02 3.15294E-04-6.02044E-14
 -1      3540 1.15264E-02 2.51042E-04-7.26758E-14
 -1      3541 1.13848E-02 2.52336E-04-7.08357E-14
 -1      3542 1.13445E-02 2.17181E-04-6.99018E-14
 -1      3543 1.18079E-02 2.52312E-04-7.64076E-14
 -1      3544 1.16673E-02 2.51152E-04-7.45332E-14
 -1      3545 1.16211E-02 2.16662E-04-7.35781E-14
 -1      3546 1.20886E-02 2.56916E-04-8.02106E-14
 -1      3547 1.19482E-02 2.54301E-04-7.83006E-14
 -1      3548 1.18969E-02 2.19872E-04-7.73248E-14
 -1      3549 1.23695E-02 2.63313E-04-8.40763E-14
 -1      3550 1.22289E-02 2.59959E-04-8.21367E-14
 -1      3551 1.21733E-02 2.25272E-04-8.11415E-14
 -1      3552 1.26510E-02 2.70397E-04-8.79965E-14
 -1      3553 1.25101E-02 2.66814E-04-8.60306E-14
 -1      3554 1.24510E-02 2.31742E-04-8.50181E-14
 -1      3555 1.29333E-02 2.77399E-04-9.19587E-14
 -1      3556 1.27920E-02 2.73937E-04-8.99712E-14
 -1      3557 1.27300E-02 2.38471E-04-8.89456E-14
 -1      3558 1.32163E-02 2.83811E-04-9.59543E-14
 -1      3559 1.30747E-02 2.80696E-04-9.39540E-14
 -1      3560 1.30104E-02 2.44887E-04-9.29136E-14
 -1      3561 1.35000E-02 2.89321E-04-9.99753E-14
 -1      3562 1.33581E-02 2.86690E-04-9.79601E-14
 -1      3563 1.32921E-02 2.50617E-04-9.69146E-14
 -1      3564 1.37842E-02 2.93753E-04-1.04022E-13
 -1      3565 1.36421E-02 2.91674E-04-1.01996E-13
 -1      3566 1.35748E-02 2.55429E-04-1.00941E-13
 -1      3567 1.09524E-02 2.68028E-04-6.54302E-14
 -1      3568 1.08035E-02 2.79267E-04-6.36697E-14
 -1      3569 1.07763E-02 2.39765E-04-6.27796E-14
 -1      3570 1.00514E-02 3.92720E-04-5.56278E-14
 -1      3571 1.40944E-02 2.61068E-04-1.08374E-13
 -1      3572 1.40983E-02 2.95216E-04-1.08508E-13
 -1      3573 1.40102E-02 2.97433E-04-1.07254E-13
 -1      3574 1.39728E-02 2.40039E-04-1.06583E-13
 -1      3575 1.38449E-02-7.99429E-05-1.03975E-13
 -1      3576 1.38447E-02-4.19527E-05-1.04055E-13
 -1      3577 1.06027E-02 1.28362E-04-5.83844E-14
 -1      3578 1.07201E-02 8.10396E-05-5.88046E-14
 -1      3579 6.91451E-03-3.52066E-04-3.23149E-14
 -1      3580 1.08483E-02-3.56205E-05-5.83411E-14
 -1      3581 1.08016E-02-5.82805E-05-5.83627E-14
 -1      3582 1.09268E-02-2.83713E-05-5.96615E-14
 -1      3583 4.52194E-03 2.86041E-04-1.46238E-14
 -1      3584 4.38099E-03 2.90734E-04-1.37535E-14
 -1      3585 4.30028E-03 2.59107E-04-1.33625E-14
 -1      3586 4.57949E-03 2.50163E-04-1.51011E-14
 -1      3587 9.86620E-03-4.42341E-04-5.27965E-14
 -1      3588 1.00493E-02-3.87546E-04-5.44209E-14
 -1      3589 1.57435E-03-2.56088E-04-2.01038E-15
 -1      3590 1.71805E-03-2.65649E-04-2.35386E-15
 -1      3591 6.44645E-03 2.15573E-04-2.97412E-14
 -1      3592 6.58391E-03 2.71950E-04-3.03398E-14
 -1      3593 1.01575E-03-3.84291E-05-1.02011E-15
 -1      3594 1.01685E-03-6.49413E-05-1.01411E-15
 -1      3595 1.13830E-03-8.47718E-05-1.22386E-15
 -1      3596 9.71925E-03-4.87670E-04-5.14984E-14
 -1      3597 6.02603E-03-1.82417E-05-2.89569E-14
 -1      3598 6.01502E-03-3.97930E-06-2.90363E-14
 -1      3599 6.18325E-03 6.87737E-05-2.95712E-14
 -1      3600 6.29510E-03 1.17651E-04-2.97431E-14
 -1      3601 1.02803E-02 2.77606E-04-5.69394E-14
 -1      3602 1.04437E-02 2.01106E-04-5.77589E-14
 -1      3603 1.02346E-02-3.02652E-04-5.56169E-14
 -1      3604 1.86194E-03-2.73445E-04-2.72440E-15
 -1      3605 2.00596E-03-2.79611E-04-3.12203E-15
 -1      3606 2.07234E-03-2.46991E-04-3.36185E-15
 -1      3607 1.03978E-02 3.16083E-04-5.90039E-14
 -1      3608 1.02318E-02 3.47871E-04-5.73150E-14
 -1      3609 6.73901E-03-3.05337E-04-3.10757E-14
 -1      3610 1.78422E-03-2.35779E-04-2.56314E-15
 -1      3611 1.09385E-02 1.06356E-05-6.00875E-14
 -1      3612 1.09810E-02 4.65618E-07-6.06716E-14
 -1      3613 1.09702E-02 2.67630E-05-6.11253E-14
 -1      3614 6.36119E-03-1.31123E-04-3.00147E-14
 -1      3615 6.29986E-03-1.00627E-04-3.00250E-14
 -1      3616 6.20422E-03-8.58943E-05-2.93309E-14
 -1      3617 1.37232E-02-2.17867E-05-1.02335E-13
 -1      3618 1.38440E-02-3.43115E-06-1.04131E-13
 -1      3619 1.38428E-02 3.51343E-05-1.04202E-13
 -1      3620 1.32222E-03-2.29567E-04-1.47754E-15
 -1      3621 1.45037E-03-2.42520E-04-1.74002E-15
 -1      3622 1.51648E-03-2.16171E-04-1.91985E-15
 -1      3623 1.27000E-03-1.89469E-04-1.40998E-15
 -1      3624 1.08328E-02 7.14508E-05-6.02236E-14
 -1      3625 1.13577E-03-2.72903E-05-1.23736E-15
 -1      3626 1.73098E-03 2.65426E-04-2.43647E-15
 -1      3627 1.66569E-03 2.94635E-04-2.23358E-15
 -1      3628 2.88185E-03 2.90619E-04-6.22512E-15
 -1      3629 2.81570E-03 3.27094E-04-5.90588E-15
 -1      3630 2.67224E-03 3.27149E-04-5.35188E-15
 -1      3631 3.24510E-03 3.22531E-04-7.72941E-15
 -1      3632 3.16805E-03 2.87765E-04-7.44160E-15
 -1      3633 3.38787E-03 3.19789E-04-8.39044E-15
 -1      3634 1.36775E-02-3.10266E-04-1.01132E-13
 -1      3635 1.38010E-02-3.16224E-04-1.02899E-13
 -1      3636 1.38198E-02-2.93496E-04-1.03213E-13
 -1      3637 1.36090E-02-2.73611E-04-1.00207E-13
 -1      3638 1.10644E-02 2.23639E-04-6.63021E-14
 -1      3639 5.92923E-03-6.56203E-07-2.77832E-14
 -1      3640 5.99416E-03 5.82896E-06-2.86873E-14
 -1      3641 5.98078E-03 1.64353E-05-2.83377E-14
 -1      3642 3.73702E-03 2.75920E-04-1.01926E-14
 -1      3643 3.67278E-03 3.12925E-04-9.79144E-15
 -1      3644 3.53043E-03 3.16577E-04-9.07760E-15
 -1      3645 1.05373E-02 2.50088E-04-5.98401E-14
 -1      3646 1.14420E-03 1.46780E-04-1.22045E-15
 -1      3647 1.26146E-03 1.08849E-04-1.46840E-15
 -1      3648 1.25921E-03 7.78243E-05-1.47418E-15
 -1      3649 1.39221E-02 2.99519E-04-1.05998E-13
 -1      3650 1.38446E-02-1.18670E-04-1.03893E-13
 -1      3651 1.37234E-02-9.82876E-05-1.02174E-13
 -1      3652 1.38437E-02-1.57558E-04-1.03807E-13
 -1      3653 1.27974E-03 2.39753E-04-1.41307E-15
 -1      3654 1.27361E-03 2.05855E-04-1.43229E-15
 -1      3655 1.07781E-02-8.62359E-05-5.88299E-14
 -1      3656 1.07536E-02-1.19772E-04-5.92959E-14
 -1      3657 1.08887E-02-7.26535E-05-6.01575E-14
 -1      3658 1.38354E-02 2.34677E-04-1.04605E-13
 -1      3659 1.38538E-02 2.63157E-04-1.04937E-13
 -1      3660 1.05986E-02 1.71981E-04-5.92761E-14
 -1      3661 1.38417E-02 1.55575E-04-1.04490E-13
 -1      3662 1.38387E-02 1.94978E-04-1.04549E-13
 -1      3663 1.37201E-02 2.17760E-04-1.02911E-13
 -1      3664 1.26202E-03-1.25052E-04-1.44301E-15
 -1      3665 1.26551E-03-1.56913E-04-1.42791E-15
 -1      3666 1.38808E-03-1.69127E-04-1.67538E-15
 -1      3667 6.57230E-03-2.26092E-04-3.05220E-14
 -1      3668 1.54028E-03 2.88678E-04-1.93443E-15
 -1      3669 1.03949E-02-2.27384E-04-5.65208E-14
 -1      3670 6.30265E-03 1.58822E-04-2.91425E-14
 -1      3671 6.28321E-03 2.20071E-04-2.81769E-14
 -1      3672 6.13845E-03 2.09582E-04-2.70017E-14
 -1      3673 6.16004E-03 1.31443E-04-2.81886E-14
 -1      3674 1.38071E-03 6.59028E-05-1.73211E-15
 -1      3675 1.25771E-03 4.70262E-05-1.47714E-15
 -1      3676 1.25695E-03 1.64585E-05-1.47752E-15
 -1      3677 6.10135E-03 5.26206E-05-2.90182E-14
 -1      3678 6.07392E-03 7.62226E-05-2.82348E-14
 -1      3679 6.02943E-03 4.08705E-05-2.84678E-14
 -1      3680 2.09725E-03 3.17084E-04-3.40568E-15
 -1      3681 2.01892E-03 2.79127E-04-3.22041E-15
 -1      3682 2.24113E-03 3.21386E-04-3.85138E-15
 -1      3683 1.05397E-02-1.92119E-04-5.77947E-14
 -1      3684 6.03576E-03-3.26288E-05-2.87337E-14
 -1      3685 5.95670E-03-2.42327E-05-2.79081E-14
 -1      3686 6.05422E-03-4.98789E-05-2.85080E-14
 -1      3687 1.38385E-02-2.70850E-04-1.03524E-13
 -1      3688 1.37248E-02-2.52582E-04-1.01912E-13
 -1      3689 1.38487E-02-2.39753E-04-1.03727E-13
 -1      3690 1.38503E-02-2.00350E-04-1.03821E-13
 -1      3691 1.36198E-02-2.42842E-04-1.00411E-13
 -1      3692 1.49357E-03 2.45583E-04-1.87433E-15
 -1      3693 1.44647E-03 2.76875E-04-1.73170E-15
 -1      3694 2.57182E-03-2.19560E-04-5.05166E-15
 -1      3695 2.71559E-03-2.19864E-04-5.58683E-15
 -1      3696 2.85908E-03-2.19540E-04-6.14856E-15
 -1      3697 3.00226E-03-2.18617E-04-6.73776E-15
 -1      3698 2.78324E-03-1.84091E-04-5.89405E-15
 -1      3699 3.14507E-03-2.17200E-04-7.35282E-15
 -1      3700 3.28748E-03-2.15303E-04-7.99389E-15
 -1      3701 3.06946E-03-1.82531E-04-7.07297E-15
 -1      3702 3.42942E-03-2.13020E-04-8.66116E-15
 -1      3703 3.57088E-03-2.10355E-04-9.35381E-15
 -1      3704 3.35392E-03-1.79284E-04-8.35708E-15
 -1      3705 3.71179E-03-2.07399E-04-1.00731E-14
 -1      3706 3.85213E-03-2.04146E-04-1.08171E-14
 -1      3707 3.63620E-03-1.74703E-04-9.74485E-15
 -1      3708 3.99183E-03-2.00694E-04-1.15870E-14
 -1      3709 4.13089E-03-1.97030E-04-1.23823E-14
 -1      3710 3.91587E-03-1.69094E-04-1.12350E-14
 -1      3711 4.26920E-03-1.93266E-04-1.32014E-14
 -1      3712 4.40680E-03-1.89385E-04-1.40460E-14
 -1      3713 4.19251E-03-1.62751E-04-1.28266E-14
 -1      3714 4.54358E-03-1.85518E-04-1.49147E-14
 -1      3715 4.67957E-03-1.81649E-04-1.58075E-14
 -1      3716 4.46566E-03-1.55981E-04-1.45175E-14
 -1      3717 4.81468E-03-1.77926E-04-1.67260E-14
 -1      3718 4.94900E-03-1.74342E-04-1.76670E-14
 -1      3719 4.73488E-03-1.49125E-04-1.63064E-14
 -1      3720 5.08240E-03-1.71058E-04-1.86314E-14
 -1      3721 5.21509E-03-1.68079E-04-1.96206E-14
 -1      3722 4.99977E-03-1.42566E-04-1.81908E-14
 -1      3723 5.34692E-03-1.65570E-04-2.06339E-14
 -1      3724 5.47830E-03-1.63590E-04-2.16700E-14
 -1      3725 5.26003E-03-1.36694E-04-2.01716E-14
 -1      3726 5.60904E-03-1.62287E-04-2.27291E-14
 -1      3727 5.73993E-03-1.61905E-04-2.38112E-14
 -1      3728 5.51564E-03-1.31902E-04-2.22461E-14
 -1      3729 5.87066E-03-1.62651E-04-2.49164E-14
 -1      3730 6.00269E-03-1.64738E-04-2.60435E-14
 -1      3731 5.76722E-03-1.28839E-04-2.44126E-14
 -1      3732 1.70739E-03-1.98960E-04-2.40307E-15
 -1      3733 1.85125E-03-2.05159E-04-2.77725E-15
 -1      3734 1.79719E-03 2.35446E-04-2.64337E-15
 -1      3735 1.65339E-03 2.27807E-04-2.27741E-15
 -1      3736 1.11718E-02 1.84360E-04-6.71717E-14
 -1      3737 1.10351E-02 1.87370E-04-6.53947E-14
 -1      3738 1.08760E-02-1.72963E-04-6.19397E-14
 -1      3739 1.10082E-02-1.70697E-04-6.36762E-14
 -1      3740 1.11389E-02-1.70175E-04-6.54305E-14
 -1      3741 1.12696E-02-1.70804E-04-6.72023E-14
 -1      3742 1.11125E-02-1.36612E-04-6.46276E-14
 -1      3743 1.14000E-02-1.72369E-04-6.89911E-14
 -1      3744 1.15311E-02-1.74607E-04-7.07976E-14
 -1      3745 1.13632E-02-1.40582E-04-6.81708E-14
 -1      3746 1.16625E-02-1.77382E-04-7.26240E-14
 -1      3747 1.17946E-02-1.80638E-04-7.44666E-14
 -1      3748 1.16177E-02-1.46145E-04-7.17868E-14
 -1      3749 1.19275E-02-1.84211E-04-7.63276E-14
 -1      3750 1.20612E-02-1.88089E-04-7.82024E-14
 -1      3751 1.18766E-02-1.52748E-04-7.54745E-14
 -1      3752 1.21956E-02-1.92116E-04-8.00937E-14
 -1      3753 1.23308E-02-1.96297E-04-8.20060E-14
 -1      3754 1.21400E-02-1.60042E-04-7.92301E-14
 -1      3755 1.24668E-02-2.00495E-04-8.39333E-14
 -1      3756 1.26035E-02-2.04724E-04-8.58739E-14
 -1      3757 1.24074E-02-1.67652E-04-8.30513E-14
 -1      3758 1.27409E-02-2.08870E-04-8.78289E-14
 -1      3759 1.28789E-02-2.12951E-04-8.97999E-14
 -1      3760 1.26785E-02-1.75232E-04-8.69366E-14
 -1      3761 1.30175E-02-2.16879E-04-9.17816E-14
 -1      3762 1.31567E-02-2.20675E-04-9.37732E-14
 -1      3763 1.29528E-02-1.82502E-04-9.08763E-14
 -1      3764 1.32963E-02-2.24276E-04-9.57771E-14
 -1      3765 1.34364E-02-2.27705E-04-9.77912E-14
 -1      3766 1.32297E-02-1.89258E-04-9.48627E-14
 -1      3767 1.32147E-03 2.67633E-04-1.46957E-15
 -1      3768 1.99532E-03-2.10088E-04-3.17823E-15
 -1      3769 2.13953E-03-2.13872E-04-3.60630E-15
 -1      3770 1.91905E-03-1.73777E-04-2.99612E-15
 -1      3771 5.18122E-03 2.00982E-04-1.93996E-14
 -1      3772 5.04564E-03 2.04026E-04-1.84087E-14
 -1      3773 4.90967E-03 2.07496E-04-1.74417E-14
 -1      3774 4.77311E-03 2.11321E-04-1.64978E-14
 -1      3775 4.96103E-03 1.74341E-04-1.79422E-14
 -1      3776 5.72224E-03 1.96498E-04-2.36058E-14
 -1      3777 5.58653E-03 1.96037E-04-2.25190E-14
 -1      3778 5.99699E-03 2.02325E-04-2.58478E-14
 -1      3779 5.85864E-03 1.98309E-04-2.47150E-14
 -1      3780 5.75278E-03 1.61470E-04-2.41722E-14
 -1      3781 1.08769E-02 9.62118E-05-6.15241E-14
 -1      3782 1.09549E-02 6.25968E-05-6.18435E-14
 -1      3783 1.19829E-02 1.89010E-04-7.82415E-14
 -1      3784 1.18472E-02 1.86604E-04-7.63515E-14
 -1      3785 1.14423E-02 1.82618E-04-7.07898E-14
 -1      3786 1.13072E-02 1.82935E-04-6.89716E-14
 -1      3787 1.12730E-02 1.49511E-04-6.80437E-14
 -1      3788 1.22557E-02 1.94660E-04-8.20668E-14
 -1      3789 1.21190E-02 1.91712E-04-8.01459E-14
 -1      3790 1.20658E-02 1.59308E-04-7.91525E-14
 -1      3791 1.25306E-02 2.00834E-04-8.59561E-14
 -1      3792 1.23929E-02 1.97707E-04-8.40043E-14
 -1      3793 1.23357E-02 1.64745E-04-8.29916E-14
 -1      3794 1.28077E-02 2.06958E-04-8.98922E-14
 -1      3795 1.26689E-02 2.03919E-04-8.79192E-14
 -1      3796 1.26085E-02 1.70322E-04-8.68911E-14
 -1      3797 1.30866E-02 2.12622E-04-9.38674E-14
 -1      3798 1.29469E-02 2.09857E-04-9.18737E-14
 -1      3799 1.28840E-02 1.75649E-04-9.08354E-14
 -1      3800 1.33671E-02 2.17559E-04-9.78729E-14
 -1      3801 1.32267E-02 2.15183E-04-9.58667E-14
 -1      3802 1.31617E-02 1.80440E-04-9.48166E-14
 -1      3803 1.36139E-02 2.18811E-04-1.01397E-13
 -1      3804 1.34730E-02 2.16859E-04-9.93784E-14
 -1      3805 1.34067E-02 1.81760E-04-9.83226E-14
 -1      3806 1.36178E-02 1.79672E-04-1.01341E-13
 -1      3807 1.06463E-02 1.95492E-04-6.03669E-14
 -1      3808 1.07816E-02 1.33472E-04-6.10050E-14
 -1      3809 1.09216E-02 1.18487E-04-6.26365E-14
 -1      3810 1.07300E-02 2.02123E-04-6.15805E-14
 -1      3811 1.48556E-03-1.79152E-04-1.88421E-15
 -1      3812 1.60921E-03-1.89952E-04-2.16656E-15
 -1      3813 1.67693E-03-1.61096E-04-2.36005E-15
 -1      3814 1.48145E-03-1.44407E-04-1.90268E-15
 -1      3815 1.25691E-03-1.39737E-05-1.47533E-15
 -1      3816 1.25757E-03-4.44666E-05-1.47026E-15
 -1      3817 1.37906E-03 1.27915E-06-1.73285E-15
 -1      3818 5.45149E-03 1.96838E-04-2.14550E-14
 -1      3819 5.31637E-03 1.98535E-04-2.04152E-14
 -1      3820 5.49061E-03 1.63429E-04-2.20010E-14
 -1      3821 1.10027E-02-2.04075E-05-6.10084E-14
 -1      3822 1.09887E-02-3.89396E-05-6.10350E-14
 -1      3823 4.08157E-03 2.31920E-04-1.21538E-14
 -1      3824 3.94152E-03 2.35836E-04-1.13612E-14
 -1      3825 2.52865E-03 3.26281E-04-4.82471E-15
 -1      3826 2.38493E-03 3.24420E-04-4.32457E-15
 -1      3827 2.59475E-03 2.90666E-04-5.11532E-15
 -1      3828 1.55972E-03 2.18644E-04-2.05627E-15
 -1      3829 1.46625E-03 2.08923E-04-1.84641E-15
 -1      3830 1.62667E-03 1.90636E-04-2.24298E-15
 -1      3831 1.36711E-03 1.90822E-04-1.64118E-15
 -1      3832 1.24180E-03 1.64471E-04-1.39914E-15
 -1      3833 1.23804E-03 1.32639E-04-1.41037E-15
 -1      3834 1.43426E-03 1.65523E-04-1.80700E-15
 -1      3835 1.17120E-02 1.84657E-04-7.44779E-14
 -1      3836 1.15770E-02 1.83276E-04-7.26234E-14
 -1      3837 1.15350E-02 1.50980E-04-7.16729E-14
 -1      3838 1.25821E-03-6.90230E-05-1.46343E-15
 -1      3839 1.26022E-03-9.99264E-05-1.45373E-15
 -1      3840 1.38222E-03-1.09044E-04-1.70427E-15
 -1      3841 1.37981E-03-5.67777E-05-1.72259E-15
 -1      3842 2.28372E-03-2.16656E-04-4.06156E-15
 -1      3843 2.42785E-03-2.18506E-04-4.54323E-15
 -1      3844 2.49571E-03-1.83531E-04-4.82118E-15
 -1      3845 2.20742E-03-1.80308E-04-3.85531E-15
 -1      3846 1.06798E-02-1.81689E-04-5.94821E-14
 -1      3847 1.38410E-02 7.37823E-05-1.04272E-13
 -1      3848 1.38388E-02 1.12594E-04-1.04339E-13
 -1      3849 1.37206E-02 5.46379E-05-1.02483E-13
 -1      3850 1.10197E-02 4.58600E-05-6.24392E-14
 -1      3851 1.10774E-02 3.16773E-05-6.30370E-14
 -1      3852 1.10736E-02 6.75258E-05-6.37630E-14
 -1      3853 1.36027E-02-4.00568E-05-1.00543E-13
 -1      3854 1.36020E-02-2.27923E-06-1.00622E-13
 -1      3855 6.45155E-03-1.94890E-04-2.98010E-14
 -1      3856 6.07812E-03-1.18307E-04-2.73992E-14
 -1      3857 6.20224E-03-1.59718E-04-2.79309E-14
 -1      3858 1.10860E-02-5.02850E-05-6.28787E-14
 -1      3859 1.09915E-02-6.03198E-05-6.15129E-14
 -1      3860 1.09886E-02-8.54220E-05-6.19893E-14
 -1      3861 6.33818E-03-1.69039E-04-2.91122E-14
 -1      3862 2.94833E-03 2.54207E-04-6.54647E-15
 -1      3863 2.80499E-03 2.54917E-04-5.96418E-15
 -1      3864 1.35901E-03 1.23918E-04-1.66552E-15
 -1      3865 1.09863E-02 1.52039E-04-6.41689E-14
 -1      3866 1.08714E-02 1.93620E-04-6.33179E-14
 -1      3867 3.45317E-03 2.82700E-04-8.76442E-15
 -1      3868 1.35516E-02-2.07095E-04-9.94847E-14
 -1      3869 5.88448E-03-1.38000E-05-2.71328E-14
 -1      3870 5.85290E-03-2.93652E-06-2.67945E-14
 -1      3871 4.35998E-03 2.23690E-04-1.38156E-14
 -1      3872 4.22105E-03 2.27870E-04-1.29726E-14
 -1      3873 4.14328E-03 1.96790E-04-1.25829E-14
 -1      3874 3.23409E-03 2.51072E-04-7.79021E-15
 -1      3875 3.09137E-03 2.52917E-04-7.15515E-15
 -1      3876 3.01513E-03 2.17948E-04-6.87018E-15
 -1      3877 3.80097E-03 2.39510E-04-1.05948E-14
 -1      3878 3.65990E-03 2.42941E-04-9.85370E-15
 -1      3879 3.86468E-03 2.03779E-04-1.09981E-14
 -1      3880 5.22717E-03 1.68044E-04-1.99232E-14
 -1      3881 1.50474E-03 8.61033E-05-2.00657E-15
 -1      3882 1.50302E-03 5.20417E-05-2.01010E-15
 -1      3883 1.17990E-02 1.54512E-04-7.53776E-14
 -1      3884 1.37291E-02-1.79077E-04-1.02104E-13
 -1      3885 5.94085E-03 3.31149E-05-2.75695E-14
 -1      3886 1.37212E-02 1.35545E-04-1.02704E-13
 -1      3887 1.10575E-02-7.90282E-06-6.20587E-14
 -1      3888 4.63601E-03 2.15336E-04-1.55793E-14
 -1      3889 4.49828E-03 2.19508E-04-1.46847E-14
 -1      3890 4.41905E-03 1.89261E-04-1.42704E-14
 -1      3891 6.01781E-03 1.64922E-04-2.64335E-14
 -1      3892 2.30700E-03 2.87153E-04-4.11363E-15
 -1      3893 1.94120E-03 2.41621E-04-3.03642E-15
 -1      3894 1.86421E-03 2.04701E-04-2.85462E-15
 -1      3895 2.08534E-03 2.46435E-04-3.45680E-15
 -1      3896 6.13490E-03-8.93894E-05-2.84970E-14
 -1      3897 6.09152E-03-6.79248E-05-2.85033E-14
 -1      3898 5.99089E-03-5.49850E-05-2.76847E-14
 -1      3899 5.88107E-03-2.79982E-05-2.69173E-14
 -1      3900 1.36021E-02-1.15952E-04-1.00379E-13
 -1      3901 1.36027E-02-7.79374E-05-1.00462E-13
 -1      3902 1.34823E-02-5.79815E-05-9.87550E-14
 -1      3903 1.08147E-02-1.54851E-04-6.08180E-14
 -1      3904 1.45718E-03 1.39286E-04-1.87482E-15
 -1      3905 1.48069E-03 1.12854E-04-1.94135E-15
 -1      3906 1.55588E-03 1.54890E-04-2.09574E-15
 -1      3907 1.60300E-03 9.97260E-05-2.23708E-15
 -1      3908 4.69169E-03 1.81612E-04-1.60578E-14
 -1      3909 1.09293E-02-1.18170E-04-6.17510E-14
 -1      3910 2.99448E-03-1.47738E-04-6.79455E-15
 -1      3911 3.13709E-03-1.46706E-04-7.41134E-15
 -1      3912 3.27917E-03-1.45368E-04-8.05412E-15
 -1      3913 3.42068E-03-1.43712E-04-8.72289E-15
 -1      3914 3.20514E-03-1.11214E-04-7.75286E-15
 -1      3915 3.56155E-03-1.41822E-04-9.41764E-15
 -1      3916 3.70173E-03-1.39674E-04-1.01381E-14
 -1      3917 3.48779E-03-1.08654E-04-9.09169E-15
 -1      3918 3.84115E-03-1.37356E-04-1.08840E-14
 -1      3919 3.97975E-03-1.34834E-04-1.16558E-14
 -1      3920 3.76756E-03-1.05327E-04-1.05339E-14
 -1      3921 4.11745E-03-1.32206E-04-1.24525E-14
 -1      3922 4.25421E-03-1.29425E-04-1.32740E-14
 -1      3923 4.04388E-03-1.01417E-04-1.20786E-14
 -1      3924 4.38991E-03-1.26604E-04-1.41208E-14
 -1      3925 4.52454E-03-1.23684E-04-1.49917E-14
 -1      3926 4.31615E-03-9.70931E-05-1.37242E-14
 -1      3927 4.65796E-03-1.20796E-04-1.58869E-14
 -1      3928 4.79016E-03-1.17861E-04-1.68068E-14
 -1      3929 4.58369E-03-9.25278E-05-1.54687E-14
 -1      3930 4.92095E-03-1.15035E-04-1.77511E-14
 -1      3931 5.05039E-03-1.12206E-04-1.87178E-14
 -1      3932 4.84570E-03-8.78852E-05-1.73092E-14
 -1      3933 5.17821E-03-1.09552E-04-1.97089E-14
 -1      3934 5.30456E-03-1.06915E-04-2.07247E-14
 -1      3935 5.10123E-03-8.33009E-05-1.92466E-14
 -1      3936 5.42905E-03-1.04511E-04-2.17627E-14
 -1      3937 5.55197E-03-1.02070E-04-2.28246E-14
 -1      3938 5.34911E-03-7.87817E-05-2.12793E-14
 -1      3939 5.67277E-03-1.00006E-04-2.39081E-14
 -1      3940 5.79203E-03-9.79704E-05-2.50145E-14
 -1      3941 5.58777E-03-7.42017E-05-2.34034E-14
 -1      3942 1.50214E-03 1.82441E-05-2.01033E-15
 -1      3943 1.50209E-03-1.54899E-05-2.00762E-15
 -1      3944 1.62606E-03 3.65683E-05-2.30743E-15
 -1      3945 1.10700E-02 1.17424E-04-6.47011E-14
 -1      3946 3.51839E-03 2.46030E-04-9.14011E-15
 -1      3947 3.37643E-03 2.48773E-04-8.45197E-15
 -1      3948 3.30027E-03 2.14714E-04-8.14072E-15
 -1      3949 3.58356E-03 2.09870E-04-9.51734E-15
 -1      3950 1.16227E-02 1.21887E-04-7.25560E-14
 -1      3951 1.14945E-02 1.20162E-04-7.07260E-14
 -1      3952 1.13276E-02-1.10761E-04-6.73541E-14
 -1      3953 1.14498E-02-1.13670E-04-6.91424E-14
 -1      3954 1.15735E-02-1.16522E-04-7.09503E-14
 -1      3955 1.16990E-02-1.19615E-04-7.27775E-14
 -1      3956 1.15293E-02-8.85900E-05-7.01163E-14
 -1      3957 1.18260E-02-1.22715E-04-7.46232E-14
 -1      3958 1.19546E-02-1.25982E-04-7.64854E-14
 -1      3959 1.17753E-02-9.41321E-05-7.37713E-14
 -1      3960 1.20845E-02-1.29243E-04-7.83636E-14
 -1      3961 1.22158E-02-1.32614E-04-8.02577E-14
 -1      3962 1.20289E-02-9.97252E-05-7.74976E-14
 -1      3963 1.23482E-02-1.35940E-04-8.21707E-14
 -1      3964 1.24817E-02-1.39305E-04-8.40998E-14
 -1      3965 1.22888E-02-1.05370E-04-8.12909E-14
 -1      3966 1.26163E-02-1.42584E-04-8.60435E-14
 -1      3967 1.27518E-02-1.45842E-04-8.80009E-14
 -1      3968 1.25540E-02-1.10942E-04-8.51490E-14
 -1      3969 1.28882E-02-1.48977E-04-8.99705E-14
 -1      3970 1.30253E-02-1.52037E-04-9.19524E-14
 -1      3971 1.28236E-02-1.16320E-04-8.90657E-14
 -1      3972 1.31632E-02-1.54955E-04-9.39457E-14
 -1      3973 1.33018E-02-1.57763E-04-9.59492E-14
 -1      3974 1.30968E-02-1.21383E-04-9.30294E-14
 -1      3975 5.01174E-03 1.42503E-04-1.84427E-14
 -1      3976 4.87985E-03 1.45771E-04-1.74768E-14
 -1      3977 1.84362E-03-1.38256E-04-2.81628E-15
 -1      3978 1.98763E-03-1.41703E-04-3.22008E-15
 -1      3979 1.10451E-02-1.01871E-04-6.31225E-14
 -1      3980 1.34809E-02 1.68056E-05-9.89120E-14
 -1      3981 1.36006E-02 3.55262E-05-1.00698E-13
 -1      3982 1.35985E-02 7.34632E-05-1.00768E-13
 -1      3983 5.78007E-03 1.28071E-04-2.47373E-14
 -1      3984 5.65420E-03 1.29582E-04-2.36306E-14
 -1      3985 1.18820E-02 1.25939E-04-7.62767E-14
 -1      3986 1.17518E-02 1.23790E-04-7.44059E-14
 -1      3987 1.17051E-02 9.44719E-05-7.34391E-14
 -1      3988 1.13676E-02 1.18784E-04-6.89117E-14
 -1      3989 1.12413E-02 1.17647E-04-6.71175E-14
 -1      3990 1.14551E-02 9.08382E-05-6.97787E-14
 -1      3991 2.70798E-03-1.48628E-04-5.64048E-15
 -1      3992 2.85143E-03-1.48379E-04-6.20431E-15
 -1      3993 2.92013E-03-1.12803E-04-6.51769E-15
 -1      3994 1.26846E-02 1.40091E-04-8.78240E-14
 -1      3995 1.25485E-02 1.37742E-04-8.58636E-14
 -1      3996 1.29589E-02 1.44458E-04-9.17750E-14
 -1      3997 1.28214E-02 1.42318E-04-8.97936E-14
 -1      3998 1.27590E-02 1.09891E-04-8.87538E-14
 -1      3999 1.32359E-02 1.48279E-04-9.57646E-14
 -1      4000 1.30971E-02 1.46436E-04-9.37652E-14
 -1      4001 1.30327E-02 1.13200E-04-9.27133E-14
 -1      4002 1.35460E-02-1.65018E-04-9.94757E-14
 -1      4003 5.85245E-03 2.44875E-05-2.66549E-14
 -1      4004 5.89398E-03 5.02115E-05-2.67785E-14
 -1      4005 2.72852E-03 2.19159E-04-5.70551E-15
 -1      4006 2.66139E-03 2.54930E-04-5.40888E-15
 -1      4007 2.51757E-03 2.54205E-04-4.88083E-15
 -1      4008 4.74693E-03 1.49086E-04-1.65357E-14
 -1      4009 4.61288E-03 1.52507E-04-1.56184E-14
 -1      4010 4.80199E-03 1.17800E-04-1.70136E-14
 -1      4011 5.52793E-03 1.31557E-04-2.25460E-14
 -1      4012 5.40043E-03 1.33925E-04-2.14844E-14
 -1      4013 5.56372E-03 1.01238E-04-2.30900E-14
 -1      4014 5.27205E-03 1.36530E-04-2.04463E-14
 -1      4015 5.14241E-03 1.39443E-04-1.94323E-14
 -1      4016 5.06208E-03 1.12022E-04-1.89428E-14
 -1      4017 1.24133E-02 1.35369E-04-8.39172E-14
 -1      4018 1.22790E-02 1.32930E-04-8.19833E-14
 -1      4019 1.24888E-02 1.06203E-04-8.48388E-14
 -1      4020 6.04217E-03 9.43520E-05-2.76043E-14
 -1      4021 6.03317E-03 1.29261E-04-2.70221E-14
 -1      4022 1.64924E-03 1.62443E-04-2.31958E-15
 -1      4023 1.71253E-03 1.24608E-04-2.50245E-15
 -1      4024 1.73654E-03 9.57713E-05-2.57657E-15
 -1      4025 1.36073E-02 1.05147E-04-1.00981E-13
 -1      4026 1.36096E-02 1.47440E-04-1.01135E-13
 -1      4027 1.35043E-02 1.48752E-04-9.96232E-14
 -1      4028 1.34878E-02 8.55133E-05-9.92011E-14
 -1      4029 2.37359E-03 2.52605E-04-4.37894E-15
 -1      4030 2.22949E-03 2.50068E-04-3.90417E-15
 -1      4031 2.15250E-03 2.13262E-04-3.69705E-15
 -1      4032 2.44081E-03 2.17816E-04-4.64739E-15
 -1      4033 1.11623E-02-1.04370E-04-6.48715E-14
 -1      4034 5.89355E-03-4.92408E-05-2.67342E-14
 -1      4035 5.80753E-03-3.69062E-05-2.59765E-14
 -1      4036 5.96222E-03 7.83793E-05-2.70693E-14
 -1      4037 1.11680E-02 8.71352E-05-6.55513E-14
 -1      4038 1.21457E-02 1.30547E-04-8.00637E-14
 -1      4039 1.20133E-02 1.28170E-04-7.81628E-14
 -1      4040 1.19611E-02 9.83269E-05-7.71725E-14
 -1      4041 1.22226E-02 1.02285E-04-8.09766E-14
 -1      4042 1.11237E-02 6.40392E-06-6.33868E-14
 -1      4043 1.11518E-02-1.66759E-05-6.37296E-14
 -1      4044 1.11885E-02 2.31255E-05-6.47226E-14
 -1      4045 5.73294E-03-3.78310E-06-2.53900E-14
 -1      4046 5.78911E-03 1.03763E-05-2.60200E-14
 -1      4047 5.72711E-03 2.53078E-05-2.52525E-14
 -1      4048 5.90644E-03 1.28118E-04-2.58710E-14
 -1      4049 5.80549E-03 9.70456E-05-2.53061E-14
 -1      4050 1.78273E-03 1.60039E-04-2.66677E-15
 -1      4051 5.85491E-03 6.58731E-05-2.61649E-14
 -1      4052 5.96295E-03-1.00083E-04-2.65975E-14
 -1      4053 1.62539E-03-2.66295E-05-2.30115E-15
 -1      4054 1.50223E-03-4.25358E-05-2.00209E-15
 -1      4055 1.50290E-03-6.96858E-05-1.99431E-15
 -1      4056 1.75072E-03 5.59290E-05-2.62396E-15
 -1      4057 1.74975E-03 1.96417E-05-2.62411E-15
 -1      4058 1.12482E-02-7.93058E-05-6.58217E-14
 -1      4059 5.31620E-03 1.06502E-04-2.09689E-14
 -1      4060 5.74227E-03 6.82260E-05-2.50285E-14
 -1      4061 1.33621E-02-7.54286E-05-9.69720E-14
 -1      4062 1.33623E-02-3.84081E-05-9.70521E-14
 -1      4063 2.05694E-03-1.08958E-04-3.44847E-15
 -1      4064 2.13182E-03-1.44383E-04-3.65055E-15
 -1      4065 2.27605E-03-1.46337E-04-4.10804E-15
 -1      4066 4.20484E-03 1.62566E-04-1.30135E-14
 -1      4067 4.06700E-03 1.65773E-04-1.21956E-14
 -1      4068 3.92835E-03 1.68791E-04-1.14031E-14
 -1      4069 3.78894E-03 1.71655E-04-1.06367E-14
 -1      4070 3.99211E-03 1.34608E-04-1.18094E-14
 -1      4071 1.69922E-03-1.10665E-04-2.45266E-15
 -1      4072 1.76887E-03-8.01499E-05-2.65054E-15
 -1      4073 1.33616E-02-1.54071E-06-9.71304E-14
 -1      4074 1.33600E-02 3.54028E-05-9.72070E-14
 -1      4075 1.32427E-02-1.93987E-05-9.53562E-14
 -1      4076 1.92668E-03 1.64495E-04-3.06107E-15
 -1      4077 1.47928E-03-1.16951E-04-1.91589E-15
 -1      4078 2.56422E-03-1.48396E-04-5.10318E-15
 -1      4079 2.63333E-03-1.13173E-04-5.38848E-15
 -1      4080 2.42021E-03-1.47665E-04-4.59242E-15
 -1      4081 2.79616E-03 1.83397E-04-6.00457E-15
 -1      4082 2.65255E-03 1.83410E-04-5.44885E-15
 -1      4083 1.33992E-02 1.49929E-04-9.81175E-14
 -1      4084 3.08231E-03 1.81895E-04-7.19618E-15
 -1      4085 2.93943E-03 1.82887E-04-6.58704E-15
 -1      4086 2.86430E-03 1.47722E-04-6.30660E-15
 -1      4087 5.91984E-03-6.54882E-05-2.67304E-14
 -1      4088 5.76189E-03-6.55346E-05-2.51437E-14
 -1      4089 5.85156E-03-9.12565E-05-2.56655E-14
 -1      4090 4.47784E-03 1.55890E-04-1.47247E-14
 -1      4091 4.34179E-03 1.59285E-04-1.38560E-14
 -1      4092 4.26640E-03 1.29302E-04-1.34439E-14
 -1      4093 1.11949E-02-3.53929E-05-6.45328E-14
 -1      4094 1.12130E-02-5.63517E-05-6.50221E-14
 -1      4095 1.13683E-02-6.25083E-05-6.75053E-14
 -1      4096 1.12784E-02-2.10288E-05-6.58838E-14
 -1      4097 1.34261E-02-1.43958E-04-9.77743E-14
 -1      4098 1.85986E-03 7.97086E-05-2.91373E-15
 -1      4099 1.33331E-02 1.15937E-04-9.70571E-14
 -1      4100 4.53655E-03 1.23627E-04-1.51797E-14
 -1      4101 1.74921E-03-9.37048E-06-2.62008E-15
 -1      4102 1.74925E-03-3.83980E-05-2.61411E-15
 -1      4103 1.87362E-03 8.99235E-06-2.95891E-15
 -1      4104 1.33251E-02 8.48811E-05-9.68442E-14
 -1      4105 3.41492E-03-7.51875E-05-8.76675E-15
 -1      4106 3.55541E-03-7.41274E-05-9.46298E-15
 -1      4107 3.69508E-03-7.29687E-05-1.01845E-14
 -1      4108 3.83390E-03-7.16650E-05-1.09323E-14
 -1      4109 3.62358E-03-4.01756E-05-9.83644E-15
 -1      4110 3.97174E-03-7.03086E-05-1.17056E-14
 -1      4111 4.10856E-03-6.88346E-05-1.25038E-14
 -1      4112 3.90083E-03-3.87403E-05-1.13331E-14
 -1      4113 4.24424E-03-6.73290E-05-1.33281E-14
 -1      4114 4.37873E-03-6.57314E-05-1.41772E-14
 -1      4115 4.17394E-03-3.71060E-05-1.29320E-14
 -1      4116 4.51187E-03-6.41455E-05-1.50495E-14
 -1      4117 4.64361E-03-6.24799E-05-1.59471E-14
 -1      4118 4.44218E-03-3.53541E-05-1.46314E-14
 -1      4119 4.77374E-03-6.08693E-05-1.68686E-14
 -1      4120 4.90220E-03-5.91725E-05-1.78144E-14
 -1      4121 4.70463E-03-3.35500E-05-1.64283E-14
 -1      4122 5.02872E-03-5.75814E-05-1.87843E-14
 -1      4123 5.15324E-03-5.58733E-05-1.97774E-14
 -1      4124 4.96007E-03-3.17454E-05-1.83210E-14
 -1      4125 5.27542E-03-5.42849E-05-2.07941E-14
 -1      4126 5.39505E-03-5.24392E-05-2.18349E-14
 -1      4127 5.20707E-03-2.98650E-05-2.03095E-14
 -1      4128 1.14841E-02-6.48091E-05-6.92978E-14
 -1      4129 1.16029E-02-6.72531E-05-7.11071E-14
 -1      4130 1.14374E-02-4.25988E-05-6.84777E-14
 -1      4131 2.84648E-03-7.77703E-05-6.24240E-15
 -1      4132 2.98942E-03-7.73985E-05-6.83424E-15
 -1      4133 1.33582E-02-1.09844E-04-9.68467E-14
 -1      4134 1.32391E-02-8.97250E-05-9.51525E-14
 -1      4135 1.17242E-02-6.94820E-05-7.29367E-14
 -1      4136 1.18478E-02-7.18374E-05-7.47852E-14
 -1      4137 1.16718E-02-4.60769E-05-7.21024E-14
 -1      4138 1.19734E-02-7.40596E-05-7.66466E-14
 -1      4139 1.21009E-02-7.63658E-05-7.85279E-14
 -1      4140 1.19170E-02-4.94487E-05-7.57973E-14
 -1      4141 1.22300E-02-7.86114E-05-8.04260E-14
 -1      4142 1.23606E-02-8.09002E-05-8.23415E-14
 -1      4143 1.21705E-02-5.28146E-05-7.95624E-14
 -1      4144 1.24925E-02-8.31041E-05-8.42717E-14
 -1      4145 1.26258E-02-8.53214E-05-8.62175E-14
 -1      4146 1.24306E-02-5.61078E-05-8.33941E-14
 -1      4147 1.27601E-02-8.74585E-05-8.81760E-14
 -1      4148 1.28954E-02-8.95773E-05-9.01460E-14
 -1      4149 1.26962E-02-5.93369E-05-8.72855E-14
 -1      4150 1.29983E-02-8.87527E-05-9.16482E-14
 -1      4151 1.31352E-02-9.07200E-05-9.36393E-14
 -1      4152 1.31392E-02-5.72078E-05-9.37622E-14
 -1      4153 1.29331E-02-5.97405E-05-9.07494E-14
 -1      4154 5.73167E-03-4.62359E-05-2.50680E-14
 -1      4155 5.72908E-03-2.50449E-05-2.52441E-14
 -1      4156 1.57670E-03-1.24548E-04-2.13979E-15
 -1      4157 1.17825E-02 6.83325E-05-7.43197E-14
 -1      4158 1.16581E-02 6.67028E-05-7.24739E-14
 -1      4159 1.15358E-02 6.52333E-05-7.06441E-14
 -1      4160 1.14156E-02 6.34623E-05-6.88354E-14
 -1      4161 1.16102E-02 4.05707E-05-7.15092E-14
 -1      4162 4.32830E-03 9.70144E-05-1.38752E-14
 -1      4163 4.19279E-03 9.91983E-05-1.30336E-14
 -1      4164 1.31053E-02 8.17972E-05-9.36531E-14
 -1      4165 1.29682E-02 8.07490E-05-9.16632E-14
 -1      4166 1.28319E-02 7.96188E-05-8.96814E-14
 -1      4167 1.26965E-02 7.83710E-05-8.77146E-14
 -1      4168 1.29035E-02 4.90854E-05-9.06107E-14
 -1      4169 4.59564E-03 9.24840E-05-1.56348E-14
 -1      4170 4.46259E-03 9.48014E-05-1.47422E-14
 -1      4171 4.39073E-03 6.57360E-05-1.43073E-14
 -1      4172 5.36064E-03 7.82077E-05-2.14922E-14
 -1      4173 5.23771E-03 8.06996E-05-2.04559E-14
 -1      4174 4.85746E-03 8.77896E-05-1.74912E-14
 -1      4175 4.72727E-03 9.01845E-05-1.65513E-14
 -1      4176 4.65538E-03 6.24949E-05-1.60895E-14
 -1      4177 5.59941E-03 7.31410E-05-2.36334E-14
 -1      4178 5.48117E-03 7.58269E-05-2.25513E-14
 -1      4179 5.40605E-03 5.16714E-05-2.20141E-14
 -1      4180 2.57716E-03 1.47698E-04-5.19422E-15
 -1      4181 2.50869E-03 1.82823E-04-4.91936E-15
 -1      4182 2.36461E-03 1.81606E-04-4.41677E-15
 -1      4183 1.89247E-03-6.34787E-05-2.99440E-15
 -1      4184 5.66333E-03 4.51309E-05-2.44629E-14
 -1      4185 3.13186E-03-7.68397E-05-7.45249E-15
 -1      4186 3.27372E-03-7.60803E-05-8.09647E-15
 -1      4187 3.05930E-03-4.22198E-05-7.15396E-15
 -1      4188 1.25622E-02 7.70959E-05-8.57554E-14
 -1      4189 1.24289E-02 7.57136E-05-8.38123E-14
 -1      4190 1.26337E-02 4.77949E-05-8.66730E-14
 -1      4191 1.12310E-02 6.96830E-05-6.61623E-14
 -1      4192 2.07082E-03 1.68032E-04-3.48198E-15
 -1      4193 1.99029E-03 1.23631E-04-3.26872E-15
 -1      4194 2.21505E-03 1.70678E-04-3.93025E-15
 -1      4195 5.59247E-03 2.91859E-05-2.38548E-14
 -1      4196 5.67349E-03-5.21854E-05-2.44255E-14
 -1      4197 2.00382E-03 8.16829E-05-3.32458E-15
 -1      4198 5.11283E-03 8.29977E-05-1.94436E-14
 -1      4199 4.98597E-03 8.54478E-05-1.84557E-14
 -1      4200 5.16444E-03 5.54706E-05-1.99445E-14
 -1      4201 5.65152E-03-1.13644E-05-2.44926E-14
 -1      4202 5.55467E-03-2.05596E-05-2.34799E-14
 -1      4203 5.56329E-03 2.13401E-06-2.36186E-14
 -1      4204 1.13118E-02 4.53451E-05-6.70101E-14
 -1      4205 5.56086E-03-5.43069E-05-2.33308E-14
 -1      4206 5.48698E-03 2.11439E-05-2.28567E-14
 -1      4207 3.34286E-03-4.13638E-05-8.44345E-15
 -1      4208 5.39446E-03-1.75377E-05-2.19771E-14
 -1      4209 5.45972E-03-4.04879E-05-2.24827E-14
 -1      4210 2.70310E-03-7.79035E-05-5.67696E-15
 -1      4211 2.77349E-03-4.26447E-05-5.96899E-15
 -1      4212 2.55937E-03-7.78001E-05-5.13807E-15
 -1      4213 2.16430E-03 8.30962E-05-3.81330E-15
 -1      4214 2.03481E-03 3.95426E-05-3.42395E-15
 -1      4215 1.13567E-02 1.75421E-05-6.73679E-14
 -1      4216 3.64883E-03 1.74282E-04-9.89626E-15
 -1      4217 3.50805E-03 1.76672E-04-9.18218E-15
 -1      4218 3.71426E-03 1.39338E-04-1.02771E-14
 -1      4219 4.05621E-03 1.01254E-04-1.22167E-14
 -1      4220 3.91860E-03 1.03230E-04-1.14249E-14
 -1      4221 4.12079E-03 6.87667E-05-1.26242E-14
 -1      4222 2.03647E-03-6.49425E-05-3.41043E-15
 -1      4223 3.36668E-03 1.78745E-04-8.49330E-15
 -1      4224 3.22474E-03 1.80517E-04-7.83111E-15
 -1      4225 3.14987E-03 1.46124E-04-7.52409E-15
 -1      4226 3.43337E-03 1.43247E-04-8.84828E-15
 -1      4227 2.34536E-03-1.12026E-04-4.36492E-15
 -1      4228 1.32069E-02 6.57830E-05-9.50740E-14
 -1      4229 1.31406E-02 3.35014E-05-9.40133E-14
 -1      4230 1.23685E-02 4.62792E-05-8.27871E-14
 -1      4231 1.22968E-02 7.43162E-05-8.18838E-14
 -1      4232 1.21659E-02 7.28274E-05-7.99676E-14
 -1      4233 1.20366E-02 7.13841E-05-7.80670E-14
 -1      4234 1.19087E-02 6.98426E-05-7.61836E-14
 -1      4235 1.18554E-02 4.26484E-05-7.51985E-14
 -1      4236 1.21087E-02 4.45851E-05-7.89609E-14
 -1      4237 2.64627E-03 1.12478E-04-5.47168E-15
 -1      4238 2.50242E-03 1.12111E-04-4.94182E-15
 -1      4239 2.03388E-03 8.94806E-06-3.42101E-15
 -1      4240 2.93300E-03 1.12175E-04-6.61060E-15
 -1      4241 2.78983E-03 1.12500E-04-6.02793E-15
 -1      4242 2.71600E-03 7.72291E-05-5.75171E-15
 -1      4243 1.31391E-02-2.12476E-05-9.38428E-14
 -1      4244 1.13752E-02-2.26795E-06-6.75153E-14
 -1      4245 1.14299E-02-2.21587E-05-6.83373E-14
 -1      4246 1.15443E-02-2.32918E-05-7.01386E-14
 -1      4247 1.15136E-02 1.82297E-05-6.98447E-14
 -1      4248 4.91371E-03 5.90987E-05-1.79697E-14
 -1      4249 3.55299E-03-6.94613E-06-9.49005E-15
 -1      4250 3.69245E-03-6.78585E-06-1.02130E-14
 -1      4251 5.30173E-03-3.59034E-06-2.11721E-14
 -1      4252 5.37197E-03 7.18664E-06-2.18060E-14
 -1      4253 3.87181E-03 1.60715E-05-1.11943E-14
 -1      4254 4.00909E-03 1.58302E-05-1.19771E-14
 -1      4255 4.14524E-03 1.54845E-05-1.27849E-14
 -1      4256 4.28018E-03 1.51909E-05-1.36186E-14
 -1      4257 4.41379E-03 1.47907E-05-1.44766E-14
 -1      4258 4.54598E-03 1.44659E-05-1.53586E-14
 -1      4259 4.67659E-03 1.40089E-05-1.62659E-14
 -1      4260 4.80549E-03 1.36619E-05-1.71980E-14
 -1      4261 4.93251E-03 1.31345E-05-1.81533E-14
 -1      4262 5.05747E-03 1.27996E-05-1.91321E-14
 -1      4263 5.18199E-03-3.70513E-06-2.01470E-14
 -1      4264 1.29739E-02 1.82032E-05-9.15397E-14
 -1      4265 1.28383E-02 1.81751E-05-8.95587E-14
 -1      4266 1.18573E-02-2.32837E-05-7.49314E-14
 -1      4267 1.19817E-02-2.43081E-05-7.67980E-14
 -1      4268 1.21436E-02-3.94815E-06-7.92679E-14
 -1      4269 1.22724E-02-4.37608E-06-8.11755E-14
 -1      4270 1.24027E-02-4.71066E-06-8.30962E-14
 -1      4271 1.25344E-02-5.16868E-06-8.50330E-14
 -1      4272 1.28695E-02-3.68398E-05-8.98668E-14
 -1      4273 1.29718E-02-3.53283E-05-9.13677E-14
 -1      4274 1.16315E-02 1.88287E-05-7.16622E-14
 -1      4275 3.27160E-03-7.20064E-06-8.12158E-15
 -1      4276 3.41268E-03-7.06385E-06-8.79300E-15
 -1      4277 3.48320E-03 2.67744E-05-9.14453E-15
 -1      4278 1.30738E-02 1.90149E-06-9.29506E-14
 -1      4279 2.27123E-03-7.67206E-05-4.13984E-15
 -1      4280 2.41538E-03-7.74041E-05-4.62601E-15
 -1      4281 2.48609E-03-4.25433E-05-4.89009E-15
 -1      4282 2.28383E-03 1.36691E-04-4.17669E-15
 -1      4283 1.16389E-02-2.28075E-05-7.16045E-14
 -1      4284 1.17589E-02-2.38459E-05-7.34402E-14
 -1      4285 1.18190E-02 6.16316E-07-7.44233E-14
 -1      4286 1.16254E-02-1.50541E-06-7.14593E-14
 -1      4287 2.98748E-03-7.39395E-06-6.85728E-15
 -1      4288 3.12985E-03-7.29603E-06-7.47633E-15
 -1      4289 3.20105E-03 2.73274E-05-7.80124E-15
 -1      4290 1.26674E-02-5.56066E-06-8.69856E-14
 -1      4291 2.10750E-03-3.14530E-05-3.63755E-15
 -1      4292 2.38381E-03 5.85623E-05-4.54175E-15
 -1      4293 2.31341E-03 9.30760E-05-4.29454E-15
 -1      4294 2.74364E-03 1.72475E-05-5.86597E-15
 -1      4295 2.88687E-03 1.72606E-05-6.44057E-15
 -1      4296 5.40180E-03 3.60064E-05-2.20312E-14
 -1      4297 3.73689E-03 8.22461E-05-1.04409E-14
 -1      4298 3.59738E-03 8.35462E-05-9.70906E-15
 -1      4299 2.26811E-03-8.46212E-07-4.15441E-15
 -1      4300 2.95910E-03 5.22667E-05-6.73985E-15
 -1      4301 1.28016E-02-6.02095E-06-8.89477E-14
 -1      4302 1.17279E-02 2.03805E-05-7.31419E-14
 -1      4303 1.18260E-02 2.18876E-05-7.46318E-14
 -1      4304 3.80396E-03 4.88332E-05-1.08172E-14
 -1      4305 5.28337E-03 3.76216E-05-2.09854E-14
 -1      4306 1.19504E-02 2.24013E-05-7.64972E-14
 -1      4307 2.45612E-03 1.70984E-05-4.79644E-15
 -1      4308 3.09070E-03 1.16682E-04-7.28194E-15
 -1      4309 3.01714E-03 8.19679E-05-6.97886E-15
 -1      4310 3.11640E-03 5.70756E-05-7.41787E-15
 -1      4311 3.23284E-03 1.15725E-04-7.91989E-15
 -1      4312 2.60003E-03 1.72194E-05-5.31766E-15
 -1      4313 5.16208E-03 3.90581E-05-1.99619E-14
 -1      4314 3.45708E-03 8.46640E-05-9.00289E-15
 -1      4315 3.31604E-03 8.56673E-05-8.32263E-15
 -1      4316 1.20166E-02-3.72504E-06-7.73764E-14
 -1      4317 3.25828E-03 5.66088E-05-8.06114E-15
 -3
    1PSTEP                         2           1           1          
  100CL  101 1.000000000        4317                     0    1           1
 -4  STRESS      6    1
 -5  SXX         1    4    1    1
 -5  SYY         1    4    2    2
 -5  SZZ         1    4    3    3
 -5  SXY         1    4    1    2
 -5  SYZ         1    4    2    3
 -5  SZX         1    4    3    1
 -1         1 6.60242E+01 9.18491E-01 3.57898E+00-1.76176E+00 3.96835E-14-4.67792E-13
 -1         2-6.48648E-01-2.43312E+01-3.34252E+00 1.39414E-02-1.08429E-12 2.81802E-13
 -1         3 1.99989E+01-9.36715E-04 7.07239E-03-9.95116E-04-4.23935E-13-3.37206E-13
 -1         4 1.99989E+01-9.61564E-04 7.11324E-03 1.03434E-03 4.62430E-13-2.39321E-13
 -1         5 3.27025E+01 6.13015E+00 2.73588E+00 6.21497E+00-3.31193E-14 2.51497E-12
 -1         6 3.56819E+01 1.22390E+01 5.11440E+00-8.63280E+00-1.38611E-13 2.72088E-12
 -1         7 2.07885E+01 6.09094E+00-1.28477E-01-4.72022E+00-2.09971E-14 6.91676E-13
 -1         8 1.96575E+01 5.93055E+00 5.12460E-02-3.27119E+00-3.34524E-14 1.54547E-14
 -1         9 1.91351E+01 5.77114E+00 4.94524E-02-2.52261E+00-3.17975E-14-3.63739E-13
 -1        10 1.89026E+01 5.69413E+00 5.13509E-02-1.94682E+00-2.04524E-14-5.69105E-13
 -1        11 1.87876E+01 5.65517E+00 5.04269E-02-1.45140E+00-1.71781E-14-6.79561E-13
 -1        12 1.87280E+01 5.63475E+00 4.87713E-02-1.01103E+00-1.02646E-14-7.37159E-13
 -1        13 1.86970E+01 5.62406E+00 4.73313E-02-5.92545E-01-8.59805E-15-7.66084E-13
 -1        14 1.86840E+01 5.61956E+00 4.65476E-02-1.90225E-01-1.42131E-15-7.87144E-13
 -1        15 1.86845E+01 5.61971E+00 4.65900E-02 2.07165E-01 1.00457E-15-7.88527E-13
 -1        16 1.86985E+01 5.62454E+00 4.74766E-02 6.10326E-01 8.09932E-15-7.91000E-13
 -1        17 1.87308E+01 5.63550E+00 4.91077E-02 1.03082E+00 6.64638E-15-7.75629E-13
 -1        18 1.87914E+01 5.65629E+00 5.09938E-02 1.47437E+00 1.14071E-14-7.28507E-13
 -1        19 1.89081E+01 5.69572E+00 5.18251E-02 1.97568E+00 2.27596E-14-6.43740E-13
 -1        20 1.91403E+01 5.77367E+00 4.91401E-02 2.55989E+00 2.91156E-14-4.69975E-13
 -1        21 1.96528E+01 5.94506E+00 4.61958E-02 3.30522E+00 3.51177E-14-9.59736E-14
 -1        22 2.11704E+01 6.37225E+00 1.39442E-01 4.51801E+00 6.43929E-15 6.85162E-13
 -1        23 2.29783E+01-1.37680E+00-9.37427E-01-7.10308E-01-8.98795E-14 2.21868E-12
 -1        24 1.93217E+01-9.94747E-02-3.09548E-01 6.29777E-02-3.05684E-14 1.78151E-12
 -1        25 1.86366E+01-5.64517E-02-6.87748E-02 6.04196E-02-1.14457E-14 1.32546E-12
 -1        26 1.84385E+01-2.23565E-02-6.63817E-03 3.26122E-02 3.09767E-15 1.00710E-12
 -1        27 1.84573E+01-1.22315E-02 1.26041E-03 2.22053E-02-9.36989E-15 8.03876E-13
 -1        28 1.85841E+01-6.87127E-03 1.26458E-03 1.58814E-02-1.49245E-14 6.59763E-13
 -1        29 1.87648E+01-3.97582E-03 9.30340E-04 1.17437E-02 8.75813E-15 5.42024E-13
 -1        30 1.89717E+01-2.44781E-03 7.52129E-04 8.86081E-03-5.37846E-15 3.67569E-13
 -1        31 1.91918E+01-1.75792E-03 4.46081E-04 6.80528E-03-6.09498E-16 1.90978E-13
 -1        32 1.94216E+01-1.62295E-03-1.17250E-04 5.38730E-03-4.24024E-14 5.11700E-15
 -1        33 1.96636E+01-1.87438E-03-9.50115E-04 4.53480E-03 2.64091E-14-6.17804E-14
 -1        34 1.99254E+01-2.39457E-03-2.02575E-03 4.24222E-03-1.88816E-14-5.51299E-14
 -1        35 2.02179E+01-3.07935E-03-3.29956E-03 4.54913E-03 2.01334E-14-6.92534E-14
 -1        36 2.05547E+01-3.80814E-03-4.69404E-03 5.52811E-03-2.48936E-15 1.16621E-14
 -1        37 2.09502E+01-4.41231E-03-6.05793E-03 7.26829E-03-2.81765E-14 3.14167E-14
 -1        38 2.14177E+01-4.63813E-03-7.09575E-03 9.83819E-03 2.37875E-14-3.96805E-14
 -1        39 2.19654E+01-4.10781E-03-7.26100E-03 1.32033E-02 9.48322E-15 1.79336E-14
 -1        40 2.25901E+01-2.29732E-03-5.62463E-03 1.70602E-02-9.48203E-16-6.72813E-14
 -1        41 2.32670E+01 1.41989E-03-7.93474E-04 2.05441E-02-1.34410E-15-2.19862E-13
 -1        42 2.39366E+01 7.57060E-03 8.91700E-03 2.18029E-02-7.09328E-15-2.81544E-13
 -1        43 2.44898E+01 1.60867E-02 2.46288E-02 1.75942E-02-1.95487E-14-1.52357E-13
 -1        44 2.47610E+01 2.54756E-02 4.49279E-02 3.46131E-03-2.14464E-14-5.02559E-14
 -1        45 2.45471E+01 3.19822E-02 6.29893E-02-2.43262E-02-1.40309E-14-1.05619E-13
 -1        46 2.36791E+01 2.99188E-02 6.54284E-02-6.40478E-02 9.78904E-15-2.54068E-13
 -1        47 2.21536E+01 1.44782E-02 3.72196E-02-1.02542E-01 2.01218E-14-1.09770E-13
 -1        48 2.02707E+01-1.28438E-02-2.31823E-02-1.15263E-01 5.20196E-14 3.96721E-13
 -1        49 1.86409E+01-4.09420E-02-9.08520E-02-8.09644E-02 2.19733E-14 6.06595E-13
 -1        50 1.79356E+01-5.40966E-02-1.23881E-01-5.76807E-03 1.30308E-14 2.90190E-13
 -1        51 1.84783E+01-4.39510E-02-9.84155E-02 7.25007E-02 3.53667E-15 6.71165E-14
 -1        52 2.00183E+01-1.70176E-02-3.31098E-02 1.13506E-01 1.55204E-15 8.62331E-14
 -1        53 2.19084E+01 1.12368E-02 3.03917E-02 1.06361E-01-1.27510E-14-2.57815E-14
 -1        54 2.35094E+01 2.85690E-02 6.34727E-02 6.97302E-02 5.39850E-14-4.18242E-14
 -1        55 2.44743E+01 3.22222E-02 6.45196E-02 2.90693E-02-7.02565E-14 7.82898E-14
 -1        56 2.47730E+01 2.64606E-02 4.75740E-02-6.05243E-04 4.11743E-14-8.11881E-14
 -1        57 2.45621E+01 1.71329E-02 2.69567E-02-1.63860E-02-2.06661E-14-2.87925E-13
 -1        58 2.40462E+01 8.30178E-03 1.03704E-02-2.16167E-02 5.40579E-14-4.18898E-13
 -1        59 2.33990E+01 1.72617E-03-2.15443E-04-2.08054E-02-2.82213E-14-2.45925E-13
 -1        60 2.27385E+01-2.38874E-03-5.73025E-03-1.73823E-02 2.77417E-14 2.96603E-14
 -1        61 2.21315E+01-4.52412E-03-7.85453E-03-1.33571E-02-2.20799E-14 1.71713E-13
 -1        62 2.16084E+01-5.30765E-03-8.04356E-03-9.68601E-03-8.88618E-15-2.74104E-13
 -1        63 2.11767E+01-5.27723E-03-7.28842E-03-6.70818E-03-4.05084E-14-7.36040E-13
 -1        64 2.08315E+01-4.82153E-03-6.18055E-03-4.45725E-03-7.06799E-14-7.43746E-13
 -1        65 2.05626E+01-4.19567E-03-5.04563E-03-2.83865E-03-3.01982E-14-1.01537E-12
 -1        66 2.03578E+01-3.55645E-03-4.05964E-03-1.71439E-03 9.65608E-14-8.47469E-13
 -1        67 2.02061E+01-2.99373E-03-3.32987E-03-9.31937E-04-3.24017E-14-2.83185E-13
 -1        68 2.00982E+01-2.54611E-03-2.93018E-03-3.14133E-04 7.15479E-14 1.62117E-13
 -1        69 2.00281E+01-2.18219E-03-2.82197E-03 3.79735E-04-1.14466E-13 7.21755E-14
 -1        70 1.99926E+01-1.59513E-03-2.39786E-03 1.61095E-03 6.81684E-14-2.57827E-13
 -1        71 1.99902E+01 2.80265E-04 8.42001E-04 3.04723E-03-1.53596E-13-3.46444E-13
 -1        72 2.09939E+01-4.04186E-01-9.79451E-01-3.10658E-01 4.59632E-14 2.21868E-12
 -1        73 1.92861E+01-6.58998E-02-2.90882E-01-5.35732E-02 2.14186E-14 1.59857E-12
 -1        74 1.86458E+01-2.06419E-02-6.42849E-02-2.00177E-02 1.52005E-14 1.14826E-12
 -1        75 1.84473E+01-1.01140E-02-9.48620E-03-1.49872E-02 4.68917E-15 8.22226E-13
 -1        76 1.84659E+01-5.52309E-03 3.36359E-04-1.17736E-02 2.58131E-14 5.47503E-13
 -1        77 1.85919E+01-3.12846E-03 1.18561E-03-9.34419E-03-4.81922E-15 3.63693E-13
 -1        78 1.87714E+01-1.85655E-03 1.03845E-03-7.43635E-03-1.65734E-14 3.67331E-13
 -1        79 1.89771E+01-1.24045E-03 8.58324E-04-5.83622E-03 2.02823E-14 3.31547E-13
 -1        80 1.91963E+01-1.04454E-03 5.16698E-04-4.45491E-03 4.11590E-17 1.41075E-13
 -1        81 1.94250E+01-1.13629E-03-8.40538E-05-3.27891E-03 2.64944E-14-5.17672E-14
 -1        82 1.96661E+01-1.42948E-03-9.50823E-04-2.33477E-03 2.57689E-14-1.41700E-13
 -1        83 1.99269E+01-1.85489E-03-2.05369E-03-1.67970E-03-1.41142E-14-3.03210E-14
 -1        84 2.02184E+01-2.33915E-03-3.34255E-03-1.40509E-03 2.10959E-14 9.45862E-14
 -1        85 2.05539E+01-2.78407E-03-4.73046E-03-1.64619E-03-1.79929E-15 6.33694E-15
 -1        86 2.09475E+01-3.04295E-03-6.05121E-03-2.59191E-03 2.07881E-14-2.56472E-13
 -1        87 2.14120E+01-2.89372E-03-6.98825E-03-4.48381E-03-1.11194E-14-4.33917E-13
 -1        88 2.19550E+01-2.01664E-03-6.96973E-03-7.58262E-03-1.66332E-14-4.47235E-13
 -1        89 2.25718E+01-2.16551E-07-5.04389E-03-1.20570E-02 2.42879E-14-6.74731E-13
 -1        90 2.32366E+01 3.57215E-03 1.85284E-04-1.77186E-02-2.91116E-14-4.52445E-13
 -1        91 2.38883E+01 8.86632E-03 1.03380E-02-2.35138E-02-1.07346E-14-4.52661E-13
 -1        92 2.44169E+01 1.52849E-02 2.63328E-02-2.67810E-02-3.09375E-14-4.53680E-13
 -1        93 2.46574E+01 2.08025E-02 4.63354E-02-2.26963E-02-2.62984E-15-5.25377E-13
 -1        94 2.44117E+01 2.17613E-02 6.30772E-02-5.19296E-03-2.22370E-15-7.09413E-13
 -1        95 2.35203E+01 1.41601E-02 6.30729E-02 2.89725E-02 1.04365E-14-4.76785E-13
 -1        96 2.19915E+01-2.74434E-03 3.25940E-02 7.30060E-02 5.32603E-14-3.63869E-13
 -1        97 2.01322E+01-2.28420E-02-2.80947E-02 1.05383E-01-2.42199E-14-2.63810E-13
 -1        98 1.85470E+01-3.52334E-02-9.31334E-02 9.92441E-02 6.45799E-14-1.92221E-13
 -1        99 1.78871E+01-3.25660E-02-1.21826E-01 4.66694E-02-4.50989E-14-4.15184E-13
 -1       100 1.84538E+01-1.73182E-02-9.41405E-02-2.69763E-02-4.36645E-14-2.20959E-13
 -1       101 1.99882E+01 1.31963E-03-2.97439E-02-8.18551E-02 3.19282E-14-1.48229E-13
 -1       102 2.18539E+01 1.49408E-02 3.15253E-02-9.63044E-02-2.30917E-14-9.07049E-13
 -1       103 2.34294E+01 2.02795E-02 6.30608E-02-7.73141E-02-2.87717E-14-5.63272E-13
 -1       104 2.43803E+01 1.87172E-02 6.39170E-02-4.52743E-02 1.45542E-14-3.06408E-13
 -1       105 2.46789E+01 1.35524E-02 4.74407E-02-1.63840E-02 4.70928E-14-7.48764E-13
 -1       106 2.44778E+01 7.72815E-03 2.71347E-02 2.83269E-03-6.68256E-14-9.06925E-13
 -1       107 2.39767E+01 2.90702E-03 1.06082E-02 1.26719E-02-7.50035E-15-1.15728E-12
 -1       108 2.33451E+01-3.88903E-04-6.01235E-05 1.59805E-02 9.53147E-14-1.47890E-12
 -1       109 2.26985E+01-2.28892E-03-5.68364E-03 1.55947E-02-1.88764E-14-1.16609E-12
 -1       110 2.21027E+01-3.15619E-03-7.89241E-03 1.35242E-02 2.38727E-14-1.45517E-12
 -1       111 2.15882E+01-3.35807E-03-8.12922E-03 1.09542E-02 6.69995E-14-1.20980E-12
 -1       112 2.11627E+01-3.18318E-03-7.39175E-03 8.48693E-03-8.79244E-14-9.96007E-13
 -1       113 2.08219E+01-2.83100E-03-6.28285E-03 6.37775E-03 4.60893E-14-6.16517E-13
 -1       114 2.05560E+01-2.42919E-03-5.13805E-03 4.69746E-03-1.70987E-13-5.04343E-13
 -1       115 2.03533E+01-2.05484E-03-4.14063E-03 3.42602E-03 8.85470E-14-6.62269E-13
 -1       116 2.02030E+01-1.74677E-03-3.40307E-03 2.49291E-03-1.41902E-14-6.13179E-13
 -1       117 2.00961E+01-1.51581E-03-3.00504E-03 1.78266E-03 1.24618E-13-1.21753E-12
 -1       118 2.00268E+01-1.32287E-03-2.91000E-03 1.10124E-03-4.79125E-14-1.23982E-12
 -1       119 1.99923E+01-8.56989E-04-2.41326E-03-1.31404E-04-5.19079E-14-9.59923E-13
 -1       120 1.99907E+01 1.08224E-03 9.95087E-04-2.52123E-03 1.36988E-13-8.62881E-13
 -1       121 2.00000E+01-8.54538E-03 5.70876E-04-3.42005E-03-4.23517E-13 2.52240E-13
 -1       122 1.99986E+01-4.88156E-03-2.64506E-03-7.71510E-04 1.69197E-13-4.58525E-14
 -1       123 1.99987E+01 3.15141E-02-2.36855E-03 1.09047E-03 4.12223E-13 4.82280E-14
 -1       124 1.99993E+01 9.11738E-02-1.13329E-03 2.07234E-03 3.50334E-13 4.68895E-14
 -1       125 2.00001E+01 1.61016E-01 1.89539E-04 2.31793E-03 1.58661E-13-1.53412E-13
 -1       126 2.00008E+01 2.26560E-01 1.28538E-03 2.05432E-03-3.28399E-13 1.73459E-14
 -1       127 2.00013E+01 2.78256E-01 2.06791E-03 1.38862E-03-7.60872E-13 2.17983E-13
 -1       128 2.00016E+01 3.06281E-01 2.47665E-03 4.84058E-04-8.40176E-13 7.29379E-14
 -1       129 2.00016E+01 3.06063E-01 2.47445E-03-4.99888E-04-6.91472E-14 2.80894E-13
 -1       130 2.00013E+01 2.77623E-01 2.06142E-03-1.40131E-03 9.63631E-14-1.36229E-13
 -1       131 2.00008E+01 2.25603E-01 1.26257E-03-2.08007E-03-1.07625E-12-5.16304E-14
 -1       132 2.00001E+01 1.59880E-01 1.71677E-04-2.32440E-03-1.35840E-12 2.87498E-13
 -1       133 1.99993E+01 9.00485E-02-1.14301E-03-2.05403E-03-6.32339E-13-6.64900E-14
 -1       134 1.99985E+01 3.03884E-02-2.50227E-03-1.24185E-03-1.39998E-12-6.52316E-15
 -1       135 1.99989E+01-4.84209E-03-2.36660E-03 1.07492E-03-6.12312E-13 1.28012E-13
 -1       136 1.99989E+01-8.30862E-03 6.34735E-04 5.37328E-03 2.31283E-13 1.61416E-13
 -1       137-1.31924E+00-1.98649E+01-3.07541E+00-3.77972E+00 1.24523E-12 4.57086E-13
 -1       138-1.63897E+00-9.04621E+00-2.32855E+00-3.22355E+00 2.46075E-12 1.02021E-12
 -1       139 2.57248E+00 2.98532E+00-1.15961E+00 3.10467E+00 2.22322E-12 1.30901E-12
 -1       140 1.44412E+01 1.02398E+01 2.64243E-01 1.20666E+01 1.72179E-12 2.10626E-12
 -1       141 3.20961E+01 1.02374E+01 1.63507E+00 1.76175E+01 1.27237E-12 2.26996E-12
 -1       142 5.20686E+01 5.75737E+00 2.84119E+00 1.60922E+01 6.43791E-13 1.87228E-12
 -1       143 6.45152E+01 1.43219E+00 3.50539E+00 6.11651E+00 1.76385E-13 5.64049E-13
 -1       144 6.36132E+01 1.89289E+00 3.47215E+00-7.42717E+00 3.06734E-14-8.01775E-13
 -1       145 4.95216E+01 6.43058E+00 2.70346E+00-1.66443E+01 5.86767E-13-1.61182E-12
 -1       146 2.97732E+01 1.06162E+01 1.47441E+00-1.74074E+01 1.55315E-12-2.30577E-12
 -1       147 1.25881E+01 9.66781E+00 8.58771E-02-1.09804E+01 2.09377E-12-2.27518E-12
 -1       148 1.10297E+00 7.48569E-01-1.40800E+00-1.41842E+00 2.43822E-12-1.64102E-12
 -1       149-1.73705E+00-1.12850E+01-2.49631E+00 3.77087E+00 2.09649E-12-8.83710E-13
 -1       150-1.13220E+00-2.17334E+01-3.21030E+00 2.98968E+00 9.78662E-13-2.56452E-13
 -1       151-7.90598E-01-2.38303E+01-3.32197E+00-1.28989E+00-4.61783E-13-1.15290E-14
 -1       152-1.68964E+00-1.69262E+01-2.88718E+00-4.22285E+00-8.24507E-13-1.56340E-13
 -1       153-7.16682E-01-4.46837E+00-1.92295E+00-1.30661E+00-1.31706E-12-8.21787E-13
 -1       154 7.16730E+00 6.84452E+00-5.32952E-01 7.21195E+00-1.93673E-12-1.70836E-12
 -1       155 2.30065E+01 1.10697E+01 9.77852E-01 1.57196E+01-1.58601E-12-2.24259E-12
 -1       156 4.28966E+01 8.14487E+00 2.30238E+00 1.78204E+01-9.53959E-13-2.21811E-12
 -1       157 6.07049E+01 2.94843E+00 3.29525E+00 1.10294E+01-4.27504E-13-1.51615E-12
 -1       158 5.69658E+01 4.12143E+00 3.11662E+00-1.38746E+01-4.02282E-13 1.02568E-12
 -1       159 3.79332E+01 9.42780E+00 2.01941E+00-1.83460E+01-1.07339E-12 2.29972E-12
 -1       160 1.72934E+01 1.07386E+01 5.28688E-01-1.34978E+01-1.85402E-12 2.05064E-12
 -1       161 3.53355E+00 4.34542E+00-9.89065E-01-4.16997E+00-2.49101E-12 1.97786E-12
 -1       162-1.45814E+00-7.69273E+00-2.22588E+00 2.76753E+00-2.18953E-12 1.14930E-12
 -1       163-1.42149E+00-1.96089E+01-3.06833E+00 3.88433E+00-1.73567E-12 1.62596E-13
 -1       164 2.09910E+01 3.68999E+00-5.72376E-02-3.60426E+00-3.63765E-13 3.15831E-13
 -1       165 1.99836E+01 4.20529E+00-4.56611E-02-2.80281E+00-3.64081E-13-1.20556E-13
 -1       166 1.95103E+01 4.47881E+00-3.16132E-02-2.18823E+00-3.11256E-13-3.66632E-13
 -1       167 1.92789E+01 4.61854E+00-2.37261E-02-1.66780E+00-2.52702E-13-5.10278E-13
 -1       168 1.91523E+01 4.70413E+00-1.94853E-02-1.21275E+00-1.88501E-13-5.73605E-13
 -1       169 1.90812E+01 4.75726E+00-1.73411E-02-7.87374E-01-1.28355E-13-6.20137E-13
 -1       170 1.90454E+01 4.78662E+00-1.63115E-02-3.84339E-01-5.84555E-14-6.44840E-13
 -1       171 1.90349E+01 4.79569E+00-1.60152E-02 8.23773E-03-1.38487E-14-6.58861E-13
 -1       172 1.90471E+01 4.78534E+00-1.63503E-02 4.01146E-01 4.73301E-14-6.60008E-13
 -1       173 1.90849E+01 4.75424E+00-1.74107E-02 8.05218E-01 1.03464E-13-6.59495E-13
 -1       174 1.91569E+01 4.69946E+00-1.95865E-02 1.22525E+00 1.60329E-13-6.29705E-13
 -1       175 1.92877E+01 4.60934E+00-2.39087E-02 1.69130E+00 2.39120E-13-5.66007E-13
 -1       176 1.95271E+01 4.46036E+00-3.27437E-02 2.21974E+00 3.17954E-13-4.49446E-13
 -1       177 2.00057E+01 4.18176E+00-4.70757E-02 2.84044E+00 3.72843E-13-2.15418E-13
 -1       178 2.11119E+01 3.46004E+00-5.96645E-02 3.53072E+00 3.75018E-13 2.46775E-13
 -1       179 2.23821E+01 1.14252E+00-3.35975E-01 3.01030E+00 2.95243E-13 8.79533E-13
 -1       180 2.19385E+01 8.57521E-01 6.15906E-04-1.95497E+00-3.09180E-13 7.97050E-13
 -1       181 2.04192E+01 1.90227E-01-9.92673E-03-7.60645E-01-2.65584E-13 6.16738E-13
 -1       182 1.96495E+01 1.02327E-01 1.36372E-02-2.81077E-01-1.96895E-13 4.83071E-13
 -1       183 1.93181E+01 4.84885E-02 1.01154E-02-6.05591E-02-1.57655E-13 3.41949E-13
 -1       184 1.92012E+01 2.45993E-02 5.32634E-03 5.13430E-02-1.01293E-13 2.67603E-13
 -1       185 1.92069E+01 1.25414E-02 2.65470E-03 1.10880E-01-1.00606E-13 2.12546E-13
 -1       186 1.92838E+01 6.42976E-03 1.42725E-03 1.43192E-01-1.00171E-13 1.19858E-13
 -1       187 1.94039E+01 3.83171E-03 8.87150E-04 1.61892E-01-8.98396E-14 8.81630E-14
 -1       188 1.95526E+01 3.57462E-03 6.64030E-04 1.75365E-01-1.15934E-13 3.01799E-14
 -1       189 1.97240E+01 5.00665E-03 6.05762E-04 1.89309E-01-7.16719E-14 2.82148E-14
 -1       190 1.99179E+01 7.70665E-03 6.43767E-04 2.07833E-01-3.52075E-14-1.22447E-13
 -1       191 2.01380E+01 1.13364E-02 7.34617E-04 2.33926E-01-1.61557E-15-1.16153E-13
 -1       192 2.03907E+01 1.55266E-02 8.37260E-04 2.69561E-01 3.96501E-14-7.78902E-14
 -1       193 2.06838E+01 1.97468E-02 9.01818E-04 3.15468E-01 5.24532E-15-1.40447E-14
 -1       194 2.10245E+01 2.31285E-02 8.62311E-04 3.70525E-01-5.37805E-14-1.27780E-14
 -1       195 2.14177E+01 2.42220E-02 6.34336E-04 4.30644E-01 3.19596E-14-5.49925E-14
 -1       196 2.18624E+01 2.07029E-02 1.24706E-04 4.87035E-01-1.34919E-14-7.36917E-14
 -1       197 2.23469E+01 9.14765E-03-7.34854E-04 5.23901E-01-5.19198E-14-3.19644E-14
 -1       198 2.28433E+01-1.47728E-02-1.92086E-03 5.16206E-01-6.77774E-14-5.08365E-14
 -1       199 2.33010E+01-5.49144E-02-3.21447E-03 4.29387E-01 3.61751E-14-1.14881E-13
 -1       200 2.36429E+01-1.10927E-01-4.14253E-03 2.25151E-01 4.97402E-14-4.86720E-14
 -1       201 2.37698E+01-1.71308E-01-4.04571E-03-1.20363E-01-3.25209E-14 5.32063E-14
 -1       202 2.35822E+01-2.06266E-01-2.51235E-03-5.81791E-01-2.52454E-14 6.55439E-14
 -1       203 2.30288E+01-1.70640E-01 1.53763E-04-1.04435E+00 6.53904E-14 2.25678E-13
 -1       204 2.21756E+01-3.22722E-02 2.14337E-03-1.29863E+00 1.42566E-13 1.20321E-13
 -1       205 2.12577E+01 1.78531E-01 2.16622E-03-1.12875E+00 7.80396E-14 1.88056E-13
 -1       206 2.06311E+01 3.49474E-01 8.94797E-04-4.89562E-01-1.62152E-13 1.11537E-13
 -1       207 2.05873E+01 3.62098E-01 6.61411E-04 3.76977E-01-1.11971E-13-6.95060E-14
 -1       208 2.11480E+01 2.07168E-01 1.63740E-03 1.06726E+00 6.22202E-15-3.29207E-14
 -1       209 2.20491E+01-5.89964E-03 1.85109E-03 1.30478E+00-1.20727E-13-4.57473E-14
 -1       210 2.29302E+01-1.57937E-01 2.57581E-04 1.09790E+00-6.71828E-14-1.07042E-13
 -1       211 2.35340E+01-2.06274E-01-2.14600E-03 6.50510E-01-6.57547E-14-1.87814E-13
 -1       212 2.37736E+01-1.77763E-01-3.85824E-03 1.81249E-01-3.88778E-14-2.20533E-13
 -1       213 2.36894E+01-1.18406E-01-4.13106E-03-1.80974E-01-8.23139E-14-3.12824E-13
 -1       214 2.33785E+01-6.05436E-02-3.30146E-03-4.00944E-01-1.11478E-14-3.83762E-13
 -1       215 2.29424E+01-1.77348E-02-2.00859E-03-4.98051E-01 4.49853E-14-2.80243E-13
 -1       216 2.24626E+01 8.60729E-03-7.70025E-04-5.09860E-01 1.56359E-13-3.52735E-13
 -1       217 2.19942E+01 2.20556E-02 1.62014E-04-4.71800E-01-7.54187E-15-8.44436E-14
 -1       218 2.15691E+01 2.69952E-02 7.40927E-04-4.10090E-01-2.07840E-13-2.07404E-13
 -1       219 2.12017E+01 2.69949E-02 1.02600E-03-3.41497E-01-2.36189E-13-2.50651E-13
 -1       220 2.08955E+01 2.45048E-02 1.10763E-03-2.75494E-01-1.41683E-13-3.85249E-13
 -1       221 2.06475E+01 2.10515E-02 1.06833E-03-2.16634E-01-7.25245E-14-4.17132E-13
 -1       222 2.04516E+01 1.75310E-02 9.68936E-04-1.66412E-01 1.09621E-13-1.75284E-13
 -1       223 2.03004E+01 1.44542E-02 8.45390E-04-1.24517E-01 4.26093E-13-4.81953E-14
 -1       224 2.01871E+01 1.21163E-02 7.08456E-04-8.96152E-02 3.69299E-13 3.92227E-13
 -1       225 2.01055E+01 1.06648E-02 5.50390E-04-5.98275E-02-6.07584E-14 3.33363E-13
 -1       226 2.00506E+01 9.97869E-03 4.26676E-04-3.33615E-02 8.00597E-15 4.05204E-13
 -1       227 2.00168E+01 9.04702E-03 3.24916E-04-9.80853E-03-1.01762E-13 3.27763E-13
 -1       228 2.09300E+01 2.76893E-01-5.12367E-02 1.16202E+00 2.92960E-13 7.34999E-13
 -1       229 1.98401E+01 1.27047E-01 8.35995E-03 4.40180E-01 2.19789E-13 5.20511E-13
 -1       230 1.93401E+01 5.86480E-02 1.27944E-02 1.45690E-01 1.83193E-13 3.42103E-13
 -1       231 1.91400E+01 2.87676E-02 7.71409E-03 3.61542E-03 1.35774E-13 2.17184E-13
 -1       232 1.91049E+01 1.47104E-02 3.94265E-03-7.00027E-02 6.24934E-14 1.57798E-13
 -1       233 1.91631E+01 7.53648E-03 2.06704E-03-1.09088E-01 1.51529E-14 1.23025E-13
 -1       234 1.92752E+01 3.98990E-03 1.21108E-03-1.30303E-01 5.82573E-14 4.82954E-14
 -1       235 1.94205E+01 2.66691E-03 8.03529E-04-1.43112E-01 9.54694E-14 7.92877E-16
 -1       236 1.95892E+01 2.86432E-03 5.97301E-04-1.53589E-01 7.29115E-14-1.26643E-13
 -1       237 1.97787E+01 4.17549E-03 4.93689E-04-1.65968E-01 4.29494E-14-8.15605E-14
 -1       238 1.99914E+01 6.32237E-03 4.44495E-04-1.83331E-01-5.20769E-14-9.67487E-14
 -1       239 2.02328E+01 9.06065E-03 4.14889E-04-2.07874E-01-7.26909E-15-1.07879E-13
 -1       240 2.05108E+01 1.20957E-02 3.70612E-04-2.40888E-01 6.04776E-14-1.78154E-13
 -1       241 2.08339E+01 1.49791E-02 2.73802E-04-2.82453E-01 8.13122E-14-1.56161E-13
 -1       242 2.12092E+01 1.69659E-02 8.48119E-05-3.30765E-01 6.50183E-14-1.51012E-13
 -1       243 2.16394E+01 1.68263E-02-2.25864E-04-3.80997E-01 2.43213E-14-3.08450E-13
 -1       244 2.21191E+01 1.26372E-02-6.47783E-04-4.23622E-01 8.46927E-14-2.36730E-13
 -1       245 2.26283E+01 1.68126E-03-1.07862E-03-4.42379E-01-5.35756E-14-3.42773E-13
 -1       246 2.31255E+01-1.92031E-02-1.26726E-03-4.12734E-01-1.87147E-14-3.72319E-13
 -1       247 2.35418E+01-5.21417E-02-8.22811E-04-3.03093E-01 1.72995E-15-2.61237E-13
 -1       248 2.37799E+01-9.46797E-02 6.04081E-04-8.31222E-02-2.20488E-14-2.34788E-13
 -1       249 2.37272E+01-1.34319E-01 2.85057E-03 2.55292E-01 1.75970E-14-1.95431E-13
 -1       250 2.32950E+01-1.45151E-01 4.68650E-03 6.64716E-01-8.42672E-14-2.46588E-13
 -1       251 2.24843E+01-9.53979E-02 3.75315E-03 1.01450E+00-7.25678E-14-1.74946E-13
 -1       252 2.14558E+01 2.59599E-02-1.43764E-03 1.11108E+00-4.51438E-14-6.78667E-14
 -1       253 2.05398E+01 1.75622E-01-8.45374E-03 8.07040E-01-2.23953E-15-8.98092E-14
 -1       254 2.01135E+01 2.64285E-01-1.12176E-02 1.52955E-01 1.75641E-15 2.70506E-14
 -1       255 2.03759E+01 2.29270E-01-6.88014E-03-5.71643E-01-1.33883E-13 2.67260E-14
 -1       256 2.12058E+01 9.74337E-02 9.50255E-04-1.03798E+00 9.36655E-14-1.09026E-13
 -1       257 2.22488E+01-4.41320E-02 6.10814E-03-1.09555E+00 2.09386E-13-8.70398E-14
 -1       258 2.31427E+01-1.27528E-01 6.10759E-03-8.26376E-01-1.66476E-13-1.63267E-13
 -1       259 2.36798E+01-1.41818E-01 3.10560E-03-4.22526E-01 9.14351E-14-2.50771E-13
 -1       260 2.38264E+01-1.12875E-01 1.43202E-05-4.70655E-02 1.88528E-13-3.75347E-13
 -1       261 2.36576E+01-7.05218E-02-1.77129E-03 2.20489E-01 2.92919E-14-4.99773E-13
 -1       262 2.32858E+01-3.30094E-02-2.18139E-03 3.69954E-01 1.73278E-13-7.21214E-13
 -1       263 2.28144E+01-6.64931E-03-1.75520E-03 4.25626E-01 1.18655E-13-9.31300E-13
 -1       264 2.23207E+01 8.93679E-03-1.04270E-03 4.19741E-01-2.50217E-13-8.24417E-13
 -1       265 2.18532E+01 1.64912E-02-3.82925E-04 3.79831E-01 1.75346E-14-5.66577E-13
 -1       266 2.14381E+01 1.88962E-02 9.53720E-05 3.25242E-01-6.94616E-14-3.73728E-13
 -1       267 2.10855E+01 1.83841E-02 3.84931E-04 2.67888E-01-1.81020E-13-4.95427E-14
 -1       268 2.07958E+01 1.64547E-02 5.27023E-04 2.14226E-01-5.60089E-14-1.84267E-14
 -1       269 2.05640E+01 1.40342E-02 5.70313E-04 1.67137E-01-1.07976E-13-1.36199E-13
 -1       270 2.03831E+01 1.16700E-02 5.52383E-04 1.27308E-01 2.84175E-13-1.55937E-13
 -1       271 2.02454E+01 9.68614E-03 4.91666E-04 9.41353E-02 6.23971E-14-3.36707E-13
 -1       272 2.01443E+01 8.26078E-03 3.80093E-04 6.62669E-02 1.78904E-13-3.77053E-13
 -1       273 2.00740E+01 7.49145E-03 2.10781E-04 4.20680E-02-1.67247E-13-1.91258E-13
 -1       274 2.00302E+01 7.37870E-03 2.25090E-04 2.00391E-02 7.66885E-14-1.90657E-13
 -1       275 2.00075E+01 4.93690E-03 6.06459E-04 1.44911E-03-1.09258E-13-1.01930E-13
 -1       276 2.00090E+01 1.71995E-02 2.84095E-04 1.14233E-02-1.58443E-13 3.95729E-13
 -1       277 2.00085E+01 4.71816E-02 8.15893E-05 3.21894E-02 8.52207E-15 1.00979E-13
 -1       278 2.00049E+01 9.05993E-02 2.81020E-05 4.84407E-02 1.75426E-13 6.69966E-14
 -1       279 2.00007E+01 1.41837E-01-2.04211E-05 5.53403E-02 1.72273E-13-2.18006E-13
 -1       280 1.99968E+01 1.92427E-01-1.26705E-04 5.23564E-02-1.38049E-13-5.93121E-13
 -1       281 1.99936E+01 2.36227E-01-2.28619E-04 4.04476E-02-1.75847E-13-1.23569E-13
 -1       282 1.99915E+01 2.65447E-01-3.03866E-04 2.18945E-02-1.07811E-14 2.10001E-13
 -1       283 1.99908E+01 2.75612E-01-3.30445E-04-1.67132E-04-5.10967E-14 3.81778E-13
 -1       284 1.99915E+01 2.65159E-01-3.03769E-04-2.22077E-02-2.39576E-13 7.78085E-14
 -1       285 1.99936E+01 2.35677E-01-2.29211E-04-4.07050E-02-4.42265E-13-6.95543E-13
 -1       286 1.99968E+01 1.92560E-01-1.21284E-04-5.23935E-02-4.31580E-13-6.57250E-14
 -1       287 2.00008E+01 1.41018E-01-2.27385E-05-5.53545E-02-2.24598E-13 3.98833E-13
 -1       288 2.00049E+01 8.97559E-02 2.70952E-05-4.82031E-02-3.29858E-13-3.32331E-13
 -1       289 2.00085E+01 4.73283E-02 2.44536E-04-3.20285E-02-2.13026E-13 6.01830E-13
 -1       290 2.00154E+01 2.68790E-02 2.45835E-04-2.27376E-02-3.31122E-13 5.28643E-13
 -1       291-8.80087E-01-1.07898E+01-1.00074E+00 1.02529E+00-4.24105E-14 1.01964E-12
 -1       292 2.32434E+00-8.62798E+00-8.34476E-01 3.14963E+00 4.46199E-13 8.58834E-13
 -1       293 9.03671E+00-5.18010E+00-5.01710E-01 5.50420E+00 8.66862E-13 5.49165E-13
 -1       294 1.77423E+01-1.13036E+00-1.43825E-01 7.05516E+00 8.95117E-13 8.80934E-13
 -1       295 2.78347E+01 2.14118E+00 2.70242E-01 7.57215E+00 7.98250E-13 7.33802E-13
 -1       296 3.66810E+01 4.21875E+00 5.04554E-01 5.04890E+00 5.61554E-13 2.94792E-13
 -1       297 4.43585E+01 6.17837E+00 9.33909E-01 3.59701E+00 6.63442E-13 3.27322E-13
 -1       298 4.51533E+01 7.04324E+00 8.72536E-01-1.12424E-01 7.19702E-13 4.77413E-14
 -1       299 4.18957E+01 6.23505E+00 6.89537E-01-2.99642E+00 6.59292E-13-5.89667E-13
 -1       300 3.61455E+01 4.15438E+00 5.64931E-01-6.23720E+00 9.62438E-13-8.77937E-13
 -1       301 2.66541E+01 1.84159E+00 2.35304E-01-7.59966E+00 9.59982E-13-1.09107E-12
 -1       302 1.68814E+01-2.37228E+00-1.81370E-01-6.83030E+00 8.90038E-13-9.07413E-13
 -1       303 7.22863E+00-5.83178E+00-5.95740E-01-4.94120E+00 7.97890E-13-8.49577E-13
 -1       304 1.36301E+00-9.28586E+00-8.89285E-01-2.68976E+00 4.17694E-13-7.31262E-13
 -1       305-1.10034E+00-9.87529E+00-8.37384E-01-5.72432E-01 1.06585E-13-6.66828E-13
 -1       306-1.96168E-01-1.02061E+01-9.27131E-01 1.70470E+00-2.09069E-13-2.12885E-13
 -1       307 4.77975E+00-7.17669E+00-5.96664E-01 4.53199E+00-2.73170E-13-4.42608E-13
 -1       308 1.38488E+01-4.29604E+00-2.57654E-01 6.56093E+00-1.74610E-13-7.69135E-13
 -1       309 2.29070E+01 1.50056E-01 4.71009E-02 7.24515E+00-5.93747E-13-8.01886E-13
 -1       310 3.30155E+01 3.61188E+00 4.91851E-01 7.27601E+00-6.06973E-13-8.15181E-13
 -1       311 3.98290E+01 5.52413E+00 5.61819E-01 3.26086E+00-5.18918E-13-3.61350E-13
 -1       312 4.56440E+01 6.74662E+00 9.30221E-01 1.29101E+00-5.13811E-13-3.70551E-13
 -1       313 4.51994E+01 6.55089E+00 9.53074E-01-2.33218E+00-8.59229E-13 2.38295E-13
 -1       314 4.00051E+01 5.23203E+00 7.95660E-01-5.90423E+00-9.08759E-13 6.98580E-13
 -1       315 3.03505E+01 2.61843E+00 3.60143E-01-7.19003E+00-7.91145E-13 1.11713E-12
 -1       316 1.91821E+01-5.29721E-01-8.18092E-02-7.25022E+00-1.08616E-12 7.92699E-13
 -1       317 9.57737E+00-4.62345E+00-5.08496E-01-5.52864E+00-9.40414E-13 8.01623E-13
 -1       318 2.87724E+00-8.23538E+00-7.63464E-01-3.54764E+00-7.74408E-13 6.54553E-13
 -1       319-8.72309E-01-1.07651E+01-9.94340E-01-1.03178E+00-3.04576E-13 3.48582E-13
 -1       320 2.01451E+01 3.01675E+00-1.77783E-02-2.10096E+00-3.91607E-13-1.43312E-13
 -1       321 2.07417E+01 2.20924E+00-1.77858E-02-2.35604E+00-4.10262E-13 1.19358E-13
 -1       322 1.95952E+01 3.70187E+00-1.55691E-02-1.30867E+00-2.62627E-13-4.01098E-13
 -1       323 1.94756E+01 3.86206E+00-1.36426E-02-9.15609E-01-1.89967E-13-4.44404E-13
 -1       324 1.94077E+01 3.95616E+00-1.26436E-02-5.38419E-01-1.07375E-13-4.75359E-13
 -1       325 1.93775E+01 3.99916E+00-1.22238E-02-1.71374E-01-3.47602E-14-5.04696E-13
 -1       326 1.93788E+01 3.99754E+00-1.22436E-02 1.92396E-01 2.07969E-14-5.14424E-13
 -1       327 1.94118E+01 3.95096E+00-1.26957E-02 5.59793E-01 8.82338E-14-5.18744E-13
 -1       328 1.94815E+01 3.85467E+00-1.37162E-02 9.31014E-01 1.64790E-13-5.02881E-13
 -1       329 1.96058E+01 3.68842E+00-1.56133E-02 1.32343E+00 2.53850E-13-4.45484E-13
 -1       330 1.98162E+01 3.41544E+00-1.87967E-02 1.72843E+00 3.27133E-13-3.63901E-13
 -1       331 2.01783E+01 2.95692E+00-2.28841E-02 2.11787E+00 4.04356E-13-2.27739E-13
 -1       332 2.07352E+01 2.12897E+00-3.03923E-02 2.31486E+00 4.27458E-13 5.70429E-14
 -1       333 2.10722E+01 1.18718E+00-2.48395E-02 1.91663E+00 3.80281E-13 3.17912E-13
 -1       334 2.03732E+01 4.90202E-01 8.38614E-03 9.21156E-01 3.00308E-13 2.16394E-13
 -1       335 2.04473E+01 6.77350E-01 1.26042E-02-1.01675E+00-3.08953E-13 1.43203E-13
 -1       336 2.00323E+01 3.41756E-01 7.24273E-03-4.44674E-01-2.54856E-13 1.05249E-13
 -1       337 1.97886E+01 1.83937E-01 4.25776E-03-1.28339E-01-1.68732E-13 1.03987E-13
 -1       338 1.96680E+01 1.01530E-01 2.04064E-03 5.36354E-02-1.36974E-13 4.59509E-14
 -1       339 1.96338E+01 5.71351E-02 9.83285E-04 1.60315E-01-1.29846E-13 6.41587E-14
 -1       340 1.96581E+01 3.41746E-02 5.34331E-04 2.24973E-01-9.60267E-14 6.78877E-14
 -1       341 1.97229E+01 2.46873E-02 3.64086E-04 2.67982E-01-1.05466E-13 6.04560E-14
 -1       342 1.98175E+01 2.44028E-02 3.34628E-04 3.02764E-01-1.27165E-13 1.62248E-14
 -1       343 1.99366E+01 3.07405E-02 3.89656E-04 3.38674E-01-1.50893E-13-7.10461E-14
 -1       344 2.00789E+01 4.18729E-02 4.99116E-04 3.82400E-01-5.33485E-14-1.39349E-13
 -1       345 2.02458E+01 5.61614E-02 6.37878E-04 4.38537E-01 3.71166E-14-1.69235E-13
 -1       346 2.04403E+01 7.16655E-02 7.75833E-04 5.09604E-01 1.00056E-13-9.70368E-14
 -1       347 2.06665E+01 8.55729E-02 8.70131E-04 5.95524E-01-1.27261E-14-2.46854E-14
 -1       348 2.09282E+01 9.34643E-02 8.57421E-04 6.92474E-01-5.29399E-14-3.54608E-14
 -1       349 2.12283E+01 8.84123E-02 6.48061E-04 7.90989E-01-5.19927E-14-1.12424E-13
 -1       350 2.15674E+01 6.01360E-02 1.29210E-04 8.73283E-01-7.52093E-15-1.78377E-13
 -1       351 2.19426E+01-5.03970E-03-8.10149E-04 9.10144E-01-1.48030E-15-8.94250E-14
 -1       352 2.23454E+01-1.21679E-01-2.22253E-03 8.58744E-01-4.23236E-14-2.83410E-14
 -1       353 2.27576E+01-2.97017E-01-3.94652E-03 6.64730E-01 4.98107E-14 1.77808E-14
 -1       354 2.31447E+01-5.13430E-01-5.49978E-03 2.75034E-01 7.78691E-14 1.15489E-14
 -1       355 2.34441E+01-7.01755E-01-5.97359E-03-3.28623E-01 5.42407E-14 1.84284E-13
 -1       356 2.35613E+01-7.26860E-01-4.62178E-03-1.06958E+00 4.91265E-14 3.00375E-13
 -1       357 2.33995E+01-4.30074E-01-1.06450E-03-1.71572E+00 2.75507E-14 2.15040E-13
 -1       358 2.29517E+01 2.24477E-01 7.43910E-04-1.89824E+00 1.43557E-13 1.09000E-13
 -1       359 2.24160E+01 9.81768E-01-6.86267E-05-1.31887E+00 1.27632E-14 6.59531E-14
 -1       360 2.21489E+01 1.35708E+00-7.52991E-04-9.28560E-02-3.12754E-13 8.84061E-14
 -1       361 2.23573E+01 1.06511E+00-9.69842E-04 1.18190E+00-4.65444E-14-1.31633E-14
 -1       362 2.28780E+01 3.31777E-01-7.12570E-04 1.86816E+00-1.53285E-13-2.01921E-13
 -1       363 2.33562E+01-3.59369E-01-1.91961E-03 1.77918E+00-1.36461E-13-2.32373E-13
 -1       364 2.35625E+01-7.07441E-01-4.21617E-03 1.17373E+00-1.67624E-14-1.21215E-13
 -1       365 2.34803E+01-7.15993E-01-5.82599E-03 4.30130E-01-1.01078E-13-1.72410E-13
 -1       366 2.32036E+01-5.39589E-01-5.53991E-03-1.96115E-01-1.62875E-13-3.42032E-13
 -1       367 2.28298E+01-3.20651E-01-4.11273E-03-6.11005E-01-5.71384E-14-3.31227E-13
 -1       368 2.24260E+01-1.36648E-01-2.37680E-03-8.23443E-01 5.63493E-14-3.69728E-13
 -1       369 2.20307E+01-1.06655E-02-8.97639E-04-8.84006E-01 5.75532E-14-3.19216E-13
 -1       370 2.16642E+01 6.24209E-02 1.28125E-04-8.47750E-01 2.49682E-13-3.06731E-13
 -1       371 2.13367E+01 9.68332E-02 7.22442E-04-7.59109E-01-8.97831E-14-3.44861E-13
 -1       372 2.10523E+01 1.06574E-01 9.91983E-04-6.48855E-01-1.31400E-13-4.87658E-14
 -1       373 2.08114E+01 1.02340E-01 1.05218E-03-5.36017E-01-2.10957E-13 2.38146E-13
 -1       374 2.06116E+01 9.13438E-02 9.94832E-04-4.31042E-01-3.23091E-13 3.88984E-13
 -1       375 2.04494E+01 7.80875E-02 8.84172E-04-3.38663E-01 2.00500E-13 4.01627E-13
 -1       376 2.03201E+01 6.52470E-02 7.60199E-04-2.60027E-01 3.45900E-13 4.49075E-13
 -1       377 2.02191E+01 5.43381E-02 6.42449E-04-1.94163E-01 5.18385E-13 3.14395E-13
 -1       378 2.01418E+01 4.61161E-02 5.42770E-04-1.39024E-01 6.62597E-14 4.51504E-13
 -1       379 2.00841E+01 4.06414E-02 5.34768E-04-9.21436E-02 1.87462E-14 5.59000E-13
 -1       380 2.00451E+01 3.44069E-02 3.20792E-04-5.43920E-02 2.19824E-14 5.66177E-13
 -1       381 1.98782E+01 2.30749E-01 1.08509E-02 3.89728E-01 2.63697E-13 1.48563E-13
 -1       382 1.95993E+01 1.19261E-01 6.26126E-03 1.06028E-01 1.90625E-13 9.35131E-14
 -1       383 1.94791E+01 6.36473E-02 2.93937E-03-5.06312E-02 1.03800E-13 3.53459E-14
 -1       384 1.94602E+01 3.44616E-02 1.37243E-03-1.38932E-01 4.84567E-14-2.46366E-14
 -1       385 1.95059E+01 1.94631E-02 7.17749E-04-1.90186E-01 9.73195E-14-1.03019E-13
 -1       386 1.95940E+01 1.31048E-02 4.59764E-04-2.22516E-01 1.21582E-13-8.43172E-14
 -1       387 1.97122E+01 1.25487E-02 3.84952E-04-2.47498E-01 1.51076E-13-8.39747E-14
 -1       388 1.98550E+01 1.61437E-02 4.13105E-04-2.73067E-01 1.15944E-14-7.23464E-14
 -1       389 2.00215E+01 2.27647E-02 5.05766E-04-3.04874E-01 2.77390E-14-1.11955E-13
 -1       390 2.02139E+01 3.14455E-02 6.33285E-04-3.46854E-01 1.57526E-14-2.13444E-13
 -1       391 2.04367E+01 4.10786E-02 7.62145E-04-4.01291E-01 9.73126E-14-2.26573E-13
 -1       392 2.06951E+01 5.00731E-02 8.47086E-04-4.68419E-01 5.39047E-14-1.72834E-13
 -1       393 2.09939E+01 5.59132E-02 8.24413E-04-5.45490E-01 5.73496E-14-9.94498E-14
 -1       394 2.13356E+01 5.46068E-02 6.08837E-04-6.25199E-01 1.38329E-13-1.32348E-13
 -1       395 2.17182E+01 4.01238E-02 1.01005E-04-6.93415E-01 5.75629E-14-2.59921E-13
 -1       396 2.21321E+01 4.22015E-03-7.81613E-04-7.26488E-01 2.71981E-14-2.11960E-13
 -1       397 2.25570E+01-6.23598E-02-2.03892E-03-6.89252E-01 2.09630E-14-2.72378E-13
 -1       398 2.29572E+01-1.65430E-01-3.49132E-03-5.36566E-01-1.98778E-15-3.35963E-13
 -1       399 2.32782E+01-2.97290E-01-4.70766E-03-2.23857E-01-1.26709E-13-2.50853E-13
 -1       400 2.34460E+01-4.20837E-01-4.97111E-03 2.65670E-01 4.29075E-14-8.19675E-14
 -1       401 2.33778E+01-4.59238E-01-3.72690E-03 8.74583E-01-4.54840E-14-1.89575E-14
 -1       402 2.30188E+01-3.15300E-01-1.12596E-03 1.42628E+00-1.45656E-13 1.89297E-14
 -1       403 2.24099E+01 5.23394E-02 4.37612E-04 1.63723E+00-9.98319E-14 8.67102E-15
 -1       404 2.17560E+01 5.24768E-01 5.44288E-04 1.25886E+00-1.74392E-14 3.49100E-14
 -1       405 2.13815E+01 8.26404E-01 1.75662E-03 3.21143E-01-6.48700E-15 2.49844E-13
 -1       406 2.15088E+01 7.41417E-01 3.81136E-03-7.72988E-01 9.58261E-15 1.11911E-13
 -1       407 2.20629E+01 3.34409E-01 4.83729E-03-1.50344E+00 1.24260E-13 2.15067E-14
 -1       408 2.27398E+01-1.22104E-01 2.66686E-03-1.61324E+00 1.43713E-13 1.52831E-13
 -1       409 2.32502E+01-4.02048E-01-1.93327E-03-1.21813E+00 1.26435E-14-3.59773E-14
 -1       410 2.34696E+01-4.59718E-01-5.30145E-03-6.10791E-01 1.42812E-13-3.06090E-13
 -1       411 2.34152E+01-3.73204E-01-6.05979E-03-3.98913E-02 1.38983E-13-1.65146E-13
 -1       412 2.31652E+01-2.37986E-01-5.05743E-03 3.72047E-01 2.18508E-13-1.49980E-13
 -1       413 2.28029E+01-1.14825E-01-3.33013E-03 6.06794E-01 2.65371E-13-1.10908E-13
 -1       414 2.23942E+01-2.62257E-02-1.63145E-03 6.98166E-01 1.01644E-13-9.45949E-14
 -1       415 2.19844E+01 2.75141E-02-3.21713E-04 6.93070E-01-2.55184E-13-7.77271E-14
 -1       416 2.16019E+01 5.45240E-02 5.11437E-04 6.32753E-01-8.23903E-14-1.68773E-13
 -1       417 2.12618E+01 6.39559E-02 9.46396E-04 5.47078E-01-1.87022E-13 9.38402E-14
 -1       418 2.09704E+01 6.31509E-02 1.10443E-03 4.55069E-01-2.58270E-13 3.04509E-13
 -1       419 2.07278E+01 5.71750E-02 1.09573E-03 3.67494E-01-1.44498E-13 1.32548E-13
 -1       420 2.05308E+01 4.92307E-02 1.00154E-03 2.89520E-01-1.90998E-15 2.78704E-13
 -1       421 2.03743E+01 4.12374E-02 8.74779E-04 2.22769E-01 1.66150E-13 3.58761E-13
 -1       422 2.02528E+01 3.43175E-02 7.44058E-04 1.66737E-01 2.57184E-13 3.67798E-13
 -1       423 2.01609E+01 2.90687E-02 6.18807E-04 1.19698E-01 5.24374E-14 3.61295E-13
 -1       424 2.00936E+01 2.55631E-02 4.74617E-04 7.95547E-02-2.48743E-14 3.27401E-13
 -1       425 2.00464E+01 2.30453E-02 3.50187E-04 4.47252E-02-7.53363E-14 1.66317E-13
 -1       426 2.00251E+01 2.19090E-02 2.12325E-04 2.70762E-02-1.77991E-13 4.86173E-13
 -1       427 2.00100E+01 1.32691E-01 1.03358E-04 9.68507E-02 1.08108E-13-9.79567E-14
 -1       428 2.00246E+01 8.48891E-02 2.52016E-04 8.03214E-02-2.17835E-13 5.78920E-13
 -1       429 2.00285E+01 4.98964E-02 3.09056E-04 5.44051E-02-2.86624E-13-3.28607E-15
 -1       430 1.99944E+01 1.80121E-01-4.46431E-05 9.78226E-02 8.26284E-14-9.85804E-13
 -1       431 1.99803E+01 2.23058E-01-1.70751E-04 8.32058E-02-7.36905E-14-1.12966E-13
 -1       432 1.99698E+01 2.55174E-01-2.69537E-04 5.55319E-02 9.29520E-14 1.46655E-13
 -1       433 1.99643E+01 2.72308E-01-3.23219E-04 1.93135E-02-2.61202E-13 7.28676E-14
 -1       434 1.99643E+01 2.72207E-01-3.23359E-04-1.98518E-02-4.26548E-13 2.51124E-13
 -1       435 1.99699E+01 2.54873E-01-2.69209E-04-5.60096E-02-4.08227E-13-4.62526E-13
 -1       436 1.99803E+01 2.23252E-01-1.69837E-04-8.32001E-02-1.74485E-13-4.02719E-13
 -1       437 1.99944E+01 1.80318E-01-5.00748E-05-9.79067E-02-1.93609E-14 7.39695E-13
 -1       438 2.00102E+01 1.32039E-01 8.53111E-05-9.68346E-02-3.53753E-15-2.90805E-13
 -1       439 2.00251E+01 8.37570E-02 2.35222E-04-8.00896E-02-2.68306E-14-8.29096E-16
 -1       440 9.50742E+00-5.46622E+00-6.97062E-02 6.66778E+00-9.82270E-14 3.83096E-13
 -1       441 8.40389E-01-4.79385E+00-1.18105E-01-3.21291E-02 2.97733E-13 9.00779E-13
 -1       442 3.34954E+00-4.89343E+00-8.71228E-02 4.16170E+00-1.57929E-14 1.03295E-12
 -1       443 1.84156E+01-5.27832E+00-2.24226E-02 6.71470E+00 5.91194E-14 9.53265E-14
 -1       444 2.62327E+01-3.71407E+00-5.53282E-04 4.35899E+00 5.78426E-14-3.13374E-13
 -1       445 1.98107E+01 3.43664E+00-1.76335E-02-1.72791E+00-3.40359E-13-3.13163E-13
 -1       446 3.40122E+01 4.92794E+00 2.19040E-03-4.73936E-01 3.25157E-13-3.17052E-13
 -1       447 3.46227E+01 7.53627E+00-2.01986E-02-3.90829E-01 6.09804E-13-4.24549E-13
 -1       448 3.45985E+01 7.48480E+00-1.98274E-02 4.10850E-01 9.10827E-13-1.84984E-13
 -1       449 3.33440E+01 3.70258E+00-2.76551E-02 2.94713E-01 6.57793E-13-2.82774E-13
 -1       450 3.16380E+01 1.83992E-01 3.22373E-02-1.81876E+00 5.55145E-13-1.33407E-13
 -1       451 2.55488E+01-3.80773E+00 2.34408E-03-4.76264E+00 3.27682E-13-2.64955E-13
 -1       452 1.66644E+01-5.63735E+00-1.34632E-02-6.98223E+00 8.65280E-14-6.65169E-13
 -1       453 7.93938E+00-5.51007E+00-9.16018E-02-6.31357E+00 1.11341E-13-7.94136E-13
 -1       454 3.40521E+00-3.80653E+00 3.85726E-02-3.70411E+00 5.32768E-14-8.04773E-13
 -1       455 1.78564E+00-3.89134E+00-2.81510E-03 1.63467E+00 5.13478E-14-4.00124E-13
 -1       456 5.05030E+00-4.64462E+00-2.69792E-02 5.10674E+00 4.62547E-14-2.67425E-13
 -1       457 1.34556E+01-5.47912E+00 2.52691E-02 7.15010E+00 2.20809E-13-3.64278E-13
 -1       458 2.31283E+01-4.97866E+00 5.27552E-03 5.51147E+00 9.02195E-14-4.00555E-13
 -1       459 2.93216E+01-1.58594E+00 2.43558E-02 3.24203E+00-1.44267E-13-3.26822E-13
 -1       460 3.31310E+01 2.22587E+00 1.24856E-02 6.82898E-01-3.22437E-13-4.35069E-14
 -1       461 3.36249E+01 6.84476E+00-8.67186E-02-6.74666E-01-5.17877E-13 3.32352E-13
 -1       462 3.65043E+01 7.96928E+00 1.08940E-01 4.29629E-02-8.11129E-13 4.07144E-13
 -1       463 3.51377E+01 5.72526E+00 5.35366E-02 1.43563E-01-8.08964E-13 2.14551E-14
 -1       464 3.28099E+01 1.58948E+00 4.65938E-02-1.20356E+00-5.77899E-13-2.40641E-14
 -1       465 2.71169E+01-2.86359E+00-5.97854E-03-4.24974E+00-3.80154E-13 2.71172E-13
 -1       466 1.95340E+01-5.27510E+00-2.00970E-02-6.49106E+00-3.22686E-13 3.89612E-13
 -1       467 1.05020E+01-5.60172E+00-7.35376E-02-6.78435E+00-1.35669E-13 6.31314E-13
 -1       468 3.90370E+00-4.40714E+00-1.15541E-02-4.37094E+00 2.13426E-13 4.66155E-13
 -1       469 3.08339E+01-5.79794E-01-3.22902E-02 1.78290E+00 1.75939E-13-5.90292E-13
 -1       470 3.08450E+01 4.07378E+00-1.38211E-01-1.79026E+00-4.99864E-13 1.84686E-13
 -1       471 2.03698E+01 8.36798E-01 4.04151E-03 9.58983E-01 3.04315E-13-6.42058E-14
 -1       472 1.97459E+01 3.12818E+00-5.31173E-03-6.23598E-01-1.35710E-13-4.01180E-13
 -1       473 1.98421E+01 2.94948E+00-5.70292E-03-9.36231E-01-2.02596E-13-3.73312E-13
 -1       474 1.96778E+01 3.25532E+00-4.99663E-03 8.72908E-03-1.39267E-14-4.72366E-13
 -1       475 1.96965E+01 3.22109E+00-5.07965E-03 3.24810E-01 3.29378E-14-4.70406E-13
 -1       476 1.97504E+01 3.12097E+00-5.38791E-03 6.35627E-01 1.09850E-13-4.53115E-13
 -1       477 1.98484E+01 2.93817E+00-5.93682E-03 9.48030E-01 2.11014E-13-4.14280E-13
 -1       478 2.00016E+01 2.64724E+00-6.51463E-03 1.24204E+00 2.78310E-13-3.46120E-13
 -1       479 2.02384E+01 2.19548E+00-5.69337E-03 1.48763E+00 3.29430E-13-2.75403E-13
 -1       480 2.35794E+01-5.44705E+00 1.78879E-02 4.57085E+00-2.10915E-13-2.99247E-13
 -1       481 2.01152E+01 4.62350E-01 5.10812E-03 4.44816E-01 2.56174E-13-6.51110E-14
 -1       482 2.03458E+01 9.80817E-01 2.80241E-03-9.23700E-01-2.88068E-13-5.05894E-14
 -1       483 2.97851E+01 8.65160E-01-1.31260E-01-1.67243E+00 1.69587E-13-5.97855E-13
 -1       484 2.01804E+01 5.58798E-01 2.37292E-03-4.43252E-01-2.20811E-13-3.55881E-14
 -1       485 2.00424E+01 3.23909E-01 1.16145E-03-1.29722E-01-1.70960E-13-5.35831E-14
 -1       486 1.99549E+01 1.90730E-01 5.34901E-04 6.93599E-02-1.52991E-13-5.68417E-14
 -1       487 1.99142E+01 1.15714E-01 2.55364E-04 1.96364E-01-1.13497E-13-5.50145E-14
 -1       488 1.99111E+01 7.70878E-02 1.50325E-04 2.80597E-01-9.46124E-14-3.84844E-14
 -1       489 1.99370E+01 6.28919E-02 1.22888E-04 3.42542E-01-1.38746E-13-8.29911E-14
 -1       490 1.99858E+01 6.59701E-02 1.37547E-04 3.96832E-01-1.77511E-13-1.59873E-14
 -1       491 2.00540E+01 8.15374E-02 1.79712E-04 4.54075E-01-1.29792E-13 1.80595E-14
 -1       492 2.01398E+01 1.05819E-01 2.39844E-04 5.21868E-01-9.36598E-15 3.00702E-14
 -1       493 2.02434E+01 1.35052E-01 3.07668E-04 6.05205E-01 5.59317E-14-3.55418E-14
 -1       494 2.03661E+01 1.64499E-01 3.68899E-04 7.06354E-01 1.18509E-14-1.67833E-13
 -1       495 2.05107E+01 1.87268E-01 4.01882E-04 8.24190E-01-3.36101E-14-1.84263E-13
 -1       496 2.06817E+01 1.92847E-01 3.73595E-04 9.52879E-01-4.37765E-14-1.51176E-13
 -1       497 2.08865E+01 1.65488E-01 2.36210E-04 1.07984E+00-7.80139E-14-1.48378E-13
 -1       498 2.11368E+01 8.30772E-02-7.12888E-05 1.18288E+00 3.34287E-14-1.70601E-13
 -1       499 2.14507E+01-8.16615E-02-6.09589E-04 1.22670E+00 3.92688E-14-1.18743E-13
 -1       500 2.18522E+01-3.53763E-01-1.44043E-03 1.15966E+00 4.48323E-14-4.80337E-15
 -1       501 2.23646E+01-7.35768E-01-2.37679E-03 9.14168E-01 9.19782E-14-8.56882E-14
 -1       502 2.29898E+01-1.16865E+00-3.15608E-03 4.17126E-01 2.63194E-13 2.20232E-14
 -1       503 2.36593E+01-1.47077E+00-3.41946E-03-3.67183E-01 2.47654E-13 1.29817E-13
 -1       504 2.41972E+01-1.33044E+00-4.82189E-03-1.33716E+00 5.55604E-14 1.83597E-13
 -1       505 2.43653E+01-4.41143E-01-6.33128E-03-2.12611E+00 8.28066E-14 2.97906E-13
 -1       506 2.40480E+01 1.12482E+00-1.90447E-02-2.14235E+00-9.92010E-14 8.26982E-14
 -1       507 2.36145E+01 2.48596E+00-2.67796E-02-1.00199E+00-2.94634E-13-9.82385E-14
 -1       508 2.35752E+01 2.59208E+00-2.88646E-02 7.76545E-01-4.02066E-13-3.21136E-13
 -1       509 2.39883E+01 1.34192E+00-2.29183E-02 2.05474E+00-1.22050E-13-4.22497E-13
 -1       510 2.43424E+01-2.47622E-01-1.14185E-02 2.19261E+00-9.60182E-14-1.00205E-13
 -1       511 2.42556E+01-1.26115E+00-4.67575E-03 1.47003E+00-6.97658E-14-1.43389E-14
 -1       512 2.37482E+01-1.48126E+00-3.67363E-03 4.99096E-01-1.47476E-13-9.81599E-14
 -1       513 2.30881E+01-1.21650E+00-2.92631E-03-3.16271E-01-1.66221E-13-2.53918E-13
 -1       514 2.24548E+01-7.86352E-01-2.37424E-03-8.47584E-01-3.37008E-14-1.21772E-13
 -1       515 2.19303E+01-3.89531E-01-1.50780E-03-1.11729E+00 1.71111E-14 5.92429E-14
 -1       516 2.15205E+01-9.89713E-02-6.90521E-04-1.19650E+00 7.84562E-14 2.32220E-13
 -1       517 2.12035E+01 8.23499E-02-9.77501E-05-1.15459E+00 1.81195E-13 2.62612E-14
 -1       518 2.09547E+01 1.77997E-01 2.54396E-04-1.04528E+00-1.77139E-13-1.69229E-13
 -1       519 2.07555E+01 2.15529E-01 4.21873E-04-9.05722E-01 6.09948E-14-2.50665E-13
 -1       520 2.05934E+01 2.17766E-01 4.73338E-04-7.59573E-01 9.00035E-14-1.46851E-14
 -1       521 2.04605E+01 2.01000E-01 4.58617E-04-6.20648E-01-1.41421E-13 2.04225E-13
 -1       522 2.03517E+01 1.75909E-01 4.11689E-04-4.96002E-01-1.56819E-13 2.00522E-13
 -1       523 2.02631E+01 1.49105E-01 3.55427E-04-3.88270E-01 3.33574E-13 3.97142E-13
 -1       524 2.01915E+01 1.24500E-01 3.03685E-04-2.97318E-01 2.92701E-13 4.22035E-13
 -1       525 2.01341E+01 1.04103E-01 2.56126E-04-2.21418E-01 2.78179E-13 3.31610E-13
 -1       526 2.00884E+01 8.87071E-02 2.45322E-04-1.58118E-01 9.79248E-14 4.10787E-13
 -1       527 1.98379E+01 1.48726E-01 1.09518E-03-6.35900E-02 1.35463E-13-1.24473E-13
 -1       528 1.98002E+01 8.72809E-02 5.03772E-04-1.82626E-01 1.00542E-13-1.47192E-13
 -1       529 1.98091E+01 5.55474E-02 2.73391E-04-2.58714E-01 1.18345E-13-1.50958E-13
 -1       530 1.98524E+01 4.31662E-02 1.97479E-04-3.12488E-01 1.08933E-13-1.88111E-13
 -1       531 1.99221E+01 4.42352E-02 1.99497E-04-3.58186E-01 7.69397E-14-1.09116E-13
 -1       532 2.00141E+01 5.49610E-02 2.49307E-04-4.05944E-01 8.14260E-14-1.75436E-13
 -1       533 2.01268E+01 7.24625E-02 3.29107E-04-4.62968E-01 9.98967E-14-2.00392E-13
 -1       534 2.02607E+01 9.39691E-02 4.21490E-04-5.34001E-01 4.44360E-14-2.17522E-13
 -1       535 2.04178E+01 1.16063E-01 5.04202E-04-6.21238E-01 3.72586E-14-2.16876E-13
 -1       536 2.06012E+01 1.33789E-01 5.45599E-04-7.23662E-01 1.87943E-14-2.75231E-13
 -1       537 2.08146E+01 1.39563E-01 5.00035E-04-8.35728E-01 5.98045E-14-1.20874E-13
 -1       538 2.10624E+01 1.21971E-01 3.05033E-04-9.45327E-01 7.85450E-14-5.06724E-14
 -1       539 2.13502E+01 6.48761E-02-1.15010E-04-1.03103E+00 3.61848E-14 5.68683E-14
 -1       540 2.16847E+01-5.18006E-02-8.25949E-04-1.05903E+00 2.65404E-14 6.69798E-14
 -1       541 2.20727E+01-2.46804E-01-1.83196E-03-9.81140E-01-6.01963E-15 4.08103E-14
 -1       542 2.25161E+01-5.23078E-01-2.99228E-03-7.37421E-01-3.93215E-14 9.20852E-14
 -1       543 2.29969E+01-8.39409E-01-3.95458E-03-2.70446E-01-1.31266E-13-2.94489E-14
 -1       544 2.34509E+01-1.07098E+00-3.89332E-03 4.34266E-01-8.43407E-14 1.08709E-13
 -1       545 2.37497E+01-1.00424E+00-2.92398E-03 1.27404E+00-1.18208E-13 1.97272E-13
 -1       546 2.37425E+01-4.27432E-01-1.91167E-03 1.95027E+00-4.78116E-14 1.31762E-13
 -1       547 2.33757E+01 6.45394E-01-8.50762E-03 2.00819E+00-3.23114E-14 4.52852E-14
 -1       548 2.29220E+01 1.68792E+00-1.15402E-02 1.13904E+00-7.81007E-14-7.70688E-14
 -1       549 2.27878E+01 1.97625E+00-1.03789E-02-3.56431E-01 4.09100E-14-2.19840E-13
 -1       550 2.31118E+01 1.27417E+00-7.28900E-03-1.64557E+00 1.14403E-13-3.17962E-13
 -1       551 2.35805E+01 1.19920E-01-3.67369E-03-2.08911E+00 5.32740E-14-1.85801E-13
 -1       552 2.37946E+01-7.59383E-01-3.10147E-03-1.69643E+00 2.62874E-13-1.45225E-13
 -1       553 2.36497E+01-1.08769E+00-4.86403E-03-8.95639E-01 4.12445E-14-8.83210E-14
 -1       554 2.32634E+01-9.87207E-01-4.91655E-03-9.54617E-02-1.85973E-14 1.26389E-13
 -1       555 2.27884E+01-6.91901E-01-3.92289E-03 5.00975E-01 1.52222E-13 1.57164E-13
 -1       556 2.23253E+01-3.82058E-01-2.65438E-03 8.55219E-01 1.57358E-13 1.32345E-13
 -1       557 2.19131E+01-1.38657E-01-1.41035E-03 1.00900E+00 1.76592E-13 3.16821E-13
 -1       558 2.15588E+01 2.17012E-02-4.04801E-04 1.02330E+00 7.98802E-14 2.76180E-13
 -1       559 2.12576E+01 1.11640E-01 2.42541E-04 9.53362E-01-1.27747E-13 1.95057E-13
 -1       560 2.10027E+01 1.51636E-01 5.90344E-04 8.40572E-01-2.43997E-13 2.68949E-13
 -1       561 2.07883E+01 1.60257E-01 7.28805E-04 7.12609E-01-3.37033E-13 2.23373E-13
 -1       562 2.06094E+01 1.51334E-01 7.39177E-04 5.86259E-01-1.65488E-13 2.73433E-13
 -1       563 2.04621E+01 1.34143E-01 6.82044E-04 4.70556E-01 4.69969E-14 8.92690E-14
 -1       564 2.03423E+01 1.14500E-01 5.95733E-04 3.69389E-01 5.10322E-15-6.66098E-14
 -1       565 2.02464E+01 9.58897E-02 5.03587E-04 2.83405E-01 6.55271E-14 1.97945E-13
 -1       566 2.01706E+01 8.02777E-02 4.41965E-04 2.11384E-01 2.52715E-13 4.36546E-13
 -1       567 2.01116E+01 6.86270E-02 4.55150E-04 1.51234E-01 9.49603E-14 4.11078E-13
 -1       568 2.00656E+01 5.98686E-02 3.85617E-04 1.00243E-01-5.21452E-14 4.25347E-13
 -1       569 1.99707E+01 2.23541E-01-5.73775E-05 1.30716E-01 3.40201E-13-8.20351E-13
 -1       570 1.99448E+01 2.62735E-01-1.01653E-04 9.91637E-02 1.92491E-13 2.13322E-13
 -1       571 2.00335E+01 1.22701E-01 5.94924E-06 1.34862E-01-1.54468E-13 4.60705E-13
 -1       572 2.00019E+01 1.75215E-01-1.45881E-05 1.43150E-01 9.57321E-14-3.92383E-13
 -1       573 1.99280E+01 2.88106E-01-1.36249E-04 5.32399E-02 1.84734E-14-2.90275E-13
 -1       574 1.99221E+01 2.96847E-01-1.48894E-04-3.44126E-04-2.50744E-13 1.04020E-13
 -1       575 1.99281E+01 2.87959E-01-1.34785E-04-5.38958E-02-3.54663E-13 1.38792E-13
 -1       576 1.99447E+01 2.63025E-01-9.88245E-05-9.90514E-02-1.64747E-14-5.23970E-13
 -1       577 1.99706E+01 2.23851E-01-6.81146E-05-1.30711E-01 8.96089E-14 1.50656E-13
 -1       578 2.00016E+01 1.75157E-01-4.70374E-05-1.43252E-01-6.51385E-14 3.73189E-13
 -1       579 2.00335E+01 1.22595E-01 1.12182E-04-1.34546E-01-3.15160E-13-2.27717E-13
 -1       580 4.95029E+00-1.55213E+00 1.68968E-01 2.23734E+00 2.14481E-14 6.10220E-13
 -1       581 1.72199E+01-5.07860E+00 1.00063E-01 6.68198E+00-5.15143E-13 4.05787E-14
 -1       582 1.99382E+01 2.59877E-01 2.49557E-03 1.29393E-01 1.95528E-13-8.43374E-14
 -1       583 5.05798E+00-1.37690E+00 1.86908E-01-1.88873E+00 2.61399E-13 5.83297E-13
 -1       584 9.18177E+00-3.25994E+00 1.32419E-01 5.94342E+00-5.12798E-13 2.19054E-13
 -1       585 2.03968E+01 1.76034E+00-5.96832E-03-1.52468E+00-3.70448E-13-1.04874E-13
 -1       586 1.06158E+01-3.39144E+00 1.38528E-01-6.19547E+00 2.95562E-13 6.42819E-13
 -1       587 2.70381E+01-4.07574E+00-2.48648E-02 2.47003E+00 9.52016E-14-8.16361E-14
 -1       588 5.01384E+00-1.11075E+00 1.81005E-01-9.41308E-01 1.68116E-13-6.32841E-13
 -1       589 2.98451E+01 7.12954E+00-1.75796E-01 1.35037E-02 5.79620E-13-4.40779E-13
 -1       590 1.96936E+01 3.22557E+00-5.07217E-03-3.07409E-01-7.00631E-14-4.49641E-13
 -1       591 2.97908E+01 4.93168E+00-1.62365E-01 1.87525E+00 6.36741E-13-3.75186E-14
 -1       592 2.96834E+01 5.42821E+00-1.60385E-01-1.73812E+00 3.61933E-13-6.80990E-13
 -1       593 2.29203E+01-5.43386E+00 4.00273E-03-4.87108E+00-1.34268E-13-1.27336E-13
 -1       594 2.96761E+01 5.65073E-02-1.22940E-01 1.34967E+00 2.78243E-13-1.38431E-14
 -1       595 2.02880E+01-5.32881E+00 4.39605E-02 5.80956E+00 2.79297E-13-4.51993E-13
 -1       596 2.80966E+01-3.55089E+00-4.27714E-02-1.29019E+00 8.82957E-14 1.11210E-13
 -1       597 1.41473E+01-4.49845E+00 8.94998E-02-6.75828E+00-1.79010E-13-5.24386E-13
 -1       598 9.09290E+00-2.56178E+00 1.70772E-01-5.47440E+00-6.48925E-14-6.14425E-13
 -1       599 5.91487E+00-2.04981E+00 1.49612E-01 3.67695E+00 1.32252E-13-2.69923E-13
 -1       600 3.03741E+01 7.13299E+00-1.70236E-01-3.10773E-01-7.04201E-13 4.26432E-13
 -1       601 1.14294E+01-3.28430E+00 1.48279E-01 6.20893E+00 2.43472E-13-1.49811E-13
 -1       602 2.97551E+01-1.20573E+00-9.50309E-02 6.62466E-02-8.52964E-14 3.59643E-14
 -1       603 3.06660E+01 6.33011E+00-1.56916E-01 1.26247E+00-6.61970E-13 2.14297E-13
 -1       604 3.06052E+01 2.59610E+00-1.24588E-01 1.72492E+00-5.14325E-13-1.52940E-13
 -1       605 2.92079E+01-2.29211E+00-7.15595E-02-4.03904E-01-2.05344E-13-2.70048E-13
 -1       606 2.50207E+01-5.17702E+00 1.17097E-02-4.03118E+00-5.68087E-14-1.21493E-13
 -1       607 1.69567E+01-5.17878E+00 6.98597E-02-6.69837E+00 2.58522E-13 3.33539E-13
 -1       608 2.80305E+01-3.57063E+00-6.10457E-02 9.23319E-01 2.38178E-14-6.92980E-13
 -1       609 2.05760E+01 1.30711E+00-9.80992E-04 1.53856E+00 3.64491E-13-2.88448E-14
 -1       610 1.99832E+01 2.66268E+00-9.78374E-03-1.22437E+00-2.82402E-13-3.21061E-13
 -1       611 9.41245E+00-1.26332E+00 1.44855E-01-4.29284E+00 1.45016E-13 6.33153E-13
 -1       612 2.91646E+01 9.64317E-01-8.71350E-02-2.14148E+00-1.94997E-13 7.88397E-14
 -1       613 1.72258E+01-4.02318E+00 9.56188E-02 5.93300E+00 2.93272E-13-3.09582E-13
 -1       614 2.42929E+01-5.24438E+00-4.06364E-03 3.47307E+00 2.31926E-13-8.45331E-14
 -1       615 1.99728E+01-4.99156E+00 5.90946E-02-5.64296E+00-3.21930E-13-1.08160E-13
 -1       616 2.88341E+01 5.52828E+00-1.67025E-01-1.52516E+00-7.59962E-13 2.25278E-13
 -1       617 2.00627E+01 7.98013E-02 2.52374E-04-1.20113E-01-4.21934E-14 4.48459E-13
 -1       618 1.99682E+01 2.48787E+00-1.58775E-03 3.82590E-01 6.87275E-14-3.85468E-13
 -1       619 1.99353E+01 2.56585E+00-1.51422E-03 1.31656E-01 1.61692E-14-4.53144E-13
 -1       620 2.01305E+01 2.07139E+00-1.61636E-03 8.29977E-01 2.23267E-13-3.19113E-13
 -1       621 2.02479E+01 1.69290E+00-2.23262E-03 9.71564E-01 2.60427E-13-2.76008E-13
 -1       622 2.73694E+01 1.68005E+00-1.03572E-01 2.49972E+00 2.57960E-13 2.53075E-13
 -1       623 2.03259E+01 1.04968E+00 2.90602E-03 8.10691E-01 2.73332E-13-2.18233E-13
 -1       624 1.58339E+01-3.38364E+00 1.08001E-01-5.90443E+00 3.18117E-13 2.49838E-13
 -1       625 2.72951E+01-1.53103E+00-6.12660E-02-1.53287E+00 5.14987E-14-4.85155E-13
 -1       626 2.02532E+01 7.03064E-01 5.95962E-04-3.58036E-01-1.98590E-13-1.32681E-13
 -1       627 2.01870E+01 4.32566E-01 2.22197E-04-8.64077E-02-1.66409E-13-1.22364E-13
 -1       628 2.01293E+01 2.69394E-01 8.99196E-05 9.92108E-02-1.15627E-13-7.13344E-14
 -1       629 2.00889E+01 1.75516E-01 4.02037E-05 2.26260E-01-9.96350E-14-9.64818E-14
 -1       630 2.00661E+01 1.28976E-01 2.93043E-05 3.17328E-01-1.24846E-13-1.01891E-13
 -1       631 2.00587E+01 1.16053E-01 3.28317E-05 3.90128E-01-9.21492E-14-4.46312E-14
 -1       632 2.00639E+01 1.27580E-01 4.47719E-05 4.58211E-01-8.36427E-14 2.04633E-15
 -1       633 2.00794E+01 1.56763E-01 6.31998E-05 5.31755E-01-5.53669E-14 5.61325E-14
 -1       634 2.01035E+01 1.97660E-01 8.64203E-05 6.18132E-01-1.07214E-13-4.38360E-14
 -1       635 2.01357E+01 2.43841E-01 1.11691E-04 7.22153E-01-7.17711E-14-1.49868E-13
 -1       636 2.01769E+01 2.86920E-01 1.34781E-04 8.45962E-01-5.23920E-14-1.84876E-13
 -1       637 2.02306E+01 3.14783E-01 1.48643E-04 9.88566E-01-5.14219E-14-2.27211E-13
 -1       638 2.03046E+01 3.09454E-01 1.41262E-04 1.14492E+00-7.50208E-14-2.22440E-13
 -1       639 2.04145E+01 2.44869E-01 9.28867E-05 1.30437E+00-6.61772E-14-1.70572E-13
 -1       640 2.05881E+01 8.55985E-02-2.01621E-05 1.44802E+00 6.70858E-14-1.11016E-13
 -1       641 2.08705E+01-2.10568E-01-2.14273E-04 1.54394E+00 1.36288E-13-7.93441E-14
 -1       642 2.13267E+01-6.79960E-01-6.60903E-04 1.53885E+00 6.35992E-14 2.65167E-14
 -1       643 2.20305E+01-1.31758E+00-8.31615E-04 1.34915E+00 1.69056E-13 1.39892E-14
 -1       644 2.30373E+01-2.01747E+00-1.02260E-03 8.45934E-01 2.73710E-13-9.36207E-14
 -1       645 2.42589E+01-2.41663E+00-2.38837E-03-8.66883E-02 2.51650E-13-8.08511E-15
 -1       646 2.53949E+01-1.91723E+00-1.33137E-02-1.41762E+00 8.10966E-14 8.51385E-14
 -1       647 2.57556E+01 5.35724E-02-7.10259E-02-2.47950E+00-8.14470E-14 2.30089E-13
 -1       648 2.55916E+01 2.90986E+00-8.10737E-02-2.10248E+00-4.02019E-13 4.07452E-14
 -1       649 2.53276E+01 4.48489E+00-9.59261E-02-1.58131E-01-5.36578E-13-3.58242E-13
 -1       650 2.55300E+01 3.26209E+00-8.46177E-02 1.92298E+00-3.37466E-13-4.05131E-13
 -1       651 2.57802E+01 4.22679E-01-5.67823E-02 2.48926E+00-3.26007E-14-4.93526E-13
 -1       652 2.54759E+01-1.72519E+00-2.13875E-02 1.62663E+00 1.11474E-13-4.27639E-13
 -1       653 2.44278E+01-2.40218E+00-2.69944E-03 2.66179E-01-1.88606E-14 2.32570E-14
 -1       654 2.31997E+01-2.08929E+00 2.20702E-04-7.36536E-01-2.70759E-14 1.74638E-13
 -1       655 2.21563E+01-1.40365E+00-3.60220E-04-1.28704E+00-1.85724E-13 3.98185E-13
 -1       656 2.14134E+01-7.43259E-01-4.89032E-04-1.50599E+00 4.81718E-14 5.00531E-13
 -1       657 2.09296E+01-2.44966E-01-3.02883E-04-1.52254E+00-4.40874E-14 2.72670E-13
 -1       658 2.06301E+01 7.77309E-02-5.85353E-05-1.42700E+00-9.47958E-14 4.91260E-14
 -1       659 2.04475E+01 2.58464E-01 9.83352E-05-1.27591E+00-3.04333E-15-4.28996E-14
 -1       660 2.03338E+01 3.39649E-01 1.56946E-04-1.10328E+00-1.17500E-13 1.10327E-13
 -1       661 2.02591E+01 3.57710E-01 1.70893E-04-9.29359E-01-1.97108E-14-1.25631E-13
 -1       662 2.02060E+01 3.39526E-01 1.61820E-04-7.65865E-01-3.87779E-14-2.10254E-13
 -1       663 2.01653E+01 3.03343E-01 1.42644E-04-6.19006E-01-3.29975E-14-1.32357E-13
 -1       664 2.01323E+01 2.60873E-01 1.20420E-04-4.91323E-01 2.74338E-13 1.90327E-13
 -1       665 2.01045E+01 2.19287E-01 9.82450E-05-3.82937E-01 2.59660E-13 5.75976E-14
 -1       666 2.00807E+01 1.82719E-01 1.07232E-04-2.92347E-01 2.09549E-13 5.40048E-14
 -1       667 2.00595E+01 1.53005E-01 8.24982E-05-2.17328E-01 1.28689E-13-8.56714E-14
 -1       668 2.00186E+01 1.47033E-01 1.12957E-04-2.15912E-01 1.23588E-13-1.43527E-13
 -1       669 2.82403E+01-5.92999E-01-8.00300E-02 1.83712E+00-1.16305E-13-2.33386E-13
 -1       670 2.00580E+01 2.32542E-01 2.13776E-04-8.85136E-02 1.22936E-13-1.25559E-13
 -1       671 2.00137E+01 8.97696E-02 6.86754E-05-3.72790E-01 8.81358E-14-1.33984E-13
 -1       672 2.00394E+01 9.68657E-02 8.02608E-05-4.35162E-01 1.09965E-13-1.73439E-13
 -1       673 2.00797E+01 1.19096E-01 1.04976E-04-5.01863E-01 9.65678E-14-1.32845E-13
 -1       674 2.01333E+01 1.51444E-01 1.38656E-04-5.80288E-01 6.49982E-14-1.41244E-13
 -1       675 2.01998E+01 1.88632E-01 1.74904E-04-6.75155E-01 7.11272E-14-8.45345E-14
 -1       676 2.02803E+01 2.23834E-01 2.05202E-04-7.88346E-01 2.53355E-14-2.52217E-14
 -1       677 2.03783E+01 2.47173E-01 2.17807E-04-9.18244E-01-6.24241E-14 2.53018E-14
 -1       678 2.04999E+01 2.43980E-01 1.94805E-04-1.05853E+00 1.58030E-14-2.42483E-14
 -1       679 2.06572E+01 1.92999E-01 1.08619E-04-1.19633E+00-1.86553E-14 6.69261E-14
 -1       680 2.08704E+01 6.54801E-02-8.18453E-05-1.30950E+00-1.30859E-14 1.12262E-13
 -1       681 2.11712E+01-1.72331E-01-4.15253E-04-1.36268E+00 5.74193E-14 1.06269E-13
 -1       682 2.16031E+01-5.48077E-01-8.97065E-04-1.30228E+00-5.65578E-14 7.35877E-14
 -1       683 2.22107E+01-1.05488E+00-1.59828E-03-1.05308E+00-9.88928E-14 1.81999E-14
 -1       684 2.30123E+01-1.59928E+00-2.35607E-03-5.23128E-01-1.53755E-13 1.04693E-13
 -1       685 2.39234E+01-1.91309E+00-1.94813E-03 3.45442E-01-1.05089E-13 1.69795E-13
 -1       686 2.46941E+01-1.57316E+00-1.56064E-03 1.46567E+00-1.31896E-13 3.44852E-13
 -1       687 2.48828E+01-1.31845E-01-2.99697E-02 2.31531E+00 4.54688E-14 3.29769E-13
 -1       688 2.45761E+01 1.99635E+00-4.60834E-02 2.11080E+00 1.02753E-13 1.69801E-13
 -1       689 2.42263E+01 3.45780E+00-5.67008E-02 5.60668E-01 1.88898E-13 3.08720E-14
 -1       690 2.43482E+01 3.02046E+00-6.21902E-02-1.41865E+00 2.66672E-13-1.33405E-13
 -1       691 2.48013E+01 1.03395E+00-4.97857E-02-2.40588E+00 6.67478E-14-2.55338E-13
 -1       692 2.49171E+01-8.94023E-01-1.59184E-02-2.01950E+00 6.59910E-14-2.21513E-13
 -1       693 2.43865E+01-1.83429E+00-6.34692E-03-9.53746E-01 4.32074E-14-6.52868E-14
 -1       694 2.35116E+01-1.81881E+00-3.42294E-03 7.81625E-02-1.10654E-13-3.26683E-14
 -1       695 2.26327E+01-1.34991E+00-1.69986E-03 7.93005E-01 1.45635E-14-5.15795E-14
 -1       696 2.19201E+01-7.99913E-01-1.21162E-03 1.17665E+00 1.87601E-13 9.41208E-14
 -1       697 2.14003E+01-3.44978E-01-8.00048E-04 1.32268E+00 8.22821E-14 2.43624E-13
 -1       698 2.10377E+01-3.01523E-02-3.02574E-04 1.31467E+00 1.11777E-13 9.78412E-14
 -1       699 2.07864E+01 1.57793E-01 7.64397E-06 1.21780E+00 2.96255E-14 3.87583E-13
 -1       700 2.06077E+01 2.51476E-01 1.70038E-04 1.07665E+00-8.82000E-14 3.42077E-13
 -1       701 2.04755E+01 2.82976E-01 2.38790E-04 9.19898E-01-2.87062E-13 2.87431E-13
 -1       702 2.03733E+01 2.77429E-01 2.53999E-04 7.65094E-01-7.70734E-14 3.62256E-14
 -1       703 2.02920E+01 2.52429E-01 2.39918E-04 6.22134E-01 1.88763E-13-2.92008E-14
 -1       704 2.02260E+01 2.19459E-01 2.14199E-04 4.95774E-01 1.01370E-13-1.18189E-13
 -1       705 2.01719E+01 1.85642E-01 1.80222E-04 3.87387E-01-1.19103E-13-2.37063E-13
 -1       706 2.01275E+01 1.55208E-01 1.58764E-04 2.96288E-01-5.56863E-14-2.52456E-13
 -1       707 2.00908E+01 1.30525E-01 2.08773E-04 2.20545E-01 7.16098E-14 2.43326E-13
 -1       708 2.00585E+01 1.26174E-01 1.51387E-04 1.75506E-01 1.06907E-15 3.62398E-13
 -1       709 1.98691E+01 3.35270E-01-5.27837E-05 3.51057E-02 8.57363E-14-9.60364E-14
 -1       710 2.00464E+01 1.36266E-01 6.26377E-05-1.73729E-01 6.56990E-14-2.05208E-13
 -1       711 1.99240E+01 2.78885E-01-3.40685E-05 1.53802E-01 7.79147E-14-4.25593E-13
 -1       712 1.98692E+01 3.35222E-01-4.91723E-05-3.58783E-02-5.21744E-14 5.56881E-14
 -1       713 1.98882E+01 3.15812E-01-4.35351E-05 1.01318E-01-4.68704E-14-1.27466E-14
 -1       714 2.10496E+01-4.68641E+00 5.29232E-02 4.81469E+00-2.53852E-13-2.39730E-14
 -1       715 1.98880E+01 3.16182E-01-3.38839E-05-1.00991E-01-1.43618E-13 6.23394E-14
 -1       716 1.99237E+01 2.79385E-01-4.58198E-05-1.53624E-01 7.83288E-14-2.36033E-13
 -1       717 1.99721E+01 2.28616E-01-5.78021E-05-1.84986E-01 2.37590E-13 3.11004E-13
 -1       718 1.49426E+01-3.01354E+00 1.03524E-01 5.80196E+00-3.67942E-13 3.43614E-13
 -1       719 2.01257E+01 3.83459E-01 6.03789E-04 1.02867E-01 1.73452E-13-1.34083E-13
 -1       720 7.62826E+00-1.47251E-02 1.57607E-01 2.38080E-01-5.37851E-15 4.29559E-13
 -1       721 2.02878E+01 1.69165E+00 8.18335E-05-1.12252E+00-2.98731E-13-1.78927E-13
 -1       722 2.72798E+01 5.76124E+00-1.61483E-01 7.09709E-01-6.29927E-13-4.15813E-14
 -1       723 9.08013E+00-4.84394E-01 1.37536E-01-3.01692E+00-8.13013E-14-4.55601E-13
 -1       724 2.54613E+01-4.66740E+00 8.07725E-04-2.18272E+00-2.26917E-13 1.15810E-13
 -1       725 2.00054E+01 1.03732E-01 7.54687E-05-3.04383E-01 1.19306E-13-1.15020E-13
 -1       726 2.03006E+01 1.09597E+00-1.52400E-04-6.97379E-01-2.32008E-13-1.71164E-13
 -1       727 2.02179E+01 6.35354E-01 1.03346E-03 3.89254E-01 2.32436E-13-1.89408E-13
 -1       728 2.74344E+01 1.99326E+00-9.63487E-02-2.51755E+00 2.02179E-13-4.37844E-13
 -1       729 2.78697E+01 3.66860E+00-1.36862E-01 2.23971E+00-4.12649E-13-2.22974E-13
 -1       730 2.51208E+01-4.60437E+00 1.10836E-03 2.33866E+00-2.19269E-14-5.52565E-13
 -1       731 2.00335E+01 2.32758E+00-1.65905E-03 6.20751E-01 1.40941E-13-3.58498E-13
 -1       732 2.00280E+01 2.33819E+00-1.56991E-03-6.12420E-01-1.37598E-13-3.19217E-13
 -1       733 2.72225E+01-2.34835E+00-5.28805E-02 1.03008E+00-4.47177E-14 1.58217E-13
 -1       734 2.64470E+01 5.14031E+00-1.40446E-01-9.75975E-01 3.40915E-13-3.29527E-13
 -1       735 1.40307E+01-2.88852E+00 9.79107E-02-5.77185E+00-2.32925E-13-2.99052E-13
 -1       736 7.80428E+00-2.33402E-01 1.48313E-01 1.67527E+00 2.01696E-13-3.54765E-13
 -1       737 1.06750E+01-1.27984E+00 1.37607E-01 4.43736E+00 1.63257E-13-1.08996E-13
 -1       738 2.78426E+01-3.10853E+00-5.04563E-02-2.16625E-02 1.16131E-13 1.71529E-14
 -1       739 2.66094E+01 5.04053E+00-1.37535E-01 1.23892E+00 3.77740E-13-1.30547E-13
 -1       740 9.70338E+00-9.63986E-01 1.43694E-01 4.01218E+00-2.53041E-13 1.94927E-13
 -1       741 2.68007E+01-4.17068E+00-2.96417E-02-1.14646E+00 1.64510E-13-2.76654E-13
 -1       742 2.21148E+01-5.12636E+00 3.85943E-02-4.67023E+00 2.89022E-13-1.73243E-13
 -1       743 2.01295E+01 2.08872E+00-1.17816E-03-8.33909E-01-2.24610E-13-2.92917E-13
 -1       744 1.99343E+01 2.56758E+00-1.50170E-03-1.22568E-01-2.50182E-14-4.13564E-13
 -1       745 9.94467E+00 1.11103E-01 1.04367E-01-2.15925E+00 4.99063E-14 5.65683E-13
 -1       746 2.60094E+01-3.20627E+00-2.27957E-03-1.71685E-01 5.08182E-14-5.35724E-13
 -1       747 1.99719E+01 2.28454E-01-8.25116E-05 1.85105E-01-4.51256E-14-5.81749E-13
 -1       748 2.00169E+01 1.78144E-01-9.09873E-06 1.89594E-01-4.00293E-14 5.26825E-14
 -1       749 1.49949E+01-2.24396E+00 8.12555E-02 5.10691E+00 2.00692E-13-2.15182E-13
 -1       750 2.77112E+01 3.09541E+00-1.36011E-01-2.28387E+00-5.41067E-13 2.39760E-13
 -1       751 2.11710E+01-4.58313E+00 3.89992E-02 4.59510E+00 4.26797E-13-2.90617E-13
 -1       752 9.80351E+00 4.49190E-01 1.10245E-01-6.96440E-01-2.28673E-14-4.41210E-13
 -1       753 1.26188E+01-9.94696E-01 8.46269E-02-4.21528E+00-1.61598E-13-3.64965E-13
 -1       754 1.99650E+01 2.49368E+00-1.55679E-03-3.72894E-01-7.32804E-14-3.56530E-13
 -1       755 2.00109E+01 1.93740E-01-1.62532E-05-2.07627E-01-9.93231E-14-2.72631E-13
 -1       756 2.02738E+01 1.33780E+00-7.42317E-04 6.00292E-01 1.90105E-13-2.64534E-13
 -1       757 2.02718E+01 5.02100E-01-1.86238E-05-2.65274E-02-9.97357E-14-1.50344E-13
 -1       758 2.02303E+01 3.28838E-01-6.13808E-06 1.31035E-01-1.32600E-13-1.50023E-13
 -1       759 2.01857E+01 2.29953E-01-4.24044E-06 2.45294E-01-1.42515E-13-1.58353E-13
 -1       760 2.01426E+01 1.85336E-01 4.63716E-07 3.33018E-01-6.98469E-14-1.61412E-13
 -1       761 2.01018E+01 1.80839E-01 5.12811E-06 4.08405E-01-2.63584E-14-1.09914E-13
 -1       762 2.00623E+01 2.06052E-01 1.03740E-05 4.82873E-01-6.59744E-14-7.26107E-14
 -1       763 2.00224E+01 2.52510E-01 1.68865E-05 5.65299E-01-1.34893E-13-6.77601E-14
 -1       764 1.99804E+01 3.12167E-01 2.52365E-05 6.62329E-01-1.13679E-13-2.20565E-14
 -1       765 1.99352E+01 3.75850E-01 3.60761E-05 7.78654E-01-7.17559E-14-8.22716E-14
 -1       766 1.98875E+01 4.31444E-01 4.94465E-05 9.17202E-01-1.26185E-13-1.01104E-13
 -1       767 1.98415E+01 4.61727E-01 6.45617E-05 1.07927E+00-1.04207E-13-8.13651E-14
 -1       768 1.98082E+01 4.41780E-01 7.70879E-05 1.26459E+00-7.33182E-15-3.70586E-14
 -1       769 1.98104E+01 3.36132E-01 8.12979E-05 1.47102E+00 4.54403E-14-6.08828E-14
 -1       770 1.98902E+01 9.66558E-02 1.09212E-04 1.69247E+00 1.55874E-13 8.33174E-15
 -1       771 2.01199E+01-3.35717E-01 3.09227E-04 1.91247E+00 1.61706E-13-1.49825E-14
 -1       772 2.06135E+01-1.01771E+00 2.14877E-04 2.08273E+00 1.06345E-13-1.56118E-14
 -1       773 2.15163E+01-1.95054E+00 2.05676E-03 2.10762E+00 1.47165E-13-2.70348E-14
 -1       774 2.30260E+01-3.00226E+00-6.13033E-03 1.71262E+00 2.69459E-13-1.27246E-13
 -1       775 2.50813E+01-3.52139E+00 4.70719E-03 7.08126E-01 2.04529E-13-6.69673E-14
 -1       776 2.52386E+01-3.46318E+00-1.36009E-02-5.84889E-01 2.73270E-13-3.50452E-13
 -1       777 2.32719E+01-3.12261E+00 1.42685E-03-1.65506E+00 2.92258E-14-2.59160E-13
 -1       778 2.16853E+01-2.07997E+00 4.36680E-03-2.07429E+00 9.03813E-14-1.85109E-13
 -1       779 2.07064E+01-1.11037E+00 1.27358E-03-2.08321E+00 1.24366E-13 2.72455E-13
 -1       780 2.01678E+01-3.89383E-01 1.70593E-04-1.91586E+00-2.03246E-13 2.92962E-13
 -1       781 1.99085E+01 7.98360E-02 6.58975E-06-1.69003E+00-1.94474E-13 3.24952E-13
 -1       782 1.98115E+01 3.48722E-01 1.06479E-04-1.45705E+00-1.21065E-13 1.56465E-13
 -1       783 1.97987E+01 4.77090E-01 9.77755E-05-1.23570E+00 1.81001E-14-3.71158E-14
 -1       784 1.98244E+01 5.14546E-01 8.04635E-05-1.03282E+00-1.02774E-13 3.47646E-13
 -1       785 1.98633E+01 4.97668E-01 6.19933E-05-8.51038E-01-5.15927E-15 2.00369E-13
 -1       786 1.99026E+01 4.51747E-01 4.49634E-05-6.91287E-01 5.87984E-15 1.05578E-13
 -1       787 1.99367E+01 3.93507E-01 3.20792E-05-5.53464E-01 3.26164E-13 2.50432E-13
 -1       788 1.99636E+01 3.33558E-01 2.33201E-05-4.36515E-01 2.02086E-13-8.25730E-15
 -1       789 1.99837E+01 2.78214E-01 1.75845E-05-3.39081E-01 1.11830E-13-1.07382E-13
 -1       790 2.00024E+01 2.31282E-01 4.23327E-05-2.68087E-01-6.26899E-14-1.07367E-13
 -1       791 2.00720E+01 1.67932E-01 2.10152E-05-4.77633E-01 1.04944E-13-9.21002E-14
 -1       792 2.00903E+01 1.49543E-01 1.50071E-05-4.05300E-01 9.59504E-14-7.22922E-14
 -1       793 2.00480E+01 2.55486E-01 4.58980E-05-6.49955E-01 8.76175E-15-1.05744E-13
 -1       794 2.00403E+01 3.09336E-01 6.09133E-05-7.61319E-01 3.76500E-15-6.35583E-14
 -1       795 2.00365E+01 3.56455E-01 7.52392E-05-8.93259E-01 5.98546E-15-8.38695E-14
 -1       796 2.00411E+01 3.81507E-01 8.89388E-05-1.04540E+00 5.67004E-14-2.21242E-13
 -1       797 2.00645E+01 3.62323E-01 9.78297E-05-1.21431E+00-3.58077E-14-1.38355E-13
 -1       798 2.01276E+01 2.67534E-01 9.08758E-05-1.39234E+00-4.96688E-14-1.53091E-13
 -1       799 2.02670E+01 5.53807E-02 3.45348E-05-1.56522E+00-9.46730E-14-3.50787E-14
 -1       800 2.05431E+01-3.23152E-01-5.87376E-05-1.70587E+00-5.77281E-14 7.82728E-14
 -1       801 2.10442E+01-9.09123E-01-3.70694E-05-1.76149E+00-4.94757E-14 9.88580E-14
 -1       802 2.18752E+01-1.68967E+00 5.78557E-05-1.62851E+00-1.47087E-13 8.40592E-14
 -1       803 2.31400E+01-2.52346E+00-8.88565E-03-1.11841E+00-1.71285E-13 5.93425E-14
 -1       804 2.46895E+01-2.91888E+00-4.07223E-03-1.01864E-01-1.94468E-13 1.96290E-13
 -1       805 2.25000E+01-2.13206E+00 1.46908E-03 1.41722E+00-1.70490E-13-4.13418E-13
 -1       806 2.14578E+01-1.30132E+00 1.40207E-03 1.70241E+00-9.65698E-14-1.78526E-13
 -1       807 2.07855E+01-5.97245E-01-4.61094E-04 1.72888E+00 1.35780E-13 5.67908E-14
 -1       808 2.03992E+01-1.03212E-01-1.52480E-04 1.61732E+00-1.17935E-14-4.59176E-14
 -1       809 2.01945E+01 1.99624E-01 2.91257E-05 1.44712E+00-1.48149E-13 3.04802E-13
 -1       810 2.00954E+01 3.59305E-01 9.16000E-05 1.25714E+00-7.61674E-14 3.10162E-13
 -1       811 2.00528E+01 4.22353E-01 9.72236E-05 1.06741E+00-1.51596E-13 3.16622E-13
 -1       812 2.00379E+01 4.25565E-01 8.96620E-05 8.88766E-01 5.25755E-14-9.85413E-14
 -1       813 2.00347E+01 3.95271E-01 7.82208E-05 7.26998E-01 7.53492E-14-4.85235E-13
 -1       814 2.00351E+01 3.49152E-01 6.60704E-05 5.84791E-01 7.68151E-14-4.07745E-13
 -1       815 2.00354E+01 2.98583E-01 5.57971E-05 4.62741E-01 3.90687E-14-1.83140E-13
 -1       816 2.00344E+01 2.50344E-01 3.03699E-05 3.59883E-01 5.31354E-14-2.98330E-13
 -1       817 2.00312E+01 2.08953E-01 3.53317E-05 2.74627E-01-1.66293E-13-2.26639E-13
 -1       818 2.00230E+01 1.92381E-01-9.25107E-05 2.29435E-01-2.47299E-13-2.53887E-14
 -1       819 2.01385E+01 1.94621E+00-3.16305E-04 1.87938E-01 3.92322E-14-3.88277E-13
 -1       820 1.97957E+01 3.94344E-01-1.75800E-05-4.00856E-04 1.51480E-13-1.26770E-14
 -1       821 1.99139E+01 2.97452E-01-4.25727E-05-2.20295E-01 6.19159E-14 5.29957E-14
 -1       822 1.98097E+01 3.83157E-01-2.22652E-06-8.74229E-02 7.12747E-14-3.30044E-14
 -1       823 2.70307E+01 5.35356E+00-1.44572E-01-9.98283E-01-6.38628E-13 2.24950E-14
 -1       824 2.02364E+01 4.69274E-01-4.38190E-05 4.89832E-02 1.28345E-13-1.43719E-13
 -1       825 1.98505E+01 3.49859E-01-2.90719E-05-1.64763E-01 5.83610E-14-3.60482E-14
 -1       826 1.37794E+01-1.18578E+00 8.30257E-02-4.38047E+00 2.34515E-13 2.99927E-13
 -1       827 2.00584E+01 2.05656E-01 3.11410E-05-5.56908E-01 5.10177E-14-9.32548E-14
 -1       828 2.01896E+01 3.00702E-01 2.84232E-05-1.20801E-01 1.33004E-13-1.12280E-13
 -1       829 2.23384E+01-4.14794E+00 3.33363E-02-3.45235E+00-3.30616E-13 1.97003E-14
 -1       830 1.83760E+01-2.95857E+00 5.70795E-02-4.72244E+00-2.62367E-13-9.19091E-14
 -1       831 2.02899E+01 9.72517E-01 5.51694E-04 5.24022E-01 2.11036E-13-2.29048E-13
 -1       832 2.02993E+01 7.80111E-01-2.92019E-05-2.44598E-01-1.40366E-13-1.98834E-13
 -1       833 2.31223E+01-3.98112E+00 9.17549E-03 2.69744E+00-1.49254E-13-2.75270E-13
 -1       834 2.43110E+01-4.25480E+00 1.09920E-02-2.17691E+00 2.24046E-13-2.01099E-13
 -1       835 1.11937E+01 4.62777E-01 7.53587E-02 1.77283E+00-2.44505E-14 2.68428E-13
 -1       836 1.09764E+01 4.78154E-02 9.75661E-02 2.58822E+00 1.50630E-13-2.33317E-13
 -1       837 1.87197E+01-2.99418E+00 3.80295E-02 4.57081E+00-2.35608E-13 2.40616E-13
 -1       838 1.38317E+01-1.08474E+00 6.38643E-02 4.26376E+00-1.26215E-13 1.30243E-13
 -1       839 2.01580E+01-3.64049E+00 2.81522E-02-4.32869E+00 6.38257E-14-1.74062E-14
 -1       840 2.01256E+01 1.98647E+00-3.38735E-04 3.13534E-03-4.63775E-15-4.02235E-13
 -1       841 1.18146E+01 8.52334E-01 4.82508E-02-1.39012E-01-6.47448E-14 2.45935E-13
 -1       842 2.02213E+01 1.63449E+00-9.67934E-04-5.00755E-01-1.66775E-13-2.42263E-13
 -1       843 1.99142E+01 2.97026E-01 6.72815E-05 2.20332E-01-1.59065E-13-4.33631E-13
 -1       844 2.02979E+01 1.15998E+00 2.30855E-04-5.02587E-01-2.08392E-13-2.19007E-13
 -1       845 2.01152E+01 1.58302E-01 1.30135E-05-3.30490E-01 1.01034E-13-4.00117E-14
 -1       846 2.39761E+01-2.84095E+00 6.73984E-03 6.85194E-01-2.93070E-14-5.29617E-13
 -1       847 2.01726E+01 1.82806E+00-5.22995E-04 3.59670E-01 8.64010E-14-3.21436E-13
 -1       848 1.98509E+01 3.49213E-01-1.96655E-05 1.64874E-01-1.49841E-13-8.45278E-14
 -1       849 1.83290E+01-3.14620E+00 5.64855E-02 4.73151E+00 2.58963E-13-1.61988E-13
 -1       850 2.02260E+01 1.62563E+00-1.50961E-04 5.07290E-01 1.17598E-13-2.70263E-13
 -1       851 1.76513E+01-1.95043E+00 2.92820E-02-4.10901E+00 2.71381E-13 2.42682E-13
 -1       852 1.98099E+01 3.82777E-01-1.91406E-05 8.79010E-02-8.71062E-15-5.81450E-14
 -1       853 2.01711E+01 1.83370E+00-3.24886E-04-3.53311E-01-7.48017E-14-2.85765E-13
 -1       854 1.17969E+01 2.32498E-01 6.26414E-02-2.33079E+00-1.26367E-13-4.18714E-13
 -1       855 1.99553E+01 2.67162E-01 2.91178E-04-2.48709E-01-9.65749E-14 2.41057E-13
 -1       856 2.01482E+01 2.04063E-01 1.24695E-05-2.40874E-01 9.05539E-14-1.02224E-13
 -1       857 1.38715E+01-7.55254E-01 5.53163E-02 3.82658E+00 1.81726E-13-8.35009E-14
 -1       858 2.02651E+01 6.76635E-01 1.14509E-04 2.51861E-01 1.52575E-13-1.83589E-13
 -1       859 2.02797E+01 3.67772E-01 3.03229E-06 1.51377E-01-1.15532E-13-1.60249E-13
 -1       860 2.02235E+01 2.76524E-01-5.34336E-06 2.45331E-01-1.13420E-13-8.26588E-14
 -1       861 2.01565E+01 2.43034E-01-4.10913E-06 3.22127E-01-4.67313E-14-1.23473E-13
 -1       862 2.00803E+01 2.53404E-01-1.91155E-06 3.92458E-01-2.40820E-14-1.41800E-13
 -1       863 1.99947E+01 2.96503E-01-5.15872E-07 4.65307E-01-8.48207E-14-1.11286E-13
 -1       864 1.98976E+01 3.62597E-01-5.21902E-07 5.47926E-01-1.50079E-13-6.67219E-14
 -1       865 1.97867E+01 4.41926E-01 1.34210E-06 6.46154E-01-1.47370E-13-1.05029E-13
 -1       866 1.96597E+01 5.23094E-01 5.85092E-06 7.64958E-01-6.25990E-14-2.18193E-14
 -1       867 1.95160E+01 5.91157E-01 1.39556E-05 9.09102E-01-5.80569E-14 3.75328E-14
 -1       868 1.93583E+01 6.25459E-01 2.15756E-05 1.08425E+00-6.26053E-14 7.79996E-14
 -1       869 1.91962E+01 5.96930E-01 1.35220E-05 1.29860E+00-4.53830E-14-3.66640E-15
 -1       870 1.90519E+01 4.64338E-01-2.47146E-05 1.56478E+00 3.03923E-14-5.42196E-14
 -1       871 1.89707E+01 1.70187E-01 1.72951E-04 1.89955E+00 1.89278E-13-1.29631E-13
 -1       872 1.90322E+01-3.60041E-01 5.58379E-04 2.32314E+00 1.37627E-13-1.20447E-13
 -1       873 1.94473E+01-1.23481E+00-2.68049E-03 2.79849E+00 1.29704E-13-1.34017E-13
 -1       874 2.04272E+01-2.45622E+00 2.44087E-02 3.29747E+00 1.40043E-13-2.21655E-13
 -1       875 1.41240E+01 1.59635E-01 2.67676E-02 2.68385E+00-1.57837E-13 1.01993E-13
 -1       876 2.03002E+01 5.17797E-01-6.49863E-05-9.04913E-03 1.20360E-13-1.82412E-13
 -1       877 2.05848E+01-2.66405E+00 1.64869E-02-3.29957E+00 1.40239E-13-1.55868E-13
 -1       878 1.95222E+01-1.37034E+00 1.94858E-03-2.88826E+00 3.94340E-13-4.86041E-14
 -1       879 1.90536E+01-4.34008E-01-9.08005E-04-2.36871E+00 4.47562E-14-8.74933E-14
 -1       880 1.89565E+01 1.47216E-01-2.88426E-04-1.92484E+00 1.18850E-14 2.19011E-13
 -1       881 1.90195E+01 4.76363E-01 1.09278E-04-1.57138E+00-2.79843E-13 3.05800E-13
 -1       882 1.91513E+01 6.36065E-01 7.90355E-05-1.28700E+00-2.16445E-13 4.29748E-13
 -1       883 1.93032E+01 6.85630E-01 6.21574E-05-1.05471E+00 1.22640E-13 1.15999E-13
 -1       884 1.94500E+01 6.67791E-01 4.28925E-05-8.61407E-01-2.46358E-14 1.15398E-13
 -1       885 1.95803E+01 6.12037E-01 1.97710E-05-6.98682E-01-1.31839E-13 2.55426E-13
 -1       886 1.96901E+01 5.38374E-01 6.01197E-06-5.61386E-01 2.39270E-13 1.43610E-13
 -1       887 1.97793E+01 4.60100E-01 3.08708E-05-4.46273E-01 2.70271E-13 4.19920E-15
 -1       888 1.98494E+01 3.85292E-01-7.62983E-05-3.49880E-01 1.62615E-13 4.51711E-14
 -1       889 2.00960E+01 2.19003E-01-4.32779E-06-4.05929E-01 8.75814E-14-7.45658E-14
 -1       890 1.95506E+01-1.35792E-01-5.17343E-04 1.94680E+00 6.08358E-14 3.82332E-13
 -1       891 1.97973E+01 4.49130E-01 2.61145E-05-7.82843E-01-2.33644E-14-4.85625E-14
 -1       892 1.98843E+01 3.78373E-01 1.05652E-05-6.63591E-01-3.04777E-15-8.09383E-14
 -1       893 1.96032E+01 5.33667E-01 5.82754E-05-1.09612E+00-2.10005E-14-5.65895E-14
 -1       894 1.95130E+01 4.99620E-01 8.86849E-05-1.29700E+00-5.52615E-14-6.28559E-14
 -1       895 1.94567E+01 3.66119E-01 1.20784E-04-1.53282E+00-1.21732E-13-3.64768E-14
 -1       896 1.94820E+01 7.97472E-02 9.99157E-05-1.80737E+00-9.80362E-14-7.25808E-14
 -1       897 1.96733E+01-4.26752E-01 3.32655E-04-2.11568E+00-8.76710E-14-4.65122E-14
 -1       898 2.01678E+01-1.22088E+00 1.59603E-03-2.42326E+00-9.27217E-14 5.40514E-14
 -1       899 2.12165E+01-2.31521E+00 3.92000E-03-2.60000E+00-1.02784E-13 2.38160E-14
 -1       900 2.06513E+01-1.78686E+00 2.80691E-03 2.54436E+00-3.68280E-13-3.73991E-13
 -1       901 1.94462E+01 2.68626E-01-9.31888E-06 1.64327E+00-1.80767E-13 3.15463E-13
 -1       902 1.94612E+01 4.86026E-01 8.93245E-05 1.37614E+00-1.25058E-13 1.05540E-13
 -1       903 1.95308E+01 5.77315E-01 6.49709E-05 1.14444E+00-1.08848E-13 7.68003E-14
 -1       904 1.96185E+01 5.88871E-01 3.60568E-05 9.43895E-01 2.80864E-13-2.85348E-13
 -1       905 1.97053E+01 5.53934E-01 2.09491E-05 7.70720E-01 1.95778E-13-2.53971E-13
 -1       906 1.97824E+01 4.95193E-01 1.46148E-05 6.22111E-01 6.46893E-14-2.76261E-13
 -1       907 1.98465E+01 4.27567E-01 4.31948E-06 4.95817E-01 1.16026E-15-2.72405E-13
 -1       908 1.98975E+01 3.60916E-01 4.86347E-05 3.90369E-01-4.70466E-14-2.53991E-13
 -1       909 1.99364E+01 3.00569E-01 4.86680E-05 3.02301E-01-1.04874E-13-1.12340E-13
 -1       910 1.98873E+01-7.99872E-01-2.24855E-03 2.26786E+00-1.89280E-13-2.19182E-13
 -1       911 1.99709E+01 2.45196E-01 6.78217E-05 2.33290E-01-2.89003E-13-4.33790E-13
 -1       912 1.97113E+01 4.61465E-01-3.69082E-05-5.56314E-02 8.66530E-14-1.34671E-13
 -1       913 1.70075E+01-1.22261E+00 1.85321E-02 3.73208E+00-2.60606E-13 3.01221E-13
 -1       914 1.32643E+01 3.02622E-01 4.31612E-02-2.47218E+00 2.56093E-13 7.34439E-14
 -1       915 1.97021E+01 5.07457E-01 3.88869E-05-9.25926E-01 8.00362E-14-1.64332E-14
 -1       916 2.03324E+01 8.02375E-01-7.97078E-05-1.36368E-01-8.86430E-14-1.69533E-13
 -1       917 2.01360E+01 1.94893E+00-6.26248E-04-1.81489E-01-4.39037E-14-3.57885E-13
 -1       918 1.22245E+01 8.13516E-01 4.30692E-02 6.40182E-01 4.85610E-14-2.56233E-13
 -1       919 1.60116E+01-1.06942E+00 3.00320E-02-3.76285E+00-1.92849E-13-6.07552E-14
 -1       920 2.09921E+01-2.65958E+00 6.87792E-03 3.02990E+00-2.11397E-13-1.91997E-13
 -1       921 2.03191E+01 5.35248E-01-4.20804E-05 2.82116E-02-1.02595E-13-1.91830E-13
 -1       922 1.36440E+01 8.40156E-01 2.01580E-02 1.30182E+00-2.06390E-13 1.95132E-13
 -1       923 1.64919E+01-1.68639E+00 3.69768E-02 4.23373E+00 1.95685E-13-1.76891E-13
 -1       924 1.97116E+01 4.61181E-01 4.51367E-06 5.65802E-02 1.90246E-13 2.83245E-15
 -1       925 2.03052E+01 1.16208E+00 2.35426E-04-3.10116E-01-1.35787E-13-1.80162E-13
 -1       926 2.03176E+01 7.91223E-01 1.42647E-04 1.79136E-01 9.81272E-14-1.96455E-13
 -1       927 2.01554E+01 2.15701E-01 2.51528E-06-3.32593E-01 8.81652E-14-1.32383E-13
 -1       928 2.00320E+01 2.53470E-01-1.49284E-06-4.80557E-01 9.03968E-14-2.91910E-14
 -1       929 1.99112E+01 3.21205E-01 7.12847E-05-2.97215E-01 1.80593E-13 1.04650E-13
 -1       930 1.30752E+01 8.92067E-01 2.99497E-02-7.54894E-01 4.04613E-14-1.84448E-13
 -1       931 1.99621E+01 3.09623E-01 2.45866E-06-5.64429E-01 1.01935E-13-6.26350E-14
 -1       932 2.02761E+01 1.41360E+00 2.38662E-05 1.73830E-01 6.47214E-14-3.25251E-13
 -1       933 1.97496E+01 4.34916E-01 1.83158E-05-1.60697E-01 1.16941E-13-3.47939E-14
 -1       934 2.03097E+01 1.05947E+00 5.64820E-05 3.29445E-01 1.03232E-13-2.10031E-13
 -1       935 1.60068E+01-4.19105E-01 1.26776E-02-3.19842E+00 3.02621E-13 3.50216E-13
 -1       936 1.98365E+01 3.72393E-01-8.43248E-05 2.52017E-01-2.08932E-15-5.25526E-13
 -1       937 2.02877E+01 1.34889E+00 1.66951E-03-2.34975E-01-8.78847E-14-2.15511E-13
 -1       938 1.86627E+01-1.32157E+00 9.13090E-03-3.21804E+00-8.05571E-14-1.07501E-13
 -1       939 2.02625E+01 1.48728E+00-8.71633E-06 6.12772E-02 3.37885E-14-3.70237E-13
 -1       940 1.48327E+01 1.79567E-02 3.16658E-02-2.84212E+00-1.20582E-13-1.89704E-13
 -1       941 2.02608E+01 3.48731E-01-3.07421E-05-1.47372E-01 7.50040E-14-1.44095E-13
 -1       942 1.35905E+01 4.64896E-01 3.30795E-02 2.09138E+00 4.50011E-14-1.42468E-13
 -1       943 1.98366E+01 3.72609E-01-4.86227E-05-2.48995E-01 8.19658E-14-1.11832E-13
 -1       944 2.02162E+01 3.14728E-01-6.38602E-06 2.18958E-01-4.32423E-14-1.41008E-13
 -1       945 2.01221E+01 2.99517E-01-4.46756E-06 2.79153E-01-1.78321E-14-1.38486E-13
 -1       946 2.00097E+01 3.29305E-01-4.18523E-06 3.37550E-01-2.90899E-14-9.97212E-14
 -1       947 1.98780E+01 3.92673E-01-1.16236E-05 4.00603E-01-8.53354E-14-6.55819E-14
 -1       948 1.97243E+01 4.79017E-01-2.77556E-05 4.73863E-01-1.16236E-13-3.72900E-14
 -1       949 1.95443E+01 5.77681E-01-3.99378E-05 5.62344E-01-5.79144E-14 7.56400E-14
 -1       950 1.93334E+01 6.75956E-01-5.45834E-05 6.71421E-01-4.67044E-14 1.80458E-15
 -1       951 1.90869E+01 7.57892E-01-7.02151E-05 8.07939E-01-3.14527E-14-5.98457E-14
 -1       952 1.88016E+01 8.02416E-01-1.15018E-04 9.82417E-01-9.93406E-14 1.42153E-14
 -1       953 1.84768E+01 7.81289E-01-2.19567E-04 1.21259E+00-5.74662E-14-7.16565E-14
 -1       954 1.81174E+01 6.54633E-01-6.16047E-04 1.52806E+00 1.02897E-13-5.84372E-14
 -1       955 1.77482E+01 3.58226E-01-1.23459E-03 1.97705E+00 1.56773E-13-1.13562E-13
 -1       956 1.74406E+01-1.72357E-01 1.56760E-03 2.63320E+00 4.85146E-14-2.02906E-13
 -1       957 2.03563E+01 7.78732E-01-4.90461E-04-5.70842E-02-1.11536E-13-2.18921E-13
 -1       958 2.03447E+01 7.88250E-01-1.86119E-04 8.26863E-02 9.67650E-14-2.32839E-13
 -1       959 1.83607E+01-4.37744E-02-9.03958E-04 2.23826E+00-4.82853E-13 3.93333E-13
 -1       960 1.74284E+01-2.62155E-01 1.47881E-02-2.70616E+00 1.85897E-13 2.41680E-13
 -1       961 1.76911E+01 3.40224E-01-1.60397E-03-2.03144E+00 8.58655E-14 2.07025E-13
 -1       962 1.80436E+01 6.68932E-01-1.28638E-04-1.55705E+00-1.29736E-13 1.25816E-13
 -1       963 1.83964E+01 8.24622E-01-5.47505E-05-1.21829E+00-9.68652E-14-7.31622E-14
 -1       964 1.87144E+01 8.67841E-01-2.35940E-05-9.69986E-01-6.24393E-14 1.42803E-14
 -1       965 1.89893E+01 8.41529E-01 5.18773E-06-7.79588E-01 9.23852E-14 9.46544E-14
 -1       966 1.92210E+01 7.73903E-01-1.85922E-05-6.27772E-01-4.15400E-15 2.10666E-13
 -1       967 1.94123E+01 6.85391E-01-2.62767E-05-5.03999E-01 1.68177E-15 3.20462E-13
 -1       968 1.95675E+01 5.89605E-01-2.25790E-05-4.02019E-01 2.98700E-14 1.73645E-13
 -1       969 1.96898E+01 4.97611E-01 3.57791E-05-3.17152E-01 1.80065E-13-8.58175E-14
 -1       970 2.03393E+01 5.36771E-01-7.21380E-05 6.20178E-02-8.04272E-14-2.17619E-13
 -1       971 1.88458E+01 6.65973E-01 2.51055E-05-1.28390E+00-8.79956E-14 2.01089E-15
 -1       972 1.90792E+01 7.02844E-01 6.28982E-06-1.05455E+00 1.21729E-14 3.76631E-14
 -1       973 1.84251E+01 2.00412E-01-1.63657E-04-1.98619E+00-1.10414E-13-7.44971E-14
 -1       974 1.83625E+01-3.76616E-01-2.41445E-05-2.52753E+00-9.56247E-14-1.53336E-13
 -1       975 1.65065E+01 1.45262E-02 7.85904E-03 2.59575E+00-4.80022E-13 1.08988E-13
 -1       976 1.89175E+01 7.51670E-01 6.26594E-05 1.12946E+00 1.47933E-13 1.03518E-13
 -1       977 1.84819E+01 4.10361E-01-5.27726E-04 1.76304E+00-6.50406E-15 5.64037E-13
 -1       978 1.91322E+01 7.62805E-01-2.64360E-05 9.13697E-01 1.51214E-13-8.61316E-15
 -1       979 1.93230E+01 7.20226E-01-5.02285E-05 7.39140E-01 2.41530E-13-8.24795E-14
 -1       980 1.94856E+01 6.48399E-01-3.88955E-05 5.95290E-01 2.00071E-13-1.15903E-13
 -1       981 1.96196E+01 5.64393E-01 3.15778E-06 4.75767E-01-2.49489E-14 2.44622E-13
 -1       982 1.97271E+01 4.79443E-01 1.59496E-05 3.76575E-01 8.97384E-14-7.48236E-14
 -1       983 1.97873E+01 4.23492E-01 1.89331E-04 3.09539E-01 2.70065E-14-3.37532E-13
 -1       984 1.85005E+01-9.95240E-01 1.01240E-02 2.98950E+00-3.68373E-13 1.86522E-13
 -1       985 2.03316E+01 1.03167E+00-1.16435E-03-1.36762E-01-9.15176E-14-2.02043E-13
 -1       986 2.02621E+01 1.48856E+00 2.30094E-04-5.73096E-02-2.19616E-14-3.44690E-13
 -1       987 1.86141E+01 5.18978E-01 7.46456E-05-1.58389E+00-1.17885E-13-9.19747E-14
 -1       988 1.39450E+01 9.79219E-01 1.81277E-02-9.19949E-01 1.13820E-13 1.15519E-13
 -1       989 1.96606E+01 5.12489E-01 1.18328E-06-6.13506E-01 1.65110E-14 3.05855E-15
 -1       990 2.02109E+01 2.54326E-01-1.25549E-06-2.50475E-01 5.66441E-14-1.16562E-13
 -1       991 2.03289E+01 1.03562E+00 5.90205E-04 1.87495E-01 1.10562E-13-2.33284E-13
 -1       992 2.02747E+01 1.39364E+00-2.72740E-04 2.83432E-01 7.16330E-14-2.78674E-13
 -1       993 1.86921E+01 6.50661E-01 1.33378E-04 1.40323E+00 4.00095E-15 3.62067E-13
 -1       994 2.02778E+01 1.43526E+00 1.29882E-03-1.53362E-01-5.33806E-14-3.24932E-13
 -1       995 2.02903E+01 3.88503E-01 2.68585E-05 1.49310E-01-8.58691E-14-1.91670E-13
 -1       996 1.97509E+01 4.33406E-01-7.79092E-05 1.62096E-01 5.49047E-15 3.71841E-13
 -1       997 1.57453E+01 6.64516E-01 8.49551E-03 1.81237E+00-3.09270E-13-2.45870E-13
 -1       998 1.95948E+01 5.47730E-01-7.26356E-05 8.60246E-04-2.54735E-14 5.25660E-14
 -1       999 1.55472E+01 5.79805E-01 5.78339E-03-1.97370E+00 1.65258E-13 1.29357E-14
 -1      1000 2.01410E+01 2.73194E-01 1.20368E-05-3.04986E-01 8.61108E-14-1.33291E-13
 -1      1001 1.41672E+01 1.01031E+00 1.57673E-02 6.42776E-01 2.20960E-14-2.02731E-13
 -1      1002 1.94912E+01 5.99797E-01 1.03046E-05-7.30330E-01 5.80493E-14-5.74966E-14
 -1      1003 2.00453E+01 2.94145E-01-2.21117E-05-3.69574E-01 6.49796E-14-1.42530E-13
 -1      1004 1.98076E+01 4.24102E-01-4.43797E-05-5.18282E-01 6.47738E-14 4.36321E-14
 -1      1005 2.03420E+01 1.07549E+00 2.93969E-04 5.82150E-02 3.07917E-14-3.22465E-13
 -1      1006 1.92968E+01 6.70661E-01-1.80294E-06-8.74377E-01-6.93534E-15-1.83138E-14
 -1      1007 2.03327E+01 5.34455E-01-2.27168E-05-5.26199E-02 6.67119E-14-2.23035E-13
 -1      1008 1.50832E+01-1.65138E-01 3.47947E-02 3.00204E+00 2.22530E-14-1.33893E-13
 -1      1009 1.96209E+01 5.31956E-01 6.35905E-05-1.36249E-01 1.07500E-13 6.85537E-15
 -1      1010 2.03351E+01 1.07495E+00 2.10881E-04 1.19505E-01 5.74417E-14-2.77810E-13
 -1      1011 2.00542E+01 3.52142E-01-2.35831E-06 2.00780E-01 2.01643E-14-1.60450E-13
 -1      1012 1.99075E+01 4.03180E-01-8.69333E-06 2.40927E-01-5.33555E-14-1.68118E-13
 -1      1013 1.97328E+01 4.87098E-01-2.37956E-05 2.86054E-01-7.51165E-14-1.13783E-13
 -1      1014 1.95266E+01 5.91894E-01-9.76074E-05 3.39400E-01-1.17897E-14-4.06129E-14
 -1      1015 1.92813E+01 7.07844E-01-1.67562E-04 4.05552E-01-1.27193E-13-1.33553E-13
 -1      1016 1.89889E+01 8.21364E-01-1.96621E-04 4.88677E-01-3.47509E-14-1.41089E-13
 -1      1017 1.86369E+01 9.17962E-01-2.94118E-04 5.96653E-01-4.22412E-14-1.22000E-13
 -1      1018 1.82114E+01 9.78758E-01-3.76182E-04 7.41864E-01-5.92183E-14-1.04886E-14
 -1      1019 1.76885E+01 9.82247E-01-7.84770E-04 9.48376E-01 4.16615E-14 8.97005E-14
 -1      1020 1.70311E+01 8.99282E-01-2.04561E-03 1.25994E+00 1.20924E-13 2.60014E-14
 -1      1021 1.62458E+01 6.74842E-01 9.32598E-03 1.72683E+00 7.07230E-14-1.09182E-13
 -1      1022 2.03393E+01 1.10685E+00 5.84029E-05 1.08958E-03-3.39040E-15-3.16594E-13
 -1      1023 1.99349E+01 3.47859E-01-4.25241E-05-4.38621E-01 6.20759E-14-5.22830E-14
 -1      1024 1.77937E+01 8.59223E-01-3.47575E-05 1.27063E+00-1.69317E-14 2.44627E-13
 -1      1025 1.69244E+01 9.18916E-01-1.42035E-03-1.28703E+00-1.16297E-13 6.60833E-14
 -1      1026 1.75755E+01 1.02885E+00-6.35879E-04-9.60826E-01-1.45290E-13-9.88847E-15
 -1      1027 1.80985E+01 1.04770E+00-2.02961E-04-7.40764E-01-1.59963E-13-7.57964E-14
 -1      1028 1.85182E+01 1.00399E+00-2.42005E-04-5.84727E-01 1.78293E-13-8.86943E-14
 -1      1029 1.88563E+01 9.23973E-01-2.33763E-04-4.65328E-01 2.42094E-13 9.50550E-14
 -1      1030 1.91305E+01 8.21315E-01-1.81542E-04-3.72227E-01 1.71149E-14 2.46385E-13
 -1      1031 1.93498E+01 7.11163E-01-2.76688E-04-2.97298E-01 4.10830E-14 1.80248E-13
 -1      1032 1.95237E+01 6.03857E-01-1.69446E-04-2.37431E-01-1.63966E-13-7.17195E-14
 -1      1033 1.84949E+01 8.83552E-01-1.97373E-04-8.93209E-01-5.84101E-14 1.50877E-13
 -1      1034 2.03651E+01 7.29373E-01 4.28645E-04-1.36925E-03-9.41933E-14-2.33331E-13
 -1      1035 1.96218E+01 5.30710E-01 7.73996E-06 1.36832E-01 3.33072E-14 1.06842E-13
 -1      1036 1.70337E+01 4.62643E-01 9.78919E-05-1.95800E+00-2.44528E-14-1.28117E-13
 -1      1037 1.82344E+01 9.42468E-01 1.43025E-04 9.83192E-01 1.65043E-13 2.76966E-13
 -1      1038 1.72821E+01 6.60086E-01-4.13365E-04 1.67591E+00-3.37936E-13-1.51929E-13
 -1      1039 2.01759E+01 3.44367E-01-6.80983E-05 1.61300E-01-6.18460E-14-1.45555E-13
 -1      1040 1.91684E+01 7.97856E-01-1.93739E-04 4.92758E-01 1.68352E-13 4.92741E-13
 -1      1041 1.93751E+01 6.98827E-01-1.81886E-05 3.93670E-01 1.69785E-13 4.21120E-13
 -1      1042 1.95398E+01 5.97462E-01 3.44912E-05 3.11535E-01 2.84578E-13 1.48227E-13
 -1      1043 1.49543E+01 7.76906E-01 4.29864E-03-1.52700E+00-5.78588E-14-1.27654E-13
 -1      1044 2.02224E+01 2.96663E-01 1.74915E-05-2.36680E-01 4.62372E-14-1.83354E-13
 -1      1045 1.88488E+01 8.37178E-01-1.45141E-04-7.22517E-01-1.20731E-15 9.75067E-14
 -1      1046 1.75910E+01 7.41609E-01-8.60023E-07-1.46101E+00-7.37613E-14-1.96856E-14
 -1      1047 1.80791E+01 8.62955E-01-2.10877E-04-1.12545E+00-1.64796E-14 1.48424E-13
 -1      1048 1.89136E+01 8.84157E-01-2.77893E-04 6.16849E-01 1.15506E-13 1.11419E-13
 -1      1049 1.64633E+01-8.47012E-02 8.88764E-03-2.71435E+00-8.90750E-14-1.68881E-13
 -1      1050 2.03627E+01 7.78280E-01-3.97298E-05 1.84143E-02 6.56302E-14-2.38801E-13
 -1      1051 1.96922E+01 4.85021E-01-2.46433E-05 2.34203E-01 2.08403E-13-1.45629E-13
 -1      1052 2.02885E+01 3.77622E-01 5.36698E-06-1.56061E-01 2.98481E-14-2.29761E-13
 -1      1053 1.53487E+01 5.97360E-01 7.90278E-03 1.89690E+00 1.61878E-14-1.60399E-13
 -1      1054 1.86059E+01 9.39104E-01-1.35144E-04 7.74199E-01 1.86645E-13 5.75165E-14
 -1      1055 1.50584E+01 1.15611E+00 4.54329E-03 3.01097E-01-8.28883E-14 1.85824E-14
 -1      1056 1.52497E+01 1.11215E+00 3.54855E-03-3.65100E-01-3.37966E-14-1.74524E-13
 -1      1057 2.03407E+01 1.08824E+00-2.81776E-04-4.58720E-02-4.74322E-14-2.88729E-13
 -1      1058 2.03692E+01 8.06894E-01 5.50967E-04 5.78308E-03 1.52338E-14-2.91121E-13
 -1      1059 1.94689E+01 6.35670E-01 6.25639E-04-8.40267E-02-1.87994E-13 2.16360E-13
 -1      1060 2.03379E+01 5.11563E-01-5.38160E-04 6.47594E-02-3.49771E-14-2.43414E-13
 -1      1061 1.94025E+01 6.46850E-01 2.04122E-06-4.93315E-01 4.20475E-14 1.07396E-13
 -1      1062 1.96149E+01 5.41749E-01-8.37559E-05-4.12602E-01 5.93586E-14 4.93047E-14
 -1      1063 1.94659E+01 6.36663E-01 2.15560E-04 8.89989E-02 3.13790E-14-1.34070E-13
 -1      1064 2.02715E+01 3.93782E-01-3.93754E-05 1.18302E-01-3.91716E-14-1.84716E-13
 -1      1065 2.01955E+01 3.30556E-01-1.90384E-06-1.93596E-01 1.38901E-14-2.64033E-13
 -1      1066 2.00859E+01 3.28039E-01-5.04513E-05-2.43419E-01-2.92629E-15-1.11839E-13
 -1      1067 1.91486E+01 7.51286E-01-8.92130E-05-5.93680E-01 3.21716E-14 1.60967E-13
 -1      1068 1.58645E+01 1.12823E+00 1.72923E-03-6.93818E-01-7.49817E-14-1.32370E-13
 -1      1069 2.03710E+01 8.06835E-01 8.33335E-05-3.49066E-03-4.60246E-14-2.50152E-13
 -1      1070 1.97930E+01 4.68693E-01-5.85086E-05 1.03502E-01-3.28340E-14-1.96955E-13
 -1      1071 1.95825E+01 5.71723E-01 5.17603E-04 1.24812E-01-7.10948E-14-2.00422E-13
 -1      1072 1.93291E+01 6.92915E-01 3.19885E-04 1.48594E-01-6.15027E-14-2.62549E-13
 -1      1073 1.90275E+01 8.19956E-01 1.51707E-04 1.76841E-01-4.40591E-14-1.58270E-13
 -1      1074 1.86619E+01 9.43440E-01 1.63754E-04 2.13730E-01-3.86925E-14-1.31231E-13
 -1      1075 1.82114E+01 1.04981E+00-2.08033E-05 2.61564E-01 7.69588E-14-9.20955E-14
 -1      1076 1.76637E+01 1.12016E+00 1.38010E-03 3.29073E-01 7.66790E-14 5.44924E-15
 -1      1077 1.69482E+01 1.13663E+00 5.87827E-04 4.26881E-01-4.24715E-15 5.44043E-15
 -1      1078 1.68361E+01 1.17865E+00-1.71557E-03-5.04507E-01-1.86274E-13-1.66841E-14
 -1      1079 2.01140E+01 3.67530E-01 1.06540E-04 7.09541E-02 5.14061E-15-2.08865E-13
 -1      1080 1.75633E+01 1.17170E+00-9.93918E-04-3.81410E-01-2.20355E-13-6.26588E-14
 -1      1081 1.80937E+01 1.13459E+00 5.87661E-04-2.94630E-01 6.82111E-14 1.68824E-13
 -1      1082 1.85348E+01 1.04039E+00-6.95100E-05-2.30081E-01 3.14361E-13 7.01110E-14
 -1      1083 1.88808E+01 9.29049E-01-3.07626E-04-1.86254E-01 1.71095E-13-7.09839E-14
 -1      1084 1.91641E+01 8.08921E-01 1.25726E-03-1.51437E-01-5.14104E-14 7.27586E-14
 -1      1085 1.93270E+01 7.19977E-01-1.17847E-04-1.15112E-01-9.26789E-14 1.37288E-13
 -1      1086 1.55669E+01 1.03443E+00 1.90627E-03 8.74313E-01-3.27848E-14-2.19467E-13
 -1      1087 1.75411E+01 1.12401E+00-2.24884E-04 6.47960E-01-1.51598E-14-3.04232E-13
 -1      1088 1.68465E+01 1.09183E+00-3.80638E-04 8.73149E-01-4.29119E-13-5.20956E-13
 -1      1089 1.91331E+01 7.72214E-01-1.92519E-04-2.98514E-01 1.51435E-15-4.96641E-14
 -1      1090 1.93595E+01 7.01423E-01-3.10892E-04 1.93713E-01 1.02942E-13-3.00590E-13
 -1      1091 1.91309E+01 8.23857E-01 7.63140E-04 2.46064E-01 2.28682E-13-5.37847E-13
 -1      1092 1.87996E+01 8.90090E-01-2.01621E-04-3.63612E-01 2.95571E-14 1.10598E-14
 -1      1093 1.73003E+01 1.05625E+00 2.41812E-03-7.52121E-01-1.62156E-14-1.45183E-13
 -1      1094 1.83930E+01 9.91321E-01-1.31772E-04-4.49305E-01 1.07060E-14 3.78934E-14
 -1      1095 1.64725E+01 1.00260E+00 8.72678E-04-1.01546E+00 8.58309E-15-9.21730E-14
 -1      1096 2.02819E+01 3.89675E-01-1.40456E-04-1.37210E-01 2.67576E-14-2.87117E-13
 -1      1097 1.99682E+01 3.97428E-01-3.58801E-05 8.65224E-02-1.48612E-14-2.35008E-13
 -1      1098 1.88536E+01 9.34393E-01 1.72755E-04 3.11499E-01 7.47588E-14-2.77409E-13
 -1      1099 2.03458E+01 5.44436E-01-4.31539E-05-5.72619E-02 4.82222E-14-2.37815E-13
 -1      1100 1.78901E+01 1.06047E+00-1.08497E-03-5.73452E-01 1.59095E-14-1.16712E-13
 -1      1101 1.62922E+01 1.18349E+00 9.65696E-04 1.12482E-01-8.08719E-14-6.89936E-14
 -1      1102 2.02309E+01 3.89494E-01 8.97199E-05 5.58677E-02-2.20706E-14-1.60491E-13
 -1      1103 2.03458E+01 5.48734E-01-5.63680E-04-1.96615E-02 5.00714E-14-2.24272E-13
 -1      1104 1.97971E+01 4.46174E-01 5.74868E-05-3.47747E-01 2.17591E-14-2.56444E-14
 -1      1105 1.94098E+01 6.50306E-01-2.54845E-04-2.46972E-01-2.11532E-14-6.11616E-14
 -1      1106 1.99549E+01 3.70636E-01 2.37209E-04-2.93844E-01-3.40573E-14-5.62168E-14
 -1      1107 1.85061E+01 1.03180E+00-2.26516E-04 3.91378E-01 1.37656E-13-5.95477E-14
 -1      1108 1.80889E+01 1.09742E+00 1.88045E-03 4.95771E-01 2.86713E-13-2.03436E-13
 -1      1109 2.02500E+01 3.91052E-01 3.52283E-05-8.70546E-02-7.44873E-15-1.90785E-13
 -1      1110 2.01414E+01 3.58185E-01 4.93576E-05-1.16986E-01-5.57730E-14-1.76457E-13
 -1      1111 1.66604E+01 1.22223E+00 4.20806E-04 1.88193E-01-2.47822E-13-2.50296E-13
 -1      1112 1.96825E+01 5.21919E-01-3.29403E-04-7.10879E-02-5.04439E-14-1.97632E-13
 -1      1113 1.70556E+01 1.15522E+00-2.80466E-03-3.24055E-01 4.42027E-14-1.84360E-13
 -1      1114 1.92007E+01 7.82089E-01-2.21447E-03 2.05612E-02-4.21426E-14-1.01412E-13
 -1      1115 1.77837E+01 1.17242E+00-5.13152E-03 1.53380E-01 7.87175E-14-2.01512E-13
 -1      1116 1.98799E+01 4.34228E-01 2.76099E-04-5.97512E-02-4.46540E-15-2.18726E-13
 -1      1117 2.03183E+01 4.74177E-01 4.19945E-04 3.59048E-02 6.10649E-15-1.57611E-13
 -1      1118 1.73013E+01 1.20781E+00 1.78151E-03 1.68640E-01-7.29782E-14-4.84011E-13
 -1      1119 2.00434E+01 3.78165E-01-2.91555E-04-4.89432E-02-2.22171E-14-2.18932E-13
 -1      1120 1.99909E+01 3.78569E-01-3.48698E-04-1.66370E-01-3.66575E-14-1.75012E-13
 -1      1121 2.79140E+01 9.07037E+00 2.32042E+00-6.68879E+00-3.55826E-14 1.67763E-12
 -1      1122 2.05246E+01 6.22022E+00 2.09467E-01-3.90002E+00-2.34535E-14 4.19213E-13
 -1      1123 1.94262E+01 5.85055E+00 7.56177E-02-2.88438E+00-1.84575E-14-1.59201E-13
 -1      1124 1.90288E+01 5.72689E+00 6.07927E-02-2.23106E+00-1.25525E-14-4.49647E-13
 -1      1125 1.88503E+01 5.67246E+00 5.78608E-02-1.69703E+00-9.09169E-15-6.11309E-13
 -1      1126 1.87620E+01 5.64533E+00 5.56978E-02-1.22979E+00-6.27970E-15-6.95259E-13
 -1      1127 1.87163E+01 5.63103E+00 5.37974E-02-8.00912E-01-3.12987E-15-7.38271E-13
 -1      1128 1.86941E+01 5.62396E+00 5.24789E-02-3.90971E-01-2.45724E-15-7.62057E-13
 -1      1129 1.86878E+01 5.62195E+00 5.20535E-02 8.44996E-03 4.68267E-16-7.74211E-13
 -1      1130 1.86951E+01 5.62431E+00 5.26020E-02 4.08283E-01 1.90104E-15-7.75116E-13
 -1      1131 1.87184E+01 5.63175E+00 5.40870E-02 8.19599E-01 3.51759E-15-7.72998E-13
 -1      1132 1.87658E+01 5.64666E+00 5.64284E-02 1.25114E+00 6.51042E-15-7.37446E-13
 -1      1133 1.88556E+01 5.67431E+00 5.87651E-02 1.72280E+00 8.21739E-15-6.69321E-13
 -1      1134 1.90341E+01 5.72847E+00 6.07920E-02 2.26429E+00 1.28231E-14-5.41573E-13
 -1      1135 1.94227E+01 5.84770E+00 6.95400E-02 2.92498E+00 1.80689E-14-2.67085E-13
 -1      1136 2.04306E+01 6.17514E+00 1.53120E-01 3.87459E+00 2.21489E-14 3.00614E-13
 -1      1137 2.51718E+01 7.97960E+00 1.42677E+00 5.83879E+00 5.11813E-14 1.51873E-12
 -1      1138 2.87528E+01 3.60906E+00 1.26757E+00-4.21046E+00-1.58706E-13 2.48701E-12
 -1      1139 2.01806E+01-1.77653E-01-6.15882E-01-1.09918E-01-5.46230E-14 2.11270E-12
 -1      1140 1.87899E+01-9.64746E-02-2.36261E-01 6.22662E-02-1.89623E-14 1.55927E-12
 -1      1141 1.84593E+01-4.83889E-02-5.98377E-02 4.01900E-02-1.08516E-14 1.15929E-12
 -1      1142 1.84097E+01-2.51929E-02-1.57475E-02 2.64298E-02-1.14435E-14 9.19681E-13
 -1      1143 1.85011E+01-1.39257E-02-5.86539E-03 1.86787E-02-9.42692E-15 7.33032E-13
 -1      1144 1.86641E+01-7.87202E-03-2.81146E-03 1.37368E-02-1.76855E-15 6.19645E-13
 -1      1145 1.88626E+01-4.59860E-03-1.36406E-03 1.03629E-02-1.14426E-14 4.74478E-13
 -1      1146 1.90783E+01-2.98909E-03-8.02272E-04 7.96384E-03 2.24115E-15 3.08384E-13
 -1      1147 1.93037E+01-2.46306E-03-1.01147E-03 6.26817E-03-1.29457E-14 9.53543E-14
 -1      1148 1.95388E+01-2.68997E-03-1.88401E-03 5.16264E-03-8.18537E-15-6.86924E-14
 -1      1149 1.97891E+01-3.45640E-03-3.30065E-03 4.61705E-03 5.15451E-15-2.48412E-15
 -1      1150 2.00641E+01-4.59530E-03-5.13898E-03 4.65189E-03-7.96428E-15-1.02380E-13
 -1      1151 2.03761E+01-5.93606E-03-7.24839E-03 5.32278E-03-5.58727E-15-7.89906E-15
 -1      1152 2.07397E+01-7.25552E-03-9.39461E-03 6.70583E-03-3.83699E-16 4.13350E-14
 -1      1153 2.11693E+01-8.21894E-03-1.11703E-02 8.86959E-03-1.41744E-14-1.21361E-14
 -1      1154 2.16766E+01-8.30751E-03-1.18635E-02 1.18139E-02 9.61709E-15 8.75688E-15
 -1      1155 2.22655E+01-6.74316E-03-1.02923E-02 1.53461E-02 5.92506E-15-1.78711E-14
 -1      1156 2.29243E+01-2.45401E-03-4.67215E-03 1.88564E-02 3.34932E-15-1.61548E-13
 -1      1157 2.36132E+01 5.80590E-03 7.27954E-03 2.09728E-02 1.53957E-16-2.33012E-13
 -1      1158 2.42499E+01 1.89757E-02 2.75601E-02 1.91739E-02-1.57229E-14-2.57339E-13
 -1      1159 2.46959E+01 3.65405E-02 5.57958E-02 9.69761E-03-1.52903E-14-3.72272E-14
 -1      1160 2.47589E+01 5.46169E-02 8.56504E-02-1.14147E-02-2.44076E-15-7.73652E-14
 -1      1161 2.42347E+01 6.41117E-02 1.01673E-01-4.50924E-02-1.76022E-14-1.21021E-13
 -1      1162 2.30120E+01 5.21099E-02 8.18856E-02-8.39882E-02 1.83083E-14-2.37865E-13
 -1      1163 2.12248E+01 9.68227E-03 1.25943E-02-1.09469E-01 3.61852E-14 1.22527E-13
 -1      1164 1.93492E+01-5.35951E-02-8.88196E-02-9.86246E-02 4.17986E-14 6.04405E-13
 -1      1165 1.80881E+01-1.04674E-01-1.69337E-01-4.36144E-02 1.29497E-14 4.47059E-13
 -1      1166 1.79999E+01-1.08446E-01-1.75350E-01 3.35597E-02-1.77289E-14 1.70742E-13
 -1      1167 1.91258E+01-6.22367E-02-1.02670E-01 9.34888E-02 2.19148E-14 5.02098E-14
 -1      1168 2.09607E+01 1.64914E-03-5.19175E-04 1.10498E-01-8.65574E-15 3.19883E-14
 -1      1169 2.27965E+01 4.80380E-02 7.51108E-02 8.87240E-02 1.69981E-14-8.29198E-14
 -1      1170 2.41127E+01 6.39071E-02 1.01373E-01 5.02809E-02 1.02245E-14 3.03715E-14
 -1      1171 2.47319E+01 5.64003E-02 8.88236E-02 1.52228E-02-2.84495E-15 5.84012E-14
 -1      1172 2.47424E+01 3.87570E-02 5.95959E-02-7.62474E-03-5.13955E-15-2.31596E-13
 -1      1173 2.43442E+01 2.06943E-02 3.04609E-02-1.84202E-02 2.45704E-14-3.18223E-13
 -1      1174 2.37359E+01 6.72204E-03 8.83275E-03-2.09542E-02-1.50268E-14-3.75422E-13
 -1      1175 2.30648E+01-2.31438E-03-4.34720E-03-1.90986E-02 8.62570E-15-1.15283E-13
 -1      1176 2.24219E+01-7.23968E-03-1.09159E-02-1.55411E-02 4.65711E-14 1.10514E-13
 -1      1177 2.18532E+01-9.29689E-03-1.31870E-02-1.17739E-02-2.97175E-14-2.99587E-15
 -1      1178 2.13754E+01-9.58841E-03-1.30274E-02-8.46957E-03-2.76047E-14-5.06007E-13
 -1      1179 2.09883E+01-8.92175E-03-1.16916E-02-5.83896E-03-1.19238E-14-7.32097E-13
 -1      1180 2.06834E+01-7.83008E-03-9.93922E-03-3.86970E-03-6.26260E-14-9.59775E-13
 -1      1181 2.04487E+01-6.64291E-03-8.20450E-03-2.45687E-03 5.37679E-14-8.81248E-13
 -1      1182 2.02724E+01-5.55371E-03-6.73580E-03-1.46155E-03-2.52898E-14-4.66962E-13
 -1      1183 2.01441E+01-4.66678E-03-5.68270E-03-7.23210E-04 5.53300E-14-3.37235E-14
 -1      1184 2.00561E+01-4.01408E-03-5.08341E-03-3.98057E-05-1.71558E-14 7.43491E-14
 -1      1185 2.00039E+01-3.45848E-03-4.60856E-03 8.73728E-04-4.72401E-14-2.58777E-15
 -1      1186 1.99866E+01-3.14414E-03-2.57921E-03 2.53979E-03 6.21918E-14-4.12710E-13
 -1      1187 1.99948E+01 1.86907E-03 4.31766E-03 1.73700E-03 3.53550E-14-3.10892E-13
 -1      1188 2.77349E+01 5.24795E-01 3.75421E-01 1.96396E+00-2.43278E-14 2.53880E-12
 -1      1189 2.00384E+01-6.62582E-02-5.73202E-01 1.29490E-01 2.43486E-14 1.93004E-12
 -1      1190 1.88644E+01-4.07467E-02-1.93158E-01 1.96303E-02 1.45248E-14 1.38465E-12
 -1      1191 1.84882E+01-2.17105E-02-5.07595E-02 1.82959E-03 9.82027E-15 1.00612E-12
 -1      1192 1.84225E+01-1.28915E-02-1.38683E-02-3.53688E-03 1.20897E-14 6.98993E-13
 -1      1193 1.85076E+01-8.14216E-03-5.44328E-03-4.79803E-03 2.22547E-14 4.54421E-13
 -1      1194 1.86676E+01-5.40382E-03-3.13758E-03-4.76137E-03-3.58882E-15 3.57627E-13
 -1      1195 1.88645E+01-3.87299E-03-2.11447E-03-4.22488E-03-9.22266E-15 3.78073E-13
 -1      1196 1.90792E+01-3.16391E-03-1.73307E-03-3.44527E-03 6.43124E-15 2.42759E-13
 -1      1197 1.93041E+01-3.06345E-03-1.96891E-03-2.54954E-03 1.49661E-14 6.33946E-14
 -1      1198 1.95389E+01-3.43744E-03-2.79128E-03-1.63008E-03 2.65981E-14-1.33221E-13
 -1      1199 1.97888E+01-4.18578E-03-4.13452E-03-7.73994E-04 9.27058E-15-1.13310E-13
 -1      1200 2.00632E+01-5.20984E-03-5.91312E-03-8.14673E-05-1.00115E-15 4.05466E-14
 -1      1201 2.03742E+01-6.37770E-03-8.00164E-03 3.15136E-04-6.23319E-15 7.41083E-14
 -1      1202 2.07358E+01-7.47854E-03-1.01795E-02 2.29531E-04 1.68175E-14-9.49640E-14
 -1      1203 2.11621E+01-8.16109E-03-1.20378E-02-5.99531E-04 4.63149E-15-3.89876E-13
 -1      1204 2.16640E+01-7.85805E-03-1.28412E-02-2.51697E-03-1.22028E-14-4.29498E-13
 -1      1205 2.22444E+01-5.71891E-03-1.13561E-02-5.91812E-03 3.64151E-15-5.79184E-13
 -1      1206 2.28902E+01-6.23574E-04-5.71913E-03-1.11115E-02-1.17551E-14-6.07958E-13
 -1      1207 2.35610E+01 8.56346E-03 6.42380E-03-1.79760E-02-2.60539E-15-3.95548E-13
 -1      1208 2.41740E+01 2.22362E-02 2.70394E-02-2.53106E-02-9.58868E-15-4.84262E-13
 -1      1209 2.45925E+01 3.85806E-02 5.54771E-02-2.99611E-02-1.64183E-14-4.29719E-13
 -1      1210 2.46294E+01 5.18559E-02 8.49448E-02-2.64126E-02 1.62943E-14-6.49767E-13
 -1      1211 2.40902E+01 5.23404E-02 9.99474E-02-8.37459E-03 2.11550E-15-6.22974E-13
 -1      1212 2.28756E+01 3.07438E-02 7.99968E-02 2.61629E-02-6.16564E-15-4.00513E-13
 -1      1213 2.11248E+01-1.18293E-02 1.44708E-02 6.79006E-02 3.21070E-14-3.71578E-13
 -1      1214 1.93034E+01-5.67037E-02-7.81494E-02 9.48165E-02 1.47386E-14-1.70378E-13
 -1      1215 1.80856E+01-7.71789E-02-1.49395E-01 8.52298E-02 5.43315E-15-3.54397E-13
 -1      1216 1.80011E+01-6.20100E-02-1.55017E-01 3.78029E-02-2.15305E-14-3.18814E-13
 -1      1217 1.90869E+01-2.51717E-02-9.44943E-02-2.31949E-02-5.39404E-14-1.40679E-13
 -1      1218 2.08631E+01 9.64287E-03-9.47385E-03-6.69780E-02 7.08651E-14-5.62245E-13
 -1      1219 2.26540E+01 2.86602E-02 5.44560E-02-7.89883E-02-1.78707E-14-8.25479E-13
 -1      1220 2.39562E+01 3.19784E-02 7.87876E-02-6.52372E-02-5.77316E-15-4.12177E-13
 -1      1221 2.45893E+01 2.60935E-02 7.15147E-02-4.07005E-02-1.15966E-14-4.89830E-13
 -1      1222 2.46283E+01 1.72673E-02 4.98021E-02-1.74729E-02 9.00408E-15-8.36371E-13
 -1      1223 2.42615E+01 9.16568E-03 2.71209E-02-9.57324E-04 1.21645E-14-1.04319E-12
 -1      1224 2.36805E+01 3.13400E-03 9.79743E-03 8.43066E-03 5.40194E-14-1.33124E-12
 -1      1225 2.30303E+01-7.50177E-04-1.07412E-03 1.24354E-02-1.72455E-14-1.35738E-12
 -1      1226 2.24019E+01-2.91855E-03-6.75340E-03 1.30943E-02 6.11400E-14-1.30608E-12
 -1      1227 2.18426E+01-3.89311E-03-8.98912E-03 1.20023E-02 3.05658E-15-1.35329E-12
 -1      1228 2.13705E+01-4.11903E-03-9.23109E-03 1.01928E-02 3.14313E-14-1.18286E-12
 -1      1229 2.09867E+01-3.92553E-03-8.47056E-03 8.25420E-03-3.21346E-14-8.20941E-13
 -1      1230 2.06834E+01-3.54006E-03-7.31967E-03 6.48284E-03-5.86334E-14-4.57622E-13
 -1      1231 2.04495E+01-3.11666E-03-6.14137E-03 5.00331E-03-1.39713E-14-6.35269E-13
 -1      1232 2.02734E+01-2.75976E-03-5.15978E-03 3.84231E-03 2.52912E-14-6.98828E-13
 -1      1233 2.01451E+01-2.52930E-03-4.52478E-03 2.96160E-03 2.72856E-14-7.69883E-13
 -1      1234 2.00569E+01-2.44596E-03-4.29795E-03 2.25235E-03 8.27749E-14-1.33261E-12
 -1      1235 2.00046E+01-2.31539E-03-4.11390E-03 1.39462E-03-1.64788E-14-1.08130E-12
 -1      1236 1.99867E+01-1.08965E-03-2.07695E-03-3.26720E-04 5.01796E-14-9.89297E-13
 -1      1237 1.99954E+01 1.57549E-03 4.36715E-03-1.59687E-03-8.29838E-14-5.91920E-13
 -1      1238 2.00012E+01-4.75373E-03 3.99337E-03-1.65394E-03-5.02277E-13 9.74543E-15
 -1      1239 1.99977E+01-1.22499E-02-2.69242E-03-2.10749E-03-9.94521E-14 4.48678E-14
 -1      1240 1.99973E+01 8.38955E-03-4.01656E-03 1.86805E-04 2.43535E-13 8.61893E-14
 -1      1241 1.99982E+01 5.82863E-02-2.66975E-03 1.56662E-03 4.86510E-13-1.23752E-13
 -1      1242 1.99996E+01 1.25583E-01-5.93399E-04 2.16526E-03 5.07890E-13-4.06730E-14
 -1      1243 2.00010E+01 1.95704E-01 1.38146E-03 2.14309E-03-3.56099E-13-4.70148E-14
 -1      1244 2.00021E+01 2.56310E-01 2.93856E-03 1.70348E-03-4.39192E-13 6.99996E-14
 -1      1245 2.00028E+01 2.97486E-01 3.95163E-03 9.25926E-04-8.50294E-13 1.67939E-13
 -1      1246 2.00031E+01 3.11838E-01 4.29676E-03-7.87680E-06-6.22929E-13 4.00148E-14
 -1      1247 2.00028E+01 2.97050E-01 3.94336E-03-9.41490E-04 2.98930E-13 7.03521E-14
 -1      1248 2.00021E+01 2.55495E-01 2.91802E-03-1.71412E-03-5.48254E-13-1.78723E-14
 -1      1249 2.00010E+01 1.94595E-01 1.34968E-03-2.17638E-03-1.35969E-12-7.64178E-15
 -1      1250 1.99996E+01 1.24403E-01-6.22295E-04-2.16438E-03-9.67089E-13 3.54077E-15
 -1      1251 1.99982E+01 5.72154E-02-2.71201E-03-1.57835E-03-9.41377E-13-3.79831E-14
 -1      1252 1.99975E+01 6.91725E-03-4.18113E-03-2.43848E-04-1.27434E-12 5.73405E-14
 -1      1253 1.99972E+01-1.08060E-02-2.16623E-03 3.54648E-03 9.34086E-14 1.00012E-13
 -1      1254 2.00014E+01-5.48679E-03 3.92762E-03 1.99704E-03 3.64567E-13 7.48973E-14
 -1      1255-1.00832E+00-2.37081E+01-3.64817E+00-2.15778E+00 3.88578E-14 2.99386E-13
 -1      1256-1.74295E+00-1.55552E+01-3.06924E+00-4.12875E+00 2.10032E-12 8.24452E-13
 -1      1257-7.15115E-02-3.29546E+00-1.95344E+00-6.23793E-01 2.42206E-12 1.28320E-12
 -1      1258 8.02842E+00 7.10305E+00-4.41284E-01 7.51041E+00 1.93490E-12 1.75793E-12
 -1      1259 2.35019E+01 1.10835E+01 1.26832E+00 1.54112E+01 1.61227E-12 2.30704E-12
 -1      1260 4.31262E+01 8.75542E+00 2.73447E+00 1.76313E+01 9.23817E-13 2.07789E-12
 -1      1261 6.06388E+01 3.76936E+00 3.87910E+00 1.18363E+01 3.79155E-13 1.36446E-12
 -1      1262 6.67773E+01 1.79780E+00 4.27152E+00-7.00318E-01 9.92678E-14-1.94594E-13
 -1      1263 5.87379E+01 4.63268E+00 3.82047E+00-1.27677E+01 2.99233E-13-1.21425E-12
 -1      1264 4.07405E+01 9.27703E+00 2.61520E+00-1.79224E+01 1.12388E-12-1.99640E-12
 -1      1265 2.12486E+01 1.09178E+01 1.01589E+00-1.46797E+01 1.91092E-12-2.43050E-12
 -1      1266 6.28085E+00 5.64238E+00-6.84591E-01-6.01586E+00 2.31437E-12-2.01106E-12
 -1      1267-7.82552E-01-5.68430E+00-2.18463E+00 1.81363E+00 2.38298E-12-1.31739E-12
 -1      1268-1.61202E+00-1.78702E+01-3.26487E+00 4.03797E+00 1.64579E-12-5.50227E-13
 -1      1269-1.02242E+00-2.45217E+01-3.74204E+00 9.55137E-01 1.42303E-13-1.70135E-13
 -1      1270-1.28997E+00-2.21162E+01-3.59463E+00-3.23342E+00-6.07847E-13-5.08205E-14
 -1      1271-1.62160E+00-1.15965E+01-2.74507E+00-3.51912E+00-1.14198E-12-5.33240E-13
 -1      1272 2.53512E+00 1.27253E+00-1.38403E+00 2.48153E+00-1.66978E-12-1.31206E-12
 -1      1273 1.47165E+01 9.64186E+00 3.00652E-01 1.16893E+01-1.90714E-12-2.10942E-12
 -1      1274 3.37195E+01 1.04335E+01 2.10304E+00 1.76539E+01-1.24956E-12-2.32991E-12
 -1      1275 5.35377E+01 6.13460E+00 3.42721E+00 1.52155E+01-7.23810E-13-2.04214E-12
 -1      1276 6.61142E+01 2.04770E+00 4.23822E+00 4.96436E+00-1.75041E-13-1.04200E-12
 -1      1277 6.38498E+01 2.66713E+00 4.03193E+00-8.27047E+00-1.06172E-13 2.56239E-13
 -1      1278 4.89262E+01 7.23422E+00 3.10370E+00-1.70206E+01-7.72271E-13 1.83253E-12
 -1      1279 2.79174E+01 1.08851E+01 1.57969E+00-1.65704E+01-1.41387E-12 2.20091E-12
 -1      1280 9.96563E+00 8.13517E+00-1.77470E-01-8.84809E+00-2.26930E-12 2.12941E-12
 -1      1281 4.89789E-01-1.83718E+00-1.79611E+00-1.31608E-01-2.45604E-12 1.60028E-12
 -1      1282-1.74293E+00-1.47056E+01-3.00162E+00 3.98850E+00-1.94267E-12 6.39988E-13
 -1      1283-1.00566E+00-2.36749E+01-3.65234E+00 2.23335E+00-1.55204E-12 2.92960E-13
 -1      1284 2.22258E+01 1.83620E+00-7.24902E-01-2.78740E+00-5.80647E-14 1.43041E-12
 -1      1285 2.03411E+01 4.68618E+00-4.83473E-02-3.30258E+00-1.91777E-13 1.47396E-13
 -1      1286 2.08403E+01 4.80433E+00-1.13319E-01-4.15575E+00-2.35312E-13 4.53401E-13
 -1      1287 1.95268E+01 4.99162E+00-1.94756E-02-2.64956E+00-2.03289E-13-2.88509E-13
 -1      1288 1.98188E+01 5.08669E+00 3.89772E-04-3.04071E+00-2.27936E-13-9.82409E-14
 -1      1289 2.05111E+01 3.94974E+00-2.58174E-02-3.06910E+00-3.45377E-13 1.32144E-13
 -1      1290 1.91893E+01 5.08562E+00-3.41914E-03-2.06535E+00-1.71448E-13-5.19487E-13
 -1      1291 1.93334E+01 5.13946E+00 1.07450E-02-2.35833E+00-1.96804E-13-4.11001E-13
 -1      1292 1.97513E+01 4.36536E+00-2.43739E-02-2.48280E+00-3.22299E-13-2.34535E-13
 -1      1293 1.90214E+01 5.13460E+00 3.32959E-03-1.55904E+00-1.40277E-13-6.48665E-13
 -1      1294 1.90960E+01 5.16327E+00 1.27313E-02-1.80904E+00-1.52461E-13-5.90705E-13
 -1      1295 1.93988E+01 4.55748E+00-1.98961E-02-1.92517E+00-2.64206E-13-4.34239E-13
 -1      1296 1.89320E+01 5.16662E+00 6.51078E-03-1.11201E+00-1.01413E-13-7.10442E-13
 -1      1297 1.89725E+01 5.18239E+00 1.28222E-02-1.33303E+00-1.16468E-13-6.75621E-13
 -1      1298 1.92190E+01 4.66727E+00-1.59596E-02-1.43792E+00-2.13866E-13-5.33320E-13
 -1      1299 1.88832E+01 5.18795E+00 8.14574E-03-6.90194E-01-6.96155E-14-7.49206E-13
 -1      1300 1.89050E+01 5.19647E+00 1.20523E-02-8.99636E-01-7.81137E-14-7.33325E-13
 -1      1301 1.91195E+01 4.73529E+00-1.38598E-02-9.98801E-01-1.48448E-13-5.94438E-13
 -1      1302 1.88605E+01 5.20081E+00 9.24524E-03-2.87494E-01-2.87198E-14-7.72906E-13
 -1      1303 1.88699E+01 5.20451E+00 1.10935E-02-4.88573E-01-4.20445E-14-7.57890E-13
 -1      1304 1.90658E+01 4.77610E+00-1.27448E-02-5.85152E-01-9.02907E-14-6.22839E-13
 -1      1305 1.88570E+01 5.20604E+00 1.02052E-02 1.07620E-01-5.99542E-15-7.81838E-13
 -1      1306 1.88567E+01 5.20591E+00 1.01329E-02-9.09170E-02-1.18258E-14-7.81843E-13
 -1      1307 1.90425E+01 4.79514E+00-1.22821E-02-1.87838E-01-3.14570E-14-6.50126E-13
 -1      1308 1.88716E+01 5.20413E+00 1.11924E-02 5.05864E-01 3.40205E-14-7.79501E-13
 -1      1309 1.88615E+01 5.20017E+00 9.18327E-03 3.04361E-01 2.08372E-14-7.79432E-13
 -1      1310 1.90434E+01 4.79450E+00-1.22986E-02 2.04444E-01 1.12863E-14-6.53200E-13
 -1      1311 1.89083E+01 5.19529E+00 1.21850E-02 9.18418E-01 6.22202E-14-7.71824E-13
 -1      1312 1.88856E+01 5.18658E+00 8.09436E-03 7.08006E-01 5.72151E-14-7.80164E-13
 -1      1313 1.90685E+01 4.77402E+00-1.27915E-02 6.02436E-01 7.42882E-14-6.55486E-13
 -1      1314 1.89768E+01 5.18048E+00 1.30453E-02 1.35066E+00 9.89712E-14-7.32737E-13
 -1      1315 1.89354E+01 5.16430E+00 6.44029E-03 1.12817E+00 8.60206E-14-7.58359E-13
 -1      1316 1.91239E+01 4.73164E+00-1.38232E-02 1.01393E+00 1.26041E-13-6.41362E-13
 -1      1317 1.91038E+01 5.15953E+00 1.30114E-02 1.83510E+00 1.48707E-13-6.55406E-13
 -1      1318 1.90274E+01 5.13010E+00 3.19286E-03 1.58235E+00 1.27714E-13-7.00988E-13
 -1      1319 1.92257E+01 4.66059E+00-1.59839E-02 1.45600E+00 1.90268E-13-5.90038E-13
 -1      1320 1.93441E+01 5.13326E+00 1.03599E-02 2.39255E+00 2.00125E-13-5.07185E-13
 -1      1321 1.91985E+01 5.07752E+00-4.25030E-03 2.09511E+00 1.74243E-13-5.97689E-13
 -1      1322 1.94123E+01 4.54504E+00-1.98376E-02 1.95142E+00 2.61729E-13-5.02761E-13
 -1      1323 1.98438E+01 5.09590E+00 6.18163E-03 3.07908E+00 2.34493E-13-2.04108E-13
 -1      1324 1.95382E+01 4.98279E+00-2.03258E-02 2.69166E+00 2.03462E-13-3.89334E-13
 -1      1325 1.97723E+01 4.34590E+00-2.44333E-02 2.52159E+00 3.30982E-13-3.20931E-13
 -1      1326 2.10758E+01 4.90061E+00 8.25017E-03 4.04857E+00 2.13385E-13 4.05967E-13
 -1      1327 2.03152E+01 4.72966E+00-4.77050E-02 3.41174E+00 2.02727E-13 3.14748E-14
 -1      1328 2.05489E+01 3.91297E+00-2.23241E-02 3.17240E+00 3.59743E-13 2.14412E-14
 -1      1329 2.71516E+01 3.19973E+00 9.26576E-01 4.57551E+00 1.14297E-13 1.61432E-12
 -1      1330 2.19853E+01 3.51791E+00-1.81591E-01 3.88007E+00 1.12910E-13 7.66165E-13
 -1      1331 2.20811E+01 2.55892E+00-3.26390E-02 3.45117E+00 3.54628E-13 5.83394E-13
 -1      1332 2.13841E+01 3.59431E-01-7.62688E-01 1.18245E+00 1.98758E-13 1.52472E-12
 -1      1333 2.19594E+01 1.31409E-01-4.00538E-01-1.28346E+00-1.82493E-13 1.48193E-12
 -1      1334 2.06390E+01 3.06487E-01-1.64638E-01-8.04037E-01-1.78857E-13 1.27830E-12
 -1      1335 2.00436E+01 1.53490E-01-7.33957E-02-4.00545E-01-1.42216E-13 1.16878E-12
 -1      1336 1.95756E+01 9.13421E-02-1.48278E-02-3.28363E-01-1.35530E-13 9.62931E-13
 -1      1337 2.09414E+01 3.68831E-01-1.04237E-01-1.27032E+00-3.10758E-13 7.30655E-13
 -1      1338 1.92210E+01 6.47618E-02 3.12204E-03-1.33274E-01-1.05280E-13 8.87446E-13
 -1      1339 1.90691E+01 4.17030E-02 1.33176E-02-1.15309E-01-9.36733E-14 7.40106E-13
 -1      1340 1.98957E+01 1.34126E-01-3.52314E-02-5.00065E-01-2.31919E-13 5.61540E-13
 -1      1341 1.89128E+01 3.20822E-02 1.33350E-02-2.46481E-02-7.21732E-14 6.64815E-13
 -1      1342 1.88974E+01 2.01415E-02 1.11856E-02-1.49518E-02-8.21942E-14 5.55370E-13
 -1      1343 1.94251E+01 5.61544E-02-8.68723E-03-1.64152E-01-1.81018E-13 4.31521E-13
 -1      1344 1.88474E+01 1.69065E-02 8.89893E-03 3.05887E-02-5.17830E-14 5.20504E-13
 -1      1345 1.88966E+01 1.02170E-02 6.61045E-03 3.57129E-02-5.76915E-14 4.53939E-13
 -1      1346 1.92263E+01 2.56482E-02-3.76568E-03-1.62889E-03-1.33517E-13 3.00153E-13
 -1      1347 1.89059E+01 9.20015E-03 4.82318E-03 5.97225E-02-5.40820E-14 4.28260E-13
 -1      1348 1.89872E+01 5.15569E-03 3.86469E-03 6.23504E-02-3.81889E-14 3.61967E-13
 -1      1349 1.91848E+01 1.20940E-02-2.60662E-03 8.27766E-02-1.02985E-13 2.54343E-13
 -1      1350 1.90306E+01 5.12388E-03 2.61898E-03 7.52412E-02-4.44400E-14 3.16611E-13
 -1      1351 1.91280E+01 2.63936E-03 2.49138E-03 7.65651E-02-5.76136E-14 2.26852E-13
 -1      1352 1.92339E+01 5.55931E-03-1.87676E-03 1.27984E-01-9.73683E-14 1.70445E-13
 -1      1353 1.91918E+01 3.13781E-03 1.53091E-03 8.39395E-02-4.76939E-14 2.16241E-13
 -1      1354 1.92979E+01 1.66886E-03 1.78473E-03 8.47199E-02-5.52645E-14 1.36233E-13
 -1      1355 1.93366E+01 2.62087E-03-1.31923E-03 1.53051E-01-9.16017E-14 1.13282E-13
 -1      1356 1.93753E+01 2.50862E-03 9.59462E-04 9.00266E-02-6.28227E-14 1.02843E-13
 -1      1357 1.94876E+01 1.74191E-03 1.38501E-03 9.07999E-02-8.37680E-14 2.56791E-14
 -1      1358 1.94731E+01 1.86709E-03-1.01714E-03 1.68839E-01-1.06298E-13 4.27954E-14
 -1      1359 1.95757E+01 2.83945E-03 6.19553E-04 9.63823E-02-6.58963E-14-5.32560E-16
 -1      1360 1.96951E+01 2.56531E-03 1.13958E-03 9.75503E-02-1.83184E-14-3.44915E-14
 -1      1361 1.96337E+01 2.61119E-03-9.78471E-04 1.82333E-01-1.05749E-13 1.91431E-14
 -1      1362 1.97941E+01 3.88594E-03 3.83082E-04 1.05100E-01 6.68389E-15-8.63459E-14
 -1      1363 1.99239E+01 3.93742E-03 9.75590E-04 1.06973E-01-2.78075E-14-1.00803E-13
 -1      1364 1.98160E+01 4.46102E-03-1.16261E-03 1.98411E-01-2.78254E-14-2.58350E-14
 -1      1365 2.00359E+01 5.46744E-03 1.80619E-04 1.17724E-01-3.35207E-14-9.85947E-14
 -1      1366 2.01813E+01 5.68290E-03 8.43882E-04 1.20536E-01-1.71521E-16-8.78963E-14
 -1      1367 2.00219E+01 7.14235E-03-1.51935E-03 2.20613E-01-4.39665E-14-1.45562E-13
 -1      1368 2.03098E+01 7.40673E-03-3.81014E-05 1.35303E-01 4.36564E-14-7.30718E-14
 -1      1369 2.04772E+01 7.59759E-03 6.98668E-04 1.39206E-01 1.54035E-14-3.70233E-14
 -1      1370 2.02568E+01 1.03948E-02-1.99779E-03 2.51425E-01 4.11528E-14-8.86616E-14
 -1      1371 2.06262E+01 9.46883E-03-3.16214E-04 1.58289E-01 1.34721E-14-3.77641E-14
 -1      1372 2.08222E+01 9.38346E-03 4.91820E-04 1.63312E-01-6.33586E-15-1.83343E-14
 -1      1373 2.05281E+01 1.38733E-02-2.53906E-03 2.92216E-01 7.74120E-15-3.33098E-14
 -1      1374 2.09958E+01 1.12816E-02-6.87502E-04 1.86238E-01-4.19297E-14-2.70582E-14
 -1      1375 2.12264E+01 1.05619E-02 1.77445E-04 1.92208E-01-9.56201E-15-4.59840E-14
 -1      1376 2.08437E+01 1.70203E-02-3.06047E-03 3.42829E-01-2.98130E-14-2.21993E-14
 -1      1377 2.14272E+01 1.22266E-02-1.15953E-03 2.17259E-01 2.51832E-14-6.35395E-14
 -1      1378 2.16957E+01 1.03614E-02-2.68228E-04 2.23653E-01 1.12653E-14-4.03583E-14
 -1      1379 2.12102E+01 1.88872E-02-3.43149E-03 4.00722E-01-1.64660E-14-1.54813E-14
 -1      1380 2.19234E+01 1.13025E-02-1.67488E-03 2.47126E-01 8.76653E-15-2.99387E-14
 -1      1381 2.22271E+01 7.60026E-03-8.02429E-04 2.52845E-01-2.24925E-14-6.59056E-14
 -1      1382 2.16304E+01 1.79036E-02-3.43959E-03 4.59547E-01 3.02497E-14-8.23449E-14
 -1      1383 2.24760E+01 6.99910E-03-2.04444E-03 2.68079E-01-4.26161E-14-6.39801E-14
 -1      1384 2.28015E+01 6.42516E-04-1.24388E-03 2.71142E-01-4.05308E-14-1.21198E-13
 -1      1385 2.20990E+01 1.16514E-02-2.74845E-03 5.07126E-01-5.85024E-14-5.38415E-14
 -1      1386 2.30572E+01-2.68408E-03-1.86718E-03 2.67567E-01-7.30806E-15-1.46135E-13
 -1      1387 2.33744E+01-1.23725E-02-1.19580E-03 2.64810E-01-2.56744E-14-1.89418E-13
 -1      1388 2.25975E+01-3.14770E-03-8.68704E-04 5.23128E-01-4.71009E-14-3.84285E-14
 -1      1389 2.36104E+01-1.97681E-02-5.00626E-04 2.27846E-01 2.87769E-14-2.32906E-13
 -1      1390 2.38662E+01-3.26422E-02-6.13941E-05 2.14913E-01 1.65822E-14-1.86453E-13
 -1      1391 2.30878E+01-2.99482E-02 2.79874E-03 4.77684E-01-2.75639E-14-9.40307E-14
 -1      1392 2.40418E+01-4.48623E-02 2.73354E-03 1.28466E-01 2.58535E-14-6.70696E-14
 -1      1393 2.41584E+01-5.86698E-02 2.67733E-03 1.00731E-01 1.30356E-14-5.77476E-14
 -1      1394 2.35058E+01-7.01386E-02 8.72032E-03 3.33874E-01 4.62755E-14-6.03454E-14
 -1      1395 2.42206E+01-7.42231E-02 7.90422E-03-4.50099E-02-1.46610E-14-1.25256E-14
 -1      1396 2.41068E+01-8.30650E-02 6.72814E-03-8.95866E-02-1.37338E-14-5.39672E-14
 -1      1397 2.37608E+01-1.18390E-01 1.66031E-02 5.93223E-02 4.55278E-15 1.80715E-15
 -1      1398 2.40017E+01-9.61412E-02 1.33728E-02-2.83412E-01-2.00326E-14-3.73729E-14
 -1      1399 2.35875E+01-9.03397E-02 1.00854E-02-3.39092E-01-5.01335E-15-7.86940E-14
 -1      1400 2.37461E+01-1.56773E-01 2.42988E-02-3.47402E-01-3.40439E-14 5.36702E-14
 -1      1401 2.32865E+01-9.05296E-02 1.52681E-02-5.32085E-01 1.83135E-14-2.69090E-14
 -1      1402 2.25811E+01-6.09124E-02 8.83373E-03-5.80230E-01 3.21618E-14 4.40828E-14
 -1      1403 2.33740E+01-1.53780E-01 2.68956E-02-8.18179E-01 3.54577E-15 1.77369E-13
 -1      1404 2.21187E+01-3.90361E-02 8.84461E-03-6.84494E-01 8.67255E-14 1.60635E-14
 -1      1405 2.12660E+01 1.31788E-02-2.40768E-04-6.96081E-01 9.99498E-14 2.27839E-13
 -1      1406 2.26398E+01-7.83690E-02 1.78527E-02-1.18957E+00 1.01035E-13 1.59655E-13
 -1      1407 2.07683E+01 5.32740E-02-6.01173E-03-6.22586E-01 7.52792E-14 2.99268E-13
 -1      1408 2.00407E+01 1.07979E-01-1.48096E-02-5.75544E-01 3.64778E-14 3.88224E-13
 -1      1409 2.16937E+01 6.63323E-02-5.81176E-03-1.24118E+00 1.50070E-13 1.63284E-13
 -1      1410 1.97008E+01 1.42621E-01-2.13616E-02-3.07391E-01-6.61641E-14 2.88623E-13
 -1      1411 1.93883E+01 1.68522E-01-2.54844E-02-2.11728E-01-1.02026E-13 1.98165E-13
 -1      1412 2.08550E+01 2.19801E-01-3.50043E-02-8.31582E-01-5.10841E-14 1.39290E-13
 -1      1413 1.93645E+01 1.71125E-01-2.60545E-02 1.50173E-01-3.80928E-14 8.57066E-14
 -1      1414 1.96049E+01 1.51080E-01-2.29419E-02 2.49457E-01-4.30524E-14-1.21916E-14
 -1      1415 2.04877E+01 2.92465E-01-4.98858E-02-5.79563E-02-1.52881E-13 1.06794E-14
 -1      1416 1.99091E+01 1.19530E-01-1.69864E-02 5.38723E-01-2.28897E-14-4.33126E-14
 -1      1417 2.05956E+01 6.69862E-02-8.61102E-03 5.93867E-01-1.71712E-14 1.53141E-14
 -1      1418 2.07711E+01 2.36210E-01-3.85491E-02 7.42439E-01-6.67921E-14-7.96550E-14
 -1      1419 2.10842E+01 2.59713E-02-2.35215E-03 6.95518E-01-2.10667E-14 2.57988E-14
 -1      1420 2.19382E+01-2.81704E-02 6.95089E-03 6.91177E-01-3.67112E-14-1.64244E-14
 -1      1421 2.15660E+01 8.86087E-02-1.03190E-02 1.21381E+00-2.57398E-14-2.99830E-14
 -1      1422 2.24157E+01-5.32501E-02 7.88971E-03 6.06912E-01-5.29498E-14-5.52822E-14
 -1      1423 2.31537E+01-8.63798E-02 1.48144E-02 5.61960E-01-1.24154E-14-6.19504E-14
 -1      1424 2.25203E+01-6.19814E-02 1.50122E-02 1.22119E+00-1.11129E-13-6.83065E-14
 -1      1425 2.34816E+01-8.87445E-02 1.02478E-02 3.75535E-01 3.50874E-14-1.06866E-13
 -1      1426 2.39397E+01-9.72791E-02 1.40016E-02 3.19557E-01-4.41340E-14-1.06009E-13
 -1      1427 2.32981E+01-1.47978E-01 2.63563E-02 8.80917E-01-3.90521E-14-1.64996E-13
 -1      1428 2.40724E+01-8.52021E-02 7.34383E-03 1.22561E-01-9.29838E-14-6.90697E-14
 -1      1429 2.42260E+01-7.76452E-02 8.74442E-03 7.60662E-02-2.18853E-14-1.75334E-13
 -1      1430 2.37247E+01-1.59258E-01 2.50139E-02 4.13004E-01-6.36713E-14-1.65125E-13
 -1      1431 2.41863E+01-6.19216E-02 3.21272E-03-7.66647E-02-4.68020E-14-1.99197E-13
 -1      1432 2.40990E+01-4.82917E-02 3.38782E-03-1.06451E-01-6.74998E-14-3.00486E-13
 -1      1433 2.37882E+01-1.24130E-01 1.76469E-02-6.63714E-03-9.31677E-14-3.17957E-13
 -1      1434 2.39394E+01-3.53974E-02 2.41621E-04-1.99530E-01-1.33977E-14-3.33723E-13
 -1      1435 2.37025E+01-2.21364E-02-1.26438E-04-2.13935E-01 5.03790E-14-3.44743E-13
 -1      1436 2.35701E+01-7.56541E-02 9.56397E-03-2.97755E-01-5.29264E-14-3.98275E-13
 -1      1437 2.34775E+01-1.40099E-02-1.09273E-03-2.55262E-01 3.64693E-14-3.74237E-13
 -1      1438 2.31721E+01-3.77805E-03-1.70072E-03-2.58758E-01 1.33094E-14-2.33456E-13
 -1      1439 2.31776E+01-3.36180E-02 3.28037E-03-4.54677E-01 2.12148E-14-3.38005E-13
 -1      1440 2.29249E+01 1.43947E-04-1.25309E-03-2.64098E-01 9.18074E-14-2.63149E-13
 -1      1441 2.26082E+01 6.99675E-03-1.98675E-03-2.61144E-01 8.14407E-14-1.45483E-13
 -1      1442 2.27055E+01-4.70068E-03-7.26427E-04-5.07298E-01 1.01126E-13-3.03090E-13
 -1      1443 2.23674E+01 8.04498E-03-8.56495E-04-2.45440E-01-7.78902E-15-1.82892E-14
 -1      1444 2.20731E+01 1.21313E-02-1.65262E-03-2.39354E-01-7.65978E-15-1.09409E-14
 -1      1445 2.22225E+01 1.18948E-02-2.87020E-03-4.92697E-01 5.08391E-14-1.52734E-13
 -1      1446 2.18551E+01 1.15373E-02-3.34347E-04-2.13674E-01-1.15185E-13-9.15917E-14
 -1      1447 2.15992E+01 1.36696E-02-1.13613E-03-2.06563E-01-1.55310E-13-2.60066E-13
 -1      1448 2.17710E+01 1.95201E-02-3.75497E-03-4.41806E-01-4.71611E-14-2.10582E-13
 -1      1449 2.14115E+01 1.23090E-02 1.03191E-04-1.77979E-01-1.22777E-13-3.33679E-13
 -1      1450 2.11989E+01 1.31895E-02-6.53387E-04-1.71024E-01-1.92127E-13-5.82786E-13
 -1      1451 2.13729E+01 2.15429E-02-3.88951E-03-3.76040E-01-2.32913E-13-1.82473E-13
 -1      1452 2.10428E+01 1.15986E-02 3.94971E-04-1.43523E-01-6.99545E-14-6.05859E-13
 -1      1453 2.08719E+01 1.17439E-02-2.79630E-04-1.37295E-01-5.19077E-14-5.70176E-13
 -1      1454 2.10362E+01 2.05021E-02-3.62617E-03-3.08405E-01-2.37763E-13-3.44573E-13
 -1      1455 2.07459E+01 1.02159E-02 5.51962E-04-1.12787E-01-9.79960E-14-5.84559E-13
 -1      1456 2.06120E+01 9.97707E-03-2.16824E-05-1.07487E-01-3.87865E-14-7.42524E-13
 -1      1457 2.07601E+01 1.80616E-02-3.18593E-03-2.45816E-01-1.34436E-13-4.42915E-13
 -1      1458 2.05127E+01 8.65584E-03 6.06227E-04-8.65932E-02 4.37575E-14-5.86492E-13
 -1      1459 2.04104E+01 8.26129E-03 1.35529E-04-8.22133E-02 1.30676E-13-5.69895E-13
 -1      1460 2.05395E+01 1.52250E-02-2.70002E-03-1.91226E-01 5.59357E-14-2.84330E-13
 -1      1461 2.03340E+01 7.21047E-03 5.82758E-04-6.47969E-02 2.70163E-13-5.51788E-13
 -1      1462 2.02578E+01 6.80395E-03 2.01981E-04-6.12083E-02 1.92753E-13-2.31034E-13
 -1      1463 2.03674E+01 1.25686E-02-2.24571E-03-1.45185E-01 2.63432E-13-1.93063E-13
 -1      1464 2.02007E+01 6.05168E-03 4.84077E-04-4.67007E-02 1.88688E-13 3.57078E-14
 -1      1465 2.01465E+01 5.71742E-03 1.71847E-04-4.37043E-02 2.11259E-13 2.82418E-13
 -1      1466 2.02365E+01 1.04225E-02-1.87043E-03-1.06844E-01 3.91869E-13 2.04172E-13
 -1      1467 2.01055E+01 5.27435E-03 2.90191E-04-3.13079E-02-1.07601E-14 2.41302E-13
 -1      1468 2.00700E+01 5.02247E-03 4.76508E-05-2.86596E-02-9.13424E-14 2.33730E-13
 -1      1469 2.01402E+01 8.98510E-03-1.59797E-03-7.45806E-02 1.46679E-13 3.61868E-13
 -1      1470 2.00427E+01 4.82531E-03 1.62681E-05-1.76391E-02-8.63326E-14 1.55095E-13
 -1      1471 2.00241E+01 4.51392E-03-2.59647E-05-1.50957E-02 1.43817E-14 7.64577E-14
 -1      1472 2.00730E+01 8.27462E-03-1.38053E-03-4.65246E-02-5.52815E-14 3.44145E-13
 -1      1473 2.00078E+01 4.89333E-03 4.54046E-05-5.21834E-03-1.68831E-14 2.49911E-14
 -1      1474 2.00043E+01 3.36537E-03 6.58274E-04-2.70523E-03-8.35085E-14 2.17504E-14
 -1      1475 2.00300E+01 7.82273E-03-1.06813E-03-2.16919E-02-3.02541E-15 3.84310E-13
 -1      1476 1.99971E+01-1.07538E-03 1.69972E-03 2.96920E-03-5.97135E-15-5.25704E-14
 -1      1477 2.00053E+01 1.96759E-03 5.96074E-05-1.06894E-03-6.54750E-15 1.90309E-13
 -1      1478 2.02196E+01 7.54811E-02-1.51939E-01 4.82648E-01 1.69514E-13 1.14957E-12
 -1      1479 2.14877E+01 2.15950E-01-2.29178E-01 7.19440E-01 1.50310E-13 1.42360E-12
 -1      1480 2.16928E+01 8.80866E-01-8.53800E-02 2.06127E+00 2.97436E-13 8.90440E-13
 -1      1481 1.92952E+01 3.25001E-02-2.12998E-02 1.84674E-01 1.26130E-13 8.22425E-13
 -1      1482 1.97142E+01 1.13656E-01-6.26055E-02 2.36691E-01 1.16452E-13 1.02487E-12
 -1      1483 2.02718E+01 1.87659E-01-5.51484E-02 7.83427E-01 2.49828E-13 6.42415E-13
 -1      1484 1.89188E+01 1.53638E-02 5.64819E-03 5.14360E-02 9.67715E-14 5.78083E-13
 -1      1485 1.90550E+01 5.18878E-02 1.03825E-03 7.78738E-02 9.45416E-14 7.27949E-13
 -1      1486 1.95320E+01 7.21362E-02-1.21857E-02 2.95444E-01 1.99618E-13 4.53184E-13
 -1      1487 1.88168E+01 7.55546E-03 6.91921E-03-1.24894E-02 8.01169E-14 3.81112E-13
 -1      1488 1.88275E+01 2.63793E-02 1.11521E-02 2.19007E-03 6.42676E-14 5.01297E-13
 -1      1489 1.92042E+01 3.16727E-02-2.55218E-03 7.78644E-02 1.56996E-13 2.85456E-13
 -1      1490 1.88565E+01 3.86943E-03 4.68246E-03-4.50417E-02 3.05669E-14 2.49792E-13
 -1      1491 1.88062E+01 1.46605E-02 8.60285E-03-3.64348E-02 4.97514E-14 3.26491E-13
 -1      1492 1.90994E+01 1.43199E-02-1.77952E-03-3.07031E-02 1.06790E-13 1.90097E-13
 -1      1493 1.89722E+01 2.00720E-03 3.13877E-03-6.18941E-02 1.06005E-14 2.35554E-13
 -1      1494 1.88911E+01 8.57176E-03 5.47799E-03-5.66517E-02-8.75385E-16 2.36609E-13
 -1      1495 1.91186E+01 6.12856E-03-1.89501E-03-8.76772E-02 2.39483E-14 1.48157E-13
 -1      1496 1.91295E+01 1.13733E-03 2.28237E-03-7.07191E-02 4.50512E-14 1.77342E-13
 -1      1497 1.90328E+01 5.31691E-03 3.57645E-03-6.73564E-02 1.14776E-14 2.07378E-13
 -1      1498 1.92083E+01 2.16314E-03-1.77979E-03-1.18251E-01 3.56454E-14 1.04997E-13
 -1      1499 1.93109E+01 9.07745E-04 1.72107E-03-7.59459E-02 4.95991E-14 6.69616E-14
 -1      1500 1.92058E+01 3.73430E-03 2.51510E-03-7.35040E-02 5.48226E-14 1.55287E-13
 -1      1501 1.93396E+01 5.19683E-04-1.59584E-03-1.35509E-01 7.83396E-14 2.31338E-14
 -1      1502 1.95094E+01 1.13546E-03 1.25274E-03-8.04708E-02 4.33054E-14-7.32235E-14
 -1      1503 1.93983E+01 3.27784E-03 1.88390E-03-7.82619E-02 3.28479E-14 9.54922E-15
 -1      1504 1.94980E+01 3.43264E-04-1.50790E-03-1.47258E-01 8.71947E-14-6.09380E-14
 -1      1505 1.97250E+01 1.70728E-03 8.05365E-04-8.63461E-02 3.60498E-14-1.03625E-13
 -1      1506 1.96068E+01 3.65028E-03 1.47458E-03-8.38381E-02 4.28839E-14-8.48497E-14
 -1      1507 1.96776E+01 1.17964E-03-1.57467E-03-1.58679E-01 6.76038E-14-1.12188E-13
 -1      1508 1.99623E+01 2.53746E-03 3.56068E-04-9.50855E-02-3.21141E-14-7.20491E-14
 -1      1509 1.98338E+01 4.66316E-03 1.19306E-03-9.18454E-02-1.30242E-14-1.18934E-13
 -1      1510 1.98783E+01 2.74762E-03-1.80483E-03-1.73449E-01 4.23381E-16-9.24789E-14
 -1      1511 2.02296E+01 3.54034E-03-1.01965E-04-1.07779E-01 1.41082E-14-9.90180E-15
 -1      1512 2.00856E+01 6.16668E-03 9.89089E-04-1.03451E-01-1.36729E-14-6.80489E-14
 -1      1513 2.01043E+01 4.83436E-03-2.19110E-03-1.94226E-01-4.06097E-14-9.44519E-14
 -1      1514 2.05373E+01 4.60146E-03-5.65097E-04-1.25069E-01 2.95169E-14-8.00653E-14
 -1      1515 2.03716E+01 7.99584E-03 8.25842E-04-1.19385E-01 3.54139E-14-2.38776E-14
 -1      1516 2.03626E+01 7.22476E-03-2.71571E-03-2.22778E-01 3.15921E-14-1.20777E-13
 -1      1517 2.08965E+01 5.53917E-03-1.01063E-03-1.46972E-01 6.94475E-14-1.95005E-13
 -1      1518 2.07026E+01 9.90872E-03 6.69728E-04-1.39805E-01 5.98665E-14-8.42885E-14
 -1      1519 2.06615E+01 9.62804E-03-3.33977E-03-2.59833E-01 6.80064E-14-1.85406E-13
 -1      1520 2.13170E+01 6.05191E-03-1.37518E-03-1.72510E-01 2.78690E-14-3.15266E-13
 -1      1521 2.10890E+01 1.15026E-02 4.90645E-04-1.63986E-01 4.25280E-14-2.19012E-13
 -1      1522 2.10090E+01 1.15810E-02-3.98048E-03-3.04601E-01 7.46603E-14-1.34256E-13
 -1      1523 2.18035E+01 5.65137E-03-1.51541E-03-1.99081E-01 9.25150E-15-3.62315E-13
 -1      1524 2.15383E+01 1.21009E-02 2.73105E-04-1.89771E-01 8.66202E-15-3.35814E-13
 -1      1525 2.14108E+01 1.23171E-02-4.47337E-03-3.53888E-01 4.67877E-14-2.40246E-13
 -1      1526 2.23502E+01 3.59812E-03-1.14850E-03-2.21520E-01 6.27658E-14-4.54848E-13
 -1      1527 2.20508E+01 1.06194E-02 4.44986E-05-2.12757E-01 4.06611E-14-3.55709E-13
 -1      1528 2.18663E+01 1.06053E-02-4.51784E-03-4.00703E-01 4.69496E-14-2.84534E-13
 -1      1529 2.29331E+01-1.10068E-03 2.08229E-04-2.30962E-01-7.08203E-14-4.13799E-13
 -1      1530 2.26132E+01 5.47497E-03-7.47580E-05-2.25254E-01-2.60066E-14-4.82191E-13
 -1      1531 2.23640E+01 4.61528E-03-3.61741E-03-4.32412E-01 3.68647E-14-2.57017E-13
 -1      1532 2.35004E+01-9.48828E-03 3.21906E-03-2.13959E-01-9.66848E-15-3.82118E-13
 -1      1533 2.31902E+01-5.29269E-03 1.86402E-04-2.15383E-01-1.19130E-14-3.81925E-13
 -1      1534 2.28749E+01-8.01475E-03-1.06535E-03-4.28899E-01-3.92945E-14-4.01400E-13
 -1      1535 2.39620E+01-2.19943E-02 8.45229E-03-1.53150E-01-3.24294E-14-3.44162E-13
 -1      1536 2.37147E+01-2.33283E-02 1.24766E-03-1.67336E-01-9.05135E-15-3.58474E-13
 -1      1537 2.33454E+01-2.94992E-02 3.89979E-03-3.62240E-01-2.51535E-15-2.81237E-13
 -1      1538 2.41883E+01-3.70236E-02 1.56015E-02-3.19621E-02 9.03878E-15-3.72399E-13
 -1      1539 2.40811E+01-4.81892E-02 3.47546E-03-6.48334E-02-2.59176E-14-3.26739E-13
 -1      1540 2.36923E+01-5.99655E-02 1.15663E-02-2.01122E-01-3.39477E-14-2.44612E-13
 -1      1541 2.40283E+01-4.90945E-02 2.22283E-02 1.53547E-01 1.75771E-14-4.32293E-13
 -1      1542 2.41514E+01-7.44066E-02 6.61608E-03 9.94019E-02 4.86330E-15-3.62146E-13
 -1      1543 2.38078E+01-9.37529E-02 2.07574E-02 7.49913E-02 1.68251E-14-1.90972E-13
 -1      1544 2.33655E+01-4.83411E-02 2.29267E-02 3.76082E-01-3.74423E-14-3.64646E-13
 -1      1545 2.37873E+01-8.90792E-02 8.98762E-03 3.07399E-01-3.48124E-14-4.41078E-13
 -1      1546 2.35833E+01-1.15439E-01 2.77808E-02 4.48785E-01-5.30825E-15-2.40885E-13
 -1      1547 2.22115E+01-2.45899E-02 1.11121E-02 5.62268E-01-1.40166E-14-2.48003E-13
 -1      1548 2.29213E+01-7.43208E-02 7.21736E-03 5.00228E-01-4.76702E-14-3.14221E-13
 -1      1549 2.29625E+01-1.00496E-01 2.68121E-02 8.33560E-01-1.01724E-13-2.36146E-13
 -1      1550 2.07999E+01 2.20428E-02-1.47382E-02 6.05565E-01-4.31139E-14-1.84019E-13
 -1      1551 2.16524E+01-1.92606E-02-1.78095E-03 5.82189E-01 1.10106E-14-2.34403E-13
 -1      1552 2.20166E+01-2.87490E-02 1.32635E-02 1.06666E+00-4.58118E-14-9.64888E-14
 -1      1553 1.95854E+01 7.14739E-02-4.40383E-02 4.28179E-01 2.85614E-14-9.17391E-14
 -1      1554 2.03057E+01 6.20765E-02-1.63297E-02 4.67402E-01-3.56815E-14-1.56500E-13
 -1      1555 2.09952E+01 9.02858E-02-9.56840E-03 9.72047E-01-2.97002E-14-7.41664E-14
 -1      1556 1.90625E+01 9.25836E-02-5.67840E-02 6.34623E-02-2.57034E-14-1.89984E-13
 -1      1557 1.93594E+01 1.27802E-01-2.77449E-02 1.57251E-01 7.04922E-14-1.35544E-13
 -1      1558 2.02738E+01 2.00317E-01-2.92409E-02 4.94090E-01 4.09152E-14-4.67369E-14
 -1      1559 1.94702E+01 7.02437E-02-4.17622E-02-3.31390E-01-8.59998E-14-8.60492E-14
 -1      1560 1.92101E+01 1.37132E-01-2.62813E-02-2.25427E-01-1.17977E-13-1.71682E-13
 -1      1561 2.01658E+01 2.28420E-01-3.40922E-02-2.02776E-01-1.40096E-13 6.11221E-14
 -1      1562 2.06251E+01 2.08000E-02-8.52674E-03-5.77371E-01 5.93093E-14-7.89785E-14
 -1      1563 1.99238E+01 8.71051E-02-1.14979E-02-5.06601E-01-4.41227E-15-1.29702E-13
 -1      1564 2.07185E+01 1.50992E-01-2.40796E-02-8.06952E-01-4.79131E-14-3.30951E-14
 -1      1565 2.20489E+01-2.48083E-02 2.17853E-02-5.97603E-01 1.03681E-13-4.68701E-13
 -1      1566 2.11920E+01 1.34328E-02 6.89284E-03-5.82220E-01 1.86281E-13-1.93970E-13
 -1      1567 2.16827E+01 1.94749E-02-8.69638E-03-1.07233E+00 2.25688E-13-1.69677E-13
 -1      1568 2.32633E+01-4.74487E-02 3.52992E-02-4.42841E-01-9.94239E-14-3.62148E-13
 -1      1569 2.25332E+01-4.35714E-02 1.83419E-02-4.71055E-01-9.89209E-14-5.78745E-13
 -1      1570 2.26826E+01-8.90450E-02 3.01144E-03-9.64981E-01 1.51008E-15-1.58547E-13
 -1      1571 2.40007E+01-4.74846E-02 3.26845E-02-2.20719E-01 5.56855E-14-2.73174E-13
 -1      1572 2.35542E+01-6.69857E-02 1.96322E-02-2.67155E-01-1.10519E-14-3.52003E-13
 -1      1573 2.34213E+01-1.34076E-01 8.30635E-03-6.25694E-01-7.64059E-14-1.41847E-13
 -1      1574 2.42266E+01-3.52600E-02 2.20491E-02-1.92062E-02 1.23027E-13-5.33872E-13
 -1      1575 2.40819E+01-6.29201E-02 1.42576E-02-6.32682E-02 1.10846E-13-3.42146E-13
 -1      1576 2.37749E+01-1.23738E-01 8.78829E-03-2.34459E-01 1.64691E-13-3.36776E-13
 -1      1577 2.40493E+01-2.05028E-02 1.07545E-02 1.21142E-01-4.74351E-14-7.20367E-13
 -1      1578 2.41403E+01-4.55927E-02 7.17612E-03 8.91478E-02 4.64975E-14-6.28279E-13
 -1      1579 2.37659E+01-8.66629E-02 6.95116E-03 8.73394E-02 1.09112E-13-3.86711E-13
 -1      1580 2.36207E+01-8.41150E-03 2.45707E-03 1.97267E-01 1.06529E-13-9.40439E-13
 -1      1581 2.38564E+01-2.64060E-02 1.54708E-03 1.78577E-01 7.32227E-14-8.36123E-13
 -1      1582 2.34920E+01-4.68535E-02 4.59962E-03 2.95554E-01 9.10504E-14-6.40355E-13
 -1      1583 2.30756E+01-3.71528E-04-2.28452E-03 2.23745E-01 1.46920E-13-1.20622E-12
 -1      1584 2.33766E+01-1.09756E-02-1.68692E-03 2.15619E-01 7.71247E-14-1.05189E-12
 -1      1585 2.30645E+01-1.60020E-02 2.60955E-03 3.97805E-01 1.50321E-13-7.89238E-13
 -1      1586 2.25097E+01 4.12042E-03-4.31534E-03 2.18440E-01-1.21159E-13-1.02325E-12
 -1      1587 2.28207E+01-6.51769E-04-2.92792E-03 2.17302E-01-8.61588E-14-1.10290E-12
 -1      1588 2.25761E+01 3.60094E-03 1.21500E-03 4.22546E-01-6.05502E-14-7.99546E-13
 -1      1589 2.19806E+01 6.10829E-03-4.71254E-03 1.96080E-01 4.96513E-14-1.02443E-12
 -1      1590 2.22692E+01 5.24952E-03-2.96190E-03 1.98914E-01 2.60094E-14-9.03413E-13
 -1      1591 2.20908E+01 1.39336E-02 3.40382E-04 3.99645E-01-8.24408E-14-7.71757E-13
 -1      1592 2.15169E+01 6.55954E-03-4.29856E-03 1.66753E-01-5.43993E-14-7.74120E-13
 -1      1593 2.17677E+01 7.99184E-03-2.45095E-03 1.71447E-01-6.64455E-14-9.38173E-13
 -1      1594 2.16463E+01 1.79783E-02-1.65406E-04 3.52470E-01-2.72169E-14-4.90403E-13
 -1      1595 2.11282E+01 6.18066E-03-3.57816E-03 1.36523E-01-1.62723E-13-5.44842E-13
 -1      1596 2.13366E+01 8.74568E-03-1.79894E-03 1.41766E-01-2.74919E-14-6.43039E-13
 -1      1597 2.12604E+01 1.83063E-02-4.31744E-04 2.96592E-01-1.00597E-13-2.09645E-13
 -1      1598 2.08128E+01 5.42878E-03-2.81766E-03 1.08581E-01-1.57005E-14-3.08153E-13
 -1      1599 2.09804E+01 8.38570E-03-1.20087E-03 1.13647E-01-1.19049E-13-4.62806E-13
 -1      1600 2.09380E+01 1.67275E-02-5.50480E-04 2.41166E-01-1.84810E-13-8.98594E-14
 -1      1601 2.05635E+01 4.57874E-03-2.13993E-03 8.42801E-02-1.45268E-13-3.40756E-13
 -1      1602 2.06949E+01 7.49940E-03-7.25294E-04 8.88252E-02-1.24681E-14-3.66093E-13
 -1      1603 2.06768E+01 1.43785E-02-5.84191E-04 1.90852E-01-1.17918E-14-1.13229E-14
 -1      1604 2.03713E+01 3.79001E-03-1.59606E-03 6.38659E-02 1.55504E-13-4.53018E-13
 -1      1605 2.04718E+01 6.46119E-03-3.80415E-04 6.77892E-02 5.24258E-14-4.56194E-13
 -1      1606 2.04703E+01 1.19239E-02-5.78611E-04 1.47438E-01 8.63851E-14-2.09536E-13
 -1      1607 2.02269E+01 3.15571E-03-1.21266E-03 4.69356E-02 1.42716E-14-5.88334E-13
 -1      1608 2.03016E+01 5.50897E-03-1.56328E-04 5.02944E-02 3.55482E-14-5.58653E-13
 -1      1609 2.03111E+01 9.73702E-03-5.74130E-04 1.10977E-01 1.51202E-13-1.71248E-13
 -1      1610 2.01226E+01 2.72042E-03-1.01344E-03 3.27176E-02 1.48750E-13-7.55163E-13
 -1      1611 2.01759E+01 4.79240E-03-5.07697E-05 3.56755E-02 8.86240E-14-4.82298E-13
 -1      1612 2.01918E+01 8.02652E-03-6.12307E-04 8.05055E-02 1.23352E-13-4.28280E-13
 -1      1613 2.00527E+01 2.49506E-03-9.72036E-04 2.02895E-02-1.47870E-13-7.50022E-13
 -1      1614 2.00875E+01 4.39179E-03-6.64780E-05 2.30829E-02 1.10535E-14-7.24066E-13
 -1      1615 2.01062E+01 6.89048E-03-7.24865E-04 5.45333E-02 5.48284E-14-2.40267E-13
 -1      1616 2.00132E+01 2.41162E-03-7.57751E-04 8.76163E-03-3.86233E-14-5.34164E-13
 -1      1617 2.00311E+01 4.28261E-03-1.13874E-04 1.17360E-02-3.86705E-14-6.34624E-13
 -1      1618 2.00491E+01 6.40698E-03-8.14665E-04 3.15517E-02-8.25496E-14-2.20150E-13
 -1      1619 2.00002E+01 1.76976E-03 8.19212E-04-7.67993E-04-3.94511E-14-5.20802E-13
 -1      1620 2.00028E+01 3.50505E-03 1.93884E-04 1.84800E-03-3.10949E-14-6.23484E-13
 -1      1621 2.00158E+01 5.36379E-03-6.04009E-04 1.08619E-02 5.87429E-14-2.67205E-13
 -1      1622 1.99978E+01-1.15721E-03 1.68105E-03-2.48362E-03-1.86082E-13-2.66156E-13
 -1      1623 2.00039E+01 8.57055E-03-5.39657E-04 6.12344E-03 9.35840E-15 1.38471E-13
 -1      1624 2.00036E+01 4.25878E-03 5.42153E-04 3.68910E-03-2.49416E-13 3.79241E-13
 -1      1625 2.00034E+01 4.12758E-02-5.58732E-04 1.72600E-02 1.27268E-13 1.59767E-13
 -1      1626 2.00039E+01 2.35054E-02-3.90267E-04 1.50648E-02 1.04373E-13-1.28285E-14
 -1      1627 2.00079E+01 2.95746E-02-7.74990E-04 2.17179E-02-3.28900E-14 8.87686E-14
 -1      1628 2.00016E+01 9.14639E-02-3.25081E-04 2.54091E-02 2.44373E-13-8.66271E-14
 -1      1629 2.00027E+01 6.32467E-02-3.76619E-04 2.40882E-02 2.72986E-13 1.06351E-13
 -1      1630 2.00055E+01 6.66545E-02-8.77167E-04 4.07187E-02 2.86529E-14 3.15223E-13
 -1      1631 1.99996E+01 1.50693E-01-1.16646E-04 2.85782E-02 2.13950E-13-1.81367E-13
 -1      1632 2.00008E+01 1.17760E-01-1.99072E-04 2.83625E-02 2.32338E-13 1.99496E-14
 -1      1633 2.00024E+01 1.15307E-01-3.57256E-04 5.23994E-02 2.80910E-13-2.38321E-13
 -1      1634 1.99978E+01 2.07663E-01-7.92961E-06 2.66006E-02-2.04209E-13-1.57978E-13
 -1      1635 1.99988E+01 1.76751E-01-6.63672E-05 2.73742E-02-2.36402E-14-3.40143E-13
 -1      1636 1.99991E+01 1.67941E-01 2.34626E-04 5.43181E-02 6.61770E-15-5.54543E-13
 -1      1637 1.99964E+01 2.54703E-01 4.88092E-05 2.00668E-02-4.19772E-13 8.79895E-14
 -1      1638 1.99972E+01 2.30297E-01 1.34155E-05 2.16750E-02-2.21017E-13 2.57686E-14
 -1      1639 1.99963E+01 2.16740E-01 7.51858E-04 4.68093E-02-2.40637E-13-2.47507E-13
 -1      1640 1.99956E+01 2.83043E-01 6.88030E-05 1.02332E-02-4.15848E-13 1.08963E-13
 -1      1641 1.99961E+01 2.69805E-01 5.11347E-05 1.23675E-02-4.04931E-13 1.88732E-13
 -1      1642 1.99941E+01 2.54465E-01 1.13501E-03 3.14327E-02-3.66948E-14 6.82921E-14
 -1      1643 1.99955E+01 2.88194E-01 6.80824E-05-1.24409E-03-1.08666E-13 2.86160E-13
 -1      1644 1.99955E+01 2.88298E-01 6.84546E-05 1.07066E-03-3.84751E-13 1.45126E-13
 -1      1645 1.99930E+01 2.74812E-01 1.33597E-03 1.09534E-02-5.83716E-14 2.02792E-13
 -1      1646 1.99961E+01 2.69353E-01 4.86108E-05-1.25274E-02-1.30794E-13-4.16637E-14
 -1      1647 1.99956E+01 2.82791E-01 6.93140E-05-1.03982E-02-1.29185E-13 2.37661E-13
 -1      1648 1.99930E+01 2.74665E-01 1.33466E-03-1.12802E-02-1.23408E-13 3.08497E-13
 -1      1649 1.99972E+01 2.29554E-01 4.61329E-06-2.17983E-02-6.71456E-13-3.11970E-13
 -1      1650 1.99965E+01 2.54125E-01 5.35615E-05-2.02052E-02-2.06598E-13-3.39589E-13
 -1      1651 1.99941E+01 2.54044E-01 1.12876E-03-3.17213E-02-3.71657E-13-2.98762E-13
 -1      1652 1.99989E+01 1.76306E-01-6.50756E-05-2.74021E-02-8.23920E-13 1.40507E-13
 -1      1653 1.99978E+01 2.07288E-01-5.88436E-06-2.66394E-02-7.31434E-13-1.40187E-13
 -1      1654 1.99963E+01 2.16488E-01 7.56397E-04-4.69424E-02-5.18407E-13-4.32116E-13
 -1      1655 2.00008E+01 1.16805E-01-1.95848E-04-2.83524E-02-4.53517E-13 1.18935E-13
 -1      1656 1.99997E+01 1.49733E-01-1.21737E-04-2.85892E-02-7.59336E-13 4.15537E-13
 -1      1657 1.99991E+01 1.67587E-01 2.28995E-04-5.43689E-02-3.36288E-13 3.19671E-13
 -1      1658 2.00026E+01 6.23300E-02-4.24243E-04-2.39969E-02-8.50975E-13-2.08037E-13
 -1      1659 2.00016E+01 9.05331E-02-3.21600E-04-2.53086E-02-5.56715E-13-2.08908E-13
 -1      1660 2.00025E+01 1.14470E-01-3.63584E-04-5.23113E-02-3.18151E-13-5.13634E-14
 -1      1661 2.00045E+01 2.33837E-02-1.51201E-04-1.51164E-02-5.04555E-13 4.14708E-13
 -1      1662 2.00032E+01 4.07457E-02-5.90513E-04-1.74010E-02-8.17214E-13 2.81298E-13
 -1      1663 2.00053E+01 6.62056E-02-8.73310E-04-4.04358E-02-2.86134E-13 3.09854E-14
 -1      1664 2.00062E+01 9.07482E-03 6.32324E-04-7.41225E-03-9.10633E-14 2.59900E-13
 -1      1665 2.00062E+01 1.41590E-02-5.20582E-04-1.08349E-02-3.71027E-13 3.15209E-13
 -1      1666 2.00118E+01 3.61964E-02-1.94655E-04-2.74685E-02-2.10395E-13 6.52335E-13
 -1      1667 2.00170E+01 1.85140E-02 5.66642E-04-1.65709E-02-2.43539E-13 3.76704E-13
 -1      1668-6.35273E-01-1.48324E+01-1.73456E+00-1.05850E+00 5.32685E-13 6.78402E-13
 -1      1669-6.10121E-01-1.68090E+01-1.90419E+00 2.47237E-01-4.59993E-13 6.24778E-13
 -1      1670 9.54604E-01-8.61746E+00-1.29934E+00 8.47489E-02 1.41465E-12 7.95863E-13
 -1      1671 3.79495E-01-1.34568E+01-1.77690E+00-3.47174E-01 8.37330E-13 6.99142E-13
 -1      1672 6.35680E+00-1.11012E+00-6.17729E-01 4.13989E+00 1.50635E-12 8.70637E-13
 -1      1673 3.55212E+00-6.56190E+00-1.33569E+00 1.46066E+00 1.51923E-12 8.28893E-13
 -1      1674 1.60767E+01 4.68891E+00 1.45182E-01 9.19181E+00 1.27809E-12 1.39855E-12
 -1      1675 9.95885E+00 1.02520E+00-7.28361E-01 5.47296E+00 1.55009E-12 1.06548E-12
 -1      1676 2.92433E+01 6.31763E+00 8.17743E-01 1.22474E+01 1.06826E-12 1.47105E-12
 -1      1677 2.09189E+01 5.71473E+00 1.20011E-02 1.00569E+01 1.23823E-12 1.45084E-12
 -1      1678 4.32423E+01 5.07235E+00 1.40296E+00 1.03432E+01 6.14953E-13 1.06581E-12
 -1      1679 3.43656E+01 6.26095E+00 7.16091E-01 1.11919E+01 8.53706E-13 1.26077E-12
 -1      1680 5.32687E+01 3.70595E+00 1.84926E+00 5.18847E+00 4.55358E-13 4.53637E-13
 -1      1681 4.76244E+01 5.19523E+00 1.45038E+00 9.54133E+00 6.30621E-13 1.06914E-12
 -1      1682 5.33301E+01 3.87075E+00 1.66378E+00-3.23243E+00 3.62710E-13-3.50470E-13
 -1      1683 5.38367E+01 3.79619E+00 1.74561E+00 2.48735E+00 4.62907E-13 2.63511E-13
 -1      1684 4.51709E+01 5.42007E+00 1.22220E+00-9.34959E+00 5.95218E-13-1.09235E-12
 -1      1685 5.13227E+01 3.96217E+00 1.64166E+00-5.42501E+00 3.52413E-13-6.98330E-13
 -1      1686 3.27120E+01 6.63283E+00 6.77065E-01-1.18002E+01 1.20681E-12-1.54121E-12
 -1      1687 4.16318E+01 5.41051E+00 1.35078E+00-1.12913E+01 8.04606E-13-1.26166E-12
 -1      1688 1.94398E+01 5.38240E+00-5.05116E-02-9.58729E+00 1.46372E-12-1.66867E-12
 -1      1689 2.76669E+01 6.39621E+00 7.89209E-01-1.21324E+01 1.24700E-12-1.65468E-12
 -1      1690 8.94617E+00-7.09748E-01-8.36310E-01-4.60076E+00 1.59439E-12-1.26321E-12
 -1      1691 1.49102E+01 3.58229E+00 4.75965E-02-8.47372E+00 1.49458E-12-1.52034E-12
 -1      1692 2.49450E+00-7.95559E+00-1.47408E+00-7.81431E-01 1.40143E-12-8.62366E-13
 -1      1693 4.65677E+00-2.46015E+00-7.85945E-01-3.04325E+00 1.58984E-12-1.18722E-12
 -1      1694 4.94634E-02-1.46175E+01-1.81954E+00 3.26683E-01 7.36855E-13-4.56246E-13
 -1      1695 4.03480E-01-1.00366E+01-1.40973E+00 4.13425E-01 1.25111E-12-7.71355E-13
 -1      1696-6.53276E-01-1.60755E+01-1.75462E+00-6.03064E-01-1.33268E-13-3.41172E-13
 -1      1697-6.68675E-01-1.51791E+01-1.68626E+00 8.01200E-01 5.03209E-13-4.85417E-13
 -1      1698-4.08750E-01-1.31282E+01-1.59370E+00-1.01355E+00-4.91385E-13-1.79537E-13
 -1      1699-4.32163E-01-1.61807E+01-1.86248E+00-4.37892E-02-3.10196E-13-1.09440E-13
 -1      1700 2.67123E+00-5.71448E+00-9.85736E-01 1.64156E+00-7.88369E-13-6.04572E-13
 -1      1701 1.35542E+00-1.12462E+01-1.58571E+00 2.84544E-01-5.45231E-13-3.01703E-13
 -1      1702 1.10197E+01 1.12053E+00-2.18475E-01 6.54691E+00-1.01041E-12-1.19249E-12
 -1      1703 6.58021E+00-3.95780E+00-1.02214E+00 3.15027E+00-7.04214E-13-8.06688E-13
 -1      1704 2.27332E+01 5.79283E+00 5.47598E-01 1.10498E+01-1.13254E-12-1.44929E-12
 -1      1705 1.49422E+01 3.40987E+00-3.56402E-01 7.63437E+00-1.20481E-12-1.25511E-12
 -1      1706 3.68811E+01 5.99389E+00 1.15337E+00 1.23041E+01-8.10796E-13-1.40044E-12
 -1      1707 2.77540E+01 6.71314E+00 4.28757E-01 1.16099E+01-1.03151E-12-1.49214E-12
 -1      1708 4.88634E+01 4.29408E+00 1.54472E+00 7.26141E+00-5.29105E-13-9.04943E-13
 -1      1709 4.11492E+01 5.90977E+00 1.02401E+00 1.02465E+01-6.65148E-13-1.24767E-12
 -1      1710 5.47407E+01 3.56120E+00 1.84394E+00 1.81584E-01-2.65676E-13-4.48537E-13
 -1      1711 5.21885E+01 4.16928E+00 1.59810E+00 5.65372E+00-4.49585E-13-8.71636E-13
 -1      1712 5.04575E+01 4.63219E+00 1.61046E+00-7.59079E+00-5.81313E-13 5.94857E-13
 -1      1713 5.44330E+01 3.48615E+00 1.84518E+00-2.41183E+00-3.70592E-13-1.07053E-13
 -1      1714 3.86983E+01 6.49472E+00 1.03591E+00-1.19898E+01-9.95315E-13 1.51901E-12
 -1      1715 4.73517E+01 4.79313E+00 1.67927E+00-9.96574E+00-7.64618E-13 8.69527E-13
 -1      1716 2.38209E+01 6.02384E+00 1.91672E-01-1.05731E+01-1.25699E-12 1.57430E-12
 -1      1717 3.34115E+01 6.19197E+00 1.07268E+00-1.24094E+01-9.25759E-13 1.66911E-12
 -1      1718 1.11405E+01 1.88084E+00-6.57750E-01-6.08776E+00-1.71840E-12 1.42941E-12
 -1      1719 1.80885E+01 5.22742E+00 2.67781E-01-9.94793E+00-1.50502E-12 1.38312E-12
 -1      1720 3.82905E+00-5.61169E+00-1.31229E+00-1.65453E+00-1.55820E-12 9.54403E-13
 -1      1721 7.00407E+00-5.53855E-02-5.40982E-01-4.63105E+00-1.70663E-12 1.29119E-12
 -1      1722 6.02521E-01-1.30704E+01-1.72618E+00 1.75519E-01-1.23546E-12 4.06876E-13
 -1      1723 1.39596E+00-7.81970E+00-1.20635E+00-5.06967E-01-1.46427E-12 8.56037E-13
 -1      1724-6.10354E-01-1.68234E+01-1.90829E+00-2.38235E-01-7.17759E-13 3.38202E-13
 -1      1725-6.52779E-01-1.46985E+01-1.71904E+00 1.08743E+00-9.89431E-13 1.47105E-13
 -1      1726 2.30527E+01 7.75734E-01 2.20655E-01 7.41092E+00 8.14238E-13 8.94729E-13
 -1      1727 1.32230E+01-3.37589E+00-4.11465E-01 6.19043E+00 9.83769E-13 7.03548E-13
 -1      1728 2.00026E+01-5.11548E-04 4.46708E-04-1.46607E-03-2.91529E-13 8.98978E-14
 -1      1729 2.00078E+01 1.09989E-02 1.85381E-04 6.10688E-03-2.15377E-13 3.46955E-13
 -1      1730 2.76711E-01-1.04801E+01-1.24268E+00 2.00788E+00 1.60538E-13 1.07980E-12
 -1      1731 5.34416E+00-7.33721E+00-8.76744E-01 4.28193E+00 7.23643E-13 6.72525E-13
 -1      1732-1.33751E+00-1.16945E+01-1.36305E+00 6.40852E-03-1.84582E-13 7.95364E-13
 -1      1733 3.32295E+01 3.65135E+00 7.72086E-01 6.62510E+00 7.06823E-13 5.67657E-13
 -1      1734 4.14265E+01 5.88955E+00 1.17865E+00 4.43759E+00 6.06376E-13 3.49276E-13
 -1      1735 4.63125E+01 7.34029E+00 1.52994E+00 1.77805E+00 7.47458E-13 2.15772E-13
 -1      1736 4.49294E+01 7.40312E+00 1.38194E+00-1.63202E+00 6.28608E-13-2.82885E-13
 -1      1737 4.02915E+01 5.83464E+00 1.15470E+00-4.78767E+00 8.46725E-13-7.78044E-13
 -1      1738 3.21449E+01 3.45107E+00 7.29782E-01-7.12849E+00 1.00386E-12-1.04483E-12
 -1      1739 2.18361E+01-1.89428E-01 9.44070E-02-7.14596E+00 9.70335E-13-1.05316E-12
 -1      1740 1.19500E+01-4.20753E+00-4.51347E-01-5.98093E+00 8.75522E-13-9.25149E-13
 -1      1741 3.91399E+00-8.17391E+00-1.00397E+00-3.69171E+00 6.48814E-13-8.25000E-13
 -1      1742-3.76503E-01-1.05057E+01-1.23939E+00-1.58793E+00 2.39309E-13-7.34968E-13
 -1      1743-1.15753E+00-1.10221E+01-1.27901E+00 5.45447E-01-2.80748E-14-4.30100E-13
 -1      1744 1.80057E+00-9.34683E+00-1.07123E+00 3.05622E+00-2.45359E-13-3.54994E-13
 -1      1745 9.10052E+00-6.03320E+00-5.70616E-01 5.60617E+00-2.63345E-13-6.87672E-13
 -1      1746 1.82545E+01-2.29702E+00-1.74243E-01 6.72875E+00-3.88578E-13-8.52596E-13
 -1      1747 2.82956E+01 2.22986E+00 4.68990E-01 7.37488E+00-6.60083E-13-9.03277E-13
 -1      1748 3.77683E+01 5.05955E+00 9.97756E-01 5.62404E+00-5.28667E-13-6.41931E-13
 -1      1749 4.37621E+01 6.85139E+00 1.22227E+00 2.41986E+00-5.73819E-13-4.04898E-13
 -1      1750 4.68999E+01 7.30412E+00 1.52671E+00-5.33625E-01-6.52312E-13-1.24178E-13
 -1      1751 4.38734E+01 6.53656E+00 1.39505E+00-4.25301E+00-9.51378E-13 4.27991E-13
 -1      1752 3.58905E+01 4.43630E+00 9.24509E-01-6.66422E+00-8.22786E-13 9.83436E-13
 -1      1753 2.51771E+01 1.31010E+00 3.22108E-01-7.41053E+00-9.91540E-13 1.00076E-12
 -1      1754 1.42841E+01-2.68553E+00-3.41541E-01-6.38005E+00-1.03562E-12 8.85736E-13
 -1      1755 5.89017E+00-6.99786E+00-8.65401E-01-4.40390E+00-8.85514E-13 7.74103E-13
 -1      1756 5.30094E-01-1.02109E+01-1.19439E+00-2.24179E+00-5.61218E-13 4.60965E-13
 -1      1757 2.28217E+01 1.98254E+00-2.37893E-02-2.71820E+00-2.28824E-13 1.18455E-12
 -1      1758 1.98246E+01 3.71566E+00-3.55040E-02-2.14412E+00-3.43914E-13-2.13340E-13
 -1      1759 2.00545E+01 3.56206E+00-4.01304E-02-2.43723E+00-3.84050E-13-9.93719E-14
 -1      1760 2.03535E+01 3.18047E+00-4.56006E-02-2.57817E+00-3.76910E-13 5.10564E-14
 -1      1761 2.05663E+01 2.80788E+00-1.42318E-01-2.84682E+00-3.87093E-13 2.62179E-13
 -1      1762 2.04170E+01 2.69397E+00-4.36590E-03-2.21770E+00-3.99625E-13-7.29278E-15
 -1      1763 1.93681E+01 4.19768E+00-2.02428E-02-1.26281E+00-2.26761E-13-4.40037E-13
 -1      1764 1.94394E+01 4.15602E+00-1.74146E-02-1.48660E+00-2.63381E-13-4.04423E-13
 -1      1765 1.92745E+01 4.30599E+00-1.68309E-02-8.53345E-01-1.57518E-13-4.78445E-13
 -1      1766 1.93162E+01 4.28118E+00-1.42481E-02-1.06318E+00-1.92389E-13-4.57754E-13
 -1      1767 1.95406E+01 3.79488E+00-9.08287E-03-1.11113E+00-2.25857E-13-4.27184E-13
 -1      1768 1.92243E+01 4.36871E+00-1.48176E-02-4.62860E-01-8.26460E-14-5.04867E-13
 -1      1769 1.92458E+01 4.35523E+00-1.32407E-02-6.61894E-01-1.19427E-13-4.92176E-13
 -1      1770 1.94455E+01 3.91877E+00-9.02684E-03-7.26354E-01-1.43011E-13-4.59717E-13
 -1      1771 1.92053E+01 4.39545E+00-1.36521E-02-8.27906E-02-2.10265E-14-5.25649E-13
 -1      1772 1.92116E+01 4.39129E+00-1.31708E-02-2.76759E-01-4.87316E-14-5.22499E-13
 -1      1773 1.93959E+01 3.98572E+00-8.96002E-03-3.54584E-01-7.26174E-14-4.92479E-13
 -1      1774 1.92132E+01 4.38991E+00-1.31225E-02 2.95720E-01 3.66261E-14-5.31124E-13
 -1      1775 1.92058E+01 4.39461E+00-1.37361E-02 1.01592E-01 3.36588E-15-5.26051E-13
 -1      1776 1.93813E+01 4.00597E+00-8.94020E-03 1.04986E-02-5.77591E-15-5.11528E-13
 -1      1777 1.92498E+01 4.35115E+00-1.32567E-02 6.81568E-01 1.00038E-13-5.33105E-13
 -1      1778 1.92270E+01 4.36553E+00-1.49277E-02 4.82034E-01 6.97435E-14-5.36089E-13
 -1      1779 1.93985E+01 3.98240E+00-8.99277E-03 3.75773E-01 5.20168E-14-5.21227E-13
 -1      1780 1.93215E+01 4.27510E+00-1.43217E-02 1.07713E+00 1.64728E-13-5.10368E-13
 -1      1781 1.92792E+01 4.30061E+00-1.70045E-02 8.70054E-01 1.30098E-13-5.26842E-13
 -1      1782 1.94506E+01 3.91253E+00-9.02302E-03 7.44751E-01 1.21412E-13-5.10130E-13
 -1      1783 1.94496E+01 4.14446E+00-1.73042E-02 1.50598E+00 2.52541E-13-4.51764E-13
 -1      1784 1.93751E+01 4.18838E+00-2.05362E-02 1.27693E+00 2.02869E-13-4.85164E-13
 -1      1785 1.95484E+01 3.78508E+00-9.11053E-03 1.12631E+00 2.05166E-13-4.77531E-13
 -1      1786 1.96726E+01 3.92422E+00-2.50925E-02 1.97095E+00 3.23838E-13-3.64646E-13
 -1      1787 1.95432E+01 4.00244E+00-2.69143E-02 1.71368E+00 2.78525E-13-4.15834E-13
 -1      1788 1.97180E+01 3.57378E+00-8.61507E-03 1.52504E+00 2.85018E-13-4.02565E-13
 -1      1789 2.00717E+01 3.52260E+00-4.50678E-02 2.46409E+00 3.94924E-13-1.80949E-13
 -1      1790 1.98369E+01 3.68445E+00-3.96647E-02 2.17478E+00 3.56856E-13-2.89796E-13
 -1      1791 2.00077E+01 3.22653E+00-5.24676E-03 1.92467E+00 3.61958E-13-2.93302E-13
 -1      1792 2.09031E+01 2.67992E+00-5.75092E-02 2.85109E+00 3.99142E-13 1.79370E-13
 -1      1793 2.04032E+01 3.09576E+00-5.02911E-02 2.60897E+00 3.92461E-13-3.93158E-14
 -1      1794 2.05104E+01 2.61045E+00 3.18525E-03 2.23615E+00 4.11724E-13-8.24202E-14
 -1      1795 2.17017E+01 1.21207E+00-1.21896E-01 2.32508E+00 3.43107E-13 6.40349E-13
 -1      1796 2.12517E+01 2.26105E+00 1.29146E-04 2.73464E+00 3.72848E-13 3.37994E-13
 -1      1797 2.09197E+01 1.68455E+00-2.28529E-02 2.13371E+00 4.07506E-13 1.88571E-13
 -1      1798 2.09250E+01 7.78327E-01-6.23249E-02 1.51995E+00 3.40415E-13 5.30163E-13
 -1      1799 2.17695E+01 2.45565E+00 9.07902E-02-3.04267E+00-3.19076E-13 6.00436E-13
 -1      1800 2.00790E+01 2.98627E-01-8.80526E-03 6.52259E-01 2.59830E-13 3.69779E-13
 -1      1801 2.06285E+01 4.40743E-01-1.23708E-02 1.02950E+00 2.83183E-13 4.65421E-13
 -1      1802 2.07244E+01 8.45213E-01 2.20711E-03 1.40935E+00 3.37532E-13 2.68712E-13
 -1      1803 2.14847E+01 1.74173E+00 7.93686E-02-2.33119E+00-3.56246E-13 4.54012E-13
 -1      1804 2.05026E+01 5.01499E-01 3.25994E-02-9.15332E-01-2.73299E-13 3.76422E-13
 -1      1805 2.00737E+01 3.53637E-01 7.79617E-03-6.22743E-01-2.41782E-13 3.01306E-13
 -1      1806 1.98825E+01 2.59837E-01 2.75134E-02-3.82488E-01-2.27552E-13 2.84221E-13
 -1      1807 1.96960E+01 1.81474E-01 1.07120E-02-2.42869E-01-2.08058E-13 2.29854E-13
 -1      1808 2.01916E+01 4.86973E-01-5.89143E-03-7.11882E-01-2.81091E-13 1.28092E-13
 -1      1809 1.95791E+01 1.36921E-01 1.68379E-02-1.06157E-01-1.64692E-13 2.25669E-13
 -1      1810 1.95077E+01 9.83303E-02 7.42118E-03-3.25420E-02-1.30668E-13 1.84201E-13
 -1      1811 1.98739E+01 2.49746E-01-5.92948E-03-2.78917E-01-2.17039E-13 1.10274E-13
 -1      1812 1.94500E+01 7.46962E-02 8.92660E-03 4.56656E-02-1.22499E-13 1.65595E-13
 -1      1813 1.94455E+01 5.44397E-02 4.73651E-03 8.60425E-02-1.21595E-13 1.37278E-13
 -1      1814 1.97035E+01 1.33899E-01-4.91447E-03-3.32254E-02-1.56974E-13 8.13572E-14
 -1      1815 1.94297E+01 4.14594E-02 4.55658E-03 1.31499E-01-1.25417E-13 1.38468E-13
 -1      1816 1.94641E+01 3.08787E-02 3.28557E-03 1.54256E-01-1.07328E-13 9.75908E-14
 -1      1817 1.96344E+01 7.35442E-02-3.85724E-03 1.09297E-01-1.43396E-13 5.10308E-14
 -1      1818 1.94768E+01 2.39622E-02 2.27539E-03 1.81550E-01-1.05382E-13 1.03478E-13
 -1      1819 1.95348E+01 1.91431E-02 2.59191E-03 1.95230E-01-8.46539E-14 9.10943E-14
 -1      1820 1.96348E+01 4.17604E-02-2.86670E-03 1.93910E-01-1.10815E-13 7.07013E-14
 -1      1821 1.95672E+01 1.60900E-02 1.09236E-03 2.13281E-01-9.72530E-14 8.29624E-14
 -1      1822 1.96409E+01 1.50510E-02 2.33647E-03 2.23157E-01-9.80968E-14 4.10853E-14
 -1      1823 1.96827E+01 2.66692E-02-2.12044E-03 2.47070E-01-9.92825E-14 6.87110E-14
 -1      1824 1.96878E+01 1.46671E-02 5.03804E-04 2.37840E-01-1.17038E-13 4.84237E-14
 -1      1825 1.97738E+01 1.62931E-02 2.36828E-03 2.47479E-01-9.90111E-14 4.17528E-14
 -1      1826 1.97641E+01 2.23807E-02-1.65337E-03 2.85501E-01-1.19086E-13 3.30173E-14
 -1      1827 1.98326E+01 1.78397E-02 2.60877E-04 2.62900E-01-1.12082E-13-5.97141E-15
 -1      1828 1.99306E+01 2.14181E-02 2.60735E-03 2.74849E-01-8.80773E-14-6.30424E-14
 -1      1829 1.98718E+01 2.56212E-02-1.42360E-03 3.20513E-01-1.44896E-13-2.92082E-14
 -1      1830 2.00007E+01 2.43577E-02 2.25955E-04 2.93949E-01-5.75727E-14-1.18971E-13
 -1      1831 2.01123E+01 2.93353E-02 2.99036E-03 3.10041E-01-5.48986E-15-1.38554E-13
 -1      1832 2.00025E+01 3.42965E-02-1.37288E-03 3.60093E-01-1.03166E-13-1.06678E-13
 -1      1833 2.01945E+01 3.31758E-02 3.08859E-04 3.34850E-01 4.38176E-14-1.42759E-13
 -1      1834 2.03227E+01 3.89822E-02 3.44294E-03 3.56270E-01 4.35461E-14-1.23869E-13
 -1      1835 2.01567E+01 4.67623E-02-1.44756E-03 4.09870E-01 6.56452E-15-1.66004E-13
 -1      1836 2.04186E+01 4.31373E-02 4.40263E-04 3.87910E-01 4.99990E-14-1.00475E-13
 -1      1837 2.05670E+01 4.90021E-02 3.85810E-03 4.15082E-01 5.12201E-14-2.45427E-14
 -1      1838 2.03367E+01 6.13112E-02-1.60136E-03 4.73414E-01 5.44386E-14-1.51351E-13
 -1      1839 2.06787E+01 5.26269E-02 5.60347E-04 4.53518E-01-1.27650E-14 2.10247E-14
 -1      1840 2.08507E+01 5.73483E-02 4.07277E-03 4.85765E-01-3.62321E-14 4.03250E-14
 -1      1841 2.05464E+01 7.56541E-02-1.79405E-03 5.51983E-01 4.43400E-14-5.99113E-14
 -1      1842 2.09802E+01 5.91225E-02 6.15620E-04 5.29281E-01-6.88673E-14 2.24349E-14
 -1      1843 2.11777E+01 6.07684E-02 3.84317E-03 5.64208E-01-9.39700E-15-1.12291E-15
 -1      1844 2.07899E+01 8.62782E-02-1.99104E-03 6.43692E-01-4.12117E-14-2.88954E-14
 -1      1845 2.13269E+01 5.86295E-02 5.63498E-04 6.08518E-01 3.73475E-15-6.01577E-14
 -1      1846 2.15487E+01 5.41980E-02 2.82907E-03 6.41072E-01-1.59312E-14-1.03591E-13
 -1      1847 2.10709E+01 8.76355E-02-2.16432E-03 7.42005E-01-4.79285E-14-6.68964E-14
 -1      1848 2.17182E+01 4.50849E-02 3.85441E-04 6.78065E-01-1.93584E-14-1.41068E-13
 -1      1849 2.19575E+01 3.02791E-02 6.13056E-04 6.99306E-01-5.43836E-15-1.22720E-13
 -1      1850 2.13915E+01 7.12707E-02-2.29078E-03 8.33438E-01-4.20608E-14-1.61571E-13
 -1      1851 2.21468E+01 1.01113E-02 1.03826E-04 7.15570E-01 7.42895E-16-7.06401E-14
 -1      1852 2.23884E+01-2.03507E-02-3.19817E-03 7.11528E-01-3.14358E-14-6.46414E-14
 -1      1853 2.17509E+01 2.53699E-02-2.33622E-03 8.94647E-01-4.65300E-15-1.28161E-13
 -1      1854 2.25940E+01-5.59356E-02-2.24614E-04 6.87283E-01-7.81330E-14-2.22665E-14
 -1      1855 2.28117E+01-1.06590E-01-8.70950E-03 6.38902E-01-2.67690E-14-3.87208E-14
 -1      1856 2.21436E+01-6.40180E-02-2.20603E-03 8.89686E-01-2.17491E-14-9.18172E-14
 -1      1857 2.30252E+01-1.59757E-01-5.61014E-04 5.48967E-01 8.37134E-15-9.31633E-15
 -1      1858 2.31804E+01-2.29948E-01-1.52564E-02 4.35324E-01 3.77059E-14-1.70183E-14
 -1      1859 2.25566E+01-2.07647E-01-1.62788E-03 7.69749E-01-9.47593E-17-1.29120E-14
 -1      1860 2.33844E+01-2.95333E-01-1.10519E-03 2.55223E-01 6.53765E-14-1.02873E-14
 -1      1861 2.34300E+01-3.71022E-01-2.07130E-02 6.31615E-02 3.31870E-14 4.34727E-14
 -1      1862 2.29640E+01-4.00194E-01 7.17557E-06 4.80249E-01 5.96784E-14 2.90518E-14
 -1      1863 2.35909E+01-4.27459E-01-2.48288E-03-2.14768E-01-2.45038E-14 1.18451E-13
 -1      1864 2.34842E+01-4.72670E-01-2.12621E-02-4.71995E-01 9.15761E-15 1.33231E-13
 -1      1865 2.33175E+01-5.97908E-01 3.66664E-03-1.67417E-02 6.16261E-14 7.37770E-14
 -1      1866 2.35486E+01-4.78576E-01-5.57865E-03-8.10604E-01-4.44089E-15 1.56417E-13
 -1      1867 2.32755E+01-4.38587E-01-1.28218E-02-1.07124E+00 7.15296E-14 2.37484E-13
 -1      1868 2.35366E+01-6.98839E-01 9.50249E-03-6.95622E-01 4.87804E-14 2.62244E-13
 -1      1869 2.31877E+01-3.44708E-01-9.78084E-03-1.36182E+00 6.59733E-14 2.08583E-13
 -1      1870 2.27908E+01-1.79257E-01 4.33553E-03-1.51038E+00 5.03209E-14 2.08038E-13
 -1      1871 2.35192E+01-5.58932E-01 1.48858E-02-1.40498E+00 6.02014E-14 2.47153E-13
 -1      1872 2.25443E+01 2.57123E-02-1.25114E-02-1.58505E+00 1.46333E-13 1.00309E-13
 -1      1873 2.21362E+01 2.81737E-01 2.06813E-02-1.49800E+00 1.17833E-13 1.29504E-13
 -1      1874 2.32017E+01-8.61287E-02 1.26397E-02-1.84037E+00 9.58047E-14 1.88783E-13
 -1      1875 2.18400E+01 5.18449E-01-7.19721E-03-1.22794E+00 3.42868E-14 7.26520E-14
 -1      1876 2.15695E+01 7.27681E-01 2.31188E-02-8.73830E-01-8.61047E-14 1.32949E-13
 -1      1877 2.26738E+01 5.98626E-01-5.13511E-03-1.65152E+00 8.52044E-14 4.18335E-14
 -1      1878 2.14215E+01 8.45013E-01 7.88207E-03-3.16214E-01-2.14851E-13 1.14703E-13
 -1      1879 2.14028E+01 8.60522E-01 1.01251E-02 1.69154E-01-2.12734E-13 6.50651E-14
 -1      1880 2.22350E+01 1.14178E+00-2.47078E-02-7.28221E-01-1.73828E-13 8.11472E-14
 -1      1881 2.15183E+01 7.69278E-01 2.17319E-02 7.48206E-01-9.23029E-14-4.31122E-15
 -1      1882 2.17597E+01 5.79568E-01-6.13435E-03 1.13166E+00 2.28810E-15-1.43045E-14
 -1      1883 2.22024E+01 1.18109E+00-2.68502E-02 5.61994E-01-1.83777E-13 5.07672E-14
 -1      1884 2.20478E+01 3.50319E-01 2.11949E-02 1.44964E+00-3.92048E-14-8.69443E-14
 -1      1885 2.24466E+01 9.12355E-02-1.32030E-02 1.57489E+00-1.56787E-13-1.26059E-13
 -1      1886 2.26018E+01 6.90739E-01-9.11425E-03 1.56688E+00-1.00947E-13-1.28186E-13
 -1      1887 2.27100E+01-1.25099E-01 6.21972E-03 1.54290E+00-1.90478E-13-1.45274E-13
 -1      1888 2.31170E+01-3.07475E-01-1.10117E-02 1.42028E+00-9.78592E-14-1.64547E-13
 -1      1889 2.31394E+01 2.14539E-04 9.33760E-03 1.85970E+00-1.36370E-13-2.33261E-13
 -1      1890 2.32291E+01-4.17182E-01-1.10557E-02 1.14913E+00-4.91152E-14-1.19871E-13
 -1      1891 2.35245E+01-4.72587E-01-6.02412E-03 8.96477E-01-8.39268E-14-1.08240E-13
 -1      1892 2.34976E+01-5.13034E-01 1.48263E-02 1.49170E+00-5.87724E-14-1.71016E-13
 -1      1893 2.34788E+01-4.77175E-01-2.06416E-02 5.57069E-01-1.45921E-13-1.31445E-13
 -1      1894 2.36101E+01-4.39663E-01-2.62883E-03 2.95374E-01-2.12113E-14-1.38051E-13
 -1      1895 2.35562E+01-6.95767E-01 1.02817E-02 7.99891E-01-8.38773E-14-1.35697E-13
 -1      1896 2.34609E+01-3.86925E-01-2.10579E-02 7.18151E-03-9.60013E-14-2.81114E-13
 -1      1897 2.34366E+01-3.12425E-01-1.02896E-03-1.94101E-01-1.28949E-13-2.91696E-13
 -1      1898 2.33662E+01-6.17423E-01 4.34874E-03 1.07377E-01-1.21597E-13-2.60101E-13
 -1      1899 2.32388E+01-2.46329E-01-1.60256E-02-3.85825E-01-3.46398E-14-3.69804E-13
 -1      1900 2.30998E+01-1.73795E-01-3.95111E-04-5.08087E-01-6.35776E-16-3.56468E-13
 -1      1901 2.30305E+01-4.24676E-01 3.31180E-04-4.14143E-01-1.26821E-13-3.95841E-13
 -1      1902 2.28899E+01-1.18051E-01-9.46868E-03-6.06606E-01 2.08505E-14-3.85406E-13
 -1      1903 2.26838E+01-6.40240E-02 3.17304E-06-6.60579E-01 1.00057E-13-3.31559E-13
 -1      1904 2.26335E+01-2.26759E-01-1.59019E-03-7.25675E-01 1.53696E-15-2.99229E-13
 -1      1905 2.24815E+01-2.56661E-02-3.73768E-03-6.89143E-01 1.88577E-14-3.30432E-13
 -1      1906 2.22489E+01 7.90780E-03 3.98825E-04-6.95357E-01 7.00019E-14-3.66926E-13
 -1      1907 2.22280E+01-7.42976E-02-2.31062E-03-8.59395E-01 8.83734E-14-4.35642E-13
 -1      1908 2.20636E+01 3.04108E-02 3.28658E-04-6.79474E-01 2.37708E-13-3.23972E-13
 -1      1909 2.18330E+01 4.77065E-02 7.72624E-04-6.57431E-01 1.41751E-13-1.03977E-13
 -1      1910 2.18430E+01 2.35620E-02-2.50925E-03-8.69163E-01 1.62860E-13-2.65164E-13
 -1      1911 2.16690E+01 5.86133E-02 2.75930E-03-6.17635E-01-6.22303E-14-2.03178E-13
 -1      1912 2.14574E+01 6.49579E-02 1.05798E-03-5.81944E-01-1.31645E-13-1.43540E-13
 -1      1913 2.14934E+01 7.63452E-02-2.50485E-03-8.05003E-01 3.42980E-14-3.50563E-13
 -1      1914 2.13159E+01 6.84456E-02 3.92408E-03-5.32373E-01-1.42800E-13-7.94623E-14
 -1      1915 2.11317E+01 6.82954E-02 1.22347E-03-4.92514E-01-1.05865E-13 2.88554E-14
 -1      1916 2.11862E+01 9.80042E-02-2.41017E-03-7.04461E-01-1.04594E-13-2.16903E-13
 -1      1917 2.10123E+01 6.75469E-02 4.24229E-03-4.41845E-01-1.89439E-13 2.10278E-14
 -1      1918 2.08579E+01 6.40435E-02 1.27837E-03-4.03268E-01-1.78049E-13 6.29830E-14
 -1      1919 2.09232E+01 1.00730E-01-2.25747E-03-5.92285E-01-1.59730E-13 6.71805E-14
 -1      1920 2.07593E+01 6.12021E-02 4.06052E-03-3.56225E-01-2.92827E-13 1.95471E-15
 -1      1921 2.06337E+01 5.63541E-02 1.25395E-03-3.21618E-01-2.27857E-13 6.44485E-15
 -1      1922 2.07032E+01 9.33363E-02-2.06109E-03-4.83063E-01-2.58408E-13 3.59610E-13
 -1      1923 2.05537E+01 5.27617E-02 3.62464E-03-2.80308E-01 7.73325E-14-2.42042E-14
 -1      1924 2.04541E+01 4.77744E-02 1.18733E-03-2.50611E-01 2.21382E-13 7.79143E-14
 -1      1925 2.05230E+01 8.15652E-02-1.83562E-03-3.84270E-01-1.01165E-13 3.97030E-13
 -1      1926 2.03904E+01 4.42343E-02 3.09061E-03-2.15518E-01 2.22329E-13 2.22966E-13
 -1      1927 2.03134E+01 3.97984E-02 1.10877E-03-1.90625E-01 3.84599E-13 3.50087E-13
 -1      1928 2.03781E+01 6.89249E-02-1.59649E-03-2.98768E-01 3.36213E-13 3.75900E-13
 -1      1929 2.02636E+01 3.67738E-02 2.54367E-03-1.61276E-01 4.61848E-13 3.27583E-13
 -1      1930 2.02057E+01 3.32619E-02 1.03119E-03-1.40489E-01 4.66822E-13 4.03466E-13
 -1      1931 2.02639E+01 5.74552E-02-1.35885E-03-2.26593E-01 3.93136E-13 4.12466E-13
 -1      1932 2.01676E+01 3.09983E-02 2.01536E-03-1.15912E-01 2.11648E-13 4.52490E-13
 -1      1933 2.01258E+01 2.85820E-02 9.59599E-04-9.82545E-02 4.17577E-14 3.66883E-13
 -1      1934 2.01757E+01 4.82755E-02-1.12584E-03-1.66188E-01 3.22698E-13 3.57511E-13
 -1      1935 2.00970E+01 2.69964E-02 1.47785E-03-7.72669E-02-6.34250E-14 3.85022E-13
 -1      1936 2.00689E+01 2.54204E-02 8.57859E-04-6.18324E-02 8.45363E-15 5.56659E-13
 -1      1937 2.01089E+01 4.18818E-02-8.57923E-04-1.15303E-01 2.39809E-14 4.50262E-13
 -1      1938 2.00495E+01 2.36989E-02 1.09725E-03-4.46391E-02 8.08154E-14 5.78200E-13
 -1      1939 2.00320E+01 2.18142E-02 8.10067E-04-3.16352E-02 1.89542E-14 4.48354E-13
 -1      1940 2.00291E+01 2.86594E-02-6.37010E-04-3.82540E-02-1.60701E-13 5.85638E-13
 -1      1941 2.00611E+01 3.59418E-02-9.89800E-04-7.28143E-02 5.61732E-14 5.41188E-13
 -1      1942 1.96029E+01 1.43643E-01 8.01382E-03 2.52460E-01 2.34682E-13 2.44520E-13
 -1      1943 1.98716E+01 2.05335E-01 1.65403E-02 4.26398E-01 2.40297E-13 3.31240E-13
 -1      1944 2.00877E+01 3.52026E-01-1.60553E-03 6.47333E-01 2.81660E-13 1.96585E-13
 -1      1945 1.93703E+01 7.46429E-02 7.13594E-03 4.54798E-02 1.70576E-13 1.53889E-13
 -1      1946 1.94803E+01 1.04087E-01 1.43560E-02 1.35759E-01 1.84276E-13 2.08351E-13
 -1      1947 1.97030E+01 1.68081E-01-2.07239E-03 2.44697E-01 2.29598E-13 1.27586E-13
 -1      1948 1.92946E+01 4.03009E-02 4.70572E-03-6.62721E-02 7.67160E-14 1.06948E-13
 -1      1949 1.93171E+01 5.55727E-02 8.57600E-03-1.62641E-02 1.15036E-13 1.29238E-13
 -1      1950 1.95146E+01 8.53549E-02-3.00270E-03 2.62899E-02 1.57438E-13 6.47394E-14
 -1      1951 1.93148E+01 2.22097E-02 3.25797E-03-1.27989E-01 2.64055E-14 4.82147E-14
 -1      1952 1.92881E+01 3.03893E-02 4.69336E-03-9.92093E-02 4.69681E-14 8.63502E-14
 -1      1953 1.94529E+01 4.44282E-02-3.08335E-03-9.52334E-02 7.09289E-14 1.17456E-14
 -1      1954 1.93938E+01 1.29380E-02 2.53694E-03-1.63062E-01 7.84983E-14-1.38274E-14
 -1      1955 1.93386E+01 1.71257E-02 2.61461E-03-1.45722E-01 5.33918E-14 1.96230E-14
 -1      1956 1.94714E+01 2.35152E-02-2.64043E-03-1.64518E-01 6.88147E-14-5.69865E-14
 -1      1957 1.95106E+01 9.11698E-03 2.18914E-03-1.84992E-01 9.88801E-14-3.39542E-14
 -1      1958 1.94378E+01 1.08313E-02 1.56815E-03-1.73344E-01 8.46044E-14-1.81494E-14
 -1      1959 1.95415E+01 1.36287E-02-2.13315E-03-2.06004E-01 1.12234E-13-9.78378E-14
 -1      1960 1.96542E+01 9.00248E-03 2.04844E-03-2.02441E-01 9.98253E-14-1.26823E-13
 -1      1961 1.95690E+01 9.09484E-03 1.07619E-03-1.92716E-01 1.20566E-13-5.15541E-14
 -1      1962 1.96465E+01 1.06235E-02-1.75214E-03-2.34436E-01 1.43842E-13-7.86651E-14
 -1      1963 1.98205E+01 1.15644E-02 2.05143E-03-2.21404E-01 1.12037E-14-8.52955E-14
 -1      1964 1.97246E+01 1.05701E-02 9.02281E-04-2.10919E-01 4.72689E-14-1.24950E-13
 -1      1965 1.97778E+01 1.23152E-02-1.53272E-03-2.59518E-01 8.48298E-14-7.78204E-14
 -1      1966 2.00104E+01 1.60851E-02 2.16453E-03-2.46187E-01-8.89122E-15-1.09447E-13
 -1      1967 1.99026E+01 1.43925E-02 9.25509E-04-2.32950E-01 2.57565E-14-8.67471E-14
 -1      1968 1.99325E+01 1.73700E-02-1.45831E-03-2.88025E-01 1.40335E-14-7.32750E-14
 -1      1969 2.02278E+01 2.19276E-02 2.35204E-03-2.79806E-01-7.65880E-16-1.51297E-13
 -1      1970 2.01055E+01 1.98821E-02 1.06846E-03-2.62357E-01-3.32930E-14-1.44925E-13
 -1      1971 2.01115E+01 2.47915E-02-1.50367E-03-3.24746E-01 8.61605E-15-1.83494E-13
 -1      1972 2.04788E+01 2.83372E-02 2.55926E-03-3.23992E-01 8.14429E-14-1.98933E-13
 -1      1973 2.03381E+01 2.63323E-02 1.26502E-03-3.01424E-01 4.99338E-14-1.73139E-13
 -1      1974 2.03184E+01 3.35922E-02-1.64538E-03-3.72806E-01 6.77992E-14-2.18119E-13
 -1      1975 2.07700E+01 3.42078E-02 2.69742E-03-3.78826E-01 5.06529E-14-1.83833E-13
 -1      1976 2.06071E+01 3.27888E-02 1.44357E-03-3.50969E-01 6.01908E-14-1.85854E-13
 -1      1977 2.05582E+01 4.24825E-02-1.86105E-03-4.33499E-01 7.32443E-14-1.72951E-13
 -1      1978 2.11073E+01 3.77783E-02 2.62816E-03-4.41906E-01 5.92951E-14-9.17409E-14
 -1      1979 2.09188E+01 3.77722E-02 1.51551E-03-4.09752E-01 4.78701E-14-1.23673E-13
 -1      1980 2.08361E+01 4.94922E-02-2.12480E-03-5.05639E-01 4.73122E-14-1.71334E-13
 -1      1981 2.14929E+01 3.62576E-02 2.15346E-03-5.06969E-01 6.48587E-14-2.20043E-13
 -1      1982 2.12778E+01 3.89217E-02 1.36864E-03-4.73373E-01 8.60622E-14-1.43964E-13
 -1      1983 2.11560E+01 5.14908E-02-2.39965E-03-5.84316E-01 1.14928E-13-1.18080E-13
 -1      1984 2.19224E+01 2.54592E-02 1.02879E-03-5.61886E-01 3.25639E-14-2.79943E-13
 -1      1985 2.16844E+01 3.25975E-02 8.71073E-04-5.32603E-01 2.19578E-14-3.10903E-13
 -1      1986 2.15189E+01 4.36506E-02-2.62265E-03-6.58985E-01 1.07278E-13-1.66781E-13
 -1      1987 2.23805E+01-2.52283E-04-9.66450E-04-5.86284E-01-4.58661E-15-2.86283E-13
 -1      1988 2.21305E+01 1.36277E-02-1.03576E-04-5.71232E-01 5.11575E-14-2.18181E-13
 -1      1989 2.19194E+01 1.90973E-02-2.67638E-03-7.10976E-01 3.54259E-14-2.25028E-13
 -1      1990 2.28357E+01-4.69744E-02-3.85809E-03-5.49825E-01-2.25254E-15-3.68438E-13
 -1      1991 2.25951E+01-2.42748E-02-1.61919E-03-5.64072E-01 1.11283E-15-3.13614E-13
 -1      1992 2.23434E+01-3.05712E-02-2.34348E-03-7.11087E-01 3.78608E-14-2.52303E-13
 -1      1993 2.32359E+01-1.17922E-01-7.19090E-03-4.13768E-01 8.99758E-15-3.29088E-13
 -1      1994 2.30389E+01-8.63482E-02-3.59130E-03-4.76880E-01-4.58310E-14-3.63866E-13
 -1      1995 2.27632E+01-1.12497E-01-1.26136E-03-6.19159E-01-1.20763E-14-3.22141E-13
 -1      1996 2.35071E+01-2.06194E-01-9.71871E-03-1.40832E-01-1.08555E-13-2.64381E-13
 -1      1997 2.34000E+01-1.71283E-01-5.71527E-03-2.71984E-01-4.13003E-14-3.17093E-13
 -1      1998 2.31340E+01-2.25428E-01 1.05634E-03-3.89733E-01-4.08874E-14-3.23216E-13
 -1      1999 2.35601E+01-2.84297E-01-9.49340E-03 2.79934E-01 3.06231E-14-1.34880E-13
 -1      2000 2.35932E+01-2.61407E-01-7.41585E-03 7.46430E-02-5.65346E-15-1.55277E-13
 -1      2001 2.33904E+01-3.47025E-01 5.01514E-03 9.69840E-03-6.23572E-14-1.41642E-13
 -1      2002 2.33146E+01-2.99006E-01-5.08896E-03 7.92695E-01-5.86770E-14-1.52107E-13
 -1      2003 2.35239E+01-3.13309E-01-7.97710E-03 5.40728E-01 2.70443E-15-1.60546E-13
 -1      2004 2.34508E+01-4.21479E-01 1.01733E-02 5.61895E-01 2.42176E-14-5.59869E-14
 -1      2005 2.27451E+01-1.88260E-01 2.02069E-03 1.23931E+00-1.06529E-13-9.67785E-14
 -1      2006 2.31251E+01-2.62752E-01-6.69852E-03 1.01914E+00-1.36273E-13-1.34335E-13
 -1      2007 2.32399E+01-3.65372E-01 1.40680E-02 1.15261E+00-1.13641E-13 1.14561E-14
 -1      2008 2.19449E+01 6.47403E-02 5.77709E-03 1.37897E+00-6.54542E-14-2.68917E-14
 -1      2009 2.24227E+01-6.32841E-02-3.61655E-03 1.30814E+00-8.76376E-14-7.25652E-14
 -1      2010 2.27435E+01-1.14280E-01 1.19836E-02 1.55004E+00-1.33996E-13 4.37792E-14
 -1      2011 2.11670E+01 3.68048E-01 1.09738E-03 1.01959E+00 3.37057E-15-1.35499E-14
 -1      2012 2.16009E+01 2.44703E-01 1.67330E-03 1.18666E+00-1.22610E-14-7.72819E-15
 -1      2013 2.20834E+01 2.86559E-01-1.85615E-04 1.47694E+00-5.11188E-14-2.14880E-14
 -1      2014 2.07565E+01 5.41176E-01-8.03538E-03 2.12538E-01 4.18051E-14 1.64359E-13
 -1      2015 2.09787E+01 5.03760E-01 8.65481E-03 5.84648E-01 4.00374E-14 7.38749E-14
 -1      2016 2.15388E+01 6.52221E-01-1.35249E-02 8.10316E-01-1.15290E-14 1.52202E-13
 -1      2017 2.09365E+01 4.61803E-01-1.20710E-02-6.95124E-01-5.68729E-14 8.35304E-14
 -1      2018 2.08445E+01 5.41728E-01 1.35744E-02-2.84592E-01-7.40102E-14 1.07629E-13
 -1      2019 2.14040E+01 7.54865E-01-1.61193E-02-2.30263E-01-3.29285E-14 1.52450E-13
 -1      2020 2.16250E+01 1.89461E-01-6.19126E-03-1.28390E+00 7.12572E-14-6.01151E-14
 -1      2021 2.12529E+01 3.33281E-01 1.20734E-02-1.02096E+00 1.17788E-15 3.63251E-15
 -1      2022 2.17580E+01 5.24185E-01-6.19426E-03-1.16187E+00 7.06778E-14 7.53382E-14
 -1      2023 2.24944E+01-9.82376E-02 3.92577E-03-1.35781E+00 1.38067E-13 3.61638E-14
 -1      2024 2.19948E+01 2.35182E-02 4.37356E-03-1.32032E+00 1.35998E-13-2.23849E-14
 -1      2025 2.23955E+01 1.12175E-01 4.91652E-03-1.58212E+00 1.35601E-13 7.01522E-14
 -1      2026 2.32084E+01-2.65999E-01 1.00934E-02-1.01882E+00-6.93751E-14-8.11538E-14
 -1      2027 2.27575E+01-2.13501E-01-4.84917E-03-1.15730E+00 5.92157E-14 3.23422E-14
 -1      2028 2.30032E+01-2.48556E-01 7.07919E-03-1.42679E+00 1.01887E-13 6.63514E-14
 -1      2029 2.35919E+01-2.93658E-01 1.03173E-02-5.09672E-01 1.14900E-13-3.07110E-13
 -1      2030 2.33038E+01-3.03742E-01-1.07470E-02-7.20378E-01-5.79259E-14-2.07401E-13
 -1      2031 2.33726E+01-4.19908E-01 2.93488E-03-9.13253E-01 4.89166E-14-2.07663E-13
 -1      2032 2.36360E+01-2.33973E-01 6.99656E-03-3.57711E-02 1.66507E-13-2.75775E-13
 -1      2033 2.35402E+01-2.75597E-01-1.19568E-02-2.33303E-01 1.81823E-13-2.51089E-13
 -1      2034 2.34549E+01-4.10172E-01-9.54350E-04-3.18218E-01 1.66015E-13-2.41623E-13
 -1      2035 2.34210E+01-1.46832E-01 3.00282E-03 3.02922E-01 8.68828E-14-3.05365E-13
 -1      2036 2.34874E+01-1.92799E-01-9.92723E-03 1.60138E-01 1.37120E-13-2.53494E-13
 -1      2037 2.33008E+01-3.03156E-01-2.62335E-03 1.73804E-01 1.58122E-13-1.53925E-13
 -1      2038 2.30482E+01-6.90908E-02 6.71624E-05 4.93124E-01 2.20717E-13-4.93380E-13
 -1      2039 2.32229E+01-1.05499E-01-6.61425E-03 4.11116E-01 1.55645E-13-3.77868E-13
 -1      2040 2.29921E+01-1.75988E-01-2.48775E-03 4.95262E-01 2.14133E-13-1.11712E-13
 -1      2041 2.26040E+01-1.38150E-02-1.45810E-03 5.64650E-01 6.03425E-14-5.75460E-13
 -1      2042 2.28344E+01-3.73919E-02-3.34070E-03 5.31742E-01 1.18919E-13-4.32986E-13
 -1      2043 2.26036E+01-7.11240E-02-1.71914E-03 6.56055E-01 1.86792E-13-9.18792E-14
 -1      2044 2.21499E+01 1.93795E-02-1.92176E-03 5.57500E-01-2.87828E-13-4.72237E-13
 -1      2045 2.23956E+01 6.78467E-03-7.39730E-04 5.57559E-01-7.64643E-14-5.01928E-13
 -1      2046 2.21913E+01-4.72467E-04-9.97222E-04 6.97378E-01-4.78584E-14-6.33528E-14
 -1      2047 2.17239E+01 3.58336E-02-1.79970E-03 5.06202E-01-3.78314E-14-2.49002E-13
 -1      2048 2.19590E+01 3.09424E-02 1.01438E-03 5.25113E-01-1.86153E-13-4.69848E-13
 -1      2049 2.17926E+01 3.96089E-02-5.53127E-04 6.63474E-01-1.87167E-13-1.96330E-13
 -1      2050 2.13463E+01 4.13588E-02-1.43811E-03 4.35335E-01-9.01577E-14-1.00123E-13
 -1      2051 2.15564E+01 4.11728E-02 2.00814E-03 4.62939E-01-1.09566E-13-1.79349E-13
 -1      2052 2.14294E+01 5.76697E-02-3.65432E-04 5.89798E-01-1.29954E-13-4.97257E-14
 -1      2053 2.10247E+01 4.05614E-02-1.03273E-03 3.60269E-01-2.03418E-13 1.43965E-13
 -1      2054 2.12040E+01 4.28777E-02 2.43294E-03 3.90131E-01-1.57481E-13-2.21909E-14
 -1      2055 2.11125E+01 6.19263E-02-3.32167E-04 5.00628E-01-2.57563E-13 2.39181E-13
 -1      2056 2.07591E+01 3.66031E-02-6.70391E-04 2.89510E-01-1.20605E-13 5.92015E-15
 -1      2057 2.09069E+01 3.99837E-02 2.48477E-03 3.18010E-01-1.73291E-13 7.37990E-14
 -1      2058 2.08449E+01 5.85640E-02-3.63105E-04 4.10726E-01-2.00301E-13 2.23486E-13
 -1      2059 2.05453E+01 3.14792E-02-3.75717E-04 2.26985E-01-5.06451E-14 1.25051E-13
 -1      2060 2.06638E+01 3.50574E-02 2.32276E-03 2.52401E-01 2.22951E-14 1.72486E-13
 -1      2061 2.06250E+01 5.16949E-02-4.03062E-04 3.27962E-01-7.09537E-14 1.05067E-13
 -1      2062 2.03772E+01 2.63890E-02-1.44333E-04 1.73778E-01 2.45044E-13 1.29729E-13
 -1      2063 2.04698E+01 2.96716E-02 2.05977E-03 1.95593E-01-3.73811E-15 1.07558E-13
 -1      2064 2.04484E+01 4.38537E-02-4.28028E-04 2.55676E-01 7.81110E-14 3.38931E-13
 -1      2065 2.02481E+01 2.20375E-02 3.44243E-05 1.29279E-01 1.78799E-13 9.52832E-14
 -1      2066 2.03187E+01 2.47590E-02 1.76596E-03 1.47713E-01 2.89589E-13 2.06563E-13
 -1      2067 2.03098E+01 3.65346E-02-4.34053E-04 1.94396E-01 2.32381E-13 3.70207E-13
 -1      2068 2.01521E+01 1.87954E-02 1.54468E-04 9.19073E-02 5.20145E-14-1.14670E-14
 -1      2069 2.02040E+01 2.08550E-02 1.47454E-03 1.07637E-01 7.51558E-14 6.22749E-14
 -1      2070 2.02034E+01 3.05863E-02-4.29010E-04 1.42992E-01 1.60365E-13 3.70292E-13
 -1      2071 2.00837E+01 1.67011E-02 1.90608E-04 5.98107E-02-1.15453E-13 1.26962E-13
 -1      2072 2.01198E+01 1.81263E-02 1.17744E-03 7.36548E-02 9.83119E-14 1.17020E-13
 -1      2073 2.01242E+01 2.62784E-02-4.45310E-04 9.95215E-02-1.57575E-14 3.57931E-13
 -1      2074 2.00388E+01 1.54030E-02 3.94535E-04 3.17312E-02 8.52181E-14-1.25120E-14
 -1      2075 2.00611E+01 1.62719E-02 8.33470E-04 4.41201E-02-7.66798E-14-5.37645E-15
 -1      2076 2.00674E+01 2.35162E-02-4.14615E-04 6.20572E-02-3.34671E-14 1.31234E-13
 -1      2077 2.00163E+01 1.33097E-02 6.07259E-04 1.37014E-02-1.33252E-13 2.92656E-13
 -1      2078 2.00286E+01 1.55417E-02 5.57054E-04 2.38767E-02 1.89160E-14 1.74030E-13
 -1      2079 2.00343E+01 2.22434E-02-2.99262E-04 3.58215E-02-1.33993E-13 3.54305E-13
 -1      2080 2.00170E+01 1.91343E-02 6.87302E-05 1.89984E-02-2.01211E-13 3.89843E-13
 -1      2081 2.00038E+01 1.36798E-01-3.60580E-04 7.59263E-02 2.58944E-13-2.96213E-13
 -1      2082 2.00091E+01 1.12470E-01 5.88008E-04 7.22055E-02 2.22444E-13 1.18158E-14
 -1      2083 2.00137E+01 8.78056E-02-7.14707E-05 6.46423E-02-6.86304E-14 3.13151E-13
 -1      2084 2.00178E+01 6.67951E-02 6.55513E-04 5.54112E-02-1.12230E-13 3.62919E-13
 -1      2085 2.00170E+01 1.08224E-01-9.90750E-05 8.94356E-02-1.11611E-13 3.56493E-13
 -1      2086 2.00182E+01 4.89350E-02 1.51483E-04 4.34455E-02-1.75685E-13-3.62870E-14
 -1      2087 2.00194E+01 3.32271E-02 5.23874E-04 3.19674E-02-1.84665E-13 1.44570E-13
 -1      2088 2.00275E+01 3.54666E-02 3.20725E-04 4.05415E-02-2.21278E-13 2.15480E-13
 -1      2089 2.00253E+01 6.65715E-02-3.57095E-04 6.71150E-02-2.57373E-13 3.18611E-13
 -1      2090 1.99939E+01 1.85194E-01-6.50342E-04 7.45365E-02-1.18093E-13-9.48229E-13
 -1      2091 1.99990E+01 1.61173E-01 2.48264E-04 7.64894E-02 1.06843E-13-5.00723E-13
 -1      2092 2.00024E+01 1.56901E-01 1.91170E-04 9.80960E-02 1.53270E-13-6.00091E-13
 -1      2093 1.99853E+01 2.28036E-01-8.87335E-04 6.09702E-02-1.63430E-13-2.17712E-13
 -1      2094 1.99895E+01 2.07250E-01-1.54133E-04 6.81134E-02-1.40239E-13-3.56749E-13
 -1      2095 1.99881E+01 2.03216E-01 5.11991E-04 9.12147E-02 6.81718E-15-6.57471E-13
 -1      2096 1.99793E+01 2.58411E-01-1.01031E-03 3.76762E-02 1.20106E-13 2.71519E-13
 -1      2097 1.99821E+01 2.44524E-01-5.39174E-04 4.86798E-02-1.70933E-14 5.12188E-14
 -1      2098 1.99762E+01 2.41736E-01 7.96780E-04 6.98867E-02-6.25861E-14-9.60804E-15
 -1      2099 1.99767E+01 2.72037E-01-9.94079E-04 8.50344E-03-1.56357E-13 1.93902E-13
 -1      2100 1.99776E+01 2.67204E-01-8.32712E-04 2.15540E-02-1.06158E-13 1.62936E-13
 -1      2101 1.99685E+01 2.67033E-01 9.84371E-04 3.76972E-02-2.36574E-14 7.45799E-14
 -1      2102 1.99776E+01 2.67013E-01-8.32957E-04-2.19780E-02-2.40969E-13 1.12385E-13
 -1      2103 1.99767E+01 2.71987E-01-9.93852E-04-8.93980E-03-2.66289E-13 3.74995E-13
 -1      2104 1.99659E+01 2.75785E-01 1.04943E-03-2.71672E-04-3.59282E-13 1.64674E-13
 -1      2105 1.99821E+01 2.44097E-01-5.48068E-04-4.90372E-02-4.40169E-13-5.72962E-13
 -1      2106 1.99794E+01 2.58131E-01-1.00265E-03-3.80764E-02-3.48724E-13-8.79099E-14
 -1      2107 1.99686E+01 2.66839E-01 9.80265E-04-3.82107E-02-4.71951E-13-5.89009E-14
 -1      2108 1.99895E+01 2.07387E-01-1.61700E-04-6.81142E-02-3.21097E-13-1.87674E-13
 -1      2109 1.99853E+01 2.27863E-01-8.83149E-04-6.11069E-02-4.13388E-13-5.15337E-13
 -1      2110 1.99763E+01 2.41659E-01 8.07810E-04-7.01107E-02-2.94308E-13-6.16139E-13
 -1      2111 1.99991E+01 1.60876E-01 2.51141E-04-7.65401E-02-9.49021E-14 5.89710E-13
 -1      2112 1.99939E+01 1.85344E-01-6.55859E-04-7.45872E-02-1.96111E-13 3.35370E-13
 -1      2113 1.99880E+01 2.03424E-01 5.09946E-04-9.12513E-02-3.42539E-14 1.68384E-13
 -1      2114 2.00093E+01 1.11677E-01 5.83661E-04-7.20990E-02-1.54710E-13-3.27759E-13
 -1      2115 2.00039E+01 1.36064E-01-3.69831E-04-7.59139E-02-3.41823E-14-3.91231E-14
 -1      2116 2.00024E+01 1.56649E-01 1.61662E-04-9.81246E-02 5.90866E-14 2.65391E-13
 -1      2117 2.00175E+01 6.47325E-02 1.38809E-04-5.51327E-02-5.22306E-14 3.05488E-13
 -1      2118 2.00139E+01 8.70000E-02-6.10960E-05-6.43617E-02-1.04365E-13-9.38735E-14
 -1      2119 2.00172E+01 1.07740E-01-4.44212E-05-8.91015E-02-1.43521E-13-1.93637E-13
 -1      2120 9.42551E+00-5.22816E+00-1.80276E-01 6.19336E+00 4.46088E-13 4.28470E-13
 -1      2121 5.89665E+00-6.83772E+00-4.46194E-01 4.87342E+00 2.49911E-13 6.16673E-13
 -1      2122 8.06330E-02-7.52755E+00-4.59930E-01 7.22124E-01 1.04181E-13 9.17655E-13
 -1      2123 9.00226E-02-7.49093E+00-4.51246E-01-7.42982E-01-9.29812E-16 6.97997E-13
 -1      2124 3.05973E+00-6.59334E+00-3.37882E-01 3.86464E+00 1.88127E-13 9.79883E-13
 -1      2125 1.24709E+00-7.51605E+00-4.80548E-01 2.44620E+00-1.71529E-14 9.86433E-13
 -1      2126 1.81620E+01-3.23387E+00-2.39461E-02 6.87736E+00 4.86722E-13 4.71179E-13
 -1      2127 1.36219E+01-5.16836E+00-3.26570E-01 6.08179E+00 4.77618E-13 3.27571E-13
 -1      2128 2.68439E+01-9.16958E-01 1.11945E-01 5.84953E+00 4.28158E-13 1.23512E-13
 -1      2129 2.20737E+01-2.72092E+00-2.03811E-01 5.69457E+00 3.92519E-13 3.28737E-13
 -1      2130 1.95330E+01 4.02223E+00-2.49945E-02-1.69133E+00-2.91437E-13-3.63194E-13
 -1      2131 1.96537E+01 3.94692E+00-2.45781E-02-1.94758E+00-3.33146E-13-2.88648E-13
 -1      2132 1.99677E+01 3.24109E+00-1.86829E-02-1.91592E+00-3.57236E-13-2.28781E-13
 -1      2133 1.97054E+01 3.59738E+00-6.57655E-03-1.51009E+00-2.89466E-13-3.59174E-13
 -1      2134 3.85957E+01 5.50646E+00 3.43602E-01 1.64915E+00 4.77562E-13 8.77076E-15
 -1      2135 3.50736E+01 4.32370E+00 6.08932E-02 1.98943E+00 4.30878E-13-7.82152E-14
 -1      2136 3.92030E+01 7.13350E+00 2.02145E-01 1.46687E-02 6.74794E-13-1.66485E-13
 -1      2137 3.90394E+01 6.59257E+00 2.56415E-01 1.16145E+00 5.98799E-13-2.77556E-15
 -1      2138 3.48352E+01 6.64976E+00 2.62891E-01-4.42778E-01 4.86222E-13-3.37175E-13
 -1      2139 3.78322E+01 6.62957E+00 1.46856E-01-9.48757E-01 7.46625E-13-3.93019E-13
 -1      2140 3.93299E+01 7.16937E+00 2.77095E-01-1.55416E-01 8.14515E-13-1.20695E-13
 -1      2141 3.46135E+01 3.52619E+00 9.46718E-02-2.61379E+00 7.92283E-13-4.93772E-13
 -1      2142 3.69978E+01 4.87995E+00 1.77196E-01-1.48641E+00 6.80317E-13-4.30822E-13
 -1      2143 2.92435E+01 6.84184E-01-1.51704E-02-4.59061E+00 6.89643E-13-6.25167E-13
 -1      2144 3.35112E+01 2.11934E+00 2.16293E-01-4.01674E+00 7.31984E-13-4.66960E-13
 -1      2145 3.30433E+01 2.22422E+00 2.35146E-01-7.98399E-01 6.38128E-13-2.12441E-13
 -1      2146 2.11397E+01-3.15285E+00-1.87381E-01-5.75402E+00 5.92859E-13-6.14231E-13
 -1      2147 2.60704E+01-1.01815E+00 1.52099E-01-6.14695E+00 6.59250E-13-6.45373E-13
 -1      2148 1.19706E+01-5.67304E+00-3.39600E-01-5.99162E+00 4.06897E-13-8.04357E-13
 -1      2149 1.67226E+01-4.00219E+00-4.88106E-02-6.94060E+00 4.81393E-13-7.65193E-13
 -1      2150 4.60225E+00-7.06188E+00-4.48212E-01-4.44733E+00 2.42140E-13-7.40408E-13
 -1      2151 7.74265E+00-5.58272E+00-2.45306E-01-5.72112E+00 4.65961E-13-7.84608E-13
 -1      2152 1.21619E+00-6.36370E+00-2.77978E-01-2.01387E+00 3.84415E-14-6.91336E-13
 -1      2153 2.66478E+00-6.34789E+00-2.94900E-01-3.53745E+00 1.94289E-13-7.38187E-13
 -1      2154 9.93815E-01-6.77571E+00-3.46705E-01 1.94157E+00-6.31717E-14-2.78666E-13
 -1      2155 3.78752E-01-6.47605E+00-3.08678E-01 3.73575E-01 7.59393E-14-5.08482E-13
 -1      2156 4.99914E+00-5.77646E+00-2.16338E-01 4.95580E+00-1.18572E-13-2.94126E-13
 -1      2157 2.45148E+00-7.11164E+00-4.23696E-01 3.31484E+00-7.32192E-14-2.35201E-13
 -1      2158 3.24411E+00-4.57158E+00-1.41609E-01 3.36995E+00 3.83582E-14-3.78420E-13
 -1      2159 1.36002E+01-4.82421E+00-5.93862E-02 6.95123E+00 3.94129E-15-5.49810E-13
 -1      2160 9.16391E+00-6.17381E+00-2.86062E-01 5.79237E+00-3.98015E-14-4.12607E-13
 -1      2161 2.31226E+01-2.45431E+00 9.78981E-02 6.39140E+00-2.47080E-13-5.40235E-13
 -1      2162 1.84287E+01-4.49218E+00-1.67450E-01 6.01618E+00-3.69704E-14-5.07344E-13
 -1      2163 3.09163E+01 1.01857E+00 2.45213E-01 5.23903E+00-3.84914E-13-5.87419E-13
 -1      2164 2.60469E+01-9.21294E-01-1.00479E-01 5.20001E+00-3.51497E-13-5.46896E-13
 -1      2165 3.58215E+01 3.79503E+00 1.17421E-01 2.04634E+00-4.46726E-13-1.92624E-13
 -1      2166 3.32770E+01 2.61535E+00 1.75695E-01 3.71511E+00-4.35554E-13-4.64739E-13
 -1      2167 3.17446E+01 5.95542E-01 2.14780E-01 2.02988E+00-2.40377E-13-2.04226E-13
 -1      2168 3.93688E+01 6.91697E+00 4.19291E-01 5.76139E-01-5.30964E-13-5.85643E-15
 -1      2169 3.65264E+01 5.99954E+00 1.04795E-01 9.72457E-01-5.24691E-13 1.45439E-14
 -1      2170 4.04523E+01 7.10768E+00 3.75656E-01-8.02480E-01-8.22953E-13 3.02591E-13
 -1      2171 4.06266E+01 7.11313E+00 3.32835E-01 4.04930E-01-6.13620E-13 6.39766E-14
 -1      2172 3.73382E+01 5.11944E+00 2.34392E-01-2.46770E+00-8.30502E-13 2.77334E-13
 -1      2173 3.95805E+01 6.08666E+00 3.55707E-01-1.32482E+00-9.04221E-13 1.66145E-13
 -1      2174 3.14917E+01 1.75816E+00 2.93163E-02-3.96116E+00-6.44006E-13 5.16365E-13
 -1      2175 3.59088E+01 3.39430E+00 3.32671E-01-3.56869E+00-6.78603E-13 4.05620E-13
 -1      2176 2.31669E+01-1.92446E+00-1.56110E-01-5.69368E+00-6.96110E-13 4.93883E-13
 -1      2177 2.84348E+01-8.90720E-02 1.56897E-01-5.71778E+00-6.13842E-13 6.48259E-13
 -1      2178 1.46388E+01-4.95843E+00-3.17116E-01-6.08617E+00-5.92637E-13 6.23890E-13
 -1      2179 1.94700E+01-3.01945E+00 7.82100E-03-6.85039E+00-7.17426E-13 5.07538E-13
 -1      2180 6.58479E+00-6.66789E+00-4.17431E-01-5.08270E+00-4.17888E-13 6.32411E-13
 -1      2181 1.02395E+01-5.06720E+00-1.93359E-01-6.26397E+00-5.57443E-13 6.89331E-13
 -1      2182 1.52046E+00-7.21938E+00-4.26876E-01-2.54417E+00-4.61020E-14 3.91354E-13
 -1      2183 3.56721E+00-6.15525E+00-2.57728E-01-4.18866E+00-2.75668E-13 4.96159E-13
 -1      2184 3.31935E+01 1.77910E+00 1.16307E-01 3.48321E+00 3.53214E-13-1.51990E-13
 -1      2185 2.93366E+01 3.61349E-01-2.66598E-02 4.43746E+00 4.38205E-13 3.83027E-14
 -1      2186 2.89196E+01-1.95268E+00 1.64932E-01 3.08178E+00 1.47049E-13-4.58744E-13
 -1      2187 2.25858E+01-4.46541E+00 5.75774E-02 5.66373E+00 4.70735E-14-4.22717E-14
 -1      2188 2.07151E+01 1.10853E+00-2.07623E-02-1.60989E+00-3.38410E-13 3.64779E-13
 -1      2189 3.31127E+01 2.36407E+00 1.69963E-01 7.09681E-01 2.66176E-13-4.32099E-13
 -1      2190 2.06144E+01 1.33296E+00-1.79446E-02-1.66919E+00-3.67716E-13 1.53990E-13
 -1      2191 6.29380E+00-5.44441E+00-1.66337E-01 5.44586E+00-7.51621E-14 7.56811E-13
 -1      2192 1.81749E+00-5.19660E+00-2.44049E-01 2.09820E+00 1.78496E-13 9.33253E-13
 -1      2193 2.00220E+01 5.39498E-02 3.34831E-04-5.14506E-02-1.07028E-13 3.44198E-13
 -1      2194 1.39415E+01-5.55919E+00-7.28226E-02 6.74274E+00-1.12688E-14 2.50786E-13
 -1      2195 2.06363E+00-4.89284E+00-1.96025E-01-2.23506E+00 2.28706E-13 6.71130E-13
 -1      2196 6.89740E+00-5.42451E+00-1.74374E-01-5.58731E+00 4.64073E-14 5.94524E-13
 -1      2197 1.50512E+01-5.55263E+00-7.48357E-02-6.79171E+00-2.61458E-13 5.53946E-13
 -1      2198 2.35221E+01-4.12467E+00 5.05526E-02-5.34991E+00-3.74478E-13 3.29403E-13
 -1      2199 3.04645E+01-5.16449E-01 1.70092E-01-2.79291E+00-4.62561E-13 1.65368E-13
 -1      2200 3.45156E+01 3.98294E+00 2.80486E-01-5.02730E-01-7.39186E-13 1.27676E-14
 -1      2201 3.64860E+01 7.24568E+00 3.39562E-01 5.73089E-02-8.05189E-13 2.01672E-13
 -1      2202 3.49390E+01 4.77345E+00 1.65301E-01 3.67296E-01-5.19779E-13-2.94764E-14
 -1      2203 3.22683E+01 3.33516E+00 4.36736E-02-5.83418E-01-4.37872E-13 1.24373E-13
 -1      2204 3.21426E+01 5.35838E+00-1.48185E-01-1.28053E+00-5.06484E-13 2.70506E-13
 -1      2205 2.62356E+01-3.36870E+00 6.51698E-03 4.32928E+00-3.78864E-14-4.14890E-13
 -1      2206 9.10949E+00-5.15579E+00-3.40587E-02 6.25774E+00 1.03473E-13-2.91878E-13
 -1      2207 2.24958E+00-4.18009E+00-1.09287E-01-1.06826E+00 6.49411E-14-6.17062E-13
 -1      2208 5.47151E+00-5.08663E+00-1.68363E-01-4.97231E+00 7.42739E-14-8.57148E-13
 -1      2209 1.22586E+01-5.59333E+00-6.63059E-02-6.77589E+00 1.26676E-13-7.49345E-13
 -1      2210 2.89548E+01-1.73576E+00 1.22309E-01-3.31607E+00 4.35235E-13-2.21267E-13
 -1      2211 3.53106E+01 7.91498E+00 2.49463E-01 1.28030E-02 7.81486E-13-2.80824E-13
 -1      2212 3.46278E+01 5.91205E+00 2.08022E-01 3.70425E-01 7.45681E-13-2.82829E-13
 -1      2213 2.11470E+01-4.91790E+00-1.69923E-02-5.95130E+00 2.44249E-13-4.69569E-13
 -1      2214 1.82592E+01-5.46920E+00-1.74787E-02 6.46438E+00 1.69920E-13-4.53762E-13
 -1      2215 3.55642E+01 7.78747E+00 2.34614E-01-3.09238E-01-6.66800E-13 3.65527E-13
 -1      2216 2.01408E+01 5.10418E-01 3.97010E-03 6.66748E-01 2.76024E-13 3.94801E-14
 -1      2217 2.04051E+01 7.02725E-01 2.08283E-02 9.60018E-01 3.01570E-13 8.07149E-14
 -1      2218 1.95743E+01 3.53624E+00-1.12010E-02-5.83773E-01-1.22455E-13-4.45031E-13
 -1      2219 1.96097E+01 3.48883E+00-1.04557E-02-7.66649E-01-1.64618E-13-4.29998E-13
 -1      2220 1.96560E+01 3.39767E+00-1.28952E-02-9.29489E-01-1.91201E-13-4.10735E-13
 -1      2221 1.97160E+01 3.31525E+00-1.27022E-02-1.11844E+00-2.39786E-13-3.88011E-13
 -1      2222 1.97998E+01 3.05536E+00 4.61112E-04-7.80019E-01-1.57287E-13-3.83614E-13
 -1      2223 1.95272E+01 3.62193E+00-9.64305E-03 9.83055E-02 8.15573E-15-4.98485E-13
 -1      2224 1.95265E+01 3.62276E+00-9.65181E-03-7.90516E-02-2.75053E-14-4.90760E-13
 -1      2225 1.95533E+01 3.58113E+00-9.70584E-03 4.39900E-01 6.40781E-14-4.94551E-13
 -1      2226 1.95358E+01 3.60445E+00-1.02020E-02 2.61032E-01 2.46303E-14-4.98651E-13
 -1      2227 1.96916E+01 3.24989E+00-6.95661E-04 1.66739E-01 1.18550E-14-4.79140E-13
 -1      2228 1.96148E+01 3.48151E+00-1.05583E-02 7.80317E-01 1.39011E-13-4.82961E-13
 -1      2229 1.95787E+01 3.52986E+00-1.12971E-02 6.00389E-01 9.83489E-14-4.93951E-13
 -1      2230 1.97286E+01 3.18407E+00-3.15502E-04 4.80154E-01 7.48818E-14-4.60974E-13
 -1      2231 1.97240E+01 3.30337E+00-1.28681E-02 1.13135E+00 2.36357E-13-4.30741E-13
 -1      2232 1.96622E+01 3.38848E+00-1.29786E-02 9.43013E-01 1.85088E-13-4.62343E-13
 -1      2233 1.98055E+01 3.04622E+00 4.19421E-04 7.91990E-01 1.51808E-13-4.31391E-13
 -1      2234 1.98996E+01 3.01281E+00-1.80649E-02 1.47770E+00 3.06016E-13-3.57920E-13
 -1      2235 1.98021E+01 3.15600E+00-1.52744E-02 1.28752E+00 2.61516E-13-4.00437E-13
 -1      2236 1.99333E+01 2.81556E+00 2.04216E-03 1.09606E+00 2.43678E-13-3.88466E-13
 -1      2237 2.01712E+01 2.54851E+00-2.83308E-02 1.78295E+00 3.77911E-13-2.52232E-13
 -1      2238 2.00238E+01 2.78966E+00-1.71426E-02 1.60810E+00 3.28531E-13-3.12131E-13
 -1      2239 2.01243E+01 2.45909E+00 5.88089E-03 1.36170E+00 2.99974E-13-3.04510E-13
 -1      2240 2.45952E+01-4.72454E+00-7.43610E-02 4.50269E+00-7.41629E-14-3.34843E-13
 -1      2241 2.11912E+01-5.33463E+00 8.40697E-03 5.51868E+00-1.16490E-13-1.32033E-13
 -1      2242 1.98723E+01 2.75096E-01 5.06636E-03 2.68394E-01 2.17674E-13 1.39274E-14
 -1      2243 2.00278E+01 3.73282E-01 2.02257E-02 4.28463E-01 2.51661E-13 4.04668E-14
 -1      2244 2.02101E+01 6.41186E-01-2.42250E-03 6.88804E-01 2.89067E-13-6.19708E-14
 -1      2245 2.03975E+01 8.60566E-01 1.35875E-02-9.86916E-01-2.99308E-13 3.88966E-14
 -1      2246 2.01887E+01 6.33681E-01-4.38891E-03-6.76694E-01-2.72097E-13 2.28643E-14
 -1      2247 3.15876E+01 2.71592E+00-1.63590E-01-9.79387E-01 2.41029E-13-4.35901E-13
 -1      2248 3.04091E+01 2.45713E-01-7.19676E-02-1.06402E-01 2.22850E-13-5.91471E-13
 -1      2249 2.01266E+01 4.78474E-01 1.62096E-02-4.56059E-01-2.35595E-13 3.33607E-14
 -1      2250 1.99914E+01 3.55477E-01 4.79941E-04-2.80664E-01-1.91683E-13 2.24493E-14
 -1      2251 2.02496E+01 7.59702E-01-8.89170E-04-6.73669E-01-2.63528E-13-3.33489E-14
 -1      2252 1.99323E+01 2.72881E-01 1.08986E-02-1.37704E-01-1.74185E-13 2.10003E-14
 -1      2253 1.98616E+01 2.04458E-01 1.26294E-03-3.45645E-02-1.51781E-13-6.37695E-15
 -1      2254 2.00930E+01 4.32553E-01-3.85888E-03-2.80125E-01-1.98843E-13-4.88847E-14
 -1      2255 1.98233E+01 1.58051E-01 6.43645E-03 5.56393E-02-1.35520E-13-4.10967E-15
 -1      2256 1.97995E+01 1.19631E-01 1.44276E-03 1.17384E-01-1.32788E-13 6.49449E-15
 -1      2257 1.99832E+01 2.51370E-01-3.90209E-03-2.62942E-02-1.62498E-13-4.85717E-14
 -1      2258 1.97820E+01 9.36496E-02 3.62324E-03 1.74405E-01-1.19224E-13 1.15300E-14
 -1      2259 1.97903E+01 7.30811E-02 1.57059E-03 2.12590E-01-9.24579E-14-9.66939E-16
 -1      2260 1.99227E+01 1.48842E-01-3.29077E-03 1.35204E-01-1.46191E-13-5.68666E-14
 -1      2261 1.97899E+01 5.97317E-02 1.90934E-03 2.50127E-01-9.60354E-14 1.81758E-14
 -1      2262 1.98205E+01 5.06653E-02 1.73213E-03 2.75843E-01-9.68345E-14 1.16088E-14
 -1      2263 1.99038E+01 9.31735E-02-2.57830E-03 2.39794E-01-9.73776E-14-3.93716E-14
 -1      2264 1.98335E+01 4.57711E-02 8.55213E-04 3.03421E-01-1.15843E-13-1.52670E-14
 -1      2265 1.98804E+01 4.46287E-02 1.95286E-03 3.24035E-01-1.22360E-13-5.35324E-14
 -1      2266 1.99173E+01 6.75430E-02-1.99393E-03 3.12161E-01-1.17726E-13-7.05719E-14
 -1      2267 1.99041E+01 4.57176E-02 2.10296E-04 3.48448E-01-1.59545E-13-3.25101E-14
 -1      2268 1.99644E+01 5.02743E-02 2.24260E-03 3.69109E-01-1.68086E-13-5.27067E-14
 -1      2269 1.99560E+01 6.24668E-02-1.58546E-03 3.69757E-01-1.53567E-13-4.65876E-14
 -1      2270 1.99971E+01 5.56924E-02-1.70170E-04 3.95286E-01-1.36153E-13-5.22818E-14
 -1      2271 2.00697E+01 6.43625E-02 2.59366E-03 4.19659E-01-8.30209E-14-7.19091E-14
 -1      2272 2.00153E+01 7.20467E-02-1.33233E-03 4.25146E-01-1.66811E-13 8.71773E-16
 -1      2273 2.01109E+01 7.27922E-02-3.73784E-04 4.51142E-01-3.56484E-14-4.50153E-14
 -1      2274 2.01963E+01 8.41811E-02 2.97752E-03 4.81735E-01 1.46841E-14-5.47068E-14
 -1      2275 2.00927E+01 9.20663E-02-1.19937E-03 4.87399E-01-6.14533E-14 1.59937E-14
 -1      2276 2.02460E+01 9.42890E-02-4.51662E-04 5.20859E-01 4.53199E-14-8.98299E-14
 -1      2277 2.03456E+01 1.06809E-01 3.33915E-03 5.59043E-01 1.00436E-13-4.36871E-14
 -1      2278 2.01875E+01 1.18811E-01-1.15581E-03 5.62808E-01 1.09627E-14-2.33598E-14
 -1      2279 2.04047E+01 1.16890E-01-4.24364E-04 6.06866E-01 7.18597E-14-1.11034E-13
 -1      2280 2.05202E+01 1.28326E-01 3.58710E-03 6.52621E-01 1.72665E-14-9.14251E-14
 -1      2281 2.03006E+01 1.48075E-01-1.18467E-03 6.55022E-01 4.45455E-14-8.37261E-14
 -1      2282 2.05904E+01 1.35875E-01-2.79215E-04 7.08574E-01-3.56308E-14-1.41469E-13
 -1      2283 2.07232E+01 1.42847E-01 3.58002E-03 7.59932E-01-4.67959E-14-1.11627E-13
 -1      2284 2.04340E+01 1.74071E-01-1.29262E-03 7.64653E-01-1.45922E-14-2.00598E-13
 -1      2285 2.08072E+01 1.44011E-01 3.82247E-05 8.21150E-01-4.77309E-14-1.14938E-13
 -1      2286 2.09583E+01 1.41320E-01 3.11212E-03 8.73267E-01-4.16794E-14-1.31436E-13
 -1      2287 2.05915E+01 1.88100E-01-1.52472E-03 8.88296E-01-6.00739E-14-1.40590E-13
 -1      2288 2.10605E+01 1.30303E-01 6.34521E-04 9.33527E-01-7.77456E-14-1.19421E-13
 -1      2289 2.12293E+01 1.10309E-01 1.90444E-03 9.77405E-01-3.87504E-14-1.23040E-13
 -1      2290 2.07788E+01 1.76986E-01-1.98320E-03 1.01685E+00-5.70553E-14-1.69372E-13
 -1      2291 2.13566E+01 7.89695E-02 1.66794E-03 1.02563E+00 2.36179E-14-1.48964E-13
 -1      2292 2.15404E+01 3.14848E-02-3.80852E-04 1.04664E+00 2.18813E-14-1.27227E-13
 -1      2293 2.10050E+01 1.21674E-01-2.83698E-03 1.13308E+00-2.33707E-14-1.42417E-13
 -1      2294 2.17032E+01-3.01432E-02 3.30404E-03 1.06506E+00 4.29631E-15-8.02778E-14
 -1      2295 2.18963E+01-1.16282E-01-4.07795E-03 1.04198E+00 5.62137E-15-6.68891E-14
 -1      2296 2.12847E+01-2.74785E-03-4.28539E-03 1.20840E+00 2.92907E-14-1.65947E-13
 -1      2297 2.21081E+01-2.17061E-01 5.53915E-03 1.00458E+00 1.47257E-14-2.61466E-15
 -1      2298 2.22999E+01-3.48516E-01-9.28584E-03 9.10488E-01 7.92140E-14-2.07169E-14
 -1      2299 2.16385E+01-2.22667E-01-6.41597E-03 1.19951E+00 3.66904E-14-4.40926E-14
 -1      2300 2.25729E+01-4.88343E-01 7.94198E-03 7.83535E-01 7.89453E-14-9.82526E-15
 -1      2301 2.27453E+01-6.55252E-01-1.54416E-02 5.91904E-01 7.64189E-14-4.18792E-14
 -1      2302 2.20908E+01-5.51884E-01-8.79660E-03 1.04668E+00 7.13975E-14-4.61748E-14
 -1      2303 2.30783E+01-8.10415E-01 8.89966E-03 3.40291E-01 1.81137E-13 3.57201E-15
 -1      2304 2.32027E+01-9.65438E-01-2.01260E-02 3.98859E-02 1.98281E-13 7.38963E-14
 -1      2305 2.26571E+01-9.61643E-01-9.92808E-03 6.79115E-01 1.82761E-13-4.94135E-14
 -1      2306 2.35547E+01-1.06769E+00 5.24748E-03-3.49111E-01 1.31842E-13 1.63937E-13
 -1      2307 2.35942E+01-1.10982E+00-1.86861E-02-7.24691E-01 1.23421E-13 2.46481E-13
 -1      2308 2.33115E+01-1.32811E+00-6.49951E-03 3.88216E-02 2.50513E-13 8.88011E-14
 -1      2309 2.38636E+01-1.04542E+00-6.83748E-03-1.19229E+00 8.95217E-14 2.61440E-13
 -1      2310 2.37900E+01-8.43156E-01-5.92999E-03-1.53271E+00 6.74202E-14 2.28183E-13
 -1      2311 2.39365E+01-1.39932E+00 2.81339E-03-8.46474E-01 1.52319E-13 1.15044E-13
 -1      2312 2.38430E+01-5.06789E-01-2.47231E-02-1.89538E+00 7.11679E-14 2.50770E-13
 -1      2313 2.36700E+01-9.67791E-03 1.48418E-02-2.01233E+00 1.19068E-13 2.74130E-13
 -1      2314 2.43147E+01-8.70057E-01 1.19146E-02-1.75105E+00 7.94909E-14 2.54162E-13
 -1      2315 2.34582E+01 5.57819E-01-4.07828E-02-1.99204E+00 4.40611E-14 1.67783E-13
 -1      2316 2.32640E+01 1.16278E+00 2.11852E-02-1.71413E+00-4.47385E-15 1.20060E-13
 -1      2317 2.42560E+01 3.66161E-01 7.28432E-03-2.19345E+00-1.15602E-14 2.44966E-13
 -1      2318 2.29965E+01 1.65300E+00-3.14821E-02-1.15437E+00-1.02992E-13 3.16513E-14
 -1      2319 2.29023E+01 1.95999E+00 2.79838E-03-5.27764E-01-2.99809E-13 4.31467E-14
 -1      2320 2.38553E+01 1.81414E+00-2.10217E-02-1.62896E+00-1.80179E-13-6.81946E-14
 -1      2321 2.28793E+01 1.99759E+00-1.98597E-03 3.23697E-01-3.43774E-13-1.31380E-13
 -1      2322 2.29528E+01 1.75842E+00-2.92300E-02 9.77603E-01-1.84561E-13-1.56763E-13
 -1      2323 2.35925E+01 2.53773E+00-3.95982E-02-1.18055E-01-3.84446E-13-1.83828E-13
 -1      2324 2.32041E+01 1.31022E+00 1.88112E-02 1.60090E+00-9.33489E-14-2.37402E-13
 -1      2325 2.33922E+01 7.21950E-01-4.28907E-02 1.93513E+00-1.59688E-13-2.66691E-13
 -1      2326 2.37991E+01 1.97386E+00-2.70802E-02 1.47002E+00-2.49002E-13-4.00489E-13
 -1      2327 2.36283E+01 1.43624E-01 1.47886E-02 2.02754E+00-1.31596E-13-1.53996E-13
 -1      2328 2.38097E+01-3.86727E-01-3.01711E-02 1.95822E+00-9.12110E-14-1.41265E-13
 -1      2329 2.42143E+01 5.65485E-01 7.06359E-05 2.18208E+00-1.03801E-13-2.71438E-13
 -1      2330 2.37988E+01-7.62376E-01-3.59854E-03 1.63096E+00-8.15502E-14-1.34809E-13
 -1      2331 2.38878E+01-1.00572E+00-9.16748E-03 1.30900E+00 1.87394E-15-8.52386E-14
 -1      2332 2.43392E+01-7.33739E-01 1.25516E-02 1.86135E+00-8.84952E-14-1.53974E-14
 -1      2333 2.36401E+01-1.10092E+00-1.77080E-02 8.42725E-01-7.07320E-14-1.39135E-13
 -1      2334 2.36158E+01-1.08322E+00 4.21305E-03 4.64628E-01-1.02481E-13-9.10190E-14
 -1      2335 2.40105E+01-1.36723E+00 3.78732E-03 9.79867E-01-8.81890E-14-1.13612E-13
 -1      2336 2.32695E+01-9.95230E-01-2.02230E-02 6.14966E-02-1.13175E-13-2.63200E-13
 -1      2337 2.31565E+01-8.47871E-01 9.01136E-03-2.50666E-01-1.30051E-13-2.94368E-13
 -1      2338 2.34072E+01-1.35619E+00-5.42146E-03 7.81194E-02-1.82625E-13-1.67776E-13
 -1      2339 2.28192E+01-6.94295E-01-1.61384E-02-5.18977E-01-6.28221E-14-2.78763E-13
 -1      2340 2.26544E+01-5.24426E-01 8.43330E-03-7.23165E-01-5.64043E-14-2.26257E-13
 -1      2341 2.27515E+01-1.01103E+00-9.62069E-03-5.95748E-01-1.14053E-13-2.25060E-13
 -1      2342 2.23747E+01-3.79532E-01-1.00726E-02-8.62387E-01-6.81371E-14-1.70039E-13
 -1      2343 2.21882E+01-2.41055E-01 6.11305E-03-9.65412E-01 9.00267E-15-1.69169E-13
 -1      2344 2.21740E+01-5.95546E-01-9.08234E-03-9.92827E-01-1.96485E-14-1.76140E-14
 -1      2345 2.19713E+01-1.33656E-01-4.69379E-03-1.00919E+00 4.84871E-14-7.59935E-14
 -1      2346 2.17829E+01-4.03333E-02 3.83772E-03-1.03658E+00 1.24078E-13-6.79631E-14
 -1      2347 2.17115E+01-2.49615E-01-6.83336E-03-1.16373E+00 4.05893E-14 1.80895E-13
 -1      2348 2.16177E+01 2.73159E-02-7.91878E-04-1.01942E+00 1.28537E-13-8.62638E-14
 -1      2349 2.14389E+01 8.08261E-02 2.17706E-03-9.98422E-01 1.71231E-13-9.00357E-14
 -1      2350 2.13521E+01-1.20856E-02-4.64996E-03-1.17957E+00 1.47714E-13 5.07866E-14
 -1      2351 2.13118E+01 1.16970E-01 1.66714E-03-9.47399E-01 4.69123E-15-2.99565E-13
 -1      2352 2.11494E+01 1.41659E-01 1.13845E-03-9.00030E-01-8.75473E-14-3.09604E-13
 -1      2353 2.10717E+01 1.27299E-01-3.10805E-03-1.10197E+00-2.31350E-14-4.54166E-14
 -1      2354 2.10495E+01 1.56348E-01 2.99241E-03-8.33837E-01 2.70888E-14-3.99203E-13
 -1      2355 2.09067E+01 1.62653E-01 5.58408E-04-7.75489E-01-3.55322E-14-2.54738E-13
 -1      2356 2.08491E+01 1.94340E-01-2.18468E-03-9.76232E-01-8.58067E-14-2.11739E-13
 -1      2357 2.08268E+01 1.64287E-01 3.52808E-03-7.05944E-01-5.45228E-14-1.25311E-13
 -1      2358 2.07047E+01 1.60136E-01 2.70398E-04-6.46248E-01-5.80182E-14 7.75425E-14
 -1      2359 2.06692E+01 2.14462E-01-1.67553E-03-8.32590E-01 7.79741E-14-1.33491E-13
 -1      2360 2.06400E+01 1.54720E-01 3.56154E-03-5.80171E-01-1.63000E-13 2.16315E-13
 -1      2361 2.05381E+01 1.45483E-01 1.50334E-04-5.24499E-01-1.72349E-13 3.37122E-13
 -1      2362 2.05221E+01 2.07362E-01-1.39360E-03-6.89621E-01-7.04504E-15 1.59692E-13
 -1      2363 2.04856E+01 1.36946E-01 3.30422E-03-4.65320E-01-1.93028E-13 3.13242E-13
 -1      2364 2.04023E+01 1.26009E-01 1.21631E-04-4.16160E-01 2.70593E-14 4.21543E-13
 -1      2365 2.04016E+01 1.86595E-01-1.21627E-03-5.57641E-01-1.71077E-13 2.05512E-13
 -1      2366 2.03598E+01 1.16778E-01 2.90034E-03-3.65125E-01 2.27498E-13 5.00449E-13
 -1      2367 2.02932E+01 1.06172E-01 1.42839E-04-3.23136E-01 3.41193E-13 3.15592E-13
 -1      2368 2.03033E+01 1.60826E-01-1.07561E-03-4.41408E-01 7.35155E-14 3.25211E-13
 -1      2369 2.02589E+01 9.76869E-02 2.44142E-03-2.80133E-01 2.66773E-13 3.14620E-13
 -1      2370 2.02067E+01 8.85561E-02 1.86551E-04-2.44873E-01 3.56286E-13 2.72218E-13
 -1      2371 2.02237E+01 1.35321E-01-9.36461E-04-3.42115E-01 2.97956E-13 3.32442E-13
 -1      2372 2.01792E+01 8.15750E-02 1.97568E-03-2.09013E-01 4.16565E-13 2.84669E-13
 -1      2373 2.01391E+01 7.44945E-02 2.52019E-04-1.79506E-01 2.51588E-13 4.21610E-13
 -1      2374 2.01597E+01 1.13038E-01-7.92368E-04-2.58763E-01 2.86796E-13 3.44645E-13
 -1      2375 2.01169E+01 6.91348E-02 1.48186E-03-1.49505E-01 3.89264E-14 4.56656E-13
 -1      2376 2.00874E+01 6.44191E-02 4.93148E-04-1.24678E-01 4.22533E-14 5.23150E-13
 -1      2377 2.01085E+01 9.54991E-02-6.12778E-04-1.89241E-01 2.17730E-13 3.78148E-13
 -1      2378 1.96555E+01 8.77177E-02 2.73111E-03-1.05357E-01 9.33802E-14-9.76384E-14
 -1      2379 1.96719E+01 1.16857E-01 7.05769E-03-5.27138E-02 1.26392E-13-4.66316E-14
 -1      2380 1.96574E+01 5.18225E-02 2.23009E-03-1.89571E-01 9.54514E-14-1.45395E-13
 -1      2381 1.96387E+01 6.74459E-02 3.89009E-03-1.57994E-01 7.38227E-14-1.04438E-13
 -1      2382 1.98053E+01 1.13050E-01-3.56796E-03-1.25444E-01 1.19137E-13-1.53363E-13
 -1      2383 1.97048E+01 3.42489E-02 2.04710E-03-2.43218E-01 1.13383E-13-1.28873E-13
 -1      2384 1.96629E+01 4.13768E-02 2.09146E-03-2.22683E-01 1.07218E-13-1.42698E-13
 -1      2385 1.97947E+01 6.78805E-02-2.78422E-03-2.21966E-01 1.13367E-13-1.50954E-13
 -1      2386 1.97850E+01 2.88184E-02 2.06762E-03-2.82328E-01 1.44337E-13-1.29694E-13
 -1      2387 1.97268E+01 3.01949E-02 1.06923E-03-2.66369E-01 1.30529E-13-1.36177E-13
 -1      2388 1.98234E+01 4.67242E-02-2.14102E-03-2.86206E-01 1.11355E-13-1.69718E-13
 -1      2389 1.98913E+01 3.19386E-02 2.24171E-03-3.17928E-01 4.67665E-14-8.26560E-14
 -1      2390 1.98198E+01 2.92124E-02 5.02034E-04-3.02086E-01 1.21881E-13-7.85349E-14
 -1      2391 1.98814E+01 4.15872E-02-1.70834E-03-3.35451E-01 1.01752E-13-1.54147E-13
 -1      2392 2.00207E+01 4.12234E-02 2.53408E-03-3.57857E-01 5.31416E-14-1.33997E-13
 -1      2393 1.99367E+01 3.55321E-02 2.20237E-04-3.38955E-01 4.73053E-14-1.10425E-13
 -1      2394 1.99631E+01 4.77189E-02-1.46300E-03-3.81826E-01 7.71484E-14-1.45785E-13
 -1      2395 2.01736E+01 5.47515E-02 2.90125E-03-4.07631E-01 6.18773E-14-2.26522E-13
 -1      2396 2.00763E+01 4.70620E-02 1.23012E-04-3.83463E-01 7.24474E-14-1.66603E-13
 -1      2397 2.00656E+01 6.18617E-02-1.36185E-03-4.33970E-01 9.61719E-14-1.88800E-13
 -1      2398 2.03523E+01 7.05244E-02 3.27766E-03-4.70698E-01 7.40739E-14-2.26557E-13
 -1      2399 2.02396E+01 6.19080E-02 1.44024E-04-4.39989E-01 4.85707E-14-2.18019E-13
 -1      2400 2.01888E+01 8.12590E-02-1.36444E-03-4.97852E-01 6.99812E-14-2.17409E-13
 -1      2401 2.05603E+01 8.59062E-02 3.56101E-03-5.48189E-01 3.23815E-14-1.95035E-13
 -1      2402 2.04299E+01 7.78433E-02 2.38450E-04-5.10802E-01 6.06620E-14-2.03967E-13
 -1      2403 2.03340E+01 1.02877E-01-1.44096E-03-5.76957E-01 4.10051E-14-1.84552E-13
 -1      2404 2.08012E+01 9.69435E-02 3.59555E-03-6.38099E-01 2.68985E-14-1.94520E-13
 -1      2405 2.06512E+01 9.16984E-02 3.78978E-04-5.95527E-01 4.23263E-14-1.99453E-13
 -1      2406 2.05039E+01 1.22585E-01-1.57562E-03-6.71918E-01 3.26625E-14-2.49026E-13
 -1      2407 2.10779E+01 9.75346E-02 3.15571E-03-7.33836E-01 1.08985E-13-1.40501E-13
 -1      2408 2.09074E+01 9.86086E-02 5.56894E-04-6.90014E-01 6.83238E-14-1.38820E-13
 -1      2409 2.07021E+01 1.34164E-01-1.77289E-03-7.79527E-01 3.90725E-14-2.43242E-13
 -1      2410 2.13914E+01 7.85597E-02 1.93987E-03-8.22054E-01 9.27202E-14-1.13638E-13
 -1      2411 2.12021E+01 9.11352E-02 7.87573E-04-7.84524E-01 1.24151E-13-7.82602E-14
 -1      2412 2.09325E+01 1.28152E-01-2.06780E-03-8.91064E-01 6.48133E-14-4.06609E-14
 -1      2413 2.17395E+01 2.74470E-02-4.01677E-04-8.79951E-01 3.41253E-14-8.75298E-14
 -1      2414 2.15368E+01 5.85042E-02 1.11453E-03-8.61203E-01 7.47763E-14-6.94941E-14
 -1      2415 2.12003E+01 9.07774E-02-2.52867E-03-9.89900E-01 6.69396E-14 2.16216E-14
 -1      2416 2.21152E+01-7.05605E-02-4.16031E-03-8.72778E-01 3.40881E-14-7.32487E-14
 -1      2417 2.19102E+01-1.32450E-02 1.59592E-03-8.91202E-01 4.14200E-14-8.73312E-14
 -1      2418 2.15115E+01 3.89980E-03-3.22849E-03-1.04856E+00 1.81888E-14 1.36055E-14
 -1      2419 2.25043E+01-2.26934E-01-9.31931E-03-7.53734E-01 1.76135E-14-1.21208E-13
 -1      2420 2.23154E+01-1.38393E-01 2.23347E-03-8.32749E-01 1.54935E-14-1.00383E-13
 -1      2421 2.18728E+01-1.51937E-01-4.13634E-03-1.02609E+00 6.08888E-15 6.31159E-14
 -1      2422 2.28812E+01-4.36569E-01-1.51161E-02-4.70767E-01-1.01270E-13-9.63992E-14
 -1      2423 2.27349E+01-3.22792E-01 2.78601E-03-6.33426E-01-1.18677E-14-1.16121E-13
 -1      2424 2.22890E+01-3.87493E-01-4.88218E-03-8.68219E-01-9.96815E-15 6.64360E-14
 -1      2425 2.32015E+01-6.54262E-01-1.92376E-02 1.24891E-02-5.74098E-14-9.12026E-14
 -1      2426 2.31320E+01-5.45685E-01 2.43740E-03-2.43047E-01-1.29468E-13-1.52770E-13
 -1      2427 2.27536E+01-6.83161E-01-4.43912E-03-5.15376E-01-1.01181E-13 1.66870E-14
 -1      2428 2.33957E+01-7.71263E-01-1.76501E-02 6.72406E-01-6.76030E-14 3.62676E-14
 -1      2429 2.34366E+01-7.32847E-01-1.96339E-04 3.52264E-01-2.57025E-14-7.71421E-15
 -1      2430 2.32292E+01-9.54458E-01-8.35886E-04 7.12663E-02-1.00294E-13 1.97745E-14
 -1      2431 2.33769E+01-6.27489E-01-6.71539E-03 1.36512E+00-1.40208E-13 1.09772E-13
 -1      2432 2.35437E+01-7.44547E-01-6.67063E-03 1.07018E+00-1.15954E-13 8.13384E-14
 -1      2433 2.36205E+01-1.02890E+00 7.11547E-03 8.51499E-01-9.32312E-14 1.69607E-13
 -1      2434 2.30914E+01-1.08415E-01 1.09034E-02 1.79624E+00-7.28141E-14 7.99335E-14
 -1      2435 2.33539E+01-4.22093E-01-1.59030E-02 1.67506E+00-1.00797E-13 1.34701E-13
 -1      2436 2.37783E+01-6.97281E-01 1.44024E-02 1.62852E+00-1.00833E-13 1.61474E-13
 -1      2437 2.26060E+01 6.73745E-01 2.00084E-02 1.61523E+00-2.97731E-14 2.54562E-14
 -1      2438 2.28768E+01 2.65016E-01-2.37681E-02 1.80574E+00-5.59231E-14 2.65335E-14
 -1      2439 2.35909E+01 1.27132E-01 8.88599E-03 2.02447E+00-3.27416E-14 8.22510E-14
 -1      2440 2.21930E+01 1.29427E+00 1.27829E-02 7.02132E-01-6.59490E-14 5.19491E-14
 -1      2441 2.23490E+01 1.03772E+00-1.62035E-02 1.19287E+00-4.76945E-14-3.40995E-14
 -1      2442 2.31541E+01 1.16491E+00-1.29340E-02 1.62125E+00-5.88401E-14-5.55979E-16
 -1      2443 2.21646E+01 1.30980E+00-7.16460E-03-5.78815E-01 3.76678E-14-7.33935E-14
 -1      2444 2.21229E+01 1.39627E+00 5.13828E-03-7.35933E-03-1.40981E-14 2.19985E-14
 -1      2445 2.28345E+01 1.81503E+00-2.78718E-02 4.05374E-01-5.50428E-15-1.47520E-13
 -1      2446 2.25692E+01 7.09112E-01-2.12013E-02-1.56555E+00 1.39925E-13-1.15515E-13
 -1      2447 2.23530E+01 1.06911E+00 2.13910E-02-1.19617E+00 1.06149E-13-7.22959E-14
 -1      2448 2.29412E+01 1.61659E+00-1.90301E-02-1.03623E+00 6.69586E-14-2.90267E-13
 -1      2449 2.31235E+01-7.75051E-02-1.91031E-02-1.83115E+00 6.92749E-14-1.00267E-14
 -1      2450 2.28397E+01 3.07671E-01 1.86675E-02-1.79246E+00 1.24640E-13-2.29426E-14
 -1      2451 2.33662E+01 7.11285E-01 2.15452E-03-1.91997E+00 8.98691E-14-2.38897E-13
 -1      2452 2.34882E+01-6.11735E-01-9.64851E-03-1.44286E+00 1.71725E-13-1.42082E-13
 -1      2453 2.32546E+01-3.90564E-01 1.70442E-03-1.65801E+00 2.43770E-13 8.10116E-16
 -1      2454 2.37215E+01-3.00660E-01 1.28174E-02-1.92311E+00 1.32182E-13-1.55640E-13
 -1      2455 2.35366E+01-7.66578E-01-1.70358E-03-7.49196E-01 1.24034E-13-2.15167E-13
 -1      2456 2.34203E+01-7.33791E-01-1.38775E-02-1.06254E+00 5.00815E-15-1.27569E-13
 -1      2457 2.37489E+01-9.12078E-01 9.38875E-03-1.30174E+00 1.19985E-13-1.10885E-13
 -1      2458 2.33279E+01-6.54932E-01 2.62044E-03-6.97404E-02 5.08612E-14-4.85037E-14
 -1      2459 2.33356E+01-7.36278E-01-1.93728E-02-3.58862E-01 1.16552E-13-9.94978E-14
 -1      2460 2.34671E+01-1.03350E+00 1.17801E-03-4.87905E-01 5.16915E-14 1.29879E-14
 -1      2461 2.29734E+01-4.37782E-01 3.49554E-03 4.32820E-01 1.78118E-13-5.59509E-14
 -1      2462 2.30781E+01-5.53595E-01-1.71887E-02 2.26173E-01 1.05020E-13-1.66150E-14
 -1      2463 2.30249E+01-8.41052E-01-4.24655E-03 2.14482E-01 8.20641E-14 1.26289E-13
 -1      2464 2.25656E+01-2.26900E-01 2.83189E-03 7.27849E-01 2.00044E-13 6.66444E-14
 -1      2465 2.27309E+01-3.29518E-01-1.18254E-02 6.10632E-01 2.46391E-13 3.43180E-14
 -1      2466 2.25512E+01-5.39657E-01-5.59813E-03 6.88365E-01 1.25454E-13 2.15468E-13
 -1      2467 2.21579E+01-6.80530E-02 1.96004E-03 8.51320E-01 1.12234E-13 1.82940E-13
 -1      2468 2.23517E+01-1.41198E-01-6.37259E-03 8.06329E-01 2.17357E-13 1.82156E-13
 -1      2469 2.21127E+01-2.63250E-01-5.01040E-03 9.39573E-01 1.88604E-13 9.17084E-14
 -1      2470 2.17771E+01 3.29224E-02 1.34588E-03 8.56572E-01-1.09401E-13 1.58243E-13
 -1      2471 2.19760E+01-1.13381E-02-2.03886E-03 8.60434E-01 7.64211E-14 9.74756E-14
 -1      2472 2.17296E+01-6.12790E-02-3.85561E-03 1.02090E+00 9.64499E-14 2.62938E-13
 -1      2473 2.14357E+01 8.70934E-02 9.91932E-04 7.91776E-01-1.28817E-13-3.28123E-14
 -1      2474 2.16243E+01 6.49017E-02 8.84910E-04 8.23866E-01-2.06297E-13 6.34318E-14
 -1      2475 2.14019E+01 6.39076E-02-2.86352E-03 9.90963E-01 1.79801E-14 2.09462E-13
 -1      2476 2.11382E+01 1.09104E-01 8.13763E-04 6.92675E-01-2.45073E-13 9.52764E-14
 -1      2477 2.13077E+01 1.01516E-01 2.56988E-03 7.37928E-01-1.34572E-13-3.62742E-14
 -1      2478 2.11239E+01 1.28883E-01-2.21032E-03 8.98140E-01-1.99927E-13 2.92142E-13
 -1      2479 2.08849E+01 1.11489E-01 7.26456E-04 5.82736E-01-2.96719E-13 2.63150E-13
 -1      2480 2.10314E+01 1.12507E-01 3.34268E-03 6.31427E-01-2.99221E-13 1.48233E-13
 -1      2481 2.08892E+01 1.53233E-01-1.82098E-03 7.76847E-01-3.01471E-13 2.59660E-13
 -1      2482 2.06736E+01 1.03301E-01 6.77659E-04 4.75805E-01-1.44712E-13 2.54837E-13
 -1      2483 2.07964E+01 1.08735E-01 3.51539E-03 5.22342E-01-1.73433E-13 3.23105E-13
 -1      2484 2.06928E+01 1.53196E-01-1.58223E-03 6.49166E-01-2.57359E-13 2.83599E-13
 -1      2485 2.05008E+01 9.04802E-02 6.43968E-04 3.79009E-01-4.20135E-14 1.89901E-13
 -1      2486 2.06010E+01 9.76382E-02 3.33338E-03 4.20647E-01-5.00777E-14 1.78481E-13
 -1      2487 2.05300E+01 1.40323E-01-1.41027E-03 5.27881E-01-5.66142E-14 1.91155E-13
 -1      2488 2.03620E+01 7.66956E-02 6.19242E-04 2.95107E-01 1.05983E-13 1.76090E-13
 -1      2489 2.04419E+01 8.39375E-02 2.96737E-03 3.30930E-01 2.83558E-14 1.93176E-13
 -1      2490 2.03969E+01 1.22142E-01-1.25884E-03 4.19359E-01 2.57936E-14-9.07908E-15
 -1      2491 2.02527E+01 6.41195E-02 6.01229E-04 2.24162E-01 1.73960E-13 2.93644E-13
 -1      2492 2.03150E+01 7.04882E-02 2.52656E-03 2.54371E-01 1.27950E-13 3.08246E-13
 -1      2493 2.02897E+01 1.03281E-01-1.10852E-03 3.25803E-01 3.20535E-14-2.47410E-15
 -1      2494 2.01683E+01 5.39935E-02 6.13881E-04 1.64692E-01 1.49912E-13 3.84368E-13
 -1      2495 2.02155E+01 5.89573E-02 2.07805E-03 1.90118E-01 1.79138E-13 4.69536E-13
 -1      2496 2.02044E+01 8.64404E-02-9.48676E-04 2.46859E-01 1.43693E-13 3.88914E-13
 -1      2497 2.01043E+01 4.65375E-02 5.54863E-04 1.14346E-01 5.55220E-14 3.10355E-13
 -1      2498 2.01390E+01 5.01686E-02 1.64105E-03 1.36102E-01 1.48862E-13 4.51736E-13
 -1      2499 2.01374E+01 7.30531E-02-8.21715E-04 1.80896E-01 1.70444E-13 4.92178E-13
 -1      2500 2.00569E+01 4.11809E-02 5.00525E-04 7.15990E-02-1.27443E-13 2.73797E-13
 -1      2501 2.00818E+01 4.37921E-02 1.27275E-03 9.03492E-02-1.78959E-14 3.24767E-13
 -1      2502 2.00854E+01 6.24714E-02-9.13723E-04 1.25085E-01 4.16334E-14 4.07849E-13
 -1      2503 2.00389E+01 3.71760E-02 7.88226E-04 5.00048E-02-2.35073E-13 9.99859E-14
 -1      2504 1.99732E+01 2.21688E-01-1.07003E-03 1.06146E-01 1.41535E-13-3.82469E-13
 -1      2505 1.99844E+01 2.01894E-01 3.62708E-04 1.14274E-01 2.57356E-13-9.03080E-13
 -1      2506 1.99554E+01 2.57185E-01-1.09725E-03 7.64268E-02 1.00958E-13 1.43374E-13
 -1      2507 1.99638E+01 2.42409E-01-2.04199E-05 9.14934E-02 2.96425E-14 1.04766E-13
 -1      2508 1.99587E+01 2.45221E-01 7.43756E-04 1.15730E-01 1.94017E-13-2.60463E-13
 -1      2509 2.00192E+01 1.27030E-01-6.69129E-04 1.15289E-01-9.88882E-14 2.37660E-13
 -1      2510 2.00308E+01 1.04783E-01 8.70390E-04 1.07596E-01-2.07757E-13 5.24268E-13
 -1      2511 1.99957E+01 1.76453E-01-9.07301E-04 1.19852E-01 1.46941E-13-6.92495E-13
 -1      2512 2.00081E+01 1.54472E-01 6.89579E-04 1.19809E-01 1.87734E-14-2.18130E-13
 -1      2513 2.00182E+01 1.49836E-01 3.91526E-04 1.39776E-01-4.74206E-14 4.12649E-14
 -1      2514 1.99867E+01 2.00750E-01 4.56739E-04 1.37817E-01 2.88507E-13-7.64693E-13
 -1      2515 1.99449E+01 2.78492E-01-9.88344E-04 3.53594E-02-1.55065E-13-1.05521E-13
 -1      2516 1.99493E+01 2.70611E-01-4.17268E-04 5.49761E-02 5.40385E-14-1.05031E-13
 -1      2517 1.99376E+01 2.78111E-01 9.62673E-04 7.67161E-02 1.49123E-13 7.54774E-15
 -1      2518 1.99428E+01 2.83069E-01-7.54535E-04-1.09001E-02-3.49099E-13 2.55654E-13
 -1      2519 1.99428E+01 2.83120E-01-7.54028E-04 1.02878E-02-2.84928E-13 1.37803E-13
 -1      2520 1.99264E+01 2.95503E-01 1.07832E-03 2.66246E-02-1.20938E-13-1.51782E-13
 -1      2521 1.99494E+01 2.70376E-01-4.29036E-04-5.55343E-02-3.93381E-13-1.78747E-13
 -1      2522 1.99449E+01 2.78381E-01-9.81396E-04-3.59588E-02-4.35858E-13 2.12750E-13
 -1      2523 1.99264E+01 2.95440E-01 1.07531E-03-2.73039E-02-2.92192E-13 1.07084E-13
 -1      2524 1.99637E+01 2.42639E-01-3.02348E-05-9.14313E-02-6.88690E-14-4.78311E-13
 -1      2525 1.99554E+01 2.57174E-01-1.09107E-03-7.66179E-02-1.79483E-13-5.28209E-13
 -1      2526 1.99377E+01 2.78162E-01 9.78194E-04-7.69725E-02-2.28854E-13-2.18581E-13
 -1      2527 1.99843E+01 2.02160E-01 3.50747E-04-1.14303E-01 3.84363E-15 4.58151E-13
 -1      2528 1.99731E+01 2.21966E-01-1.06769E-03-1.06141E-01 2.94816E-15-1.33183E-13
 -1      2529 1.99585E+01 2.45552E-01 7.44878E-04-1.15688E-01 1.11554E-13-2.69720E-13
 -1      2530 2.00082E+01 1.53873E-01 5.99088E-04-1.19691E-01-4.97930E-14 1.65153E-13
 -1      2531 1.99959E+01 1.76560E-01-8.54080E-04-1.20000E-01-1.39644E-13 6.82439E-13
 -1      2532 1.99866E+01 2.00894E-01 4.14554E-04-1.37896E-01-5.95713E-14 3.86698E-13
 -1      2533 2.00310E+01 1.03642E-01 7.31103E-04-1.06752E-01-2.25670E-13-7.77831E-14
 -1      2534 2.00199E+01 1.26608E-01-5.09528E-04-1.15466E-01-1.94625E-13-2.61522E-13
 -1      2535 2.00170E+01 1.49016E-01-1.34768E-04-1.39697E-01-1.39108E-13-1.64745E-13
 -1      2536 4.10155E+00-3.13130E+00 5.20017E-02 3.26958E+00 3.85247E-14 7.85427E-13
 -1      2537 2.94868E+00-3.02365E+00 5.04782E-02 1.04241E+00 1.96579E-13 7.73992E-13
 -1      2538 1.76474E+01-5.30299E+00-1.30192E-02 6.74596E+00-2.22211E-13 1.45821E-14
 -1      2539 1.35426E+01-5.14116E+00 4.91418E-02 6.64891E+00-4.15029E-13 1.60899E-13
 -1      2540 2.05834E+01-5.31182E+00 9.69778E-02 5.66399E+00-3.23103E-13-8.49338E-14
 -1      2541 1.97184E+01 1.53810E-01 3.73597E-03 3.39520E-02 1.53807E-13-2.62110E-14
 -1      2542 1.97894E+01 2.06638E-01 1.24752E-02 1.24645E-01 1.87601E-13 9.23914E-15
 -1      2543 1.98692E+01 1.97223E-01-4.16592E-03 2.89685E-02 1.63283E-13-9.75212E-14
 -1      2544 2.00362E+01 5.96657E-02 7.29974E-04-6.83726E-02-2.17781E-14 2.92636E-13
 -1      2545 3.01156E+00-2.98958E+00 6.14534E-02-8.86922E-01 3.20147E-13 7.14373E-13
 -1      2546 4.34024E+00-2.84574E+00 6.82352E-02-3.09635E+00 2.85647E-13 4.61298E-13
 -1      2547 4.91774E+00-1.58085E+00 1.57165E-01 1.52780E-01 1.50472E-13 7.15705E-13
 -1      2548 9.22978E+00-4.38488E+00 2.20761E-03 6.38738E+00-3.84415E-13 3.12028E-13
 -1      2549 6.35733E+00-3.94061E+00 5.28770E-02 4.96918E+00-2.85494E-13 6.09179E-13
 -1      2550 2.05408E+01 1.95709E+00-1.36119E-02-1.88608E+00-3.79533E-13-3.98293E-15
 -1      2551 2.04038E+01 1.21273E+00-8.66290E-03-1.27847E+00-3.48058E-13 1.22272E-14
 -1      2552 2.03823E+01 1.39095E+00 8.94934E-03-1.22400E+00-3.27166E-13-7.02324E-14
 -1      2553 2.02941E+01 2.40075E+00 6.33353E-04-1.82512E+00-3.81114E-13-1.14048E-13
 -1      2554 7.31223E+00-3.73618E+00 8.50961E-02-5.35216E+00 2.44721E-13 6.04627E-13
 -1      2555 1.05011E+01-4.52032E+00 3.33635E-02-6.59417E+00 1.01641E-13 6.07875E-13
 -1      2556 2.80835E+01-2.96205E+00-2.00042E-02 2.95539E+00-4.79755E-14-2.51715E-13
 -1      2557 2.51674E+01-4.39922E+00-6.01214E-05 3.99594E+00 7.23310E-14-2.42778E-13
 -1      2558 3.42751E+00-2.45461E+00 1.06266E-01 4.07932E-01 1.17840E-13-4.60521E-13
 -1      2559 4.05509E+00-2.43817E+00 8.19929E-02-2.35351E+00 1.56583E-13-7.09433E-13
 -1      2560 3.20746E+01 7.29227E+00-1.36111E-01 3.48379E-01 7.58837E-13-3.37286E-13
 -1      2561 3.21511E+01 7.25766E+00-1.37500E-01-3.13630E-01 6.01075E-13-4.65170E-13
 -1      2562 1.95338E+01 3.60752E+00-1.01541E-02-2.41765E-01-5.09094E-14-4.80204E-13
 -1      2563 1.95498E+01 3.58607E+00-9.65259E-03-4.20514E-01-9.29392E-14-4.67751E-13
 -1      2564 1.97246E+01 3.18988E+00-3.68766E-04-4.65463E-01-1.04478E-13-4.23049E-13
 -1      2565 1.96902E+01 3.25204E+00-7.08061E-04-1.49316E-01-4.70442E-14-4.64233E-13
 -1      2566 3.15657E+01 4.37749E+00-9.54111E-02 1.22288E+00 6.16535E-13-2.18547E-13
 -1      2567 3.19502E+01 6.06005E+00-1.66630E-01 1.00891E+00 7.83817E-13-8.29753E-14
 -1      2568 3.19219E+01 6.32089E+00-1.59540E-01-9.19689E-01 5.16920E-13-6.36963E-13
 -1      2569 3.16914E+01 5.19192E+00-1.07269E-01-1.25941E+00 3.80806E-13-5.48589E-13
 -1      2570 1.99415E+01-5.39158E+00 2.80694E-02-5.94858E+00 2.07057E-14-3.66443E-13
 -1      2571 2.40002E+01-4.74363E+00-4.21165E-02-4.93289E+00 9.40081E-14-1.71918E-13
 -1      2572 3.06336E+01 9.58675E-02-5.19983E-02-4.70194E-02 4.37622E-13-6.55032E-14
 -1      2573 3.11256E+01 1.65025E+00-2.00548E-01 7.34470E-01 4.78395E-13-1.57929E-13
 -1      2574 2.15034E+01-5.27741E+00-1.35495E-02 5.70279E+00 1.58096E-13-4.64719E-13
 -1      2575 1.70609E+01-5.33777E+00 5.29772E-02 6.46620E+00 2.60902E-13-4.19789E-13
 -1      2576 2.69557E+01-3.62164E+00-1.25260E-02-2.85555E+00 1.99368E-13-8.80684E-14
 -1      2577 2.94662E+01-1.86288E+00-1.02279E-01-1.59691E+00 3.93588E-13 2.19824E-14
 -1      2578 2.91637E+01-1.69741E+00 5.25826E-03 7.14281E-03 1.68957E-13 7.47180E-14
 -1      2579 1.12239E+01-4.97176E+00 1.10739E-02-6.49530E+00-6.36158E-14-6.55281E-13
 -1      2580 1.51805E+01-5.08332E+00 1.17087E-03-6.83586E+00-4.56302E-14-5.99645E-13
 -1      2581 6.35282E+00-3.03823E+00 1.44506E-01-4.54866E+00 2.84772E-14-7.46431E-13
 -1      2582 8.51405E+00-4.08193E+00 3.70984E-02-6.00778E+00 1.94844E-14-7.28417E-13
 -1      2583 1.16264E+01-3.69819E+00 1.14239E-01-6.14959E+00-1.49519E-13-5.44204E-13
 -1      2584 5.43885E+00-3.35644E+00 3.67758E-02 4.44460E+00 8.10463E-14-2.74170E-13
 -1      2585 3.88647E+00-2.92479E+00 6.89290E-02 2.56838E+00 7.50788E-14-3.37119E-13
 -1      2586 3.33711E+01 7.49494E+00-3.92822E-02 5.87380E-03-7.65887E-13 3.90066E-13
 -1      2587 3.19349E+01 6.94504E+00-1.79651E-01-5.40975E-01-5.92415E-13 3.64431E-13
 -1      2588 1.21554E+01-4.41810E+00 3.00030E-02 6.65496E+00 2.08195E-13-2.35367E-13
 -1      2589 8.41267E+00-3.90757E+00 8.98458E-02 5.61804E+00 1.64091E-13-2.03670E-13
 -1      2590 3.11090E+01 4.57615E-01-1.12729E-01 4.15441E-01-1.93151E-13-4.26326E-14
 -1      2591 2.96327E+01-1.39999E+00-4.10069E-02 1.48990E+00-1.23068E-13-7.08877E-14
 -1      2592 2.86722E+01-2.69639E+00-1.42857E-03 1.22690E+00 9.87752E-15-1.89571E-14
 -1      2593 3.27636E+01 6.00450E+00-9.76401E-02 8.42735E-01-6.61360E-13 6.78624E-14
 -1      2594 3.33382E+01 7.07791E+00-9.45964E-02 4.96774E-01-7.39353E-13 2.97165E-13
 -1      2595 3.07772E+01 6.93622E+00-6.82001E-02 4.45340E-01-7.16704E-13 3.58713E-13
 -1      2596 3.16982E+01 2.13379E+00-4.63455E-02 4.62857E-01-5.75623E-13-1.60316E-13
 -1      2597 3.25380E+01 4.00222E+00-1.29366E-01 8.12389E-01-6.49425E-13-5.09315E-14
 -1      2598 2.83424E+01-2.51642E+00-1.58368E-02-2.17949E+00-2.66710E-13 4.50751E-14
 -1      2599 3.06374E+01-5.65708E-01-1.24423E-01-8.87317E-01-4.17832E-13-1.93900E-13
 -1      2600 2.24144E+01-5.08939E+00 3.44753E-02-5.13727E+00-1.83131E-13 1.46078E-13
 -1      2601 2.57890E+01-4.19562E+00-8.71226E-02-4.22760E+00-2.33785E-13 9.60620E-14
 -1      2602 1.39420E+01-5.26122E+00 3.60425E-02-6.66443E+00 8.44880E-14 5.09197E-13
 -1      2603 1.79460E+01-5.34182E+00-5.06592E-02-6.68352E+00-4.30767E-14 4.06859E-13
 -1      2604 1.38872E+01-4.35259E+00 1.32283E-01-6.48115E+00 3.02786E-13 4.72997E-13
 -1      2605 2.91031E+01-2.26183E+00-1.34940E-01 1.44880E+00 1.37501E-13-6.05432E-13
 -1      2606 2.72028E+01-3.59127E+00-3.37363E-02 2.48551E+00 8.96921E-14-4.98962E-13
 -1      2607 2.04769E+01 8.76570E-01-7.12642E-03 1.21892E+00 3.35145E-13 9.11350E-14
 -1      2608 2.08248E+01 1.25753E+00-5.98181E-03 1.72024E+00 3.67047E-13 1.38917E-13
 -1      2609 2.06351E+01 1.71630E+00-1.57956E-02 1.91334E+00 3.97224E-13 1.99493E-14
 -1      2610 2.04425E+01 1.06127E+00-9.47957E-03 1.23044E+00 3.41357E-13-3.93344E-14
 -1      2611 3.00493E+01 6.23060E+00-9.07859E-02 9.85824E-01 6.31079E-13-2.30815E-13
 -1      2612 1.99247E+01 2.82712E+00 1.22152E-03-1.08328E+00-2.44975E-13-3.50294E-13
 -1      2613 1.97914E+01 3.16763E+00-1.62750E-02-1.27493E+00-2.68412E-13-3.63219E-13
 -1      2614 1.98921E+01 3.02208E+00-1.85248E-02-1.46479E+00-3.10042E-13-3.23075E-13
 -1      2615 2.00027E+01 3.51027E-01-3.81237E-03 2.80431E-01 2.31050E-13-7.24039E-14
 -1      2616 2.60618E+01-4.49483E+00 3.85366E-02 2.83211E+00-7.81042E-14-5.03833E-13
 -1      2617 2.04175E+01 2.11765E+00-1.27093E-02 1.86514E+00 3.77744E-13-1.32123E-13
 -1      2618 7.03269E+00-2.61918E+00 1.45389E-01-4.33494E+00 1.75276E-13 6.12455E-13
 -1      2619 9.75296E+00-2.44773E+00 3.87186E-02-5.20310E+00 2.09679E-13 6.89754E-13
 -1      2620 7.30206E+00-1.24207E+00 1.89820E-01-3.20229E+00 1.75290E-13 6.05183E-13
 -1      2621 2.91977E+01-1.35146E+00-2.68529E-02-4.31769E-01 9.77621E-14-6.22558E-13
 -1      2622 2.11023E+01-5.29004E+00 7.42698E-02-5.49547E+00 2.79221E-14 5.89320E-14
 -1      2623 2.00455E+01 5.51366E-02 1.09728E-04 7.68823E-02-1.58531E-13 2.12402E-13
 -1      2624 2.00435E+01 7.25281E-02 3.65776E-05 9.06038E-02-1.00516E-13 4.36480E-13
 -1      2625 2.73967E+01-3.75292E+00 2.84632E-02-2.23288E+00-8.24618E-14-1.63591E-13
 -1      2626 6.94998E+00-2.47516E+00 1.44293E-01 4.12725E+00-1.95732E-13 3.61017E-13
 -1      2627 1.32255E+01-4.25337E+00 1.23056E-01 6.46356E+00-5.94552E-13 1.66825E-13
 -1      2628 3.10992E+01 1.55273E+00-3.15984E-02-8.27727E-01-2.40433E-13 6.47815E-14
 -1      2629 2.96714E+01 8.93132E-02 2.70796E-03-1.10208E+00-1.37751E-13 4.04676E-14
 -1      2630 2.97171E+01 2.40034E+00-2.16936E-01-1.96407E+00-3.31180E-13 1.28786E-13
 -1      2631 1.56347E+01-4.70021E+00 1.02272E-01 6.51821E+00 2.62290E-13-3.35433E-13
 -1      2632 1.44678E+01-3.64121E+00 1.41472E-01 6.18701E+00 2.34535E-13-2.32536E-13
 -1      2633 1.86154E+01-4.79140E+00 1.81041E-02 5.82104E+00 3.12139E-13-3.76921E-13
 -1      2634 2.01226E+01 2.61834E+00-9.87929E-03-1.66473E+00-3.59422E-13-2.05891E-13
 -1      2635 3.08954E+01 4.60621E+00-5.03701E-02 1.53867E+00-5.67490E-13 7.52176E-15
 -1      2636 2.53902E+01-4.89451E+00-1.28326E-01 2.99359E+00 1.54932E-13-8.37802E-14
 -1      2637 2.38299E+01-5.11149E+00 2.88220E-02 4.41174E+00 1.32561E-13-2.30510E-13
 -1      2638 2.23721E+01-5.17894E+00 6.04768E-02 4.76165E+00 2.30496E-13-2.86222E-13
 -1      2639 6.77922E+00-1.90041E+00 1.49956E-01-3.31944E+00 7.14290E-14-6.87228E-13
 -1      2640 2.58383E+01-4.58632E+00 4.08504E-02-3.16860E+00-3.96905E-14-1.74583E-14
 -1      2641 1.72348E+01-4.60370E+00 1.41075E-01-6.26014E+00-2.26458E-13-3.73049E-13
 -1      2642 1.85936E+01-5.33118E+00 5.86424E-02-6.24690E+00-1.09107E-13-3.60727E-13
 -1      2643 2.11886E+01-5.41189E+00-8.72938E-02-5.25186E+00-1.80980E-13-1.25358E-13
 -1      2644 3.13047E+01 6.05376E+00-9.79534E-02-1.14907E+00-6.42875E-13 3.26239E-13
 -1      2645 2.99056E+01 4.86039E+00-1.38638E-01-1.54147E+00-6.49425E-13 2.28151E-13
 -1      2646 2.96459E+01 6.31595E+00-1.55896E-01-9.84287E-01-7.10265E-13 3.24435E-13
 -1      2647 5.28693E+00-1.63662E+00 1.52049E-01 1.38715E+00 1.46751E-13-4.74898E-13
 -1      2648 3.00032E+01 6.42749E+00-8.23027E-02-9.19717E-01 4.62852E-13-5.18918E-13
 -1      2649 2.99910E+01 3.21777E+00-8.47793E-02-1.71768E+00 2.50133E-13-6.59722E-13
 -1      2650 2.04347E+01 1.81266E+00 1.25244E-02 1.55062E+00 3.46739E-13-1.58042E-13
 -1      2651 3.00599E+01 2.58548E+00-6.05854E-02 1.69893E+00 4.57828E-13-1.05360E-13
 -1      2652 8.67907E+00-2.72958E+00 1.53054E-01 5.05372E+00 2.03532E-13-1.94456E-13
 -1      2653 2.00556E+01 5.72824E-02 7.91676E-04-8.69007E-02 1.81663E-15 4.91974E-13
 -1      2654 2.00413E+01 8.12456E-02-5.51213E-04-9.97049E-02-7.05503E-14 1.91354E-13
 -1      2655 2.00488E+01 1.01747E-01 4.89532E-04-1.27937E-01-2.30203E-13 2.57759E-13
 -1      2656 2.00757E+01 6.15105E-02 1.33922E-03-1.06677E-01 4.01255E-14 4.96101E-13
 -1      2657 3.02227E+01 1.88821E-01-1.79497E-02 7.24050E-01-3.86247E-13-2.41807E-13
 -1      2658 2.00510E+01 9.17412E-02 5.57679E-04 1.18940E-01-1.55583E-13 3.84770E-13
 -1      2659 2.00733E+01 8.26705E-02-8.56679E-04-1.38616E-01 7.46246E-15 3.32703E-13
 -1      2660 1.98557E+01 2.79616E+00-6.27549E-03 5.05325E-01 8.91865E-14-4.17509E-13
 -1      2661 1.98304E+01 2.84740E+00-5.84201E-03 3.56992E-01 4.62696E-14-4.24581E-13
 -1      2662 1.98131E+01 2.88658E+00-5.66183E-03 2.24898E-01 2.58165E-14-4.66625E-13
 -1      2663 1.98044E+01 2.90402E+00-5.53576E-03 7.32942E-02 3.61039E-16-4.58225E-13
 -1      2664 1.99574E+01 2.54165E+00 3.85725E-03 2.57385E-01 4.64360E-14-4.26580E-13
 -1      2665 2.00543E+01 2.34331E+00-1.06022E-02 1.02851E+00 2.56862E-13-3.36531E-13
 -1      2666 1.99905E+01 2.49482E+00-6.50384E-03 8.93684E-01 2.15669E-13-3.71687E-13
 -1      2667 2.02240E+01 1.92082E+00-1.18663E-02 1.21039E+00 2.91046E-13-2.78974E-13
 -1      2668 2.01337E+01 2.16123E+00-4.98919E-03 1.11655E+00 2.70452E-13-3.00994E-13
 -1      2669 2.01992E+01 1.90802E+00 6.48116E-03 9.06000E-01 2.45355E-13-2.91492E-13
 -1      2670 2.86192E+01 1.10442E+00-4.51910E-02 2.03130E+00 2.66925E-13 1.20653E-13
 -1      2671 2.83847E+01 3.08741E+00-2.17509E-01 2.10117E+00 4.62658E-13 1.13562E-13
 -1      2672 2.02184E+01 7.38351E-01-3.16614E-03 6.22561E-01 2.66759E-13-1.43615E-13
 -1      2673 2.03566E+01 9.60437E-01 9.18918E-03 8.89761E-01 2.82645E-13-1.35994E-13
 -1      2674 2.03390E+01 1.50687E+00-1.75228E-03 1.25332E+00 3.16989E-13-1.76654E-13
 -1      2675 1.34459E+01-3.28933E+00 1.91280E-01-5.99202E+00 3.49498E-13 3.93935E-13
 -1      2676 1.61275E+01-4.36027E+00-1.83089E-03-6.36318E+00 3.24213E-13 2.84939E-13
 -1      2677 2.83416E+01-5.65151E-01-1.61089E-01-1.42856E+00 1.17455E-13-5.02570E-13
 -1      2678 2.77042E+01-2.42871E+00-4.34804E-02-3.25186E-01 1.86032E-14-5.78412E-13
 -1      2679 2.02267E+01 6.47467E-01 7.73579E-03-4.07017E-01-2.09710E-13-7.54452E-14
 -1      2680 2.01489E+01 5.00939E-01-2.69191E-03-2.41445E-01-1.84485E-13-9.18704E-14
 -1      2681 2.01252E+01 3.92415E-01 6.46522E-03-1.13682E-01-1.61067E-13-8.87611E-14
 -1      2682 2.00734E+01 3.03808E-01-1.19163E-03-6.72247E-03-1.65155E-13-1.01884E-13
 -1      2683 2.02118E+01 5.62986E-01-1.67216E-03-2.17334E-01-1.82892E-13-1.25767E-13
 -1      2684 2.00504E+01 2.39894E-01 4.32464E-03 8.00160E-02-1.44003E-13-7.19042E-14
 -1      2685 2.00245E+01 1.88062E-01-1.13956E-04 1.49368E-01-1.17735E-13-6.64930E-14
 -1      2686 2.01493E+01 3.47448E-01-2.24188E-03 9.53081E-03-1.51687E-13-9.28243E-14
 -1      2687 2.00076E+01 1.51873E-01 2.61603E-03 2.08226E-01-9.14506E-14-5.79015E-14
 -1      2688 2.00027E+01 1.24223E-01 6.18587E-04 2.54811E-01-8.42441E-14-6.16752E-14
 -1      2689 2.01015E+01 2.19551E-01-2.10409E-03 1.64716E-01-1.01143E-13-8.04883E-14
 -1      2690 1.99928E+01 1.06579E-01 1.36148E-03 2.96791E-01-1.12986E-13-6.77937E-14
 -1      2691 2.00042E+01 9.56174E-02 1.14962E-03 3.31175E-01-1.40904E-13-8.40351E-14
 -1      2692 2.00714E+01 1.49949E-01-1.75848E-03 2.72909E-01-1.17510E-13-1.04836E-13
 -1      2693 2.00006E+01 9.10037E-02 4.49671E-04 3.64832E-01-1.22099E-13-6.05042E-14
 -1      2694 2.00249E+01 9.20107E-02 1.57321E-03 3.94637E-01-1.20301E-13-2.21667E-14
 -1      2695 2.00576E+01 1.20717E-01-1.40207E-03 3.54185E-01-1.14641E-13-7.65417E-14
 -1      2696 2.00266E+01 9.68241E-02-2.11943E-04 4.26491E-01-1.26747E-13-2.01533E-15
 -1      2697 2.00616E+01 1.06546E-01 1.94304E-03 4.57262E-01-1.05341E-13 3.44041E-14
 -1      2698 2.00575E+01 1.20408E-01-1.09699E-03 4.24131E-01-9.04552E-14-2.42968E-14
 -1      2699 2.00676E+01 1.18138E-01-6.91018E-04 4.92207E-01-1.07718E-13 5.90493E-14
 -1      2700 2.01123E+01 1.33993E-01 2.28184E-03 5.27914E-01-3.42416E-14 3.63876E-14
 -1      2701 2.00687E+01 1.41057E-01-8.54562E-04 4.94579E-01-6.24473E-14 4.82546E-14
 -1      2702 2.01221E+01 1.50031E-01-1.02806E-03 5.69500E-01-5.18533E-14 3.27468E-15
 -1      2703 2.01762E+01 1.69500E-01 2.58917E-03 6.12752E-01-3.32982E-14-4.90865E-14
 -1      2704 2.00891E+01 1.76318E-01-6.71984E-04 5.74285E-01-8.59559E-14-4.46934E-15
 -1      2705 2.01897E+01 1.87413E-01-1.23353E-03 6.63289E-01-1.98048E-14-9.36027E-14
 -1      2706 2.02537E+01 2.07433E-01 2.84529E-03 7.15297E-01-3.37632E-14-1.67876E-13
 -1      2707 2.01178E+01 2.20019E-01-5.53354E-04 6.69339E-01-8.76561E-14-1.04258E-13
 -1      2708 2.02717E+01 2.23799E-01-1.28018E-03 7.75776E-01-3.55573E-14-2.08252E-13
 -1      2709 2.03466E+01 2.40052E-01 3.01264E-03 8.36048E-01-1.49345E-14-2.00546E-13
 -1      2710 2.01547E+01 2.64748E-01-5.26766E-04 7.83229E-01-5.84693E-14-1.65887E-13
 -1      2711 2.03712E+01 2.49852E-01-1.09018E-03 9.05853E-01-3.31189E-14-1.92351E-13
 -1      2712 2.04590E+01 2.55889E-01 3.03493E-03 9.71614E-01-4.30170E-14-1.75115E-13
 -1      2713 2.02020E+01 3.00205E-01-6.64486E-04 9.16561E-01-5.98872E-14-2.31495E-13
 -1      2714 2.04947E+01 2.51614E-01-5.16547E-04 1.04797E+00-5.46029E-14-1.89528E-13
 -1      2715 2.05986E+01 2.37859E-01 2.82977E-03 1.11325E+00-6.51588E-14-1.90927E-13
 -1      2716 2.02650E+01 3.11230E-01-1.11204E-03 1.06636E+00-5.84342E-14-2.25503E-13
 -1      2717 2.06541E+01 2.08621E-01 6.78611E-04 1.19032E+00-6.57134E-14-1.89977E-13
 -1      2718 2.07793E+01 1.61555E-01 2.26471E-03 1.24468E+00-3.16416E-14-1.81171E-13
 -1      2719 2.03547E+01 2.75569E-01-2.12349E-03 1.22486E+00-5.37452E-14-1.93179E-13
 -1      2720 2.08698E+01 9.27343E-02 2.83479E-03 1.31202E+00 5.83303E-14-1.88938E-13
 -1      2721 2.10241E+01-4.84166E-03 1.10559E-03 1.33904E+00 6.61899E-14-1.47120E-13
 -1      2722 2.04918E+01 1.62073E-01-4.07993E-03 1.37743E+00-1.52792E-14-1.51878E-13
 -1      2723 2.11739E+01-1.30006E-01 6.34441E-03 1.37903E+00 9.86184E-14-1.41600E-13
 -1      2724 2.13676E+01-2.95583E-01-1.12287E-03 1.35480E+00 1.06575E-13-4.83211E-14
 -1      2725 2.07113E+01-6.86850E-02-7.43389E-03 1.49893E+00 8.91301E-14-1.01174E-13
 -1      2726 2.16111E+01-4.89788E-01 1.13172E-02 1.33863E+00 4.33086E-14 1.01693E-14
 -1      2727 2.18531E+01-7.30288E-01-4.97504E-03 1.23138E+00 7.47362E-14-3.40663E-14
 -1      2728 2.10673E+01-4.56673E-01-1.25230E-02 1.54730E+00 1.27416E-13-1.63929E-14
 -1      2729 2.22283E+01-9.86373E-01 1.74212E-02 1.11542E+00 1.57858E-13-1.97338E-14
 -1      2730 2.25158E+01-1.27702E+00-1.13018E-02 8.90278E-01 2.13917E-13 2.18627E-14
 -1      2731 2.16301E+01-1.01769E+00-1.86649E-02 1.45421E+00 1.19378E-13 1.23738E-14
 -1      2732 2.30457E+01-1.54094E+00 2.15473E-02 6.12720E-01 2.43914E-13-1.83295E-14
 -1      2733 2.33449E+01-1.77905E+00-1.82838E-02 2.45834E-01 2.97425E-13-8.79440E-15
 -1      2734 2.24680E+01-1.69519E+00-2.36245E-02 1.11728E+00 1.91779E-13-7.47414E-14
 -1      2735 2.39764E+01-1.90227E+00 1.61009E-02-2.39854E-01 2.86665E-13 3.30361E-14
 -1      2736 2.42143E+01-1.88407E+00-2.14150E-02-7.10721E-01 1.24578E-13 1.00045E-13
 -1      2737 2.35827E+01-2.25307E+00-2.28187E-02 4.02712E-01 2.73635E-13-9.70669E-14
 -1      2738 2.47523E+01-1.62305E+00-1.20106E-02-1.34289E+00 5.19658E-14 1.40984E-13
 -1      2739 2.48550E+01-1.09575E+00-7.10687E-03-1.74272E+00 7.70087E-14 1.22333E-13
 -1      2740 2.47664E+01-2.19686E+00-2.41148E-02-7.35674E-01 1.50280E-13 9.49674E-14
 -1      2741 2.50432E+01-3.16752E-01-6.01419E-02-2.22043E+00 2.33277E-14 2.10451E-13
 -1      2742 2.49563E+01 7.43499E-01-3.22799E-03-2.26863E+00-1.41335E-13 1.25443E-13
 -1      2743 2.56463E+01-9.04362E-01-2.06914E-02-1.99901E+00 4.73649E-14 1.42383E-13
 -1      2744 2.47547E+01 1.86144E+00-8.81280E-02-2.08710E+00-2.79110E-13-1.70784E-15
 -1      2745 2.45914E+01 2.83238E+00-2.46157E-02-1.53883E+00-3.42726E-13-1.16698E-13
 -1      2746 2.58170E+01 1.45480E+00-3.59154E-02-2.33154E+00-2.90754E-13 1.95982E-13
 -1      2747 2.44192E+01 3.44548E+00-6.72126E-02-5.80266E-01-4.36540E-13-2.52551E-13
 -1      2748 2.44040E+01 3.52380E+00-6.28110E-02 3.08753E-01-5.22395E-13-3.52341E-13
 -1      2749 2.54895E+01 3.78742E+00-8.44738E-02-1.17679E+00-4.31002E-13-1.48402E-13
 -1      2750 2.45373E+01 3.04433E+00-3.18017E-02 1.33550E+00-3.88009E-13-3.59655E-13
 -1      2751 2.47008E+01 2.14834E+00-8.88471E-02 1.95873E+00-2.17212E-13-4.25878E-13
 -1      2752 2.54546E+01 3.96552E+00-8.98632E-02 9.14543E-01-4.53207E-13-3.94792E-13
 -1      2753 2.49171E+01 1.04708E+00-8.36705E-03 2.25641E+00-6.12357E-14-4.37846E-13
 -1      2754 2.50200E+01-4.31208E-02-7.20090E-02 2.29338E+00-7.00932E-14-3.18082E-13
 -1      2755 2.57555E+01 1.80949E+00-5.40740E-02 2.25991E+00-1.77858E-13-4.18665E-13
 -1      2756 2.49348E+01-8.99351E-01 2.46411E-03 1.85914E+00 4.10262E-15-2.49000E-13
 -1      2757 2.48139E+01-1.52862E+00-2.63042E-02 1.47967E+00 1.22962E-14-1.12244E-13
 -1      2758 2.57603E+01-7.10393E-01 6.09099E-03 2.08354E+00 4.93008E-15-5.50726E-13
 -1      2759 2.43309E+01-1.82904E+00-1.67380E-02 8.64609E-01-8.82760E-14-2.12484E-14
 -1      2760 2.40972E+01-1.90672E+00 1.26733E-02 3.90894E-01-5.36298E-14-1.03686E-13
 -1      2761 2.48707E+01-2.09448E+00-3.38925E-02 9.31608E-01-2.51361E-15-1.42952E-13
 -1      2762 2.34695E+01-1.82040E+00-1.88518E-02-1.23446E-01-1.26257E-13 4.53175E-15
 -1      2763 2.31749E+01-1.60144E+00 2.19703E-02-5.06355E-01-1.10538E-13 1.22829E-14
 -1      2764 2.37560E+01-2.27685E+00-1.83215E-02-2.59268E-01-3.22691E-15 9.40057E-15
 -1      2765 2.26271E+01-1.34493E+00-1.18579E-02-8.08636E-01-1.32154E-13 1.27393E-13
 -1      2766 2.23370E+01-1.05254E+00 1.85730E-02-1.05035E+00-6.22500E-14 1.61673E-13
 -1      2767 2.26115E+01-1.77479E+00-2.27085E-02-1.03135E+00-1.02925E-13 2.76941E-13
 -1      2768 2.19415E+01-7.89023E-01-5.63318E-03-1.18206E+00 7.01349E-15 2.11641E-13
 -1      2769 2.16950E+01-5.37285E-01 1.23883E-02-1.30018E+00 2.94440E-14 2.64483E-13
 -1      2770 2.17335E+01-1.09376E+00-1.92484E-02-1.40802E+00-2.74854E-14 4.65184E-13
 -1      2771 2.14365E+01-3.31923E-01-1.58397E-03-1.32315E+00 3.07960E-14 2.39397E-13
 -1      2772 2.12396E+01-1.54270E-01 7.09682E-03-1.35263E+00 6.96426E-15 3.00073E-13
 -1      2773 2.11379E+01-5.06444E-01-1.33099E-02-1.52070E+00-1.08929E-14 3.86632E-13
 -1      2774 2.10802E+01-1.83963E-02 7.75151E-04-1.31359E+00-3.79905E-14 1.37469E-13
 -1      2775 2.09250E+01 8.96415E-02 3.43325E-03-1.28696E+00 5.62519E-14-3.73392E-15
 -1      2776 2.07602E+01-9.04318E-02-8.09428E-03-1.47811E+00-9.47660E-14 1.23639E-13
 -1      2777 2.08292E+01 1.67249E-01 2.04195E-03-1.21639E+00 9.62217E-14-6.05887E-14
 -1      2778 2.07053E+01 2.22583E-01 1.16950E-03-1.15853E+00-1.32936E-13-4.80364E-14
 -1      2779 2.05283E+01 1.64581E-01-4.47671E-03-1.35298E+00-3.09149E-14-4.11850E-14
 -1      2780 2.06474E+01 2.58630E-01 2.64891E-03-1.07518E+00-1.56677E-13-8.26108E-14
 -1      2781 2.05466E+01 2.78751E-01-9.98655E-05-1.00339E+00-3.53610E-14-4.49292E-14
 -1      2782 2.03853E+01 2.97270E-01-2.33304E-03-1.19003E+00-8.18523E-14 7.33038E-14
 -1      2783 2.05101E+01 2.88229E-01 2.86319E-03-9.18438E-01 2.57994E-14-1.50295E-13
 -1      2784 2.04271E+01 2.87093E-01-7.18103E-04-8.43818E-01 5.94305E-14-9.42098E-14
 -1      2785 2.02937E+01 3.47711E-01-1.19546E-03-1.01610E+00-1.01742E-13-9.85466E-15
 -1      2786 2.04024E+01 2.81243E-01 2.83346E-03-7.63679E-01 4.89819E-14-1.41212E-13
 -1      2787 2.03336E+01 2.68705E-01-9.46114E-04-6.92822E-01-9.22032E-14-1.02104E-13
 -1      2788 2.02308E+01 3.47977E-01-6.51317E-04-8.47028E-01 1.99451E-14-1.44017E-13
 -1      2789 2.03155E+01 2.55188E-01 2.64817E-03-6.20832E-01-1.67723E-13-5.67309E-14
 -1      2790 2.02587E+01 2.37718E-01-9.56379E-04-5.57163E-01-1.44553E-13-5.86932E-14
 -1      2791 2.01843E+01 3.20895E-01-4.20993E-04-6.91671E-01-7.50734E-14-1.81679E-13
 -1      2792 2.02445E+01 2.21441E-01 2.36806E-03-4.94664E-01-1.27180E-14 1.48725E-13
 -1      2793 2.01978E+01 2.03069E-01-8.55166E-04-4.39497E-01 2.93760E-13 2.81344E-13
 -1      2794 2.01476E+01 2.81590E-01-3.35432E-04-5.54347E-01 1.19896E-13 8.24552E-14
 -1      2795 2.01860E+01 1.87030E-01 2.03856E-03-3.86548E-01 3.66952E-13 2.54242E-13
 -1      2796 2.01481E+01 1.70160E-01-7.02806E-04-3.39862E-01 3.17951E-13 3.37874E-13
 -1      2797 2.01172E+01 2.39569E-01-3.01368E-04-4.36343E-01 2.86065E-13 1.00353E-13
 -1      2798 2.01379E+01 1.56165E-01 1.71663E-03-2.95688E-01 3.05550E-13 3.73808E-13
 -1      2799 2.01075E+01 1.42003E-01-5.06742E-04-2.56588E-01 2.09048E-13 2.07827E-13
 -1      2800 2.00914E+01 2.00578E-01-2.57274E-04-3.36954E-01 2.51317E-13 7.56269E-14
 -1      2801 2.00980E+01 1.30598E-01 1.30401E-03-2.20173E-01 1.52785E-13 2.26449E-13
 -1      2802 2.00743E+01 1.20277E-01-1.05471E-04-1.87642E-01 1.74984E-13 2.07894E-13
 -1      2803 2.00685E+01 1.67134E-01-4.19112E-04-2.54094E-01 1.23997E-13 4.19037E-14
 -1      2804 1.99172E+01 9.93065E-02 9.88691E-04-2.38914E-01 1.21718E-13-1.36716E-13
 -1      2805 1.99163E+01 1.23865E-01 3.02628E-03-1.95797E-01 1.11836E-13-1.08876E-13
 -1      2806 2.89136E+01-1.20389E+00 1.57435E-02 8.78134E-01-1.94976E-13-1.98036E-13
 -1      2807 2.91928E+01 7.63394E-01-2.03957E-01 1.68216E+00-3.22825E-13-1.49936E-13
 -1      2808 1.99328E+01 1.55497E-01 4.68406E-04-1.37512E-01 1.11073E-13-1.28069E-13
 -1      2809 1.99576E+01 2.01276E-01 5.09794E-03-7.10901E-02 1.25817E-13-1.17401E-13
 -1      2810 2.00290E+01 1.86287E-01-2.63536E-03-1.54347E-01 1.24494E-13-1.39197E-13
 -1      2811 1.99708E+01 6.80288E-02 1.73608E-03-3.66756E-01 8.29697E-14-1.27673E-13
 -1      2812 1.99362E+01 6.82618E-02 6.43657E-04-3.40970E-01 9.82829E-14-1.49575E-13
 -1      2813 2.00296E+01 7.79062E-02 2.07487E-03-4.21794E-01 9.69617E-14-1.66507E-13
 -1      2814 1.99828E+01 7.08777E-02-6.94768E-06-3.95484E-01 9.49049E-14-1.36875E-13
 -1      2815 2.00220E+01 9.16363E-02-1.34167E-03-4.03987E-01 9.45973E-14-1.72067E-13
 -1      2816 2.01062E+01 9.84849E-02 2.41387E-03-4.83677E-01 1.00000E-13-1.64167E-13
 -1      2817 2.00483E+01 8.63359E-02-4.41442E-04-4.53007E-01 1.09495E-13-1.54369E-13
 -1      2818 2.00558E+01 1.06569E-01-1.10476E-03-4.68153E-01 1.05753E-13-1.39414E-13
 -1      2819 2.02001E+01 1.25868E-01 2.73897E-03-5.58441E-01 4.91382E-14-1.85121E-13
 -1      2820 2.01310E+01 1.10618E-01-7.17826E-04-5.20888E-01 7.78526E-14-1.45730E-13
 -1      2821 2.01033E+01 1.34018E-01-9.54446E-04-5.40464E-01 7.89672E-14-1.52544E-13
 -1      2822 2.03120E+01 1.55640E-01 3.01078E-03-6.49505E-01 6.96380E-14-1.68084E-13
 -1      2823 2.02310E+01 1.39695E-01-8.62833E-04-6.03889E-01 6.58911E-14-1.68727E-13
 -1      2824 2.01636E+01 1.68869E-01-8.78848E-04-6.26969E-01 6.77979E-14-1.27493E-13
 -1      2825 2.04440E+01 1.81779E-01 3.16102E-03-7.57272E-01 1.92282E-14-1.88680E-13
 -1      2826 2.03499E+01 1.68520E-01-8.66761E-04-7.04058E-01 3.64538E-14-1.63624E-13
 -1      2827 2.02372E+01 2.05081E-01-8.88791E-04-7.30988E-01 5.16436E-14-5.78644E-14
 -1      2828 2.05995E+01 1.95354E-01 3.08856E-03-8.78140E-01-2.60841E-14-6.76131E-14
 -1      2829 2.04909E+01 1.89837E-01-6.75531E-04-8.20062E-01-2.20022E-14-1.36282E-13
 -1      2830 2.03263E+01 2.34291E-01-1.02610E-03-8.52696E-01-4.21496E-15 1.37855E-14
 -1      2831 2.07841E+01 1.83043E-01 2.65063E-03-1.00290E+00 2.76178E-14-4.81410E-14
 -1      2832 2.06592E+01 1.92791E-01-1.78554E-04-9.45905E-01 1.51988E-14-3.51711E-14
 -1      2833 2.04354E+01 2.44161E-01-1.38758E-03-9.88185E-01-2.93838E-14 7.01099E-15
 -1      2834 2.10063E+01 1.25794E-01 1.64913E-03-1.11447E+00 2.53199E-15 8.45551E-14
 -1      2835 2.08632E+01 1.61432E-01 8.04850E-04-1.06897E+00 2.80951E-14-2.52896E-14
 -1      2836 2.05734E+01 2.16579E-01-2.15088E-03-1.12796E+00-1.68256E-15 3.83190E-15
 -1      2837 2.12798E+01-1.20639E-03-1.84693E-04-1.18499E+00 3.03146E-15 1.02360E-13
 -1      2838 2.11163E+01 7.38094E-02 2.51864E-03-1.16727E+00 2.33942E-15 9.82247E-14
 -1      2839 2.07555E+01 1.26274E-01-3.58348E-03-1.25464E+00-1.60985E-14 1.18645E-13
 -1      2840 2.16237E+01-2.24487E-01-3.18379E-03-1.17283E+00 2.08595E-14 7.31749E-14
 -1      2841 2.14380E+01-9.65472E-02 5.20665E-03-1.20595E+00 5.91452E-14 1.05429E-13
 -1      2842 2.10070E+01-5.84064E-02-5.98735E-03-1.33969E+00 3.08091E-14 1.00585E-13
 -1      2843 2.20601E+01-5.58967E-01-7.62243E-03-1.02123E+00-3.74535E-14 8.32591E-14
 -1      2844 2.18534E+01-3.72896E-01 8.89029E-03-1.13404E+00-3.85118E-14 4.48030E-14
 -1      2845 2.13649E+01-3.68580E-01-9.46063E-03-1.33892E+00 5.93297E-15 9.97682E-14
 -1      2846 2.26013E+01-9.78497E-01-1.34777E-02-6.63586E-01-1.22917E-13 6.11983E-14
 -1      2847 2.23841E+01-7.54992E-01 1.28222E-02-8.84484E-01-6.21699E-14 9.14015E-14
 -1      2848 2.18745E+01-8.14616E-01-1.34173E-02-1.18804E+00-8.38586E-14 4.09396E-14
 -1      2849 2.32220E+01-1.36447E+00-1.85881E-02-4.54262E-02-1.15508E-13 1.17950E-13
 -1      2850 2.30244E+01-1.17981E+00 1.45584E-02-3.85481E-01-1.16265E-13 1.09049E-13
 -1      2851 2.25704E+01-1.34448E+00-1.60674E-02-8.04324E-01-1.10106E-13 5.79534E-14
 -1      2852 2.38214E+01-1.46355E+00-1.71167E-02 8.12787E-01-9.50819E-14 1.80073E-13
 -1      2853 2.36942E+01-1.46543E+00 9.87424E-03 3.95042E-01-1.02590E-13 1.44519E-13
 -1      2854 2.34314E+01-1.77784E+00-1.35801E-02-1.06346E-01-1.42229E-13 1.23087E-13
 -1      2855 2.42086E+01-9.28913E-01 7.66344E-05 1.69494E+00-5.79016E-14 1.94462E-13
 -1      2856 2.41896E+01-1.29404E+00-9.33724E-03 1.34510E+00-8.51728E-14 2.62986E-13
 -1      2857 2.42864E+01-1.74736E+00-7.63767E-03 8.99455E-01-1.19427E-13 2.79771E-13
 -1      2858 2.41788E+01 3.75023E-01 1.24966E-02 2.13839E+00-6.02123E-15 1.66761E-13
 -1      2859 2.42817E+01-3.86832E-01-4.39492E-02 2.08177E+00-3.57353E-16 2.39873E-13
 -1      2860 2.48444E+01-8.21337E-01 8.29717E-03 1.94837E+00-4.53578E-14 3.58033E-13
 -1      2861 2.37830E+01 1.95498E+00 1.02072E-03 1.59960E+00 3.00489E-14 4.98744E-14
 -1      2862 2.39407E+01 1.17958E+00-6.52177E-02 2.02066E+00 5.64670E-14 7.44034E-14
 -1      2863 2.48529E+01 9.09767E-01-5.46340E-03 2.28016E+00 7.35349E-14 2.57116E-13
 -1      2864 2.34984E+01 2.71453E+00-3.22272E-02 9.62442E-02 1.03587E-13-9.08106E-14
 -1      2865 2.35699E+01 2.50046E+00-4.40739E-02 8.42924E-01 4.04225E-14-6.03512E-14
 -1      2866 2.44666E+01 2.72722E+00-4.39977E-02 1.36241E+00 1.57572E-13 6.50278E-14
 -1      2867 2.36855E+01 1.99481E+00-6.91512E-02-1.48204E+00 1.53329E-13-2.83381E-13
 -1      2868 2.36082E+01 2.53496E+00-7.35687E-03-8.62113E-01 1.36759E-13-2.32042E-13
 -1      2869 2.43586E+01 3.29504E+00-3.63518E-02-4.71158E-01 1.99257E-13-4.09560E-14
 -1      2870 2.41448E+01 4.24413E-01-5.74298E-02-2.18626E+00 5.12108E-14-2.91653E-13
 -1      2871 2.39906E+01 1.27756E+00 1.37518E-02-2.00185E+00 9.21173E-14-3.26668E-13
 -1      2872 2.46754E+01 2.13879E+00-1.06424E-03-2.00183E+00 1.83121E-13-1.92792E-13
 -1      2873 2.43190E+01-8.89528E-01-2.18604E-02-1.82238E+00 1.54599E-13-1.88390E-13
 -1      2874 2.42363E+01-2.98015E-01 2.72699E-03-2.03706E+00 8.90451E-14-2.32040E-13
 -1      2875 2.49265E+01 1.06154E-01 3.18823E-04-2.26639E+00 6.23980E-14-2.64840E-13
 -1      2876 2.40052E+01-1.44674E+00 3.30924E-04-9.12979E-01 1.87126E-14-5.27633E-14
 -1      2877 2.40703E+01-1.27151E+00-1.38637E-02-1.31518E+00 1.65908E-13-8.25026E-14
 -1      2878 2.46714E+01-1.37306E+00-1.61902E-03-1.50477E+00 6.19435E-14-1.43652E-13
 -1      2879 2.34030E+01-1.36679E+00 1.26374E-02-1.71159E-02-6.03608E-14 7.11271E-14
 -1      2880 2.35672E+01-1.47229E+00-2.02541E-02-4.08985E-01 1.45457E-15 4.80072E-14
 -1      2881 2.39124E+01-1.84305E+00-1.43471E-02-4.23486E-01-4.11118E-14-1.65926E-14
 -1      2882 2.27316E+01-9.81981E-01 1.43766E-02 6.34971E-01 1.47650E-13 8.21021E-14
 -1      2883 2.29417E+01-1.20110E+00-1.70869E-02 3.50421E-01 1.96670E-14 1.27342E-13
 -1      2884 2.30325E+01-1.60654E+00-1.59979E-02 4.53869E-01-2.83518E-14-7.83723E-14
 -1      2885 2.21414E+01-5.60650E-01 1.11819E-02 1.00642E+00 1.41020E-13 1.85769E-13
 -1      2886 2.23534E+01-7.73391E-01-1.07035E-02 8.40203E-01 1.77039E-13 1.95327E-13
 -1      2887 2.22383E+01-1.08961E+00-1.48443E-02 9.97795E-01 7.59446E-14-2.47560E-14
 -1      2888 2.16698E+01-2.21214E-01 7.18353E-03 1.15933E+00 1.20300E-13 2.32503E-13
 -1      2889 2.18640E+01-3.82798E-01-5.57241E-03 1.08998E+00 1.07578E-13 1.67438E-13
 -1      2890 2.16323E+01-5.83509E-01-1.17873E-02 1.25822E+00 1.46079E-13 1.93333E-13
 -1      2891 2.13066E+01 8.12910E-03 4.03540E-03 1.16484E+00 1.33280E-13 1.64352E-13
 -1      2892 2.14775E+01-9.60926E-02-1.77521E-03 1.16260E+00 1.87763E-13 2.49400E-13
 -1      2893 2.12006E+01-1.94304E-01-7.94353E-03 1.32379E+00 1.21562E-13 1.76100E-13
 -1      2894 2.10270E+01 1.41181E-01 1.89885E-03 1.08297E+00 1.74424E-14 2.90901E-13
 -1      2895 2.11751E+01 8.38641E-02 6.94559E-04 1.12133E+00 1.44363E-13 3.80436E-13
 -1      2896 2.09008E+01 5.97924E-02-4.88560E-03 1.26898E+00 4.86554E-14 1.64483E-13
 -1      2897 2.08083E+01 2.04203E-01 6.17882E-04 9.56886E-01-1.87997E-13 3.03140E-13
 -1      2898 2.09356E+01 1.79668E-01 2.11813E-03 1.01596E+00-1.26259E-13 3.13964E-13
 -1      2899 2.06902E+01 2.02126E-01-2.92373E-03 1.14844E+00-5.09033E-14 3.69984E-13
 -1      2900 2.06338E+01 2.21981E-01-6.41278E-05 8.15019E-01-3.15284E-13 2.15260E-13
 -1      2901 2.07422E+01 2.17952E-01 2.82185E-03 8.81405E-01-2.61246E-13 2.73738E-13
 -1      2902 2.05370E+01 2.65482E-01-1.80667E-03 9.98521E-01-1.87852E-13 2.99849E-13
 -1      2903 2.04928E+01 2.13510E-01-3.69949E-04 6.74715E-01-1.78915E-13 1.44110E-13
 -1      2904 2.05841E+01 2.20944E-01 3.04795E-03 7.40178E-01-2.27354E-13 1.45953E-13
 -1      2905 2.04209E+01 2.78817E-01-1.22043E-03 8.42176E-01-1.87515E-13 1.78118E-13
 -1      2906 2.03781E+01 1.91853E-01-4.58097E-04 5.45547E-01 1.57861E-13-7.59959E-14
 -1      2907 2.04540E+01 2.04677E-01 2.97131E-03 6.05588E-01 2.43460E-14 1.79084E-14
 -1      2908 2.03297E+01 2.63713E-01-9.26697E-04 6.92993E-01 2.13547E-14 4.82099E-14
 -1      2909 2.02850E+01 1.65401E-01-4.30437E-04 4.31895E-01-1.08315E-14-1.15846E-13
 -1      2910 2.03471E+01 1.79783E-01 2.71688E-03 4.84532E-01 1.04941E-13-1.15077E-13
 -1      2911 2.02563E+01 2.34831E-01-7.72825E-04 5.58210E-01 1.87477E-13-1.11750E-13
 -1      2912 2.02099E+01 1.39283E-01-3.50316E-04 3.34805E-01-3.28871E-14-5.97611E-14
 -1      2913 2.02599E+01 1.52914E-01 2.36612E-03 3.79662E-01-3.39885E-14-1.56051E-13
 -1      2914 2.01965E+01 2.01528E-01-6.75294E-04 4.40829E-01-2.29319E-14-1.89877E-13
 -1      2915 2.01498E+01 1.16546E-01-1.90824E-04 2.53321E-01 1.25302E-13 4.94040E-14
 -1      2916 2.01894E+01 1.28064E-01 1.97797E-03 2.90952E-01-1.62013E-14-2.64183E-15
 -1      2917 2.01475E+01 1.69512E-01-5.84432E-04 3.41129E-01-9.47781E-14-2.60676E-13
 -1      2918 2.01027E+01 9.88962E-02 3.46932E-04 1.85459E-01 1.69047E-14 4.30384E-13
 -1      2919 2.01327E+01 1.07283E-01 1.60199E-03 2.16584E-01 1.58882E-13 3.12112E-13
 -1      2920 2.01069E+01 1.42080E-01-5.41598E-04 2.57719E-01-4.81123E-14 1.33875E-14
 -1      2921 2.00644E+01 9.25582E-02 5.37466E-04 1.37616E-01-8.86649E-14 4.32605E-13
 -1      2922 2.00870E+01 9.89979E-02 1.31787E-03 1.64620E-01 1.40231E-15 2.22733E-13
 -1      2923 2.00710E+01 1.26608E-01-1.23210E-03 1.97365E-01 1.31744E-13 2.96626E-13
 -1      2924 2.00434E+01 1.22448E-01-1.17616E-03 1.54687E-01-1.20201E-13 4.74766E-13
 -1      2925 1.98947E+01 3.14511E-01-7.81175E-04 1.65666E-02-5.05712E-14-2.60305E-14
 -1      2926 1.98987E+01 3.10588E-01-3.92997E-04 4.47827E-02 9.42523E-14-2.20074E-13
 -1      2927 2.00692E+01 1.14039E-01 1.06416E-03-1.66616E-01 1.28062E-13 1.81186E-13
 -1      2928 2.00555E+01 1.07845E-01 1.52823E-04-1.47178E-01 3.38343E-14 2.62517E-13
 -1      2929 2.00517E+01 1.43701E-01-5.68634E-04-1.95003E-01 7.53147E-14-2.55136E-13
 -1      2930 1.99318E+01 2.68879E-01-1.24515E-03 1.25520E-01 1.22809E-13-1.10939E-13
 -1      2931 1.99494E+01 2.51183E-01 4.17413E-04 1.42298E-01 2.28384E-13-5.64907E-13
 -1      2932 1.98988E+01 3.10475E-01-4.04476E-04-4.54900E-02-2.07719E-13 1.15656E-13
 -1      2933 1.98948E+01 3.14501E-01-7.71786E-04-1.72967E-02-1.41716E-13 5.31065E-14
 -1      2934 1.98705E+01 3.38229E-01 1.20830E-03-3.89771E-04 4.07779E-14-1.17693E-14
 -1      2935 1.99062E+01 3.00121E-01-1.07756E-03 7.63433E-02-3.67490E-14-1.38854E-13
 -1      2936 1.99178E+01 2.88717E-01 3.52843E-05 1.00588E-01 1.20233E-13 1.16507E-13
 -1      2937 1.99072E+01 2.99751E-01 9.70188E-04 1.28369E-01 5.67535E-14-6.02696E-14
 -1      2938 1.98799E+01 3.28364E-01 1.15083E-03 6.86350E-02-3.72820E-14-1.40959E-13
 -1      2939 2.19783E+01-5.16618E+00-5.99709E-02 4.75226E+00-2.07723E-13-1.60464E-13
 -1      2940 1.93664E+01-4.76564E+00 1.38447E-01 5.62350E+00-3.06533E-13-1.63064E-15
 -1      2941 1.99176E+01 2.89033E-01 2.71120E-05-1.00368E-01-1.18176E-13-2.73171E-13
 -1      2942 1.99062E+01 3.00220E-01-1.06660E-03-7.65231E-02-2.22232E-13 1.21859E-13
 -1      2943 1.98799E+01 3.28496E-01 1.16887E-03-6.88450E-02-1.11730E-13 1.25573E-13
 -1      2944 1.99492E+01 2.51587E-01 3.91616E-04-1.42239E-01 1.00746E-13-6.34436E-14
 -1      2945 1.99316E+01 2.69308E-01-1.24177E-03-1.25391E-01 1.98180E-14-4.30066E-13
 -1      2946 1.99069E+01 3.00229E-01 9.78838E-04-1.28135E-01-9.24626E-14-1.00314E-13
 -1      2947 1.99885E+01 2.01620E-01 2.20327E-04-1.63630E-01 7.89346E-14 3.80668E-13
 -1      2948 1.99685E+01 2.24653E-01-1.14599E-03-1.57341E-01 1.69148E-13 2.03333E-13
 -1      2949 1.99481E+01 2.56148E-01 6.48729E-04-1.70641E-01 1.88808E-13 6.27930E-14
 -1      2950 1.57432E+01-4.15503E+00 1.31503E-03 6.27966E+00-4.58703E-13 2.40724E-13
 -1      2951 1.22861E+01-3.03202E+00 1.65832E-01 5.82767E+00-4.89914E-13 2.18298E-13
 -1      2952 1.99864E+01 2.57297E-01-2.63043E-04 1.71292E-02 1.42566E-13-1.16295E-13
 -1      2953 2.00442E+01 3.36628E-01 7.76372E-03 1.22653E-01 1.84079E-13-1.09140E-13
 -1      2954 2.00812E+01 3.02545E-01-2.96171E-03 3.86954E-03 1.45317E-13-1.26702E-13
 -1      2955 6.25507E+00-7.96439E-01 1.46922E-01 1.24723E+00 2.83454E-15 5.38541E-13
 -1      2956 6.26526E+00-7.32358E-01 1.39463E-01-8.29760E-01 1.40020E-13 5.59969E-13
 -1      2957 2.03235E+01 1.71822E+00-9.79279E-03-1.31671E+00-3.30347E-13-1.37563E-13
 -1      2958 2.02923E+01 1.33890E+00-6.78736E-03-1.01727E+00-2.95209E-13-1.21511E-13
 -1      2959 2.88988E+01 6.05818E+00-1.67301E-01 1.04747E+00-6.48703E-13 1.54959E-13
 -1      2960 2.87290E+01 6.43128E+00-1.89381E-01 1.30568E-01-6.59917E-13 2.22332E-13
 -1      2961 7.09961E+00-7.79342E-01 1.64303E-01-2.06271E+00 5.92790E-14-5.63188E-13
 -1      2962 8.94065E+00-1.53355E+00 1.27310E-01-4.19528E+00-1.00822E-13-5.29327E-13
 -1      2963 2.44960E+01-4.91427E+00 9.69358E-02-3.43030E+00-2.00784E-13-5.82867E-16
 -1      2964 2.64161E+01-4.27425E+00-1.32238E-01-1.82249E+00-8.76521E-14 1.23235E-13
 -1      2965 1.99319E+01 7.31971E-02 1.38720E-03-3.09815E-01 1.03079E-13-1.51402E-13
 -1      2966 1.99119E+01 8.34867E-02 1.60515E-03-2.79147E-01 1.39252E-13-1.30127E-13
 -1      2967 2.00047E+01 1.22674E-01-2.13066E-03-2.61352E-01 1.29845E-13-1.42665E-13
 -1      2968 2.00038E+01 9.46495E-02-1.68260E-03-3.39105E-01 1.08145E-13-1.20173E-13
 -1      2969 2.03248E+01 1.04936E+00 5.01090E-03-8.12642E-01-2.48396E-13-1.07985E-13
 -1      2970 2.02347E+01 8.15893E-01-4.84653E-03-5.67925E-01-2.20306E-13-9.35869E-14
 -1      2971 2.02728E+01 9.02226E-01 1.93117E-03-5.23168E-01-2.16979E-13-1.42030E-13
 -1      2972 2.02876E+01 1.40212E+00 1.79892E-03-8.97978E-01-2.72227E-13-1.87666E-13
 -1      2973 2.00835E+01 4.33529E-01-1.23507E-03 2.57271E-01 2.19979E-13-1.30840E-13
 -1      2974 2.01793E+01 5.68383E-01 1.04017E-02 4.25549E-01 2.37062E-13-1.23464E-13
 -1      2975 2.02626E+01 8.38302E-01 4.88665E-04 5.91598E-01 2.55836E-13-2.06239E-13
 -1      2976 2.01617E+01 5.03127E-01-2.18804E-03 2.41797E-01 2.10230E-13-1.63493E-13
 -1      2977 2.84035E+01 3.53394E+00-1.90001E-01-2.06347E+00 2.82330E-13-5.09051E-13
 -1      2978 2.86183E+01 1.50648E+00-7.98015E-02-2.14907E+00 2.38573E-13-5.78579E-13
 -1      2979 2.76045E+01 2.25261E-01-3.74577E-03-2.10471E+00 1.38937E-13-4.66446E-13
 -1      2980 2.92439E+01 3.32254E+00-8.90573E-02 2.06637E+00-4.77146E-13-1.44051E-13
 -1      2981 2.91409E+01 4.86030E+00-1.99711E-01 1.67339E+00-5.35183E-13 2.85050E-14
 -1      2982 2.63612E+01-4.14808E+00-7.08791E-02 1.66115E+00-1.83881E-15-7.06671E-13
 -1      2983 2.45213E+01-4.92467E+00 6.23007E-02 3.34669E+00-8.56329E-14-4.02178E-13
 -1      2984 2.32659E+01-4.73152E+00 5.83209E-02 3.59477E+00-1.70593E-13-2.36353E-13
 -1      2985 1.99347E+01 2.62185E+00-7.81555E-03 7.79193E-01 1.81864E-13-3.85522E-13
 -1      2986 1.98907E+01 2.71621E+00-6.28182E-03 6.32032E-01 1.20677E-13-4.04948E-13
 -1      2987 2.00073E+01 2.42454E+00 4.46982E-03 5.02332E-01 1.01181E-13-3.80808E-13
 -1      2988 2.00898E+01 2.22001E+00 5.66666E-03 7.26952E-01 1.78468E-13-3.39760E-13
 -1      2989 2.00921E+01 2.53567E+00-2.19298E-03-1.44365E+00-3.22382E-13-2.31671E-13
 -1      2990 1.98858E+01 2.72519E+00-6.14904E-03-6.21783E-01-1.29445E-13-3.55435E-13
 -1      2991 1.99290E+01 2.63335E+00-7.49242E-03-7.69024E-01-1.74467E-13-3.42882E-13
 -1      2992 2.78087E+01-2.79616E+00 1.35107E-02-1.89453E-02-3.05589E-14 1.48978E-13
 -1      2993 2.81718E+01-1.37430E+00-1.92147E-01 1.05497E+00 9.01154E-14 8.44463E-14
 -1      2994 2.79993E+01 6.01145E+00-1.98476E-01-4.08535E-01 4.73954E-13-3.58423E-13
 -1      2995 2.80669E+01 5.38718E+00-1.18533E-01-1.45326E+00 3.17135E-13-4.49835E-13
 -1      2996 1.16102E+01-2.65163E+00 1.35912E-01-5.63181E+00-1.33546E-13-3.97377E-13
 -1      2997 1.40513E+01-3.73794E+00 8.03224E-02-6.34238E+00-1.87739E-13-4.13031E-13
 -1      2998 6.81314E+00-1.14117E+00 1.31268E-01 2.65898E+00 1.76692E-13-3.15692E-13
 -1      2999 6.37970E+00-6.51532E-01 1.47891E-01 4.56330E-01 1.44908E-13-4.85417E-13
 -1      3000 1.08430E+01-2.34125E+00 8.11131E-02 5.29741E+00 2.21601E-13-1.30285E-13
 -1      3001 8.44185E+00-1.61075E+00 1.69512E-01 4.05629E+00 1.82271E-13-1.36974E-13
 -1      3002 9.27737E+00-7.71566E-01 1.74600E-01 3.10322E+00 2.16854E-13-2.48468E-13
 -1      3003 2.00396E+01 1.29502E-01 4.45140E-05-1.53994E-01-8.88559E-14-1.66518E-13
 -1      3004 2.86035E+01-2.37598E+00-1.65939E-01 1.80247E-01 2.52793E-15 1.07553E-14
 -1      3005 2.76331E+01-3.50846E+00 2.49915E-02 1.17757E+00 7.99326E-14-3.98709E-14
 -1      3006 2.81589E+01 5.13046E+00-1.26331E-01 1.62451E+00 4.47697E-13-3.67761E-14
 -1      3007 2.81100E+01 6.02864E+00-1.86622E-01 5.56070E-01 4.41980E-13-3.23365E-13
 -1      3008 2.66186E+01 5.18204E+00-1.10822E-01 1.08249E-01 4.00555E-13-2.99585E-13
 -1      3009 9.28628E+00-2.14824E+00 8.00113E-02 4.99599E+00-3.46681E-13 1.61260E-13
 -1      3010 7.36681E+00-1.22628E+00 1.54983E-01 3.11512E+00-1.73445E-13 3.61933E-13
 -1      3011 2.61033E+01-4.47966E+00 7.14264E-02-2.49311E+00 7.33580E-14-1.83492E-13
 -1      3012 2.75895E+01-3.46866E+00-2.03272E-01-9.52049E-01-1.90750E-14-3.03688E-13
 -1      3013 1.97210E+01-5.00139E+00 1.14932E-01-5.61080E+00 3.10557E-13 4.30819E-14
 -1      3014 2.32322E+01-5.34890E+00-9.22554E-02-4.45267E+00 8.46129E-14-1.85810E-13
 -1      3015 1.99834E+01 2.51162E+00-5.60033E-03-8.85088E-01-2.09020E-13-3.33141E-13
 -1      3016 2.00439E+01 2.37944E+00-6.68183E-03-1.01853E+00-2.58036E-13-3.04450E-13
 -1      3017 2.00831E+01 2.23454E+00 6.03314E-03-7.20778E-01-1.76960E-13-3.02596E-13
 -1      3018 1.99402E+01 2.58084E+00 3.66706E-03 4.53832E-03-6.07026E-15-4.24559E-13
 -1      3019 1.98037E+01 2.90489E+00-5.57894E-03-6.01042E-02-2.02393E-14-4.37858E-13
 -1      3020 1.98114E+01 2.88972E+00-5.58527E-03-2.11776E-01-5.14773E-14-4.35646E-13
 -1      3021 2.71157E+01 3.45363E+00-9.79139E-02 1.95442E+00 3.33969E-13 1.23103E-13
 -1      3022 2.75463E+01-3.20191E-01-2.32338E-02 1.89046E+00 9.95176E-14 1.84130E-13
 -1      3023 7.78531E+00-5.75407E-01 1.85748E-01-2.02393E+00 1.06314E-13 6.71407E-13
 -1      3024 9.43828E+00-6.68345E-01 3.22275E-02-3.14840E+00 9.50282E-14 5.46660E-13
 -1      3025 8.82225E+00 6.61083E-02 1.42748E-01-1.06291E+00 1.98799E-14 5.39638E-13
 -1      3026 2.02956E+01 1.59793E+00-1.35145E-03 1.14874E+00 2.99235E-13-2.37388E-13
 -1      3027 2.01531E+01 2.18637E+00 5.58349E-04-1.19034E+00-2.84913E-13-2.43815E-13
 -1      3028 1.25534E+01-2.32456E+00 1.49181E-01-5.23705E+00 2.84467E-13 4.05870E-13
 -1      3029 2.66291E+01-2.36516E+00-1.69289E-02-8.88813E-01 4.35554E-14-5.52697E-13
 -1      3030 2.69523E+01-3.45463E+00-4.30888E-02 3.67081E-01 4.46310E-14-6.19740E-13
 -1      3031 2.56872E+01-3.81373E+00 3.98060E-02 1.07178E+00 1.17059E-14-5.78274E-13
 -1      3032 1.99483E+01 2.55574E-01 6.09925E-04 1.70598E-01 5.90573E-14-5.59005E-13
 -1      3033 1.99683E+01 2.24378E-01-1.21396E-03 1.57097E-01 1.98276E-13-7.64304E-13
 -1      3034 1.99891E+01 2.02045E-01 5.49317E-04 1.63789E-01 8.19795E-14-5.00037E-13
 -1      3035 2.81839E+01 1.56125E+00-9.08145E-02 2.11392E+00-2.67966E-13-2.49106E-13
 -1      3036 2.02875E+01 1.38180E+00 2.20298E-03 8.98811E-01 2.68261E-13-2.55629E-13
 -1      3037 1.90359E+01-4.32002E+00 1.03521E-01-5.35831E+00 3.70912E-13 1.15859E-13
 -1      3038 2.47139E+01-4.70529E+00 6.78129E-02-3.01188E+00 1.68560E-13-1.87170E-13
 -1      3039 2.63871E+01-4.27879E+00 4.13109E-02 1.83029E+00 1.61066E-13-7.21784E-14
 -1      3040 2.00066E+01 1.75156E-01-1.09984E-03 1.65645E-01 2.70138E-14-1.37905E-13
 -1      3041 2.00274E+01 1.50548E-01 5.81159E-04 1.61750E-01-7.91354E-14 2.62645E-13
 -1      3042 2.00396E+01 1.53969E-01 1.14234E-03 1.83329E-01-5.61031E-14 2.97521E-13
 -1      3043 1.99954E+01 2.04892E-01 7.02053E-04 1.88198E-01-3.45175E-14-3.12662E-13
 -1      3044 1.34759E+01-2.70598E+00 1.64002E-01 5.62727E+00 2.17201E-13-1.75027E-13
 -1      3045 1.28980E+01-1.78495E+00 1.12270E-01 4.86862E+00 1.66214E-13-1.84172E-13
 -1      3046 1.59043E+01-3.19687E+00 2.70024E-02 5.46800E+00 2.27103E-13-2.17826E-13
 -1      3047 1.23841E+01-1.97986E+00 1.63203E-01 4.99357E+00-2.98483E-13 1.51074E-13
 -1      3048 1.81092E+01-3.90986E+00 1.06983E-01 5.42694E+00-2.82385E-13 2.46268E-13
 -1      3049 2.00229E+01 1.56453E-01 2.19855E-04-1.58959E-01 6.40942E-14-1.45029E-13
 -1      3050 2.28655E+01-4.86893E+00 3.75200E-02-4.02739E+00-2.33660E-13 2.38837E-14
 -1      3051 2.71336E+01 3.72771E+00-6.63811E-02-1.86288E+00 2.37935E-13-3.68580E-13
 -1      3052 2.93424E+01 3.51821E+00-1.19159E-01-2.00777E+00-4.82531E-13 2.14884E-13
 -1      3053 2.84653E+01 2.07151E+00-9.16111E-02-2.04435E+00-3.68511E-13 1.74444E-13
 -1      3054 2.82511E+01 4.29319E+00-1.73076E-01-1.91266E+00-6.48204E-13 1.94594E-13
 -1      3055 2.08542E+01-4.95740E+00 9.12873E-02 5.20343E+00 3.78100E-13-3.95420E-13
 -1      3056 1.91181E+01-4.23783E+00 8.05655E-02 5.33874E+00 3.81625E-13-3.10196E-13
 -1      3057 2.24897E+01-5.02040E+00-6.62221E-02 4.06024E+00 3.44016E-13-2.35265E-13
 -1      3058 7.71553E+00-2.85481E-01 1.67072E-01-8.37163E-01 4.02300E-14-5.61190E-13
 -1      3059 9.41686E+00-4.04414E-02 1.12536E-01-1.78540E+00-4.64034E-14-4.87360E-13
 -1      3060 8.67709E+00 1.00765E-01 8.97302E-02 4.06732E-01 6.71837E-14-3.93879E-13
 -1      3061 8.57160E+00-4.60997E-01 1.77402E-01 2.15352E+00-1.63466E-13 3.34094E-13
 -1      3062 2.76771E+01 4.78291E+00-1.30476E-01 1.47325E+00-4.63490E-13-1.15290E-13
 -1      3063 2.86297E+01-1.05390E+00-5.31043E-02-1.20590E+00-5.93969E-15 2.38976E-14
 -1      3064 1.08468E+01-7.40836E-01 1.05487E-01-3.65891E+00-1.46716E-13-4.03982E-13
 -1      3065 1.11013E+01-1.73723E+00 1.55093E-01-4.73369E+00-1.56292E-13-5.16212E-13
 -1      3066 1.31200E+01-2.00245E+00 2.42977E-02-4.99953E+00-2.17736E-13-3.11584E-13
 -1      3067 1.69667E+01-4.01651E+00 8.84516E-02-5.75745E+00-3.16774E-13-2.85300E-13
 -1      3068 2.65827E+01-3.58895E+00 4.27553E-03-6.15713E-01-1.55334E-13 1.40062E-13
 -1      3069 2.78339E+01-2.37872E+00 6.15573E-03 4.37019E-01 5.61010E-15-2.88991E-13
 -1      3070 1.98273E+01 2.85265E+00-5.81859E-03-3.43511E-01-6.66994E-14-3.96717E-13
 -1      3071 1.98519E+01 2.80288E+00-6.14040E-03-4.94451E-01-1.09271E-13-3.71920E-13
 -1      3072 2.00029E+01 2.43231E+00 4.40759E-03-4.93343E-01-1.04830E-13-3.39249E-13
 -1      3073 1.99554E+01 2.54526E+00 3.84371E-03-2.48017E-01-4.58060E-14-3.86581E-13
 -1      3074 2.00282E+01 1.64530E-01-3.25769E-04-1.90364E-01-8.12059E-14-3.58961E-13
 -1      3075 2.00047E+01 1.84050E-01-3.54198E-04-1.74656E-01 2.87628E-14 4.49882E-14
 -1      3076 1.99927E+01 2.12503E-01 7.97385E-04-1.96642E-01 1.03723E-13 1.70111E-13
 -1      3077 2.00367E+01 1.75372E-01 1.08671E-03-2.12904E-01-3.93454E-14-3.22343E-13
 -1      3078 2.02502E+01 1.50491E+00-6.11869E-03 7.77545E-01 2.18337E-13-2.77311E-13
 -1      3079 2.02101E+01 1.69739E+00-8.29383E-04 7.21885E-01 2.05182E-13-2.86159E-13
 -1      3080 2.02060E+01 1.91016E+00 1.04735E-03-9.87424E-01-2.60100E-13-2.42744E-13
 -1      3081 2.02355E+01 4.77081E-01 3.73721E-03-5.98692E-02-1.34650E-13-1.20062E-13
 -1      3082 2.02009E+01 3.79342E-01-1.78920E-03 3.70745E-02-1.16782E-13-1.06658E-13
 -1      3083 2.01851E+01 3.06353E-01 2.73762E-03 1.12291E-01-1.20611E-13-1.10159E-13
 -1      3084 2.01607E+01 2.48312E-01-6.64689E-04 1.79482E-01-1.29281E-13-1.26238E-13
 -1      3085 2.02466E+01 4.13633E-01-8.56214E-04 5.45713E-02-1.14937E-13-1.59447E-13
 -1      3086 2.01413E+01 2.07410E-01 1.66207E-03 2.33640E-01-1.21719E-13-1.28698E-13
 -1      3087 2.01275E+01 1.77657E-01 1.65245E-04 2.82177E-01-1.16907E-13-1.41868E-13
 -1      3088 2.02037E+01 2.77771E-01-9.59062E-04 1.89651E-01-1.45596E-13-1.38171E-13
 -1      3089 2.01071E+01 1.59661E-01 7.27659E-04 3.23665E-01-9.63930E-14-1.47000E-13
 -1      3090 2.01024E+01 1.50486E-01 7.71883E-04 3.62413E-01-7.78276E-14-1.00751E-13
 -1      3091 2.01606E+01 2.06292E-01-8.60077E-04 2.89965E-01-1.14182E-13-1.78770E-13
 -1      3092 2.00819E+01 1.49208E-01-4.63558E-05 3.98295E-01-6.15029E-14-7.41277E-14
 -1      3093 2.00847E+01 1.55214E-01 1.22768E-03 4.34092E-01-6.25321E-14-6.28186E-14
 -1      3094 2.01195E+01 1.82074E-01-6.54553E-04 3.70975E-01-4.50308E-14-1.21048E-13
 -1      3095 2.00638E+01 1.66214E-01-6.80732E-04 4.70015E-01-8.12457E-14-5.09369E-14
 -1      3096 2.00726E+01 1.83308E-01 1.58561E-03 5.08021E-01-4.91734E-14-1.64703E-14
 -1      3097 2.00802E+01 1.92781E-01-4.07990E-04 4.45477E-01-4.37715E-14-9.27358E-14
 -1      3098 2.00508E+01 2.02999E-01-1.19826E-03 5.48365E-01-8.49026E-14-2.94295E-14
 -1      3099 2.00647E+01 2.27611E-01 1.88127E-03 5.92322E-01-1.22127E-13-6.70972E-14
 -1      3100 2.00415E+01 2.28965E-01-1.50035E-04 5.23602E-01-1.02853E-13-8.38286E-14
 -1      3101 2.00412E+01 2.52542E-01-1.61022E-03 6.40362E-01-1.26604E-13-5.69407E-14
 -1      3102 2.00597E+01 2.80911E-01 2.14142E-03 6.92726E-01-8.55161E-14-7.77223E-14
 -1      3103 2.00014E+01 2.82364E-01 9.65279E-05 6.13097E-01-1.30182E-13-5.29053E-14
 -1      3104 2.00343E+01 3.07050E-01-1.90498E-03 7.50749E-01-7.67442E-14-1.08898E-13
 -1      3105 2.00577E+01 3.34436E-01 2.39333E-03 8.12670E-01-6.17816E-14-1.08725E-13
 -1      3106 1.99586E+01 3.44350E-01 2.97063E-04 7.19622E-01-8.29021E-14-3.17836E-14
 -1      3107 2.00309E+01 3.56333E-01-2.03563E-03 8.82021E-01-8.38769E-14-1.32921E-13
 -1      3108 2.00608E+01 3.76076E-01 2.67617E-03 9.53171E-01-8.40168E-14-1.63207E-13
 -1      3109 1.99126E+01 4.04228E-01 3.83616E-04 8.46979E-01-9.60536E-14-1.21345E-13
 -1      3110 2.00351E+01 3.85850E-01-1.90340E-03 1.03424E+00-7.54302E-14-1.55703E-13
 -1      3111 2.00754E+01 3.88237E-01 3.05174E-03 1.11246E+00-8.12082E-14-1.76753E-13
 -1      3112 1.98657E+01 4.47225E-01 2.28718E-04 9.97275E-01-1.24147E-13-8.37144E-14
 -1      3113 2.00569E+01 3.74399E-01-1.32737E-03 1.20455E+00-7.50100E-14-1.49217E-13
 -1      3114 2.01151E+01 3.45390E-01 3.59770E-03 1.28529E+00-4.64858E-14-1.07582E-13
 -1      3115 1.98248E+01 4.52065E-01-3.98235E-04 1.17102E+00-4.51882E-14-7.63876E-14
 -1      3116 2.01161E+01 2.91704E-01 1.28659E-05 1.38621E+00-6.26383E-15-1.08722E-13
 -1      3117 2.02059E+01 2.11865E-01 4.35895E-03 1.46147E+00 4.71843E-14-7.41069E-14
 -1      3118 1.98057E+01 3.88177E-01-1.89088E-03 1.36701E+00 1.04253E-14-6.92456E-14
 -1      3119 2.02486E+01 9.69490E-02 2.67821E-03 1.56613E+00 8.52181E-14-2.11810E-14
 -1      3120 2.03919E+01-5.82443E-02 5.22712E-03 1.62246E+00 1.18641E-13-1.36489E-14
 -1      3121 1.98390E+01 2.13117E-01-4.85139E-03 1.58126E+00 1.05630E-13-4.76132E-14
 -1      3122 2.05148E+01-2.58574E-01 7.60096E-03 1.71914E+00 1.38326E-13 3.36828E-14
 -1      3123 2.07416E+01-5.14767E-01 5.26390E-03 1.73408E+00 1.12510E-13 2.98645E-14
 -1      3124 1.99791E+01-1.27670E-01-1.00670E-02 1.80283E+00 1.70876E-13 3.37005E-14
 -1      3125 2.10047E+01-8.18492E-01 1.55592E-02 1.79426E+00 8.14336E-14 2.35336E-14
 -1      3126 2.13474E+01-1.18431E+00 3.49198E-03 1.72990E+00 1.28663E-13 1.39510E-14
 -1      3127 2.03157E+01-6.94489E-01-1.88469E-02 2.00161E+00 1.18220E-13-5.56877E-14
 -1      3128 2.18283E+01-1.57898E+00 2.82794E-02 1.69908E+00 1.21075E-13 1.19989E-14
 -1      3129 2.23090E+01-2.02429E+00-2.40975E-03 1.49919E+00 2.12929E-13-6.18505E-14
 -1      3130 2.09774E+01-1.51813E+00-3.12244E-02 2.10370E+00 1.06376E-13 8.58124E-15
 -1      3131 2.30758E+01-2.41085E+00 4.20715E-02 1.26313E+00 2.69557E-13-4.27349E-14
 -1      3132 2.36661E+01-2.74725E+00-4.73884E-03 8.73241E-01 2.57096E-13-1.08904E-13
 -1      3133 2.20915E+01-2.53766E+00-5.46004E-02 1.94090E+00 2.09471E-13-8.13004E-14
 -1      3134 2.47328E+01-2.90271E+00 4.61679E-02 2.81978E-01 2.20307E-13-4.61601E-14
 -1      3135 2.52679E+01-2.77841E+00-1.27215E-02-3.38123E-01 1.16164E-13 2.22045E-14
 -1      3136 2.38885E+01-3.35543E+00-6.52468E-02 1.24134E+00 2.54447E-13-1.51837E-13
 -1      3137 2.65371E+01-2.47105E+00-3.78630E-02-8.37653E-01 1.28619E-13 9.59163E-14
 -1      3138 2.69543E+01-1.27280E+00-4.58245E-02-1.44011E+00 5.02098E-14 1.04756E-13
 -1      3139 2.65601E+01 1.44851E+00-1.23238E-01-2.38806E+00-3.18030E-13 2.71845E-13
 -1      3140 2.66391E+01 3.05587E+00-9.03083E-02-2.23338E+00-4.76771E-13 1.57388E-13
 -1      3141 2.62963E+01 5.09777E+00-1.28467E-01 3.12183E-01-6.23654E-13-2.22327E-13
 -1      3142 2.63388E+01 4.48292E+00-1.40459E-01 1.29942E+00-4.84557E-13-2.66287E-13
 -1      3143 2.66840E+01 3.51289E+00-8.66257E-02 2.11145E+00-3.71828E-13-3.53821E-13
 -1      3144 2.66710E+01 1.86506E+00-1.42931E-01 2.33732E+00-2.18381E-13-4.06911E-13
 -1      3145 2.68969E+01 7.34398E-02-5.47170E-02 2.19402E+00-4.83502E-14-3.87856E-13
 -1      3146 2.65630E+01-1.37260E+00-1.32918E-01 1.64922E+00 1.49880E-15-4.38177E-13
 -1      3147 2.55899E+01-2.55903E+00 1.29899E-02 6.01150E-01 1.99057E-13-3.41820E-13
 -1      3148 2.49479E+01-2.90344E+00 2.83686E-02-1.17990E-01 1.62380E-13-8.66598E-14
 -1      3149 2.38991E+01-2.80411E+00-3.69903E-03-7.09454E-01 3.32494E-14-2.56435E-14
 -1      3150 2.32862E+01-2.52449E+00 3.72539E-02-1.16079E+00 3.84555E-14-1.30977E-14
 -1      3151 2.41616E+01-3.32085E+00-1.23709E-02-1.12111E+00 1.47077E-13-2.75173E-13
 -1      3152 2.24754E+01-2.12368E+00-8.80594E-04-1.42527E+00 1.14605E-14 6.32047E-14
 -1      3153 2.19777E+01-1.68443E+00 3.06380E-02-1.64957E+00-1.28332E-13 7.84856E-14
 -1      3154 2.23237E+01-2.62830E+00-3.66808E-02-1.89717E+00 5.16189E-14-2.26348E-13
 -1      3155 2.14586E+01-1.27814E+00 3.35991E-03-1.69999E+00-1.26612E-13 3.77441E-13
 -1      3156 2.10981E+01-8.94561E-01 1.75552E-02-1.77586E+00 5.64000E-14 3.90409E-13
 -1      3157 2.11044E+01-1.63011E+00-3.00856E-02-2.09173E+00 1.21574E-13 3.18131E-14
 -1      3158 2.08102E+01-5.74249E-01 5.30584E-03-1.71977E+00-1.07270E-13 4.57390E-13
 -1      3159 2.05701E+01-3.00801E-01 8.49345E-03-1.70917E+00-1.52226E-13 2.83598E-13
 -1      3160 2.03832E+01-7.69058E-01-1.95572E-02-2.00300E+00-3.62385E-14 2.90076E-13
 -1      3161 2.04314E+01-8.45844E-02 5.10012E-03-1.61096E+00-1.15934E-13 2.50160E-13
 -1      3162 2.02800E+01 8.57555E-02 3.27190E-03-1.55386E+00-1.22973E-13 1.99202E-13
 -1      3163 2.00096E+01-1.63853E-01-1.11296E-02-1.80368E+00-1.92561E-13 2.68268E-13
 -1      3164 2.02278E+01 2.13736E-01 4.31658E-03-1.44418E+00-9.04078E-14 1.70361E-13
 -1      3165 2.01338E+01 3.05547E-01 4.55289E-04-1.36470E+00-3.32771E-14 5.31813E-14
 -1      3166 1.98473E+01 2.10599E-01-5.37846E-03-1.57321E+00-1.61394E-13 2.72179E-13
 -1      3167 2.01270E+01 3.69422E-01 3.51120E-03-1.25667E+00-5.04828E-15 1.49986E-14
 -1      3168 2.00671E+01 4.07678E-01-1.01225E-03-1.16915E+00-7.98643E-14 1.16154E-13
 -1      3169 1.98009E+01 4.11950E-01-2.09745E-03-1.34570E+00-3.56152E-14-3.03746E-15
 -1      3170 2.00813E+01 4.29350E-01 2.89710E-03-1.06837E+00-1.37596E-13 2.46131E-13
 -1      3171 2.00410E+01 4.34088E-01-1.66875E-03-9.81384E-01-1.06393E-13 9.39022E-14
 -1      3172 1.98115E+01 4.96149E-01-4.15694E-04-1.13345E+00-2.77451E-14 1.44307E-13
 -1      3173 2.00627E+01 4.30294E-01 2.46573E-03-8.90374E-01-1.49598E-14 9.64462E-14
 -1      3174 2.00332E+01 4.15950E-01-1.86687E-03-8.08961E-01-2.37338E-14 1.00333E-15
 -1      3175 1.98454E+01 5.06895E-01 3.41474E-04-9.41050E-01-6.55296E-14 3.38879E-13
 -1      3176 2.00555E+01 3.98405E-01 2.14300E-03-7.28776E-01-9.49771E-14-4.97877E-14
 -1      3177 2.00325E+01 3.74732E-01-1.81479E-03-6.55671E-01 2.32049E-14 2.60197E-14
 -1      3178 1.98849E+01 4.75547E-01 6.00502E-04-7.70258E-01-3.45026E-14-2.11892E-14
 -1      3179 2.00522E+01 3.51187E-01 1.87019E-03-5.86508E-01 1.83982E-13 1.58759E-13
 -1      3180 2.00332E+01 3.24481E-01-1.63358E-03-5.22850E-01 2.94120E-13 1.95100E-13
 -1      3181 1.99214E+01 4.23344E-01 6.17118E-04-6.21486E-01 2.21237E-13 2.58564E-13
 -1      3182 2.00491E+01 2.99828E-01 1.60952E-03-4.64273E-01 2.48501E-13 1.25531E-13
 -1      3183 2.00329E+01 2.73956E-01-1.40457E-03-4.10107E-01 1.47828E-13-2.65773E-14
 -1      3184 1.99515E+01 3.64116E-01 5.41166E-04-4.94162E-01 2.42184E-13 1.46867E-13
 -1      3185 2.00448E+01 2.51210E-01 1.34937E-03-3.61344E-01 1.80117E-13-3.35131E-14
 -1      3186 2.00314E+01 2.28571E-01-9.97221E-04-3.15955E-01 2.16155E-13-2.38238E-14
 -1      3187 1.99744E+01 3.06510E-01 4.90076E-04-3.87027E-01 1.40003E-13-1.52809E-13
 -1      3188 2.00425E+01 2.09147E-01 1.18604E-03-2.80670E-01 8.71634E-14-8.80279E-14
 -1      3189 2.00308E+01 1.90805E-01-5.80626E-04-2.42477E-01 3.33377E-14-1.08623E-13
 -1      3190 2.00060E+01 2.11308E-01-5.28687E-04-2.37264E-01-1.36342E-13-2.25372E-13
 -1      3191 1.99932E+01 2.54409E-01 1.19240E-06-3.03089E-01 5.77318E-14-4.09771E-14
 -1      3192 2.00781E+01 1.45468E-01 1.75386E-03-4.90658E-01 8.17600E-14-1.41235E-13
 -1      3193 2.00568E+01 1.32095E-01-4.66894E-04-4.55632E-01 1.08753E-13-1.57148E-13
 -1      3194 2.00670E+01 1.24223E-01 1.38888E-03-4.21194E-01 1.00197E-13-1.46540E-13
 -1      3195 2.00541E+01 1.20760E-01 1.76470E-04-3.87829E-01 9.04040E-14-1.15197E-13
 -1      3196 2.00784E+01 1.57724E-01-7.35800E-04-4.41353E-01 1.07521E-13-6.55847E-14
 -1      3197 2.01261E+01 2.25047E-01 2.33512E-03-6.63330E-01 1.76912E-14-6.12514E-14
 -1      3198 2.00905E+01 2.01447E-01-1.32879E-03-6.14940E-01 4.18903E-14-1.17311E-13
 -1      3199 2.01625E+01 2.69657E-01 2.56757E-03-7.75525E-01 1.29964E-14-1.23999E-14
 -1      3200 2.01196E+01 2.46634E-01-1.56379E-03-7.18209E-01 1.49851E-14-2.62619E-14
 -1      3201 2.00436E+01 2.82213E-01-1.52730E-04-7.04810E-01-7.69396E-15-8.53576E-14
 -1      3202 2.02097E+01 3.04611E-01 2.76116E-03-9.06373E-01-2.13932E-14-2.03751E-14
 -1      3203 2.01579E+01 2.87907E-01-1.61879E-03-8.40805E-01 1.57321E-14-7.51976E-16
 -1      3204 2.00382E+01 3.32843E-01-1.27883E-04-8.26427E-01 1.14654E-15-7.97225E-14
 -1      3205 2.02731E+01 3.14829E-01 2.91986E-03-1.05260E+00 3.73044E-14-1.17071E-13
 -1      3206 2.02096E+01 3.12819E-01-1.39372E-03-9.81659E-01-1.32793E-15-9.66818E-14
 -1      3207 2.00383E+01 3.68911E-01-3.23561E-04-9.68554E-01 3.55711E-14-1.71082E-13
 -1      3208 2.03643E+01 2.78459E-01 3.03943E-03-1.20620E+00-2.82308E-14-6.29194E-14
 -1      3209 2.02836E+01 3.03232E-01-7.10985E-04-1.13572E+00-2.79789E-15-7.00614E-14
 -1      3210 2.00510E+01 3.71474E-01-9.41533E-04-1.12931E+00-1.42119E-16-1.46828E-13
 -1      3211 2.05041E+01 1.65166E-01 3.06211E-03-1.35251E+00-3.80910E-14-4.22721E-14
 -1      3212 2.03965E+01 2.33308E-01 7.17196E-04-1.29248E+00-2.06597E-14-4.60020E-14
 -1      3213 2.00911E+01 3.13457E-01-2.30370E-03-1.30320E+00-2.84919E-14-1.70982E-13
 -1      3214 2.07272E+01-6.34185E-02 2.75621E-03-1.46705E+00-3.29422E-14 4.13938E-14
 -1      3215 2.05778E+01 6.85879E-02 3.31498E-03-1.43323E+00-2.93874E-14-1.07072E-14
 -1      3216 2.01857E+01 1.57762E-01-4.91418E-03-1.47941E+00-6.16771E-14-1.19461E-13
 -1      3217 2.10852E+01-4.46808E-01 1.51968E-03-1.50980E+00-4.86117E-14 8.41610E-14
 -1      3218 2.08744E+01-2.31087E-01 7.65720E-03-1.52615E+00-2.31309E-14 9.97555E-14
 -1      3219 2.03815E+01-1.41802E-01-9.39182E-03-1.63764E+00-1.01563E-13 4.70859E-14
 -1      3220 2.16426E+01-1.00382E+00-1.98525E-03-1.41656E+00-1.01107E-13 3.07431E-14
 -1      3221 2.13523E+01-6.98611E-01 1.42450E-02-1.51746E+00-7.19683E-14 1.03401E-13
 -1      3222 2.07512E+01-6.31274E-01-1.61377E-02-1.73873E+00-3.71559E-14 9.81947E-14
 -1      3223 2.24598E+01-1.67945E+00-8.02819E-03-1.09076E+00-1.79192E-13 4.08775E-14
 -1      3224 2.20838E+01-1.32405E+00 2.25606E-02-1.31910E+00-1.38192E-13 2.91080E-14
 -1      3225 2.13923E+01-1.32761E+00-2.50070E-02-1.70631E+00-8.80658E-14 9.17625E-14
 -1      3226 2.35374E+01-2.24648E+00-1.03167E-02-4.34376E-01-1.22017E-13 1.29914E-13
 -1      3227 2.31012E+01-1.98243E+00 2.91084E-02-8.15301E-01-1.62437E-13 6.12362E-14
 -1      3228 2.23701E+01-2.14948E+00-4.47800E-02-1.39778E+00-1.51814E-13 3.65016E-14
 -1      3229 2.46985E+01-2.28264E+00-9.79258E-03 6.45215E-01-1.95260E-13 2.57362E-13
 -1      3230 2.43617E+01-2.36474E+00 3.11867E-02 1.23742E-01-1.61125E-13 2.32413E-13
 -1      3231 2.38195E+01-2.79392E+00-5.31457E-02-6.32064E-01-1.86065E-13 1.50005E-13
 -1      3232 2.60665E+01-1.00789E+00-2.20921E-02 1.78121E+00 5.51989E-14 2.44023E-13
 -1      3233 2.58290E+01-1.96715E+00-3.29219E-02 1.26726E+00-9.40290E-14 2.58462E-13
 -1      3234 2.58947E+01 1.99670E+00-5.12261E-02 2.31047E+00 1.44766E-13 2.03511E-13
 -1      3235 2.59427E+01 5.59398E-01-1.27000E-01 2.32301E+00 1.52149E-13 2.57671E-13
 -1      3236 2.53521E+01 4.22097E+00-9.72097E-02 9.23479E-01 3.50608E-13-3.66374E-14
 -1      3237 2.54623E+01 3.39547E+00-1.23644E-01 1.67971E+00 2.40960E-13 5.52978E-14
 -1      3238 2.52679E+01 3.94188E+00-1.55443E-01-1.16798E+00 3.01564E-13-1.64827E-13
 -1      3239 2.52460E+01 4.38704E+00-8.75613E-02-1.75837E-01 2.67703E-13-1.03552E-13
 -1      3240 2.59676E+01 1.33273E+00-1.45991E-01-2.39975E+00 9.40220E-14-2.64431E-13
 -1      3241 2.58141E+01 2.73374E+00-8.04601E-02-1.96889E+00 2.40322E-13-2.15479E-13
 -1      3242 2.60726E+01-1.25781E+00-5.47023E-02-1.80561E+00 4.17166E-14-3.47309E-13
 -1      3243 2.60977E+01-9.70277E-02-6.13057E-02-2.05443E+00 7.28861E-14-3.26995E-13
 -1      3244 2.51301E+01-2.43411E+00-1.90332E-04-6.21192E-01 6.14613E-15-3.20924E-13
 -1      3245 2.54630E+01-1.95125E+00-2.44320E-02-1.14468E+00 3.59435E-14-3.81844E-13
 -1      3246 2.26050E+01-1.68886E+00 2.51782E-02 1.08471E+00-6.01682E-14-2.69662E-13
 -1      3247 2.30208E+01-2.02847E+00-1.34036E-02 7.70789E-01-9.95037E-14-2.87280E-13
 -1      3248 2.17234E+01-1.01135E+00 1.90358E-02 1.42119E+00 6.92325E-14-8.86920E-14
 -1      3249 2.20628E+01-1.35097E+00-2.57562E-03 1.25771E+00-7.63643E-14-2.19470E-13
 -1      3250 2.18852E+01-1.73979E+00-2.70373E-02 1.57066E+00-1.48326E-13-3.36581E-13
 -1      3251 2.11163E+01-4.47496E-01 1.09134E-02 1.51441E+00 8.81140E-14 1.08286E-13
 -1      3252 2.13667E+01-7.15287E-01-3.07824E-04 1.46038E+00 1.77206E-13 6.43070E-14
 -1      3253 2.10656E+01-9.71891E-01-2.08032E-02 1.72504E+00 3.03349E-14 4.80128E-14
 -1      3254 2.07318E+01-5.40842E-02 5.50832E-03 1.45986E+00 2.00692E-14 1.12404E-13
 -1      3255 2.09099E+01-2.32274E-01 2.00981E-03 1.47442E+00 4.98341E-14 1.12157E-13
 -1      3256 2.05593E+01-3.61667E-01-1.30807E-02 1.67665E+00 7.58617E-14-8.32473E-14
 -1      3257 2.04971E+01 1.84525E-01 2.11353E-03 1.32947E+00-9.47464E-14 3.74481E-13
 -1      3258 2.06227E+01 8.14169E-02 2.78849E-03 1.38318E+00-1.96211E-14 2.40715E-13
 -1      3259 2.02795E+01 4.25260E-02-7.16675E-03 1.53360E+00-7.56791E-14 1.50296E-13
 -1      3260 2.03543E+01 3.07207E-01 1.55792E-04 1.16561E+00-3.76802E-14 3.51441E-13
 -1      3261 2.04450E+01 2.58038E-01 2.90034E-03 1.23864E+00-3.39972E-14 3.87942E-13
 -1      3262 2.01369E+01 2.76994E-01-3.53154E-03 1.35245E+00-1.23132E-13 3.19448E-13
 -1      3263 2.02649E+01 3.52206E-01-8.65123E-04 9.93221E-01-2.18439E-13 2.90434E-13
 -1      3264 2.03331E+01 3.38086E-01 2.79834E-03 1.07272E+00-1.27618E-13 3.74780E-13
 -1      3265 2.00710E+01 3.89978E-01-1.51925E-03 1.16201E+00-1.24280E-13 3.09610E-13
 -1      3266 2.02054E+01 3.49836E-01-1.30532E-03 8.26874E-01 3.11987E-14-1.12493E-13
 -1      3267 2.02589E+01 3.56435E-01 2.62813E-03 9.04886E-01-7.85636E-14 1.32443E-13
 -1      3268 2.00446E+01 4.23829E-01-5.04435E-04 9.77500E-01-7.23760E-14 1.43748E-13
 -1      3269 2.01627E+01 3.21653E-01-1.41016E-03 6.74642E-01 6.02366E-14-1.85608E-13
 -1      3270 2.02059E+01 3.39036E-01 2.42196E-03 7.46609E-01 2.69773E-14-2.38443E-13
 -1      3271 2.00364E+01 4.10528E-01-5.62293E-05 8.07120E-01 1.05396E-13-3.33046E-13
 -1      3272 2.01299E+01 2.81986E-01-1.33132E-03 5.40379E-01 1.32943E-13-1.43199E-13
 -1      3273 2.01653E+01 3.03657E-01 2.18404E-03 6.04067E-01 1.75034E-13-1.93520E-13
 -1      3274 2.00352E+01 3.72337E-01 9.61819E-05 6.55061E-01 8.58126E-14-5.75027E-13
 -1      3275 2.01031E+01 2.39914E-01-1.17309E-03 4.25119E-01-6.54490E-14-2.00714E-13
 -1      3276 2.01324E+01 2.61823E-01 1.92394E-03 4.79871E-01 1.07774E-13-1.09232E-13
 -1      3277 2.00354E+01 3.23923E-01 1.14884E-04 5.22937E-01 4.53576E-14-2.24290E-13
 -1      3278 2.00805E+01 2.00918E-01-9.50042E-04 3.28141E-01-9.90108E-15-2.68284E-13
 -1      3279 2.01047E+01 2.20603E-01 1.63671E-03 3.74227E-01-9.08254E-14-2.89431E-13
 -1      3280 2.00349E+01 2.74399E-01 4.60007E-05 4.10482E-01 5.81308E-14-2.79314E-13
 -1      3281 2.00617E+01 1.68875E-01-2.26468E-04 2.47865E-01-8.11819E-14-9.16264E-14
 -1      3282 2.00807E+01 1.84073E-01 1.29357E-03 2.85818E-01-1.16289E-13-2.15949E-13
 -1      3283 2.00325E+01 2.29684E-01 2.83665E-05 3.16461E-01-6.88558E-14-1.83792E-13
 -1      3284 2.00424E+01 1.59076E-01 2.98254E-04 2.02398E-01-4.43665E-14 2.38774E-13
 -1      3285 2.00587E+01 1.63153E-01 1.03435E-03 2.26134E-01 2.76795E-15 4.56245E-14
 -1      3286 2.00260E+01 2.00558E-01-2.81185E-04 2.51698E-01-1.94991E-13-1.39662E-13
 -1      3287 2.00179E+01 1.83485E-01-1.14649E-03 2.08974E-01-1.81073E-13 4.33087E-14
 -1      3288 2.00489E+01 2.20838E+00-4.31490E-03 2.81225E-01 6.18367E-14-3.85462E-13
 -1      3289 2.00348E+01 2.24852E+00-3.48977E-03 1.63457E-01 2.76342E-14-4.31426E-13
 -1      3290 1.98321E+01 3.63430E-01-5.65721E-04-1.88470E-02 9.67610E-14-6.97606E-14
 -1      3291 1.98321E+01 3.63479E-01-5.47587E-04 1.80629E-02 8.28431E-14-4.31754E-14
 -1      3292 1.99448E+01 2.62590E-01 1.66152E-04-2.02500E-01 1.15274E-13 1.99443E-13
 -1      3293 1.99158E+01 2.86320E-01-1.36349E-03-1.86422E-01 1.42222E-13-6.58396E-14
 -1      3294 1.98499E+01 3.48927E-01-4.18251E-05-9.46591E-02-5.57221E-14 3.86628E-14
 -1      3295 1.98380E+01 3.57336E-01-9.84219E-04-6.07634E-02 5.12709E-14 3.99819E-14
 -1      3296 1.98042E+01 3.91721E-01 1.35724E-03-4.41515E-02 2.22365E-13-1.21783E-13
 -1      3297 2.72347E+01 5.56534E+00-1.39921E-01-1.75592E-01-6.71435E-13 6.40633E-15
 -1      3298 2.86294E+01 6.14125E+00-1.67575E-01-6.40292E-01-6.81011E-13 2.13895E-13
 -1      3299 2.01483E+01 3.44194E-01-1.47964E-03-2.10012E-02 1.23931E-13-1.29154E-13
 -1      3300 2.01881E+01 4.37340E-01 4.35235E-03 8.05039E-02 1.50237E-13-1.34092E-13
 -1      3301 2.61709E+01 4.95446E+00-1.10361E-01-6.25819E-01-5.61690E-13-1.36521E-13
 -1      3302 2.79198E+01 5.46390E+00-1.52583E-01-1.25591E+00-6.67855E-13 9.25440E-14
 -1      3303 1.98893E+01 3.14521E-01 4.26113E-04-1.59284E-01 7.95448E-14-1.53122E-13
 -1      3304 1.98667E+01 3.30817E-01-1.32807E-03-1.31810E-01-5.50680E-14 5.23084E-14
 -1      3305 1.98316E+01 3.69161E-01 1.23371E-03-1.26894E-01-3.32715E-14 2.79862E-14
 -1      3306 1.98822E+01 3.25858E-01 6.70700E-04-1.94124E-01 1.40753E-13-6.52255E-14
 -1      3307 1.17874E+01-1.14560E+00 1.82366E-01-4.32671E+00 2.37123E-13 4.08104E-13
 -1      3308 1.45329E+01-2.30909E+00 3.21609E-02-5.11530E+00 2.68230E-13 2.87492E-13
 -1      3309 2.00980E+01 1.81156E-01 2.06426E-03-5.69448E-01 6.28879E-14-1.32385E-13
 -1      3310 2.00694E+01 1.61044E-01-9.61729E-04-5.28957E-01 6.81324E-14-1.20631E-13
 -1      3311 2.00633E+01 1.86090E-01-5.00856E-04-5.16820E-01 6.67319E-14-1.06806E-13
 -1      3312 2.00520E+01 2.30141E-01-2.97872E-04-6.02747E-01 5.00477E-14-9.34940E-14
 -1      3313 2.01059E+01 2.19743E-01-4.49704E-04-1.69516E-01 1.28547E-13-1.23548E-13
 -1      3314 2.01304E+01 2.74906E-01 3.36664E-03-1.01232E-01 1.33047E-13-9.88763E-14
 -1      3315 2.02066E+01 3.82235E-01-1.51110E-03-3.88600E-02 1.32470E-13-1.19748E-13
 -1      3316 2.12777E+01-4.41728E+00 1.07975E-01-4.47984E+00-3.22027E-13 6.31092E-15
 -1      3317 2.36473E+01-4.53380E+00-5.96048E-02-2.88549E+00-2.62373E-13 1.92242E-14
 -1      3318 1.63999E+01-2.84126E+00 1.38053E-01-5.24399E+00-2.62818E-13-2.01915E-13
 -1      3319 1.88085E+01-3.97341E+00-1.87696E-02-5.21232E+00-3.06949E-13-9.45632E-14
 -1      3320 2.04417E+01-3.59511E+00 8.00696E-02-4.11612E+00-3.02404E-13-2.82318E-14
 -1      3321 2.03004E+01 1.00910E+00-3.04480E-04 6.64677E-01 2.44246E-13-2.33062E-13
 -1      3322 2.02774E+01 1.32832E+00 2.85217E-03 7.46409E-01 2.30503E-13-2.53246E-13
 -1      3323 2.02847E+01 1.15739E+00 8.23406E-04 5.64815E-01 1.92781E-13-2.48520E-13
 -1      3324 2.02432E+01 8.00366E-01-3.84618E-03 4.53137E-01 2.31266E-13-2.16565E-13
 -1      3325 2.02802E+01 7.51027E-01 3.42249E-03-3.04549E-01-1.71510E-13-1.68439E-13
 -1      3326 2.02420E+01 5.97182E-01-3.08780E-03-1.64764E-01-1.52350E-13-1.65992E-13
 -1      3327 2.02824E+01 6.38538E-01-2.96572E-04-1.32232E-01-1.14889E-13-1.71734E-13
 -1      3328 2.39092E+01-4.44132E+00-8.22523E-02 2.58962E+00-9.74429E-14-3.98882E-13
 -1      3329 2.22738E+01-4.15941E+00 1.09218E-01 3.65118E+00-2.22954E-13-1.50784E-13
 -1      3330 2.33691E+01-4.60692E+00 5.85307E-02-3.30672E+00 2.30677E-13-1.95798E-13
 -1      3331 2.54240E+01-4.32068E+00-3.04847E-02-1.73212E+00 2.08273E-13-1.98605E-13
 -1      3332 2.62503E+01 4.10993E+00-1.31361E-01-1.54674E+00-5.05512E-13 2.14065E-14
 -1      3333 2.52543E+01-3.66458E+00 7.28126E-02-9.87124E-01-2.09683E-13 1.44586E-13
 -1      3334 2.56861E+01-2.75455E+00-6.79651E-02 3.83430E-01-1.21604E-13 1.87902E-13
 -1      3335 1.03204E+01-2.47419E-01 7.05761E-02 2.85687E+00-1.32349E-13 2.56031E-13
 -1      3336 9.42250E+00 2.24681E-01 1.00590E-01 1.03878E+00-2.31403E-14 3.11751E-13
 -1      3337 2.62708E+01-2.72893E+00 6.67663E-03 4.52658E-01 1.56083E-13-3.42705E-13
 -1      3338 1.06844E+01-6.72511E-01 6.49326E-02 3.49000E+00 1.47278E-13-1.94150E-13
 -1      3339 9.49531E+00-5.48933E-02 1.58760E-01 2.13666E+00 1.87121E-13-2.75960E-13
 -1      3340 1.95873E+01-3.96831E+00-6.06871E-02 4.73669E+00-2.49814E-13 9.18085E-14
 -1      3341 1.70661E+01-2.88568E+00 1.44031E-01 5.10751E+00-3.04815E-13 3.48173E-13
 -1      3342 1.41245E+01-2.14131E+00-1.12448E-02 5.03858E+00-2.02532E-13 1.56986E-13
 -1      3343 1.18995E+01-9.94434E-01 1.25799E-01 4.09618E+00-1.34628E-13 1.37737E-13
 -1      3344 1.80888E+01-3.47455E+00 7.64339E-02-5.08211E+00 1.07227E-13 2.11720E-13
 -1      3345 2.08912E+01-4.44999E+00-3.07012E-02-4.58064E+00 1.77254E-13-8.34610E-14
 -1      3346 2.61088E+01-3.46028E+00-8.24177E-02 4.23383E-01 1.48762E-13 7.90513E-15
 -1      3347 2.49658E+01-4.20270E+00 9.04106E-02 1.95836E+00 2.46738E-13-4.50057E-14
 -1      3348 2.74629E+01 4.30204E+00-1.34839E-01-1.66604E+00-5.94275E-13 1.32207E-13
 -1      3349 2.00273E+01 2.26845E+00-3.78273E-03 6.37056E-02 2.53164E-15-4.25141E-13
 -1      3350 2.00268E+01 2.26931E+00-3.77943E-03-5.60493E-02-1.52822E-14-4.07247E-13
 -1      3351 2.01380E+01 1.98161E+00 5.22698E-03 9.58032E-02 9.63240E-15-4.00798E-13
 -1      3352 2.02275E+01 1.59124E+00-1.95126E-03-7.84154E-01-2.41906E-13-2.34181E-13
 -1      3353 9.94575E+00 4.51100E-01 1.20853E-01 6.88344E-02-1.65623E-14 2.88561E-13
 -1      3354 1.07345E+01 4.42891E-01 1.84560E-02-1.06533E+00 3.71244E-14 3.73861E-13
 -1      3355 1.15257E+01 6.59719E-01 6.66920E-02 7.34297E-01-7.02572E-14 2.12275E-13
 -1      3356 2.10307E+01-3.53522E+00 4.50931E-02 3.71019E+00-1.67210E-13-2.28181E-14
 -1      3357 2.01277E+01 1.97745E+00-2.71284E-03-5.61959E-01-1.45607E-13-2.81365E-13
 -1      3358 2.01660E+01 1.84444E+00-6.68273E-03-6.59397E-01-1.93877E-13-2.81438E-13
 -1      3359 1.99161E+01 2.85835E-01-1.34283E-03 1.86307E-01-7.66235E-14-5.62614E-13
 -1      3360 1.99454E+01 2.62678E-01 4.72711E-04 2.02438E-01-1.01425E-13-3.92739E-13
 -1      3361 2.02965E+01 1.13113E+00-3.41169E-04-6.02357E-01-2.21250E-13-1.94796E-13
 -1      3362 2.02680E+01 9.25168E-01-4.40589E-03-4.28420E-01-1.98381E-13-1.88528E-13
 -1      3363 2.02968E+01 9.72070E-01 1.44891E-03-3.69174E-01-1.77868E-13-2.03803E-13
 -1      3364 2.72800E+01 4.02229E-01-1.31775E-01-2.24868E+00-1.52607E-13 1.47736E-13
 -1      3365 2.37429E+01-3.58908E+00 1.09517E-02-1.76161E+00-2.31037E-13 8.10797E-14
 -1      3366 1.02329E+01 2.82398E-01 1.15196E-01 9.82517E-01 8.61446E-14-2.90726E-13
 -1      3367 1.18437E+01-5.47532E-01 1.16536E-01-3.38501E+00 1.73445E-13 3.36564E-13
 -1      3368 2.00991E+01 1.52552E-01-9.95011E-04-3.68239E-01 1.03407E-13-5.56365E-14
 -1      3369 2.00666E+01 1.23791E-01 9.40501E-04-3.52664E-01 8.55668E-14-9.01272E-14
 -1      3370 2.00637E+01 1.33975E-01 1.00492E-03-3.15637E-01 1.01877E-13-8.16133E-14
 -1      3371 1.63325E+01-2.03424E+00 8.17583E-02 4.52260E+00-2.11831E-13 2.18461E-13
 -1      3372 2.37908E+01-2.24814E+00 3.65694E-02 3.43577E-01-1.01748E-13-2.96270E-13
 -1      3373 2.41927E+01-2.36141E+00-1.03630E-02-1.26710E-01 2.69489E-14-2.96718E-13
 -1      3374 2.00707E+01 2.14957E+00-3.22731E-03 3.75480E-01 7.68759E-14-3.56133E-13
 -1      3375 2.01622E+01 1.90182E+00 5.11853E-03 2.74537E-01 6.45330E-14-3.52472E-13
 -1      3376 2.00972E+01 2.06737E+00-5.12382E-03 4.86296E-01 1.15526E-13-3.42902E-13
 -1      3377 1.98670E+01 3.30340E-01-1.33517E-03 1.32071E-01-5.41507E-14 2.51590E-14
 -1      3378 1.98896E+01 3.14003E-01 4.40211E-04 1.59439E-01-3.96885E-14-2.05528E-13
 -1      3379 1.98828E+01 3.25023E-01 6.94058E-04 1.94063E-01-1.49262E-13-4.09049E-13
 -1      3380 1.78577E+01-3.52266E+00 1.13801E-01 5.29107E+00 2.74253E-13-2.07577E-13
 -1      3381 1.65908E+01-2.73091E+00 4.47776E-02 4.99260E+00 2.40689E-13-1.47035E-13
 -1      3382 1.96297E+01-3.86946E+00 4.35133E-02 4.66563E+00 3.41199E-13-2.14374E-13
 -1      3383 2.02599E+01 1.49747E+00 5.82435E-03 5.57846E-01 1.65837E-13-2.59025E-13
 -1      3384 2.01680E+01 1.83479E+00-6.80868E-03 6.61767E-01 1.71933E-13-2.99743E-13
 -1      3385 2.01312E+01 1.96788E+00-2.74311E-03 5.67579E-01 1.25415E-13-3.14700E-13
 -1      3386 1.56882E+01-1.60691E+00 2.29708E-02-4.31314E+00 2.03906E-13 2.91669E-13
 -1      3387 1.68972E+01-2.61917E+00 9.09743E-02-4.92463E+00 2.13066E-13 2.31006E-13
 -1      3388 1.88144E+01-2.75947E+00 3.24387E-02-4.18163E+00 1.01738E-13 1.10911E-13
 -1      3389 1.98379E+01 3.57190E-01-9.99764E-04 6.05967E-02-1.18287E-14-2.48245E-14
 -1      3390 1.98501E+01 3.48565E-01-4.73346E-05 9.50594E-02-7.57800E-14-5.80615E-14
 -1      3391 1.98317E+01 3.68653E-01 1.19877E-03 1.27189E-01-1.12899E-13-9.64690E-14
 -1      3392 1.98041E+01 3.91575E-01 1.33322E-03 4.40030E-02 5.54928E-14-1.23781E-14
 -1      3393 2.47702E+01-3.10720E+00-5.08405E-02 3.29043E-01 3.28691E-14-4.73330E-13
 -1      3394 2.00939E+01 2.07531E+00-5.07212E-03-4.79609E-01-1.10355E-13-3.04644E-13
 -1      3395 2.02009E+01 1.74883E+00 4.09867E-03-4.27881E-01-1.18752E-13-2.57758E-13
 -1      3396 2.00680E+01 2.15575E+00-3.14050E-03-3.67344E-01-7.61903E-14-3.22997E-13
 -1      3397 2.31225E+01-2.57144E+00-4.41379E-02 1.08548E+00-1.33395E-13-5.38516E-13
 -1      3398 1.06070E+01-8.98450E-02 1.42506E-01-2.67154E+00-1.11643E-13-4.82656E-13
 -1      3399 1.21288E+01-3.73394E-01 6.61569E-02-3.16161E+00-1.20829E-13-3.56735E-13
 -1      3400 1.07778E+01 3.13156E-01 7.79897E-02-1.60227E+00-9.53716E-14-4.59938E-13
 -1      3401 1.99832E+01 2.28874E-01-5.10241E-04-2.28064E-01-9.45841E-14 3.30286E-14
 -1      3402 1.99624E+01 2.46248E-01-6.91967E-04-2.16150E-01 6.37207E-14 3.05984E-13
 -1      3403 1.99351E+01 2.83372E-01 6.69256E-04-2.34777E-01-8.17471E-14 1.92727E-13
 -1      3404 1.99797E+01 2.50752E-01 8.95340E-04-2.58654E-01-1.02659E-13 6.74005E-14
 -1      3405 1.24665E+01-2.49848E-01 1.06646E-01 3.05719E+00-8.59868E-14 2.49974E-13
 -1      3406 2.00789E+01 1.51978E-01 3.54485E-04-2.73720E-01 9.47686E-14-9.53315E-14
 -1      3407 2.00883E+01 1.80890E-01 2.05957E-03-2.25857E-01 1.13095E-13-1.17358E-13
 -1      3408 2.01632E+01 2.50209E-01-1.44916E-03-1.82545E-01 1.15946E-13-1.12773E-13
 -1      3409 2.01270E+01 1.79420E-01-1.25286E-03-2.86620E-01 9.30033E-14-8.63887E-14
 -1      3410 1.54570E+01-2.00333E+00 7.95371E-02-4.65159E+00-1.97606E-13-2.20608E-13
 -1      3411 1.42910E+01-1.54704E+00 2.28929E-02 4.44174E+00 2.00305E-13-1.72903E-13
 -1      3412 1.24831E+01-9.69570E-01 1.40863E-01 4.10304E+00 1.34490E-13-8.71248E-14
 -1      3413 1.24472E+01-3.91900E-01 6.80442E-02 3.28274E+00 1.41939E-13-1.83797E-13
 -1      3414 2.24141E+01-4.01224E+00 6.19513E-02-3.29439E+00 1.98123E-13-1.74322E-13
 -1      3415 2.47078E+01-3.71211E+00 1.77231E-02 1.28591E+00-4.47559E-14-4.10449E-13
 -1      3416 2.01935E+01 5.22538E-01-2.37052E-03 1.75336E-01 1.69099E-13-1.67373E-13
 -1      3417 2.02457E+01 6.64977E-01 4.11545E-03 3.23286E-01 1.92113E-13-1.89348E-13
 -1      3418 2.02727E+01 8.28326E-01 7.61264E-04 3.84857E-01 1.87529E-13-2.01094E-13
 -1      3419 2.02441E+01 5.70794E-01-1.52433E-03 1.46858E-01 1.41511E-13-1.61582E-13
 -1      3420 2.02580E+01 3.53156E-01 1.53595E-03 1.39541E-01-1.28574E-13-1.61886E-13
 -1      3421 2.02329E+01 2.95893E-01-7.81066E-04 1.98653E-01-1.41121E-13-1.43319E-13
 -1      3422 2.02069E+01 2.56250E-01 8.04654E-04 2.44033E-01-1.34576E-13-1.23916E-13
 -1      3423 2.01837E+01 2.29579E-01-5.53762E-05 2.89592E-01-9.22913E-14-1.17778E-13
 -1      3424 2.02499E+01 3.21500E-01-4.91747E-05 1.99340E-01-1.17947E-13-1.00814E-13
 -1      3425 2.01509E+01 2.15538E-01 1.04271E-04 3.26746E-01-5.70302E-14-1.17239E-13
 -1      3426 2.01300E+01 2.11883E-01 4.82223E-04 3.65678E-01-4.23643E-14-1.12170E-13
 -1      3427 2.01886E+01 2.59291E-01-5.37159E-05 2.84229E-01-7.16548E-14-7.60036E-14
 -1      3428 2.00914E+01 2.17042E-01-5.43844E-04 4.00054E-01-2.58679E-14-1.23151E-13
 -1      3429 2.00722E+01 2.30664E-01 8.75824E-04 4.37995E-01-3.86321E-14-1.09750E-13
 -1      3430 2.01177E+01 2.48003E-01 9.42149E-05 3.57369E-01-4.91832E-14-1.47710E-13
 -1      3431 2.00279E+01 2.50004E-01-1.12999E-03 4.74146E-01-7.91731E-14-8.72794E-14
 -1      3432 2.00093E+01 2.76169E-01 1.16906E-03 5.15487E-01-1.12916E-13-8.35232E-14
 -1      3433 2.00378E+01 2.75109E-01 3.45880E-04 4.28619E-01-4.96913E-14-1.39150E-13
 -1      3434 1.99586E+01 3.05295E-01-1.66118E-03 5.57081E-01-1.56607E-13-3.16602E-14
 -1      3435 1.99395E+01 3.39566E-01 1.40700E-03 6.05118E-01-1.36759E-13-4.62044E-14
 -1      3436 1.99476E+01 3.30140E-01 6.60449E-04 5.06085E-01-1.15825E-13-7.55180E-14
 -1      3437 1.98814E+01 3.73979E-01-2.14173E-03 6.55098E-01-1.45748E-13-7.16275E-14
 -1      3438 1.98613E+01 4.11459E-01 1.64540E-03 7.12179E-01-1.00217E-13-9.35889E-14
 -1      3439 1.98448E+01 4.03338E-01 1.00863E-03 5.96293E-01-1.67064E-13-1.01544E-13
 -1      3440 1.97946E+01 4.45742E-01-2.56547E-03 7.73003E-01-8.30460E-14-7.10300E-14
 -1      3441 1.97738E+01 4.80189E-01 1.96066E-03 8.40663E-01-1.02355E-13-6.49500E-14
 -1      3442 1.97271E+01 4.84081E-01 1.34027E-03 7.04620E-01-9.25386E-14-6.55202E-14
 -1      3443 1.96985E+01 5.07033E-01-2.90848E-03 9.14598E-01-1.11650E-13-1.54583E-14
 -1      3444 1.96792E+01 5.29828E-01 2.47497E-03 9.93697E-01-1.03934E-13 9.99554E-15
 -1      3445 1.95928E+01 5.59151E-01 1.58289E-03 8.35898E-01-4.06858E-14-2.23562E-14
 -1      3446 1.95968E+01 5.38904E-01-3.11639E-03 1.08326E+00-7.95846E-14-2.77564E-15
 -1      3447 1.95847E+01 5.37822E-01 3.37937E-03 1.17415E+00 1.43619E-14 3.56935E-14
 -1      3448 1.94426E+01 6.10622E-01 1.59515E-03 9.95280E-01-8.13775E-14 5.59767E-14
 -1      3449 1.95002E+01 5.14439E-01-3.06178E-03 1.28274E+00-8.96970E-15 3.99350E-15
 -1      3450 1.95073E+01 4.72131E-01 4.93947E-03 1.38535E+00-2.01649E-14-5.12963E-15
 -1      3451 1.92820E+01 6.13432E-01 1.12715E-03 1.18960E+00-3.84204E-14 3.61747E-14
 -1      3452 1.94323E+01 3.95703E-01-2.42150E-03 1.51783E+00 2.47410E-14-3.98573E-14
 -1      3453 1.94802E+01 2.88029E-01 7.46155E-03 1.63107E+00 1.11769E-13-3.45481E-14
 -1      3454 1.91256E+01 5.32052E-01-2.81673E-04 1.42915E+00-2.72557E-14-2.15855E-14
 -1      3455 1.94385E+01 1.31073E-01-3.38981E-04 1.79308E+00 1.74046E-13-5.27788E-14
 -1      3456 1.95640E+01-7.33326E-02 1.15400E-02 1.91205E+00 1.91445E-13-1.05798E-13
 -1      3457 1.90048E+01 3.16192E-01-3.37806E-03 1.72878E+00 1.11102E-13-7.97813E-14
 -1      3458 1.96010E+01-3.43589E-01 5.37890E-03 2.10759E+00 1.48619E-13-6.85413E-14
 -1      3459 1.98578E+01-6.86791E-01 1.45640E-02 2.21780E+00 1.18749E-13-8.19153E-14
 -1      3460 1.89790E+01-1.01576E-01-9.17492E-03 2.10489E+00 1.80813E-13-1.35133E-13
 -1      3461 2.00676E+01-1.08850E+00 2.10309E-02 2.42387E+00 1.29259E-13-7.19260E-14
 -1      3462 2.05298E+01-1.58845E+00 2.36244E-02 2.49111E+00 1.51293E-13-8.15745E-14
 -1      3463 1.91599E+01-8.23386E-01-2.45152E-02 2.56377E+00 1.26471E-13-1.23591E-13
 -1      3464 2.10591E+01-2.16008E+00 4.73832E-02 2.63900E+00 1.40892E-13-1.20526E-13
 -1      3465 2.18449E+01-2.77957E+00 2.82979E-02 2.50015E+00 1.88995E-13-1.65769E-13
 -1      3466 1.97934E+01-1.91885E+00-5.08703E-02 3.04394E+00 1.37811E-13-1.81182E-13
 -1      3467 1.38454E+01-4.85154E-01 3.45320E-03 3.45580E+00-1.55643E-13 1.66853E-13
 -1      3468 1.26608E+01 2.91934E-01 4.36992E-02 2.26022E+00-6.59334E-14 2.06148E-13
 -1      3469 2.02447E+01 4.03874E-01-1.71292E-03-6.52828E-02 1.16591E-13-1.55482E-13
 -1      3470 2.02731E+01 5.00775E-01 2.69301E-03 2.20629E-02 1.15458E-13-1.65190E-13
 -1      3471 2.20234E+01-2.90374E+00 2.62520E-02-2.49028E+00 7.12000E-14-2.84264E-13
 -1      3472 2.12197E+01-2.32555E+00 4.05645E-02-2.63773E+00 1.55959E-13-1.68338E-13
 -1      3473 2.06366E+01-1.72904E+00 1.71693E-02-2.49467E+00 3.26980E-13-1.46371E-13
 -1      3474 2.01595E+01-1.20181E+00 2.27660E-02-2.44792E+00 3.60149E-13 9.55321E-14
 -1      3475 1.99026E+01-2.03169E+00-3.48209E-02-3.08725E+00 2.73185E-13-7.62454E-14
 -1      3476 1.99171E+01-7.68737E-01 1.53562E-02-2.23867E+00 1.23504E-13 9.02693E-14
 -1      3477 1.96382E+01-4.05469E-01 5.73024E-03-2.13090E+00-5.92595E-14 9.77007E-14
 -1      3478 1.92262E+01-9.08640E-01-1.46336E-02-2.62683E+00 2.34063E-13-4.49441E-14
 -1      3479 1.95822E+01-1.11651E-01 1.16558E-02-1.92745E+00-7.46386E-14 2.30850E-13
 -1      3480 1.94420E+01 1.11945E-01-9.73632E-06-1.80418E+00-1.10410E-13 2.90861E-13
 -1      3481 1.89784E+01-1.50288E-01-1.13293E-02-2.14163E+00 5.29542E-14 1.10378E-13
 -1      3482 1.94738E+01 2.85661E-01 7.71970E-03-1.63345E+00-2.74043E-13 3.16785E-13
 -1      3483 1.94172E+01 4.08371E-01-2.10416E-03-1.51390E+00-2.23380E-13 2.41430E-13
 -1      3484 1.89801E+01 3.10488E-01-3.91790E-03-1.74466E+00-1.75458E-13 2.17696E-13
 -1      3485 1.94856E+01 4.97902E-01 5.05750E-03-1.37264E+00-1.87086E-13 2.84933E-13
 -1      3486 1.94732E+01 5.51847E-01-2.89018E-03-1.26244E+00-7.67952E-14 1.42950E-13
 -1      3487 1.90865E+01 5.57512E-01-3.60499E-04-1.42663E+00-2.40515E-13 4.36898E-13
 -1      3488 1.95523E+01 5.85377E-01 3.33387E-03-1.14486E+00 8.79678E-14 3.56547E-14
 -1      3489 1.95606E+01 5.95508E-01-3.01972E-03-1.04534E+00 4.16975E-14 1.33525E-13
 -1      3490 1.92323E+01 6.63241E-01 1.24480E-03-1.16902E+00-4.72862E-14 2.76108E-13
 -1      3491 1.96373E+01 5.94293E-01 2.31256E-03-9.46456E-01-3.78751E-14 2.93622E-13
 -1      3492 1.96532E+01 5.78483E-01-2.86823E-03-8.57837E-01-6.45672E-15 2.84208E-13
 -1      3493 1.93827E+01 6.79291E-01 1.83028E-03-9.56685E-01 8.70310E-14 9.63404E-15
 -1      3494 1.97215E+01 5.57510E-01 1.72494E-03-7.74205E-01-9.87704E-14 1.86404E-13
 -1      3495 1.97382E+01 5.28023E-01-2.59752E-03-6.96448E-01-4.23726E-14 1.62225E-13
 -1      3496 1.95211E+01 6.42318E-01 1.90979E-03-7.78931E-01-1.35082E-13 2.00812E-13
 -1      3497 1.97960E+01 4.97461E-01 1.37619E-03-6.25821E-01 1.80458E-13 1.44071E-13
 -1      3498 1.98105E+01 4.62471E-01-2.27903E-03-5.58671E-01 3.36657E-13 1.85969E-13
 -1      3499 1.96404E+01 5.77262E-01 1.74493E-03-6.29076E-01 8.35237E-14 1.25039E-13
 -1      3500 1.98577E+01 4.28996E-01 1.14151E-03-4.99485E-01 2.49276E-13 1.32981E-13
 -1      3501 1.98690E+01 3.93946E-01-1.87777E-03-4.42444E-01 2.25963E-13-8.24324E-15
 -1      3502 1.97389E+01 5.00905E-01 1.50555E-03-5.02927E-01 2.65813E-13 1.61063E-13
 -1      3503 1.99060E+01 3.61176E-01 7.57166E-04-3.92963E-01 2.22993E-13-7.04702E-14
 -1      3504 1.99157E+01 3.29593E-01-1.17451E-03-3.45622E-01 1.08558E-13-1.51073E-13
 -1      3505 1.98174E+01 4.24762E-01 1.36898E-03-3.97388E-01 2.08311E-13 1.80429E-14
 -1      3506 2.00853E+01 1.94472E-01 1.04951E-03-4.42323E-01 1.03077E-13-2.43838E-14
 -1      3507 2.00941E+01 1.84549E-01-3.30667E-04-4.04973E-01 8.98002E-14-5.12217E-14
 -1      3508 1.99917E+01-1.12046E-01 4.37110E-03 1.77512E+00 4.24677E-14 1.12885E-13
 -1      3509 2.01890E+01-3.65834E-01 8.32941E-03 1.84676E+00 1.10566E-13 1.56565E-13
 -1      3510 1.99179E+01 4.05753E-01 2.19062E-03-8.38049E-01-6.99354E-15-8.08892E-14
 -1      3511 1.99169E+01 3.76016E-01-2.20262E-03-7.72826E-01 5.62534E-15-4.88951E-14
 -1      3512 1.99633E+01 3.46601E-01 1.90015E-03-7.12589E-01-3.16763E-16-7.93430E-14
 -1      3513 1.99647E+01 3.14227E-01-1.87313E-03-6.57267E-01-1.13515E-14-1.24669E-13
 -1      3514 1.98430E+01 4.14675E-01 7.76703E-04-7.22297E-01-1.21832E-14-3.76625E-14
 -1      3515 1.98361E+01 4.51325E-01 3.26340E-03-1.15540E+00-5.87265E-14-8.69798E-14
 -1      3516 1.98204E+01 4.54291E-01-2.33853E-03-1.07153E+00 1.95223E-14-1.46958E-13
 -1      3517 1.98246E+01 3.87225E-01 4.34489E-03-1.34558E+00-6.00540E-14-8.16790E-14
 -1      3518 1.97886E+01 4.28372E-01-1.86867E-03-1.25586E+00-3.43395E-14-1.01737E-13
 -1      3519 1.95595E+01 5.17595E-01 4.98839E-05-1.19523E+00-4.31652E-14-6.73340E-14
 -1      3520 1.98704E+01 2.14649E-01 5.97332E-03-1.55161E+00-1.14769E-13-4.98975E-14
 -1      3521 1.97954E+01 3.15966E-01-6.42023E-04-1.46136E+00-9.31531E-14-8.17171E-14
 -1      3522 1.94822E+01 4.32639E-01-1.58570E-03-1.41333E+00-9.33934E-14-4.22253E-14
 -1      3523 2.00283E+01-1.18621E-01 8.04648E-03-1.76241E+00-7.55184E-14-2.78672E-14
 -1      3524 1.98847E+01 7.07105E-02 1.99349E-03-1.68202E+00-1.08037E-13-4.67345E-14
 -1      3525 1.94578E+01 2.19923E-01-4.96656E-03-1.66829E+00-1.12410E-13-4.64175E-14
 -1      3526 2.03855E+01-6.69407E-01 1.00486E-02-1.94975E+00-6.79442E-14 1.02461E-14
 -1      3527 2.01310E+01-3.62948E-01 7.40744E-03-1.90057E+00-5.93132E-14-7.44383E-15
 -1      3528 1.95488E+01-1.82135E-01-1.11337E-02-1.96006E+00-9.74225E-14-7.93085E-14
 -1      3529 2.10647E+01-1.47338E+00 9.83883E-03-2.04405E+00-1.10797E-13 7.95894E-14
 -1      3530 2.06515E+01-1.03530E+00 1.81298E-02-2.07095E+00-6.37077E-14 6.53850E-14
 -1      3531 1.98619E+01-8.43445E-01-2.09863E-02-2.26971E+00-9.15695E-14-7.73253E-16
 -1      3532 2.23063E+01-2.44573E+00 2.65850E-02-1.86790E+00-1.38608E-13 2.77955E-14
 -1      3533 2.16210E+01-1.94316E+00 4.04336E-02-2.08029E+00-9.04923E-14 7.49830E-14
 -1      3534 2.05690E+01-1.81490E+00-3.50667E-02-2.52638E+00-8.01525E-14 5.18379E-14
 -1      3535 2.28794E+01-3.25132E+00 3.29043E-02-2.16640E+00-2.67198E-13 9.22352E-14
 -1      3536 2.02651E+01 1.40611E+00 2.53348E-03-5.08173E-01-1.98646E-13-2.33258E-13
 -1      3537 2.02279E+01 1.61214E+00 1.37518E-03-6.72937E-01-2.18038E-13-2.46294E-13
 -1      3538 2.11212E+01-1.51000E+00 2.51816E-02 2.08960E+00-2.41143E-13-2.20745E-13
 -1      3539 2.16630E+01-1.95314E+00 2.50572E-02 1.96547E+00-2.97110E-13-2.68851E-13
 -1      3540 1.98269E+01 2.35294E-01 5.95073E-04 1.54260E+00-1.75933E-13 1.44235E-13
 -1      3541 1.99346E+01 8.61562E-02 6.78570E-03 1.63436E+00-6.78832E-14 9.90679E-14
 -1      3542 1.94792E+01 6.05498E-02-8.24368E-03 1.79318E+00-5.74682E-14 5.02962E-13
 -1      3543 1.97797E+01 4.21059E-01-1.21604E-03 1.31623E+00-1.17912E-13 1.40128E-13
 -1      3544 1.98340E+01 3.46348E-01 4.94131E-03 1.41322E+00-1.59722E-13 1.94483E-13
 -1      3545 1.94474E+01 3.75982E-01-3.09810E-03 1.50807E+00-1.56098E-13 1.51334E-13
 -1      3546 1.97908E+01 4.97036E-01-2.03210E-03 1.10651E+00-1.07799E-13 1.79794E-13
 -1      3547 1.98160E+01 4.71479E-01 3.56034E-03 1.20118E+00-1.31703E-13 2.05032E-13
 -1      3548 1.94961E+01 5.32247E-01-5.64495E-04 1.25891E+00-1.25238E-13 1.26097E-13
 -1      3549 1.98261E+01 5.03972E-01-2.29073E-03 9.17282E-01 1.13480E-13-1.42512E-13
 -1      3550 1.98370E+01 5.08507E-01 2.65828E-03 1.00555E+00 6.97432E-14 3.18130E-14
 -1      3551 1.95775E+01 5.84486E-01 6.19279E-04 1.04299E+00 9.19939E-14-1.11992E-13
 -1      3552 1.98676E+01 4.71288E-01-2.24942E-03 7.49860E-01 1.26874E-13-2.35508E-13
 -1      3553 1.98723E+01 4.92481E-01 2.09773E-03 8.29530E-01 1.04478E-13-1.78140E-13
 -1      3554 1.96656E+01 5.72969E-01 1.07131E-03 8.56263E-01 2.40149E-13-3.25835E-13
 -1      3555 1.99065E+01 4.18998E-01-2.05823E-03 6.04353E-01-1.03534E-14-3.36601E-13
 -1      3556 1.99090E+01 4.47847E-01 1.73744E-03 6.74394E-01 1.03328E-13-3.37034E-13
 -1      3557 1.97474E+01 5.26022E-01 1.15707E-03 6.95464E-01 1.89656E-13-2.43162E-13
 -1      3558 1.99391E+01 3.60132E-01-1.81386E-03 4.80044E-01 2.06965E-14-2.62977E-13
 -1      3559 1.99413E+01 3.90851E-01 1.47682E-03 5.40272E-01 3.18159E-14-3.24797E-13
 -1      3560 1.98175E+01 4.62605E-01 1.05494E-03 5.58100E-01-2.60215E-14-2.55215E-13
 -1      3561 1.99641E+01 3.03174E-01-1.53718E-03 3.75275E-01 3.83719E-14-3.69349E-13
 -1      3562 1.99669E+01 3.32325E-01 1.36587E-03 4.26480E-01 1.26854E-14-3.18314E-13
 -1      3563 1.98743E+01 3.95084E-01 8.67259E-04 4.42279E-01 5.95001E-15-2.77730E-13
 -1      3564 1.99832E+01 2.53278E-01-8.03814E-04 2.88866E-01-1.01409E-13-2.58784E-13
 -1      3565 1.99858E+01 2.77434E-01 1.06752E-03 3.31227E-01 9.20944E-15-2.57201E-13
 -1      3566 1.99178E+01 3.30369E-01 1.10515E-04 3.45590E-01-1.06308E-13-1.66069E-13
 -1      3567 2.03718E+01-6.75752E-01 1.25636E-02 1.98429E+00-2.65630E-15-1.49467E-14
 -1      3568 2.07053E+01-1.05815E+00 9.69870E-03 2.00415E+00-1.21363E-13-1.23001E-13
 -1      3569 2.01832E+01-1.32360E+00-3.16239E-02 2.41974E+00-3.01011E-13-3.12699E-13
 -1      3570 2.37019E+01-3.29419E+00 6.87093E-02 1.58645E+00-9.20531E-14-3.93196E-13
 -1      3571 1.99694E+01 2.34877E-01-1.16002E-03 2.08624E-01-2.04032E-13-4.91236E-13
 -1      3572 1.99955E+01 2.11062E-01 9.92465E-05 2.11176E-01-1.36325E-13-2.66642E-13
 -1      3573 1.99972E+01 2.19438E-01 2.49754E-04 2.31548E-01-3.17818E-13-2.71054E-13
 -1      3574 1.99424E+01 2.72088E-01 2.96834E-04 2.27567E-01-1.56304E-13-3.34289E-13
 -1      3575 1.97611E+01 4.21317E-01-2.56191E-04-7.21017E-02 1.19630E-13-2.01137E-13
 -1      3576 1.97525E+01 4.26221E-01-8.59220E-04-2.71360E-02 1.35489E-13-2.51479E-14
 -1      3577 1.76227E+01-2.19920E+00-5.80065E-02 4.17863E+00-2.23826E-13 2.62863E-13
 -1      3578 1.56003E+01-1.09198E+00 8.86573E-02 3.95294E+00-2.07995E-13 2.20650E-13
 -1      3579 2.35164E+01-4.11986E+00 4.01619E-02 2.63338E+00 2.94868E-13-1.64894E-13
 -1      3580 1.17289E+01 2.73503E-01 1.19564E-01-2.32154E+00 1.71077E-13 2.74794E-13
 -1      3581 1.33300E+01-4.82335E-01 7.78821E-03-3.38356E+00 2.74155E-13 1.58727E-13
 -1      3582 1.25110E+01 5.93471E-01 6.84463E-02-1.36333E+00 1.02372E-13 2.10207E-13
 -1      3583 1.98728E+01 4.47612E-01 2.60321E-03-9.85627E-01 8.48044E-14-1.16904E-13
 -1      3584 1.98672E+01 4.28527E-01-2.38791E-03-9.10475E-01 5.26086E-14-4.73249E-14
 -1      3585 1.97526E+01 4.79535E-01 9.01384E-04-8.53352E-01 2.42646E-14-2.83976E-14
 -1      3586 1.96555E+01 5.21880E-01 7.37702E-04-1.00985E+00 4.92398E-14-4.30994E-14
 -1      3587 2.46436E+01-3.81977E+00-2.09183E-02-1.42855E+00 1.90662E-13-2.38220E-13
 -1      3588 2.37253E+01-3.72875E+00-1.97469E-02-1.91516E+00 9.98767E-14-2.51332E-13
 -1      3589 2.03171E+01 7.96293E-01 1.18051E-03-1.92118E-01-1.09114E-13-1.91311E-13
 -1      3590 2.03004E+01 6.45974E-01-2.48330E-03-8.14833E-02-8.98097E-14-1.66091E-13
 -1      3591 1.99184E+01-2.60884E+00 3.02478E-02-3.55374E+00-1.97189E-13-6.03684E-15
 -1      3592 2.15442E+01-3.25827E+00-4.60726E-02-3.03858E+00-2.39829E-13 1.05853E-14
 -1      3593 2.00338E+01 2.25110E+00-3.39415E-03-1.55632E-01-2.94859E-14-3.85684E-13
 -1      3594 2.00465E+01 2.21305E+00-4.23374E-03-2.73521E-01-5.79060E-14-3.64189E-13
 -1      3595 2.01594E+01 1.90701E+00 5.05829E-03-2.67649E-01-5.78143E-14-3.31192E-13
 -1      3596 2.58404E+01-3.82226E+00-6.03677E-02-8.06182E-01 2.16706E-13-3.17048E-13
 -1      3597 1.14985E+01 4.17367E-01 4.01833E-02 1.56864E+00 9.78826E-14-2.54213E-13
 -1      3598 1.10206E+01 6.47193E-01 7.91734E-02 1.80367E-02 5.04668E-14-2.98303E-13
 -1      3599 1.44497E+01-9.97680E-01 8.80504E-02-4.02832E+00-1.44138E-13-2.23301E-13
 -1      3600 1.70449E+01-2.01026E+00 2.83462E-02-4.27489E+00-2.24580E-13-1.04722E-13
 -1      3601 2.18106E+01-3.43477E+00-8.45454E-02 2.91838E+00-1.94450E-13-1.85598E-13
 -1      3602 2.00591E+01-2.70108E+00 9.73870E-02 3.69867E+00-2.43745E-13 1.37199E-14
 -1      3603 2.19437E+01-3.39797E+00 3.04176E-02-2.97416E+00 8.57296E-14-2.15685E-13
 -1      3604 2.02987E+01 5.24979E-01 1.97926E-03-1.21329E-03-9.99118E-14-1.77000E-13
 -1      3605 2.02741E+01 4.27220E-01-1.70261E-03 7.96386E-02-1.16439E-13-1.79112E-13
 -1      3606 2.02979E+01 4.50950E-01 1.95557E-04 9.14220E-02-1.09823E-13-1.95365E-13
 -1      3607 2.18919E+01-2.34897E+00 4.09798E-02 2.17556E+00-2.17804E-13-2.94431E-13
 -1      3608 2.26113E+01-2.82415E+00 1.59763E-02 1.88471E+00-1.29325E-13-3.25290E-13
 -1      3609 2.23973E+01-3.68871E+00 6.25368E-02 3.01972E+00 3.19364E-13-1.81791E-13
 -1      3610 2.03252E+01 6.66463E-01 2.27670E-04-5.19706E-02-9.64510E-14-1.73688E-13
 -1      3611 1.25733E+01 6.40642E-01 6.69429E-02 1.54557E+00-9.68236E-14 2.71411E-13
 -1      3612 1.26155E+01 7.87361E-01-9.39600E-03 6.23838E-01-1.97810E-13 2.40984E-13
 -1      3613 1.39059E+01 5.20460E-01 3.77887E-02 1.93792E+00-1.44743E-13 1.68228E-13
 -1      3614 1.72620E+01-2.47098E+00 4.20369E-03 4.51408E+00 2.58051E-13-1.77084E-13
 -1      3615 1.58226E+01-1.88576E+00 1.13304E-01 4.63215E+00 2.31693E-13-1.71640E-13
 -1      3616 1.50656E+01-1.27655E+00 1.34833E-02 4.08705E+00 2.17843E-13-1.14908E-13
 -1      3617 1.97130E+01 4.64589E-01 1.54170E-03 5.12721E-04 9.21685E-14 5.50349E-14
 -1      3618 1.97526E+01 4.26048E-01-8.68544E-04 2.71862E-02 1.22367E-13 1.01732E-13
 -1      3619 1.97613E+01 4.20920E-01-2.67139E-04 7.27552E-02 1.43121E-13-6.58381E-14
 -1      3620 2.02984E+01 1.16078E+00-1.35739E-03-4.06749E-01-1.81047E-13-2.15248E-13
 -1      3621 2.03005E+01 9.67221E-01-2.47243E-03-2.78903E-01-1.40065E-13-1.92908E-13
 -1      3622 2.03208E+01 9.82479E-01 1.65661E-03-2.22211E-01-1.11962E-13-1.65836E-13
 -1      3623 2.02656E+01 1.40150E+00 1.89920E-03-4.07600E-01-1.54331E-13-2.09606E-13
 -1      3624 1.55947E+01-5.00217E-01 5.30741E-02 3.25180E+00-2.27362E-13 2.37770E-13
 -1      3625 2.01368E+01 1.98303E+00 5.05619E-03-8.93611E-02-2.11603E-14-3.74044E-13
 -1      3626 2.03075E+01 6.50934E-01 4.89518E-06 8.20081E-02 1.11599E-13-1.90295E-13
 -1      3627 2.02778E+01 6.22972E-01-1.94084E-03 1.14396E-01 1.15004E-13-1.76834E-13
 -1      3628 2.01241E+01 2.16777E-01-2.43791E-04-3.69413E-01 8.09254E-14-1.29328E-13
 -1      3629 2.01241E+01 1.82528E-01 6.23900E-04-3.69554E-01 8.88952E-14-8.83798E-14
 -1      3630 2.01372E+01 1.88837E-01 3.71418E-04-3.30418E-01 1.08936E-13-6.56517E-14
 -1      3631 2.00520E+01 2.09713E-01-9.33856E-04-4.78879E-01 8.40767E-14-3.94329E-14
 -1      3632 2.00633E+01 2.36015E-01-1.10144E-05-4.43006E-01 9.77589E-14-4.61395E-14
 -1      3633 2.00464E+01 2.31361E-01 1.37588E-03-5.19174E-01 4.55206E-14-4.78855E-14
 -1      3634 1.99476E+01 3.01037E-01 5.28675E-04-3.18306E-01 1.02536E-13 2.67448E-14
 -1      3635 1.99570E+01 2.74875E-01-6.04486E-04-2.83187E-01 7.54346E-14 3.80724E-14
 -1      3636 1.99338E+01 2.93202E-01-1.47589E-05-2.72234E-01 7.22006E-14 1.79360E-13
 -1      3637 1.98828E+01 3.54057E-01 8.74812E-04-3.23418E-01 1.48954E-13 6.94772E-14
 -1      3638 1.96751E+01-4.84692E-01-1.83577E-02 2.10802E+00-6.31694E-14 6.14773E-14
 -1      3639 1.26490E+01 8.24756E-01 2.83356E-02-9.66269E-02 4.39926E-14-2.03445E-13
 -1      3640 1.15815E+01 6.75373E-01 7.94274E-02-6.88128E-01 2.70023E-14-2.75877E-13
 -1      3641 1.23495E+01 5.44222E-01 1.53739E-02-1.51935E+00-2.61796E-14-2.84890E-13
 -1      3642 1.99245E+01 3.44534E-01 5.30214E-04-6.13275E-01 4.72519E-14-1.10872E-13
 -1      3643 2.00062E+01 2.84917E-01 1.64400E-03-6.07492E-01 5.66226E-14-1.06589E-13
 -1      3644 2.00094E+01 2.55679E-01-1.44548E-03-5.60833E-01 8.16727E-14-7.19358E-14
 -1      3645 2.07759E+01-2.20113E+00-1.38623E-03 2.77323E+00-2.49394E-13-3.81406E-13
 -1      3646 2.02033E+01 1.74295E+00 4.58998E-03 4.34160E-01 9.95917E-14-2.96494E-13
 -1      3647 2.02200E+01 1.61436E+00-2.87621E-03 2.62764E-01 7.61144E-14-3.21319E-13
 -1      3648 2.02067E+01 1.67309E+00-2.10782E-03 1.85487E-01 4.82813E-14-3.47271E-13
 -1      3649 2.00004E+01 2.28048E-01 3.64356E-04 2.54013E-01-2.22194E-13-3.24401E-13
 -1      3650 1.97773E+01 4.06585E-01-1.39388E-03-1.23084E-01 1.97937E-14-2.26987E-14
 -1      3651 1.97326E+01 4.51016E-01 1.53694E-03-1.08818E-01 9.32738E-14-1.47479E-13
 -1      3652 1.98028E+01 3.92808E-01 7.36984E-04-1.63341E-01 2.89003E-14-5.21628E-14
 -1      3653 2.02837E+01 1.19739E+00-2.29480E-03 4.58671E-01 1.49392E-13-2.41080E-13
 -1      3654 2.02734E+01 1.33750E+00 1.02557E-03 4.22037E-01 1.10268E-13-2.32077E-13
 -1      3655 1.50919E+01-7.47887E-01 9.39558E-02-3.72659E+00 2.55006E-13 3.14308E-13
 -1      3656 1.66958E+01-1.19610E+00-1.12115E-02-3.64592E+00 2.82931E-13 3.91595E-13
 -1      3657 1.46226E+01-7.92756E-02 1.56804E-02-2.88255E+00 3.20808E-13 1.99910E-13
 -1      3658 1.99220E+01 2.97989E-01-7.87655E-04 2.59645E-01-1.35683E-13-2.15213E-13
 -1      3659 1.99548E+01 2.72894E-01 4.39431E-04 2.66749E-01-1.90803E-13-2.63682E-13
 -1      3660 1.90355E+01-1.97588E+00 2.08975E-02 3.46176E+00-2.60132E-13 6.62630E-14
 -1      3661 1.98395E+01 3.59166E-01-1.52964E-03 2.06992E-01-8.84971E-14-3.38697E-13
 -1      3662 1.98780E+01 3.35295E-01 8.53500E-04 2.36001E-01-8.26880E-14-4.67538E-13
 -1      3663 1.98874E+01 3.38381E-01 8.61083E-04 2.78518E-01-4.71323E-14-2.20718E-13
 -1      3664 2.02319E+01 1.58462E+00 1.97451E-04-2.95521E-01-7.56229E-14-2.45365E-13
 -1      3665 2.02482E+01 1.48572E+00-2.97287E-03-3.60296E-01-1.24008E-13-2.23483E-13
 -1      3666 2.02937E+01 1.26275E+00 1.46985E-03-2.71631E-01-1.10215E-13-1.97919E-13
 -1      3667 2.05789E+01-3.47688E+00-9.22750E-03 3.92358E+00 2.65878E-13-1.94098E-13
 -1      3668 2.02954E+01 7.40629E-01 1.97162E-03 2.19173E-01 1.17396E-13-1.94651E-13
 -1      3669 2.03981E+01-3.15293E+00 2.17162E-02-3.77960E+00 9.76441E-14-1.13395E-13
 -1      3670 1.85053E+01-2.15443E+00 8.67689E-03-3.89059E+00-1.74414E-13-1.06894E-13
 -1      3671 2.00162E+01-1.81267E+00 3.44733E-02-2.92572E+00-8.47933E-14-1.31718E-14
 -1      3672 1.94600E+01-1.25959E+00 1.70917E-02-2.79338E+00-6.53620E-14-5.73630E-15
 -1      3673 1.72938E+01-1.21385E+00-5.67915E-03-3.50555E+00-1.38346E-13-8.18495E-14
 -1      3674 2.02752E+01 1.46452E+00 5.07214E-03 1.18459E-01 5.16311E-14-3.43744E-13
 -1      3675 2.01964E+01 1.70874E+00-3.32591E-03 1.20596E-01 3.66801E-14-3.74617E-13
 -1      3676 2.01914E+01 1.72928E+00-2.86627E-03 3.59781E-02 8.20913E-15-3.86889E-13
 -1      3677 1.37867E+01-4.61316E-01 5.24190E-02-3.49413E+00-1.09412E-13-2.84953E-13
 -1      3678 1.54864E+01-5.29166E-01 4.97251E-02-3.25645E+00-1.84417E-13-1.27140E-13
 -1      3679 1.33319E+01 1.20384E-01 3.93710E-02-2.62243E+00-8.19119E-14-2.94480E-13
 -1      3680 2.02292E+01 3.30579E-01 2.02909E-03-1.31963E-01 1.08122E-13-1.45474E-13
 -1      3681 2.02777E+01 4.32212E-01-3.10317E-04-8.01567E-02 1.04497E-13-1.66030E-13
 -1      3682 2.02051E+01 2.73095E-01-7.33226E-04-1.94636E-01 8.65342E-14-1.31241E-13
 -1      3683 1.91089E+01-2.35026E+00 1.50492E-02-3.74835E+00 1.98432E-13 2.59567E-14
 -1      3684 1.24557E+01 2.99972E-01 1.02488E-01 2.29762E+00 9.97553E-14-2.19720E-13
 -1      3685 1.28799E+01 6.28634E-01 3.27699E-02 1.43164E+00 2.93376E-14-2.18593E-13
 -1      3686 1.36279E+01-1.50872E-01 2.18300E-02 2.91593E+00 1.11996E-13-1.32179E-13
 -1      3687 1.99098E+01 3.08116E-01-9.17143E-04-2.57542E-01 7.53215E-14 9.23817E-14
 -1      3688 1.98726E+01 3.48481E-01 2.71606E-04-2.73979E-01 1.54689E-13-7.34854E-14
 -1      3689 1.98779E+01 3.35758E-01 8.14860E-04-2.34518E-01 1.10118E-13-4.90866E-14
 -1      3690 1.98394E+01 3.58580E-01-1.81945E-03-2.06413E-01 4.83671E-14-4.16973E-14
 -1      3691 1.98399E+01 3.78145E-01-1.00152E-03-2.97770E-01 1.15447E-13-6.22360E-15
 -1      3692 2.03123E+01 9.27479E-01 8.59280E-04 2.54007E-01 9.96248E-14-1.88843E-13
 -1      3693 2.02895E+01 8.66409E-01-1.34825E-03 2.93818E-01 1.25770E-13-2.07524E-13
 -1      3694 2.02207E+01 2.97190E-01 1.04639E-04 2.31592E-01-7.82520E-14-1.27239E-13
 -1      3695 2.01862E+01 2.77954E-01-2.01628E-04 2.70578E-01-4.22220E-14-1.28729E-13
 -1      3696 2.01393E+01 2.71594E-01-4.31159E-04 3.00435E-01-3.20674E-14-1.41226E-13
 -1      3697 2.01012E+01 2.76482E-01 2.00500E-04 3.35796E-01-2.42245E-14-1.31115E-13
 -1      3698 2.01697E+01 3.07357E-01 6.10143E-04 2.49290E-01-3.84358E-14-1.36384E-13
 -1      3699 2.00442E+01 2.90543E-01-9.67276E-04 3.65206E-01-1.76025E-14-1.10198E-13
 -1      3700 2.00020E+01 3.13637E-01 4.75154E-04 4.01257E-01-5.77078E-14-1.07755E-13
 -1      3701 2.00672E+01 3.14930E-01 7.72582E-04 3.08294E-01-1.24746E-14-1.15527E-13
 -1      3702 1.99346E+01 3.42748E-01-1.50966E-03 4.33608E-01-9.05793E-14-8.03629E-14
 -1      3703 1.98873E+01 3.78877E-01 6.56767E-04 4.73857E-01-1.02693E-13-7.26308E-14
 -1      3704 1.99463E+01 3.61969E-01 1.08752E-03 3.68763E-01-7.33859E-14-8.27668E-14
 -1      3705 1.98082E+01 4.18025E-01-2.06618E-03 5.12033E-01-1.28338E-13-5.63986E-14
 -1      3706 1.97546E+01 4.62131E-01 8.04142E-04 5.59287E-01-1.32085E-13-3.81384E-14
 -1      3707 1.98050E+01 4.37379E-01 1.49434E-03 4.36721E-01-1.02483E-13-6.52971E-14
 -1      3708 1.96618E+01 5.06066E-01-2.65429E-03 6.05903E-01-1.15376E-13-1.83945E-14
 -1      3709 1.96006E+01 5.52462E-01 9.89480E-04 6.62590E-01-7.29840E-14 5.26393E-14
 -1      3710 1.96399E+01 5.30564E-01 1.99213E-03 5.17376E-01-9.04994E-14 2.40227E-15
 -1      3711 1.94917E+01 5.94738E-01-3.29969E-03 7.20388E-01-5.73680E-14 1.47632E-14
 -1      3712 1.94229E+01 6.36243E-01 1.32540E-03 7.88869E-01-4.57369E-14-1.67507E-15
 -1      3713 1.94464E+01 6.29787E-01 2.54591E-03 6.15926E-01-4.89793E-14 7.13605E-14
 -1      3714 1.92956E+01 6.68426E-01-4.05312E-03 8.61278E-01-5.06485E-14-1.53962E-14
 -1      3715 1.92208E+01 6.95476E-01 1.98875E-03 9.44490E-01-5.64221E-14-1.35695E-15
 -1      3716 1.92198E+01 7.20742E-01 3.13204E-03 7.38392E-01-5.42674E-14-7.14225E-14
 -1      3717 1.90731E+01 7.06028E-01-4.98602E-03 1.03662E+00-9.06230E-14 4.38549E-14
 -1      3718 1.89979E+01 7.05599E-01 3.26201E-03 1.13896E+00-8.46270E-14 6.82447E-15
 -1      3719 1.89561E+01 7.84805E-01 3.65200E-03 8.93359E-01-4.08750E-14-3.61900E-14
 -1      3720 1.88292E+01 6.78593E-01-6.15764E-03 1.25925E+00-5.78743E-14-5.58459E-14
 -1      3721 1.87658E+01 6.32450E-01 5.58280E-03 1.38775E+00-1.00534E-14-9.40966E-14
 -1      3722 1.86529E+01 7.97329E-01 3.99602E-03 1.09470E+00-9.81691E-14 1.32935E-14
 -1      3723 1.85787E+01 5.45441E-01-7.44624E-03 1.55013E+00 7.25451E-14-7.25577E-14
 -1      3724 1.85510E+01 4.27595E-01 9.59270E-03 1.71491E+00 1.33881E-13-8.02709E-14
 -1      3725 1.83120E+01 7.23878E-01 3.80535E-03 1.36577E+00 3.97982E-14-9.97262E-14
 -1      3726 1.83585E+01 2.47789E-01-7.89551E-03 1.94026E+00 1.82800E-13-9.81240E-14
 -1      3727 1.84062E+01 2.12901E-02 1.53208E-02 2.15200E+00 1.68433E-13-1.35794E-13
 -1      3728 1.79444E+01 5.12348E-01 1.93251E-03 1.74613E+00 1.19791E-13-8.07372E-14
 -1      3729 1.82451E+01-2.76460E-01 8.75363E-04 2.46546E+00 1.06734E-13-1.64272E-13
 -1      3730 1.84901E+01-6.88387E-01 2.15757E-02 2.71972E+00 8.61097E-14-1.83886E-13
 -1      3731 1.76016E+01 8.82874E-02 2.77680E-03 2.29063E+00 1.20813E-13-1.76419E-13
 -1      3732 2.03451E+01 7.95472E-01 9.20626E-04-9.64908E-02-1.01844E-13-1.82524E-13
 -1      3733 2.03347E+01 6.56916E-01-1.18816E-03-1.18313E-02-1.11066E-13-2.01582E-13
 -1      3734 2.03201E+01 6.47574E-01-2.40320E-03 3.69862E-02 1.10132E-13-2.05392E-13
 -1      3735 2.03318E+01 7.93270E-01 8.79489E-04 1.31037E-01 9.72248E-14-2.13638E-13
 -1      3736 1.89675E+01-8.90803E-02 1.19884E-03 2.08899E+00-2.24742E-13 3.56520E-13
 -1      3737 1.91434E+01-4.09959E-01 1.29344E-02 2.27147E+00-3.62019E-13 8.71536E-14
 -1      3738 1.84116E+01-8.26658E-01-1.99867E-03-2.83506E+00 2.37366E-13 7.32921E-14
 -1      3739 1.82183E+01-3.58124E-01-6.60699E-03-2.51915E+00 1.03770E-13-8.45374E-15
 -1      3740 1.83809E+01-2.47200E-02 1.42566E-02-2.20946E+00 1.10359E-13 1.05656E-13
 -1      3741 1.83190E+01 2.30088E-01-7.07301E-03-1.97884E+00 8.77638E-14 2.15557E-13
 -1      3742 1.75340E+01 1.18521E-02-1.25691E-02-2.36635E+00 1.48526E-13 2.73724E-13
 -1      3743 1.85081E+01 4.23192E-01 9.95743E-03-1.74197E+00-9.77708E-14 1.34943E-13
 -1      3744 1.85259E+01 5.58307E-01-7.30489E-03-1.56730E+00-2.15518E-13 1.90673E-13
 -1      3745 1.78759E+01 5.11247E-01 3.06499E-03-1.78597E+00-3.92487E-14 1.95033E-13
 -1      3746 1.87097E+01 6.60454E-01 6.02080E-03-1.39390E+00-1.42888E-13 1.13059E-13
 -1      3747 1.87665E+01 7.19468E-01-6.18398E-03-1.25643E+00-1.32964E-13 1.89292E-13
 -1      3748 1.82352E+01 7.53119E-01 4.21170E-03-1.38263E+00-1.35486E-13 4.56850E-14
 -1      3749 1.89317E+01 7.58012E-01 3.36376E-03-1.12678E+00-1.62257E-13 2.40036E-13
 -1      3750 1.90017E+01 7.68616E-01-5.04187E-03-1.01587E+00 6.36120E-15 1.96167E-13
 -1      3751 1.85700E+01 8.52035E-01 4.36464E-03-1.09118E+00-9.89154E-14-3.46806E-14
 -1      3752 1.91440E+01 7.67269E-01 1.89854E-03-9.15316E-01 1.13894E-13 1.92140E-13
 -1      3753 1.92133E+01 7.48395E-01-4.12271E-03-8.23513E-01 2.53401E-14 5.59139E-14
 -1      3754 1.88647E+01 8.59722E-01 4.05826E-03-8.72955E-01 2.49613E-14 7.17554E-14
 -1      3755 1.93332E+01 7.23340E-01 1.13312E-03-7.42906E-01-4.20248E-14 1.48864E-13
 -1      3756 1.93953E+01 6.87955E-01-3.41918E-03-6.65776E-01-4.84899E-14 3.62367E-13
 -1      3757 1.91160E+01 8.11954E-01 3.55093E-03-7.02388E-01 2.52541E-14 9.35222E-14
 -1      3758 1.94942E+01 6.50588E-01 7.43371E-04-5.99919E-01-4.42565E-14 2.89695E-13
 -1      3759 1.95467E+01 6.07723E-01-2.84986E-03-5.34763E-01 1.06578E-13 2.57248E-13
 -1      3760 1.93257E+01 7.33170E-01 3.03292E-03-5.64933E-01 8.96051E-15 2.93989E-13
 -1      3761 1.96271E+01 5.65680E-01 5.62741E-04-4.80529E-01 1.31210E-13 1.90348E-13
 -1      3762 1.96696E+01 5.21503E-01-2.32544E-03-4.25738E-01 2.10509E-13 7.63897E-14
 -1      3763 1.94971E+01 6.40344E-01 2.48850E-03-4.52120E-01 3.06446E-14 2.83700E-13
 -1      3764 1.97337E+01 4.79481E-01 3.29403E-04-3.81190E-01 3.11797E-13-9.26131E-14
 -1      3765 1.97692E+01 4.39484E-01-1.06212E-03-3.35534E-01 2.19237E-13-1.94402E-14
 -1      3766 1.96345E+01 5.45283E-01 1.87137E-03-3.59295E-01 8.66940E-14 2.77878E-14
 -1      3767 2.03000E+01 1.02588E+00 1.31958E-03 4.28709E-01 1.51787E-13-2.32943E-13
 -1      3768 2.03310E+01 5.39792E-01 9.13307E-04 4.42994E-02-8.63558E-14-2.00515E-13
 -1      3769 2.03085E+01 4.48907E-01-1.45829E-03 1.06441E-01-8.97622E-14-1.99209E-13
 -1      3770 2.03476E+01 6.59117E-01 1.11761E-03 7.60400E-03-9.80255E-14-2.18988E-13
 -1      3771 1.91550E+01 5.23995E-01 5.76180E-03-1.40859E+00-1.19554E-13-2.62255E-14
 -1      3772 1.91755E+01 5.75360E-01-4.24797E-03-1.29251E+00-9.70083E-14-3.66207E-14
 -1      3773 1.92970E+01 6.06526E-01 3.61530E-03-1.17514E+00-3.37805E-14-3.62320E-14
 -1      3774 1.93367E+01 6.12041E-01-3.88529E-03-1.07755E+00-5.28551E-15-2.86252E-14
 -1      3775 1.89705E+01 6.87784E-01 2.16833E-03-1.16687E+00-4.62929E-14 3.85908E-14
 -1      3776 1.90701E+01-9.73174E-02 1.44714E-02-2.05791E+00-1.09178E-13-7.19213E-14
 -1      3777 1.89593E+01 1.31786E-01-3.06635E-03-1.89533E+00-1.21532E-13-6.50367E-14
 -1      3778 1.93020E+01-7.83106E-01 2.06864E-02-2.49084E+00-1.06360E-13-6.06379E-14
 -1      3779 1.90401E+01-4.03748E-01 1.92909E-03-2.31411E+00-8.08029E-14-9.38842E-14
 -1      3780 1.83751E+01-9.18599E-02-8.06645E-03-2.24979E+00-7.97007E-14-1.20875E-13
 -1      3781 1.66083E+01-6.24141E-01-2.95304E-02 3.14712E+00-3.57231E-13 2.63905E-13
 -1      3782 1.53780E+01 8.45047E-02 2.50951E-02 2.65225E+00-2.90579E-13 8.95794E-14
 -1      3783 1.92197E+01 6.57711E-01-4.04904E-03 1.13923E+00 5.03138E-15 1.88936E-14
 -1      3784 1.91912E+01 6.25053E-01 4.42002E-03 1.25239E+00-2.61500E-15 1.47665E-13
 -1      3785 1.89666E+01 3.30803E-01-3.88498E-03 1.70297E+00-1.09395E-13 4.92150E-13
 -1      3786 1.90311E+01 1.49533E-01 1.06721E-02 1.85945E+00-1.25059E-14 4.77821E-13
 -1      3787 1.84099E+01 1.76363E-01-6.18842E-03 1.99565E+00-2.41708E-13 5.17108E-13
 -1      3788 1.93706E+01 6.70208E-01-3.66038E-03 9.31101E-01 2.52159E-13-2.57513E-13
 -1      3789 1.93313E+01 6.74266E-01 2.71682E-03 1.02805E+00 7.66505E-14-1.03779E-13
 -1      3790 1.90337E+01 7.60925E-01 2.61176E-03 1.01957E+00 1.53652E-13 4.14196E-14
 -1      3791 1.95097E+01 6.32318E-01-3.20960E-03 7.57018E-01 2.38020E-13-2.16523E-13
 -1      3792 1.94697E+01 6.57550E-01 1.74722E-03 8.40403E-01 2.90347E-13-2.47280E-13
 -1      3793 1.92360E+01 7.44891E-01 2.60603E-03 8.25015E-01 1.91267E-13-7.18254E-14
 -1      3794 1.96300E+01 5.67736E-01-2.75091E-03 6.10491E-01 1.81010E-13-3.48713E-13
 -1      3795 1.95943E+01 6.03546E-01 1.23297E-03 6.81984E-01 2.53441E-13-3.13201E-13
 -1      3796 1.94117E+01 6.87294E-01 2.41929E-03 6.66114E-01 2.67739E-13-9.23998E-14
 -1      3797 1.97298E+01 4.92526E-01-2.30364E-03 4.87287E-01-4.23212E-14-1.26926E-14
 -1      3798 1.97000E+01 5.31815E-01 9.56495E-04 5.48114E-01 2.93731E-14-8.18679E-14
 -1      3799 1.95588E+01 6.08848E-01 2.11894E-03 5.34629E-01 6.16605E-14 4.85806E-14
 -1      3800 1.98102E+01 4.17187E-01-1.76970E-03 3.84908E-01 2.50060E-14-6.53695E-14
 -1      3801 1.97863E+01 4.55006E-01 7.29329E-04 4.35395E-01 3.20013E-14-1.13330E-13
 -1      3802 1.96785E+01 5.23859E-01 1.80061E-03 4.25260E-01 3.19563E-14 1.16580E-13
 -1      3803 1.98621E+01 3.60479E-01-7.52871E-04 3.07308E-01-2.93359E-14-1.90025E-13
 -1      3804 1.98428E+01 3.94536E-01 1.15185E-03 3.50009E-01 1.12639E-14-1.79134E-13
 -1      3805 1.97589E+01 4.53143E-01 1.13961E-03 3.42236E-01 5.86588E-14-1.34637E-13
 -1      3806 1.98113E+01 3.94911E-01-1.14938E-03 2.80840E-01 9.63314E-15-4.58894E-13
 -1      3807 1.95775E+01-1.85848E+00-2.64900E-02 3.05494E+00-2.47166E-13 2.77538E-14
 -1      3808 1.78620E+01-1.04803E+00 5.61225E-02 3.34340E+00-3.03072E-13 2.27232E-13
 -1      3809 1.75380E+01-4.88105E-01 2.67947E-02 2.83600E+00-4.56236E-13 2.22014E-13
 -1      3810 1.95262E+01-1.40871E+00-5.36865E-03 2.80538E+00-3.56528E-13-1.27367E-13
 -1      3811 2.03165E+01 1.09616E+00-1.37656E-03-2.19445E-01-1.04521E-13-1.87989E-13
 -1      3812 2.03296E+01 9.16724E-01-2.30456E-03-1.35648E-01-9.61288E-14-1.86145E-13
 -1      3813 2.03417E+01 8.96545E-01-3.29947E-03-9.83124E-02-1.09479E-13-1.97874E-13
 -1      3814 2.03105E+01 1.19387E+00 1.71452E-03-1.88170E-01-8.62030E-14-2.09031E-13
 -1      3815 2.01918E+01 1.73026E+00-2.57420E-03-3.11374E-02-7.82757E-15-3.76146E-13
 -1      3816 2.01957E+01 1.71017E+00-3.32924E-03-1.15626E-01-3.56755E-14-3.45758E-13
 -1      3817 2.02677E+01 1.50288E+00 5.29082E-03 1.69943E-03 1.07442E-15-3.56408E-13
 -1      3818 1.90578E+01 3.11049E-01 9.23228E-03-1.69805E+00-1.23695E-13-8.82236E-14
 -1      3819 1.90342E+01 4.33867E-01-4.23148E-03-1.55946E+00-1.18254E-13-6.41112E-14
 -1      3820 1.85185E+01 3.61105E-01-1.50865E-03-1.77971E+00-1.30935E-13-7.96476E-14
 -1      3821 1.29378E+01 9.59628E-01 6.63749E-02-5.55063E-01 3.25365E-14 2.41061E-13
 -1      3822 1.34893E+01 5.90168E-01-1.46259E-02-1.66176E+00 1.90272E-13 1.33681E-13
 -1      3823 1.97286E+01 4.83126E-01 1.38127E-03-6.97595E-01-1.22771E-14-3.58671E-14
 -1      3824 1.97695E+01 4.41853E-01-2.41322E-03-6.39807E-01 1.44748E-14-1.48161E-14
 -1      3825 2.01641E+01 2.04792E-01 5.26208E-05-2.91092E-01 7.16455E-14-7.86915E-14
 -1      3826 2.01825E+01 2.32907E-01 1.16613E-03-2.44034E-01 6.58155E-14-1.12172E-13
 -1      3827 2.01808E+01 2.34137E-01-4.06568E-04-2.92153E-01 8.01008E-14-1.30856E-13
 -1      3828 2.03197E+01 9.13679E-01-1.46208E-03 1.82814E-01 1.07155E-13-2.14894E-13
 -1      3829 2.03163E+01 1.04517E+00-1.65997E-03 2.57655E-01 1.08809E-13-2.17276E-13
 -1      3830 2.03369E+01 9.13977E-01 1.26875E-03 1.34365E-01 1.06852E-13-2.32468E-13
 -1      3831 2.02958E+01 1.23490E+00 1.99319E-03 3.09603E-01 9.46951E-14-2.31315E-13
 -1      3832 2.02430E+01 1.50323E+00-4.27158E-03 3.92760E-01 9.28443E-14-2.78644E-13
 -1      3833 2.02243E+01 1.60528E+00-1.49068E-03 3.24425E-01 7.57675E-14-3.02413E-13
 -1      3834 2.03029E+01 1.21249E+00 2.52274E-04 2.37560E-01 8.83918E-14-2.40176E-13
 -1      3835 1.90738E+01 5.60351E-01-4.24288E-03 1.39147E+00-5.69241E-14 2.42748E-13
 -1      3836 1.90755E+01 4.69282E-01 7.27365E-03 1.52432E+00-9.44554E-14 3.59174E-13
 -1      3837 1.85908E+01 5.33025E-01 6.55509E-05 1.57806E+00 2.88264E-14 4.28670E-13
 -1      3838 2.02011E+01 1.68681E+00-2.52987E-03-1.67825E-01-4.40588E-14-3.36984E-13
 -1      3839 2.02149E+01 1.62633E+00-4.40739E-03-2.44061E-01-6.19815E-14-3.13002E-13
 -1      3840 2.02843E+01 1.39740E+00 2.84430E-03-1.94512E-01-7.58163E-14-2.78944E-13
 -1      3841 2.02748E+01 1.47904E+00 6.80622E-03-1.04623E-01-3.57097E-14-3.27962E-13
 -1      3842 2.02863E+01 3.80966E-01 6.14855E-04 1.49510E-01-8.54090E-14-1.90526E-13
 -1      3843 2.02564E+01 3.30420E-01-7.48816E-04 1.97281E-01-9.72227E-14-1.46504E-13
 -1      3844 2.02534E+01 3.51791E-01 6.44615E-04 1.84722E-01-6.39626E-14-1.48590E-13
 -1      3845 2.03152E+01 4.63038E-01 8.70463E-04 1.06714E-01-8.61848E-14-2.11217E-13
 -1      3846 1.87282E+01-1.60367E+00 5.51346E-02-3.43467E+00 3.20924E-13 9.09299E-14
 -1      3847 1.97777E+01 4.06070E-01-1.36916E-03 1.23736E-01 1.37942E-14 1.04669E-13
 -1      3848 1.98032E+01 3.91195E-01 4.13700E-04 1.63743E-01-1.01421E-13 4.60438E-14
 -1      3849 1.97323E+01 4.50381E-01 1.34942E-03 1.09815E-01 1.07842E-13 1.80905E-13
 -1      3850 1.49897E+01 3.98563E-01 1.49361E-02 2.24057E+00-2.51060E-13-5.07589E-14
 -1      3851 1.46603E+01 7.10030E-01-1.30267E-02 1.57656E+00-2.45114E-13-2.65673E-14
 -1      3852 1.61774E+01 3.59468E-01 3.21292E-02 2.18576E+00-3.42144E-13-8.38938E-14
 -1      3853 1.96529E+01 5.03003E-01-6.97860E-04-2.81337E-02 8.63435E-14 5.96944E-14
 -1      3854 1.96532E+01 5.03061E-01-5.71261E-04 2.96061E-02 1.35858E-13 1.60697E-14
 -1      3855 1.94625E+01-2.71849E+00 7.35360E-02 3.98014E+00 1.97073E-13-1.90190E-13
 -1      3856 1.69420E+01-8.71803E-01 3.90552E-03 3.37291E+00 8.10116E-14-2.00001E-13
 -1      3857 1.81312E+01-1.44312E+00 2.31115E-02 3.46890E+00 1.24236E-13-1.56235E-13
 -1      3858 1.47311E+01 7.60167E-01 3.25498E-03-1.49513E+00 1.59083E-13 7.00750E-14
 -1      3859 1.45583E+01 4.69923E-01 5.89060E-02-2.18952E+00 1.90608E-13 6.45508E-14
 -1      3860 1.56365E+01 6.14043E-02-2.69489E-02-2.54733E+00 2.40455E-13 1.86703E-13
 -1      3861 1.85841E+01-2.13352E+00 3.91517E-02 3.83567E+00 1.78531E-13-2.34916E-13
 -1      3862 2.01189E+01 2.46124E-01 3.44772E-04-3.55646E-01 7.26836E-14-1.30235E-13
 -1      3863 2.01488E+01 2.45204E-01-1.97408E-04-3.18316E-01 7.97048E-14-1.39829E-13
 -1      3864 2.02804E+01 1.41492E+00 4.51446E-03 2.27426E-01 6.97876E-14-3.11746E-13
 -1      3865 1.83803E+01-5.39528E-01-2.04872E-02 2.60155E+00-4.74107E-13 2.49917E-13
 -1      3866 1.92338E+01-8.67120E-01 1.32678E-02 2.58638E+00-3.18511E-13-1.13686E-13
 -1      3867 1.99973E+01 2.81710E-01 2.60057E-04-5.21979E-01 9.63052E-14-3.24899E-14
 -1      3868 1.97696E+01 4.34351E-01 1.01995E-03-2.81749E-01 1.64382E-13-1.28994E-13
 -1      3869 1.33206E+01 9.60008E-01 7.19534E-02 6.37800E-01 1.07685E-14-2.35586E-13
 -1      3870 1.35991E+01 9.37145E-01 1.61431E-02-2.95904E-04 9.62598E-15-1.88502E-13
 -1      3871 1.95960E+01 5.56558E-01 1.75464E-03-8.27285E-01 4.63084E-14-7.16615E-14
 -1      3872 1.96405E+01 5.20212E-01-2.89290E-03-7.58270E-01 1.28468E-14-6.98916E-14
 -1      3873 1.95816E+01 5.58364E-01 1.94050E-03-6.71029E-01 4.94033E-14-2.27670E-14
 -1      3874 2.00390E+01 2.74685E-01 6.75725E-04-4.25126E-01 9.62025E-14-9.74447E-14
 -1      3875 2.00704E+01 2.56010E-01-8.00106E-04-3.87712E-01 8.16744E-14-1.25281E-13
 -1      3876 2.00936E+01 2.83781E-01 4.61151E-04-3.37255E-01 7.30968E-14-1.58981E-13
 -1      3877 1.98458E+01 4.03214E-01 1.12921E-03-5.90575E-01 3.28133E-14-2.16103E-14
 -1      3878 1.98827E+01 3.64307E-01-1.91887E-03-5.42121E-01 8.11351E-14-5.89164E-15
 -1      3879 1.97383E+01 4.69887E-01 1.50885E-03-5.65005E-01 3.10662E-14 2.58264E-14
 -1      3880 1.87358E+01 5.95542E-01 1.22565E-03-1.43024E+00-9.13141E-14-4.40277E-14
 -1      3881 2.03053E+01 1.23860E+00-2.32510E-03 1.12195E-01 4.72836E-14-3.33364E-13
 -1      3882 2.03002E+01 1.27471E+00-2.09769E-03 6.37918E-02 3.63908E-14-3.46898E-13
 -1      3883 1.88126E+01 7.04664E-01 2.06300E-03 1.26350E+00 6.12858E-14 2.52736E-13
 -1      3884 1.97928E+01 4.05783E-01 5.71332E-04-2.07140E-01 5.05982E-14-4.64404E-14
 -1      3885 1.38373E+01 4.96422E-01 4.09305E-02-1.86383E+00-2.15236E-14-2.07244E-13
 -1      3886 1.97936E+01 4.05903E-01 9.17104E-04 2.08437E-01 5.09887E-15-1.72921E-13
 -1      3887 1.37259E+01 9.52339E-01 3.46303E-02 1.70584E-01-8.99428E-14 1.45288E-13
 -1      3888 1.94497E+01 6.05958E-01 2.41718E-03-9.84344E-01 8.42479E-15-2.80250E-14
 -1      3889 1.94951E+01 5.83872E-01-3.41189E-03-9.02177E-01 3.85604E-14-5.41556E-14
 -1      3890 1.94010E+01 6.38041E-01 2.26106E-03-8.01077E-01 1.93867E-14-7.20031E-14
 -1      3891 1.84540E+01-8.69545E-01-1.53224E-02-2.86957E+00-1.07227E-13-1.57226E-13
 -1      3892 2.02330E+01 3.00501E-01-4.50489E-04-2.00099E-01 6.64723E-14-1.28537E-13
 -1      3893 2.03188E+01 5.31215E-01 1.59288E-03-2.95808E-02 1.02370E-13-1.90348E-13
 -1      3894 2.03391E+01 6.60717E-01 8.62528E-04 1.26328E-02 8.65521E-14-2.23154E-13
 -1      3895 2.02953E+01 4.37432E-01-1.63863E-03-1.00184E-01 6.31796E-14-1.82215E-13
 -1      3896 1.57120E+01-8.93814E-01 4.05343E-02 3.59003E+00 1.06509E-13-2.01172E-13
 -1      3897 1.45601E+01-3.92325E-01 8.93802E-02 3.38110E+00 1.24740E-13-1.20900E-13
 -1      3898 1.42979E+01 1.13390E-01 2.04080E-02 2.59688E+00 3.53320E-14-1.12558E-13
 -1      3899 1.37930E+01 7.03191E-01-5.87480E-03 1.33766E+00 3.07493E-14-1.62859E-13
 -1      3900 1.96865E+01 4.81886E-01-1.85647E-04-1.48518E-01 1.13853E-13-1.96897E-14
 -1      3901 1.96642E+01 4.94017E-01-1.43286E-03-9.53426E-02 1.17336E-13-1.16065E-13
 -1      3902 1.96092E+01 5.42866E-01 1.47681E-03-6.84447E-02 4.80069E-14 4.94575E-14
 -1      3903 1.78148E+01-9.66015E-01-5.99049E-04-3.11691E+00 2.70294E-13 1.42220E-13
 -1      3904 2.03012E+01 1.22939E+00-1.76066E-03 1.96981E-01 6.41376E-14-2.84486E-13
 -1      3905 2.03026E+01 1.23582E+00-2.86686E-03 1.47777E-01 5.31394E-14-3.02382E-13
 -1      3906 2.03342E+01 1.06150E+00 2.61282E-03 1.54456E-01 8.97177E-14-2.58580E-13
 -1      3907 2.03433E+01 1.08590E+00 4.47747E-03 8.82597E-02 3.10395E-14-3.03526E-13
 -1      3908 1.91960E+01 6.90049E-01 2.41927E-03-9.62765E-01 6.12435E-15 1.00490E-14
 -1      3909 1.67860E+01-3.05043E-01 4.22196E-02-2.94651E+00 2.48702E-13 2.83090E-13
 -1      3910 2.00872E+01 3.25364E-01-8.20814E-04 2.40243E-01 4.07172E-16-1.70278E-13
 -1      3911 2.00311E+01 3.40635E-01-1.18820E-04 2.68728E-01-1.18549E-15-1.48956E-13
 -1      3912 1.99568E+01 3.64959E-01-1.25509E-03 2.89958E-01-3.28895E-14-1.37975E-13
 -1      3913 1.98915E+01 3.98282E-01-1.23819E-05 3.20068E-01-6.76660E-14-1.18723E-13
 -1      3914 1.99837E+01 3.78787E-01 1.34011E-03 2.20771E-01-9.83527E-15-1.62990E-13
 -1      3915 1.98027E+01 4.37606E-01-1.76789E-03 3.44492E-01-9.21632E-14-8.32410E-14
 -1      3916 1.97267E+01 4.83492E-01-1.29263E-05 3.78887E-01-9.86620E-14-8.45317E-14
 -1      3917 1.98246E+01 4.46822E-01 1.77324E-03 2.63112E-01-8.41899E-14-1.39668E-13
 -1      3918 1.96214E+01 5.32369E-01-2.38954E-03 4.08435E-01-6.76470E-14-5.19826E-14
 -1      3919 1.95327E+01 5.85643E-01-2.89886E-05 4.49379E-01-2.11431E-14 2.51901E-14
 -1      3920 1.96362E+01 5.42104E-01 2.38832E-03 3.12446E-01-2.73097E-14-8.51062E-14
 -1      3921 1.94074E+01 6.38462E-01-3.14190E-03 4.86384E-01-6.54802E-14 7.69555E-15
 -1      3922 1.93038E+01 6.92942E-01-2.11100E-05 5.36400E-01-8.17809E-14-3.72472E-14
 -1      3923 1.94127E+01 6.53382E-01 3.00641E-03 3.71771E-01-6.86648E-14-6.54847E-14
 -1      3924 1.91540E+01 7.42841E-01-4.09076E-03 5.83333E-01-4.69823E-14-6.96475E-14
 -1      3925 1.90334E+01 7.91311E-01 1.40742E-04 6.45610E-01-3.81324E-14-7.08789E-14
 -1      3926 1.91472E+01 7.69244E-01 3.98531E-03 4.46229E-01-9.24752E-14-1.66668E-13
 -1      3927 1.88527E+01 8.29883E-01-5.42274E-03 7.06614E-01-2.81079E-14-5.42577E-14
 -1      3928 1.87138E+01 8.63135E-01 5.55174E-04 7.86230E-01-5.88629E-14-6.94397E-14
 -1      3929 1.88290E+01 8.75809E-01 5.18390E-03 5.41343E-01-2.37457E-14-1.36610E-13
 -1      3930 1.84941E+01 8.79414E-01-7.36095E-03 8.67940E-01-8.55879E-14-2.80751E-14
 -1      3931 1.83376E+01 8.86112E-01 1.62360E-03 9.73302E-01-8.18540E-14-2.32898E-14
 -1      3932 1.84451E+01 9.56381E-01 6.62148E-03 6.67548E-01-6.43238E-14-1.02723E-13
 -1      3933 1.80671E+01 8.65248E-01-1.02547E-02 1.08795E+00 6.65554E-15-1.13121E-14
 -1      3934 1.78959E+01 8.28232E-01 3.00395E-03 1.23359E+00 1.00174E-13-9.32951E-15
 -1      3935 1.79779E+01 9.91149E-01 8.57449E-03 8.41381E-01-1.06026E-14 5.02180E-14
 -1      3936 1.75599E+01 7.55857E-01-1.28091E-02 1.39831E+00 1.05874E-13-3.44104E-15
 -1      3937 1.73807E+01 6.46270E-01 5.11394E-03 1.61229E+00 1.02089E-13-3.11795E-14
 -1      3938 1.74052E+01 9.50213E-01 1.13594E-02 1.09495E+00 1.02695E-13 5.41611E-14
 -1      3939 1.69559E+01 4.93969E-01-1.67770E-02 1.85772E+00 1.16692E-13-9.39823E-14
 -1      3940 1.67762E+01 2.56622E-01 2.51484E-03 2.19311E+00 8.39996E-14-1.43661E-13
 -1      3941 1.66649E+01 7.79006E-01 1.20169E-03 1.48813E+00 6.28089E-14-2.56037E-14
 -1      3942 2.02983E+01 1.29038E+00-2.44792E-03 2.72835E-02 1.34539E-14-3.41203E-13
 -1      3943 2.02974E+01 1.29054E+00-2.61827E-03-2.51644E-02-1.76281E-14-3.26640E-13
 -1      3944 2.03457E+01 1.10454E+00 4.71702E-03 3.00609E-02 2.23288E-14-3.17181E-13
 -1      3945 1.74656E+01-1.25465E-02 3.71521E-03 2.40948E+00-5.34493E-13 2.19484E-13
 -1      3946 1.99486E+01 3.30279E-01 9.25607E-04-5.01390E-01 8.14907E-14-5.68117E-14
 -1      3947 1.99823E+01 2.99085E-01-1.36465E-03-4.59972E-01 9.42628E-14-6.34621E-14
 -1      3948 1.99916E+01 3.21685E-01 7.31929E-04-4.03838E-01 5.93217E-14-1.05633E-13
 -1      3949 1.98738E+01 3.87179E-01 1.05198E-03-4.77850E-01 6.41516E-14 7.69125E-15
 -1      3950 1.82309E+01 7.39029E-01-9.00621E-03 1.34277E+00-1.54831E-14 3.12674E-13
 -1      3951 1.81372E+01 6.49189E-01 6.94455E-03 1.51449E+00 8.37278E-15 3.46316E-13
 -1      3952 1.73106E+01 6.51069E-01 9.30475E-03-1.64925E+00-1.91396E-14 1.14510E-13
 -1      3953 1.74561E+01 7.67279E-01-1.54107E-02-1.43293E+00-5.70746E-14 1.15227E-13
 -1      3954 1.77996E+01 8.61307E-01 3.72641E-03-1.25441E+00-1.46677E-13 2.48665E-14
 -1      3955 1.79682E+01 9.10447E-01-1.04084E-02-1.09831E+00-1.64721E-13-1.82522E-14
 -1      3956 1.72830E+01 9.86750E-01 1.11142E-02-1.11900E+00-1.36652E-13 3.82736E-14
 -1      3957 1.82392E+01 9.42376E-01 1.56934E-03-9.75942E-01-9.39873E-14-1.10335E-13
 -1      3958 1.83931E+01 9.46200E-01-7.40139E-03-8.61838E-01-4.46899E-14-6.70634E-14
 -1      3959 1.78643E+01 1.04802E+00 8.20972E-03-8.48159E-01-1.42974E-13-5.91741E-14
 -1      3960 1.86092E+01 9.39164E-01 4.01422E-04-7.74066E-01 5.03456E-14-1.26247E-13
 -1      3961 1.87432E+01 9.15074E-01-5.46588E-03-6.86913E-01 1.34042E-13-2.48074E-14
 -1      3962 1.83294E+01 1.03338E+00 6.61410E-03-6.60480E-01-2.35742E-14-8.98934E-14
 -1      3963 1.89170E+01 8.84386E-01-9.54311E-05-6.19741E-01 1.73516E-13 6.85057E-15
 -1      3964 1.90306E+01 8.43027E-01-4.21508E-03-5.50314E-01 9.31104E-14 7.46221E-14
 -1      3965 1.87030E+01 9.70299E-01 5.07730E-03-5.23924E-01 2.31345E-13-3.99743E-14
 -1      3966 1.91709E+01 7.98727E-01-2.84284E-04-4.97686E-01-2.41582E-14 1.59210E-13
 -1      3967 1.92649E+01 7.48997E-01-3.33420E-03-4.41060E-01-1.02512E-14 1.70007E-13
 -1      3968 1.90059E+01 8.77441E-01 4.03916E-03-4.17746E-01 1.42670E-13 2.50636E-13
 -1      3969 1.93776E+01 6.99511E-01-1.67294E-04-3.98830E-01 3.71231E-14 2.00384E-13
 -1      3970 1.94538E+01 6.47142E-01-2.56796E-03-3.51741E-01 2.93460E-14 1.95077E-13
 -1      3971 1.92502E+01 7.69871E-01 3.14520E-03-3.34223E-01 4.06444E-14 1.44465E-13
 -1      3972 1.95434E+01 5.97650E-01-3.62967E-05-3.17620E-01-3.04271E-14 4.37433E-14
 -1      3973 1.96029E+01 5.48796E-01-1.78350E-03-2.78539E-01-1.30183E-14-2.12054E-14
 -1      3974 1.94441E+01 6.59709E-01 2.12299E-03-2.67123E-01-8.31182E-14 2.62261E-14
 -1      3975 1.86674E+01 7.81093E-01 2.93058E-03-1.08630E+00-3.90818E-14 7.47818E-14
 -1      3976 1.87778E+01 7.83245E-01-6.15428E-03-9.78201E-01-5.01950E-15 1.26608E-13
 -1      3977 2.03565E+01 7.51658E-01-2.59006E-03-2.64873E-02-9.43748E-14-2.40924E-13
 -1      3978 2.03481E+01 6.29604E-01-2.07385E-03 3.23365E-02-7.97240E-14-2.39340E-13
 -1      3979 1.64753E+01 1.54581E-01 1.60054E-02-2.38552E+00 1.98059E-13 2.17690E-13
 -1      3980 1.96108E+01 5.42180E-01 1.77945E-03 6.96862E-02-2.27311E-14 7.16244E-14
 -1      3981 1.96652E+01 4.93549E-01-1.19768E-03 9.58251E-02 1.10639E-13 3.65839E-14
 -1      3982 1.96882E+01 4.81582E-01 9.95401E-05 1.49724E-01 4.63842E-15 3.15274E-13
 -1      3983 1.77094E+01 7.17387E-02 1.84810E-02-2.24776E+00-3.88211E-14-1.12838E-13
 -1      3984 1.77176E+01 3.07076E-01-1.20139E-02-1.97779E+00-4.21249E-14-8.93906E-14
 -1      3985 1.85656E+01 8.35211E-01-6.91367E-03 1.06140E+00 1.61782E-13 2.21475E-13
 -1      3986 1.84609E+01 8.04886E-01 4.25384E-03 1.19068E+00 8.17932E-14 3.39717E-13
 -1      3987 1.80364E+01 9.09074E-01 6.90358E-03 1.12294E+00 3.49664E-14 3.05487E-13
 -1      3988 1.78670E+01 5.17229E-01-9.19768E-03 1.72988E+00-1.43777E-13 2.34138E-13
 -1      3989 1.78311E+01 3.28382E-01 1.41158E-02 1.96441E+00-3.64692E-13 1.10108E-13
 -1      3990 1.75613E+01 7.62799E-01 7.08470E-03 1.46895E+00-1.36562E-13 2.30011E-14
 -1      3991 2.01956E+01 3.30031E-01-4.62086E-04 1.90132E-01-5.45476E-14-1.45749E-13
 -1      3992 2.01483E+01 3.21418E-01-3.43812E-04 2.19908E-01-4.33135E-14-1.45021E-13
 -1      3993 2.01169E+01 3.48954E-01 1.02666E-03 1.80988E-01-1.26672E-14-1.34631E-13
 -1      3994 1.93211E+01 7.18146E-01-3.51474E-03 5.46798E-01 1.88833E-13 3.25471E-13
 -1      3995 1.92424E+01 7.60935E-01 4.09669E-04 6.13937E-01 2.31934E-13 1.99793E-13
 -1      3996 1.94926E+01 6.27532E-01-2.75640E-03 4.36788E-01 7.40006E-14 2.84871E-13
 -1      3997 1.94276E+01 6.74769E-01 2.14366E-04 4.92738E-01 1.15803E-13 3.03852E-13
 -1      3998 1.92818E+01 7.52425E-01 3.43230E-03 4.42505E-01 1.45152E-13 5.98675E-13
 -1      3999 1.96310E+01 5.35117E-01-1.96376E-03 3.46149E-01 2.04581E-13-1.33600E-13
 -1      4000 1.95783E+01 5.81521E-01 1.90960E-04 3.92631E-01 1.59365E-13 1.93879E-13
 -1      4001 1.94659E+01 6.50381E-01 2.61937E-03 3.52292E-01 1.83542E-13 2.63758E-13
 -1      4002 1.97152E+01 4.65624E-01-1.13008E-03-2.35479E-01 1.68627E-13-5.50843E-14
 -1      4003 1.40093E+01 8.26373E-01 1.45543E-02-1.17218E+00-8.43401E-15-1.91435E-13
 -1      4004 1.47855E+01 3.82349E-01-3.92685E-03-2.17473E+00-5.93197E-14-1.38023E-13
 -1      4005 2.01814E+01 2.84886E-01 3.45741E-04-2.71199E-01 7.07794E-14-1.45769E-13
 -1      4006 2.01892E+01 2.55098E-01-1.07293E-04-2.84856E-01 6.25704E-14-1.55356E-13
 -1      4007 2.02180E+01 2.77606E-01 3.96008E-04-2.42703E-01 5.75487E-14-1.45703E-13
 -1      4008 1.89610E+01 7.73843E-01 1.64105E-03-8.86240E-01 6.40994E-15 8.42520E-14
 -1      4009 1.90654E+01 7.46486E-01-4.76647E-03-8.01923E-01-1.11946E-14 5.68861E-14
 -1      4010 1.86880E+01 8.66860E-01 5.14267E-03-8.05728E-01-3.82138E-14 1.27641E-13
 -1      4011 1.80119E+01 4.90073E-01 1.04488E-02-1.72229E+00-1.12840E-13-6.78153E-14
 -1      4012 1.80907E+01 6.10976E-01-1.03251E-02-1.52852E+00-9.39508E-14-5.10156E-14
 -1      4013 1.73373E+01 6.13594E-01 8.57283E-03-1.69965E+00-6.11185E-14-8.67591E-14
 -1      4014 1.83454E+01 7.02695E-01 5.70641E-03-1.35249E+00-5.39349E-14 1.58395E-14
 -1      4015 1.84517E+01 7.50616E-01-7.97571E-03-1.21023E+00-2.39368E-14 7.87603E-14
 -1      4016 1.83069E+01 8.80038E-01 5.86185E-03-1.00648E+00-3.14321E-14 1.61060E-13
 -1      4017 1.91112E+01 7.95645E-01-4.41463E-03 6.81318E-01 1.45050E-13 6.44863E-14
 -1      4018 1.90194E+01 8.26184E-01 9.07695E-04 7.62926E-01 1.31186E-13 1.16506E-13
 -1      4019 1.90533E+01 8.45993E-01 3.97239E-03 5.53458E-01 1.21770E-13 2.36138E-13
 -1      4020 1.62185E+01-5.86435E-01 7.24158E-03-3.23570E+00-1.57313E-13-1.40147E-13
 -1      4021 1.75625E+01-6.68429E-01 3.13750E-02-2.99611E+00-1.01363E-13-1.71809E-13
 -1      4022 2.03379E+01 9.28314E-01-2.15391E-03 1.03653E-01 8.52726E-14-2.51548E-13
 -1      4023 2.03491E+01 9.24568E-01 2.20503E-04 6.67748E-02 6.88452E-14-2.59998E-13
 -1      4024 2.03493E+01 9.19077E-01-2.71779E-03 4.09657E-02 4.59790E-14-2.83615E-13
 -1      4025 1.97199E+01 4.56146E-01-1.48845E-03 1.98362E-01 1.17133E-13 1.70452E-13
 -1      4026 1.97660E+01 4.28115E-01-1.33150E-04 2.44108E-01 1.38499E-13-3.88887E-13
 -1      4027 1.97382E+01 4.55008E-01 2.56921E-05 2.72408E-01 1.21072E-13-3.41913E-13
 -1      4028 1.96569E+01 5.09411E-01 5.27872E-04 1.87320E-01 1.11738E-13-7.02685E-14
 -1      4029 2.02493E+01 3.13693E-01-7.13522E-04-2.03388E-01 5.07546E-14-1.75486E-13
 -1      4030 2.02766E+01 3.66979E-01 1.03915E-03-1.50447E-01 4.38501E-14-1.72288E-13
 -1      4031 2.03095E+01 4.56115E-01 4.34110E-04-1.05942E-01 4.92429E-14-2.27514E-13
 -1      4032 2.02546E+01 3.36950E-01 3.34525E-04-1.97105E-01 4.02056E-14-2.15761E-13
 -1      4033 1.66447E+01 4.43074E-01-5.11808E-03-2.02632E+00 8.69458E-14 1.18790E-13
 -1      4034 1.45754E+01 5.64342E-01 5.27957E-02 1.96742E+00 1.64951E-14-1.29339E-13
 -1      4035 1.47334E+01 7.87344E-01 8.12898E-03 1.29537E+00 1.59274E-14-1.57768E-13
 -1      4036 1.56416E+01-5.01785E-02 1.31578E-02-2.73508E+00-1.26364E-13-1.63106E-13
 -1      4037 1.68856E+01 3.37489E-01-7.26389E-03 2.11817E+00-4.47613E-13-7.22348E-14
 -1      4038 1.88601E+01 8.42537E-01-5.49688E-03 8.48185E-01 6.85977E-14 1.92714E-13
 -1      4039 1.87580E+01 8.50585E-01 2.11666E-03 9.49293E-01 1.48337E-13 1.40347E-13
 -1      4040 1.84387E+01 9.47900E-01 5.91601E-03 8.75746E-01 1.91662E-13 1.11528E-13
 -1      4041 1.87749E+01 9.17616E-01 4.80275E-03 6.94055E-01 1.79111E-13 6.74855E-14
 -1      4042 1.43569E+01 1.02404E+00 2.27972E-02 7.77849E-01-1.47151E-13 1.61876E-14
 -1      4043 1.44304E+01 1.03971E+00-1.40611E-02-2.81973E-01 6.44797E-15-4.37315E-14
 -1      4044 1.53751E+01 9.47830E-01 2.47790E-02 1.06554E+00-2.09255E-13-7.80450E-14
 -1      4045 1.46568E+01 1.03006E+00-1.65524E-02 1.07030E-01-1.35265E-14-1.89318E-13
 -1      4046 1.42605E+01 1.00650E+00 2.83234E-02-5.59443E-01-3.06526E-15-1.94681E-13
 -1      4047 1.51263E+01 9.61860E-01 1.52314E-02-8.93569E-01-4.56189E-14-1.82173E-13
 -1      4048 1.74102E+01-2.52539E-01-7.79441E-03-2.61977E+00-8.19700E-14-1.48713E-13
 -1      4049 1.67541E+01 1.73375E-01-2.84768E-03-2.32853E+00-4.58735E-14-1.38448E-13
 -1      4050 2.03563E+01 7.89155E-01 1.45227E-03 5.07161E-02 7.92321E-14-2.39084E-13
 -1      4051 1.56922E+01 3.66923E-01 2.09858E-02-2.14527E+00-5.58945E-14-9.48209E-14
 -1      4052 1.62958E+01-1.68659E-01 8.99668E-03 2.79874E+00 7.85873E-15-1.66833E-13
 -1      4053 2.03461E+01 1.10883E+00 4.83725E-03-2.10992E-02-1.66368E-14-2.99781E-13
 -1      4054 2.02993E+01 1.27962E+00-2.45570E-03-5.33988E-02-2.15253E-14-3.10906E-13
 -1      4055 2.03047E+01 1.25070E+00-3.73792E-03-9.69599E-02-5.30921E-14-3.01159E-13
 -1      4056 2.03531E+01 9.36542E-01-1.52669E-03 2.78926E-02 2.35748E-14-3.07542E-13
 -1      4057 2.03513E+01 9.50094E-01-2.20025E-03 6.21067E-03 1.81493E-15-3.12143E-13
 -1      4058 1.63005E+01 7.66586E-01 1.30682E-02-1.60590E+00 2.38427E-14 3.28535E-14
 -1      4059 1.78589E+01 8.12064E-01 7.26875E-03-1.28789E+00-3.12989E-14 5.10202E-14
 -1      4060 1.59943E+01 5.98024E-01-1.07538E-02-1.77893E+00-4.69720E-14-1.14174E-13
 -1      4061 1.95451E+01 5.81951E-01-5.14238E-04-1.10380E-01-7.05147E-15 1.95329E-13
 -1      4062 1.95299E+01 5.89192E-01-1.13521E-03-4.16323E-02-1.51294E-13 1.05248E-13
 -1      4063 2.03516E+01 6.15812E-01-7.10993E-04 3.54765E-02-6.81391E-14-2.36833E-13
 -1      4064 2.03398E+01 5.27829E-01 5.48546E-04 6.32997E-02-5.85259E-14-2.33295E-13
 -1      4065 2.03118E+01 4.49609E-01-1.30047E-03 1.06854E-01-6.77894E-14-2.12462E-13
 -1      4066 1.94444E+01 6.25106E-01 6.44158E-04-6.10291E-01 4.60582E-14 6.43792E-14
 -1      4067 1.95268E+01 5.75573E-01-2.93405E-03-5.55553E-01 2.86651E-14 4.74917E-14
 -1      4068 1.96375E+01 5.27492E-01 5.18859E-04-5.12623E-01 4.44223E-14 4.29194E-14
 -1      4069 1.97074E+01 4.78481E-01-2.96249E-03-4.68176E-01 8.23956E-14 6.91935E-14
 -1      4070 1.95186E+01 5.96714E-01 3.12272E-03-4.52141E-01 3.87327E-14 6.23617E-14
 -1      4071 2.03541E+01 9.46335E-01 3.06593E-03-5.73393E-02-8.38635E-14-2.56424E-13
 -1      4072 2.03563E+01 9.11056E-01 1.79935E-03-3.01263E-02-8.19336E-14-2.56594E-13
 -1      4073 1.95291E+01 5.90150E-01-1.05760E-03 4.37477E-02-9.98656E-15-1.67682E-14
 -1      4074 1.95451E+01 5.82520E-01-8.53386E-06 1.12673E-01 7.86692E-14 7.93370E-14
 -1      4075 1.94630E+01 6.37410E-01 2.56309E-05 2.16115E-03-1.14760E-13-1.57896E-15
 -1      4076 2.03460E+01 6.52391E-01-2.30384E-03-1.61565E-02 5.99194E-14-2.24200E-13
 -1      4077 2.03136E+01 1.23938E+00 4.22372E-03-1.53983E-01-7.20660E-14-2.60130E-13
 -1      4078 2.02429E+01 3.52942E-01-7.23870E-04 1.68302E-01-4.37321E-14-1.45097E-13
 -1      4079 2.02250E+01 3.69597E-01 9.27342E-04 1.39947E-01-5.90352E-14-1.70198E-13
 -1      4080 2.02810E+01 3.92730E-01 1.30509E-05 1.33733E-01-6.97152E-14-1.68733E-13
 -1      4081 2.01678E+01 3.01296E-01-2.17395E-04-2.49101E-01 6.13970E-14-2.01137E-13
 -1      4082 2.02090E+01 3.14641E-01-1.63648E-04-2.14971E-01 3.89036E-14-2.36359E-13
 -1      4083 1.97069E+01 4.83285E-01-4.67298E-05 3.03479E-01 1.40898E-13-1.39164E-13
 -1      4084 2.00651E+01 3.10979E-01-5.77897E-05-3.06349E-01 3.35182E-14-1.13660E-13
 -1      4085 2.01129E+01 3.00552E-01-6.80576E-04-2.74311E-01 6.14667E-14-1.33235E-13
 -1      4086 2.01417E+01 3.30239E-01 8.90708E-04-2.18467E-01 2.02855E-14-1.97193E-13
 -1      4087 1.51483E+01 1.73191E-01-1.44608E-02 2.45485E+00 1.43110E-14-1.28390E-13
 -1      4088 1.58388E+01 6.64835E-01 2.95573E-02 1.80769E+00 4.98586E-14-1.54683E-13
 -1      4089 1.63771E+01 1.88163E-01 1.62631E-04 2.31374E+00 3.65472E-14-1.76264E-13
 -1      4090 1.92198E+01 7.13412E-01 9.37696E-04-7.32072E-01 4.48740E-15 8.47432E-14
 -1      4091 1.93140E+01 6.69991E-01-3.70776E-03-6.64693E-01 4.20040E-14 7.33188E-14
 -1      4092 1.92852E+01 7.02971E-01 3.32594E-03-5.42413E-01 3.30811E-14 1.53311E-13
 -1      4093 1.50320E+01 1.08247E+00 3.98744E-02-7.88008E-01-1.14585E-14-4.23086E-14
 -1      4094 1.56490E+01 8.57735E-01-6.86571E-03-1.29316E+00 6.59954E-14-1.01967E-13
 -1      4095 1.63486E+01 9.97237E-01-1.92723E-02-1.01404E+00-1.24062E-13-3.58932E-14
 -1      4096 1.54400E+01 1.13711E+00-1.99688E-03-2.45204E-01-7.01683E-14-6.11690E-14
 -1      4097 1.96513E+01 5.18932E-01 8.72056E-04-2.27467E-01 2.89307E-14-1.35822E-14
 -1      4098 2.03684E+01 8.03520E-01 3.29744E-03 1.31891E-02 4.04691E-14-2.70258E-13
 -1      4099 1.96219E+01 5.41357E-01 1.27079E-03 2.70667E-01 2.21035E-13 4.98644E-14
 -1      4100 1.90116E+01 7.99250E-01 4.19716E-03-6.56650E-01 2.06739E-14 1.09710E-13
 -1      4101 2.03500E+01 9.52860E-01-2.36806E-03-2.39138E-03-1.33227E-14-2.84229E-13
 -1      4102 2.03483E+01 9.41964E-01-3.84925E-03-1.94026E-02-5.14399E-14-2.78924E-13
 -1      4103 2.03744E+01 8.20033E-01 5.01345E-03 3.31687E-03-4.48139E-15-2.62465E-13
 -1      4104 1.95771E+01 5.63986E-01-7.86497E-04 2.20542E-01 2.03967E-13 1.13606E-13
 -1      4105 1.98477E+01 4.34510E-01-1.35821E-03 1.73306E-01-6.20328E-14-1.83762E-13
 -1      4106 1.97604E+01 4.77581E-01-6.77634E-04 1.93430E-01-6.36562E-14-1.67274E-13
 -1      4107 1.96555E+01 5.25774E-01-1.74218E-03 2.05554E-01-5.54347E-14-1.62762E-13
 -1      4108 1.95512E+01 5.79736E-01-1.25407E-03 2.28003E-01-2.64629E-14-1.35278E-13
 -1      4109 1.96970E+01 5.22310E-01 3.26913E-03 1.13937E-01-5.39800E-14-1.78587E-13
 -1      4110 1.94248E+01 6.37496E-01-2.76401E-03 2.45170E-01-4.70001E-14-1.79219E-13
 -1      4111 1.93034E+01 6.98172E-01-1.12380E-03 2.72793E-01-1.03985E-13-2.07134E-13
 -1      4112 1.94679E+01 6.39205E-01 5.44918E-03 1.37018E-01-5.92559E-14-2.56883E-13
 -1      4113 1.91508E+01 7.56673E-01-3.94040E-03 2.93490E-01-9.94742E-14-1.88654E-13
 -1      4114 1.90062E+01 8.17646E-01-1.60741E-03 3.27266E-01-4.68209E-14-1.48020E-13
 -1      4115 1.92007E+01 7.65219E-01 8.34207E-03 1.63384E-01-5.11267E-14-2.07901E-13
 -1      4116 1.88207E+01 8.72676E-01-5.25531E-03 3.54653E-01-2.02490E-14-1.59940E-13
 -1      4117 1.86465E+01 9.26985E-01-2.16554E-03 3.97919E-01-1.99698E-14-1.18045E-13
 -1      4118 1.88757E+01 8.94319E-01 1.13942E-02 1.96574E-01-4.28336E-14-1.61992E-13
 -1      4119 1.84172E+01 9.71120E-01-7.23291E-03 4.34954E-01 4.23544E-15-1.05109E-13
 -1      4120 1.82071E+01 1.01078E+00-2.55178E-03 4.93512E-01 2.59025E-14-3.09754E-14
 -1      4121 1.84783E+01 1.01344E+00 1.49654E-02 2.39457E-01 5.30825E-15-1.15787E-13
 -1      4122 1.79172E+01 1.03537E+00-1.01185E-02 5.46862E-01 2.65392E-14 3.79843E-14
 -1      4123 1.76646E+01 1.05124E+00-1.66175E-03 6.33139E-01 3.81079E-14 8.46908E-14
 -1      4124 1.79764E+01 1.10496E+00 1.58002E-02 2.94658E-01 8.77229E-14-3.66202E-14
 -1      4125 1.72858E+01 1.04938E+00-1.26095E-02 7.01234E-01 4.98429E-15 7.05979E-14
 -1      4126 1.69465E+01 1.01814E+00-7.55117E-03 8.37583E-01 7.60907E-14-2.25246E-14
 -1      4127 1.73534E+01 1.13895E+00 1.36416E-02 3.77807E-01 3.67250E-14 2.52888E-14
 -1      4128 1.68591E+01 1.05764E+00-7.60238E-04-8.88185E-01-1.78824E-13-1.73843E-14
 -1      4129 1.71816E+01 1.08604E+00-1.32094E-02-7.46069E-01-1.35570E-13-2.07019E-14
 -1      4130 1.64033E+01 1.17059E+00 1.81402E-02-5.91161E-01-1.02835E-13-1.04537E-13
 -1      4131 2.01432E+01 3.54784E-01-9.90632E-04 1.16247E-01-2.75957E-14-1.59698E-13
 -1      4132 2.00833E+01 3.59161E-01-2.54332E-04 1.35585E-01 1.61729E-14-1.76261E-13
 -1      4133 1.95723E+01 5.67570E-01-1.03752E-04-1.85490E-01-9.17582E-15-3.72338E-14
 -1      4134 1.94967E+01 6.21483E-01 1.09678E-03-1.60903E-01-2.05659E-13 1.30132E-13
 -1      4135 1.75580E+01 1.10384E+00-1.55208E-03-6.63373E-01-1.06775E-13-1.34529E-13
 -1      4136 1.78145E+01 1.09920E+00-8.46109E-03-5.70255E-01-1.71811E-13-4.19435E-14
 -1      4137 1.72402E+01 1.18923E+00 1.15133E-02-4.39003E-01-2.07764E-13-1.20622E-13
 -1      4138 1.80995E+01 1.08266E+00-1.77143E-03-5.13345E-01-1.34050E-13 1.47405E-14
 -1      4139 1.83018E+01 1.05172E+00-7.81682E-03-4.50238E-01 1.31813E-13 7.01400E-14
 -1      4140 1.78738E+01 1.15981E+00 1.12940E-02-3.37819E-01-1.12610E-13 6.24633E-14
 -1      4141 1.85252E+01 1.01924E+00-1.85242E-03-4.03090E-01 2.53464E-13 7.00462E-14
 -1      4142 1.86926E+01 9.72766E-01-4.95995E-03-3.54566E-01 2.74630E-13 1.38187E-13
 -1      4143 1.83508E+01 1.10055E+00 1.21343E-02-2.58664E-01 1.97257E-13 1.43578E-13
 -1      4144 1.88673E+01 9.23526E-01-1.91221E-03-3.21471E-01 2.19249E-13 1.24314E-13
 -1      4145 1.90037E+01 8.68436E-01-3.66824E-03-2.83287E-01 1.07956E-13 1.38133E-13
 -1      4146 1.87389E+01 9.96507E-01 1.05553E-02-2.07222E-01 2.78386E-13 2.05584E-14
 -1      4147 1.91421E+01 8.14425E-01-1.29696E-03-2.56891E-01-2.57914E-14 2.56700E-13
 -1      4148 1.92533E+01 7.56381E-01-2.05155E-03-2.24709E-01-1.69049E-15 2.08350E-13
 -1      4149 1.90385E+01 8.75970E-01 6.10239E-03-1.68655E-01 3.52314E-14-9.13858E-15
 -1      4150 1.93362E+01 7.14251E-01-8.37109E-04-2.05355E-01-5.08084E-14 1.91890E-13
 -1      4151 1.94233E+01 6.59566E-01-1.74020E-03-1.80437E-01-1.81498E-13 1.26186E-13
 -1      4152 1.94005E+01 6.80001E-01 1.46957E-03-9.90287E-02-1.50555E-13 1.79965E-13
 -1      4153 1.92578E+01 7.65802E-01 3.97883E-03-1.33972E-01-4.44940E-14 5.20205E-14
 -1      4154 1.53894E+01 7.98043E-01-1.72213E-02 1.36338E+00-1.75714E-14-1.95352E-13
 -1      4155 1.49266E+01 1.04159E+00 2.79911E-02 7.57351E-01 6.27504E-15-2.18349E-13
 -1      4156 2.03237E+01 1.09638E+00 1.56426E-04-1.14019E-01-8.20004E-14-2.61718E-13
 -1      4157 1.78698E+01 1.01636E+00-9.66206E-03 8.23382E-01 8.24504E-14 6.74170E-14
 -1      4158 1.76552E+01 9.97664E-01 1.35375E-03 9.53121E-01-2.60500E-14 8.70716E-14
 -1      4159 1.72884E+01 9.53738E-01-1.23905E-02 1.08586E+00-2.16890E-13-1.08799E-13
 -1      4160 1.70658E+01 8.93334E-01 1.14922E-02 1.26936E+00-3.79159E-13-2.93513E-13
 -1      4161 1.72244E+01 1.11439E+00 1.06539E-02 7.63784E-01-2.83141E-13-4.04392E-13
 -1      4162 1.91395E+01 7.60548E-01-8.04680E-04-4.42836E-01 9.42898E-15 5.84048E-14
 -1      4163 1.92647E+01 7.03085E-01-3.62058E-03-3.99199E-01 1.91567E-14 3.28091E-14
 -1      4164 1.94456E+01 6.47539E-01-1.76003E-03 2.54994E-01 1.95873E-13 2.19789E-14
 -1      4165 1.93636E+01 7.01081E-01-5.10082E-04 2.90567E-01 2.07036E-13-2.44549E-14
 -1      4166 1.92525E+01 7.52775E-01-3.10039E-03 3.21242E-01 1.99262E-13 5.76458E-15
 -1      4167 1.91486E+01 8.06451E-01-1.48402E-03 3.63598E-01 1.29368E-13 3.16432E-14
 -1      4168 1.92628E+01 7.64931E-01 4.65874E-03 2.19303E-01 1.88644E-13-4.06282E-13
 -1      4169 1.88226E+01 8.62356E-01-9.56875E-04-5.38809E-01 3.71519E-14 5.31845E-14
 -1      4170 1.89699E+01 8.11729E-01-5.00531E-03-4.83598E-01 5.34999E-14 7.96609E-14
 -1      4171 1.89925E+01 8.41753E-01 9.11915E-03-3.29353E-01 1.54735E-14-3.38168E-14
 -1      4172 1.74226E+01 9.13635E-01 2.69402E-03-1.10016E+00-2.81567E-14-4.57154E-14
 -1      4173 1.76611E+01 9.46182E-01-1.04856E-02-9.47479E-01-2.75953E-14 3.22206E-14
 -1      4174 1.84422E+01 9.37161E-01-6.15130E-04-6.66121E-01-3.77906E-14 5.57808E-14
 -1      4175 1.86149E+01 9.01749E-01-6.87815E-03-5.93040E-01 1.96480E-14 8.36761E-14
 -1      4176 1.86320E+01 9.54835E-01 1.23246E-02-4.03918E-01 1.66702E-14 3.63357E-14
 -1      4177 1.67439E+01 7.52746E-01 8.46933E-03-1.47706E+00-1.03789E-14-1.33224E-13
 -1      4178 1.69964E+01 8.40047E-01-1.78589E-02-1.25417E+00 8.90997E-15-2.96713E-14
 -1      4179 1.69194E+01 1.03136E+00 8.32011E-03-8.67356E-01 1.90790E-14-1.06346E-13
 -1      4180 2.02392E+01 3.61247E-01 9.43143E-04-1.66221E-01 1.21617E-14-2.76355E-13
 -1      4181 2.02510E+01 3.41975E-01-7.20950E-04-1.87142E-01 2.01798E-14-2.46476E-13
 -1      4182 2.02858E+01 3.85066E-01 2.71785E-05-1.46138E-01 1.47945E-14-2.63984E-13
 -1      4183 2.03720E+01 7.81170E-01 3.98611E-03-5.97547E-03-8.63955E-14-2.29019E-13
 -1      4184 1.57963E+01 8.98202E-01 1.50458E-02-1.26621E+00-5.12951E-14-1.24669E-13
 -1      4185 2.00095E+01 3.73751E-01-1.04437E-03 1.44354E-01-4.18014E-16-1.80568E-13
 -1      4186 1.99363E+01 3.99886E-01-5.09308E-04 1.62990E-01-4.21013E-14-1.91765E-13
 -1      4187 2.00448E+01 3.82721E-01 1.54478E-03 7.87466E-02 7.90871E-16-2.40624E-13
 -1      4188 1.90068E+01 8.57355E-01-4.81326E-03 4.03963E-01 9.16402E-14 1.00860E-13
 -1      4189 1.88829E+01 9.07173E-01-1.01253E-03 4.57465E-01 6.19477E-14 1.30348E-16
 -1      4190 1.90169E+01 8.88697E-01 9.05460E-03 2.79735E-01 1.26998E-13-4.50999E-13
 -1      4191 1.65071E+01 6.43412E-01-1.09208E-02 1.72109E+00-3.56652E-13-2.42695E-13
 -1      4192 2.03415E+01 5.44408E-01 1.10492E-03-5.43543E-02 4.55569E-14-2.39580E-13
 -1      4193 2.03551E+01 6.58949E-01 2.61927E-04-2.18715E-02 5.42889E-14-2.26810E-13
 -1      4194 2.03156E+01 4.59572E-01-1.24885E-03-1.06985E-01 3.76595E-14-2.43284E-13
 -1      4195 1.58198E+01 1.03041E+00-1.76787E-02-7.11955E-01-2.31321E-14-1.32181E-13
 -1      4196 1.59110E+01 8.49513E-01 7.78135E-03 1.30332E+00-1.41454E-14-1.71091E-13
 -1      4197 2.03552E+01 6.68919E-01-2.43929E-03-2.24808E-02 4.21878E-14-2.60824E-13
 -1      4198 1.79800E+01 9.59186E-01-1.31723E-03-8.46499E-01-2.48209E-14 1.95061E-14
 -1      4199 1.81825E+01 9.54534E-01-9.57960E-03-7.43406E-01-3.61284E-14 9.34398E-15
 -1      4200 1.76259E+01 1.05440E+00 3.97851E-03-6.66663E-01-2.25598E-14-1.56705E-13
 -1      4201 1.54029E+01 1.08732E+00 1.53003E-02 2.71868E-01-3.07654E-14-1.81574E-13
 -1      4202 1.59005E+01 1.08651E+00-1.50096E-02 4.90237E-01-4.71536E-14-1.75810E-13
 -1      4203 1.57947E+01 1.14895E+00 8.57308E-03-1.25512E-01-5.39077E-14-1.14511E-13
 -1      4204 1.62867E+01 8.97373E-01 1.00152E-03 1.31953E+00-3.48439E-13-4.29419E-13
 -1      4205 1.63261E+01 9.67600E-01 1.39642E-03 1.07805E+00 3.94257E-14-9.32913E-14
 -1      4206 1.63666E+01 1.10744E+00 7.72138E-03-4.54403E-01-4.90928E-14-7.84999E-14
 -1      4207 1.98848E+01 4.34950E-01 1.78922E-03 9.50731E-02-1.82517E-14-2.19156E-13
 -1      4208 1.66320E+01 1.16521E+00 5.57355E-03 2.71724E-01-4.98659E-14-1.96110E-14
 -1      4209 1.66266E+01 1.05524E+00 2.06399E-03 7.02896E-01 2.68717E-14-7.56439E-14
 -1      4210 2.02027E+01 3.65850E-01-3.37453E-04 1.08104E-01-3.50642E-14-1.72910E-13
 -1      4211 2.01746E+01 3.78305E-01 1.16489E-03 6.29343E-02-1.33423E-14-1.72057E-13
 -1      4212 2.02495E+01 3.90975E-01-7.64095E-04 8.63237E-02-1.58433E-14-1.80493E-13
 -1      4213 2.03480E+01 5.53778E-01 1.55816E-03-3.70305E-02 5.41210E-14-2.24742E-13
 -1      4214 2.03573E+01 6.71717E-01-9.02070E-04-9.91962E-03 3.09104E-14-2.46093E-13
 -1      4215 1.59638E+01 1.10699E+00-9.41950E-03 6.18395E-01-2.57434E-13-2.02949E-13
 -1      4216 1.98024E+01 4.35938E-01 5.07807E-04-4.31867E-01 4.47151E-14 4.95950E-14
 -1      4217 1.98644E+01 3.94038E-01-1.87218E-03-3.93919E-01 2.74554E-14 2.41098E-14
 -1      4218 1.97123E+01 4.98565E-01 2.95846E-03-3.79511E-01 5.56113E-14 2.55374E-14
 -1      4219 1.94047E+01 6.48260E-01-5.60273E-04-3.67583E-01 2.00221E-14-1.44015E-15
 -1      4220 1.95075E+01 5.90869E-01-3.55715E-03-3.30175E-01 3.62137E-15-4.89856E-14
 -1      4221 1.92891E+01 7.18424E-01 6.03738E-03-2.72543E-01-3.37778E-15-5.14676E-14
 -1      4222 2.03575E+01 6.54827E-01-5.34117E-04 2.37303E-02-5.28091E-14-2.38911E-13
 -1      4223 1.99440E+01 3.59612E-01 2.07825E-04-3.64945E-01 1.74925E-14-4.84003E-14
 -1      4224 1.99993E+01 3.31129E-01-9.28468E-04-3.31270E-01 1.30321E-14-6.46739E-14
 -1      4225 2.00235E+01 3.49159E-01 1.17233E-03-2.68518E-01-3.30405E-14-5.62670E-14
 -1      4226 1.98806E+01 4.10266E-01 2.01428E-03-3.20766E-01-1.05439E-14-5.09764E-14
 -1      4227 2.03050E+01 4.56523E-01 1.43414E-03 9.26550E-02-3.01034E-14-2.21734E-13
 -1      4228 1.94974E+01 6.20635E-01 6.25175E-04 2.00540E-01 1.87670E-13 6.10020E-14
 -1      4229 1.94117E+01 6.67112E-01-9.83780E-04 1.40018E-01 3.74302E-14-2.34822E-13
 -1      4230 1.87144E+01 9.96979E-01 1.22602E-02 3.51680E-01 8.39492E-14-9.37280E-14
 -1      4231 1.87041E+01 9.46829E-01-6.52265E-03 5.08048E-01 1.39555E-13 4.36521E-14
 -1      4232 1.85554E+01 9.84267E-01-7.38688E-04 5.76216E-01 2.34559E-13-1.41034E-14
 -1      4233 1.83302E+01 1.00775E+00-8.13671E-03 6.44351E-01 2.61467E-13-9.89576E-14
 -1      4234 1.81556E+01 1.02418E+00 1.45657E-03 7.37839E-01 2.55805E-13 3.90910E-14
 -1      4235 1.78544E+01 1.11425E+00 1.03382E-02 5.64360E-01 2.21843E-13-2.48742E-13
 -1      4236 1.83246E+01 1.07817E+00 1.09011E-02 4.42290E-01 2.02215E-13-1.56297E-13
 -1      4237 2.02206E+01 3.59301E-01-8.95747E-04-1.41498E-01-9.04825E-15-2.32474E-13
 -1      4238 2.02654E+01 3.89960E-01-4.68436E-04-1.12318E-01 1.85052E-14-2.47652E-13
 -1      4239 2.03564E+01 6.68422E-01-2.79744E-03-8.16822E-03-4.40552E-16-2.50074E-13
 -1      4240 2.01131E+01 3.42650E-01-3.41165E-05-1.79960E-01-3.37460E-14-1.44491E-13
 -1      4241 2.01679E+01 3.43570E-01-5.45324E-04-1.55598E-01-3.29609E-14-2.19551E-13
 -1      4242 2.01971E+01 3.75201E-01 1.04220E-03-1.03611E-01-3.82673E-14-1.96489E-13
 -1      4243 1.93946E+01 6.79673E-01 1.38156E-04-8.10762E-03-8.74116E-14-8.17412E-14
 -1      4244 1.59370E+01 1.19341E+00 1.28065E-02 2.53130E-01-1.27402E-13 2.65901E-14
 -1      4245 1.62245E+01 1.15760E+00-1.34997E-02-2.33041E-01-1.20611E-13-1.28674E-13
 -1      4246 1.67085E+01 1.19367E+00-9.45157E-03-1.70711E-01-1.87332E-13-1.19934E-13
 -1      4247 1.67642E+01 1.15546E+00 4.87631E-03 5.15130E-01-3.25348E-13-3.79326E-13
 -1      4248 1.81847E+01 1.04380E+00 1.50922E-02-5.04593E-01 2.65097E-14-3.39516E-14
 -1      4249 1.97354E+01 4.93397E-01-1.63726E-03 1.80744E-02-1.96074E-14-1.85747E-13
 -1      4250 1.96262E+01 5.43630E-01-2.59622E-03 2.76063E-02-6.30431E-14-1.68097E-13
 -1      4251 1.70021E+01 1.15149E+00 3.39345E-03 4.14010E-02 2.63459E-14-5.28457E-14
 -1      4252 1.66688E+01 1.16551E+00-5.23396E-03-1.15549E-01-9.34891E-15-8.58302E-14
 -1      4253 1.94854E+01 6.11708E-01-1.76605E-03-5.71790E-02-6.16503E-14-1.21391E-13
 -1      4254 1.93530E+01 6.70069E-01-3.78154E-03-5.27507E-02-3.64909E-14-1.17882E-13
 -1      4255 1.92098E+01 7.29589E-01-5.23155E-03-7.09175E-02-1.10306E-14-1.18621E-13
 -1      4256 1.90544E+01 7.93949E-01-5.74340E-03-6.46140E-02-1.00796E-15-8.15470E-14
 -1      4257 1.88825E+01 8.51116E-01-7.54053E-03-8.82410E-02-1.14462E-14-5.43851E-14
 -1      4258 1.86948E+01 9.13135E-01-7.97001E-03-8.01973E-02-3.53224E-14-5.69646E-14
 -1      4259 1.84858E+01 9.62223E-01-9.87442E-03-1.10992E-01-3.08707E-14-3.35465E-14
 -1      4260 1.82560E+01 1.01528E+00-1.01405E-02-1.01395E-01 3.71787E-14-4.70938E-14
 -1      4261 1.79997E+01 1.05262E+00-1.03792E-02-1.39949E-01 7.55521E-14-6.10356E-14
 -1      4262 1.77296E+01 1.09501E+00-5.29720E-03-1.32443E-01 6.10431E-14-7.19022E-14
 -1      4263 1.73297E+01 1.12943E+00-1.05036E-02 1.15277E-02 6.28434E-14-7.45476E-14
 -1      4264 1.92829E+01 7.41700E-01-5.80006E-04 1.11856E-01-3.13669E-14-1.94401E-13
 -1      4265 1.91656E+01 8.07643E-01 1.23665E-03 1.29633E-01 1.40265E-13-3.95854E-13
 -1      4266 1.76605E+01 1.16587E+00-7.32369E-03-1.02564E-01-1.22119E-13-5.16656E-14
 -1      4267 1.79358E+01 1.15880E+00-2.05300E-04-7.82201E-02 8.16638E-14 8.47726E-14
 -1      4268 1.82593E+01 1.08099E+00-8.23457E-03 6.68727E-02 1.20008E-13 3.94619E-14
 -1      4269 1.84808E+01 1.03475E+00-7.39930E-03 7.68137E-02 1.97907E-13-4.22421E-15
 -1      4270 1.86582E+01 9.81444E-01-8.93280E-03 4.90121E-02 2.25937E-13-1.50442E-13
 -1      4271 1.88360E+01 9.30838E-01-5.92931E-03 5.97523E-02 1.60168E-13-2.37808E-13
 -1      4272 1.91760E+01 7.93093E-01-2.16105E-03-6.74509E-02-3.61025E-14-8.62891E-14
 -1      4273 1.92596E+01 7.49701E-01-2.91182E-03-4.94110E-02-6.35966E-14-2.79066E-14
 -1      4274 1.70897E+01 1.16544E+00-5.49634E-03 4.31129E-01-2.30386E-13-4.10696E-13
 -1      4275 1.99228E+01 4.13575E-01-1.05538E-03 1.46473E-02-1.66012E-14-2.16044E-13
 -1      4276 1.98342E+01 4.49101E-01-1.28387E-03 2.09030E-02-9.44020E-15-1.95247E-13
 -1      4277 1.97890E+01 4.81241E-01 3.06041E-03-6.53397E-02-1.56019E-14-2.14936E-13
 -1      4278 1.93441E+01 7.11200E-01 1.51850E-03 5.64259E-02-4.10212E-14-1.34432E-13
 -1      4279 2.03271E+01 4.93913E-01-1.61477E-04 5.00820E-02-1.86084E-14-2.07836E-13
 -1      4280 2.02926E+01 4.32928E-01-1.09684E-03 7.74642E-02-1.21209E-14-1.97868E-13
 -1      4281 2.02754E+01 4.33918E-01 1.36846E-03 4.56389E-02 5.19116E-16-1.58047E-13
 -1      4282 2.03135E+01 4.68053E-01 7.70591E-04-9.84894E-02 5.09125E-14-2.55021E-13
 -1      4283 1.70395E+01 1.18877E+00-8.28938E-03-1.56151E-01-8.53447E-14-1.47828E-13
 -1      4284 1.74041E+01 1.18643E+00-7.03088E-03-1.14104E-01-1.65078E-13-1.79391E-13
 -1      4285 1.75707E+01 1.20406E+00 9.05622E-03 1.57723E-01-1.18539E-14-4.21441E-13
 -1      4286 1.70092E+01 1.22392E+00 1.20272E-02 1.85613E-01-1.92905E-13-4.88872E-13
 -1      4287 2.00768E+01 3.71679E-01-1.25770E-03 1.16422E-02 4.55339E-15-2.30434E-13
 -1      4288 2.00038E+01 3.87559E-01-8.61006E-04 1.78635E-02-1.36038E-14-2.14566E-13
 -1      4289 1.99662E+01 4.06183E-01 1.40762E-03-5.40794E-02-2.29377E-14-1.94634E-13
 -1      4290 1.89805E+01 8.74356E-01-5.46581E-03 3.91591E-02 2.26733E-13-3.51001E-13
 -1      4291 2.03501E+01 6.29087E-01 7.35928E-04 1.43775E-02-2.53030E-14-1.92814E-13
 -1      4292 2.03008E+01 4.70420E-01 1.67029E-03-5.21704E-02 3.29241E-14-2.00251E-13
 -1      4293 2.03141E+01 4.68894E-01-9.78394E-04-7.61216E-02 6.73922E-14-2.49494E-13
 -1      4294 2.01852E+01 3.73084E-01-1.13360E-03-2.71032E-02-4.68119E-14-1.86723E-13
 -1      4295 2.01260E+01 3.66890E-01-1.65444E-04-2.29213E-02-1.76527E-14-1.81955E-13
 -1      4296 1.67657E+01 1.08468E+00 1.20341E-03-6.50161E-01 2.03288E-14-1.50348E-13
 -1      4297 1.96424E+01 5.34174E-01-4.36001E-04-2.39757E-01-1.42069E-14-1.11424E-13
 -1      4298 1.97327E+01 4.82935E-01-2.35351E-03-2.13021E-01-8.74333E-15-1.66897E-13
 -1      4299 2.03324E+01 5.14742E-01 7.82366E-04 6.89339E-03 2.36086E-14-1.88700E-13
 -1      4300 2.00929E+01 3.68367E-01 5.37109E-05-8.47128E-02-3.97060E-14-1.93297E-13
 -1      4301 1.91211E+01 8.18072E-01-3.42582E-03 4.46444E-02 1.34797E-13-3.24697E-13
 -1      4302 1.74088E+01 1.15556E+00-4.68290E-03 4.07412E-01-1.02433E-13-5.26912E-13
 -1      4303 1.76599E+01 1.15064E+00-2.50182E-03 3.85076E-01 7.36870E-14-3.69748E-13
 -1      4304 1.95567E+01 5.89560E-01 3.51389E-03-1.56245E-01-4.24818E-14-1.27517E-13
 -1      4305 1.71971E+01 1.09386E+00 8.56957E-04-5.41233E-01 1.20654E-14-2.14749E-13
 -1      4306 1.79242E+01 1.12318E+00-7.40899E-03 3.24040E-01 1.65466E-13-1.74048E-13
 -1      4307 2.02836E+01 4.31999E-01-1.18734E-03-2.25958E-02 8.29908E-15-1.75362E-13
 -1      4308 2.00366E+01 3.52281E-01-1.25006E-03-2.05471E-01-4.38375E-14-1.29446E-13
 -1      4309 2.00682E+01 3.67251E-01 7.39652E-04-1.41772E-01-4.82578E-14-1.49397E-13
 -1      4310 2.00191E+01 3.78710E-01 4.03966E-04-1.06526E-01-2.94208E-14-2.03803E-13
 -1      4311 1.99699E+01 3.74221E-01-9.55909E-04-2.30769E-01-3.91323E-14-1.32519E-13
 -1      4312 2.02397E+01 3.94092E-01-2.59991E-04-1.48815E-02-2.67286E-14-1.63323E-13
 -1      4313 1.75063E+01 1.11649E+00 6.58665E-03-4.52217E-01 1.49222E-14-1.65638E-13
 -1      4314 1.98313E+01 4.40095E-01-1.25568E-03-2.01857E-01 2.04862E-14-1.84869E-13
 -1      4315 1.99112E+01 4.04309E-01-1.17839E-03-1.78942E-01-1.94793E-14-1.79609E-13
 -1      4316 1.80384E+01 1.12163E+00-5.58627E-03 9.58224E-02 1.67600E-13 2.22300E-14
 -1      4317 1.99380E+01 4.07901E-01 8.76273E-04-1.15034E-01-1.35629E-14-2.12482E-13
 -3
    1PSTEP                         3           1           1          
  100CL  101 1.000000000        4317                     0    1           1
 -4  TOSTRAIN    6    1
 -5  EXX         1    4    1    1
 -5  EYY         1    4    2    2
 -5  EZZ         1    4    3    3
 -5  EXY         1    4    1    2
 -5  EYZ         1    4    2    3
 -5  EZX         1    4    3    1
 -1         1 3.07976E-04-9.50593E-05-7.85896E-05-1.09061E-05 2.45719E-19-2.89585E-18
 -1         2 3.64450E-05-1.10161E-04 1.97687E-05 8.63041E-08-6.71225E-18 1.74446E-18
 -1         3 9.52243E-05-2.85845E-05-2.85349E-05-6.16024E-09-2.62436E-18-2.08747E-18
 -1         4 9.52240E-05-2.85846E-05-2.85346E-05 6.40303E-09 2.86266E-18-1.48151E-18
 -1         5 1.43060E-04-2.14351E-05-4.24472E-05 3.84736E-05-2.05194E-19 1.55685E-17
 -1         6 1.45123E-04 2.57004E-10-4.41041E-05-5.34412E-05-8.57197E-19 1.68445E-17
 -1         7 9.04752E-05-5.09895E-07-3.90111E-05-2.92204E-05-1.29490E-19 4.28175E-18
 -1         8 8.50619E-05 8.53310E-08-3.63104E-05-2.02502E-05-2.07205E-19 9.56783E-20
 -1         9 8.28043E-05 7.51388E-08-3.53448E-05-1.56162E-05-1.96882E-19-2.25172E-18
 -1        10 8.18047E-05 3.77856E-08-3.48937E-05-1.20518E-05-1.26618E-19-3.52305E-18
 -1        11 8.13138E-05 1.79248E-08-3.46781E-05-8.98485E-06-1.06332E-19-4.20680E-18
 -1        12 8.10619E-05 8.10226E-09-3.45717E-05-6.25874E-06-6.35440E-20-4.56335E-18
 -1        13 8.09311E-05 3.68718E-09-3.45189E-05-3.66814E-06-5.32274E-20-4.74244E-18
 -1        14 8.08769E-05 1.88709E-09-3.44977E-05-1.17758E-06-8.79831E-21-4.87279E-18
 -1        15 8.08790E-05 1.86978E-09-3.44984E-05 1.28245E-06 6.21895E-21-4.88135E-18
 -1        16 8.09375E-05 3.57628E-09-3.45211E-05 3.77821E-06 5.01362E-20-4.89667E-18
 -1        17 8.10733E-05 7.31163E-09-3.45751E-05 6.38126E-06 4.11423E-20-4.80151E-18
 -1        18 8.13298E-05 1.69300E-08-3.46825E-05 9.12706E-06 7.05949E-20-4.50981E-18
 -1        19 8.18280E-05 3.68351E-08-3.49016E-05 1.22304E-05 1.40899E-19-3.98506E-18
 -1        20 8.28261E-05 8.01560E-08-3.53574E-05 1.58469E-05 1.80233E-19-2.90936E-18
 -1        21 8.50258E-05 1.68388E-07-3.63484E-05 2.04609E-05 2.17370E-19-5.94114E-19
 -1        22 9.15092E-05-9.86590E-08-3.86827E-05 2.79686E-05 4.03399E-20 4.24150E-18
 -1        23 1.12726E-04-3.80431E-05-3.53232E-05-4.39714E-06-5.56368E-19 1.37347E-17
 -1        24 9.25924E-05-2.76339E-05-2.89344E-05 3.89862E-07-1.89223E-19 1.10284E-17
 -1        25 8.89246E-05-2.67943E-05-2.68706E-05 3.74026E-07-7.08546E-20 8.20519E-18
 -1        26 8.78437E-05-2.64377E-05-2.63404E-05 2.01885E-07 1.91782E-20 6.23437E-18
 -1        27 8.79074E-05-2.64276E-05-2.63440E-05 1.37462E-07-5.80065E-20 4.97638E-18
 -1        28 8.85039E-05-2.65833E-05-2.65329E-05 9.83136E-08-9.23893E-20 4.08423E-18
 -1        29 8.93605E-05-2.68271E-05-2.67967E-05 7.26992E-08 5.42169E-20 3.35538E-18
 -1        30 9.03437E-05-2.71151E-05-2.70953E-05 5.48526E-08-3.32950E-20 2.27543E-18
 -1        31 9.13916E-05-2.74259E-05-2.74123E-05 4.21279E-08-3.77313E-21 1.18224E-18
 -1        32 9.24863E-05-2.77527E-05-2.77434E-05 3.33500E-08-2.62492E-19 3.16727E-20
 -1        33 9.36404E-05-2.80985E-05-2.80928E-05 2.80726E-08 1.63485E-19-3.82454E-19
 -1        34 9.48892E-05-2.84734E-05-2.84711E-05 2.62614E-08-1.16886E-19-3.41280E-19
 -1        35 9.62850E-05-2.88927E-05-2.88941E-05 2.81613E-08 1.24636E-19-4.28716E-19
 -1        36 9.78915E-05-2.93752E-05-2.93807E-05 3.42217E-08-1.54108E-20 7.21881E-20
 -1        37 9.97777E-05-2.99412E-05-2.99514E-05 4.49942E-08-1.74426E-19 1.94492E-19
 -1        38 1.02006E-04-3.06087E-05-3.06239E-05 6.09031E-08 1.47255E-19-2.45646E-19
 -1        39 1.04614E-04-3.13884E-05-3.14079E-05 8.17347E-08 5.87056E-20 1.11014E-19
 -1        40 1.07583E-04-3.22745E-05-3.22951E-05 1.05611E-07-5.87009E-21-4.16482E-19
 -1        41 1.10794E-04-3.32307E-05-3.32444E-05 1.27178E-07-8.32144E-21-1.36104E-18
 -1        42 1.13960E-04-3.41718E-05-3.41635E-05 1.34970E-07-4.39125E-20-1.74286E-18
 -1        43 1.16560E-04-3.49440E-05-3.48912E-05 1.08917E-07-1.21017E-19-9.43158E-19
 -1        44 1.17809E-04-3.53157E-05-3.51953E-05 2.14272E-08-1.32760E-19-3.11103E-19
 -1        45 1.16755E-04-3.50049E-05-3.48130E-05-1.50591E-07-8.68507E-20-6.53856E-19
 -1        46 1.12622E-04-3.37783E-05-3.35585E-05-3.96486E-07 6.06059E-20-1.57278E-18
 -1        47 1.05419E-04-3.16322E-05-3.14914E-05-6.34785E-07 1.24565E-19-6.79479E-19
 -1        48 9.65784E-05-2.89861E-05-2.90501E-05-7.13533E-07 3.22029E-19 2.45600E-18
 -1        49 8.89547E-05-2.66951E-05-2.70041E-05-5.01208E-07 1.36023E-19 3.75514E-18
 -1        50 8.56619E-05-2.57029E-05-2.61349E-05-3.57071E-08 8.06567E-20 1.79642E-18
 -1        51 8.81954E-05-2.64663E-05-2.68035E-05 4.48814E-07 2.19087E-20 4.15496E-19
 -1        52 9.53969E-05-2.86313E-05-2.87309E-05 7.02657E-07 9.60770E-21 5.34028E-19
 -1        53 1.04266E-04-3.12876E-05-3.11690E-05 6.58428E-07-7.89370E-20-1.59586E-19
 -1        54 1.11818E-04-3.35394E-05-3.33234E-05 4.31663E-07 3.34194E-19-2.58901E-19
 -1        55 1.16406E-04-3.49020E-05-3.47020E-05 1.79953E-07-4.34922E-19 4.84609E-19
 -1        56 1.17861E-04-3.53320E-05-3.52013E-05-3.74674E-09 2.54889E-19-5.02595E-19
 -1        57 1.16900E-04-3.50457E-05-3.49849E-05-1.01437E-07-1.27938E-19-1.78240E-18
 -1        58 1.14479E-04-3.43270E-05-3.43142E-05-1.33818E-07 3.34645E-19-2.59320E-18
 -1        59 1.11422E-04-3.34186E-05-3.34306E-05-1.28795E-07-1.74703E-19-1.52242E-18
 -1        60 1.08290E-04-3.24867E-05-3.25074E-05-1.07604E-07 1.71733E-19 1.83601E-19
 -1        61 1.05406E-04-3.16267E-05-3.16473E-05-8.26871E-08-1.36685E-19 1.06299E-18
 -1        62 1.02916E-04-3.08829E-05-3.08998E-05-5.99610E-08-5.50104E-20-1.69685E-18
 -1        63 1.00859E-04-3.02671E-05-3.02795E-05-4.15268E-08-2.50765E-19-4.55644E-18
 -1        64 9.92136E-05-2.97735E-05-2.97819E-05-2.75925E-08-4.37542E-19-4.60414E-18
 -1        65 9.79303E-05-2.93879E-05-2.93932E-05-1.75726E-08-1.86941E-19-6.28561E-18
 -1        66 9.69530E-05-2.90938E-05-2.90969E-05-1.06129E-08 5.97757E-19-5.24624E-18
 -1        67 9.62284E-05-2.88753E-05-2.88774E-05-5.76914E-09-2.00583E-19-1.75305E-18
 -1        68 9.57135E-05-2.87196E-05-2.87220E-05-1.94463E-09 4.42915E-19 1.00358E-18
 -1        69 9.53788E-05-2.86179E-05-2.86218E-05 2.35074E-09-7.08597E-19 4.46801E-19
 -1        70 9.52084E-05-2.85650E-05-2.85700E-05 9.97256E-09 4.21995E-19-1.59607E-18
 -1        71 9.51896E-05-2.85572E-05-2.85538E-05 1.88638E-08-9.50835E-19-2.14465E-18
 -1        72 1.01947E-04-3.05167E-05-3.40779E-05-1.92312E-06 2.84524E-19 1.37344E-17
 -1        73 9.23481E-05-2.74498E-05-2.88425E-05-3.31644E-07 1.32577E-19 9.89590E-18
 -1        74 8.89106E-05-2.66433E-05-2.69134E-05-1.23919E-07 9.40901E-20 7.10829E-18
 -1        75 8.78722E-05-2.63879E-05-2.63840E-05-9.27779E-08 2.90278E-20 5.08995E-18
 -1        76 8.79403E-05-2.64066E-05-2.63704E-05-7.28843E-08 1.59798E-19 3.38935E-18
 -1        77 8.85354E-05-2.65764E-05-2.65497E-05-5.78450E-08-2.98327E-20 2.25147E-18
 -1        78 8.93888E-05-2.68266E-05-2.68087E-05-4.60345E-08-1.02597E-19 2.27395E-18
 -1        79 9.03679E-05-2.71173E-05-2.71044E-05-3.61290E-08 1.25557E-19 2.05243E-18
 -1        80 9.14115E-05-2.74289E-05-2.74193E-05-2.75780E-08 2.54823E-22 8.73332E-19
 -1        81 9.25018E-05-2.77553E-05-2.77488E-05-2.02980E-08 1.64013E-19-3.20468E-19
 -1        82 9.36515E-05-2.80999E-05-2.80969E-05-1.44533E-08 1.59522E-19-8.77185E-19
 -1        83 9.48958E-05-2.84730E-05-2.84742E-05-1.03982E-08-8.73736E-20-1.87705E-19
 -1        84 9.62864E-05-2.88898E-05-2.88961E-05-8.69816E-09 1.30593E-19 5.85535E-19
 -1        85 9.78863E-05-2.93692E-05-2.93812E-05-1.01907E-08-1.11378E-20 3.92348E-20
 -1        86 9.97629E-05-2.99308E-05-2.99494E-05-1.60451E-08 1.28688E-19-1.58769E-18
 -1        87 1.01976E-04-3.05924E-05-3.06178E-05-2.77569E-08-6.88349E-20-2.68615E-18
 -1        88 1.04560E-04-3.13639E-05-3.13945E-05-4.69400E-08-1.02967E-19-2.76858E-18
 -1        89 1.07492E-04-3.22383E-05-3.22695E-05-7.46388E-08 1.50354E-19-4.17693E-18
 -1        90 1.10645E-04-3.31784E-05-3.31994E-05-1.09686E-07-1.80215E-19-2.80085E-18
 -1        91 1.13726E-04-3.40987E-05-3.40896E-05-1.45561E-07-6.64499E-20-2.80219E-18
 -1        92 1.16211E-04-3.48461E-05-3.47777E-05-1.65787E-07-1.91513E-19-2.80849E-18
 -1        93 1.17320E-04-3.51920E-05-3.50340E-05-1.40501E-07-1.62781E-20-3.25234E-18
 -1        94 1.16125E-04-3.48604E-05-3.46046E-05-3.21469E-08-1.37560E-20-4.39158E-18
 -1        95 1.11891E-04-3.36231E-05-3.33203E-05 1.79353E-07 6.46078E-20-2.95157E-18
 -1        96 1.04679E-04-3.14760E-05-3.12572E-05 4.51942E-07 3.29707E-19-2.25250E-18
 -1        97 9.59403E-05-2.88289E-05-2.88614E-05 6.52370E-07-1.49929E-19-1.63305E-18
 -1        98 8.85022E-05-2.65304E-05-2.68888E-05 6.14368E-07 3.99780E-19-1.18987E-18
 -1        99 8.53971E-05-2.55340E-05-2.60866E-05 2.88906E-07-2.79190E-19-2.57019E-18
 -1       100 8.80342E-05-2.63105E-05-2.67860E-05-1.66996E-07-2.70303E-19-1.36785E-18
 -1       101 9.52227E-05-2.85058E-05-2.86981E-05-5.06722E-07 1.97651E-19-9.17469E-19
 -1       102 1.04000E-04-3.11937E-05-3.10910E-05-5.96170E-07-1.42945E-19-5.61506E-18
 -1       103 1.11450E-04-3.34641E-05-3.31993E-05-4.78611E-07-1.78112E-19-3.48689E-18
 -1       104 1.15978E-04-3.48311E-05-3.45513E-05-2.80269E-07 9.00973E-20-1.89686E-18
 -1       105 1.17431E-04-3.52588E-05-3.50490E-05-1.01425E-07 2.91529E-19-4.63520E-18
 -1       106 1.16511E-04-3.49703E-05-3.48501E-05 1.75357E-08-4.13679E-19-5.61431E-18
 -1       107 1.14156E-04-3.42538E-05-3.42061E-05 7.84453E-08-4.64311E-20-7.16416E-18
 -1       108 1.11168E-04-3.33519E-05-3.33499E-05 9.89271E-08 5.90043E-19-9.15508E-18
 -1       109 1.08099E-04-3.24292E-05-3.24502E-05 9.65387E-08-1.16854E-19-7.21865E-18
 -1       110 1.05267E-04-3.15791E-05-3.16084E-05 8.37214E-08 1.47783E-19-9.00821E-18
 -1       111 1.02817E-04-3.08446E-05-3.08741E-05 6.78115E-08 4.14759E-19-7.48929E-18
 -1       112 1.00790E-04-3.02370E-05-3.02630E-05 5.25381E-08-5.44293E-19-6.16577E-18
 -1       113 9.91651E-05-2.97501E-05-2.97715E-05 3.94813E-08 2.85314E-19-3.81653E-18
 -1       114 9.78966E-05-2.93700E-05-2.93867E-05 2.90795E-08-1.05849E-18-3.12212E-18
 -1       115 9.69294E-05-2.90800E-05-2.90930E-05 2.12087E-08 5.48147E-19-4.09977E-18
 -1       116 9.62119E-05-2.88648E-05-2.88751E-05 1.54323E-08-8.78447E-20-3.79587E-18
 -1       117 9.57023E-05-2.87117E-05-2.87209E-05 1.10355E-08 7.71444E-19-7.53710E-18
 -1       118 9.53719E-05-2.86119E-05-2.86217E-05 6.81719E-09-2.96601E-19-7.67509E-18
 -1       119 9.52062E-05-2.85611E-05-2.85707E-05-8.13456E-10-3.21335E-19-5.94238E-18
 -1       120 9.51906E-05-2.85543E-05-2.85549E-05-1.56076E-08 8.48020E-19-5.34164E-18
 -1       121 9.52493E-05-2.86129E-05-2.85565E-05-2.11718E-08-2.62178E-18 1.56149E-18
 -1       122 9.52419E-05-2.85888E-05-2.85750E-05-4.77602E-09 1.04741E-18-2.83849E-19
 -1       123 9.51903E-05-2.84161E-05-2.86259E-05 6.75053E-09 2.55185E-18 2.98554E-19
 -1       124 9.51062E-05-2.81347E-05-2.87061E-05 1.28287E-08 2.16874E-18 2.90268E-19
 -1       125 9.50081E-05-2.78051E-05-2.88006E-05 1.43491E-08 9.82193E-19-9.49696E-19
 -1       126 9.49163E-05-2.74955E-05-2.88901E-05 1.27172E-08-2.03295E-18 1.07379E-19
 -1       127 9.48438E-05-2.72512E-05-2.89609E-05 8.59622E-09-4.71016E-18 1.34942E-18
 -1       128 9.48045E-05-2.71187E-05-2.89994E-05 2.99655E-09-5.20109E-18 4.51521E-19
 -1       129 9.48048E-05-2.71198E-05-2.89991E-05-3.09455E-09-4.28055E-19 1.73887E-18
 -1       130 9.48447E-05-2.72542E-05-2.89601E-05-8.67479E-09 5.96531E-19-8.43319E-19
 -1       131 9.49176E-05-2.75000E-05-2.88888E-05-1.28766E-08-6.66252E-18-3.19617E-19
 -1       132 9.50098E-05-2.78104E-05-2.87991E-05-1.43891E-08-8.40912E-18 1.77975E-18
 -1       133 9.51079E-05-2.81400E-05-2.87045E-05-1.27154E-08-3.91448E-18-4.11605E-19
 -1       134 9.51913E-05-2.84211E-05-2.86247E-05-7.68764E-09-8.66656E-18-4.03815E-20
 -1       135 9.52430E-05-2.85895E-05-2.85742E-05 6.65425E-09-3.79050E-18 7.92453E-19
 -1       136 9.52439E-05-2.86103E-05-2.85550E-05 3.32631E-08 1.43175E-18 9.99242E-19
 -1       137 2.64898E-05-8.83169E-05 1.56183E-05-2.33983E-05 7.70821E-18 2.82965E-18
 -1       138 8.44505E-06-3.74093E-05 4.17621E-06-1.99553E-05 1.52330E-17 6.31505E-18
 -1       139 9.64176E-06 1.21974E-05-1.34617E-05 1.92194E-05 1.37613E-17 8.10441E-18
 -1       140 5.37619E-05 2.77533E-05-3.40003E-05 7.46981E-05 1.06591E-17 1.30384E-17
 -1       141 1.35878E-04 5.62270E-07-5.26903E-05 1.09060E-04 7.87741E-18 1.40510E-17
 -1       142 2.35662E-04-5.10264E-05-6.90790E-05 9.96187E-05 3.98561E-18 1.15904E-17
 -1       143 3.00161E-04-9.03523E-05-7.75181E-05 3.78641E-05 1.09184E-18 3.49168E-18
 -1       144 2.95256E-04-8.68225E-05-7.70461E-05-4.59777E-05 1.89947E-19-4.96319E-18
 -1       145 2.22769E-04-4.39855E-05-6.70581E-05-1.03036E-04 3.63208E-18-9.97762E-18
 -1       146 1.24505E-04 5.91381E-06-5.06781E-05-1.07760E-04 9.61446E-18-1.42750E-17
 -1       147 4.60097E-05 2.79315E-05-3.13853E-05-6.79739E-05 1.29609E-17-1.40849E-17
 -1       148 6.19427E-06 4.00037E-06-9.34980E-06-8.78067E-06 1.50946E-17-1.01578E-17
 -1       149 1.14159E-05-4.76903E-05 6.71570E-06 2.33435E-05 1.29778E-17-5.47035E-18
 -1       150 3.02424E-05-9.72886E-05 1.73779E-05 1.85076E-05 6.05883E-18-1.58745E-18
 -1       151 3.50242E-05-1.07602E-04 1.93538E-05-7.98502E-06-2.85858E-18-7.13361E-20
 -1       152 2.02589E-05-7.40626E-05 1.28456E-05-2.61415E-05-5.10380E-18-9.67841E-19
 -1       153 5.71769E-06-1.75071E-05-1.74967E-06-8.08856E-06-8.15312E-18-5.08728E-18
 -1       154 2.51135E-05 2.31153E-05-2.25548E-05 4.46454E-05-1.19914E-17-1.05752E-17
 -1       155 9.23441E-05 1.84496E-05-4.40239E-05 9.73119E-05-9.81881E-18-1.38812E-17
 -1       156 1.89345E-04-2.57849E-05-6.19527E-05 1.10317E-04-5.90551E-18-1.37334E-17
 -1       157 2.80151E-04-7.73886E-05-7.52417E-05 6.82770E-05-2.64657E-18-9.38513E-18
 -1       158 2.60926E-04-6.62062E-05-7.24265E-05-8.58901E-05-2.49049E-18 6.34936E-18
 -1       159 1.64281E-04-1.21810E-05-5.80424E-05-1.13571E-04-6.64561E-18 1.42382E-17
 -1       160 6.62532E-05 2.56760E-05-3.75281E-05-8.35576E-05-1.14781E-17 1.26983E-17
 -1       161 1.20316E-05 1.70575E-05-1.59655E-05-2.58141E-05-1.54190E-17 1.22460E-17
 -1       162 7.22591E-06-3.13691E-05 2.47324E-06 1.71323E-05-1.35542E-17 7.11508E-18
 -1       163 2.56270E-05-8.69617E-05 1.54323E-05 2.40458E-05-1.07448E-17 1.00646E-18
 -1       164 9.47673E-05-1.23339E-05-3.55311E-05-2.23121E-05-2.25188E-18 1.95522E-18
 -1       165 8.92178E-05-8.45762E-06-3.47730E-05-1.73507E-05-2.25383E-18-7.46276E-19
 -1       166 8.65529E-05-6.49899E-06-3.44207E-05-1.35462E-05-1.92681E-18-2.26968E-18
 -1       167 8.52403E-05-5.51435E-06-3.42522E-05-1.03245E-05-1.56435E-18-3.15886E-18
 -1       168 8.45092E-05-4.93203E-06-3.41734E-05-7.50752E-06-1.16692E-18-3.55091E-18
 -1       169 8.40917E-05-4.58053E-06-3.41376E-05-4.87422E-06-7.94575E-19-3.83893E-18
 -1       170 8.38775E-05-4.39093E-06-3.41234E-05-2.37924E-06-3.61867E-19-3.99188E-18
 -1       171 8.38141E-05-4.33319E-06-3.41199E-05 5.09955E-08-8.57294E-20-4.07866E-18
 -1       172 8.38874E-05-4.39939E-06-3.41241E-05 2.48329E-06 2.92997E-19-4.08576E-18
 -1       173 8.41137E-05-4.60006E-06-3.41389E-05 4.98468E-06 6.40493E-19-4.08259E-18
 -1       174 8.45376E-05-4.96057E-06-3.41737E-05 7.58489E-06 9.92511E-19-3.89816E-18
 -1       175 8.52957E-05-5.57049E-06-3.42525E-05 1.04699E-05 1.48026E-18-3.50386E-18
 -1       176 8.66612E-05-6.60933E-06-3.44238E-05 1.37412E-05 1.96829E-18-2.78233E-18
 -1       177 8.93583E-05-8.59913E-06-3.47776E-05 1.75837E-05 2.30809E-18-1.33351E-18
 -1       178 9.56752E-05-1.35983E-05-3.53869E-05 2.18569E-05 2.32153E-18 1.52776E-18
 -1       179 1.05429E-04-2.60538E-05-3.52064E-05 1.86352E-05 1.82772E-18 5.44473E-18
 -1       180 1.03243E-04-2.72581E-05-3.25628E-05-1.21022E-05-1.91403E-18 4.93415E-18
 -1       181 9.69768E-05-2.82503E-05-2.94893E-05-4.70876E-06-1.64408E-18 3.81791E-18
 -1       182 9.34032E-05-2.76029E-05-2.81519E-05-1.74000E-06-1.21887E-18 2.99046E-18
 -1       183 9.19073E-05-2.73809E-05-2.76184E-05-3.74890E-07-9.75967E-19 2.11682E-18
 -1       184 9.13913E-05-2.73207E-05-2.74400E-05 3.17838E-07-6.27048E-19 1.65659E-18
 -1       185 9.14397E-05-2.73825E-05-2.74437E-05 6.86399E-07-6.22795E-19 1.31577E-18
 -1       186 9.18165E-05-2.75198E-05-2.75507E-05 8.86427E-07-6.20108E-19 7.41979E-19
 -1       187 9.23928E-05-2.77029E-05-2.77211E-05 1.00219E-06-5.56151E-19 5.45772E-19
 -1       188 9.31017E-05-2.79163E-05-2.79343E-05 1.08559E-06-7.17688E-19 1.86829E-19
 -1       189 9.39160E-05-2.81542E-05-2.81815E-05 1.17191E-06-4.43683E-19 1.74662E-19
 -1       190 9.48353E-05-2.84184E-05-2.84621E-05 1.28658E-06-2.17951E-19-7.58007E-19
 -1       191 9.58781E-05-2.87157E-05-2.87813E-05 1.44812E-06-1.00012E-20-7.19041E-19
 -1       192 9.70753E-05-2.90569E-05-2.91478E-05 1.66871E-06 2.45453E-19-4.82177E-19
 -1       193 9.84646E-05-2.94555E-05-2.95721E-05 1.95290E-06 3.24714E-20-8.69439E-20
 -1       194 1.00082E-04-2.99261E-05-3.00639E-05 2.29373E-06-3.32929E-19-7.91006E-20
 -1       195 1.01954E-04-3.04823E-05-3.06283E-05 2.66589E-06 1.97845E-19-3.40433E-19
 -1       196 1.04077E-04-3.11335E-05-3.12609E-05 3.01498E-06-8.35204E-20-4.56184E-19
 -1       197 1.06402E-04-3.18795E-05-3.19407E-05 3.24320E-06-3.21409E-19-1.97872E-19
 -1       198 1.08801E-04-3.27009E-05-3.26213E-05 3.19556E-06-4.19573E-19-3.14705E-19
 -1       199 1.11040E-04-3.35440E-05-3.32240E-05 2.65811E-06 2.23939E-19-7.11172E-19
 -1       200 1.12750E-04-3.42978E-05-3.36368E-05 1.39379E-06 3.07923E-19-3.01306E-19
 -1       201 1.13440E-04-3.47668E-05-3.37313E-05-7.45106E-07-2.01303E-19 3.29377E-19
 -1       202 1.12594E-04-3.46674E-05-3.34061E-05-3.60157E-06-1.56281E-19 4.05754E-19
 -1       203 1.09904E-04-3.37110E-05-3.26537E-05-6.46505E-06 4.04789E-19 1.39705E-18
 -1       204 1.05641E-04-3.18362E-05-3.16231E-05-8.03916E-06 8.82554E-19 7.44840E-19
 -1       205 1.00969E-04-2.95210E-05-3.06128E-05-6.98753E-06 4.83093E-19 1.16417E-18
 -1       206 9.77426E-05-2.78100E-05-2.99679E-05-3.03062E-06-1.00380E-18 6.90471E-19
 -1       207 9.75166E-05-2.76871E-05-2.99246E-05 2.33366E-06-6.93158E-19-4.30271E-19
 -1       208 1.00407E-04-2.92273E-05-3.04996E-05 6.60683E-06 3.85201E-20-2.03784E-19
 -1       209 1.05001E-04-3.15294E-05-3.14814E-05 8.07718E-06-7.47358E-19-2.83160E-19
 -1       210 1.09417E-04-3.35098E-05-3.25305E-05 6.79653E-06-4.15890E-19-6.62631E-19
 -1       211 1.12364E-04-3.45992E-05-3.33355E-05 4.02696E-06-4.07052E-19-1.16266E-18
 -1       212 1.13467E-04-3.48032E-05-3.37267E-05 1.12202E-06-2.40670E-19-1.36521E-18
 -1       213 1.12982E-04-3.44000E-05-3.36926E-05-1.12032E-06-5.09570E-19-1.93653E-18
 -1       214 1.11417E-04-3.36814E-05-3.33271E-05-2.48203E-06-6.90117E-20-2.37567E-18
 -1       215 1.09278E-04-3.28564E-05-3.27591E-05-3.08318E-06 2.78480E-19-1.73484E-18
 -1       216 1.06954E-04-3.20474E-05-3.21054E-05-3.15628E-06 9.67935E-19-2.18359E-18
 -1       217 1.04703E-04-3.13156E-05-3.14511E-05-2.92067E-06-4.66890E-20-5.22747E-19
 -1       218 1.02670E-04-3.06854E-05-3.08480E-05-2.53865E-06-1.28662E-18-1.28393E-18
 -1       219 1.00920E-04-3.01610E-05-3.03218E-05-2.11403E-06-1.46212E-18-1.55165E-18
 -1       220 9.94658E-05-2.97356E-05-2.98804E-05-1.70544E-06-8.77085E-19-2.38487E-18
 -1       221 9.82900E-05-2.93978E-05-2.95215E-05-1.34107E-06-4.48963E-19-2.58225E-18
 -1       222 9.73620E-05-2.91344E-05-2.92370E-05-1.03017E-06 6.78607E-19-1.08509E-18
 -1       223 9.66467E-05-2.89329E-05-2.90172E-05-7.70822E-07 2.63772E-18-2.98352E-19
 -1       224 9.61105E-05-2.87820E-05-2.88526E-05-5.54761E-07 2.28614E-18 2.42807E-18
 -1       225 9.57243E-05-2.86721E-05-2.87347E-05-3.70361E-07-3.76123E-19 2.06367E-18
 -1       226 9.54644E-05-2.85969E-05-2.86560E-05-2.06524E-07 4.95607E-20 2.50840E-18
 -1       227 9.53049E-05-2.85529E-05-2.86069E-05-6.07194E-08-6.29953E-19 2.02901E-18
 -1       228 9.93443E-05-2.85083E-05-3.05395E-05 7.19344E-06 1.81358E-18 4.55003E-18
 -1       229 9.42831E-05-2.77499E-05-2.84846E-05 2.72493E-06 1.36058E-18 3.22221E-18
 -1       230 9.19936E-05-2.73677E-05-2.76516E-05 9.01892E-07 1.13405E-18 2.11778E-18
 -1       231 9.10907E-05-2.72169E-05-2.73472E-05 2.23811E-08 8.40506E-19 1.34446E-18
 -1       232 9.09493E-05-2.72284E-05-2.72950E-05-4.33350E-07 3.86864E-19 9.76842E-19
 -1       233 9.12390E-05-2.73429E-05-2.73767E-05-6.75306E-07 9.38043E-20 7.61583E-19
 -1       234 9.17792E-05-2.75187E-05-2.75359E-05-8.06635E-07 3.60640E-19 2.98976E-19
 -1       235 9.24737E-05-2.77320E-05-2.77436E-05-8.85930E-07 5.91001E-19 4.90973E-21
 -1       236 9.32772E-05-2.79718E-05-2.79859E-05-9.50788E-07 4.51356E-19-7.83978E-19
 -1       237 9.41778E-05-2.82362E-05-2.82590E-05-1.02742E-06 2.65877E-19-5.04899E-19
 -1       238 9.51872E-05-2.85296E-05-2.85660E-05-1.13491E-06-3.22382E-19-5.98920E-19
 -1       239 9.63330E-05-2.88614E-05-2.89149E-05-1.28684E-06-4.49995E-20-6.67820E-19
 -1       240 9.76527E-05-2.92441E-05-2.93167E-05-1.49121E-06 3.74385E-19-1.10286E-18
 -1       241 9.91872E-05-2.96918E-05-2.97828E-05-1.74852E-06 5.03360E-19-9.66709E-19
 -1       242 1.00972E-04-3.02181E-05-3.03226E-05-2.04759E-06 4.02495E-19-9.34834E-19
 -1       243 1.03021E-04-3.08330E-05-3.09386E-05-2.35855E-06 1.50561E-19-1.90946E-18
 -1       244 1.05312E-04-3.15377E-05-3.16199E-05-2.62242E-06 5.24288E-19-1.46547E-18
 -1       245 1.07753E-04-3.23165E-05-3.23336E-05-2.73854E-06-3.31659E-19-2.12193E-18
 -1       246 1.10151E-04-3.31261E-05-3.30150E-05-2.55502E-06-1.15856E-19-2.30484E-18
 -1       247 1.12180E-04-3.38783E-05-3.35606E-05-1.87629E-06 1.07103E-20-1.61717E-18
 -1       248 1.13372E-04-3.44229E-05-3.38331E-05-5.14566E-07-1.36485E-19-1.45345E-18
 -1       249 1.13174E-04-3.45396E-05-3.36905E-05 1.58038E-06 1.08933E-19-1.20981E-18
 -1       250 1.11129E-04-3.39764E-05-3.30489E-05 4.11491E-06-5.21650E-19-1.52649E-18
 -1       251 1.07199E-04-3.25800E-05-3.19662E-05 6.28023E-06-4.49230E-19-1.08300E-18
 -1       252 1.02136E-04-3.05255E-05-3.06951E-05 6.87809E-06-2.79460E-19-4.20142E-19
 -1       253 9.75699E-05-2.84942E-05-2.96338E-05 4.99596E-06-1.38735E-20-5.55945E-19
 -1       254 9.54171E-05-2.74591E-05-2.91646E-05 9.46861E-07 1.08989E-20 1.67460E-19
 -1       255 9.67103E-05-2.80068E-05-2.94687E-05-3.53874E-06-8.28802E-19 1.65456E-19
 -1       256 1.00839E-04-2.98313E-05-3.04286E-05-6.42557E-06 5.79835E-19-6.74933E-19
 -1       257 1.06001E-04-3.20029E-05-3.16918E-05-6.78195E-06 1.29620E-18-5.38825E-19
 -1       258 1.10377E-04-3.36769E-05-3.28497E-05-5.11566E-06-1.03057E-18-1.01072E-18
 -1       259 1.12959E-04-3.45080E-05-3.36109E-05-2.61564E-06 5.66026E-19-1.55238E-18
 -1       260 1.13620E-04-3.45752E-05-3.38764E-05-2.91358E-07 1.16708E-18-2.32358E-18
 -1       261 1.12759E-04-3.41299E-05-3.37043E-05 1.36493E-06 1.81333E-19-3.09382E-18
 -1       262 1.10935E-04-3.34194E-05-3.32286E-05 2.29019E-06 1.07267E-18-4.46465E-18
 -1       263 1.08652E-04-3.26212E-05-3.25909E-05 2.63483E-06 7.34530E-19-5.76518E-18
 -1       264 1.06278E-04-3.18426E-05-3.19044E-05 2.59840E-06-1.54896E-18-5.10353E-18
 -1       265 1.04040E-04-3.11398E-05-3.12443E-05 2.35133E-06 1.08547E-19-3.50738E-18
 -1       266 1.02059E-04-3.05361E-05-3.06525E-05 2.01340E-06-4.30000E-19-2.31355E-18
 -1       267 1.00380E-04-3.00352E-05-3.01466E-05 1.65835E-06-1.12060E-18-3.06694E-19
 -1       268 9.90032E-05-2.96306E-05-2.97292E-05 1.32616E-06-3.46721E-19-1.14071E-19
 -1       269 9.79030E-05-2.93111E-05-2.93945E-05 1.03466E-06-6.68425E-19-8.43136E-19
 -1       270 9.70447E-05-2.90639E-05-2.91327E-05 7.88099E-07 1.75918E-18-9.65325E-19
 -1       271 9.63922E-05-2.88766E-05-2.89335E-05 5.82742E-07 3.86269E-19-2.08438E-18
 -1       272 9.59128E-05-2.87387E-05-2.87875E-05 4.10223E-07 1.10750E-18-2.33414E-18
 -1       273 9.55797E-05-2.86418E-05-2.86869E-05 2.60421E-07-1.03534E-18-1.18398E-18
 -1       274 9.53710E-05-2.85797E-05-2.86240E-05 1.24052E-07 4.74738E-19-1.18026E-18
 -1       275 9.52659E-05-2.85595E-05-2.85863E-05 8.97066E-09-6.76357E-19-6.30997E-19
 -1       276 9.52559E-05-2.85028E-05-2.86075E-05 7.07160E-08-9.80839E-19 2.44975E-18
 -1       277 9.52110E-05-2.83590E-05-2.86506E-05 1.99267E-07 5.27557E-20 6.25106E-19
 -1       278 9.51319E-05-2.81470E-05-2.87077E-05 2.99871E-07 1.08597E-18 4.14741E-19
 -1       279 9.50388E-05-2.78970E-05-2.87752E-05 3.42583E-07 1.06645E-18-1.34956E-18
 -1       280 9.49481E-05-2.76503E-05-2.88423E-05 3.24111E-07-8.54590E-19-3.67170E-18
 -1       281 9.48703E-05-2.74370E-05-2.89008E-05 2.50390E-07-1.08857E-18-7.64951E-19
 -1       282 9.48187E-05-2.72948E-05-2.89399E-05 1.35537E-07-6.67401E-20 1.30001E-18
 -1       283 9.48008E-05-2.72453E-05-2.89535E-05-1.03462E-09-3.16313E-19 2.36339E-18
 -1       284 9.48192E-05-2.72962E-05-2.89395E-05-1.37476E-07-1.48309E-18 4.81671E-19
 -1       285 9.48713E-05-2.74397E-05-2.89001E-05-2.51983E-07-2.73783E-18-4.30574E-18
 -1       286 9.49479E-05-2.76497E-05-2.88425E-05-3.24341E-07-2.67168E-18-4.06869E-19
 -1       287 9.50404E-05-2.79010E-05-2.87741E-05-3.42671E-07-1.39037E-18 2.46896E-18
 -1       288 9.51334E-05-2.81511E-05-2.87066E-05-2.98400E-07-2.04198E-18-2.05729E-18
 -1       289 9.52107E-05-2.83586E-05-2.86500E-05-1.98272E-07-1.31873E-18 3.72561E-18
 -1       290 9.52729E-05-2.84658E-05-2.86307E-05-1.40756E-07-2.04980E-18 3.27255E-18
 -1       291 1.26528E-05-4.86933E-05 1.19059E-05 6.34704E-06-2.62051E-19 6.31188E-18
 -1       292 2.45861E-05-4.32140E-05 5.03150E-06 1.94977E-05 2.76217E-18 5.31667E-18
 -1       293 5.11488E-05-3.68600E-05-7.89854E-06 3.40736E-05 5.36680E-18 3.39951E-18
 -1       294 8.63073E-05-3.05233E-05-2.44162E-05 4.36748E-05 5.54044E-18 5.45383E-18
 -1       295 1.29101E-04-2.99538E-05-4.15358E-05 4.68752E-05 4.94170E-18 4.54285E-18
 -1       296 1.67924E-04-3.30330E-05-5.60256E-05 3.12551E-05 3.47628E-18 1.82472E-18
 -1       297 2.01071E-04-3.52827E-05-6.77484E-05 2.22672E-05 4.10716E-18 2.02684E-18
 -1       298 2.03708E-04-3.22120E-05-7.04116E-05-6.95958E-07 4.45550E-18 2.95562E-19
 -1       299 1.89611E-04-3.11453E-05-6.54747E-05-1.85493E-05 4.08153E-18-3.65008E-18
 -1       300 1.65380E-04-3.26607E-05-5.48811E-05-3.86113E-05 5.95787E-18-5.43456E-18
 -1       301 1.23957E-04-2.96439E-05-3.95876E-05-4.70455E-05 5.94299E-18-6.75445E-18
 -1       302 8.40355E-05-3.51537E-05-2.15909E-05-4.22828E-05 5.50953E-18-5.61678E-18
 -1       303 4.36042E-05-3.72460E-05-4.83235E-06-3.05884E-05 4.93778E-18-5.25933E-18
 -1       304 2.10265E-05-4.48951E-05 7.08366E-06-1.66509E-05 2.58578E-18-4.52681E-18
 -1       305 1.00641E-05-4.42570E-05 1.16919E-05-3.54363E-06 6.59892E-19-4.12791E-18
 -1       306 1.49705E-05-4.69959E-05 1.04455E-05 1.05529E-05-1.29395E-18-1.31798E-18
 -1       307 3.38655E-05-4.01505E-05 5.82941E-07 2.80552E-05-1.69110E-18-2.73997E-18
 -1       308 7.24520E-05-3.98733E-05-1.48737E-05 4.06153E-05-1.08103E-18-4.76128E-18
 -1       309 1.08799E-04-3.20770E-05-3.27143E-05 4.48509E-05-3.67612E-18-4.96382E-18
 -1       310 1.51354E-04-3.06682E-05-4.99827E-05 4.50420E-05-3.75744E-18-5.04662E-18
 -1       311 1.80968E-04-3.13957E-05-6.21148E-05 2.01863E-05-3.21243E-18-2.23723E-18
 -1       312 2.06386E-04-3.44079E-05-7.04142E-05 7.99196E-06-3.18071E-18-2.29387E-18
 -1       313 2.04515E-04-3.47374E-05-6.93905E-05-1.44373E-05-5.31926E-18 1.47521E-18
 -1       314 1.81889E-04-3.33723E-05-6.08356E-05-3.65500E-05-5.62565E-18 4.32453E-18
 -1       315 1.40271E-04-3.14036E-05-4.53834E-05-4.45097E-05-4.89776E-18 6.91645E-18
 -1       316 9.22168E-05-2.98086E-05-2.70358E-05-4.48823E-05-6.72375E-18 4.90729E-18
 -1       317 5.29379E-05-3.49720E-05-9.49843E-06-3.42249E-05-5.82145E-18 4.96224E-18
 -1       318 2.65566E-05-4.22358E-05 4.01895E-06-2.19616E-05-4.79357E-18 4.05189E-18
 -1       319 1.26453E-05-4.85957E-05 1.18899E-05-6.38719E-06-1.88539E-18 2.15813E-18
 -1       320 9.16447E-05-1.43878E-05-3.31730E-05-1.30060E-05-2.42423E-18-8.87174E-19
 -1       321 9.56394E-05-1.90854E-05-3.28718E-05-1.45850E-05-2.53971E-18 7.38924E-19
 -1       322 8.80444E-05-1.03429E-05-3.33557E-05-8.10129E-06-1.62578E-18-2.48298E-18
 -1       323 8.72434E-05-9.41210E-06-3.34045E-05-5.66805E-06-1.17599E-18-2.75107E-18
 -1       324 8.67841E-05-8.86839E-06-3.34372E-05-3.33307E-06-6.64704E-19-2.94270E-18
 -1       325 8.65782E-05-8.62105E-06-3.34535E-05-1.06089E-06-2.15182E-19-3.12431E-18
 -1       326 8.65868E-05-8.63062E-06-3.34531E-05 1.19102E-06 1.28743E-19-3.18453E-18
 -1       327 8.68112E-05-8.89894E-06-3.34359E-05 3.46538E-06 5.46209E-19-3.21127E-18
 -1       328 8.72820E-05-9.45555E-06-3.34027E-05 5.76342E-06 1.02013E-18-3.11307E-18
 -1       329 8.81139E-05-1.04220E-05-3.33517E-05 8.19265E-06 1.57145E-18-2.75776E-18
 -1       330 8.95105E-05-1.20180E-05-3.32776E-05 1.06998E-05 2.02511E-18-2.25272E-18
 -1       331 9.18957E-05-1.47129E-05-3.31593E-05 1.31106E-05 2.50316E-18-1.40982E-18
 -1       332 9.57411E-05-1.94404E-05-3.28078E-05 1.43301E-05 2.64617E-18 3.53160E-19
 -1       333 9.86835E-05-2.44145E-05-3.19175E-05 1.18648E-05 2.35412E-18 1.96802E-18
 -1       334 9.63028E-05-2.67822E-05-2.97649E-05 5.70239E-06 1.85906E-18 1.33958E-18
 -1       335 9.63826E-05-2.60030E-05-3.01181E-05-6.29419E-06-1.91255E-18 8.86496E-19
 -1       336 9.48933E-05-2.70005E-05-2.90713E-05-2.75275E-06-1.57768E-18 6.51543E-19
 -1       337 9.39626E-05-2.73996E-05-2.85119E-05-7.94479E-07-1.04453E-18 6.43729E-19
 -1       338 9.35093E-05-2.76166E-05-2.82325E-05 3.32028E-07-8.47932E-19 2.84460E-19
 -1       339 9.34111E-05-2.77776E-05-2.81252E-05 9.92423E-07-8.03810E-19 3.97173E-19
 -1       340 9.35604E-05-2.79210E-05-2.81293E-05 1.39269E-06-5.94451E-19 4.20257E-19
 -1       341 9.38828E-05-2.80585E-05-2.82091E-05 1.65894E-06-6.52888E-19 3.74252E-19
 -1       342 9.43336E-05-2.81950E-05-2.83440E-05 1.87425E-06-7.87209E-19 1.00439E-19
 -1       343 9.48918E-05-2.83351E-05-2.85229E-05 2.09655E-06-9.34101E-19-4.39809E-19
 -1       344 9.55534E-05-2.84855E-05-2.87416E-05 2.36724E-06-3.30253E-19-8.62636E-19
 -1       345 9.63275E-05-2.86561E-05-2.89998E-05 2.71475E-06 2.29769E-19-1.04765E-18
 -1       346 9.72315E-05-2.88603E-05-2.92992E-05 3.15469E-06 6.19396E-19-6.00704E-19
 -1       347 9.82885E-05-2.91174E-05-2.96417E-05 3.68658E-06-7.87819E-20-1.52814E-19
 -1       348 9.95235E-05-2.94536E-05-3.00269E-05 4.28675E-06-3.27723E-19-2.19519E-19
 -1       349 1.00960E-04-2.99061E-05-3.04494E-05 4.89660E-06-3.21860E-19-6.95957E-19
 -1       350 1.02616E-04-3.05244E-05-3.08959E-05 5.40604E-06-4.65581E-20-1.10424E-18
 -1       351 1.04497E-04-3.13695E-05-3.13433E-05 5.63423E-06-9.16371E-21-5.53584E-19
 -1       352 1.06583E-04-3.24982E-05-3.17587E-05 5.31604E-06-2.62003E-19-1.75443E-19
 -1       353 1.08799E-04-3.39195E-05-3.21053E-05 4.11500E-06 3.08356E-19 1.10072E-19
 -1       354 1.10954E-04-3.55008E-05-3.23565E-05 1.70259E-06 4.82048E-19 7.14920E-20
 -1       355 1.12650E-04-3.68248E-05-3.25176E-05-2.03433E-06 3.35782E-19 1.14080E-18
 -1       356 1.13242E-04-3.71136E-05-3.26426E-05-6.62118E-06 3.04113E-19 1.85946E-18
 -1       357 1.12042E-04-3.54743E-05-3.28185E-05-1.06211E-05 1.70556E-19 1.33120E-18
 -1       358 1.08972E-04-3.17202E-05-3.31052E-05-1.17510E-05 8.88685E-19 6.74769E-19
 -1       359 1.05340E-04-2.73476E-05-3.34257E-05-8.16443E-06 7.90090E-20 4.08288E-19
 -1       360 1.03533E-04-2.51779E-05-3.35835E-05-5.74823E-07-1.93610E-18 5.47276E-19
 -1       361 1.04943E-04-2.68656E-05-3.34652E-05 7.31654E-06-2.88143E-19-8.14872E-20
 -1       362 1.08470E-04-3.11020E-05-3.31602E-05 1.15648E-05-9.48909E-19-1.24999E-18
 -1       363 1.11736E-04-3.50745E-05-3.28617E-05 1.10140E-05-8.44756E-19-1.43851E-18
 -1       364 1.13219E-04-3.70235E-05-3.26702E-05 7.26596E-06-1.03771E-19-7.50381E-19
 -1       365 1.12842E-04-3.69445E-05-3.25482E-05 2.66271E-06-6.25719E-19-1.06730E-18
 -1       366 1.11272E-04-3.57096E-05-3.24036E-05-1.21405E-06-1.00827E-18-2.11734E-18
 -1       367 1.09177E-04-3.41350E-05-3.21755E-05-3.78241E-06-3.53714E-19-2.05046E-18
 -1       368 1.06989E-04-3.26844E-05-3.18532E-05-5.09751E-06 3.48830E-19-2.28880E-18
 -1       369 1.04925E-04-3.15219E-05-3.14614E-05-5.47242E-06 3.56281E-19-1.97610E-18
 -1       370 1.03073E-04-3.06518E-05-3.10374E-05-5.24797E-06 1.54565E-18-1.89881E-18
 -1       371 1.01464E-04-3.00209E-05-3.06158E-05-4.69924E-06-5.55801E-19-2.13485E-18
 -1       372 1.00095E-04-2.95686E-05-3.02222E-05-4.01672E-06-8.13427E-19-3.01883E-19
 -1       373 9.89540E-05-2.92447E-05-2.98717E-05-3.31820E-06-1.30592E-18 1.47424E-18
 -1       374 9.80187E-05-2.90116E-05-2.95710E-05-2.66836E-06-2.00009E-18 2.40800E-18
 -1       375 9.72653E-05-2.88428E-05-2.93208E-05-2.09648E-06 1.24119E-18 2.48626E-18
 -1       376 9.66683E-05-2.87192E-05-2.91184E-05-1.60969E-06 2.14128E-18 2.77999E-18
 -1       377 9.62031E-05-2.86266E-05-2.89590E-05-1.20196E-06 3.20905E-18 1.94626E-18
 -1       378 9.58468E-05-2.85552E-05-2.88373E-05-8.60627E-07 4.10179E-19 2.79503E-18
 -1       379 9.55795E-05-2.84987E-05-2.87470E-05-5.70413E-07 1.16048E-19 3.46048E-18
 -1       380 9.54034E-05-2.84725E-05-2.86835E-05-3.36712E-07 1.36082E-19 3.50490E-18
 -1       381 9.43129E-05-2.73141E-05-2.86754E-05 2.41260E-06 1.63241E-18 9.19681E-19
 -1       382 9.31508E-05-2.74401E-05-2.81396E-05 6.56362E-07 1.18006E-18 5.78890E-19
 -1       383 9.26624E-05-2.75284E-05-2.79042E-05-3.13431E-07 6.42573E-19 2.18807E-19
 -1       384 9.26163E-05-2.76381E-05-2.78430E-05-8.60055E-07 2.99970E-19-1.52512E-19
 -1       385 9.28564E-05-2.77739E-05-2.78900E-05-1.17734E-06 6.02454E-19-6.37737E-19
 -1       386 9.32855E-05-2.79297E-05-2.80080E-05-1.37748E-06 7.52652E-19-5.21964E-19
 -1       387 9.38494E-05-2.81011E-05-2.81764E-05-1.53213E-06 9.35233E-19-5.19844E-19
 -1       388 9.45241E-05-2.82880E-05-2.83854E-05-1.69042E-06 7.17751E-20-4.47859E-19
 -1       389 9.53070E-05-2.84944E-05-2.86322E-05-1.88732E-06 1.71718E-19-6.93054E-19
 -1       390 9.62108E-05-2.87282E-05-2.89189E-05-2.14719E-06 9.75165E-20-1.32132E-18
 -1       391 9.72579E-05-2.90008E-05-2.92504E-05-2.48418E-06 6.02411E-19-1.40260E-18
 -1       392 9.84756E-05-2.93273E-05-2.96320E-05-2.89973E-06 3.33695E-19-1.06992E-18
 -1       393 9.98901E-05-2.97263E-05-3.00673E-05-3.37684E-06 3.55021E-19-6.15642E-19
 -1       394 1.01519E-04-3.02203E-05-3.05545E-05-3.87028E-06 8.56321E-19-8.19297E-19
 -1       395 1.03362E-04-3.08350E-05-3.10828E-05-4.29257E-06 3.56342E-19-1.60904E-18
 -1       396 1.05386E-04-3.15961E-05-3.16271E-05-4.49730E-06 1.68369E-19-1.31213E-18
 -1       397 1.07506E-04-3.25184E-05-3.21450E-05-4.26680E-06 1.29773E-19-1.68615E-18
 -1       398 1.09561E-04-3.35788E-05-3.25763E-05-3.32160E-06-1.23051E-20-2.07977E-18
 -1       399 1.11280E-04-3.46635E-05-3.28523E-05-1.38578E-06-7.84389E-19-1.55290E-18
 -1       400 1.12256E-04-3.54911E-05-3.29167E-05 1.64463E-06 2.65609E-19-5.07419E-19
 -1       401 1.11984E-04-3.55784E-05-3.27586E-05 5.41409E-06-2.81561E-19-1.17354E-19
 -1       402 1.10066E-04-3.43839E-05-3.24390E-05 8.82935E-06-9.01676E-19 1.17188E-19
 -1       403 1.06638E-04-3.17655E-05-3.20868E-05 1.01352E-05-6.18006E-19 5.36807E-20
 -1       404 1.02850E-04-2.85819E-05-3.18271E-05 7.79293E-06-1.07947E-19 2.16106E-19
 -1       405 1.00633E-04-2.66122E-05-3.17171E-05 1.98803E-06-4.01613E-20 1.54665E-18
 -1       406 1.01358E-04-2.72017E-05-3.17679E-05-4.78516E-06 5.93320E-20 6.92779E-19
 -1       407 1.04577E-04-2.99330E-05-3.19732E-05-9.30699E-06 7.69228E-19 1.33133E-19
 -1       408 1.08455E-04-3.30707E-05-3.22983E-05-9.98672E-06 8.89652E-19 9.46093E-19
 -1       409 1.11292E-04-3.51264E-05-3.26495E-05-7.54081E-06 7.82728E-20-2.22713E-19
 -1       410 1.12424E-04-3.57096E-05-3.28965E-05-3.78109E-06 8.84067E-19-1.89485E-18
 -1       411 1.12043E-04-3.52188E-05-3.29460E-05-2.46946E-07 8.60372E-19-1.02233E-18
 -1       412 1.10657E-04-3.42191E-05-3.27772E-05 2.30315E-06 1.35267E-18-9.28449E-19
 -1       413 1.08754E-04-3.31176E-05-3.24274E-05 3.75634E-06 1.64277E-18-6.86570E-19
 -1       414 1.06679E-04-3.21142E-05-3.19620E-05 4.32198E-06 6.29223E-19-5.85587E-19
 -1       415 1.04649E-04-3.12748E-05-3.14471E-05 4.29043E-06-1.57971E-18-4.81168E-19
 -1       416 1.02787E-04-3.06009E-05-3.09353E-05 3.91704E-06-5.10035E-19-1.04479E-18
 -1       417 1.01154E-04-3.00708E-05-3.04609E-05 3.38668E-06-1.15776E-18 5.80915E-19
 -1       418 9.97673E-05-2.96586E-05-3.00427E-05 2.81709E-06-1.59881E-18 1.88505E-18
 -1       419 9.86207E-05-2.93405E-05-2.96876E-05 2.27497E-06-8.94509E-19 8.20536E-19
 -1       420 9.76939E-05-2.90967E-05-2.93953E-05 1.79227E-06-1.18250E-20 1.72531E-18
 -1       421 9.69604E-05-2.89111E-05-2.91609E-05 1.37905E-06 1.02855E-18 2.22090E-18
 -1       422 9.63919E-05-2.87702E-05-2.89781E-05 1.03218E-06 1.59209E-18 2.27685E-18
 -1       423 9.59617E-05-2.86637E-05-2.88398E-05 7.40989E-07 3.24613E-19 2.23659E-18
 -1       424 9.56464E-05-2.85840E-05-2.87393E-05 4.92482E-07-1.53984E-19 2.02677E-18
 -1       425 9.54257E-05-2.85285E-05-2.86690E-05 2.76870E-07-4.66367E-19 1.02958E-18
 -1       426 9.53262E-05-2.85033E-05-2.86376E-05 1.67615E-07-1.10185E-18 3.00964E-18
 -1       427 9.50959E-05-2.79540E-05-2.87747E-05 5.99552E-07 6.69243E-19-6.06399E-19
 -1       428 9.52336E-05-2.82027E-05-2.87266E-05 4.97228E-07-1.34850E-18 3.58379E-18
 -1       429 9.53023E-05-2.83750E-05-2.86820E-05 3.36793E-07-1.77434E-18-2.03422E-20
 -1       430 9.49543E-05-2.77057E-05-2.88210E-05 6.05568E-07 5.11509E-19-6.10260E-18
 -1       431 9.48259E-05-2.74809E-05-2.88628E-05 5.15083E-07-4.56179E-19-6.99310E-19
 -1       432 9.47303E-05-2.73128E-05-2.88942E-05 3.43769E-07 5.75417E-19 9.07864E-19
 -1       433 9.46795E-05-2.72232E-05-2.89110E-05 1.19560E-07-1.61696E-18 4.51085E-19
 -1       434 9.46798E-05-2.72238E-05-2.89109E-05-1.22892E-07-2.64053E-18 1.55458E-18
 -1       435 9.47312E-05-2.73144E-05-2.88939E-05-3.46726E-07-2.52712E-18-2.86325E-18
 -1       436 9.48254E-05-2.74799E-05-2.88630E-05-5.15048E-07-1.08015E-18-2.49302E-18
 -1       437 9.49540E-05-2.77047E-05-2.88213E-05-6.06089E-07-1.19853E-19 4.57907E-18
 -1       438 9.50978E-05-2.79573E-05-2.87742E-05-5.99452E-07-2.18990E-20-1.80022E-18
 -1       439 9.52376E-05-2.82088E-05-2.87258E-05-4.95793E-07-1.66094E-19-5.13266E-21
 -1       440 5.31819E-05-3.95121E-05-6.10508E-06 4.12767E-05-6.08276E-19 2.37148E-18
 -1       441 1.10189E-05-2.38597E-05 5.08539E-06-1.98894E-07 1.84312E-18 5.57634E-18
 -1       442 2.30652E-05-2.79626E-05 1.79069E-06 2.57629E-05-9.79911E-20 6.39446E-18
 -1       443 9.52657E-05-5.14108E-05-1.88743E-05 4.15672E-05 3.66448E-19 5.90170E-19
 -1       444 1.30224E-04-5.51606E-05-3.21722E-05 2.69842E-05 3.58083E-19-1.93960E-18
 -1       445 8.94522E-05-1.19108E-05-3.32944E-05-1.06966E-05-2.10698E-18-1.93864E-18
 -1       446 1.54920E-04-2.51256E-05-5.56184E-05-2.93389E-06 2.01308E-18-1.96300E-18
 -1       447 1.54133E-04-1.35451E-05-6.03232E-05-2.41942E-06 3.77459E-18-2.62811E-18
 -1       448 1.54091E-04-1.37562E-05-6.02135E-05 2.54336E-06 5.63870E-18-1.14519E-18
 -1       449 1.53531E-04-2.99635E-05-5.30554E-05 1.82441E-06 4.07169E-18-1.75018E-18
 -1       450 1.50348E-04-4.43670E-05-4.53065E-05-1.12590E-05 3.43660E-18-8.25857E-19
 -1       451 1.27097E-04-5.46336E-05-3.10475E-05-2.94830E-05 2.02875E-18-1.64049E-18
 -1       452 8.74269E-05-5.06316E-05-1.58170E-05-4.32233E-05 5.35642E-19-4.11769E-18
 -1       453 4.58090E-05-3.74495E-05-3.90665E-06-3.90840E-05 6.89061E-19-4.91586E-18
 -1       454 2.15981E-05-2.30460E-05 7.57003E-07-2.29302E-05 3.29919E-19-4.98204E-18
 -1       455 1.40661E-05-2.10771E-05 2.99474E-06 1.01194E-05 3.17823E-19-2.47715E-18
 -1       456 3.07228E-05-2.92934E-05-7.08024E-07 3.16132E-05 2.86509E-19-1.65521E-18
 -1       457 7.18653E-05-4.53494E-05-1.12746E-05 4.42626E-05 1.36679E-18-2.25496E-18
 -1       458 1.17240E-04-5.67559E-05-2.59030E-05 3.41186E-05 5.58512E-19-2.47958E-18
 -1       459 1.41857E-04-4.94748E-05-3.95064E-05 2.00697E-05-8.93090E-19-2.02377E-18
 -1       460 1.54569E-04-3.67484E-05-5.04503E-05 4.22746E-06-1.99603E-18-2.68827E-19
 -1       461 1.50464E-04-1.53176E-05-5.82268E-05-4.17650E-06-3.20613E-18 2.05744E-18
 -1       462 1.62290E-04-1.43557E-05-6.30150E-05 2.65961E-07-5.02142E-18 2.52041E-18
 -1       463 1.59067E-04-2.30100E-05-5.81207E-05 8.88723E-07-5.00798E-18 1.32772E-19
 -1       464 1.53900E-04-3.93689E-05-4.89201E-05-7.45062E-06-3.57755E-18-1.49501E-19
 -1       465 1.33227E-04-5.23660E-05-3.46761E-05-2.63079E-05-2.35343E-18 1.67871E-18
 -1       466 1.00583E-04-5.29965E-05-2.04655E-05-4.01827E-05-1.99752E-18 2.41190E-18
 -1       467 5.81169E-05-4.15726E-05-7.35052E-06-4.19983E-05-8.40045E-19 3.90808E-18
 -1       468 2.49015E-05-2.65466E-05 6.64178E-07-2.70582E-05 1.32111E-18 2.88563E-18
 -1       469 1.47703E-04-4.67632E-05-4.33739E-05 1.10370E-05 1.08907E-18-3.65463E-18
 -1       470 1.41259E-04-2.44679E-05-5.05421E-05-1.10826E-05-3.09432E-18 1.14318E-18
 -1       471 9.57981E-05-2.51208E-05-3.02760E-05 5.93656E-06 1.88386E-18-3.97463E-19
 -1       472 8.95667E-05-1.33047E-05-3.27025E-05-3.86037E-06-8.40112E-19-2.48349E-18
 -1       473 9.02807E-05-1.42925E-05-3.25865E-05-5.79571E-06-1.25417E-18-2.31098E-18
 -1       474 8.90606E-05-1.26025E-05-3.27854E-05 5.40372E-08-8.62130E-20-2.92417E-18
 -1       475 8.91984E-05-1.27920E-05-3.27636E-05 2.01073E-06 2.03901E-19-2.91204E-18
 -1       476 8.95988E-05-1.33454E-05-3.26991E-05 3.93484E-06 6.80026E-19-2.80500E-18
 -1       477 9.03274E-05-1.43551E-05-3.25806E-05 5.86876E-06 1.30628E-18-2.56459E-18
 -1       478 9.14730E-05-1.59584E-05-3.23865E-05 7.68883E-06 1.72287E-18-2.14265E-18
 -1       479 9.32453E-05-1.84493E-05-3.20756E-05 9.20915E-06 2.03933E-18-1.70487E-18
 -1       480 1.20039E-04-5.96488E-05-2.58182E-05 2.82957E-05-1.30565E-18-1.85246E-18
 -1       481 9.51188E-05-2.65416E-05-2.93722E-05 2.75362E-06 1.58584E-18-4.03069E-19
 -1       482 9.54796E-05-2.43989E-05-3.04532E-05-5.71814E-06-1.78328E-18-3.13175E-19
 -1       483 1.40785E-04-3.82428E-05-4.44111E-05-1.03531E-05 1.04990E-18-3.70106E-18
 -1       484 9.52953E-05-2.61715E-05-2.96161E-05-2.74394E-06-1.36692E-18-2.20308E-19
 -1       485 9.49757E-05-2.70912E-05-2.90892E-05-8.03043E-07-1.05833E-18-3.31705E-19
 -1       486 9.47502E-05-2.75996E-05-2.87770E-05 4.29371E-07-9.47085E-19-3.51878E-19
 -1       487 9.46639E-05-2.78982E-05-2.86130E-05 1.21559E-06-7.02602E-19-3.40566E-19
 -1       488 9.47042E-05-2.80775E-05-2.85538E-05 1.73703E-06-5.85696E-19-2.38237E-19
 -1       489 9.48478E-05-2.81820E-05-2.85706E-05 2.12050E-06-8.58903E-19-5.13754E-19
 -1       490 9.50761E-05-2.82372E-05-2.86447E-05 2.45658E-06-1.09888E-18-9.89693E-20
 -1       491 9.53783E-05-2.82605E-05-2.87641E-05 2.81094E-06-8.03477E-19 1.11797E-19
 -1       492 9.57523E-05-2.82676E-05-2.89212E-05 3.23061E-06-5.79798E-20 1.86149E-19
 -1       493 9.62036E-05-2.82764E-05-2.91106E-05 3.74650E-06 3.46244E-19-2.20021E-19
 -1       494 9.67458E-05-2.83116E-05-2.93276E-05 4.37267E-06 7.33625E-20-1.03896E-18
 -1       495 9.74019E-05-2.84098E-05-2.95666E-05 5.10213E-06-2.08062E-19-1.14068E-18
 -1       496 9.82084E-05-2.86275E-05-2.98191E-05 5.89877E-06-2.70997E-19-9.35853E-19
 -1       497 9.92229E-05-2.90502E-05-3.00732E-05 6.68473E-06-4.82943E-19-9.18528E-19
 -1       498 1.00533E-04-2.97998E-05-3.03145E-05 7.32261E-06 2.06940E-19-1.05610E-18
 -1       499 1.02264E-04-3.10318E-05-3.05301E-05 7.59383E-06 2.43093E-19-7.35073E-19
 -1       500 1.04565E-04-3.28999E-05-3.07189E-05 7.17885E-06 2.77534E-19-2.97348E-20
 -1       501 1.07553E-04-3.54498E-05-3.09097E-05 5.65913E-06 5.69390E-19-5.30451E-19
 -1       502 1.11149E-04-3.84030E-05-3.11881E-05 2.58221E-06 1.62930E-18 1.36335E-19
 -1       503 1.14769E-04-4.07977E-05-3.17141E-05-2.27304E-06 1.53309E-18 8.03628E-19
 -1       504 1.17132E-04-4.08959E-05-3.26897E-05-8.27764E-06 3.43945E-19 1.13655E-18
 -1       505 1.16664E-04-3.68992E-05-3.42075E-05-1.31616E-05 5.12610E-19 1.84418E-18
 -1       506 1.12935E-04-2.89708E-05-3.60519E-05-1.32622E-05-6.14109E-19 5.11937E-19
 -1       507 1.08937E-04-2.18589E-05-3.74139E-05-6.20278E-06-1.82394E-18-6.08146E-19
 -1       508 1.08601E-04-2.12944E-05-3.75193E-05 4.80718E-06-2.48897E-18-1.98798E-18
 -1       509 1.12346E-04-2.78462E-05-3.62952E-05 1.27198E-05-7.55547E-19-2.61546E-18
 -1       510 1.16286E-04-3.59377E-05-3.44755E-05 1.35733E-05-5.94406E-19-6.20324E-19
 -1       511 1.17311E-04-4.06496E-05-3.28714E-05 9.10021E-06-4.31883E-19-8.87664E-20
 -1       512 1.15208E-04-4.09743E-05-3.18274E-05 3.08964E-06-9.12947E-19-6.07658E-19
 -1       513 1.11685E-04-3.87717E-05-3.12591E-05-1.95787E-06-1.02899E-18-1.57187E-18
 -1       514 1.08054E-04-3.58194E-05-3.09662E-05-5.24695E-06-2.08624E-19-7.53827E-19
 -1       515 1.04989E-04-3.31818E-05-3.07798E-05-6.91655E-06 1.05926E-19 3.66742E-19
 -1       516 1.02621E-04-3.12139E-05-3.06055E-05-7.40690E-06 4.85681E-19 1.43755E-18
 -1       517 1.00852E-04-2.98984E-05-3.04088E-05-7.14748E-06 1.12168E-18 1.62570E-19
 -1       518 9.95297E-05-2.90881E-05-3.01884E-05-6.47080E-06-1.09657E-18-1.04761E-18
 -1       519 9.85272E-05-2.86250E-05-2.99566E-05-5.60685E-06 3.77587E-19-1.55174E-18
 -1       520 9.77519E-05-2.83828E-05-2.97279E-05-4.70212E-06 5.57165E-19-9.09080E-20
 -1       521 9.71432E-05-2.82728E-05-2.95143E-05-3.84211E-06-8.75461E-19 1.26425E-18
 -1       522 9.66609E-05-2.82367E-05-2.93232E-05-3.07049E-06-9.70784E-19 1.24133E-18
 -1       523 9.62773E-05-2.82377E-05-2.91586E-05-2.40358E-06 2.06498E-18 2.45850E-18
 -1       524 9.59716E-05-2.82526E-05-2.90214E-05-1.84054E-06 1.81196E-18 2.61260E-18
 -1       525 9.57275E-05-2.82676E-05-2.89105E-05-1.37068E-06 1.72206E-18 2.05282E-18
 -1       526 9.55318E-05-2.82756E-05-2.88232E-05-9.78825E-07 6.06201E-19 2.54297E-18
 -1       527 9.42521E-05-2.76332E-05-2.85471E-05-3.93652E-07 8.38582E-19-7.70549E-19
 -1       528 9.41613E-05-2.78711E-05-2.84083E-05-1.13054E-06 6.22403E-19-9.11190E-19
 -1       529 9.42492E-05-2.80346E-05-2.83767E-05-1.60156E-06 7.32610E-19-9.34504E-19
 -1       530 9.44732E-05-2.81553E-05-2.84213E-05-1.93445E-06 6.74346E-19-1.16449E-18
 -1       531 9.48039E-05-2.82498E-05-2.85224E-05-2.21734E-06 4.76294E-19-6.75481E-19
 -1       532 9.52264E-05-2.83302E-05-2.86689E-05-2.51299E-06 5.04066E-19-1.08603E-18
 -1       533 9.57377E-05-2.84079E-05-2.88545E-05-2.86599E-06 6.18408E-19-1.24052E-18
 -1       534 9.63445E-05-2.84969E-05-2.90760E-05-3.30572E-06 2.75080E-19-1.34657E-18
 -1       535 9.70612E-05-2.86163E-05-2.93317E-05-3.84576E-06 2.30648E-19-1.34257E-18
 -1       536 9.79091E-05-2.87940E-05-2.96188E-05-4.47981E-06 1.16345E-19-1.70381E-18
 -1       537 9.89170E-05-2.90713E-05-2.99321E-05-5.17356E-06 3.70218E-19-7.48268E-19
 -1       538 1.00123E-04-2.95088E-05-3.02620E-05-5.85203E-06 4.86231E-19-3.13686E-19
 -1       539 1.01575E-04-3.01912E-05-3.05935E-05-6.38259E-06 2.24001E-19 3.52042E-19
 -1       540 1.03336E-04-3.12236E-05-3.09080E-05-6.55592E-06 1.64297E-19 4.14637E-19
 -1       541 1.05463E-04-3.27051E-05-3.11886E-05-6.07372E-06-3.72645E-20 2.52636E-19
 -1       542 1.07971E-04-3.46524E-05-3.14328E-05-4.56499E-06-2.43419E-19 5.70052E-19
 -1       543 1.10714E-04-3.68442E-05-3.16724E-05-1.67419E-06-8.12594E-19-1.82303E-19
 -1       544 1.13207E-04-3.85956E-05-3.19899E-05 2.68832E-06-5.22105E-19 6.72960E-19
 -1       545 1.14533E-04-3.87060E-05-3.25074E-05 7.88691E-06-7.31763E-19 1.22121E-18
 -1       546 1.13673E-04-3.59505E-05-3.33163E-05 1.20731E-05-2.95977E-19 8.15672E-19
 -1       547 1.10403E-04-3.03084E-05-3.43564E-05 1.24316E-05-2.00012E-19 2.80338E-19
 -1       548 1.06758E-04-2.46915E-05-3.52120E-05 7.05122E-06-4.83464E-19-4.77091E-19
 -1       549 1.05705E-04-2.31284E-05-3.54266E-05-2.20648E-06 2.53243E-19-1.36092E-18
 -1       550 1.08246E-04-2.69389E-05-3.48718E-05-1.01869E-05 7.08222E-19-1.96834E-18
 -1       551 1.12122E-04-3.31101E-05-3.38752E-05-1.29326E-05 3.29790E-19-1.15019E-18
 -1       552 1.14397E-04-3.76040E-05-3.29222E-05-1.05017E-05 1.62732E-18-8.99010E-19
 -1       553 1.14178E-04-3.89578E-05-3.22546E-05-5.54443E-06 2.55321E-19-5.46748E-19
 -1       554 1.12196E-04-3.79274E-05-3.18466E-05-5.90953E-07-1.15128E-19 7.82407E-19
 -1       555 1.09510E-04-3.58440E-05-3.15851E-05 3.10128E-06 9.42325E-19 9.72918E-19
 -1       556 1.06860E-04-3.37088E-05-3.13601E-05 5.29421E-06 9.74122E-19 8.19278E-19
 -1       557 1.04548E-04-3.19627E-05-3.11131E-05 6.24617E-06 1.09319E-18 1.96128E-18
 -1       558 1.02630E-04-3.06943E-05-3.08312E-05 6.33474E-06 4.94496E-19 1.70969E-18
 -1       559 1.01067E-04-2.98367E-05-3.05263E-05 5.90176E-06-7.90814E-19 1.20750E-18
 -1       560 9.97954E-05-2.92826E-05-3.02177E-05 5.20354E-06-1.51046E-18 1.66492E-18
 -1       561 9.87617E-05-2.89354E-05-2.99230E-05 4.41139E-06-2.08639E-18 1.38278E-18
 -1       562 9.79230E-05-2.87225E-05-2.96547E-05 3.62922E-06-1.02445E-18 1.69268E-18
 -1       563 9.72460E-05-2.85938E-05-2.94200E-05 2.91297E-06 2.90933E-19 5.52618E-19
 -1       564 9.67038E-05-2.85161E-05-2.92212E-05 2.28670E-06 3.15915E-20-4.12346E-19
 -1       565 9.62736E-05-2.84675E-05-2.90580E-05 1.75441E-06 4.05645E-19 1.22538E-18
 -1       566 9.59352E-05-2.84335E-05-2.89277E-05 1.30857E-06 1.56442E-18 2.70243E-18
 -1       567 9.56707E-05-2.84047E-05-2.88267E-05 9.36207E-07 5.87849E-19 2.54477E-18
 -1       568 9.54644E-05-2.83806E-05-2.87488E-05 6.20552E-07-3.22804E-19 2.63310E-18
 -1       569 9.47793E-05-2.74650E-05-2.88492E-05 8.09195E-07 2.10601E-18-5.07836E-18
 -1       570 9.46003E-05-2.72414E-05-2.88685E-05 6.13870E-07 1.19161E-18 1.32057E-18
 -1       571 9.52222E-05-2.80350E-05-2.87945E-05 8.34859E-07-9.56233E-19 2.85198E-18
 -1       572 9.49968E-05-2.77397E-05-2.88245E-05 8.86168E-07 5.92627E-19-2.42904E-18
 -1       573 9.44837E-05-2.70964E-05-2.88807E-05 3.29580E-07 1.14359E-19-1.79694E-18
 -1       574 9.44435E-05-2.70464E-05-2.88850E-05-2.13031E-09-1.55222E-18 6.43934E-19
 -1       575 9.44845E-05-2.70973E-05-2.88807E-05-3.33641E-07-2.19554E-18 8.59189E-19
 -1       576 9.45992E-05-2.72398E-05-2.88687E-05-6.13175E-07-1.01986E-19-3.24363E-18
 -1       577 9.47783E-05-2.74633E-05-2.88495E-05-8.09166E-07 5.54722E-19 9.32631E-19
 -1       578 9.49955E-05-2.77395E-05-2.88241E-05-8.86797E-07-4.03238E-19 2.31022E-18
 -1       579 9.52222E-05-2.80356E-05-2.87939E-05-8.32904E-07-1.95099E-18-1.40967E-18
 -1       580 2.55488E-05-1.47043E-05-4.04992E-06 1.38502E-05 1.32680E-19 3.77777E-18
 -1       581 8.91119E-05-4.89267E-05-1.68683E-05 4.13647E-05-3.18897E-18 2.51264E-19
 -1       582 9.45688E-05-2.72491E-05-2.88425E-05 8.01004E-07 1.21041E-18-5.22089E-19
 -1       583 2.57856E-05-1.40494E-05-4.36865E-06-1.16921E-05 1.61820E-18 3.61101E-18
 -1       584 4.81906E-05-2.88295E-05-7.82918E-06 3.67926E-05-3.17457E-18 1.35578E-18
 -1       585 9.46212E-05-2.07471E-05-3.16814E-05-9.43847E-06-2.29326E-18-6.49215E-19
 -1       586 5.51986E-05-3.15131E-05-9.66090E-06-3.83529E-05 1.82975E-18 3.97941E-18
 -1       587 1.34611E-04-5.79987E-05-3.29218E-05 1.52907E-05 5.89376E-19-5.05255E-19
 -1       588 2.52036E-05-1.27105E-05-4.71391E-06-5.82714E-06 1.04072E-18-3.91753E-18
 -1       589 1.32185E-04-8.43446E-06-5.36580E-05 8.35943E-08 3.58793E-18-2.72862E-18
 -1       590 8.91783E-05-1.27666E-05-3.27658E-05-1.90301E-06-4.33724E-19-2.78350E-18
 -1       591 1.35048E-04-1.88422E-05-5.03767E-05 1.16087E-05 3.94177E-18-2.32352E-19
 -1       592 1.33824E-04-1.63272E-05-5.09233E-05-1.07598E-05 2.24061E-18-4.21560E-18
 -1       593 1.16901E-04-5.86246E-05-2.49616E-05-3.01543E-05-8.31310E-19-7.88283E-19
 -1       594 1.41410E-04-4.19497E-05-4.30606E-05 8.35510E-06 1.72244E-18-8.58150E-20
 -1       595 1.04159E-04-5.44209E-05-2.11609E-05 3.59640E-05 1.72911E-18-2.79803E-18
 -1       596 1.38927E-04-5.69859E-05-3.52690E-05-7.98687E-06 5.46568E-19 6.88479E-19
 -1       597 7.36665E-05-4.17595E-05-1.33579E-05-4.18370E-05-1.10818E-18-3.24636E-18
 -1       598 4.67153E-05-2.54328E-05-8.51698E-06-3.38892E-05-4.01652E-19-3.80381E-18
 -1       599 3.08806E-05-1.84245E-05-4.80907E-06 2.27621E-05 8.18631E-19-1.67088E-18
 -1       600 1.34692E-04-9.18175E-06-5.43922E-05-1.92383E-06-4.35915E-18 2.63981E-18
 -1       601 5.89056E-05-3.21790E-05-1.09297E-05 3.84362E-05 1.50714E-18-9.27395E-19
 -1       602 1.43549E-04-4.81132E-05-4.12374E-05 4.10098E-07-5.28178E-19 2.22558E-19
 -1       603 1.37210E-04-1.34410E-05-5.35988E-05 7.81531E-06-4.09773E-18 1.32669E-18
 -1       604 1.42208E-04-3.11813E-05-4.80237E-05 1.06781E-05-3.18394E-18-9.46771E-19
 -1       605 1.42462E-04-5.25381E-05-3.87919E-05-2.50036E-06-1.27118E-18-1.67157E-18
 -1       606 1.26525E-04-6.04130E-05-2.82924E-05-2.49549E-05-3.51677E-19-7.52086E-19
 -1       607 8.80446E-05-4.89845E-05-1.64929E-05-4.14661E-05 1.60026E-18 2.06480E-18
 -1       608 1.38667E-04-5.69593E-05-3.52333E-05 5.71578E-06 1.47384E-19-4.28985E-18
 -1       609 9.61150E-05-2.31686E-05-3.12662E-05 9.52442E-06 2.25637E-18-1.78570E-19
 -1       610 9.13682E-05-1.58540E-05-3.23978E-05-7.57944E-06-1.74820E-18-1.98752E-18
 -1       611 4.64190E-05-1.96691E-05-1.09518E-05-2.65747E-05 8.97670E-19 3.91938E-18
 -1       612 1.37626E-04-3.69472E-05-4.34562E-05-1.32568E-05-1.20707E-18 4.88156E-19
 -1       613 8.76382E-05-4.39028E-05-1.84055E-05 3.67281E-05 1.81546E-18-1.91649E-18
 -1       614 1.23178E-04-5.96716E-05-2.72315E-05 2.14999E-05 1.43577E-18-5.23308E-19
 -1       615 1.02155E-04-5.23863E-05-2.11204E-05-3.49326E-05-1.99288E-18-6.69533E-19
 -1       616 1.29646E-04-1.46279E-05-4.98845E-05-9.44149E-06-4.70458E-18 1.39461E-18
 -1       617 9.54225E-05-2.82814E-05-2.87738E-05-7.43558E-07-2.61197E-19 2.77617E-18
 -1       618 9.15348E-05-1.66767E-05-3.20876E-05 2.36841E-06 4.25456E-19-2.38623E-18
 -1       619 9.12666E-05-1.62585E-05-3.21517E-05 8.15016E-07 1.00095E-19-2.80518E-18
 -1       620 9.29028E-05-1.88918E-05-3.17247E-05 5.13795E-06 1.38213E-18-1.97546E-18
 -1       621 9.40032E-05-2.08609E-05-3.13546E-05 6.01444E-06 1.61217E-18-1.70862E-18
 -1       622 1.28078E-04-3.09509E-05-4.19924E-05 1.54745E-05 1.59684E-18 1.56661E-18
 -1       623 9.52864E-05-2.40427E-05-3.05227E-05 5.01856E-06 1.69206E-18-1.35097E-18
 -1       624 8.00789E-05-3.88867E-05-1.72718E-05-3.65513E-05 1.96938E-18 1.54664E-18
 -1       625 1.32252E-04-4.61961E-05-3.70976E-05-9.48917E-06 3.18855E-19-3.00339E-18
 -1       626 9.54384E-05-2.55860E-05-2.99346E-05-2.21641E-06-1.22937E-18-8.21356E-19
 -1       627 9.55102E-05-2.67790E-05-2.94554E-05-5.34905E-07-1.03015E-18-7.57493E-19
 -1       628 9.54690E-05-2.74735E-05-2.91406E-05 6.14162E-07-7.15785E-19-4.41594E-19
 -1       629 9.54107E-05-2.78627E-05-2.89490E-05 1.40066E-06-6.16788E-19-5.97268E-19
 -1       630 9.53688E-05-2.80518E-05-2.88500E-05 1.96441E-06-7.72855E-19-6.30752E-19
 -1       631 9.53520E-05-2.81027E-05-2.88210E-05 2.41508E-06-5.70448E-19-2.76289E-19
 -1       632 9.53602E-05-2.80553E-05-2.88448E-05 2.83654E-06-5.17788E-19 1.26678E-20
 -1       633 9.53921E-05-2.79384E-05-2.89085E-05 3.29182E-06-3.42747E-19 3.47487E-19
 -1       634 9.54486E-05-2.77782E-05-2.90013E-05 3.82653E-06-6.63703E-19-2.71366E-19
 -1       635 9.55360E-05-2.76044E-05-2.91132E-05 4.47047E-06-4.44297E-19-9.27752E-19
 -1       636 9.56706E-05-2.74581E-05-2.92335E-05 5.23691E-06-3.24332E-19-1.14447E-18
 -1       637 9.58863E-05-2.74021E-05-2.93498E-05 6.11970E-06-3.18326E-19-1.40655E-18
 -1       638 9.62463E-05-2.75332E-05-2.94480E-05 7.08757E-06-4.64415E-19-1.37701E-18
 -1       639 9.68619E-05-2.79977E-05-2.95129E-05 8.07465E-06-4.09668E-19-1.05592E-18
 -1       640 9.79161E-05-2.90039E-05-2.95339E-05 8.96392E-06 4.15293E-19-6.87240E-19
 -1       641 9.96845E-05-3.08174E-05-2.95152E-05 9.55775E-06 8.43687E-19-4.91177E-19
 -1       642 1.02528E-04-3.37036E-05-2.94985E-05 9.52622E-06 3.93709E-19 1.64150E-19
 -1       643 1.06791E-04-3.77451E-05-2.95938E-05 8.35189E-06 1.04654E-18 8.65987E-20
 -1       644 1.12585E-04-4.25160E-05-3.00332E-05 5.23674E-06 1.69440E-18-5.79557E-19
 -1       645 1.18974E-04-4.61599E-05-3.12145E-05-5.36642E-07 1.55783E-18-5.00544E-20
 -1       646 1.23686E-04-4.53891E-05-3.36030E-05-8.77572E-06 5.02026E-19 5.27033E-19
 -1       647 1.22671E-04-3.64372E-05-3.72085E-05-1.53493E-05-5.04196E-19 1.42435E-18
 -1       648 1.17823E-04-2.25871E-05-4.11024E-05-1.30153E-05-2.48868E-18 2.52257E-19
 -1       649 1.14338E-04-1.46886E-05-4.30460E-05-9.78908E-07-3.32161E-18-2.21769E-18
 -1       650 1.17032E-04-2.08168E-05-4.15345E-05 1.19041E-05-2.08907E-18-2.50792E-18
 -1       651 1.22240E-04-3.47349E-05-3.77030E-05 1.54097E-05-2.01792E-19-3.05515E-18
 -1       652 1.23809E-04-4.45788E-05-3.40315E-05 1.00696E-05 6.90057E-19-2.64730E-18
 -1       653 1.19758E-04-4.63319E-05-3.14780E-05 1.64777E-06-1.16755E-19 1.43974E-19
 -1       654 1.13459E-04-4.30917E-05-3.01566E-05-4.55951E-06-1.67613E-19 1.08109E-18
 -1       655 1.07512E-04-3.83353E-05-2.96483E-05-7.96738E-06-1.14972E-18 2.46495E-18
 -1       656 1.03031E-04-3.41292E-05-2.95311E-05-9.32280E-06 2.98206E-19 3.09853E-18
 -1       657 1.00015E-04-3.10655E-05-2.95509E-05-9.42524E-06-2.72921E-19 1.68795E-18
 -1       658 9.81275E-05-2.91013E-05-2.95829E-05-8.83383E-06-5.86832E-19 3.04113E-19
 -1       659 9.69997E-05-2.79801E-05-2.95795E-05-7.89849E-06-1.88396E-20-2.65569E-19
 -1       660 9.63424E-05-2.74312E-05-2.95328E-05-6.82983E-06-7.27384E-19 6.82980E-19
 -1       661 9.59606E-05-2.72384E-05-2.94517E-05-5.75317E-06-1.22019E-19-7.77714E-19
 -1       662 9.57337E-05-2.72491E-05-2.93500E-05-4.74107E-06-2.40053E-19-1.30157E-18
 -1       663 9.55918E-05-2.73633E-05-2.92403E-05-3.83194E-06-2.04270E-19-8.19353E-19
 -1       664 9.54955E-05-2.75184E-05-2.91326E-05-3.04152E-06 1.69828E-18 1.17821E-18
 -1       665 9.54225E-05-2.76767E-05-2.90336E-05-2.37056E-06 1.60742E-18 3.56556E-19
 -1       666 9.53610E-05-2.78167E-05-2.89472E-05-1.80977E-06 1.29721E-18 3.34316E-19
 -1       667 9.53026E-05-2.79279E-05-2.88746E-05-1.34536E-06 7.96644E-19-5.30347E-19
 -1       668 9.51167E-05-2.78981E-05-2.88076E-05-1.33660E-06 7.65071E-19-8.88500E-19
 -1       669 1.35439E-04-4.30528E-05-3.98772E-05 1.13727E-05-7.20018E-19-1.44459E-18
 -1       670 9.51819E-05-2.75473E-05-2.89855E-05-5.47941E-07 7.61031E-19-7.77268E-19
 -1       671 9.51748E-05-2.81636E-05-2.87189E-05-2.30775E-06 5.45602E-19-8.29427E-19
 -1       672 9.52871E-05-2.81665E-05-2.87657E-05-2.69386E-06 6.80734E-19-1.07367E-18
 -1       673 9.54475E-05-2.81184E-05-2.88550E-05-3.10677E-06 5.97801E-19-8.22372E-19
 -1       674 9.56563E-05-2.80409E-05-2.89775E-05-3.59226E-06 4.02370E-19-8.74368E-19
 -1       675 9.59196E-05-2.79588E-05-2.91254E-05-4.17953E-06 4.40311E-19-5.23309E-19
 -1       676 9.62530E-05-2.79063E-05-2.92907E-05-4.88024E-06 1.56839E-19-1.56135E-19
 -1       677 9.66859E-05-2.79351E-05-2.94639E-05-5.68437E-06-3.86435E-19 1.56630E-19
 -1       678 9.72699E-05-2.81241E-05-2.96332E-05-6.55279E-06 9.78286E-20-1.50109E-19
 -1       679 9.80918E-05-2.85914E-05-2.97855E-05-7.40586E-06-1.15486E-19 4.14305E-19
 -1       680 9.92892E-05-2.95029E-05-2.99087E-05-8.10644E-06-8.10082E-20 6.94957E-19
 -1       681 1.01062E-04-3.10646E-05-3.00003E-05-8.43563E-06 3.55452E-19 6.57852E-19
 -1       682 1.03656E-04-3.34702E-05-3.00829E-05-8.06174E-06-3.50118E-19 4.55543E-19
 -1       683 1.07275E-04-3.67505E-05-3.02302E-05-6.51908E-06-6.12194E-19 1.12666E-19
 -1       684 1.11870E-04-4.04870E-05-3.06012E-05-3.23841E-06-9.51814E-19 6.48096E-19
 -1       685 1.16657E-04-4.32835E-05-3.14526E-05 2.13845E-06-6.50554E-19 1.05111E-18
 -1       686 1.19841E-04-4.27663E-05-3.30374E-05 9.07317E-06-8.16498E-19 2.13479E-18
 -1       687 1.18721E-04-3.61319E-05-3.55013E-05 1.43329E-05 2.81466E-19 2.04144E-18
 -1       688 1.14243E-04-2.55365E-05-3.81801E-05 1.30668E-05 6.36122E-19 1.05112E-18
 -1       689 1.10504E-04-1.80622E-05-3.98187E-05 3.47080E-06 1.16934E-18 1.91118E-19
 -1       690 1.11718E-04-2.03112E-05-3.93943E-05-8.78214E-06 1.65081E-18-8.25821E-19
 -1       691 1.16696E-04-3.04358E-05-3.71446E-05-1.48935E-05 4.13220E-19-1.58066E-18
 -1       692 1.19953E-04-3.98303E-05-3.43944E-05-1.25017E-05 4.08516E-19-1.37127E-18
 -1       693 1.18755E-04-4.35635E-05-3.22476E-05-5.90414E-06 2.67477E-19-4.04157E-19
 -1       694 1.14563E-04-4.22441E-05-3.10060E-05 4.83863E-07-6.85005E-19-2.02232E-19
 -1       695 1.09705E-04-3.87581E-05-3.04120E-05 4.90908E-06 9.01538E-20-3.19302E-19
 -1       696 1.05526E-04-3.51219E-05-3.01775E-05 7.28401E-06 1.16134E-18 5.82651E-19
 -1       697 1.02400E-04-3.22134E-05-3.00828E-05 8.18801E-06 5.09366E-19 1.50815E-18
 -1       698 1.00223E-04-3.01970E-05-3.00122E-05 8.13843E-06 6.91953E-19 6.05683E-19
 -1       699 9.87573E-05-2.89434E-05-2.99202E-05 7.53878E-06 1.83395E-19 2.39932E-18
 -1       700 9.77726E-05-2.82424E-05-2.97981E-05 6.66497E-06-5.46000E-19 2.11762E-18
 -1       701 9.70976E-05-2.79035E-05-2.96538E-05 5.69461E-06-1.77705E-18 1.77933E-18
 -1       702 9.66192E-05-2.77840E-05-2.94999E-05 4.73630E-06-4.77121E-19 2.24254E-19
 -1       703 9.62675E-05-2.77868E-05-2.93480E-05 3.85131E-06 1.16853E-18-1.80767E-19
 -1       704 9.60003E-05-2.78495E-05-2.92067E-05 3.06908E-06 6.27528E-19-7.31643E-19
 -1       705 9.57913E-05-2.79333E-05-2.90814E-05 2.39811E-06-7.37307E-19-1.46753E-18
 -1       706 9.56233E-05-2.80147E-05-2.89745E-05 1.83416E-06-3.44725E-19-1.56282E-18
 -1       707 9.54839E-05-2.80800E-05-2.88867E-05 1.36528E-06 4.43298E-19 1.50631E-18
 -1       708 9.53360E-05-2.80543E-05-2.88345E-05 1.08647E-06 6.61801E-21 2.24342E-18
 -1       709 9.41359E-05-2.67878E-05-2.88636E-05 2.17321E-07 5.30749E-19-5.94511E-19
 -1       710 9.52645E-05-2.79890E-05-2.88321E-05-1.07546E-06 4.06708E-19-1.27033E-18
 -1       711 9.44779E-05-2.71348E-05-2.88614E-05 9.52110E-07 4.82329E-19-2.63463E-18
 -1       712 9.41365E-05-2.67882E-05-2.88637E-05-2.22104E-07-3.22985E-19 3.44736E-19
 -1       713 9.42545E-05-2.69077E-05-2.88630E-05 6.27205E-07-2.90150E-19-7.89073E-20
 -1       714 1.06856E-04-5.24628E-05-2.31240E-05 2.98052E-05-1.57152E-18-1.48423E-19
 -1       715 9.42530E-05-2.69057E-05-2.88633E-05-6.25180E-07-8.89061E-19 3.85911E-19
 -1       716 9.44757E-05-2.71320E-05-2.88618E-05-9.51004E-07 4.84893E-19-1.46116E-18
 -1       717 9.47786E-05-2.74428E-05-2.88584E-05-1.14515E-06 1.47080E-18 1.92527E-18
 -1       718 7.53122E-05-3.58446E-05-1.65485E-05 3.59169E-05-2.27775E-18 2.12706E-18
 -1       719 9.52881E-05-2.69259E-05-2.92960E-05 6.36798E-07 1.07375E-18-8.30036E-19
 -1       720 3.61209E-05-1.11928E-05-1.01260E-05 1.47383E-06-3.33023E-20 2.65910E-18
 -1       721 9.41917E-05-2.09272E-05-3.13988E-05-6.94891E-06-1.84929E-18-1.10764E-18
 -1       722 1.21904E-04-1.13060E-05-4.79704E-05 4.39343E-06-3.89953E-18-2.57405E-19
 -1       723 4.37342E-05-1.54747E-05-1.16247E-05-1.86761E-05-5.03303E-19-2.82051E-18
 -1       724 1.27911E-04-5.86001E-05-2.97017E-05-1.35121E-05-1.40469E-18 7.16947E-19
 -1       725 9.51156E-05-2.80853E-05-2.87270E-05-1.88428E-06 7.38563E-19-7.12027E-19
 -1       726 9.51043E-05-2.37818E-05-3.05673E-05-4.31711E-06-1.43624E-18-1.05959E-18
 -1       727 9.53665E-05-2.58587E-05-2.97854E-05 2.40967E-06 1.43889E-18-1.17252E-18
 -1       728 1.27930E-04-2.95626E-05-4.24983E-05-1.55849E-05 1.25168E-18-2.71051E-18
 -1       729 1.27668E-04-2.21489E-05-4.57065E-05 1.38649E-05-2.55444E-18-1.38029E-18
 -1       730 1.26199E-04-5.78141E-05-2.93040E-05 1.44774E-05-1.35770E-19-3.42063E-18
 -1       731 9.20748E-05-1.75332E-05-3.19523E-05 3.84274E-06 8.72494E-19-2.21927E-18
 -1       732 9.20336E-05-1.74750E-05-3.19592E-05-3.79117E-06-8.51796E-19-1.97610E-18
 -1       733 1.33061E-04-4.99964E-05-3.57863E-05 6.37669E-06-2.76808E-19 9.79422E-19
 -1       734 1.18796E-04-1.31031E-05-4.57936E-05-6.04175E-06 2.11044E-18-2.03992E-18
 -1       735 7.07996E-05-3.39386E-05-1.54512E-05-3.57305E-05-1.44186E-18-1.85132E-18
 -1       736 3.72848E-05-1.24723E-05-1.01093E-05 1.03707E-05 1.24862E-18-2.19593E-18
 -1       737 5.24652E-05-2.15411E-05-1.27664E-05 2.74694E-05 1.01070E-18-6.74662E-19
 -1       738 1.37097E-04-5.45056E-05-3.55747E-05-1.34101E-07 7.18897E-19 1.06250E-19
 -1       739 1.19707E-04-1.38144E-05-4.58691E-05 7.66950E-06 2.33845E-18-8.08189E-19
 -1       740 4.73784E-05-1.86577E-05-1.18006E-05 2.48373E-05-1.56636E-18 1.20670E-18
 -1       741 1.33623E-04-5.81047E-05-3.24697E-05-7.09715E-06 1.01838E-18-1.71262E-18
 -1       742 1.12577E-04-5.60589E-05-2.40854E-05-2.89109E-05 1.78920E-18-1.07246E-18
 -1       743 9.28725E-05-1.88085E-05-3.17459E-05-5.16229E-06-1.39044E-18-1.81330E-18
 -1       744 9.12594E-05-1.62488E-05-3.21527E-05-7.58755E-07-1.54875E-19-2.56016E-18
 -1       745 4.70478E-05-1.38267E-05-1.38684E-05-1.33668E-05 3.08955E-19 3.50179E-18
 -1       746 1.28438E-04-5.24210E-05-3.25867E-05-1.06281E-06 3.14585E-19-3.31638E-18
 -1       747 9.47782E-05-2.74433E-05-2.88581E-05 1.14589E-06-2.79349E-19-3.60130E-18
 -1       748 9.50639E-05-2.77472E-05-2.88500E-05 1.17368E-06-2.47800E-19 3.26130E-19
 -1       749 7.44938E-05-3.22229E-05-1.78287E-05 3.16142E-05 1.24233E-18-1.33210E-18
 -1       750 1.27730E-04-2.46531E-05-4.46571E-05-1.41382E-05-3.34949E-18 1.48425E-18
 -1       751 1.07306E-04-5.21245E-05-2.35113E-05 2.84459E-05 2.64211E-18-1.79906E-18
 -1       752 4.58842E-05-1.20235E-05-1.41217E-05-4.31130E-06-1.41560E-19-2.73136E-18
 -1       753 6.13895E-05-2.28844E-05-1.62028E-05-2.60946E-05-1.00040E-18-2.25929E-18
 -1       754 9.15112E-05-1.66445E-05-3.20912E-05-2.30839E-06-4.53641E-19-2.20709E-18
 -1       755 9.50133E-05-2.76644E-05-2.88639E-05-1.28531E-06-6.14857E-19-1.68772E-18
 -1       756 9.46318E-05-2.25910E-05-3.08773E-05 3.71609E-06 1.17684E-18-1.63759E-18
 -1       757 9.58152E-05-2.65687E-05-2.96771E-05-1.64217E-07-6.17411E-19-9.30703E-19
 -1       758 9.58649E-05-2.73345E-05-2.93702E-05 8.11167E-07-8.20856E-19-9.28712E-19
 -1       759 9.57940E-05-2.77417E-05-2.91653E-05 1.51849E-06-8.82234E-19-9.80278E-19
 -1       760 9.56525E-05-2.78926E-05-2.90399E-05 2.06154E-06-4.32386E-19-9.99216E-19
 -1       761 9.54645E-05-2.78557E-05-2.89752E-05 2.52822E-06-1.63171E-19-6.80419E-19
 -1       762 9.52404E-05-2.76792E-05-2.89547E-05 2.98921E-06-4.08413E-19-4.49495E-19
 -1       763 9.49841E-05-2.74011E-05-2.89641E-05 3.49947E-06-8.35052E-19-4.19467E-19
 -1       764 9.46989E-05-2.70570E-05-2.89893E-05 4.10013E-06-7.03730E-19-1.36540E-19
 -1       765 9.43926E-05-2.66892E-05-2.90156E-05 4.82024E-06-4.44203E-19-5.09300E-19
 -1       766 9.40857E-05-2.63562E-05-2.90268E-05 5.67792E-06-7.81144E-19-6.25879E-19
 -1       767 9.38235E-05-2.61463E-05-2.90043E-05 6.68119E-06-6.45093E-19-5.03689E-19
 -1       768 9.36937E-05-2.61939E-05-2.89282E-05 7.82842E-06-4.53874E-20-2.29410E-19
 -1       769 9.38551E-05-2.67001E-05-2.87804E-05 9.10629E-06 2.81297E-19-3.76893E-19
 -1       770 9.45771E-05-2.79545E-05-2.85522E-05 1.04772E-05 9.64937E-19 5.15774E-20
 -1       771 9.62880E-05-3.03417E-05-2.82616E-05 1.18391E-05 1.00104E-18-9.27501E-20
 -1       772 9.96133E-05-3.42945E-05-2.79930E-05 1.28931E-05 6.58323E-19-9.66453E-20
 -1       773 1.05242E-04-4.00288E-05-2.79413E-05 1.30472E-05 9.11029E-19-1.67362E-19
 -1       774 1.13945E-04-4.71820E-05-2.86345E-05 1.06020E-05 1.66806E-18-7.87710E-19
 -1       775 1.24459E-04-5.26056E-05-3.07774E-05 4.38364E-06 1.26614E-18-4.14576E-19
 -1       776 1.25151E-04-5.25271E-05-3.11726E-05-3.62074E-06 1.69168E-18-2.16947E-18
 -1       777 1.15277E-04-4.81171E-05-2.87779E-05-1.02456E-05 1.80923E-19-1.60432E-18
 -1       778 1.06229E-04-4.08899E-05-2.79869E-05-1.28409E-05 5.59505E-19-1.14591E-18
 -1       779 1.00186E-04-3.48699E-05-2.79882E-05-1.28961E-05 7.69882E-19 1.68662E-18
 -1       780 9.65932E-05-3.06656E-05-2.82541E-05-1.18601E-05-1.25819E-18 1.81358E-18
 -1       781 9.46885E-05-2.80606E-05-2.85548E-05-1.04621E-05-1.20389E-18 2.01160E-18
 -1       782 9.38420E-05-2.66417E-05-2.87998E-05-9.01983E-06-7.49447E-19 9.68595E-19
 -1       783 9.35978E-05-2.60121E-05-2.89649E-05-7.64959E-06 1.12048E-19-2.29764E-19
 -1       784 9.36666E-05-2.58704E-05-2.90552E-05-6.39365E-06-6.36220E-19 2.15210E-18
 -1       785 9.38760E-05-2.60063E-05-2.90868E-05-5.26833E-06-3.19382E-20 1.24038E-18
 -1       786 9.41289E-05-2.62812E-05-2.90774E-05-4.27939E-06 3.63988E-20 6.53576E-19
 -1       787 9.43743E-05-2.66072E-05-2.90429E-05-3.42621E-06 2.01911E-18 1.55030E-18
 -1       788 9.45880E-05-2.69310E-05-2.89958E-05-2.70224E-06 1.25101E-18-5.11167E-20
 -1       789 9.47628E-05-2.72233E-05-2.89454E-05-2.09907E-06 6.92279E-19-6.64744E-19
 -1       790 9.49189E-05-2.74735E-05-2.89050E-05-1.65959E-06-3.88080E-19-6.64651E-19
 -1       791 9.53408E-05-2.78746E-05-2.89140E-05-2.95677E-06 6.49653E-19-5.70144E-19
 -1       792 9.54545E-05-2.79884E-05-2.89140E-05-2.50900E-06 5.93979E-19-4.47523E-19
 -1       793 9.51017E-05-2.74235E-05-2.90048E-05-4.02353E-06 5.42394E-20-6.54609E-19
 -1       794 9.49882E-05-2.71561E-05-2.90707E-05-4.71292E-06 2.33071E-20-3.93456E-19
 -1       795 9.49025E-05-2.69263E-05-2.91324E-05-5.52970E-06 3.70527E-20-5.19192E-19
 -1       796 9.48885E-05-2.68135E-05-2.91747E-05-6.47155E-06 3.51002E-19-1.36959E-18
 -1       797 9.50276E-05-2.69384E-05-2.91808E-05-7.51715E-06-2.21667E-19-8.56481E-19
 -1       798 9.54633E-05-2.74798E-05-2.91354E-05-8.61928E-06-3.07474E-19-9.47706E-19
 -1       799 9.64305E-05-2.86892E-05-2.90318E-05-9.68944E-06-5.86071E-19-2.17153E-19
 -1       800 9.82861E-05-3.08860E-05-2.88859E-05-1.05602E-05-3.57364E-19 4.84545E-19
 -1       801 1.01509E-04-3.43922E-05-2.87645E-05-1.09044E-05-3.06277E-19 6.11978E-19
 -1       802 1.06582E-04-3.92965E-05-2.88362E-05-1.00812E-05-9.10538E-19 5.20365E-19
 -1       803 1.13808E-04-4.50609E-05-2.94945E-05-6.92346E-06-1.06034E-18 3.67367E-19
 -1       804 1.21745E-04-4.91644E-05-3.11203E-05-6.30585E-07-1.20384E-18 1.21510E-18
 -1       805 1.10186E-04-4.22976E-05-2.90900E-05 8.77329E-06-1.05542E-18-2.55925E-18
 -1       806 1.04037E-04-3.68527E-05-2.87883E-05 1.05387E-05-5.97812E-19-1.10516E-18
 -1       807 9.98325E-05-3.25369E-05-2.88426E-05 1.07026E-05 8.40550E-19 3.51562E-19
 -1       808 9.72867E-05-2.96330E-05-2.89950E-05 1.00120E-05-7.30077E-20-2.84251E-19
 -1       809 9.58790E-05-2.78987E-05-2.91343E-05 8.95839E-06-9.17110E-19 1.88687E-18
 -1       810 9.51789E-05-2.69968E-05-2.92205E-05 7.78229E-06-4.71513E-19 1.92005E-18
 -1       811 9.48863E-05-2.66359E-05-2.92498E-05 6.60777E-06-9.38450E-19 1.96004E-18
 -1       812 9.48105E-05-2.65992E-05-2.92331E-05 5.50188E-06 3.25467E-19-6.10017E-19
 -1       813 9.48383E-05-2.67388E-05-2.91852E-05 4.50046E-06 4.66448E-19-3.00384E-18
 -1       814 9.49062E-05-2.69590E-05-2.91200E-05 3.62013E-06 4.75522E-19-2.52413E-18
 -1       815 9.49802E-05-2.72003E-05-2.90483E-05 2.86459E-06 2.41854E-19-1.13372E-18
 -1       816 9.50443E-05-2.74285E-05-2.89781E-05 2.22785E-06 3.28933E-19-1.84680E-18
 -1       817 9.50881E-05-2.76210E-05-2.89143E-05 1.70007E-06-1.02943E-18-1.40300E-18
 -1       818 9.50727E-05-2.76880E-05-2.88795E-05 1.42031E-06-1.53090E-18-1.57168E-19
 -1       819 9.31177E-05-1.95011E-05-3.15511E-05 1.16342E-06 2.42866E-19-2.40362E-18
 -1       820 9.37020E-05-2.64017E-05-2.88430E-05-2.48149E-09 9.37731E-19-7.84763E-20
 -1       821 9.44031E-05-2.70319E-05-2.88735E-05-1.36373E-06 3.83289E-19 3.28068E-19
 -1       822 9.37847E-05-2.64751E-05-2.88470E-05-5.41189E-07 4.41224E-19-2.04313E-19
 -1       823 1.21276E-04-1.29156E-05-4.69517E-05-6.17985E-06-3.95347E-18 1.39264E-19
 -1       824 9.56936E-05-2.66745E-05-2.95798E-05 3.03229E-07 7.94519E-19-8.89686E-19
 -1       825 9.40262E-05-2.66918E-05-2.88577E-05-1.01996E-06 3.61283E-19-2.23155E-19
 -1       826 6.71918E-05-2.54501E-05-1.75956E-05-2.71172E-05 1.45173E-18 1.85674E-18
 -1       827 9.52221E-05-2.76755E-05-2.89484E-05-3.44753E-06 3.15824E-19-5.77292E-19
 -1       828 9.57113E-05-2.74104E-05-2.92717E-05-7.47815E-07 8.23360E-19-6.95064E-19
 -1       829 1.12251E-04-5.17117E-05-2.58276E-05-2.13717E-05-2.04667E-18 1.21944E-19
 -1       830 9.16500E-05-4.04214E-05-2.17532E-05-2.92341E-05-1.62417E-18-5.68955E-19
 -1       831 9.52283E-05-2.43553E-05-3.03722E-05 3.24394E-06 1.30642E-18-1.41792E-18
 -1       832 9.55489E-05-2.52841E-05-3.01136E-05-1.51418E-06-8.68930E-19-1.23088E-18
 -1       833 1.15780E-04-5.20026E-05-2.73008E-05 1.66984E-05-9.23941E-19-1.70406E-18
 -1       834 1.21829E-04-5.50066E-05-2.85993E-05-1.34761E-05 1.38697E-18-1.24488E-18
 -1       835 5.25345E-05-1.38949E-05-1.62932E-05 1.09747E-05-1.51354E-19 1.66173E-18
 -1       836 5.20609E-05-1.55923E-05-1.52843E-05 1.60223E-05 9.32458E-19-1.44427E-18
 -1       837 9.33645E-05-4.10548E-05-2.22839E-05 2.82955E-05-1.45850E-18 1.48955E-18
 -1       838 6.73236E-05-2.50162E-05-1.79058E-05 2.63947E-05-7.81328E-19 8.06230E-19
 -1       839 1.01151E-04-4.61730E-05-2.34623E-05-2.67966E-05 3.95114E-19-1.07785E-19
 -1       840 9.29988E-05-1.92910E-05-3.15903E-05 1.94092E-08-2.87096E-20-2.49003E-18
 -1       841 5.49736E-05-1.28882E-05-1.78659E-05-8.60548E-07-4.00795E-19 1.52246E-18
 -1       842 9.39585E-05-2.11030E-05-3.12272E-05-3.09991E-06-1.03242E-18-1.49972E-18
 -1       843 9.44050E-05-2.70345E-05-2.88728E-05 1.36396E-06-9.84688E-19-2.68438E-18
 -1       844 9.49994E-05-2.34737E-05-3.06531E-05-3.11125E-06-1.29005E-18-1.35576E-18
 -1       845 9.55605E-05-2.79822E-05-2.89621E-05-2.04589E-06 6.25452E-19-2.47691E-19
 -1       846 1.18221E-04-4.77896E-05-3.01610E-05 4.24168E-06-1.81426E-19-3.27859E-18
 -1       847 9.34490E-05-2.01121E-05-3.14319E-05 2.22653E-06 5.34863E-19-1.98984E-18
 -1       848 9.40293E-05-2.66955E-05-2.88574E-05 1.02065E-06-9.27588E-19-5.23267E-19
 -1       849 9.16947E-05-4.12468E-05-2.14207E-05 2.92903E-05 1.60310E-18-1.00279E-18
 -1       850 9.39921E-05-2.11530E-05-3.12173E-05 3.14037E-06 7.27986E-19-1.67306E-18
 -1       851 8.67985E-05-3.45458E-05-2.22904E-05-2.54367E-05 1.67996E-18 1.50233E-18
 -1       852 9.37860E-05-2.64771E-05-2.88468E-05 5.44149E-07-5.39229E-20-3.59945E-19
 -1       853 9.34335E-05-2.00834E-05-3.14369E-05-2.18716E-06-4.63058E-19-1.76902E-18
 -1       854 5.57543E-05-1.58351E-05-1.68866E-05-1.44287E-05-7.82255E-19-2.59200E-18
 -1       855 9.46430E-05-2.72357E-05-2.88878E-05-1.53963E-06-5.97845E-19 1.49226E-18
 -1       856 9.56521E-05-2.78114E-05-2.90746E-05-1.49113E-06 5.60572E-19-6.32815E-19
 -1       857 6.70544E-05-2.34918E-05-1.84740E-05 2.36884E-05 1.12496E-18-5.16902E-19
 -1       858 9.55339E-05-2.57283E-05-2.99163E-05 1.55914E-06 9.44513E-19-1.13651E-18
 -1       859 9.60447E-05-2.72197E-05-2.94964E-05 9.37094E-07-7.15197E-19-9.92018E-19
 -1       860 9.59075E-05-2.75740E-05-2.92858E-05 1.51872E-06-7.02122E-19-5.11697E-19
 -1       861 9.56360E-05-2.76376E-05-2.91422E-05 1.99412E-06-2.89289E-19-7.64358E-19
 -1       862 9.52586E-05-2.74795E-05-2.90482E-05 2.42950E-06-1.49079E-19-8.77807E-19
 -1       863 9.47891E-05-2.71519E-05-2.89874E-05 2.88047E-06-5.25080E-19-6.88915E-19
 -1       864 9.42326E-05-2.66985E-05-2.89432E-05 3.39192E-06-9.29060E-19-4.13041E-19
 -1       865 9.35912E-05-2.61624E-05-2.88981E-05 4.00000E-06-9.12291E-19-6.50179E-19
 -1       866 9.28706E-05-2.55944E-05-2.88326E-05 4.73545E-06-3.87517E-19-1.35072E-19
 -1       867 9.20887E-05-2.50650E-05-2.87244E-05 5.62777E-06-3.59400E-19 2.32346E-19
 -1       868 9.12888E-05-2.46764E-05-2.85481E-05 6.71201E-06-3.87557E-19 4.82855E-19
 -1       869 9.05578E-05-2.45807E-05-2.82759E-05 8.03896E-06-2.80943E-19-2.26970E-20
 -1       870 9.00602E-05-2.50059E-05-2.78805E-05 9.68673E-06 1.88143E-19-3.35645E-19
 -1       871 9.00934E-05-2.62909E-05-2.73433E-05 1.17591E-05 1.17172E-18-8.02481E-19
 -1       872 9.11433E-05-2.89042E-05-2.66719E-05 1.43814E-05 8.51975E-19-7.45620E-19
 -1       873 9.43738E-05-3.36580E-05-2.60305E-05 1.73240E-05 8.02926E-19-8.29623E-19
 -1       874 1.00747E-04-4.09129E-05-2.55567E-05 2.04129E-05 8.66932E-19-1.37215E-18
 -1       875 6.69906E-05-1.94551E-05-2.02777E-05 1.66143E-05-9.77072E-19 6.31364E-19
 -1       876 9.59280E-05-2.65345E-05-2.97403E-05-5.60184E-08 7.45084E-19-1.12922E-18
 -1       877 1.01805E-04-4.21164E-05-2.55226E-05-2.04259E-05 8.68162E-19-9.64903E-19
 -1       878 9.49179E-05-3.44171E-05-2.59220E-05-1.78797E-05 2.44116E-18-3.00882E-19
 -1       879 9.13529E-05-2.92849E-05-2.66038E-05-1.46635E-05 2.77064E-19-5.41625E-19
 -1       880 9.00592E-05-2.63793E-05-2.72924E-05-1.19157E-05 7.35743E-20 1.35578E-18
 -1       881 8.98881E-05-2.49024E-05-2.78506E-05-9.72756E-06-1.73236E-18 1.89305E-18
 -1       882 9.02878E-05-2.43302E-05-2.82673E-05-7.96713E-06-1.33989E-18 2.66034E-18
 -1       883 9.09405E-05-2.43112E-05-2.85552E-05-6.52916E-06 7.59199E-19 7.18089E-19
 -1       884 9.16651E-05-2.46059E-05-2.87395E-05-5.33252E-06-1.52507E-19 7.14371E-19
 -1       885 9.23654E-05-2.50575E-05-2.88462E-05-4.32517E-06-8.16148E-19 1.58121E-18
 -1       886 9.29934E-05-2.55651E-05-2.88978E-05-3.47525E-06 1.48120E-18 8.89015E-19
 -1       887 9.35297E-05-2.60652E-05-2.89133E-05-2.76264E-06 1.67310E-18 2.59949E-20
 -1       888 9.39706E-05-2.65214E-05-2.89071E-05-2.16593E-06 1.00666E-18 2.79631E-19
 -1       889 9.53824E-05-2.76657E-05-2.90214E-05-2.51290E-06 5.42171E-19-4.61598E-19
 -1       890 9.32930E-05-2.85754E-05-2.77380E-05 1.20516E-05 3.76603E-19 2.36682E-18
 -1       891 9.36314E-05-2.61432E-05-2.89234E-05-4.84617E-06-1.44637E-19-3.00625E-19
 -1       892 9.41465E-05-2.66043E-05-2.89466E-05-4.10794E-06-1.88673E-20-5.01047E-19
 -1       893 9.25860E-05-2.54634E-05-2.87666E-05-6.78550E-06-1.30003E-19-3.50316E-19
 -1       894 9.22050E-05-2.54966E-05-2.85890E-05-8.02904E-06-3.42095E-19-3.89108E-19
 -1       895 9.21276E-05-2.60520E-05-2.83177E-05-9.48888E-06-7.53581E-19-2.25809E-19
 -1       896 9.26571E-05-2.74518E-05-2.79448E-05-1.11885E-05-6.06890E-19-4.49311E-19
 -1       897 9.42916E-05-3.01374E-05-2.74935E-05-1.30971E-05-5.42726E-19-2.87932E-19
 -1       898 9.77788E-05-3.46271E-05-2.70594E-05-1.50011E-05-5.73990E-19 3.34603E-19
 -1       899 1.04333E-04-4.13397E-05-2.69832E-05-1.60952E-05-6.36277E-19 1.47440E-19
 -1       900 1.00888E-04-3.80147E-05-2.69358E-05 1.57508E-05-2.27982E-18-2.31518E-18
 -1       901 9.22172E-05-2.65011E-05-2.81641E-05 1.01726E-05-1.11903E-18 1.95287E-18
 -1       902 9.19781E-05-2.54875E-05-2.84957E-05 8.51897E-06-7.74168E-19 6.53342E-19
 -1       903 9.21790E-05-2.51521E-05-2.87256E-05 7.08463E-06-6.73822E-19 4.75430E-19
 -1       904 9.25802E-05-2.52224E-05-2.88675E-05 5.84316E-06 1.73868E-18-1.76644E-18
 -1       905 9.30435E-05-2.55127E-05-2.89417E-05 4.77113E-06 1.21196E-18-1.57220E-18
 -1       906 9.34944E-05-2.59025E-05-2.89679E-05 3.85116E-06 4.00457E-19-1.71019E-18
 -1       907 9.38964E-05-2.63161E-05-2.89630E-05 3.06934E-06 7.18255E-21-1.68632E-18
 -1       908 9.42346E-05-2.67065E-05-2.89404E-05 2.41657E-06-2.91241E-19-1.57232E-18
 -1       909 9.45058E-05-2.70494E-05-2.89097E-05 1.87139E-06-6.49220E-19-6.95438E-19
 -1       910 9.58472E-05-3.22161E-05-2.72784E-05 1.40392E-05-1.17173E-18-1.35684E-18
 -1       911 9.47493E-05-2.73624E-05-2.88799E-05 1.44418E-06-1.78907E-18-2.68537E-18
 -1       912 9.32042E-05-2.59615E-05-2.88184E-05-3.44385E-07 5.36424E-19-8.33679E-19
 -1       913 8.27084E-05-3.01449E-05-2.24616E-05 2.31033E-05-1.61328E-18 1.86470E-18
 -1       914 6.26692E-05-1.75696E-05-1.91757E-05-1.53039E-05 1.58534E-18 4.54638E-19
 -1       915 9.30944E-05-2.57294E-05-2.88706E-05-5.73192E-06 4.95462E-19-1.01729E-19
 -1       916 9.56747E-05-2.52253E-05-3.01929E-05-8.44183E-07-5.48742E-19-1.04949E-18
 -1       917 9.31026E-05-1.94842E-05-3.15530E-05-1.12350E-06-2.71785E-19-2.21548E-18
 -1       918 5.69882E-05-1.36512E-05-1.84206E-05 3.96303E-06 3.00616E-19-1.58619E-18
 -1       919 7.77304E-05-2.80090E-05-2.12029E-05-2.32938E-05-1.19384E-18-3.76142E-19
 -1       920 1.03752E-04-4.26633E-05-2.61566E-05 1.87565E-05-1.30866E-18-1.18856E-18
 -1       921 9.59931E-05-2.64784E-05-2.97921E-05 1.74643E-07-6.35113E-19-1.18752E-18
 -1       922 6.37426E-05-1.55195E-05-2.05957E-05 8.05888E-06-1.27766E-18 1.20797E-18
 -1       923 8.08892E-05-3.16431E-05-2.09746E-05 2.62088E-05 1.21136E-18-1.09502E-18
 -1       924 9.32058E-05-2.59633E-05-2.88182E-05 3.50259E-07 1.17771E-18 1.75342E-20
 -1       925 9.50310E-05-2.34741E-05-3.06664E-05-1.91977E-06-8.40584E-19-1.11529E-18
 -1       926 9.56199E-05-2.52576E-05-3.01548E-05 1.10893E-06 6.07454E-19-1.21615E-18
 -1       927 9.56701E-05-2.77663E-05-2.91016E-05-2.05891E-06 5.45784E-19-8.19511E-19
 -1       928 9.50285E-05-2.74102E-05-2.89793E-05-2.97488E-06 5.59599E-19-1.80706E-19
 -1       929 9.43564E-05-2.69152E-05-2.89031E-05-1.83990E-06 1.11796E-18 6.47830E-19
 -1       930 6.09456E-05-1.44737E-05-1.98106E-05-4.67315E-06 2.50475E-19-1.14181E-18
 -1       931 9.46151E-05-2.70428E-05-2.89595E-05-3.49408E-06 6.31024E-19-3.87740E-19
 -1       932 9.45332E-05-2.22344E-05-3.09851E-05 1.07609E-06 4.00656E-19-2.01346E-18
 -1       933 9.34242E-05-2.61427E-05-2.88349E-05-9.94789E-07 7.23923E-19-2.15391E-19
 -1       934 9.51992E-05-2.39688E-05-3.05271E-05 2.03942E-06 6.39053E-19-1.30019E-18
 -1       935 7.68033E-05-2.48807E-05-2.22077E-05-1.97997E-05 1.87336E-18 2.16800E-18
 -1       936 9.39276E-05-2.65644E-05-2.88702E-05 1.56010E-06-1.29338E-20-3.25326E-18
 -1       937 9.46789E-05-2.25615E-05-3.09015E-05-1.45461E-06-5.44048E-19-1.33412E-18
 -1       938 9.07449E-05-3.29672E-05-2.47295E-05-1.99212E-05-4.98697E-19-6.65483E-19
 -1       939 9.43634E-05-2.18641E-05-3.10711E-05 3.79335E-07 2.09167E-19-2.29195E-18
 -1       940 7.05611E-05-2.11493E-05-2.10645E-05-1.75941E-05-7.46465E-19-1.17435E-18
 -1       941 9.59821E-05-2.72834E-05-2.94424E-05-9.12305E-07 4.64310E-19-8.92016E-19
 -1       942 6.40053E-05-1.72485E-05-1.99216E-05 1.29466E-05 2.78580E-19-8.81960E-19
 -1       943 9.39279E-05-2.65636E-05-2.88706E-05-1.54140E-06 5.07407E-19-6.92292E-19
 -1       944 9.58181E-05-2.73816E-05-2.93300E-05 1.35546E-06-2.67690E-19-8.72907E-19
 -1       945 9.53918E-05-2.73196E-05-2.91738E-05 1.72809E-06-1.10389E-19-8.57294E-19
 -1       946 9.48140E-05-2.70172E-05-2.90558E-05 2.08960E-06-1.80080E-19-6.17322E-19
 -1       947 9.40964E-05-2.65273E-05-2.89582E-05 2.47992E-06-5.28267E-19-4.05983E-19
 -1       948 9.32408E-05-2.58965E-05-2.88620E-05 2.93344E-06-7.19553E-19-2.30843E-19
 -1       949 9.22427E-05-2.51695E-05-2.87458E-05 3.48118E-06-3.58518E-19 4.68248E-19
 -1       950 9.10980E-05-2.44002E-05-2.85850E-05 4.15641E-06-2.89122E-19 1.11714E-20
 -1       951 8.98076E-05-2.36579E-05-2.83501E-05 5.00153E-06-1.94708E-19-3.70473E-19
 -1       952 8.83855E-05-2.30383E-05-2.80063E-05 6.08163E-06-6.14965E-19 8.79993E-20
 -1       953 8.68690E-05-2.26747E-05-2.75126E-05 7.50649E-06-3.55743E-19-4.43588E-19
 -1       954 8.53391E-05-2.27638E-05-2.68202E-05 9.45941E-06 6.36982E-19-3.61754E-19
 -1       955 8.40053E-05-2.36470E-05-2.58722E-05 1.22389E-05 9.70496E-19-7.03007E-19
 -1       956 8.32947E-05-2.57382E-05-2.46615E-05 1.63008E-05 3.00333E-19-1.25609E-18
 -1       957 9.58231E-05-2.53715E-05-3.01953E-05-3.53378E-07-6.90460E-19-1.35523E-18
 -1       958 9.57537E-05-2.53100E-05-3.01908E-05 5.11867E-07 5.99022E-19-1.44139E-18
 -1       959 8.74958E-05-2.64368E-05-2.61714E-05 1.38559E-05-2.98909E-18 2.43492E-18
 -1       960 8.33457E-05-2.61672E-05-2.44528E-05-1.67524E-05 1.15079E-18 1.49611E-18
 -1       961 8.37594E-05-2.36505E-05-2.57666E-05-1.25756E-05 5.31547E-19 1.28158E-18
 -1       962 8.49667E-05-2.25911E-05-2.67329E-05-9.63885E-06-8.03126E-19 7.78859E-19
 -1       963 8.64241E-05-2.23538E-05-2.74589E-05-7.54178E-06-5.99642E-19-4.52909E-19
 -1       964 8.78766E-05-2.26023E-05-2.79748E-05-6.00468E-06-3.86529E-19 8.84022E-20
 -1       965 8.92230E-05-2.31203E-05-2.83297E-05-4.82602E-06 5.71908E-19 5.85956E-19
 -1       966 9.04232E-05-2.37733E-05-2.85643E-05-3.88621E-06-2.57150E-20 1.30412E-18
 -1       967 9.14605E-05-2.44681E-05-2.87111E-05-3.11999E-06 1.04110E-20 1.98381E-18
 -1       968 9.23364E-05-2.51459E-05-2.87960E-05-2.48869E-06 1.84909E-19 1.07494E-18
 -1       969 9.30503E-05-2.57588E-05-2.88391E-05-1.96332E-06 1.11469E-18-5.31251E-19
 -1       970 9.60873E-05-2.65001E-05-2.98234E-05 3.83920E-07-4.97883E-19-1.34717E-18
 -1       971 8.87904E-05-2.37513E-05-2.78738E-05-7.94796E-06-5.44735E-19 1.24485E-20
 -1       972 8.98494E-05-2.39092E-05-2.82601E-05-6.52815E-06 7.53558E-20 2.33153E-19
 -1       973 8.74524E-05-2.53670E-05-2.66086E-05-1.22954E-05-6.83514E-19-4.61174E-19
 -1       974 8.79787E-05-2.80256E-05-2.56943E-05-1.56466E-05-5.91962E-19-9.49225E-19
 -1       975 7.85703E-05-2.35227E-05-2.35640E-05 1.60689E-05-2.97157E-18 6.74685E-19
 -1       976 8.90096E-05-2.34458E-05-2.80986E-05 6.99190E-06 9.15778E-19 6.40827E-19
 -1       977 8.74236E-05-2.44479E-05-2.69915E-05 1.09140E-05-4.02629E-20 3.49166E-18
 -1       978 9.00162E-05-2.36993E-05-2.84216E-05 5.65622E-06 9.36088E-19-5.33199E-20
 -1       979 9.09855E-05-2.41746E-05-2.86334E-05 4.57563E-06 1.49519E-18-5.10588E-19
 -1       980 9.18621E-05-2.47488E-05-2.87630E-05 3.68513E-06 1.23854E-18-7.17492E-19
 -1       981 9.26206E-05-2.53405E-05-2.88343E-05 2.94523E-06-1.54445E-19 1.51432E-18
 -1       982 9.32537E-05-2.58986E-05-2.88664E-05 2.33118E-06 5.55523E-19-4.63194E-19
 -1       983 9.36200E-05-2.62512E-05-2.88717E-05 1.91619E-06 1.67183E-19-2.08948E-18
 -1       984 8.95049E-05-3.11830E-05-2.49593E-05 1.85064E-05-2.28041E-18 1.15466E-18
 -1       985 9.53451E-05-2.41308E-05-3.05246E-05-8.46620E-07-5.66538E-19-1.25075E-18
 -1       986 9.43595E-05-2.18579E-05-3.10713E-05-3.54774E-07-1.35953E-19-2.13380E-18
 -1       987 8.78972E-05-2.41204E-05-2.73326E-05-9.80503E-06-7.29762E-19-5.69368E-19
 -1       988 6.49799E-05-1.52844E-05-2.12340E-05-5.69492E-06 7.04606E-19 7.15124E-19
 -1       989 9.28897E-05-2.56461E-05-2.88187E-05-3.79789E-06 1.02211E-19 1.89339E-20
 -1       990 9.58790E-05-2.76616E-05-2.92360E-05-1.55056E-06 3.50654E-19-7.21572E-19
 -1       991 9.53242E-05-2.41107E-05-3.05180E-05 1.16069E-06 6.84433E-19-1.44414E-18
 -1       992 9.45558E-05-2.23271E-05-3.09561E-05 1.75458E-06 4.43442E-19-1.72512E-18
 -1       993 8.80801E-05-2.36047E-05-2.76318E-05 8.68666E-06 2.47681E-20 2.24137E-18
 -1       994 9.45086E-05-2.21355E-05-3.10124E-05-9.49381E-07-3.30451E-19-2.01148E-18
 -1       995 9.60657E-05-2.71362E-05-2.95411E-05 9.24301E-07-5.31571E-19-1.18653E-18
 -1       996 9.34331E-05-2.61517E-05-2.88352E-05 1.00345E-06 3.39885E-20 2.30187E-18
 -1       997 7.40163E-05-1.93411E-05-2.34022E-05 1.12195E-05-1.91453E-18-1.52205E-18
 -1       998 9.25263E-05-2.53843E-05-2.87754E-05 5.32533E-09-1.57693E-19 3.25408E-19
 -1       999 7.31977E-05-1.94576E-05-2.30110E-05-1.22181E-05 1.02302E-18 8.00773E-20
 -1      1000 9.55193E-05-2.74720E-05-2.91631E-05-1.88801E-06 5.33067E-19-8.25136E-19
 -1      1001 6.59970E-05-1.54504E-05-2.16071E-05 3.97909E-06 1.36783E-19-1.25503E-18
 -1      1002 9.19582E-05-2.49884E-05-2.87013E-05-4.52109E-06 3.59353E-19-3.55931E-19
 -1      1003 9.50338E-05-2.72355E-05-2.90565E-05-2.28784E-06 4.02255E-19-8.82332E-19
 -1      1004 9.37163E-05-2.62770E-05-2.89027E-05-3.20841E-06 4.00981E-19 2.70103E-19
 -1      1005 9.53301E-05-2.39391E-05-3.05951E-05 3.60379E-07 1.90615E-19-1.99621E-18
 -1      1006 9.09315E-05-2.43732E-05-2.85250E-05-5.41281E-06-4.29330E-20-1.13371E-19
 -1      1007 9.60591E-05-2.65017E-05-2.98104E-05-3.25742E-07 4.12978E-19-1.38069E-18
 -1      1008 7.20110E-05-2.23835E-05-2.11458E-05 1.85841E-05 1.37752E-19-8.28848E-19
 -1      1009 9.26729E-05-2.54968E-05-2.87895E-05-8.43447E-07 6.65477E-19 4.24381E-20
 -1      1010 9.52981E-05-2.39317E-05-3.05848E-05 7.39790E-07 3.55591E-19-1.71978E-18
 -1      1011 9.49930E-05-2.69720E-05-2.91519E-05 1.24292E-06 1.24827E-19-9.93259E-19
 -1      1012 9.42216E-05-2.65193E-05-2.90153E-05 1.49146E-06-3.30296E-19-1.04073E-18
 -1      1013 9.32699E-05-2.58702E-05-2.88857E-05 1.77081E-06-4.65007E-19-7.04369E-19
 -1      1014 9.21385E-05-2.50765E-05-2.87412E-05 2.10105E-06-7.29839E-20-2.51413E-19
 -1      1015 9.08048E-05-2.41738E-05-2.85567E-05 2.51056E-06-7.87384E-19-8.26755E-19
 -1      1016 8.92500E-05-2.32154E-05-2.83012E-05 3.02514E-06-2.15125E-19-8.73408E-19
 -1      1017 8.74363E-05-2.22525E-05-2.79370E-05 3.69356E-06-2.61493E-19-7.55237E-19
 -1      1018 8.53234E-05-2.13550E-05-2.74163E-05 4.59249E-06-3.66590E-19-6.49286E-20
 -1      1019 8.28290E-05-2.05908E-05-2.66763E-05 5.87090E-06 2.57904E-19 5.55287E-19
 -1      1020 7.98186E-05-2.00449E-05-2.56245E-05 7.79963E-06 7.48578E-19 1.60962E-19
 -1      1021 7.63836E-05-2.00081E-05-2.41279E-05 1.06899E-05 4.37807E-19-6.75889E-19
 -1      1022 9.52724E-05-2.37855E-05-3.06370E-05 6.74503E-09-2.09883E-20-1.95987E-18
 -1      1023 9.44312E-05-2.68219E-05-2.89756E-05-2.71527E-06 3.84279E-19-3.23657E-19
 -1      1024 8.35046E-05-2.13280E-05-2.66472E-05 7.86581E-06-1.04814E-19 1.51436E-18
 -1      1025 7.92818E-05-1.97999E-05-2.54972E-05-7.96735E-06-7.19931E-19 4.09088E-19
 -1      1026 8.22239E-05-2.02076E-05-2.65806E-05-5.94797E-06-8.99417E-19-6.12153E-20
 -1      1027 8.46869E-05-2.08657E-05-2.73527E-05-4.58569E-06-9.90247E-19-4.69217E-19
 -1      1028 8.67480E-05-2.16733E-05-2.78900E-05-3.61974E-06 1.10372E-18-5.49059E-19
 -1      1029 8.84722E-05-2.25373E-05-2.82586E-05-2.88060E-06 1.49868E-18 5.88436E-19
 -1      1030 8.99247E-05-2.34180E-05-2.85035E-05-2.30426E-06 1.05950E-19 1.52524E-18
 -1      1031 9.11263E-05-2.42557E-05-2.86598E-05-1.84042E-06 2.54324E-19 1.11582E-18
 -1      1032 9.21076E-05-2.50152E-05-2.87544E-05-1.46981E-06-1.01503E-18-4.43978E-19
 -1      1033 8.68088E-05-2.22136E-05-2.76844E-05-5.52939E-06-3.61586E-19 9.34003E-19
 -1      1034 9.59340E-05-2.56204E-05-3.01329E-05-8.47632E-09-5.83102E-19-1.44443E-18
 -1      1035 9.26789E-05-2.55039E-05-2.87892E-05 8.47054E-07 2.06187E-19 6.61404E-19
 -1      1036 8.04518E-05-2.21309E-05-2.49943E-05-1.21209E-05-1.51376E-19-7.93101E-19
 -1      1037 8.54837E-05-2.15613E-05-2.73948E-05 6.08643E-06 1.02169E-18 1.71455E-18
 -1      1038 8.13532E-05-2.15448E-05-2.56336E-05 1.03747E-05-2.09198E-18-9.40510E-19
 -1      1039 9.55837E-05-2.71827E-05-2.93150E-05 9.98522E-07-3.82856E-19-9.01054E-19
 -1      1040 9.01385E-05-2.35838E-05-2.85241E-05 3.05041E-06 1.04218E-18 3.05030E-18
 -1      1041 9.12640E-05-2.43509E-05-2.86771E-05 2.43700E-06 1.05105E-18 2.60693E-18
 -1      1042 9.21929E-05-2.50689E-05-2.87673E-05 1.92855E-06 1.76167E-18 9.17599E-19
 -1      1043 7.00950E-05-1.76699E-05-2.24527E-05-9.45284E-06-3.58172E-19-7.90239E-19
 -1      1044 9.58733E-05-2.74765E-05-2.93129E-05-1.46516E-06 2.86230E-19-1.13505E-18
 -1      1045 8.85604E-05-2.29401E-05-2.81235E-05-4.47272E-06-7.47381E-21 6.03613E-19
 -1      1046 8.27071E-05-2.15985E-05-2.61894E-05-9.04436E-06-4.56617E-19-1.21864E-19
 -1      1047 8.48586E-05-2.17177E-05-2.70611E-05-6.96708E-06-1.02016E-19 9.18815E-19
 -1      1048 8.88020E-05-2.28087E-05-2.82838E-05 3.81859E-06 7.15034E-19 6.89739E-19
 -1      1049 7.85050E-05-2.39350E-05-2.33557E-05-1.68031E-05-5.51418E-19-1.04545E-18
 -1      1050 9.58536E-05-2.53835E-05-3.02016E-05 1.13993E-07 4.06282E-19-1.47829E-18
 -1      1051 9.30798E-05-2.58221E-05-2.88248E-05 1.44983E-06 1.29011E-18-9.01510E-19
 -1      1052 9.60726E-05-2.71854E-05-2.95230E-05-9.66094E-07 1.84774E-19-1.42233E-18
 -1      1053 7.22243E-05-1.90934E-05-2.27424E-05 1.17427E-05 1.00213E-19-9.92946E-19
 -1      1054 8.72580E-05-2.21077E-05-2.79220E-05 4.79266E-06 1.15542E-18 3.56055E-19
 -1      1055 7.00485E-05-1.60132E-05-2.31419E-05 1.86393E-06-5.13119E-19 1.15038E-19
 -1      1056 7.10239E-05-1.64944E-05-2.33572E-05-2.26014E-06-2.09216E-19-1.08039E-18
 -1      1057 9.53060E-05-2.38756E-05-3.06140E-05-2.83970E-07-2.93628E-19-1.78737E-18
 -1      1058 9.58428E-05-2.52573E-05-3.02490E-05 3.58000E-08 9.43044E-20-1.80218E-18
 -1      1059 9.18000E-05-2.47866E-05-2.87178E-05-5.20165E-07-1.16377E-18 1.33937E-18
 -1      1060 9.61170E-05-2.66173E-05-2.97875E-05 4.00891E-07-2.16524E-19-1.50685E-18
 -1      1061 9.14688E-05-2.46376E-05-2.86419E-05-3.05385E-06 2.60294E-19 6.64832E-19
 -1      1062 9.26303E-05-2.54413E-05-2.87955E-05-2.55420E-06 3.67458E-19 3.05219E-19
 -1      1063 9.17850E-05-2.47770E-05-2.87169E-05 5.50946E-07 1.94251E-19-8.29955E-19
 -1      1064 9.59684E-05-2.70841E-05-2.95220E-05 7.32347E-07-2.42491E-19-1.14348E-18
 -1      1065 9.56967E-05-2.72766E-05-2.93229E-05-1.19845E-06 8.59865E-20-1.63449E-18
 -1      1066 9.51786E-05-2.71320E-05-2.91630E-05-1.50688E-06-1.81150E-20-6.92338E-19
 -1      1067 9.01106E-05-2.37775E-05-2.84288E-05-3.67516E-06 1.99157E-19 9.96464E-19
 -1      1068 7.39309E-05-1.72935E-05-2.42670E-05-4.29506E-06-4.64169E-19-8.19435E-19
 -1      1069 9.58521E-05-2.52595E-05-3.02537E-05-2.16089E-08-2.84914E-19-1.54856E-18
 -1      1070 9.35828E-05-2.60437E-05-2.89455E-05 6.40728E-07-2.03258E-19-1.21924E-18
 -1      1071 9.24327E-05-2.52533E-05-2.87893E-05 7.72644E-07-4.40111E-19-1.24071E-18
 -1      1072 9.10531E-05-2.43139E-05-2.86014E-05 9.19866E-07-3.80731E-19-1.62530E-18
 -1      1073 8.94354E-05-2.32778E-05-2.83527E-05 1.09473E-06-2.72747E-19-9.79766E-19
 -1      1074 8.75180E-05-2.21675E-05-2.80068E-05 1.32309E-06-2.39526E-19-8.12382E-19
 -1      1075 8.52212E-05-2.10171E-05-2.75161E-05 1.61921E-06 4.76411E-19-5.70114E-19
 -1      1076 8.25105E-05-1.99017E-05-2.68275E-05 2.03712E-06 4.74679E-19 3.37333E-20
 -1      1077 7.90810E-05-1.88000E-05-2.58327E-05 2.64260E-06-2.62919E-20 3.36787E-20
 -1      1078 7.84905E-05-1.84365E-05-2.57435E-05-3.12314E-06-1.15312E-18-1.03282E-19
 -1      1079 9.52557E-05-2.69843E-05-2.92588E-05 4.39239E-07 3.18229E-20-1.29298E-18
 -1      1080 8.19625E-05-1.95095E-05-2.67691E-05-2.36111E-06-1.36410E-18-3.87887E-19
 -1      1081 8.45387E-05-2.04461E-05-2.74661E-05-1.82390E-06 4.22261E-19 1.04510E-18
 -1      1082 8.67749E-05-2.15240E-05-2.79649E-05-1.42431E-06 1.94604E-18 4.34020E-19
 -1      1083 8.85819E-05-2.25481E-05-2.83013E-05-1.15300E-06 1.05916E-18-4.39424E-19
 -1      1084 9.01001E-05-2.35270E-05-2.85269E-05-9.37466E-07-3.18254E-19 4.50410E-19
 -1      1085 9.10047E-05-2.41813E-05-2.86390E-05-7.12596E-07-5.73726E-19 8.49879E-19
 -1      1086 7.26476E-05-1.73153E-05-2.37071E-05 5.41242E-06-2.02951E-19-1.35860E-18
 -1      1087 8.19237E-05-1.97060E-05-2.66655E-05 4.01118E-06-9.38461E-20-1.88334E-18
 -1      1088 7.86622E-05-1.88667E-05-2.56280E-05 5.40521E-06-2.65645E-18-3.22497E-18
 -1      1089 9.00072E-05-2.36555E-05-2.84371E-05-1.84794E-06 9.37464E-21-3.07445E-19
 -1      1090 9.11867E-05-2.43159E-05-2.86600E-05 1.19917E-06 6.37260E-19-1.86080E-18
 -1      1091 8.99217E-05-2.34079E-05-2.85032E-05 1.52325E-06 1.41565E-18-3.32953E-18
 -1      1092 8.82507E-05-2.26178E-05-2.81291E-05-2.25093E-06 1.82973E-19 6.84654E-20
 -1      1093 8.08700E-05-1.96884E-05-2.62121E-05-4.65599E-06-1.00382E-19-8.98751E-19
 -1      1094 8.61698E-05-2.15550E-05-2.76925E-05-2.78141E-06 6.62761E-20 2.34578E-19
 -1      1095 7.70070E-05-1.87591E-05-2.49603E-05-6.28618E-06 5.31344E-20-5.70596E-19
 -1      1096 9.60240E-05-2.71183E-05-2.95315E-05-8.49395E-07 1.65643E-19-1.77739E-18
 -1      1097 9.45191E-05-2.66335E-05-2.90940E-05 5.35615E-07-9.19980E-20-1.45481E-18
 -1      1098 8.84437E-05-2.24844E-05-2.82677E-05 1.92833E-06 4.62792E-19-1.71729E-18
 -1      1099 9.61073E-05-2.64729E-05-2.98435E-05-3.54478E-07 2.98518E-19-1.47219E-18
 -1      1100 8.36776E-05-2.05059E-05-2.70774E-05-3.54994E-06 9.84876E-20-7.22506E-19
 -1      1101 7.58898E-05-1.76403E-05-2.49607E-05 6.96320E-07-5.00636E-19-4.27104E-19
 -1      1102 9.57810E-05-2.70467E-05-2.94573E-05 3.45848E-07-1.36628E-19-9.93513E-19
 -1      1103 9.61014E-05-2.64515E-05-2.98519E-05-1.21714E-07 3.09966E-19-1.38835E-18
 -1      1104 9.36346E-05-2.61571E-05-2.89187E-05-2.15272E-06 1.34699E-19-1.58751E-19
 -1      1105 9.14990E-05-2.46312E-05-2.86585E-05-1.52887E-06-1.30948E-19-3.78620E-19
 -1      1106 9.44936E-05-2.67424E-05-2.90354E-05-1.81904E-06-2.10831E-19-3.48009E-19
 -1      1107 8.66508E-05-2.15237E-05-2.79124E-05 2.42282E-06 8.52159E-19-3.68628E-19
 -1      1108 8.45674E-05-2.06182E-05-2.74001E-05 3.06906E-06 1.77489E-18-1.25936E-18
 -1      1109 9.58699E-05-2.70665E-05-2.94871E-05-5.38909E-07-4.61112E-20-1.18105E-18
 -1      1110 9.53995E-05-2.70678E-05-2.92848E-05-7.24197E-07-3.45261E-19-1.09235E-18
 -1      1111 7.75885E-05-1.79810E-05-2.55446E-05 1.16501E-06-1.53414E-18-1.54945E-18
 -1      1112 9.29811E-05-2.56321E-05-2.88650E-05-4.40068E-07-3.12272E-19-1.22344E-18
 -1      1113 7.95710E-05-1.88601E-05-2.60289E-05-2.00606E-06 2.73635E-19-1.14128E-18
 -1      1114 9.03179E-05-2.37022E-05-2.85574E-05 1.27283E-07-2.60883E-19-6.27788E-19
 -1      1115 8.30166E-05-1.98149E-05-2.71046E-05 9.49495E-07 4.87299E-19-1.24746E-18
 -1      1116 9.40454E-05-2.63325E-05-2.90189E-05-3.69888E-07-2.76429E-20-1.35402E-18
 -1      1117 9.60760E-05-2.67688E-05-2.97016E-05 2.22268E-07 3.78019E-20-9.75687E-19
 -1      1118 8.06591E-05-1.89672E-05-2.64331E-05 1.04396E-06-4.51770E-19-2.99626E-18
 -1      1119 9.49049E-05-2.68322E-05-2.91750E-05-3.02982E-07-1.37534E-19-1.35530E-18
 -1      1120 9.46546E-05-2.67553E-05-2.91009E-05-1.02991E-06-2.26928E-19-1.08341E-18
 -1      1121 1.16651E-04 2.57004E-10-4.17851E-05-4.14068E-05-2.19382E-19 1.03857E-17
 -1      1122 8.85507E-05 7.18374E-11-3.72094E-05-2.41430E-05-1.45160E-19 2.59520E-18
 -1      1123 8.40398E-05 4.14626E-11-3.57496E-05-1.78557E-05-1.14349E-19-9.85523E-19
 -1      1124 8.23453E-05 3.20270E-11-3.50758E-05-1.38113E-05-7.77153E-20-2.78354E-18
 -1      1125 8.15773E-05 2.73341E-11-3.47570E-05-1.05054E-05-5.62748E-20-3.78431E-18
 -1      1126 8.11987E-05 2.45571E-11-3.46024E-05-7.61297E-06-3.88709E-20-4.30399E-18
 -1      1127 8.10039E-05 2.28647E-11-3.45257E-05-4.95803E-06-1.93792E-20-4.57024E-18
 -1      1128 8.09101E-05 2.19440E-11-3.44901E-05-2.42030E-06-1.52135E-20-4.71749E-18
 -1      1129 8.08836E-05 2.16636E-11-3.44803E-05 5.23093E-08 2.89761E-21-4.79273E-18
 -1      1130 8.09144E-05 2.19884E-11-3.44915E-05 2.52747E-06 1.17675E-20-4.79834E-18
 -1      1131 8.10127E-05 2.29668E-11-3.45284E-05 5.07371E-06 2.17714E-20-4.78522E-18
 -1      1132 8.12135E-05 2.47214E-11-3.46062E-05 7.74517E-06 4.03002E-20-4.56513E-18
 -1      1133 8.15984E-05 2.76324E-11-3.47629E-05 1.06649E-05 5.08617E-20-4.14342E-18
 -1      1134 8.23682E-05 3.25144E-11-3.50856E-05 1.40170E-05 7.93299E-20-3.35260E-18
 -1      1135 8.40361E-05 4.19282E-11-3.57695E-05 1.81070E-05 1.12020E-19-1.65338E-18
 -1      1136 8.82483E-05 6.66650E-11-3.72791E-05 2.39856E-05 1.37219E-19 1.86088E-18
 -1      1137 1.06428E-04 1.63592E-10-4.05650E-05 3.61449E-05 3.17002E-19 9.40154E-18
 -1      1138 1.29952E-04-2.57003E-05-4.01953E-05-2.60648E-05-9.81923E-19 1.53965E-17
 -1      1139 9.72318E-05-2.87956E-05-3.15084E-05-6.80447E-07-3.38098E-19 1.30786E-17
 -1      1140 8.99510E-05-2.69646E-05-2.78299E-05 3.85458E-07-1.17407E-19 9.65260E-18
 -1      1141 8.80562E-05-2.65154E-05-2.65863E-05 2.48795E-07-6.71671E-20 7.17654E-18
 -1      1142 8.77237E-05-2.63970E-05-2.63386E-05 1.63613E-07-7.08497E-20 5.69331E-18
 -1      1143 8.81285E-05-2.64880E-05-2.64381E-05 1.15630E-07-5.83568E-20 4.53785E-18
 -1      1144 8.88920E-05-2.66965E-05-2.66652E-05 8.50376E-08-1.09486E-20 3.83587E-18
 -1      1145 8.98305E-05-2.69665E-05-2.69465E-05 6.41510E-08-7.08352E-20 2.93725E-18
 -1      1146 9.08543E-05-2.72678E-05-2.72542E-05 4.92999E-08 1.38739E-20 1.90904E-18
 -1      1147 9.19273E-05-2.75870E-05-2.75780E-05 3.88029E-08-8.01402E-20 5.90276E-19
 -1      1148 9.30486E-05-2.79227E-05-2.79178E-05 3.19592E-08-5.06721E-20-4.25237E-19
 -1      1149 9.42436E-05-2.82819E-05-2.82810E-05 2.85817E-08 3.19095E-20-1.53889E-20
 -1      1150 9.55570E-05-2.86775E-05-2.86808E-05 2.87974E-08-4.93029E-20-6.33786E-19
 -1      1151 9.70479E-05-2.91266E-05-2.91348E-05 3.29505E-08-3.45890E-20-4.88963E-20
 -1      1152 9.87842E-05-2.96493E-05-2.96625E-05 4.15123E-08-2.37401E-21 2.55883E-19
 -1      1153 1.00834E-04-3.02650E-05-3.02833E-05 5.49070E-08-8.77473E-20-7.51345E-20
 -1      1154 1.03251E-04-3.09892E-05-3.10112E-05 7.31339E-08 5.95347E-20 5.42101E-20
 -1      1155 1.06051E-04-3.18253E-05-3.18473E-05 9.49997E-08 3.66788E-20-1.10617E-19
 -1      1156 1.09173E-04-3.27540E-05-3.27677E-05 1.16730E-07 2.07337E-20-1.00004E-18
 -1      1157 1.12425E-04-3.37159E-05-3.37068E-05 1.29832E-07 9.52498E-22-1.44242E-18
 -1      1158 1.15409E-04-3.45917E-05-3.45386E-05 1.18696E-07-9.73343E-20-1.59300E-18
 -1      1159 1.17468E-04-3.51856E-05-3.50664E-05 6.00328E-08-9.46559E-20-2.30459E-19
 -1      1160 1.17699E-04-3.52321E-05-3.50400E-05-7.06626E-08-1.51142E-20-4.78957E-19
 -1      1161 1.15166E-04-3.44609E-05-3.42284E-05-2.79144E-07-1.08953E-19-7.49148E-19
 -1      1162 1.09390E-04-3.27432E-05-3.25589E-05-5.19927E-07 1.13337E-19-1.47236E-18
 -1      1163 1.01039E-04-3.02930E-05-3.02750E-05-6.77667E-07 2.24003E-19 7.58624E-19
 -1      1164 9.23427E-05-2.77701E-05-2.79882E-05-6.10533E-07 2.58752E-19 3.74156E-18
 -1      1165 8.65252E-05-2.60967E-05-2.64970E-05-2.69994E-07 8.01505E-20 2.76755E-18
 -1      1166 8.61192E-05-2.59801E-05-2.63942E-05 2.07750E-07-1.09750E-19 1.05696E-18
 -1      1167 9.13110E-05-2.74723E-05-2.77226E-05 5.78740E-07 1.35668E-19 3.10967E-19
 -1      1168 9.98113E-05-2.99353E-05-2.99487E-05 6.84038E-07-5.35835E-20 1.98206E-19
 -1      1169 1.08379E-04-3.24449E-05-3.22773E-05 5.49244E-07 1.05227E-19-5.13302E-19
 -1      1170 1.14586E-04-3.42872E-05-3.40552E-05 3.11263E-07 6.32992E-20 1.88041E-19
 -1      1171 1.17564E-04-3.51896E-05-3.49889E-05 9.42361E-08-1.76123E-20 3.61537E-19
 -1      1172 1.17681E-04-3.52469E-05-3.51179E-05-4.72007E-08-3.18167E-20-1.43369E-18
 -1      1173 1.15852E-04-3.47225E-05-3.46620E-05-1.14030E-07 1.52100E-19-1.96996E-18
 -1      1174 1.13006E-04-3.38890E-05-3.38759E-05-1.29716E-07-9.30231E-20-2.32406E-18
 -1      1175 1.09842E-04-3.29546E-05-3.29672E-05-1.18230E-07 5.33971E-20-7.13665E-19
 -1      1176 1.06797E-04-3.20502E-05-3.20729E-05-9.62069E-08 2.88297E-19 6.84125E-19
 -1      1177 1.04095E-04-3.12443E-05-3.12684E-05-7.28861E-08-1.83967E-19-1.85421E-20
 -1      1178 1.01820E-04-3.05633E-05-3.05846E-05-5.24307E-08-1.70886E-19-3.13244E-18
 -1      1179 9.99739E-05-3.00091E-05-3.00263E-05-3.61460E-08-7.38143E-20-4.53203E-18
 -1      1180 9.85176E-05-2.95708E-05-2.95838E-05-2.39553E-08-3.87684E-19-5.94147E-18
 -1      1181 9.73960E-05-2.92323E-05-2.92420E-05-1.52092E-08 3.32848E-19-5.45534E-18
 -1      1182 9.65527E-05-2.89774E-05-2.89847E-05-9.04771E-09-1.56555E-19-2.89072E-18
 -1      1183 9.59390E-05-2.87914E-05-2.87976E-05-4.47701E-09 3.42519E-19-2.08764E-19
 -1      1184 9.55182E-05-2.86634E-05-2.86700E-05-2.46416E-10-1.06202E-19 4.60257E-19
 -1      1185 9.52683E-05-2.85869E-05-2.85940E-05 5.40879E-09-2.92439E-19-1.60208E-20
 -1      1186 9.51825E-05-2.85636E-05-2.85601E-05 1.57225E-08 3.84997E-19-2.55488E-18
 -1      1187 9.52044E-05-2.85612E-05-2.85461E-05 1.07529E-08 2.18865E-19-1.92457E-18
 -1      1188 1.30785E-04-3.76586E-05-3.85833E-05 1.21579E-05-1.50587E-19 1.57158E-17
 -1      1189 9.63345E-05-2.81230E-05-3.12612E-05 8.01602E-07 1.50745E-19 1.19474E-17
 -1      1190 9.01646E-05-2.68672E-05-2.78107E-05 1.21521E-07 8.99178E-20 8.57164E-18
 -1      1191 8.81428E-05-2.64426E-05-2.66225E-05 1.13260E-08 6.07945E-20 6.22834E-18
 -1      1192 8.77646E-05-2.63595E-05-2.63655E-05-2.18950E-08 7.48416E-20 4.32709E-18
 -1      1193 8.81510E-05-2.64705E-05-2.64538E-05-2.97021E-08 1.37769E-19 2.81310E-18
 -1      1194 8.89057E-05-2.66893E-05-2.66753E-05-2.94752E-08-2.22172E-20 2.21391E-18
 -1      1195 8.98395E-05-2.69647E-05-2.69538E-05-2.61540E-08-5.70937E-20 2.34046E-18
 -1      1196 9.08606E-05-2.72687E-05-2.72598E-05-2.13279E-08 3.98122E-20 1.50280E-18
 -1      1197 9.19316E-05-2.75891E-05-2.75823E-05-1.57829E-08 9.26477E-20 3.92441E-19
 -1      1198 9.30513E-05-2.79251E-05-2.79211E-05-1.00910E-08 1.64655E-19-8.24692E-19
 -1      1199 9.42444E-05-2.82838E-05-2.82835E-05-4.79139E-09 5.73888E-20-7.01443E-19
 -1      1200 9.55547E-05-2.86780E-05-2.86824E-05-5.04321E-10-6.19724E-21 2.51006E-19
 -1      1201 9.70403E-05-2.91249E-05-2.91349E-05 1.95084E-09-3.85867E-20 4.58761E-19
 -1      1202 9.87673E-05-2.96437E-05-2.96604E-05 1.42090E-09 1.04110E-19-5.87867E-19
 -1      1203 1.00801E-04-3.02533E-05-3.02773E-05-3.71138E-09 2.86717E-20-2.41353E-18
 -1      1204 1.03191E-04-3.09676E-05-3.09985E-05-1.55812E-08-7.55406E-20-2.65880E-18
 -1      1205 1.05950E-04-3.17887E-05-3.18236E-05-3.66360E-08 2.25427E-20-3.58542E-18
 -1      1206 1.09010E-04-3.26951E-05-3.27266E-05-6.87857E-08-7.27700E-20-3.76353E-18
 -1      1207 1.12174E-04-3.36269E-05-3.36402E-05-1.11280E-07-1.61296E-20-2.44861E-18
 -1      1208 1.15044E-04-3.44670E-05-3.44373E-05-1.56685E-07-5.93519E-20-2.99780E-18
 -1      1209 1.16973E-04-3.50277E-05-3.49231E-05-1.85473E-07-1.01634E-19-2.66017E-18
 -1      1210 1.17087E-04-3.50592E-05-3.48544E-05-1.63507E-07 1.00873E-19-4.02236E-18
 -1      1211 1.14498E-04-3.43081E-05-3.40134E-05-5.18427E-08 1.31125E-20-3.85649E-18
 -1      1212 1.08773E-04-3.26472E-05-3.23423E-05 1.61961E-07-3.81694E-20-2.47921E-18
 -1      1213 1.00590E-04-3.02553E-05-3.00925E-05 4.20337E-07 1.98757E-19-2.30022E-18
 -1      1214 9.21138E-05-2.77347E-05-2.78675E-05 5.86959E-07 9.12446E-20-1.05466E-18
 -1      1215 8.64455E-05-2.59906E-05-2.64377E-05 5.27613E-07 3.36299E-20-2.19392E-18
 -1      1216 8.60296E-05-2.57897E-05-2.63655E-05 2.34018E-07-1.33289E-19-1.97361E-18
 -1      1217 9.10612E-05-2.72519E-05-2.76811E-05-1.43587E-07-3.33916E-19-8.70962E-19
 -1      1218 9.93477E-05-2.97449E-05-2.98633E-05-4.14626E-07 4.38689E-19-3.48056E-18
 -1      1219 1.07757E-04-3.23042E-05-3.21445E-05-4.88975E-07-1.10624E-19-5.10994E-18
 -1      1220 1.13919E-04-3.41835E-05-3.38937E-05-4.03849E-07-3.57375E-20-2.55158E-18
 -1      1221 1.16952E-04-3.51054E-05-3.48243E-05-2.51955E-07-7.17860E-20-3.03230E-18
 -1      1222 1.17182E-04-3.51722E-05-3.49708E-05-1.08166E-07 5.57404E-20-5.17754E-18
 -1      1223 1.15479E-04-3.46544E-05-3.45432E-05-5.92629E-09 7.53065E-20-6.45781E-18
 -1      1224 1.12746E-04-3.38283E-05-3.37871E-05 5.21898E-08 3.34405E-19-8.24100E-18
 -1      1225 1.09671E-04-3.29025E-05-3.29045E-05 7.69813E-08-1.06758E-19-8.40287E-18
 -1      1226 1.06690E-04-3.20070E-05-3.20308E-05 8.10602E-08 3.78485E-19-8.08523E-18
 -1      1227 1.04031E-04-3.12094E-05-3.12410E-05 7.43002E-08 1.89222E-20-8.37747E-18
 -1      1228 1.01783E-04-3.05357E-05-3.05674E-05 6.30984E-08 1.94575E-19-7.32246E-18
 -1      1229 9.99543E-05-2.99876E-05-3.00157E-05 5.10974E-08-1.98929E-19-5.08202E-18
 -1      1230 9.85079E-05-2.95541E-05-2.95775E-05 4.01319E-08-3.62969E-19-2.83290E-18
 -1      1231 9.73917E-05-2.92196E-05-2.92383E-05 3.09729E-08-8.64888E-20-3.93262E-18
 -1      1232 9.65513E-05-2.89678E-05-2.89826E-05 2.37857E-08 1.56564E-19-4.32608E-18
 -1      1233 9.59390E-05-2.87843E-05-2.87966E-05 1.83337E-08 1.68910E-19-4.76594E-18
 -1      1234 9.55189E-05-2.86583E-05-2.86698E-05 1.39431E-08 5.12416E-19-8.24950E-18
 -1      1235 9.52691E-05-2.85831E-05-2.85943E-05 8.63335E-09-1.02012E-19-6.69379E-18
 -1      1236 9.51794E-05-2.85547E-05-2.85608E-05-2.02256E-09 3.10636E-19-6.12422E-18
 -1      1237 9.52079E-05-2.85637E-05-2.85464E-05-9.88538E-09-5.13709E-19-3.66427E-18
 -1      1238 9.52451E-05-2.86015E-05-2.85474E-05-1.02387E-08-3.10934E-18 6.03284E-20
 -1      1239 9.52483E-05-2.86226E-05-2.85634E-05-1.30464E-08-6.15655E-19 2.77753E-19
 -1      1240 9.52190E-05-2.85219E-05-2.85987E-05 1.15641E-09 1.50760E-18 5.33553E-19
 -1      1241 9.51503E-05-2.82876E-05-2.86649E-05 9.69812E-09 3.01173E-18-7.66085E-19
 -1      1242 9.50577E-05-2.79720E-05-2.87531E-05 1.34040E-08 3.14408E-18-2.51785E-19
 -1      1243 9.49611E-05-2.76429E-05-2.88458E-05 1.32667E-08-2.20442E-18-2.91044E-19
 -1      1244 9.48777E-05-2.73581E-05-2.89266E-05 1.05453E-08-2.71881E-18 4.33331E-19
 -1      1245 9.48209E-05-2.71645E-05-2.89816E-05 5.73192E-09-5.26372E-18 1.03962E-18
 -1      1246 9.48011E-05-2.70970E-05-2.90009E-05-4.87612E-11-3.85623E-18 2.47711E-19
 -1      1247 9.48215E-05-2.71666E-05-2.89810E-05-5.82827E-09 1.85052E-18 4.35513E-19
 -1      1248 9.48787E-05-2.73619E-05-2.89255E-05-1.06112E-08-3.39396E-18-1.10638E-19
 -1      1249 9.49629E-05-2.76481E-05-2.88444E-05-1.34728E-08-8.41716E-18-4.73061E-20
 -1      1250 9.50593E-05-2.79776E-05-2.87515E-05-1.33985E-08-5.98674E-18 2.19190E-20
 -1      1251 9.51517E-05-2.82926E-05-2.86635E-05-9.77072E-09-5.82758E-18-2.35134E-19
 -1      1252 9.52222E-05-2.85289E-05-2.85976E-05-1.50954E-09-7.88874E-18 3.54965E-19
 -1      1253 9.52433E-05-2.86158E-05-2.85623E-05 2.19544E-08 5.78246E-19 6.19122E-19
 -1      1254 9.52468E-05-2.86051E-05-2.85468E-05 1.23626E-08 2.25684E-18 4.63651E-19
 -1      1255 3.42789E-05-1.06244E-04 1.79370E-05-1.33577E-05 2.40981E-19 1.85331E-18
 -1      1256 1.83066E-05-6.71978E-05 1.00962E-05-2.55589E-05 1.30020E-17 5.10422E-18
 -1      1257 7.15790E-06-1.27999E-05-4.49212E-06-3.86158E-06 1.49942E-17 7.94347E-18
 -1      1258 2.87138E-05 2.29853E-05-2.37177E-05 4.64930E-05 1.19787E-17 1.08835E-17
 -1      1259 9.42684E-05 1.73925E-05-4.33681E-05 9.54024E-05 9.98059E-18 1.42793E-17
 -1      1260 1.88949E-04-2.38228E-05-6.10954E-05 1.09146E-04 5.71917E-18 1.28630E-17
 -1      1261 2.77830E-04-7.42190E-05-7.35397E-05 7.32723E-05 2.34713E-18 8.44661E-18
 -1      1262 3.09316E-04-9.29373E-05-7.76238E-05-4.33530E-06 6.14522E-19-1.20512E-18
 -1      1263 2.67628E-04-6.73087E-05-7.23366E-05-7.90382E-05 1.85236E-18-7.51742E-18
 -1      1264 1.77013E-04-1.77604E-05-5.90003E-05-1.10948E-04 6.95668E-18-1.23582E-17
 -1      1265 8.41355E-05 2.01830E-05-4.11143E-05-9.08743E-05 1.18305E-17-1.50467E-17
 -1      1266 2.28263E-05 1.88738E-05-2.02931E-05-3.72410E-05 1.43284E-17-1.24497E-17
 -1      1267 7.51489E-06-2.28293E-05-1.16462E-06 1.12272E-05 1.47536E-17-8.15523E-18
 -1      1268 2.25166E-05-7.81291E-05 1.22847E-05 2.49970E-05 1.01881E-17-3.40613E-18
 -1      1269 3.55082E-05-1.09964E-04 1.86724E-05 5.91276E-06 8.80491E-19-1.05307E-18
 -1      1270 3.05871E-05-9.83374E-05 1.63201E-05-2.00164E-05-3.76337E-18-3.14620E-19
 -1      1271 1.27660E-05-4.89833E-05 5.81121E-06-2.17850E-05-7.07103E-18-3.30089E-18
 -1      1272 1.22313E-05 4.41527E-06-1.20301E-05 1.53619E-05-1.03372E-17-8.12220E-18
 -1      1273 5.58750E-05 2.44605E-05-3.33660E-05 7.23622E-05-1.18093E-17-1.30545E-17
 -1      1274 1.42659E-04-1.49164E-06-5.30612E-05 1.09286E-04-7.73595E-18-1.44233E-17
 -1      1275 2.41282E-04-5.21660E-05-6.89261E-05 9.41914E-05-4.48059E-18-1.26428E-17
 -1      1276 3.05849E-04-9.07524E-05-7.71921E-05 3.07317E-05-1.08370E-18-6.45016E-18
 -1      1277 2.94477E-04-8.42733E-05-7.58246E-05-5.11982E-05-6.57351E-19 1.58480E-18
 -1      1278 2.18213E-04-3.98798E-05-6.54496E-05-1.05366E-04-4.78150E-18 1.13452E-17
 -1      1279 1.15133E-04 9.69512E-06-4.79099E-05-1.02578E-04-8.75493E-18 1.36271E-17
 -1      1280 3.60873E-05 2.47558E-05-2.67034E-05-5.47739E-05-1.40489E-17 1.31866E-17
 -1      1281 7.52275E-06-6.88230E-06-6.62808E-06-8.14716E-07-1.52025E-17 9.90605E-18
 -1      1282 1.69964E-05-6.32489E-05 9.20452E-06 2.46907E-05-1.20245E-17 3.96157E-18
 -1      1283 3.42500E-05-1.06083E-04 1.78658E-05 1.38255E-05-9.60789E-18 1.81355E-18
 -1      1284 1.04249E-04-2.19717E-05-3.78262E-05-1.72553E-05-3.58930E-19 8.85467E-18
 -1      1285 9.02368E-05-6.67447E-06-3.59834E-05-2.04446E-05-1.18722E-18 9.12466E-19
 -1      1286 9.25378E-05-6.73216E-06-3.71747E-05-2.57261E-05-1.45647E-18 2.80680E-18
 -1      1287 8.58816E-05-4.09796E-06-3.51190E-05-1.64021E-05-1.25845E-18-1.78597E-18
 -1      1288 8.71080E-05-4.09079E-06-3.55774E-05-1.88235E-05-1.41105E-18-6.08117E-19
 -1      1289 9.20664E-05-1.04564E-05-3.50670E-05-1.89992E-05-2.13804E-18 8.18128E-19
 -1      1290 8.41173E-05-3.19115E-06-3.46947E-05-1.27855E-05-1.06136E-18-3.21589E-18
 -1      1291 8.47061E-05-3.16079E-06-3.49100E-05-1.45992E-05-1.21835E-18-2.54433E-18
 -1      1292 8.78523E-05-7.39388E-06-3.45684E-05-1.53697E-05-1.99519E-18-1.45189E-18
 -1      1293 8.32381E-05-2.72769E-06-3.44927E-05-9.65118E-06-8.68381E-19-4.01557E-18
 -1      1294 8.35390E-05-2.71118E-06-3.45954E-05-1.11988E-05-9.43793E-19-3.65677E-18
 -1      1295 8.58930E-05-5.98186E-06-3.43180E-05-1.19177E-05-1.63557E-18-2.68816E-18
 -1      1296 8.27622E-05-2.45205E-06-3.43956E-05-6.88385E-06-6.27797E-19-4.39797E-18
 -1      1297 8.29237E-05-2.44390E-06-3.44460E-05-8.25209E-06-7.20984E-19-4.18242E-18
 -1      1298 8.48742E-05-5.20778E-06-3.41992E-05-8.90142E-06-1.32393E-18-3.30152E-18
 -1      1299 8.24969E-05-2.28310E-06-3.43485E-05-4.27263E-06-4.30953E-19-4.63796E-18
 -1      1300 8.25831E-05-2.27930E-06-3.43733E-05-5.56917E-06-4.83560E-19-4.53963E-18
 -1      1301 8.43003E-05-4.74478E-06-3.41443E-05-6.18306E-06-9.18965E-19-3.67983E-18
 -1      1302 8.23690E-05-2.19103E-06-3.43293E-05-1.77972E-06-1.77789E-19-4.78468E-18
 -1      1303 8.24059E-05-2.18951E-06-3.43392E-05-3.02450E-06-2.60276E-19-4.69172E-18
 -1      1304 8.39849E-05-4.47536E-06-3.41206E-05-3.62237E-06-5.58942E-19-3.85565E-18
 -1      1305 8.23436E-05-2.16253E-06-3.43272E-05 6.66221E-07-3.71139E-20-4.83995E-18
 -1      1306 8.23423E-05-2.16257E-06-3.43269E-05-5.62819E-07-7.32063E-20-4.84000E-18
 -1      1307 8.38460E-05-4.35205E-06-3.41123E-05-1.16280E-06-1.94734E-19-4.02458E-18
 -1      1308 8.24144E-05-2.19387E-06-3.43407E-05 3.13154E-06 2.10603E-19-4.82549E-18
 -1      1309 8.23747E-05-2.19542E-06-3.43301E-05 1.88414E-06 1.28993E-19-4.82507E-18
 -1      1310 8.38509E-05-4.35626E-06-3.41126E-05 1.26560E-06 6.98682E-20-4.04362E-18
 -1      1311 8.26003E-05-2.28980E-06-3.43757E-05 5.68544E-06 3.85168E-19-4.77795E-18
 -1      1312 8.25106E-05-2.29302E-06-3.43503E-05 4.38289E-06 3.54189E-19-4.82958E-18
 -1      1313 8.40004E-05-4.48895E-06-3.41216E-05 3.72937E-06 4.59881E-19-4.05778E-18
 -1      1314 8.29463E-05-2.45938E-06-3.44483E-05 8.36121E-06 6.12670E-19-4.53598E-18
 -1      1315 8.27819E-05-2.46792E-06-3.43975E-05 6.98389E-06 5.32506E-19-4.69461E-18
 -1      1316 8.43265E-05-4.76851E-06-3.41452E-05 6.27670E-06 7.80256E-19-3.97033E-18
 -1      1317 8.35812E-05-2.74054E-06-3.46000E-05 1.13601E-05 9.20592E-19-4.05730E-18
 -1      1318 8.32735E-05-2.75753E-06-3.44955E-05 9.79547E-06 7.90586E-19-4.33943E-18
 -1      1319 8.49158E-05-5.24916E-06-3.41994E-05 9.01331E-06 1.17785E-18-3.65259E-18
 -1      1320 8.47666E-05-3.20506E-06-3.49183E-05 1.48110E-05 1.23887E-18-3.13977E-18
 -1      1321 8.41741E-05-3.24178E-06-3.47003E-05 1.29697E-05 1.07864E-18-3.70001E-18
 -1      1322 8.59747E-05-6.06041E-06-3.43192E-05 1.20802E-05 1.62022E-18-3.11237E-18
 -1      1323 8.72057E-05-4.09098E-06-3.55987E-05 1.90610E-05 1.45160E-18-1.26351E-18
 -1      1324 8.59499E-05-4.15513E-06-3.51268E-05 1.66627E-05 1.25956E-18-2.41018E-18
 -1      1325 8.79804E-05-7.51651E-06-3.45710E-05 1.56098E-05 2.04892E-18-1.98680E-18
 -1      1326 9.33481E-05-6.78380E-06-3.70698E-05 2.50626E-05 1.32095E-18 2.51320E-18
 -1      1327 9.00507E-05-6.43140E-06-3.60056E-05 2.11203E-05 1.25493E-18 1.94871E-19
 -1      1328 9.22940E-05-1.06905E-05-3.50519E-05 1.96387E-05 2.22701E-18 1.32719E-19
 -1      1329 1.23399E-04-2.48748E-05-3.89468E-05 2.83246E-05 7.07484E-19 9.99329E-18
 -1      1330 9.99256E-05-1.43962E-05-3.72978E-05 2.40195E-05 6.99120E-19 4.74296E-18
 -1      1331 1.01539E-04-1.93125E-05-3.53555E-05 2.13644E-05 2.19528E-18 3.61175E-18
 -1      1332 1.02405E-04-2.77477E-05-3.46941E-05 7.31990E-06 1.23039E-18 9.43891E-18
 -1      1333 1.04953E-04-3.01726E-05-3.34656E-05-7.94522E-06-1.12962E-18 9.17379E-18
 -1      1334 9.80785E-05-2.77897E-05-3.07062E-05-4.97737E-06-1.10718E-18 7.91325E-18
 -1      1335 9.53314E-05-2.77980E-05-2.92025E-05-2.47957E-06-8.80332E-19 7.23534E-18
 -1      1336 9.31079E-05-2.75090E-05-2.81663E-05-2.03272E-06-8.38986E-19 5.96099E-18
 -1      1337 9.93431E-05-2.80111E-05-3.09396E-05-7.86391E-06-1.92372E-18 4.52318E-18
 -1      1338 9.14316E-05-2.71547E-05-2.75362E-05-8.25030E-07-6.51732E-19 5.49372E-18
 -1      1339 9.07267E-05-2.70620E-05-2.72377E-05-7.13819E-07-5.79873E-19 4.58160E-18
 -1      1340 9.45999E-05-2.77333E-05-2.87817E-05-3.09564E-06-1.43567E-18 3.47621E-18
 -1      1341 8.99959E-05-2.68845E-05-2.70006E-05-1.52583E-07-4.46790E-19 4.11549E-18
 -1      1342 8.99426E-05-2.69163E-05-2.69717E-05-9.25587E-08-5.08832E-19 3.43801E-18
 -1      1343 9.24327E-05-2.74703E-05-2.78717E-05-1.01618E-06-1.12057E-18 2.67134E-18
 -1      1344 8.97129E-05-2.68571E-05-2.69067E-05 1.89359E-07-3.20562E-19 3.22215E-18
 -1      1345 8.99595E-05-2.69559E-05-2.69782E-05 2.21080E-07-3.57135E-19 2.81008E-18
 -1      1346 9.15224E-05-2.73386E-05-2.75207E-05-1.00836E-08-8.26525E-19 1.85811E-18
 -1      1347 9.00082E-05-2.69716E-05-2.69987E-05 3.69710E-07-3.34792E-19 2.65112E-18
 -1      1348 9.04021E-05-2.71055E-05-2.71135E-05 3.85978E-07-2.36407E-19 2.24074E-18
 -1      1349 9.13426E-05-2.73455E-05-2.74365E-05 5.12427E-07-6.37521E-19 1.57451E-18
 -1      1350 9.06107E-05-2.71659E-05-2.71814E-05 4.65779E-07-2.75105E-19 1.95998E-18
 -1      1351 9.10784E-05-2.73167E-05-2.73176E-05 4.73974E-07-3.56655E-19 1.40432E-18
 -1      1352 9.15848E-05-2.74478E-05-2.74939E-05 7.92280E-07-6.02756E-19 1.05514E-18
 -1      1353 9.13830E-05-2.74042E-05-2.74141E-05 5.19625E-07-2.95248E-19 1.33863E-18
 -1      1354 9.18900E-05-2.75631E-05-2.75624E-05 5.24457E-07-3.42114E-19 8.43347E-19
 -1      1355 9.20773E-05-2.76094E-05-2.76338E-05 9.47459E-07-5.67057E-19 7.01271E-19
 -1      1356 9.22582E-05-2.76684E-05-2.76780E-05 5.57307E-07-3.88903E-19 6.36651E-19
 -1      1357 9.27934E-05-2.78330E-05-2.78353E-05 5.62094E-07-5.18564E-19 1.58968E-19
 -1      1358 9.27276E-05-2.78083E-05-2.78262E-05 1.04520E-06-6.58037E-19 2.64925E-19
 -1      1359 9.32125E-05-2.79526E-05-2.79663E-05 5.96652E-07-4.07929E-19-3.30211E-21
 -1      1360 9.37807E-05-2.81252E-05-2.81340E-05 6.03883E-07-1.13399E-19-2.13518E-19
 -1      1361 9.34916E-05-2.80343E-05-2.80566E-05 1.12873E-06-6.54639E-19 1.18505E-19
 -1      1362 9.42513E-05-2.82593E-05-2.82810E-05 6.50621E-07 4.13760E-20-5.34521E-19
 -1      1363 9.48687E-05-2.84454E-05-2.84637E-05 6.62215E-07-1.72141E-19-6.24018E-19
 -1      1364 9.43571E-05-2.82856E-05-2.83204E-05 1.22826E-06-1.72253E-19-1.59932E-19
 -1      1365 9.54011E-05-2.85970E-05-2.86297E-05 7.28767E-07-2.07509E-19-6.10347E-19
 -1      1366 9.60923E-05-2.88046E-05-2.88346E-05 7.46178E-07-1.06127E-21-5.44126E-19
 -1      1367 9.53343E-05-2.85665E-05-2.86201E-05 1.36570E-06-2.72174E-19-9.01096E-19
 -1      1368 9.67029E-05-2.89787E-05-2.90248E-05 8.37589E-07 2.70255E-19-4.52352E-19
 -1      1369 9.74984E-05-2.92179E-05-2.92606E-05 8.61753E-07 9.53549E-20-2.29195E-19
 -1      1370 9.64491E-05-2.88860E-05-2.89627E-05 1.55644E-06 2.54757E-19-5.48858E-19
 -1      1371 9.82069E-05-2.94205E-05-2.94810E-05 9.79881E-07 8.33980E-20-2.33778E-19
 -1      1372 9.91393E-05-2.97020E-05-2.97571E-05 1.01098E-06-3.92233E-20-1.13492E-19
 -1      1373 9.77367E-05-2.92562E-05-2.93578E-05 1.80896E-06 4.79219E-20-2.06204E-19
 -1      1374 9.99648E-05-2.99393E-05-3.00134E-05 1.15290E-06-2.59566E-19-1.67491E-19
 -1      1375 1.01063E-04-3.02734E-05-3.03377E-05 1.18986E-06-5.91930E-20-2.84669E-19
 -1      1376 9.92357E-05-2.96913E-05-2.98156E-05 2.12227E-06-1.84561E-19-1.37424E-19
 -1      1377 1.02019E-04-3.05505E-05-3.06333E-05 1.34493E-06 1.55895E-19-3.93348E-19
 -1      1378 1.03299E-04-3.09442E-05-3.10100E-05 1.38452E-06 6.97388E-20-2.49848E-19
 -1      1379 1.00979E-04-3.02055E-05-3.03436E-05 2.48066E-06-1.01932E-19-9.58371E-20
 -1      1380 1.04384E-04-3.12630E-05-3.13433E-05 1.52982E-06 5.42705E-20-1.85341E-19
 -1      1381 1.05834E-04-3.17157E-05-3.17677E-05 1.56523E-06-1.39239E-19-4.07992E-19
 -1      1382 1.02981E-04-3.08104E-05-3.09425E-05 2.84482E-06 1.87260E-19-5.09753E-19
 -1      1383 1.07021E-04-3.20723E-05-3.21283E-05 1.65954E-06-2.63814E-19-3.96041E-19
 -1      1384 1.08580E-04-3.25688E-05-3.25805E-05 1.67850E-06-2.50906E-19-7.50259E-19
 -1      1385 1.05221E-04-3.15106E-05-3.15997E-05 3.13935E-06-3.62157E-19-3.33301E-19
 -1      1386 1.09802E-04-3.29489E-05-3.29439E-05 1.65637E-06-4.52410E-20-9.04631E-19
 -1      1387 1.11326E-04-3.34492E-05-3.33801E-05 1.63930E-06-1.58936E-19-1.17258E-18
 -1      1388 1.07613E-04-3.22959E-05-3.22818E-05 3.23841E-06-2.91578E-19-2.37891E-19
 -1      1389 1.12459E-04-3.38225E-05-3.37033E-05 1.41048E-06 1.78142E-19-1.44178E-18
 -1      1390 1.13695E-04-3.42500E-05-3.40483E-05 1.33042E-06 1.02653E-19-1.15421E-18
 -1      1391 1.09981E-04-3.31291E-05-3.29264E-05 2.95709E-06-1.70637E-19-5.82090E-19
 -1      1392 1.14545E-04-3.45630E-05-3.42683E-05 7.95266E-07 1.60053E-19-4.15205E-19
 -1      1393 1.15120E-04-3.47952E-05-3.44154E-05 6.23570E-07 8.07097E-20-3.57486E-19
 -1      1394 1.12020E-04-3.39262E-05-3.34381E-05 2.06684E-06 2.86482E-19-3.73571E-19
 -1      1395 1.15431E-04-3.49656E-05-3.44572E-05-2.78633E-07-9.07583E-20-7.75366E-20
 -1      1396 1.14903E-04-3.48434E-05-3.42875E-05-5.54584E-07-8.50209E-20-3.34075E-19
 -1      1397 1.13292E-04-3.45315E-05-3.36959E-05 3.67233E-07 2.81903E-20 1.11868E-20
 -1      1398 1.14412E-04-3.47651E-05-3.40871E-05-1.75446E-06-1.24004E-19-2.31319E-19
 -1      1399 1.12436E-04-3.41410E-05-3.35193E-05-2.09914E-06-3.10358E-20-4.87097E-19
 -1      1400 1.13266E-04-3.47042E-05-3.35833E-05-2.15059E-06-2.10746E-19 3.32240E-19
 -1      1401 1.10996E-04-3.37194E-05-3.30644E-05-3.29386E-06 1.13370E-19-1.66574E-19
 -1      1402 1.07603E-04-3.25614E-05-3.21296E-05-3.59190E-06 1.99099E-19 2.72956E-19
 -1      1403 1.11486E-04-3.41621E-05-3.30436E-05-5.06492E-06 2.19699E-20 1.09799E-18
 -1      1404 1.05370E-04-3.17967E-05-3.15003E-05-4.23735E-06 5.36872E-19 9.94734E-20
 -1      1405 1.01248E-04-3.03169E-05-3.03999E-05-4.30907E-06 6.18739E-19 1.41047E-18
 -1      1406 1.07895E-04-3.27412E-05-3.21456E-05-7.36400E-06 6.25454E-19 9.88302E-19
 -1      1407 9.88289E-05-2.94067E-05-2.97737E-05-3.85410E-06 4.66014E-19 1.85267E-18
 -1      1408 9.52989E-05-2.80943E-05-2.88544E-05-3.56289E-06 2.25820E-19 2.40330E-18
 -1      1409 1.03217E-04-3.06668E-05-3.11134E-05-7.68350E-06 9.29010E-19 1.01083E-18
 -1      1410 9.36400E-05-2.74343E-05-2.84494E-05-1.90289E-06-4.09607E-19 1.78674E-18
 -1      1411 9.21209E-05-2.68587E-05-2.80597E-05-1.31069E-06-6.31609E-19 1.22676E-18
 -1      1412 9.90456E-05-2.86962E-05-3.02736E-05-5.14789E-06-3.16248E-19 8.62253E-19
 -1      1413 9.20049E-05-2.68115E-05-2.80322E-05 9.29643E-07-2.35819E-19 5.30570E-19
 -1      1414 9.31736E-05-2.72548E-05-2.83321E-05 1.54426E-06-2.66524E-19-7.54918E-20
 -1      1415 9.72140E-05-2.78042E-05-2.99235E-05-3.58777E-07-9.46414E-19 6.61149E-20
 -1      1416 9.46587E-05-2.78481E-05-2.86932E-05 3.33495E-06-1.41693E-19-2.68086E-19
 -1      1417 9.79911E-05-2.90911E-05-2.95590E-05 3.67632E-06-1.06303E-19 9.49206E-20
 -1      1418 9.86276E-05-2.84931E-05-3.01940E-05 4.59605E-06-4.13484E-19-4.93106E-19
 -1      1419 1.00367E-04-2.99932E-05-3.01685E-05 4.30559E-06-1.30411E-19 1.59825E-19
 -1      1420 1.04498E-04-3.14844E-05-3.12670E-05 4.27872E-06-2.27261E-19-1.01644E-19
 -1      1421 1.02583E-04-3.03718E-05-3.09843E-05 7.51404E-06-1.59341E-19-1.85606E-19
 -1      1422 1.06806E-04-3.22873E-05-3.19088E-05 3.75708E-06-3.27789E-19-3.42201E-19
 -1      1423 1.10358E-04-3.35091E-05-3.28827E-05 3.47880E-06-7.68550E-20-3.83600E-19
 -1      1424 1.07307E-04-3.24885E-05-3.20119E-05 7.55974E-06-6.87930E-19-4.22828E-19
 -1      1425 1.11929E-04-3.39823E-05-3.33695E-05 2.32474E-06 2.17204E-19-6.61586E-19
 -1      1426 1.14118E-04-3.46828E-05-3.39939E-05 1.97821E-06-2.73201E-19-6.56292E-19
 -1      1427 1.11117E-04-3.40254E-05-3.29461E-05 5.45329E-06-2.41762E-19-1.02140E-18
 -1      1428 1.14741E-04-3.48053E-05-3.42324E-05 7.58714E-07-5.75612E-19-4.27593E-19
 -1      1429 1.15460E-04-3.49908E-05-3.44560E-05 4.70886E-07-1.35472E-19-1.08541E-18
 -1      1430 1.13166E-04-3.46865E-05-3.35457E-05 2.55669E-06-3.94155E-19-1.02221E-18
 -1      1431 1.15257E-04-3.48513E-05-3.44481E-05-4.74591E-07-2.89725E-19-1.23312E-18
 -1      1432 1.14821E-04-3.46619E-05-3.43420E-05-6.58981E-07-4.17865E-19-1.86016E-18
 -1      1433 1.13429E-04-3.45995E-05-3.37218E-05-4.10871E-08-5.76757E-19-1.96830E-18
 -1      1434 1.14048E-04-3.43681E-05-3.41475E-05-1.23519E-06-8.29431E-20-2.06591E-18
 -1      1435 1.12901E-04-3.39659E-05-3.38297E-05-1.32436E-06 3.11870E-19-2.13414E-18
 -1      1436 1.12333E-04-3.40455E-05-3.35179E-05-1.84324E-06-3.27643E-19-2.46551E-18
 -1      1437 1.11819E-04-3.36045E-05-3.35245E-05-1.58020E-06 2.25762E-19-2.31673E-18
 -1      1438 1.10351E-04-3.31186E-05-3.31058E-05-1.60184E-06 8.23913E-20-1.44520E-18
 -1      1439 1.10413E-04-3.32756E-05-3.30471E-05-2.81467E-06 1.31333E-19-2.09241E-18
 -1      1440 1.09168E-04-3.27473E-05-3.27560E-05-1.63489E-06 5.68332E-19-1.62900E-18
 -1      1441 1.07651E-04-3.22612E-05-3.23168E-05-1.61660E-06 5.04156E-19-9.00595E-19
 -1      1442 1.08129E-04-3.24578E-05-3.24332E-05-3.14042E-06 6.26019E-19-1.87627E-18
 -1      1443 1.06501E-04-3.19138E-05-3.19689E-05-1.51939E-06-4.82188E-20-1.13218E-19
 -1      1444 1.05095E-04-3.14728E-05-3.15581E-05-1.48171E-06-4.74173E-20-6.77362E-20
 -1      1445 1.05809E-04-3.16857E-05-3.17771E-05-3.05003E-06 3.14718E-19-9.45496E-19
 -1      1446 1.04056E-04-3.11661E-05-3.12396E-05-1.32274E-06-7.13052E-19-5.66989E-19
 -1      1447 1.02836E-04-3.07893E-05-3.08810E-05-1.27872E-06-9.61440E-19-1.60993E-18
 -1      1448 1.03649E-04-3.10031E-05-3.11472E-05-2.73499E-06-2.91950E-19-1.30360E-18
 -1      1449 1.01942E-04-3.05294E-05-3.06049E-05-1.10178E-06-7.60049E-19-2.06565E-18
 -1      1450 1.00929E-04-3.02203E-05-3.03060E-05-1.05872E-06-1.18936E-18-3.60773E-18
 -1      1451 1.01751E-04-3.04246E-05-3.05820E-05-2.32787E-06-1.44184E-18-1.12959E-18
 -1      1452 1.00187E-04-3.00065E-05-3.00759E-05-8.88478E-07-4.33051E-19-3.75055E-18
 -1      1453 9.93736E-05-2.97607E-05-2.98351E-05-8.49922E-07-3.21333E-19-3.52966E-18
 -1      1454 1.00148E-04-2.99488E-05-3.00982E-05-1.90918E-06-1.47187E-18-2.13307E-18
 -1      1455 9.87746E-05-2.95891E-05-2.96490E-05-6.98203E-07-6.06643E-19-3.61869E-18
 -1      1456 9.81383E-05-2.93982E-05-2.94601E-05-6.65398E-07-2.40107E-19-4.59657E-18
 -1      1457 9.88363E-05-2.95667E-05-2.96982E-05-1.52172E-06-8.32225E-19-2.74186E-18
 -1      1458 9.76663E-05-2.92635E-05-2.93133E-05-5.36053E-07 2.70879E-19-3.63066E-18
 -1      1459 9.71803E-05-2.91185E-05-2.91688E-05-5.08939E-07 8.08946E-19-3.52792E-18
 -1      1460 9.77894E-05-2.92658E-05-2.93768E-05-1.18378E-06 3.46268E-19-1.76014E-18
 -1      1461 9.68172E-05-2.90150E-05-2.90560E-05-4.01124E-07 1.67244E-18-3.41583E-18
 -1      1462 9.64559E-05-2.89077E-05-2.89485E-05-3.78908E-07 1.19323E-18-1.43021E-18
 -1      1463 9.69731E-05-2.90333E-05-2.91250E-05-8.98766E-07 1.63077E-18-1.19515E-18
 -1      1464 9.61845E-05-2.88300E-05-2.88645E-05-2.89099E-07 1.16807E-18 2.21049E-19
 -1      1465 9.59271E-05-2.87537E-05-2.87880E-05-2.70550E-07 1.30779E-18 1.74830E-18
 -1      1466 9.63522E-05-2.88570E-05-2.89331E-05-6.61417E-07 2.42585E-18 1.26392E-18
 -1      1467 9.57326E-05-2.86975E-05-2.87283E-05-1.93811E-07-6.66100E-20 1.49378E-18
 -1      1468 9.55643E-05-2.86476E-05-2.86784E-05-1.77417E-07-5.65452E-19 1.44690E-18
 -1      1469 9.58952E-05-2.87267E-05-2.87922E-05-4.61690E-07 9.08014E-19 2.24014E-18
 -1      1470 9.54347E-05-2.86095E-05-2.86393E-05-1.09195E-07-5.34440E-19 9.60113E-19
 -1      1471 9.53464E-05-2.85843E-05-2.86124E-05-9.34497E-08 8.90299E-20 4.73311E-19
 -1      1472 9.55760E-05-2.86344E-05-2.86941E-05-2.88010E-07-3.42219E-19 2.13042E-18
 -1      1473 9.52683E-05-2.85594E-05-2.85894E-05-3.23040E-08-1.04515E-19 1.54705E-19
 -1      1474 9.52527E-05-2.85624E-05-2.85792E-05-1.67467E-08-5.16957E-19 1.34644E-19
 -1      1475 9.53712E-05-2.85755E-05-2.86305E-05-1.34283E-07-1.87290E-20 2.37906E-18
 -1      1476 9.52234E-05-2.85748E-05-2.85577E-05 1.83808E-08-3.69650E-20-3.25435E-19
 -1      1477 9.52604E-05-2.85697E-05-2.85815E-05-6.61727E-09-4.05319E-20 1.17810E-18
 -1      1478 9.63929E-05-2.83086E-05-2.97165E-05 2.98782E-06 1.04937E-18 7.11637E-18
 -1      1479 1.02341E-04-2.93409E-05-3.20965E-05 4.45367E-06 9.30572E-19 8.81264E-18
 -1      1480 1.02162E-04-2.66731E-05-3.26546E-05 1.27602E-05 1.84129E-18 5.51228E-18
 -1      1481 9.18660E-05-2.73794E-05-2.77125E-05 1.14322E-06 7.80806E-19 5.09125E-18
 -1      1482 9.38042E-05-2.75325E-05-2.86236E-05 1.46523E-06 7.20852E-19 6.34446E-18
 -1      1483 9.63429E-05-2.79873E-05-2.94904E-05 4.84979E-06 1.54652E-18 3.97689E-18
 -1      1484 9.00594E-05-2.69617E-05-2.70219E-05 3.18413E-07 5.99064E-19 3.57861E-18
 -1      1485 9.06627E-05-2.69759E-05-2.72907E-05 4.82076E-07 5.85267E-19 4.50635E-18
 -1      1486 9.29237E-05-2.75419E-05-2.80639E-05 1.82894E-06 1.23574E-18 2.80543E-18
 -1      1487 8.95829E-05-2.68550E-05-2.68589E-05-7.73155E-08 4.95961E-19 2.35926E-18
 -1      1488 8.96011E-05-2.67867E-05-2.68810E-05 1.35576E-08 3.97844E-19 3.10324E-18
 -1      1489 9.14072E-05-2.72802E-05-2.74920E-05 4.82017E-07 9.71878E-19 1.76712E-18
 -1      1490 8.97806E-05-2.69261E-05-2.69211E-05-2.78830E-07 1.89224E-19 1.54636E-18
 -1      1491 8.95199E-05-2.68084E-05-2.68459E-05-2.25549E-07 3.07983E-19 2.02113E-18
 -1      1492 9.09316E-05-2.72141E-05-2.73138E-05-1.90067E-07 6.61076E-19 1.17679E-18
 -1      1493 9.03366E-05-2.70981E-05-2.70911E-05-3.83154E-07 6.56219E-20 1.45819E-18
 -1      1494 8.99376E-05-2.69543E-05-2.69735E-05-3.50701E-07-5.41886E-21 1.46474E-18
 -1      1495 9.10347E-05-2.72803E-05-2.73300E-05-5.42763E-07 1.48254E-19 9.17151E-19
 -1      1496 9.10879E-05-2.73257E-05-2.73186E-05-4.37785E-07 2.78889E-19 1.09783E-18
 -1      1497 9.06196E-05-2.71695E-05-2.71803E-05-4.16968E-07 7.10519E-20 1.28376E-18
 -1      1498 9.14673E-05-2.74275E-05-2.74519E-05-7.32028E-07 2.20662E-19 6.49984E-19
 -1      1499 9.19529E-05-2.75851E-05-2.75801E-05-4.70141E-07 3.07042E-19 4.14530E-19
 -1      1500 9.14473E-05-2.74227E-05-2.74302E-05-4.55025E-07 3.39378E-19 9.61300E-19
 -1      1501 9.20951E-05-2.76233E-05-2.76364E-05-8.38865E-07 4.84959E-19 1.43210E-19
 -1      1502 9.28987E-05-2.78670E-05-2.78663E-05-4.98153E-07 2.68081E-19-4.53292E-19
 -1      1503 9.23655E-05-2.76989E-05-2.77076E-05-4.84479E-07 2.03344E-19 5.91103E-20
 -1      1504 9.28494E-05-2.78505E-05-2.78620E-05-9.11599E-07 5.39777E-19-3.77234E-19
 -1      1505 9.39249E-05-2.81716E-05-2.81771E-05-5.34523E-07 2.23165E-19-6.41488E-19
 -1      1506 9.33586E-05-2.79945E-05-2.80080E-05-5.18998E-07 2.65472E-19-5.25266E-19
 -1      1507 9.37032E-05-2.81029E-05-2.81200E-05-9.82298E-07 4.18499E-19-6.94496E-19
 -1      1508 9.50543E-05-2.85060E-05-2.85195E-05-5.88625E-07-1.98802E-19-4.46022E-19
 -1      1509 9.44383E-05-2.83135E-05-2.83350E-05-5.68567E-07-8.06265E-20-7.36247E-19
 -1      1510 9.46571E-05-2.83819E-05-2.84100E-05-1.07373E-06 2.62092E-21-5.72488E-19
 -1      1511 9.63263E-05-2.88824E-05-2.89049E-05-6.67205E-07 8.73370E-20-6.12941E-20
 -1      1512 9.56356E-05-2.86658E-05-2.86978E-05-6.40412E-07-8.46413E-20-4.21257E-19
 -1      1513 9.57311E-05-2.86943E-05-2.87378E-05-1.20235E-06-2.51394E-19-5.84702E-19
 -1      1514 9.77907E-05-2.93162E-05-2.93482E-05-7.74235E-07 1.82723E-19-4.95640E-19
 -1      1515 9.69951E-05-2.90654E-05-2.91098E-05-7.39052E-07 2.19229E-19-1.47814E-19
 -1      1516 9.69584E-05-2.90512E-05-2.91127E-05-1.37910E-06 1.95572E-19-7.47669E-19
 -1      1517 9.95008E-05-2.98244E-05-2.98649E-05-9.09824E-07 4.29912E-19-1.20717E-18
 -1      1518 9.85686E-05-2.95289E-05-2.95861E-05-8.65462E-07 3.70603E-19-5.21782E-19
 -1      1519 9.83790E-05-2.94658E-05-2.95461E-05-1.60849E-06 4.20992E-19-1.14776E-18
 -1      1520 1.01503E-04-3.04221E-05-3.04681E-05-1.06792E-06 1.72522E-19-1.95164E-18
 -1      1521 1.00407E-04-3.00730E-05-3.01412E-05-1.01515E-06 2.63270E-19-1.35580E-18
 -1      1522 1.00032E-04-2.99521E-05-3.00484E-05-1.88563E-06 4.62181E-19-8.31106E-19
 -1      1523 1.03820E-04-3.11188E-05-3.11631E-05-1.23241E-06 5.72707E-20-2.24289E-18
 -1      1524 1.02546E-04-3.07117E-05-3.07850E-05-1.17477E-06 5.36212E-20-2.07884E-18
 -1      1525 1.01945E-04-3.05218E-05-3.06258E-05-2.19073E-06 2.89637E-19-1.48724E-18
 -1      1526 1.06426E-04-3.19100E-05-3.19394E-05-1.37131E-06 3.88550E-19-2.81574E-18
 -1      1527 1.04988E-04-3.14506E-05-3.15161E-05-1.31707E-06 2.51712E-19-2.20199E-18
 -1      1528 1.04117E-04-3.11806E-05-3.12742E-05-2.48054E-06 2.90640E-19-1.76140E-18
 -1      1529 1.09207E-04-3.27672E-05-3.27591E-05-1.42976E-06-4.38412E-19-2.56163E-18
 -1      1530 1.07674E-04-3.22784E-05-3.23127E-05-1.39443E-06-1.60994E-19-2.98500E-18
 -1      1531 1.06494E-04-3.19214E-05-3.19724E-05-2.67684E-06 2.28210E-19-1.59106E-18
 -1      1532 1.11916E-04-3.36218E-05-3.35431E-05-1.32451E-06-5.98523E-20-2.36550E-18
 -1      1533 1.10437E-04-3.31543E-05-3.31204E-05-1.33332E-06-7.37465E-20-2.36428E-18
 -1      1534 1.08941E-04-3.27151E-05-3.26721E-05-2.65509E-06-2.43252E-19-2.48485E-18
 -1      1535 1.14124E-04-3.43483E-05-3.41598E-05-9.48070E-07-2.00750E-19-2.13052E-18
 -1      1536 1.12959E-04-3.39910E-05-3.38388E-05-1.03589E-06-5.60299E-20-2.21912E-18
 -1      1537 1.11205E-04-3.34966E-05-3.32898E-05-2.24244E-06-1.55775E-20-1.74100E-18
 -1      1538 1.15213E-04-3.47533E-05-3.44275E-05-1.97861E-07 5.59538E-20-2.30532E-18
 -1      1539 1.14736E-04-3.46360E-05-3.43162E-05-4.01349E-07-1.60433E-19-2.02266E-18
 -1      1540 1.12890E-04-3.41482E-05-3.37054E-05-1.24504E-06-2.10137E-19-1.51426E-18
 -1      1541 1.14459E-04-3.45917E-05-3.41502E-05 9.50531E-07 1.08804E-19-2.67612E-18
 -1      1542 1.15103E-04-3.48657E-05-3.43642E-05 6.15345E-07 3.01028E-20-2.24186E-18
 -1      1543 1.13475E-04-3.44873E-05-3.37784E-05 4.64232E-07 1.04145E-19-1.18221E-18
 -1      1544 1.11301E-04-3.36422E-05-3.32010E-05 2.32812E-06-2.31783E-19-2.25732E-18
 -1      1545 1.13387E-04-3.44188E-05-3.38118E-05 1.90294E-06-2.15477E-19-2.73046E-18
 -1      1546 1.12426E-04-3.42798E-05-3.33932E-05 2.77820E-06-3.28490E-20-1.49119E-18
 -1      1547 1.05788E-04-3.18637E-05-3.16427E-05 3.48071E-06-8.67679E-20-1.53530E-18
 -1      1548 1.09245E-04-3.31089E-05-3.26042E-05 3.09665E-06-2.95098E-19-1.94516E-18
 -1      1549 1.09450E-04-3.33204E-05-3.25323E-05 5.16013E-06-6.29723E-19-1.46185E-18
 -1      1550 9.90369E-05-2.95882E-05-2.98159E-05 3.74874E-06-2.66898E-19-1.13915E-18
 -1      1551 1.03137E-04-3.10212E-05-3.09130E-05 3.60403E-06 6.81597E-20-1.45113E-18
 -1      1552 1.04863E-04-3.16081E-05-3.13481E-05 6.60311E-06-2.83596E-19-5.97291E-19
 -1      1553 9.32247E-05-2.75759E-05-2.82910E-05 2.65063E-06 1.76812E-19-5.67803E-19
 -1      1554 9.66285E-05-2.86892E-05-2.91746E-05 2.89344E-06-2.20890E-19-9.68688E-19
 -1      1555 9.98621E-05-2.95496E-05-3.01678E-05 6.01743E-06-1.83846E-19-4.59158E-19
 -1      1556 9.07228E-05-2.67102E-05-2.76348E-05 3.92862E-07-1.59110E-19-1.17609E-18
 -1      1557 9.20444E-05-2.70080E-05-2.79709E-05 9.73461E-07 4.36407E-19-8.39066E-19
 -1      1558 9.62977E-05-2.79670E-05-2.93880E-05 3.05865E-06 2.53263E-19-2.89321E-19
 -1      1559 9.26746E-05-2.74204E-05-2.81138E-05-2.05146E-06-5.32373E-19-5.32704E-19
 -1      1560 9.13184E-05-2.67525E-05-2.77641E-05-1.39550E-06-7.30328E-19-1.06279E-18
 -1      1561 9.57500E-05-2.76719E-05-2.92969E-05-1.25528E-06-8.67243E-19 3.78379E-19
 -1      1562 9.81973E-05-2.93532E-05-2.95348E-05-3.57420E-06 3.67149E-19-4.88897E-19
 -1      1563 9.47674E-05-2.80314E-05-2.86418E-05-3.13610E-06-2.73168E-20-8.02881E-19
 -1      1564 9.84781E-05-2.88444E-05-2.99282E-05-4.99542E-06-2.96581E-19-2.04889E-19
 -1      1565 1.04999E-04-3.16477E-05-3.13592E-05-3.69945E-06 6.41831E-19-2.90146E-18
 -1      1566 1.00885E-04-3.02202E-05-3.02607E-05-3.60422E-06 1.15317E-18-1.20078E-18
 -1      1567 1.03236E-04-3.08702E-05-3.10446E-05-6.63824E-06 1.39712E-18-1.05035E-18
 -1      1568 1.10795E-04-3.35097E-05-3.29974E-05-2.74139E-06-6.15485E-19-2.24188E-18
 -1      1569 1.07337E-04-3.24240E-05-3.20407E-05-2.91605E-06-6.12358E-19-3.58263E-18
 -1      1570 1.08135E-04-3.28320E-05-3.22621E-05-5.97369E-06 9.35707E-21-9.81526E-19
 -1      1571 1.14310E-04-3.45595E-05-3.40633E-05-1.36636E-06 3.44729E-19-1.69110E-18
 -1      1572 1.12230E-04-3.39959E-05-3.34597E-05-1.65382E-06-6.84244E-20-2.17905E-18
 -1      1573 1.11710E-04-3.41094E-05-3.32280E-05-3.87335E-06-4.73015E-19-8.78115E-19
 -1      1574 1.15383E-04-3.48088E-05-3.44540E-05-1.18895E-07 7.61608E-19-3.30492E-18
 -1      1575 1.14745E-04-3.47227E-05-3.42449E-05-3.91660E-07 6.86196E-19-2.11809E-18
 -1      1576 1.13378E-04-3.45660E-05-3.37456E-05-1.45141E-06 1.01952E-18-2.08480E-18
 -1      1577 1.14534E-04-3.44691E-05-3.42756E-05 7.49928E-07-2.93643E-19-4.45942E-18
 -1      1578 1.15009E-04-3.47135E-05-3.43868E-05 5.51867E-07 2.87852E-19-3.88934E-18
 -1      1579 1.13285E-04-3.43740E-05-3.37944E-05 5.40672E-07 6.75462E-19-2.39392E-18
 -1      1580 1.12488E-04-3.37875E-05-3.37202E-05 1.22118E-06 6.59465E-19-5.82176E-18
 -1      1581 1.13638E-04-3.42086E-05-3.40355E-05 1.10548E-06 4.53283E-19-5.17601E-18
 -1      1582 1.11927E-04-3.37896E-05-3.34711E-05 1.82962E-06 5.63641E-19-3.96410E-18
 -1      1583 1.09888E-04-3.29637E-05-3.29755E-05 1.38509E-06 9.09505E-19-7.46705E-18
 -1      1584 1.11335E-04-3.34450E-05-3.33875E-05 1.33478E-06 4.77439E-19-6.51170E-18
 -1      1585 1.09850E-04-3.30292E-05-3.29140E-05 2.46260E-06 9.30558E-19-4.88576E-18
 -1      1586 1.07189E-04-3.21309E-05-3.21831E-05 1.35225E-06-7.50032E-19-6.33443E-18
 -1      1587 1.08675E-04-3.25999E-05-3.26140E-05 1.34520E-06-5.33364E-19-6.82748E-18
 -1      1588 1.07498E-04-3.22362E-05-3.22510E-05 2.61576E-06-3.74835E-19-4.94957E-18
 -1      1589 1.04667E-04-3.13650E-05-3.14320E-05 1.21383E-06 3.07366E-19-6.34173E-18
 -1      1590 1.06040E-04-3.17839E-05-3.18347E-05 1.23137E-06 1.61011E-19-5.59254E-18
 -1      1591 1.05174E-04-3.14925E-05-3.15766E-05 2.47399E-06-5.10346E-19-4.77755E-18
 -1      1592 1.02458E-04-3.07010E-05-3.07682E-05 1.03228E-06-3.36756E-19-4.79216E-18
 -1      1593 1.03648E-04-3.10551E-05-3.11198E-05 1.06134E-06-4.11330E-19-5.80773E-18
 -1      1594 1.03052E-04-3.08374E-05-3.09497E-05 2.18195E-06-1.68485E-19-3.03583E-18
 -1      1595 1.00607E-04-3.01485E-05-3.02090E-05 8.45140E-07-1.00733E-18-3.37284E-18
 -1      1596 1.01593E-04-3.04366E-05-3.05019E-05 8.77600E-07-1.70191E-19-3.98073E-18
 -1      1597 1.01214E-04-3.02841E-05-3.04001E-05 1.83605E-06-6.22745E-19-1.29781E-18
 -1      1598 9.91047E-05-2.97026E-05-2.97537E-05 6.72167E-07-9.71945E-20-1.90761E-18
 -1      1599 9.98966E-05-2.99304E-05-2.99897E-05 7.03528E-07-7.36970E-19-2.86500E-18
 -1      1600 9.96819E-05-2.98311E-05-2.99380E-05 1.49293E-06-1.14406E-18-5.56273E-19
 -1      1601 9.79182E-05-2.93516E-05-2.93932E-05 5.21734E-07-8.99281E-19-2.10944E-18
 -1      1602 9.85375E-05-2.95274E-05-2.95783E-05 5.49870E-07-7.71842E-20-2.26629E-18
 -1      1603 9.84412E-05-2.94690E-05-2.95616E-05 1.18146E-06-7.30003E-20-7.00945E-20
 -1      1604 9.70030E-05-2.90815E-05-2.91149E-05 3.95360E-07 9.62644E-19-2.80440E-18
 -1      1605 9.74759E-05-2.92141E-05-2.92564E-05 4.19647E-07 3.24541E-19-2.82406E-18
 -1      1606 9.74616E-05-2.91857E-05-2.92631E-05 9.12710E-07 5.34765E-19-1.29713E-18
 -1      1607 9.63158E-05-2.88788E-05-2.89058E-05 2.90554E-07 8.83474E-20-3.64207E-18
 -1      1608 9.66669E-05-2.89759E-05-2.90110E-05 3.11346E-07 2.20060E-19-3.45833E-18
 -1      1609 9.67065E-05-2.89687E-05-2.90325E-05 6.87001E-07 9.36015E-19-1.06011E-18
 -1      1610 9.58196E-05-2.87322E-05-2.87553E-05 2.02538E-07 9.20831E-19-4.67482E-18
 -1      1611 9.60690E-05-2.87998E-05-2.88298E-05 2.20848E-07 5.48624E-19-2.98566E-18
 -1      1612 9.61409E-05-2.88064E-05-2.88598E-05 4.98367E-07 7.63608E-19-2.65125E-18
 -1      1613 9.54870E-05-2.86335E-05-2.86550E-05 1.25602E-07-9.15386E-19-4.64299E-18
 -1      1614 9.56485E-05-2.86754E-05-2.87030E-05 1.42894E-07 6.84273E-20-4.48231E-18
 -1      1615 9.57349E-05-2.86893E-05-2.87364E-05 3.37587E-07 3.39415E-19-1.48737E-18
 -1      1616 9.52985E-05-2.85777E-05-2.85973E-05 5.42387E-08-2.39096E-19-3.30673E-18
 -1      1617 9.53804E-05-2.85954E-05-2.86226E-05 7.26513E-08-2.39388E-19-3.92862E-18
 -1      1618 9.54638E-05-2.86098E-05-2.86546E-05 1.95320E-07-5.11021E-19-1.36284E-18
 -1      1619 9.52351E-05-2.85644E-05-2.85703E-05-4.75424E-09-2.44221E-19-3.22402E-18
 -1      1620 9.52460E-05-2.85590E-05-2.85795E-05 1.14400E-08-1.92492E-19-3.85967E-18
 -1      1621 9.53066E-05-2.85676E-05-2.86046E-05 6.72403E-08 3.63646E-19-1.65413E-18
 -1      1622 9.52267E-05-2.85761E-05-2.85586E-05-1.53748E-08-1.15194E-18-1.64763E-18
 -1      1623 9.52453E-05-2.85355E-05-2.85919E-05 3.79070E-08 5.79328E-20 8.57202E-19
 -1      1624 9.52485E-05-2.85571E-05-2.85801E-05 2.28373E-08-1.54400E-18 2.34768E-18
 -1      1625 9.51959E-05-2.83789E-05-2.86378E-05 1.06848E-07 7.87848E-19 9.89033E-19
 -1      1626 9.52238E-05-2.84646E-05-2.86125E-05 9.32582E-08 6.46119E-19-7.94145E-20
 -1      1627 9.52345E-05-2.84407E-05-2.86286E-05 1.34444E-07-2.03605E-19 5.49519E-19
 -1      1628 9.51156E-05-2.81377E-05-2.87060E-05 1.57295E-07 1.51278E-18-5.36264E-19
 -1      1629 9.51609E-05-2.82735E-05-2.86674E-05 1.49117E-07 1.68991E-18 6.58364E-19
 -1      1630 9.51703E-05-2.82606E-05-2.86787E-05 2.52068E-07 1.77375E-19 1.95138E-18
 -1      1631 9.50212E-05-2.78531E-05-2.87867E-05 1.76912E-07 1.32445E-18-1.12275E-18
 -1      1632 9.50738E-05-2.80115E-05-2.87417E-05 1.75577E-07 1.43828E-18 1.23497E-19
 -1      1633 9.50853E-05-2.80252E-05-2.87413E-05 3.24377E-07 1.73896E-18-1.47532E-18
 -1      1634 9.49312E-05-2.75795E-05-2.88650E-05 1.64670E-07-1.26415E-18-9.77960E-19
 -1      1635 9.49802E-05-2.77280E-05-2.88226E-05 1.69459E-07-1.46341E-19-2.10565E-18
 -1      1636 9.49935E-05-2.77707E-05-2.88089E-05 3.36255E-07 4.09661E-20-3.43288E-18
 -1      1637 9.48572E-05-2.73535E-05-2.89300E-05 1.24223E-07-2.59859E-18 5.44697E-19
 -1      1638 9.48959E-05-2.74708E-05-2.88964E-05 1.34179E-07-1.36820E-18 1.59520E-19
 -1      1639 9.49095E-05-2.75351E-05-2.88721E-05 2.89772E-07-1.48966E-18-1.53219E-18
 -1      1640 9.48129E-05-2.72175E-05-2.89692E-05 6.33481E-08-2.57430E-18 6.74533E-19
 -1      1641 9.48338E-05-2.72811E-05-2.89510E-05 7.65605E-08-2.50671E-18 1.16834E-18
 -1      1642 9.48450E-05-2.73529E-05-2.89212E-05 1.94583E-07-2.27158E-19 4.22760E-19
 -1      1643 9.48049E-05-2.71928E-05-2.89764E-05-7.70152E-09-6.72697E-19 1.77147E-18
 -1      1644 9.48048E-05-2.71923E-05-2.89765E-05 6.62787E-09-2.38179E-18 8.98402E-19
 -1      1645 9.48104E-05-2.72547E-05-2.89477E-05 6.78067E-08-3.61348E-19 1.25538E-18
 -1      1646 9.48345E-05-2.72832E-05-2.89504E-05-7.75508E-08-8.09682E-19-2.57918E-19
 -1      1647 9.48133E-05-2.72187E-05-2.89689E-05-6.43698E-08-7.99719E-19 1.47123E-18
 -1      1648 9.48106E-05-2.72554E-05-2.89475E-05-6.98297E-08-7.63952E-19 1.90975E-18
 -1      1649 9.48970E-05-2.74744E-05-2.88954E-05-1.34942E-07-4.15663E-18-1.93124E-18
 -1      1650 9.48582E-05-2.73563E-05-2.89292E-05-1.25080E-07-1.27894E-18-2.10222E-18
 -1      1651 9.48457E-05-2.73549E-05-2.89206E-05-1.96370E-07-2.30073E-18-1.84948E-18
 -1      1652 9.49809E-05-2.77301E-05-2.88220E-05-1.69632E-07-5.10046E-18 8.69803E-19
 -1      1653 9.49317E-05-2.75813E-05-2.88645E-05-1.64911E-07-4.52793E-18-8.67824E-19
 -1      1654 9.49101E-05-2.75363E-05-2.88718E-05-2.90596E-07-3.20919E-18-2.67501E-18
 -1      1655 9.50753E-05-2.80161E-05-2.87404E-05-1.75515E-07-2.80749E-18 7.36267E-19
 -1      1656 9.50228E-05-2.78578E-05-2.87854E-05-1.76981E-07-4.70065E-18 2.57237E-18
 -1      1657 9.49942E-05-2.77725E-05-2.88085E-05-3.36569E-07-2.08178E-18 1.97892E-18
 -1      1658 9.51620E-05-2.82777E-05-2.86662E-05-1.48552E-07-5.26794E-18-1.28785E-18
 -1      1659 9.51171E-05-2.81422E-05-2.87046E-05-1.56673E-07-3.44633E-18-1.29324E-18
 -1      1660 9.50868E-05-2.80293E-05-2.87402E-05-3.23832E-07-1.96951E-18-3.17964E-19
 -1      1661 9.52263E-05-2.84663E-05-2.86120E-05-9.35779E-08-3.12343E-18 2.56724E-18
 -1      1662 9.51957E-05-2.83811E-05-2.86370E-05-1.07721E-07-5.05894E-18 1.74137E-18
 -1      1663 9.51700E-05-2.82625E-05-2.86777E-05-2.50317E-07-1.77130E-18 1.91814E-19
 -1      1664 9.52538E-05-2.85380E-05-2.85903E-05-4.58853E-08-5.63725E-19 1.60891E-18
 -1      1665 9.52482E-05-2.85122E-05-2.86030E-05-6.70732E-08-2.29683E-18 1.95129E-18
 -1      1666 9.52431E-05-2.84157E-05-2.86410E-05-1.70043E-07-1.30244E-18 4.03827E-18
 -1      1667 9.52918E-05-2.85084E-05-2.86195E-05-1.02582E-07-1.50763E-18 2.33198E-18
 -1      1668 2.06419E-05-6.72449E-05 1.38368E-05-6.55260E-06 3.29792E-18 4.19980E-18
 -1      1669 2.38278E-05-7.64510E-05 1.58169E-05 1.53051E-06-2.84751E-18 3.86776E-18
 -1      1670 1.87126E-05-4.05430E-05 4.75958E-06 5.24636E-07 8.75663E-18 4.92708E-18
 -1      1671 2.35695E-05-6.20835E-05 1.02204E-05-2.14917E-06 5.18384E-18 4.32813E-18
 -1      1672 3.27389E-05-1.34850E-05-1.04368E-05 2.56279E-05 9.32583E-18 5.39094E-18
 -1      1673 2.81972E-05-3.44135E-05-2.06077E-06 9.04217E-06 9.40461E-18 5.13090E-18
 -1      1674 6.96497E-05-8.45893E-07-2.89738E-05 5.69017E-05 7.91298E-18 8.65752E-18
 -1      1675 4.69991E-05-8.30454E-06-1.91599E-05 3.38802E-05 9.59519E-18 6.59754E-18
 -1      1676 1.29060E-04-1.28604E-05-4.69073E-05 7.58170E-05 6.61363E-18 9.10560E-18
 -1      1677 9.14328E-05-2.68831E-06-3.79909E-05 6.22569E-05 7.66565E-18 8.98024E-18
 -1      1678 1.96665E-04-3.96250E-05-6.23402E-05 6.40296E-05 3.80720E-18 6.59669E-18
 -1      1679 1.53679E-04-2.03027E-05-5.46280E-05 6.92832E-05 5.28464E-18 7.80541E-18
 -1      1680 2.45724E-04-6.10925E-05-7.25863E-05 3.21191E-05 2.81914E-18 2.80876E-18
 -1      1681 2.17289E-04-4.53677E-05-6.85501E-05 5.90653E-05 3.90387E-18 6.61872E-18
 -1      1682 2.46046E-04-6.01305E-05-7.37927E-05-2.00103E-05 2.24548E-18-2.17010E-18
 -1      1683 2.48448E-04-6.13262E-05-7.40202E-05 1.53979E-05 2.86551E-18 1.63117E-18
 -1      1684 2.05610E-04-4.04660E-05-6.64528E-05-5.78784E-05 3.68470E-18-6.76102E-18
 -1      1685 2.36388E-04-5.67959E-05-7.11609E-05-3.35834E-05 2.18175E-18-4.32283E-18
 -1      1686 1.45329E-04-1.61138E-05-5.29828E-05-7.30488E-05 7.47041E-18-9.54098E-18
 -1      1687 1.88588E-04-3.56393E-05-6.07710E-05-6.98986E-05 4.98077E-18-7.80964E-18
 -1      1688 8.49534E-05-2.06848E-06-3.57008E-05-5.93499E-05 9.06071E-18-1.03296E-17
 -1      1689 1.21482E-04-1.01934E-05-4.49034E-05-7.51056E-05 7.72071E-18-1.02440E-17
 -1      1690 4.48095E-05-1.49653E-05-1.57487E-05-2.84809E-05 9.86963E-18-7.81981E-18
 -1      1691 6.58155E-05-4.30977E-06-2.61912E-05-5.24564E-05 9.25299E-18-9.41223E-18
 -1      1692 2.53495E-05-3.93415E-05 7.82160E-07-4.83743E-06 8.67616E-18-5.33843E-18
 -1      1693 2.68124E-05-1.72448E-05-6.88062E-06-1.88392E-05 9.84083E-18-7.34886E-18
 -1      1694 2.37171E-05-6.70786E-05 1.21470E-05 2.02233E-06 4.56212E-18-2.82411E-18
 -1      1695 1.82732E-05-4.63558E-05 7.04857E-06 2.55930E-06 7.74358E-18-4.77504E-18
 -1      1696 2.23608E-05-7.31101E-05 1.55429E-05-3.73325E-06-8.24957E-19-2.11186E-18
 -1      1697 2.09092E-05-6.89172E-05 1.46098E-05 4.95981E-06 3.11539E-18-3.00443E-18
 -1      1698 1.90848E-05-5.96545E-05 1.17494E-05-6.27434E-06-3.04170E-18-1.11141E-18
 -1      1699 2.37181E-05-7.37730E-05 1.48637E-05-2.71076E-07-1.92044E-18-6.76991E-19
 -1      1700 2.22919E-05-2.96196E-05-3.46489E-07 1.01620E-05-4.87891E-18-3.74219E-18
 -1      1701 2.47857E-05-5.32246E-05 6.57874E-06 1.76146E-06-3.37458E-18-1.86771E-18
 -1      1702 5.11859E-05-1.00944E-05-1.83835E-05 4.05285E-05-6.25703E-18-7.38189E-18
 -1      1703 3.84486E-05-2.67867E-05-8.61367E-06 1.95017E-05-4.36053E-18-4.99411E-18
 -1      1704 9.91957E-05-5.67341E-06-3.81439E-05 6.84034E-05-7.01343E-18-8.96923E-18
 -1      1705 6.67914E-05-4.59941E-06-2.79145E-05 4.72604E-05-7.46067E-18-7.76983E-18
 -1      1706 1.65414E-04-2.57927E-05-5.57578E-05 7.61682E-05-5.01952E-18-8.67023E-18
 -1      1707 1.21959E-04-8.29375E-06-4.71971E-05 7.18711E-05-6.38578E-18-9.23689E-18
 -1      1708 2.24342E-04-5.15636E-05-6.85835E-05 4.49516E-05-3.27548E-18-5.60185E-18
 -1      1709 1.86043E-04-3.21056E-05-6.23508E-05 6.34304E-05-4.11743E-18-7.72579E-18
 -1      1710 2.52949E-04-6.38771E-05-7.45078E-05 1.12409E-06-1.64451E-18-2.77647E-18
 -1      1711 2.40278E-04-5.69843E-05-7.29011E-05 3.49992E-05-2.78314E-18-5.39560E-18
 -1      1712 2.31356E-04-5.23247E-05-7.10307E-05-4.69906E-05-3.59841E-18 3.68163E-18
 -1      1713 2.51588E-04-6.37966E-05-7.39550E-05-1.49304E-05-2.29398E-18-6.62592E-19
 -1      1714 1.73520E-04-2.58359E-05-5.96286E-05-7.42226E-05-6.16216E-18 9.40291E-18
 -1      1715 2.16238E-04-4.72199E-05-6.64961E-05-6.16927E-05-4.73354E-18 5.38289E-18
 -1      1716 1.04554E-04-5.61872E-06-4.17226E-05-6.54523E-05-7.78254E-18 9.74935E-18
 -1      1717 1.48724E-04-1.97776E-05-5.14684E-05-7.68203E-05-5.73187E-18 1.03346E-17
 -1      1718 5.13027E-05-6.01898E-06-2.17340E-05-3.76862E-05-1.06362E-17 8.84895E-18
 -1      1719 7.82855E-05-1.33079E-06-3.20333E-05-6.15824E-05-9.31652E-18 8.56435E-18
 -1      1720 2.81250E-05-3.03177E-05-3.70236E-06-1.02424E-05-9.64601E-18 5.90805E-18
 -1      1721 3.42047E-05-9.49672E-06-1.25028E-05-2.86684E-05-1.05642E-17 7.99260E-18
 -1      1722 2.40072E-05-6.06350E-05 9.59143E-06 1.08654E-06-7.64871E-18 2.51878E-18
 -1      1723 1.95418E-05-3.75076E-05 3.43227E-06-3.13837E-06-9.06325E-18 5.29946E-18
 -1      1724 2.38532E-05-7.65135E-05 1.58183E-05-1.47479E-06-4.44322E-18 2.09365E-18
 -1      1725 2.03451E-05-6.66043E-05 1.37444E-05 6.73170E-06-6.12532E-18 9.10455E-19
 -1      1726 1.08351E-04-2.95537E-05-3.29899E-05 4.58771E-05 5.04027E-18 5.53875E-18
 -1      1727 6.83773E-05-3.43779E-05-1.60267E-05 3.83217E-05 6.08932E-18 4.35587E-18
 -1      1728 9.52507E-05-2.85783E-05-2.85723E-05-9.07566E-09-1.80470E-18 5.56509E-19
 -1      1729 9.52591E-05-2.85304E-05-2.85974E-05 3.78045E-08-1.33329E-18 2.14782E-18
 -1      1730 1.80645E-05-4.85254E-05 8.65881E-06 1.24297E-05 9.93146E-19 6.68415E-18
 -1      1731 3.71826E-05-4.13211E-05-1.32776E-06 2.65072E-05 4.47911E-18 4.16327E-18
 -1      1732 1.22845E-05-5.18301E-05 1.21265E-05 3.96718E-08-1.14244E-18 4.92380E-18
 -1      1733 1.51917E-04-3.11863E-05-4.90104E-05 4.10125E-05 4.37620E-18 3.51519E-18
 -1      1734 1.87172E-04-3.28191E-05-6.19818E-05 2.74708E-05 3.75363E-18 2.16290E-18
 -1      1735 2.07864E-04-3.33926E-05-6.93614E-05 1.10070E-05 4.62734E-18 1.33577E-18
 -1      1736 2.01399E-04-3.09061E-05-6.81801E-05-1.01030E-05 3.89169E-18-1.75124E-18
 -1      1737 1.81880E-04-3.14249E-05-6.03959E-05-2.96380E-05 5.24165E-18-4.81623E-18
 -1      1738 1.47098E-04-3.05301E-05-4.73762E-05-4.41287E-05 6.21447E-18-6.46794E-18
 -1      1739 1.04117E-04-3.22313E-05-3.04743E-05-4.42369E-05 6.00758E-18-6.52046E-18
 -1      1740 6.35605E-05-3.64626E-05-1.32100E-05-3.70248E-05 5.42016E-18-5.72637E-18
 -1      1741 3.17493E-05-4.30805E-05 1.30479E-06-2.28534E-05 4.01494E-18-5.10721E-18
 -1      1742 1.49858E-05-4.77188E-05 9.64416E-06-9.83007E-06 1.48083E-18-4.54984E-18
 -1      1743 1.20609E-05-4.90053E-05 1.13089E-05 3.37658E-06-1.73854E-19-2.66222E-18
 -1      1744 2.34571E-05-4.55506E-05 5.67926E-06 1.89195E-05-1.52000E-18-2.19763E-18
 -1      1745 5.27698E-05-4.09151E-05-7.09911E-06 3.47048E-05-1.63139E-18-4.25687E-18
 -1      1746 9.04567E-05-3.67672E-05-2.36262E-05 4.16541E-05-2.40557E-18-5.27786E-18
 -1      1747 1.30886E-04-3.04740E-05-4.13746E-05 4.56540E-05-4.08609E-18-5.59211E-18
 -1      1748 1.71196E-04-3.12870E-05-5.64314E-05 3.48155E-05-3.27267E-18-3.97343E-18
 -1      1749 1.96857E-04-3.16377E-05-6.64846E-05 1.49801E-05-3.55267E-18-2.50679E-18
 -1      1750 2.10717E-04-3.43993E-05-7.01643E-05-3.30339E-06-4.03781E-18-7.68577E-19
 -1      1751 1.97590E-04-3.35427E-05-6.53711E-05-2.63282E-05-5.88921E-18 2.64952E-18
 -1      1752 1.63249E-04-3.14677E-05-5.32073E-05-4.12547E-05-5.09331E-18 6.08847E-18
 -1      1753 1.17559E-04-3.01889E-05-3.63051E-05-4.58747E-05-6.13760E-18 6.19605E-18
 -1      1754 7.23437E-05-3.27061E-05-1.81957E-05-3.94955E-05-6.41119E-18 5.48369E-18
 -1      1755 3.92817E-05-4.05014E-05-2.53854E-06-2.72622E-05-5.48200E-18 4.79209E-18
 -1      1756 1.88175E-05-4.76743E-05 8.14213E-06-1.38778E-05-3.47495E-18 2.85323E-18
 -1      1757 1.05877E-04-2.31278E-05-3.55480E-05-1.68270E-05-1.41645E-18 7.33298E-18
 -1      1758 8.91455E-05-1.05765E-05-3.37980E-05-1.32731E-05-2.12899E-18-1.32066E-18
 -1      1759 9.04661E-05-1.16297E-05-3.39290E-05-1.50876E-05-2.37746E-18-6.15105E-19
 -1      1760 9.24432E-05-1.38662E-05-3.38371E-05-1.59601E-05-2.33326E-18 3.16049E-19
 -1      1761 9.41266E-05-1.58062E-05-3.40693E-05-1.76232E-05-2.39634E-18 1.62297E-18
 -1      1762 9.33814E-05-1.63324E-05-3.30364E-05-1.37286E-05-2.47386E-18-4.51045E-20
 -1      1763 8.62611E-05-7.65081E-06-3.37617E-05-7.81738E-06-1.40376E-18-2.72406E-18
 -1      1764 8.66561E-05-7.95507E-06-3.37906E-05-9.20276E-06-1.63046E-18-2.50355E-18
 -1      1765 8.56562E-05-7.00630E-06-3.37666E-05-5.28261E-06-9.75114E-19-2.96178E-18
 -1      1766 8.58861E-05-7.18758E-06-3.37783E-05-6.58158E-06-1.19098E-18-2.83372E-18
 -1      1767 8.76424E-05-9.83136E-06-3.33797E-05-6.87842E-06-1.39816E-18-2.64448E-18
 -1      1768 8.53243E-05-6.63868E-06-3.37748E-05-2.86532E-06-5.11618E-19-3.12537E-18
 -1      1769 8.54436E-05-6.73584E-06-3.37787E-05-4.09744E-06-7.39312E-19-3.04680E-18
 -1      1770 8.70122E-05-9.10555E-06-3.34205E-05-4.49648E-06-8.85308E-19-2.84587E-18
 -1      1771 8.51940E-05-6.48590E-06-3.37803E-05-5.12513E-07-1.30164E-19-3.25401E-18
 -1      1772 8.52292E-05-6.51538E-06-3.37811E-05-1.71327E-06-3.01672E-19-3.23453E-18
 -1      1773 8.66803E-05-8.71597E-06-3.34450E-05-2.19504E-06-4.49536E-19-3.04869E-18
 -1      1774 8.52390E-05-6.52438E-06-3.37813E-05 1.83065E-06 2.26733E-19-3.28792E-18
 -1      1775 8.51976E-05-6.49047E-06-3.37802E-05 6.28905E-07 2.08367E-20-3.25650E-18
 -1      1776 8.65818E-05-8.59872E-06-3.34529E-05 6.49911E-08-3.57556E-20-3.16660E-18
 -1      1777 8.54685E-05-6.76098E-06-3.37787E-05 4.21923E-06 6.19287E-19-3.30017E-18
 -1      1778 8.53420E-05-6.65760E-06-3.37747E-05 2.98402E-06 4.31745E-19-3.31864E-18
 -1      1779 8.66977E-05-8.73554E-06-3.34442E-05 2.32622E-06 3.22009E-19-3.22665E-18
 -1      1780 8.59204E-05-7.22407E-06-3.37776E-05 6.66792E-06 1.01974E-18-3.15942E-18
 -1      1781 8.56861E-05-7.03827E-06-3.37664E-05 5.38605E-06 8.05367E-19-3.26141E-18
 -1      1782 8.70456E-05-9.14263E-06-3.34189E-05 4.61036E-06 7.51601E-19-3.15796E-18
 -1      1783 8.67211E-05-8.02488E-06-3.37882E-05 9.32276E-06 1.56335E-18-2.79664E-18
 -1      1784 8.63084E-05-7.70475E-06-3.37599E-05 7.90478E-06 1.25586E-18-3.00339E-18
 -1      1785 8.76935E-05-9.88915E-06-3.33770E-05 6.97238E-06 1.27007E-18-2.95613E-18
 -1      1786 8.81089E-05-9.38115E-06-3.38292E-05 1.22011E-05 2.00471E-18-2.25729E-18
 -1      1787 8.73836E-05-8.82118E-06-3.37648E-05 1.06085E-05 1.72420E-18-2.57423E-18
 -1      1788 8.88022E-05-1.11383E-05-3.33150E-05 9.44074E-06 1.76440E-18-2.49206E-18
 -1      1789 9.06116E-05-1.18352E-05-3.39207E-05 1.52539E-05 2.44478E-18-1.12015E-18
 -1      1790 8.92546E-05-1.07368E-05-3.37908E-05 1.34629E-05 2.20911E-18-1.79396E-18
 -1      1791 9.06729E-05-1.32105E-05-3.32167E-05 1.19146E-05 2.24070E-18-1.81568E-18
 -1      1792 9.57922E-05-1.70179E-05-3.39639E-05 1.76496E-05 2.47087E-18 1.11035E-18
 -1      1793 9.28076E-05-1.43339E-05-3.38095E-05 1.61508E-05 2.42953E-18-2.43337E-19
 -1      1794 9.39348E-05-1.68744E-05-3.30146E-05 1.38428E-05 2.54877E-18-5.10231E-19
 -1      1795 1.01784E-04-2.50566E-05-3.33145E-05 1.43934E-05 2.12404E-18 3.96411E-18
 -1      1796 9.79685E-05-1.95929E-05-3.35891E-05 1.69287E-05 2.30808E-18 2.09244E-18
 -1      1797 9.72436E-05-2.18309E-05-3.24005E-05 1.32087E-05 2.52268E-18 1.16740E-18
 -1      1798 9.86201E-05-2.60975E-05-3.13016E-05 9.40924E-06 2.10734E-18 3.28196E-18
 -1      1799 1.00026E-04-1.95354E-05-3.41750E-05-1.88356E-05-1.97525E-18 3.71699E-18
 -1      1800 9.52001E-05-2.72496E-05-2.91528E-05 4.03780E-06 1.60849E-18 2.28911E-18
 -1      1801 9.76192E-05-2.73529E-05-3.01579E-05 6.37312E-06 1.75301E-18 2.88117E-18
 -1      1802 9.74771E-05-2.55846E-05-3.08032E-05 8.72452E-06 2.08950E-18 1.66345E-18
 -1      1803 9.97064E-05-2.25118E-05-3.28027E-05-1.44312E-05-2.20530E-18 2.81061E-18
 -1      1804 9.68683E-05-2.69479E-05-2.98506E-05-5.66634E-06-1.69182E-18 2.33024E-18
 -1      1805 9.50727E-05-2.70039E-05-2.91448E-05-3.85508E-06-1.49673E-18 1.86521E-18
 -1      1806 9.42683E-05-2.72056E-05-2.86438E-05-2.36778E-06-1.40867E-18 1.75946E-18
 -1      1807 9.35160E-05-2.72883E-05-2.83454E-05-1.50348E-06-1.28797E-18 1.42290E-18
 -1      1808 9.54633E-05-2.65178E-05-2.95689E-05-4.40689E-06-1.74008E-18 7.92950E-19
 -1      1809 9.30142E-05-2.73422E-05-2.80856E-05-6.57165E-07-1.01952E-18 1.39700E-18
 -1      1810 9.27426E-05-2.74105E-05-2.79732E-05-2.01450E-07-8.08897E-19 1.14029E-18
 -1      1811 9.42891E-05-2.71935E-05-2.87762E-05-1.72663E-06-1.34357E-18 6.82649E-19
 -1      1812 9.24997E-05-2.74428E-05-2.78500E-05 2.82692E-07-7.58331E-19 1.02511E-18
 -1      1813 9.25130E-05-2.75268E-05-2.78345E-05 5.32644E-07-7.52729E-19 8.49819E-19
 -1      1814 9.36417E-05-2.75032E-05-2.83625E-05-2.05681E-07-9.71742E-19 5.03639E-19
 -1      1815 9.24566E-05-2.75658E-05-2.77942E-05 8.14043E-07-7.76391E-19 8.57180E-19
 -1      1816 9.26374E-05-2.76635E-05-2.78343E-05 9.54920E-07-6.64411E-19 6.04133E-19
 -1      1817 9.33975E-05-2.76934E-05-2.81725E-05 6.76600E-07-8.87688E-19 3.15907E-19
 -1      1818 9.27090E-05-2.77131E-05-2.78473E-05 1.12388E-06-6.52364E-19 6.40576E-19
 -1      1819 9.29920E-05-2.78195E-05-2.79219E-05 1.20857E-06-5.24049E-19 5.63917E-19
 -1      1820 9.34436E-05-2.78468E-05-2.81230E-05 1.20040E-06-6.85997E-19 4.37674E-19
 -1      1821 9.31524E-05-2.78780E-05-2.79709E-05 1.32031E-06-6.02043E-19 5.13577E-19
 -1      1822 9.35035E-05-2.79902E-05-2.80689E-05 1.38145E-06-6.07266E-19 2.54338E-19
 -1      1823 9.36919E-05-2.79881E-05-2.81663E-05 1.52948E-06-6.14606E-19 4.25353E-19
 -1      1824 9.37295E-05-2.80562E-05-2.81439E-05 1.47235E-06-7.24518E-19 2.99766E-19
 -1      1825 9.41344E-05-2.81741E-05-2.82603E-05 1.53201E-06-6.12926E-19 2.58470E-19
 -1      1826 9.40854E-05-2.81256E-05-2.82743E-05 1.76739E-06-7.37201E-19 2.04393E-19
 -1      1827 9.44151E-05-2.82477E-05-2.83565E-05 1.62748E-06-6.93839E-19-3.69659E-20
 -1      1828 9.48733E-05-2.83740E-05-2.84905E-05 1.70145E-06-5.45240E-19-3.90263E-19
 -1      1829 9.45928E-05-2.82642E-05-2.84316E-05 1.98413E-06-8.96975E-19-1.80812E-19
 -1      1830 9.52064E-05-2.84568E-05-2.86062E-05 1.81969E-06-3.56402E-19-7.36489E-19
 -1      1831 9.57267E-05-2.85964E-05-2.87595E-05 1.91930E-06-3.39855E-20-8.57717E-19
 -1      1832 9.52031E-05-2.84097E-05-2.86306E-05 2.22915E-06-6.38646E-19-6.60389E-19
 -1      1833 9.61165E-05-2.86918E-05-2.88952E-05 2.07288E-06 2.71252E-19-8.83744E-19
 -1      1834 9.67141E-05-2.88517E-05-2.90717E-05 2.20548E-06 2.69570E-19-7.66807E-19
 -1      1835 9.59195E-05-2.85705E-05-2.88690E-05 2.53729E-06 4.06377E-20-1.02764E-18
 -1      1836 9.71691E-05-2.89646E-05-2.92289E-05 2.40135E-06 3.09518E-19-6.21989E-19
 -1      1837 9.78626E-05-2.91536E-05-2.94331E-05 2.56956E-06 3.17077E-19-1.51931E-19
 -1      1838 9.67562E-05-2.87582E-05-2.91477E-05 2.93066E-06 3.37000E-19-9.36937E-19
 -1      1839 9.83939E-05-2.92911E-05-2.96135E-05 2.80750E-06-7.90230E-20 1.30153E-19
 -1      1840 9.92012E-05-2.95194E-05-2.98492E-05 3.00712E-06-2.24296E-19 2.49632E-19
 -1      1841 9.77344E-05-2.89892E-05-2.94686E-05 3.41703E-06 2.74485E-19-3.70879E-19
 -1      1842 9.98205E-05-2.96911E-05-3.00533E-05 3.27650E-06-4.26321E-19 1.38883E-19
 -1      1843 1.00754E-04-2.99700E-05-3.03224E-05 3.49272E-06-5.81715E-20-6.95080E-21
 -1      1844 9.88791E-05-2.92862E-05-2.98326E-05 3.98476E-06-2.55121E-19-1.78877E-19
 -1      1845 1.01472E-04-3.01886E-05-3.05481E-05 3.76701E-06 2.31197E-20-3.72405E-19
 -1      1846 1.02531E-04-3.05298E-05-3.08478E-05 3.96854E-06-9.86206E-20-6.41279E-19
 -1      1847 1.00216E-04-2.96809E-05-3.02368E-05 4.59336E-06-2.96701E-19-4.14121E-19
 -1      1848 1.03355E-04-3.08119E-05-3.10886E-05 4.19754E-06-1.19837E-19-8.73278E-19
 -1      1849 1.04515E-04-3.12246E-05-3.14082E-05 4.32904E-06-3.36667E-20-7.59694E-19
 -1      1850 1.01766E-04-3.02167E-05-3.06720E-05 5.15938E-06-2.60375E-19-1.00020E-18
 -1      1851 1.05446E-04-3.15902E-05-3.16522E-05 4.42972E-06 4.59871E-21-4.37296E-19
 -1      1852 1.06645E-04-3.20758E-05-3.19696E-05 4.40470E-06-1.94603E-19-4.00162E-19
 -1      1853 1.03543E-04-3.09486E-05-3.11201E-05 5.53829E-06-2.88043E-20-7.93375E-19
 -1      1854 1.07670E-04-3.25431E-05-3.21982E-05 4.25461E-06-4.83681E-19-1.37840E-19
 -1      1855 1.08792E-04-3.30832E-05-3.24773E-05 3.95511E-06-1.65717E-19-2.39700E-19
 -1      1856 1.05540E-04-3.19354E-05-3.15528E-05 5.50758E-06-1.34637E-19-5.68392E-19
 -1      1857 1.09873E-04-3.36531E-05-3.26676E-05 3.39837E-06 5.18278E-20-5.76710E-20
 -1      1858 1.10733E-04-3.41880E-05-3.28590E-05 2.69486E-06 2.33424E-19-1.05348E-19
 -1      1859 1.07711E-04-3.32102E-05-3.19349E-05 4.76511E-06-5.82335E-22-7.99288E-20
 -1      1860 1.11778E-04-3.48111E-05-3.29897E-05 1.57995E-06 4.04716E-19-6.36797E-20
 -1      1861 1.12131E-04-3.52087E-05-3.30401E-05 3.91000E-07 2.05452E-19 2.69119E-19
 -1      1862 1.09924E-04-3.47114E-05-3.22340E-05 2.97297E-06 3.69435E-19 1.79846E-19
 -1      1863 1.12952E-04-3.57332E-05-3.31024E-05-1.32952E-06-1.51672E-19 7.33272E-19
 -1      1864 1.12535E-04-3.57692E-05-3.29748E-05-2.92187E-06 5.66983E-20 8.24762E-19
 -1      1865 1.11884E-04-3.61631E-05-3.24390E-05-1.03639E-07 3.81492E-19 4.56714E-19
 -1      1866 1.12828E-04-3.59119E-05-3.29838E-05-5.01803E-06-2.74822E-20 9.68303E-19
 -1      1867 1.11481E-04-3.53209E-05-3.26852E-05-6.63152E-06 4.42800E-19 1.47013E-18
 -1      1868 1.13064E-04-3.69651E-05-3.25801E-05-4.30623E-06 3.01980E-19 1.62342E-18
 -1      1869 1.10924E-04-3.47528E-05-3.26794E-05-8.43030E-06 4.08402E-19 1.29124E-18
 -1      1870 1.08777E-04-3.34181E-05-3.22815E-05-9.34997E-06 3.11513E-19 1.28785E-18
 -1      1871 1.12773E-04-3.62817E-05-3.27295E-05-8.69749E-06 3.72675E-19 1.52999E-18
 -1      1872 1.07335E-04-3.20659E-05-3.23025E-05-9.81222E-06 9.05869E-19 6.20968E-19
 -1      1873 1.04979E-04-3.03111E-05-3.19272E-05-9.27334E-06 7.29428E-19 8.01703E-19
 -1      1874 1.10589E-04-3.35735E-05-3.29620E-05-1.13928E-05 5.93076E-19 1.16865E-18
 -1      1875 1.03269E-04-2.87209E-05-3.19749E-05-7.60153E-06 2.12248E-19 4.49755E-19
 -1      1876 1.01639E-04-2.73814E-05-3.17430E-05-5.40943E-06-5.33022E-19 8.23012E-19
 -1      1877 1.07123E-04-2.95332E-05-3.32707E-05-1.02237E-05 5.27450E-19 2.58970E-19
 -1      1878 1.00788E-04-2.65895E-05-3.17717E-05-1.95751E-06-1.33000E-18 7.10062E-19
 -1      1879 1.00674E-04-2.64922E-05-3.17566E-05 1.04714E-06-1.31694E-18 4.02777E-19
 -1      1880 1.04285E-04-2.62919E-05-3.35130E-05-4.50804E-06-1.07609E-18 5.02341E-19
 -1      1881 1.01338E-04-2.71082E-05-3.17359E-05 4.63175E-06-5.71390E-19-2.66882E-20
 -1      1882 1.02798E-04-2.83167E-05-3.19425E-05 7.00553E-06 1.41613E-20-8.85480E-20
 -1      1883 1.04077E-04-2.60552E-05-3.35329E-05 3.47901E-06-1.13768E-18 3.14271E-19
 -1      1884 1.04459E-04-2.98590E-05-3.18964E-05 8.97398E-06-2.42701E-19-5.38217E-19
 -1      1885 1.06777E-04-3.16133E-05-3.22598E-05 9.74932E-06-9.70582E-19-7.80375E-19
 -1      1886 1.06654E-04-2.89861E-05-3.33185E-05 9.69973E-06-6.24918E-19-7.93534E-19
 -1      1887 1.08313E-04-3.30475E-05-3.22346E-05 9.55130E-06-1.17915E-18-8.99311E-19
 -1      1888 1.10536E-04-3.44727E-05-3.26375E-05 8.79224E-06-6.05781E-19-1.01861E-18
 -1      1889 1.10174E-04-3.30685E-05-3.30121E-05 1.15125E-05-8.44194E-19-1.44400E-18
 -1      1890 1.11227E-04-3.51553E-05-3.26412E-05 7.11363E-06-3.04032E-19-7.42054E-19
 -1      1891 1.12705E-04-3.58482E-05-3.29599E-05 5.54962E-06-5.19555E-19-6.70056E-19
 -1      1892 1.12605E-04-3.60322E-05-3.27645E-05 9.23431E-06-3.63827E-19-1.05867E-18
 -1      1893 1.12515E-04-3.57840E-05-3.29578E-05 3.44852E-06-9.03321E-19-8.13704E-19
 -1      1894 1.13061E-04-3.58186E-05-3.31132E-05 1.82851E-06-1.31303E-19-8.54607E-19
 -1      1895 1.13152E-04-3.69795E-05-3.26088E-05 4.95171E-06-5.19238E-19-8.40032E-19
 -1      1896 1.12301E-04-3.53280E-05-3.30631E-05 4.44570E-08-5.94299E-19-1.74023E-18
 -1      1897 1.12051E-04-3.49672E-05-3.30395E-05-1.20158E-06-7.98262E-19-1.80574E-18
 -1      1898 1.12144E-04-3.63267E-05-3.24776E-05 6.64714E-07-7.52744E-19-1.61015E-18
 -1      1899 1.11036E-04-3.43485E-05-3.29228E-05-2.38844E-06-2.14438E-19-2.28927E-18
 -1      1900 1.10248E-04-3.38267E-05-3.27533E-05-3.14530E-06-3.93738E-21-2.20670E-18
 -1      1901 1.10275E-04-3.49234E-05-3.22924E-05-2.56374E-06-7.85084E-19-2.45045E-18
 -1      1902 1.09182E-04-3.32485E-05-3.25763E-05-3.75518E-06 1.29075E-19-2.38585E-18
 -1      1903 1.08110E-04-3.27103E-05-3.23140E-05-4.08930E-06 6.19403E-19-2.05251E-18
 -1      1904 1.08105E-04-3.34111E-05-3.20172E-05-4.49228E-06 9.51589E-21-1.85237E-18
 -1      1905 1.07097E-04-3.22333E-05-3.20975E-05-4.26613E-06 1.16739E-19-2.04553E-18
 -1      1906 1.05935E-04-3.17471E-05-3.17936E-05-4.30459E-06 4.33344E-19-2.27144E-18
 -1      1907 1.05957E-04-3.21047E-05-3.16591E-05-5.32006E-06 5.47077E-19-2.69683E-18
 -1      1908 1.05021E-04-3.13751E-05-3.15613E-05-4.20626E-06 1.47152E-18-2.00554E-18
 -1      1909 1.03898E-04-3.09640E-05-3.12545E-05-4.06981E-06 8.77508E-19-6.43664E-19
 -1      1910 1.03984E-04-3.10884E-05-3.12498E-05-5.38054E-06 1.00818E-18-1.64149E-18
 -1      1911 1.03098E-04-3.06805E-05-3.10262E-05-3.82345E-06-3.85235E-19-1.25777E-18
 -1      1912 1.02084E-04-3.03456E-05-3.07412E-05-3.60251E-06-8.14944E-19-8.88581E-19
 -1      1913 1.02244E-04-3.03378E-05-3.08259E-05-4.98335E-06 2.12320E-19-2.17015E-18
 -1      1914 1.01401E-04-3.01309E-05-3.05303E-05-3.29564E-06-8.84003E-19-4.91908E-19
 -1      1915 1.00528E-04-2.98647E-05-3.02799E-05-3.04889E-06-6.55356E-19 1.78629E-19
 -1      1916 1.00750E-04-2.97959E-05-3.04175E-05-4.36095E-06-6.47488E-19-1.34273E-18
 -1      1917 9.99560E-05-2.97020E-05-3.00939E-05-2.73523E-06-1.17272E-18 1.30173E-19
 -1      1918 9.92301E-05-2.94939E-05-2.98824E-05-2.49642E-06-1.10220E-18 3.89895E-19
 -1      1919 9.94938E-05-2.94074E-05-3.00450E-05-3.66652E-06-9.88804E-19 4.15879E-19
 -1      1920 9.87603E-05-2.93704E-05-2.97242E-05-2.20521E-06-1.81274E-18 1.21006E-20
 -1      1921 9.81732E-05-2.92101E-05-2.95512E-05-1.99097E-06-1.41054E-18 3.98968E-20
 -1      1922 9.84564E-05-2.91286E-05-2.97192E-05-2.99039E-06-1.59967E-18 2.22616E-18
 -1      1923 9.77941E-05-2.91163E-05-2.94205E-05-1.73524E-06 4.78725E-19-1.49835E-19
 -1      1924 9.73303E-05-2.89943E-05-2.92827E-05-1.55140E-06 1.37046E-18 4.82327E-19
 -1      1925 9.76144E-05-2.89275E-05-2.94438E-05-2.37881E-06-6.26257E-19 2.45781E-18
 -1      1926 9.70296E-05-2.89229E-05-2.91776E-05-1.33416E-06 1.37632E-18 1.38027E-18
 -1      1927 9.66718E-05-2.88311E-05-2.90706E-05-1.18006E-06 2.38085E-18 2.16720E-18
 -1      1928 9.69423E-05-2.87811E-05-2.92176E-05-1.84952E-06 2.08132E-18 2.32700E-18
 -1      1929 9.64373E-05-2.87766E-05-2.89885E-05-9.98375E-07 2.85906E-18 2.02789E-18
 -1      1930 9.61687E-05-2.87084E-05-2.89079E-05-8.69694E-07 2.88985E-18 2.49764E-18
 -1      1931 9.64146E-05-2.86729E-05-2.90370E-05-1.40272E-06 2.43370E-18 2.55336E-18
 -1      1932 9.59891E-05-2.86661E-05-2.88456E-05-7.17553E-07 1.31020E-18 2.80113E-18
 -1      1933 9.57951E-05-2.86165E-05-2.87875E-05-6.08242E-07 2.58500E-19 2.27118E-18
 -1      1934 9.60073E-05-2.85909E-05-2.88967E-05-1.02878E-06 1.99765E-18 2.21316E-18
 -1      1935 9.56595E-05-2.85836E-05-2.87416E-05-4.78319E-07-3.92631E-19 2.38347E-18
 -1      1936 9.55287E-05-2.85500E-05-2.87021E-05-3.82772E-07 5.23320E-20 3.44598E-18
 -1      1937 9.56981E-05-2.85263E-05-2.87909E-05-7.13779E-07 1.48454E-19 2.78734E-18
 -1      1938 9.54384E-05-2.85309E-05-2.86708E-05-2.76338E-07 5.00286E-19 3.57933E-18
 -1      1939 9.53583E-05-2.85145E-05-2.86445E-05-1.95837E-07 1.17336E-19 2.77552E-18
 -1      1940 9.53366E-05-2.84756E-05-2.86570E-05-2.36811E-07-9.94818E-19 3.62538E-18
 -1      1941 9.54791E-05-2.84862E-05-2.87148E-05-4.50755E-07 3.47739E-19 3.35021E-18
 -1      1942 9.31303E-05-2.73315E-05-2.81711E-05 1.56285E-06 1.45279E-18 1.51370E-18
 -1      1943 9.43096E-05-2.74338E-05-2.86025E-05 2.63961E-06 1.48755E-18 2.05053E-18
 -1      1944 9.51551E-05-2.70181E-05-2.92072E-05 4.00730E-06 1.74360E-18 1.21696E-18
 -1      1945 9.21228E-05-2.73267E-05-2.77446E-05 2.81542E-07 1.05594E-18 9.52641E-19
 -1      1946 9.25943E-05-2.73539E-05-2.79094E-05 8.40414E-07 1.14075E-18 1.28979E-18
 -1      1947 9.35866E-05-2.73438E-05-2.83971E-05 1.51479E-06 1.42131E-18 7.89819E-19
 -1      1948 9.18148E-05-2.73786E-05-2.75989E-05-4.10256E-07 4.74909E-19 6.62062E-19
 -1      1949 9.18947E-05-2.73435E-05-2.76345E-05-1.00682E-07 7.12125E-19 8.00049E-19
 -1      1950 9.28089E-05-2.74672E-05-2.80142E-05 1.62747E-07 9.74617E-19 4.00766E-19
 -1      1951 9.19388E-05-2.74915E-05-2.76088E-05-7.92314E-07 1.63462E-19 2.98473E-19
 -1      1952 9.17979E-05-2.74164E-05-2.75755E-05-6.14153E-07 2.90754E-19 5.34547E-19
 -1      1953 9.25737E-05-2.75739E-05-2.78680E-05-5.89540E-07 4.39086E-19 7.27092E-20
 -1      1954 9.23295E-05-2.76475E-05-2.77119E-05-1.00943E-06 4.85942E-19-8.55975E-20
 -1      1955 9.20602E-05-2.75487E-05-2.76385E-05-9.02086E-07 3.30520E-19 1.21476E-19
 -1      1956 9.26912E-05-2.77006E-05-2.78625E-05-1.01844E-06 4.25996E-19-3.52774E-19
 -1      1957 9.28915E-05-2.78320E-05-2.78749E-05-1.14519E-06 6.12115E-19-2.10193E-19
 -1      1958 9.25431E-05-2.77189E-05-2.77762E-05-1.07308E-06 5.23742E-19-1.12353E-19
 -1      1959 9.30383E-05-2.78485E-05-2.79460E-05-1.27526E-06 6.94784E-19-6.05663E-19
 -1      1960 9.35755E-05-2.80374E-05-2.80805E-05-1.25321E-06 6.17966E-19-7.85093E-19
 -1      1961 9.31712E-05-2.79140E-05-2.79636E-05-1.19300E-06 7.46362E-19-3.19144E-19
 -1      1962 9.35419E-05-2.80133E-05-2.80899E-05-1.45127E-06 8.90452E-19-4.86974E-19
 -1      1963 9.43640E-05-2.82629E-05-2.83218E-05-1.37060E-06 6.93554E-20-5.28020E-19
 -1      1964 9.39101E-05-2.81289E-05-2.81887E-05-1.30569E-06 2.92618E-19-7.73498E-19
 -1      1965 9.41645E-05-2.81931E-05-2.82789E-05-1.60654E-06 5.25137E-19-4.81745E-19
 -1      1966 9.52615E-05-2.85128E-05-2.85989E-05-1.52402E-06-5.50410E-20-6.77530E-19
 -1      1967 9.47525E-05-2.83651E-05-2.84485E-05-1.44207E-06 1.59445E-19-5.37006E-19
 -1      1968 9.48939E-05-2.83902E-05-2.85067E-05-1.78301E-06 8.68742E-20-4.53607E-19
 -1      1969 9.62881E-05-2.87958E-05-2.89170E-05-1.73213E-06-4.74223E-21-9.36602E-19
 -1      1970 9.57104E-05-2.86289E-05-2.87454E-05-1.62412E-06-2.06100E-19-8.97156E-19
 -1      1971 9.57359E-05-2.86105E-05-2.87733E-05-2.01034E-06 5.33378E-20-1.13592E-18
 -1      1972 9.74737E-05-2.91241E-05-2.92837E-05-2.00567E-06 5.04171E-19-1.23149E-18
 -1      1973 9.68088E-05-2.89309E-05-2.90861E-05-1.86596E-06 3.09116E-19-1.07182E-18
 -1      1974 9.67087E-05-2.88640E-05-2.90821E-05-2.30785E-06 4.19710E-19-1.35026E-18
 -1      1975 9.88521E-05-2.95124E-05-2.97075E-05-2.34511E-06 3.13565E-19-1.13801E-18
 -1      1976 9.80799E-05-2.92846E-05-2.94786E-05-2.17266E-06 3.72608E-19-1.15052E-18
 -1      1977 9.78380E-05-2.91639E-05-2.94384E-05-2.68357E-06 4.53416E-19-1.07065E-18
 -1      1978 1.00453E-04-2.99771E-05-3.01947E-05-2.73561E-06 3.67065E-19-5.67918E-19
 -1      1979 9.95570E-05-2.97062E-05-2.99307E-05-2.53656E-06 2.96336E-19-7.65595E-19
 -1      1980 9.91516E-05-2.95271E-05-2.98466E-05-3.13015E-06 2.92886E-19-1.06064E-18
 -1      1981 1.02292E-04-3.05345E-05-3.07456E-05-3.13838E-06 4.01507E-19-1.36217E-18
 -1      1982 1.01265E-04-3.02135E-05-3.04460E-05-2.93041E-06 5.32765E-19-8.91206E-19
 -1      1983 1.00673E-04-2.99743E-05-3.03079E-05-3.61720E-06 7.11456E-19-7.30973E-19
 -1      1984 1.04354E-04-3.11979E-05-3.13491E-05-3.47834E-06 2.01587E-19-1.73298E-18
 -1      1985 1.03211E-04-3.08238E-05-3.10202E-05-3.29706E-06 1.35929E-19-1.92464E-18
 -1      1986 1.02412E-04-3.05296E-05-3.08161E-05-4.07943E-06 6.64102E-19-1.03246E-18
 -1      1987 1.06575E-04-3.19719E-05-3.19763E-05-3.62938E-06-2.83938E-20-1.77222E-18
 -1      1988 1.05364E-04-3.15499E-05-3.16349E-05-3.53620E-06 3.16689E-19-1.35065E-18
 -1      1989 1.04355E-04-3.12187E-05-3.13535E-05-4.40128E-06 2.19304E-19-1.39303E-18
 -1      1990 1.08814E-04-3.28406E-05-3.25737E-05-3.40368E-06-1.39446E-20-2.28081E-18
 -1      1991 1.07633E-04-3.23919E-05-3.22517E-05-3.49187E-06 6.89041E-21-1.94141E-18
 -1      1992 1.06444E-04-3.20613E-05-3.18866E-05-4.40197E-06 2.34377E-19-1.56187E-18
 -1      1993 1.10826E-04-3.37454E-05-3.30600E-05-2.56142E-06 5.56924E-20-2.03721E-18
 -1      1994 1.09838E-04-3.33188E-05-3.28065E-05-2.95211E-06-2.83720E-19-2.25251E-18
 -1      1995 1.08559E-04-3.30528E-05-3.23642E-05-3.83289E-06-7.47606E-20-1.99421E-18
 -1      1996 1.12247E-04-3.45495E-05-3.33332E-05-8.71815E-07-6.71998E-19-1.63665E-18
 -1      1997 1.11681E-04-3.42360E-05-3.32110E-05-1.68371E-06-2.55658E-19-1.96296E-18
 -1      1998 1.10482E-04-3.41235E-05-3.27215E-05-2.41263E-06-2.53111E-19-2.00086E-18
 -1      1999 1.12611E-04-3.49976E-05-3.32964E-05 1.73292E-06 1.89577E-19-8.34979E-19
 -1      2000 1.12733E-04-3.49388E-05-3.33664E-05 4.62076E-07-3.49930E-20-9.61238E-19
 -1      2001 1.11872E-04-3.50746E-05-3.28953E-05 6.00377E-08-3.86035E-19-8.76832E-19
 -1      2002 1.11456E-04-3.47232E-05-3.29037E-05 4.90716E-06-3.63245E-19-9.41623E-19
 -1      2003 1.12477E-04-3.50861E-05-3.31959E-05 3.34737E-06 1.67488E-20-9.93854E-19
 -1      2004 1.12258E-04-3.55227E-05-3.28505E-05 3.47840E-06 1.49918E-19-3.46587E-19
 -1      2005 1.08576E-04-3.33923E-05-3.22144E-05 7.67192E-06-6.59465E-19-5.99143E-19
 -1      2006 1.10504E-04-3.42775E-05-3.26924E-05 6.30894E-06-8.43585E-19-8.31614E-19
 -1      2007 1.11168E-04-3.49598E-05-3.26109E-05 7.13520E-06-7.03481E-19 7.09258E-20
 -1      2008 1.04399E-04-3.10499E-05-3.14149E-05 8.53647E-06-4.05193E-19-1.66468E-19
 -1      2009 1.06870E-04-3.23286E-05-3.19592E-05 8.09800E-06-5.42518E-19-4.49205E-19
 -1      2010 1.08448E-04-3.30520E-05-3.22704E-05 9.59550E-06-8.29497E-19 2.71011E-19
 -1      2011 1.00268E-04-2.84875E-05-3.07591E-05 6.31177E-06 2.08714E-20-8.38695E-20
 -1      2012 1.02509E-04-2.96955E-05-3.12000E-05 7.34600E-06-7.59021E-20-4.78309E-20
 -1      2013 1.04750E-04-3.01829E-05-3.19580E-05 9.14296E-06-3.16446E-19-1.33011E-19
 -1      2014 9.80789E-05-2.70637E-05-3.04635E-05 1.31571E-06 2.58769E-19 1.01747E-18
 -1      2015 9.91668E-05-2.75831E-05-3.06481E-05 3.61925E-06 2.47863E-19 4.57312E-19
 -1      2016 1.01653E-04-2.76446E-05-3.17658E-05 5.01624E-06-7.13493E-20 9.42202E-19
 -1      2017 9.90551E-05-2.76930E-05-3.06265E-05-4.30315E-06-3.52068E-19 5.17074E-19
 -1      2018 9.84661E-05-2.72176E-05-3.04871E-05-1.76176E-06-4.58165E-19 6.66271E-19
 -1      2019 1.00868E-04-2.69595E-05-3.17323E-05-1.42544E-06-2.03831E-19 9.43737E-19
 -1      2020 1.02714E-04-2.99818E-05-3.11929E-05-7.94797E-06 4.41119E-19-3.72139E-19
 -1      2021 1.00711E-04-2.87915E-05-3.07799E-05-6.32021E-06 7.30566E-21 2.24861E-20
 -1      2022 1.02870E-04-2.85779E-05-3.18612E-05-7.19252E-06 4.37526E-19 4.66378E-19
 -1      2023 1.07251E-04-3.26083E-05-3.19759E-05-8.40549E-06 8.54701E-19 2.23855E-19
 -1      2024 1.04697E-04-3.13154E-05-3.14339E-05-8.17338E-06 8.41895E-19-1.38543E-19
 -1      2025 1.06478E-04-3.14664E-05-3.21304E-05-9.79409E-06 8.39439E-19 4.34276E-19
 -1      2026 1.10882E-04-3.44359E-05-3.27268E-05-6.30697E-06-4.29459E-19-5.02410E-19
 -1      2027 1.08681E-04-3.35204E-05-3.22288E-05-7.16423E-06 3.66573E-19 2.00217E-19
 -1      2028 1.09884E-04-3.40554E-05-3.24729E-05-8.83252E-06 6.30729E-19 4.10751E-19
 -1      2029 1.12747E-04-3.51158E-05-3.32340E-05-3.15511E-06 7.11289E-19-1.90116E-18
 -1      2030 1.11420E-04-3.47222E-05-3.29084E-05-4.45948E-06-3.58593E-19-1.28391E-18
 -1      2031 1.11894E-04-3.53931E-05-3.27755E-05-5.65347E-06 3.02814E-19-1.28553E-18
 -1      2032 1.12877E-04-3.48899E-05-3.33982E-05-2.21440E-07 1.03076E-18-1.70718E-18
 -1      2033 1.12507E-04-3.49241E-05-3.32920E-05-1.44426E-06 1.12556E-18-1.55436E-18
 -1      2034 1.12277E-04-3.54588E-05-3.29255E-05-1.96992E-06 1.02770E-18-1.49576E-18
 -1      2035 1.11734E-04-3.41621E-05-3.32345E-05 1.87523E-06 5.37846E-19-1.89036E-18
 -1      2036 1.12134E-04-3.44573E-05-3.33252E-05 9.91333E-07 8.48840E-19-1.56925E-18
 -1      2037 1.11393E-04-3.47266E-05-3.28662E-05 1.07593E-06 9.78852E-19-9.52869E-19
 -1      2038 1.09852E-04-3.32551E-05-3.28270E-05 3.05267E-06 1.36634E-18-3.05425E-18
 -1      2039 1.10745E-04-3.36685E-05-3.30563E-05 2.54501E-06 9.63513E-19-2.33918E-18
 -1      2040 1.09741E-04-3.36803E-05-3.26062E-05 3.06591E-06 1.32559E-18-6.91549E-19
 -1      2041 1.07660E-04-3.23551E-05-3.22786E-05 3.49545E-06 3.73547E-19-3.56237E-18
 -1      2042 1.08793E-04-3.27938E-05-3.25830E-05 3.29174E-06 7.36164E-19-2.68038E-18
 -1      2043 1.07740E-04-3.26270E-05-3.21974E-05 4.06129E-06 1.15633E-18-5.68773E-19
 -1      2044 1.05451E-04-3.15476E-05-3.16795E-05 3.45119E-06-1.78179E-18-2.92337E-18
 -1      2045 1.06637E-04-3.19604E-05-3.20070E-05 3.45156E-06-4.73350E-19-3.10717E-18
 -1      2046 1.05675E-04-3.17027E-05-3.17059E-05 4.31710E-06-2.96266E-19-3.92186E-19
 -1      2047 1.03399E-04-3.08610E-05-3.10940E-05 3.13363E-06-2.34195E-19-1.54144E-18
 -1      2048 1.04521E-04-3.12241E-05-3.14094E-05 3.25070E-06-1.15238E-18-2.90859E-18
 -1      2049 1.03718E-04-3.09428E-05-3.11914E-05 4.10722E-06-1.15865E-18-1.21538E-18
 -1      2050 1.01592E-04-3.02957E-05-3.05607E-05 2.69493E-06-5.58118E-19-6.19808E-19
 -1      2051 1.02588E-04-3.06017E-05-3.08442E-05 2.86581E-06-6.78263E-19-1.11025E-18
 -1      2052 1.01963E-04-3.03383E-05-3.06975E-05 3.65113E-06-8.04476E-19-3.07826E-19
 -1      2053 1.00061E-04-2.98406E-05-3.00981E-05 2.23024E-06-1.25926E-18 8.91215E-19
 -1      2054 1.00907E-04-3.00907E-05-3.03411E-05 2.41510E-06-9.74882E-19-1.37371E-19
 -1      2055 1.00448E-04-2.98653E-05-3.02507E-05 3.09913E-06-1.59444E-18 1.48065E-18
 -1      2056 9.88015E-05-2.94806E-05-2.97113E-05 1.79220E-06-7.46602E-19 3.66485E-20
 -1      2057 9.94961E-05-2.96802E-05-2.99123E-05 1.96863E-06-1.07275E-18 4.56852E-19
 -1      2058 9.91784E-05-2.94991E-05-2.98638E-05 2.54259E-06-1.23996E-18 1.38348E-18
 -1      2059 9.77904E-05-2.92000E-05-2.93972E-05 1.40515E-06-3.13518E-19 7.74124E-19
 -1      2060 9.83457E-05-2.93561E-05-2.95588E-05 1.56248E-06 1.38018E-19 1.06777E-18
 -1      2061 9.81411E-05-2.92176E-05-2.95401E-05 2.03024E-06-4.39238E-19 6.50418E-19
 -1      2062 9.69967E-05-2.89844E-05-2.91486E-05 1.07577E-06 1.51694E-18 8.03084E-19
 -1      2063 9.74301E-05-2.91043E-05-2.92752E-05 1.21081E-06-2.31404E-20 6.65835E-19
 -1      2064 9.73115E-05-2.90026E-05-2.92767E-05 1.58276E-06 4.83545E-19 2.09814E-18
 -1      2065 9.63882E-05-2.88210E-05-2.89572E-05 8.00297E-07 1.10685E-18 5.89849E-19
 -1      2066 9.67178E-05-2.89113E-05-2.90537E-05 9.14416E-07 1.79269E-18 1.27872E-18
 -1      2067 9.66616E-05-2.88394E-05-2.90682E-05 1.20340E-06 1.43855E-18 2.29176E-18
 -1      2068 9.59352E-05-2.86994E-05-2.88148E-05 5.68950E-07 3.21995E-19-7.09864E-20
 -1      2069 9.61774E-05-2.87656E-05-2.88856E-05 6.66327E-07 4.65252E-19 3.85511E-19
 -1      2070 9.61638E-05-2.87158E-05-2.89078E-05 8.85189E-07 9.92734E-19 2.29228E-18
 -1      2071 9.56125E-05-2.86117E-05-2.87140E-05 3.70257E-07-7.14706E-19 7.85956E-19
 -1      2072 9.57811E-05-2.86580E-05-2.87629E-05 4.55958E-07 6.08597E-19 7.24408E-19
 -1      2073 9.57927E-05-2.86231E-05-2.87885E-05 6.16085E-07-9.75469E-20 2.21576E-18
 -1      2074 9.54003E-05-2.85541E-05-2.86470E-05 1.96431E-07 5.27541E-19-7.74547E-20
 -1      2075 9.55047E-05-2.85825E-05-2.86780E-05 2.73124E-07-4.74683E-19-3.32824E-20
 -1      2076 9.55261E-05-2.85552E-05-2.87033E-05 3.84163E-07-2.07178E-19 8.12402E-19
 -1      2077 9.52960E-05-2.85323E-05-2.86109E-05 8.48181E-08-8.24896E-19 1.81168E-18
 -1      2078 9.53514E-05-2.85391E-05-2.86319E-05 1.47808E-07 1.17099E-19 1.07733E-18
 -1      2079 9.53700E-05-2.85141E-05-2.86536E-05 2.21752E-07-8.29480E-19 2.19332E-18
 -1      2080 9.52915E-05-2.85047E-05-2.86227E-05 1.17609E-07-1.24559E-18 2.41332E-18
 -1      2081 9.50612E-05-2.79249E-05-2.87740E-05 4.70020E-07 1.60299E-18-1.83370E-18
 -1      2082 9.51198E-05-2.80497E-05-2.87423E-05 4.46986E-07 1.37704E-18 7.31451E-20
 -1      2083 9.51781E-05-2.81728E-05-2.87168E-05 4.00167E-07-4.24855E-19 1.93856E-18
 -1      2084 9.52265E-05-2.82797E-05-2.86892E-05 3.43022E-07-6.94757E-19 2.24664E-18
 -1      2085 9.51644E-05-2.80802E-05-2.87507E-05 5.53649E-07-6.90926E-19 2.20686E-18
 -1      2086 9.52547E-05-2.83646E-05-2.86666E-05 2.68948E-07-1.08757E-18-2.24634E-19
 -1      2087 9.52821E-05-2.84416E-05-2.86441E-05 1.97894E-07-1.14316E-18 8.94957E-19
 -1      2088 9.53180E-05-2.84423E-05-2.86599E-05 2.50971E-07-1.36982E-18 1.33393E-18
 -1      2089 9.52638E-05-2.82900E-05-2.87043E-05 4.15474E-07-1.59326E-18 1.97235E-18
 -1      2090 9.49454E-05-2.76799E-05-2.88304E-05 4.61417E-07-7.31052E-19-5.86999E-18
 -1      2091 9.50027E-05-2.78028E-05-2.87990E-05 4.73506E-07 6.61408E-19-3.09971E-18
 -1      2092 9.50249E-05-2.78279E-05-2.87980E-05 6.07261E-07 9.48817E-19-3.71485E-18
 -1      2093 9.48435E-05-2.74633E-05-2.88804E-05 3.77435E-07-1.01171E-18-1.34774E-18
 -1      2094 9.48924E-05-2.75693E-05-2.88533E-05 4.21654E-07-8.68143E-19-2.20844E-18
 -1      2095 9.48903E-05-2.75874E-05-2.88423E-05 5.64663E-07 4.22015E-20-4.07006E-18
 -1      2096 9.47718E-05-2.73099E-05-2.89158E-05 2.33233E-07 7.43515E-19 1.68083E-18
 -1      2097 9.48041E-05-2.73806E-05-2.88977E-05 3.01351E-07-1.05816E-19 3.17068E-19
 -1      2098 9.47785E-05-2.73875E-05-2.88790E-05 4.32632E-07-3.87438E-19-5.94784E-20
 -1      2099 9.47397E-05-2.72412E-05-2.89314E-05 5.26404E-08-9.67925E-19 1.20034E-18
 -1      2100 9.47509E-05-2.72658E-05-2.89251E-05 1.33430E-07-6.57171E-19 1.00865E-18
 -1      2101 9.47054E-05-2.72563E-05-2.89033E-05 2.33363E-07-1.46451E-19 4.61685E-19
 -1      2102 9.47513E-05-2.72668E-05-2.89249E-05-1.36054E-07-1.49171E-18 6.95714E-19
 -1      2103 9.47398E-05-2.72415E-05-2.89314E-05-5.53416E-08-1.64845E-18 2.32140E-18
 -1      2104 9.46802E-05-2.72109E-05-2.89117E-05-1.68178E-09-2.22413E-18 1.01941E-18
 -1      2105 9.48050E-05-2.73827E-05-2.88972E-05-3.03563E-07-2.72486E-18-3.54691E-18
 -1      2106 9.47725E-05-2.73113E-05-2.89155E-05-2.35711E-07-2.15877E-18-5.44204E-19
 -1      2107 9.47059E-05-2.72573E-05-2.89031E-05-2.36542E-07-2.92160E-18-3.64624E-19
 -1      2108 9.48920E-05-2.75686E-05-2.88534E-05-4.21659E-07-1.98774E-18-1.16179E-18
 -1      2109 9.48438E-05-2.74641E-05-2.88802E-05-3.78281E-07-2.55907E-18-3.19018E-18
 -1      2110 9.47789E-05-2.73880E-05-2.88790E-05-4.34018E-07-1.82191E-18-3.81419E-18
 -1      2111 9.50034E-05-2.78044E-05-2.87987E-05-4.73820E-07-5.87489E-19 3.65058E-18
 -1      2112 9.49451E-05-2.76792E-05-2.88306E-05-4.61730E-07-1.21402E-18 2.07610E-18
 -1      2113 9.48897E-05-2.75864E-05-2.88425E-05-5.64889E-07-2.12048E-19 1.04238E-18
 -1      2114 9.51218E-05-2.80537E-05-2.87414E-05-4.46327E-07-9.57729E-19-2.02898E-18
 -1      2115 9.50630E-05-2.79286E-05-2.87732E-05-4.69943E-07-2.11604E-19-2.42190E-19
 -1      2116 9.50256E-05-2.78292E-05-2.87979E-05-6.07438E-07 3.65774E-19 1.64290E-18
 -1      2117 9.52285E-05-2.82883E-05-2.86882E-05-3.41298E-07-3.23332E-19 1.89112E-18
 -1      2118 9.51799E-05-2.81768E-05-2.87158E-05-3.98430E-07-6.46070E-19-5.81122E-19
 -1      2119 9.51660E-05-2.80829E-05-2.87501E-05-5.51581E-07-8.88465E-19-1.19870E-18
 -1      2120 5.26097E-05-3.81035E-05-6.85467E-06 3.83399E-05 2.76133E-18 2.65238E-18
 -1      2121 3.84849E-05-4.03469E-05-7.80344E-07 3.01688E-05 1.54668E-18 3.81758E-18
 -1      2122 1.17947E-05-3.53036E-05 8.44831E-06 4.47029E-06 6.45016E-19 5.68020E-18
 -1      2123 1.17746E-05-3.51550E-05 8.42393E-06-4.59941E-06-5.82335E-21 4.32072E-18
 -1      2124 2.44719E-05-3.52852E-05 3.43906E-06 2.39239E-05 1.16425E-18 6.06603E-18
 -1      2125 1.73622E-05-3.68858E-05 6.66733E-06 1.51432E-05-1.05879E-19 6.10668E-18
 -1      2126 9.11395E-05-4.13108E-05-2.14399E-05 4.25741E-05 3.01290E-18 2.91676E-18
 -1      2127 7.27159E-05-4.36045E-05-1.36315E-05 3.76491E-05 2.95742E-18 2.02780E-18
 -1      2128 1.28978E-04-4.28748E-05-3.65054E-05 3.62114E-05 2.65079E-18 7.65294E-19
 -1      2129 1.09291E-04-4.41994E-05-2.86173E-05 3.52521E-05 2.42971E-18 2.03500E-18
 -1      2130 8.73041E-05-8.71517E-06-3.37694E-05-1.04701E-05-1.80413E-18-2.24833E-18
 -1      2131 8.79855E-05-9.24666E-06-3.38321E-05-1.20564E-05-2.06234E-18-1.78688E-18
 -1      2132 9.04807E-05-1.30648E-05-3.32444E-05-1.18605E-05-2.21146E-18-1.41627E-18
 -1      2133 8.87054E-05-1.10108E-05-3.33210E-05-9.34820E-06-1.79193E-18-2.22347E-18
 -1      2134 1.75432E-04-2.94064E-05-6.13669E-05 1.02090E-05 2.95657E-18 5.42101E-20
 -1      2135 1.60754E-04-2.96031E-05-5.59919E-05 1.23155E-05 2.66731E-18-4.84503E-19
 -1      2136 1.76201E-04-2.23240E-05-6.52324E-05 9.08063E-08 4.17672E-18-1.03068E-18
 -1      2137 1.76118E-04-2.47438E-05-6.39676E-05 7.18995E-06 3.70704E-18-1.73642E-20
 -1      2138 1.56007E-04-1.84746E-05-5.80123E-05-2.74100E-06 3.00993E-18-2.08751E-18
 -1      2139 1.70473E-04-2.26863E-05-6.28175E-05-5.87326E-06 4.62226E-18-2.43289E-18
 -1      2140 1.76648E-04-2.24416E-05-6.51081E-05-9.62101E-07 5.04239E-18-7.47136E-19
 -1      2141 1.59654E-04-3.27918E-05-5.40345E-05-1.61806E-05 4.90464E-18-3.05694E-18
 -1      2142 1.68955E-04-2.98692E-05-5.89815E-05-9.20156E-06 4.21124E-18-2.66688E-18
 -1      2143 1.38299E-04-3.84967E-05-4.28261E-05-2.84181E-05 4.26926E-18-3.87009E-18
 -1      2144 1.56241E-04-3.80901E-05-4.98709E-05-2.48655E-05 4.53141E-18-2.89008E-18
 -1      2145 1.53836E-04-3.69491E-05-4.92624E-05-4.94247E-06 3.95024E-18-1.31460E-18
 -1      2146 1.05437E-04-4.49455E-05-2.65878E-05-3.56201E-05 3.67019E-18-3.80233E-18
 -1      2147 1.25382E-04-4.23090E-05-3.50646E-05-3.80525E-05 4.08143E-18-3.99545E-18
 -1      2148 6.55924E-05-4.36302E-05-1.06137E-05-3.70910E-05 2.51823E-18-4.97939E-18
 -1      2149 8.54188E-05-4.28778E-05-1.84045E-05-4.29656E-05 2.97859E-18-4.73703E-18
 -1      2150 3.26442E-05-3.95624E-05 1.37941E-06-2.75311E-05 1.49840E-18-4.58287E-18
 -1      2151 4.51955E-05-3.72949E-05-4.25374E-06-3.54164E-05 2.88415E-18-4.85720E-18
 -1      2152 1.52795E-05-3.16436E-05 6.02989E-06-1.24668E-05 2.38228E-19-4.27963E-18
 -1      2153 2.21792E-05-3.36136E-05 3.85730E-06-2.18985E-05 1.20279E-18-4.56995E-18
 -1      2154 1.49073E-05-3.31897E-05 6.60887E-06 1.20192E-05-3.90906E-19-1.72456E-18
 -1      2155 1.14960E-05-3.09384E-05 7.24053E-06 2.31261E-06 4.70156E-19-3.14757E-18
 -1      2156 3.23666E-05-3.43395E-05 8.02887E-08 3.06787E-05-7.33531E-19-1.82070E-18
 -1      2157 2.24385E-05-3.67618E-05 4.63977E-06 2.05205E-05-4.52739E-19-1.45605E-18
 -1      2158 2.21813E-05-2.62016E-05 1.22206E-06 2.08616E-05 2.37593E-19-2.34205E-18
 -1      2159 7.17395E-05-4.23165E-05-1.28199E-05 4.30314E-05 2.37169E-20-3.40367E-18
 -1      2160 5.28660E-05-4.20818E-05-5.63376E-06 3.58575E-05-2.46063E-19-2.55412E-18
 -1      2161 1.13474E-04-4.48593E-05-2.90599E-05 3.95658E-05-1.52974E-18-3.34409E-18
 -1      2162 9.44122E-05-4.74788E-05-2.07067E-05 3.72430E-05-2.28275E-19-3.14101E-18
 -1      2163 1.45415E-04-3.96662E-05-4.44536E-05 3.24321E-05-2.38270E-18-3.63716E-18
 -1      2164 1.25492E-04-4.14534E-05-3.63722E-05 3.21905E-05-2.17603E-18-3.38644E-18
 -1      2165 1.64989E-04-3.32697E-05-5.60359E-05 1.26678E-05-2.76535E-18-1.19220E-18
 -1      2166 1.54475E-04-3.53355E-05-5.04382E-05 2.29983E-05-2.69632E-18-2.87695E-18
 -1      2167 1.50007E-04-4.28204E-05-4.51775E-05 1.25659E-05-1.48809E-18-1.26462E-18
 -1      2168 1.76990E-04-2.39022E-05-6.41260E-05 3.56657E-06-3.28649E-18-3.66342E-20
 -1      2169 1.65215E-04-2.37611E-05-6.02524E-05 6.01997E-06-3.24795E-18 8.97855E-20
 -1      2170 1.81939E-04-2.44795E-05-6.61540E-05-4.96774E-06-5.09490E-18 1.87321E-18
 -1      2171 1.82823E-04-2.46414E-05-6.66147E-05 2.50671E-06-3.79894E-18 3.95882E-19
 -1      2172 1.70152E-04-2.92967E-05-5.95376E-05-1.52763E-05-5.14170E-18 1.71694E-18
 -1      2173 1.79275E-04-2.80676E-05-6.35450E-05-8.20128E-06-5.59719E-18 1.02893E-18
 -1      2174 1.47407E-04-3.66579E-05-4.73603E-05-2.45215E-05-3.98677E-18 3.19755E-18
 -1      2175 1.65670E-04-3.56102E-05-5.45631E-05-2.20919E-05-4.20086E-18 2.51061E-18
 -1      2176 1.13291E-04-4.20366E-05-3.10897E-05-3.52466E-05-4.30886E-18 3.05779E-18
 -1      2177 1.35307E-04-4.12695E-05-3.97468E-05-3.53958E-05-3.80000E-18 4.01324E-18
 -1      2178 7.72449E-05-4.40711E-05-1.53391E-05-3.76763E-05-3.66808E-18 3.86247E-18
 -1      2179 9.70168E-05-4.22039E-05-2.34636E-05-4.24072E-05-4.44057E-18 3.14186E-18
 -1      2180 4.14780E-05-4.05624E-05-1.86906E-06-3.14643E-05-2.58726E-18 3.91499E-18
 -1      2181 5.62744E-05-3.84811E-05-8.30971E-06-3.87769E-05-3.45039E-18 4.26711E-18
 -1      2182 1.81635E-05-3.59402E-05 6.10857E-06-1.57496E-05-2.85450E-19 2.42251E-18
 -1      2183 2.61481E-05-3.40385E-05 2.46991E-06-2.59298E-05-1.70592E-18 3.07113E-18
 -1      2184 1.55357E-04-3.91135E-05-4.94070E-05 2.15627E-05 2.18646E-18-9.41054E-19
 -1      2185 1.39220E-04-4.01507E-05-4.25526E-05 2.74700E-05 2.71283E-18 2.38440E-19
 -1      2186 1.40266E-04-5.08478E-05-3.77388E-05 1.90777E-05 9.10243E-19-2.84010E-18
 -1      2187 1.13848E-04-5.36115E-05-2.56121E-05 3.50612E-05 2.90956E-19-2.61733E-19
 -1      2188 9.70892E-05-2.42846E-05-3.12754E-05-9.96597E-06-2.09492E-18 2.25819E-18
 -1      2189 1.54060E-04-3.62892E-05-4.98718E-05 4.39326E-06 1.64769E-18-2.67535E-18
 -1      2190 9.62851E-05-2.30760E-05-3.14388E-05-1.03331E-05-2.27633E-18 9.53269E-19
 -1      2191 3.79858E-05-3.46793E-05-2.00550E-06 3.37125E-05-4.65445E-19 4.68494E-18
 -1      2192 1.64271E-05-2.69935E-05 3.66516E-06 1.29888E-05 1.10495E-18 5.77676E-18
 -1      2193 9.52652E-05-2.83464E-05-2.86783E-05-3.18504E-07-6.62552E-19 2.13075E-18
 -1      2194 7.44339E-05-4.62848E-05-1.23215E-05 4.17408E-05-6.90332E-20 1.55251E-18
 -1      2195 1.70966E-05-2.59673E-05 3.10828E-06-1.38361E-05 1.41582E-18 4.15427E-18
 -1      2196 4.08432E-05-3.54353E-05-2.93449E-06-3.45881E-05 2.86721E-19 3.68015E-18
 -1      2197 7.97116E-05-4.78359E-05-1.39257E-05-4.20439E-05-1.61826E-18 3.42913E-18
 -1      2198 1.17830E-04-5.33165E-05-2.74699E-05-3.31185E-05-2.31854E-18 2.03944E-18
 -1      2199 1.45564E-04-4.62230E-05-4.19729E-05-1.72894E-05-2.86361E-18 1.02237E-18
 -1      2200 1.58270E-04-3.07424E-05-5.36623E-05-3.11214E-06-4.57588E-18 7.87741E-20
 -1      2201 1.62907E-04-1.81047E-05-6.08569E-05 3.54770E-07-4.98521E-18 1.24831E-18
 -1      2202 1.59321E-04-2.74183E-05-5.59449E-05 2.27374E-06-3.21767E-18-1.82536E-19
 -1      2203 1.48832E-04-3.02782E-05-5.06541E-05-3.61164E-06-2.71051E-18 7.69953E-19
 -1      2204 1.45617E-04-2.01902E-05-5.42785E-05-7.92710E-06-3.13529E-18 1.67480E-18
 -1      2205 1.29735E-04-5.35302E-05-3.26360E-05 2.68003E-05-2.34840E-19-2.56863E-18
 -1      2206 5.07926E-05-3.75163E-05-5.81033E-06 3.87384E-05 6.40780E-19-1.80714E-18
 -1      2207 1.68400E-05-2.29628E-05 2.23745E-06-6.61307E-06 4.02235E-19-3.82012E-18
 -1      2208 3.35619E-05-3.17980E-05-1.35155E-06-3.07809E-05 4.59939E-19-5.30581E-18
 -1      2209 6.64594E-05-4.40524E-05-9.83755E-06-4.19460E-05 7.83929E-19-4.63883E-18
 -1      2210 1.40185E-04-4.98043E-05-3.83020E-05-2.05281E-05 2.69441E-18-1.37050E-18
 -1      2211 1.56482E-04-1.31097E-05-6.05629E-05 7.92569E-08 4.83783E-18-1.73848E-18
 -1      2212 1.56151E-04-2.16128E-05-5.69234E-05 2.29311E-06 4.61612E-18-1.75082E-18
 -1      2213 1.07750E-04-5.36044E-05-2.32654E-05-3.68414E-05 1.51280E-18-2.90702E-18
 -1      2214 9.47866E-05-5.21034E-05-1.83546E-05 4.00176E-05 1.05201E-18-2.80887E-18
 -1      2215 1.57893E-04-1.40581E-05-6.08138E-05-1.91433E-06-4.12759E-18 2.26264E-18
 -1      2216 9.51736E-05-2.63477E-05-2.94828E-05 4.12749E-06 1.70872E-18 2.44409E-19
 -1      2217 9.61335E-05-2.58336E-05-3.00549E-05 5.94297E-06 1.86686E-18 4.99660E-19
 -1      2218 8.81754E-05-1.11081E-05-3.30685E-05-3.61384E-06-7.58057E-19-2.75494E-18
 -1      2219 8.84103E-05-1.13854E-05-3.30477E-05-4.74592E-06-1.01906E-18-2.66189E-18
 -1      2220 8.87645E-05-1.18821E-05-3.29952E-05-5.75398E-06-1.18363E-18-2.54265E-18
 -1      2221 8.91677E-05-1.23606E-05-3.29622E-05-6.92367E-06-1.48439E-18-2.40197E-18
 -1      2222 8.99191E-05-1.37367E-05-3.26480E-05-4.82869E-06-9.73678E-19-2.37476E-18
 -1      2223 8.78260E-05-1.06349E-05-3.31160E-05 6.08558E-07 5.04878E-20-3.08586E-18
 -1      2224 8.78216E-05-1.06299E-05-3.31163E-05-4.89367E-07-1.70271E-19-3.03802E-18
 -1      2225 8.80087E-05-1.08663E-05-3.30954E-05 2.72319E-06 3.96674E-19-3.06149E-18
 -1      2226 8.78931E-05-1.07297E-05-3.31061E-05 1.61591E-06 1.52473E-19-3.08688E-18
 -1      2227 8.91278E-05-1.26542E-05-3.27769E-05 1.03220E-06 7.33882E-20-2.96610E-18
 -1      2228 8.84451E-05-1.14274E-05-3.30449E-05 4.83054E-06 8.60546E-19-2.98975E-18
 -1      2229 8.82053E-05-1.11446E-05-3.30660E-05 3.71669E-06 6.08827E-19-3.05778E-18
 -1      2230 8.93975E-05-1.30210E-05-3.27339E-05 2.97238E-06 4.63554E-19-2.85365E-18
 -1      2231 8.92229E-05-1.24284E-05-3.29575E-05 7.00358E-06 1.46316E-18-2.66649E-18
 -1      2232 8.88073E-05-1.19347E-05-3.29913E-05 5.83770E-06 1.14578E-18-2.86212E-18
 -1      2233 8.99595E-05-1.37884E-05-3.26433E-05 4.90279E-06 9.39765E-19-2.67052E-18
 -1      2234 9.04817E-05-1.40555E-05-3.28180E-05 9.14766E-06 1.89439E-18-2.21569E-18
 -1      2235 8.98091E-05-1.32383E-05-3.28700E-05 7.97038E-06 1.61891E-18-2.47889E-18
 -1      2236 9.08952E-05-1.50716E-05-3.24886E-05 6.78511E-06 1.50848E-18-2.40480E-18
 -1      2237 9.24531E-05-1.66398E-05-3.25916E-05 1.10373E-05 2.33945E-18-1.56143E-18
 -1      2238 9.13908E-05-1.52969E-05-3.26723E-05 9.95489E-06 2.03376E-18-1.93223E-18
 -1      2239 9.23084E-05-1.70474E-05-3.22339E-05 8.42960E-06 1.85698E-18-1.88506E-18
 -1      2240 1.23975E-04-5.75275E-05-2.87407E-05 2.78738E-05-4.59092E-19-2.07301E-18
 -1      2241 1.08519E-04-5.56882E-05-2.26122E-05 3.41633E-05-7.20825E-19-8.17175E-19
 -1      2242 9.42298E-05-2.70863E-05-2.87579E-05 1.66149E-06 1.34750E-18 8.62170E-20
 -1      2243 9.48084E-05-2.68625E-05-2.90481E-05 2.65239E-06 1.55790E-18 2.50503E-19
 -1      2244 9.53262E-05-2.58149E-05-2.97991E-05 4.26403E-06 1.78946E-18-3.83630E-19
 -1      2245 9.58819E-05-2.50607E-05-3.03039E-05-6.10948E-06-1.85286E-18 2.40787E-19
 -1      2246 9.52375E-05-2.58171E-05-2.97671E-05-4.18906E-06-1.68441E-18 1.41542E-19
 -1      2247 1.46771E-04-3.19585E-05-4.97840E-05-6.06287E-06 1.49247E-18-2.69844E-18
 -1      2248 1.44557E-04-4.21687E-05-4.41353E-05-6.58679E-07 1.37960E-18-3.66172E-18
 -1      2249 9.51344E-05-2.64970E-05-2.93587E-05-2.82322E-06-1.45844E-18 2.06518E-19
 -1      2250 9.46887E-05-2.68671E-05-2.90647E-05-1.73744E-06-1.18660E-18 1.38972E-19
 -1      2251 9.53426E-05-2.53091E-05-3.00175E-05-4.17033E-06-1.63136E-18-2.06445E-19
 -1      2252 9.45104E-05-2.71909E-05-2.88127E-05-8.52452E-07-1.07829E-18 1.30003E-19
 -1      2253 9.42850E-05-2.74019E-05-2.86597E-05-2.13971E-07-9.39599E-19-3.94751E-20
 -1      2254 9.50686E-05-2.66390E-05-2.93406E-05-1.73411E-06-1.23093E-18-3.02620E-19
 -1      2255 9.41619E-05-2.75756E-05-2.85142E-05 3.44434E-07-8.38933E-19-2.54406E-20
 -1      2256 9.41102E-05-2.77174E-05-2.84490E-05 7.26664E-07-8.22020E-19 4.02043E-20
 -1      2257 9.48044E-05-2.73448E-05-2.89251E-05-1.62774E-07-1.00594E-18-3.00682E-19
 -1      2258 9.40611E-05-2.78192E-05-2.83765E-05 1.07965E-06-7.38055E-19 7.13761E-20
 -1      2259 9.41328E-05-2.79261E-05-2.83688E-05 1.31603E-06-5.72359E-19-5.98605E-21
 -1      2260 9.46622E-05-2.77476E-05-2.86893E-05 8.36980E-07-9.04994E-19-3.52031E-19
 -1      2261 9.41496E-05-2.79896E-05-2.83475E-05 1.54841E-06-5.94505E-19 1.12517E-19
 -1      2262 9.43083E-05-2.80762E-05-2.83791E-05 1.70760E-06-5.99452E-19 7.18639E-20
 -1      2263 9.46505E-05-2.79866E-05-2.85794E-05 1.48444E-06-6.02814E-19-2.43729E-19
 -1      2264 9.43786E-05-2.81168E-05-2.83949E-05 1.87832E-06-7.17121E-19-9.45102E-20
 -1      2265 9.46021E-05-2.81909E-05-2.84550E-05 2.00593E-06-7.57465E-19-3.31391E-19
 -1      2266 9.47505E-05-2.81288E-05-2.85592E-05 1.93242E-06-7.28781E-19-4.36874E-19
 -1      2267 9.47158E-05-2.82170E-05-2.84987E-05 2.15706E-06-9.87657E-19-2.01253E-19
 -1      2268 9.49934E-05-2.82843E-05-2.85817E-05 2.28496E-06-1.04053E-18-3.26279E-19
 -1      2269 9.49418E-05-2.82089E-05-2.86054E-05 2.28897E-06-9.50652E-19-2.88399E-19
 -1      2270 9.51450E-05-2.83018E-05-2.86477E-05 2.44701E-06-8.42851E-19-3.23649E-19
 -1      2271 9.54746E-05-2.83683E-05-2.87507E-05 2.59789E-06-5.13939E-19-4.45151E-19
 -1      2272 9.52101E-05-2.82483E-05-2.87026E-05 2.63185E-06-1.03264E-18 5.39666E-21
 -1      2273 9.56626E-05-2.83827E-05-2.88356E-05 2.79278E-06-2.20681E-19-2.78666E-19
 -1      2274 9.60486E-05-2.84553E-05-2.89580E-05 2.98217E-06 9.09022E-20-3.38661E-19
 -1      2275 9.55497E-05-2.82637E-05-2.88411E-05 3.01723E-06-3.80425E-19 9.90087E-20
 -1      2276 9.62756E-05-2.84732E-05-2.90597E-05 3.22437E-06 2.80551E-19-5.56090E-19
 -1      2277 9.67266E-05-2.85614E-05-2.92019E-05 3.46074E-06 6.21749E-19-2.70444E-19
 -1      2278 9.59629E-05-2.82719E-05-2.90145E-05 3.48405E-06 6.78642E-20-1.44608E-19
 -1      2279 9.69990E-05-2.85924E-05-2.93186E-05 3.75679E-06 4.44845E-19-6.87356E-19
 -1      2280 9.75268E-05-2.87086E-05-2.94808E-05 4.04003E-06 1.06887E-19-5.65965E-19
 -1      2281 9.64595E-05-2.82940E-05-2.92180E-05 4.05490E-06 2.75758E-19-5.18304E-19
 -1      2282 9.78558E-05-2.87674E-05-2.96103E-05 4.38641E-06-2.20572E-19-8.75760E-19
 -1      2283 9.84729E-05-2.89295E-05-2.97917E-05 4.70434E-06-2.89690E-19-6.91025E-19
 -1      2284 9.70580E-05-2.83607E-05-2.94463E-05 4.73357E-06-9.03327E-20-1.24180E-18
 -1      2285 9.88763E-05-2.90389E-05-2.99302E-05 5.08331E-06-2.95476E-19-7.11524E-19
 -1      2286 9.95952E-05-2.92719E-05-3.01275E-05 5.40594E-06-2.58016E-19-8.13651E-19
 -1      2287 9.77882E-05-2.85185E-05-2.96924E-05 5.49897E-06-3.71886E-19-8.70321E-19
 -1      2288 1.00101E-04-2.94668E-05-3.02695E-05 5.77898E-06-4.81282E-19-7.39273E-19
 -1      2289 1.00931E-04-2.98050E-05-3.04760E-05 6.05060E-06-2.39883E-19-7.61677E-19
 -1      2290 9.86965E-05-2.88383E-05-2.99462E-05 6.29479E-06-3.53200E-19-1.04849E-18
 -1      2291 1.01583E-04-3.01357E-05-3.06142E-05 6.34911E-06 1.46205E-19-9.22157E-19
 -1      2292 1.02529E-04-3.06216E-05-3.08188E-05 6.47922E-06 1.35456E-19-7.87598E-19
 -1      2293 9.98541E-05-2.94237E-05-3.01945E-05 7.01431E-06-1.44676E-19-8.81632E-19
 -1      2294 1.03387E-04-3.11528E-05-3.09458E-05 6.59325E-06 2.65963E-20-4.96958E-19
 -1      2295 1.04440E-04-3.18284E-05-3.11338E-05 6.45033E-06 3.47995E-20-4.14074E-19
 -1      2296 1.01366E-04-3.04136E-05-3.04232E-05 7.48060E-06 1.81323E-19-1.02729E-18
 -1      2297 1.05579E-04-3.26245E-05-3.12465E-05 6.21884E-06 9.11603E-20-1.61846E-20
 -1      2298 1.06701E-04-3.35034E-05-3.14034E-05 5.63635E-06 4.90371E-19-1.28248E-19
 -1      2299 1.03368E-04-3.19632E-05-3.06245E-05 7.42553E-06 2.27131E-19-2.72955E-19
 -1      2300 1.08176E-04-3.45838E-05-3.15115E-05 4.85046E-06 4.88708E-19-6.08242E-20
 -1      2301 1.09269E-04-3.55915E-05-3.16308E-05 3.66417E-06 4.73075E-19-2.59253E-19
 -1      2302 1.05995E-04-3.41737E-05-3.08117E-05 6.47942E-06 4.41986E-19-2.85844E-19
 -1      2303 1.11042E-04-3.68408E-05-3.17688E-05 2.10656E-06 1.12133E-18 2.21105E-20
 -1      2304 1.11897E-04-3.77153E-05-3.18634E-05 2.46912E-07 1.22745E-18 4.57453E-19
 -1      2305 1.09279E-04-3.69323E-05-3.10407E-05 4.20404E-06 1.13138E-18-3.05893E-19
 -1      2306 1.13683E-04-3.87413E-05-3.20993E-05-2.16116E-06 8.16166E-19 1.01485E-18
 -1      2307 1.13966E-04-3.89642E-05-3.22096E-05-4.48618E-06 7.64030E-19 1.52584E-18
 -1      2308 1.12914E-04-3.96172E-05-3.14358E-05 2.40324E-07 1.55080E-18 5.49721E-19
 -1      2309 1.15139E-04-3.90593E-05-3.26300E-05-7.38086E-06 5.54183E-19 1.61844E-18
 -1      2310 1.14499E-04-3.79923E-05-3.28095E-05-9.48822E-06 4.17362E-19 1.41256E-18
 -1      2311 1.15978E-04-4.08625E-05-3.21826E-05-5.24008E-06 9.42926E-19 7.12177E-19
 -1      2312 1.14297E-04-3.64394E-05-3.34552E-05-1.17333E-05 4.40563E-19 1.55238E-18
 -1      2313 1.12707E-04-3.38816E-05-3.37298E-05-1.24573E-05 7.37091E-19 1.69700E-18
 -1      2314 1.17010E-04-3.88954E-05-3.34356E-05-1.08399E-05 4.92087E-19 1.57338E-18
 -1      2315 1.10967E-04-3.07972E-05-3.45028E-05-1.23317E-05 2.72751E-19 1.03866E-18
 -1      2316 1.09090E-04-2.77275E-05-3.47945E-05-1.06113E-05-2.77139E-20 7.43238E-19
 -1      2317 1.14971E-04-3.29182E-05-3.51398E-05-1.35785E-05-7.15809E-20 1.51645E-18
 -1      2318 1.07191E-04-2.49357E-05-3.53635E-05-7.14609E-06-6.37564E-19 1.95949E-19
 -1      2319 1.06255E-04-2.33883E-05-3.55042E-05-3.26711E-06-1.85596E-18 2.67097E-19
 -1      2320 1.11035E-04-2.54103E-05-3.67708E-05-1.00840E-05-1.11541E-18-4.22160E-19
 -1      2321 1.06098E-04-2.31695E-05-3.55478E-05 2.00384E-06-2.12816E-18-8.13308E-19
 -1      2322 1.06829E-04-2.43746E-05-3.54410E-05 6.05183E-06-1.14252E-18-9.70442E-19
 -1      2323 1.08777E-04-2.15626E-05-3.75175E-05-7.30815E-07-2.37991E-18-1.13799E-18
 -1      2324 1.08597E-04-2.69365E-05-3.49309E-05 9.91036E-06-5.77888E-19-1.46964E-18
 -1      2325 1.10421E-04-2.99183E-05-3.46531E-05 1.19794E-05-9.88560E-19-1.65094E-18
 -1      2326 1.10548E-04-2.45607E-05-3.69475E-05 9.10014E-06-1.54144E-18-2.47921E-18
 -1      2327 1.12290E-04-3.30920E-05-3.38895E-05 1.25514E-05-8.14647E-19-9.53311E-19
 -1      2328 1.13975E-04-3.58123E-05-3.36050E-05 1.21223E-05-5.64643E-19-8.74499E-19
 -1      2329 1.14498E-04-3.18992E-05-3.53994E-05 1.35081E-05-6.42567E-19-1.68034E-18
 -1      2330 1.14422E-04-3.76236E-05-3.29264E-05 1.00964E-05-5.04833E-19-8.34536E-19
 -1      2331 1.15201E-04-3.89015E-05-3.27324E-05 8.10331E-06 1.15971E-20-5.27667E-19
 -1      2332 1.16931E-04-3.82822E-05-3.36623E-05 1.15226E-05-5.47827E-19-9.53210E-20
 -1      2333 1.14170E-04-3.89888E-05-3.22832E-05 5.21687E-06-4.37866E-19-8.61315E-19
 -1      2334 1.13997E-04-3.89010E-05-3.21693E-05 2.87627E-06-6.34405E-19-5.63451E-19
 -1      2335 1.16284E-04-4.08168E-05-3.23295E-05 6.06584E-06-5.45931E-19-7.03311E-19
 -1      2336 1.12258E-04-3.79525E-05-3.19167E-05 3.80693E-07-7.00602E-19-1.62933E-18
 -1      2337 1.11467E-04-3.71311E-05-3.18265E-05-1.55174E-06-8.05080E-19-1.82228E-18
 -1      2338 1.13408E-04-3.98892E-05-3.15273E-05 4.83596E-07-1.13053E-18-1.03861E-18
 -1      2339 1.09678E-04-3.58820E-05-3.16839E-05-3.21271E-06-3.88901E-19-1.72567E-18
 -1      2340 1.08615E-04-3.48728E-05-3.15741E-05-4.47674E-06-3.49171E-19-1.40063E-18
 -1      2341 1.09798E-04-3.73028E-05-3.11036E-05-3.68797E-06-7.06048E-19-1.39323E-18
 -1      2342 1.07103E-04-3.37567E-05-3.14696E-05-5.33858E-06-4.21801E-19-1.05262E-18
 -1      2343 1.05994E-04-3.28540E-05-3.13239E-05-5.97636E-06 5.57313E-20-1.04724E-18
 -1      2344 1.06454E-04-3.45002E-05-3.08697E-05-6.14607E-06-1.21634E-19-1.09039E-19
 -1      2345 1.04823E-04-3.20174E-05-3.12190E-05-6.24735E-06 3.00159E-19-4.70436E-19
 -1      2346 1.03780E-04-3.13159E-05-3.10425E-05-6.41692E-06 7.68099E-19-4.20723E-19
 -1      2347 1.03754E-04-3.21953E-05-3.06924E-05-7.20405E-06 2.51267E-19 1.11982E-18
 -1      2348 1.02903E-04-3.07512E-05-3.09252E-05-6.31072E-06 7.95706E-19-5.34015E-19
 -1      2349 1.01971E-04-3.02452E-05-3.07321E-05-6.18071E-06 1.06000E-18-5.57364E-19
 -1      2350 1.01700E-04-3.05539E-05-3.05079E-05-7.30207E-06 9.14419E-19 3.14394E-19
 -1      2351 1.01315E-04-2.98907E-05-3.06045E-05-5.86485E-06 2.90411E-20-1.85445E-18
 -1      2352 1.00507E-04-2.95404E-05-3.04103E-05-5.57161E-06-5.41959E-19-1.91660E-18
 -1      2353 1.00164E-04-2.94919E-05-3.02991E-05-6.82170E-06-1.43217E-19-2.81150E-19
 -1      2354 1.00008E-04-2.93304E-05-3.02798E-05-5.16185E-06 1.67692E-19-2.47126E-18
 -1      2355 9.93227E-05-2.90930E-05-3.00965E-05-4.80065E-06-2.19961E-19-1.57695E-18
 -1      2356 9.90071E-05-2.88559E-05-3.00725E-05-6.04334E-06-5.31184E-19-1.31077E-18
 -1      2357 9.89354E-05-2.89753E-05-2.99704E-05-4.37013E-06-3.37522E-19-7.75734E-19
 -1      2358 9.83647E-05-2.88160E-05-2.98056E-05-4.00059E-06-3.59161E-19 4.80025E-19
 -1      2359 9.81207E-05-2.85038E-05-2.98418E-05-5.15413E-06 4.82698E-19-8.26371E-19
 -1      2360 9.80597E-05-2.87541E-05-2.96898E-05-3.59154E-06-1.00905E-18 1.33909E-18
 -1      2361 9.75924E-05-2.86476E-05-2.95473E-05-3.24690E-06-1.06693E-18 2.08694E-18
 -1      2362 9.74302E-05-2.83279E-05-2.96202E-05-4.26908E-06-4.36121E-20 9.88568E-19
 -1      2363 9.73501E-05-2.86177E-05-2.94450E-05-2.88055E-06-1.19494E-18 1.93912E-18
 -1      2364 9.69737E-05-2.85463E-05-2.93256E-05-2.57623E-06 1.67510E-19 2.60955E-18
 -1      2365 9.68859E-05-2.82549E-05-2.94176E-05-3.45206E-06-1.05905E-18 1.27222E-18
 -1      2366 9.67806E-05-2.85335E-05-2.92385E-05-2.26030E-06 1.40832E-18 3.09802E-18
 -1      2367 9.64823E-05-2.84849E-05-2.91412E-05-2.00036E-06 2.11215E-18 1.95367E-18
 -1      2368 9.64543E-05-2.82374E-05-2.92396E-05-2.73252E-06 4.55096E-19 2.01321E-18
 -1      2369 9.63281E-05-2.84797E-05-2.90693E-05-1.73416E-06 1.65145E-18 1.94765E-18
 -1      2370 9.60955E-05-2.84452E-05-2.89923E-05-1.51588E-06 2.20558E-18 1.68516E-18
 -1      2371 9.61113E-05-2.82453E-05-2.90888E-05-2.11786E-06 1.84449E-18 2.05797E-18
 -1      2372 9.59721E-05-2.84418E-05-2.89346E-05-1.29389E-06 2.57874E-18 1.76223E-18
 -1      2373 9.57938E-05-2.84158E-05-2.88754E-05-1.11123E-06 1.55745E-18 2.60997E-18
 -1      2374 9.58382E-05-2.82602E-05-2.89648E-05-1.60187E-06 1.77541E-18 2.13352E-18
 -1      2375 9.56939E-05-2.84113E-05-2.88301E-05-9.25506E-07 2.40973E-19 2.82692E-18
 -1      2376 9.55614E-05-2.83902E-05-2.87859E-05-7.71814E-07 2.61568E-19 3.23855E-18
 -1      2377 9.56190E-05-2.82707E-05-2.88657E-05-1.17149E-06 1.34785E-18 2.34091E-18
 -1      2378 9.34683E-05-2.76654E-05-2.81916E-05-6.52212E-07 5.78069E-19-6.04428E-19
 -1      2379 9.34985E-05-2.75563E-05-2.82360E-05-3.26324E-07 7.82427E-19-2.88673E-19
 -1      2380 9.35295E-05-2.78384E-05-2.81454E-05-1.17354E-06 5.90889E-19-9.00064E-19
 -1      2381 9.34156E-05-2.77396E-05-2.81331E-05-9.78061E-07 4.56997E-19-6.46520E-19
 -1      2382 9.41547E-05-2.77499E-05-2.84718E-05-7.76555E-07 7.37513E-19-9.49392E-19
 -1      2383 9.37804E-05-2.79895E-05-2.81888E-05-1.50564E-06 7.01893E-19-7.97786E-19
 -1      2384 9.35707E-05-2.78958E-05-2.81390E-05-1.37852E-06 6.63729E-19-8.83370E-19
 -1      2385 9.41677E-05-2.79510E-05-2.83884E-05-1.37408E-06 7.01793E-19-9.34478E-19
 -1      2386 9.41704E-05-2.81301E-05-2.82957E-05-1.74775E-06 8.93516E-19-8.02869E-19
 -1      2387 9.38923E-05-2.80388E-05-2.82191E-05-1.64895E-06 8.08037E-19-8.42999E-19
 -1      2388 9.43333E-05-2.80935E-05-2.83960E-05-1.77175E-06 6.89338E-19-1.05064E-18
 -1      2389 9.46715E-05-2.82672E-05-2.84510E-05-1.96813E-06 2.89507E-19-5.11680E-19
 -1      2390 9.43374E-05-2.81756E-05-2.83533E-05-1.87006E-06 7.54499E-19-4.86168E-19
 -1      2391 9.46165E-05-2.82016E-05-2.84696E-05-2.07660E-06 6.29891E-19-9.54243E-19
 -1      2392 9.52741E-05-2.84083E-05-2.86478E-05-2.21531E-06 3.28972E-19-8.29508E-19
 -1      2393 9.48857E-05-2.83122E-05-2.85308E-05-2.09830E-06 2.92842E-19-6.83584E-19
 -1      2394 9.49961E-05-2.82893E-05-2.85938E-05-2.36368E-06 4.77585E-19-9.02481E-19
 -1      2395 9.59825E-05-2.85629E-05-2.88839E-05-2.52343E-06 3.83050E-19-1.40228E-18
 -1      2396 9.55338E-05-2.84564E-05-2.87470E-05-2.37382E-06 4.48484E-19-1.03135E-18
 -1      2397 9.54640E-05-2.83686E-05-2.87600E-05-2.68648E-06 5.95350E-19-1.16876E-18
 -1      2398 9.68104E-05-2.87436E-05-2.91599E-05-2.91385E-06 4.58553E-19-1.40249E-18
 -1      2399 9.62906E-05-2.86192E-05-2.90015E-05-2.72374E-06 3.00677E-19-1.34964E-18
 -1      2400 9.60228E-05-2.84522E-05-2.89637E-05-3.08194E-06 4.33217E-19-1.34587E-18
 -1      2401 9.77784E-05-2.89679E-05-2.94776E-05-3.39355E-06 2.00456E-19-1.20736E-18
 -1      2402 9.71739E-05-2.88153E-05-2.92957E-05-3.16211E-06 3.75526E-19-1.26265E-18
 -1      2403 9.66837E-05-2.85566E-05-2.92024E-05-3.57164E-06 2.53840E-19-1.14246E-18
 -1      2404 9.89097E-05-2.92595E-05-2.98374E-05-3.95014E-06 1.66515E-19-1.20417E-18
 -1      2405 9.82073E-05-2.90655E-05-2.96309E-05-3.68660E-06 2.62020E-19-1.23471E-18
 -1      2406 9.74649E-05-2.87054E-05-2.94740E-05-4.15949E-06 2.02197E-19-1.54159E-18
 -1      2407 1.00227E-04-2.96513E-05-3.02356E-05-4.54279E-06 6.74672E-19-8.69766E-19
 -1      2408 9.94174E-05-2.93990E-05-3.00059E-05-4.27152E-06 4.22958E-19-8.59361E-19
 -1      2409 9.83921E-05-2.89330E-05-2.97745E-05-4.82564E-06 2.41878E-19-1.50579E-18
 -1      2410 1.01749E-04-3.01878E-05-3.06621E-05-5.08891E-06 5.73982E-19-7.03477E-19
 -1      2411 1.00831E-04-2.98558E-05-3.04151E-05-4.85658E-06 7.68556E-19-4.84469E-19
 -1      2412 9.94986E-05-2.92904E-05-3.00965E-05-5.51611E-06 4.01225E-19-2.51710E-19
 -1      2413 1.03483E-04-3.09251E-05-3.10975E-05-5.44731E-06 2.11252E-19-5.41852E-19
 -1      2414 1.02471E-04-3.04899E-05-3.08452E-05-5.33125E-06 4.62901E-19-4.30201E-19
 -1      2415 1.00828E-04-2.98503E-05-3.04279E-05-6.12795E-06 4.14388E-19 1.33848E-19
 -1      2416 1.05417E-04-3.19232E-05-3.15121E-05-5.40291E-06 2.11022E-19-4.53444E-19
 -1      2417 1.04351E-04-3.13657E-05-3.12738E-05-5.51696E-06 2.56410E-19-5.40621E-19
 -1      2418 1.02435E-04-3.07075E-05-3.07516E-05-6.49107E-06 1.12598E-19 8.42248E-20
 -1      2419 1.07501E-04-3.32164E-05-3.18692E-05-4.66597E-06 1.09039E-19-7.50332E-19
 -1      2420 1.06458E-04-3.25413E-05-3.16708E-05-5.15512E-06 9.59116E-20-6.21416E-19
 -1      2421 1.04379E-04-3.19644E-05-3.10495E-05-6.35202E-06 3.76921E-20 3.90718E-19
 -1      2422 1.09603E-04-3.47447E-05-3.21357E-05-2.91427E-06-6.26904E-19-5.96757E-19
 -1      2423 1.08719E-04-3.40195E-05-3.20041E-05-3.92121E-06-7.34669E-20-7.18840E-19
 -1      2424 1.06698E-04-3.36796E-05-3.13111E-05-5.37469E-06-6.17052E-20 4.11271E-19
 -1      2425 1.11446E-04-3.62331E-05-3.23020E-05 7.73132E-08-3.55396E-19-5.64587E-19
 -1      2426 1.10928E-04-3.56476E-05-3.22545E-05-1.50458E-06-8.01465E-19-9.45714E-19
 -1      2427 1.09333E-04-3.57520E-05-3.15504E-05-3.19042E-06-6.26356E-19 1.03300E-19
 -1      2428 1.12535E-04-3.70699E-05-3.24047E-05 4.16251E-06-4.18487E-19 2.24515E-19
 -1      2429 1.12650E-04-3.69704E-05-3.24349E-05 2.18068E-06-1.59110E-19-4.77540E-20
 -1      2430 1.11980E-04-3.77284E-05-3.18250E-05 4.41172E-07-6.20862E-19 1.22413E-19
 -1      2431 1.12225E-04-3.63740E-05-3.25311E-05 8.45072E-06-8.67957E-19 6.79545E-19
 -1      2432 1.13186E-04-3.71698E-05-3.26020E-05 6.62490E-06-7.17811E-19 5.03525E-19
 -1      2433 1.13938E-04-3.86533E-05-3.22399E-05 5.27118E-06-5.77147E-19 1.04995E-18
 -1      2434 1.10098E-04-3.35195E-05-3.27809E-05 1.11196E-05-4.50754E-19 4.94826E-19
 -1      2435 1.11835E-04-3.53500E-05-3.28355E-05 1.03694E-05-6.23985E-19 8.33871E-19
 -1      2436 1.14205E-04-3.73099E-05-3.29043E-05 1.00813E-05-6.24200E-19 9.99602E-19
 -1      2437 1.06657E-04-2.91146E-05-3.31615E-05 9.99907E-06-1.84309E-19 1.57581E-19
 -1      2438 1.08592E-04-3.13851E-05-3.31729E-05 1.11784E-05-3.46188E-19 1.64252E-19
 -1      2439 1.12143E-04-3.31086E-05-3.38406E-05 1.25324E-05-2.02676E-19 5.09173E-19
 -1      2440 1.03814E-04-2.55594E-05-3.34924E-05 4.34653E-06-4.08230E-19 3.21588E-19
 -1      2441 1.04965E-04-2.69625E-05-3.34868E-05 7.38444E-06-2.95231E-19-2.11083E-19
 -1      2442 1.08612E-04-2.75116E-05-3.48031E-05 1.00363E-05-3.64251E-19-3.44107E-21
 -1      2443 1.03685E-04-2.54164E-05-3.35690E-05-3.58314E-06 2.33186E-19-4.54347E-19
 -1      2444 1.03345E-04-2.49625E-05-3.35743E-05-4.55578E-08-8.72973E-20 1.36180E-19
 -1      2445 1.06183E-04-2.39379E-05-3.53463E-05 2.50946E-06-3.40666E-20-9.13219E-19
 -1      2446 1.06490E-04-2.88347E-05-3.33556E-05-9.69147E-06 8.66217E-19-7.15094E-19
 -1      2447 1.04885E-04-2.68724E-05-3.33583E-05-7.40485E-06 6.57126E-19-4.47551E-19
 -1      2448 1.06962E-04-2.50480E-05-3.51732E-05-6.41476E-06 4.14490E-19-1.79689E-18
 -1      2449 1.10250E-04-3.33753E-05-3.30138E-05-1.13357E-05 4.28844E-19-6.20783E-20
 -1      2450 1.08294E-04-3.11897E-05-3.29787E-05-1.10962E-05 7.71587E-19-1.42030E-19
 -1      2451 1.10248E-04-2.99962E-05-3.43861E-05-1.18855E-05 5.56345E-19-1.47889E-18
 -1      2452 1.12736E-04-3.64538E-05-3.27266E-05-8.93201E-06 1.06307E-18-8.79548E-19
 -1      2453 1.11292E-04-3.50832E-05-3.26548E-05-1.02639E-05 1.50905E-18 5.00610E-21
 -1      2454 1.13371E-04-3.53379E-05-3.33973E-05-1.19050E-05 8.18272E-19-9.63492E-19
 -1      2455 1.13177E-04-3.72717E-05-3.25367E-05-4.63788E-06 7.67825E-19-1.33198E-18
 -1      2456 1.12593E-04-3.69319E-05-3.24753E-05-6.57760E-06 3.10027E-20-7.89719E-19
 -1      2457 1.14380E-04-3.82837E-05-3.25794E-05-8.05841E-06 7.42765E-19-6.86428E-19
 -1      2458 1.12017E-04-3.64480E-05-3.23774E-05-4.31727E-07 3.14855E-19-3.00262E-19
 -1      2459 1.12201E-04-3.68150E-05-3.23770E-05-2.22152E-06 7.21507E-19-6.15938E-19
 -1      2460 1.13223E-04-3.84476E-05-3.20425E-05-3.02037E-06 3.19995E-19 8.04024E-20
 -1      2461 1.10018E-04-3.49088E-05-3.21771E-05 2.67936E-06 1.10264E-18-3.46360E-19
 -1      2462 1.10711E-04-3.55803E-05-3.22597E-05 1.40012E-06 6.50128E-19-1.02853E-19
 -1      2463 1.10850E-04-3.68916E-05-3.17114E-05 1.32774E-06 5.08013E-19 7.81788E-19
 -1      2464 1.07775E-04-3.33211E-05-3.18990E-05 4.50573E-06 1.23837E-18 4.12561E-19
 -1      2465 1.08730E-04-3.40249E-05-3.20583E-05 3.78010E-06 1.52529E-18 2.12445E-19
 -1      2466 1.08166E-04-3.47778E-05-3.14717E-05 4.26131E-06 7.76622E-19 1.33385E-18
 -1      2467 1.05608E-04-3.19809E-05-3.15475E-05 5.27008E-06 6.94780E-19 1.13248E-18
 -1      2468 1.06648E-04-3.25943E-05-3.17597E-05 4.99156E-06 1.34554E-18 1.12763E-18
 -1      2469 1.05682E-04-3.28360E-05-3.12374E-05 5.81641E-06 1.16755E-18 5.67718E-19
 -1      2470 1.03652E-04-3.09553E-05-3.11508E-05 5.30259E-06-6.77243E-19 9.79596E-19
 -1      2471 1.04667E-04-3.14454E-05-3.13879E-05 5.32649E-06 4.73084E-19 6.03419E-19
 -1      2472 1.03567E-04-3.13285E-05-3.09731E-05 6.31984E-06 5.97071E-19 1.62771E-18
 -1      2473 1.01949E-04-3.02092E-05-3.07422E-05 4.90147E-06-7.97439E-19-2.03123E-19
 -1      2474 1.02879E-04-3.05841E-05-3.09804E-05 5.10012E-06-1.27708E-18 3.92672E-19
 -1      2475 1.01827E-04-3.02658E-05-3.06791E-05 6.13454E-06 1.11305E-19 1.29667E-18
 -1      2476 1.00501E-04-2.96791E-05-3.03495E-05 4.28799E-06-1.51712E-18 5.89807E-19
 -1      2477 1.01317E-04-2.99599E-05-3.05724E-05 4.56812E-06-8.33067E-19-2.24555E-19
 -1      2478 1.00409E-04-2.95601E-05-3.03716E-05 5.55992E-06-1.23764E-18 1.80850E-18
 -1      2479 9.92916E-05-2.93057E-05-2.99914E-05 3.60741E-06-1.83683E-18 1.62902E-18
 -1      2480 9.99839E-05-2.95139E-05-3.01896E-05 3.90884E-06-1.85232E-18 9.17634E-19
 -1      2481 9.92563E-05-2.91095E-05-3.00693E-05 4.80905E-06-1.86625E-18 1.60742E-18
 -1      2482 9.82974E-05-2.90428E-05-2.96781E-05 2.94546E-06-8.95839E-19 1.57756E-18
 -1      2483 9.88699E-05-2.91963E-05-2.98477E-05 3.23354E-06-1.07363E-18 2.00017E-18
 -1      2484 9.83204E-05-2.88293E-05-2.97875E-05 4.01865E-06-1.59317E-18 1.75561E-18
 -1      2485 9.74927E-05-2.88569E-05-2.94131E-05 2.34625E-06-2.60084E-19 1.17558E-18
 -1      2486 9.79557E-05-2.89698E-05-2.95536E-05 2.60400E-06-3.10005E-19 1.10488E-18
 -1      2487 9.75636E-05-2.86584E-05-2.95358E-05 3.26783E-06-3.50470E-19 1.18334E-18
 -1      2488 9.68516E-05-2.87243E-05-2.91952E-05 1.82686E-06 6.56085E-19 1.09008E-18
 -1      2489 9.72184E-05-2.88073E-05-2.93085E-05 2.04862E-06 1.75534E-19 1.19585E-18
 -1      2490 9.69556E-05-2.85551E-05-2.93190E-05 2.59603E-06 1.59675E-19-5.62039E-20
 -1      2491 9.63490E-05-2.86280E-05-2.90212E-05 1.38767E-06 1.07690E-18 1.81779E-18
 -1      2492 9.66336E-05-2.86893E-05-2.91100E-05 1.57468E-06 7.92069E-19 1.90819E-18
 -1      2493 9.64715E-05-2.84918E-05-2.91381E-05 2.01687E-06 1.98427E-19-1.53158E-20
 -1      2494 9.59614E-05-2.85556E-05-2.88860E-05 1.01952E-06 9.28025E-19 2.37942E-18
 -1      2495 9.61772E-05-2.86015E-05-2.89536E-05 1.17692E-06 1.10895E-18 2.90665E-18
 -1      2496 9.60894E-05-2.84505E-05-2.89915E-05 1.52817E-06 8.89529E-19 2.40757E-18
 -1      2497 9.56676E-05-2.84996E-05-2.87843E-05 7.07854E-07 3.43708E-19 1.92125E-18
 -1      2498 9.58262E-05-2.85335E-05-2.88339E-05 8.42538E-07 9.21528E-19 2.79646E-18
 -1      2499 9.57889E-05-2.84186E-05-2.88759E-05 1.11983E-06 1.05513E-18 3.04682E-18
 -1      2500 9.54495E-05-2.84573E-05-2.87092E-05 4.43232E-07-7.88934E-19 1.69493E-18
 -1      2501 9.55631E-05-2.84815E-05-2.87447E-05 5.59304E-07-1.10785E-19 2.01046E-18
 -1      2502 9.55566E-05-2.83946E-05-2.87870E-05 7.74338E-07 2.57730E-19 2.52478E-18
 -1      2503 9.53692E-05-2.84511E-05-2.86764E-05 3.09554E-07-1.45521E-18 6.18961E-19
 -1      2504 9.47952E-05-2.74759E-05-2.88549E-05 6.57097E-07 8.76166E-19-2.36767E-18
 -1      2505 9.48750E-05-2.75883E-05-2.88359E-05 7.07411E-07 1.59316E-18-5.59049E-18
 -1      2506 9.46599E-05-2.72815E-05-2.88804E-05 4.73118E-07 6.24980E-19 8.87556E-19
 -1      2507 9.47195E-05-2.73654E-05-2.88661E-05 5.66388E-07 1.83501E-19 6.48551E-19
 -1      2508 9.46899E-05-2.73457E-05-2.88592E-05 7.16423E-07 1.20105E-18-1.61239E-18
 -1      2509 9.51491E-05-2.79930E-05-2.87835E-05 7.13693E-07-6.12165E-19 1.47123E-18
 -1      2510 9.52339E-05-2.81177E-05-2.87610E-05 6.66070E-07-1.28612E-18 3.24547E-18
 -1      2511 9.49667E-05-2.77237E-05-2.88216E-05 7.41941E-07 9.09638E-19-4.28687E-18
 -1      2512 9.50548E-05-2.78483E-05-2.88003E-05 7.41676E-07 1.16216E-19-1.35033E-18
 -1      2513 9.51104E-05-2.78845E-05-2.88097E-05 8.65278E-07-2.93556E-19 2.55449E-19
 -1      2514 9.48873E-05-2.75971E-05-2.88370E-05 8.53155E-07 1.78600E-18-4.73381E-18
 -1      2515 9.45791E-05-2.71651E-05-2.88952E-05 2.18892E-07-9.59926E-19-6.53228E-19
 -1      2516 9.46107E-05-2.72098E-05-2.88876E-05 3.40328E-07 3.34524E-19-6.50193E-19
 -1      2517 9.45423E-05-2.71593E-05-2.88750E-05 4.74909E-07 9.23145E-19 4.67242E-20
 -1      2518 9.45623E-05-2.71406E-05-2.88976E-05-6.74770E-08-2.16109E-18 1.58262E-18
 -1      2519 9.45621E-05-2.71404E-05-2.88977E-05 6.36864E-08-1.76384E-18 8.53066E-19
 -1      2520 9.44639E-05-2.70607E-05-2.88833E-05 1.64819E-07-7.48662E-19-9.39604E-19
 -1      2521 9.46115E-05-2.72110E-05-2.88874E-05-3.43783E-07-2.43522E-18-1.10653E-18
 -1      2522 9.45796E-05-2.71657E-05-2.88951E-05-2.22602E-07-2.69817E-18 1.31702E-18
 -1      2523 9.44642E-05-2.70610E-05-2.88833E-05-1.69024E-07-1.80881E-18 6.62898E-19
 -1      2524 9.47186E-05-2.73641E-05-2.88663E-05-5.66004E-07-4.26332E-19-2.96097E-18
 -1      2525 9.46600E-05-2.72816E-05-2.88803E-05-4.74301E-07-1.11108E-18-3.26986E-18
 -1      2526 9.45425E-05-2.71592E-05-2.88751E-05-4.76496E-07-1.41672E-18-1.35312E-18
 -1      2527 9.48741E-05-2.75869E-05-2.88362E-05-7.07588E-07 2.37939E-20 2.83617E-18
 -1      2528 9.47943E-05-2.74745E-05-2.88551E-05-6.57065E-07 1.82505E-20-8.24466E-19
 -1      2529 9.46888E-05-2.73439E-05-2.88594E-05-7.16161E-07 6.90575E-19-1.66969E-18
 -1      2530 9.50566E-05-2.78513E-05-2.88002E-05-7.40942E-07-3.08243E-19 1.02238E-18
 -1      2531 9.49675E-05-2.77236E-05-2.88219E-05-7.42857E-07-8.64461E-19 4.22462E-18
 -1      2532 9.48866E-05-2.75962E-05-2.88373E-05-8.53644E-07-3.68774E-19 2.39385E-18
 -1      2533 9.52367E-05-2.81232E-05-2.87603E-05-6.60844E-07-1.39701E-18-4.81514E-19
 -1      2534 9.51529E-05-2.79963E-05-2.87832E-05-7.14788E-07-1.20482E-18-1.61895E-18
 -1      2535 9.51064E-05-2.78859E-05-2.88092E-05-8.64788E-07-8.61143E-19-1.01985E-18
 -1      2536 2.39302E-05-2.08446E-05-1.13844E-06 2.02403E-05 2.38228E-19 4.86197E-18
 -1      2537 1.82887E-05-1.86828E-05 3.47468E-07 6.45304E-06 1.21687E-18 4.79167E-18
 -1      2538 9.16295E-05-5.04443E-05-1.76968E-05 4.17607E-05-1.37558E-18 9.03414E-20
 -1      2539 7.17630E-05-4.38985E-05-1.17681E-05 4.11599E-05-2.56905E-18 9.96111E-19
 -1      2540 1.05466E-04-5.48378E-05-2.13548E-05 3.50628E-05-2.00048E-18-5.25769E-19
 -1      2541 9.36723E-05-2.74421E-05-2.83711E-05 2.10179E-07 9.52138E-19-1.62257E-19
 -1      2542 9.39222E-05-2.73044E-05-2.85064E-05 7.71614E-07 1.16134E-18 5.71929E-20
 -1      2543 9.43395E-05-2.74395E-05-2.86862E-05 1.79329E-07 1.01080E-18-6.03702E-19
 -1      2544 9.53244E-05-2.83401E-05-2.87050E-05-4.23259E-07-1.34817E-19 1.81155E-18
 -1      2545 1.85238E-05-1.86261E-05 2.61230E-07-5.49047E-06 1.98190E-18 4.42194E-18
 -1      2546 2.46357E-05-1.98490E-05-1.81007E-06-1.91679E-05 1.76839E-18 2.85620E-18
 -1      2547 2.54516E-05-1.47777E-05-4.01857E-06 9.45780E-07 9.31458E-19 4.43062E-18
 -1      2548 5.02123E-05-3.40690E-05-6.91077E-06 3.95409E-05-2.38016E-18 1.93187E-18
 -1      2549 3.58269E-05-2.79223E-05-3.20065E-06 3.07616E-05-1.76755E-18 3.77099E-18
 -1      2550 9.50370E-05-2.00051E-05-3.22047E-05-1.16757E-05-2.34948E-18-2.46434E-20
 -1      2551 9.54408E-05-2.33610E-05-3.09220E-05-7.91436E-06-2.15466E-18 7.56920E-20
 -1      2552 9.50586E-05-2.25067E-05-3.10620E-05-7.57714E-06-2.02531E-18-4.34776E-19
 -1      2553 9.32080E-05-1.75603E-05-3.24182E-05-1.12984E-05-2.35928E-18-7.06002E-19
 -1      2554 4.00359E-05-2.83589E-05-4.70342E-06-3.31324E-05 1.51492E-18 3.74262E-18
 -1      2555 5.64153E-05-3.65746E-05-8.38514E-06-4.08210E-05 6.29345E-19 3.76337E-18
 -1      2556 1.37991E-04-5.41958E-05-3.59831E-05 1.82953E-05-2.96885E-19-1.55854E-18
 -1      2557 1.26129E-04-5.69020E-05-2.96691E-05 2.47368E-05 4.47975E-19-1.50306E-18
 -1      2558 1.96763E-05-1.67369E-05-8.83835E-07 2.52530E-06 7.29454E-19-2.85069E-18
 -1      2559 2.26759E-05-1.75205E-05-1.91943E-06-1.45693E-05 9.69323E-19-4.39144E-18
 -1      2560 1.42513E-04-1.09013E-05-5.68865E-05 2.15663E-06 4.69807E-18-2.08794E-18
 -1      2561 1.42929E-04-1.11735E-05-5.69530E-05-1.94152E-06 3.72059E-18-2.87965E-18
 -1      2562 8.78789E-05-1.07122E-05-3.31074E-05-1.49664E-06-3.15154E-19-2.97270E-18
 -1      2563 8.79852E-05-1.08380E-05-3.30972E-05-2.60318E-06-5.75338E-19-2.89561E-18
 -1      2564 8.93704E-05-1.29876E-05-3.27368E-05-2.88144E-06-6.46767E-19-2.61887E-18
 -1      2565 8.91179E-05-1.26419E-05-3.27780E-05-9.24340E-07-2.91226E-19-2.87383E-18
 -1      2566 1.44195E-04-2.41123E-05-5.18017E-05 7.57023E-06 3.81631E-18-1.35271E-18
 -1      2567 1.43724E-04-1.65477E-05-5.50938E-05 6.24562E-06 4.85202E-18-5.13620E-19
 -1      2568 1.43207E-04-1.52753E-05-5.53923E-05-5.69331E-06 3.19924E-18-3.94294E-18
 -1      2569 1.43647E-04-2.03967E-05-5.32012E-05-7.79636E-06 2.35772E-18-3.39618E-18
 -1      2570 1.02622E-04-5.42022E-05-2.06520E-05-3.68245E-05 1.27902E-19-2.26841E-18
 -1      2571 1.21124E-04-5.68146E-05-2.77100E-05-3.05369E-05 5.81912E-19-1.06419E-18
 -1      2572 1.45812E-04-4.32315E-05-4.41468E-05-2.91073E-07 2.70913E-18-4.05729E-19
 -1      2573 1.46146E-04-3.63203E-05-4.77776E-05 4.54672E-06 2.96112E-18-9.77476E-19
 -1      2574 1.09956E-04-5.58304E-05-2.32446E-05 3.53030E-05 9.78747E-19-2.87684E-18
 -1      2575 8.87922E-05-4.98664E-05-1.64951E-05 4.00288E-05 1.61529E-18-2.59872E-18
 -1      2576 1.33552E-04-5.57361E-05-3.33940E-05-1.76772E-05 1.23434E-18-5.45277E-19
 -1      2577 1.43123E-04-5.08194E-05-3.99204E-05-9.88565E-06 2.43646E-18 1.35737E-19
 -1      2578 1.41292E-04-4.97528E-05-3.92125E-05 4.42174E-08 1.04591E-18 4.62586E-19
 -1      2579 6.05339E-05-3.97250E-05-8.87893E-06-4.02090E-05-3.94082E-19-4.05644E-18
 -1      2580 7.95484E-05-4.58944E-05-1.44190E-05-4.23172E-05-2.82274E-19-3.71207E-18
 -1      2581 3.43854E-05-2.37496E-05-4.04701E-06-2.81584E-05 1.76183E-19-4.62078E-18
 -1      2582 4.63214E-05-3.16537E-05-6.15494E-06-3.71910E-05 1.20490E-19-4.50918E-18
 -1      2583 6.04836E-05-3.43827E-05-1.07820E-05-3.80689E-05-9.25595E-19-3.36907E-18
 -1      2584 3.06417E-05-2.38054E-05-2.79975E-06 2.75142E-05 5.01655E-19-1.69703E-18
 -1      2585 2.25868E-05-1.95782E-05-1.04559E-06 1.58995E-05 4.64598E-19-2.08688E-18
 -1      2586 1.48259E-04-1.19267E-05-5.85671E-05 3.63616E-08-4.74042E-18 2.41464E-18
 -1      2587 1.42406E-04-1.22930E-05-5.63982E-05-3.34889E-06-3.66723E-18 2.25607E-18
 -1      2588 6.41518E-05-3.84463E-05-1.09105E-05 4.11974E-05 1.28897E-18-1.45679E-18
 -1      2589 4.55142E-05-3.07539E-05-6.00803E-06 3.47783E-05 1.01559E-18-1.26081E-18
 -1      2590 1.47646E-04-4.21013E-05-4.56320E-05 2.57178E-06-1.19580E-18-2.63851E-19
 -1      2591 1.43167E-04-4.89404E-05-4.05277E-05 9.22320E-06-7.61919E-19-4.38975E-19
 -1      2592 1.40388E-04-5.37982E-05-3.71151E-05 7.59508E-06 6.11187E-20-1.17314E-19
 -1      2593 1.47579E-04-1.80728E-05-5.58479E-05 5.21693E-06-4.09371E-18 4.19705E-19
 -1      2594 1.48777E-04-1.37865E-05-5.81878E-05 3.07527E-06-4.57652E-18 1.83965E-18
 -1      2595 1.36747E-04-1.08404E-05-5.42011E-05 2.75686E-06-4.43676E-18 2.22066E-18
 -1      2596 1.47962E-04-3.50559E-05-4.85520E-05 2.86531E-06-3.56347E-18-9.92087E-19
 -1      2597 1.49410E-04-2.72398E-05-5.28163E-05 5.02908E-06-4.02044E-18-3.15520E-19
 -1      2598 1.38581E-04-5.24495E-05-3.69696E-05-1.34921E-05-1.65097E-18 2.78462E-19
 -1      2599 1.46878E-04-4.62838E-05-4.35520E-05-5.49291E-06-2.58660E-18-1.20088E-18
 -1      2600 1.13957E-04-5.63050E-05-2.45859E-05-3.18022E-05-1.13375E-18 9.04419E-19
 -1      2601 1.28923E-04-5.66960E-05-3.12625E-05-2.61709E-05-1.44716E-18 5.94617E-19
 -1      2602 7.38548E-05-4.50220E-05-1.22294E-05-4.12560E-05 5.22831E-19 3.15218E-18
 -1      2603 9.31606E-05-5.10020E-05-1.82472E-05-4.13742E-05-2.66604E-19 2.51868E-18
 -1      2604 7.21587E-05-4.07545E-05-1.29910E-05-4.01214E-05 1.87448E-18 2.92819E-18
 -1      2605 1.42010E-04-5.21537E-05-3.89873E-05 8.96874E-06 8.51109E-19-3.74812E-18
 -1      2606 1.34716E-04-5.59143E-05-3.38915E-05 1.53865E-05 5.55336E-19-3.08871E-18
 -1      2607 9.62668E-05-2.50683E-05-3.05388E-05 7.54570E-06 2.07471E-18 5.64164E-19
 -1      2608 9.73779E-05-2.37530E-05-3.15747E-05 1.06491E-05 2.27222E-18 8.59977E-19
 -1      2609 9.58332E-05-2.12834E-05-3.20058E-05 1.18445E-05 2.45900E-18 1.23495E-19
 -1      2610 9.58426E-05-2.41364E-05-3.07648E-05 7.61700E-06 2.11317E-18-2.43500E-19
 -1      2611 1.34321E-04-1.31283E-05-5.22607E-05 6.10272E-06 3.90673E-18-1.42900E-18
 -1      2612 9.08388E-05-1.50031E-05-3.24967E-05-6.70605E-06-1.51651E-18-2.16849E-18
 -1      2613 8.97430E-05-1.31663E-05-3.28762E-05-7.89240E-06-1.66159E-18-2.24850E-18
 -1      2614 9.04335E-05-1.39999E-05-3.28227E-05-9.06776E-06-1.91931E-18-1.99999E-18
 -1      2615 9.47548E-05-2.68982E-05-2.90949E-05 1.73600E-06 1.43031E-18-4.48214E-19
 -1      2616 1.30470E-04-5.86902E-05-3.06265E-05 1.75321E-05-4.83656E-19-3.11888E-18
 -1      2617 9.42190E-05-1.90656E-05-3.22535E-05 1.15461E-05 2.33842E-18-8.17890E-19
 -1      2618 3.70230E-05-2.27267E-05-5.61269E-06-2.68353E-05 1.08505E-18 3.79111E-18
 -1      2619 4.98841E-05-2.56440E-05-1.02517E-05-3.22097E-05 1.29808E-18 4.26989E-18
 -1      2620 3.62749E-05-1.66173E-05-7.75323E-06-1.98237E-05 1.08516E-18 3.74643E-18
 -1      2621 1.41005E-04-4.81081E-05-3.99082E-05-2.67286E-06 6.05152E-19-3.85400E-18
 -1      2622 1.07938E-04-5.54430E-05-2.22353E-05-3.40196E-05 1.72583E-19 3.64859E-19
 -1      2623 9.53759E-05-2.83741E-05-2.87147E-05 4.75938E-07-9.81380E-19 1.31487E-18
 -1      2624 9.53414E-05-2.82882E-05-2.87369E-05 5.60881E-07-6.22241E-19 2.70202E-18
 -1      2625 1.35781E-04-5.70499E-05-3.36413E-05-1.38226E-05-5.10496E-19-1.01284E-18
 -1      2626 3.64250E-05-2.19212E-05-5.70549E-06 2.55496E-05-1.21157E-18 2.23490E-18
 -1      2627 6.88788E-05-3.93235E-05-1.22313E-05 4.00125E-05-3.68036E-18 1.03274E-18
 -1      2628 1.45918E-04-3.69883E-05-4.67961E-05-5.12403E-06-1.48834E-18 4.00858E-19
 -1      2629 1.41161E-04-4.19663E-05-4.25024E-05-6.82241E-06-8.52856E-19 2.50616E-19
 -1      2630 1.38391E-04-3.07130E-05-4.69151E-05-1.21585E-05-2.05024E-18 7.97164E-19
 -1      2631 8.10195E-05-4.48634E-05-1.51337E-05 4.03508E-05 1.62355E-18-2.07650E-18
 -1      2632 7.38939E-05-3.82095E-05-1.47929E-05 3.83005E-05 1.45181E-18-1.43943E-18
 -1      2633 9.54636E-05-4.94354E-05-1.96623E-05 3.60350E-05 1.93219E-18-2.33336E-18
 -1      2634 9.20955E-05-1.62642E-05-3.25341E-05-1.03055E-05-2.22499E-18-1.27455E-18
 -1      2635 1.40613E-04-2.21300E-05-5.09564E-05 9.52513E-06-3.51286E-18 4.65868E-20
 -1      2636 1.28081E-04-5.93955E-05-2.98906E-05 1.85317E-05 9.59106E-19-5.18490E-19
 -1      2637 1.20737E-04-5.84244E-05-2.66034E-05 2.73108E-05 8.20669E-19-1.42693E-18
 -1      2638 1.13846E-04-5.67082E-05-2.42737E-05 2.94769E-05 1.42683E-18-1.77187E-18
 -1      2639 3.47826E-05-1.89484E-05-6.25565E-06-2.05489E-05 4.42045E-19-4.25422E-18
 -1      2640 1.29533E-04-5.88099E-05-3.01654E-05-1.96151E-05-2.45745E-19-1.08103E-19
 -1      2641 8.84456E-05-4.67451E-05-1.73726E-05-3.87533E-05-1.40205E-18-2.30938E-18
 -1      2642 9.60729E-05-5.20325E-05-1.86670E-05-3.86713E-05-6.75509E-19-2.23308E-18
 -1      2643 1.08754E-04-5.59157E-05-2.29539E-05-3.25115E-05-1.12031E-18-7.76001E-19
 -1      2644 1.40562E-04-1.57536E-05-5.38357E-05-7.11328E-06-3.97978E-18 2.01975E-18
 -1      2645 1.35662E-04-1.93795E-05-5.03259E-05-9.54243E-06-4.02044E-18 1.41222E-18
 -1      2646 1.32371E-04-1.20527E-05-5.21165E-05-6.09321E-06-4.39695E-18 2.00842E-18
 -1      2647 2.72967E-05-1.55634E-05-4.49068E-06 8.58713E-06 9.08469E-19-2.93984E-18
 -1      2648 1.33808E-04-1.21370E-05-5.24357E-05-5.69349E-06 2.86467E-18-3.21243E-18
 -1      2649 1.38339E-04-2.74004E-05-4.78448E-05-1.06333E-05 1.54869E-18-4.08408E-18
 -1      2650 9.47009E-05-2.05787E-05-3.17224E-05 9.59906E-06 2.14649E-18-9.78356E-19
 -1      2651 1.39535E-04-3.05443E-05-4.69247E-05 1.05172E-05 2.83428E-18-6.52215E-19
 -1      2652 4.50097E-05-2.56153E-05-7.77045E-06 3.12849E-05 1.25986E-18-1.20363E-18
 -1      2653 9.54199E-05-2.83792E-05-2.87289E-05-5.37957E-07 1.12455E-20 3.04555E-18
 -1      2654 9.53193E-05-2.82427E-05-2.87491E-05-6.17221E-07-4.36740E-19 1.18457E-18
 -1      2655 9.53243E-05-2.81573E-05-2.87841E-05-7.91992E-07-1.42507E-18 1.59565E-18
 -1      2656 9.55087E-05-2.83886E-05-2.87610E-05-6.60384E-07 2.48396E-19 3.07110E-18
 -1      2657 1.43673E-04-4.22505E-05-4.35305E-05 4.48221E-06-2.39117E-18-1.49713E-18
 -1      2658 9.53490E-05-2.82082E-05-2.87727E-05 7.36297E-07-9.63132E-19 2.38191E-18
 -1      2659 9.54703E-05-2.82813E-05-2.87983E-05-8.58097E-07 4.61964E-20 2.05959E-18
 -1      2660 9.05655E-05-1.50413E-05-3.23897E-05 3.12820E-06 5.52107E-19-2.58458E-18
 -1      2661 9.03711E-05-1.47618E-05-3.24247E-05 2.20995E-06 2.86431E-19-2.62836E-18
 -1      2662 9.02327E-05-1.45508E-05-3.24551E-05 1.39222E-06 1.59817E-19-2.88863E-18
 -1      2663 9.01659E-05-1.44554E-05-3.24669E-05 4.53726E-07 2.23509E-21-2.83663E-18
 -1      2664 9.13989E-05-1.64130E-05-3.21232E-05 1.59334E-06 2.87461E-19-2.64073E-18
 -1      2665 9.21641E-05-1.74752E-05-3.20470E-05 6.36696E-06 1.59010E-18-2.08329E-18
 -1      2666 9.16381E-05-1.66685E-05-3.21529E-05 5.53233E-06 1.33509E-18-2.30093E-18
 -1      2667 9.35779E-05-1.97278E-05-3.16920E-05 7.49290E-06 1.80172E-18-1.72698E-18
 -1      2668 9.27942E-05-1.84637E-05-3.18736E-05 6.91198E-06 1.67423E-18-1.86330E-18
 -1      2669 9.34519E-05-1.97795E-05-3.15509E-05 5.60857E-06 1.51886E-18-1.80447E-18
 -1      2670 1.34769E-04-3.55608E-05-4.26775E-05 1.25747E-05 1.65246E-18 7.46871E-19
 -1      2671 1.31066E-04-2.55369E-05-4.59960E-05 1.30073E-05 2.86403E-18 7.02773E-19
 -1      2672 9.52278E-05-2.53630E-05-2.99533E-05 3.85395E-06 1.65136E-18-8.89050E-19
 -1      2673 9.55511E-05-2.45205E-05-3.04092E-05 5.50804E-06 1.74971E-18-8.41869E-19
 -1      2674 9.47023E-05-2.18777E-05-3.12168E-05 7.75867E-06 1.96231E-18-1.09357E-18
 -1      2675 6.84538E-05-3.51451E-05-1.35985E-05-3.70935E-05 2.16364E-18 2.43871E-18
 -1      2676 8.30291E-05-4.37998E-05-1.68190E-05-3.93911E-05 2.00694E-18 1.76400E-18
 -1      2677 1.35998E-04-4.29491E-05-4.04478E-05-8.84346E-06 7.27072E-19-3.11115E-18
 -1      2678 1.35457E-04-5.10807E-05-3.63149E-05-2.01306E-06 1.15170E-19-3.58057E-18
 -1      2679 9.53814E-05-2.58231E-05-2.97833E-05-2.51963E-06-1.29820E-18-4.67042E-19
 -1      2680 9.52352E-05-2.63948E-05-2.95126E-05-1.49466E-06-1.14205E-18-5.68722E-19
 -1      2681 9.52643E-05-2.68908E-05-2.92801E-05-7.03747E-07-9.97082E-19-5.49474E-19
 -1      2682 9.51551E-05-2.72278E-05-2.91159E-05-4.16153E-08-1.02239E-18-6.30709E-19
 -1      2683 9.54446E-05-2.61907E-05-2.96862E-05-1.34540E-06-1.13219E-18-7.78557E-19
 -1      2684 9.51294E-05-2.75073E-05-2.89656E-05 4.95337E-07-8.91450E-19-4.45121E-19
 -1      2685 9.50863E-05-2.77107E-05-2.88756E-05 9.24657E-07-7.28835E-19-4.11623E-19
 -1      2686 9.54561E-05-2.71271E-05-2.92918E-05 5.90003E-08-9.39012E-19-5.74627E-19
 -1      2687 9.50536E-05-2.78628E-05-2.87868E-05 1.28902E-06-5.66123E-19-3.58438E-19
 -1      2688 9.50727E-05-2.79847E-05-2.87498E-05 1.57740E-06-5.21511E-19-3.81799E-19
 -1      2689 9.54108E-05-2.76679E-05-2.90401E-05 1.01967E-06-6.26125E-19-4.98261E-19
 -1      2690 9.50495E-05-2.80555E-05-2.87069E-05 1.83728E-06-6.99437E-19-4.19676E-19
 -1      2691 9.51199E-05-2.81238E-05-2.87086E-05 2.05013E-06-8.72264E-19-5.20217E-19
 -1      2692 9.53662E-05-2.79568E-05-2.88960E-05 1.68944E-06-7.27441E-19-6.48982E-19
 -1      2693 9.51103E-05-2.81396E-05-2.87001E-05 2.25848E-06-7.55854E-19-3.74550E-19
 -1      2694 9.52230E-05-2.81711E-05-2.87309E-05 2.44299E-06-7.44721E-19-1.37223E-19
 -1      2695 9.53419E-05-2.80769E-05-2.88328E-05 2.19257E-06-7.09680E-19-4.73830E-19
 -1      2696 9.52266E-05-2.81480E-05-2.87487E-05 2.64018E-06-7.84627E-19-1.24758E-20
 -1      2697 9.53764E-05-2.81548E-05-2.88024E-05 2.83067E-06-6.52111E-19 2.12978E-19
 -1      2698 9.53417E-05-2.80787E-05-2.88309E-05 2.62557E-06-5.59960E-19-1.50409E-19
 -1      2699 9.53924E-05-2.81045E-05-2.88401E-05 3.04700E-06-6.66828E-19 3.65543E-19
 -1      2700 9.55781E-05-2.80970E-05-2.89124E-05 3.26804E-06-2.11972E-19 2.25256E-19
 -1      2701 9.53649E-05-2.79966E-05-2.88751E-05 3.06168E-06-3.86579E-19 2.98719E-19
 -1      2702 9.56068E-05-2.80300E-05-2.89651E-05 3.52548E-06-3.20996E-19 2.02718E-20
 -1      2703 9.58313E-05-2.80197E-05-2.90530E-05 3.79323E-06-2.06132E-19-3.03869E-19
 -1      2704 9.54116E-05-2.78582E-05-2.89538E-05 3.55510E-06-5.32108E-19-2.76673E-20
 -1      2705 9.58757E-05-2.79483E-05-2.91161E-05 4.10608E-06-1.22601E-19-5.79445E-19
 -1      2706 9.61458E-05-2.79502E-05-2.92167E-05 4.42803E-06-2.09011E-19-1.03923E-18
 -1      2707 9.54853E-05-2.76911E-05-2.90566E-05 4.14353E-06-5.42633E-19-6.45406E-19
 -1      2708 9.62139E-05-2.78920E-05-2.92854E-05 4.80242E-06-2.20116E-19-1.28918E-18
 -1      2709 9.65415E-05-2.79278E-05-2.93952E-05 5.17554E-06-9.24521E-20-1.24147E-18
 -1      2710 9.55974E-05-2.75310E-05-2.91732E-05 4.84856E-06-3.61953E-19-1.02692E-18
 -1      2711 9.66502E-05-2.79103E-05-2.94638E-05 5.60766E-06-2.05022E-19-1.19074E-18
 -1      2712 9.70541E-05-2.80130E-05-2.95783E-05 6.01475E-06-2.66296E-19-1.08404E-18
 -1      2713 9.57722E-05-2.74295E-05-2.92921E-05 5.67395E-06-3.70730E-19-1.43307E-18
 -1      2714 9.72350E-05-2.80792E-05-2.96400E-05 6.48746E-06-3.38018E-19-1.17327E-18
 -1      2715 9.77449E-05-2.82980E-05-2.97530E-05 6.89154E-06-4.03364E-19-1.18193E-18
 -1      2716 9.60570E-05-2.74664E-05-2.93999E-05 6.60129E-06-3.61736E-19-1.39597E-18
 -1      2717 9.80538E-05-2.85134E-05-2.98006E-05 7.36867E-06-4.06797E-19-1.17605E-18
 -1      2718 9.87150E-05-2.89186E-05-2.99047E-05 7.70517E-06-1.95876E-19-1.12154E-18
 -1      2719 9.65366E-05-2.77629E-05-2.94820E-05 7.58249E-06-3.32708E-19-1.19587E-18
 -1      2720 9.92432E-05-2.93764E-05-2.99329E-05 8.12205E-06 3.61092E-19-1.16961E-18
 -1      2721 1.00120E-04-3.00591E-05-3.00223E-05 8.28927E-06 4.09747E-19-9.10745E-19
 -1      2722 9.73542E-05-2.84964E-05-2.95249E-05 8.52698E-06-9.45861E-20-9.40199E-19
 -1      2723 1.01005E-04-3.08766E-05-3.00325E-05 8.53683E-06 6.10495E-19-8.76571E-19
 -1      2724 1.02174E-04-3.19310E-05-3.01082E-05 8.38683E-06 6.59753E-19-2.99130E-19
 -1      2725 9.87341E-05-2.99041E-05-2.95249E-05 9.27908E-06 5.51757E-19-6.26316E-19
 -1      2726 1.03593E-04-3.32214E-05-3.01193E-05 8.28677E-06 2.68101E-19 6.29534E-20
 -1      2727 1.05113E-04-3.46892E-05-3.01991E-05 7.62281E-06 4.62653E-19-2.10888E-19
 -1      2728 1.00991E-04-3.22529E-05-2.95034E-05 9.57851E-06 7.88764E-19-1.01480E-19
 -1      2729 1.07233E-04-3.64766E-05-3.02626E-05 6.90499E-06 9.77215E-19-1.22161E-19
 -1      2730 1.09058E-04-3.82303E-05-3.03949E-05 5.51125E-06 1.32425E-18 1.35342E-19
 -1      2731 1.04481E-04-3.57197E-05-2.95352E-05 9.00228E-06 7.39004E-19 7.65969E-20
 -1      2732 1.11912E-04-4.02910E-05-3.06185E-05 3.79303E-06 1.50995E-18-1.13469E-19
 -1      2733 1.13734E-04-4.17955E-05-3.08955E-05 1.52183E-06 1.84120E-18-5.44450E-20
 -1      2734 1.09446E-04-4.01357E-05-2.97879E-05 6.91651E-06 1.18721E-18-4.62683E-19
 -1      2735 1.16868E-04-4.33335E-05-3.14578E-05-1.48481E-06 1.77459E-18 2.04506E-19
 -1      2736 1.18028E-04-4.35331E-05-3.20024E-05-4.39970E-06 7.71202E-19 6.19327E-19
 -1      2737 1.15550E-04-4.43859E-05-3.05796E-05 2.49298E-06 1.69394E-18-6.00892E-19
 -1      2738 1.20204E-04-4.30721E-05-3.30990E-05-8.31314E-06 3.21691E-19 8.72762E-19
 -1      2739 1.19933E-04-4.07149E-05-3.39756E-05-1.07882E-05 4.76721E-19 7.57294E-19
 -1      2740 1.21108E-04-4.58074E-05-3.23571E-05-4.55417E-06 9.30307E-19 5.87894E-19
 -1      2741 1.19792E-04-3.71985E-05-3.56099E-05-1.37455E-05 1.44406E-19 1.30279E-18
 -1      2742 1.17782E-04-3.21068E-05-3.67294E-05-1.40439E-05-8.74959E-19 7.76536E-19
 -1      2743 1.23447E-04-4.09145E-05-3.54441E-05-1.23748E-05 2.93232E-19 8.81430E-19
 -1      2744 1.15346E-04-2.63739E-05-3.84427E-05-1.29201E-05-1.72784E-18-1.05614E-20
 -1      2745 1.13091E-04-2.16078E-05-3.92940E-05-9.52612E-06-2.12171E-18-7.22400E-19
 -1      2746 1.20911E-04-2.99025E-05-3.91307E-05-1.44333E-05-1.79992E-18 1.21327E-18
 -1      2747 1.11456E-04-1.83815E-05-4.01267E-05-3.59212E-06-2.70246E-18-1.56341E-18
 -1      2748 1.11265E-04-1.79931E-05-4.01959E-05 1.91133E-06-3.23381E-18-2.18115E-18
 -1      2749 1.16089E-04-1.82576E-05-4.22265E-05-7.28489E-06-2.66815E-18-9.18713E-19
 -1      2750 1.12541E-04-2.05111E-05-3.95538E-05 8.26736E-06-2.40203E-18-2.22641E-18
 -1      2751 1.14681E-04-2.49297E-05-3.87789E-05 1.21255E-05-1.34469E-18-2.63635E-18
 -1      2752 1.15676E-04-1.73519E-05-4.24567E-05 5.66146E-06-2.80543E-18-2.44393E-18
 -1      2753 1.17169E-04-3.05978E-05-3.71315E-05 1.39682E-05-3.79074E-19-2.71046E-18
 -1      2754 1.19307E-04-3.58453E-05-3.60242E-05 1.41971E-05-4.33906E-19-1.96908E-18
 -1      2755 1.20138E-04-2.80997E-05-3.96361E-05 1.39899E-05-1.10106E-18-2.59174E-18
 -1      2756 1.20018E-04-3.99073E-05-3.43246E-05 1.15089E-05 2.53978E-20-1.54142E-18
 -1      2757 1.20383E-04-4.26901E-05-3.33900E-05 9.15986E-06 7.61188E-20-6.94845E-19
 -1      2758 1.23674E-04-4.01919E-05-3.57565E-05 1.28981E-05 3.05461E-20-3.40923E-18
 -1      2759 1.18498E-04-4.34442E-05-3.22252E-05 5.35234E-06-5.46469E-19-1.31541E-19
 -1      2760 1.17455E-04-4.35223E-05-3.16404E-05 2.41982E-06-3.31994E-19-6.41869E-19
 -1      2761 1.21472E-04-4.54548E-05-3.26988E-05 5.76710E-06-1.55642E-20-8.84941E-19
 -1      2762 1.14387E-04-4.21695E-05-3.10170E-05-7.64189E-07-7.81583E-19 2.80530E-20
 -1      2763 1.12613E-04-4.07644E-05-3.07147E-05-3.13458E-06-6.84283E-19 7.60394E-20
 -1      2764 1.16403E-04-4.47532E-05-3.07718E-05-1.60499E-06-1.99764E-20 5.81946E-20
 -1      2765 1.09686E-04-3.87119E-05-3.04596E-05-5.00584E-06-8.18100E-19 7.88625E-19
 -1      2766 1.07844E-04-3.69487E-05-3.03180E-05-6.50218E-06-3.85358E-19 1.00083E-18
 -1      2767 1.10242E-04-4.07211E-05-2.98748E-05-6.38457E-06-6.37162E-19 1.71440E-18
 -1      2768 1.05618E-04-3.50941E-05-3.02446E-05-7.31749E-06 4.34137E-20 1.31016E-18
 -1      2769 1.04059E-04-3.35690E-05-3.01663E-05-8.04874E-06 1.82272E-19 1.63727E-18
 -1      2770 1.05083E-04-3.62288E-05-2.95770E-05-8.71633E-06-1.70149E-19 2.87971E-18
 -1      2771 1.02555E-04-3.22018E-05-3.01569E-05-8.19092E-06 1.90641E-19 1.48198E-18
 -1      2772 1.01351E-04-3.10870E-05-3.00881E-05-8.37341E-06 4.31128E-20 1.85759E-18
 -1      2773 1.01399E-04-3.25896E-05-2.95368E-05-9.41384E-06-6.74322E-20 2.39344E-18
 -1      2774 1.00407E-04-3.02033E-05-3.00847E-05-8.13176E-06-2.35179E-19 8.50999E-19
 -1      2775 9.95099E-05-2.94709E-05-3.00046E-05-7.96687E-06 3.48226E-19-2.31148E-20
 -1      2776 9.89989E-05-3.00765E-05-2.95668E-05-9.15022E-06-5.86647E-19 7.65383E-19
 -1      2777 9.89450E-05-2.89625E-05-2.99853E-05-7.53002E-06 5.95658E-19-3.75073E-19
 -1      2778 9.82772E-05-2.85208E-05-2.98915E-05-7.17188E-06-8.22940E-19-2.97368E-19
 -1      2779 9.75250E-05-2.85360E-05-2.95826E-05-8.37556E-06-1.91378E-19-2.54955E-19
 -1      2780 9.79476E-05-2.82685E-05-2.98531E-05-6.65590E-06-9.69903E-19-5.11401E-19
 -1      2781 9.74431E-05-2.80248E-05-2.97510E-05-6.21144E-06-2.18902E-19-2.78133E-19
 -1      2782 9.66516E-05-2.77030E-05-2.95577E-05-7.36684E-06-5.06705E-19 4.53786E-19
 -1      2783 9.72513E-05-2.79317E-05-2.96983E-05-5.68557E-06 1.59711E-19-9.30396E-19
 -1      2784 9.68626E-05-2.78134E-05-2.95951E-05-5.22364E-06 3.67903E-19-5.83203E-19
 -1      2785 9.61414E-05-2.73335E-05-2.94934E-05-6.29017E-06-6.29830E-19-6.10051E-20
 -1      2786 9.67484E-05-2.78111E-05-2.95346E-05-4.72753E-06 3.03221E-19-8.74170E-19
 -1      2787 9.64440E-05-2.77671E-05-2.94363E-05-4.28890E-06-5.70782E-19-6.32073E-19
 -1      2788 9.58411E-05-2.72432E-05-2.94014E-05-5.24351E-06 1.23469E-19-8.91533E-19
 -1      2789 9.63723E-05-2.78108E-05-2.93741E-05-3.84325E-06-1.03828E-18-3.51192E-19
 -1      2790 9.61315E-05-2.78076E-05-2.92851E-05-3.44910E-06-8.94852E-19-3.63339E-19
 -1      2791 9.56581E-05-2.73061E-05-2.92952E-05-4.28177E-06-4.64740E-19-1.12468E-18
 -1      2792 9.60825E-05-2.78696E-05-2.92257E-05-3.06221E-06-7.87306E-20 9.20678E-19
 -1      2793 9.58912E-05-2.78858E-05-2.91482E-05-2.72070E-06 1.81852E-18 1.74166E-18
 -1      2794 9.55392E-05-2.74409E-05-2.91862E-05-3.43167E-06 7.42216E-19 5.10437E-19
 -1      2795 9.58539E-05-2.79495E-05-2.90947E-05-2.39291E-06 2.27161E-18 1.57388E-18
 -1      2796 9.57015E-05-2.79718E-05-2.90295E-05-2.10391E-06 1.96827E-18 2.09160E-18
 -1      2797 9.54546E-05-2.75977E-05-2.90826E-05-2.70117E-06 1.77088E-18 6.21233E-19
 -1      2798 9.56692E-05-2.80272E-05-2.89833E-05-1.83045E-06 1.89150E-18 2.31405E-18
 -1      2799 9.55477E-05-2.80480E-05-2.89302E-05-1.58840E-06 1.29411E-18 1.28655E-18
 -1      2800 9.53870E-05-2.77464E-05-2.89897E-05-2.08590E-06 1.55577E-18 4.68167E-19
 -1      2801 9.55165E-05-2.80914E-05-2.88918E-05-1.36298E-06 9.45815E-19 1.40182E-18
 -1      2802 9.54200E-05-2.81046E-05-2.88498E-05-1.16159E-06 1.08323E-18 1.28696E-18
 -1      2803 9.53264E-05-2.78729E-05-2.89101E-05-1.57297E-06 7.67600E-19 2.59404E-19
 -1      2804 9.47004E-05-2.79816E-05-2.85903E-05-1.47899E-06 7.53492E-19-8.46335E-19
 -1      2805 9.46582E-05-2.78663E-05-2.86144E-05-1.21208E-06 6.92320E-19-6.73996E-19
 -1      2806 1.39381E-04-4.70605E-05-3.95104E-05 5.43607E-06-1.20702E-18-1.22587E-18
 -1      2807 1.38214E-04-3.77774E-05-4.37657E-05 1.04134E-05-1.99836E-18-9.28030E-19
 -1      2808 9.46953E-05-2.77357E-05-2.86954E-05-8.51267E-07 6.87593E-19-7.92810E-19
 -1      2809 9.47413E-05-2.75596E-05-2.87741E-05-4.40082E-07 7.78869E-19-7.26768E-19
 -1      2810 9.51137E-05-2.77220E-05-2.88915E-05-9.55480E-07 7.70674E-19-8.61698E-19
 -1      2811 9.49993E-05-2.82082E-05-2.86186E-05-2.27040E-06 5.13622E-19-7.90356E-19
 -1      2812 9.48357E-05-2.81561E-05-2.85747E-05-2.11076E-06 6.08418E-19-9.25942E-19
 -1      2813 9.52649E-05-2.82457E-05-2.87151E-05-2.61111E-06 6.00239E-19-1.03076E-18
 -1      2814 9.50551E-05-2.82094E-05-2.86482E-05-2.44824E-06 5.87506E-19-8.47319E-19
 -1      2815 9.52137E-05-2.81645E-05-2.87401E-05-2.50087E-06 5.85602E-19-1.06518E-18
 -1      2816 9.55998E-05-2.82576E-05-2.88524E-05-2.99419E-06 6.19049E-19-1.01627E-18
 -1      2817 9.53455E-05-2.82287E-05-2.87659E-05-2.80433E-06 6.77826E-19-9.55615E-19
 -1      2818 9.53532E-05-2.81421E-05-2.88087E-05-2.89809E-06 6.54663E-19-8.63036E-19
 -1      2819 9.60071E-05-2.82618E-05-2.90240E-05-3.45702E-06 3.04189E-19-1.14599E-18
 -1      2820 9.57050E-05-2.82308E-05-2.89200E-05-3.22455E-06 4.81945E-19-9.02140E-19
 -1      2821 9.55398E-05-2.80794E-05-2.89150E-05-3.34573E-06 4.88844E-19-9.44321E-19
 -1      2822 9.64971E-05-2.82803E-05-2.92251E-05-4.02075E-06 4.31092E-19-1.04052E-18
 -1      2823 9.61399E-05-2.82350E-05-2.91051E-05-3.73836E-06 4.07897E-19-1.04450E-18
 -1      2824 9.57770E-05-2.79997E-05-2.90505E-05-3.88124E-06 4.19701E-19-7.89241E-19
 -1      2825 9.70882E-05-2.83446E-05-2.94504E-05-4.68788E-06 1.19032E-19-1.16802E-18
 -1      2826 9.66649E-05-2.82676E-05-2.93162E-05-4.35846E-06 2.25666E-19-1.01291E-18
 -1      2827 9.60759E-05-2.79324E-05-2.92075E-05-4.52517E-06 3.19698E-19-3.58208E-19
 -1      2828 9.78096E-05-2.85021E-05-2.96923E-05-5.43610E-06-1.61474E-19-4.18557E-19
 -1      2829 9.73055E-05-2.83678E-05-2.95471E-05-5.07657E-06-1.36204E-19-8.43649E-19
 -1      2830 9.64585E-05-2.79204E-05-2.93771E-05-5.27859E-06-2.60923E-20 8.53391E-20
 -1      2831 9.87065E-05-2.88237E-05-2.99404E-05-6.20845E-06 1.70967E-19-2.98016E-19
 -1      2832 9.81020E-05-2.85948E-05-2.97894E-05-5.85560E-06 9.40879E-20-2.17726E-19
 -1      2833 9.69648E-05-2.80288E-05-2.95489E-05-6.11733E-06-1.81900E-19 4.34016E-20
 -1      2834 9.98480E-05-2.94123E-05-3.01809E-05-6.89912E-06 1.56742E-20 5.23436E-19
 -1      2835 9.91170E-05-2.90371E-05-3.00314E-05-6.61745E-06 1.73922E-19-1.56555E-19
 -1      2836 9.76623E-05-2.83562E-05-2.97102E-05-6.98259E-06-1.04158E-20 2.37213E-20
 -1      2837 1.01334E-04-3.04052E-05-3.03988E-05-7.33567E-06 1.87662E-20 6.33659E-19
 -1      2838 1.00445E-04-2.98183E-05-3.02596E-05-7.22594E-06 1.44820E-20 6.08058E-19
 -1      2839 9.86605E-05-2.90443E-05-2.98482E-05-7.76683E-06-9.96578E-20 7.34471E-19
 -1      2840 1.03295E-04-3.19554E-05-3.05855E-05-7.26038E-06 1.29130E-19 4.52985E-19
 -1      2841 1.02216E-04-3.10930E-05-3.04631E-05-7.46540E-06 3.66137E-19 6.52658E-19
 -1      2842 1.00125E-04-3.02795E-05-2.99550E-05-8.29334E-06 1.90722E-19 6.22668E-19
 -1      2843 1.05858E-04-3.41653E-05-3.07522E-05-6.32191E-06-2.31852E-19 5.15414E-19
 -1      2844 1.04584E-04-3.30076E-05-3.06442E-05-7.02022E-06-2.38407E-19 2.77351E-19
 -1      2845 1.02278E-04-3.22629E-05-3.00398E-05-8.28856E-06 3.67264E-20 6.17613E-19
 -1      2846 1.09043E-04-3.69279E-05-3.09540E-05-4.10791E-06-7.60914E-19 3.78846E-19
 -1      2847 1.07651E-04-3.55909E-05-3.08377E-05-5.47538E-06-3.84863E-19 5.65820E-19
 -1      2848 1.05347E-04-3.51093E-05-3.01495E-05-7.35456E-06-5.19122E-19 2.53435E-19
 -1      2849 1.12557E-04-3.96452E-05-3.13136E-05-2.81210E-07-7.15051E-19 7.30166E-19
 -1      2850 1.11305E-04-3.85310E-05-3.11372E-05-2.38631E-06-7.19734E-19 6.75062E-19
 -1      2851 1.09422E-04-3.86227E-05-3.03992E-05-4.97915E-06-6.81611E-19 3.58759E-19
 -1      2852 1.15550E-04-4.09754E-05-3.20212E-05 5.03154E-06-5.88599E-19 1.11474E-18
 -1      2853 1.14909E-04-4.08412E-05-3.17083E-05 2.44550E-06-6.35081E-19 8.94639E-19
 -1      2854 1.14137E-04-4.19199E-05-3.09983E-05-6.58335E-07-8.80466E-19 7.61965E-19
 -1      2855 1.16606E-04-3.90073E-05-3.32564E-05 1.04925E-05-3.58432E-19 1.20382E-18
 -1      2856 1.17051E-04-4.07054E-05-3.27524E-05 8.32681E-06-5.27258E-19 1.62801E-18
 -1      2857 1.18157E-04-4.30046E-05-3.22350E-05 5.56806E-06-7.39316E-19 1.73190E-18
 -1      2858 1.14583E-04-3.27731E-05-3.50173E-05 1.32377E-05-3.72694E-20 1.03233E-18
 -1      2859 1.16243E-04-3.64674E-05-3.43448E-05 1.28872E-05-2.21850E-21 1.48493E-18
 -1      2860 1.19468E-04-3.94149E-05-3.42791E-05 1.20614E-05-2.80791E-19 2.21639E-18
 -1      2861 1.10458E-04-2.46678E-05-3.67637E-05 9.90230E-06 1.86030E-19 3.08752E-19
 -1      2862 1.12411E-04-2.84908E-05-3.61967E-05 1.25089E-05 3.49560E-19 4.60589E-19
 -1      2863 1.17055E-04-3.11641E-05-3.68298E-05 1.41153E-05 4.55254E-19 1.59165E-18
 -1      2864 1.08065E-04-2.05968E-05-3.76005E-05 5.95798E-07 6.41283E-19-5.62165E-19
 -1      2865 1.08728E-04-2.17013E-05-3.74532E-05 5.21810E-06 2.50245E-19-3.73598E-19
 -1      2866 1.12674E-04-2.19027E-05-3.90578E-05 8.43398E-06 9.75464E-19 4.02552E-19
 -1      2867 1.10037E-04-2.42385E-05-3.70154E-05-9.17456E-06 9.49167E-19-1.75426E-18
 -1      2868 1.08809E-04-2.16442E-05-3.73824E-05-5.33689E-06 8.46556E-19-1.43645E-18
 -1      2869 1.11338E-04-1.90554E-05-3.96783E-05-2.91669E-06 1.23347E-18-2.53531E-19
 -1      2870 1.14451E-04-3.23896E-05-3.53724E-05-1.35340E-05 3.17022E-19-1.80546E-18
 -1      2871 1.12396E-04-2.82083E-05-3.60319E-05-1.23924E-05 5.70291E-19-2.02224E-18
 -1      2872 1.14448E-04-2.50644E-05-3.83111E-05-1.23923E-05 1.13359E-18-1.19347E-18
 -1      2873 1.17107E-04-3.89460E-05-3.35747E-05-1.12814E-05 9.57047E-19-1.16623E-18
 -1      2874 1.15833E-04-3.60463E-05-3.41846E-05-1.26104E-05 5.51233E-19-1.43643E-18
 -1      2875 1.18546E-04-3.51043E-05-3.57595E-05-1.40300E-05 3.86273E-19-1.63949E-18
 -1      2876 1.16377E-04-4.11829E-05-3.22248E-05-5.65178E-06 1.15839E-19-3.26630E-19
 -1      2877 1.16457E-04-4.04211E-05-3.26357E-05-8.14161E-06 1.02705E-18-5.10731E-19
 -1      2878 1.19447E-04-4.17810E-05-3.32911E-05-9.31525E-06 3.83461E-19-8.89265E-19
 -1      2879 1.13377E-04-3.99594E-05-3.14201E-05-1.05956E-07-3.73663E-19 4.40308E-19
 -1      2880 1.14357E-04-4.06493E-05-3.16606E-05-2.53181E-06 9.00469E-21 2.97189E-19
 -1      2881 1.16522E-04-4.29165E-05-3.15960E-05-2.62158E-06-2.54501E-19-1.02716E-19
 -1      2882 1.09628E-04-3.71704E-05-3.10025E-05 3.93078E-06 9.14023E-19 5.08250E-19
 -1      2883 1.10986E-04-3.84690E-05-3.11394E-05 2.16927E-06 1.21741E-19 7.88305E-19
 -1      2884 1.11996E-04-4.05309E-05-3.06847E-05 2.80967E-06-1.75514E-19-4.85161E-19
 -1      2885 1.06220E-04-3.43162E-05-3.07763E-05 6.23021E-06 8.72980E-19 1.15000E-18
 -1      2886 1.07565E-04-3.56010E-05-3.08796E-05 5.20126E-06 1.09595E-18 1.20916E-18
 -1      2887 1.07475E-04-3.69364E-05-3.02831E-05 6.17683E-06 4.70136E-19-1.53253E-19
 -1      2888 1.03495E-04-3.20205E-05-3.06066E-05 7.17680E-06 7.44714E-19 1.43930E-18
 -1      2889 1.04669E-04-3.30491E-05-3.07139E-05 6.74747E-06 6.65956E-19 1.03652E-18
 -1      2890 1.03861E-04-3.36651E-05-3.01259E-05 7.78897E-06 9.04295E-19 1.19682E-18
 -1      2891 1.01443E-04-3.04051E-05-3.04304E-05 7.21094E-06 8.25067E-19 1.01742E-18
 -1      2892 1.02414E-04-3.11372E-05-3.05533E-05 7.19708E-06 1.16234E-18 1.54391E-18
 -1      2893 1.01244E-04-3.12005E-05-3.00469E-05 8.19491E-06 7.52529E-19 1.09014E-18
 -1      2894 9.99244E-05-2.93691E-05-3.02313E-05 6.70410E-06 1.07977E-19 1.80082E-18
 -1      2895 1.00713E-04-2.98519E-05-3.03667E-05 6.94154E-06 8.93678E-19 2.35508E-18
 -1      2896 9.94493E-05-2.95666E-05-2.99670E-05 7.85558E-06 3.01200E-19 1.01823E-18
 -1      2897 9.87944E-05-2.87546E-05-3.00149E-05 5.92358E-06-1.16379E-18 1.87658E-18
 -1      2898 9.94335E-05-2.90554E-05-3.01545E-05 6.28928E-06-7.81605E-19 1.94359E-18
 -1      2899 9.82401E-05-2.85907E-05-2.98601E-05 7.10936E-06-3.15116E-19 2.29038E-18
 -1      2900 9.79391E-05-2.84197E-05-2.97943E-05 5.04536E-06-1.95176E-18 1.33256E-18
 -1      2901 9.84572E-05-2.85979E-05-2.99297E-05 5.45632E-06-1.61723E-18 1.69457E-18
 -1      2902 9.74187E-05-2.80718E-05-2.97265E-05 6.18132E-06-1.16289E-18 1.85621E-18
 -1      2903 9.72800E-05-2.82581E-05-2.95821E-05 4.17681E-06-1.10757E-18 8.92109E-19
 -1      2904 9.76995E-05-2.83581E-05-2.97070E-05 4.58205E-06-1.40743E-18 9.03519E-19
 -1      2905 9.68460E-05-2.78433E-05-2.95769E-05 5.21347E-06-1.16081E-18 1.10264E-18
 -1      2906 9.67652E-05-2.81973E-05-2.93878E-05 3.37720E-06 9.77233E-19-4.70451E-19
 -1      2907 9.71033E-05-2.82496E-05-2.94982E-05 3.74888E-06 1.50712E-19 1.10862E-19
 -1      2908 9.64328E-05-2.77854E-05-2.94236E-05 4.28996E-06 1.32196E-19 2.98442E-19
 -1      2909 9.63598E-05-2.81904E-05-2.92170E-05 2.67364E-06-6.70521E-20-7.17140E-19
 -1      2910 9.66304E-05-2.82151E-05-2.93112E-05 2.99948E-06 6.49637E-19-7.12381E-19
 -1      2911 9.61242E-05-2.78182E-05-2.92767E-05 3.45559E-06 1.16057E-18-6.91786E-19
 -1      2912 9.60393E-05-2.82076E-05-2.90720E-05 2.07260E-06-2.03587E-19-3.69949E-19
 -1      2913 9.62541E-05-2.82180E-05-2.91500E-05 2.35029E-06-2.10405E-19-9.66029E-19
 -1      2914 9.58869E-05-2.78915E-05-2.91433E-05 2.72894E-06-1.41959E-19-1.17543E-18
 -1      2915 9.57853E-05-2.82302E-05-2.89529E-05 1.56818E-06 7.75680E-19 3.05834E-19
 -1      2916 9.59541E-05-2.82349E-05-2.90155E-05 1.80113E-06-1.00294E-19-1.63543E-20
 -1      2917 9.56992E-05-2.79741E-05-2.90271E-05 2.11175E-06-5.86721E-19-1.61371E-18
 -1      2918 9.55854E-05-2.82477E-05-2.88578E-05 1.14808E-06 1.04648E-19 2.66428E-18
 -1      2919 9.57145E-05-2.82524E-05-2.89066E-05 1.34076E-06 9.83554E-19 1.93212E-18
 -1      2920 9.55447E-05-2.80467E-05-2.89296E-05 1.59540E-06-2.97838E-19 8.28748E-20
 -1      2921 9.54117E-05-2.82234E-05-2.87931E-05 8.51907E-07-5.48878E-19 2.67803E-18
 -1      2922 9.55093E-05-2.82262E-05-2.88309E-05 1.01907E-06 8.68090E-21 1.37882E-18
 -1      2923 9.53973E-05-2.80683E-05-2.88597E-05 1.22178E-06 8.15558E-19 1.83626E-18
 -1      2924 9.52715E-05-2.80486E-05-2.88139E-05 9.57585E-07-7.44099E-19 2.93903E-18
 -1      2925 9.42886E-05-2.69223E-05-2.88741E-05 1.02555E-07-3.13060E-19-1.61141E-19
 -1      2926 9.43127E-05-2.69472E-05-2.88723E-05 2.77226E-07 5.83466E-19-1.36236E-18
 -1      2927 9.54033E-05-2.81288E-05-2.88282E-05-1.03143E-06 7.92766E-19 1.12163E-18
 -1      2928 9.53483E-05-2.81374E-05-2.88041E-05-9.11105E-07 2.09450E-19 1.62510E-18
 -1      2929 9.52798E-05-2.79602E-05-2.88533E-05-1.20716E-06 4.66234E-19-1.57941E-18
 -1      2930 9.45311E-05-2.71919E-05-2.88641E-05 7.77029E-07 7.60248E-19-6.86768E-19
 -1      2931 9.46378E-05-2.73037E-05-2.88560E-05 8.80894E-07 1.41381E-18-3.49705E-18
 -1      2932 9.43134E-05-2.69479E-05-2.88724E-05-2.81605E-07-1.28588E-18 7.15964E-19
 -1      2933 9.42889E-05-2.69224E-05-2.88741E-05-1.07075E-07-8.77290E-19 3.28755E-19
 -1      2934 9.41363E-05-2.67775E-05-2.88638E-05-2.41287E-09 2.52435E-19-7.28576E-20
 -1      2935 9.43642E-05-2.70067E-05-2.88713E-05 4.72601E-07-2.27494E-19-8.59570E-19
 -1      2936 9.44339E-05-2.70791E-05-2.88662E-05 6.22685E-07 7.44301E-19 7.21231E-19
 -1      2937 9.43664E-05-2.70128E-05-2.88624E-05 7.94666E-07 3.51331E-19-3.73098E-19
 -1      2938 9.41955E-05-2.68379E-05-2.88635E-05 4.24883E-07-2.30793E-19-8.72603E-19
 -1      2939 1.12124E-04-5.59127E-05-2.43029E-05 2.94187E-05-1.28601E-18-9.93378E-19
 -1      2940 9.88314E-05-5.05577E-05-2.01990E-05 3.48121E-05-1.89757E-18-1.00850E-20
 -1      2941 9.44326E-05-2.70773E-05-2.88664E-05-6.21327E-07-7.31566E-19-1.69106E-18
 -1      2942 9.43641E-05-2.70063E-05-2.88714E-05-4.73715E-07-1.37572E-18 7.54362E-19
 -1      2943 9.41954E-05-2.68373E-05-2.88636E-05-4.26184E-07-6.91664E-19 7.77355E-19
 -1      2944 9.46360E-05-2.73013E-05-2.88563E-05-8.80527E-07 6.23666E-19-3.92746E-19
 -1      2945 9.45295E-05-2.71895E-05-2.88644E-05-7.76230E-07 1.22683E-19-2.66231E-18
 -1      2946 9.43644E-05-2.70102E-05-2.88627E-05-7.93219E-07-5.72387E-19-6.20989E-19
 -1      2947 9.48951E-05-2.75953E-05-2.88420E-05-1.01295E-06 4.88643E-19 2.35651E-18
 -1      2948 9.47689E-05-2.74550E-05-2.88528E-05-9.74014E-07 1.04711E-18 1.25873E-18
 -1      2949 9.46243E-05-2.72785E-05-2.88602E-05-1.05635E-06 1.16881E-18 3.88719E-19
 -1      2950 8.09015E-05-4.22780E-05-1.65483E-05 3.88741E-05-2.83947E-18 1.49014E-18
 -1      2951 6.25997E-05-3.22266E-05-1.24304E-05 3.60761E-05-3.03291E-18 1.35123E-18
 -1      2952 9.48059E-05-2.73263E-05-2.89208E-05 1.06038E-07 8.82550E-19-7.19924E-19
 -1      2953 9.49564E-05-2.70426E-05-2.90785E-05 7.59282E-07 1.13954E-18-6.75630E-19
 -1      2954 9.51969E-05-2.72425E-05-2.91338E-05 2.39543E-08 8.99580E-19-7.84343E-19
 -1      2955 3.07139E-05-1.29383E-05-7.09842E-06 7.72094E-06 1.74701E-20 3.33371E-18
 -1      2956 3.06816E-05-1.26370E-05-7.24004E-06-5.13661E-06 8.66793E-19 3.46669E-18
 -1      2957 9.43380E-05-2.08376E-05-3.15348E-05-8.15107E-06-2.04501E-18-8.51585E-19
 -1      2958 9.47271E-05-2.26036E-05-3.09341E-05-6.29737E-06-1.82749E-18-7.52211E-19
 -1      2959 1.29198E-04-1.21965E-05-5.07352E-05 6.48433E-06-4.01578E-18 9.59212E-19
 -1      2960 1.27888E-04-1.01457E-05-5.11307E-05 8.08276E-07-4.08503E-18 1.37634E-18
 -1      2961 3.46863E-05-1.40882E-05-8.24655E-06-1.27692E-05 3.67003E-19-3.48681E-18
 -1      2962 4.45834E-05-2.02568E-05-9.97534E-06-2.59708E-05-6.24052E-19-3.27696E-18
 -1      2963 1.23529E-04-5.85340E-05-2.75122E-05-2.12352E-05-1.24302E-18-3.70577E-21
 -1      2964 1.32086E-04-5.79020E-05-3.22610E-05-1.12821E-05-5.42578E-19 7.62859E-19
 -1      2965 9.48073E-05-2.81276E-05-2.85721E-05-1.91790E-06 6.38111E-19-9.37249E-19
 -1      2966 9.46972E-05-2.80504E-05-2.85573E-05-1.72805E-06 8.62037E-19-8.05551E-19
 -1      2967 9.50883E-05-2.79910E-05-2.87636E-05-1.61789E-06 8.03804E-19-8.83162E-19
 -1      2968 9.51235E-05-2.81238E-05-2.87201E-05-2.09922E-06 6.69466E-19-7.43929E-19
 -1      2969 9.52784E-05-2.40456E-05-3.05106E-05-5.03064E-06-1.53769E-18-6.68478E-19
 -1      2970 9.51972E-05-2.50146E-05-3.00954E-05-3.51573E-06-1.36380E-18-5.79347E-19
 -1      2971 9.52454E-05-2.46676E-05-3.02408E-05-3.23866E-06-1.34321E-18-8.79234E-19
 -1      2972 9.46022E-05-2.23081E-05-3.09768E-05-5.55891E-06-1.68522E-18-1.16174E-18
 -1      2973 9.50182E-05-2.66245E-05-2.93159E-05 1.59263E-06 1.36177E-18-8.09962E-19
 -1      2974 9.52650E-05-2.61358E-05-2.95900E-05 2.63435E-06 1.46753E-18-7.64300E-19
 -1      2975 9.52905E-05-2.49554E-05-3.01419E-05 3.66227E-06 1.58375E-18-1.27672E-18
 -1      2976 9.52926E-05-2.64035E-05-2.95316E-05 1.49684E-06 1.30143E-18-1.01210E-18
 -1      2977 1.30478E-04-2.34767E-05-4.65296E-05-1.27739E-05 1.74785E-18-3.15139E-18
 -1      2978 1.34240E-04-3.35956E-05-4.34154E-05-1.33037E-05 1.47691E-18-3.58168E-18
 -1      2979 1.31134E-04-3.83570E-05-3.97746E-05-1.30291E-05 8.60109E-19-2.88759E-18
 -1      2980 1.34637E-04-2.58281E-05-4.69475E-05 1.27918E-05-2.95382E-18-8.91820E-19
 -1      2981 1.32108E-04-1.82002E-05-4.95241E-05 1.03591E-05-3.31338E-18 1.76500E-19
 -1      2982 1.31557E-04-5.73104E-05-3.20706E-05 1.02833E-05-1.14085E-20-4.37466E-18
 -1      2983 1.23715E-04-5.85703E-05-2.76986E-05 2.07176E-05-5.30137E-19-2.48964E-18
 -1      2984 1.17466E-04-5.58513E-05-2.62000E-05 2.22534E-05-1.05609E-18-1.46312E-18
 -1      2985 9.11930E-05-1.59820E-05-3.22609E-05 4.82358E-06 1.12583E-18-2.38657E-18
 -1      2986 9.08463E-05-1.54720E-05-3.23255E-05 3.91258E-06 7.47048E-19-2.50682E-18
 -1      2987 9.18028E-05-1.70428E-05-3.20242E-05 3.10967E-06 6.26360E-19-2.35738E-18
 -1      2988 9.24860E-05-1.81363E-05-3.18441E-05 4.50018E-06 1.10480E-18-2.10328E-18
 -1      2989 9.20576E-05-1.66253E-05-3.23359E-05-8.93689E-06-1.99570E-18-1.43417E-18
 -1      2990 9.08099E-05-1.54224E-05-3.23307E-05-3.84913E-06-8.01326E-19-2.20031E-18
 -1      2991 9.11487E-05-1.59195E-05-3.22676E-05-4.76063E-06-1.08003E-18-2.12260E-18
 -1      2992 1.36398E-04-5.30611E-05-3.56679E-05-1.17280E-07-1.89140E-19 9.22207E-19
 -1      2993 1.36389E-04-4.65152E-05-3.91971E-05 6.53078E-06 5.57877E-19 5.22831E-19
 -1      2994 1.25026E-04-1.10895E-05-4.95319E-05-2.52903E-06 2.93391E-18-2.21880E-18
 -1      2995 1.26125E-04-1.42730E-05-4.83560E-05-8.99635E-06 1.96279E-18-2.78462E-18
 -1      2996 5.88807E-05-2.94070E-05-1.21508E-05-3.48636E-05-8.26492E-19-2.46010E-18
 -1      2997 7.21362E-05-3.79878E-05-1.43509E-05-3.92623E-05-1.16213E-18-2.55687E-18
 -1      2998 3.38863E-05-1.53547E-05-7.47772E-06 1.64604E-05 1.09378E-18-1.95453E-18
 -1      2999 3.10990E-05-1.24277E-05-7.47885E-06 2.82490E-06 8.97087E-19-3.00485E-18
 -1      3000 5.48622E-05-2.67547E-05-1.17591E-05 3.27935E-05 1.37198E-18-8.06587E-19
 -1      3001 4.22582E-05-1.99722E-05-8.95151E-06 2.51104E-05 1.12835E-18-8.48092E-19
 -1      3002 4.50307E-05-1.71769E-05-1.13197E-05 1.92104E-05 1.34234E-18-1.53789E-18
 -1      3003 9.52415E-05-2.80114E-05-2.88128E-05-9.53298E-07-5.50061E-19-1.03083E-18
 -1      3004 1.39838E-04-5.19393E-05-3.82581E-05 1.11581E-06 1.56321E-20 6.65980E-20
 -1      3005 1.36563E-04-5.62186E-05-3.43448E-05 7.28973E-06 4.94773E-19-2.46592E-19
 -1      3006 1.26941E-04-1.56157E-05-4.81578E-05 1.00565E-05 2.77149E-18-2.27693E-19
 -1      3007 1.25511E-04-1.11827E-05-4.96581E-05 3.44234E-06 2.73592E-18-2.00176E-18
 -1      3008 1.19510E-04-1.31918E-05-4.59571E-05 6.70115E-07 2.47979E-18-1.85460E-18
 -1      3009 4.71750E-05-2.36101E-05-9.81620E-06 3.09276E-05-2.14617E-18 9.98017E-19
 -1      3010 3.66105E-05-1.65849E-05-8.03417E-06 1.92841E-05-1.07367E-18 2.24083E-18
 -1      3011 1.30599E-04-5.87242E-05-3.05508E-05-1.54336E-05 4.54168E-19-1.13587E-18
 -1      3012 1.36624E-04-5.56405E-05-3.54263E-05-5.89364E-06-1.18108E-19-1.87999E-18
 -1      3013 1.00890E-04-5.21532E-05-2.04808E-05-3.47335E-05 1.92255E-18 2.66709E-19
 -1      3014 1.18403E-04-5.85280E-05-2.59869E-05-2.75641E-05 5.23890E-19-1.15022E-18
 -1      3015 9.15792E-05-1.65797E-05-3.21625E-05-5.47911E-06-1.29394E-18-2.06230E-18
 -1      3016 9.20573E-05-1.72939E-05-3.20651E-05-6.30517E-06-1.59737E-18-1.88469E-18
 -1      3017 9.24331E-05-1.80581E-05-3.18537E-05-4.46196E-06-1.09547E-18-1.87322E-18
 -1      3018 9.12613E-05-1.62016E-05-3.21555E-05 2.80943E-08-3.75776E-20-2.62822E-18
 -1      3019 9.01617E-05-1.44503E-05-3.24675E-05-3.72074E-07-1.25291E-19-2.71055E-18
 -1      3020 9.02199E-05-1.45335E-05-3.24568E-05-1.31099E-06-3.18669E-19-2.69686E-18
 -1      3021 1.24329E-04-2.21510E-05-4.41368E-05 1.20988E-05 2.06729E-18 7.62065E-19
 -1      3022 1.31664E-04-4.08434E-05-3.90051E-05 1.17028E-05 6.16058E-19 1.13984E-18
 -1      3023 3.76296E-05-1.41273E-05-9.41535E-06-1.25291E-05 6.58145E-19 4.15660E-18
 -1      3024 4.58529E-05-1.67119E-05-1.23750E-05-1.94901E-05 5.88291E-19 3.38390E-18
 -1      3025 4.17123E-05-1.24923E-05-1.20179E-05-6.57992E-06 1.23032E-19 3.34059E-18
 -1      3026 9.43648E-05-2.13826E-05-3.12829E-05 7.11123E-06 1.85241E-18-1.46954E-18
 -1      3027 9.28428E-05-1.83796E-05-3.19108E-05-7.36876E-06-1.76375E-18-1.50933E-18
 -1      3028 6.28857E-05-2.92159E-05-1.39022E-05-3.24199E-05 1.76098E-18 2.51251E-18
 -1      3029 1.30208E-04-4.92800E-05-3.47434E-05-5.50218E-06 2.69595E-19-3.42148E-18
 -1      3030 1.33341E-04-5.48923E-05-3.37732E-05 2.27241E-06 2.76265E-19-3.83648E-18
 -1      3031 1.27711E-04-5.49135E-05-3.10583E-05 6.63483E-06 7.24527E-20-3.57980E-18
 -1      3032 9.46259E-05-2.72814E-05-2.88598E-05 1.05608E-06 3.65593E-19-3.46051E-18
 -1      3033 9.47683E-05-2.74559E-05-2.88525E-05 9.72502E-07 1.22742E-18-4.73141E-18
 -1      3034 9.48969E-05-2.75946E-05-2.88419E-05 1.01393E-06 5.07492E-19-3.09546E-18
 -1      3035 1.32109E-04-3.26985E-05-4.29256E-05 1.30862E-05-1.65881E-18-1.54202E-18
 -1      3036 9.46299E-05-2.24053E-05-3.09456E-05 5.56407E-06 1.66067E-18-1.58246E-18
 -1      3037 9.66708E-05-4.79136E-05-2.05298E-05-3.31705E-05 2.29631E-18 7.17265E-19
 -1      3038 1.24310E-04-5.78086E-05-2.82609E-05-1.86450E-05 1.04333E-18-1.15869E-18
 -1      3039 1.31707E-04-5.81301E-05-3.13866E-05 1.13304E-05 9.97117E-19-4.46810E-19
 -1      3040 9.50208E-05-2.77452E-05-2.88363E-05 1.02542E-06 1.67228E-19-8.53697E-19
 -1      3041 9.51529E-05-2.78946E-05-2.88229E-05 1.00131E-06-4.89886E-19 1.62590E-18
 -1      3042 9.52050E-05-2.78964E-05-2.88425E-05 1.13490E-06-3.47305E-19 1.84180E-18
 -1      3043 9.49223E-05-2.75901E-05-2.88542E-05 1.16503E-06-2.13679E-19-1.93553E-18
 -1      3044 6.78024E-05-3.23712E-05-1.46046E-05 3.48355E-05 1.34456E-18-1.08357E-18
 -1      3045 6.38086E-05-2.70859E-05-1.53412E-05 3.01391E-05 1.02899E-18-1.13989E-18
 -1      3046 8.02630E-05-3.79821E-05-1.80248E-05 3.38495E-05 1.40576E-18-1.34842E-18
 -1      3047 6.15673E-05-2.73527E-05-1.40861E-05 3.09126E-05-1.84770E-18 9.35230E-19
 -1      3048 9.16669E-05-4.46415E-05-1.97753E-05 3.35953E-05-1.74828E-18 1.52450E-18
 -1      3049 9.51231E-05-2.78594E-05-2.88265E-05-9.84033E-07 3.96774E-19-8.97799E-19
 -1      3050 1.15785E-04-5.59040E-05-2.55308E-05-2.49315E-05-1.44631E-18 1.47834E-19
 -1      3051 1.23977E-04-2.09165E-05-4.44038E-05-1.15321E-05 1.47299E-18-2.28175E-18
 -1      3052 1.34870E-04-2.49941E-05-4.75112E-05-1.24290E-05-2.98706E-18 1.33016E-18
 -1      3053 1.32720E-04-3.06695E-05-4.40602E-05-1.26555E-05-2.28127E-18 1.07997E-18
 -1      3054 1.28643E-04-1.96676E-05-4.73159E-05-1.18403E-05-4.01282E-18 1.20464E-18
 -1      3055 1.06257E-04-5.35288E-05-2.22751E-05 3.22117E-05 2.34067E-18-2.44782E-18
 -1      3056 9.69774E-05-4.76068E-05-2.08738E-05 3.30494E-05 2.36259E-18-1.92022E-18
 -1      3057 1.14360E-04-5.59402E-05-2.52715E-05 2.51348E-05 2.12971E-18-1.45639E-18
 -1      3058 3.69098E-05-1.26203E-05-9.81877E-06-5.18244E-06 2.49067E-19-3.47432E-18
 -1      3059 4.47392E-05-1.38060E-05-1.28590E-05-1.10525E-05-2.87247E-19-3.01713E-18
 -1      3060 4.10474E-05-1.20442E-05-1.21125E-05 2.51786E-06 4.15910E-19-2.43840E-18
 -1      3061 4.12223E-05-1.46938E-05-1.07418E-05 1.33313E-05-1.01189E-18 2.06835E-18
 -1      3062 1.25149E-04-1.65765E-05-4.69927E-05 9.12012E-06-2.86911E-18-7.13678E-19
 -1      3063 1.37914E-04-4.58424E-05-3.96469E-05-7.46508E-06-3.68989E-20 1.47913E-19
 -1      3064 5.25591E-05-1.91739E-05-1.39348E-05-2.26504E-05-9.08231E-19-2.50076E-18
 -1      3065 5.51235E-05-2.43531E-05-1.26387E-05-2.93038E-05-9.67523E-19-3.19554E-18
 -1      3066 6.53020E-05-2.83130E-05-1.57665E-05-3.09494E-05-1.34789E-18-1.92891E-18
 -1      3067 8.64054E-05-4.34908E-05-1.80791E-05-3.56414E-05-1.96088E-18-1.76612E-18
 -1      3068 1.31705E-04-5.50717E-05-3.28279E-05-3.81155E-06-9.61568E-19 8.67044E-19
 -1      3069 1.35932E-04-5.10988E-05-3.63353E-05 2.70535E-06 3.47019E-20-1.78883E-18
 -1      3070 9.03488E-05-1.47323E-05-3.24276E-05-2.12649E-06-4.12901E-19-2.45587E-18
 -1      3071 9.05377E-05-1.50041E-05-3.23933E-05-3.06089E-06-6.76438E-19-2.30236E-18
 -1      3072 9.17711E-05-1.69995E-05-3.20294E-05-3.05403E-06-6.48945E-19-2.10011E-18
 -1      3073 9.13839E-05-1.63929E-05-3.21254E-05-1.53535E-06-2.83561E-19-2.39312E-18
 -1      3074 9.51376E-05-2.78277E-05-2.88482E-05-1.17845E-06-5.02703E-19-2.22214E-18
 -1      3075 9.49982E-05-2.77012E-05-2.88428E-05-1.08120E-06 1.78056E-19 2.78498E-19
 -1      3076 9.48988E-05-2.75503E-05-2.88608E-05-1.21731E-06 6.42092E-19 1.05307E-18
 -1      3077 9.51607E-05-2.77903E-05-2.88692E-05-1.31798E-06-2.43567E-19-1.99546E-18
 -1      3078 9.42883E-05-2.17539E-05-3.11078E-05 4.81338E-06 1.35161E-18-1.71669E-18
 -1      3079 9.38147E-05-2.07875E-05-3.13003E-05 4.46881E-06 1.27017E-18-1.77146E-18
 -1      3080 9.34886E-05-1.97712E-05-3.15895E-05-6.11263E-06-1.61014E-18-1.50270E-18
 -1      3081 9.56728E-05-2.66414E-05-2.95717E-05-3.70619E-07-8.33549E-19-7.43243E-19
 -1      3082 9.56556E-05-2.70496E-05-2.94089E-05 2.29509E-07-7.22936E-19-6.60265E-19
 -1      3083 9.56781E-05-2.73810E-05-2.92605E-05 6.95137E-07-7.46639E-19-6.81935E-19
 -1      3084 9.56498E-05-2.76177E-05-2.91590E-05 1.11108E-06-8.00313E-19-7.81473E-19
 -1      3085 9.58229E-05-2.69529E-05-2.95187E-05 3.37823E-07-7.11512E-19-9.87051E-19
 -1      3086 9.56125E-05-2.77880E-05-2.90617E-05 1.44635E-06-7.53501E-19-7.96702E-19
 -1      3087 9.55912E-05-2.79078E-05-2.90066E-05 1.74681E-06-7.23709E-19-8.78229E-19
 -1      3088 9.58128E-05-2.75384E-05-2.92639E-05 1.17403E-06-9.01311E-19-8.55343E-19
 -1      3089 9.55190E-05-2.79652E-05-2.89491E-05 2.00364E-06-5.96718E-19-9.09999E-19
 -1      3090 9.55098E-05-2.80023E-05-2.89291E-05 2.24351E-06-4.81790E-19-6.23700E-19
 -1      3091 9.57092E-05-2.78172E-05-2.90996E-05 1.79502E-06-7.06841E-19-1.10667E-18
 -1      3092 9.54148E-05-2.79778E-05-2.89017E-05 2.46563E-06-3.80732E-19-4.58886E-19
 -1      3093 9.54178E-05-2.79550E-05-2.89083E-05 2.68724E-06-3.87103E-19-3.88877E-19
 -1      3094 9.55478E-05-2.78741E-05-2.90053E-05 2.29651E-06-2.78762E-19-7.49346E-19
 -1      3095 9.53052E-05-2.78700E-05-2.89032E-05 2.90961E-06-5.02950E-19-3.15324E-19
 -1      3096 9.53198E-05-2.78046E-05-2.89295E-05 3.14489E-06-3.04407E-19-1.01959E-19
 -1      3097 9.53453E-05-2.77674E-05-2.89634E-05 2.75771E-06-2.70967E-19-5.74079E-19
 -1      3098 9.51915E-05-2.76756E-05-2.89396E-05 3.39464E-06-5.25588E-19-1.82183E-19
 -1      3099 9.52184E-05-2.75827E-05-2.89801E-05 3.66675E-06-7.56027E-19-4.15364E-19
 -1      3100 9.51086E-05-2.75401E-05-2.89585E-05 3.24134E-06-6.36710E-19-5.18939E-19
 -1      3101 9.50758E-05-2.74254E-05-2.89987E-05 3.96415E-06-7.83740E-19-3.52490E-19
 -1      3102 9.51182E-05-2.73222E-05-2.90479E-05 4.28830E-06-5.29385E-19-4.81138E-19
 -1      3103 9.48413E-05-2.72290E-05-2.89764E-05 3.79537E-06-8.05886E-19-3.27509E-19
 -1      3104 9.49654E-05-2.71555E-05-2.90681E-05 4.64749E-06-4.75083E-19-6.74128E-19
 -1      3105 9.50317E-05-2.70647E-05-2.91202E-05 5.03081E-06-3.82458E-19-6.73062E-19
 -1      3106 9.45485E-05-2.68729E-05-2.90028E-05 4.45480E-06-5.13204E-19-1.96756E-19
 -1      3107 9.48790E-05-2.69158E-05-2.91343E-05 5.46013E-06-5.19238E-19-8.22842E-19
 -1      3108 9.49865E-05-2.68713E-05-2.91828E-05 5.90058E-06-5.20104E-19-1.01033E-18
 -1      3109 9.42440E-05-2.65223E-05-2.90223E-05 5.24320E-06-5.94618E-19-7.51183E-19
 -1      3110 9.48570E-05-2.67815E-05-2.91819E-05 6.40241E-06-4.66949E-19-9.63874E-19
 -1      3111 9.50380E-05-2.68347E-05-2.92192E-05 6.88667E-06-5.02718E-19-1.09419E-18
 -1      3112 9.39593E-05-2.62502E-05-2.90174E-05 6.17360E-06-7.68527E-19-5.18232E-19
 -1      3113 9.49762E-05-2.68680E-05-2.91939E-05 7.45672E-06-4.64348E-19-9.23721E-19
 -1      3114 9.52877E-05-2.70963E-05-2.92122E-05 7.95658E-06-2.87769E-19-6.65986E-19
 -1      3115 9.37586E-05-2.61679E-05-2.89689E-05 7.24914E-06-2.79736E-19-4.72876E-19
 -1      3116 9.53740E-05-2.73482E-05-2.91539E-05 8.58128E-06-3.87762E-20-6.73038E-19
 -1      3117 9.59095E-05-2.78629E-05-2.91474E-05 9.04722E-06 2.92093E-19-4.58757E-19
 -1      3118 9.37611E-05-2.64427E-05-2.88574E-05 8.46244E-06 6.45380E-20-4.28663E-19
 -1      3119 9.62797E-05-2.84688E-05-2.90524E-05 9.69512E-06 5.27540E-19-1.31120E-19
 -1      3120 9.71802E-05-2.94162E-05-2.90232E-05 1.00438E-05 7.34445E-19-8.44927E-20
 -1      3121 9.41740E-05-2.73197E-05-2.86690E-05 9.78878E-06 6.53902E-19-2.94748E-19
 -1      3122 9.80481E-05-3.05490E-05-2.89013E-05 1.06423E-05 8.56305E-19 2.08513E-19
 -1      3123 9.94975E-05-3.20897E-05-2.88705E-05 1.07348E-05 6.96488E-19 1.84874E-19
 -1      3124 9.53355E-05-2.91352E-05-2.84072E-05 1.11604E-05 1.05780E-18 2.08622E-19
 -1      3125 1.01169E-04-3.39265E-05-2.87634E-05 1.11073E-05 5.04110E-19 1.45684E-19
 -1      3126 1.03341E-04-3.61408E-05-2.87877E-05 1.07089E-05 7.96486E-19 8.63626E-20
 -1      3127 9.77605E-05-3.23026E-05-2.81201E-05 1.23909E-05 7.31836E-19-3.44736E-19
 -1      3128 1.06159E-04-3.87426E-05-2.87929E-05 1.05181E-05 7.49515E-19 7.42775E-20
 -1      3129 1.09129E-04-4.15060E-05-2.89896E-05 9.28068E-06 1.31814E-18-3.82888E-19
 -1      3130 1.02106E-04-3.71523E-05-2.79477E-05 1.30229E-05 6.58519E-19 5.31182E-20
 -1      3131 1.13269E-04-4.45058E-05-2.93211E-05 7.81940E-06 1.66869E-18-2.64549E-19
 -1      3132 1.16627E-04-4.68841E-05-2.99066E-05 5.40578E-06 1.59154E-18-6.74172E-19
 -1      3133 1.08901E-04-4.35654E-05-2.81941E-05 1.20151E-05 1.29674E-18-5.03283E-19
 -1      3134 1.21856E-04-4.92210E-05-3.09660E-05 1.74558E-06 1.36380E-18-2.85755E-19
 -1      3135 1.24311E-04-4.93094E-05-3.21884E-05-2.09314E-06 7.19131E-19 1.37451E-19
 -1      3136 1.18641E-04-5.00114E-05-2.96436E-05 7.68450E-06 1.57511E-18-9.39942E-19
 -1      3137 1.29951E-04-4.96229E-05-3.45603E-05-5.18547E-06 7.96211E-19 5.93797E-19
 -1      3138 1.30238E-04-4.45017E-05-3.69061E-05-8.91494E-06 3.10808E-19 6.48510E-19
 -1      3139 1.24583E-04-3.08693E-05-4.05992E-05-1.47832E-05-1.96877E-18 1.68284E-18
 -1      3140 1.22616E-04-2.33750E-05-4.28514E-05-1.38257E-05-2.95149E-18 9.74300E-19
 -1      3141 1.18122E-04-1.31075E-05-4.54604E-05 1.93256E-06-3.86088E-18-1.37631E-18
 -1      3142 1.19219E-04-1.60790E-05-4.46999E-05 8.04404E-06-2.99956E-18-1.64843E-18
 -1      3143 1.22172E-04-2.12683E-05-4.35510E-05 1.30709E-05-2.30192E-18-2.19032E-18
 -1      3144 1.24545E-04-2.90161E-05-4.14465E-05 1.44691E-05-1.35186E-18-2.51897E-18
 -1      3145 1.28054E-04-3.79963E-05-3.87896E-05 1.35820E-05-2.99320E-19-2.40094E-18
 -1      3146 1.28641E-04-4.42934E-05-3.66192E-05 1.02095E-05 9.29089E-21-2.71257E-18
 -1      3147 1.25494E-04-4.87614E-05-3.28393E-05 3.72140E-06 1.23224E-18-2.11605E-18
 -1      3148 1.22907E-04-4.95063E-05-3.13571E-05-7.30416E-07 1.00521E-18-5.36437E-19
 -1      3149 1.17817E-04-4.74893E-05-3.01534E-05-4.39186E-06 2.05842E-19-1.58749E-19
 -1      3150 1.14440E-04-4.53406E-05-2.94822E-05-7.18586E-06 2.38061E-19-8.10885E-20
 -1      3151 1.19817E-04-5.03125E-05-2.98314E-05-6.94019E-06 9.10468E-19-1.70345E-18
 -1      3152 1.10061E-04-4.22192E-05-2.90781E-05-8.82307E-06 7.09456E-20 3.91267E-19
 -1      3153 1.07018E-04-3.94615E-05-2.88444E-05-1.02116E-05-7.94442E-19 4.85861E-19
 -1      3154 1.10111E-04-4.43544E-05-2.83110E-05-1.17444E-05 3.19546E-19-1.40120E-18
 -1      3155 1.04005E-04-3.67463E-05-2.88132E-05-1.05237E-05-7.83788E-19 2.33654E-18
 -1      3156 1.01720E-04-3.44251E-05-2.87787E-05-1.09934E-05 3.49142E-19 2.41682E-18
 -1      3157 1.02869E-04-3.78686E-05-2.79637E-05-1.29488E-05 7.52601E-19 1.96935E-19
 -1      3158 9.99091E-05-3.24710E-05-2.88833E-05-1.06462E-05-6.64051E-19 2.83146E-18
 -1      3159 9.83705E-05-3.08304E-05-2.89157E-05-1.05806E-05-9.42353E-19 1.75561E-18
 -1      3160 9.81895E-05-3.27531E-05-2.81134E-05-1.23995E-05-2.24333E-19 1.79571E-18
 -1      3161 9.74057E-05-2.95977E-05-2.90425E-05-9.97259E-06-7.17689E-19 1.54861E-18
 -1      3162 9.64443E-05-2.85678E-05-2.90784E-05-9.61912E-06-7.61265E-19 1.23315E-18
 -1      3163 9.55338E-05-2.93495E-05-2.84041E-05-1.11656E-05-1.19205E-18 1.66071E-18
 -1      3164 9.60113E-05-2.78852E-05-2.91816E-05-8.94014E-06-5.59667E-19 1.05462E-18
 -1      3165 9.54381E-05-2.73082E-05-2.91969E-05-8.44815E-06-2.06001E-19 3.29218E-19
 -1      3166 9.42179E-05-2.73428E-05-2.86798E-05-9.73892E-06-9.99103E-19 1.68492E-18
 -1      3167 9.53099E-05-2.69987E-05-2.92638E-05-7.77937E-06-3.12512E-20 9.28489E-20
 -1      3168 9.49769E-05-2.67246E-05-2.92546E-05-7.23761E-06-4.94398E-19 7.19050E-19
 -1      3169 9.37046E-05-2.63224E-05-2.88855E-05-8.33052E-06-2.20475E-19-1.88032E-20
 -1      3170 9.50079E-05-2.66472E-05-2.92872E-05-6.61373E-06-8.51786E-19 1.52367E-18
 -1      3171 9.48155E-05-2.65605E-05-2.92580E-05-6.07524E-06-6.58626E-19 5.81300E-19
 -1      3172 9.36322E-05-2.59389E-05-2.90129E-05-7.01658E-06-1.71755E-19 8.93332E-19
 -1      3173 9.49183E-05-2.66155E-05-2.92639E-05-5.51184E-06-9.26087E-20 5.97048E-19
 -1      3174 9.48049E-05-2.66355E-05-2.92220E-05-5.00786E-06-1.46924E-19 6.21120E-21
 -1      3175 9.37774E-05-2.59373E-05-2.90731E-05-5.82555E-06-4.05659E-19 2.09782E-18
 -1      3176 9.49303E-05-2.67567E-05-2.92097E-05-4.51147E-06-5.87953E-19-3.08210E-19
 -1      3177 9.48600E-05-2.68308E-05-2.91618E-05-4.05892E-06 1.43650E-19 1.61075E-19
 -1      3178 9.40099E-05-2.61434E-05-2.90835E-05-4.76827E-06-2.13587E-19-1.31171E-19
 -1      3179 9.49821E-05-2.69763E-05-2.91387E-05-3.63076E-06 1.13893E-18 9.82793E-19
 -1      3180 9.49347E-05-2.70713E-05-2.90901E-05-3.23669E-06 1.82074E-18 1.20776E-18
 -1      3181 9.42583E-05-2.64441E-05-2.90610E-05-3.84729E-06 1.36956E-18 1.60063E-18
 -1      3182 9.50411E-05-2.72160E-05-2.90622E-05-2.87407E-06 1.53834E-18 7.77097E-19
 -1      3183 9.50055E-05-2.73119E-05-2.90165E-05-2.53876E-06 9.15127E-19-1.64526E-19
 -1      3184 9.44862E-05-2.67690E-05-2.90197E-05-3.05910E-06 1.49923E-18 9.09179E-19
 -1      3185 9.50907E-05-2.74411E-05-2.89879E-05-2.23689E-06 1.11501E-18-2.07462E-19
 -1      3186 9.50627E-05-2.75265E-05-2.89476E-05-1.95591E-06 1.33810E-18-1.47481E-19
 -1      3187 9.46778E-05-2.70760E-05-2.89704E-05-2.39588E-06 8.66687E-19-9.45958E-19
 -1      3188 9.51401E-05-2.76379E-05-2.89253E-05-1.73748E-06 5.39583E-19-5.44934E-19
 -1      3189 9.51129E-05-2.77060E-05-2.88907E-05-1.50105E-06 2.06376E-19-6.72429E-19
 -1      3190 9.49653E-05-2.75730E-05-2.88843E-05-1.46878E-06-8.44022E-19-1.39516E-18
 -1      3191 9.48423E-05-2.73502E-05-2.89251E-05-1.87626E-06 3.57387E-19-2.53668E-19
 -1      3192 9.53995E-05-2.79927E-05-2.88824E-05-3.03741E-06 5.06133E-19-8.74314E-19
 -1      3193 9.53206E-05-2.80229E-05-2.88435E-05-2.82058E-06 6.73234E-19-9.72824E-19
 -1      3194 9.53779E-05-2.80776E-05-2.88380E-05-2.60739E-06 6.20267E-19-9.07154E-19
 -1      3195 9.53230E-05-2.80739E-05-2.88204E-05-2.40085E-06 5.59644E-19-7.13123E-19
 -1      3196 9.53871E-05-2.79313E-05-2.89122E-05-2.73219E-06 6.65605E-19-4.06001E-19
 -1      3197 9.55137E-05-2.76832E-05-2.90619E-05-4.10633E-06 1.09517E-19-3.79175E-19
 -1      3198 9.53832E-05-2.77396E-05-2.89948E-05-3.80677E-06 2.59321E-19-7.26210E-19
 -1      3199 9.56232E-05-2.75232E-05-2.91766E-05-4.80087E-06 8.04537E-20-7.67609E-20
 -1      3200 9.54574E-05-2.75656E-05-2.91020E-05-4.44606E-06 9.27648E-20-1.62573E-19
 -1      3201 9.50428E-05-2.72896E-05-2.90376E-05-4.36311E-06-4.76294E-20-5.28404E-19
 -1      3202 9.57973E-05-2.74244E-05-2.92929E-05-5.61088E-06-1.32434E-19-1.26132E-19
 -1      3203 9.55811E-05-2.74237E-05-2.92160E-05-5.20498E-06 9.73894E-20-4.65501E-21
 -1      3204 9.49445E-05-2.70408E-05-2.91020E-05-5.11598E-06 7.09782E-21-4.93520E-19
 -1      3205 9.60847E-05-2.74666E-05-2.93974E-05-6.51611E-06 2.30932E-19-7.24727E-19
 -1      3206 9.57915E-05-2.73793E-05-2.93244E-05-6.07693E-06-8.22044E-21-5.98506E-19
 -1      3207 9.48939E-05-2.68690E-05-2.91547E-05-5.99581E-06 2.20202E-19-1.05908E-18
 -1      3208 9.65708E-05-2.77702E-05-2.94752E-05-7.46693E-06-1.74762E-19-3.89501E-19
 -1      3209 9.61562E-05-2.75315E-05-2.94131E-05-7.03067E-06-1.73201E-20-4.33714E-19
 -1      3210 9.49518E-05-2.68741E-05-2.91795E-05-6.99094E-06-8.79810E-22-9.08932E-19
 -1      3211 9.73985E-05-2.85095E-05-2.95130E-05-8.37269E-06-2.35802E-19-2.61685E-19
 -1      3212 9.67919E-05-2.80279E-05-2.94677E-05-8.00104E-06-1.27893E-19-2.84774E-19
 -1      3213 9.52272E-05-2.72056E-05-2.91603E-05-8.06743E-06-1.76379E-19-1.05846E-18
 -1      3214 9.87877E-05-2.99162E-05-2.95066E-05-9.08174E-06-2.03928E-19 2.56247E-19
 -1      3215 9.78869E-05-2.90750E-05-2.94791E-05-8.87237E-06-1.81923E-19-6.62833E-20
 -1      3216 9.59039E-05-2.80784E-05-2.90855E-05-9.15826E-06-3.81810E-19-7.39520E-19
 -1      3217 1.01042E-04-3.22515E-05-2.94762E-05-9.34636E-06-3.00928E-19 5.20997E-19
 -1      3218 9.97213E-05-3.09320E-05-2.94540E-05-9.44761E-06-1.43192E-19 6.17534E-19
 -1      3219 9.72710E-05-2.97783E-05-2.89586E-05-1.01377E-05-6.28726E-19 2.91484E-19
 -1      3220 1.04497E-04-3.56953E-05-2.94934E-05-8.76919E-06-6.25898E-19 1.90316E-19
 -1      3221 1.02655E-04-3.38504E-05-2.94375E-05-9.39380E-06-4.45517E-19 6.40102E-19
 -1      3222 9.97399E-05-3.26275E-05-2.88195E-05-1.07636E-05-2.30011E-19 6.07873E-19
 -1      3223 1.09362E-04-4.00714E-05-2.97245E-05-6.75234E-06-1.10928E-18 2.53051E-19
 -1      3224 1.07020E-04-3.78855E-05-2.95493E-05-8.16588E-06-8.55473E-19 1.80193E-19
 -1      3225 1.03800E-04-3.68466E-05-2.87829E-05-1.05629E-05-5.45168E-19 5.68051E-19
 -1      3226 1.15307E-04-4.43077E-05-3.04648E-05-2.68900E-06-7.55355E-19 8.04235E-19
 -1      3227 1.12796E-04-4.24834E-05-3.00310E-05-5.04710E-06-1.00556E-18 3.79077E-19
 -1      3228 1.09659E-04-4.21290E-05-2.90999E-05-8.65292E-06-9.39800E-19 2.25963E-19
 -1      3229 1.20887E-04-4.61394E-05-3.20694E-05 3.99419E-06-1.20876E-18 1.59318E-18
 -1      3230 1.19342E-04-4.61076E-05-3.12757E-05 7.66024E-07-9.97446E-19 1.43875E-18
 -1      3231 1.17494E-04-4.72563E-05-3.02897E-05-3.91278E-06-1.15185E-18 9.28613E-19
 -1      3232 1.25597E-04-4.20058E-05-3.59032E-05 1.10266E-05 3.41698E-19 1.51057E-18
 -1      3233 1.25852E-04-4.62189E-05-3.42451E-05 7.84496E-06-5.82097E-19 1.60000E-18
 -1      3234 1.20529E-04-2.74112E-05-4.00888E-05 1.43029E-05 8.96161E-19 1.25975E-18
 -1      3235 1.22919E-04-3.42158E-05-3.84649E-05 1.43806E-05 9.41848E-19 1.59512E-18
 -1      3236 1.14833E-04-1.59785E-05-4.27101E-05 5.71678E-06 2.17042E-18-2.26820E-19
 -1      3237 1.16575E-04-2.00292E-05-4.18142E-05 1.03982E-05 1.49163E-18 3.42294E-19
 -1      3238 1.14914E-04-1.71040E-05-4.24684E-05-7.23037E-06 1.86691E-18-1.02031E-18
 -1      3239 1.14077E-04-1.50499E-05-4.27499E-05-1.08852E-06 1.65733E-18-6.41051E-19
 -1      3240 1.21960E-04-3.05417E-05-3.96957E-05-1.48556E-05 5.82070E-19-1.63698E-18
 -1      3241 1.19134E-04-2.37445E-05-4.11658E-05-1.21884E-05 1.48781E-18-1.33390E-18
 -1      3242 1.26030E-04-4.31581E-05-3.57103E-05-1.11776E-05 2.58239E-19-2.15003E-18
 -1      3243 1.24501E-04-3.76569E-05-3.74358E-05-1.27179E-05 4.51151E-19-2.02425E-18
 -1      3244 1.23145E-04-4.74909E-05-3.24238E-05-3.84547E-06 3.80503E-20-1.98668E-18
 -1      3245 1.24075E-04-4.56324E-05-3.37045E-05-7.08611E-06 2.22505E-19-2.36380E-18
 -1      3246 1.10020E-04-4.03711E-05-2.97604E-05 6.71490E-06-3.72471E-19-1.66934E-18
 -1      3247 1.12540E-04-4.25270E-05-3.00528E-05 4.77155E-06-6.15978E-19-1.77841E-18
 -1      3248 1.04862E-04-3.58765E-05-2.94980E-05 8.79786E-06 4.28583E-19-5.49047E-19
 -1      3249 1.06995E-04-3.79478E-05-2.96007E-05 7.78581E-06-4.72730E-19-1.35863E-18
 -1      3250 1.06739E-04-3.95107E-05-2.89080E-05 9.72311E-06-9.18212E-19-2.08360E-18
 -1      3251 1.01177E-04-3.23126E-05-2.94748E-05 9.37489E-06 5.45468E-19 6.70343E-19
 -1      3252 1.02768E-04-3.39295E-05-2.95035E-05 9.04044E-06 1.09699E-18 3.98089E-19
 -1      3253 1.01730E-04-3.46920E-05-2.88044E-05 1.06788E-05 1.87791E-19 2.97221E-19
 -1      3254 9.87923E-05-2.98823E-05-2.95134E-05 9.03723E-06 1.24238E-19 6.95835E-19
 -1      3255 9.99000E-05-3.09802E-05-2.95299E-05 9.12738E-06 3.08496E-19 6.94306E-19
 -1      3256 9.84366E-05-3.10739E-05-2.89160E-05 1.03793E-05 4.69618E-19-5.15340E-19
 -1      3257 9.73387E-05-2.84059E-05-2.95351E-05 8.23004E-06-5.86526E-19 2.31822E-18
 -1      3258 9.80829E-05-2.90772E-05-2.95640E-05 8.56254E-06-1.21464E-19 1.49014E-18
 -1      3259 9.65186E-05-2.87580E-05-2.90656E-05 9.49372E-06-4.68490E-19 9.30407E-19
 -1      3260 9.64863E-05-2.76150E-05-2.95158E-05 7.21567E-06-2.33258E-19 2.17559E-18
 -1      3261 9.69846E-05-2.79826E-05-2.95620E-05 7.66776E-06-2.10459E-19 2.40154E-18
 -1      3262 9.54994E-05-2.74430E-05-2.91795E-05 8.37231E-06-7.62246E-19 1.97753E-18
 -1      3263 9.59974E-05-2.72714E-05-2.94571E-05 6.14851E-06-1.35224E-18 1.79793E-18
 -1      3264 9.63375E-05-2.74414E-05-2.95170E-05 6.64064E-06-7.90015E-19 2.32007E-18
 -1      3265 9.50215E-05-2.68137E-05-2.92373E-05 7.19342E-06-7.69351E-19 1.91663E-18
 -1      3266 9.57181E-05-2.71971E-05-2.93708E-05 5.11875E-06 1.93135E-19-6.96386E-19
 -1      3267 9.59580E-05-2.72477E-05-2.94380E-05 5.60167E-06-4.86346E-19 8.19886E-19
 -1      3268 9.48459E-05-2.66162E-05-2.92431E-05 6.05119E-06-4.48042E-19 8.89870E-19
 -1      3269 9.55554E-05-2.72702E-05-2.92701E-05 4.17636E-06 3.72893E-19-1.14900E-18
 -1      3270 9.57310E-05-2.72546E-05-2.93384E-05 4.62186E-06 1.67002E-19-1.47608E-18
 -1      3271 9.48251E-05-2.66685E-05-2.92102E-05 4.99646E-06 6.52452E-19-2.06171E-18
 -1      3272 9.54555E-05-2.74122E-05-2.91661E-05 3.34520E-06 8.22978E-19-8.86471E-19
 -1      3273 9.55885E-05-2.73648E-05-2.92310E-05 3.73946E-06 1.08354E-18-1.19798E-18
 -1      3274 9.48735E-05-2.68488E-05-2.91531E-05 4.05514E-06 5.31221E-19-3.55969E-18
 -1      3275 9.53879E-05-2.75746E-05-2.90670E-05 2.63169E-06-4.05160E-19-1.24251E-18
 -1      3276 9.54918E-05-2.75166E-05-2.91255E-05 2.97063E-06 6.67171E-19-6.76198E-19
 -1      3277 9.49440E-05-2.70797E-05-2.90843E-05 3.23723E-06 2.80785E-19-1.38846E-18
 -1      3278 9.53358E-05-2.77283E-05-2.89780E-05 2.03135E-06-6.12923E-20-1.66081E-18
 -1      3279 9.54192E-05-2.76728E-05-2.90284E-05 2.31664E-06-5.62252E-19-1.79172E-18
 -1      3280 9.50121E-05-2.73147E-05-2.90130E-05 2.54108E-06 3.59857E-19-1.72909E-18
 -1      3281 9.52909E-05-2.78551E-05-2.89019E-05 1.53440E-06-5.02555E-19-5.67211E-19
 -1      3282 9.53576E-05-2.78120E-05-2.89435E-05 1.76935E-06-7.19887E-19-1.33683E-18
 -1      3283 9.50648E-05-2.75242E-05-2.89459E-05 1.95905E-06-4.26250E-19-1.13776E-18
 -1      3284 9.52125E-05-2.78750E-05-2.88579E-05 1.25294E-06-2.74650E-19 1.47813E-18
 -1      3285 9.52831E-05-2.78798E-05-2.88834E-05 1.39988E-06 1.71349E-20 2.82437E-19
 -1      3286 9.50758E-05-2.76531E-05-2.88964E-05 1.55813E-06-1.20709E-18-8.64577E-19
 -1      3287 9.50626E-05-2.77216E-05-2.88645E-05 1.29365E-06-1.12093E-18 2.68101E-19
 -1      3288 9.23222E-05-1.81190E-05-3.18166E-05 1.74092E-06 3.82799E-19-2.38619E-18
 -1      3289 9.21969E-05-1.79090E-05-3.18500E-05 1.01188E-06 1.71069E-19-2.67073E-18
 -1      3290 9.39204E-05-2.66002E-05-2.88535E-05-1.16672E-07 5.98997E-19-4.31851E-19
 -1      3291 9.39202E-05-2.66000E-05-2.88535E-05 1.11818E-07 5.12838E-19-2.67276E-19
 -1      3292 9.46000E-05-2.72424E-05-2.88669E-05-1.25357E-06 7.13602E-19 1.23465E-18
 -1      3293 9.44302E-05-2.70858E-05-2.88667E-05-1.15404E-06 8.80419E-19-4.07579E-19
 -1      3294 9.40247E-05-2.66953E-05-2.88556E-05-5.85985E-07-3.44946E-19 2.39341E-19
 -1      3295 9.39574E-05-2.66369E-05-2.88551E-05-3.76154E-07 3.17392E-19 2.47507E-19
 -1      3296 9.37441E-05-2.64283E-05-2.88448E-05-2.73319E-07 1.37654E-18-7.53897E-19
 -1      3297 1.21938E-04-1.22052E-05-4.75235E-05-1.08700E-06-4.15650E-18 3.96650E-20
 -1      3298 1.27797E-04-1.14157E-05-5.04703E-05-3.96372E-06-4.21611E-18 1.32410E-18
 -1      3299 9.54548E-05-2.71422E-05-2.92821E-05-1.30008E-07 7.67191E-19-7.99524E-19
 -1      3300 9.55029E-05-2.67638E-05-2.94442E-05 4.98358E-07 9.30041E-19-8.30092E-19
 -1      3301 1.17703E-04-1.36367E-05-4.49904E-05-3.87412E-06-3.47707E-18-8.45114E-19
 -1      3302 1.25364E-04-1.36489E-05-4.84175E-05-7.77466E-06-4.13416E-18 5.72965E-19
 -1      3303 9.42610E-05-2.69162E-05-2.88606E-05-9.86044E-07 4.92420E-19-9.47897E-19
 -1      3304 9.41326E-05-2.68038E-05-2.88599E-05-8.15966E-07-3.40897E-19 3.23814E-19
 -1      3305 9.39068E-05-2.65746E-05-2.88523E-05-7.85535E-07-2.05966E-19 1.73248E-19
 -1      3306 9.42108E-05-2.68524E-05-2.88655E-05-1.20172E-06 8.71330E-19-4.03777E-19
 -1      3307 5.75067E-05-2.25549E-05-1.43342E-05-2.67844E-05 1.46791E-18 2.52638E-18
 -1      3308 7.24572E-05-3.18029E-05-1.73095E-05-3.16662E-05 1.66050E-18 1.77962E-18
 -1      3309 9.54432E-05-2.78518E-05-2.89604E-05-3.52515E-06 3.89306E-19-8.19524E-19
 -1      3310 9.53401E-05-2.79024E-05-2.89053E-05-3.27449E-06 4.21772E-19-7.46762E-19
 -1      3311 9.52742E-05-2.77749E-05-2.89300E-05-3.19936E-06 4.13102E-19-6.61179E-19
 -1      3312 9.51575E-05-2.75494E-05-2.89759E-05-3.73129E-06 3.09819E-19-5.78772E-19
 -1      3313 9.54292E-05-2.76757E-05-2.90388E-05-1.04938E-06 7.95767E-19-7.64821E-19
 -1      3314 9.54614E-05-2.74534E-05-2.91344E-05-6.26672E-07 8.23627E-19-6.12091E-19
 -1      3315 9.56781E-05-2.70443E-05-2.94198E-05-2.40562E-07 8.20055E-19-7.41294E-19
 -1      3316 1.07479E-04-5.15856E-05-2.35721E-05-2.77323E-05-1.99354E-18 3.90793E-20
 -1      3317 1.19168E-04-5.52862E-05-2.75889E-05-1.78626E-05-1.62417E-18 1.19008E-19
 -1      3318 8.19566E-05-3.71555E-05-1.87121E-05-3.24628E-05-1.62689E-18-1.24990E-18
 -1      3319 9.52674E-05-4.57635E-05-2.12824E-05-3.22667E-05-1.90011E-18-5.85353E-19
 -1      3320 1.02363E-04-4.64364E-05-2.36852E-05-2.54808E-05-1.87205E-18-1.74790E-19
 -1      3321 9.52276E-05-2.41949E-05-3.04436E-05 4.11467E-06 1.51200E-18-1.44277E-18
 -1      3322 9.46572E-05-2.26464E-05-3.08517E-05 4.62063E-06 1.42692E-18-1.56771E-18
 -1      3323 9.49390E-05-2.34679E-05-3.06276E-05 3.49647E-06 1.19340E-18-1.53846E-18
 -1      3324 9.52585E-05-2.51022E-05-3.00806E-05 2.80514E-06 1.43164E-18-1.34064E-18
 -1      3325 9.54947E-05-2.54003E-05-3.00283E-05-1.88530E-06-1.06173E-18-1.04272E-18
 -1      3326 9.55416E-05-2.60690E-05-2.97849E-05-1.01997E-06-9.43117E-19-1.02757E-18
 -1      3327 9.56713E-05-2.59338E-05-2.98885E-05-8.18579E-07-7.11215E-19-1.06312E-18
 -1      3328 1.20316E-04-5.51877E-05-2.82029E-05 1.60310E-05-6.03193E-19-2.46928E-18
 -1      3329 1.11852E-04-5.17825E-05-2.53577E-05 2.26025E-05-1.38019E-18-9.33447E-19
 -1      3330 1.17779E-04-5.54057E-05-2.65244E-05-2.04702E-05 1.42802E-18-1.21208E-18
 -1      3331 1.27283E-04-5.68511E-05-3.02928E-05-1.07226E-05 1.28929E-18-1.22952E-18
 -1      3332 1.19318E-04-1.77416E-05-4.39972E-05-9.57504E-06-3.12936E-18 1.32508E-19
 -1      3333 1.25390E-04-5.36320E-05-3.04957E-05-6.11077E-06-1.29802E-18 8.95076E-19
 -1      3334 1.26347E-04-4.97142E-05-3.30830E-05 2.37361E-06-7.52774E-19 1.16317E-18
 -1      3335 4.93972E-05-1.60224E-05-1.40538E-05 1.76854E-05-8.19266E-19 1.58501E-18
 -1      3336 4.44044E-05-1.25345E-05-1.33027E-05 6.43055E-06-1.43254E-19 1.92975E-18
 -1      3337 1.28988E-04-5.05342E-05-3.35994E-05 2.80217E-06 9.66147E-19-2.12153E-18
 -1      3338 5.17460E-05-1.85586E-05-1.39935E-05 2.16048E-05 9.11752E-19-1.20183E-18
 -1      3339 4.50674E-05-1.40529E-05-1.27303E-05 1.32269E-05 1.15837E-18-1.70825E-18
 -1      3340 9.90286E-05-4.67919E-05-2.26018E-05 2.93224E-05-1.54647E-18 5.68359E-19
 -1      3341 8.51839E-05-3.83272E-05-1.95719E-05 3.16179E-05-1.88700E-18 2.15543E-18
 -1      3342 7.03348E-05-3.03586E-05-1.71725E-05 3.11912E-05-1.25382E-18 9.71811E-19
 -1      3343 5.79054E-05-2.19145E-05-1.49797E-05 2.53573E-05-8.33348E-19 8.52645E-19
 -1      3344 9.09916E-05-4.24958E-05-2.05135E-05-3.14607E-05 6.63809E-19 1.31065E-18
 -1      3345 1.05883E-04-5.09911E-05-2.36336E-05-2.83563E-05 1.09733E-18-5.16637E-19
 -1      3346 1.29388E-04-5.36580E-05-3.27474E-05 2.62094E-06 9.20956E-19 4.88963E-20
 -1      3347 1.24759E-04-5.58074E-05-2.92310E-05 1.21232E-05 1.52747E-18-2.78568E-19
 -1      3348 1.24823E-04-1.85542E-05-4.60206E-05-1.03136E-05-3.67866E-18 8.18499E-19
 -1      3349 9.21327E-05-1.78028E-05-3.18690E-05 3.94368E-07 1.56722E-20-2.63183E-18
 -1      3350 9.21291E-05-1.77980E-05-3.18695E-05-3.46972E-07-9.46036E-20-2.52105E-18
 -1      3351 9.30567E-05-1.93398E-05-3.15745E-05 5.93068E-07 5.96293E-20-2.48113E-18
 -1      3352 9.40509E-05-2.13162E-05-3.11789E-05-4.85429E-06-1.49751E-18-1.44969E-18
 -1      3353 4.65436E-05-1.22328E-05-1.42771E-05 4.26118E-07-1.02547E-19 1.78629E-18
 -1      3354 5.04577E-05-1.32524E-05-1.58799E-05-6.59487E-06 2.29811E-19 2.31431E-18
 -1      3355 5.38467E-05-1.34191E-05-1.70902E-05 4.54565E-06-4.34912E-19 1.31407E-18
 -1      3356 1.05132E-04-4.69427E-05-2.47788E-05 2.29678E-05-1.03513E-18-1.41263E-19
 -1      3357 9.30253E-05-1.93336E-05-3.15918E-05-3.47880E-06-9.01377E-19-1.74178E-18
 -1      3358 9.34031E-05-2.00159E-05-3.14753E-05-4.08198E-06-1.20019E-18-1.74223E-18
 -1      3359 9.44320E-05-2.70885E-05-2.88662E-05 1.15333E-06-4.74336E-19-3.48285E-18
 -1      3360 9.46023E-05-2.72433E-05-2.88665E-05 1.25319E-06-6.27872E-19-2.43124E-18
 -1      3361 9.50347E-05-2.36082E-05-3.06126E-05-3.72887E-06-1.36964E-18-1.20588E-18
 -1      3362 9.51990E-05-2.45424E-05-3.02970E-05-2.65212E-06-1.22807E-18-1.16708E-18
 -1      3363 9.52607E-05-2.43686E-05-3.03772E-05-2.28536E-06-1.10109E-18-1.26163E-18
 -1      3364 1.29519E-04-3.68678E-05-4.01736E-05-1.39204E-05-9.44706E-19 9.14584E-19
 -1      3365 1.18173E-04-5.10250E-05-2.87391E-05-1.09052E-05-1.43022E-18 5.01913E-19
 -1      3366 4.81603E-05-1.34383E-05-1.44734E-05 6.08225E-06 5.33273E-19-1.79973E-18
 -1      3367 5.70142E-05-1.96933E-05-1.55824E-05-2.09549E-05 1.07367E-18 2.08349E-18
 -1      3368 9.54933E-05-2.79851E-05-2.89356E-05-2.27957E-06 6.40138E-19-3.44416E-19
 -1      3369 9.53770E-05-2.80784E-05-2.88389E-05-2.18316E-06 5.29700E-19-5.57930E-19
 -1      3370 9.53484E-05-2.80258E-05-2.88490E-05-1.95394E-06 6.30665E-19-5.05225E-19
 -1      3371 8.05631E-05-3.31358E-05-2.00368E-05 2.79970E-05-1.31131E-18 1.35239E-18
 -1      3372 1.16449E-04-4.47446E-05-3.06011E-05 2.12690E-06-6.29873E-19-1.83405E-18
 -1      3373 1.18592E-04-4.57911E-05-3.12370E-05-7.84393E-07 1.66832E-19-1.83683E-18
 -1      3374 9.25086E-05-1.84318E-05-3.17586E-05 2.32440E-06 4.75898E-19-2.20464E-18
 -1      3375 9.32863E-05-1.97542E-05-3.14957E-05 1.69952E-06 3.99490E-19-2.18197E-18
 -1      3376 9.27550E-05-1.88584E-05-3.16881E-05 3.01040E-06 7.15162E-19-2.12273E-18
 -1      3377 9.41346E-05-2.68064E-05-2.88597E-05 8.17584E-07-3.35219E-19 1.55746E-19
 -1      3378 9.42633E-05-2.69191E-05-2.88602E-05 9.87001E-07-2.45691E-19-1.27231E-18
 -1      3379 9.42147E-05-2.68573E-05-2.88650E-05 1.20134E-06-9.24006E-19-2.53221E-18
 -1      3380 8.99064E-05-4.24481E-05-1.99367E-05 3.27543E-05 1.69777E-18-1.28508E-18
 -1      3381 8.28410E-05-3.67694E-05-1.95866E-05 3.09065E-05 1.48998E-18-9.10296E-19
 -1      3382 9.89404E-05-4.65306E-05-2.23074E-05 2.88825E-05 2.11224E-18-1.32709E-18
 -1      3383 9.43281E-05-2.18202E-05-3.10542E-05 3.45333E-06 1.02661E-18-1.60349E-18
 -1      3384 9.34268E-05-2.00646E-05-3.14650E-05 4.09665E-06 1.06435E-18-1.85555E-18
 -1      3385 9.30556E-05-1.93841E-05-3.15832E-05 3.51358E-06 7.76377E-19-1.94815E-18
 -1      3386 7.69687E-05-3.00966E-05-2.00068E-05-2.67004E-05 1.26226E-18 1.80556E-18
 -1      3387 8.40743E-05-3.67410E-05-1.99639E-05-3.04858E-05 1.31894E-18 1.43000E-18
 -1      3388 9.34882E-05-4.00644E-05-2.27812E-05-2.58863E-05 6.29805E-19 6.86573E-19
 -1      3389 9.39575E-05-2.66376E-05-2.88549E-05 3.75123E-07-7.32253E-20-1.53675E-19
 -1      3390 9.40262E-05-2.66973E-05-2.88554E-05 5.88463E-07-4.69114E-19-3.59428E-19
 -1      3391 9.39085E-05-2.65773E-05-2.88520E-05 7.87363E-07-6.98901E-19-5.97189E-19
 -1      3392 9.37441E-05-2.64289E-05-2.88447E-05 2.72399E-07 3.43527E-19-7.66261E-20
 -1      3393 1.22465E-04-5.01095E-05-3.11892E-05 2.03693E-06 2.03470E-19-2.93015E-18
 -1      3394 9.27276E-05-1.88159E-05-3.16944E-05-2.96901E-06-6.83147E-19-1.88589E-18
 -1      3395 9.36906E-05-2.05365E-05-3.13372E-05-2.64878E-06-7.35134E-19-1.59565E-18
 -1      3396 9.24867E-05-1.83986E-05-3.17632E-05-2.27403E-06-4.71654E-19-1.99951E-18
 -1      3397 1.13844E-04-4.52141E-05-2.95688E-05 6.71963E-06-8.25784E-19-3.33367E-18
 -1      3398 5.04342E-05-1.57842E-05-1.43459E-05-1.65381E-05-6.91126E-19-2.98801E-18
 -1      3399 5.81950E-05-1.91994E-05-1.64784E-05-1.95718E-05-7.48010E-19-2.20832E-18
 -1      3400 5.07643E-05-1.40171E-05-1.54729E-05-9.91880E-06-5.90382E-19-2.84725E-18
 -1      3401 9.48321E-05-2.74569E-05-2.88769E-05-1.41183E-06-5.85521E-19 2.04463E-19
 -1      3402 9.47080E-05-2.73441E-05-2.88727E-05-1.33807E-06 3.94462E-19 1.89419E-18
 -1      3403 9.45231E-05-2.71302E-05-2.88803E-05-1.45338E-06-5.06053E-19 1.19307E-18
 -1      3404 9.47819E-05-2.73497E-05-2.88964E-05-1.60119E-06-6.35507E-19 4.17241E-19
 -1      3405 5.95690E-05-1.91514E-05-1.69446E-05 1.89254E-05-5.32294E-19 1.54742E-18
 -1      3406 9.53960E-05-2.79609E-05-2.88995E-05-1.69446E-06 5.86663E-19-5.90147E-19
 -1      3407 9.53971E-05-2.78391E-05-2.89461E-05-1.39816E-06 7.00111E-19-7.26501E-19
 -1      3408 9.56599E-05-2.76110E-05-2.91689E-05-1.13004E-06 7.17762E-19-6.98119E-19
 -1      3409 9.55882E-05-2.78966E-05-2.90151E-05-1.77432E-06 5.75735E-19-5.34787E-19
 -1      3410 7.63529E-05-3.17347E-05-1.88407E-05-2.87956E-05-1.22327E-18-1.36568E-18
 -1      3411 7.02296E-05-2.78152E-05-1.80966E-05 2.74965E-05 1.23998E-18-1.07044E-18
 -1      3412 6.06271E-05-2.26512E-05-1.57771E-05 2.53997E-05 8.32580E-19-5.39295E-19
 -1      3413 5.97350E-05-1.97451E-05-1.68978E-05 2.03217E-05 8.78638E-19-1.13767E-18
 -1      3414 1.12377E-04-5.12146E-05-2.59934E-05-2.03938E-05 1.22648E-18-1.07913E-18
 -1      3415 1.22934E-04-5.29988E-05-2.99094E-05 7.96042E-06-2.77086E-19-2.54083E-18
 -1      3416 9.54165E-05-2.63562E-05-2.96057E-05 1.08541E-06 1.04680E-18-1.03612E-18
 -1      3417 9.54521E-05-2.57617E-05-2.98527E-05 2.00129E-06 1.18927E-18-1.17215E-18
 -1      3418 9.53523E-05-2.50177E-05-3.01407E-05 2.38245E-06 1.16090E-18-1.24487E-18
 -1      3419 9.55871E-05-2.61999E-05-2.97428E-05 9.09119E-07 8.76018E-19-1.00027E-18
 -1      3420 9.59601E-05-2.72606E-05-2.94372E-05 8.63823E-07-7.95935E-19-1.00215E-18
 -1      3421 9.59254E-05-2.74940E-05-2.93305E-05 1.22976E-06-8.73607E-19-8.87211E-19
 -1      3422 9.58559E-05-2.76479E-05-2.92292E-05 1.51068E-06-8.33091E-19-7.67101E-19
 -1      3423 9.57850E-05-2.77406E-05-2.91621E-05 1.79272E-06-5.71327E-19-7.29104E-19
 -1      3424 9.59688E-05-2.73974E-05-2.93879E-05 1.23401E-06-7.30150E-19-6.24087E-19
 -1      3425 9.56484E-05-2.77607E-05-2.90943E-05 2.02271E-06-3.53044E-19-7.25765E-19
 -1      3426 9.55536E-05-2.77488E-05-2.90575E-05 2.26372E-06-2.62255E-19-6.94386E-19
 -1      3427 9.57659E-05-2.76061E-05-2.92115E-05 1.75951E-06-4.43578E-19-4.70499E-19
 -1      3428 9.53641E-05-2.76677E-05-2.90147E-05 2.47653E-06-1.60135E-19-7.62362E-19
 -1      3429 9.52509E-05-2.75774E-05-2.89999E-05 2.71140E-06-2.39151E-19-6.79406E-19
 -1      3430 9.54442E-05-2.75588E-05-2.90934E-05 2.21228E-06-3.04467E-19-9.14397E-19
 -1      3431 9.50156E-05-2.74192E-05-2.89739E-05 2.93519E-06-4.90119E-19-5.40301E-19
 -1      3432 9.48860E-05-2.72712E-05-2.89736E-05 3.19111E-06-6.99007E-19-5.17048E-19
 -1      3433 9.50245E-05-2.73159E-05-2.90168E-05 2.65336E-06-3.07613E-19-8.61407E-19
 -1      3434 9.46073E-05-2.70562E-05-2.89564E-05 3.44860E-06-9.69473E-19-1.95991E-19
 -1      3435 9.44631E-05-2.68701E-05-2.89634E-05 3.74597E-06-8.46602E-19-2.86027E-19
 -1      3436 9.45158E-05-2.69254E-05-2.89650E-05 3.13291E-06-7.17015E-19-4.67493E-19
 -1      3437 9.41421E-05-2.66181E-05-2.89465E-05 4.05537E-06-9.02252E-19-4.43408E-19
 -1      3438 9.39873E-05-2.64162E-05-2.89532E-05 4.40873E-06-6.20391E-19-5.79360E-19
 -1      3439 9.39216E-05-2.64305E-05-2.89212E-05 3.69134E-06-1.03421E-18-6.28604E-19
 -1      3440 9.36271E-05-2.61518E-05-2.89271E-05 4.78526E-06-5.14094E-19-4.39710E-19
 -1      3441 9.34721E-05-2.59645E-05-2.89249E-05 5.20411E-06-6.33624E-19-4.02071E-19
 -1      3442 9.32452E-05-2.58784E-05-2.88668E-05 4.36193E-06-5.72858E-19-4.05601E-19
 -1      3443 9.30822E-05-2.57221E-05-2.88789E-05 5.66180E-06-6.91168E-19-9.56941E-20
 -1      3444 9.29499E-05-2.55936E-05-2.88582E-05 6.15146E-06-6.43402E-19 6.18771E-20
 -1      3445 9.24980E-05-2.53293E-05-2.87810E-05 5.17461E-06-2.51864E-19-1.38396E-19
 -1      3446 9.25525E-05-2.54247E-05-2.87801E-05 6.70587E-06-4.92666E-19-1.71826E-20
 -1      3447 9.24875E-05-2.54220E-05-2.87304E-05 7.26854E-06 8.89067E-20 2.20960E-19
 -1      3448 9.17091E-05-2.48697E-05-2.86398E-05 6.16126E-06-5.03765E-19 3.46522E-19
 -1      3449 9.21277E-05-2.54034E-05-2.86070E-05 7.94075E-06-5.55268E-20 2.47215E-20
 -1      3450 9.22106E-05-2.56264E-05-2.85186E-05 8.57597E-06-1.24830E-19-3.17544E-20
 -1      3451 9.09411E-05-2.46262E-05-2.84167E-05 7.36416E-06-2.37841E-19 2.23939E-19
 -1      3452 9.19730E-05-2.58727E-05-2.83373E-05 9.39610E-06 1.53158E-19-2.46735E-19
 -1      3453 9.23407E-05-2.64679E-05-2.82048E-05 1.00971E-05 6.91904E-19-2.13869E-19
 -1      3454 9.03148E-05-2.47884E-05-2.80838E-05 8.84714E-06-1.68726E-19-1.33624E-19
 -1      3455 9.23774E-05-2.71446E-05-2.79581E-05 1.11000E-05 1.07743E-18-3.26727E-19
 -1      3456 9.32502E-05-2.83143E-05-2.77889E-05 1.18365E-05 1.18514E-18-6.54940E-19
 -1      3457 9.00521E-05-2.56392E-05-2.76175E-05 1.07020E-05 6.87775E-19-4.93884E-19
 -1      3458 9.38211E-05-2.96452E-05-2.74849E-05 1.30470E-05 9.20022E-19-4.24305E-19
 -1      3459 9.55212E-05-3.16595E-05-2.73178E-05 1.37292E-05 7.35109E-19-5.07093E-19
 -1      3460 9.05345E-05-2.75835E-05-2.70115E-05 1.30303E-05 1.11932E-18-8.36534E-19
 -1      3461 9.70850E-05-3.38814E-05-2.70128E-05 1.50049E-05 8.00173E-19-4.45258E-19
 -1      3462 9.99964E-05-3.69261E-05-2.69466E-05 1.54212E-05 9.36574E-19-5.04984E-19
 -1      3463 9.24487E-05-3.12571E-05-2.63117E-05 1.58710E-05 7.82912E-19-7.65086E-19
 -1      3464 1.03300E-04-4.04383E-05-2.67730E-05 1.63366E-05 8.72194E-19-7.46120E-19
 -1      3465 1.07954E-04-4.44835E-05-2.71014E-05 1.54771E-05 1.16998E-18-1.02618E-18
 -1      3466 9.70680E-05-3.73409E-05-2.57772E-05 1.88434E-05 8.53118E-19-1.12160E-18
 -1      3467 6.66187E-05-2.20943E-05-1.90696E-05 2.13931E-05-9.63500E-19 1.03290E-18
 -1      3468 5.98100E-05-1.67591E-05-1.82958E-05 1.39918E-05-4.08138E-19 1.27611E-18
 -1      3469 9.58289E-05-2.69954E-05-2.95062E-05-4.04132E-07 7.21754E-19-9.62509E-19
 -1      3470 9.58195E-05-2.65808E-05-2.96642E-05 1.36580E-07 7.14742E-19-1.02260E-18
 -1      3471 1.08984E-04-4.53268E-05-2.71888E-05-1.54160E-05 4.40775E-19-1.75973E-18
 -1      3472 1.04310E-04-4.14458E-05-2.67984E-05-1.63288E-05 9.65465E-19-1.04210E-18
 -1      3473 1.00715E-04-3.77389E-05-2.69291E-05-1.54432E-05 2.02416E-18-9.06104E-19
 -1      3474 9.76821E-05-3.45548E-05-2.69740E-05-1.51538E-05 2.22949E-18 5.91384E-19
 -1      3475 9.77263E-05-3.80572E-05-2.56956E-05-1.91115E-05 1.69115E-18-4.72009E-19
 -1      3476 9.59195E-05-3.21356E-05-2.72817E-05-1.38584E-05 7.64546E-19 5.58811E-19
 -1      3477 9.40865E-05-2.99936E-05-2.74481E-05-1.31913E-05-3.66843E-19 6.04814E-19
 -1      3478 9.28722E-05-3.17719E-05-2.62376E-05-1.62613E-05 1.44896E-18-2.78224E-19
 -1      3479 9.33915E-05-2.85229E-05-2.77596E-05-1.19319E-05-4.62049E-19 1.42907E-18
 -1      3480 9.24213E-05-2.72413E-05-2.79343E-05-1.11687E-05-6.83489E-19 1.80057E-18
 -1      3481 9.06041E-05-2.78114E-05-2.69512E-05-1.32577E-05 3.27813E-19 6.83296E-19
 -1      3482 9.23133E-05-2.64705E-05-2.81911E-05-1.01118E-05-1.69646E-18 1.96105E-18
 -1      3483 9.18824E-05-2.57912E-05-2.83323E-05-9.37178E-06-1.38283E-18 1.49457E-18
 -1      3484 8.99437E-05-2.56304E-05-2.75767E-05-1.08003E-05-1.08617E-18 1.34764E-18
 -1      3485 9.20702E-05-2.54729E-05-2.85238E-05-8.49730E-06-1.15815E-18 1.76387E-18
 -1      3486 9.19453E-05-2.51869E-05-2.86210E-05-7.81513E-06-4.75399E-19 8.84926E-19
 -1      3487 9.00924E-05-2.46112E-05-2.80647E-05-8.83154E-06-1.48890E-18 2.70461E-18
 -1      3488 9.22654E-05-2.51492E-05-2.87523E-05-7.08721E-06 5.44562E-19 2.20719E-19
 -1      3489 9.22994E-05-2.51037E-05-2.88089E-05-6.47113E-06 2.58127E-19 8.26583E-19
 -1      3490 9.06329E-05-2.43181E-05-2.84162E-05-7.23677E-06-2.92724E-19 1.70924E-18
 -1      3491 9.26587E-05-2.52266E-05-2.88913E-05-5.85901E-06-2.34465E-19 1.81766E-18
 -1      3492 9.27642E-05-2.53172E-05-2.89160E-05-5.31042E-06-3.99701E-20 1.75938E-18
 -1      3493 9.13256E-05-2.44575E-05-2.86513E-05-5.92234E-06 5.38764E-19 5.96392E-20
 -1      3494 9.31130E-05-2.55212E-05-2.89618E-05-4.79270E-06-6.11436E-19 1.15393E-18
 -1      3495 9.32407E-05-2.56793E-05-2.89641E-05-4.31134E-06-2.62306E-19 1.00425E-18
 -1      3496 9.20372E-05-2.48313E-05-2.87958E-05-4.82195E-06-8.36223E-19 1.24312E-18
 -1      3497 9.35543E-05-2.59132E-05-2.89842E-05-3.87413E-06 1.11712E-18 8.91866E-19
 -1      3498 9.36783E-05-2.60952E-05-2.89722E-05-3.45844E-06 2.08407E-18 1.15124E-18
 -1      3499 9.26985E-05-2.53113E-05-2.88740E-05-3.89428E-06 5.17051E-19 7.74054E-19
 -1      3500 9.39461E-05-2.63270E-05-2.89756E-05-3.09205E-06 1.54313E-18 8.23216E-19
 -1      3501 9.40542E-05-2.65057E-05-2.89560E-05-2.73894E-06 1.39882E-18-5.10296E-20
 -1      3502 9.32771E-05-2.58153E-05-2.89069E-05-3.11335E-06 1.64551E-18 9.97058E-19
 -1      3503 9.42735E-05-2.67184E-05-2.89495E-05-2.43263E-06 1.38043E-18-4.36244E-19
 -1      3504 9.43677E-05-2.68799E-05-2.89275E-05-2.13957E-06 6.72025E-19-9.35215E-19
 -1      3505 9.37597E-05-2.62898E-05-2.89108E-05-2.46002E-06 1.28954E-18 1.11694E-19
 -1      3506 9.53649E-05-2.77687E-05-2.89661E-05-2.73819E-06 6.38098E-19-1.50947E-19
 -1      3507 9.54229E-05-2.78265E-05-2.89710E-05-2.50698E-06 5.55906E-19-3.17087E-19
 -1      3508 9.53522E-05-2.90993E-05-2.83786E-05 1.09888E-05 2.62895E-19 6.98813E-19
 -1      3509 9.66490E-05-3.05954E-05-2.82792E-05 1.14323E-05 6.84456E-19 9.69209E-19
 -1      3510 9.42644E-05-2.65251E-05-2.90234E-05-5.18792E-06-4.32933E-20-5.00743E-19
 -1      3511 9.43083E-05-2.66590E-05-2.90003E-05-4.78416E-06 3.48237E-20-3.02684E-19
 -1      3512 9.45655E-05-2.68712E-05-2.90051E-05-4.41126E-06-1.96104E-21-4.91171E-19
 -1      3513 9.46237E-05-2.70220E-05-2.89788E-05-4.06880E-06-7.02714E-20-7.71760E-19
 -1      3514 9.38971E-05-2.63737E-05-2.89359E-05-4.47136E-06-7.54202E-20-2.33149E-19
 -1      3515 9.38080E-05-2.61927E-05-2.89664E-05-7.15246E-06-3.63545E-19-5.38447E-19
 -1      3516 9.37374E-05-2.61483E-05-2.89750E-05-6.63330E-06 1.20852E-19-9.09741E-19
 -1      3517 9.38437E-05-2.64832E-05-2.88534E-05-8.32978E-06-3.71763E-19-5.05632E-19
 -1      3518 9.36221E-05-2.62269E-05-2.88903E-05-7.77437E-06-2.12578E-19-6.29803E-19
 -1      3519 9.24011E-05-2.54775E-05-2.86814E-05-7.39902E-06-2.67213E-19-4.16830E-19
 -1      3520 9.43059E-05-2.73727E-05-2.86645E-05-9.60518E-06-7.10477E-19-3.08889E-19
 -1      3521 9.38136E-05-2.67737E-05-2.87336E-05-9.04654E-06-5.76662E-19-5.05867E-19
 -1      3522 9.21568E-05-2.57693E-05-2.84574E-05-8.74919E-06-5.78150E-19-2.61395E-19
 -1      3523 9.55310E-05-2.91883E-05-2.84041E-05-1.09101E-05-4.67495E-19-1.72512E-19
 -1      3524 9.45853E-05-2.80729E-05-2.84983E-05-1.04125E-05-6.68801E-19-2.89309E-19
 -1      3525 9.23493E-05-2.67426E-05-2.81347E-05-1.03275E-05-6.95871E-19-2.87346E-19
 -1      3526 9.80160E-05-3.23242E-05-2.81181E-05-1.20699E-05-4.20608E-19 6.34290E-20
 -1      3527 9.63699E-05-3.04975E-05-2.82048E-05-1.17654E-05-3.67176E-19-4.60821E-20
 -1      3528 9.33655E-05-2.87782E-05-2.77197E-05-1.21337E-05-6.03092E-19-4.90960E-19
 -1      3529 1.02399E-04-3.71226E-05-2.79407E-05-1.26536E-05-6.85888E-19 4.92695E-19
 -1      3530 9.97935E-05-3.44580E-05-2.79368E-05-1.28202E-05-3.94382E-19 4.04761E-19
 -1      3531 9.58153E-05-3.23605E-05-2.72691E-05-1.40506E-05-5.66859E-19-4.78772E-21
 -1      3532 1.09676E-04-4.35505E-05-2.82457E-05-1.15632E-05-8.58051E-19 1.72087E-19
 -1      3533 1.05675E-04-4.01981E-05-2.79187E-05-1.28780E-05-5.60195E-19 4.64181E-19
 -1      3534 1.00590E-04-3.79765E-05-2.69585E-05-1.56395E-05-4.96176E-19 3.20893E-19
 -1      3535 1.13547E-04-4.82144E-05-2.78835E-05-1.34110E-05-1.65409E-18 5.70996E-19
 -1      3536 9.44880E-05-2.22579E-05-3.09468E-05-3.14583E-06-1.22971E-18-1.44398E-18
 -1      3537 9.40182E-05-2.12221E-05-3.11935E-05-4.16580E-06-1.34976E-18-1.52468E-18
 -1      3538 1.02698E-04-3.73996E-05-2.78961E-05 1.29356E-05-1.49279E-18-1.36652E-18
 -1      3539 1.05912E-04-4.02836E-05-2.80377E-05 1.21672E-05-1.83925E-18-1.66431E-18
 -1      3540 9.40769E-05-2.72046E-05-2.86575E-05 9.54942E-06-1.08911E-18 8.92880E-19
 -1      3541 9.47940E-05-2.80775E-05-2.85688E-05 1.01175E-05-4.20229E-19 6.13278E-19
 -1      3542 9.26832E-05-2.75273E-05-2.79531E-05 1.11007E-05-3.55755E-19 3.11358E-18
 -1      3543 9.35895E-05-2.62500E-05-2.88641E-05 8.14809E-06-7.29934E-19 8.67461E-19
 -1      3544 9.39457E-05-2.66921E-05-2.88055E-05 8.74852E-06-9.88757E-19 1.20394E-18
 -1      3545 9.20739E-05-2.59871E-05-2.83338E-05 9.33566E-06-9.66323E-19 9.36832E-19
 -1      3546 9.35346E-05-2.59028E-05-2.89922E-05 6.84984E-06-6.67325E-19 1.11301E-18
 -1      3547 9.36833E-05-2.60685E-05-2.89652E-05 7.43588E-06-8.15302E-19 1.26925E-18
 -1      3548 9.20790E-05-2.53163E-05-2.86146E-05 7.79326E-06-7.75284E-19 7.80599E-19
 -1      3549 9.36934E-05-2.59199E-05-2.90539E-05 5.67841E-06 7.02493E-19-8.82214E-19
 -1      3550 9.37317E-05-2.59209E-05-2.90524E-05 6.22484E-06 4.31744E-19 1.96937E-19
 -1      3551 9.23903E-05-2.51855E-05-2.87999E-05 6.45658E-06 5.69486E-19-6.93285E-19
 -1      3552 9.39378E-05-2.61349E-05-2.90663E-05 4.64199E-06 7.85408E-19-1.45791E-18
 -1      3553 9.39234E-05-2.60468E-05-2.90825E-05 5.13519E-06 6.46767E-19-1.10277E-18
 -1      3554 9.28256E-05-2.53668E-05-2.89071E-05 5.30067E-06 1.48664E-18-2.01707E-18
 -1      3555 9.41973E-05-2.64397E-05-2.90462E-05 3.74123E-06-6.40923E-20-2.08372E-18
 -1      3556 9.41624E-05-2.63113E-05-2.90729E-05 4.17482E-06 6.39648E-19-2.08640E-18
 -1      3557 9.32822E-05-2.57074E-05-2.89565E-05 4.30525E-06 1.17406E-18-1.50529E-18
 -1      3558 9.44360E-05-2.67669E-05-2.90075E-05 2.97170E-06 1.28121E-19-1.62795E-18
 -1      3559 9.43979E-05-2.66284E-05-2.90388E-05 3.34454E-06 1.96955E-19-2.01065E-18
 -1      3560 9.37066E-05-2.61093E-05-2.89665E-05 3.45491E-06-1.61085E-19-1.57990E-18
 -1      3561 9.46362E-05-2.70743E-05-2.89606E-05 2.32313E-06 2.37540E-19-2.28645E-18
 -1      3562 9.46038E-05-2.69436E-05-2.89924E-05 2.64011E-06 7.85284E-20-1.97051E-18
 -1      3563 9.40741E-05-2.65118E-05-2.89522E-05 2.73792E-06 3.68334E-20-1.71928E-18
 -1      3564 9.47976E-05-2.73402E-05-2.89131E-05 1.78822E-06-6.27767E-19-1.60200E-18
 -1      3565 9.47728E-05-2.72316E-05-2.89424E-05 2.05045E-06 5.70108E-20-1.59220E-18
 -1      3566 9.43744E-05-2.68809E-05-2.89254E-05 2.13937E-06-6.58098E-19-1.02805E-18
 -1      3567 9.79560E-05-3.23384E-05-2.80774E-05 1.22837E-05-1.64410E-20-9.25268E-20
 -1      3568 1.00094E-04-3.46316E-05-2.80211E-05 1.24067E-05-7.51293E-19-7.61435E-19
 -1      3569 9.80466E-05-3.50908E-05-2.70929E-05 1.49793E-05-1.86339E-18-1.93575E-18
 -1      3570 1.17474E-04-4.96446E-05-2.88267E-05 9.82089E-06-5.69855E-19-2.43409E-18
 -1      3571 9.47583E-05-2.74075E-05-2.88687E-05 1.29148E-06-1.26306E-18-3.04098E-18
 -1      3572 9.49149E-05-2.75601E-05-2.88660E-05 1.30728E-06-8.43915E-19-1.65064E-18
 -1      3573 9.49107E-05-2.75228E-05-2.88797E-05 1.43339E-06-1.96744E-18-1.67795E-18
 -1      3574 9.45749E-05-2.71940E-05-2.88765E-05 1.40875E-06-9.67593E-19-2.06941E-18
 -1      3575 9.34990E-05-2.62235E-05-2.88333E-05-4.46344E-07 7.40566E-19-1.24513E-18
 -1      3576 9.34518E-05-2.61870E-05-2.88308E-05-1.67985E-07 8.38738E-19-1.55677E-19
 -1      3577 8.71422E-05-3.55648E-05-2.23098E-05 2.58677E-05-1.38559E-18 1.62728E-18
 -1      3578 7.57203E-05-2.76126E-05-2.03039E-05 2.44706E-05-1.28760E-18 1.36595E-18
 -1      3579 1.17811E-04-5.32707E-05-2.75182E-05 1.63018E-05 1.82530E-18-1.02077E-18
 -1      3580 5.52905E-05-1.56240E-05-1.65770E-05-1.43714E-05 1.05906E-18 1.70105E-18
 -1      3581 6.41543E-05-2.13509E-05-1.83168E-05-2.09459E-05 1.69715E-18 9.82664E-19
 -1      3582 5.86307E-05-1.51446E-05-1.83948E-05-8.43966E-06 6.33739E-19 1.30128E-18
 -1      3583 9.39894E-05-2.62620E-05-2.90168E-05-6.10150E-06 5.24980E-19-7.23689E-19
 -1      3584 9.39968E-05-2.63377E-05-2.90052E-05-5.63627E-06 3.25672E-19-2.92964E-19
 -1      3585 9.33737E-05-2.59358E-05-2.88988E-05-5.28265E-06 1.50209E-19-1.75795E-19
 -1      3586 9.28510E-05-2.55952E-05-2.88213E-05-6.25145E-06 3.04818E-19-2.66806E-19
 -1      3587 1.22837E-04-5.33646E-05-2.98479E-05-8.84340E-06 1.18027E-18-1.47471E-18
 -1      3588 1.18332E-04-5.16210E-05-2.86605E-05-1.18557E-05 6.18268E-19-1.55586E-18
 -1      3589 9.56088E-05-2.52342E-05-3.01564E-05-1.18930E-06-6.75468E-19-1.18431E-18
 -1      3590 9.57495E-05-2.59210E-05-2.99353E-05-5.04420E-07-5.55965E-19-1.02818E-18
 -1      3591 9.85334E-05-4.09212E-05-2.45840E-05-2.19993E-05-1.22070E-18-3.74018E-20
 -1      3592 1.07312E-04-4.62272E-05-2.63422E-05-1.88103E-05-1.48464E-18 6.55259E-20
 -1      3593 9.21879E-05-1.78953E-05-3.18517E-05-9.63434E-07-1.82532E-19-2.38757E-18
 -1      3594 9.23042E-05-1.80935E-05-3.18196E-05-1.69322E-06-3.58466E-19-2.25450E-18
 -1      3595 9.32658E-05-1.97254E-05-3.14994E-05-1.65687E-06-3.57898E-19-2.05024E-18
 -1      3596 1.28596E-04-5.50299E-05-3.17420E-05-4.99065E-06 1.34153E-18-1.96273E-18
 -1      3597 5.41012E-05-1.44964E-05-1.68314E-05 9.71063E-06 6.05933E-19-1.57368E-18
 -1      3598 5.14412E-05-1.27749E-05-1.62912E-05 1.11656E-07 3.12416E-19-1.84664E-18
 -1      3599 7.01078E-05-2.55191E-05-1.87979E-05-2.49372E-05-8.92349E-19-1.38238E-18
 -1      3600 8.39975E-05-3.39630E-05-2.13431E-05-2.64636E-05-1.39031E-18-6.48298E-19
 -1      3601 1.08887E-04-4.73932E-05-2.66537E-05 1.80661E-05-1.20375E-18-1.14895E-18
 -1      3602 9.92391E-05-4.16573E-05-2.43334E-05 2.28965E-05-1.50889E-18 8.49250E-20
 -1      3603 1.09305E-04-4.75724E-05-2.63491E-05-1.84115E-05 5.30706E-19-1.33518E-18
 -1      3604 9.59075E-05-2.65010E-05-2.97386E-05-7.51086E-09-6.18502E-19-1.09572E-18
 -1      3605 9.59353E-05-2.69262E-05-2.95814E-05 4.93001E-07-7.20815E-19-1.10879E-18
 -1      3606 9.60123E-05-2.68499E-05-2.96403E-05 5.65946E-07-6.79858E-19-1.20940E-18
 -1      3607 1.07544E-04-4.25182E-05-2.77233E-05 1.34678E-05-1.34831E-18-1.82266E-18
 -1      3608 1.11685E-04-4.57730E-05-2.81913E-05 1.16672E-05-8.00598E-19-2.01370E-18
 -1      3609 1.11834E-04-4.96508E-05-2.64288E-05 1.86935E-05 1.97699E-18-1.12538E-18
 -1      3610 9.58342E-05-2.58627E-05-2.99870E-05-3.21723E-07-5.97078E-19-1.07521E-18
 -1      3611 5.88620E-05-1.50068E-05-1.85583E-05 9.56782E-06-5.99375E-19 1.68020E-18
 -1      3612 5.89624E-05-1.42594E-05-1.91917E-05 3.86186E-06-1.22454E-18 1.49186E-18
 -1      3613 6.54213E-05-1.74412E-05-2.04292E-05 1.19967E-05-8.96031E-19 1.04140E-18
 -1      3614 8.57239E-05-3.64325E-05-2.11100E-05 2.79443E-05 1.59745E-18-1.09619E-18
 -1      3615 7.78780E-05-3.17454E-05-1.93703E-05 2.86752E-05 1.43432E-18-1.06255E-18
 -1      3616 7.35452E-05-2.76203E-05-1.96344E-05 2.53008E-05 1.34853E-18-7.11322E-19
 -1      3617 9.32053E-05-2.59512E-05-2.88177E-05 3.17399E-09 5.70567E-19 3.40692E-19
 -1      3618 9.34524E-05-2.61879E-05-2.88307E-05 1.68295E-07 7.57511E-19 6.29770E-19
 -1      3619 9.35004E-05-2.62256E-05-2.88330E-05 4.50389E-07 8.85987E-19-4.07569E-19
 -1      3620 9.50027E-05-2.34683E-05-3.06624E-05-2.51797E-06-1.12077E-18-1.33249E-18
 -1      3621 9.52907E-05-2.43913E-05-3.03942E-05-1.72655E-06-8.67067E-19-1.19419E-18
 -1      3622 9.53600E-05-2.43537E-05-3.04254E-05-1.37559E-06-6.93100E-19-1.02661E-18
 -1      3623 9.44980E-05-2.22797E-05-3.09439E-05-2.52324E-06-9.55380E-19-1.29756E-18
 -1      3624 7.48992E-05-2.47359E-05-2.13108E-05 2.01302E-05-1.40746E-18 1.47191E-18
 -1      3625 9.30493E-05-1.93310E-05-3.15756E-05-5.53188E-07-1.30992E-19-2.31551E-18
 -1      3626 9.57723E-05-2.59110E-05-2.99405E-05 5.07669E-07 6.90849E-19-1.17802E-18
 -1      3627 9.56740E-05-2.59990E-05-2.98675E-05 7.08168E-07 7.11927E-19-1.09468E-18
 -1      3628 9.55198E-05-2.77161E-05-2.90596E-05-2.28684E-06 5.00967E-19-8.00601E-19
 -1      3629 9.55675E-05-2.78805E-05-2.90065E-05-2.28772E-06 5.50304E-19-5.47113E-19
 -1      3630 9.56213E-05-2.78688E-05-2.90355E-05-2.04544E-06 6.74368E-19-4.06416E-19
 -1      3631 9.51874E-05-2.76457E-05-2.89497E-05-2.96449E-06 5.20475E-19-2.44108E-19
 -1      3632 9.52025E-05-2.75380E-05-2.89991E-05-2.74242E-06 6.05174E-19-2.85625E-19
 -1      3633 9.51268E-05-2.75380E-05-2.89617E-05-3.21393E-06 2.81794E-19-2.96434E-19
 -1      3634 9.45576E-05-2.70638E-05-2.89241E-05-1.97047E-06 6.34748E-19 1.65563E-19
 -1      3635 9.46413E-05-2.72001E-05-2.89055E-05-1.75306E-06 4.66976E-19 2.35686E-19
 -1      3636 9.45039E-05-2.70806E-05-2.88958E-05-1.68526E-06 4.46956E-19 1.11032E-18
 -1      3637 9.41729E-05-2.67192E-05-2.89056E-05-2.00211E-06 9.22094E-19 4.30097E-19
 -1      3638 9.44097E-05-3.03891E-05-2.75023E-05 1.30496E-05-3.91048E-19 3.80573E-19
 -1      3639 5.90147E-05-1.41831E-05-1.91133E-05-5.98166E-07 2.72328E-19-1.25941E-18
 -1      3640 5.40718E-05-1.34424E-05-1.71316E-05-4.25984E-06 1.67150E-19-1.70778E-18
 -1      3641 5.80076E-05-1.50725E-05-1.83464E-05-9.40550E-06-1.62065E-19-1.76350E-18
 -1      3642 9.43854E-05-2.68236E-05-2.89532E-05-3.79646E-06 2.92512E-19-6.86349E-19
 -1      3643 9.48581E-05-2.72258E-05-2.89794E-05-3.76066E-06 3.50520E-19-6.59837E-19
 -1      3644 9.49197E-05-2.73653E-05-2.89570E-05-3.47182E-06 5.05593E-19-4.45317E-19
 -1      3645 1.02079E-04-4.01595E-05-2.65420E-05 1.71676E-05-1.54386E-18-2.36109E-18
 -1      3646 9.37098E-05-2.05687E-05-3.13300E-05 2.68766E-06 6.16520E-19-1.83544E-18
 -1      3647 9.39836E-05-2.11942E-05-3.12057E-05 1.62664E-06 4.71184E-19-1.98912E-18
 -1      3648 9.38351E-05-2.08966E-05-3.12668E-05 1.14825E-06 2.98884E-19-2.14977E-18
 -1      3649 9.49138E-05-2.74866E-05-2.88961E-05 1.57246E-06-1.37548E-18-2.00820E-18
 -1      3650 9.35989E-05-2.63152E-05-2.88408E-05-7.61947E-07 1.22532E-19-1.40516E-19
 -1      3651 9.33180E-05-2.60439E-05-2.88264E-05-6.73635E-07 5.77409E-19-9.12965E-19
 -1      3652 9.37371E-05-2.64203E-05-2.88474E-05-1.01116E-06 1.78907E-19-3.22912E-19
 -1      3653 9.48815E-05-2.32715E-05-3.06981E-05 2.83939E-06 9.24807E-19-1.49240E-18
 -1      3654 9.46277E-05-2.25944E-05-3.08678E-05 2.61261E-06 6.82611E-19-1.43667E-18
 -1      3655 7.28005E-05-2.52555E-05-2.00441E-05-2.30694E-05 1.57860E-18 1.94577E-18
 -1      3656 8.12283E-05-2.95308E-05-2.21957E-05-2.25700E-05 1.75147E-18 2.42414E-18
 -1      3657 6.97223E-05-2.12894E-05-2.07015E-05-1.78444E-05 1.98595E-18 1.23753E-18
 -1      3658 9.44421E-05-2.70399E-05-2.88894E-05 1.60732E-06-8.39945E-19-1.33227E-18
 -1      3659 9.46325E-05-2.72080E-05-2.88946E-05 1.65131E-06-1.18116E-18-1.63232E-18
 -1      3660 9.34382E-05-3.66324E-05-2.42714E-05 2.14299E-05-1.61034E-18 4.10196E-19
 -1      3661 9.39627E-05-2.66296E-05-2.88625E-05 1.28138E-06-5.47839E-19-2.09669E-18
 -1      3662 9.41768E-05-2.68017E-05-2.88720E-05 1.46096E-06-5.11878E-19-2.89428E-18
 -1      3663 9.42172E-05-2.68005E-05-2.88899E-05 1.72416E-06-2.91772E-19-1.36635E-18
 -1      3664 9.40782E-05-2.13571E-05-3.11655E-05-1.82942E-06-4.68142E-19-1.51893E-18
 -1      3665 9.43019E-05-2.18469E-05-3.10626E-05-2.23040E-06-7.67672E-19-1.38347E-18
 -1      3666 9.48308E-05-2.29800E-05-3.07880E-05-1.68153E-06-6.82286E-19-1.22521E-18
 -1      3667 1.02975E-04-4.59419E-05-2.44755E-05 2.42888E-05 1.64589E-18-1.20160E-18
 -1      3668 9.55841E-05-2.54695E-05-3.00421E-05 1.35679E-06 7.26735E-19-1.20498E-18
 -1      3669 1.01607E-04-4.41852E-05-2.45326E-05-2.33975E-05 6.04464E-19-7.01979E-19
 -1      3670 9.11860E-05-3.67078E-05-2.33171E-05-2.40846E-05-1.07973E-18-6.61692E-19
 -1      3671 9.78554E-05-3.72756E-05-2.58408E-05-1.81116E-05-5.24929E-19-8.15435E-20
 -1      3672 9.44417E-05-3.38225E-05-2.59192E-05-1.72923E-05-4.04627E-19-3.55158E-20
 -1      3673 8.40937E-05-3.04776E-05-2.29984E-05-2.17010E-05-8.56448E-19-5.06711E-19
 -1      3674 9.44493E-05-2.19980E-05-3.10326E-05 7.33320E-07 3.19621E-19-2.12794E-18
 -1      3675 9.37370E-05-2.07104E-05-3.13089E-05 7.46547E-07 2.27067E-19-2.31906E-18
 -1      3676 9.36831E-05-2.06060E-05-3.13289E-05 2.22721E-07 5.08186E-20-2.39503E-18
 -1      3677 6.62351E-05-2.19669E-05-1.87867E-05-2.16303E-05-6.77335E-19-1.76395E-18
 -1      3678 7.44297E-05-2.47143E-05-2.11307E-05-2.01590E-05-1.14163E-18-7.87066E-19
 -1      3679 6.32569E-05-1.85285E-05-1.90300E-05-1.62341E-05-5.07082E-19-1.82287E-18
 -1      3680 9.58544E-05-2.73276E-05-2.93615E-05-8.16911E-07 6.69325E-19-9.00554E-19
 -1      3681 9.59434E-05-2.69095E-05-2.95870E-05-4.96208E-07 6.46887E-19-1.02780E-18
 -1      3682 9.58255E-05-2.75629E-05-2.92580E-05-1.20489E-06 5.35688E-19-8.12441E-19
 -1      3683 9.43310E-05-3.85117E-05-2.38693E-05-2.32041E-05 1.22838E-18 1.60685E-19
 -1      3684 5.87377E-05-1.65118E-05-1.77343E-05 1.42234E-05 6.17527E-19-1.36012E-18
 -1      3685 6.03881E-05-1.54532E-05-1.91419E-05 8.86256E-06 1.81612E-19-1.35321E-18
 -1      3686 6.50792E-05-2.02181E-05-1.91490E-05 1.80510E-05 6.93313E-19-8.18260E-19
 -1      3687 9.43699E-05-2.69741E-05-2.88872E-05-1.59430E-06 4.66276E-19 5.71886E-19
 -1      3688 9.41334E-05-2.67304E-05-2.88860E-05-1.69606E-06 9.57601E-19-4.54909E-19
 -1      3689 9.41759E-05-2.67993E-05-2.88728E-05-1.45178E-06 6.81681E-19-3.03869E-19
 -1      3690 9.39637E-05-2.66319E-05-2.88629E-05-1.27779E-06 2.99415E-19-2.58126E-19
 -1      3691 9.39371E-05-2.65406E-05-2.88877E-05-1.84334E-06 7.14671E-19-3.85271E-20
 -1      3692 9.53988E-05-2.46022E-05-3.03384E-05 1.57242E-06 6.16725E-19-1.16903E-18
 -1      3693 9.53807E-05-2.48573E-05-3.02291E-05 1.81887E-06 7.78579E-19-1.28467E-18
 -1      3694 9.58642E-05-2.74716E-05-2.93107E-05 1.43366E-06-4.84417E-19-7.87670E-19
 -1      3695 9.57281E-05-2.75136E-05-2.92355E-05 1.67501E-06-2.61374E-19-7.96895E-19
 -1      3696 9.55143E-05-2.74766E-05-2.91605E-05 1.85983E-06-1.98512E-19-8.74259E-19
 -1      3697 9.53247E-05-2.73997E-05-2.91100E-05 2.07874E-06-1.49961E-19-8.11666E-19
 -1      3698 9.56061E-05-2.73511E-05-2.92500E-05 1.54322E-06-2.37936E-19-8.44284E-19
 -1      3699 9.50350E-05-2.72497E-05-2.90543E-05 2.26080E-06-1.08968E-19-6.82177E-19
 -1      3700 9.47990E-05-2.70815E-05-2.90201E-05 2.48397E-06-3.57239E-19-6.67058E-19
 -1      3701 9.51070E-05-2.71688E-05-2.91136E-05 1.90849E-06-7.72241E-20-7.15168E-19
 -1      3702 9.44393E-05-2.68437E-05-2.89749E-05 2.68424E-06-5.60729E-19-4.97485E-19
 -1      3703 9.41594E-05-2.66072E-05-2.89486E-05 2.93340E-06-6.35718E-19-4.49619E-19
 -1      3704 9.44637E-05-2.67726E-05-2.90066E-05 2.28282E-06-4.54294E-19-5.12365E-19
 -1      3705 9.37307E-05-2.63039E-05-2.89045E-05 3.16973E-06-7.94473E-19-3.49134E-19
 -1      3706 9.34080E-05-2.60213E-05-2.88771E-05 3.46225E-06-8.17671E-19-2.36095E-19
 -1      3707 9.36826E-05-2.62123E-05-2.89106E-05 2.70351E-06-6.34416E-19-4.04220E-19
 -1      3708 9.29082E-05-2.56746E-05-2.88238E-05 3.75083E-06-7.14235E-19-1.13871E-19
 -1      3709 9.25455E-05-2.53715E-05-2.87854E-05 4.10175E-06-4.51806E-19 3.25863E-19
 -1      3710 9.27623E-05-2.55333E-05-2.88054E-05 3.20280E-06-5.60234E-19 1.48715E-20
 -1      3711 9.19728E-05-2.50085E-05-2.87107E-05 4.45955E-06-3.55135E-19 9.13917E-20
 -1      3712 9.15791E-05-2.47192E-05-2.86496E-05 4.88348E-06-2.83133E-19-1.03690E-20
 -1      3713 9.16984E-05-2.47852E-05-2.86681E-05 3.81288E-06-3.03205E-19 4.41756E-19
 -1      3714 9.09346E-05-2.43763E-05-2.85393E-05 5.33172E-06-3.13538E-19-9.53097E-20
 -1      3715 9.05314E-05-2.41494E-05-2.84424E-05 5.84684E-06-3.49280E-19-8.40054E-21
 -1      3716 9.04889E-05-2.40293E-05-2.84716E-05 4.57100E-06-3.35941E-19-4.42139E-19
 -1      3717 8.98229E-05-2.38782E-05-2.82797E-05 6.41716E-06-5.61000E-19 2.71482E-19
 -1      3718 8.94538E-05-2.37846E-05-2.81324E-05 7.05068E-06-5.23881E-19 4.22460E-20
 -1      3719 8.91408E-05-2.33482E-05-2.81839E-05 5.53032E-06-2.53036E-19-2.24034E-19
 -1      3720 8.87023E-05-2.36587E-05-2.78976E-05 7.79538E-06-3.58270E-19-3.45713E-19
 -1      3721 8.84495E-05-2.38046E-05-2.76852E-05 8.59084E-06-6.22356E-20-5.82504E-19
 -1      3722 8.76787E-05-2.28559E-05-2.77670E-05 6.77669E-06-6.07713E-19 8.22929E-20
 -1      3723 8.77014E-05-2.39330E-05-2.73557E-05 9.59603E-06 4.49089E-19-4.49168E-19
 -1      3724 8.77135E-05-2.44789E-05-2.70666E-05 1.06161E-05 8.28788E-19-4.96915E-19
 -1      3725 8.61606E-05-2.27184E-05-2.71760E-05 8.45476E-06 2.46370E-19-6.17353E-19
 -1      3726 8.70786E-05-2.50352E-05-2.66180E-05 1.20111E-05 1.13162E-18-6.07436E-19
 -1      3727 8.75963E-05-2.62151E-05-2.62520E-05 1.33219E-05 1.04268E-18-8.40628E-19
 -1      3728 8.47150E-05-2.31979E-05-2.63576E-05 1.08094E-05 7.41565E-19-4.99801E-19
 -1      3729 8.72749E-05-2.73821E-05-2.56652E-05 1.52624E-05 6.60739E-19-1.01692E-18
 -1      3730 8.90008E-05-2.97233E-05-2.53283E-05 1.68364E-05 5.33062E-19-1.13833E-18
 -1      3731 8.36871E-05-2.47287E-05-2.52581E-05 1.41801E-05 7.47890E-19-1.09211E-18
 -1      3732 9.57436E-05-2.52778E-05-3.01964E-05-5.97324E-07-6.30463E-19-1.12991E-18
 -1      3733 9.58952E-05-2.59197E-05-2.99937E-05-7.32414E-08-6.87550E-19-1.24789E-18
 -1      3734 9.58408E-05-2.59416E-05-2.99653E-05 2.28962E-07 6.81770E-19-1.27147E-18
 -1      3735 9.56837E-05-2.52692E-05-3.01745E-05 8.11184E-07 6.01868E-19-1.32252E-18
 -1      3736 9.04470E-05-2.75223E-05-2.69635E-05 1.29318E-05-1.39126E-18 2.20702E-18
 -1      3737 9.17261E-05-2.93183E-05-2.67004E-05 1.40615E-05-2.24107E-18 5.39521E-19
 -1      3738 8.88583E-05-3.02360E-05-2.51309E-05-1.75504E-05 1.46941E-18 4.53710E-19
 -1      3739 8.72749E-05-2.77221E-05-2.55460E-05-1.55948E-05 6.42388E-19-5.23324E-20
 -1      3740 8.75431E-05-2.63965E-05-2.61552E-05-1.36776E-05 6.83178E-19 6.54059E-19
 -1      3741 8.69148E-05-2.50643E-05-2.65324E-05-1.22499E-05 5.43300E-19 1.33440E-18
 -1      3742 8.34961E-05-2.49741E-05-2.51253E-05-1.46488E-05 9.19445E-19 1.69448E-18
 -1      3743 8.75151E-05-2.44392E-05-2.69973E-05-1.07836E-05-6.05248E-19 8.35364E-19
 -1      3744 8.74315E-05-2.37965E-05-2.72979E-05-9.70231E-06-1.33416E-18 1.18036E-18
 -1      3745 8.43885E-05-2.31068E-05-2.62527E-05-1.10560E-05-2.42969E-19 1.20734E-18
 -1      3746 8.81417E-05-2.35917E-05-2.76430E-05-8.62888E-06-8.84543E-19 6.99892E-19
 -1      3747 8.83451E-05-2.33744E-05-2.78665E-05-7.77792E-06-8.23113E-19 1.17181E-18
 -1      3748 8.57526E-05-2.24701E-05-2.71062E-05-8.55916E-06-8.38723E-19 2.82812E-19
 -1      3749 8.90632E-05-2.34405E-05-2.81121E-05-6.97533E-06-1.00445E-18 1.48594E-18
 -1      3750 8.93932E-05-2.34779E-05-2.82672E-05-6.28869E-06 3.93788E-20 1.21437E-18
 -1      3751 8.72051E-05-2.24775E-05-2.77250E-05-6.75494E-06-6.12334E-19-2.14689E-19
 -1      3752 9.00631E-05-2.36976E-05-2.84356E-05-5.66624E-06 7.05060E-19 1.18944E-18
 -1      3753 9.04286E-05-2.38779E-05-2.85363E-05-5.09794E-06 1.56868E-19 3.46134E-19
 -1      3754 8.85979E-05-2.28615E-05-2.81584E-05-5.40401E-06 1.54522E-19 4.44200E-19
 -1      3755 9.10277E-05-2.41759E-05-2.86467E-05-4.59894E-06-2.60154E-19 9.21539E-19
 -1      3756 9.13804E-05-2.44266E-05-2.87066E-05-4.12147E-06-3.00175E-19 2.24322E-18
 -1      3757 8.98636E-05-2.34472E-05-2.84516E-05-4.34812E-06 1.56335E-19 5.78947E-19
 -1      3758 9.18991E-05-2.47519E-05-2.87748E-05-3.71379E-06-2.73969E-19 1.79335E-18
 -1      3759 9.22153E-05-2.50258E-05-2.88056E-05-3.31044E-06 6.59771E-19 1.59249E-18
 -1      3760 9.09753E-05-2.41212E-05-2.86411E-05-3.49720E-06 5.54699E-20 1.81993E-18
 -1      3761 9.26533E-05-2.53457E-05-2.88441E-05-2.97470E-06 8.12254E-19 1.17834E-18
 -1      3762 9.29233E-05-2.56128E-05-2.88556E-05-2.63552E-06 1.30315E-18 4.72888E-19
 -1      3763 9.19249E-05-2.48073E-05-2.87559E-05-2.79884E-06 1.89704E-19 1.75624E-18
 -1      3764 9.32846E-05-2.59082E-05-2.88744E-05-2.35975E-06 1.93017E-18-5.73319E-19
 -1      3765 9.35127E-05-2.61474E-05-2.88746E-05-2.07712E-06 1.35718E-18-1.20344E-19
 -1      3766 9.27160E-05-2.54554E-05-2.88194E-05-2.22420E-06 5.36677E-19 1.72020E-19
 -1      3767 9.51993E-05-2.41168E-05-3.04593E-05 2.65391E-06 9.39635E-19-1.44203E-18
 -1      3768 9.60417E-05-2.64751E-05-2.98110E-05 2.74234E-07-5.34583E-19-1.24128E-18
 -1      3769 9.60678E-05-2.68724E-05-2.96603E-05 6.58922E-07-5.55671E-19-1.23320E-18
 -1      3770 9.59501E-05-2.59309E-05-3.00043E-05 4.70724E-08-6.06825E-19-1.35564E-18
 -1      3771 9.04577E-05-2.48774E-05-2.80855E-05-8.71984E-06-7.40099E-19-1.62349E-19
 -1      3772 9.04961E-05-2.46477E-05-2.82358E-05-8.00125E-06-6.00528E-19-2.26700E-19
 -1      3773 9.10188E-05-2.46841E-05-2.84164E-05-7.27471E-06-2.09117E-19-2.24294E-19
 -1      3774 9.12105E-05-2.47038E-05-2.85166E-05-6.67053E-06-3.27195E-20-1.77204E-19
 -1      3775 8.93499E-05-2.38286E-05-2.80729E-05-7.22346E-06-2.86575E-19 2.38895E-19
 -1      3776 9.09282E-05-2.77271E-05-2.70350E-05-1.27394E-05-6.75863E-19-4.45228E-19
 -1      3777 9.00985E-05-2.64528E-05-2.72876E-05-1.17330E-05-7.52343E-19-4.02610E-19
 -1      3778 9.30036E-05-3.13329E-05-2.63571E-05-1.54195E-05-6.58418E-19-3.75376E-19
 -1      3779 9.12411E-05-2.91255E-05-2.66142E-05-1.43254E-05-5.00208E-19-5.81185E-19
 -1      3780 8.76431E-05-2.66760E-05-2.61573E-05-1.39273E-05-4.93386E-19-7.48271E-19
 -1      3781 8.00208E-05-2.66560E-05-2.29751E-05 1.94822E-05-2.21143E-18 1.63369E-18
 -1      3782 7.30721E-05-2.16020E-05-2.19698E-05 1.64187E-05-1.79882E-18 5.54529E-19
 -1      3783 9.05885E-05-2.43189E-05-2.84156E-05 7.05239E-06 3.11469E-20 1.16960E-19
 -1      3784 9.04876E-05-2.44459E-05-2.82879E-05 7.75291E-06-1.61881E-20 9.14121E-19
 -1      3785 8.98501E-05-2.55143E-05-2.75862E-05 1.05422E-05-6.77205E-19 3.04665E-18
 -1      3786 9.03953E-05-2.64904E-05-2.73501E-05 1.15109E-05-7.74174E-20 2.95794E-18
 -1      3787 8.74231E-05-2.54512E-05-2.65813E-05 1.23540E-05-1.49628E-18 3.20115E-18
 -1      3788 9.12886E-05-2.44756E-05-2.86471E-05 5.76396E-06 1.56098E-18-1.59413E-18
 -1      3789 9.10867E-05-2.44092E-05-2.85664E-05 6.36415E-06 4.74503E-19-6.42439E-19
 -1      3790 8.95460E-05-2.35713E-05-2.82656E-05 6.31159E-06 9.51177E-19 2.56407E-19
 -1      3791 9.20045E-05-2.48553E-05-2.87896E-05 4.68630E-06 1.47346E-18-1.34038E-18
 -1      3792 9.17712E-05-2.46852E-05-2.87450E-05 5.20249E-06 1.79739E-18-1.53078E-18
 -1      3793 9.05323E-05-2.39367E-05-2.85318E-05 5.10724E-06 1.18404E-18-4.44633E-19
 -1      3794 9.26692E-05-2.53355E-05-2.88671E-05 3.77923E-06 1.12054E-18-2.15870E-18
 -1      3795 9.24421E-05-2.51196E-05-2.88482E-05 4.22180E-06 1.56892E-18-1.93887E-18
 -1      3796 9.14514E-05-2.44616E-05-2.87013E-05 4.12356E-06 1.65743E-18-5.71998E-19
 -1      3797 9.32510E-05-2.58367E-05-2.89000E-05 3.01654E-06-2.61988E-19-7.85736E-20
 -1      3798 9.30484E-05-2.56117E-05-2.88980E-05 3.39309E-06 1.81834E-19-5.06801E-19
 -1      3799 9.22644E-05-2.50449E-05-2.88008E-05 3.30961E-06 3.81708E-19 3.00737E-19
 -1      3800 9.37408E-05-2.63111E-05-2.89047E-05 2.38276E-06 1.54799E-19-4.04669E-19
 -1      3801 9.35693E-05-2.61004E-05-2.89126E-05 2.69530E-06 1.98103E-19-7.01567E-19
 -1      3802 9.29563E-05-2.56202E-05-2.88520E-05 2.63256E-06 1.97825E-19 7.21688E-19
 -1      3803 9.40678E-05-2.66569E-05-2.88930E-05 1.90238E-06-1.81603E-19-1.17635E-18
 -1      3804 9.39245E-05-2.64698E-05-2.89051E-05 2.16673E-06 6.97287E-20-1.10893E-18
 -1      3805 9.34410E-05-2.60708E-05-2.88689E-05 2.11861E-06 3.63126E-19-8.33464E-19
 -1      3806 9.37771E-05-2.64197E-05-2.88715E-05 1.73854E-06 5.96338E-20-2.84077E-18
 -1      3807 9.59188E-05-3.67799E-05-2.54390E-05 1.89115E-05-1.53008E-18 1.71815E-19
 -1      3808 8.64740E-05-3.05879E-05-2.37527E-05 2.06972E-05-1.87615E-18 1.40667E-18
 -1      3809 8.41732E-05-2.74168E-05-2.42294E-05 1.75562E-05-2.82431E-18 1.37438E-18
 -1      3810 9.50018E-05-3.45950E-05-2.59076E-05 1.73666E-05-2.20706E-18-7.88460E-19
 -1      3811 9.51815E-05-2.38018E-05-3.05961E-05-1.35847E-06-6.47036E-19-1.16374E-18
 -1      3812 9.55012E-05-2.46736E-05-3.03628E-05-8.39726E-07-5.95083E-19-1.15232E-18
 -1      3813 9.55893E-05-2.47856E-05-3.03561E-05-6.08600E-07-6.77726E-19-1.22493E-18
 -1      3814 9.50087E-05-2.33324E-05-3.07124E-05-1.16486E-06-5.33637E-19-1.29400E-18
 -1      3815 9.36832E-05-2.06024E-05-3.13295E-05-1.92755E-07-4.84564E-20-2.32852E-18
 -1      3816 9.37316E-05-2.07025E-05-3.13099E-05-7.15780E-07-2.20849E-19-2.14041E-18
 -1      3817 9.43585E-05-2.18049E-05-3.10757E-05 1.05203E-08 6.65126E-21-2.20633E-18
 -1      3818 9.02940E-05-2.57575E-05-2.76258E-05-1.05118E-05-7.65733E-19-5.46146E-19
 -1      3819 9.00254E-05-2.51197E-05-2.78317E-05-9.65381E-06-7.32047E-19-3.96879E-19
 -1      3820 8.76698E-05-2.47333E-05-2.69781E-05-1.10173E-05-8.10548E-19-4.93056E-19
 -1      3821 6.01430E-05-1.40078E-05-1.95374E-05-3.43610E-06 2.01425E-19 1.49229E-18
 -1      3822 6.34127E-05-1.64393E-05-2.01832E-05-1.02871E-05 1.17789E-18 8.27525E-19
 -1      3823 9.32534E-05-2.58850E-05-2.88673E-05-4.31844E-06-7.60010E-20-2.22035E-19
 -1      3824 9.35129E-05-2.61347E-05-2.88849E-05-3.96071E-06 8.96057E-20-9.17187E-20
 -1      3825 9.57268E-05-2.78307E-05-2.90981E-05-1.80200E-06 4.43520E-19-4.87138E-19
 -1      3826 9.57728E-05-2.77247E-05-2.91593E-05-1.51068E-06 4.07429E-19-6.94400E-19
 -1      3827 9.57652E-05-2.77142E-05-2.91661E-05-1.80857E-06 4.95862E-19-8.10063E-19
 -1      3828 9.54572E-05-2.46752E-05-3.03403E-05 1.13171E-06 6.63337E-19-1.33030E-18
 -1      3829 9.52534E-05-2.40439E-05-3.05243E-05 1.59501E-06 6.73579E-19-1.34504E-18
 -1      3830 9.55348E-05-2.47022E-05-3.03523E-05 8.31781E-07 6.61467E-19-1.43909E-18
 -1      3831 9.48798E-05-2.31164E-05-3.07487E-05 1.91659E-06 5.86207E-19-1.43195E-18
 -1      3832 9.42541E-05-2.17543E-05-3.10865E-05 2.43137E-06 5.74751E-19-1.72494E-18
 -1      3833 9.40151E-05-2.12455E-05-3.11922E-05 2.00835E-06 4.69037E-19-1.87208E-18
 -1      3834 9.49482E-05-2.32308E-05-3.07351E-05 1.47061E-06 5.47187E-19-1.48680E-18
 -1      3835 9.00330E-05-2.45738E-05-2.80689E-05 8.61389E-06-3.52387E-19 1.50273E-18
 -1      3836 9.01547E-05-2.50264E-05-2.78864E-05 9.43625E-06-5.84723E-19 2.22346E-18
 -1      3837 8.77659E-05-2.40201E-05-2.73194E-05 9.76891E-06 1.78449E-19 2.65367E-18
 -1      3838 9.37897E-05-2.08227E-05-3.12805E-05-1.03892E-06-2.72745E-19-2.08609E-18
 -1      3839 9.39443E-05-2.11277E-05-3.12227E-05-1.51086E-06-3.83695E-19-1.93763E-18
 -1      3840 9.45915E-05-2.23274E-05-3.09603E-05-1.20412E-06-4.69339E-19-1.72680E-18
 -1      3841 9.44242E-05-2.19307E-05-3.10445E-05-6.47665E-07-2.21060E-19-2.03024E-18
 -1      3842 9.60565E-05-2.71672E-05-2.95218E-05 9.25537E-07-5.28722E-19-1.17944E-18
 -1      3843 9.59882E-05-2.73633E-05-2.94133E-05 1.22126E-06-6.01855E-19-9.06932E-19
 -1      3844 9.59413E-05-2.72592E-05-2.94329E-05 1.14352E-06-3.95959E-19-9.19843E-19
 -1      3845 9.60763E-05-2.68180E-05-2.96790E-05 6.60608E-07-5.33525E-19-1.30753E-18
 -1      3846 9.13941E-05-3.44698E-05-2.42011E-05-2.12623E-05 1.98667E-18 5.62895E-19
 -1      3847 9.36015E-05-2.63183E-05-2.88405E-05 7.65983E-07 8.53925E-20 6.47952E-19
 -1      3848 9.37413E-05-2.64280E-05-2.88471E-05 1.01365E-06-6.27843E-19 2.85033E-19
 -1      3849 9.33181E-05-2.60463E-05-2.88260E-05 6.79810E-07 6.67590E-19 1.11989E-18
 -1      3850 7.07889E-05-1.95373E-05-2.19121E-05 1.38702E-05-1.55418E-18-3.14229E-19
 -1      3851 6.88151E-05-1.75436E-05-2.20196E-05 9.75967E-06-1.51737E-18-1.64457E-19
 -1      3852 7.64760E-05-2.14448E-05-2.34712E-05 1.35309E-05-2.11804E-18-5.19342E-19
 -1      3853 9.28676E-05-2.56793E-05-2.87975E-05-1.74161E-07 5.34507E-19 3.69537E-19
 -1      3854 9.28690E-05-2.56797E-05-2.87974E-05 1.83276E-07 8.41027E-19 9.94793E-20
 -1      3855 9.64569E-05-4.08537E-05-2.35698E-05 2.46390E-05 1.21997E-18-1.17735E-18
 -1      3856 8.19160E-05-2.83599E-05-2.29388E-05 2.08799E-05 5.01510E-19-1.23811E-18
 -1      3857 8.83675E-05-3.28067E-05-2.37300E-05 2.14742E-05 7.69079E-19-9.67176E-19
 -1      3858 6.90577E-05-1.74293E-05-2.21149E-05-9.25555E-06 9.84802E-19 4.33813E-19
 -1      3859 6.85696E-05-1.86439E-05-2.11883E-05-1.35541E-05 1.17996E-18 3.99601E-19
 -1      3860 7.44101E-05-2.20069E-05-2.25539E-05-1.57692E-05 1.48853E-18 1.15579E-18
 -1      3861 9.14877E-05-3.67642E-05-2.33144E-05 2.37446E-05 1.10517E-18-1.45422E-18
 -1      3862 9.54520E-05-2.75697E-05-2.90912E-05-2.20162E-06 4.49946E-19-8.06217E-19
 -1      3863 9.55967E-05-2.76161E-05-2.91352E-05-1.97053E-06 4.93411E-19-8.65611E-19
 -1      3864 9.45458E-05-2.22408E-05-3.09719E-05 1.40787E-06 4.32018E-19-1.92986E-18
 -1      3865 8.83253E-05-2.87975E-05-2.55844E-05 1.61048E-05-2.93495E-18 1.54711E-18
 -1      3866 9.28092E-05-3.16249E-05-2.61749E-05 1.60109E-05-1.97173E-18-7.03766E-19
 -1      3867 9.48226E-05-2.72265E-05-2.89688E-05-3.23130E-06 5.96175E-19-2.01128E-19
 -1      3868 9.35191E-05-2.61755E-05-2.88580E-05-1.74416E-06 1.01760E-18-7.98536E-19
 -1      3869 6.19572E-05-1.45608E-05-2.00582E-05 3.94829E-06 6.66575E-20-1.45839E-18
 -1      3870 6.33958E-05-1.49878E-05-2.06892E-05-1.83178E-09 5.95835E-20-1.16693E-18
 -1      3871 9.25167E-05-2.53465E-05-2.87810E-05-5.12129E-06 2.86671E-19-4.43619E-19
 -1      3872 9.27871E-05-2.55765E-05-2.88148E-05-4.69405E-06 7.95279E-20-4.32662E-19
 -1      3873 9.24452E-05-2.53176E-05-2.87621E-05-4.15399E-06 3.05830E-19-1.40938E-19
 -1      3874 9.50305E-05-2.73201E-05-2.90163E-05-2.63173E-06 5.95539E-19-6.03229E-19
 -1      3875 9.52088E-05-2.74518E-05-2.90416E-05-2.40012E-06 5.05604E-19-7.75547E-19
 -1      3876 9.52778E-05-2.73545E-05-2.91084E-05-2.08777E-06 4.52504E-19-9.84166E-19
 -1      3877 9.39262E-05-2.64327E-05-2.89218E-05-3.65594E-06 2.03130E-19-1.33778E-19
 -1      3878 9.41618E-05-2.66663E-05-2.89334E-05-3.35599E-06 5.02265E-19-3.64722E-20
 -1      3879 9.33187E-05-2.59622E-05-2.88617E-05-3.49765E-06 1.92314E-19 1.59878E-19
 -1      3880 8.83658E-05-2.39313E-05-2.76104E-05-8.85384E-06-5.65277E-19-2.72553E-19
 -1      3881 9.49260E-05-2.31062E-05-3.07881E-05 6.94541E-07 2.92708E-19-2.06368E-18
 -1      3882 9.48496E-05-2.29273E-05-3.08313E-05 3.94902E-07 2.25276E-19-2.14746E-18
 -1      3883 8.85742E-05-2.35226E-05-2.78720E-05 7.82165E-06 3.79388E-19 1.56455E-18
 -1      3884 9.36709E-05-2.63439E-05-2.88524E-05-1.28230E-06 3.13227E-19-2.87488E-19
 -1      3885 6.51242E-05-1.74621E-05-2.02818E-05-1.15380E-05-1.33249E-19-1.28292E-18
 -1      3886 9.36741E-05-2.63450E-05-2.88521E-05 1.29032E-06 3.15644E-20-1.07047E-18
 -1      3887 6.39516E-05-1.51230E-05-2.08040E-05 1.05599E-06-5.56789E-19 8.99403E-19
 -1      3888 9.17485E-05-2.49032E-05-2.86394E-05-6.09355E-06 5.21534E-20-1.73488E-19
 -1      3889 9.20045E-05-2.50649E-05-2.87005E-05-5.58491E-06 2.38707E-19-3.35249E-19
 -1      3890 9.14709E-05-2.46806E-05-2.86164E-05-4.95905E-06 1.20013E-19-4.45733E-19
 -1      3891 8.91404E-05-3.04817E-05-2.51937E-05-1.77640E-05-6.63779E-19-9.73305E-19
 -1      3892 9.59191E-05-2.74727E-05-2.93358E-05-1.23871E-06 4.11495E-19-7.95706E-19
 -1      3893 9.59952E-05-2.64996E-05-2.97782E-05-1.83119E-07 6.33717E-19-1.17834E-18
 -1      3894 9.59076E-05-2.59108E-05-2.99956E-05 7.82030E-08 5.35799E-19-1.38143E-18
 -1      3895 9.60216E-05-2.69079E-05-2.96260E-05-6.20185E-07 3.91111E-19-1.12800E-18
 -1      3896 7.60381E-05-2.67599E-05-2.09758E-05 2.22240E-05 6.59316E-19-1.24535E-18
 -1      3897 6.97667E-05-2.27961E-05-1.98141E-05 2.09306E-05 7.72186E-19-7.48407E-19
 -1      3898 6.78940E-05-1.99147E-05-2.04903E-05 1.60759E-05 2.18721E-19-6.96790E-19
 -1      3899 6.46848E-05-1.63474E-05-2.07368E-05 8.28074E-06 1.90347E-19-1.00819E-18
 -1      3900 9.30572E-05-2.58286E-05-2.88129E-05-9.19394E-07 7.04804E-19-1.21888E-19
 -1      3901 9.29355E-05-2.57372E-05-2.88043E-05-5.90216E-07 7.26366E-19-7.18497E-19
 -1      3902 9.25997E-05-2.54302E-05-2.87817E-05-4.23705E-07 2.97185E-19 3.06166E-19
 -1      3903 8.62135E-05-3.00490E-05-2.40726E-05-1.92951E-05 1.67325E-18 8.80411E-19
 -1      3904 9.49185E-05-2.31449E-05-3.07663E-05 1.21941E-06 3.97043E-19-1.76110E-18
 -1      3905 9.49176E-05-2.31147E-05-3.07828E-05 9.14807E-07 3.28958E-19-1.87189E-18
 -1      3906 9.53094E-05-2.39978E-05-3.05528E-05 9.56156E-07 5.55395E-19-1.60073E-18
 -1      3907 9.53151E-05-2.38973E-05-3.05918E-05 5.46370E-07 1.92149E-19-1.87897E-18
 -1      3908 9.04203E-05-2.41404E-05-2.83971E-05-5.95997E-06 3.79128E-20 6.22081E-20
 -1      3909 8.03086E-05-2.54928E-05-2.33431E-05-1.82403E-05 1.53958E-18 1.75245E-18
 -1      3910 9.51895E-05-2.71454E-05-2.91646E-05 1.48722E-06 2.52042E-21-1.05410E-18
 -1      3911 9.48997E-05-2.69936E-05-2.91030E-05 1.66355E-06-7.33875E-21-9.22109E-19
 -1      3912 9.45127E-05-2.67700E-05-2.90370E-05 1.79498E-06-2.03602E-19-8.54129E-19
 -1      3913 9.41523E-05-2.65198E-05-2.89854E-05 1.98137E-06-4.18885E-19-7.34949E-19
 -1      3914 9.46177E-05-2.67464E-05-2.90830E-05 1.36668E-06-6.08850E-20-1.00898E-18
 -1      3915 9.36760E-05-2.62032E-05-2.89232E-05 2.13257E-06-5.70534E-19-5.15301E-19
 -1      3916 9.32461E-05-2.58787E-05-2.88718E-05 2.34549E-06-6.10765E-19-5.23292E-19
 -1      3917 9.37622E-05-2.61957E-05-2.89508E-05 1.62879E-06-5.21175E-19-8.64611E-19
 -1      3918 9.26783E-05-2.54921E-05-2.88025E-05 2.52841E-06-4.18767E-19-3.21797E-19
 -1      3919 9.21764E-05-2.51151E-05-2.87407E-05 2.78187E-06-1.30886E-19 1.55938E-19
 -1      3920 9.27278E-05-2.54736E-05-2.88147E-05 1.93419E-06-1.69060E-19-5.26848E-19
 -1      3921 9.15086E-05-2.46801E-05-2.86519E-05 3.01095E-06-4.05354E-19 4.76391E-20
 -1      3922 9.09330E-05-2.42771E-05-2.85669E-05 3.32057E-06-5.06262E-19-2.30578E-19
 -1      3923 9.15037E-05-2.46254E-05-2.86515E-05 2.30144E-06-4.25068E-19-4.05382E-19
 -1      3924 9.01541E-05-2.38197E-05-2.84435E-05 3.61111E-06-2.90843E-19-4.31151E-19
 -1      3925 8.95044E-05-2.34226E-05-2.83203E-05 3.99664E-06-2.36058E-19-4.38774E-19
 -1      3926 9.00724E-05-2.36957E-05-2.84330E-05 2.76237E-06-5.72465E-19-1.03176E-18
 -1      3927 8.85968E-05-2.29728E-05-2.81438E-05 4.37428E-06-1.74001E-19-3.35881E-19
 -1      3928 8.78794E-05-2.26246E-05-2.79644E-05 4.86714E-06-3.64390E-19-4.29865E-19
 -1      3929 8.84033E-05-2.27354E-05-2.81250E-05 3.35117E-06-1.46997E-19-8.45681E-19
 -1      3930 8.68215E-05-2.22220E-05-2.77116E-05 5.37296E-06-5.29830E-19-1.73798E-19
 -1      3931 8.60536E-05-2.19793E-05-2.74547E-05 6.02520E-06-5.06715E-19-1.44175E-19
 -1      3932 8.64581E-05-2.18054E-05-2.76849E-05 4.13244E-06-3.98195E-19-6.35906E-19
 -1      3933 8.48125E-05-2.16753E-05-2.70951E-05 6.73494E-06 4.12010E-20-7.00277E-20
 -1      3934 8.40313E-05-2.16260E-05-2.67345E-05 7.63653E-06 6.20126E-19-5.77554E-20
 -1      3935 8.41809E-05-2.09752E-05-2.70578E-05 5.20855E-06-6.56355E-20 3.10874E-19
 -1      3936 8.25571E-05-2.14680E-05-2.62264E-05 8.65623E-06 6.55410E-19-2.13011E-20
 -1      3937 8.18349E-05-2.17595E-05-2.57285E-05 9.98085E-06 6.31978E-19-1.93017E-19
 -1      3938 8.15082E-05-2.03560E-05-2.61679E-05 6.77829E-06 6.35728E-19 3.35281E-19
 -1      3939 8.00608E-05-2.18465E-05-2.50083E-05 1.15002E-05 7.22375E-19-5.81796E-19
 -1      3940 7.95166E-05-2.27476E-05-2.43207E-05 1.35764E-05 5.19999E-19-8.89326E-19
 -1      3941 7.82422E-05-2.00992E-05-2.49142E-05 9.21223E-06 3.88817E-19-1.58494E-19
 -1      3942 9.48187E-05-2.28494E-05-3.08526E-05 1.68898E-07 8.32863E-20-2.11221E-18
 -1      3943 9.48146E-05-2.28472E-05-3.08524E-05-1.55780E-07-1.09126E-19-2.02206E-18
 -1      3944 9.52996E-05-2.38123E-05-3.06207E-05 1.86091E-07 1.38226E-19-1.96350E-18
 -1      3945 8.31823E-05-2.50160E-05-2.49153E-05 1.49158E-05-3.30876E-18 1.35871E-18
 -1      3946 9.45202E-05-2.69266E-05-2.89654E-05-3.10384E-06 5.04466E-19-3.51692E-19
 -1      3947 9.47283E-05-2.71199E-05-2.89799E-05-2.84745E-06 5.83531E-19-3.92860E-19
 -1      3948 9.47373E-05-2.70286E-05-2.90154E-05-2.49995E-06 3.67230E-19-6.53917E-19
 -1      3949 9.40826E-05-2.65490E-05-2.89393E-05-2.95812E-06 3.97129E-19 4.76123E-20
 -1      3950 8.57709E-05-2.25121E-05-2.71428E-05 8.31240E-06-9.58475E-20 1.93560E-18
 -1      3951 8.54304E-05-2.28289E-05-2.68047E-05 9.37540E-06 5.18318E-20 2.14386E-18
 -1      3952 8.14879E-05-2.16423E-05-2.56152E-05-1.02096E-05-1.18485E-19 7.08872E-19
 -1      3953 8.20500E-05-2.12615E-05-2.61067E-05-8.87051E-06-3.53317E-19 7.13312E-19
 -1      3954 8.35241E-05-2.13318E-05-2.66407E-05-7.76540E-06-9.07998E-19 1.53935E-19
 -1      3955 8.42770E-05-2.13185E-05-2.70190E-05-6.79905E-06-1.01970E-18-1.12990E-19
 -1      3956 8.08746E-05-2.00071E-05-2.60468E-05-6.92717E-06-8.45943E-19 2.36931E-19
 -1      3957 8.55046E-05-2.15707E-05-2.73947E-05-6.04154E-06-5.81826E-19-6.83024E-19
 -1      3958 8.62450E-05-2.17596E-05-2.76628E-05-5.33519E-06-2.76652E-19-4.15154E-19
 -1      3959 8.35593E-05-2.05416E-05-2.69785E-05-5.25051E-06-8.85081E-19-3.66317E-19
 -1      3960 8.72729E-05-2.21129E-05-2.79243E-05-4.79184E-06 3.11663E-19-7.81532E-19
 -1      3961 8.79539E-05-2.24107E-05-2.81093E-05-4.25232E-06 8.29786E-19-1.53570E-19
 -1      3962 8.57972E-05-2.12735E-05-2.76296E-05-4.08869E-06-1.45936E-19-5.56482E-19
 -1      3963 8.88176E-05-2.28128E-05-2.82881E-05-3.83649E-06 1.07415E-18 4.24083E-20
 -1      3964 8.94237E-05-2.31662E-05-2.84110E-05-3.40671E-06 5.76398E-19 4.61946E-19
 -1      3965 8.76687E-05-2.21054E-05-2.80806E-05-3.24334E-06 1.43214E-18-2.47460E-19
 -1      3966 9.01495E-05-2.35832E-05-2.85294E-05-3.08091E-06-1.49551E-19 9.85587E-19
 -1      3967 9.06723E-05-2.39498E-05-2.86071E-05-2.73037E-06-6.34595E-20 1.05243E-18
 -1      3968 8.92451E-05-2.29788E-05-2.83856E-05-2.58605E-06 8.83197E-19 1.55156E-18
 -1      3969 9.12752E-05-2.43510E-05-2.86824E-05-2.46895E-06 2.29810E-19 1.24048E-18
 -1      3970 9.17165E-05-2.47059E-05-2.87279E-05-2.17744E-06 1.81665E-19 1.20762E-18
 -1      3971 9.05631E-05-2.38387E-05-2.85851E-05-2.06900E-06 2.51609E-19 8.94305E-19
 -1      3972 9.22101E-05-2.50731E-05-2.87731E-05-1.96622E-06-1.88358E-19 2.70792E-19
 -1      3973 9.25656E-05-2.53883E-05-2.87966E-05-1.72429E-06-8.05891E-20-1.31272E-19
 -1      3974 9.16455E-05-2.46389E-05-2.87096E-05-1.65362E-06-5.14541E-19 1.62352E-19
 -1      3975 8.77726E-05-2.29525E-05-2.77697E-05-6.72472E-06-2.41935E-19 4.62936E-19
 -1      3976 8.83082E-05-2.30870E-05-2.79737E-05-6.05553E-06-3.10732E-20 7.83764E-19
 -1      3977 9.58658E-05-2.54977E-05-3.01669E-05-1.63969E-07-5.84224E-19-1.49143E-18
 -1      3978 9.59992E-05-2.60676E-05-2.99780E-05 2.00178E-07-4.93530E-19-1.48163E-18
 -1      3979 7.82101E-05-2.28229E-05-2.36808E-05-1.47675E-05 1.22607E-18 1.34760E-18
 -1      3980 9.26077E-05-2.54362E-05-2.87815E-05 4.31391E-07-1.40717E-19 4.43389E-19
 -1      3981 9.29403E-05-2.57411E-05-2.88039E-05 5.93203E-07 6.84906E-19 2.26471E-19
 -1      3982 9.30650E-05-2.58328E-05-2.88134E-05 9.26861E-07 2.87140E-20 1.95170E-18
 -1      3983 8.42016E-05-2.49839E-05-2.53136E-05-1.39147E-05-2.40321E-19-6.98523E-19
 -1      3984 8.39481E-05-2.38315E-05-2.58068E-05-1.22435E-05-2.60773E-19-5.53371E-19
 -1      3985 8.72244E-05-2.25352E-05-2.77484E-05 6.57057E-06 1.00151E-18 1.37104E-18
 -1      3986 8.67531E-05-2.25460E-05-2.75023E-05 7.37085E-06 5.06339E-19 2.10301E-18
 -1      3987 8.45790E-05-2.14472E-05-2.70321E-05 6.95154E-06 2.16459E-19 1.89111E-18
 -1      3988 8.43550E-05-2.30481E-05-2.63069E-05 1.07088E-05-8.90050E-19 1.44943E-18
 -1      3989 8.44207E-05-2.39294E-05-2.58749E-05 1.21606E-05-2.25762E-18 6.81622E-19
 -1      3990 8.25254E-05-2.14653E-05-2.61435E-05 9.09350E-06-8.45380E-19 1.42386E-19
 -1      3991 9.56987E-05-2.72786E-05-2.93245E-05 1.17700E-06-3.37675E-19-9.02254E-19
 -1      3992 9.54855E-05-2.72522E-05-2.92441E-05 1.36133E-06-2.68131E-19-8.97751E-19
 -1      3993 9.52947E-05-2.70782E-05-2.92320E-05 1.12040E-06-7.84163E-20-8.33428E-19
 -1      3994 9.09842E-05-2.41768E-05-2.86442E-05 3.38494E-06 1.16896E-18 2.01482E-18
 -1      3995 9.05428E-05-2.38662E-05-2.85742E-05 3.80056E-06 1.43578E-18 1.23681E-18
 -1      3996 9.19296E-05-2.48544E-05-2.87562E-05 2.70392E-06 4.58099E-19 1.76349E-18
 -1      3997 9.15480E-05-2.45408E-05-2.87166E-05 3.05028E-06 7.16875E-19 1.88099E-18
 -1      3998 9.07382E-05-2.39673E-05-2.86040E-05 2.73932E-06 8.98558E-19 3.70608E-18
 -1      3999 9.27195E-05-2.54934E-05-2.88181E-05 2.14283E-06 1.26645E-18-8.27045E-19
 -1      4000 9.23992E-05-2.52002E-05-2.87989E-05 2.43057E-06 9.86547E-19 1.20020E-18
 -1      4001 9.17620E-05-2.47152E-05-2.87251E-05 2.18085E-06 1.13621E-18 1.63279E-18
 -1      4002 9.32181E-05-2.59456E-05-2.88351E-05-1.45773E-06 1.04388E-18-3.40998E-19
 -1      4003 6.55097E-05-1.60990E-05-2.11245E-05-7.25638E-06-5.22083E-20-1.18507E-18
 -1      4004 6.98666E-05-1.92959E-05-2.16871E-05-1.34626E-05-3.67221E-19-8.54431E-19
 -1      4005 9.56943E-05-2.74744E-05-2.92359E-05-1.67885E-06 4.38158E-19-9.02380E-19
 -1      4006 9.57746E-05-2.76267E-05-2.92066E-05-1.76339E-06 3.87341E-19-9.61728E-19
 -1      4007 9.58793E-05-2.75616E-05-2.92776E-05-1.50245E-06 3.56254E-19-9.01973E-19
 -1      4008 8.91824E-05-2.34045E-05-2.81847E-05-5.48625E-06 3.96809E-20 5.21560E-19
 -1      4009 8.97279E-05-2.36748E-05-2.83254E-05-4.96428E-06-6.92995E-20 3.52152E-19
 -1      4010 8.77448E-05-2.25766E-05-2.79110E-05-4.98784E-06-2.36562E-19 7.90157E-19
 -1      4011 8.50558E-05-2.34125E-05-2.63816E-05-1.06618E-05-6.98530E-19-4.19810E-19
 -1      4012 8.52880E-05-2.29197E-05-2.67658E-05-9.46228E-06-5.81600E-19-3.15811E-19
 -1      4013 8.16695E-05-2.18579E-05-2.56032E-05-1.05216E-05-3.78353E-19-5.37079E-19
 -1      4014 8.63470E-05-2.28697E-05-2.71844E-05-8.37256E-06-3.33882E-19 9.80543E-20
 -1      4015 8.68042E-05-2.27738E-05-2.74698E-05-7.49190E-06-1.48180E-19 4.87564E-19
 -1      4016 8.59102E-05-2.19705E-05-2.73820E-05-6.23059E-06-1.94579E-19 9.97040E-19
 -1      4017 8.98752E-05-2.35066E-05-2.84593E-05 4.21769E-06 8.97929E-19 3.99200E-19
 -1      4018 8.93872E-05-2.32377E-05-2.83466E-05 4.72288E-06 8.12106E-19 7.21230E-19
 -1      4019 8.95158E-05-2.31961E-05-2.84087E-05 3.42617E-06 7.53817E-19 1.46181E-18
 -1      4020 7.80585E-05-2.59722E-05-2.22971E-05-2.00305E-05-9.73850E-19-8.67560E-19
 -1      4021 8.45411E-05-2.83171E-05-2.39850E-05-1.85473E-05-6.27486E-19-1.06358E-18
 -1      4022 9.55242E-05-2.46306E-05-3.03906E-05 6.41660E-07 5.27878E-19-1.55720E-18
 -1      4023 9.55793E-05-2.46677E-05-3.03899E-05 4.13368E-07 4.26184E-19-1.60951E-18
 -1      4024 9.55923E-05-2.46900E-05-3.03963E-05 2.53597E-07 2.84632E-19-1.75571E-18
 -1      4025 9.32547E-05-2.59970E-05-2.88300E-05 1.22795E-06 7.25108E-19 1.05518E-18
 -1      4026 9.35124E-05-2.61983E-05-2.88494E-05 1.51114E-06 8.57375E-19-2.40740E-18
 -1      4027 9.33412E-05-2.60307E-05-2.88473E-05 1.68634E-06 7.49493E-19-2.11660E-18
 -1      4028 9.28760E-05-2.56563E-05-2.88066E-05 1.15960E-06 6.91713E-19-4.34995E-19
 -1      4029 9.59780E-05-2.74327E-05-2.93791E-05-1.25907E-06 3.14195E-19-1.08634E-18
 -1      4030 9.60297E-05-2.72206E-05-2.94859E-05-9.31341E-07 2.71453E-19-1.06655E-18
 -1      4031 9.60598E-05-2.68423E-05-2.96631E-05-6.55831E-07 3.04837E-19-1.40842E-18
 -1      4032 9.59684E-05-2.73310E-05-2.94148E-05-1.22017E-06 2.48892E-19-1.33566E-18
 -1      4033 7.86349E-05-2.16610E-05-2.44355E-05-1.25439E-05 5.38236E-19 7.35363E-19
 -1      4034 6.85250E-05-1.82101E-05-2.13768E-05 1.21793E-05 1.02110E-19-8.00684E-19
 -1      4035 6.90225E-05-1.73100E-05-2.21337E-05 8.01894E-06 9.86065E-20-9.76669E-19
 -1      4036 7.45369E-05-2.26029E-05-2.22109E-05-1.69315E-05-7.82255E-19-1.00970E-18
 -1      4037 7.99358E-05-2.25048E-05-2.46390E-05 1.31125E-05-2.77094E-18-4.47167E-19
 -1      4038 8.86143E-05-2.29231E-05-2.81728E-05 5.25067E-06 4.24653E-19 1.19299E-18
 -1      4039 8.81058E-05-2.27498E-05-2.80022E-05 5.87658E-06 9.18275E-19 8.68814E-19
 -1      4040 8.64406E-05-2.18356E-05-2.76669E-05 5.42129E-06 1.18648E-18 6.90410E-19
 -1      4041 8.80863E-05-2.24585E-05-2.81092E-05 4.29653E-06 1.10878E-18 4.17767E-19
 -1      4042 6.68709E-05-1.56661E-05-2.18643E-05 4.81526E-06-9.10935E-19 1.00215E-19
 -1      4043 6.72508E-05-1.56437E-05-2.21671E-05-1.74555E-06 3.99197E-20-2.70720E-19
 -1      4044 7.18252E-05-1.74863E-05-2.32004E-05 6.59622E-06-1.29539E-18-4.83130E-19
 -1      4045 6.83462E-05-1.60095E-05-2.24886E-05 6.62569E-07-8.37338E-20-1.17198E-18
 -1      4046 6.64288E-05-1.56197E-05-2.16751E-05-3.46322E-06-1.89706E-20-1.20516E-18
 -1      4047 7.06341E-05-1.70505E-05-2.29105E-05-5.53162E-06-2.82393E-19-1.12773E-18
 -1      4048 8.32778E-05-2.60632E-05-2.45481E-05-1.62176E-05-5.07439E-19-9.20602E-19
 -1      4049 7.95379E-05-2.31048E-05-2.41957E-05-1.44147E-05-2.83981E-19-8.57063E-19
 -1      4050 9.58052E-05-2.53246E-05-3.02008E-05 3.13957E-07 4.90485E-19-1.48004E-18
 -1      4051 7.41705E-05-2.07001E-05-2.28416E-05-1.32803E-05-3.46013E-19-5.86984E-19
 -1      4052 7.78271E-05-2.40957E-05-2.29959E-05 1.73255E-05 4.86465E-20-1.03278E-18
 -1      4053 9.52951E-05-2.37926E-05-3.06268E-05-1.30614E-07-1.02990E-19-1.85579E-18
 -1      4054 9.48390E-05-2.29021E-05-3.08388E-05-3.30564E-07-1.33252E-19-1.92465E-18
 -1      4055 9.49076E-05-2.30456E-05-3.08112E-05-6.00228E-07-3.28665E-19-1.86432E-18
 -1      4056 9.55839E-05-2.46140E-05-3.04211E-05 1.72668E-07 1.45939E-19-1.90383E-18
 -1      4057 9.55570E-05-2.45459E-05-3.04411E-05 3.84470E-08 1.12351E-20-1.93231E-18
 -1      4058 7.65075E-05-1.96546E-05-2.43193E-05-9.94126E-06 1.47602E-19 2.03379E-19
 -1      4059 8.38718E-05-2.16561E-05-2.66382E-05-7.97266E-06-1.93755E-19 3.15839E-19
 -1      4060 7.53245E-05-1.99860E-05-2.37546E-05-1.10125E-05-2.90780E-19-7.06796E-19
 -1      4061 9.22413E-05-2.51497E-05-2.87554E-05-6.83306E-07-4.36520E-20 1.20918E-18
 -1      4062 9.21596E-05-2.50926E-05-2.87470E-05-2.57724E-07-9.36582E-19 6.51533E-19
 -1      4063 9.60335E-05-2.61402E-05-2.99568E-05 2.19617E-07-4.21813E-19-1.46611E-18
 -1      4064 9.61014E-05-2.65442E-05-2.98083E-05 3.91855E-07-3.62303E-19-1.44421E-18
 -1      4065 9.60822E-05-2.68739E-05-2.96653E-05 6.61475E-07-4.19649E-19-1.31524E-18
 -1      4066 9.16985E-05-2.48020E-05-2.86677E-05-3.77799E-06 2.85122E-19 3.98539E-19
 -1      4067 9.21665E-05-2.51504E-05-2.87316E-05-3.43914E-06 1.77451E-19 2.93996E-19
 -1      4068 9.27577E-05-2.55425E-05-2.88047E-05-3.17338E-06 2.74995E-19 2.65691E-19
 -1      4069 9.31654E-05-2.58707E-05-2.88511E-05-2.89823E-06 5.10068E-19 4.28341E-19
 -1      4070 9.20888E-05-2.50467E-05-2.87213E-05-2.79897E-06 2.39774E-19 3.86049E-19
 -1      4071 9.55678E-05-2.45752E-05-3.04145E-05-3.54958E-07-5.19155E-19-1.58739E-18
 -1      4072 9.56307E-05-2.47446E-05-3.03734E-05-1.86496E-07-5.07208E-19-1.58844E-18
 -1      4073 9.21543E-05-2.50870E-05-2.87469E-05 2.70819E-07-6.18216E-20-1.03803E-19
 -1      4074 9.22398E-05-2.51477E-05-2.87538E-05 6.97501E-07 4.87000E-19 4.91134E-19
 -1      4075 9.17704E-05-2.47691E-05-2.87148E-05 1.33786E-08-7.10419E-19-9.77448E-21
 -1      4076 9.59568E-05-2.59557E-05-3.00086E-05-1.00016E-07 3.70929E-19-1.38790E-18
 -1      4077 9.49546E-05-2.31236E-05-3.07698E-05-9.53228E-07-4.46122E-19-1.61033E-18
 -1      4078 9.58916E-05-2.72367E-05-2.94261E-05 1.04187E-06-2.70722E-19-8.98222E-19
 -1      4079 9.57800E-05-2.71341E-05-2.94164E-05 8.66340E-07-3.65456E-19-1.05361E-18
 -1      4080 9.60153E-05-2.71028E-05-2.95339E-05 8.27872E-07-4.31570E-19-1.04454E-18
 -1      4081 9.56070E-05-2.73761E-05-2.92426E-05-1.54205E-06 3.80077E-19-1.24513E-18
 -1      4082 9.57843E-05-2.73715E-05-2.93203E-05-1.33077E-06 2.40832E-19-1.46317E-18
 -1      4083 9.31521E-05-2.58513E-05-2.88434E-05 1.87868E-06 8.72225E-19-8.61489E-19
 -1      4084 9.51039E-05-2.71835E-05-2.91089E-05-1.89645E-06 2.07494E-19-7.03612E-19
 -1      4085 9.53473E-05-2.73005E-05-2.91653E-05-1.69812E-06 3.80508E-19-8.24787E-19
 -1      4086 9.54400E-05-2.72026E-05-2.92415E-05-1.35242E-06 1.25577E-19-1.22072E-18
 -1      4087 7.19078E-05-2.07950E-05-2.19566E-05 1.51967E-05 8.85944E-20-7.94782E-19
 -1      4088 7.44308E-05-1.95032E-05-2.34359E-05 1.11905E-05 3.08641E-19-9.57566E-19
 -1      4089 7.77173E-05-2.25001E-05-2.36639E-05 1.43232E-05 2.26250E-19-1.09116E-18
 -1      4090 9.05026E-05-2.40611E-05-2.84716E-05-4.53188E-06 2.77788E-20 5.24601E-19
 -1      4091 9.10195E-05-2.43957E-05-2.85662E-05-4.11477E-06 2.60025E-19 4.53878E-19
 -1      4092 9.08254E-05-2.42076E-05-2.85387E-05-3.35779E-06 2.04788E-19 9.49071E-19
 -1      4093 6.99775E-05-1.63766E-05-2.28308E-05-4.87815E-06-7.09307E-20-2.61914E-19
 -1      4094 7.33034E-05-1.82614E-05-2.36137E-05-8.00526E-06 4.08548E-19-6.31225E-19
 -1      4095 7.64535E-05-1.85789E-05-2.48716E-05-6.27738E-06-7.68001E-19-2.22196E-19
 -1      4096 7.19020E-05-1.66394E-05-2.36910E-05-1.51793E-06-4.34376E-19-3.78658E-19
 -1      4097 9.28349E-05-2.56034E-05-2.88104E-05-1.40813E-06 1.79095E-19-8.40805E-20
 -1      4098 9.58396E-05-2.52761E-05-3.02299E-05 8.16466E-08 2.50523E-19-1.67303E-18
 -1      4099 9.26627E-05-2.54553E-05-2.87987E-05 1.67556E-06 1.36831E-18 3.08684E-19
 -1      4100 8.93836E-05-2.33595E-05-2.82812E-05-4.06498E-06 1.27981E-19 6.79157E-19
 -1      4101 9.55467E-05-2.45305E-05-3.04439E-05-1.48038E-08-8.24739E-20-1.75951E-18
 -1      4102 9.55564E-05-2.45779E-05-3.04330E-05-1.20111E-07-3.18437E-19-1.72668E-18
 -1      4103 9.58422E-05-2.52085E-05-3.02539E-05 2.05330E-08-2.77418E-20-1.62478E-18
 -1      4104 9.24195E-05-2.52805E-05-2.87767E-05 1.36526E-06 1.26265E-18 7.03277E-19
 -1      4105 9.38942E-05-2.62828E-05-2.89811E-05 1.07285E-06-3.84012E-19-1.13757E-18
 -1      4106 9.34158E-05-2.59540E-05-2.89146E-05 1.19742E-06-3.94062E-19-1.03551E-18
 -1      4107 9.28490E-05-2.55731E-05-2.88387E-05 1.27248E-06-3.43167E-19-1.00757E-18
 -1      4108 9.22745E-05-2.51678E-05-2.87644E-05 1.41145E-06-1.63818E-19-8.37434E-19
 -1      4109 9.30443E-05-2.56560E-05-2.88691E-05 7.05326E-07-3.34162E-19-1.10554E-18
 -1      4110 9.15924E-05-2.47101E-05-2.86736E-05 1.51772E-06-2.90953E-19-1.10945E-18
 -1      4111 9.09253E-05-2.42501E-05-2.85791E-05 1.68872E-06-6.43718E-19-1.28226E-18
 -1      4112 9.17832E-05-2.47752E-05-2.86984E-05 8.48209E-07-3.66823E-19-1.59023E-18
 -1      4113 9.01190E-05-2.37495E-05-2.84580E-05 1.81685E-06-6.15792E-19-1.16786E-18
 -1      4114 8.93397E-05-2.32558E-05-2.83274E-05 2.02593E-06-2.89844E-19-9.16316E-19
 -1      4115 9.03266E-05-2.37975E-05-2.84830E-05 1.01142E-06-3.16499E-19-1.28700E-18
 -1      4116 8.83831E-05-2.27236E-05-2.81584E-05 2.19547E-06-1.25352E-19-9.90103E-19
 -1      4117 8.74718E-05-2.22206E-05-2.79725E-05 2.46331E-06-1.23625E-19-7.30755E-19
 -1      4118 8.85905E-05-2.27229E-05-2.81886E-05 1.21689E-06-2.65160E-19-1.00281E-18
 -1      4119 8.63239E-05-2.16756E-05-2.77320E-05 2.69257E-06 2.62199E-20-6.50674E-19
 -1      4120 8.52602E-05-2.11933E-05-2.74663E-05 3.05508E-06 1.60350E-19-1.91752E-19
 -1      4121 8.65230E-05-2.15931E-05-2.77741E-05 1.48235E-06 3.28585E-20-7.16778E-19
 -1      4122 8.38552E-05-2.06512E-05-2.71232E-05 3.38534E-06 1.64290E-19 2.35142E-19
 -1      4123 8.26178E-05-2.02268E-05-2.67448E-05 3.91943E-06 2.35907E-19 5.24276E-19
 -1      4124 8.40009E-05-2.04415E-05-2.71839E-05 1.82407E-06 5.43047E-19-2.26696E-19
 -1      4125 8.08324E-05-1.96790E-05-2.62532E-05 4.34097E-06 3.08551E-20 4.37033E-19
 -1      4126 7.92537E-05-1.93502E-05-2.56997E-05 5.18504E-06 4.71039E-19-1.39438E-19
 -1      4127 8.09888E-05-1.93865E-05-2.63527E-05 2.33881E-06 2.27344E-19 1.56547E-19
 -1      4128 7.87715E-05-1.90469E-05-2.55989E-05-5.49829E-06-1.10700E-18-1.07615E-19
 -1      4129 8.02843E-05-1.93546E-05-2.61595E-05-4.61852E-06-8.39243E-19-1.28155E-19
 -1      4130 7.64127E-05-1.78849E-05-2.50192E-05-3.65957E-06-6.36597E-19-6.47136E-19
 -1      4131 9.54147E-05-2.70852E-05-2.92876E-05 7.19622E-07-1.70830E-19-9.88606E-19
 -1      4132 9.51218E-05-2.69797E-05-2.92047E-05 8.39337E-07 1.00118E-19-1.09114E-18
 -1      4133 9.23909E-05-2.52576E-05-2.87718E-05-1.14827E-06-5.68027E-20-2.30495E-19
 -1      4134 9.19518E-05-2.48945E-05-2.87350E-05-9.96066E-07-1.27312E-18 8.05577E-19
 -1      4135 8.20346E-05-1.98242E-05-2.66671E-05-4.10660E-06-6.60989E-19-8.32797E-19
 -1      4136 8.32728E-05-2.02029E-05-2.70599E-05-3.53015E-06-1.06359E-18-2.59651E-19
 -1      4137 8.03808E-05-1.89823E-05-2.62729E-05-2.71764E-06-1.28616E-18-7.46709E-19
 -1      4138 8.46441E-05-2.06984E-05-2.74115E-05-3.17785E-06-8.29835E-19 9.12504E-20
 -1      4139 8.56601E-05-2.11261E-05-2.76851E-05-2.78719E-06 8.15989E-19 4.34200E-19
 -1      4140 8.34401E-05-2.00272E-05-2.71370E-05-2.09126E-06-6.97107E-19 3.86677E-19
 -1      4141 8.67617E-05-2.16084E-05-2.79294E-05-2.49532E-06 1.56906E-18 4.33620E-19
 -1      4142 8.76296E-05-2.20644E-05-2.81170E-05-2.19493E-06 1.70009E-18 8.55444E-19
 -1      4143 8.57954E-05-2.09921E-05-2.77299E-05-1.60125E-06 1.22112E-18 8.88815E-19
 -1      4144 8.85275E-05-2.25527E-05-2.82817E-05-1.99006E-06 1.35725E-18 7.69564E-19
 -1      4145 8.92582E-05-2.30074E-05-2.84062E-05-1.75368E-06 6.68300E-19 8.55109E-19
 -1      4146 8.77943E-05-2.20397E-05-2.81432E-05-1.28280E-06 1.72334E-18 1.27266E-19
 -1      4147 8.99915E-05-2.34659E-05-2.85156E-05-1.59028E-06-1.59661E-19 1.58910E-18
 -1      4148 9.06046E-05-2.38999E-05-2.85950E-05-1.39106E-06-1.04647E-20 1.28978E-18
 -1      4149 8.93994E-05-2.30353E-05-2.84202E-05-1.04405E-06 2.18099E-19-5.65725E-20
 -1      4150 9.10578E-05-2.42207E-05-2.86474E-05-1.27125E-06-3.14528E-19 1.18789E-18
 -1      4151 9.15520E-05-2.46042E-05-2.86980E-05-1.11699E-06-1.12356E-18 7.81152E-19
 -1      4152 9.14100E-05-2.44790E-05-2.86795E-05-6.13035E-07-9.32010E-19 1.11407E-18
 -1      4153 9.06040E-05-2.38701E-05-2.85862E-05-8.29351E-07-2.75439E-19 3.22031E-19
 -1      4154 7.21675E-05-1.81601E-05-2.32070E-05 8.43994E-06-1.08773E-19-1.20932E-18
 -1      4155 6.95509E-05-1.64037E-05-2.26783E-05 4.68836E-06 3.88518E-20-1.35171E-18
 -1      4156 9.52130E-05-2.38132E-05-3.05994E-05-7.05829E-07-5.07621E-19-1.62016E-18
 -1      4157 8.36560E-05-2.06746E-05-2.70262E-05 5.09713E-06 5.10408E-19 4.17343E-19
 -1      4158 8.26450E-05-2.04728E-05-2.66404E-05 5.90028E-06-1.61261E-19 5.39017E-19
 -1      4159 8.09809E-05-2.01384E-05-2.61192E-05 6.72196E-06-1.34265E-18-6.73515E-19
 -1      4160 7.99732E-05-2.01422E-05-2.56012E-05 7.85795E-06-2.34718E-18-1.81699E-18
 -1      4161 8.04137E-05-1.93149E-05-2.61475E-05 4.72818E-06-1.75278E-18-2.50338E-18
 -1      4162 9.00550E-05-2.37193E-05-2.84324E-05-2.74137E-06 5.83704E-20 3.61553E-19
 -1      4163 9.07374E-05-2.41678E-05-2.85427E-05-2.47123E-06 1.18589E-19 2.03104E-19
 -1      4164 9.16755E-05-2.46934E-05-2.87129E-05 1.57853E-06 1.21254E-18 1.36060E-19
 -1      4165 9.12068E-05-2.43231E-05-2.86663E-05 1.79875E-06 1.28165E-18-1.51388E-19
 -1      4166 9.06074E-05-2.39144E-05-2.85937E-05 1.98864E-06 1.23353E-18 3.56852E-20
 -1      4167 9.00337E-05-2.35127E-05-2.85142E-05 2.25085E-06 8.00848E-19 1.95887E-19
 -1      4168 9.06281E-05-2.38824E-05-2.85888E-05 1.35759E-06 1.16779E-18-2.51508E-18
 -1      4169 8.84007E-05-2.27815E-05-2.81259E-05-3.33549E-06 2.29989E-19 3.29237E-19
 -1      4170 8.91803E-05-2.32273E-05-2.82833E-05-2.99370E-06 3.31189E-19 4.93139E-19
 -1      4171 8.92250E-05-2.31368E-05-2.82912E-05-2.03885E-06 9.57888E-20-2.09343E-19
 -1      4172 8.16556E-05-2.05426E-05-2.61818E-05-6.81050E-06-1.74304E-19-2.83002E-19
 -1      4173 8.27637E-05-2.07095E-05-2.66317E-05-5.86535E-06-1.70829E-19 1.99461E-19
 -1      4174 8.64822E-05-2.18825E-05-2.76878E-05-4.12361E-06-2.33941E-19 3.45310E-19
 -1      4175 8.73640E-05-2.22889E-05-2.79137E-05-3.67120E-06 1.21630E-19 5.17995E-19
 -1      4176 8.73420E-05-2.20879E-05-2.79224E-05-2.50044E-06 1.03196E-19 2.24935E-19
 -1      4177 7.86456E-05-2.03475E-05-2.49549E-05-9.14369E-06-6.42488E-20-8.24721E-19
 -1      4178 7.97609E-05-2.02549E-05-2.55657E-05-7.76393E-06 5.51564E-20-1.83680E-19
 -1      4179 7.90831E-05-1.92712E-05-2.56043E-05-5.36935E-06 1.18109E-19-6.58335E-19
 -1      4180 9.58598E-05-2.71943E-05-2.94247E-05-1.02899E-06 7.52871E-20-1.71077E-18
 -1      4181 9.59458E-05-2.73005E-05-2.94220E-05-1.15850E-06 1.24922E-19-1.52580E-18
 -1      4182 9.60488E-05-2.71461E-05-2.95297E-05-9.04667E-07 9.15853E-20-1.63419E-18
 -1      4183 9.58879E-05-2.53887E-05-3.01998E-05-3.69910E-08-5.34829E-19-1.41774E-18
 -1      4184 7.39159E-05-1.83105E-05-2.37777E-05-7.83842E-06-3.17538E-19-7.71762E-19
 -1      4185 9.47511E-05-2.68038E-05-2.91240E-05 8.93619E-07-2.58763E-21-1.11780E-18
 -1      4186 9.43641E-05-2.65754E-05-2.90541E-05 1.00898E-06-2.60627E-19-1.18712E-18
 -1      4187 9.49025E-05-2.68152E-05-2.91748E-05 4.87479E-07 4.89588E-21-1.48958E-18
 -1      4188 8.92907E-05-2.30631E-05-2.84003E-05 2.50072E-06 5.67297E-19 6.24372E-19
 -1      4189 8.86240E-05-2.26542E-05-2.82763E-05 2.83192E-06 3.83485E-19 8.06191E-22
 -1      4190 8.92740E-05-2.29480E-05-2.83934E-05 1.73169E-06 7.86178E-19-2.79190E-18
 -1      4191 7.77016E-05-2.05021E-05-2.45527E-05 1.06544E-05-2.20784E-18-1.50240E-18
 -1      4192 9.60851E-05-2.64685E-05-2.98318E-05-3.36479E-07 2.82019E-19-1.48311E-18
 -1      4193 9.59873E-05-2.59412E-05-3.00188E-05-1.35395E-07 3.36074E-19-1.40406E-18
 -1      4194 9.60864E-05-2.68321E-05-2.96848E-05-6.62288E-07 2.33130E-19-1.50604E-18
 -1      4195 7.38857E-05-1.76678E-05-2.41559E-05-4.40734E-06-1.43198E-19-8.18265E-19
 -1      4196 7.45419E-05-1.86958E-05-2.39065E-05 8.06819E-06-8.75686E-20-1.05914E-18
 -1      4197 9.59775E-05-2.58901E-05-3.00461E-05-1.39167E-07 2.61163E-19-1.61463E-18
 -1      4198 8.42505E-05-2.11162E-05-2.70622E-05-5.24023E-06-1.53653E-19 1.20751E-19
 -1      4199 8.52334E-05-2.14159E-05-2.73842E-05-4.60204E-06-2.23651E-19 5.78435E-20
 -1      4200 8.24207E-05-2.01645E-05-2.66672E-05-4.12696E-06-1.39656E-19-9.70078E-19
 -1      4201 7.17719E-05-1.68482E-05-2.34846E-05 1.68300E-06-1.90453E-19-1.12403E-18
 -1      4202 7.41857E-05-1.75196E-05-2.43386E-05 3.03480E-06-2.91903E-19-1.08835E-18
 -1      4203 7.35593E-05-1.71049E-05-2.41644E-05-7.76980E-07-3.33715E-19-7.08875E-19
 -1      4204 7.62724E-05-1.89950E-05-2.45439E-05 8.16853E-06-2.15701E-18-2.65831E-18
 -1      4205 7.63589E-05-1.87173E-05-2.46986E-05 6.67364E-06 2.44065E-19-5.77515E-19
 -1      4206 7.63429E-05-1.81183E-05-2.49261E-05-2.81297E-06-3.03907E-19-4.85952E-19
 -1      4207 9.40654E-05-2.63382E-05-2.90196E-05 5.88548E-07-1.12986E-19-1.35668E-18
 -1      4208 7.75272E-05-1.82193E-05-2.53980E-05 1.68210E-06-3.08694E-19-1.21401E-19
 -1      4209 7.76639E-05-1.87303E-05-2.52499E-05 4.35126E-06 1.66351E-19-4.68273E-19
 -1      4210 9.56812E-05-2.71184E-05-2.93852E-05 6.69215E-07-2.17064E-19-1.07039E-18
 -1      4211 9.55277E-05-2.70211E-05-2.93558E-05 3.89593E-07-8.25952E-20-1.06512E-18
 -1      4212 9.58686E-05-2.70649E-05-2.94900E-05 5.34385E-07-9.80773E-20-1.11734E-18
 -1      4213 9.61019E-05-2.64338E-05-2.98523E-05-2.29236E-07 3.35035E-19-1.39126E-18
 -1      4214 9.59812E-05-2.58819E-05-3.00457E-05-6.14072E-08 1.91350E-19-1.52343E-18
 -1      4215 7.44500E-05-1.75205E-05-2.44317E-05 3.82816E-06-1.59364E-18-1.25635E-18
 -1      4216 9.36737E-05-2.62140E-05-2.89095E-05-2.67346E-06 2.76808E-19 3.07017E-19
 -1      4217 9.40320E-05-2.64986E-05-2.89495E-05-2.43855E-06 1.69962E-19 1.49251E-19
 -1      4218 9.31517E-05-2.57906E-05-2.88586E-05-2.34935E-06 3.44260E-19 1.58088E-19
 -1      4219 9.14780E-05-2.46332E-05-2.86497E-05-2.27552E-06 1.23946E-19-8.91535E-21
 -1      4220 9.20537E-05-2.50491E-05-2.87288E-05-2.04394E-06 2.24180E-20-3.03244E-19
 -1      4221 9.08177E-05-2.41434E-05-2.85534E-05-1.68717E-06-2.09105E-20-3.18609E-19
 -1      4222 9.60060E-05-2.59632E-05-3.00202E-05 1.46902E-07-3.26913E-19-1.47898E-18
 -1      4223 9.44575E-05-2.67793E-05-2.90042E-05-2.25918E-06 1.08287E-19-2.99621E-19
 -1      4224 9.47630E-05-2.69923E-05-2.90479E-05-2.05072E-06 8.06748E-20-4.00362E-19
 -1      4225 9.48496E-05-2.69440E-05-2.90983E-05-1.66225E-06-2.04536E-19-3.48319E-19
 -1      4226 9.40804E-05-2.64500E-05-2.89773E-05-1.98569E-06-6.52719E-20-3.15569E-19
 -1      4227 9.60364E-05-2.68353E-05-2.96525E-05 5.73579E-07-1.86354E-19-1.37264E-18
 -1      4228 9.19572E-05-2.48989E-05-2.87371E-05 1.24144E-06 1.16177E-18 3.77632E-19
 -1      4229 9.14848E-05-2.45528E-05-2.86886E-05 8.66780E-07 2.31711E-19-1.45366E-18
 -1      4230 8.76742E-05-2.20048E-05-2.81007E-05 2.17706E-06 5.19685E-19-5.80221E-19
 -1      4231 8.77241E-05-2.22022E-05-2.81039E-05 3.14506E-06 8.63911E-19 2.70228E-19
 -1      4232 8.69541E-05-2.18197E-05-2.79174E-05 3.56705E-06 1.45203E-18-8.73072E-20
 -1      4233 8.58586E-05-2.13756E-05-2.76644E-05 3.98884E-06 1.61860E-18-6.12595E-19
 -1      4234 8.49898E-05-2.10615E-05-2.73927E-05 4.56758E-06 1.58355E-18 2.41992E-19
 -1      4235 8.34143E-05-2.02151E-05-2.70488E-05 3.49366E-06 1.37331E-18-1.53983E-18
 -1      4236 8.57041E-05-2.10594E-05-2.76663E-05 2.73798E-06 1.25181E-18-9.67555E-19
 -1      4237 9.57766E-05-2.71743E-05-2.94041E-05-8.75939E-07-5.60131E-20-1.43912E-18
 -1      4238 9.59453E-05-2.70929E-05-2.95098E-05-6.95299E-07 1.14556E-19-1.53308E-18
 -1      4239 9.59843E-05-2.58936E-05-3.00488E-05-5.05652E-08-2.72706E-21-1.54808E-18
 -1      4240 9.52872E-05-2.71013E-05-2.92227E-05-1.11404E-06-2.08904E-19-8.94470E-19
 -1      4241 9.55475E-05-2.71744E-05-2.93047E-05-9.63225E-07-2.04044E-19-1.35913E-18
 -1      4242 9.56392E-05-2.70678E-05-2.93840E-05-6.41401E-07-2.36893E-19-1.21636E-18
 -1      4243 9.13843E-05-2.44703E-05-2.86769E-05-5.01900E-08-5.41120E-19-5.06017E-19
 -1      4244 7.41675E-05-1.71026E-05-2.44111E-05 1.56700E-06-7.88684E-19 1.64606E-19
 -1      4245 7.56250E-05-1.76462E-05-2.48958E-05-1.44263E-06-7.46643E-19-7.96555E-19
 -1      4246 7.78725E-05-1.81716E-05-2.56195E-05-1.05678E-06-1.15967E-18-7.42450E-19
 -1      4247 7.81721E-05-1.84537E-05-2.55764E-05 3.18890E-06-2.01406E-18-2.34821E-18
 -1      4248 8.50813E-05-2.10293E-05-2.73975E-05-3.12367E-06 1.64110E-19-2.10177E-19
 -1      4249 9.32755E-05-2.58415E-05-2.89060E-05 1.11889E-07-1.21379E-19-1.14987E-18
 -1      4250 9.26852E-05-2.54450E-05-2.88264E-05 1.70896E-07-3.90267E-19-1.04060E-18
 -1      4251 7.93128E-05-1.88103E-05-2.59176E-05 2.56292E-07 1.63094E-19-3.27140E-19
 -1      4252 7.77175E-05-1.82550E-05-2.55024E-05-7.15305E-07-5.78747E-20-5.31329E-19
 -1      4253 9.19161E-05-2.49208E-05-2.87185E-05-3.53965E-07-3.81645E-19-7.51466E-19
 -1      4254 9.12053E-05-2.44509E-05-2.86224E-05-3.26552E-07-2.25896E-19-7.29749E-19
 -1      4255 9.04407E-05-2.39609E-05-2.85098E-05-4.39013E-07-6.82842E-20-7.34321E-19
 -1      4256 8.96093E-05-2.34317E-05-2.83822E-05-3.99991E-07-6.23942E-21-5.04815E-19
 -1      4257 8.87117E-05-2.29114E-05-2.82268E-05-5.46254E-07-7.08565E-20-3.36669E-19
 -1      4258 8.77297E-05-2.23472E-05-2.80493E-05-4.96460E-07-2.18663E-19-3.52639E-19
 -1      4259 8.66671E-05-2.18122E-05-2.78299E-05-6.87096E-07-1.91104E-19-2.07669E-19
 -1      4260 8.54974E-05-2.12308E-05-2.75787E-05-6.27685E-07 2.30155E-19-2.91533E-19
 -1      4261 8.42239E-05-2.06865E-05-2.72670E-05-8.66352E-07 4.67703E-19-3.77840E-19
 -1      4262 8.28697E-05-2.01060E-05-2.69175E-05-8.19883E-07 3.77887E-19-4.45109E-19
 -1      4263 8.09241E-05-1.93635E-05-2.64203E-05 7.13622E-08 3.89030E-19-4.61485E-19
 -1      4264 9.07646E-05-2.40143E-05-2.86093E-05 6.92440E-07-1.94177E-19-1.20343E-18
 -1      4265 9.01092E-05-2.35353E-05-2.85273E-05 8.02491E-07 8.68305E-19-2.45052E-18
 -1      4266 8.24423E-05-1.96670E-05-2.69296E-05-6.34920E-07-7.55976E-19-3.19835E-19
 -1      4267 8.37533E-05-2.01041E-05-2.72789E-05-4.84220E-07 5.05541E-19 5.24782E-19
 -1      4268 8.54167E-05-2.09254E-05-2.76682E-05 4.13974E-07 7.42907E-19 2.44288E-19
 -1      4269 8.65363E-05-2.14632E-05-2.79146E-05 4.75513E-07 1.22514E-18-2.61509E-20
 -1      4270 8.74595E-05-2.19683E-05-2.80992E-05 3.03408E-07 1.39865E-18-9.31310E-19
 -1      4271 8.83740E-05-2.24676E-05-2.82666E-05 3.69895E-07 9.91517E-19-1.47215E-18
 -1      4272 9.01843E-05-2.36146E-05-2.85376E-05-4.17553E-07-2.23492E-19-5.34170E-19
 -1      4273 9.06454E-05-2.39395E-05-2.85985E-05-3.05878E-07-3.93693E-19-1.72755E-19
 -1      4274 7.97224E-05-1.88562E-05-2.61049E-05 2.66889E-06-1.42620E-18-2.54240E-18
 -1      4275 9.42809E-05-2.64902E-05-2.90569E-05 9.06735E-08-1.02769E-19-1.33742E-18
 -1      4276 9.38087E-05-2.61941E-05-2.89822E-05 1.29399E-07-5.84393E-20-1.20867E-18
 -1      4277 9.35415E-05-2.59828E-05-2.89429E-05-4.04484E-07-9.65831E-20-1.33055E-18
 -1      4278 9.10966E-05-2.42499E-05-2.86432E-05 3.49303E-07-2.53940E-19-8.32198E-19
 -1      4279 9.60904E-05-2.66865E-05-2.97451E-05 3.10031E-07-1.15195E-19-1.28661E-18
 -1      4280 9.60144E-05-2.69263E-05-2.96131E-05 4.79541E-07-7.50341E-20-1.22490E-18
 -1      4281 9.59278E-05-2.69006E-05-2.95783E-05 2.82527E-07 3.21360E-21-9.78387E-19
 -1      4282 9.60611E-05-2.67915E-05-2.96842E-05-6.09696E-07 3.15173E-19-1.57870E-18
 -1      4283 7.94539E-05-1.86694E-05-2.60798E-05-9.66650E-07-5.28324E-19-9.15125E-19
 -1      4284 8.11920E-05-1.92034E-05-2.65914E-05-7.06359E-07-1.02191E-18-1.11052E-18
 -1      4285 8.19368E-05-1.93803E-05-2.67779E-05 9.76380E-07-7.33808E-20-2.60892E-18
 -1      4286 7.92304E-05-1.84878E-05-2.59900E-05 1.14904E-06-1.19417E-18-3.02635E-18
 -1      4287 9.50745E-05-2.69094E-05-2.92181E-05 7.20709E-08 2.81878E-20-1.42649E-18
 -1      4288 9.47036E-05-2.67301E-05-2.91346E-05 1.10584E-07-8.42140E-20-1.32826E-18
 -1      4289 9.44951E-05-2.65910E-05-2.90968E-05-3.34777E-07-1.41995E-19-1.20488E-18
 -1      4290 8.91418E-05-2.29435E-05-2.83900E-05 2.42413E-07 1.40359E-18-2.17286E-18
 -1      4291 9.60054E-05-2.60769E-05-2.99667E-05 8.90035E-08-1.56637E-19-1.19361E-18
 -1      4292 9.59962E-05-2.67635E-05-2.96653E-05-3.22960E-07 2.03816E-19-1.23965E-18
 -1      4293 9.60656E-05-2.67860E-05-2.96947E-05-4.71229E-07 4.17190E-19-1.54449E-18
 -1      4294 9.55887E-05-2.70578E-05-2.93744E-05-1.67782E-07-2.89788E-19-1.15590E-18
 -1      4295 9.53140E-05-2.70040E-05-2.92763E-05-1.41894E-07-1.09279E-19-1.12639E-18
 -1      4296 7.82854E-05-1.87876E-05-2.54948E-05-4.02481E-06 1.25845E-19-9.30729E-19
 -1      4297 9.27729E-05-2.55163E-05-2.88258E-05-1.48421E-06-8.79477E-20-6.89770E-19
 -1      4298 9.32786E-05-2.58865E-05-2.88907E-05-1.31870E-06-5.41253E-20-1.03317E-18
 -1      4299 9.60843E-05-2.65962E-05-2.97779E-05 4.26734E-08 1.46148E-19-1.16814E-18
 -1      4300 9.51540E-05-2.69500E-05-2.92301E-05-5.24413E-07-2.45799E-19-1.19660E-18
 -1      4301 8.98891E-05-2.34154E-05-2.85009E-05 2.76370E-07 8.34458E-19-2.01003E-18
 -1      4302 8.12548E-05-1.93603E-05-2.65428E-05 2.52207E-06-6.34112E-19-3.26184E-18
 -1      4303 8.24544E-05-1.97455E-05-2.68841E-05 2.38381E-06 4.56159E-19-2.28892E-18
 -1      4304 9.22801E-05-2.51358E-05-2.87637E-05-9.67232E-07-2.62983E-19-7.89391E-19
 -1      4305 8.03272E-05-1.93597E-05-2.61259E-05-3.35049E-06 7.46903E-20-1.32940E-18
 -1      4306 8.37596E-05-2.02470E-05-2.72459E-05 2.00596E-06 1.02431E-18-1.07744E-18
 -1      4307 9.59732E-05-2.69178E-05-2.95994E-05-1.39879E-07 5.13754E-20-1.08557E-18
 -1      4308 9.49107E-05-2.69443E-05-2.91329E-05-1.27196E-06-2.71375E-19-8.01331E-19
 -1      4309 9.50371E-05-2.69211E-05-2.91900E-05-8.77637E-07-2.98739E-19-9.24841E-19
 -1      4310 9.47873E-05-2.67959E-05-2.91377E-05-6.59444E-07-1.82129E-19-1.26163E-18
 -1      4311 9.45617E-05-2.67451E-05-2.90676E-05-1.42857E-06-2.42247E-19-8.20354E-19
 -1      4312 9.58167E-05-2.70368E-05-2.94780E-05-9.21237E-08-1.65463E-19-1.01104E-18
 -1      4313 8.17591E-05-1.97018E-05-2.65727E-05-2.79944E-06 9.23754E-20-1.02538E-18
 -1      4314 9.38076E-05-2.62329E-05-2.89651E-05-1.24959E-06 1.26819E-19-1.14443E-18
 -1      4315 9.42392E-05-2.65176E-05-2.90277E-05-1.10774E-06-1.20586E-19-1.11186E-18
 -1      4316 8.43028E-05-2.04201E-05-2.73981E-05 5.93186E-07 1.03752E-18 1.37616E-19
 -1      4317 9.43587E-05-2.65417E-05-2.90614E-05-7.12114E-07-8.39610E-20-1.31536E-18
 -3
    1PSTEP                         4           1           1          
  100CL  101 1.000000000        4317                     0    1           1
 -4  ERROR       1    1
 -5  STR(%)      1    1    0    0
 -1         1 1.23109E+01
 -1         2 2.38037E+01
 -1         3 1.34238E-02
 -1         4 1.55458E-02
 -1         5 1.40449E+01
 -1         6 1.31489E+01
 -1         7 1.31489E+01
 -1         8 3.64602E+00
 -1         9 1.80826E+00
 -1        10 1.28064E+00
 -1        11 1.03879E+00
 -1        12 8.92867E-01
 -1        13 8.01970E-01
 -1        14 7.48364E-01
 -1        15 7.50309E-01
 -1        16 8.06231E-01
 -1        17 8.93797E-01
 -1        18 1.04501E+00
 -1        19 1.29917E+00
 -1        20 1.81894E+00
 -1        21 3.48780E+00
 -1        22 8.63389E+00
 -1        23 1.31489E+01
 -1        24 4.33760E+00
 -1        25 3.36341E+00
 -1        26 2.13645E+00
 -1        27 1.39062E+00
 -1        28 1.06024E+00
 -1        29 8.32576E-01
 -1        30 6.66241E-01
 -1        31 5.41426E-01
 -1        32 4.47792E-01
 -1        33 3.78338E-01
 -1        34 3.44273E-01
 -1        35 3.92531E-01
 -1        36 4.52884E-01
 -1        37 5.21068E-01
 -1        38 5.88364E-01
 -1        39 7.14644E-01
 -1        40 8.92880E-01
 -1        41 1.11600E+00
 -1        42 1.30159E+00
 -1        43 1.36923E+00
 -1        44 1.36923E+00
 -1        45 1.35584E+00
 -1        46 1.51230E+00
 -1        47 2.00569E+00
 -1        48 3.43468E+00
 -1        49 4.05000E+00
 -1        50 4.05000E+00
 -1        51 4.03999E+00
 -1        52 3.58251E+00
 -1        53 2.22257E+00
 -1        54 1.58186E+00
 -1        55 1.36511E+00
 -1        56 1.36511E+00
 -1        57 1.35379E+00
 -1        58 1.30836E+00
 -1        59 1.13068E+00
 -1        60 9.06946E-01
 -1        61 7.26813E-01
 -1        62 5.62436E-01
 -1        63 4.84618E-01
 -1        64 4.01734E-01
 -1        65 3.22983E-01
 -1        66 2.52928E-01
 -1        67 1.92908E-01
 -1        68 1.48496E-01
 -1        69 1.29573E-01
 -1        70 1.01514E-01
 -1        71 5.41513E-02
 -1        72 1.40449E+01
 -1        73 3.41271E+00
 -1        74 2.43394E+00
 -1        75 1.68985E+00
 -1        76 1.17270E+00
 -1        77 9.54347E-01
 -1        78 7.94292E-01
 -1        79 6.69312E-01
 -1        80 5.72424E-01
 -1        81 4.99906E-01
 -1        82 4.49026E-01
 -1        83 4.16749E-01
 -1        84 3.99059E-01
 -1        85 4.49099E-01
 -1        86 5.15103E-01
 -1        87 5.79451E-01
 -1        88 6.27292E-01
 -1        89 6.41118E-01
 -1        90 7.54933E-01
 -1        91 9.57221E-01
 -1        92 1.09767E+00
 -1        93 1.25846E+00
 -1        94 1.49476E+00
 -1        95 1.49476E+00
 -1        96 1.85553E+00
 -1        97 2.53145E+00
 -1        98 3.30200E+00
 -1        99 3.70168E+00
 -1       100 3.70168E+00
 -1       101 3.63934E+00
 -1       102 2.56802E+00
 -1       103 1.52949E+00
 -1       104 1.08922E+00
 -1       105 1.21166E+00
 -1       106 1.29509E+00
 -1       107 1.29509E+00
 -1       108 1.20835E+00
 -1       109 1.03808E+00
 -1       110 8.73693E-01
 -1       111 7.08084E-01
 -1       112 5.50513E-01
 -1       113 4.11826E-01
 -1       114 3.19625E-01
 -1       115 2.50968E-01
 -1       116 1.91842E-01
 -1       117 1.41464E-01
 -1       118 9.73319E-02
 -1       119 7.45629E-02
 -1       120 4.34511E-02
 -1       121 1.74558E-02
 -1       122 1.83033E-02
 -1       123 1.83033E-02
 -1       124 1.18021E-02
 -1       125 7.08148E-03
 -1       126 1.36499E-02
 -1       127 1.79895E-02
 -1       128 1.93112E-02
 -1       129 1.93112E-02
 -1       130 1.79543E-02
 -1       131 1.34727E-02
 -1       132 7.17248E-03
 -1       133 1.20748E-02
 -1       134 1.81289E-02
 -1       135 2.32705E-02
 -1       136 2.50236E-02
 -1       137 2.45184E+01
 -1       138 4.81754E+01
 -1       139 4.81754E+01
 -1       140 2.20630E+01
 -1       141 1.24777E+01
 -1       142 1.24777E+01
 -1       143 1.22876E+01
 -1       144 1.32563E+01
 -1       145 1.32563E+01
 -1       146 1.20873E+01
 -1       147 2.69959E+01
 -1       148 2.90545E+01
 -1       149 2.88563E+01
 -1       150 2.49830E+01
 -1       151 2.49830E+01
 -1       152 2.45622E+01
 -1       153 4.02801E+01
 -1       154 4.02801E+01
 -1       155 1.49229E+01
 -1       156 1.33829E+01
 -1       157 1.33829E+01
 -1       158 1.23017E+01
 -1       159 1.19878E+01
 -1       160 1.99265E+01
 -1       161 4.74140E+01
 -1       162 4.74140E+01
 -1       163 2.48191E+01
 -1       164 6.05601E+00
 -1       165 2.28249E+00
 -1       166 1.49944E+00
 -1       167 1.15101E+00
 -1       168 9.67319E-01
 -1       169 8.58586E-01
 -1       170 7.90175E-01
 -1       171 7.50309E-01
 -1       172 7.93588E-01
 -1       173 8.61309E-01
 -1       174 9.74732E-01
 -1       175 1.16552E+00
 -1       176 1.51931E+00
 -1       177 2.25102E+00
 -1       178 3.91802E+00
 -1       179 1.40449E+01
 -1       180 4.33760E+00
 -1       181 3.36341E+00
 -1       182 2.13645E+00
 -1       183 1.46812E+00
 -1       184 1.06024E+00
 -1       185 8.32576E-01
 -1       186 6.66241E-01
 -1       187 5.41426E-01
 -1       188 4.47792E-01
 -1       189 3.78338E-01
 -1       190 3.26892E-01
 -1       191 3.44273E-01
 -1       192 3.92531E-01
 -1       193 4.52884E-01
 -1       194 5.21068E-01
 -1       195 6.55039E-01
 -1       196 7.86451E-01
 -1       197 9.25391E-01
 -1       198 1.11600E+00
 -1       199 1.30159E+00
 -1       200 1.36923E+00
 -1       201 1.34979E+00
 -1       202 1.35584E+00
 -1       203 1.51230E+00
 -1       204 2.15447E+00
 -1       205 3.43468E+00
 -1       206 4.05000E+00
 -1       207 4.03999E+00
 -1       208 3.58251E+00
 -1       209 2.27310E+00
 -1       210 1.58186E+00
 -1       211 1.32463E+00
 -1       212 1.36511E+00
 -1       213 1.35379E+00
 -1       214 1.30836E+00
 -1       215 1.13068E+00
 -1       216 9.37579E-01
 -1       217 8.02411E-01
 -1       218 6.76879E-01
 -1       219 5.43053E-01
 -1       220 4.17128E-01
 -1       221 3.22983E-01
 -1       222 2.52928E-01
 -1       223 1.97053E-01
 -1       224 1.50724E-01
 -1       225 1.29573E-01
 -1       226 1.01514E-01
 -1       227 5.70571E-02
 -1       228 3.41271E+00
 -1       229 2.43394E+00
 -1       230 1.68985E+00
 -1       231 1.17270E+00
 -1       232 9.54347E-01
 -1       233 7.94292E-01
 -1       234 6.69312E-01
 -1       235 5.72424E-01
 -1       236 4.99906E-01
 -1       237 4.49026E-01
 -1       238 4.16749E-01
 -1       239 3.99059E-01
 -1       240 3.90376E-01
 -1       241 4.49099E-01
 -1       242 5.15103E-01
 -1       243 5.79451E-01
 -1       244 6.27292E-01
 -1       245 6.60220E-01
 -1       246 7.94392E-01
 -1       247 9.57221E-01
 -1       248 1.09767E+00
 -1       249 1.25846E+00
 -1       250 1.49476E+00
 -1       251 1.49164E+00
 -1       252 1.85553E+00
 -1       253 2.53145E+00
 -1       254 3.30200E+00
 -1       255 3.70168E+00
 -1       256 3.63934E+00
 -1       257 2.56802E+00
 -1       258 1.52949E+00
 -1       259 9.80875E-01
 -1       260 1.08922E+00
 -1       261 1.21166E+00
 -1       262 1.29509E+00
 -1       263 1.20835E+00
 -1       264 1.03808E+00
 -1       265 8.73693E-01
 -1       266 7.21128E-01
 -1       267 5.76728E-01
 -1       268 4.43890E-01
 -1       269 3.29167E-01
 -1       270 2.50968E-01
 -1       271 1.91842E-01
 -1       272 1.41464E-01
 -1       273 1.00342E-01
 -1       274 7.45629E-02
 -1       275 4.34511E-02
 -1       276 2.76126E-02
 -1       277 3.05424E-02
 -1       278 3.05424E-02
 -1       279 1.66128E-02
 -1       280 2.57447E-02
 -1       281 3.46181E-02
 -1       282 3.83009E-02
 -1       283 3.83009E-02
 -1       284 3.82918E-02
 -1       285 3.44360E-02
 -1       286 2.58910E-02
 -1       287 1.67662E-02
 -1       288 3.10604E-02
 -1       289 3.10604E-02
 -1       290 3.60066E-02
 -1       291 2.87628E+01
 -1       292 3.02797E+01
 -1       293 4.81754E+01
 -1       294 2.34071E+01
 -1       295 1.11871E+01
 -1       296 1.24777E+01
 -1       297 1.21631E+01
 -1       298 1.22876E+01
 -1       299 1.32563E+01
 -1       300 1.20873E+01
 -1       301 1.17824E+01
 -1       302 2.90545E+01
 -1       303 2.90545E+01
 -1       304 2.51947E+01
 -1       305 2.99647E+01
 -1       306 2.99647E+01
 -1       307 3.60261E+01
 -1       308 4.02801E+01
 -1       309 1.49229E+01
 -1       310 1.14657E+01
 -1       311 1.33829E+01
 -1       312 1.23109E+01
 -1       313 1.23017E+01
 -1       314 1.19878E+01
 -1       315 1.12870E+01
 -1       316 2.09812E+01
 -1       317 4.74140E+01
 -1       318 2.92253E+01
 -1       319 2.87628E+01
 -1       320 1.03381E+00
 -1       321 2.46150E+00
 -1       322 7.89163E-01
 -1       323 6.89185E-01
 -1       324 6.26164E-01
 -1       325 5.82078E-01
 -1       326 5.85235E-01
 -1       327 6.28813E-01
 -1       328 6.95351E-01
 -1       329 7.90300E-01
 -1       330 9.25318E-01
 -1       331 1.14564E+00
 -1       332 1.31301E+00
 -1       333 2.20070E+00
 -1       334 1.91218E+00
 -1       335 1.74496E+00
 -1       336 1.28338E+00
 -1       337 9.22708E-01
 -1       338 6.82525E-01
 -1       339 5.81462E-01
 -1       340 4.91066E-01
 -1       341 4.11731E-01
 -1       342 3.43052E-01
 -1       343 2.83332E-01
 -1       344 2.72074E-01
 -1       345 3.11327E-01
 -1       346 3.58216E-01
 -1       347 4.52864E-01
 -1       348 5.80903E-01
 -1       349 7.04564E-01
 -1       350 8.05844E-01
 -1       351 9.10126E-01
 -1       352 1.01814E+00
 -1       353 1.03248E+00
 -1       354 8.80800E-01
 -1       355 8.46619E-01
 -1       356 8.90527E-01
 -1       357 1.46716E+00
 -1       358 1.97286E+00
 -1       359 2.41879E+00
 -1       360 2.30006E+00
 -1       361 2.43438E+00
 -1       362 2.06427E+00
 -1       363 1.54927E+00
 -1       364 9.59394E-01
 -1       365 8.51211E-01
 -1       366 8.40525E-01
 -1       367 1.01774E+00
 -1       368 1.02086E+00
 -1       369 9.22045E-01
 -1       370 8.23741E-01
 -1       371 7.31851E-01
 -1       372 6.16432E-01
 -1       373 4.97344E-01
 -1       374 3.86521E-01
 -1       375 2.89959E-01
 -1       376 2.09777E-01
 -1       377 1.50724E-01
 -1       378 1.11165E-01
 -1       379 7.88422E-02
 -1       380 5.39079E-02
 -1       381 1.14539E+00
 -1       382 9.02314E-01
 -1       383 7.12319E-01
 -1       384 5.49009E-01
 -1       385 4.70526E-01
 -1       386 4.23705E-01
 -1       387 3.82106E-01
 -1       388 3.48174E-01
 -1       389 3.22510E-01
 -1       390 3.04029E-01
 -1       391 3.38150E-01
 -1       392 4.19681E-01
 -1       393 5.47426E-01
 -1       394 6.73748E-01
 -1       395 7.81811E-01
 -1       396 8.81655E-01
 -1       397 9.26217E-01
 -1       398 9.26217E-01
 -1       399 8.58431E-01
 -1       400 6.20537E-01
 -1       401 6.47124E-01
 -1       402 1.25209E+00
 -1       403 1.80660E+00
 -1       404 1.91678E+00
 -1       405 1.91678E+00
 -1       406 1.99170E+00
 -1       407 2.21772E+00
 -1       408 1.80493E+00
 -1       409 1.10859E+00
 -1       410 7.00242E-01
 -1       411 7.42486E-01
 -1       412 9.01544E-01
 -1       413 9.39457E-01
 -1       414 9.44523E-01
 -1       415 8.62845E-01
 -1       416 7.72944E-01
 -1       417 6.62369E-01
 -1       418 5.42084E-01
 -1       419 4.26812E-01
 -1       420 3.24361E-01
 -1       421 2.37822E-01
 -1       422 1.84778E-01
 -1       423 1.39450E-01
 -1       424 1.00342E-01
 -1       425 6.53935E-02
 -1       426 3.51017E-02
 -1       427 3.40529E-02
 -1       428 5.42446E-02
 -1       429 5.42446E-02
 -1       430 3.53779E-02
 -1       431 4.89697E-02
 -1       432 5.56000E-02
 -1       433 5.56000E-02
 -1       434 5.54556E-02
 -1       435 5.54556E-02
 -1       436 4.91490E-02
 -1       437 3.55286E-02
 -1       438 3.53584E-02
 -1       439 4.98437E-02
 -1       440 3.02797E+01
 -1       441 3.20392E+01
 -1       442 3.14773E+01
 -1       443 1.73889E+01
 -1       444 9.92653E+00
 -1       445 9.04581E-01
 -1       446 1.00312E+01
 -1       447 1.08327E+01
 -1       448 1.07951E+01
 -1       449 9.08871E+00
 -1       450 6.71832E+00
 -1       451 1.10072E+01
 -1       452 1.95033E+01
 -1       453 2.16709E+01
 -1       454 3.71982E+01
 -1       455 3.71982E+01
 -1       456 2.38886E+01
 -1       457 2.30551E+01
 -1       458 1.31464E+01
 -1       459 7.59474E+00
 -1       460 7.38197E+00
 -1       461 1.07863E+01
 -1       462 9.94963E+00
 -1       463 9.91911E+00
 -1       464 7.85735E+00
 -1       465 9.17833E+00
 -1       466 1.67605E+01
 -1       467 2.92253E+01
 -1       468 3.20392E+01
 -1       469 6.65952E+00
 -1       470 7.97275E+00
 -1       471 1.06009E+00
 -1       472 4.81092E-01
 -1       473 5.09579E-01
 -1       474 4.25748E-01
 -1       475 4.51809E-01
 -1       476 4.81691E-01
 -1       477 5.06125E-01
 -1       478 5.06125E-01
 -1       479 5.92949E-01
 -1       480 8.52209E+00
 -1       481 9.02314E-01
 -1       482 7.96264E-01
 -1       483 4.76879E+00
 -1       484 7.09080E-01
 -1       485 5.91717E-01
 -1       486 4.72738E-01
 -1       487 3.93597E-01
 -1       488 3.43609E-01
 -1       489 2.88684E-01
 -1       490 2.31914E-01
 -1       491 1.83883E-01
 -1       492 2.13702E-01
 -1       493 2.64534E-01
 -1       494 3.77355E-01
 -1       495 5.00074E-01
 -1       496 6.28145E-01
 -1       497 7.52138E-01
 -1       498 8.56050E-01
 -1       499 9.49695E-01
 -1       500 1.09532E+00
 -1       501 1.20535E+00
 -1       502 1.22532E+00
 -1       503 1.52794E+00
 -1       504 1.51688E+00
 -1       505 1.89453E+00
 -1       506 2.20356E+00
 -1       507 2.96040E+00
 -1       508 3.01288E+00
 -1       509 2.29235E+00
 -1       510 1.78715E+00
 -1       511 1.45149E+00
 -1       512 1.56334E+00
 -1       513 1.23825E+00
 -1       514 1.22221E+00
 -1       515 1.12317E+00
 -1       516 9.83199E-01
 -1       517 8.78871E-01
 -1       518 7.84258E-01
 -1       519 6.68541E-01
 -1       520 5.49254E-01
 -1       521 4.37177E-01
 -1       522 3.38002E-01
 -1       523 2.53989E-01
 -1       524 1.85294E-01
 -1       525 1.30924E-01
 -1       526 8.91427E-02
 -1       527 5.49009E-01
 -1       528 4.69622E-01
 -1       529 4.05034E-01
 -1       530 3.41198E-01
 -1       531 2.80210E-01
 -1       532 2.21846E-01
 -1       533 2.38418E-01
 -1       534 2.74263E-01
 -1       535 3.57113E-01
 -1       536 4.77123E-01
 -1       537 6.00519E-01
 -1       538 7.16590E-01
 -1       539 8.11140E-01
 -1       540 8.83106E-01
 -1       541 9.77809E-01
 -1       542 1.02281E+00
 -1       543 9.65052E-01
 -1       544 1.15617E+00
 -1       545 1.18625E+00
 -1       546 1.54457E+00
 -1       547 1.88084E+00
 -1       548 2.42620E+00
 -1       549 2.49731E+00
 -1       550 2.27300E+00
 -1       551 1.69978E+00
 -1       552 1.49410E+00
 -1       553 1.14738E+00
 -1       554 1.07036E+00
 -1       555 1.01083E+00
 -1       556 1.01842E+00
 -1       557 9.46711E-01
 -1       558 8.63618E-01
 -1       559 7.83211E-01
 -1       560 6.83876E-01
 -1       561 5.70671E-01
 -1       562 4.58620E-01
 -1       563 3.56444E-01
 -1       564 2.68311E-01
 -1       565 1.95453E-01
 -1       566 1.37484E-01
 -1       567 9.19275E-02
 -1       568 6.47155E-02
 -1       569 6.23833E-02
 -1       570 7.35084E-02
 -1       571 5.36192E-02
 -1       572 5.05302E-02
 -1       573 7.47999E-02
 -1       574 7.47999E-02
 -1       575 7.46782E-02
 -1       576 7.35949E-02
 -1       577 6.27063E-02
 -1       578 5.97765E-02
 -1       579 5.97765E-02
 -1       580 3.14773E+01
 -1       581 1.41835E+01
 -1       582 7.12319E-01
 -1       583 3.20392E+01
 -1       584 2.16128E+01
 -1       585 8.71040E-01
 -1       586 2.13957E+01
 -1       587 6.34583E+00
 -1       588 3.71982E+01
 -1       589 7.56029E+00
 -1       590 4.51682E-01
 -1       591 6.49570E+00
 -1       592 6.85498E+00
 -1       593 9.62059E+00
 -1       594 4.20178E+00
 -1       595 1.14766E+01
 -1       596 6.33475E+00
 -1       597 1.47604E+01
 -1       598 2.16709E+01
 -1       599 2.38886E+01
 -1       600 7.82001E+00
 -1       601 1.78844E+01
 -1       602 3.52106E+00
 -1       603 7.70111E+00
 -1       604 5.49085E+00
 -1       605 5.32860E+00
 -1       606 9.74082E+00
 -1       607 1.29271E+01
 -1       608 5.66617E+00
 -1       609 1.32485E+00
 -1       610 5.31461E-01
 -1       611 1.78938E+01
 -1       612 4.81110E+00
 -1       613 1.11021E+01
 -1       614 5.93653E+00
 -1       615 9.62072E+00
 -1       616 5.56111E+00
 -1       617 5.39079E-02
 -1       618 3.54963E-01
 -1       619 3.38145E-01
 -1       620 3.59641E-01
 -1       621 3.37098E-01
 -1       622 3.75400E+00
 -1       623 5.36578E-01
 -1       624 1.31032E+01
 -1       625 2.85100E+00
 -1       626 3.95694E-01
 -1       627 3.75658E-01
 -1       628 3.24291E-01
 -1       629 2.59944E-01
 -1       630 2.22296E-01
 -1       631 1.77035E-01
 -1       632 1.23404E-01
 -1       633 1.20832E-01
 -1       634 1.90631E-01
 -1       635 2.89838E-01
 -1       636 4.03259E-01
 -1       637 5.31870E-01
 -1       638 6.75416E-01
 -1       639 8.31011E-01
 -1       640 9.90366E-01
 -1       641 1.13474E+00
 -1       642 1.41709E+00
 -1       643 1.73070E+00
 -1       644 2.03238E+00
 -1       645 2.60176E+00
 -1       646 2.81442E+00
 -1       647 3.49532E+00
 -1       648 3.21635E+00
 -1       649 3.72716E+00
 -1       650 3.70283E+00
 -1       651 2.82920E+00
 -1       652 3.20804E+00
 -1       653 2.32618E+00
 -1       654 2.06129E+00
 -1       655 1.78649E+00
 -1       656 1.47293E+00
 -1       657 1.18017E+00
 -1       658 1.02458E+00
 -1       659 8.70760E-01
 -1       660 7.20261E-01
 -1       661 5.82941E-01
 -1       662 4.62568E-01
 -1       663 3.59950E-01
 -1       664 2.74429E-01
 -1       665 2.04567E-01
 -1       666 1.48715E-01
 -1       667 9.54887E-02
 -1       668 3.12834E-01
 -1       669 3.39402E+00
 -1       670 3.83763E-01
 -1       671 2.25075E-01
 -1       672 1.70841E-01
 -1       673 1.50557E-01
 -1       674 1.81237E-01
 -1       675 2.80995E-01
 -1       676 3.92679E-01
 -1       677 5.15501E-01
 -1       678 6.46208E-01
 -1       679 7.77611E-01
 -1       680 8.96605E-01
 -1       681 1.02396E+00
 -1       682 1.22569E+00
 -1       683 1.40946E+00
 -1       684 1.52984E+00
 -1       685 2.05610E+00
 -1       686 2.67259E+00
 -1       687 2.69160E+00
 -1       688 3.75400E+00
 -1       689 3.96588E+00
 -1       690 4.38096E+00
 -1       691 2.85100E+00
 -1       692 2.81232E+00
 -1       693 2.19759E+00
 -1       694 1.80768E+00
 -1       695 1.49924E+00
 -1       696 1.34545E+00
 -1       697 1.14561E+00
 -1       698 9.61140E-01
 -1       699 8.60536E-01
 -1       700 7.39573E-01
 -1       701 6.14851E-01
 -1       702 4.96995E-01
 -1       703 3.91606E-01
 -1       704 3.01029E-01
 -1       705 2.25630E-01
 -1       706 1.64496E-01
 -1       707 1.15341E-01
 -1       708 7.90686E-02
 -1       709 1.01404E-01
 -1       710 5.97765E-02
 -1       711 9.54173E-02
 -1       712 1.01400E-01
 -1       713 1.01404E-01
 -1       714 8.61702E+00
 -1       715 1.01400E-01
 -1       716 9.54049E-02
 -1       717 7.25284E-02
 -1       718 1.16122E+01
 -1       719 4.60232E-01
 -1       720 1.35514E+01
 -1       721 5.31461E-01
 -1       722 5.69827E+00
 -1       723 1.56212E+01
 -1       724 7.19276E+00
 -1       725 2.73465E-01
 -1       726 3.95386E-01
 -1       727 5.17258E-01
 -1       728 4.38096E+00
 -1       729 4.17619E+00
 -1       730 5.49051E+00
 -1       731 3.59641E-01
 -1       732 3.56669E-01
 -1       733 3.67207E+00
 -1       734 5.37693E+00
 -1       735 1.12349E+01
 -1       736 1.31155E+01
 -1       737 1.33282E+01
 -1       738 5.05034E+00
 -1       739 5.25256E+00
 -1       740 1.60217E+01
 -1       741 5.84298E+00
 -1       742 8.04975E+00
 -1       743 3.75939E-01
 -1       744 3.37660E-01
 -1       745 1.32119E+01
 -1       746 3.68825E+00
 -1       747 7.25254E-02
 -1       748 6.14312E-02
 -1       749 9.29174E+00
 -1       750 4.03170E+00
 -1       751 6.28335E+00
 -1       752 1.29081E+01
 -1       753 9.34946E+00
 -1       754 3.54081E-01
 -1       755 7.20444E-02
 -1       756 2.40131E-01
 -1       757 2.38108E-01
 -1       758 2.18492E-01
 -1       759 1.79288E-01
 -1       760 1.38546E-01
 -1       761 9.76531E-02
 -1       762 1.03513E-01
 -1       763 1.49569E-01
 -1       764 2.30016E-01
 -1       765 3.33299E-01
 -1       766 4.49148E-01
 -1       767 5.77984E-01
 -1       768 7.41779E-01
 -1       769 9.55254E-01
 -1       770 1.24203E+00
 -1       771 1.57890E+00
 -1       772 1.91202E+00
 -1       773 2.54250E+00
 -1       774 3.50179E+00
 -1       775 5.41936E+00
 -1       776 3.16416E+00
 -1       777 3.95596E+00
 -1       778 2.71439E+00
 -1       779 1.98454E+00
 -1       780 1.63634E+00
 -1       781 1.29893E+00
 -1       782 1.00826E+00
 -1       783 7.92611E-01
 -1       784 6.23160E-01
 -1       785 5.02236E-01
 -1       786 3.95469E-01
 -1       787 3.02944E-01
 -1       788 2.25522E-01
 -1       789 1.62201E-01
 -1       790 1.12492E-01
 -1       791 8.02436E-02
 -1       792 1.20700E-01
 -1       793 1.97019E-01
 -1       794 2.93871E-01
 -1       795 4.08469E-01
 -1       796 5.46974E-01
 -1       797 7.05310E-01
 -1       798 8.84293E-01
 -1       799 1.09345E+00
 -1       800 1.31046E+00
 -1       801 1.64759E+00
 -1       802 2.11877E+00
 -1       803 2.51566E+00
 -1       804 3.93377E+00
 -1       805 2.27236E+00
 -1       806 1.90896E+00
 -1       807 1.46337E+00
 -1       808 1.22602E+00
 -1       809 1.01216E+00
 -1       810 8.20651E-01
 -1       811 6.59776E-01
 -1       812 5.19671E-01
 -1       813 4.01830E-01
 -1       814 3.07880E-01
 -1       815 2.32509E-01
 -1       816 1.72185E-01
 -1       817 1.23662E-01
 -1       818 8.88748E-02
 -1       819 2.83294E-01
 -1       820 1.28360E-01
 -1       821 9.80982E-02
 -1       822 1.32838E-01
 -1       823 4.79075E+00
 -1       824 2.91476E-01
 -1       825 1.32838E-01
 -1       826 9.49301E+00
 -1       827 1.17745E-01
 -1       828 2.60614E-01
 -1       829 5.08944E+00
 -1       830 9.34946E+00
 -1       831 2.76604E-01
 -1       832 2.24394E-01
 -1       833 5.61987E+00
 -1       834 4.84633E+00
 -1       835 9.74420E+00
 -1       836 8.76282E+00
 -1       837 7.49820E+00
 -1       838 8.72174E+00
 -1       839 6.83344E+00
 -1       840 2.74610E-01
 -1       841 9.74420E+00
 -1       842 2.78790E-01
 -1       843 1.00937E-01
 -1       844 2.61942E-01
 -1       845 1.64757E-01
 -1       846 3.81054E+00
 -1       847 2.83294E-01
 -1       848 1.32252E-01
 -1       849 5.77788E+00
 -1       850 2.76513E-01
 -1       851 6.36839E+00
 -1       852 1.32252E-01
 -1       853 2.83444E-01
 -1       854 6.23666E+00
 -1       855 1.02628E-01
 -1       856 2.11562E-01
 -1       857 6.66006E+00
 -1       858 2.66403E-01
 -1       859 1.47214E-01
 -1       860 1.22073E-01
 -1       861 1.18044E-01
 -1       862 1.35279E-01
 -1       863 1.53034E-01
 -1       864 2.23707E-01
 -1       865 3.22402E-01
 -1       866 4.39645E-01
 -1       867 5.77984E-01
 -1       868 7.39398E-01
 -1       869 9.23141E-01
 -1       870 1.19717E+00
 -1       871 1.59916E+00
 -1       872 2.32233E+00
 -1       873 3.46749E+00
 -1       874 5.39508E+00
 -1       875 5.70290E+00
 -1       876 1.87445E-01
 -1       877 4.15114E+00
 -1       878 4.99372E+00
 -1       879 2.59889E+00
 -1       880 1.69443E+00
 -1       881 1.24770E+00
 -1       882 9.63270E-01
 -1       883 7.81981E-01
 -1       884 6.23160E-01
 -1       885 4.88921E-01
 -1       886 3.77503E-01
 -1       887 2.86015E-01
 -1       888 2.11560E-01
 -1       889 1.16976E-01
 -1       890 1.67229E+00
 -1       891 3.91138E-01
 -1       892 2.82067E-01
 -1       893 6.53421E-01
 -1       894 8.25233E-01
 -1       895 1.05194E+00
 -1       896 1.41924E+00
 -1       897 1.91190E+00
 -1       898 2.46003E+00
 -1       899 3.94735E+00
 -1       900 3.27089E+00
 -1       901 1.24169E+00
 -1       902 9.55473E-01
 -1       903 7.52722E-01
 -1       904 6.16202E-01
 -1       905 4.91907E-01
 -1       906 3.83949E-01
 -1       907 2.93022E-01
 -1       908 2.17837E-01
 -1       909 1.84667E-01
 -1       910 2.13328E+00
 -1       911 1.05658E-01
 -1       912 1.73314E-01
 -1       913 5.36400E+00
 -1       914 7.64107E+00
 -1       915 5.15635E-01
 -1       916 1.29213E-01
 -1       917 2.83444E-01
 -1       918 7.18435E+00
 -1       919 6.54904E+00
 -1       920 5.26157E+00
 -1       921 1.52649E-01
 -1       922 5.25764E+00
 -1       923 5.39508E+00
 -1       924 1.66845E-01
 -1       925 1.43901E-01
 -1       926 1.69916E-01
 -1       927 1.13514E-01
 -1       928 1.30026E-01
 -1       929 1.48175E-01
 -1       930 7.18435E+00
 -1       931 1.88100E-01
 -1       932 2.07957E-01
 -1       933 1.81644E-01
 -1       934 1.62324E-01
 -1       935 5.20554E+00
 -1       936 1.84667E-01
 -1       937 1.86601E-01
 -1       938 3.99466E+00
 -1       939 2.07957E-01
 -1       940 5.66873E+00
 -1       941 1.75483E-01
 -1       942 4.91887E+00
 -1       943 1.81644E-01
 -1       944 1.22292E-01
 -1       945 1.48060E-01
 -1       946 1.72332E-01
 -1       947 2.02221E-01
 -1       948 2.83792E-01
 -1       949 3.89545E-01
 -1       950 5.21772E-01
 -1       951 6.89836E-01
 -1       952 9.08055E-01
 -1       953 1.19717E+00
 -1       954 1.57581E+00
 -1       955 2.16653E+00
 -1       956 3.58639E+00
 -1       957 1.49131E-01
 -1       958 9.90919E-02
 -1       959 2.45047E+00
 -1       960 3.61157E+00
 -1       961 2.93147E+00
 -1       962 1.64244E+00
 -1       963 1.24770E+00
 -1       964 9.52625E-01
 -1       965 7.29518E-01
 -1       966 5.60123E-01
 -1       967 4.28881E-01
 -1       968 3.26008E-01
 -1       969 2.44536E-01
 -1       970 1.02696E-01
 -1       971 1.05194E+00
 -1       972 8.25233E-01
 -1       973 1.86063E+00
 -1       974 2.82236E+00
 -1       975 3.73451E+00
 -1       976 9.55473E-01
 -1       977 1.59451E+00
 -1       978 7.52722E-01
 -1       979 5.88282E-01
 -1       980 4.55749E-01
 -1       981 3.48863E-01
 -1       982 2.63373E-01
 -1       983 2.01045E-01
 -1       984 3.54818E+00
 -1       985 9.85088E-02
 -1       986 2.06449E-01
 -1       987 1.34467E+00
 -1       988 4.92853E+00
 -1       989 3.62725E-01
 -1       990 1.44428E-01
 -1       991 1.16079E-01
 -1       992 1.68579E-01
 -1       993 1.20545E+00
 -1       994 2.06449E-01
 -1       995 1.04819E-01
 -1       996 1.79977E-01
 -1       997 3.75850E+00
 -1       998 2.10542E-01
 -1       999 3.80289E+00
 -1      1000 1.35310E-01
 -1      1001 3.89761E+00
 -1      1002 4.87488E-01
 -1      1003 1.51214E-01
 -1      1004 2.60610E-01
 -1      1005 1.38708E-01
 -1      1006 6.39671E-01
 -1      1007 1.22377E-01
 -1      1008 3.58639E+00
 -1      1009 2.00428E-01
 -1      1010 1.22625E-01
 -1      1011 1.76144E-01
 -1      1012 2.02705E-01
 -1      1013 2.48544E-01
 -1      1014 3.10018E-01
 -1      1015 4.16498E-01
 -1      1016 5.58365E-01
 -1      1017 7.53780E-01
 -1      1018 1.03715E+00
 -1      1019 1.44903E+00
 -1      1020 2.38303E+00
 -1      1021 2.75817E+00
 -1      1022 1.41451E-01
 -1      1023 1.79238E-01
 -1      1024 1.59451E+00
 -1      1025 2.93147E+00
 -1      1026 1.52124E+00
 -1      1027 1.08009E+00
 -1      1028 7.87557E-01
 -1      1029 5.86470E-01
 -1      1030 4.41989E-01
 -1      1031 3.33455E-01
 -1      1032 2.67250E-01
 -1      1033 9.87563E-01
 -1      1034 8.87638E-02
 -1      1035 2.10542E-01
 -1      1036 2.97888E+00
 -1      1037 1.16830E+00
 -1      1038 2.45047E+00
 -1      1039 1.49998E-01
 -1      1040 4.98971E-01
 -1      1041 3.77826E-01
 -1      1042 2.85411E-01
 -1      1043 3.89062E+00
 -1      1044 1.10572E-01
 -1      1045 7.37946E-01
 -1      1046 1.86063E+00
 -1      1047 1.34467E+00
 -1      1048 6.56573E-01
 -1      1049 3.09504E+00
 -1      1050 7.34050E-02
 -1      1051 2.12086E-01
 -1      1052 1.20080E-01
 -1      1053 3.58639E+00
 -1      1054 8.71083E-01
 -1      1055 3.75850E+00
 -1      1056 3.89062E+00
 -1      1057 1.49131E-01
 -1      1058 8.18048E-02
 -1      1059 2.46766E-01
 -1      1060 9.62662E-02
 -1      1061 4.12793E-01
 -1      1062 3.43999E-01
 -1      1063 3.49022E-01
 -1      1064 1.24630E-01
 -1      1065 1.36016E-01
 -1      1066 1.82781E-01
 -1      1067 5.52238E-01
 -1      1068 3.21962E+00
 -1      1069 9.04899E-02
 -1      1070 2.43913E-01
 -1      1071 3.06139E-01
 -1      1072 3.85628E-01
 -1      1073 4.81233E-01
 -1      1074 6.12114E-01
 -1      1075 8.05638E-01
 -1      1076 1.26008E+00
 -1      1077 1.35116E+00
 -1      1078 1.52792E+00
 -1      1079 1.76144E-01
 -1      1080 1.08249E+00
 -1      1081 8.01960E-01
 -1      1082 6.31781E-01
 -1      1083 4.72382E-01
 -1      1084 3.55480E-01
 -1      1085 3.49022E-01
 -1      1086 2.71862E+00
 -1      1087 1.42548E+00
 -1      1088 2.73309E+00
 -1      1089 4.33954E-01
 -1      1090 3.03268E-01
 -1      1091 4.72382E-01
 -1      1092 5.51058E-01
 -1      1093 1.55624E+00
 -1      1094 7.68818E-01
 -1      1095 2.97888E+00
 -1      1096 1.25661E-01
 -1      1097 2.02705E-01
 -1      1098 6.31781E-01
 -1      1099 9.43782E-02
 -1      1100 1.26008E+00
 -1      1101 2.38303E+00
 -1      1102 1.49998E-01
 -1      1103 1.25661E-01
 -1      1104 2.26676E-01
 -1      1105 3.47528E-01
 -1      1106 1.79238E-01
 -1      1107 8.01960E-01
 -1      1108 8.87271E-01
 -1      1109 1.36198E-01
 -1      1110 1.82781E-01
 -1      1111 2.71711E+00
 -1      1112 3.43999E-01
 -1      1113 1.35116E+00
 -1      1114 3.49022E-01
 -1      1115 7.96059E-01
 -1      1116 2.25507E-01
 -1      1117 1.23721E-01
 -1      1118 1.28197E+00
 -1      1119 1.86810E-01
 -1      1120 1.86810E-01
 -1      1121 1.31489E+01
 -1      1122 8.39748E+00
 -1      1123 2.72714E+00
 -1      1124 1.54445E+00
 -1      1125 1.15971E+00
 -1      1126 9.65827E-01
 -1      1127 8.47418E-01
 -1      1128 7.75167E-01
 -1      1129 7.49337E-01
 -1      1130 7.78270E-01
 -1      1131 8.50014E-01
 -1      1132 9.69404E-01
 -1      1133 1.17209E+00
 -1      1134 1.55906E+00
 -1      1135 2.65337E+00
 -1      1136 6.06085E+00
 -1      1137 1.13394E+01
 -1      1138 1.31489E+01
 -1      1139 8.74327E+00
 -1      1140 3.85050E+00
 -1      1141 2.74993E+00
 -1      1142 1.76354E+00
 -1      1143 1.22543E+00
 -1      1144 9.46407E-01
 -1      1145 7.49409E-01
 -1      1146 6.03833E-01
 -1      1147 4.94609E-01
 -1      1148 4.13065E-01
 -1      1149 3.61306E-01
 -1      1150 3.68402E-01
 -1      1151 4.22708E-01
 -1      1152 4.86976E-01
 -1      1153 5.54716E-01
 -1      1154 6.51504E-01
 -1      1155 8.03762E-01
 -1      1156 1.00444E+00
 -1      1157 1.20880E+00
 -1      1158 1.33541E+00
 -1      1159 1.36923E+00
 -1      1160 1.36254E+00
 -1      1161 1.43407E+00
 -1      1162 1.75900E+00
 -1      1163 2.72019E+00
 -1      1164 3.74234E+00
 -1      1165 4.05000E+00
 -1      1166 4.04500E+00
 -1      1167 3.81125E+00
 -1      1168 2.90254E+00
 -1      1169 1.90222E+00
 -1      1170 1.47349E+00
 -1      1171 1.36511E+00
 -1      1172 1.35945E+00
 -1      1173 1.33107E+00
 -1      1174 1.21952E+00
 -1      1175 1.01881E+00
 -1      1176 8.16880E-01
 -1      1177 6.44625E-01
 -1      1178 5.23527E-01
 -1      1179 4.43176E-01
 -1      1180 3.62359E-01
 -1      1181 2.87956E-01
 -1      1182 2.22918E-01
 -1      1183 1.70702E-01
 -1      1184 1.39035E-01
 -1      1185 1.15543E-01
 -1      1186 7.78325E-02
 -1      1187 3.48486E-02
 -1      1188 1.40449E+01
 -1      1189 8.72880E+00
 -1      1190 2.92332E+00
 -1      1191 2.06189E+00
 -1      1192 1.43127E+00
 -1      1193 1.06352E+00
 -1      1194 8.74320E-01
 -1      1195 7.31802E-01
 -1      1196 6.20868E-01
 -1      1197 5.36165E-01
 -1      1198 4.74466E-01
 -1      1199 4.32887E-01
 -1      1200 4.07904E-01
 -1      1201 4.24079E-01
 -1      1202 4.82101E-01
 -1      1203 5.47277E-01
 -1      1204 6.03371E-01
 -1      1205 6.34205E-01
 -1      1206 6.98026E-01
 -1      1207 8.56077E-01
 -1      1208 1.02745E+00
 -1      1209 1.17807E+00
 -1      1210 1.37661E+00
 -1      1211 1.49476E+00
 -1      1212 1.67515E+00
 -1      1213 2.19349E+00
 -1      1214 2.91673E+00
 -1      1215 3.50184E+00
 -1      1216 3.70168E+00
 -1      1217 3.67051E+00
 -1      1218 3.10368E+00
 -1      1219 2.04876E+00
 -1      1220 1.30935E+00
 -1      1221 1.15044E+00
 -1      1222 1.25337E+00
 -1      1223 1.29509E+00
 -1      1224 1.25172E+00
 -1      1225 1.12322E+00
 -1      1226 9.55888E-01
 -1      1227 7.90888E-01
 -1      1228 6.29299E-01
 -1      1229 4.81170E-01
 -1      1230 3.65725E-01
 -1      1231 2.85296E-01
 -1      1232 2.21405E-01
 -1      1233 1.66653E-01
 -1      1234 1.19398E-01
 -1      1235 8.59474E-02
 -1      1236 5.90070E-02
 -1      1237 2.84374E-02
 -1      1238 1.54398E-02
 -1      1239 1.78796E-02
 -1      1240 1.83033E-02
 -1      1241 1.50527E-02
 -1      1242 9.44181E-03
 -1      1243 1.03657E-02
 -1      1244 1.58197E-02
 -1      1245 1.86503E-02
 -1      1246 1.93112E-02
 -1      1247 1.86327E-02
 -1      1248 1.57135E-02
 -1      1249 1.03226E-02
 -1      1250 9.62366E-03
 -1      1251 1.51019E-02
 -1      1252 2.06997E-02
 -1      1253 2.41470E-02
 -1      1254 2.02847E-02
 -1      1255 2.41611E+01
 -1      1256 3.63469E+01
 -1      1257 4.81754E+01
 -1      1258 3.51192E+01
 -1      1259 1.72704E+01
 -1      1260 1.24777E+01
 -1      1261 1.23826E+01
 -1      1262 1.27719E+01
 -1      1263 1.32563E+01
 -1      1264 1.26718E+01
 -1      1265 1.95416E+01
 -1      1266 2.80252E+01
 -1      1267 2.89554E+01
 -1      1268 2.69197E+01
 -1      1269 2.49830E+01
 -1      1270 2.47726E+01
 -1      1271 3.24212E+01
 -1      1272 4.02801E+01
 -1      1273 2.76015E+01
 -1      1274 1.41529E+01
 -1      1275 1.33829E+01
 -1      1276 1.28469E+01
 -1      1277 1.23063E+01
 -1      1278 1.21448E+01
 -1      1279 1.59572E+01
 -1      1280 3.36703E+01
 -1      1281 4.74140E+01
 -1      1282 3.61165E+01
 -1      1283 2.43114E+01
 -1      1284 1.31489E+01
 -1      1285 4.85102E+00
 -1      1286 9.60248E+00
 -1      1287 2.04537E+00
 -1      1288 2.96426E+00
 -1      1289 4.16925E+00
 -1      1290 1.39004E+00
 -1      1291 1.65385E+00
 -1      1292 1.89096E+00
 -1      1293 1.09490E+00
 -1      1294 1.21583E+00
 -1      1295 1.32522E+00
 -1      1296 9.30093E-01
 -1      1297 1.00305E+00
 -1      1298 1.05916E+00
 -1      1299 8.30278E-01
 -1      1300 8.75727E-01
 -1      1301 9.12953E-01
 -1      1302 7.69270E-01
 -1      1303 7.96072E-01
 -1      1304 8.24381E-01
 -1      1305 7.50309E-01
 -1      1306 7.49337E-01
 -1      1307 7.70242E-01
 -1      1308 7.99910E-01
 -1      1309 7.71949E-01
 -1      1310 7.71949E-01
 -1      1311 8.77553E-01
 -1      1312 8.33770E-01
 -1      1313 8.27449E-01
 -1      1314 1.00987E+00
 -1      1315 9.34264E-01
 -1      1316 9.18021E-01
 -1      1317 1.23235E+00
 -1      1318 1.10527E+00
 -1      1319 1.07013E+00
 -1      1320 1.66913E+00
 -1      1321 1.40924E+00
 -1      1322 1.34242E+00
 -1      1323 2.86941E+00
 -1      1324 2.03498E+00
 -1      1325 1.88517E+00
 -1      1326 6.27595E+00
 -1      1327 3.70291E+00
 -1      1328 3.08452E+00
 -1      1329 1.40449E+01
 -1      1330 1.13394E+01
 -1      1331 8.98145E+00
 -1      1332 1.40449E+01
 -1      1333 8.74327E+00
 -1      1334 4.33760E+00
 -1      1335 3.85050E+00
 -1      1336 3.36341E+00
 -1      1337 3.85050E+00
 -1      1338 2.74993E+00
 -1      1339 2.13645E+00
 -1      1340 2.74993E+00
 -1      1341 1.80229E+00
 -1      1342 1.42937E+00
 -1      1343 1.80229E+00
 -1      1344 1.22543E+00
 -1      1345 1.06024E+00
 -1      1346 1.26418E+00
 -1      1347 9.46407E-01
 -1      1348 8.32576E-01
 -1      1349 9.46407E-01
 -1      1350 7.49409E-01
 -1      1351 6.66241E-01
 -1      1352 7.49409E-01
 -1      1353 6.03833E-01
 -1      1354 5.41426E-01
 -1      1355 6.03833E-01
 -1      1356 4.94609E-01
 -1      1357 4.47792E-01
 -1      1358 4.94609E-01
 -1      1359 4.13065E-01
 -1      1360 3.78338E-01
 -1      1361 4.13065E-01
 -1      1362 3.52615E-01
 -1      1363 3.35582E-01
 -1      1364 3.52615E-01
 -1      1365 3.44273E-01
 -1      1366 3.68402E-01
 -1      1367 3.35582E-01
 -1      1368 3.92531E-01
 -1      1369 4.22708E-01
 -1      1370 3.68402E-01
 -1      1371 4.52884E-01
 -1      1372 4.86976E-01
 -1      1373 4.22708E-01
 -1      1374 5.21068E-01
 -1      1375 5.54716E-01
 -1      1376 4.86976E-01
 -1      1377 6.21702E-01
 -1      1378 6.84842E-01
 -1      1379 5.88054E-01
 -1      1380 7.50548E-01
 -1      1381 8.39665E-01
 -1      1382 7.20745E-01
 -1      1383 9.09135E-01
 -1      1384 1.02070E+00
 -1      1385 8.55921E-01
 -1      1386 1.11600E+00
 -1      1387 1.20880E+00
 -1      1388 1.02070E+00
 -1      1389 1.30159E+00
 -1      1390 1.33541E+00
 -1      1391 1.20880E+00
 -1      1392 1.36923E+00
 -1      1393 1.36923E+00
 -1      1394 1.33541E+00
 -1      1395 1.35951E+00
 -1      1396 1.35282E+00
 -1      1397 1.35951E+00
 -1      1398 1.35584E+00
 -1      1399 1.43407E+00
 -1      1400 1.35282E+00
 -1      1401 1.51230E+00
 -1      1402 1.75900E+00
 -1      1403 1.43407E+00
 -1      1404 2.08008E+00
 -1      1405 2.79458E+00
 -1      1406 1.83339E+00
 -1      1407 3.43468E+00
 -1      1408 3.74234E+00
 -1      1409 2.79458E+00
 -1      1410 4.05000E+00
 -1      1411 4.05000E+00
 -1      1412 3.74234E+00
 -1      1413 4.04500E+00
 -1      1414 4.03999E+00
 -1      1415 4.04500E+00
 -1      1416 3.81125E+00
 -1      1417 3.58251E+00
 -1      1418 3.81125E+00
 -1      1419 2.92781E+00
 -1      1420 2.24784E+00
 -1      1421 2.92781E+00
 -1      1422 1.90222E+00
 -1      1423 1.58186E+00
 -1      1424 1.92748E+00
 -1      1425 1.45324E+00
 -1      1426 1.34487E+00
 -1      1427 1.45324E+00
 -1      1428 1.36511E+00
 -1      1429 1.36511E+00
 -1      1430 1.34487E+00
 -1      1431 1.35945E+00
 -1      1432 1.35379E+00
 -1      1433 1.35945E+00
 -1      1434 1.33107E+00
 -1      1435 1.30836E+00
 -1      1436 1.33107E+00
 -1      1437 1.21952E+00
 -1      1438 1.13068E+00
 -1      1439 1.21952E+00
 -1      1440 1.03413E+00
 -1      1441 9.22263E-01
 -1      1442 1.03413E+00
 -1      1443 8.54679E-01
 -1      1444 7.64612E-01
 -1      1445 8.69995E-01
 -1      1446 7.01846E-01
 -1      1447 6.19658E-01
 -1      1448 7.39645E-01
 -1      1449 5.52744E-01
 -1      1450 5.13835E-01
 -1      1451 6.09966E-01
 -1      1452 4.50873E-01
 -1      1453 4.09431E-01
 -1      1454 4.80090E-01
 -1      1455 3.62359E-01
 -1      1456 3.22983E-01
 -1      1457 3.70055E-01
 -1      1458 2.87956E-01
 -1      1459 2.52928E-01
 -1      1460 2.87956E-01
 -1      1461 2.24991E-01
 -1      1462 1.94981E-01
 -1      1463 2.24991E-01
 -1      1464 1.71816E-01
 -1      1465 1.49610E-01
 -1      1466 1.73889E-01
 -1      1467 1.39035E-01
 -1      1468 1.29573E-01
 -1      1469 1.40149E-01
 -1      1470 1.15543E-01
 -1      1471 1.01514E-01
 -1      1472 1.15543E-01
 -1      1473 7.92853E-02
 -1      1474 5.56042E-02
 -1      1475 7.92853E-02
 -1      1476 3.95875E-02
 -1      1477 4.10404E-02
 -1      1478 3.41271E+00
 -1      1479 8.72880E+00
 -1      1480 8.72880E+00
 -1      1481 2.43394E+00
 -1      1482 2.92332E+00
 -1      1483 2.92332E+00
 -1      1484 1.68985E+00
 -1      1485 2.06189E+00
 -1      1486 2.06189E+00
 -1      1487 1.17270E+00
 -1      1488 1.43127E+00
 -1      1489 1.43127E+00
 -1      1490 9.54347E-01
 -1      1491 1.06352E+00
 -1      1492 1.06352E+00
 -1      1493 7.94292E-01
 -1      1494 8.74320E-01
 -1      1495 8.74320E-01
 -1      1496 6.69312E-01
 -1      1497 7.31802E-01
 -1      1498 7.31802E-01
 -1      1499 5.72424E-01
 -1      1500 6.20868E-01
 -1      1501 6.20868E-01
 -1      1502 4.99906E-01
 -1      1503 5.36165E-01
 -1      1504 5.36165E-01
 -1      1505 4.49026E-01
 -1      1506 4.74466E-01
 -1      1507 4.74466E-01
 -1      1508 4.16749E-01
 -1      1509 4.32887E-01
 -1      1510 4.32887E-01
 -1      1511 3.99059E-01
 -1      1512 4.07904E-01
 -1      1513 4.07904E-01
 -1      1514 4.19738E-01
 -1      1515 3.94717E-01
 -1      1516 3.94717E-01
 -1      1517 4.82101E-01
 -1      1518 4.49099E-01
 -1      1519 4.19738E-01
 -1      1520 5.47277E-01
 -1      1521 5.15103E-01
 -1      1522 4.82101E-01
 -1      1523 6.03371E-01
 -1      1524 5.79451E-01
 -1      1525 5.47277E-01
 -1      1526 6.34205E-01
 -1      1527 6.27292E-01
 -1      1528 6.03371E-01
 -1      1529 7.07576E-01
 -1      1530 6.50669E-01
 -1      1531 6.43756E-01
 -1      1532 8.75807E-01
 -1      1533 7.74663E-01
 -1      1534 7.27306E-01
 -1      1535 1.02745E+00
 -1      1536 9.57221E-01
 -1      1537 8.75807E-01
 -1      1538 1.17807E+00
 -1      1539 1.09767E+00
 -1      1540 1.02745E+00
 -1      1541 1.37661E+00
 -1      1542 1.25846E+00
 -1      1543 1.17807E+00
 -1      1544 1.49476E+00
 -1      1545 1.49476E+00
 -1      1546 1.37661E+00
 -1      1547 1.67359E+00
 -1      1548 1.49320E+00
 -1      1549 1.49320E+00
 -1      1550 2.19349E+00
 -1      1551 1.85553E+00
 -1      1552 1.67359E+00
 -1      1553 2.91673E+00
 -1      1554 2.53145E+00
 -1      1555 2.19349E+00
 -1      1556 3.50184E+00
 -1      1557 3.30200E+00
 -1      1558 2.91673E+00
 -1      1559 3.70168E+00
 -1      1560 3.70168E+00
 -1      1561 3.50184E+00
 -1      1562 3.63934E+00
 -1      1563 3.67051E+00
 -1      1564 3.67051E+00
 -1      1565 2.56802E+00
 -1      1566 3.10368E+00
 -1      1567 3.10368E+00
 -1      1568 1.52949E+00
 -1      1569 2.04876E+00
 -1      1570 2.04876E+00
 -1      1571 1.03505E+00
 -1      1572 1.25518E+00
 -1      1573 1.25518E+00
 -1      1574 1.15044E+00
 -1      1575 1.08922E+00
 -1      1576 1.03505E+00
 -1      1577 1.25337E+00
 -1      1578 1.21166E+00
 -1      1579 1.15044E+00
 -1      1580 1.29509E+00
 -1      1581 1.29509E+00
 -1      1582 1.25337E+00
 -1      1583 1.20835E+00
 -1      1584 1.25172E+00
 -1      1585 1.25172E+00
 -1      1586 1.03808E+00
 -1      1587 1.12322E+00
 -1      1588 1.12322E+00
 -1      1589 8.73693E-01
 -1      1590 9.55888E-01
 -1      1591 9.55888E-01
 -1      1592 7.14606E-01
 -1      1593 7.97410E-01
 -1      1594 7.97410E-01
 -1      1595 5.63621E-01
 -1      1596 6.42406E-01
 -1      1597 6.48928E-01
 -1      1598 4.27858E-01
 -1      1599 4.97202E-01
 -1      1600 5.10309E-01
 -1      1601 3.24396E-01
 -1      1602 3.70496E-01
 -1      1603 3.86528E-01
 -1      1604 2.50968E-01
 -1      1605 2.85296E-01
 -1      1606 2.90067E-01
 -1      1607 1.91842E-01
 -1      1608 2.21405E-01
 -1      1609 2.21405E-01
 -1      1610 1.41464E-01
 -1      1611 1.66653E-01
 -1      1612 1.66653E-01
 -1      1613 9.88371E-02
 -1      1614 1.20903E-01
 -1      1615 1.20903E-01
 -1      1616 7.45629E-02
 -1      1617 8.59474E-02
 -1      1618 8.74526E-02
 -1      1619 4.34511E-02
 -1      1620 5.90070E-02
 -1      1621 5.90070E-02
 -1      1622 3.04534E-02
 -1      1623 2.29579E-02
 -1      1624 2.25342E-02
 -1      1625 2.44229E-02
 -1      1626 2.44229E-02
 -1      1627 2.90775E-02
 -1      1628 2.11723E-02
 -1      1629 2.44229E-02
 -1      1630 3.05424E-02
 -1      1631 1.18472E-02
 -1      1632 1.42075E-02
 -1      1633 2.35776E-02
 -1      1634 1.96973E-02
 -1      1635 1.64131E-02
 -1      1636 2.11788E-02
 -1      1637 2.63038E-02
 -1      1638 2.41340E-02
 -1      1639 3.01814E-02
 -1      1640 2.88060E-02
 -1      1641 2.81452E-02
 -1      1642 3.64595E-02
 -1      1643 2.88060E-02
 -1      1644 2.88060E-02
 -1      1645 3.83009E-02
 -1      1646 2.81230E-02
 -1      1647 2.88015E-02
 -1      1648 3.82963E-02
 -1      1649 2.39544E-02
 -1      1650 2.61951E-02
 -1      1651 3.63639E-02
 -1      1652 1.65317E-02
 -1      1653 1.96819E-02
 -1      1654 3.01635E-02
 -1      1655 1.44205E-02
 -1      1656 1.19694E-02
 -1      1657 2.13286E-02
 -1      1658 2.45947E-02
 -1      1659 2.15676E-02
 -1      1660 2.39133E-02
 -1      1661 2.71655E-02
 -1      1662 2.45947E-02
 -1      1663 3.10604E-02
 -1      1664 3.05151E-02
 -1      1665 2.96385E-02
 -1      1666 3.35335E-02
 -1      1667 4.65319E-02
 -1      1668 2.66406E+01
 -1      1669 2.62832E+01
 -1      1670 3.92275E+01
 -1      1671 2.73990E+01
 -1      1672 4.81754E+01
 -1      1673 4.81754E+01
 -1      1674 2.27351E+01
 -1      1675 3.57913E+01
 -1      1676 1.18324E+01
 -1      1677 1.66250E+01
 -1      1678 1.24777E+01
 -1      1679 1.24777E+01
 -1      1680 1.22254E+01
 -1      1681 1.23204E+01
 -1      1682 1.27719E+01
 -1      1683 1.22876E+01
 -1      1684 1.32563E+01
 -1      1685 1.32563E+01
 -1      1686 1.20873E+01
 -1      1687 1.26718E+01
 -1      1688 1.93891E+01
 -1      1689 1.19348E+01
 -1      1690 2.90545E+01
 -1      1691 2.80252E+01
 -1      1692 2.89554E+01
 -1      1693 2.90545E+01
 -1      1694 2.50888E+01
 -1      1695 2.70255E+01
 -1      1696 2.74739E+01
 -1      1697 2.74739E+01
 -1      1698 2.72634E+01
 -1      1699 2.74739E+01
 -1      1700 3.81531E+01
 -1      1701 3.02941E+01
 -1      1702 4.02801E+01
 -1      1703 4.02801E+01
 -1      1704 1.49229E+01
 -1      1705 2.76015E+01
 -1      1706 1.24243E+01
 -1      1707 1.31943E+01
 -1      1708 1.33829E+01
 -1      1709 1.33829E+01
 -1      1710 1.23109E+01
 -1      1711 1.28469E+01
 -1      1712 1.23017E+01
 -1      1713 1.23063E+01
 -1      1714 1.19878E+01
 -1      1715 1.21448E+01
 -1      1716 1.56068E+01
 -1      1717 1.16374E+01
 -1      1718 3.41976E+01
 -1      1719 2.04539E+01
 -1      1720 4.74140E+01
 -1      1721 4.74140E+01
 -1      1722 2.70222E+01
 -1      1723 3.83196E+01
 -1      1724 2.62832E+01
 -1      1725 2.67909E+01
 -1      1726 1.72971E+01
 -1      1727 3.57913E+01
 -1      1728 3.04534E-02
 -1      1729 3.55318E-02
 -1      1730 2.95212E+01
 -1      1731 3.92275E+01
 -1      1732 2.87628E+01
 -1      1733 1.18324E+01
 -1      1734 1.23204E+01
 -1      1735 1.22254E+01
 -1      1736 1.27719E+01
 -1      1737 1.26718E+01
 -1      1738 1.19348E+01
 -1      1739 2.04184E+01
 -1      1740 2.90545E+01
 -1      1741 2.71246E+01
 -1      1742 2.75797E+01
 -1      1743 2.99647E+01
 -1      1744 3.29954E+01
 -1      1745 3.81531E+01
 -1      1746 2.76015E+01
 -1      1747 1.31943E+01
 -1      1748 1.24243E+01
 -1      1749 1.28469E+01
 -1      1750 1.23063E+01
 -1      1751 1.21448E+01
 -1      1752 1.16374E+01
 -1      1753 1.61341E+01
 -1      1754 3.41976E+01
 -1      1755 3.83196E+01
 -1      1756 2.89940E+01
 -1      1757 9.60248E+00
 -1      1758 1.26662E+00
 -1      1759 1.65815E+00
 -1      1760 2.37199E+00
 -1      1761 4.25876E+00
 -1      1762 1.74765E+00
 -1      1763 8.78241E-01
 -1      1764 9.70085E-01
 -1      1765 7.73886E-01
 -1      1766 8.28252E-01
 -1      1767 7.39174E-01
 -1      1768 7.08169E-01
 -1      1769 7.42375E-01
 -1      1770 6.57675E-01
 -1      1771 6.66194E-01
 -1      1772 6.86126E-01
 -1      1773 6.04121E-01
 -1      1774 6.89412E-01
 -1      1775 6.67772E-01
 -1      1776 5.83656E-01
 -1      1777 7.45061E-01
 -1      1778 7.11201E-01
 -1      1779 6.07024E-01
 -1      1780 8.35041E-01
 -1      1781 7.78330E-01
 -1      1782 6.62082E-01
 -1      1783 9.77911E-01
 -1      1784 8.82516E-01
 -1      1785 7.42825E-01
 -1      1786 1.22231E+00
 -1      1787 1.04542E+00
 -1      1788 8.57809E-01
 -1      1789 1.69833E+00
 -1      1790 1.33247E+00
 -1      1791 1.03548E+00
 -1      1792 2.61551E+00
 -1      1793 1.78201E+00
 -1      1794 1.22932E+00
 -1      1795 8.12279E+00
 -1      1796 3.05936E+00
 -1      1797 1.75685E+00
 -1      1798 2.80670E+00
 -1      1799 5.19681E+00
 -1      1800 2.17306E+00
 -1      1801 2.66245E+00
 -1      1802 2.05644E+00
 -1      1803 3.39955E+00
 -1      1804 2.55418E+00
 -1      1805 1.94071E+00
 -1      1806 1.70992E+00
 -1      1807 1.37575E+00
 -1      1808 1.51417E+00
 -1      1809 1.19542E+00
 -1      1810 9.91473E-01
 -1      1811 1.10305E+00
 -1      1812 8.71381E-01
 -1      1813 7.57551E-01
 -1      1814 8.02617E-01
 -1      1815 7.07019E-01
 -1      1816 6.23851E-01
 -1      1817 6.31993E-01
 -1      1818 5.78654E-01
 -1      1819 5.16246E-01
 -1      1820 5.36264E-01
 -1      1821 4.76579E-01
 -1      1822 4.29762E-01
 -1      1823 4.51399E-01
 -1      1824 3.95422E-01
 -1      1825 3.60695E-01
 -1      1826 3.77392E-01
 -1      1827 3.30835E-01
 -1      1828 3.05112E-01
 -1      1829 3.13192E-01
 -1      1830 2.99483E-01
 -1      1831 3.08174E-01
 -1      1832 2.77703E-01
 -1      1833 3.27800E-01
 -1      1834 3.51929E-01
 -1      1835 2.91700E-01
 -1      1836 3.75374E-01
 -1      1837 4.05550E-01
 -1      1838 3.34771E-01
 -1      1839 4.52874E-01
 -1      1840 4.86966E-01
 -1      1841 4.05540E-01
 -1      1842 5.50985E-01
 -1      1843 6.17971E-01
 -1      1844 5.16883E-01
 -1      1845 6.79802E-01
 -1      1846 7.45507E-01
 -1      1847 6.42733E-01
 -1      1848 7.96147E-01
 -1      1849 8.65617E-01
 -1      1850 7.55204E-01
 -1      1851 9.17758E-01
 -1      1852 1.01306E+00
 -1      1853 8.57985E-01
 -1      1854 1.06707E+00
 -1      1855 1.15986E+00
 -1      1856 9.64132E-01
 -1      1857 1.16703E+00
 -1      1858 1.20086E+00
 -1      1859 1.02531E+00
 -1      1860 1.12502E+00
 -1      1861 1.11530E+00
 -1      1862 9.56639E-01
 -1      1863 1.09821E+00
 -1      1864 1.10123E+00
 -1      1865 8.63710E-01
 -1      1866 1.12318E+00
 -1      1867 1.20141E+00
 -1      1868 8.68573E-01
 -1      1869 1.48973E+00
 -1      1870 1.81082E+00
 -1      1871 1.17884E+00
 -1      1872 2.06367E+00
 -1      1873 2.70377E+00
 -1      1874 1.72001E+00
 -1      1875 2.92674E+00
 -1      1876 3.23440E+00
 -1      1877 2.19583E+00
 -1      1878 3.17503E+00
 -1      1879 3.17002E+00
 -1      1880 2.35942E+00
 -1      1881 3.23719E+00
 -1      1882 3.00845E+00
 -1      1883 2.36722E+00
 -1      1884 2.82339E+00
 -1      1885 2.16869E+00
 -1      1886 2.24933E+00
 -1      1887 1.91119E+00
 -1      1888 1.56556E+00
 -1      1889 1.80677E+00
 -1      1890 1.27063E+00
 -1      1891 1.14201E+00
 -1      1892 1.25433E+00
 -1      1893 1.08792E+00
 -1      1894 1.10816E+00
 -1      1895 9.05302E-01
 -1      1896 1.10282E+00
 -1      1897 1.09716E+00
 -1      1898 8.45868E-01
 -1      1899 1.18576E+00
 -1      1900 1.16305E+00
 -1      1901 9.29131E-01
 -1      1902 1.16461E+00
 -1      1903 1.07577E+00
 -1      1904 1.01930E+00
 -1      1905 1.02636E+00
 -1      1906 9.29812E-01
 -1      1907 9.71451E-01
 -1      1908 8.80660E-01
 -1      1909 8.13076E-01
 -1      1910 8.72893E-01
 -1      1911 7.67131E-01
 -1      1912 7.04365E-01
 -1      1913 7.77796E-01
 -1      1914 6.46656E-01
 -1      1915 5.79742E-01
 -1      1916 6.74141E-01
 -1      1917 5.20198E-01
 -1      1918 4.57236E-01
 -1      1919 5.56888E-01
 -1      1920 4.01824E-01
 -1      1921 3.54752E-01
 -1      1922 4.41933E-01
 -1      1923 3.06471E-01
 -1      1924 2.71443E-01
 -1      1925 3.38240E-01
 -1      1926 2.31352E-01
 -1      1927 2.03415E-01
 -1      1928 2.49868E-01
 -1      1929 1.73889E-01
 -1      1930 1.50724E-01
 -1      1931 1.80251E-01
 -1      1932 1.30944E-01
 -1      1933 1.20369E-01
 -1      1934 1.30944E-01
 -1      1935 1.04208E-01
 -1      1936 9.01779E-02
 -1      1937 9.50034E-02
 -1      1938 7.77108E-02
 -1      1939 5.54825E-02
 -1      1940 4.49573E-02
 -1      1941 6.63750E-02
 -1      1942 1.41762E+00
 -1      1943 1.78967E+00
 -1      1944 1.52879E+00
 -1      1945 1.03751E+00
 -1      1946 1.29608E+00
 -1      1947 1.02385E+00
 -1      1948 8.33333E-01
 -1      1949 9.42508E-01
 -1      1950 8.07316E-01
 -1      1951 6.71651E-01
 -1      1952 7.51678E-01
 -1      1953 6.30664E-01
 -1      1954 5.69919E-01
 -1      1955 6.32409E-01
 -1      1956 5.09768E-01
 -1      1957 4.98065E-01
 -1      1958 5.46509E-01
 -1      1959 4.47116E-01
 -1      1960 4.41006E-01
 -1      1961 4.77265E-01
 -1      1962 4.02906E-01
 -1      1963 3.98600E-01
 -1      1964 4.24040E-01
 -1      1965 3.65140E-01
 -1      1966 3.69629E-01
 -1      1967 3.85768E-01
 -1      1968 3.35342E-01
 -1      1969 3.51544E-01
 -1      1970 3.60389E-01
 -1      1971 3.13270E-01
 -1      1972 3.64263E-01
 -1      1973 3.68604E-01
 -1      1974 3.21089E-01
 -1      1975 4.34390E-01
 -1      1976 4.05029E-01
 -1      1977 3.78915E-01
 -1      1978 5.31264E-01
 -1      1979 4.98263E-01
 -1      1980 4.83553E-01
 -1      1981 6.26600E-01
 -1      1982 5.94425E-01
 -1      1983 6.10587E-01
 -1      1984 7.04551E-01
 -1      1985 6.80631E-01
 -1      1986 7.27780E-01
 -1      1987 7.70938E-01
 -1      1988 7.54473E-01
 -1      1989 8.31733E-01
 -1      1990 8.60305E-01
 -1      1991 7.93219E-01
 -1      1992 9.03936E-01
 -1      1993 9.41719E-01
 -1      1994 8.60305E-01
 -1      1995 9.26217E-01
 -1      1996 9.78053E-01
 -1      1997 9.07826E-01
 -1      1998 8.92324E-01
 -1      1999 9.39496E-01
 -1      2000 8.59106E-01
 -1      2001 7.39484E-01
 -1      2002 1.07094E+00
 -1      2003 9.52790E-01
 -1      2004 6.33831E-01
 -1      2005 1.37187E+00
 -1      2006 1.37342E+00
 -1      2007 9.49606E-01
 -1      2008 1.83107E+00
 -1      2009 1.64912E+00
 -1      2010 1.52935E+00
 -1      2011 2.22411E+00
 -1      2012 1.88615E+00
 -1      2013 1.86169E+00
 -1      2014 2.60939E+00
 -1      2015 2.22411E+00
 -1      2016 1.91678E+00
 -1      2017 2.84669E+00
 -1      2018 2.64685E+00
 -1      2019 1.95424E+00
 -1      2020 2.92853E+00
 -1      2021 2.95970E+00
 -1      2022 2.10471E+00
 -1      2023 2.18648E+00
 -1      2024 2.72213E+00
 -1      2025 2.01132E+00
 -1      2026 1.31904E+00
 -1      2027 1.83831E+00
 -1      2028 1.45676E+00
 -1      2029 8.40559E-01
 -1      2030 1.11487E+00
 -1      2031 9.04416E-01
 -1      2032 9.15852E-01
 -1      2033 8.61680E-01
 -1      2034 7.21364E-01
 -1      2035 1.05660E+00
 -1      2036 9.95381E-01
 -1      2037 8.22015E-01
 -1      2038 1.11727E+00
 -1      2039 1.07556E+00
 -1      2040 9.20501E-01
 -1      2041 1.07644E+00
 -1      2042 1.11981E+00
 -1      2043 9.41990E-01
 -1      2044 9.50464E-01
 -1      2045 1.03560E+00
 -1      2046 9.03684E-01
 -1      2047 8.23318E-01
 -1      2048 9.05513E-01
 -1      2049 8.17894E-01
 -1      2050 6.91749E-01
 -1      2051 7.68031E-01
 -1      2052 7.17657E-01
 -1      2053 5.59406E-01
 -1      2054 6.31606E-01
 -1      2055 6.02227E-01
 -1      2056 4.35351E-01
 -1      2057 5.01770E-01
 -1      2058 4.84448E-01
 -1      2059 3.26764E-01
 -1      2060 3.84126E-01
 -1      2061 3.75587E-01
 -1      2062 2.44395E-01
 -1      2063 2.83495E-01
 -1      2064 2.81092E-01
 -1      2065 1.88310E-01
 -1      2066 2.17873E-01
 -1      2067 2.11300E-01
 -1      2068 1.40457E-01
 -1      2069 1.65646E-01
 -1      2070 1.62114E-01
 -1      2071 1.00342E-01
 -1      2072 1.20903E-01
 -1      2073 1.19896E-01
 -1      2074 6.99782E-02
 -1      2075 8.28678E-02
 -1      2076 8.28678E-02
 -1      2077 3.92764E-02
 -1      2078 5.48323E-02
 -1      2079 5.02476E-02
 -1      2080 3.13571E-02
 -1      2081 2.53329E-02
 -1      2082 3.22977E-02
 -1      2083 4.23935E-02
 -1      2084 4.23935E-02
 -1      2085 4.41488E-02
 -1      2086 4.23935E-02
 -1      2087 4.09286E-02
 -1      2088 4.46732E-02
 -1      2089 5.42446E-02
 -1      2090 3.05613E-02
 -1      2091 2.59953E-02
 -1      2092 3.47154E-02
 -1      2093 4.17939E-02
 -1      2094 3.73572E-02
 -1      2095 4.21738E-02
 -1      2096 4.69504E-02
 -1      2097 4.51090E-02
 -1      2098 5.22848E-02
 -1      2099 4.69504E-02
 -1      2100 4.69504E-02
 -1      2101 5.56000E-02
 -1      2102 4.68737E-02
 -1      2103 4.68782E-02
 -1      2104 5.55278E-02
 -1      2105 4.49458E-02
 -1      2106 4.68737E-02
 -1      2107 5.54556E-02
 -1      2108 3.75200E-02
 -1      2109 4.17925E-02
 -1      2110 5.23023E-02
 -1      2111 2.61474E-02
 -1      2112 3.07098E-02
 -1      2113 4.23388E-02
 -1      2114 3.32094E-02
 -1      2115 2.60623E-02
 -1      2116 3.54435E-02
 -1      2117 4.04521E-02
 -1      2118 4.04521E-02
 -1      2119 4.26010E-02
 -1      2120 3.92275E+01
 -1      2121 3.02797E+01
 -1      2122 3.04010E+01
 -1      2123 3.04010E+01
 -1      2124 3.08785E+01
 -1      2125 3.01201E+01
 -1      2126 2.03980E+01
 -1      2127 3.27822E+01
 -1      2128 1.05568E+01
 -1      2129 1.66668E+01
 -1      2130 1.02779E+00
 -1      2131 1.20201E+00
 -1      2132 9.69193E-01
 -1      2133 8.46872E-01
 -1      2134 1.10972E+01
 -1      2135 1.12545E+01
 -1      2136 1.15601E+01
 -1      2137 1.14979E+01
 -1      2138 1.04320E+01
 -1      2139 1.20257E+01
 -1      2140 1.15413E+01
 -1      2141 1.05880E+01
 -1      2142 1.11725E+01
 -1      2143 9.25035E+00
 -1      2144 9.40282E+00
 -1      2145 7.90352E+00
 -1      2146 2.00308E+01
 -1      2147 1.13948E+01
 -1      2148 2.42789E+01
 -1      2149 2.42789E+01
 -1      2150 2.34328E+01
 -1      2151 2.53627E+01
 -1      2152 3.35815E+01
 -1      2153 3.11964E+01
 -1      2154 3.35815E+01
 -1      2155 3.35815E+01
 -1      2156 2.99574E+01
 -1      2157 2.69267E+01
 -1      2158 3.05434E+01
 -1      2159 3.16676E+01
 -1      2160 2.95406E+01
 -1      2161 1.40346E+01
 -1      2162 2.67133E+01
 -1      2163 9.53024E+00
 -1      2164 1.12588E+01
 -1      2165 1.03824E+01
 -1      2166 9.42386E+00
 -1      2167 7.48836E+00
 -1      2168 1.15486E+01
 -1      2169 1.20846E+01
 -1      2170 1.11257E+01
 -1      2171 1.11303E+01
 -1      2172 1.09535E+01
 -1      2173 1.11104E+01
 -1      2174 9.57219E+00
 -1      2175 9.92259E+00
 -1      2176 1.50798E+01
 -1      2177 1.02327E+01
 -1      2178 3.20872E+01
 -1      2179 1.88709E+01
 -1      2180 2.92253E+01
 -1      2181 3.83196E+01
 -1      2182 3.04010E+01
 -1      2183 3.06323E+01
 -1      2184 9.56861E+00
 -1      2185 8.92329E+00
 -1      2186 8.29303E+00
 -1      2187 1.36577E+01
 -1      2188 2.91245E+00
 -1      2189 8.34538E+00
 -1      2190 2.10323E+00
 -1      2191 3.08785E+01
 -1      2192 3.17583E+01
 -1      2193 4.29252E-02
 -1      2194 2.38343E+01
 -1      2195 3.20392E+01
 -1      2196 3.06323E+01
 -1      2197 2.29929E+01
 -1      2198 1.29694E+01
 -1      2199 8.51784E+00
 -1      2200 8.88823E+00
 -1      2201 9.93437E+00
 -1      2202 1.06778E+01
 -1      2203 7.67736E+00
 -1      2204 9.37954E+00
 -1      2205 1.03706E+01
 -1      2206 2.34719E+01
 -1      2207 3.71982E+01
 -1      2208 2.94345E+01
 -1      2209 2.05871E+01
 -1      2210 8.86276E+00
 -1      2211 1.08139E+01
 -1      2212 9.94188E+00
 -1      2213 1.52553E+01
 -1      2214 1.81008E+01
 -1      2215 1.03680E+01
 -1      2216 1.10274E+00
 -1      2217 1.48614E+00
 -1      2218 5.53628E-01
 -1      2219 5.85139E-01
 -1      2220 5.99382E-01
 -1      2221 6.49371E-01
 -1      2222 4.95336E-01
 -1      2223 5.05491E-01
 -1      2224 5.03913E-01
 -1      2225 5.40311E-01
 -1      2226 5.18522E-01
 -1      2227 4.38779E-01
 -1      2228 5.88521E-01
 -1      2229 5.55252E-01
 -1      2230 4.66750E-01
 -1      2231 6.48212E-01
 -1      2232 6.00738E-01
 -1      2233 4.93908E-01
 -1      2234 7.15721E-01
 -1      2235 6.48212E-01
 -1      2236 5.06125E-01
 -1      2237 8.69294E-01
 -1      2238 7.59133E-01
 -1      2239 5.49537E-01
 -1      2240 9.22431E+00
 -1      2241 1.29555E+01
 -1      2242 9.02314E-01
 -1      2243 1.02385E+00
 -1      2244 9.81201E-01
 -1      2245 1.27061E+00
 -1      2246 1.03982E+00
 -1      2247 7.40002E+00
 -1      2248 5.71416E+00
 -1      2249 9.96233E-01
 -1      2250 8.15894E-01
 -1      2251 7.52672E-01
 -1      2252 7.57212E-01
 -1      2253 6.37121E-01
 -1      2254 6.50398E-01
 -1      2255 5.77631E-01
 -1      2256 5.27100E-01
 -1      2257 5.32227E-01
 -1      2258 4.87529E-01
 -1      2259 4.42332E-01
 -1      2260 4.33167E-01
 -1      2261 4.17337E-01
 -1      2262 3.77670E-01
 -1      2263 3.68603E-01
 -1      2264 3.50207E-01
 -1      2265 3.15868E-01
 -1      2266 3.16146E-01
 -1      2267 2.87483E-01
 -1      2268 2.57623E-01
 -1      2269 2.60299E-01
 -1      2270 2.33608E-01
 -1      2271 2.27979E-01
 -1      2272 2.07899E-01
 -1      2273 2.42888E-01
 -1      2274 2.62514E-01
 -1      2275 1.98793E-01
 -1      2276 2.87930E-01
 -1      2277 3.11375E-01
 -1      2278 2.39118E-01
 -1      2279 3.67786E-01
 -1      2280 4.15109E-01
 -1      2281 3.20944E-01
 -1      2282 4.76469E-01
 -1      2283 5.40488E-01
 -1      2284 4.38714E-01
 -1      2285 6.04524E-01
 -1      2286 6.66355E-01
 -1      2287 5.64109E-01
 -1      2288 7.28351E-01
 -1      2289 7.78991E-01
 -1      2290 6.90142E-01
 -1      2291 8.30947E-01
 -1      2292 8.83088E-01
 -1      2293 8.04094E-01
 -1      2294 9.29910E-01
 -1      2295 9.83917E-01
 -1      2296 9.02872E-01
 -1      2297 1.05673E+00
 -1      2298 1.06390E+00
 -1      2299 1.02251E+00
 -1      2300 1.11891E+00
 -1      2301 1.04308E+00
 -1      2302 1.15034E+00
 -1      2303 1.05306E+00
 -1      2304 1.03597E+00
 -1      2305 1.21534E+00
 -1      2306 1.18728E+00
 -1      2307 1.20923E+00
 -1      2308 1.37663E+00
 -1      2309 1.20370E+00
 -1      2310 1.49202E+00
 -1      2311 1.52241E+00
 -1      2312 1.68085E+00
 -1      2313 1.93370E+00
 -1      2314 1.70571E+00
 -1      2315 2.08821E+00
 -1      2316 2.31118E+00
 -1      2317 2.04905E+00
 -1      2318 2.68959E+00
 -1      2319 2.63023E+00
 -1      2320 2.58198E+00
 -1      2321 2.65647E+00
 -1      2322 2.72363E+00
 -1      2323 2.98664E+00
 -1      2324 2.36337E+00
 -1      2325 2.17831E+00
 -1      2326 2.65261E+00
 -1      2327 1.92571E+00
 -1      2328 1.66821E+00
 -1      2329 2.03975E+00
 -1      2330 1.50038E+00
 -1      2331 1.20544E+00
 -1      2332 1.61932E+00
 -1      2333 1.26137E+00
 -1      2334 1.20727E+00
 -1      2335 1.50741E+00
 -1      2336 1.04473E+00
 -1      2337 1.03939E+00
 -1      2338 1.40079E+00
 -1      2339 1.03137E+00
 -1      2340 1.11997E+00
 -1      2341 1.23023E+00
 -1      2342 1.07045E+00
 -1      2343 1.07201E+00
 -1      2344 1.17269E+00
 -1      2345 1.00203E+00
 -1      2346 9.52622E-01
 -1      2347 1.05318E+00
 -1      2348 9.00458E-01
 -1      2349 8.51306E-01
 -1      2350 9.31035E-01
 -1      2351 8.03999E-01
 -1      2352 7.58054E-01
 -1      2353 8.31564E-01
 -1      2354 7.00196E-01
 -1      2355 6.42487E-01
 -1      2356 7.26400E-01
 -1      2357 5.82843E-01
 -1      2358 5.23299E-01
 -1      2359 6.08898E-01
 -1      2360 4.67260E-01
 -1      2361 4.11849E-01
 -1      2362 4.93215E-01
 -1      2363 3.62262E-01
 -1      2364 3.13980E-01
 -1      2365 3.87589E-01
 -1      2366 2.71974E-01
 -1      2367 2.31883E-01
 -1      2368 2.95996E-01
 -1      2369 1.97535E-01
 -1      2370 1.68009E-01
 -1      2371 2.19641E-01
 -1      2372 1.40824E-01
 -1      2373 1.21044E-01
 -1      2374 1.58109E-01
 -1      2375 1.00154E-01
 -1      2376 8.39925E-02
 -1      2377 1.10033E-01
 -1      2378 5.49009E-01
 -1      2379 6.30664E-01
 -1      2380 4.70074E-01
 -1      2381 5.09315E-01
 -1      2382 5.09315E-01
 -1      2383 4.14370E-01
 -1      2384 4.37780E-01
 -1      2385 4.37328E-01
 -1      2386 3.61652E-01
 -1      2387 3.82451E-01
 -1      2388 3.73116E-01
 -1      2389 3.14192E-01
 -1      2390 3.31158E-01
 -1      2391 3.10704E-01
 -1      2392 2.72178E-01
 -1      2393 2.85010E-01
 -1      2394 2.51028E-01
 -1      2395 2.71224E-01
 -1      2396 2.80464E-01
 -1      2397 2.30132E-01
 -1      2398 3.06206E-01
 -1      2399 2.89146E-01
 -1      2400 2.56340E-01
 -1      2401 3.88397E-01
 -1      2402 3.47631E-01
 -1      2403 3.15688E-01
 -1      2404 5.12274E-01
 -1      2405 4.48402E-01
 -1      2406 4.17118E-01
 -1      2407 6.37133E-01
 -1      2408 5.73972E-01
 -1      2409 5.38821E-01
 -1      2410 7.49201E-01
 -1      2411 6.95169E-01
 -1      2412 6.58555E-01
 -1      2413 8.46397E-01
 -1      2414 7.96475E-01
 -1      2415 7.63865E-01
 -1      2416 9.04662E-01
 -1      2417 8.82381E-01
 -1      2418 8.47123E-01
 -1      2419 9.52013E-01
 -1      2420 9.52013E-01
 -1      2421 9.30458E-01
 -1      2422 9.40619E-01
 -1      2423 9.74512E-01
 -1      2424 1.00031E+00
 -1      2425 7.92795E-01
 -1      2426 9.11742E-01
 -1      2427 9.93930E-01
 -1      2428 9.01646E-01
 -1      2429 8.88353E-01
 -1      2430 1.06061E+00
 -1      2431 1.21917E+00
 -1      2432 9.16686E-01
 -1      2433 1.17121E+00
 -1      2434 1.67559E+00
 -1      2435 1.39833E+00
 -1      2436 1.36541E+00
 -1      2437 1.89881E+00
 -1      2438 1.84372E+00
 -1      2439 1.71271E+00
 -1      2440 2.17149E+00
 -1      2441 2.17149E+00
 -1      2442 2.15352E+00
 -1      2443 2.24450E+00
 -1      2444 2.20704E+00
 -1      2445 2.46175E+00
 -1      2446 2.24536E+00
 -1      2447 2.13235E+00
 -1      2448 2.38515E+00
 -1      2449 1.75235E+00
 -1      2450 1.95875E+00
 -1      2451 1.98639E+00
 -1      2452 1.30134E+00
 -1      2453 1.64951E+00
 -1      2454 1.59694E+00
 -1      2455 9.23813E-01
 -1      2456 1.12799E+00
 -1      2457 1.32074E+00
 -1      2458 9.06423E-01
 -1      2459 8.85301E-01
 -1      2460 1.10887E+00
 -1      2461 9.56186E-01
 -1      2462 8.76657E-01
 -1      2463 1.04059E+00
 -1      2464 9.78937E-01
 -1      2465 9.59981E-01
 -1      2466 1.01462E+00
 -1      2467 9.45617E-01
 -1      2468 9.43084E-01
 -1      2469 9.82564E-01
 -1      2470 8.63231E-01
 -1      2471 9.04071E-01
 -1      2472 9.05165E-01
 -1      2473 7.78078E-01
 -1      2474 8.23028E-01
 -1      2475 8.23415E-01
 -1      2476 6.73123E-01
 -1      2477 7.28410E-01
 -1      2478 7.33544E-01
 -1      2479 5.56377E-01
 -1      2480 6.16520E-01
 -1      2481 6.27273E-01
 -1      2482 4.42716E-01
 -1      2483 5.00352E-01
 -1      2484 5.14645E-01
 -1      2485 3.40403E-01
 -1      2486 3.91628E-01
 -1      2487 4.07532E-01
 -1      2488 2.53067E-01
 -1      2489 2.96336E-01
 -1      2490 3.12377E-01
 -1      2491 1.90116E-01
 -1      2492 2.16638E-01
 -1      2493 2.31882E-01
 -1      2494 1.38467E-01
 -1      2495 1.61131E-01
 -1      2496 1.66469E-01
 -1      2497 9.61348E-02
 -1      2498 1.15689E-01
 -1      2499 1.14706E-01
 -1      2500 6.50545E-02
 -1      2501 8.25288E-02
 -1      2502 7.83215E-02
 -1      2503 5.98190E-02
 -1      2504 5.56765E-02
 -1      2505 4.88806E-02
 -1      2506 6.45542E-02
 -1      2507 6.12390E-02
 -1      2508 6.79459E-02
 -1      2509 4.38361E-02
 -1      2510 5.39319E-02
 -1      2511 4.29540E-02
 -1      2512 4.22916E-02
 -1      2513 5.20747E-02
 -1      2514 5.64568E-02
 -1      2515 6.52000E-02
 -1      2516 6.52000E-02
 -1      2517 7.41542E-02
 -1      2518 6.51278E-02
 -1      2519 6.52000E-02
 -1      2520 7.47999E-02
 -1      2521 6.50669E-02
 -1      2522 6.50669E-02
 -1      2523 7.47391E-02
 -1      2524 6.13720E-02
 -1      2525 6.45252E-02
 -1      2526 7.41366E-02
 -1      2527 4.91175E-02
 -1      2528 5.59277E-02
 -1      2529 6.81506E-02
 -1      2530 4.75674E-02
 -1      2531 4.76526E-02
 -1      2532 6.12414E-02
 -1      2533 5.48101E-02
 -1      2534 4.75674E-02
 -1      2535 5.97765E-02
 -1      2536 3.14773E+01
 -1      2537 3.17583E+01
 -1      2538 1.57862E+01
 -1      2539 2.22316E+01
 -1      2540 1.13528E+01
 -1      2541 7.12319E-01
 -1      2542 8.07316E-01
 -1      2543 6.30664E-01
 -1      2544 5.18758E-02
 -1      2545 3.20392E+01
 -1      2546 3.20392E+01
 -1      2547 3.17583E+01
 -1      2548 2.59462E+01
 -1      2549 2.65451E+01
 -1      2550 1.66627E+00
 -1      2551 1.30800E+00
 -1      2552 8.33652E-01
 -1      2553 9.52423E-01
 -1      2554 2.67175E+01
 -1      2555 2.53105E+01
 -1      2556 6.97029E+00
 -1      2557 9.74613E+00
 -1      2558 3.71982E+01
 -1      2559 3.71982E+01
 -1      2560 9.17768E+00
 -1      2561 9.19649E+00
 -1      2562 5.16880E-01
 -1      2563 5.38923E-01
 -1      2564 4.66387E-01
 -1      2565 4.38715E-01
 -1      2566 7.79220E+00
 -1      2567 8.64538E+00
 -1      2568 8.84384E+00
 -1      2569 8.44311E+00
 -1      2570 1.45620E+01
 -1      2571 1.03139E+01
 -1      2572 5.46005E+00
 -1      2573 6.64524E+00
 -1      2574 1.23115E+01
 -1      2575 1.72658E+01
 -1      2576 8.67097E+00
 -1      2577 6.52654E+00
 -1      2578 5.26826E+00
 -1      2579 1.82156E+01
 -1      2580 1.71318E+01
 -1      2581 2.94345E+01
 -1      2582 2.16709E+01
 -1      2583 1.82156E+01
 -1      2584 2.38886E+01
 -1      2585 3.05434E+01
 -1      2586 8.88482E+00
 -1      2587 9.30317E+00
 -1      2588 2.04697E+01
 -1      2589 2.08865E+01
 -1      2590 5.45151E+00
 -1      2591 5.55790E+00
 -1      2592 4.93344E+00
 -1      2593 8.81011E+00
 -1      2594 8.82537E+00
 -1      2595 7.76056E+00
 -1      2596 6.67410E+00
 -1      2597 7.70498E+00
 -1      2598 7.25346E+00
 -1      2599 6.59297E+00
 -1      2600 1.32507E+01
 -1      2601 9.45957E+00
 -1      2602 2.10762E+01
 -1      2603 1.48438E+01
 -1      2604 1.71614E+01
 -1      2605 6.16284E+00
 -1      2606 7.79635E+00
 -1      2607 1.61851E+00
 -1      2608 1.76277E+00
 -1      2609 1.31893E+00
 -1      2610 1.19247E+00
 -1      2611 7.02799E+00
 -1      2612 5.20520E-01
 -1      2613 6.60312E-01
 -1      2614 7.18021E-01
 -1      2615 8.07316E-01
 -1      2616 7.09413E+00
 -1      2617 1.23524E+00
 -1      2618 2.49665E+01
 -1      2619 1.96448E+01
 -1      2620 2.49665E+01
 -1      2621 5.21748E+00
 -1      2622 1.13340E+01
 -1      2623 5.94801E-02
 -1      2624 5.94801E-02
 -1      2625 7.53471E+00
 -1      2626 2.65451E+01
 -1      2627 1.78982E+01
 -1      2628 6.09653E+00
 -1      2629 4.16608E+00
 -1      2630 6.39192E+00
 -1      2631 1.70786E+01
 -1      2632 1.44933E+01
 -1      2633 1.12894E+01
 -1      2634 8.87810E-01
 -1      2635 6.59598E+00
 -1      2636 6.14118E+00
 -1      2637 9.54148E+00
 -1      2638 8.70656E+00
 -1      2639 2.94345E+01
 -1      2640 7.97767E+00
 -1      2641 1.21905E+01
 -1      2642 1.45620E+01
 -1      2643 9.62065E+00
 -1      2644 8.17372E+00
 -1      2645 6.76693E+00
 -1      2646 6.69056E+00
 -1      2647 3.05434E+01
 -1      2648 7.20764E+00
 -1      2649 5.81189E+00
 -1      2650 9.58898E-01
 -1      2651 5.34874E+00
 -1      2652 2.08865E+01
 -1      2653 5.39079E-02
 -1      2654 5.18758E-02
 -1      2655 5.68422E-02
 -1      2656 6.63750E-02
 -1      2657 5.40972E+00
 -1      2658 5.91674E-02
 -1      2659 7.15253E-02
 -1      2660 4.18327E-01
 -1      2661 4.03386E-01
 -1      2662 3.94977E-01
 -1      2663 3.81946E-01
 -1      2664 3.46554E-01
 -1      2665 4.32883E-01
 -1      2666 4.32883E-01
 -1      2667 4.65023E-01
 -1      2668 4.21611E-01
 -1      2669 3.48369E-01
 -1      2670 3.97789E+00
 -1      2671 5.12485E+00
 -1      2672 7.19446E-01
 -1      2673 7.98333E-01
 -1      2674 8.26519E-01
 -1      2675 1.72494E+01
 -1      2676 1.30151E+01
 -1      2677 3.80989E+00
 -1      2678 4.25858E+00
 -1      2679 5.52387E-01
 -1      2680 4.93705E-01
 -1      2681 4.83687E-01
 -1      2682 4.24198E-01
 -1      2683 3.85676E-01
 -1      2684 3.98514E-01
 -1      2685 3.58944E-01
 -1      2686 3.49975E-01
 -1      2687 3.26770E-01
 -1      2688 3.01776E-01
 -1      2689 2.92118E-01
 -1      2690 2.82953E-01
 -1      2691 2.55490E-01
 -1      2692 2.41120E-01
 -1      2693 2.32859E-01
 -1      2694 2.04474E-01
 -1      2695 1.99666E-01
 -1      2696 1.77659E-01
 -1      2697 1.53644E-01
 -1      2698 1.50220E-01
 -1      2699 1.52358E-01
 -1      2700 1.67267E-01
 -1      2701 1.22118E-01
 -1      2702 2.02166E-01
 -1      2703 2.27582E-01
 -1      2704 1.55732E-01
 -1      2705 2.77186E-01
 -1      2706 3.33597E-01
 -1      2707 2.40234E-01
 -1      2708 3.90307E-01
 -1      2709 4.51666E-01
 -1      2710 3.46549E-01
 -1      2711 5.15972E-01
 -1      2712 5.80008E-01
 -1      2713 4.67565E-01
 -1      2714 6.51780E-01
 -1      2715 7.13777E-01
 -1      2716 6.03643E-01
 -1      2717 7.91575E-01
 -1      2718 8.43531E-01
 -1      2719 7.53213E-01
 -1      2720 9.23208E-01
 -1      2721 9.70030E-01
 -1      2722 9.10689E-01
 -1      2723 1.04222E+00
 -1      2724 1.11503E+00
 -1      2725 1.06255E+00
 -1      2726 1.25621E+00
 -1      2727 1.31122E+00
 -1      2728 1.27592E+00
 -1      2729 1.46803E+00
 -1      2730 1.47801E+00
 -1      2731 1.57390E+00
 -1      2732 1.62885E+00
 -1      2733 1.78016E+00
 -1      2734 1.88154E+00
 -1      2735 2.06485E+00
 -1      2736 2.05932E+00
 -1      2737 2.31707E+00
 -1      2738 2.16565E+00
 -1      2739 2.35448E+00
 -1      2740 2.70809E+00
 -1      2741 2.69493E+00
 -1      2742 2.84944E+00
 -1      2743 3.15487E+00
 -1      2744 2.70996E+00
 -1      2745 3.08838E+00
 -1      2746 3.35584E+00
 -1      2747 3.34378E+00
 -1      2748 3.37002E+00
 -1      2749 3.47175E+00
 -1      2750 3.35786E+00
 -1      2751 2.99759E+00
 -1      2752 3.71500E+00
 -1      2753 2.56078E+00
 -1      2754 2.30817E+00
 -1      2755 3.26602E+00
 -1      2756 2.49759E+00
 -1      2757 2.32976E+00
 -1      2758 3.01862E+00
 -1      2759 1.88884E+00
 -1      2760 1.94476E+00
 -1      2761 2.76711E+00
 -1      2762 1.81231E+00
 -1      2763 1.64977E+00
 -1      2764 2.19374E+00
 -1      2765 1.51237E+00
 -1      2766 1.50435E+00
 -1      2767 1.92389E+00
 -1      2768 1.34757E+00
 -1      2769 1.29805E+00
 -1      2770 1.62971E+00
 -1      2771 1.15167E+00
 -1      2772 1.08169E+00
 -1      2773 1.32655E+00
 -1      2774 1.00389E+00
 -1      2775 9.51727E-01
 -1      2776 1.10238E+00
 -1      2777 8.74816E-01
 -1      2778 8.27509E-01
 -1      2779 9.47672E-01
 -1      2780 7.52259E-01
 -1      2781 6.94401E-01
 -1      2782 7.95511E-01
 -1      2783 6.25741E-01
 -1      2784 5.66097E-01
 -1      2785 6.51601E-01
 -1      2786 5.05911E-01
 -1      2787 4.49873E-01
 -1      2788 5.22755E-01
 -1      2789 3.98563E-01
 -1      2790 3.48976E-01
 -1      2791 4.11259E-01
 -1      2792 3.06216E-01
 -1      2793 2.64209E-01
 -1      2794 3.17190E-01
 -1      2795 2.29278E-01
 -1      2796 1.94930E-01
 -1      2797 2.39498E-01
 -1      2798 1.67004E-01
 -1      2799 1.39819E-01
 -1      2800 1.76641E-01
 -1      2801 1.13206E-01
 -1      2802 9.23157E-02
 -1      2803 1.22102E-01
 -1      2804 3.58934E-01
 -1      2805 3.91228E-01
 -1      2806 4.36131E+00
 -1      2807 4.44243E+00
 -1      2808 4.26693E-01
 -1      2809 4.66386E-01
 -1      2810 3.48299E-01
 -1      2811 2.52643E-01
 -1      2812 2.83136E-01
 -1      2813 1.96343E-01
 -1      2814 2.25526E-01
 -1      2815 1.97958E-01
 -1      2816 1.94488E-01
 -1      2817 1.86201E-01
 -1      2818 1.60699E-01
 -1      2819 2.27750E-01
 -1      2820 2.09828E-01
 -1      2821 1.65897E-01
 -1      2822 3.19054E-01
 -1      2823 2.77629E-01
 -1      2824 2.31116E-01
 -1      2825 4.34901E-01
 -1      2826 3.74896E-01
 -1      2827 3.36837E-01
 -1      2828 5.58010E-01
 -1      2829 4.96312E-01
 -1      2830 4.54090E-01
 -1      2831 6.81399E-01
 -1      2832 6.23363E-01
 -1      2833 5.80854E-01
 -1      2834 7.94375E-01
 -1      2835 7.47101E-01
 -1      2836 7.11909E-01
 -1      2837 8.89856E-01
 -1      2838 8.53872E-01
 -1      2839 8.37108E-01
 -1      2840 1.00089E+00
 -1      2841 9.53534E-01
 -1      2842 9.60284E-01
 -1      2843 1.12425E+00
 -1      2844 1.10175E+00
 -1      2845 1.12483E+00
 -1      2846 1.18725E+00
 -1      2847 1.21613E+00
 -1      2848 1.31757E+00
 -1      2849 1.34301E+00
 -1      2850 1.24745E+00
 -1      2851 1.46965E+00
 -1      2852 1.62117E+00
 -1      2853 1.60613E+00
 -1      2854 1.79297E+00
 -1      2855 2.10858E+00
 -1      2856 1.92942E+00
 -1      2857 2.36435E+00
 -1      2858 2.28622E+00
 -1      2859 2.11809E+00
 -1      2860 2.68210E+00
 -1      2861 3.09010E+00
 -1      2862 2.81742E+00
 -1      2863 3.22280E+00
 -1      2864 3.23159E+00
 -1      2865 3.19604E+00
 -1      2866 3.85994E+00
 -1      2867 3.32698E+00
 -1      2868 3.43913E+00
 -1      2869 4.17342E+00
 -1      2870 2.27539E+00
 -1      2871 2.56200E+00
 -1      2872 3.61598E+00
 -1      2873 2.15321E+00
 -1      2874 2.25605E+00
 -1      2875 2.83166E+00
 -1      2876 1.67249E+00
 -1      2877 1.84584E+00
 -1      2878 2.50496E+00
 -1      2879 1.43902E+00
 -1      2880 1.47753E+00
 -1      2881 2.00264E+00
 -1      2882 1.25503E+00
 -1      2883 1.28480E+00
 -1      2884 1.65346E+00
 -1      2885 1.18193E+00
 -1      2886 1.17814E+00
 -1      2887 1.42234E+00
 -1      2888 1.04616E+00
 -1      2889 1.08201E+00
 -1      2890 1.24553E+00
 -1      2891 9.12379E-01
 -1      2892 9.53925E-01
 -1      2893 1.05338E+00
 -1      2894 8.21874E-01
 -1      2895 8.62077E-01
 -1      2896 9.10838E-01
 -1      2897 7.11724E-01
 -1      2898 7.61392E-01
 -1      2899 8.00054E-01
 -1      2900 5.92761E-01
 -1      2901 6.49364E-01
 -1      2902 6.77212E-01
 -1      2903 4.77808E-01
 -1      2904 5.33833E-01
 -1      2905 5.55923E-01
 -1      2906 3.74025E-01
 -1      2907 4.25113E-01
 -1      2908 4.44301E-01
 -1      2909 2.84670E-01
 -1      2910 3.28737E-01
 -1      2911 3.46318E-01
 -1      2912 2.10542E-01
 -1      2913 2.46971E-01
 -1      2914 2.63330E-01
 -1      2915 1.50990E-01
 -1      2916 1.79975E-01
 -1      2917 1.95063E-01
 -1      2918 1.03634E-01
 -1      2919 1.26412E-01
 -1      2920 1.39919E-01
 -1      2921 7.18921E-02
 -1      2922 8.54980E-02
 -1      2923 9.72047E-02
 -1      2924 6.63439E-02
 -1      2925 8.81017E-02
 -1      2926 8.81017E-02
 -1      2927 7.44596E-02
 -1      2928 5.68422E-02
 -1      2929 7.76326E-02
 -1      2930 8.44628E-02
 -1      2931 7.89003E-02
 -1      2932 8.80389E-02
 -1      2933 8.80998E-02
 -1      2934 1.01402E-01
 -1      2935 8.81017E-02
 -1      2936 8.74560E-02
 -1      2937 9.84104E-02
 -1      2938 1.01404E-01
 -1      2939 8.56956E+00
 -1      2940 1.14003E+01
 -1      2941 8.74972E-02
 -1      2942 8.80389E-02
 -1      2943 1.01400E-01
 -1      2944 7.90556E-02
 -1      2945 8.44999E-02
 -1      2946 9.84023E-02
 -1      2947 6.61525E-02
 -1      2948 6.76174E-02
 -1      2949 8.39667E-02
 -1      2950 1.28979E+01
 -1      2951 1.66125E+01
 -1      2952 5.04620E-01
 -1      2953 5.86275E-01
 -1      2954 4.21997E-01
 -1      2955 2.25144E+01
 -1      2956 2.27953E+01
 -1      2957 7.01250E-01
 -1      2958 6.63862E-01
 -1      2959 6.69969E+00
 -1      2960 6.75914E+00
 -1      2961 2.64097E+01
 -1      2962 1.86460E+01
 -1      2963 8.40667E+00
 -1      2964 6.76375E+00
 -1      2965 3.07331E-01
 -1      2966 3.39250E-01
 -1      2967 2.93150E-01
 -1      2968 2.49270E-01
 -1      2969 5.95825E-01
 -1      2970 5.52233E-01
 -1      2971 3.95540E-01
 -1      2972 4.63423E-01
 -1      2973 6.14788E-01
 -1      2974 7.09786E-01
 -1      2975 5.26918E-01
 -1      2976 4.88745E-01
 -1      2977 5.61797E+00
 -1      2978 4.57487E+00
 -1      2979 3.61598E+00
 -1      2980 4.83352E+00
 -1      2981 5.93865E+00
 -1      2982 5.57834E+00
 -1      2983 7.00630E+00
 -1      2984 7.05376E+00
 -1      2985 4.32883E-01
 -1      2986 4.20666E-01
 -1      2987 3.57302E-01
 -1      2988 3.59641E-01
 -1      2989 7.18021E-01
 -1      2990 4.18880E-01
 -1      2991 4.33124E-01
 -1      2992 5.00341E+00
 -1      2993 3.93693E+00
 -1      2994 6.46861E+00
 -1      2995 6.11596E+00
 -1      2996 1.64529E+01
 -1      2997 1.29976E+01
 -1      2998 1.85021E+01
 -1      2999 2.51569E+01
 -1      3000 1.56063E+01
 -1      3001 1.86084E+01
 -1      3002 1.32219E+01
 -1      3003 5.97765E-02
 -1      3004 4.28570E+00
 -1      3005 5.69809E+00
 -1      3006 5.87413E+00
 -1      3007 6.40643E+00
 -1      3008 5.31475E+00
 -1      3009 1.88173E+01
 -1      3010 2.37495E+01
 -1      3011 7.79190E+00
 -1      3012 5.58579E+00
 -1      3013 1.04884E+01
 -1      3014 8.89528E+00
 -1      3015 4.42759E-01
 -1      3016 4.53700E-01
 -1      3017 3.66304E-01
 -1      3018 3.37903E-01
 -1      3019 3.81704E-01
 -1      3020 3.94671E-01
 -1      3021 4.50328E+00
 -1      3022 3.71304E+00
 -1      3023 2.26256E+01
 -1      3024 1.55529E+01
 -1      3025 1.33816E+01
 -1      3026 5.64763E-01
 -1      3027 5.31461E-01
 -1      3028 1.54985E+01
 -1      3029 3.26963E+00
 -1      3030 4.67721E+00
 -1      3031 4.58938E+00
 -1      3032 8.39713E-02
 -1      3033 6.74544E-02
 -1      3034 6.15278E-02
 -1      3035 3.78510E+00
 -1      3036 4.36838E-01
 -1      3037 1.05765E+01
 -1      3038 6.94636E+00
 -1      3039 5.49344E+00
 -1      3040 5.59807E-02
 -1      3041 5.75252E-02
 -1      3042 7.02499E-02
 -1      3043 6.69783E-02
 -1      3044 1.35881E+01
 -1      3045 1.13100E+01
 -1      3046 1.01969E+01
 -1      3047 1.38170E+01
 -1      3048 1.01146E+01
 -1      3049 5.97765E-02
 -1      3050 8.40674E+00
 -1      3051 4.87894E+00
 -1      3052 6.00223E+00
 -1      3053 4.42140E+00
 -1      3054 4.79641E+00
 -1      3055 8.87997E+00
 -1      3056 8.69273E+00
 -1      3057 6.10994E+00
 -1      3058 2.50531E+01
 -1      3059 1.42646E+01
 -1      3060 1.30118E+01
 -1      3061 1.47866E+01
 -1      3062 4.93723E+00
 -1      3063 4.93072E+00
 -1      3064 1.24853E+01
 -1      3065 1.55102E+01
 -1      3066 1.02922E+01
 -1      3067 1.04278E+01
 -1      3068 5.43242E+00
 -1      3069 4.61850E+00
 -1      3070 4.02881E-01
 -1      3071 4.17586E-01
 -1      3072 3.55375E-01
 -1      3073 3.45870E-01
 -1      3074 6.59105E-02
 -1      3075 6.59105E-02
 -1      3076 7.22864E-02
 -1      3077 8.37665E-02
 -1      3078 2.88614E-01
 -1      3079 2.99886E-01
 -1      3080 4.53700E-01
 -1      3081 3.06883E-01
 -1      3082 2.81199E-01
 -1      3083 2.71391E-01
 -1      3084 2.39218E-01
 -1      3085 2.28300E-01
 -1      3086 2.19616E-01
 -1      3087 2.00792E-01
 -1      3088 1.98890E-01
 -1      3089 1.80421E-01
 -1      3090 1.57790E-01
 -1      3091 1.58917E-01
 -1      3092 1.37344E-01
 -1      3093 1.10529E-01
 -1      3094 1.18099E-01
 -1      3095 1.13459E-01
 -1      3096 1.12173E-01
 -1      3097 1.00583E-01
 -1      3098 1.35200E-01
 -1      3099 1.70100E-01
 -1      3100 1.26541E-01
 -1      3101 2.10324E-01
 -1      3102 2.59927E-01
 -1      3103 1.89792E-01
 -1      3104 3.11568E-01
 -1      3105 3.68279E-01
 -1      3106 2.81658E-01
 -1      3107 4.26204E-01
 -1      3108 4.90509E-01
 -1      3109 3.91224E-01
 -1      3110 5.54927E-01
 -1      3111 6.26700E-01
 -1      3112 5.13566E-01
 -1      3113 7.08597E-01
 -1      3114 7.86395E-01
 -1      3115 6.59881E-01
 -1      3116 8.93133E-01
 -1      3117 9.72810E-01
 -1      3118 8.48516E-01
 -1      3119 1.11620E+00
 -1      3120 1.18839E+00
 -1      3121 1.09864E+00
 -1      3122 1.35682E+00
 -1      3123 1.49800E+00
 -1      3124 1.41047E+00
 -1      3125 1.66456E+00
 -1      3126 1.82136E+00
 -1      3127 1.74546E+00
 -1      3128 2.13660E+00
 -1      3129 2.28744E+00
 -1      3130 2.22726E+00
 -1      3131 2.76708E+00
 -1      3132 3.05177E+00
 -1      3133 3.02215E+00
 -1      3134 4.01056E+00
 -1      3135 4.11689E+00
 -1      3136 4.46057E+00
 -1      3137 3.93238E+00
 -1      3138 4.27283E+00
 -1      3139 3.76351E+00
 -1      3140 3.62403E+00
 -1      3141 4.71271E+00
 -1      3142 4.70055E+00
 -1      3143 3.93951E+00
 -1      3144 3.50270E+00
 -1      3145 3.11161E+00
 -1      3146 3.30103E+00
 -1      3147 3.18610E+00
 -1      3148 2.74517E+00
 -1      3149 3.14107E+00
 -1      3150 3.00863E+00
 -1      3151 3.56006E+00
 -1      3152 2.38784E+00
 -1      3153 2.25044E+00
 -1      3154 3.33518E+00
 -1      3155 1.88552E+00
 -1      3156 1.72874E+00
 -1      3157 2.34947E+00
 -1      3158 1.55464E+00
 -1      3159 1.40826E+00
 -1      3160 1.81044E+00
 -1      3161 1.23955E+00
 -1      3162 1.16176E+00
 -1      3163 1.46764E+00
 -1      3164 1.01642E+00
 -1      3165 9.39510E-01
 -1      3166 1.15360E+00
 -1      3167 8.31686E-01
 -1      3168 7.56436E-01
 -1      3169 9.00435E-01
 -1      3170 6.71711E-01
 -1      3171 6.03051E-01
 -1      3172 7.07886E-01
 -1      3173 5.42589E-01
 -1      3174 4.82402E-01
 -1      3175 5.62698E-01
 -1      3176 4.29019E-01
 -1      3177 3.77709E-01
 -1      3178 4.48852E-01
 -1      3179 3.31447E-01
 -1      3180 2.88687E-01
 -1      3181 3.49207E-01
 -1      3182 2.49976E-01
 -1      3183 2.15045E-01
 -1      3184 2.64233E-01
 -1      3185 1.83384E-01
 -1      3186 1.55458E-01
 -1      3187 1.93862E-01
 -1      3188 1.30603E-01
 -1      3189 1.03990E-01
 -1      3190 9.22680E-02
 -1      3191 1.37346E-01
 -1      3192 1.15400E-01
 -1      3193 1.25542E-01
 -1      3194 1.45770E-01
 -1      3195 1.72888E-01
 -1      3196 1.00472E-01
 -1      3197 2.39007E-01
 -1      3198 1.89128E-01
 -1      3199 3.43275E-01
 -1      3200 2.87433E-01
 -1      3201 2.45445E-01
 -1      3202 4.61985E-01
 -1      3203 4.00574E-01
 -1      3204 3.51170E-01
 -1      3205 5.96591E-01
 -1      3206 5.31237E-01
 -1      3207 4.77721E-01
 -1      3208 7.41461E-01
 -1      3209 6.75759E-01
 -1      3210 6.26142E-01
 -1      3211 8.90449E-01
 -1      3212 8.30952E-01
 -1      3213 7.94801E-01
 -1      3214 1.05870E+00
 -1      3215 9.95026E-01
 -1      3216 9.88869E-01
 -1      3217 1.26808E+00
 -1      3218 1.16721E+00
 -1      3219 1.20195E+00
 -1      3220 1.52852E+00
 -1      3221 1.43664E+00
 -1      3222 1.47902E+00
 -1      3223 1.82431E+00
 -1      3224 1.76411E+00
 -1      3225 1.88318E+00
 -1      3226 2.28588E+00
 -1      3227 2.02275E+00
 -1      3228 2.31722E+00
 -1      3229 3.30318E+00
 -1      3230 2.99494E+00
 -1      3231 3.22472E+00
 -1      3232 3.18184E+00
 -1      3233 3.17233E+00
 -1      3234 3.75400E+00
 -1      3235 3.22280E+00
 -1      3236 4.60922E+00
 -1      3237 4.50328E+00
 -1      3238 4.87894E+00
 -1      3239 4.67141E+00
 -1      3240 3.61598E+00
 -1      3241 4.38096E+00
 -1      3242 2.83166E+00
 -1      3243 2.85100E+00
 -1      3244 2.94292E+00
 -1      3245 3.25029E+00
 -1      3246 1.88580E+00
 -1      3247 2.04002E+00
 -1      3248 1.62720E+00
 -1      3249 1.70410E+00
 -1      3250 2.09066E+00
 -1      3251 1.30449E+00
 -1      3252 1.40441E+00
 -1      3253 1.68616E+00
 -1      3254 1.09358E+00
 -1      3255 1.18581E+00
 -1      3256 1.34469E+00
 -1      3257 9.36346E-01
 -1      3258 9.86648E-01
 -1      3259 1.11909E+00
 -1      3260 7.80112E-01
 -1      3261 8.40593E-01
 -1      3262 9.16403E-01
 -1      3263 6.37313E-01
 -1      3264 6.99674E-01
 -1      3265 7.40213E-01
 -1      3266 5.08333E-01
 -1      3267 5.67261E-01
 -1      3268 5.89723E-01
 -1      3269 3.96718E-01
 -1      3270 4.49413E-01
 -1      3271 4.60751E-01
 -1      3272 3.04455E-01
 -1      3273 3.49743E-01
 -1      3274 3.54855E-01
 -1      3275 2.29070E-01
 -1      3276 2.66769E-01
 -1      3277 2.70195E-01
 -1      3278 1.68341E-01
 -1      3279 1.98908E-01
 -1      3280 2.02347E-01
 -1      3281 1.19502E-01
 -1      3282 1.44079E-01
 -1      3283 1.47924E-01
 -1      3284 8.39717E-02
 -1      3285 1.02108E-01
 -1      3286 1.06269E-01
 -1      3287 7.51530E-02
 -1      3288 3.19128E-01
 -1      3289 3.10720E-01
 -1      3290 1.14880E-01
 -1      3291 1.14882E-01
 -1      3292 8.53133E-02
 -1      3293 9.67516E-02
 -1      3294 1.17119E-01
 -1      3295 1.17119E-01
 -1      3296 1.30599E-01
 -1      3297 5.24451E+00
 -1      3298 6.30538E+00
 -1      3299 3.37620E-01
 -1      3300 3.75854E-01
 -1      3301 4.25895E+00
 -1      3302 5.17593E+00
 -1      3303 1.14121E-01
 -1      3304 1.17119E-01
 -1      3305 1.32838E-01
 -1      3306 1.15468E-01
 -1      3307 1.36934E+01
 -1      3308 1.12981E+01
 -1      3309 1.49491E-01
 -1      3310 1.34151E-01
 -1      3311 9.89942E-02
 -1      3312 1.57382E-01
 -1      3313 2.86724E-01
 -1      3314 3.22189E-01
 -1      3315 2.76045E-01
 -1      3316 7.35508E+00
 -1      3317 6.14110E+00
 -1      3318 1.02922E+01
 -1      3319 9.48509E+00
 -1      3320 7.21945E+00
 -1      3321 4.06591E-01
 -1      3322 3.06851E-01
 -1      3323 2.58367E-01
 -1      3324 3.96931E-01
 -1      3325 3.10044E-01
 -1      3326 3.00026E-01
 -1      3327 2.31251E-01
 -1      3328 5.55519E+00
 -1      3329 7.11845E+00
 -1      3330 6.44804E+00
 -1      3331 5.34466E+00
 -1      3332 4.00355E+00
 -1      3333 5.56327E+00
 -1      3334 3.80292E+00
 -1      3335 1.28830E+01
 -1      3336 1.16478E+01
 -1      3337 4.52551E+00
 -1      3338 1.10455E+01
 -1      3339 1.09392E+01
 -1      3340 8.05761E+00
 -1      3341 9.55519E+00
 -1      3342 1.01670E+01
 -1      3343 1.23717E+01
 -1      3344 9.96830E+00
 -1      3345 7.44159E+00
 -1      3346 5.23485E+00
 -1      3347 5.67794E+00
 -1      3348 4.41122E+00
 -1      3349 3.06377E-01
 -1      3350 3.06135E-01
 -1      3351 2.78952E-01
 -1      3352 3.85662E-01
 -1      3353 1.16478E+01
 -1      3354 1.14781E+01
 -1      3355 9.74420E+00
 -1      3356 6.55904E+00
 -1      3357 3.17729E-01
 -1      3358 3.27364E-01
 -1      3359 9.81769E-02
 -1      3360 8.67310E-02
 -1      3361 3.28664E-01
 -1      3362 3.28818E-01
 -1      3363 2.43168E-01
 -1      3364 4.15321E+00
 -1      3365 4.51161E+00
 -1      3366 1.08354E+01
 -1      3367 1.13525E+01
 -1      3368 1.42728E-01
 -1      3369 1.94916E-01
 -1      3370 2.19111E-01
 -1      3371 8.10997E+00
 -1      3372 2.80911E+00
 -1      3373 3.00407E+00
 -1      3374 3.19128E-01
 -1      3375 2.83294E-01
 -1      3376 3.21467E-01
 -1      3377 1.16828E-01
 -1      3378 1.13835E-01
 -1      3379 1.16594E-01
 -1      3380 8.44000E+00
 -1      3381 7.53481E+00
 -1      3382 6.03062E+00
 -1      3383 2.58322E-01
 -1      3384 3.18077E-01
 -1      3385 3.18077E-01
 -1      3386 7.93070E+00
 -1      3387 9.73578E+00
 -1      3388 6.60091E+00
 -1      3389 1.16828E-01
 -1      3390 1.16828E-01
 -1      3391 1.32252E-01
 -1      3392 1.30306E-01
 -1      3393 3.74940E+00
 -1      3394 3.20057E-01
 -1      3395 2.81117E-01
 -1      3396 3.18763E-01
 -1      3397 3.04145E+00
 -1      3398 1.09289E+01
 -1      3399 7.79306E+00
 -1      3400 9.57236E+00
 -1      3401 8.73364E-02
 -1      3402 8.75784E-02
 -1      3403 1.00363E-01
 -1      3404 1.07560E-01
 -1      3405 9.23297E+00
 -1      3406 2.42514E-01
 -1      3407 2.62198E-01
 -1      3408 2.36088E-01
 -1      3409 1.88159E-01
 -1      3410 9.34946E+00
 -1      3411 7.97590E+00
 -1      3412 9.99413E+00
 -1      3413 7.71144E+00
 -1      3414 5.83988E+00
 -1      3415 4.65406E+00
 -1      3416 3.63317E-01
 -1      3417 3.91830E-01
 -1      3418 2.71503E-01
 -1      3419 2.78940E-01
 -1      3420 1.82853E-01
 -1      3421 1.63251E-01
 -1      3422 1.50681E-01
 -1      3423 1.30309E-01
 -1      3424 1.34643E-01
 -1      3425 1.28295E-01
 -1      3426 1.07849E-01
 -1      3427 1.20059E-01
 -1      3428 1.16466E-01
 -1      3429 1.19396E-01
 -1      3430 1.26662E-01
 -1      3431 1.28273E-01
 -1      3432 1.51301E-01
 -1      3433 1.44157E-01
 -1      3434 1.86638E-01
 -1      3435 2.26862E-01
 -1      3436 1.88371E-01
 -1      3437 2.76209E-01
 -1      3438 3.27851E-01
 -1      3439 2.73055E-01
 -1      3440 3.86472E-01
 -1      3441 4.44396E-01
 -1      3442 3.81023E-01
 -1      3443 5.13566E-01
 -1      3444 5.77984E-01
 -1      3445 5.08814E-01
 -1      3446 6.58691E-01
 -1      3447 7.40588E-01
 -1      3448 6.58691E-01
 -1      3449 8.32460E-01
 -1      3450 9.39198E-01
 -1      3451 8.31270E-01
 -1      3452 1.07621E+00
 -1      3453 1.21960E+00
 -1      3454 1.06015E+00
 -1      3455 1.42059E+00
 -1      3456 1.58903E+00
 -1      3457 1.39816E+00
 -1      3458 1.95061E+00
 -1      3459 2.11717E+00
 -1      3460 1.96074E+00
 -1      3461 2.68976E+00
 -1      3462 3.00500E+00
 -1      3463 2.89491E+00
 -1      3464 3.96879E+00
 -1      3465 4.44843E+00
 -1      3466 4.43129E+00
 -1      3467 7.21232E+00
 -1      3468 7.72355E+00
 -1      3469 2.24030E-01
 -1      3470 2.39461E-01
 -1      3471 4.05355E+00
 -1      3472 3.43277E+00
 -1      3473 3.85405E+00
 -1      3474 3.48913E+00
 -1      3475 4.57243E+00
 -1      3476 2.29172E+00
 -1      3477 2.11761E+00
 -1      3478 3.79630E+00
 -1      3479 1.66538E+00
 -1      3480 1.49668E+00
 -1      3481 2.14666E+00
 -1      3482 1.27332E+00
 -1      3483 1.12798E+00
 -1      3484 1.47106E+00
 -1      3485 9.85765E-01
 -1      3486 8.77940E-01
 -1      3487 1.10548E+00
 -1      3488 7.87296E-01
 -1      3489 7.02570E-01
 -1      3490 8.72625E-01
 -1      3491 6.23160E-01
 -1      3492 5.62698E-01
 -1      3493 7.02570E-01
 -1      3494 4.95578E-01
 -1      3495 4.42195E-01
 -1      3496 5.56040E-01
 -1      3497 3.86486E-01
 -1      3498 3.40223E-01
 -1      3499 4.33212E-01
 -1      3500 2.94480E-01
 -1      3501 2.55769E-01
 -1      3502 3.31759E-01
 -1      3503 2.18541E-01
 -1      3504 1.86880E-01
 -1      3505 2.48787E-01
 -1      3506 9.86099E-02
 -1      3507 1.18838E-01
 -1      3508 1.44916E+00
 -1      3509 1.56783E+00
 -1      3510 3.99804E-01
 -1      3511 3.42505E-01
 -1      3512 2.87969E-01
 -1      3513 2.39543E-01
 -1      3514 3.36603E-01
 -1      3515 6.79365E-01
 -1      3516 6.00197E-01
 -1      3517 8.54763E-01
 -1      3518 7.65271E-01
 -1      3519 7.39327E-01
 -1      3520 1.07269E+00
 -1      3521 9.68117E-01
 -1      3522 9.38587E-01
 -1      3523 1.36485E+00
 -1      3524 1.25634E+00
 -1      3525 1.23559E+00
 -1      3526 1.77974E+00
 -1      3527 1.61118E+00
 -1      3528 1.66557E+00
 -1      3529 2.28940E+00
 -1      3530 2.05381E+00
 -1      3531 2.18597E+00
 -1      3532 3.23151E+00
 -1      3533 3.03306E+00
 -1      3534 3.20369E+00
 -1      3535 3.80255E+00
 -1      3536 2.70366E-01
 -1      3537 3.18941E-01
 -1      3538 2.58992E+00
 -1      3539 2.77163E+00
 -1      3540 1.12692E+00
 -1      3541 1.23385E+00
 -1      3542 1.45699E+00
 -1      3543 8.88062E-01
 -1      3544 9.83815E-01
 -1      3545 1.09858E+00
 -1      3546 7.06249E-01
 -1      3547 7.86686E-01
 -1      3548 8.54098E-01
 -1      3549 5.67936E-01
 -1      3550 6.37989E-01
 -1      3551 6.84462E-01
 -1      3552 4.46869E-01
 -1      3553 5.05789E-01
 -1      3554 5.54054E-01
 -1      3555 3.45915E-01
 -1      3556 3.92890E-01
 -1      3557 4.37928E-01
 -1      3558 2.62765E-01
 -1      3559 3.00451E-01
 -1      3560 3.38485E-01
 -1      3561 1.95011E-01
 -1      3562 2.25173E-01
 -1      3563 2.55429E-01
 -1      3564 1.54165E-01
 -1      3565 1.78426E-01
 -1      3566 2.01252E-01
 -1      3567 1.79832E+00
 -1      3568 2.02112E+00
 -1      3569 2.70208E+00
 -1      3570 4.71521E+00
 -1      3571 8.90916E-02
 -1      3572 8.35445E-02
 -1      3573 9.72663E-02
 -1      3574 1.03297E-01
 -1      3575 1.53076E-01
 -1      3576 1.50837E-01
 -1      3577 6.43110E+00
 -1      3578 7.04287E+00
 -1      3579 5.85135E+00
 -1      3580 1.04265E+01
 -1      3581 8.56704E+00
 -1      3582 8.69264E+00
 -1      3583 5.31304E-01
 -1      3584 4.62052E-01
 -1      3585 4.53387E-01
 -1      3586 5.84528E-01
 -1      3587 4.00525E+00
 -1      3588 4.40115E+00
 -1      3589 1.76804E-01
 -1      3590 1.83660E-01
 -1      3591 6.64841E+00
 -1      3592 4.51840E+00
 -1      3593 3.10552E-01
 -1      3594 3.18763E-01
 -1      3595 2.83444E-01
 -1      3596 4.50357E+00
 -1      3597 7.97358E+00
 -1      3598 1.00462E+01
 -1      3599 7.94925E+00
 -1      3600 7.94925E+00
 -1      3601 5.44072E+00
 -1      3602 6.37989E+00
 -1      3603 5.39470E+00
 -1      3604 1.95378E-01
 -1      3605 1.85570E-01
 -1      3606 1.49931E-01
 -1      3607 3.76697E+00
 -1      3608 4.53606E+00
 -1      3609 4.89257E+00
 -1      3610 1.40931E-01
 -1      3611 7.50092E+00
 -1      3612 7.50092E+00
 -1      3613 5.48027E+00
 -1      3614 5.58648E+00
 -1      3615 7.34341E+00
 -1      3616 6.02757E+00
 -1      3617 1.70079E-01
 -1      3618 1.47603E-01
 -1      3619 1.49548E-01
 -1      3620 2.02922E-01
 -1      3621 1.84148E-01
 -1      3622 1.36557E-01
 -1      3623 2.11346E-01
 -1      3624 5.53345E+00
 -1      3625 2.79027E-01
 -1      3626 1.78681E-01
 -1      3627 2.30696E-01
 -1      3628 1.15245E-01
 -1      3629 1.17107E-01
 -1      3630 1.39135E-01
 -1      3631 1.05135E-01
 -1      3632 1.23501E-01
 -1      3633 1.23885E-01
 -1      3634 1.55188E-01
 -1      3635 1.30333E-01
 -1      3636 1.25402E-01
 -1      3637 1.79867E-01
 -1      3638 1.90279E+00
 -1      3639 7.18435E+00
 -1      3640 1.00462E+01
 -1      3641 6.71050E+00
 -1      3642 2.35083E-01
 -1      3643 1.92560E-01
 -1      3644 1.52922E-01
 -1      3645 4.26623E+00
 -1      3646 2.79904E-01
 -1      3647 2.45625E-01
 -1      3648 2.45625E-01
 -1      3649 1.14660E-01
 -1      3650 1.57241E-01
 -1      3651 1.77479E-01
 -1      3652 1.57241E-01
 -1      3653 2.01228E-01
 -1      3654 2.19419E-01
 -1      3655 7.34928E+00
 -1      3656 5.78697E+00
 -1      3657 6.42331E+00
 -1      3658 1.42802E-01
 -1      3659 1.45162E-01
 -1      3660 5.31278E+00
 -1      3661 1.58459E-01
 -1      3662 1.42802E-01
 -1      3663 1.84667E-01
 -1      3664 2.35023E-01
 -1      3665 2.32696E-01
 -1      3666 1.65251E-01
 -1      3667 5.83921E+00
 -1      3668 2.18159E-01
 -1      3669 5.49229E+00
 -1      3670 6.67206E+00
 -1      3671 3.97101E+00
 -1      3672 3.22735E+00
 -1      3673 5.27185E+00
 -1      3674 2.07957E-01
 -1      3675 2.45625E-01
 -1      3676 2.41283E-01
 -1      3677 7.50910E+00
 -1      3678 6.10889E+00
 -1      3679 5.95270E+00
 -1      3680 2.18049E-01
 -1      3681 1.81464E-01
 -1      3682 1.93523E-01
 -1      3683 5.25977E+00
 -1      3684 6.84085E+00
 -1      3685 6.05161E+00
 -1      3686 5.78947E+00
 -1      3687 1.23137E-01
 -1      3688 1.64909E-01
 -1      3689 1.39871E-01
 -1      3690 1.57241E-01
 -1      3691 1.96602E-01
 -1      3692 1.66120E-01
 -1      3693 2.14363E-01
 -1      3694 1.22183E-01
 -1      3695 1.20168E-01
 -1      3696 1.33052E-01
 -1      3697 1.41670E-01
 -1      3698 1.35176E-01
 -1      3699 1.53806E-01
 -1      3700 1.62683E-01
 -1      3701 1.60196E-01
 -1      3702 1.77627E-01
 -1      3703 2.12964E-01
 -1      3704 1.87276E-01
 -1      3705 2.53750E-01
 -1      3706 3.03097E-01
 -1      3707 2.43006E-01
 -1      3708 3.55974E-01
 -1      3709 4.14595E-01
 -1      3710 3.36669E-01
 -1      3711 4.80708E-01
 -1      3712 5.49878E-01
 -1      3713 4.55658E-01
 -1      3714 6.33910E-01
 -1      3715 7.14617E-01
 -1      3716 6.05804E-01
 -1      3717 8.23726E-01
 -1      3718 9.15598E-01
 -1      3719 7.98945E-01
 -1      3720 1.06015E+00
 -1      3721 1.19717E+00
 -1      3722 1.05261E+00
 -1      3723 1.38649E+00
 -1      3724 1.58748E+00
 -1      3725 1.38649E+00
 -1      3726 1.88284E+00
 -1      3727 2.24443E+00
 -1      3728 1.87117E+00
 -1      3729 2.95436E+00
 -1      3730 3.52694E+00
 -1      3731 2.87646E+00
 -1      3732 1.39172E-01
 -1      3733 1.50890E-01
 -1      3734 1.43269E-01
 -1      3735 1.34504E-01
 -1      3736 2.06138E+00
 -1      3737 2.29187E+00
 -1      3738 4.30265E+00
 -1      3739 3.10523E+00
 -1      3740 2.76518E+00
 -1      3741 2.31295E+00
 -1      3742 3.27152E+00
 -1      3743 1.66843E+00
 -1      3744 1.44507E+00
 -1      3745 2.28696E+00
 -1      3746 1.24770E+00
 -1      3747 1.10548E+00
 -1      3748 1.44507E+00
 -1      3749 9.57948E-01
 -1      3750 8.67303E-01
 -1      3751 1.10016E+00
 -1      3752 7.55749E-01
 -1      3753 6.76339E-01
 -1      3754 8.41072E-01
 -1      3755 5.91642E-01
 -1      3756 5.24522E-01
 -1      3757 6.44820E-01
 -1      3758 4.58901E-01
 -1      3759 4.03192E-01
 -1      3760 4.94502E-01
 -1      3761 3.51755E-01
 -1      3762 3.06012E-01
 -1      3763 3.77445E-01
 -1      3764 2.65275E-01
 -1      3765 2.28048E-01
 -1      3766 2.85272E-01
 -1      3767 2.19464E-01
 -1      3768 1.27672E-01
 -1      3769 1.24955E-01
 -1      3770 1.25913E-01
 -1      3771 1.05194E+00
 -1      3772 9.38587E-01
 -1      3773 8.25233E-01
 -1      3774 7.39327E-01
 -1      3775 9.38587E-01
 -1      3776 1.88627E+00
 -1      3777 1.63994E+00
 -1      3778 2.64120E+00
 -1      3779 2.36713E+00
 -1      3780 2.34150E+00
 -1      3781 4.54925E+00
 -1      3782 4.71871E+00
 -1      3783 8.54098E-01
 -1      3784 9.55473E-01
 -1      3785 1.41810E+00
 -1      3786 1.63340E+00
 -1      3787 2.02249E+00
 -1      3788 6.84462E-01
 -1      3789 7.52722E-01
 -1      3790 8.54098E-01
 -1      3791 5.40094E-01
 -1      3792 6.02242E-01
 -1      3793 6.70502E-01
 -1      3794 4.19849E-01
 -1      3795 4.73828E-01
 -1      3796 5.22016E-01
 -1      3797 3.20942E-01
 -1      3798 3.66406E-01
 -1      3799 4.02306E-01
 -1      3800 2.40605E-01
 -1      3801 2.78197E-01
 -1      3802 3.06118E-01
 -1      3803 1.92856E-01
 -1      3804 2.09441E-01
 -1      3805 2.32209E-01
 -1      3806 1.92856E-01
 -1      3807 4.40488E+00
 -1      3808 4.45609E+00
 -1      3809 3.64135E+00
 -1      3810 3.40954E+00
 -1      3811 1.21205E-01
 -1      3812 1.13861E-01
 -1      3813 1.23820E-01
 -1      3814 1.42555E-01
 -1      3815 2.40530E-01
 -1      3816 2.44947E-01
 -1      3817 2.07203E-01
 -1      3818 1.38196E+00
 -1      3819 1.19831E+00
 -1      3820 1.60265E+00
 -1      3821 7.33637E+00
 -1      3822 6.28480E+00
 -1      3823 3.76932E-01
 -1      3824 3.22396E-01
 -1      3825 1.54592E-01
 -1      3826 1.77995E-01
 -1      3827 1.28971E-01
 -1      3828 1.42997E-01
 -1      3829 1.39201E-01
 -1      3830 1.07585E-01
 -1      3831 1.65452E-01
 -1      3832 2.22546E-01
 -1      3833 2.25937E-01
 -1      3834 1.42329E-01
 -1      3835 1.08046E+00
 -1      3836 1.22357E+00
 -1      3837 1.39998E+00
 -1      3838 2.44947E-01
 -1      3839 2.44947E-01
 -1      3840 1.96525E-01
 -1      3841 2.06449E-01
 -1      3842 1.26017E-01
 -1      3843 1.13446E-01
 -1      3844 1.13556E-01
 -1      3845 1.03757E-01
 -1      3846 5.68105E+00
 -1      3847 1.56114E-01
 -1      3848 1.56114E-01
 -1      3849 1.73411E-01
 -1      3850 4.73070E+00
 -1      3851 4.50807E+00
 -1      3852 3.74651E+00
 -1      3853 1.91928E-01
 -1      3854 1.88693E-01
 -1      3855 5.58648E+00
 -1      3856 4.49074E+00
 -1      3857 4.43129E+00
 -1      3858 4.36571E+00
 -1      3859 5.72198E+00
 -1      3860 4.50422E+00
 -1      3861 5.39508E+00
 -1      3862 1.26143E-01
 -1      3863 1.24412E-01
 -1      3864 1.88268E-01
 -1      3865 2.99932E+00
 -1      3866 2.84073E+00
 -1      3867 1.59063E-01
 -1      3868 2.13090E-01
 -1      3869 5.54098E+00
 -1      3870 5.54098E+00
 -1      3871 5.01561E-01
 -1      3872 4.39313E-01
 -1      3873 4.25106E-01
 -1      3874 1.40620E-01
 -1      3875 1.34095E-01
 -1      3876 1.43262E-01
 -1      3877 2.71338E-01
 -1      3878 2.24355E-01
 -1      3879 3.11667E-01
 -1      3880 1.19831E+00
 -1      3881 1.73333E-01
 -1      3882 1.73333E-01
 -1      3883 1.08046E+00
 -1      3884 1.81644E-01
 -1      3885 6.42654E+00
 -1      3886 1.82322E-01
 -1      3887 5.09309E+00
 -1      3888 6.46546E-01
 -1      3889 5.77653E-01
 -1      3890 5.63579E-01
 -1      3891 3.40851E+00
 -1      3892 1.59956E-01
 -1      3893 1.54911E-01
 -1      3894 1.10734E-01
 -1      3895 1.48930E-01
 -1      3896 4.49074E+00
 -1      3897 5.12322E+00
 -1      3898 4.25263E+00
 -1      3899 4.40824E+00
 -1      3900 1.91036E-01
 -1      3901 1.86871E-01
 -1      3902 2.05485E-01
 -1      3903 5.09963E+00
 -1      3904 1.45602E-01
 -1      3905 1.65291E-01
 -1      3906 1.19352E-01
 -1      3907 1.30667E-01
 -1      3908 7.32452E-01
 -1      3909 4.40856E+00
 -1      3910 1.62102E-01
 -1      3911 1.74238E-01
 -1      3912 1.87519E-01
 -1      3913 2.02463E-01
 -1      3914 1.89424E-01
 -1      3915 2.25382E-01
 -1      3916 2.66168E-01
 -1      3917 2.25624E-01
 -1      3918 2.96905E-01
 -1      3919 3.49782E-01
 -1      3920 2.79281E-01
 -1      3921 4.03021E-01
 -1      3922 4.69135E-01
 -1      3923 3.63258E-01
 -1      3924 5.40068E-01
 -1      3925 6.24101E-01
 -1      3926 4.87431E-01
 -1      3927 7.21808E-01
 -1      3928 8.30917E-01
 -1      3929 6.56072E-01
 -1      3930 9.72602E-01
 -1      3931 1.11716E+00
 -1      3932 8.95465E-01
 -1      3933 1.32310E+00
 -1      3934 1.51242E+00
 -1      3935 1.24309E+00
 -1      3936 1.97942E+00
 -1      3937 2.27478E+00
 -1      3938 1.91603E+00
 -1      3939 2.46235E+00
 -1      3940 3.17228E+00
 -1      3941 2.57060E+00
 -1      3942 1.74704E-01
 -1      3943 1.73950E-01
 -1      3944 1.40080E-01
 -1      3945 3.09249E+00
 -1      3946 1.83669E-01
 -1      3947 1.54632E-01
 -1      3948 1.65226E-01
 -1      3949 2.19924E-01
 -1      3950 1.39998E+00
 -1      3951 1.59451E+00
 -1      3952 2.93147E+00
 -1      3953 2.28696E+00
 -1      3954 1.58184E+00
 -1      3955 1.38447E+00
 -1      3956 2.22636E+00
 -1      3957 1.16390E+00
 -1      3958 1.01636E+00
 -1      3959 1.30067E+00
 -1      3960 8.70091E-01
 -1      3961 7.58537E-01
 -1      3962 9.33825E-01
 -1      3963 6.57994E-01
 -1      3964 5.73296E-01
 -1      3965 6.87013E-01
 -1      3966 5.01056E-01
 -1      3967 4.35435E-01
 -1      3968 5.14229E-01
 -1      3969 3.81168E-01
 -1      3970 3.29732E-01
 -1      3971 3.87722E-01
 -1      3972 2.96629E-01
 -1      3973 2.55893E-01
 -1      3974 3.00353E-01
 -1      3975 1.01975E+00
 -1      3976 9.06398E-01
 -1      3977 1.18947E-01
 -1      3978 9.57296E-02
 -1      3979 3.70723E+00
 -1      3980 2.10542E-01
 -1      3981 1.88693E-01
 -1      3982 1.95259E-01
 -1      3983 2.90062E+00
 -1      3984 2.41975E+00
 -1      3985 1.06189E+00
 -1      3986 1.18688E+00
 -1      3987 1.38141E+00
 -1      3988 2.02249E+00
 -1      3989 2.45047E+00
 -1      3990 2.02249E+00
 -1      3991 1.36145E-01
 -1      3992 1.49029E-01
 -1      3993 1.63071E-01
 -1      3994 4.77360E-01
 -1      3995 5.43627E-01
 -1      3996 3.63344E-01
 -1      3997 4.16788E-01
 -1      3998 4.38399E-01
 -1      3999 2.74392E-01
 -1      4000 3.17137E-01
 -1      4001 3.31618E-01
 -1      4002 2.13090E-01
 -1      4003 5.53748E+00
 -1      4004 4.77968E+00
 -1      4005 1.22941E-01
 -1      4006 1.12043E-01
 -1      4007 1.27500E-01
 -1      4008 7.81589E-01
 -1      4009 6.88808E-01
 -1      4010 8.62754E-01
 -1      4011 1.86063E+00
 -1      4012 1.60265E+00
 -1      4013 2.41975E+00
 -1      4014 1.34467E+00
 -1      4015 1.19831E+00
 -1      4016 1.16612E+00
 -1      4017 6.22428E-01
 -1      4018 7.04647E-01
 -1      4019 5.77772E-01
 -1      4020 4.82204E+00
 -1      4021 3.54485E+00
 -1      4022 1.10859E-01
 -1      4023 9.80152E-02
 -1      4024 1.06057E-01
 -1      4025 1.96032E-01
 -1      4026 1.98376E-01
 -1      4027 2.06565E-01
 -1      4028 2.11314E-01
 -1      4029 1.32254E-01
 -1      4030 1.47782E-01
 -1      4031 1.21228E-01
 -1      4032 1.15326E-01
 -1      4033 3.36718E+00
 -1      4034 4.25263E+00
 -1      4035 3.74200E+00
 -1      4036 4.38189E+00
 -1      4037 3.09249E+00
 -1      4038 8.11903E-01
 -1      4039 9.13278E-01
 -1      4040 1.01969E+00
 -1      4041 7.63828E-01
 -1      4042 4.50807E+00
 -1      4043 4.34352E+00
 -1      4044 3.75850E+00
 -1      4045 3.89412E+00
 -1      4046 5.53748E+00
 -1      4047 3.89062E+00
 -1      4048 2.95870E+00
 -1      4049 3.03696E+00
 -1      4050 8.62484E-02
 -1      4051 3.49283E+00
 -1      4052 3.58639E+00
 -1      4053 1.45291E-01
 -1      4054 1.77790E-01
 -1      4055 1.77790E-01
 -1      4056 1.10257E-01
 -1      4057 1.11628E-01
 -1      4058 3.36718E+00
 -1      4059 1.60265E+00
 -1      4060 3.43475E+00
 -1      4061 2.23597E-01
 -1      4062 2.28654E-01
 -1      4063 9.25150E-02
 -1      4064 9.94809E-02
 -1      4065 1.00543E-01
 -1      4066 4.50140E-01
 -1      4067 3.87759E-01
 -1      4068 3.53362E-01
 -1      4069 3.02305E-01
 -1      4070 3.78396E-01
 -1      4071 1.49131E-01
 -1      4072 1.18947E-01
 -1      4073 2.79782E-01
 -1      4074 2.79782E-01
 -1      4075 2.97894E-01
 -1      4076 9.78909E-02
 -1      4077 1.52479E-01
 -1      4078 1.23461E-01
 -1      4079 1.37314E-01
 -1      4080 1.14724E-01
 -1      4081 1.35663E-01
 -1      4082 1.23294E-01
 -1      4083 2.37730E-01
 -1      4084 1.66997E-01
 -1      4085 1.59045E-01
 -1      4086 1.59398E-01
 -1      4087 3.58639E+00
 -1      4088 3.17228E+00
 -1      4089 3.58639E+00
 -1      4090 5.95955E-01
 -1      4091 5.19863E-01
 -1      4092 4.82515E-01
 -1      4093 4.07408E+00
 -1      4094 3.51125E+00
 -1      4095 3.07555E+00
 -1      4096 3.48906E+00
 -1      4097 2.22482E-01
 -1      4098 7.76049E-02
 -1      4099 2.48748E-01
 -1      4100 6.45092E-01
 -1      4101 1.15971E-01
 -1      4102 1.19810E-01
 -1      4103 8.61474E-02
 -1      4104 2.47976E-01
 -1      4105 2.23309E-01
 -1      4106 2.46229E-01
 -1      4107 2.77341E-01
 -1      4108 3.08079E-01
 -1      4109 2.75026E-01
 -1      4110 3.47823E-01
 -1      4111 4.01063E-01
 -1      4112 3.45883E-01
 -1      4113 4.48866E-01
 -1      4114 5.19799E-01
 -1      4115 4.33431E-01
 -1      4116 5.85239E-01
 -1      4117 6.82947E-01
 -1      4118 5.46673E-01
 -1      4119 7.79709E-01
 -1      4120 9.21394E-01
 -1      4121 7.08876E-01
 -1      4122 1.14862E+00
 -1      4123 1.35456E+00
 -1      4124 1.03286E+00
 -1      4125 1.40010E+00
 -1      4126 1.86710E+00
 -1      4127 1.30562E+00
 -1      4128 2.22970E+00
 -1      4129 1.52458E+00
 -1      4130 2.37377E+00
 -1      4131 1.63071E-01
 -1      4132 1.76144E-01
 -1      4133 2.33839E-01
 -1      4134 2.57008E-01
 -1      4135 1.30187E+00
 -1      4136 1.08129E+00
 -1      4137 1.30521E+00
 -1      4138 9.41026E-01
 -1      4139 7.94758E-01
 -1      4140 9.42227E-01
 -1      4141 7.09669E-01
 -1      4142 6.09125E-01
 -1      4143 7.16871E-01
 -1      4144 5.29426E-01
 -1      4145 4.57185E-01
 -1      4146 5.52081E-01
 -1      4147 3.98735E-01
 -1      4148 3.44468E-01
 -1      4149 4.13931E-01
 -1      4150 3.41238E-01
 -1      4151 3.08136E-01
 -1      4152 2.97894E-01
 -1      4153 3.52251E-01
 -1      4154 3.15251E+00
 -1      4155 3.30812E+00
 -1      4156 1.77790E-01
 -1      4157 1.29689E+00
 -1      4158 1.50999E+00
 -1      4159 2.16380E+00
 -1      4160 2.59178E+00
 -1      4161 2.07928E+00
 -1      4162 4.93096E-01
 -1      4163 4.23373E-01
 -1      4164 2.94339E-01
 -1      4165 3.40547E-01
 -1      4166 4.25104E-01
 -1      4167 4.85676E-01
 -1      4168 3.87825E-01
 -1      4169 6.44502E-01
 -1      4170 5.51648E-01
 -1      4171 4.92506E-01
 -1      4172 1.70844E+00
 -1      4173 1.45045E+00
 -1      4174 8.78190E-01
 -1      4175 7.53382E-01
 -1      4176 6.59938E-01
 -1      4177 2.97888E+00
 -1      4178 2.41975E+00
 -1      4179 2.26756E+00
 -1      4180 1.30838E-01
 -1      4181 1.18117E-01
 -1      4182 1.22870E-01
 -1      4183 8.96268E-02
 -1      4184 3.43475E+00
 -1      4185 1.89424E-01
 -1      4186 2.02705E-01
 -1      4187 1.89424E-01
 -1      4188 5.65376E-01
 -1      4189 6.44177E-01
 -1      4190 5.52081E-01
 -1      4191 3.10448E+00
 -1      4192 1.08377E-01
 -1      4193 8.38916E-02
 -1      4194 1.07229E-01
 -1      4195 3.43475E+00
 -1      4196 2.73840E+00
 -1      4197 8.80915E-02
 -1      4198 1.30237E+00
 -1      4199 1.12382E+00
 -1      4200 1.40816E+00
 -1      4201 3.30462E+00
 -1      4202 2.55083E+00
 -1      4203 3.13683E+00
 -1      4204 3.24580E+00
 -1      4205 2.55083E+00
 -1      4206 2.68095E+00
 -1      4207 2.23309E-01
 -1      4208 1.86710E+00
 -1      4209 2.38303E+00
 -1      4210 1.49998E-01
 -1      4211 1.63071E-01
 -1      4212 1.37314E-01
 -1      4213 1.10019E-01
 -1      4214 1.03733E-01
 -1      4215 3.24580E+00
 -1      4216 2.43643E-01
 -1      4217 2.02957E-01
 -1      4218 2.85337E-01
 -1      4219 3.80160E-01
 -1      4220 3.45764E-01
 -1      4221 3.90741E-01
 -1      4222 9.33781E-02
 -1      4223 1.79238E-01
 -1      4224 1.65226E-01
 -1      4225 1.81009E-01
 -1      4226 2.02957E-01
 -1      4227 1.10448E-01
 -1      4228 3.17216E-01
 -1      4229 3.26145E-01
 -1      4230 7.16871E-01
 -1      4231 7.29267E-01
 -1      4232 8.36522E-01
 -1      4233 8.79177E-01
 -1      4234 1.02779E+00
 -1      4235 1.15637E+00
 -1      4236 8.44616E-01
 -1      4237 1.36107E-01
 -1      4238 1.30929E-01
 -1      4239 1.08075E-01
 -1      4240 1.82781E-01
 -1      4241 1.59398E-01
 -1      4242 1.59489E-01
 -1      4243 3.49022E-01
 -1      4244 3.23781E+00
 -1      4245 2.96836E+00
 -1      4246 2.12251E+00
 -1      4247 2.72510E+00
 -1      4248 1.01445E+00
 -1      4249 2.93956E-01
 -1      4250 3.25069E-01
 -1      4251 1.35116E+00
 -1      4252 1.86710E+00
 -1      4253 3.26834E-01
 -1      4254 3.66578E-01
 -1      4255 4.09791E-01
 -1      4256 4.57594E-01
 -1      4257 5.16146E-01
 -1      4258 5.81586E-01
 -1      4259 6.90466E-01
 -1      4260 7.87228E-01
 -1      4261 1.03286E+00
 -1      4262 1.26008E+00
 -1      4263 1.30562E+00
 -1      4264 3.26145E-01
 -1      4265 4.10702E-01
 -1      4266 9.39277E-01
 -1      4267 7.99009E-01
 -1      4268 8.01960E-01
 -1      4269 7.16871E-01
 -1      4270 6.31781E-01
 -1      4271 5.52081E-01
 -1      4272 3.52251E-01
 -1      4273 3.49022E-01
 -1      4274 2.07129E+00
 -1      4275 2.14106E-01
 -1      4276 2.34710E-01
 -1      4277 2.84753E-01
 -1      4278 3.49022E-01
 -1      4279 1.09993E-01
 -1      4280 1.24175E-01
 -1      4281 1.36859E-01
 -1      4282 1.10019E-01
 -1      4283 1.40495E+00
 -1      4284 1.18223E+00
 -1      4285 1.03902E+00
 -1      4286 1.99954E+00
 -1      4287 1.81477E-01
 -1      4288 1.94757E-01
 -1      4289 2.06158E-01
 -1      4290 4.72382E-01
 -1      4291 1.07105E-01
 -1      4292 1.30929E-01
 -1      4293 1.25661E-01
 -1      4294 1.66389E-01
 -1      4295 1.79462E-01
 -1      4296 2.16502E+00
 -1      4297 3.43999E-01
 -1      4298 2.85337E-01
 -1      4299 1.24691E-01
 -1      4300 1.84795E-01
 -1      4301 4.13931E-01
 -1      4302 1.35373E+00
 -1      4303 1.11077E+00
 -1      4304 3.45764E-01
 -1      4305 1.45370E+00
 -1      4306 8.41665E-01
 -1      4307 1.29959E-01
 -1      4308 1.84795E-01
 -1      4309 1.84795E-01
 -1      4310 1.86810E-01
 -1      4311 1.83024E-01
 -1      4312 1.43098E-01
 -1      4313 1.30562E+00
 -1      4314 2.26091E-01
 -1      4315 2.02373E-01
 -1      4316 8.44616E-01
 -1      4317 2.06158E-01
 -3
 9999
