    1C
    1UUSER                                                              
    1UDATE              27.october.2022                                 
    1UTIME              00:23:19                                        
    1UHOST                                                              
    1UPGM               CalculiX                                        
    1UVERSION           Version 2.17                             
    1UCOMPILETIME       Thu Jul 23 21:43:50 CEST 2020                    
    1UDIR                                                               
    1UDBN                                                               
    1UMAT    1SOLIDMATERIAL                                             
    2C                          4317                                     1
 -1         1 6.89512E+01 3.14132E+01 0.00000E+00
 -1         2 8.19892E+01 2.78717E+01 0.00000E+00
 -1         3 1.50000E+02 0.00000E+00 0.00000E+00
 -1         4 1.50000E+02 5.00000E+01 0.00000E+00
 -1         5 0.00000E+00 0.00000E+00 0.00000E+00
 -1         6 0.00000E+00 5.00000E+01 0.00000E+00
 -1         7 0.00000E+00 4.70500E+01 0.00000E+00
 -1         8 0.00000E+00 4.41000E+01 0.00000E+00
 -1         9 0.00000E+00 4.11500E+01 0.00000E+00
 -1        10 0.00000E+00 3.82000E+01 0.00000E+00
 -1        11 0.00000E+00 3.52500E+01 0.00000E+00
 -1        12 0.00000E+00 3.23500E+01 0.00000E+00
 -1        13 0.00000E+00 2.94000E+01 0.00000E+00
 -1        14 0.00000E+00 2.64500E+01 0.00000E+00
 -1        15 0.00000E+00 2.35000E+01 0.00000E+00
 -1        16 0.00000E+00 2.05500E+01 0.00000E+00
 -1        17 0.00000E+00 1.76000E+01 0.00000E+00
 -1        18 0.00000E+00 1.47000E+01 0.00000E+00
 -1        19 0.00000E+00 1.17500E+01 0.00000E+00
 -1        20 0.00000E+00 8.80000E+00 0.00000E+00
 -1        21 0.00000E+00 5.85000E+00 0.00000E+00
 -1        22 0.00000E+00 2.90000E+00 0.00000E+00
 -1        23 3.15000E+00 5.00000E+01 0.00000E+00
 -1        24 6.15000E+00 5.00000E+01 0.00000E+00
 -1        25 9.15000E+00 5.00000E+01 0.00000E+00
 -1        26 1.21500E+01 5.00000E+01 0.00000E+00
 -1        27 1.51500E+01 5.00000E+01 0.00000E+00
 -1        28 1.81500E+01 5.00000E+01 0.00000E+00
 -1        29 2.11500E+01 5.00000E+01 0.00000E+00
 -1        30 2.41500E+01 5.00000E+01 0.00000E+00
 -1        31 2.71500E+01 5.00000E+01 0.00000E+00
 -1        32 3.01500E+01 5.00000E+01 0.00000E+00
 -1        33 3.31500E+01 5.00000E+01 0.00000E+00
 -1        34 3.61500E+01 5.00000E+01 0.00000E+00
 -1        35 3.91500E+01 5.00000E+01 0.00000E+00
 -1        36 4.21500E+01 5.00000E+01 0.00000E+00
 -1        37 4.51500E+01 5.00000E+01 0.00000E+00
 -1        38 4.81500E+01 5.00000E+01 0.00000E+00
 -1        39 5.11500E+01 5.00000E+01 0.00000E+00
 -1        40 5.41500E+01 5.00000E+01 0.00000E+00
 -1        41 5.71500E+01 5.00000E+01 0.00000E+00
 -1        42 6.01500E+01 5.00000E+01 0.00000E+00
 -1        43 6.31500E+01 5.00000E+01 0.00000E+00
 -1        44 6.61500E+01 5.00000E+01 0.00000E+00
 -1        45 6.91500E+01 5.00000E+01 0.00000E+00
 -1        46 7.21500E+01 5.00000E+01 0.00000E+00
 -1        47 7.51500E+01 5.00000E+01 0.00000E+00
 -1        48 7.80000E+01 5.00000E+01 0.00000E+00
 -1        49 8.10000E+01 5.00000E+01 0.00000E+00
 -1        50 8.40000E+01 5.00000E+01 0.00000E+00
 -1        51 8.70000E+01 5.00000E+01 0.00000E+00
 -1        52 9.00000E+01 5.00000E+01 0.00000E+00
 -1        53 9.30000E+01 5.00000E+01 0.00000E+00
 -1        54 9.60000E+01 5.00000E+01 0.00000E+00
 -1        55 9.90000E+01 5.00000E+01 0.00000E+00
 -1        56 1.02000E+02 5.00000E+01 0.00000E+00
 -1        57 1.05000E+02 5.00000E+01 0.00000E+00
 -1        58 1.08000E+02 5.00000E+01 0.00000E+00
 -1        59 1.11000E+02 5.00000E+01 0.00000E+00
 -1        60 1.14000E+02 5.00000E+01 0.00000E+00
 -1        61 1.17000E+02 5.00000E+01 0.00000E+00
 -1        62 1.20000E+02 5.00000E+01 0.00000E+00
 -1        63 1.23000E+02 5.00000E+01 0.00000E+00
 -1        64 1.26000E+02 5.00000E+01 0.00000E+00
 -1        65 1.29000E+02 5.00000E+01 0.00000E+00
 -1        66 1.32000E+02 5.00000E+01 0.00000E+00
 -1        67 1.35000E+02 5.00000E+01 0.00000E+00
 -1        68 1.38000E+02 5.00000E+01 0.00000E+00
 -1        69 1.41000E+02 5.00000E+01 0.00000E+00
 -1        70 1.44000E+02 5.00000E+01 0.00000E+00
 -1        71 1.47000E+02 5.00000E+01 0.00000E+00
 -1        72 3.15000E+00 0.00000E+00 0.00000E+00
 -1        73 6.15000E+00 0.00000E+00 0.00000E+00
 -1        74 9.15000E+00 0.00000E+00 0.00000E+00
 -1        75 1.21500E+01 0.00000E+00 0.00000E+00
 -1        76 1.51500E+01 0.00000E+00 0.00000E+00
 -1        77 1.81500E+01 0.00000E+00 0.00000E+00
 -1        78 2.11500E+01 0.00000E+00 0.00000E+00
 -1        79 2.41500E+01 0.00000E+00 0.00000E+00
 -1        80 2.71500E+01 0.00000E+00 0.00000E+00
 -1        81 3.01500E+01 0.00000E+00 0.00000E+00
 -1        82 3.31500E+01 0.00000E+00 0.00000E+00
 -1        83 3.61500E+01 0.00000E+00 0.00000E+00
 -1        84 3.91500E+01 0.00000E+00 0.00000E+00
 -1        85 4.21500E+01 0.00000E+00 0.00000E+00
 -1        86 4.51500E+01 0.00000E+00 0.00000E+00
 -1        87 4.81500E+01 0.00000E+00 0.00000E+00
 -1        88 5.11500E+01 0.00000E+00 0.00000E+00
 -1        89 5.41500E+01 0.00000E+00 0.00000E+00
 -1        90 5.71500E+01 0.00000E+00 0.00000E+00
 -1        91 6.01500E+01 0.00000E+00 0.00000E+00
 -1        92 6.31500E+01 0.00000E+00 0.00000E+00
 -1        93 6.61500E+01 0.00000E+00 0.00000E+00
 -1        94 6.91500E+01 0.00000E+00 0.00000E+00
 -1        95 7.21500E+01 0.00000E+00 0.00000E+00
 -1        96 7.51500E+01 0.00000E+00 0.00000E+00
 -1        97 7.81500E+01 0.00000E+00 0.00000E+00
 -1        98 8.11500E+01 0.00000E+00 0.00000E+00
 -1        99 8.41500E+01 0.00000E+00 0.00000E+00
 -1       100 8.71500E+01 0.00000E+00 0.00000E+00
 -1       101 9.01500E+01 0.00000E+00 0.00000E+00
 -1       102 9.31500E+01 0.00000E+00 0.00000E+00
 -1       103 9.61500E+01 0.00000E+00 0.00000E+00
 -1       104 9.91500E+01 0.00000E+00 0.00000E+00
 -1       105 1.02150E+02 0.00000E+00 0.00000E+00
 -1       106 1.05150E+02 0.00000E+00 0.00000E+00
 -1       107 1.08150E+02 0.00000E+00 0.00000E+00
 -1       108 1.11150E+02 0.00000E+00 0.00000E+00
 -1       109 1.14150E+02 0.00000E+00 0.00000E+00
 -1       110 1.17150E+02 0.00000E+00 0.00000E+00
 -1       111 1.20150E+02 0.00000E+00 0.00000E+00
 -1       112 1.23150E+02 0.00000E+00 0.00000E+00
 -1       113 1.26150E+02 0.00000E+00 0.00000E+00
 -1       114 1.29150E+02 0.00000E+00 0.00000E+00
 -1       115 1.32150E+02 0.00000E+00 0.00000E+00
 -1       116 1.35150E+02 0.00000E+00 0.00000E+00
 -1       117 1.38150E+02 0.00000E+00 0.00000E+00
 -1       118 1.41150E+02 0.00000E+00 0.00000E+00
 -1       119 1.44150E+02 0.00000E+00 0.00000E+00
 -1       120 1.47150E+02 0.00000E+00 0.00000E+00
 -1       121 1.50000E+02 2.95000E+00 0.00000E+00
 -1       122 1.50000E+02 5.90000E+00 0.00000E+00
 -1       123 1.50000E+02 8.85000E+00 0.00000E+00
 -1       124 1.50000E+02 1.18000E+01 0.00000E+00
 -1       125 1.50000E+02 1.47500E+01 0.00000E+00
 -1       126 1.50000E+02 1.76500E+01 0.00000E+00
 -1       127 1.50000E+02 2.06000E+01 0.00000E+00
 -1       128 1.50000E+02 2.35500E+01 0.00000E+00
 -1       129 1.50000E+02 2.65000E+01 0.00000E+00
 -1       130 1.50000E+02 2.94500E+01 0.00000E+00
 -1       131 1.50000E+02 3.24000E+01 0.00000E+00
 -1       132 1.50000E+02 3.53000E+01 0.00000E+00
 -1       133 1.50000E+02 3.82500E+01 0.00000E+00
 -1       134 1.50000E+02 4.12000E+01 0.00000E+00
 -1       135 1.50000E+02 4.41500E+01 0.00000E+00
 -1       136 1.50000E+02 4.71000E+01 0.00000E+00
 -1       137 8.18102E+01 2.62986E+01 0.00000E+00
 -1       138 8.13359E+01 2.49187E+01 0.00000E+00
 -1       139 8.05760E+01 2.36541E+01 0.00000E+00
 -1       140 7.95358E+01 2.25492E+01 0.00000E+00
 -1       141 7.82265E+01 2.16652E+01 0.00000E+00
 -1       142 7.68699E+01 2.11290E+01 0.00000E+00
 -1       143 7.52945E+01 2.08783E+01 0.00000E+00
 -1       144 7.38115E+01 2.09714E+01 0.00000E+00
 -1       145 7.23150E+01 2.14026E+01 0.00000E+00
 -1       146 7.10071E+01 2.21147E+01 0.00000E+00
 -1       147 6.98959E+01 2.30698E+01 0.00000E+00
 -1       148 6.90306E+01 2.41981E+01 0.00000E+00
 -1       149 6.83726E+01 2.55869E+01 0.00000E+00
 -1       150 6.80452E+01 2.69885E+01 0.00000E+00
 -1       151 6.80261E+01 2.85893E+01 0.00000E+00
 -1       152 6.83331E+01 3.00387E+01 0.00000E+00
 -1       153 6.98307E+01 3.26034E+01 0.00000E+00
 -1       154 7.10278E+01 3.36429E+01 0.00000E+00
 -1       155 7.23465E+01 3.43536E+01 0.00000E+00
 -1       156 7.39067E+01 3.47874E+01 0.00000E+00
 -1       157 7.54073E+01 3.48592E+01 0.00000E+00
 -1       158 7.68918E+01 3.46082E+01 0.00000E+00
 -1       159 7.83622E+01 3.40054E+01 0.00000E+00
 -1       160 7.95889E+01 3.31483E+01 0.00000E+00
 -1       161 8.06554E+01 3.19819E+01 0.00000E+00
 -1       162 8.13759E+01 3.07370E+01 0.00000E+00
 -1       163 8.18407E+01 2.93061E+01 0.00000E+00
 -1       164 2.59800E+00 4.55750E+01 0.00000E+00
 -1       165 2.59800E+00 4.26250E+01 0.00000E+00
 -1       166 2.59800E+00 3.96750E+01 0.00000E+00
 -1       167 2.59800E+00 3.67250E+01 0.00000E+00
 -1       168 2.59800E+00 3.38250E+01 0.00000E+00
 -1       169 2.59800E+00 3.08750E+01 0.00000E+00
 -1       170 2.59800E+00 2.79250E+01 0.00000E+00
 -1       171 2.59800E+00 2.49750E+01 0.00000E+00
 -1       172 2.59800E+00 2.20250E+01 0.00000E+00
 -1       173 2.59800E+00 1.90750E+01 0.00000E+00
 -1       174 2.59800E+00 1.61750E+01 0.00000E+00
 -1       175 2.59800E+00 1.32250E+01 0.00000E+00
 -1       176 2.59800E+00 1.02750E+01 0.00000E+00
 -1       177 2.59800E+00 7.32500E+00 0.00000E+00
 -1       178 2.59800E+00 4.37500E+00 0.00000E+00
 -1       179 2.87400E+00 2.18750E+00 0.00000E+00
 -1       180 4.65000E+00 4.74020E+01 0.00000E+00
 -1       181 7.65000E+00 4.74020E+01 0.00000E+00
 -1       182 1.06500E+01 4.74020E+01 0.00000E+00
 -1       183 1.36500E+01 4.74020E+01 0.00000E+00
 -1       184 1.66500E+01 4.74020E+01 0.00000E+00
 -1       185 1.96500E+01 4.74020E+01 0.00000E+00
 -1       186 2.26500E+01 4.74020E+01 0.00000E+00
 -1       187 2.56500E+01 4.74020E+01 0.00000E+00
 -1       188 2.86500E+01 4.74020E+01 0.00000E+00
 -1       189 3.16500E+01 4.74020E+01 0.00000E+00
 -1       190 3.46500E+01 4.74020E+01 0.00000E+00
 -1       191 3.76500E+01 4.74020E+01 0.00000E+00
 -1       192 4.06500E+01 4.74020E+01 0.00000E+00
 -1       193 4.36500E+01 4.74020E+01 0.00000E+00
 -1       194 4.66500E+01 4.74020E+01 0.00000E+00
 -1       195 4.96500E+01 4.74020E+01 0.00000E+00
 -1       196 5.26500E+01 4.74020E+01 0.00000E+00
 -1       197 5.56500E+01 4.74020E+01 0.00000E+00
 -1       198 5.86500E+01 4.74020E+01 0.00000E+00
 -1       199 6.16500E+01 4.74020E+01 0.00000E+00
 -1       200 6.46500E+01 4.74020E+01 0.00000E+00
 -1       201 6.76500E+01 4.74020E+01 0.00000E+00
 -1       202 7.06500E+01 4.74020E+01 0.00000E+00
 -1       203 7.36500E+01 4.74020E+01 0.00000E+00
 -1       204 7.65000E+01 4.74020E+01 0.00000E+00
 -1       205 7.95000E+01 4.74020E+01 0.00000E+00
 -1       206 8.25000E+01 4.74020E+01 0.00000E+00
 -1       207 8.55000E+01 4.74020E+01 0.00000E+00
 -1       208 8.85000E+01 4.74020E+01 0.00000E+00
 -1       209 9.15000E+01 4.74020E+01 0.00000E+00
 -1       210 9.45000E+01 4.74020E+01 0.00000E+00
 -1       211 9.75000E+01 4.74020E+01 0.00000E+00
 -1       212 1.00500E+02 4.74020E+01 0.00000E+00
 -1       213 1.03500E+02 4.74020E+01 0.00000E+00
 -1       214 1.06500E+02 4.74020E+01 0.00000E+00
 -1       215 1.09500E+02 4.74020E+01 0.00000E+00
 -1       216 1.12500E+02 4.74020E+01 0.00000E+00
 -1       217 1.15500E+02 4.74020E+01 0.00000E+00
 -1       218 1.18500E+02 4.74020E+01 0.00000E+00
 -1       219 1.21500E+02 4.74020E+01 0.00000E+00
 -1       220 1.24500E+02 4.74020E+01 0.00000E+00
 -1       221 1.27500E+02 4.74020E+01 0.00000E+00
 -1       222 1.30500E+02 4.74020E+01 0.00000E+00
 -1       223 1.33500E+02 4.74020E+01 0.00000E+00
 -1       224 1.36500E+02 4.74020E+01 0.00000E+00
 -1       225 1.39500E+02 4.74020E+01 0.00000E+00
 -1       226 1.42500E+02 4.74020E+01 0.00000E+00
 -1       227 1.45500E+02 4.74020E+01 0.00000E+00
 -1       228 1.47750E+02 4.72510E+01 0.00000E+00
 -1       229 5.87400E+00 2.18750E+00 0.00000E+00
 -1       230 8.87400E+00 2.18750E+00 0.00000E+00
 -1       231 1.18740E+01 2.18750E+00 0.00000E+00
 -1       232 1.48740E+01 2.18750E+00 0.00000E+00
 -1       233 1.78740E+01 2.18750E+00 0.00000E+00
 -1       234 2.08740E+01 2.18750E+00 0.00000E+00
 -1       235 2.38740E+01 2.18750E+00 0.00000E+00
 -1       236 2.68740E+01 2.18750E+00 0.00000E+00
 -1       237 2.98740E+01 2.18750E+00 0.00000E+00
 -1       238 3.28740E+01 2.18750E+00 0.00000E+00
 -1       239 3.58740E+01 2.18750E+00 0.00000E+00
 -1       240 3.88740E+01 2.18750E+00 0.00000E+00
 -1       241 4.18740E+01 2.18750E+00 0.00000E+00
 -1       242 4.48740E+01 2.18750E+00 0.00000E+00
 -1       243 4.78740E+01 2.18750E+00 0.00000E+00
 -1       244 5.08740E+01 2.18750E+00 0.00000E+00
 -1       245 5.38740E+01 2.18750E+00 0.00000E+00
 -1       246 5.68740E+01 2.18750E+00 0.00000E+00
 -1       247 5.98740E+01 2.18750E+00 0.00000E+00
 -1       248 6.28740E+01 2.18750E+00 0.00000E+00
 -1       249 6.58740E+01 2.18750E+00 0.00000E+00
 -1       250 6.88740E+01 2.18750E+00 0.00000E+00
 -1       251 7.18740E+01 2.18750E+00 0.00000E+00
 -1       252 7.48740E+01 2.18750E+00 0.00000E+00
 -1       253 7.78740E+01 2.18750E+00 0.00000E+00
 -1       254 8.08740E+01 2.18750E+00 0.00000E+00
 -1       255 8.38740E+01 2.18750E+00 0.00000E+00
 -1       256 8.68740E+01 2.18750E+00 0.00000E+00
 -1       257 8.98740E+01 2.18750E+00 0.00000E+00
 -1       258 9.28740E+01 2.18750E+00 0.00000E+00
 -1       259 9.58740E+01 2.18750E+00 0.00000E+00
 -1       260 9.88740E+01 2.18750E+00 0.00000E+00
 -1       261 1.01874E+02 2.18750E+00 0.00000E+00
 -1       262 1.04874E+02 2.18750E+00 0.00000E+00
 -1       263 1.07874E+02 2.18750E+00 0.00000E+00
 -1       264 1.10874E+02 2.18750E+00 0.00000E+00
 -1       265 1.13874E+02 2.18750E+00 0.00000E+00
 -1       266 1.16874E+02 2.18750E+00 0.00000E+00
 -1       267 1.19874E+02 2.18750E+00 0.00000E+00
 -1       268 1.22874E+02 2.18750E+00 0.00000E+00
 -1       269 1.25874E+02 2.18750E+00 0.00000E+00
 -1       270 1.28874E+02 2.18750E+00 0.00000E+00
 -1       271 1.31874E+02 2.18750E+00 0.00000E+00
 -1       272 1.34874E+02 2.18750E+00 0.00000E+00
 -1       273 1.37874E+02 2.18750E+00 0.00000E+00
 -1       274 1.40874E+02 2.18750E+00 0.00000E+00
 -1       275 1.43874E+02 2.18750E+00 0.00000E+00
 -1       276 1.46874E+02 2.18750E+00 0.00000E+00
 -1       277 1.47402E+02 4.42500E+00 0.00000E+00
 -1       278 1.47402E+02 7.37500E+00 0.00000E+00
 -1       279 1.47402E+02 1.03250E+01 0.00000E+00
 -1       280 1.47402E+02 1.32750E+01 0.00000E+00
 -1       281 1.47402E+02 1.61750E+01 0.00000E+00
 -1       282 1.47402E+02 1.91250E+01 0.00000E+00
 -1       283 1.47402E+02 2.20750E+01 0.00000E+00
 -1       284 1.47402E+02 2.50250E+01 0.00000E+00
 -1       285 1.47402E+02 2.79750E+01 0.00000E+00
 -1       286 1.47402E+02 3.09250E+01 0.00000E+00
 -1       287 1.47402E+02 3.38250E+01 0.00000E+00
 -1       288 1.47402E+02 3.67750E+01 0.00000E+00
 -1       289 1.47402E+02 3.97250E+01 0.00000E+00
 -1       290 1.47402E+02 4.26750E+01 0.00000E+00
 -1       291 1.47576E+02 4.49630E+01 0.00000E+00
 -1       292 8.31876E+01 2.69385E+01 0.00000E+00
 -1       293 8.27196E+01 2.52145E+01 0.00000E+00
 -1       294 8.19952E+01 2.36620E+01 0.00000E+00
 -1       295 8.09387E+01 2.22706E+01 0.00000E+00
 -1       296 7.96064E+01 2.10329E+01 0.00000E+00
 -1       297 7.80246E+01 2.01917E+01 0.00000E+00
 -1       298 7.63122E+01 1.95581E+01 0.00000E+00
 -1       299 7.44718E+01 1.96312E+01 0.00000E+00
 -1       300 7.26812E+01 1.98610E+01 0.00000E+00
 -1       301 7.10413E+01 2.06203E+01 0.00000E+00
 -1       302 6.96612E+01 2.16728E+01 0.00000E+00
 -1       303 6.85012E+01 2.28961E+01 0.00000E+00
 -1       304 6.74545E+01 2.43016E+01 0.00000E+00
 -1       305 6.70283E+01 2.60119E+01 0.00000E+00
 -1       306 6.65720E+01 2.77714E+01 0.00000E+00
 -1       307 6.69115E+01 2.95826E+01 0.00000E+00
 -1       308 6.75364E+01 3.12232E+01 0.00000E+00
 -1       309 6.84158E+01 3.27288E+01 0.00000E+00
 -1       310 6.95244E+01 3.41651E+01 0.00000E+00
 -1       311 7.11119E+01 3.50655E+01 0.00000E+00
 -1       312 7.27569E+01 3.59001E+01 0.00000E+00
 -1       313 7.45951E+01 3.61180E+01 0.00000E+00
 -1       314 7.63516E+01 3.59291E+01 0.00000E+00
 -1       315 7.81504E+01 3.55836E+01 0.00000E+00
 -1       316 7.96699E+01 3.45707E+01 0.00000E+00
 -1       317 8.11405E+01 3.34963E+01 0.00000E+00
 -1       318 8.20650E+01 3.19668E+01 0.00000E+00
 -1       319 8.29208E+01 3.04478E+01 0.00000E+00
 -1       320 8.31209E+01 2.87137E+01 0.00000E+00
 -1       321 5.19600E+00 4.11500E+01 0.00000E+00
 -1       322 5.19600E+00 4.41000E+01 0.00000E+00
 -1       323 5.19600E+00 3.52750E+01 0.00000E+00
 -1       324 5.19600E+00 3.23250E+01 0.00000E+00
 -1       325 5.19600E+00 2.93750E+01 0.00000E+00
 -1       326 5.19600E+00 2.64250E+01 0.00000E+00
 -1       327 5.19600E+00 2.34750E+01 0.00000E+00
 -1       328 5.19600E+00 2.05250E+01 0.00000E+00
 -1       329 5.19600E+00 1.76250E+01 0.00000E+00
 -1       330 5.19600E+00 1.46750E+01 0.00000E+00
 -1       331 5.19600E+00 1.17250E+01 0.00000E+00
 -1       332 5.19600E+00 8.77500E+00 0.00000E+00
 -1       333 5.19600E+00 5.82500E+00 0.00000E+00
 -1       334 5.53500E+00 4.00625E+00 0.00000E+00
 -1       335 8.53500E+00 4.00625E+00 0.00000E+00
 -1       336 9.15000E+00 4.48040E+01 0.00000E+00
 -1       337 1.21500E+01 4.48040E+01 0.00000E+00
 -1       338 1.51500E+01 4.48040E+01 0.00000E+00
 -1       339 1.81500E+01 4.48040E+01 0.00000E+00
 -1       340 2.11500E+01 4.48040E+01 0.00000E+00
 -1       341 2.41500E+01 4.48040E+01 0.00000E+00
 -1       342 2.71500E+01 4.48040E+01 0.00000E+00
 -1       343 3.01500E+01 4.48040E+01 0.00000E+00
 -1       344 3.31500E+01 4.48040E+01 0.00000E+00
 -1       345 3.61500E+01 4.48040E+01 0.00000E+00
 -1       346 3.91500E+01 4.48040E+01 0.00000E+00
 -1       347 4.21500E+01 4.48040E+01 0.00000E+00
 -1       348 4.51500E+01 4.48040E+01 0.00000E+00
 -1       349 4.81500E+01 4.48040E+01 0.00000E+00
 -1       350 5.11500E+01 4.48040E+01 0.00000E+00
 -1       351 5.41500E+01 4.48040E+01 0.00000E+00
 -1       352 5.71500E+01 4.48040E+01 0.00000E+00
 -1       353 6.01500E+01 4.48040E+01 0.00000E+00
 -1       354 6.31500E+01 4.48040E+01 0.00000E+00
 -1       355 6.61500E+01 4.48040E+01 0.00000E+00
 -1       356 6.91500E+01 4.48040E+01 0.00000E+00
 -1       357 7.21500E+01 4.48040E+01 0.00000E+00
 -1       358 7.50000E+01 4.48040E+01 0.00000E+00
 -1       359 7.80000E+01 4.48040E+01 0.00000E+00
 -1       360 8.10000E+01 4.48040E+01 0.00000E+00
 -1       361 8.40000E+01 4.48040E+01 0.00000E+00
 -1       362 8.70000E+01 4.48040E+01 0.00000E+00
 -1       363 9.00000E+01 4.48040E+01 0.00000E+00
 -1       364 9.30000E+01 4.48040E+01 0.00000E+00
 -1       365 9.60000E+01 4.48040E+01 0.00000E+00
 -1       366 9.90000E+01 4.48040E+01 0.00000E+00
 -1       367 1.02000E+02 4.48040E+01 0.00000E+00
 -1       368 1.05000E+02 4.48040E+01 0.00000E+00
 -1       369 1.08000E+02 4.48040E+01 0.00000E+00
 -1       370 1.11000E+02 4.48040E+01 0.00000E+00
 -1       371 1.14000E+02 4.48040E+01 0.00000E+00
 -1       372 1.17000E+02 4.48040E+01 0.00000E+00
 -1       373 1.20000E+02 4.48040E+01 0.00000E+00
 -1       374 1.23000E+02 4.48040E+01 0.00000E+00
 -1       375 1.26000E+02 4.48040E+01 0.00000E+00
 -1       376 1.29000E+02 4.48040E+01 0.00000E+00
 -1       377 1.32000E+02 4.48040E+01 0.00000E+00
 -1       378 1.35000E+02 4.48040E+01 0.00000E+00
 -1       379 1.38000E+02 4.48040E+01 0.00000E+00
 -1       380 1.41000E+02 4.48040E+01 0.00000E+00
 -1       381 1.44000E+02 4.48040E+01 0.00000E+00
 -1       382 1.33740E+01 4.78550E+00 0.00000E+00
 -1       383 1.63740E+01 4.78550E+00 0.00000E+00
 -1       384 1.93740E+01 4.78550E+00 0.00000E+00
 -1       385 2.23740E+01 4.78550E+00 0.00000E+00
 -1       386 2.53740E+01 4.78550E+00 0.00000E+00
 -1       387 2.83740E+01 4.78550E+00 0.00000E+00
 -1       388 3.13740E+01 4.78550E+00 0.00000E+00
 -1       389 3.43740E+01 4.78550E+00 0.00000E+00
 -1       390 3.73740E+01 4.78550E+00 0.00000E+00
 -1       391 4.03740E+01 4.78550E+00 0.00000E+00
 -1       392 4.33740E+01 4.78550E+00 0.00000E+00
 -1       393 4.63740E+01 4.78550E+00 0.00000E+00
 -1       394 4.93740E+01 4.78550E+00 0.00000E+00
 -1       395 5.23740E+01 4.78550E+00 0.00000E+00
 -1       396 5.53740E+01 4.78550E+00 0.00000E+00
 -1       397 5.83740E+01 4.78550E+00 0.00000E+00
 -1       398 6.13740E+01 4.78550E+00 0.00000E+00
 -1       399 6.43740E+01 4.78550E+00 0.00000E+00
 -1       400 6.73740E+01 4.78550E+00 0.00000E+00
 -1       401 7.03740E+01 4.78550E+00 0.00000E+00
 -1       402 7.33740E+01 4.78550E+00 0.00000E+00
 -1       403 7.63740E+01 4.78550E+00 0.00000E+00
 -1       404 7.93740E+01 4.78550E+00 0.00000E+00
 -1       405 8.23740E+01 4.78550E+00 0.00000E+00
 -1       406 8.53740E+01 4.78550E+00 0.00000E+00
 -1       407 8.83740E+01 4.78550E+00 0.00000E+00
 -1       408 9.13740E+01 4.78550E+00 0.00000E+00
 -1       409 9.43740E+01 4.78550E+00 0.00000E+00
 -1       410 9.73740E+01 4.78550E+00 0.00000E+00
 -1       411 1.00374E+02 4.78550E+00 0.00000E+00
 -1       412 1.03374E+02 4.78550E+00 0.00000E+00
 -1       413 1.06374E+02 4.78550E+00 0.00000E+00
 -1       414 1.09374E+02 4.78550E+00 0.00000E+00
 -1       415 1.12374E+02 4.78550E+00 0.00000E+00
 -1       416 1.15374E+02 4.78550E+00 0.00000E+00
 -1       417 1.18374E+02 4.78550E+00 0.00000E+00
 -1       418 1.21374E+02 4.78550E+00 0.00000E+00
 -1       419 1.24374E+02 4.78550E+00 0.00000E+00
 -1       420 1.27374E+02 4.78550E+00 0.00000E+00
 -1       421 1.30374E+02 4.78550E+00 0.00000E+00
 -1       422 1.33374E+02 4.78550E+00 0.00000E+00
 -1       423 1.36374E+02 4.78550E+00 0.00000E+00
 -1       424 1.39374E+02 4.78550E+00 0.00000E+00
 -1       425 1.42374E+02 4.78550E+00 0.00000E+00
 -1       426 1.44888E+02 4.60525E+00 0.00000E+00
 -1       427 1.44804E+02 1.18000E+01 0.00000E+00
 -1       428 1.44804E+02 8.85000E+00 0.00000E+00
 -1       429 1.44804E+02 1.47000E+01 0.00000E+00
 -1       430 1.44804E+02 1.76500E+01 0.00000E+00
 -1       431 1.44804E+02 2.06000E+01 0.00000E+00
 -1       432 1.44804E+02 2.35500E+01 0.00000E+00
 -1       433 1.44804E+02 2.65000E+01 0.00000E+00
 -1       434 1.44804E+02 2.94500E+01 0.00000E+00
 -1       435 1.44804E+02 3.23500E+01 0.00000E+00
 -1       436 1.44804E+02 3.53000E+01 0.00000E+00
 -1       437 1.44804E+02 3.82500E+01 0.00000E+00
 -1       438 1.44804E+02 4.12000E+01 0.00000E+00
 -1       439 1.09545E+01 4.39587E+00 0.00000E+00
 -1       440 8.37598E+01 2.37839E+01 0.00000E+00
 -1       441 8.13259E+01 2.05180E+01 0.00000E+00
 -1       442 8.45332E+01 2.78779E+01 0.00000E+00
 -1       443 8.26327E+01 2.20811E+01 0.00000E+00
 -1       444 5.19600E+00 3.82125E+01 0.00000E+00
 -1       445 7.94635E+01 1.93939E+01 0.00000E+00
 -1       446 7.76182E+01 1.86592E+01 0.00000E+00
 -1       447 7.53406E+01 1.82995E+01 0.00000E+00
 -1       448 7.33582E+01 1.80449E+01 0.00000E+00
 -1       449 7.12111E+01 1.88363E+01 0.00000E+00
 -1       450 6.94636E+01 1.99827E+01 0.00000E+00
 -1       451 6.79582E+01 2.12197E+01 0.00000E+00
 -1       452 6.69116E+01 2.26251E+01 0.00000E+00
 -1       453 6.57398E+01 2.47825E+01 0.00000E+00
 -1       454 6.52835E+01 2.65420E+01 0.00000E+00
 -1       455 6.53854E+01 2.89313E+01 0.00000E+00
 -1       456 6.57778E+01 3.09537E+01 0.00000E+00
 -1       457 6.68569E+01 3.26298E+01 0.00000E+00
 -1       458 6.78114E+01 3.43413E+01 0.00000E+00
 -1       459 6.96787E+01 3.57428E+01 0.00000E+00
 -1       460 7.13100E+01 3.67134E+01 0.00000E+00
 -1       461 7.34938E+01 3.75458E+01 0.00000E+00
 -1       462 7.56389E+01 3.75622E+01 0.00000E+00
 -1       463 7.74376E+01 3.72168E+01 0.00000E+00
 -1       464 7.97685E+01 3.63649E+01 0.00000E+00
 -1       465 8.12391E+01 3.52905E+01 0.00000E+00
 -1       466 8.27838E+01 3.34454E+01 0.00000E+00
 -1       467 8.36952E+01 3.18847E+01 0.00000E+00
 -1       468 8.43085E+01 2.97294E+01 0.00000E+00
 -1       469 8.44471E+01 2.56711E+01 0.00000E+00
 -1       470 7.66465E+01 1.74006E+01 0.00000E+00
 -1       471 7.79400E+00 3.08500E+01 0.00000E+00
 -1       472 7.79400E+00 3.38000E+01 0.00000E+00
 -1       473 7.79400E+00 2.49500E+01 0.00000E+00
 -1       474 7.79400E+00 2.20000E+01 0.00000E+00
 -1       475 7.79400E+00 1.91000E+01 0.00000E+00
 -1       476 7.79400E+00 1.61500E+01 0.00000E+00
 -1       477 7.79400E+00 1.32000E+01 0.00000E+00
 -1       478 7.79400E+00 1.02500E+01 0.00000E+00
 -1       479 7.79400E+00 7.30000E+00 0.00000E+00
 -1       480 8.16450E+00 5.65312E+00 0.00000E+00
 -1       481 1.06500E+01 4.22060E+01 0.00000E+00
 -1       482 8.44867E+01 2.20783E+01 0.00000E+00
 -1       483 8.32951E+01 2.01994E+01 0.00000E+00
 -1       484 1.36500E+01 4.22060E+01 0.00000E+00
 -1       485 1.66500E+01 4.22060E+01 0.00000E+00
 -1       486 1.96500E+01 4.22060E+01 0.00000E+00
 -1       487 2.26500E+01 4.22060E+01 0.00000E+00
 -1       488 2.56500E+01 4.22060E+01 0.00000E+00
 -1       489 2.86500E+01 4.22060E+01 0.00000E+00
 -1       490 3.16500E+01 4.22060E+01 0.00000E+00
 -1       491 3.46500E+01 4.22060E+01 0.00000E+00
 -1       492 3.76500E+01 4.22060E+01 0.00000E+00
 -1       493 4.06500E+01 4.22060E+01 0.00000E+00
 -1       494 4.36500E+01 4.22060E+01 0.00000E+00
 -1       495 4.66500E+01 4.22060E+01 0.00000E+00
 -1       496 4.96500E+01 4.22060E+01 0.00000E+00
 -1       497 5.26500E+01 4.22060E+01 0.00000E+00
 -1       498 5.56500E+01 4.22060E+01 0.00000E+00
 -1       499 5.86500E+01 4.22060E+01 0.00000E+00
 -1       500 6.16500E+01 4.22060E+01 0.00000E+00
 -1       501 6.46500E+01 4.22060E+01 0.00000E+00
 -1       502 6.76500E+01 4.22060E+01 0.00000E+00
 -1       503 7.06500E+01 4.22060E+01 0.00000E+00
 -1       504 7.35000E+01 4.22060E+01 0.00000E+00
 -1       505 7.65000E+01 4.22060E+01 0.00000E+00
 -1       506 7.95000E+01 4.22060E+01 0.00000E+00
 -1       507 8.25000E+01 4.22060E+01 0.00000E+00
 -1       508 8.55000E+01 4.22060E+01 0.00000E+00
 -1       509 8.85000E+01 4.22060E+01 0.00000E+00
 -1       510 9.15000E+01 4.22060E+01 0.00000E+00
 -1       511 9.45000E+01 4.22060E+01 0.00000E+00
 -1       512 9.75000E+01 4.22060E+01 0.00000E+00
 -1       513 1.00500E+02 4.22060E+01 0.00000E+00
 -1       514 1.03500E+02 4.22060E+01 0.00000E+00
 -1       515 1.06500E+02 4.22060E+01 0.00000E+00
 -1       516 1.09500E+02 4.22060E+01 0.00000E+00
 -1       517 1.12500E+02 4.22060E+01 0.00000E+00
 -1       518 1.15500E+02 4.22060E+01 0.00000E+00
 -1       519 1.18500E+02 4.22060E+01 0.00000E+00
 -1       520 1.21500E+02 4.22060E+01 0.00000E+00
 -1       521 1.24500E+02 4.22060E+01 0.00000E+00
 -1       522 1.27500E+02 4.22060E+01 0.00000E+00
 -1       523 1.30500E+02 4.22060E+01 0.00000E+00
 -1       524 1.33500E+02 4.22060E+01 0.00000E+00
 -1       525 1.36500E+02 4.22060E+01 0.00000E+00
 -1       526 1.39500E+02 4.22060E+01 0.00000E+00
 -1       527 1.42152E+02 4.17030E+01 0.00000E+00
 -1       528 2.08740E+01 7.38350E+00 0.00000E+00
 -1       529 1.78740E+01 7.38350E+00 0.00000E+00
 -1       530 1.48740E+01 7.38350E+00 0.00000E+00
 -1       531 2.38740E+01 7.38350E+00 0.00000E+00
 -1       532 2.68740E+01 7.38350E+00 0.00000E+00
 -1       533 2.98740E+01 7.38350E+00 0.00000E+00
 -1       534 3.28740E+01 7.38350E+00 0.00000E+00
 -1       535 3.58740E+01 7.38350E+00 0.00000E+00
 -1       536 3.88740E+01 7.38350E+00 0.00000E+00
 -1       537 4.18740E+01 7.38350E+00 0.00000E+00
 -1       538 4.48740E+01 7.38350E+00 0.00000E+00
 -1       539 4.78740E+01 7.38350E+00 0.00000E+00
 -1       540 5.08740E+01 7.38350E+00 0.00000E+00
 -1       541 5.38740E+01 7.38350E+00 0.00000E+00
 -1       542 5.68740E+01 7.38350E+00 0.00000E+00
 -1       543 5.98740E+01 7.38350E+00 0.00000E+00
 -1       544 6.28740E+01 7.38350E+00 0.00000E+00
 -1       545 6.58740E+01 7.38350E+00 0.00000E+00
 -1       546 6.88740E+01 7.38350E+00 0.00000E+00
 -1       547 7.18740E+01 7.38350E+00 0.00000E+00
 -1       548 7.48740E+01 7.38350E+00 0.00000E+00
 -1       549 7.78740E+01 7.38350E+00 0.00000E+00
 -1       550 8.08740E+01 7.38350E+00 0.00000E+00
 -1       551 8.38740E+01 7.38350E+00 0.00000E+00
 -1       552 8.68740E+01 7.38350E+00 0.00000E+00
 -1       553 8.98740E+01 7.38350E+00 0.00000E+00
 -1       554 9.28740E+01 7.38350E+00 0.00000E+00
 -1       555 9.58740E+01 7.38350E+00 0.00000E+00
 -1       556 9.88740E+01 7.38350E+00 0.00000E+00
 -1       557 1.01874E+02 7.38350E+00 0.00000E+00
 -1       558 1.04874E+02 7.38350E+00 0.00000E+00
 -1       559 1.07874E+02 7.38350E+00 0.00000E+00
 -1       560 1.10874E+02 7.38350E+00 0.00000E+00
 -1       561 1.13874E+02 7.38350E+00 0.00000E+00
 -1       562 1.16874E+02 7.38350E+00 0.00000E+00
 -1       563 1.19874E+02 7.38350E+00 0.00000E+00
 -1       564 1.22874E+02 7.38350E+00 0.00000E+00
 -1       565 1.25874E+02 7.38350E+00 0.00000E+00
 -1       566 1.28874E+02 7.38350E+00 0.00000E+00
 -1       567 1.31874E+02 7.38350E+00 0.00000E+00
 -1       568 1.34874E+02 7.38350E+00 0.00000E+00
 -1       569 1.37874E+02 7.38350E+00 0.00000E+00
 -1       570 1.40874E+02 7.38350E+00 0.00000E+00
 -1       571 1.42206E+02 1.61750E+01 0.00000E+00
 -1       572 1.42206E+02 1.32750E+01 0.00000E+00
 -1       573 1.42206E+02 1.03250E+01 0.00000E+00
 -1       574 8.62040E+01 2.67076E+01 0.00000E+00
 -1       575 1.42206E+02 1.91250E+01 0.00000E+00
 -1       576 1.42206E+02 2.20750E+01 0.00000E+00
 -1       577 1.42206E+02 2.50250E+01 0.00000E+00
 -1       578 1.42206E+02 2.79750E+01 0.00000E+00
 -1       579 1.42206E+02 3.08750E+01 0.00000E+00
 -1       580 1.42206E+02 3.38250E+01 0.00000E+00
 -1       581 1.42206E+02 3.67750E+01 0.00000E+00
 -1       582 1.42179E+02 3.92390E+01 0.00000E+00
 -1       583 7.92300E+00 4.16780E+01 0.00000E+00
 -1       584 8.11944E+01 1.86310E+01 0.00000E+00
 -1       585 8.59571E+01 2.89901E+01 0.00000E+00
 -1       586 8.54903E+01 3.12306E+01 0.00000E+00
 -1       587 7.45558E+01 3.89339E+01 0.00000E+00
 -1       588 6.76752E+01 1.93408E+01 0.00000E+00
 -1       589 7.79400E+00 2.79000E+01 0.00000E+00
 -1       590 6.40624E+01 3.02372E+01 0.00000E+00
 -1       591 7.91133E+01 1.75888E+01 0.00000E+00
 -1       592 7.45892E+01 1.63049E+01 0.00000E+00
 -1       593 7.16336E+01 1.66741E+01 0.00000E+00
 -1       594 6.94885E+01 1.81155E+01 0.00000E+00
 -1       595 6.61265E+01 2.09480E+01 0.00000E+00
 -1       596 6.49547E+01 2.31054E+01 0.00000E+00
 -1       597 6.35270E+01 2.51476E+01 0.00000E+00
 -1       598 8.45035E+01 3.34032E+01 0.00000E+00
 -1       599 6.36209E+01 2.78098E+01 0.00000E+00
 -1       600 6.50162E+01 3.26295E+01 0.00000E+00
 -1       601 6.59707E+01 3.43410E+01 0.00000E+00
 -1       602 6.75143E+01 3.66818E+01 0.00000E+00
 -1       603 6.97459E+01 3.74860E+01 0.00000E+00
 -1       604 7.18507E+01 3.85757E+01 0.00000E+00
 -1       605 7.68301E+01 3.89093E+01 0.00000E+00
 -1       606 7.93068E+01 3.87165E+01 0.00000E+00
 -1       607 8.17133E+01 3.74832E+01 0.00000E+00
 -1       608 8.35835E+01 3.56840E+01 0.00000E+00
 -1       609 8.58724E+01 2.40832E+01 0.00000E+00
 -1       610 7.79400E+00 3.67375E+01 0.00000E+00
 -1       611 1.05840E+01 6.04275E+00 0.00000E+00
 -1       612 1.27290E+01 6.71313E+00 0.00000E+00
 -1       613 7.81416E+01 1.63302E+01 0.00000E+00
 -1       614 1.03920E+01 2.05500E+01 0.00000E+00
 -1       615 1.03920E+01 2.35000E+01 0.00000E+00
 -1       616 1.03920E+01 1.46750E+01 0.00000E+00
 -1       617 1.03920E+01 1.17250E+01 0.00000E+00
 -1       618 1.02135E+01 7.68962E+00 0.00000E+00
 -1       619 8.09219E+01 1.65764E+01 0.00000E+00
 -1       620 8.68662E+01 2.19151E+01 0.00000E+00
 -1       621 8.77857E+01 2.80333E+01 0.00000E+00
 -1       622 8.15216E+01 4.00736E+01 0.00000E+00
 -1       623 1.51500E+01 3.96080E+01 0.00000E+00
 -1       624 1.81500E+01 3.96080E+01 0.00000E+00
 -1       625 2.11500E+01 3.96080E+01 0.00000E+00
 -1       626 2.41500E+01 3.96080E+01 0.00000E+00
 -1       627 2.71500E+01 3.96080E+01 0.00000E+00
 -1       628 3.01500E+01 3.96080E+01 0.00000E+00
 -1       629 3.31500E+01 3.96080E+01 0.00000E+00
 -1       630 3.61500E+01 3.96080E+01 0.00000E+00
 -1       631 3.91500E+01 3.96080E+01 0.00000E+00
 -1       632 4.21500E+01 3.96080E+01 0.00000E+00
 -1       633 4.51500E+01 3.96080E+01 0.00000E+00
 -1       634 4.81500E+01 3.96080E+01 0.00000E+00
 -1       635 5.11500E+01 3.96080E+01 0.00000E+00
 -1       636 5.41500E+01 3.96080E+01 0.00000E+00
 -1       637 5.71500E+01 3.96080E+01 0.00000E+00
 -1       638 6.01500E+01 3.96080E+01 0.00000E+00
 -1       639 6.31500E+01 3.96080E+01 0.00000E+00
 -1       640 6.61500E+01 3.96080E+01 0.00000E+00
 -1       641 7.20750E+01 4.01557E+01 0.00000E+00
 -1       642 7.50000E+01 4.03233E+01 0.00000E+00
 -1       643 8.45216E+01 4.00736E+01 0.00000E+00
 -1       644 8.75216E+01 4.00736E+01 0.00000E+00
 -1       645 9.05216E+01 4.00736E+01 0.00000E+00
 -1       646 9.35216E+01 4.00736E+01 0.00000E+00
 -1       647 9.65216E+01 4.00736E+01 0.00000E+00
 -1       648 9.95216E+01 4.00736E+01 0.00000E+00
 -1       649 1.02522E+02 4.00736E+01 0.00000E+00
 -1       650 1.05522E+02 4.00736E+01 0.00000E+00
 -1       651 1.08522E+02 4.00736E+01 0.00000E+00
 -1       652 1.11522E+02 4.00736E+01 0.00000E+00
 -1       653 1.14522E+02 4.00736E+01 0.00000E+00
 -1       654 1.17522E+02 4.00736E+01 0.00000E+00
 -1       655 1.20522E+02 4.00736E+01 0.00000E+00
 -1       656 1.23522E+02 4.00736E+01 0.00000E+00
 -1       657 1.26522E+02 4.00736E+01 0.00000E+00
 -1       658 1.29522E+02 4.00736E+01 0.00000E+00
 -1       659 1.32522E+02 4.00736E+01 0.00000E+00
 -1       660 1.35522E+02 4.00736E+01 0.00000E+00
 -1       661 1.38522E+02 4.00736E+01 0.00000E+00
 -1       662 1.40350E+02 3.96563E+01 0.00000E+00
 -1       663 1.93740E+01 9.98150E+00 0.00000E+00
 -1       664 2.23740E+01 9.98150E+00 0.00000E+00
 -1       665 1.63740E+01 9.98150E+00 0.00000E+00
 -1       666 2.83740E+01 9.98150E+00 0.00000E+00
 -1       667 3.13740E+01 9.98150E+00 0.00000E+00
 -1       668 3.43740E+01 9.98150E+00 0.00000E+00
 -1       669 3.73740E+01 9.98150E+00 0.00000E+00
 -1       670 4.03740E+01 9.98150E+00 0.00000E+00
 -1       671 4.33740E+01 9.98150E+00 0.00000E+00
 -1       672 4.63740E+01 9.98150E+00 0.00000E+00
 -1       673 4.93740E+01 9.98150E+00 0.00000E+00
 -1       674 5.23740E+01 9.98150E+00 0.00000E+00
 -1       675 5.53740E+01 9.98150E+00 0.00000E+00
 -1       676 5.83740E+01 9.98150E+00 0.00000E+00
 -1       677 6.13740E+01 9.98150E+00 0.00000E+00
 -1       678 6.43740E+01 9.98150E+00 0.00000E+00
 -1       679 6.73740E+01 9.98150E+00 0.00000E+00
 -1       680 7.03740E+01 9.98150E+00 0.00000E+00
 -1       681 7.33740E+01 9.98150E+00 0.00000E+00
 -1       682 7.63740E+01 9.98150E+00 0.00000E+00
 -1       683 7.93740E+01 9.98150E+00 0.00000E+00
 -1       684 8.23740E+01 9.98150E+00 0.00000E+00
 -1       685 8.53740E+01 9.98150E+00 0.00000E+00
 -1       686 8.83740E+01 9.98150E+00 0.00000E+00
 -1       687 9.13740E+01 9.98150E+00 0.00000E+00
 -1       688 9.43740E+01 9.98150E+00 0.00000E+00
 -1       689 9.73740E+01 9.98150E+00 0.00000E+00
 -1       690 1.00374E+02 9.98150E+00 0.00000E+00
 -1       691 1.03374E+02 9.98150E+00 0.00000E+00
 -1       692 1.06374E+02 9.98150E+00 0.00000E+00
 -1       693 1.09374E+02 9.98150E+00 0.00000E+00
 -1       694 1.12374E+02 9.98150E+00 0.00000E+00
 -1       695 1.15374E+02 9.98150E+00 0.00000E+00
 -1       696 1.18374E+02 9.98150E+00 0.00000E+00
 -1       697 1.21374E+02 9.98150E+00 0.00000E+00
 -1       698 1.24374E+02 9.98150E+00 0.00000E+00
 -1       699 1.27374E+02 9.98150E+00 0.00000E+00
 -1       700 1.30374E+02 9.98150E+00 0.00000E+00
 -1       701 1.33374E+02 9.98150E+00 0.00000E+00
 -1       702 1.36374E+02 9.98150E+00 0.00000E+00
 -1       703 1.39290E+02 1.01532E+01 0.00000E+00
 -1       704 1.39608E+02 1.47250E+01 0.00000E+00
 -1       705 1.39608E+02 2.06000E+01 0.00000E+00
 -1       706 1.39449E+02 1.24391E+01 0.00000E+00
 -1       707 1.39608E+02 1.76625E+01 0.00000E+00
 -1       708 1.39608E+02 2.65000E+01 0.00000E+00
 -1       709 1.39608E+02 2.94000E+01 0.00000E+00
 -1       710 1.39608E+02 3.23500E+01 0.00000E+00
 -1       711 1.39608E+02 3.53000E+01 0.00000E+00
 -1       712 8.56746E+01 2.00362E+01 0.00000E+00
 -1       713 8.79060E+01 2.51595E+01 0.00000E+00
 -1       714 6.18245E+01 2.93904E+01 0.00000E+00
 -1       715 8.64822E+01 3.29915E+01 0.00000E+00
 -1       716 6.76216E+01 1.73070E+01 0.00000E+00
 -1       717 7.00098E+01 3.95540E+01 0.00000E+00
 -1       718 6.96045E+01 1.59712E+01 0.00000E+00
 -1       719 6.29039E+01 2.31918E+01 0.00000E+00
 -1       720 1.39608E+02 2.35500E+01 0.00000E+00
 -1       721 1.21500E+01 3.96080E+01 0.00000E+00
 -1       722 8.74028E+01 3.04602E+01 0.00000E+00
 -1       723 7.60843E+01 1.52344E+01 0.00000E+00
 -1       724 8.33710E+01 1.79066E+01 0.00000E+00
 -1       725 6.17306E+01 2.67282E+01 0.00000E+00
 -1       726 6.55451E+01 1.88381E+01 0.00000E+00
 -1       727 7.28780E+01 1.46213E+01 0.00000E+00
 -1       728 6.40757E+01 2.10345E+01 0.00000E+00
 -1       729 8.39536E+01 3.79404E+01 0.00000E+00
 -1       730 1.03920E+01 1.76125E+01 0.00000E+00
 -1       731 6.29461E+01 3.20685E+01 0.00000E+00
 -1       732 6.39955E+01 3.43206E+01 0.00000E+00
 -1       733 6.51708E+01 3.65479E+01 0.00000E+00
 -1       734 1.03920E+01 3.23250E+01 0.00000E+00
 -1       735 2.53740E+01 9.98150E+00 0.00000E+00
 -1       736 8.56341E+01 3.51852E+01 0.00000E+00
 -1       737 1.03920E+01 2.64500E+01 0.00000E+00
 -1       738 7.99502E+01 1.53178E+01 0.00000E+00
 -1       739 6.11074E+01 2.47724E+01 0.00000E+00
 -1       740 8.88998E+01 2.29913E+01 0.00000E+00
 -1       741 8.60042E+01 3.74415E+01 0.00000E+00
 -1       742 1.03920E+01 3.52625E+01 0.00000E+00
 -1       743 7.08489E+01 1.39184E+01 0.00000E+00
 -1       744 1.39979E+02 3.74781E+01 0.00000E+00
 -1       745 1.33741E+01 9.98153E+00 0.00000E+00
 -1       746 7.43731E+01 1.35509E+01 0.00000E+00
 -1       747 1.03920E+01 2.93875E+01 0.00000E+00
 -1       748 1.05210E+01 3.87342E+01 0.00000E+00
 -1       749 6.80486E+01 3.86975E+01 0.00000E+00
 -1       750 1.29900E+01 1.32000E+01 0.00000E+00
 -1       751 1.96500E+01 3.70100E+01 0.00000E+00
 -1       752 2.26500E+01 3.70100E+01 0.00000E+00
 -1       753 2.56500E+01 3.70100E+01 0.00000E+00
 -1       754 2.86500E+01 3.70100E+01 0.00000E+00
 -1       755 3.16500E+01 3.70100E+01 0.00000E+00
 -1       756 3.46500E+01 3.70100E+01 0.00000E+00
 -1       757 3.76500E+01 3.70100E+01 0.00000E+00
 -1       758 4.06500E+01 3.70100E+01 0.00000E+00
 -1       759 4.36500E+01 3.70100E+01 0.00000E+00
 -1       760 4.66500E+01 3.70100E+01 0.00000E+00
 -1       761 4.96500E+01 3.70100E+01 0.00000E+00
 -1       762 5.26500E+01 3.70100E+01 0.00000E+00
 -1       763 5.56500E+01 3.70100E+01 0.00000E+00
 -1       764 5.86500E+01 3.70100E+01 0.00000E+00
 -1       765 6.16500E+01 3.70100E+01 0.00000E+00
 -1       766 1.27710E+01 3.74352E+01 0.00000E+00
 -1       767 6.75611E+01 1.50777E+01 0.00000E+00
 -1       768 8.90216E+01 3.74756E+01 0.00000E+00
 -1       769 9.20216E+01 3.74756E+01 0.00000E+00
 -1       770 9.50216E+01 3.74756E+01 0.00000E+00
 -1       771 9.80216E+01 3.74756E+01 0.00000E+00
 -1       772 1.01022E+02 3.74756E+01 0.00000E+00
 -1       773 1.04022E+02 3.74756E+01 0.00000E+00
 -1       774 1.07022E+02 3.74756E+01 0.00000E+00
 -1       775 1.10022E+02 3.74756E+01 0.00000E+00
 -1       776 1.13022E+02 3.74756E+01 0.00000E+00
 -1       777 1.16022E+02 3.74756E+01 0.00000E+00
 -1       778 1.19022E+02 3.74756E+01 0.00000E+00
 -1       779 1.22022E+02 3.74756E+01 0.00000E+00
 -1       780 1.25022E+02 3.74756E+01 0.00000E+00
 -1       781 1.28022E+02 3.74756E+01 0.00000E+00
 -1       782 1.31022E+02 3.74756E+01 0.00000E+00
 -1       783 1.34022E+02 3.74756E+01 0.00000E+00
 -1       784 2.08740E+01 1.25795E+01 0.00000E+00
 -1       785 1.78740E+01 1.25795E+01 0.00000E+00
 -1       786 3.28740E+01 1.25795E+01 0.00000E+00
 -1       787 2.98740E+01 1.25795E+01 0.00000E+00
 -1       788 3.88740E+01 1.25795E+01 0.00000E+00
 -1       789 4.18740E+01 1.25795E+01 0.00000E+00
 -1       790 4.48740E+01 1.25795E+01 0.00000E+00
 -1       791 4.78740E+01 1.25795E+01 0.00000E+00
 -1       792 5.08740E+01 1.25795E+01 0.00000E+00
 -1       793 5.38740E+01 1.25795E+01 0.00000E+00
 -1       794 5.68740E+01 1.25795E+01 0.00000E+00
 -1       795 5.98740E+01 1.25795E+01 0.00000E+00
 -1       796 6.28740E+01 1.25795E+01 0.00000E+00
 -1       797 6.58740E+01 1.25795E+01 0.00000E+00
 -1       798 7.48740E+01 1.21993E+01 0.00000E+00
 -1       799 7.78740E+01 1.21993E+01 0.00000E+00
 -1       800 8.08740E+01 1.21993E+01 0.00000E+00
 -1       801 8.38740E+01 1.21993E+01 0.00000E+00
 -1       802 8.68740E+01 1.21993E+01 0.00000E+00
 -1       803 8.98740E+01 1.21993E+01 0.00000E+00
 -1       804 9.28740E+01 1.21993E+01 0.00000E+00
 -1       805 9.58740E+01 1.21993E+01 0.00000E+00
 -1       806 9.88740E+01 1.21993E+01 0.00000E+00
 -1       807 1.01874E+02 1.21993E+01 0.00000E+00
 -1       808 1.04874E+02 1.21993E+01 0.00000E+00
 -1       809 1.07874E+02 1.21993E+01 0.00000E+00
 -1       810 1.10874E+02 1.21993E+01 0.00000E+00
 -1       811 1.13874E+02 1.21993E+01 0.00000E+00
 -1       812 1.16874E+02 1.21993E+01 0.00000E+00
 -1       813 1.19874E+02 1.21993E+01 0.00000E+00
 -1       814 1.22874E+02 1.21993E+01 0.00000E+00
 -1       815 1.25874E+02 1.21993E+01 0.00000E+00
 -1       816 1.28874E+02 1.21993E+01 0.00000E+00
 -1       817 1.31874E+02 1.21993E+01 0.00000E+00
 -1       818 1.34874E+02 1.21993E+01 0.00000E+00
 -1       819 1.37161E+02 1.23192E+01 0.00000E+00
 -1       820 1.37010E+02 3.08750E+01 0.00000E+00
 -1       821 6.06488E+01 3.14567E+01 0.00000E+00
 -1       822 6.18354E+01 2.12145E+01 0.00000E+00
 -1       823 1.37010E+02 3.38250E+01 0.00000E+00
 -1       824 1.37010E+02 2.79750E+01 0.00000E+00
 -1       825 8.82848E+01 1.96980E+01 0.00000E+00
 -1       826 6.00635E+01 2.81197E+01 0.00000E+00
 -1       827 8.94539E+01 2.95402E+01 0.00000E+00
 -1       828 1.37010E+02 2.50250E+01 0.00000E+00
 -1       829 8.85543E+01 3.23120E+01 0.00000E+00
 -1       830 1.37010E+02 2.20750E+01 0.00000E+00
 -1       831 3.58740E+01 1.25795E+01 0.00000E+00
 -1       832 8.60283E+01 1.73429E+01 0.00000E+00
 -1       833 1.66500E+01 3.70100E+01 0.00000E+00
 -1       834 7.78798E+01 1.43425E+01 0.00000E+00
 -1       835 8.31250E+01 1.54398E+01 0.00000E+00
 -1       836 6.28278E+01 1.86098E+01 0.00000E+00
 -1       837 8.98943E+01 2.66821E+01 0.00000E+00
 -1       838 8.78142E+01 3.47672E+01 0.00000E+00
 -1       839 1.29900E+01 2.20250E+01 0.00000E+00
 -1       840 6.11494E+01 3.42334E+01 0.00000E+00
 -1       841 6.53666E+01 1.64224E+01 0.00000E+00
 -1       842 5.94403E+01 2.61639E+01 0.00000E+00
 -1       843 1.29900E+01 2.49750E+01 0.00000E+00
 -1       844 2.68740E+01 1.25795E+01 0.00000E+00
 -1       845 2.38740E+01 1.25795E+01 0.00000E+00
 -1       846 1.37022E+02 3.74756E+01 0.00000E+00
 -1       847 6.84892E+01 1.29764E+01 0.00000E+00
 -1       848 5.88878E+01 3.01861E+01 0.00000E+00
 -1       849 1.37010E+02 1.91375E+01 0.00000E+00
 -1       850 1.29900E+01 3.37938E+01 0.00000E+00
 -1       851 1.29900E+01 1.61375E+01 0.00000E+00
 -1       852 1.48741E+01 1.25795E+01 0.00000E+00
 -1       853 1.37320E+02 1.46051E+01 0.00000E+00
 -1       854 9.08881E+01 2.45139E+01 0.00000E+00
 -1       855 1.29900E+01 3.08563E+01 0.00000E+00
 -1       856 1.29900E+01 1.90812E+01 0.00000E+00
 -1       857 6.00390E+01 2.27951E+01 0.00000E+00
 -1       858 1.37165E+02 1.68713E+01 0.00000E+00
 -1       859 2.11500E+01 3.44120E+01 0.00000E+00
 -1       860 4.63740E+01 1.51775E+01 0.00000E+00
 -1       861 2.41500E+01 3.44120E+01 0.00000E+00
 -1       862 2.71500E+01 3.44120E+01 0.00000E+00
 -1       863 3.01500E+01 3.44120E+01 0.00000E+00
 -1       864 3.31500E+01 3.44120E+01 0.00000E+00
 -1       865 3.61500E+01 3.44120E+01 0.00000E+00
 -1       866 3.91500E+01 3.44120E+01 0.00000E+00
 -1       867 4.21500E+01 3.44120E+01 0.00000E+00
 -1       868 4.51500E+01 3.44120E+01 0.00000E+00
 -1       869 4.81500E+01 3.44120E+01 0.00000E+00
 -1       870 5.11500E+01 3.44120E+01 0.00000E+00
 -1       871 5.41500E+01 3.44120E+01 0.00000E+00
 -1       872 5.71500E+01 3.44120E+01 0.00000E+00
 -1       873 1.93740E+01 1.51775E+01 0.00000E+00
 -1       874 9.05216E+01 3.48776E+01 0.00000E+00
 -1       875 1.63741E+01 1.51775E+01 0.00000E+00
 -1       876 9.35216E+01 3.48776E+01 0.00000E+00
 -1       877 9.65216E+01 3.48776E+01 0.00000E+00
 -1       878 9.95216E+01 3.48776E+01 0.00000E+00
 -1       879 1.02522E+02 3.48776E+01 0.00000E+00
 -1       880 1.05522E+02 3.48776E+01 0.00000E+00
 -1       881 1.08522E+02 3.48776E+01 0.00000E+00
 -1       882 1.11522E+02 3.48776E+01 0.00000E+00
 -1       883 1.14522E+02 3.48776E+01 0.00000E+00
 -1       884 1.17522E+02 3.48776E+01 0.00000E+00
 -1       885 1.20522E+02 3.48776E+01 0.00000E+00
 -1       886 1.23522E+02 3.48776E+01 0.00000E+00
 -1       887 1.26522E+02 3.48776E+01 0.00000E+00
 -1       888 1.29522E+02 3.48776E+01 0.00000E+00
 -1       889 1.32522E+02 3.48776E+01 0.00000E+00
 -1       890 1.46820E+01 1.56575E+01 0.00000E+00
 -1       891 8.60009E+01 1.42185E+01 0.00000E+00
 -1       892 4.33740E+01 1.51775E+01 0.00000E+00
 -1       893 4.03740E+01 1.51775E+01 0.00000E+00
 -1       894 4.93740E+01 1.51775E+01 0.00000E+00
 -1       895 5.23740E+01 1.51775E+01 0.00000E+00
 -1       896 5.53740E+01 1.51775E+01 0.00000E+00
 -1       897 5.83740E+01 1.51775E+01 0.00000E+00
 -1       898 6.13740E+01 1.51775E+01 0.00000E+00
 -1       899 8.90009E+01 1.42185E+01 0.00000E+00
 -1       900 9.20009E+01 1.42185E+01 0.00000E+00
 -1       901 9.50009E+01 1.42185E+01 0.00000E+00
 -1       902 9.80009E+01 1.42185E+01 0.00000E+00
 -1       903 1.01001E+02 1.42185E+01 0.00000E+00
 -1       904 1.04001E+02 1.42185E+01 0.00000E+00
 -1       905 1.07001E+02 1.42185E+01 0.00000E+00
 -1       906 1.10001E+02 1.42185E+01 0.00000E+00
 -1       907 1.13001E+02 1.42185E+01 0.00000E+00
 -1       908 1.16001E+02 1.42185E+01 0.00000E+00
 -1       909 1.19001E+02 1.42185E+01 0.00000E+00
 -1       910 1.22001E+02 1.42185E+01 0.00000E+00
 -1       911 1.25001E+02 1.42185E+01 0.00000E+00
 -1       912 1.28001E+02 1.42185E+01 0.00000E+00
 -1       913 1.31001E+02 1.42185E+01 0.00000E+00
 -1       914 1.34001E+02 1.42185E+01 0.00000E+00
 -1       915 1.34412E+02 3.23500E+01 0.00000E+00
 -1       916 1.34412E+02 2.94500E+01 0.00000E+00
 -1       917 9.11461E+01 2.08678E+01 0.00000E+00
 -1       918 9.14212E+01 3.21057E+01 0.00000E+00
 -1       919 3.13740E+01 1.51775E+01 0.00000E+00
 -1       920 6.02591E+01 1.91226E+01 0.00000E+00
 -1       921 1.81500E+01 3.44120E+01 0.00000E+00
 -1       922 1.29900E+01 2.79188E+01 0.00000E+00
 -1       923 1.34412E+02 2.65000E+01 0.00000E+00
 -1       924 9.20317E+01 2.84745E+01 0.00000E+00
 -1       925 8.90000E+01 1.67543E+01 0.00000E+00
 -1       926 1.34412E+02 2.35500E+01 0.00000E+00
 -1       927 1.55700E+01 3.26341E+01 0.00000E+00
 -1       928 5.77984E+01 2.77643E+01 0.00000E+00
 -1       929 1.55880E+01 2.35000E+01 0.00000E+00
 -1       930 2.83740E+01 1.51775E+01 0.00000E+00
 -1       931 2.23740E+01 1.51775E+01 0.00000E+00
 -1       932 1.55880E+01 2.05562E+01 0.00000E+00
 -1       933 1.35661E+02 1.44118E+01 0.00000E+00
 -1       934 5.85686E+01 3.24840E+01 0.00000E+00
 -1       935 1.34412E+02 2.06125E+01 0.00000E+00
 -1       936 9.18613E+01 1.79240E+01 0.00000E+00
 -1       937 5.84627E+01 2.07032E+01 0.00000E+00
 -1       938 3.43740E+01 1.51775E+01 0.00000E+00
 -1       939 3.73740E+01 1.51775E+01 0.00000E+00
 -1       940 9.30254E+01 2.63063E+01 0.00000E+00
 -1       941 5.83718E+01 2.41866E+01 0.00000E+00
 -1       942 1.35505E+02 1.66780E+01 0.00000E+00
 -1       943 1.55880E+01 2.64438E+01 0.00000E+00
 -1       944 5.08740E+01 1.77755E+01 0.00000E+00
 -1       945 2.56500E+01 3.18140E+01 0.00000E+00
 -1       946 2.86500E+01 3.18140E+01 0.00000E+00
 -1       947 3.16500E+01 3.18140E+01 0.00000E+00
 -1       948 3.46500E+01 3.18140E+01 0.00000E+00
 -1       949 3.76500E+01 3.18140E+01 0.00000E+00
 -1       950 4.06500E+01 3.18140E+01 0.00000E+00
 -1       951 4.36500E+01 3.18140E+01 0.00000E+00
 -1       952 4.66500E+01 3.18140E+01 0.00000E+00
 -1       953 4.96500E+01 3.18140E+01 0.00000E+00
 -1       954 5.26500E+01 3.18140E+01 0.00000E+00
 -1       955 5.56500E+01 3.18140E+01 0.00000E+00
 -1       956 1.78740E+01 1.77755E+01 0.00000E+00
 -1       957 9.50216E+01 3.22796E+01 0.00000E+00
 -1       958 9.80216E+01 3.22796E+01 0.00000E+00
 -1       959 1.01022E+02 3.22796E+01 0.00000E+00
 -1       960 1.04022E+02 3.22796E+01 0.00000E+00
 -1       961 1.07022E+02 3.22796E+01 0.00000E+00
 -1       962 1.10022E+02 3.22796E+01 0.00000E+00
 -1       963 1.13022E+02 3.22796E+01 0.00000E+00
 -1       964 1.16022E+02 3.22796E+01 0.00000E+00
 -1       965 1.19022E+02 3.22796E+01 0.00000E+00
 -1       966 1.22022E+02 3.22796E+01 0.00000E+00
 -1       967 1.25022E+02 3.22796E+01 0.00000E+00
 -1       968 1.28022E+02 3.22796E+01 0.00000E+00
 -1       969 1.31022E+02 3.22796E+01 0.00000E+00
 -1       970 2.26500E+01 3.18140E+01 0.00000E+00
 -1       971 4.48740E+01 1.77755E+01 0.00000E+00
 -1       972 4.78740E+01 1.77755E+01 0.00000E+00
 -1       973 4.18740E+01 1.77755E+01 0.00000E+00
 -1       974 5.38740E+01 1.77755E+01 0.00000E+00
 -1       975 5.68740E+01 1.77755E+01 0.00000E+00
 -1       976 9.65009E+01 1.68165E+01 0.00000E+00
 -1       977 9.95009E+01 1.68165E+01 0.00000E+00
 -1       978 1.02501E+02 1.68165E+01 0.00000E+00
 -1       979 1.05501E+02 1.68165E+01 0.00000E+00
 -1       980 1.08501E+02 1.68165E+01 0.00000E+00
 -1       981 1.11501E+02 1.68165E+01 0.00000E+00
 -1       982 1.14501E+02 1.68165E+01 0.00000E+00
 -1       983 1.17501E+02 1.68165E+01 0.00000E+00
 -1       984 1.20501E+02 1.68165E+01 0.00000E+00
 -1       985 1.23501E+02 1.68165E+01 0.00000E+00
 -1       986 1.26501E+02 1.68165E+01 0.00000E+00
 -1       987 1.29501E+02 1.68165E+01 0.00000E+00
 -1       988 1.32501E+02 1.68165E+01 0.00000E+00
 -1       989 5.64733E+01 2.98162E+01 0.00000E+00
 -1       990 5.67299E+01 2.57870E+01 0.00000E+00
 -1       991 1.96500E+01 3.18140E+01 0.00000E+00
 -1       992 2.53740E+01 1.51775E+01 0.00000E+00
 -1       993 9.37483E+01 3.06300E+01 0.00000E+00
 -1       994 1.31814E+02 2.79750E+01 0.00000E+00
 -1       995 1.55880E+01 2.93813E+01 0.00000E+00
 -1       996 1.31814E+02 2.50250E+01 0.00000E+00
 -1       997 1.51350E+01 1.81069E+01 0.00000E+00
 -1       998 9.36086E+01 2.28743E+01 0.00000E+00
 -1       999 9.47420E+01 2.84618E+01 0.00000E+00
 -1      1000 2.08740E+01 1.77755E+01 0.00000E+00
 -1      1001 9.43238E+01 1.99305E+01 0.00000E+00
 -1      1002 1.31814E+02 2.20875E+01 0.00000E+00
 -1      1003 5.54048E+01 2.78389E+01 0.00000E+00
 -1      1004 5.67956E+01 2.20947E+01 0.00000E+00
 -1      1005 3.88740E+01 1.77755E+01 0.00000E+00
 -1      1006 3.28740E+01 1.77755E+01 0.00000E+00
 -1      1007 1.81860E+01 2.20281E+01 0.00000E+00
 -1      1008 2.98740E+01 1.77755E+01 0.00000E+00
 -1      1009 1.81860E+01 2.49719E+01 0.00000E+00
 -1      1010 3.01500E+01 2.92160E+01 0.00000E+00
 -1      1011 3.31500E+01 2.92160E+01 0.00000E+00
 -1      1012 3.61500E+01 2.92160E+01 0.00000E+00
 -1      1013 3.91500E+01 2.92160E+01 0.00000E+00
 -1      1014 4.21500E+01 2.92160E+01 0.00000E+00
 -1      1015 4.51500E+01 2.92160E+01 0.00000E+00
 -1      1016 4.81500E+01 2.92160E+01 0.00000E+00
 -1      1017 5.11500E+01 2.92160E+01 0.00000E+00
 -1      1018 5.38116E+01 2.95161E+01 0.00000E+00
 -1      1019 2.41500E+01 2.92160E+01 0.00000E+00
 -1      1020 9.95216E+01 2.96816E+01 0.00000E+00
 -1      1021 1.02522E+02 2.96816E+01 0.00000E+00
 -1      1022 1.05522E+02 2.96816E+01 0.00000E+00
 -1      1023 1.08522E+02 2.96816E+01 0.00000E+00
 -1      1024 1.11522E+02 2.96816E+01 0.00000E+00
 -1      1025 1.14522E+02 2.96816E+01 0.00000E+00
 -1      1026 1.17522E+02 2.96816E+01 0.00000E+00
 -1      1027 1.20522E+02 2.96816E+01 0.00000E+00
 -1      1028 1.23522E+02 2.96816E+01 0.00000E+00
 -1      1029 1.26522E+02 2.96816E+01 0.00000E+00
 -1      1030 1.29168E+02 2.88283E+01 0.00000E+00
 -1      1031 4.33740E+01 2.03735E+01 0.00000E+00
 -1      1032 1.04001E+02 1.94145E+01 0.00000E+00
 -1      1033 1.01001E+02 1.94145E+01 0.00000E+00
 -1      1034 9.80009E+01 1.94145E+01 0.00000E+00
 -1      1035 1.07001E+02 1.94145E+01 0.00000E+00
 -1      1036 1.10001E+02 1.94145E+01 0.00000E+00
 -1      1037 1.13001E+02 1.94145E+01 0.00000E+00
 -1      1038 1.16001E+02 1.94145E+01 0.00000E+00
 -1      1039 1.19001E+02 1.94145E+01 0.00000E+00
 -1      1040 1.22001E+02 1.94145E+01 0.00000E+00
 -1      1041 1.25001E+02 1.94145E+01 0.00000E+00
 -1      1042 1.28001E+02 1.94145E+01 0.00000E+00
 -1      1043 2.11500E+01 2.92160E+01 0.00000E+00
 -1      1044 5.51537E+01 2.36950E+01 0.00000E+00
 -1      1045 2.71500E+01 2.92160E+01 0.00000E+00
 -1      1046 3.58740E+01 1.77755E+01 0.00000E+00
 -1      1047 9.66350E+01 3.01558E+01 0.00000E+00
 -1      1048 5.23740E+01 2.03735E+01 0.00000E+00
 -1      1049 9.58783E+01 2.50255E+01 0.00000E+00
 -1      1050 1.81860E+01 2.79094E+01 0.00000E+00
 -1      1051 1.29168E+02 2.58783E+01 0.00000E+00
 -1      1052 5.53348E+01 1.99351E+01 0.00000E+00
 -1      1053 1.30657E+02 1.94520E+01 0.00000E+00
 -1      1054 2.38740E+01 1.77755E+01 0.00000E+00
 -1      1055 9.65935E+01 2.20818E+01 0.00000E+00
 -1      1056 2.17261E+01 2.12899E+01 0.00000E+00
 -1      1057 4.63740E+01 2.03735E+01 0.00000E+00
 -1      1058 1.29168E+02 2.29408E+01 0.00000E+00
 -1      1059 2.17261E+01 2.42337E+01 0.00000E+00
 -1      1060 5.38285E+01 2.57470E+01 0.00000E+00
 -1      1061 4.93740E+01 2.03735E+01 0.00000E+00
 -1      1062 4.03740E+01 2.03735E+01 0.00000E+00
 -1      1063 2.68740E+01 1.77755E+01 0.00000E+00
 -1      1064 3.13740E+01 2.03735E+01 0.00000E+00
 -1      1065 3.43740E+01 2.03735E+01 0.00000E+00
 -1      1066 3.46500E+01 2.66180E+01 0.00000E+00
 -1      1067 3.76500E+01 2.66180E+01 0.00000E+00
 -1      1068 4.06500E+01 2.66180E+01 0.00000E+00
 -1      1069 4.36500E+01 2.66180E+01 0.00000E+00
 -1      1070 4.66500E+01 2.66180E+01 0.00000E+00
 -1      1071 4.96500E+01 2.66180E+01 0.00000E+00
 -1      1072 5.25274E+01 2.72285E+01 0.00000E+00
 -1      1073 1.02501E+02 2.20125E+01 0.00000E+00
 -1      1074 1.04022E+02 2.70836E+01 0.00000E+00
 -1      1075 1.07022E+02 2.70836E+01 0.00000E+00
 -1      1076 1.10022E+02 2.70836E+01 0.00000E+00
 -1      1077 1.13022E+02 2.70836E+01 0.00000E+00
 -1      1078 1.16022E+02 2.70836E+01 0.00000E+00
 -1      1079 1.19022E+02 2.70836E+01 0.00000E+00
 -1      1080 1.22022E+02 2.70836E+01 0.00000E+00
 -1      1081 1.25022E+02 2.70836E+01 0.00000E+00
 -1      1082 1.27095E+02 2.64809E+01 0.00000E+00
 -1      1083 1.08501E+02 2.20125E+01 0.00000E+00
 -1      1084 1.05501E+02 2.20125E+01 0.00000E+00
 -1      1085 9.95472E+01 2.20471E+01 0.00000E+00
 -1      1086 1.11501E+02 2.20125E+01 0.00000E+00
 -1      1087 1.14501E+02 2.20125E+01 0.00000E+00
 -1      1088 1.17501E+02 2.20125E+01 0.00000E+00
 -1      1089 1.20501E+02 2.20125E+01 0.00000E+00
 -1      1090 1.23501E+02 2.20125E+01 0.00000E+00
 -1      1091 1.26501E+02 2.20125E+01 0.00000E+00
 -1      1092 2.86500E+01 2.66180E+01 0.00000E+00
 -1      1093 2.56500E+01 2.66180E+01 0.00000E+00
 -1      1094 3.73740E+01 2.03735E+01 0.00000E+00
 -1      1095 2.14380E+01 2.67248E+01 0.00000E+00
 -1      1096 1.01022E+02 2.70836E+01 0.00000E+00
 -1      1097 3.16500E+01 2.66180E+01 0.00000E+00
 -1      1098 9.77712E+01 2.67195E+01 0.00000E+00
 -1      1099 2.83740E+01 2.03735E+01 0.00000E+00
 -1      1100 5.16013E+01 2.30602E+01 0.00000E+00
 -1      1101 2.50168E+01 2.08876E+01 0.00000E+00
 -1      1102 4.48740E+01 2.29715E+01 0.00000E+00
 -1      1103 9.86592E+01 2.43833E+01 0.00000E+00
 -1      1104 4.18740E+01 2.29715E+01 0.00000E+00
 -1      1105 2.98740E+01 2.29715E+01 0.00000E+00
 -1      1106 3.28740E+01 2.29715E+01 0.00000E+00
 -1      1107 3.61500E+01 2.40200E+01 0.00000E+00
 -1      1108 1.10001E+02 2.46105E+01 0.00000E+00
 -1      1109 3.91500E+01 2.40200E+01 0.00000E+00
 -1      1110 1.27406E+02 2.36849E+01 0.00000E+00
 -1      1111 4.78740E+01 2.29715E+01 0.00000E+00
 -1      1112 1.13001E+02 2.46105E+01 0.00000E+00
 -1      1113 1.16001E+02 2.46105E+01 0.00000E+00
 -1      1114 1.19001E+02 2.46105E+01 0.00000E+00
 -1      1115 1.22001E+02 2.46105E+01 0.00000E+00
 -1      1116 1.24703E+02 2.41477E+01 0.00000E+00
 -1      1117 1.05522E+02 2.44856E+01 0.00000E+00
 -1      1118 2.71500E+01 2.40200E+01 0.00000E+00
 -1      1119 5.06256E+01 2.48391E+01 0.00000E+00
 -1      1120 1.02090E+02 2.44344E+01 0.00000E+00
 -1      1121 0.00000E+00 4.85250E+01 0.00000E+00
 -1      1122 0.00000E+00 4.55750E+01 0.00000E+00
 -1      1123 0.00000E+00 4.26250E+01 0.00000E+00
 -1      1124 0.00000E+00 3.96750E+01 0.00000E+00
 -1      1125 0.00000E+00 3.67250E+01 0.00000E+00
 -1      1126 0.00000E+00 3.38000E+01 0.00000E+00
 -1      1127 0.00000E+00 3.08750E+01 0.00000E+00
 -1      1128 0.00000E+00 2.79250E+01 0.00000E+00
 -1      1129 0.00000E+00 2.49750E+01 0.00000E+00
 -1      1130 0.00000E+00 2.20250E+01 0.00000E+00
 -1      1131 0.00000E+00 1.90750E+01 0.00000E+00
 -1      1132 0.00000E+00 1.61500E+01 0.00000E+00
 -1      1133 0.00000E+00 1.32250E+01 0.00000E+00
 -1      1134 0.00000E+00 1.02750E+01 0.00000E+00
 -1      1135 0.00000E+00 7.32500E+00 0.00000E+00
 -1      1136 0.00000E+00 4.37500E+00 0.00000E+00
 -1      1137 0.00000E+00 1.45000E+00 0.00000E+00
 -1      1138 1.57500E+00 5.00000E+01 0.00000E+00
 -1      1139 4.65000E+00 5.00000E+01 0.00000E+00
 -1      1140 7.65000E+00 5.00000E+01 0.00000E+00
 -1      1141 1.06500E+01 5.00000E+01 0.00000E+00
 -1      1142 1.36500E+01 5.00000E+01 0.00000E+00
 -1      1143 1.66500E+01 5.00000E+01 0.00000E+00
 -1      1144 1.96500E+01 5.00000E+01 0.00000E+00
 -1      1145 2.26500E+01 5.00000E+01 0.00000E+00
 -1      1146 2.56500E+01 5.00000E+01 0.00000E+00
 -1      1147 2.86500E+01 5.00000E+01 0.00000E+00
 -1      1148 3.16500E+01 5.00000E+01 0.00000E+00
 -1      1149 3.46500E+01 5.00000E+01 0.00000E+00
 -1      1150 3.76500E+01 5.00000E+01 0.00000E+00
 -1      1151 4.06500E+01 5.00000E+01 0.00000E+00
 -1      1152 4.36500E+01 5.00000E+01 0.00000E+00
 -1      1153 4.66500E+01 5.00000E+01 0.00000E+00
 -1      1154 4.96500E+01 5.00000E+01 0.00000E+00
 -1      1155 5.26500E+01 5.00000E+01 0.00000E+00
 -1      1156 5.56500E+01 5.00000E+01 0.00000E+00
 -1      1157 5.86500E+01 5.00000E+01 0.00000E+00
 -1      1158 6.16500E+01 5.00000E+01 0.00000E+00
 -1      1159 6.46500E+01 5.00000E+01 0.00000E+00
 -1      1160 6.76500E+01 5.00000E+01 0.00000E+00
 -1      1161 7.06500E+01 5.00000E+01 0.00000E+00
 -1      1162 7.36500E+01 5.00000E+01 0.00000E+00
 -1      1163 7.65750E+01 5.00000E+01 0.00000E+00
 -1      1164 7.95000E+01 5.00000E+01 0.00000E+00
 -1      1165 8.25000E+01 5.00000E+01 0.00000E+00
 -1      1166 8.55000E+01 5.00000E+01 0.00000E+00
 -1      1167 8.85000E+01 5.00000E+01 0.00000E+00
 -1      1168 9.15000E+01 5.00000E+01 0.00000E+00
 -1      1169 9.45000E+01 5.00000E+01 0.00000E+00
 -1      1170 9.75000E+01 5.00000E+01 0.00000E+00
 -1      1171 1.00500E+02 5.00000E+01 0.00000E+00
 -1      1172 1.03500E+02 5.00000E+01 0.00000E+00
 -1      1173 1.06500E+02 5.00000E+01 0.00000E+00
 -1      1174 1.09500E+02 5.00000E+01 0.00000E+00
 -1      1175 1.12500E+02 5.00000E+01 0.00000E+00
 -1      1176 1.15500E+02 5.00000E+01 0.00000E+00
 -1      1177 1.18500E+02 5.00000E+01 0.00000E+00
 -1      1178 1.21500E+02 5.00000E+01 0.00000E+00
 -1      1179 1.24500E+02 5.00000E+01 0.00000E+00
 -1      1180 1.27500E+02 5.00000E+01 0.00000E+00
 -1      1181 1.30500E+02 5.00000E+01 0.00000E+00
 -1      1182 1.33500E+02 5.00000E+01 0.00000E+00
 -1      1183 1.36500E+02 5.00000E+01 0.00000E+00
 -1      1184 1.39500E+02 5.00000E+01 0.00000E+00
 -1      1185 1.42500E+02 5.00000E+01 0.00000E+00
 -1      1186 1.45500E+02 5.00000E+01 0.00000E+00
 -1      1187 1.48500E+02 5.00000E+01 0.00000E+00
 -1      1188 1.57500E+00 0.00000E+00 0.00000E+00
 -1      1189 4.65000E+00 0.00000E+00 0.00000E+00
 -1      1190 7.65000E+00 0.00000E+00 0.00000E+00
 -1      1191 1.06500E+01 0.00000E+00 0.00000E+00
 -1      1192 1.36500E+01 0.00000E+00 0.00000E+00
 -1      1193 1.66500E+01 0.00000E+00 0.00000E+00
 -1      1194 1.96500E+01 0.00000E+00 0.00000E+00
 -1      1195 2.26500E+01 0.00000E+00 0.00000E+00
 -1      1196 2.56500E+01 0.00000E+00 0.00000E+00
 -1      1197 2.86500E+01 0.00000E+00 0.00000E+00
 -1      1198 3.16500E+01 0.00000E+00 0.00000E+00
 -1      1199 3.46500E+01 0.00000E+00 0.00000E+00
 -1      1200 3.76500E+01 0.00000E+00 0.00000E+00
 -1      1201 4.06500E+01 0.00000E+00 0.00000E+00
 -1      1202 4.36500E+01 0.00000E+00 0.00000E+00
 -1      1203 4.66500E+01 0.00000E+00 0.00000E+00
 -1      1204 4.96500E+01 0.00000E+00 0.00000E+00
 -1      1205 5.26500E+01 0.00000E+00 0.00000E+00
 -1      1206 5.56500E+01 0.00000E+00 0.00000E+00
 -1      1207 5.86500E+01 0.00000E+00 0.00000E+00
 -1      1208 6.16500E+01 0.00000E+00 0.00000E+00
 -1      1209 6.46500E+01 0.00000E+00 0.00000E+00
 -1      1210 6.76500E+01 0.00000E+00 0.00000E+00
 -1      1211 7.06500E+01 0.00000E+00 0.00000E+00
 -1      1212 7.36500E+01 0.00000E+00 0.00000E+00
 -1      1213 7.66500E+01 0.00000E+00 0.00000E+00
 -1      1214 7.96500E+01 0.00000E+00 0.00000E+00
 -1      1215 8.26500E+01 0.00000E+00 0.00000E+00
 -1      1216 8.56500E+01 0.00000E+00 0.00000E+00
 -1      1217 8.86500E+01 0.00000E+00 0.00000E+00
 -1      1218 9.16500E+01 0.00000E+00 0.00000E+00
 -1      1219 9.46500E+01 0.00000E+00 0.00000E+00
 -1      1220 9.76500E+01 0.00000E+00 0.00000E+00
 -1      1221 1.00650E+02 0.00000E+00 0.00000E+00
 -1      1222 1.03650E+02 0.00000E+00 0.00000E+00
 -1      1223 1.06650E+02 0.00000E+00 0.00000E+00
 -1      1224 1.09650E+02 0.00000E+00 0.00000E+00
 -1      1225 1.12650E+02 0.00000E+00 0.00000E+00
 -1      1226 1.15650E+02 0.00000E+00 0.00000E+00
 -1      1227 1.18650E+02 0.00000E+00 0.00000E+00
 -1      1228 1.21650E+02 0.00000E+00 0.00000E+00
 -1      1229 1.24650E+02 0.00000E+00 0.00000E+00
 -1      1230 1.27650E+02 0.00000E+00 0.00000E+00
 -1      1231 1.30650E+02 0.00000E+00 0.00000E+00
 -1      1232 1.33650E+02 0.00000E+00 0.00000E+00
 -1      1233 1.36650E+02 0.00000E+00 0.00000E+00
 -1      1234 1.39650E+02 0.00000E+00 0.00000E+00
 -1      1235 1.42650E+02 0.00000E+00 0.00000E+00
 -1      1236 1.45650E+02 0.00000E+00 0.00000E+00
 -1      1237 1.48575E+02 0.00000E+00 0.00000E+00
 -1      1238 1.50000E+02 1.47500E+00 0.00000E+00
 -1      1239 1.50000E+02 4.42500E+00 0.00000E+00
 -1      1240 1.50000E+02 7.37500E+00 0.00000E+00
 -1      1241 1.50000E+02 1.03250E+01 0.00000E+00
 -1      1242 1.50000E+02 1.32750E+01 0.00000E+00
 -1      1243 1.50000E+02 1.62000E+01 0.00000E+00
 -1      1244 1.50000E+02 1.91250E+01 0.00000E+00
 -1      1245 1.50000E+02 2.20750E+01 0.00000E+00
 -1      1246 1.50000E+02 2.50250E+01 0.00000E+00
 -1      1247 1.50000E+02 2.79750E+01 0.00000E+00
 -1      1248 1.50000E+02 3.09250E+01 0.00000E+00
 -1      1249 1.50000E+02 3.38500E+01 0.00000E+00
 -1      1250 1.50000E+02 3.67750E+01 0.00000E+00
 -1      1251 1.50000E+02 3.97250E+01 0.00000E+00
 -1      1252 1.50000E+02 4.26750E+01 0.00000E+00
 -1      1253 1.50000E+02 4.56250E+01 0.00000E+00
 -1      1254 1.50000E+02 4.85500E+01 0.00000E+00
 -1      1255 8.19443E+01 2.70800E+01 0.00000E+00
 -1      1256 8.16091E+01 2.55962E+01 0.00000E+00
 -1      1257 8.09893E+01 2.42663E+01 0.00000E+00
 -1      1258 8.00859E+01 2.30734E+01 0.00000E+00
 -1      1259 7.89062E+01 2.20701E+01 0.00000E+00
 -1      1260 7.75622E+01 2.13617E+01 0.00000E+00
 -1      1261 7.60894E+01 2.09586E+01 0.00000E+00
 -1      1262 7.45505E+01 2.08854E+01 0.00000E+00
 -1      1263 7.30513E+01 2.11453E+01 0.00000E+00
 -1      1264 7.16421E+01 2.17238E+01 0.00000E+00
 -1      1265 7.04264E+01 2.25631E+01 0.00000E+00
 -1      1266 6.94345E+01 2.36119E+01 0.00000E+00
 -1      1267 6.86634E+01 2.48744E+01 0.00000E+00
 -1      1268 6.81728E+01 2.62792E+01 0.00000E+00
 -1      1269 6.79897E+01 2.77883E+01 0.00000E+00
 -1      1270 6.81411E+01 2.93221E+01 0.00000E+00
 -1      1271 6.86051E+01 3.07426E+01 0.00000E+00
 -1      1272 6.93594E+01 3.20316E+01 0.00000E+00
 -1      1273 7.03997E+01 3.31571E+01 0.00000E+00
 -1      1274 7.16681E+01 3.40336E+01 0.00000E+00
 -1      1275 7.31140E+01 3.46158E+01 0.00000E+00
 -1      1276 7.46550E+01 3.48637E+01 0.00000E+00
 -1      1277 7.61563E+01 3.47737E+01 0.00000E+00
 -1      1278 7.76441E+01 3.43486E+01 0.00000E+00
 -1      1279 7.89985E+01 3.36097E+01 0.00000E+00
 -1      1280 8.01552E+01 3.25953E+01 0.00000E+00
 -1      1281 8.10477E+01 3.13780E+01 0.00000E+00
 -1      1282 8.16468E+01 3.00341E+01 0.00000E+00
 -1      1283 8.19520E+01 2.85927E+01 0.00000E+00
 -1      1284 1.57500E+00 4.85250E+01 0.00000E+00
 -1      1285 1.29900E+00 4.48375E+01 0.00000E+00
 -1      1286 1.29900E+00 4.63125E+01 0.00000E+00
 -1      1287 1.29900E+00 4.18875E+01 0.00000E+00
 -1      1288 1.29900E+00 4.33625E+01 0.00000E+00
 -1      1289 2.59800E+00 4.41000E+01 0.00000E+00
 -1      1290 1.29900E+00 3.89375E+01 0.00000E+00
 -1      1291 1.29900E+00 4.04125E+01 0.00000E+00
 -1      1292 2.59800E+00 4.11500E+01 0.00000E+00
 -1      1293 1.29900E+00 3.59875E+01 0.00000E+00
 -1      1294 1.29900E+00 3.74625E+01 0.00000E+00
 -1      1295 2.59800E+00 3.82000E+01 0.00000E+00
 -1      1296 1.29900E+00 3.30875E+01 0.00000E+00
 -1      1297 1.29900E+00 3.45375E+01 0.00000E+00
 -1      1298 2.59800E+00 3.52750E+01 0.00000E+00
 -1      1299 1.29900E+00 3.01375E+01 0.00000E+00
 -1      1300 1.29900E+00 3.16125E+01 0.00000E+00
 -1      1301 2.59800E+00 3.23500E+01 0.00000E+00
 -1      1302 1.29900E+00 2.71875E+01 0.00000E+00
 -1      1303 1.29900E+00 2.86625E+01 0.00000E+00
 -1      1304 2.59800E+00 2.94000E+01 0.00000E+00
 -1      1305 1.29900E+00 2.42375E+01 0.00000E+00
 -1      1306 1.29900E+00 2.57125E+01 0.00000E+00
 -1      1307 2.59800E+00 2.64500E+01 0.00000E+00
 -1      1308 1.29900E+00 2.12875E+01 0.00000E+00
 -1      1309 1.29900E+00 2.27625E+01 0.00000E+00
 -1      1310 2.59800E+00 2.35000E+01 0.00000E+00
 -1      1311 1.29900E+00 1.83375E+01 0.00000E+00
 -1      1312 1.29900E+00 1.98125E+01 0.00000E+00
 -1      1313 2.59800E+00 2.05500E+01 0.00000E+00
 -1      1314 1.29900E+00 1.54375E+01 0.00000E+00
 -1      1315 1.29900E+00 1.68875E+01 0.00000E+00
 -1      1316 2.59800E+00 1.76250E+01 0.00000E+00
 -1      1317 1.29900E+00 1.24875E+01 0.00000E+00
 -1      1318 1.29900E+00 1.39625E+01 0.00000E+00
 -1      1319 2.59800E+00 1.47000E+01 0.00000E+00
 -1      1320 1.29900E+00 9.53750E+00 0.00000E+00
 -1      1321 1.29900E+00 1.10125E+01 0.00000E+00
 -1      1322 2.59800E+00 1.17500E+01 0.00000E+00
 -1      1323 1.29900E+00 6.58750E+00 0.00000E+00
 -1      1324 1.29900E+00 8.06250E+00 0.00000E+00
 -1      1325 2.59800E+00 8.80000E+00 0.00000E+00
 -1      1326 1.29900E+00 3.63750E+00 0.00000E+00
 -1      1327 1.29900E+00 5.11250E+00 0.00000E+00
 -1      1328 2.59800E+00 5.85000E+00 0.00000E+00
 -1      1329 1.43700E+00 1.09375E+00 0.00000E+00
 -1      1330 1.43700E+00 2.54375E+00 0.00000E+00
 -1      1331 2.73600E+00 3.28125E+00 0.00000E+00
 -1      1332 3.01200E+00 1.09375E+00 0.00000E+00
 -1      1333 3.90000E+00 4.87010E+01 0.00000E+00
 -1      1334 5.40000E+00 4.87010E+01 0.00000E+00
 -1      1335 6.90000E+00 4.87010E+01 0.00000E+00
 -1      1336 8.40000E+00 4.87010E+01 0.00000E+00
 -1      1337 6.15000E+00 4.74020E+01 0.00000E+00
 -1      1338 9.90000E+00 4.87010E+01 0.00000E+00
 -1      1339 1.14000E+01 4.87010E+01 0.00000E+00
 -1      1340 9.15000E+00 4.74020E+01 0.00000E+00
 -1      1341 1.29000E+01 4.87010E+01 0.00000E+00
 -1      1342 1.44000E+01 4.87010E+01 0.00000E+00
 -1      1343 1.21500E+01 4.74020E+01 0.00000E+00
 -1      1344 1.59000E+01 4.87010E+01 0.00000E+00
 -1      1345 1.74000E+01 4.87010E+01 0.00000E+00
 -1      1346 1.51500E+01 4.74020E+01 0.00000E+00
 -1      1347 1.89000E+01 4.87010E+01 0.00000E+00
 -1      1348 2.04000E+01 4.87010E+01 0.00000E+00
 -1      1349 1.81500E+01 4.74020E+01 0.00000E+00
 -1      1350 2.19000E+01 4.87010E+01 0.00000E+00
 -1      1351 2.34000E+01 4.87010E+01 0.00000E+00
 -1      1352 2.11500E+01 4.74020E+01 0.00000E+00
 -1      1353 2.49000E+01 4.87010E+01 0.00000E+00
 -1      1354 2.64000E+01 4.87010E+01 0.00000E+00
 -1      1355 2.41500E+01 4.74020E+01 0.00000E+00
 -1      1356 2.79000E+01 4.87010E+01 0.00000E+00
 -1      1357 2.94000E+01 4.87010E+01 0.00000E+00
 -1      1358 2.71500E+01 4.74020E+01 0.00000E+00
 -1      1359 3.09000E+01 4.87010E+01 0.00000E+00
 -1      1360 3.24000E+01 4.87010E+01 0.00000E+00
 -1      1361 3.01500E+01 4.74020E+01 0.00000E+00
 -1      1362 3.39000E+01 4.87010E+01 0.00000E+00
 -1      1363 3.54000E+01 4.87010E+01 0.00000E+00
 -1      1364 3.31500E+01 4.74020E+01 0.00000E+00
 -1      1365 3.69000E+01 4.87010E+01 0.00000E+00
 -1      1366 3.84000E+01 4.87010E+01 0.00000E+00
 -1      1367 3.61500E+01 4.74020E+01 0.00000E+00
 -1      1368 3.99000E+01 4.87010E+01 0.00000E+00
 -1      1369 4.14000E+01 4.87010E+01 0.00000E+00
 -1      1370 3.91500E+01 4.74020E+01 0.00000E+00
 -1      1371 4.29000E+01 4.87010E+01 0.00000E+00
 -1      1372 4.44000E+01 4.87010E+01 0.00000E+00
 -1      1373 4.21500E+01 4.74020E+01 0.00000E+00
 -1      1374 4.59000E+01 4.87010E+01 0.00000E+00
 -1      1375 4.74000E+01 4.87010E+01 0.00000E+00
 -1      1376 4.51500E+01 4.74020E+01 0.00000E+00
 -1      1377 4.89000E+01 4.87010E+01 0.00000E+00
 -1      1378 5.04000E+01 4.87010E+01 0.00000E+00
 -1      1379 4.81500E+01 4.74020E+01 0.00000E+00
 -1      1380 5.19000E+01 4.87010E+01 0.00000E+00
 -1      1381 5.34000E+01 4.87010E+01 0.00000E+00
 -1      1382 5.11500E+01 4.74020E+01 0.00000E+00
 -1      1383 5.49000E+01 4.87010E+01 0.00000E+00
 -1      1384 5.64000E+01 4.87010E+01 0.00000E+00
 -1      1385 5.41500E+01 4.74020E+01 0.00000E+00
 -1      1386 5.79000E+01 4.87010E+01 0.00000E+00
 -1      1387 5.94000E+01 4.87010E+01 0.00000E+00
 -1      1388 5.71500E+01 4.74020E+01 0.00000E+00
 -1      1389 6.09000E+01 4.87010E+01 0.00000E+00
 -1      1390 6.24000E+01 4.87010E+01 0.00000E+00
 -1      1391 6.01500E+01 4.74020E+01 0.00000E+00
 -1      1392 6.39000E+01 4.87010E+01 0.00000E+00
 -1      1393 6.54000E+01 4.87010E+01 0.00000E+00
 -1      1394 6.31500E+01 4.74020E+01 0.00000E+00
 -1      1395 6.69000E+01 4.87010E+01 0.00000E+00
 -1      1396 6.84000E+01 4.87010E+01 0.00000E+00
 -1      1397 6.61500E+01 4.74020E+01 0.00000E+00
 -1      1398 6.99000E+01 4.87010E+01 0.00000E+00
 -1      1399 7.14000E+01 4.87010E+01 0.00000E+00
 -1      1400 6.91500E+01 4.74020E+01 0.00000E+00
 -1      1401 7.29000E+01 4.87010E+01 0.00000E+00
 -1      1402 7.44000E+01 4.87010E+01 0.00000E+00
 -1      1403 7.21500E+01 4.74020E+01 0.00000E+00
 -1      1404 7.58250E+01 4.87010E+01 0.00000E+00
 -1      1405 7.72500E+01 4.87010E+01 0.00000E+00
 -1      1406 7.50750E+01 4.74020E+01 0.00000E+00
 -1      1407 7.87500E+01 4.87010E+01 0.00000E+00
 -1      1408 8.02500E+01 4.87010E+01 0.00000E+00
 -1      1409 7.80000E+01 4.74020E+01 0.00000E+00
 -1      1410 8.17500E+01 4.87010E+01 0.00000E+00
 -1      1411 8.32500E+01 4.87010E+01 0.00000E+00
 -1      1412 8.10000E+01 4.74020E+01 0.00000E+00
 -1      1413 8.47500E+01 4.87010E+01 0.00000E+00
 -1      1414 8.62500E+01 4.87010E+01 0.00000E+00
 -1      1415 8.40000E+01 4.74020E+01 0.00000E+00
 -1      1416 8.77500E+01 4.87010E+01 0.00000E+00
 -1      1417 8.92500E+01 4.87010E+01 0.00000E+00
 -1      1418 8.70000E+01 4.74020E+01 0.00000E+00
 -1      1419 9.07500E+01 4.87010E+01 0.00000E+00
 -1      1420 9.22500E+01 4.87010E+01 0.00000E+00
 -1      1421 9.00000E+01 4.74020E+01 0.00000E+00
 -1      1422 9.37500E+01 4.87010E+01 0.00000E+00
 -1      1423 9.52500E+01 4.87010E+01 0.00000E+00
 -1      1424 9.30000E+01 4.74020E+01 0.00000E+00
 -1      1425 9.67500E+01 4.87010E+01 0.00000E+00
 -1      1426 9.82500E+01 4.87010E+01 0.00000E+00
 -1      1427 9.60000E+01 4.74020E+01 0.00000E+00
 -1      1428 9.97500E+01 4.87010E+01 0.00000E+00
 -1      1429 1.01250E+02 4.87010E+01 0.00000E+00
 -1      1430 9.90000E+01 4.74020E+01 0.00000E+00
 -1      1431 1.02750E+02 4.87010E+01 0.00000E+00
 -1      1432 1.04250E+02 4.87010E+01 0.00000E+00
 -1      1433 1.02000E+02 4.74020E+01 0.00000E+00
 -1      1434 1.05750E+02 4.87010E+01 0.00000E+00
 -1      1435 1.07250E+02 4.87010E+01 0.00000E+00
 -1      1436 1.05000E+02 4.74020E+01 0.00000E+00
 -1      1437 1.08750E+02 4.87010E+01 0.00000E+00
 -1      1438 1.10250E+02 4.87010E+01 0.00000E+00
 -1      1439 1.08000E+02 4.74020E+01 0.00000E+00
 -1      1440 1.11750E+02 4.87010E+01 0.00000E+00
 -1      1441 1.13250E+02 4.87010E+01 0.00000E+00
 -1      1442 1.11000E+02 4.74020E+01 0.00000E+00
 -1      1443 1.14750E+02 4.87010E+01 0.00000E+00
 -1      1444 1.16250E+02 4.87010E+01 0.00000E+00
 -1      1445 1.14000E+02 4.74020E+01 0.00000E+00
 -1      1446 1.17750E+02 4.87010E+01 0.00000E+00
 -1      1447 1.19250E+02 4.87010E+01 0.00000E+00
 -1      1448 1.17000E+02 4.74020E+01 0.00000E+00
 -1      1449 1.20750E+02 4.87010E+01 0.00000E+00
 -1      1450 1.22250E+02 4.87010E+01 0.00000E+00
 -1      1451 1.20000E+02 4.74020E+01 0.00000E+00
 -1      1452 1.23750E+02 4.87010E+01 0.00000E+00
 -1      1453 1.25250E+02 4.87010E+01 0.00000E+00
 -1      1454 1.23000E+02 4.74020E+01 0.00000E+00
 -1      1455 1.26750E+02 4.87010E+01 0.00000E+00
 -1      1456 1.28250E+02 4.87010E+01 0.00000E+00
 -1      1457 1.26000E+02 4.74020E+01 0.00000E+00
 -1      1458 1.29750E+02 4.87010E+01 0.00000E+00
 -1      1459 1.31250E+02 4.87010E+01 0.00000E+00
 -1      1460 1.29000E+02 4.74020E+01 0.00000E+00
 -1      1461 1.32750E+02 4.87010E+01 0.00000E+00
 -1      1462 1.34250E+02 4.87010E+01 0.00000E+00
 -1      1463 1.32000E+02 4.74020E+01 0.00000E+00
 -1      1464 1.35750E+02 4.87010E+01 0.00000E+00
 -1      1465 1.37250E+02 4.87010E+01 0.00000E+00
 -1      1466 1.35000E+02 4.74020E+01 0.00000E+00
 -1      1467 1.38750E+02 4.87010E+01 0.00000E+00
 -1      1468 1.40250E+02 4.87010E+01 0.00000E+00
 -1      1469 1.38000E+02 4.74020E+01 0.00000E+00
 -1      1470 1.41750E+02 4.87010E+01 0.00000E+00
 -1      1471 1.43250E+02 4.87010E+01 0.00000E+00
 -1      1472 1.41000E+02 4.74020E+01 0.00000E+00
 -1      1473 1.44750E+02 4.87010E+01 0.00000E+00
 -1      1474 1.46250E+02 4.87010E+01 0.00000E+00
 -1      1475 1.44000E+02 4.74020E+01 0.00000E+00
 -1      1476 1.47375E+02 4.86255E+01 0.00000E+00
 -1      1477 1.48875E+02 4.86255E+01 0.00000E+00
 -1      1478 1.48875E+02 4.71755E+01 0.00000E+00
 -1      1479 1.46625E+02 4.73265E+01 0.00000E+00
 -1      1480 6.01200E+00 1.09375E+00 0.00000E+00
 -1      1481 4.51200E+00 1.09375E+00 0.00000E+00
 -1      1482 4.37400E+00 2.18750E+00 0.00000E+00
 -1      1483 9.01200E+00 1.09375E+00 0.00000E+00
 -1      1484 7.51200E+00 1.09375E+00 0.00000E+00
 -1      1485 7.37400E+00 2.18750E+00 0.00000E+00
 -1      1486 1.20120E+01 1.09375E+00 0.00000E+00
 -1      1487 1.05120E+01 1.09375E+00 0.00000E+00
 -1      1488 1.03740E+01 2.18750E+00 0.00000E+00
 -1      1489 1.50120E+01 1.09375E+00 0.00000E+00
 -1      1490 1.35120E+01 1.09375E+00 0.00000E+00
 -1      1491 1.33740E+01 2.18750E+00 0.00000E+00
 -1      1492 1.80120E+01 1.09375E+00 0.00000E+00
 -1      1493 1.65120E+01 1.09375E+00 0.00000E+00
 -1      1494 1.63740E+01 2.18750E+00 0.00000E+00
 -1      1495 2.10120E+01 1.09375E+00 0.00000E+00
 -1      1496 1.95120E+01 1.09375E+00 0.00000E+00
 -1      1497 1.93740E+01 2.18750E+00 0.00000E+00
 -1      1498 2.40120E+01 1.09375E+00 0.00000E+00
 -1      1499 2.25120E+01 1.09375E+00 0.00000E+00
 -1      1500 2.23740E+01 2.18750E+00 0.00000E+00
 -1      1501 2.70120E+01 1.09375E+00 0.00000E+00
 -1      1502 2.55120E+01 1.09375E+00 0.00000E+00
 -1      1503 2.53740E+01 2.18750E+00 0.00000E+00
 -1      1504 3.00120E+01 1.09375E+00 0.00000E+00
 -1      1505 2.85120E+01 1.09375E+00 0.00000E+00
 -1      1506 2.83740E+01 2.18750E+00 0.00000E+00
 -1      1507 3.30120E+01 1.09375E+00 0.00000E+00
 -1      1508 3.15120E+01 1.09375E+00 0.00000E+00
 -1      1509 3.13740E+01 2.18750E+00 0.00000E+00
 -1      1510 3.60120E+01 1.09375E+00 0.00000E+00
 -1      1511 3.45120E+01 1.09375E+00 0.00000E+00
 -1      1512 3.43740E+01 2.18750E+00 0.00000E+00
 -1      1513 3.90120E+01 1.09375E+00 0.00000E+00
 -1      1514 3.75120E+01 1.09375E+00 0.00000E+00
 -1      1515 3.73740E+01 2.18750E+00 0.00000E+00
 -1      1516 4.20120E+01 1.09375E+00 0.00000E+00
 -1      1517 4.05120E+01 1.09375E+00 0.00000E+00
 -1      1518 4.03740E+01 2.18750E+00 0.00000E+00
 -1      1519 4.50120E+01 1.09375E+00 0.00000E+00
 -1      1520 4.35120E+01 1.09375E+00 0.00000E+00
 -1      1521 4.33740E+01 2.18750E+00 0.00000E+00
 -1      1522 4.80120E+01 1.09375E+00 0.00000E+00
 -1      1523 4.65120E+01 1.09375E+00 0.00000E+00
 -1      1524 4.63740E+01 2.18750E+00 0.00000E+00
 -1      1525 5.10120E+01 1.09375E+00 0.00000E+00
 -1      1526 4.95120E+01 1.09375E+00 0.00000E+00
 -1      1527 4.93740E+01 2.18750E+00 0.00000E+00
 -1      1528 5.40120E+01 1.09375E+00 0.00000E+00
 -1      1529 5.25120E+01 1.09375E+00 0.00000E+00
 -1      1530 5.23740E+01 2.18750E+00 0.00000E+00
 -1      1531 5.70120E+01 1.09375E+00 0.00000E+00
 -1      1532 5.55120E+01 1.09375E+00 0.00000E+00
 -1      1533 5.53740E+01 2.18750E+00 0.00000E+00
 -1      1534 6.00120E+01 1.09375E+00 0.00000E+00
 -1      1535 5.85120E+01 1.09375E+00 0.00000E+00
 -1      1536 5.83740E+01 2.18750E+00 0.00000E+00
 -1      1537 6.30120E+01 1.09375E+00 0.00000E+00
 -1      1538 6.15120E+01 1.09375E+00 0.00000E+00
 -1      1539 6.13740E+01 2.18750E+00 0.00000E+00
 -1      1540 6.60120E+01 1.09375E+00 0.00000E+00
 -1      1541 6.45120E+01 1.09375E+00 0.00000E+00
 -1      1542 6.43740E+01 2.18750E+00 0.00000E+00
 -1      1543 6.90120E+01 1.09375E+00 0.00000E+00
 -1      1544 6.75120E+01 1.09375E+00 0.00000E+00
 -1      1545 6.73740E+01 2.18750E+00 0.00000E+00
 -1      1546 7.20120E+01 1.09375E+00 0.00000E+00
 -1      1547 7.05120E+01 1.09375E+00 0.00000E+00
 -1      1548 7.03740E+01 2.18750E+00 0.00000E+00
 -1      1549 7.50120E+01 1.09375E+00 0.00000E+00
 -1      1550 7.35120E+01 1.09375E+00 0.00000E+00
 -1      1551 7.33740E+01 2.18750E+00 0.00000E+00
 -1      1552 7.80120E+01 1.09375E+00 0.00000E+00
 -1      1553 7.65120E+01 1.09375E+00 0.00000E+00
 -1      1554 7.63740E+01 2.18750E+00 0.00000E+00
 -1      1555 8.10120E+01 1.09375E+00 0.00000E+00
 -1      1556 7.95120E+01 1.09375E+00 0.00000E+00
 -1      1557 7.93740E+01 2.18750E+00 0.00000E+00
 -1      1558 8.40120E+01 1.09375E+00 0.00000E+00
 -1      1559 8.25120E+01 1.09375E+00 0.00000E+00
 -1      1560 8.23740E+01 2.18750E+00 0.00000E+00
 -1      1561 8.70120E+01 1.09375E+00 0.00000E+00
 -1      1562 8.55120E+01 1.09375E+00 0.00000E+00
 -1      1563 8.53740E+01 2.18750E+00 0.00000E+00
 -1      1564 9.00120E+01 1.09375E+00 0.00000E+00
 -1      1565 8.85120E+01 1.09375E+00 0.00000E+00
 -1      1566 8.83740E+01 2.18750E+00 0.00000E+00
 -1      1567 9.30120E+01 1.09375E+00 0.00000E+00
 -1      1568 9.15120E+01 1.09375E+00 0.00000E+00
 -1      1569 9.13740E+01 2.18750E+00 0.00000E+00
 -1      1570 9.60120E+01 1.09375E+00 0.00000E+00
 -1      1571 9.45120E+01 1.09375E+00 0.00000E+00
 -1      1572 9.43740E+01 2.18750E+00 0.00000E+00
 -1      1573 9.90120E+01 1.09375E+00 0.00000E+00
 -1      1574 9.75120E+01 1.09375E+00 0.00000E+00
 -1      1575 9.73740E+01 2.18750E+00 0.00000E+00
 -1      1576 1.02012E+02 1.09375E+00 0.00000E+00
 -1      1577 1.00512E+02 1.09375E+00 0.00000E+00
 -1      1578 1.00374E+02 2.18750E+00 0.00000E+00
 -1      1579 1.05012E+02 1.09375E+00 0.00000E+00
 -1      1580 1.03512E+02 1.09375E+00 0.00000E+00
 -1      1581 1.03374E+02 2.18750E+00 0.00000E+00
 -1      1582 1.08012E+02 1.09375E+00 0.00000E+00
 -1      1583 1.06512E+02 1.09375E+00 0.00000E+00
 -1      1584 1.06374E+02 2.18750E+00 0.00000E+00
 -1      1585 1.11012E+02 1.09375E+00 0.00000E+00
 -1      1586 1.09512E+02 1.09375E+00 0.00000E+00
 -1      1587 1.09374E+02 2.18750E+00 0.00000E+00
 -1      1588 1.14012E+02 1.09375E+00 0.00000E+00
 -1      1589 1.12512E+02 1.09375E+00 0.00000E+00
 -1      1590 1.12374E+02 2.18750E+00 0.00000E+00
 -1      1591 1.17012E+02 1.09375E+00 0.00000E+00
 -1      1592 1.15512E+02 1.09375E+00 0.00000E+00
 -1      1593 1.15374E+02 2.18750E+00 0.00000E+00
 -1      1594 1.20012E+02 1.09375E+00 0.00000E+00
 -1      1595 1.18512E+02 1.09375E+00 0.00000E+00
 -1      1596 1.18374E+02 2.18750E+00 0.00000E+00
 -1      1597 1.23012E+02 1.09375E+00 0.00000E+00
 -1      1598 1.21512E+02 1.09375E+00 0.00000E+00
 -1      1599 1.21374E+02 2.18750E+00 0.00000E+00
 -1      1600 1.26012E+02 1.09375E+00 0.00000E+00
 -1      1601 1.24512E+02 1.09375E+00 0.00000E+00
 -1      1602 1.24374E+02 2.18750E+00 0.00000E+00
 -1      1603 1.29012E+02 1.09375E+00 0.00000E+00
 -1      1604 1.27512E+02 1.09375E+00 0.00000E+00
 -1      1605 1.27374E+02 2.18750E+00 0.00000E+00
 -1      1606 1.32012E+02 1.09375E+00 0.00000E+00
 -1      1607 1.30512E+02 1.09375E+00 0.00000E+00
 -1      1608 1.30374E+02 2.18750E+00 0.00000E+00
 -1      1609 1.35012E+02 1.09375E+00 0.00000E+00
 -1      1610 1.33512E+02 1.09375E+00 0.00000E+00
 -1      1611 1.33374E+02 2.18750E+00 0.00000E+00
 -1      1612 1.38012E+02 1.09375E+00 0.00000E+00
 -1      1613 1.36512E+02 1.09375E+00 0.00000E+00
 -1      1614 1.36374E+02 2.18750E+00 0.00000E+00
 -1      1615 1.41012E+02 1.09375E+00 0.00000E+00
 -1      1616 1.39512E+02 1.09375E+00 0.00000E+00
 -1      1617 1.39374E+02 2.18750E+00 0.00000E+00
 -1      1618 1.44012E+02 1.09375E+00 0.00000E+00
 -1      1619 1.42512E+02 1.09375E+00 0.00000E+00
 -1      1620 1.42374E+02 2.18750E+00 0.00000E+00
 -1      1621 1.47012E+02 1.09375E+00 0.00000E+00
 -1      1622 1.45512E+02 1.09375E+00 0.00000E+00
 -1      1623 1.45374E+02 2.18750E+00 0.00000E+00
 -1      1624 1.48575E+02 1.47500E+00 0.00000E+00
 -1      1625 1.48701E+02 5.16250E+00 0.00000E+00
 -1      1626 1.48701E+02 3.68750E+00 0.00000E+00
 -1      1627 1.48701E+02 8.11250E+00 0.00000E+00
 -1      1628 1.48701E+02 6.63750E+00 0.00000E+00
 -1      1629 1.47402E+02 5.90000E+00 0.00000E+00
 -1      1630 1.48701E+02 1.10625E+01 0.00000E+00
 -1      1631 1.48701E+02 9.58750E+00 0.00000E+00
 -1      1632 1.47402E+02 8.85000E+00 0.00000E+00
 -1      1633 1.48701E+02 1.40125E+01 0.00000E+00
 -1      1634 1.48701E+02 1.25375E+01 0.00000E+00
 -1      1635 1.47402E+02 1.18000E+01 0.00000E+00
 -1      1636 1.48701E+02 1.69125E+01 0.00000E+00
 -1      1637 1.48701E+02 1.54625E+01 0.00000E+00
 -1      1638 1.47402E+02 1.47250E+01 0.00000E+00
 -1      1639 1.48701E+02 1.98625E+01 0.00000E+00
 -1      1640 1.48701E+02 1.83875E+01 0.00000E+00
 -1      1641 1.47402E+02 1.76500E+01 0.00000E+00
 -1      1642 1.48701E+02 2.28125E+01 0.00000E+00
 -1      1643 1.48701E+02 2.13375E+01 0.00000E+00
 -1      1644 1.47402E+02 2.06000E+01 0.00000E+00
 -1      1645 1.48701E+02 2.57625E+01 0.00000E+00
 -1      1646 1.48701E+02 2.42875E+01 0.00000E+00
 -1      1647 1.47402E+02 2.35500E+01 0.00000E+00
 -1      1648 1.48701E+02 2.87125E+01 0.00000E+00
 -1      1649 1.48701E+02 2.72375E+01 0.00000E+00
 -1      1650 1.47402E+02 2.65000E+01 0.00000E+00
 -1      1651 1.48701E+02 3.16625E+01 0.00000E+00
 -1      1652 1.48701E+02 3.01875E+01 0.00000E+00
 -1      1653 1.47402E+02 2.94500E+01 0.00000E+00
 -1      1654 1.48701E+02 3.45625E+01 0.00000E+00
 -1      1655 1.48701E+02 3.31125E+01 0.00000E+00
 -1      1656 1.47402E+02 3.23750E+01 0.00000E+00
 -1      1657 1.48701E+02 3.75125E+01 0.00000E+00
 -1      1658 1.48701E+02 3.60375E+01 0.00000E+00
 -1      1659 1.47402E+02 3.53000E+01 0.00000E+00
 -1      1660 1.48701E+02 4.04625E+01 0.00000E+00
 -1      1661 1.48701E+02 3.89875E+01 0.00000E+00
 -1      1662 1.47402E+02 3.82500E+01 0.00000E+00
 -1      1663 1.48701E+02 4.34125E+01 0.00000E+00
 -1      1664 1.48701E+02 4.19375E+01 0.00000E+00
 -1      1665 1.47402E+02 4.12000E+01 0.00000E+00
 -1      1666 1.48788E+02 4.60315E+01 0.00000E+00
 -1      1667 1.48788E+02 4.45565E+01 0.00000E+00
 -1      1668 1.47489E+02 4.38190E+01 0.00000E+00
 -1      1669 1.47663E+02 4.61070E+01 0.00000E+00
 -1      1670 8.24989E+01 2.66185E+01 0.00000E+00
 -1      1671 8.25884E+01 2.74051E+01 0.00000E+00
 -1      1672 8.20277E+01 2.50666E+01 0.00000E+00
 -1      1673 8.22649E+01 2.57565E+01 0.00000E+00
 -1      1674 8.12856E+01 2.36580E+01 0.00000E+00
 -1      1675 8.16655E+01 2.42903E+01 0.00000E+00
 -1      1676 8.02372E+01 2.24099E+01 0.00000E+00
 -1      1677 8.07573E+01 2.29624E+01 0.00000E+00
 -1      1678 7.89165E+01 2.13491E+01 0.00000E+00
 -1      1679 7.95711E+01 2.17911E+01 0.00000E+00
 -1      1680 7.74473E+01 2.06603E+01 0.00000E+00
 -1      1681 7.81255E+01 2.09284E+01 0.00000E+00
 -1      1682 7.58034E+01 2.02182E+01 0.00000E+00
 -1      1683 7.65911E+01 2.03436E+01 0.00000E+00
 -1      1684 7.41417E+01 2.03013E+01 0.00000E+00
 -1      1685 7.48831E+01 2.02548E+01 0.00000E+00
 -1      1686 7.24981E+01 2.06318E+01 0.00000E+00
 -1      1687 7.32464E+01 2.04162E+01 0.00000E+00
 -1      1688 7.10242E+01 2.13675E+01 0.00000E+00
 -1      1689 7.16782E+01 2.10114E+01 0.00000E+00
 -1      1690 6.97785E+01 2.23713E+01 0.00000E+00
 -1      1691 7.03341E+01 2.18938E+01 0.00000E+00
 -1      1692 6.87659E+01 2.35471E+01 0.00000E+00
 -1      1693 6.91985E+01 2.29830E+01 0.00000E+00
 -1      1694 6.79136E+01 2.49443E+01 0.00000E+00
 -1      1695 6.82426E+01 2.42499E+01 0.00000E+00
 -1      1696 6.75367E+01 2.65002E+01 0.00000E+00
 -1      1697 6.77004E+01 2.57994E+01 0.00000E+00
 -1      1698 6.72990E+01 2.81803E+01 0.00000E+00
 -1      1699 6.73086E+01 2.73799E+01 0.00000E+00
 -1      1700 6.76223E+01 2.98106E+01 0.00000E+00
 -1      1701 6.74688E+01 2.90859E+01 0.00000E+00
 -1      1702 6.82438E+01 3.13182E+01 0.00000E+00
 -1      1703 6.79348E+01 3.06310E+01 0.00000E+00
 -1      1704 6.91232E+01 3.26661E+01 0.00000E+00
 -1      1705 6.86835E+01 3.20710E+01 0.00000E+00
 -1      1706 7.02761E+01 3.39040E+01 0.00000E+00
 -1      1707 6.96776E+01 3.33842E+01 0.00000E+00
 -1      1708 7.17292E+01 3.47096E+01 0.00000E+00
 -1      1709 7.10698E+01 3.43542E+01 0.00000E+00
 -1      1710 7.33318E+01 3.53438E+01 0.00000E+00
 -1      1711 7.25517E+01 3.51268E+01 0.00000E+00
 -1      1712 7.50012E+01 3.54886E+01 0.00000E+00
 -1      1713 7.42509E+01 3.54527E+01 0.00000E+00
 -1      1714 7.66217E+01 3.52686E+01 0.00000E+00
 -1      1715 7.58794E+01 3.53941E+01 0.00000E+00
 -1      1716 7.82563E+01 3.47945E+01 0.00000E+00
 -1      1717 7.75211E+01 3.50959E+01 0.00000E+00
 -1      1718 7.96294E+01 3.38595E+01 0.00000E+00
 -1      1719 7.90161E+01 3.42881E+01 0.00000E+00
 -1      1720 8.08980E+01 3.27391E+01 0.00000E+00
 -1      1721 8.03647E+01 3.33223E+01 0.00000E+00
 -1      1722 8.17204E+01 3.13519E+01 0.00000E+00
 -1      1723 8.13602E+01 3.19743E+01 0.00000E+00
 -1      1724 8.23807E+01 2.98770E+01 0.00000E+00
 -1      1725 8.21483E+01 3.05924E+01 0.00000E+00
 -1      1726 8.25551E+01 2.82927E+01 0.00000E+00
 -1      1727 8.24808E+01 2.90099E+01 0.00000E+00
 -1      1728 8.14669E+01 2.29663E+01 0.00000E+00
 -1      1729 8.31542E+01 2.78261E+01 0.00000E+00
 -1      1730 1.48437E+02 2.56875E+00 0.00000E+00
 -1      1731 1.47138E+02 3.30625E+00 0.00000E+00
 -1      1732 8.29536E+01 2.60765E+01 0.00000E+00
 -1      1733 8.23574E+01 2.44382E+01 0.00000E+00
 -1      1734 8.02726E+01 2.16518E+01 0.00000E+00
 -1      1735 7.88155E+01 2.06123E+01 0.00000E+00
 -1      1736 7.71684E+01 1.98749E+01 0.00000E+00
 -1      1737 7.53920E+01 1.95947E+01 0.00000E+00
 -1      1738 7.35765E+01 1.97461E+01 0.00000E+00
 -1      1739 7.18613E+01 2.02406E+01 0.00000E+00
 -1      1740 7.03512E+01 2.11465E+01 0.00000E+00
 -1      1741 6.90812E+01 2.22845E+01 0.00000E+00
 -1      1742 6.79779E+01 2.35989E+01 0.00000E+00
 -1      1743 6.72414E+01 2.51568E+01 0.00000E+00
 -1      1744 6.68001E+01 2.68917E+01 0.00000E+00
 -1      1745 6.67418E+01 2.86770E+01 0.00000E+00
 -1      1746 6.72240E+01 3.04029E+01 0.00000E+00
 -1      1747 6.79761E+01 3.19760E+01 0.00000E+00
 -1      1748 6.89701E+01 3.34469E+01 0.00000E+00
 -1      1749 7.03182E+01 3.46153E+01 0.00000E+00
 -1      1750 7.19344E+01 3.54828E+01 0.00000E+00
 -1      1751 7.36760E+01 3.60090E+01 0.00000E+00
 -1      1752 7.54734E+01 3.60235E+01 0.00000E+00
 -1      1753 7.72510E+01 3.57564E+01 0.00000E+00
 -1      1754 7.89101E+01 3.50772E+01 0.00000E+00
 -1      1755 8.04052E+01 3.40335E+01 0.00000E+00
 -1      1756 8.16028E+01 3.27316E+01 0.00000E+00
 -1      1757 8.24929E+01 3.12073E+01 0.00000E+00
 -1      1758 8.30208E+01 2.95808E+01 0.00000E+00
 -1      1759 2.87400E+00 4.77875E+01 0.00000E+00
 -1      1760 3.89700E+00 4.04125E+01 0.00000E+00
 -1      1761 3.89700E+00 4.18875E+01 0.00000E+00
 -1      1762 3.89700E+00 4.33625E+01 0.00000E+00
 -1      1763 3.89700E+00 4.48375E+01 0.00000E+00
 -1      1764 5.19600E+00 4.26250E+01 0.00000E+00
 -1      1765 3.89700E+00 3.45500E+01 0.00000E+00
 -1      1766 3.89700E+00 3.60000E+01 0.00000E+00
 -1      1767 3.89700E+00 3.16000E+01 0.00000E+00
 -1      1768 3.89700E+00 3.30750E+01 0.00000E+00
 -1      1769 5.19600E+00 3.38000E+01 0.00000E+00
 -1      1770 3.89700E+00 2.86500E+01 0.00000E+00
 -1      1771 3.89700E+00 3.01250E+01 0.00000E+00
 -1      1772 5.19600E+00 3.08500E+01 0.00000E+00
 -1      1773 3.89700E+00 2.57000E+01 0.00000E+00
 -1      1774 3.89700E+00 2.71750E+01 0.00000E+00
 -1      1775 5.19600E+00 2.79000E+01 0.00000E+00
 -1      1776 3.89700E+00 2.27500E+01 0.00000E+00
 -1      1777 3.89700E+00 2.42250E+01 0.00000E+00
 -1      1778 5.19600E+00 2.49500E+01 0.00000E+00
 -1      1779 3.89700E+00 1.98000E+01 0.00000E+00
 -1      1780 3.89700E+00 2.12750E+01 0.00000E+00
 -1      1781 5.19600E+00 2.20000E+01 0.00000E+00
 -1      1782 3.89700E+00 1.69000E+01 0.00000E+00
 -1      1783 3.89700E+00 1.83500E+01 0.00000E+00
 -1      1784 5.19600E+00 1.90750E+01 0.00000E+00
 -1      1785 3.89700E+00 1.39500E+01 0.00000E+00
 -1      1786 3.89700E+00 1.54250E+01 0.00000E+00
 -1      1787 5.19600E+00 1.61500E+01 0.00000E+00
 -1      1788 3.89700E+00 1.10000E+01 0.00000E+00
 -1      1789 3.89700E+00 1.24750E+01 0.00000E+00
 -1      1790 5.19600E+00 1.32000E+01 0.00000E+00
 -1      1791 3.89700E+00 8.05000E+00 0.00000E+00
 -1      1792 3.89700E+00 9.52500E+00 0.00000E+00
 -1      1793 5.19600E+00 1.02500E+01 0.00000E+00
 -1      1794 3.89700E+00 5.10000E+00 0.00000E+00
 -1      1795 3.89700E+00 6.57500E+00 0.00000E+00
 -1      1796 5.19600E+00 7.30000E+00 0.00000E+00
 -1      1797 4.20450E+00 3.09687E+00 0.00000E+00
 -1      1798 4.06650E+00 4.19063E+00 0.00000E+00
 -1      1799 5.36550E+00 4.91563E+00 0.00000E+00
 -1      1800 5.70450E+00 3.09687E+00 0.00000E+00
 -1      1801 3.62400E+00 4.64885E+01 0.00000E+00
 -1      1802 8.70450E+00 3.09687E+00 0.00000E+00
 -1      1803 7.20450E+00 3.09687E+00 0.00000E+00
 -1      1804 7.03500E+00 4.00625E+00 0.00000E+00
 -1      1805 4.92300E+00 4.57510E+01 0.00000E+00
 -1      1806 8.40000E+00 4.61030E+01 0.00000E+00
 -1      1807 9.90000E+00 4.61030E+01 0.00000E+00
 -1      1808 1.14000E+01 4.61030E+01 0.00000E+00
 -1      1809 1.29000E+01 4.61030E+01 0.00000E+00
 -1      1810 1.06500E+01 4.48040E+01 0.00000E+00
 -1      1811 1.44000E+01 4.61030E+01 0.00000E+00
 -1      1812 1.59000E+01 4.61030E+01 0.00000E+00
 -1      1813 1.36500E+01 4.48040E+01 0.00000E+00
 -1      1814 1.74000E+01 4.61030E+01 0.00000E+00
 -1      1815 1.89000E+01 4.61030E+01 0.00000E+00
 -1      1816 1.66500E+01 4.48040E+01 0.00000E+00
 -1      1817 2.04000E+01 4.61030E+01 0.00000E+00
 -1      1818 2.19000E+01 4.61030E+01 0.00000E+00
 -1      1819 1.96500E+01 4.48040E+01 0.00000E+00
 -1      1820 2.34000E+01 4.61030E+01 0.00000E+00
 -1      1821 2.49000E+01 4.61030E+01 0.00000E+00
 -1      1822 2.26500E+01 4.48040E+01 0.00000E+00
 -1      1823 2.64000E+01 4.61030E+01 0.00000E+00
 -1      1824 2.79000E+01 4.61030E+01 0.00000E+00
 -1      1825 2.56500E+01 4.48040E+01 0.00000E+00
 -1      1826 2.94000E+01 4.61030E+01 0.00000E+00
 -1      1827 3.09000E+01 4.61030E+01 0.00000E+00
 -1      1828 2.86500E+01 4.48040E+01 0.00000E+00
 -1      1829 3.24000E+01 4.61030E+01 0.00000E+00
 -1      1830 3.39000E+01 4.61030E+01 0.00000E+00
 -1      1831 3.16500E+01 4.48040E+01 0.00000E+00
 -1      1832 3.54000E+01 4.61030E+01 0.00000E+00
 -1      1833 3.69000E+01 4.61030E+01 0.00000E+00
 -1      1834 3.46500E+01 4.48040E+01 0.00000E+00
 -1      1835 3.84000E+01 4.61030E+01 0.00000E+00
 -1      1836 3.99000E+01 4.61030E+01 0.00000E+00
 -1      1837 3.76500E+01 4.48040E+01 0.00000E+00
 -1      1838 4.14000E+01 4.61030E+01 0.00000E+00
 -1      1839 4.29000E+01 4.61030E+01 0.00000E+00
 -1      1840 4.06500E+01 4.48040E+01 0.00000E+00
 -1      1841 4.44000E+01 4.61030E+01 0.00000E+00
 -1      1842 4.59000E+01 4.61030E+01 0.00000E+00
 -1      1843 4.36500E+01 4.48040E+01 0.00000E+00
 -1      1844 4.74000E+01 4.61030E+01 0.00000E+00
 -1      1845 4.89000E+01 4.61030E+01 0.00000E+00
 -1      1846 4.66500E+01 4.48040E+01 0.00000E+00
 -1      1847 5.04000E+01 4.61030E+01 0.00000E+00
 -1      1848 5.19000E+01 4.61030E+01 0.00000E+00
 -1      1849 4.96500E+01 4.48040E+01 0.00000E+00
 -1      1850 5.34000E+01 4.61030E+01 0.00000E+00
 -1      1851 5.49000E+01 4.61030E+01 0.00000E+00
 -1      1852 5.26500E+01 4.48040E+01 0.00000E+00
 -1      1853 5.64000E+01 4.61030E+01 0.00000E+00
 -1      1854 5.79000E+01 4.61030E+01 0.00000E+00
 -1      1855 5.56500E+01 4.48040E+01 0.00000E+00
 -1      1856 5.94000E+01 4.61030E+01 0.00000E+00
 -1      1857 6.09000E+01 4.61030E+01 0.00000E+00
 -1      1858 5.86500E+01 4.48040E+01 0.00000E+00
 -1      1859 6.24000E+01 4.61030E+01 0.00000E+00
 -1      1860 6.39000E+01 4.61030E+01 0.00000E+00
 -1      1861 6.16500E+01 4.48040E+01 0.00000E+00
 -1      1862 6.54000E+01 4.61030E+01 0.00000E+00
 -1      1863 6.69000E+01 4.61030E+01 0.00000E+00
 -1      1864 6.46500E+01 4.48040E+01 0.00000E+00
 -1      1865 6.84000E+01 4.61030E+01 0.00000E+00
 -1      1866 6.99000E+01 4.61030E+01 0.00000E+00
 -1      1867 6.76500E+01 4.48040E+01 0.00000E+00
 -1      1868 7.14000E+01 4.61030E+01 0.00000E+00
 -1      1869 7.29000E+01 4.61030E+01 0.00000E+00
 -1      1870 7.06500E+01 4.48040E+01 0.00000E+00
 -1      1871 7.43250E+01 4.61030E+01 0.00000E+00
 -1      1872 7.57500E+01 4.61030E+01 0.00000E+00
 -1      1873 7.35750E+01 4.48040E+01 0.00000E+00
 -1      1874 7.72500E+01 4.61030E+01 0.00000E+00
 -1      1875 7.87500E+01 4.61030E+01 0.00000E+00
 -1      1876 7.65000E+01 4.48040E+01 0.00000E+00
 -1      1877 8.02500E+01 4.61030E+01 0.00000E+00
 -1      1878 8.17500E+01 4.61030E+01 0.00000E+00
 -1      1879 7.95000E+01 4.48040E+01 0.00000E+00
 -1      1880 8.32500E+01 4.61030E+01 0.00000E+00
 -1      1881 8.47500E+01 4.61030E+01 0.00000E+00
 -1      1882 8.25000E+01 4.48040E+01 0.00000E+00
 -1      1883 8.62500E+01 4.61030E+01 0.00000E+00
 -1      1884 8.77500E+01 4.61030E+01 0.00000E+00
 -1      1885 8.55000E+01 4.48040E+01 0.00000E+00
 -1      1886 8.92500E+01 4.61030E+01 0.00000E+00
 -1      1887 9.07500E+01 4.61030E+01 0.00000E+00
 -1      1888 8.85000E+01 4.48040E+01 0.00000E+00
 -1      1889 9.22500E+01 4.61030E+01 0.00000E+00
 -1      1890 9.37500E+01 4.61030E+01 0.00000E+00
 -1      1891 9.15000E+01 4.48040E+01 0.00000E+00
 -1      1892 9.52500E+01 4.61030E+01 0.00000E+00
 -1      1893 9.67500E+01 4.61030E+01 0.00000E+00
 -1      1894 9.45000E+01 4.48040E+01 0.00000E+00
 -1      1895 9.82500E+01 4.61030E+01 0.00000E+00
 -1      1896 9.97500E+01 4.61030E+01 0.00000E+00
 -1      1897 9.75000E+01 4.48040E+01 0.00000E+00
 -1      1898 1.01250E+02 4.61030E+01 0.00000E+00
 -1      1899 1.02750E+02 4.61030E+01 0.00000E+00
 -1      1900 1.00500E+02 4.48040E+01 0.00000E+00
 -1      1901 1.04250E+02 4.61030E+01 0.00000E+00
 -1      1902 1.05750E+02 4.61030E+01 0.00000E+00
 -1      1903 1.03500E+02 4.48040E+01 0.00000E+00
 -1      1904 1.07250E+02 4.61030E+01 0.00000E+00
 -1      1905 1.08750E+02 4.61030E+01 0.00000E+00
 -1      1906 1.06500E+02 4.48040E+01 0.00000E+00
 -1      1907 1.10250E+02 4.61030E+01 0.00000E+00
 -1      1908 1.11750E+02 4.61030E+01 0.00000E+00
 -1      1909 1.09500E+02 4.48040E+01 0.00000E+00
 -1      1910 1.13250E+02 4.61030E+01 0.00000E+00
 -1      1911 1.14750E+02 4.61030E+01 0.00000E+00
 -1      1912 1.12500E+02 4.48040E+01 0.00000E+00
 -1      1913 1.16250E+02 4.61030E+01 0.00000E+00
 -1      1914 1.17750E+02 4.61030E+01 0.00000E+00
 -1      1915 1.15500E+02 4.48040E+01 0.00000E+00
 -1      1916 1.19250E+02 4.61030E+01 0.00000E+00
 -1      1917 1.20750E+02 4.61030E+01 0.00000E+00
 -1      1918 1.18500E+02 4.48040E+01 0.00000E+00
 -1      1919 1.22250E+02 4.61030E+01 0.00000E+00
 -1      1920 1.23750E+02 4.61030E+01 0.00000E+00
 -1      1921 1.21500E+02 4.48040E+01 0.00000E+00
 -1      1922 1.25250E+02 4.61030E+01 0.00000E+00
 -1      1923 1.26750E+02 4.61030E+01 0.00000E+00
 -1      1924 1.24500E+02 4.48040E+01 0.00000E+00
 -1      1925 1.28250E+02 4.61030E+01 0.00000E+00
 -1      1926 1.29750E+02 4.61030E+01 0.00000E+00
 -1      1927 1.27500E+02 4.48040E+01 0.00000E+00
 -1      1928 1.31250E+02 4.61030E+01 0.00000E+00
 -1      1929 1.32750E+02 4.61030E+01 0.00000E+00
 -1      1930 1.30500E+02 4.48040E+01 0.00000E+00
 -1      1931 1.34250E+02 4.61030E+01 0.00000E+00
 -1      1932 1.35750E+02 4.61030E+01 0.00000E+00
 -1      1933 1.33500E+02 4.48040E+01 0.00000E+00
 -1      1934 1.37250E+02 4.61030E+01 0.00000E+00
 -1      1935 1.38750E+02 4.61030E+01 0.00000E+00
 -1      1936 1.36500E+02 4.48040E+01 0.00000E+00
 -1      1937 1.40250E+02 4.61030E+01 0.00000E+00
 -1      1938 1.41750E+02 4.61030E+01 0.00000E+00
 -1      1939 1.39500E+02 4.48040E+01 0.00000E+00
 -1      1940 1.43250E+02 4.61030E+01 0.00000E+00
 -1      1941 1.44750E+02 4.61030E+01 0.00000E+00
 -1      1942 1.42500E+02 4.48040E+01 0.00000E+00
 -1      1943 1.46538E+02 4.61825E+01 0.00000E+00
 -1      1944 1.41240E+01 3.48650E+00 0.00000E+00
 -1      1945 1.26240E+01 3.48650E+00 0.00000E+00
 -1      1946 1.71240E+01 3.48650E+00 0.00000E+00
 -1      1947 1.56240E+01 3.48650E+00 0.00000E+00
 -1      1948 1.48740E+01 4.78550E+00 0.00000E+00
 -1      1949 2.01240E+01 3.48650E+00 0.00000E+00
 -1      1950 1.86240E+01 3.48650E+00 0.00000E+00
 -1      1951 1.78740E+01 4.78550E+00 0.00000E+00
 -1      1952 2.31240E+01 3.48650E+00 0.00000E+00
 -1      1953 2.16240E+01 3.48650E+00 0.00000E+00
 -1      1954 2.08740E+01 4.78550E+00 0.00000E+00
 -1      1955 2.61240E+01 3.48650E+00 0.00000E+00
 -1      1956 2.46240E+01 3.48650E+00 0.00000E+00
 -1      1957 2.38740E+01 4.78550E+00 0.00000E+00
 -1      1958 2.91240E+01 3.48650E+00 0.00000E+00
 -1      1959 2.76240E+01 3.48650E+00 0.00000E+00
 -1      1960 2.68740E+01 4.78550E+00 0.00000E+00
 -1      1961 3.21240E+01 3.48650E+00 0.00000E+00
 -1      1962 3.06240E+01 3.48650E+00 0.00000E+00
 -1      1963 2.98740E+01 4.78550E+00 0.00000E+00
 -1      1964 3.51240E+01 3.48650E+00 0.00000E+00
 -1      1965 3.36240E+01 3.48650E+00 0.00000E+00
 -1      1966 3.28740E+01 4.78550E+00 0.00000E+00
 -1      1967 3.81240E+01 3.48650E+00 0.00000E+00
 -1      1968 3.66240E+01 3.48650E+00 0.00000E+00
 -1      1969 3.58740E+01 4.78550E+00 0.00000E+00
 -1      1970 4.11240E+01 3.48650E+00 0.00000E+00
 -1      1971 3.96240E+01 3.48650E+00 0.00000E+00
 -1      1972 3.88740E+01 4.78550E+00 0.00000E+00
 -1      1973 4.41240E+01 3.48650E+00 0.00000E+00
 -1      1974 4.26240E+01 3.48650E+00 0.00000E+00
 -1      1975 4.18740E+01 4.78550E+00 0.00000E+00
 -1      1976 4.71240E+01 3.48650E+00 0.00000E+00
 -1      1977 4.56240E+01 3.48650E+00 0.00000E+00
 -1      1978 4.48740E+01 4.78550E+00 0.00000E+00
 -1      1979 5.01240E+01 3.48650E+00 0.00000E+00
 -1      1980 4.86240E+01 3.48650E+00 0.00000E+00
 -1      1981 4.78740E+01 4.78550E+00 0.00000E+00
 -1      1982 5.31240E+01 3.48650E+00 0.00000E+00
 -1      1983 5.16240E+01 3.48650E+00 0.00000E+00
 -1      1984 5.08740E+01 4.78550E+00 0.00000E+00
 -1      1985 5.61240E+01 3.48650E+00 0.00000E+00
 -1      1986 5.46240E+01 3.48650E+00 0.00000E+00
 -1      1987 5.38740E+01 4.78550E+00 0.00000E+00
 -1      1988 5.91240E+01 3.48650E+00 0.00000E+00
 -1      1989 5.76240E+01 3.48650E+00 0.00000E+00
 -1      1990 5.68740E+01 4.78550E+00 0.00000E+00
 -1      1991 6.21240E+01 3.48650E+00 0.00000E+00
 -1      1992 6.06240E+01 3.48650E+00 0.00000E+00
 -1      1993 5.98740E+01 4.78550E+00 0.00000E+00
 -1      1994 6.51240E+01 3.48650E+00 0.00000E+00
 -1      1995 6.36240E+01 3.48650E+00 0.00000E+00
 -1      1996 6.28740E+01 4.78550E+00 0.00000E+00
 -1      1997 6.81240E+01 3.48650E+00 0.00000E+00
 -1      1998 6.66240E+01 3.48650E+00 0.00000E+00
 -1      1999 6.58740E+01 4.78550E+00 0.00000E+00
 -1      2000 7.11240E+01 3.48650E+00 0.00000E+00
 -1      2001 6.96240E+01 3.48650E+00 0.00000E+00
 -1      2002 6.88740E+01 4.78550E+00 0.00000E+00
 -1      2003 7.41240E+01 3.48650E+00 0.00000E+00
 -1      2004 7.26240E+01 3.48650E+00 0.00000E+00
 -1      2005 7.18740E+01 4.78550E+00 0.00000E+00
 -1      2006 7.71240E+01 3.48650E+00 0.00000E+00
 -1      2007 7.56240E+01 3.48650E+00 0.00000E+00
 -1      2008 7.48740E+01 4.78550E+00 0.00000E+00
 -1      2009 8.01240E+01 3.48650E+00 0.00000E+00
 -1      2010 7.86240E+01 3.48650E+00 0.00000E+00
 -1      2011 7.78740E+01 4.78550E+00 0.00000E+00
 -1      2012 8.31240E+01 3.48650E+00 0.00000E+00
 -1      2013 8.16240E+01 3.48650E+00 0.00000E+00
 -1      2014 8.08740E+01 4.78550E+00 0.00000E+00
 -1      2015 8.61240E+01 3.48650E+00 0.00000E+00
 -1      2016 8.46240E+01 3.48650E+00 0.00000E+00
 -1      2017 8.38740E+01 4.78550E+00 0.00000E+00
 -1      2018 8.91240E+01 3.48650E+00 0.00000E+00
 -1      2019 8.76240E+01 3.48650E+00 0.00000E+00
 -1      2020 8.68740E+01 4.78550E+00 0.00000E+00
 -1      2021 9.21240E+01 3.48650E+00 0.00000E+00
 -1      2022 9.06240E+01 3.48650E+00 0.00000E+00
 -1      2023 8.98740E+01 4.78550E+00 0.00000E+00
 -1      2024 9.51240E+01 3.48650E+00 0.00000E+00
 -1      2025 9.36240E+01 3.48650E+00 0.00000E+00
 -1      2026 9.28740E+01 4.78550E+00 0.00000E+00
 -1      2027 9.81240E+01 3.48650E+00 0.00000E+00
 -1      2028 9.66240E+01 3.48650E+00 0.00000E+00
 -1      2029 9.58740E+01 4.78550E+00 0.00000E+00
 -1      2030 1.01124E+02 3.48650E+00 0.00000E+00
 -1      2031 9.96240E+01 3.48650E+00 0.00000E+00
 -1      2032 9.88740E+01 4.78550E+00 0.00000E+00
 -1      2033 1.04124E+02 3.48650E+00 0.00000E+00
 -1      2034 1.02624E+02 3.48650E+00 0.00000E+00
 -1      2035 1.01874E+02 4.78550E+00 0.00000E+00
 -1      2036 1.07124E+02 3.48650E+00 0.00000E+00
 -1      2037 1.05624E+02 3.48650E+00 0.00000E+00
 -1      2038 1.04874E+02 4.78550E+00 0.00000E+00
 -1      2039 1.10124E+02 3.48650E+00 0.00000E+00
 -1      2040 1.08624E+02 3.48650E+00 0.00000E+00
 -1      2041 1.07874E+02 4.78550E+00 0.00000E+00
 -1      2042 1.13124E+02 3.48650E+00 0.00000E+00
 -1      2043 1.11624E+02 3.48650E+00 0.00000E+00
 -1      2044 1.10874E+02 4.78550E+00 0.00000E+00
 -1      2045 1.16124E+02 3.48650E+00 0.00000E+00
 -1      2046 1.14624E+02 3.48650E+00 0.00000E+00
 -1      2047 1.13874E+02 4.78550E+00 0.00000E+00
 -1      2048 1.19124E+02 3.48650E+00 0.00000E+00
 -1      2049 1.17624E+02 3.48650E+00 0.00000E+00
 -1      2050 1.16874E+02 4.78550E+00 0.00000E+00
 -1      2051 1.22124E+02 3.48650E+00 0.00000E+00
 -1      2052 1.20624E+02 3.48650E+00 0.00000E+00
 -1      2053 1.19874E+02 4.78550E+00 0.00000E+00
 -1      2054 1.25124E+02 3.48650E+00 0.00000E+00
 -1      2055 1.23624E+02 3.48650E+00 0.00000E+00
 -1      2056 1.22874E+02 4.78550E+00 0.00000E+00
 -1      2057 1.28124E+02 3.48650E+00 0.00000E+00
 -1      2058 1.26624E+02 3.48650E+00 0.00000E+00
 -1      2059 1.25874E+02 4.78550E+00 0.00000E+00
 -1      2060 1.31124E+02 3.48650E+00 0.00000E+00
 -1      2061 1.29624E+02 3.48650E+00 0.00000E+00
 -1      2062 1.28874E+02 4.78550E+00 0.00000E+00
 -1      2063 1.34124E+02 3.48650E+00 0.00000E+00
 -1      2064 1.32624E+02 3.48650E+00 0.00000E+00
 -1      2065 1.31874E+02 4.78550E+00 0.00000E+00
 -1      2066 1.37124E+02 3.48650E+00 0.00000E+00
 -1      2067 1.35624E+02 3.48650E+00 0.00000E+00
 -1      2068 1.34874E+02 4.78550E+00 0.00000E+00
 -1      2069 1.40124E+02 3.48650E+00 0.00000E+00
 -1      2070 1.38624E+02 3.48650E+00 0.00000E+00
 -1      2071 1.37874E+02 4.78550E+00 0.00000E+00
 -1      2072 1.43124E+02 3.48650E+00 0.00000E+00
 -1      2073 1.41624E+02 3.48650E+00 0.00000E+00
 -1      2074 1.40874E+02 4.78550E+00 0.00000E+00
 -1      2075 1.45881E+02 3.39637E+00 0.00000E+00
 -1      2076 1.44381E+02 3.39637E+00 0.00000E+00
 -1      2077 1.43631E+02 4.69537E+00 0.00000E+00
 -1      2078 1.46145E+02 4.51512E+00 0.00000E+00
 -1      2079 1.46103E+02 1.25375E+01 0.00000E+00
 -1      2080 1.46103E+02 1.10625E+01 0.00000E+00
 -1      2081 1.46103E+02 9.58750E+00 0.00000E+00
 -1      2082 1.46103E+02 8.11250E+00 0.00000E+00
 -1      2083 1.44804E+02 1.03250E+01 0.00000E+00
 -1      2084 1.46145E+02 5.99013E+00 0.00000E+00
 -1      2085 1.46103E+02 1.54375E+01 0.00000E+00
 -1      2086 1.46103E+02 1.39875E+01 0.00000E+00
 -1      2087 1.44804E+02 1.32500E+01 0.00000E+00
 -1      2088 1.46103E+02 1.83875E+01 0.00000E+00
 -1      2089 1.46103E+02 1.69125E+01 0.00000E+00
 -1      2090 1.44804E+02 1.61750E+01 0.00000E+00
 -1      2091 1.46103E+02 2.13375E+01 0.00000E+00
 -1      2092 1.46103E+02 1.98625E+01 0.00000E+00
 -1      2093 1.44804E+02 1.91250E+01 0.00000E+00
 -1      2094 1.46103E+02 2.42875E+01 0.00000E+00
 -1      2095 1.46103E+02 2.28125E+01 0.00000E+00
 -1      2096 1.44804E+02 2.20750E+01 0.00000E+00
 -1      2097 1.46103E+02 2.72375E+01 0.00000E+00
 -1      2098 1.46103E+02 2.57625E+01 0.00000E+00
 -1      2099 1.44804E+02 2.50250E+01 0.00000E+00
 -1      2100 1.46103E+02 3.01875E+01 0.00000E+00
 -1      2101 1.46103E+02 2.87125E+01 0.00000E+00
 -1      2102 1.44804E+02 2.79750E+01 0.00000E+00
 -1      2103 1.46103E+02 3.30875E+01 0.00000E+00
 -1      2104 1.46103E+02 3.16375E+01 0.00000E+00
 -1      2105 1.44804E+02 3.09000E+01 0.00000E+00
 -1      2106 1.46103E+02 3.60375E+01 0.00000E+00
 -1      2107 1.46103E+02 3.45625E+01 0.00000E+00
 -1      2108 1.44804E+02 3.38250E+01 0.00000E+00
 -1      2109 1.46103E+02 3.89875E+01 0.00000E+00
 -1      2110 1.46103E+02 3.75125E+01 0.00000E+00
 -1      2111 1.44804E+02 3.67750E+01 0.00000E+00
 -1      2112 1.46103E+02 4.19375E+01 0.00000E+00
 -1      2113 1.46103E+02 4.04625E+01 0.00000E+00
 -1      2114 1.44804E+02 3.97250E+01 0.00000E+00
 -1      2115 1.14143E+01 3.29169E+00 0.00000E+00
 -1      2116 9.91425E+00 3.29169E+00 0.00000E+00
 -1      2117 9.74475E+00 4.20106E+00 0.00000E+00
 -1      2118 1.21643E+01 4.59069E+00 0.00000E+00
 -1      2119 8.28775E+01 2.37229E+01 0.00000E+00
 -1      2120 8.32397E+01 2.44992E+01 0.00000E+00
 -1      2121 8.04661E+01 2.07755E+01 0.00000E+00
 -1      2122 8.11323E+01 2.13943E+01 0.00000E+00
 -1      2123 8.38604E+01 2.74082E+01 0.00000E+00
 -1      2124 8.38271E+01 2.82958E+01 0.00000E+00
 -1      2125 8.17857E+01 2.21758E+01 0.00000E+00
 -1      2126 8.23139E+01 2.28715E+01 0.00000E+00
 -1      2127 3.89700E+00 3.74688E+01 0.00000E+00
 -1      2128 3.89700E+00 3.89437E+01 0.00000E+00
 -1      2129 5.19600E+00 3.96813E+01 0.00000E+00
 -1      2130 5.19600E+00 3.67438E+01 0.00000E+00
 -1      2131 7.87441E+01 1.97928E+01 0.00000E+00
 -1      2132 7.95350E+01 2.02134E+01 0.00000E+00
 -1      2133 7.69652E+01 1.91087E+01 0.00000E+00
 -1      2134 7.78214E+01 1.94254E+01 0.00000E+00
 -1      2135 7.49062E+01 1.89654E+01 0.00000E+00
 -1      2136 7.58264E+01 1.89288E+01 0.00000E+00
 -1      2137 7.30197E+01 1.89530E+01 0.00000E+00
 -1      2138 7.39150E+01 1.88381E+01 0.00000E+00
 -1      2139 7.11262E+01 1.97283E+01 0.00000E+00
 -1      2140 7.19462E+01 1.93486E+01 0.00000E+00
 -1      2141 6.95624E+01 2.08277E+01 0.00000E+00
 -1      2142 7.02524E+01 2.03015E+01 0.00000E+00
 -1      2143 6.82297E+01 2.20579E+01 0.00000E+00
 -1      2144 6.88097E+01 2.14462E+01 0.00000E+00
 -1      2145 6.71831E+01 2.34634E+01 0.00000E+00
 -1      2146 6.77064E+01 2.27606E+01 0.00000E+00
 -1      2147 6.74349E+01 2.19224E+01 0.00000E+00
 -1      2148 6.63840E+01 2.53972E+01 0.00000E+00
 -1      2149 6.65972E+01 2.45421E+01 0.00000E+00
 -1      2150 6.59277E+01 2.71567E+01 0.00000E+00
 -1      2151 6.61559E+01 2.62770E+01 0.00000E+00
 -1      2152 6.55116E+01 2.56623E+01 0.00000E+00
 -1      2153 6.61485E+01 2.92569E+01 0.00000E+00
 -1      2154 6.59787E+01 2.83514E+01 0.00000E+00
 -1      2155 6.66571E+01 3.10885E+01 0.00000E+00
 -1      2156 6.63447E+01 3.02681E+01 0.00000E+00
 -1      2157 6.76364E+01 3.26793E+01 0.00000E+00
 -1      2158 6.71967E+01 3.19265E+01 0.00000E+00
 -1      2159 6.86679E+01 3.42532E+01 0.00000E+00
 -1      2160 6.81136E+01 3.35351E+01 0.00000E+00
 -1      2161 7.03953E+01 3.54041E+01 0.00000E+00
 -1      2162 6.96016E+01 3.49539E+01 0.00000E+00
 -1      2163 7.20335E+01 3.63068E+01 0.00000E+00
 -1      2164 7.12110E+01 3.58895E+01 0.00000E+00
 -1      2165 7.40444E+01 3.68319E+01 0.00000E+00
 -1      2166 7.31253E+01 3.67229E+01 0.00000E+00
 -1      2167 7.59952E+01 3.67457E+01 0.00000E+00
 -1      2168 7.51170E+01 3.68401E+01 0.00000E+00
 -1      2169 7.77940E+01 3.64002E+01 0.00000E+00
 -1      2170 7.68946E+01 3.65729E+01 0.00000E+00
 -1      2171 7.65382E+01 3.73895E+01 0.00000E+00
 -1      2172 7.97192E+01 3.54678E+01 0.00000E+00
 -1      2173 7.89594E+01 3.59743E+01 0.00000E+00
 -1      2174 8.11898E+01 3.43934E+01 0.00000E+00
 -1      2175 8.04545E+01 3.49306E+01 0.00000E+00
 -1      2176 8.05038E+01 3.58277E+01 0.00000E+00
 -1      2177 8.24244E+01 3.27061E+01 0.00000E+00
 -1      2178 8.19622E+01 3.34708E+01 0.00000E+00
 -1      2179 8.33080E+01 3.11663E+01 0.00000E+00
 -1      2180 8.28801E+01 3.19257E+01 0.00000E+00
 -1      2181 8.37147E+01 2.92216E+01 0.00000E+00
 -1      2182 8.36146E+01 3.00886E+01 0.00000E+00
 -1      2183 8.35833E+01 2.54428E+01 0.00000E+00
 -1      2184 8.38173E+01 2.63048E+01 0.00000E+00
 -1      2185 1.45788E+02 4.48835E+01 0.00000E+00
 -1      2186 8.19793E+01 2.12995E+01 0.00000E+00
 -1      2187 6.42300E+00 4.57510E+01 0.00000E+00
 -1      2188 8.31962E+01 2.29325E+01 0.00000E+00
 -1      2189 8.03947E+01 1.99560E+01 0.00000E+00
 -1      2190 7.17300E+00 4.44520E+01 0.00000E+00
 -1      2191 1.44846E+02 6.72762E+00 0.00000E+00
 -1      2192 8.44902E+01 2.67745E+01 0.00000E+00
 -1      2193 1.45701E+02 4.37395E+01 0.00000E+00
 -1      2194 8.41034E+01 2.47275E+01 0.00000E+00
 -1      2195 8.44209E+01 2.88037E+01 0.00000E+00
 -1      2196 8.40018E+01 3.08070E+01 0.00000E+00
 -1      2197 8.20115E+01 3.43679E+01 0.00000E+00
 -1      2198 7.86030E+01 3.67908E+01 0.00000E+00
 -1      2199 7.45663E+01 3.75540E+01 0.00000E+00
 -1      2200 7.24019E+01 3.71296E+01 0.00000E+00
 -1      2201 7.04944E+01 3.62281E+01 0.00000E+00
 -1      2202 6.87450E+01 3.50420E+01 0.00000E+00
 -1      2203 6.73341E+01 3.34855E+01 0.00000E+00
 -1      2204 6.63173E+01 3.17917E+01 0.00000E+00
 -1      2205 6.53345E+01 2.77367E+01 0.00000E+00
 -1      2206 6.63257E+01 2.37038E+01 0.00000E+00
 -1      2207 6.87109E+01 2.06012E+01 0.00000E+00
 -1      2208 7.03373E+01 1.94095E+01 0.00000E+00
 -1      2209 7.22847E+01 1.84406E+01 0.00000E+00
 -1      2210 7.43494E+01 1.81722E+01 0.00000E+00
 -1      2211 7.85409E+01 1.90266E+01 0.00000E+00
 -1      2212 7.64794E+01 1.84794E+01 0.00000E+00
 -1      2213 7.71324E+01 1.80299E+01 0.00000E+00
 -1      2214 7.59935E+01 1.78501E+01 0.00000E+00
 -1      2215 6.55816E+01 2.99425E+01 0.00000E+00
 -1      2216 8.32395E+01 3.26650E+01 0.00000E+00
 -1      2217 1.44402E+02 4.30020E+01 0.00000E+00
 -1      2218 6.49500E+00 3.01125E+01 0.00000E+00
 -1      2219 6.49500E+00 3.15875E+01 0.00000E+00
 -1      2220 6.49500E+00 3.30625E+01 0.00000E+00
 -1      2221 6.49500E+00 3.45375E+01 0.00000E+00
 -1      2222 7.79400E+00 3.23250E+01 0.00000E+00
 -1      2223 6.49500E+00 2.42125E+01 0.00000E+00
 -1      2224 6.49500E+00 2.56875E+01 0.00000E+00
 -1      2225 6.49500E+00 2.12625E+01 0.00000E+00
 -1      2226 6.49500E+00 2.27375E+01 0.00000E+00
 -1      2227 7.79400E+00 2.34750E+01 0.00000E+00
 -1      2228 6.49500E+00 1.83625E+01 0.00000E+00
 -1      2229 6.49500E+00 1.98125E+01 0.00000E+00
 -1      2230 7.79400E+00 2.05500E+01 0.00000E+00
 -1      2231 6.49500E+00 1.54125E+01 0.00000E+00
 -1      2232 6.49500E+00 1.68875E+01 0.00000E+00
 -1      2233 7.79400E+00 1.76250E+01 0.00000E+00
 -1      2234 6.49500E+00 1.24625E+01 0.00000E+00
 -1      2235 6.49500E+00 1.39375E+01 0.00000E+00
 -1      2236 7.79400E+00 1.46750E+01 0.00000E+00
 -1      2237 6.49500E+00 9.51250E+00 0.00000E+00
 -1      2238 6.49500E+00 1.09875E+01 0.00000E+00
 -1      2239 7.79400E+00 1.17250E+01 0.00000E+00
 -1      2240 6.49500E+00 6.56250E+00 0.00000E+00
 -1      2241 6.49500E+00 8.03750E+00 0.00000E+00
 -1      2242 7.79400E+00 8.77500E+00 0.00000E+00
 -1      2243 6.84975E+00 4.82969E+00 0.00000E+00
 -1      2244 6.68025E+00 5.73906E+00 0.00000E+00
 -1      2245 7.97925E+00 6.47656E+00 0.00000E+00
 -1      2246 8.34975E+00 4.82969E+00 0.00000E+00
 -1      2247 9.90000E+00 4.35050E+01 0.00000E+00
 -1      2248 1.14000E+01 4.35050E+01 0.00000E+00
 -1      2249 8.35597E+01 2.20797E+01 0.00000E+00
 -1      2250 8.41232E+01 2.29311E+01 0.00000E+00
 -1      2251 8.23105E+01 2.03587E+01 0.00000E+00
 -1      2252 8.29639E+01 2.11403E+01 0.00000E+00
 -1      2253 1.29000E+01 4.35050E+01 0.00000E+00
 -1      2254 1.44000E+01 4.35050E+01 0.00000E+00
 -1      2255 1.21500E+01 4.22060E+01 0.00000E+00
 -1      2256 1.59000E+01 4.35050E+01 0.00000E+00
 -1      2257 1.74000E+01 4.35050E+01 0.00000E+00
 -1      2258 1.51500E+01 4.22060E+01 0.00000E+00
 -1      2259 1.89000E+01 4.35050E+01 0.00000E+00
 -1      2260 2.04000E+01 4.35050E+01 0.00000E+00
 -1      2261 1.81500E+01 4.22060E+01 0.00000E+00
 -1      2262 2.19000E+01 4.35050E+01 0.00000E+00
 -1      2263 2.34000E+01 4.35050E+01 0.00000E+00
 -1      2264 2.11500E+01 4.22060E+01 0.00000E+00
 -1      2265 2.49000E+01 4.35050E+01 0.00000E+00
 -1      2266 2.64000E+01 4.35050E+01 0.00000E+00
 -1      2267 2.41500E+01 4.22060E+01 0.00000E+00
 -1      2268 2.79000E+01 4.35050E+01 0.00000E+00
 -1      2269 2.94000E+01 4.35050E+01 0.00000E+00
 -1      2270 2.71500E+01 4.22060E+01 0.00000E+00
 -1      2271 3.09000E+01 4.35050E+01 0.00000E+00
 -1      2272 3.24000E+01 4.35050E+01 0.00000E+00
 -1      2273 3.01500E+01 4.22060E+01 0.00000E+00
 -1      2274 3.39000E+01 4.35050E+01 0.00000E+00
 -1      2275 3.54000E+01 4.35050E+01 0.00000E+00
 -1      2276 3.31500E+01 4.22060E+01 0.00000E+00
 -1      2277 3.69000E+01 4.35050E+01 0.00000E+00
 -1      2278 3.84000E+01 4.35050E+01 0.00000E+00
 -1      2279 3.61500E+01 4.22060E+01 0.00000E+00
 -1      2280 3.99000E+01 4.35050E+01 0.00000E+00
 -1      2281 4.14000E+01 4.35050E+01 0.00000E+00
 -1      2282 3.91500E+01 4.22060E+01 0.00000E+00
 -1      2283 4.29000E+01 4.35050E+01 0.00000E+00
 -1      2284 4.44000E+01 4.35050E+01 0.00000E+00
 -1      2285 4.21500E+01 4.22060E+01 0.00000E+00
 -1      2286 4.59000E+01 4.35050E+01 0.00000E+00
 -1      2287 4.74000E+01 4.35050E+01 0.00000E+00
 -1      2288 4.51500E+01 4.22060E+01 0.00000E+00
 -1      2289 4.89000E+01 4.35050E+01 0.00000E+00
 -1      2290 5.04000E+01 4.35050E+01 0.00000E+00
 -1      2291 4.81500E+01 4.22060E+01 0.00000E+00
 -1      2292 5.19000E+01 4.35050E+01 0.00000E+00
 -1      2293 5.34000E+01 4.35050E+01 0.00000E+00
 -1      2294 5.11500E+01 4.22060E+01 0.00000E+00
 -1      2295 5.49000E+01 4.35050E+01 0.00000E+00
 -1      2296 5.64000E+01 4.35050E+01 0.00000E+00
 -1      2297 5.41500E+01 4.22060E+01 0.00000E+00
 -1      2298 5.79000E+01 4.35050E+01 0.00000E+00
 -1      2299 5.94000E+01 4.35050E+01 0.00000E+00
 -1      2300 5.71500E+01 4.22060E+01 0.00000E+00
 -1      2301 6.09000E+01 4.35050E+01 0.00000E+00
 -1      2302 6.24000E+01 4.35050E+01 0.00000E+00
 -1      2303 6.01500E+01 4.22060E+01 0.00000E+00
 -1      2304 6.39000E+01 4.35050E+01 0.00000E+00
 -1      2305 6.54000E+01 4.35050E+01 0.00000E+00
 -1      2306 6.31500E+01 4.22060E+01 0.00000E+00
 -1      2307 6.69000E+01 4.35050E+01 0.00000E+00
 -1      2308 6.84000E+01 4.35050E+01 0.00000E+00
 -1      2309 6.61500E+01 4.22060E+01 0.00000E+00
 -1      2310 6.99000E+01 4.35050E+01 0.00000E+00
 -1      2311 7.14000E+01 4.35050E+01 0.00000E+00
 -1      2312 6.91500E+01 4.22060E+01 0.00000E+00
 -1      2313 7.28250E+01 4.35050E+01 0.00000E+00
 -1      2314 7.42500E+01 4.35050E+01 0.00000E+00
 -1      2315 7.20750E+01 4.22060E+01 0.00000E+00
 -1      2316 7.57500E+01 4.35050E+01 0.00000E+00
 -1      2317 7.72500E+01 4.35050E+01 0.00000E+00
 -1      2318 7.50000E+01 4.22060E+01 0.00000E+00
 -1      2319 7.87500E+01 4.35050E+01 0.00000E+00
 -1      2320 8.02500E+01 4.35050E+01 0.00000E+00
 -1      2321 7.80000E+01 4.22060E+01 0.00000E+00
 -1      2322 8.17500E+01 4.35050E+01 0.00000E+00
 -1      2323 8.32500E+01 4.35050E+01 0.00000E+00
 -1      2324 8.10000E+01 4.22060E+01 0.00000E+00
 -1      2325 8.47500E+01 4.35050E+01 0.00000E+00
 -1      2326 8.62500E+01 4.35050E+01 0.00000E+00
 -1      2327 8.40000E+01 4.22060E+01 0.00000E+00
 -1      2328 8.77500E+01 4.35050E+01 0.00000E+00
 -1      2329 8.92500E+01 4.35050E+01 0.00000E+00
 -1      2330 8.70000E+01 4.22060E+01 0.00000E+00
 -1      2331 9.07500E+01 4.35050E+01 0.00000E+00
 -1      2332 9.22500E+01 4.35050E+01 0.00000E+00
 -1      2333 9.00000E+01 4.22060E+01 0.00000E+00
 -1      2334 9.37500E+01 4.35050E+01 0.00000E+00
 -1      2335 9.52500E+01 4.35050E+01 0.00000E+00
 -1      2336 9.30000E+01 4.22060E+01 0.00000E+00
 -1      2337 9.67500E+01 4.35050E+01 0.00000E+00
 -1      2338 9.82500E+01 4.35050E+01 0.00000E+00
 -1      2339 9.60000E+01 4.22060E+01 0.00000E+00
 -1      2340 9.97500E+01 4.35050E+01 0.00000E+00
 -1      2341 1.01250E+02 4.35050E+01 0.00000E+00
 -1      2342 9.90000E+01 4.22060E+01 0.00000E+00
 -1      2343 1.02750E+02 4.35050E+01 0.00000E+00
 -1      2344 1.04250E+02 4.35050E+01 0.00000E+00
 -1      2345 1.02000E+02 4.22060E+01 0.00000E+00
 -1      2346 1.05750E+02 4.35050E+01 0.00000E+00
 -1      2347 1.07250E+02 4.35050E+01 0.00000E+00
 -1      2348 1.05000E+02 4.22060E+01 0.00000E+00
 -1      2349 1.08750E+02 4.35050E+01 0.00000E+00
 -1      2350 1.10250E+02 4.35050E+01 0.00000E+00
 -1      2351 1.08000E+02 4.22060E+01 0.00000E+00
 -1      2352 1.11750E+02 4.35050E+01 0.00000E+00
 -1      2353 1.13250E+02 4.35050E+01 0.00000E+00
 -1      2354 1.11000E+02 4.22060E+01 0.00000E+00
 -1      2355 1.14750E+02 4.35050E+01 0.00000E+00
 -1      2356 1.16250E+02 4.35050E+01 0.00000E+00
 -1      2357 1.14000E+02 4.22060E+01 0.00000E+00
 -1      2358 1.17750E+02 4.35050E+01 0.00000E+00
 -1      2359 1.19250E+02 4.35050E+01 0.00000E+00
 -1      2360 1.17000E+02 4.22060E+01 0.00000E+00
 -1      2361 1.20750E+02 4.35050E+01 0.00000E+00
 -1      2362 1.22250E+02 4.35050E+01 0.00000E+00
 -1      2363 1.20000E+02 4.22060E+01 0.00000E+00
 -1      2364 1.23750E+02 4.35050E+01 0.00000E+00
 -1      2365 1.25250E+02 4.35050E+01 0.00000E+00
 -1      2366 1.23000E+02 4.22060E+01 0.00000E+00
 -1      2367 1.26750E+02 4.35050E+01 0.00000E+00
 -1      2368 1.28250E+02 4.35050E+01 0.00000E+00
 -1      2369 1.26000E+02 4.22060E+01 0.00000E+00
 -1      2370 1.29750E+02 4.35050E+01 0.00000E+00
 -1      2371 1.31250E+02 4.35050E+01 0.00000E+00
 -1      2372 1.29000E+02 4.22060E+01 0.00000E+00
 -1      2373 1.32750E+02 4.35050E+01 0.00000E+00
 -1      2374 1.34250E+02 4.35050E+01 0.00000E+00
 -1      2375 1.32000E+02 4.22060E+01 0.00000E+00
 -1      2376 1.35750E+02 4.35050E+01 0.00000E+00
 -1      2377 1.37250E+02 4.35050E+01 0.00000E+00
 -1      2378 1.35000E+02 4.22060E+01 0.00000E+00
 -1      2379 1.38750E+02 4.35050E+01 0.00000E+00
 -1      2380 1.40250E+02 4.35050E+01 0.00000E+00
 -1      2381 1.38000E+02 4.22060E+01 0.00000E+00
 -1      2382 1.41576E+02 4.32535E+01 0.00000E+00
 -1      2383 1.43076E+02 4.32535E+01 0.00000E+00
 -1      2384 1.43478E+02 4.14515E+01 0.00000E+00
 -1      2385 1.40826E+02 4.19545E+01 0.00000E+00
 -1      2386 2.16240E+01 6.08450E+00 0.00000E+00
 -1      2387 2.01240E+01 6.08450E+00 0.00000E+00
 -1      2388 1.86240E+01 6.08450E+00 0.00000E+00
 -1      2389 1.71240E+01 6.08450E+00 0.00000E+00
 -1      2390 1.93740E+01 7.38350E+00 0.00000E+00
 -1      2391 1.56240E+01 6.08450E+00 0.00000E+00
 -1      2392 1.41240E+01 6.08450E+00 0.00000E+00
 -1      2393 1.63740E+01 7.38350E+00 0.00000E+00
 -1      2394 2.46240E+01 6.08450E+00 0.00000E+00
 -1      2395 2.31240E+01 6.08450E+00 0.00000E+00
 -1      2396 2.23740E+01 7.38350E+00 0.00000E+00
 -1      2397 2.76240E+01 6.08450E+00 0.00000E+00
 -1      2398 2.61240E+01 6.08450E+00 0.00000E+00
 -1      2399 2.53740E+01 7.38350E+00 0.00000E+00
 -1      2400 3.06240E+01 6.08450E+00 0.00000E+00
 -1      2401 2.91240E+01 6.08450E+00 0.00000E+00
 -1      2402 2.83740E+01 7.38350E+00 0.00000E+00
 -1      2403 3.36240E+01 6.08450E+00 0.00000E+00
 -1      2404 3.21240E+01 6.08450E+00 0.00000E+00
 -1      2405 3.13740E+01 7.38350E+00 0.00000E+00
 -1      2406 3.66240E+01 6.08450E+00 0.00000E+00
 -1      2407 3.51240E+01 6.08450E+00 0.00000E+00
 -1      2408 3.43740E+01 7.38350E+00 0.00000E+00
 -1      2409 3.96240E+01 6.08450E+00 0.00000E+00
 -1      2410 3.81240E+01 6.08450E+00 0.00000E+00
 -1      2411 3.73740E+01 7.38350E+00 0.00000E+00
 -1      2412 4.26240E+01 6.08450E+00 0.00000E+00
 -1      2413 4.11240E+01 6.08450E+00 0.00000E+00
 -1      2414 4.03740E+01 7.38350E+00 0.00000E+00
 -1      2415 4.56240E+01 6.08450E+00 0.00000E+00
 -1      2416 4.41240E+01 6.08450E+00 0.00000E+00
 -1      2417 4.33740E+01 7.38350E+00 0.00000E+00
 -1      2418 4.86240E+01 6.08450E+00 0.00000E+00
 -1      2419 4.71240E+01 6.08450E+00 0.00000E+00
 -1      2420 4.63740E+01 7.38350E+00 0.00000E+00
 -1      2421 5.16240E+01 6.08450E+00 0.00000E+00
 -1      2422 5.01240E+01 6.08450E+00 0.00000E+00
 -1      2423 4.93740E+01 7.38350E+00 0.00000E+00
 -1      2424 5.46240E+01 6.08450E+00 0.00000E+00
 -1      2425 5.31240E+01 6.08450E+00 0.00000E+00
 -1      2426 5.23740E+01 7.38350E+00 0.00000E+00
 -1      2427 5.76240E+01 6.08450E+00 0.00000E+00
 -1      2428 5.61240E+01 6.08450E+00 0.00000E+00
 -1      2429 5.53740E+01 7.38350E+00 0.00000E+00
 -1      2430 6.06240E+01 6.08450E+00 0.00000E+00
 -1      2431 5.91240E+01 6.08450E+00 0.00000E+00
 -1      2432 5.83740E+01 7.38350E+00 0.00000E+00
 -1      2433 6.36240E+01 6.08450E+00 0.00000E+00
 -1      2434 6.21240E+01 6.08450E+00 0.00000E+00
 -1      2435 6.13740E+01 7.38350E+00 0.00000E+00
 -1      2436 6.66240E+01 6.08450E+00 0.00000E+00
 -1      2437 6.51240E+01 6.08450E+00 0.00000E+00
 -1      2438 6.43740E+01 7.38350E+00 0.00000E+00
 -1      2439 6.96240E+01 6.08450E+00 0.00000E+00
 -1      2440 6.81240E+01 6.08450E+00 0.00000E+00
 -1      2441 6.73740E+01 7.38350E+00 0.00000E+00
 -1      2442 7.26240E+01 6.08450E+00 0.00000E+00
 -1      2443 7.11240E+01 6.08450E+00 0.00000E+00
 -1      2444 7.03740E+01 7.38350E+00 0.00000E+00
 -1      2445 7.56240E+01 6.08450E+00 0.00000E+00
 -1      2446 7.41240E+01 6.08450E+00 0.00000E+00
 -1      2447 7.33740E+01 7.38350E+00 0.00000E+00
 -1      2448 7.86240E+01 6.08450E+00 0.00000E+00
 -1      2449 7.71240E+01 6.08450E+00 0.00000E+00
 -1      2450 7.63740E+01 7.38350E+00 0.00000E+00
 -1      2451 8.16240E+01 6.08450E+00 0.00000E+00
 -1      2452 8.01240E+01 6.08450E+00 0.00000E+00
 -1      2453 7.93740E+01 7.38350E+00 0.00000E+00
 -1      2454 8.46240E+01 6.08450E+00 0.00000E+00
 -1      2455 8.31240E+01 6.08450E+00 0.00000E+00
 -1      2456 8.23740E+01 7.38350E+00 0.00000E+00
 -1      2457 8.76240E+01 6.08450E+00 0.00000E+00
 -1      2458 8.61240E+01 6.08450E+00 0.00000E+00
 -1      2459 8.53740E+01 7.38350E+00 0.00000E+00
 -1      2460 9.06240E+01 6.08450E+00 0.00000E+00
 -1      2461 8.91240E+01 6.08450E+00 0.00000E+00
 -1      2462 8.83740E+01 7.38350E+00 0.00000E+00
 -1      2463 9.36240E+01 6.08450E+00 0.00000E+00
 -1      2464 9.21240E+01 6.08450E+00 0.00000E+00
 -1      2465 9.13740E+01 7.38350E+00 0.00000E+00
 -1      2466 9.66240E+01 6.08450E+00 0.00000E+00
 -1      2467 9.51240E+01 6.08450E+00 0.00000E+00
 -1      2468 9.43740E+01 7.38350E+00 0.00000E+00
 -1      2469 9.96240E+01 6.08450E+00 0.00000E+00
 -1      2470 9.81240E+01 6.08450E+00 0.00000E+00
 -1      2471 9.73740E+01 7.38350E+00 0.00000E+00
 -1      2472 1.02624E+02 6.08450E+00 0.00000E+00
 -1      2473 1.01124E+02 6.08450E+00 0.00000E+00
 -1      2474 1.00374E+02 7.38350E+00 0.00000E+00
 -1      2475 1.05624E+02 6.08450E+00 0.00000E+00
 -1      2476 1.04124E+02 6.08450E+00 0.00000E+00
 -1      2477 1.03374E+02 7.38350E+00 0.00000E+00
 -1      2478 1.08624E+02 6.08450E+00 0.00000E+00
 -1      2479 1.07124E+02 6.08450E+00 0.00000E+00
 -1      2480 1.06374E+02 7.38350E+00 0.00000E+00
 -1      2481 1.11624E+02 6.08450E+00 0.00000E+00
 -1      2482 1.10124E+02 6.08450E+00 0.00000E+00
 -1      2483 1.09374E+02 7.38350E+00 0.00000E+00
 -1      2484 1.14624E+02 6.08450E+00 0.00000E+00
 -1      2485 1.13124E+02 6.08450E+00 0.00000E+00
 -1      2486 1.12374E+02 7.38350E+00 0.00000E+00
 -1      2487 1.17624E+02 6.08450E+00 0.00000E+00
 -1      2488 1.16124E+02 6.08450E+00 0.00000E+00
 -1      2489 1.15374E+02 7.38350E+00 0.00000E+00
 -1      2490 1.20624E+02 6.08450E+00 0.00000E+00
 -1      2491 1.19124E+02 6.08450E+00 0.00000E+00
 -1      2492 1.18374E+02 7.38350E+00 0.00000E+00
 -1      2493 1.23624E+02 6.08450E+00 0.00000E+00
 -1      2494 1.22124E+02 6.08450E+00 0.00000E+00
 -1      2495 1.21374E+02 7.38350E+00 0.00000E+00
 -1      2496 1.26624E+02 6.08450E+00 0.00000E+00
 -1      2497 1.25124E+02 6.08450E+00 0.00000E+00
 -1      2498 1.24374E+02 7.38350E+00 0.00000E+00
 -1      2499 1.29624E+02 6.08450E+00 0.00000E+00
 -1      2500 1.28124E+02 6.08450E+00 0.00000E+00
 -1      2501 1.27374E+02 7.38350E+00 0.00000E+00
 -1      2502 1.32624E+02 6.08450E+00 0.00000E+00
 -1      2503 1.31124E+02 6.08450E+00 0.00000E+00
 -1      2504 1.30374E+02 7.38350E+00 0.00000E+00
 -1      2505 1.35624E+02 6.08450E+00 0.00000E+00
 -1      2506 1.34124E+02 6.08450E+00 0.00000E+00
 -1      2507 1.33374E+02 7.38350E+00 0.00000E+00
 -1      2508 1.38624E+02 6.08450E+00 0.00000E+00
 -1      2509 1.37124E+02 6.08450E+00 0.00000E+00
 -1      2510 1.36374E+02 7.38350E+00 0.00000E+00
 -1      2511 1.41624E+02 6.08450E+00 0.00000E+00
 -1      2512 1.40124E+02 6.08450E+00 0.00000E+00
 -1      2513 1.39374E+02 7.38350E+00 0.00000E+00
 -1      2514 1.43589E+02 6.81775E+00 0.00000E+00
 -1      2515 1.43505E+02 1.69125E+01 0.00000E+00
 -1      2516 1.43505E+02 1.54375E+01 0.00000E+00
 -1      2517 1.43505E+02 1.39875E+01 0.00000E+00
 -1      2518 1.43505E+02 1.25375E+01 0.00000E+00
 -1      2519 1.42206E+02 1.47250E+01 0.00000E+00
 -1      2520 1.43505E+02 1.10625E+01 0.00000E+00
 -1      2521 1.43505E+02 9.58750E+00 0.00000E+00
 -1      2522 1.42206E+02 1.18000E+01 0.00000E+00
 -1      2523 8.53255E+01 2.61894E+01 0.00000E+00
 -1      2524 8.53686E+01 2.72928E+01 0.00000E+00
 -1      2525 1.43505E+02 1.98625E+01 0.00000E+00
 -1      2526 1.43505E+02 1.83875E+01 0.00000E+00
 -1      2527 1.42206E+02 1.76500E+01 0.00000E+00
 -1      2528 1.43505E+02 2.28125E+01 0.00000E+00
 -1      2529 1.43505E+02 2.13375E+01 0.00000E+00
 -1      2530 1.42206E+02 2.06000E+01 0.00000E+00
 -1      2531 1.43505E+02 2.57625E+01 0.00000E+00
 -1      2532 1.43505E+02 2.42875E+01 0.00000E+00
 -1      2533 1.42206E+02 2.35500E+01 0.00000E+00
 -1      2534 1.43505E+02 2.87125E+01 0.00000E+00
 -1      2535 1.43505E+02 2.72375E+01 0.00000E+00
 -1      2536 1.42206E+02 2.65000E+01 0.00000E+00
 -1      2537 1.43505E+02 3.16125E+01 0.00000E+00
 -1      2538 1.43505E+02 3.01625E+01 0.00000E+00
 -1      2539 1.42206E+02 2.94250E+01 0.00000E+00
 -1      2540 1.43505E+02 3.45625E+01 0.00000E+00
 -1      2541 1.43505E+02 3.30875E+01 0.00000E+00
 -1      2542 1.42206E+02 3.23500E+01 0.00000E+00
 -1      2543 1.43505E+02 3.75125E+01 0.00000E+00
 -1      2544 1.43505E+02 3.60375E+01 0.00000E+00
 -1      2545 1.42206E+02 3.53000E+01 0.00000E+00
 -1      2546 1.43492E+02 4.02195E+01 0.00000E+00
 -1      2547 1.43492E+02 3.87445E+01 0.00000E+00
 -1      2548 1.42193E+02 3.80070E+01 0.00000E+00
 -1      2549 1.42165E+02 4.04710E+01 0.00000E+00
 -1      2550 6.55950E+00 4.28890E+01 0.00000E+00
 -1      2551 8.53650E+00 4.32410E+01 0.00000E+00
 -1      2552 9.28650E+00 4.19420E+01 0.00000E+00
 -1      2553 6.55950E+00 4.14140E+01 0.00000E+00
 -1      2554 8.03289E+01 1.90125E+01 0.00000E+00
 -1      2555 8.12601E+01 1.95745E+01 0.00000E+00
 -1      2556 8.52452E+01 2.84340E+01 0.00000E+00
 -1      2557 8.51328E+01 2.93598E+01 0.00000E+00
 -1      2558 8.48994E+01 3.04800E+01 0.00000E+00
 -1      2559 8.45927E+01 3.15576E+01 0.00000E+00
 -1      2560 7.50973E+01 3.82481E+01 0.00000E+00
 -1      2561 7.40248E+01 3.82399E+01 0.00000E+00
 -1      2562 6.78167E+01 2.02802E+01 0.00000E+00
 -1      2563 6.85694E+01 1.96617E+01 0.00000E+00
 -1      2564 6.49500E+00 2.71625E+01 0.00000E+00
 -1      2565 6.49500E+00 2.86375E+01 0.00000E+00
 -1      2566 7.79400E+00 2.93750E+01 0.00000E+00
 -1      2567 7.79400E+00 2.64250E+01 0.00000E+00
 -1      2568 6.49201E+01 3.05955E+01 0.00000E+00
 -1      2569 6.47239E+01 2.95843E+01 0.00000E+00
 -1      2570 7.83657E+01 1.81240E+01 0.00000E+00
 -1      2571 7.92884E+01 1.84914E+01 0.00000E+00
 -1      2572 7.39737E+01 1.71749E+01 0.00000E+00
 -1      2573 7.49649E+01 1.73022E+01 0.00000E+00
 -1      2574 7.14223E+01 1.77552E+01 0.00000E+00
 -1      2575 7.24959E+01 1.73595E+01 0.00000E+00
 -1      2576 6.94760E+01 1.90491E+01 0.00000E+00
 -1      2577 7.03498E+01 1.84759E+01 0.00000E+00
 -1      2578 6.65191E+01 2.17866E+01 0.00000E+00
 -1      2579 6.70424E+01 2.10838E+01 0.00000E+00
 -1      2580 6.53473E+01 2.39440E+01 0.00000E+00
 -1      2581 6.59332E+01 2.28653E+01 0.00000E+00
 -1      2582 6.55406E+01 2.20267E+01 0.00000E+00
 -1      2583 6.44053E+01 2.58448E+01 0.00000E+00
 -1      2584 6.46334E+01 2.49651E+01 0.00000E+00
 -1      2585 8.40993E+01 3.26439E+01 0.00000E+00
 -1      2586 8.36437E+01 3.34243E+01 0.00000E+00
 -1      2587 6.45032E+01 2.83705E+01 0.00000E+00
 -1      2588 6.44522E+01 2.71759E+01 0.00000E+00
 -1      2589 6.59365E+01 3.26296E+01 0.00000E+00
 -1      2590 6.53970E+01 3.17916E+01 0.00000E+00
 -1      2591 6.68910E+01 3.43412E+01 0.00000E+00
 -1      2592 6.64138E+01 3.34854E+01 0.00000E+00
 -1      2593 6.54934E+01 3.34853E+01 0.00000E+00
 -1      2594 6.85965E+01 3.62123E+01 0.00000E+00
 -1      2595 6.76629E+01 3.55116E+01 0.00000E+00
 -1      2596 7.05280E+01 3.70997E+01 0.00000E+00
 -1      2597 6.97123E+01 3.66144E+01 0.00000E+00
 -1      2598 7.26722E+01 3.80607E+01 0.00000E+00
 -1      2599 7.15804E+01 3.76446E+01 0.00000E+00
 -1      2600 7.71338E+01 3.80630E+01 0.00000E+00
 -1      2601 7.62345E+01 3.82357E+01 0.00000E+00
 -1      2602 7.95377E+01 3.75407E+01 0.00000E+00
 -1      2603 7.83722E+01 3.79666E+01 0.00000E+00
 -1      2604 8.14762E+01 3.63868E+01 0.00000E+00
 -1      2605 8.07409E+01 3.69240E+01 0.00000E+00
 -1      2606 8.31837E+01 3.45647E+01 0.00000E+00
 -1      2607 8.24113E+01 3.54872E+01 0.00000E+00
 -1      2608 8.48161E+01 2.39336E+01 0.00000E+00
 -1      2609 8.51598E+01 2.48772E+01 0.00000E+00
 -1      2610 1.42839E+02 8.11675E+00 0.00000E+00
 -1      2611 7.79400E+00 3.52687E+01 0.00000E+00
 -1      2612 6.49500E+00 3.60062E+01 0.00000E+00
 -1      2613 6.49500E+00 3.74750E+01 0.00000E+00
 -1      2614 8.01538E+01 1.81099E+01 0.00000E+00
 -1      2615 9.55950E+00 5.02450E+00 0.00000E+00
 -1      2616 9.37425E+00 5.84794E+00 0.00000E+00
 -1      2617 1.07692E+01 5.21931E+00 0.00000E+00
 -1      2618 8.38909E+01 2.11389E+01 0.00000E+00
 -1      2619 8.51796E+01 2.30808E+01 0.00000E+00
 -1      2620 8.60805E+01 2.78489E+01 0.00000E+00
 -1      2621 8.60382E+01 2.53954E+01 0.00000E+00
 -1      2622 8.40435E+01 3.45436E+01 0.00000E+00
 -1      2623 8.26484E+01 3.65836E+01 0.00000E+00
 -1      2624 6.55950E+00 3.99453E+01 0.00000E+00
 -1      2625 8.57237E+01 3.01104E+01 0.00000E+00
 -1      2626 6.38416E+01 2.90235E+01 0.00000E+00
 -1      2627 1.30515E+01 5.74931E+00 0.00000E+00
 -1      2628 1.18418E+01 5.55450E+00 0.00000E+00
 -1      2629 1.16565E+01 6.37794E+00 0.00000E+00
 -1      2630 1.38015E+01 7.04831E+00 0.00000E+00
 -1      2631 8.05101E+01 3.80998E+01 0.00000E+00
 -1      2632 7.80685E+01 3.88129E+01 0.00000E+00
 -1      2633 1.41540E+02 8.85425E+00 0.00000E+00
 -1      2634 7.32032E+01 3.87548E+01 0.00000E+00
 -1      2635 8.49969E+01 3.23169E+01 0.00000E+00
 -1      2636 7.07983E+01 3.80308E+01 0.00000E+00
 -1      2637 6.67425E+01 3.55114E+01 0.00000E+00
 -1      2638 6.85818E+01 1.87281E+01 0.00000E+00
 -1      2639 6.42409E+01 2.41265E+01 0.00000E+00
 -1      2640 7.05610E+01 1.73948E+01 0.00000E+00
 -1      2641 7.31114E+01 1.64895E+01 0.00000E+00
 -1      2642 6.69009E+01 2.01444E+01 0.00000E+00
 -1      2643 7.56929E+01 3.89216E+01 0.00000E+00
 -1      2644 7.78799E+01 1.74947E+01 0.00000E+00
 -1      2645 7.86274E+01 1.69595E+01 0.00000E+00
 -1      2646 7.73941E+01 1.68654E+01 0.00000E+00
 -1      2647 8.22447E+01 1.94152E+01 0.00000E+00
 -1      2648 7.56179E+01 1.68528E+01 0.00000E+00
 -1      2649 6.35740E+01 2.64787E+01 0.00000E+00
 -1      2650 6.45393E+01 3.14334E+01 0.00000E+00
 -1      2651 6.86301E+01 3.70839E+01 0.00000E+00
 -1      2652 9.09300E+00 1.98250E+01 0.00000E+00
 -1      2653 9.09300E+00 2.12750E+01 0.00000E+00
 -1      2654 9.09300E+00 2.27500E+01 0.00000E+00
 -1      2655 9.09300E+00 2.42250E+01 0.00000E+00
 -1      2656 1.03920E+01 2.20250E+01 0.00000E+00
 -1      2657 9.09300E+00 1.39375E+01 0.00000E+00
 -1      2658 9.09300E+00 1.54125E+01 0.00000E+00
 -1      2659 9.09300E+00 1.09875E+01 0.00000E+00
 -1      2660 9.09300E+00 1.24625E+01 0.00000E+00
 -1      2661 1.03920E+01 1.32000E+01 0.00000E+00
 -1      2662 9.18900E+00 6.67137E+00 0.00000E+00
 -1      2663 9.00375E+00 7.49481E+00 0.00000E+00
 -1      2664 1.03988E+01 6.86619E+00 0.00000E+00
 -1      2665 8.00176E+01 1.70826E+01 0.00000E+00
 -1      2666 8.10581E+01 1.76037E+01 0.00000E+00
 -1      2667 8.56764E+01 2.19967E+01 0.00000E+00
 -1      2668 8.63693E+01 2.29991E+01 0.00000E+00
 -1      2669 8.69948E+01 2.73704E+01 0.00000E+00
 -1      2670 8.68714E+01 2.85117E+01 0.00000E+00
 -1      2671 8.16174E+01 3.87784E+01 0.00000E+00
 -1      2672 8.04142E+01 3.93950E+01 0.00000E+00
 -1      2673 1.44000E+01 4.09070E+01 0.00000E+00
 -1      2674 1.59000E+01 4.09070E+01 0.00000E+00
 -1      2675 1.74000E+01 4.09070E+01 0.00000E+00
 -1      2676 1.89000E+01 4.09070E+01 0.00000E+00
 -1      2677 1.66500E+01 3.96080E+01 0.00000E+00
 -1      2678 2.04000E+01 4.09070E+01 0.00000E+00
 -1      2679 2.19000E+01 4.09070E+01 0.00000E+00
 -1      2680 1.96500E+01 3.96080E+01 0.00000E+00
 -1      2681 2.34000E+01 4.09070E+01 0.00000E+00
 -1      2682 2.49000E+01 4.09070E+01 0.00000E+00
 -1      2683 2.26500E+01 3.96080E+01 0.00000E+00
 -1      2684 2.64000E+01 4.09070E+01 0.00000E+00
 -1      2685 2.79000E+01 4.09070E+01 0.00000E+00
 -1      2686 2.56500E+01 3.96080E+01 0.00000E+00
 -1      2687 2.94000E+01 4.09070E+01 0.00000E+00
 -1      2688 3.09000E+01 4.09070E+01 0.00000E+00
 -1      2689 2.86500E+01 3.96080E+01 0.00000E+00
 -1      2690 3.24000E+01 4.09070E+01 0.00000E+00
 -1      2691 3.39000E+01 4.09070E+01 0.00000E+00
 -1      2692 3.16500E+01 3.96080E+01 0.00000E+00
 -1      2693 3.54000E+01 4.09070E+01 0.00000E+00
 -1      2694 3.69000E+01 4.09070E+01 0.00000E+00
 -1      2695 3.46500E+01 3.96080E+01 0.00000E+00
 -1      2696 3.84000E+01 4.09070E+01 0.00000E+00
 -1      2697 3.99000E+01 4.09070E+01 0.00000E+00
 -1      2698 3.76500E+01 3.96080E+01 0.00000E+00
 -1      2699 4.14000E+01 4.09070E+01 0.00000E+00
 -1      2700 4.29000E+01 4.09070E+01 0.00000E+00
 -1      2701 4.06500E+01 3.96080E+01 0.00000E+00
 -1      2702 4.44000E+01 4.09070E+01 0.00000E+00
 -1      2703 4.59000E+01 4.09070E+01 0.00000E+00
 -1      2704 4.36500E+01 3.96080E+01 0.00000E+00
 -1      2705 4.74000E+01 4.09070E+01 0.00000E+00
 -1      2706 4.89000E+01 4.09070E+01 0.00000E+00
 -1      2707 4.66500E+01 3.96080E+01 0.00000E+00
 -1      2708 5.04000E+01 4.09070E+01 0.00000E+00
 -1      2709 5.19000E+01 4.09070E+01 0.00000E+00
 -1      2710 4.96500E+01 3.96080E+01 0.00000E+00
 -1      2711 5.34000E+01 4.09070E+01 0.00000E+00
 -1      2712 5.49000E+01 4.09070E+01 0.00000E+00
 -1      2713 5.26500E+01 3.96080E+01 0.00000E+00
 -1      2714 5.64000E+01 4.09070E+01 0.00000E+00
 -1      2715 5.79000E+01 4.09070E+01 0.00000E+00
 -1      2716 5.56500E+01 3.96080E+01 0.00000E+00
 -1      2717 5.94000E+01 4.09070E+01 0.00000E+00
 -1      2718 6.09000E+01 4.09070E+01 0.00000E+00
 -1      2719 5.86500E+01 3.96080E+01 0.00000E+00
 -1      2720 6.24000E+01 4.09070E+01 0.00000E+00
 -1      2721 6.39000E+01 4.09070E+01 0.00000E+00
 -1      2722 6.16500E+01 3.96080E+01 0.00000E+00
 -1      2723 6.54000E+01 4.09070E+01 0.00000E+00
 -1      2724 6.69000E+01 4.09070E+01 0.00000E+00
 -1      2725 6.46500E+01 3.96080E+01 0.00000E+00
 -1      2726 7.13625E+01 4.11809E+01 0.00000E+00
 -1      2727 7.27875E+01 4.11809E+01 0.00000E+00
 -1      2728 7.42500E+01 4.12647E+01 0.00000E+00
 -1      2729 7.57500E+01 4.12647E+01 0.00000E+00
 -1      2730 7.66650E+01 4.05576E+01 0.00000E+00
 -1      2731 7.81650E+01 4.05576E+01 0.00000E+00
 -1      2732 8.05108E+01 4.11398E+01 0.00000E+00
 -1      2733 8.20108E+01 4.11398E+01 0.00000E+00
 -1      2734 8.35108E+01 4.11398E+01 0.00000E+00
 -1      2735 8.50108E+01 4.11398E+01 0.00000E+00
 -1      2736 8.30216E+01 4.00736E+01 0.00000E+00
 -1      2737 8.65108E+01 4.11398E+01 0.00000E+00
 -1      2738 8.80108E+01 4.11398E+01 0.00000E+00
 -1      2739 8.60216E+01 4.00736E+01 0.00000E+00
 -1      2740 8.95108E+01 4.11398E+01 0.00000E+00
 -1      2741 9.10108E+01 4.11398E+01 0.00000E+00
 -1      2742 8.90216E+01 4.00736E+01 0.00000E+00
 -1      2743 9.25108E+01 4.11398E+01 0.00000E+00
 -1      2744 9.40108E+01 4.11398E+01 0.00000E+00
 -1      2745 9.20216E+01 4.00736E+01 0.00000E+00
 -1      2746 9.55108E+01 4.11398E+01 0.00000E+00
 -1      2747 9.70108E+01 4.11398E+01 0.00000E+00
 -1      2748 9.50216E+01 4.00736E+01 0.00000E+00
 -1      2749 9.85108E+01 4.11398E+01 0.00000E+00
 -1      2750 1.00011E+02 4.11398E+01 0.00000E+00
 -1      2751 9.80216E+01 4.00736E+01 0.00000E+00
 -1      2752 1.01511E+02 4.11398E+01 0.00000E+00
 -1      2753 1.03011E+02 4.11398E+01 0.00000E+00
 -1      2754 1.01022E+02 4.00736E+01 0.00000E+00
 -1      2755 1.04511E+02 4.11398E+01 0.00000E+00
 -1      2756 1.06011E+02 4.11398E+01 0.00000E+00
 -1      2757 1.04022E+02 4.00736E+01 0.00000E+00
 -1      2758 1.07511E+02 4.11398E+01 0.00000E+00
 -1      2759 1.09011E+02 4.11398E+01 0.00000E+00
 -1      2760 1.07022E+02 4.00736E+01 0.00000E+00
 -1      2761 1.10511E+02 4.11398E+01 0.00000E+00
 -1      2762 1.12011E+02 4.11398E+01 0.00000E+00
 -1      2763 1.10022E+02 4.00736E+01 0.00000E+00
 -1      2764 1.13511E+02 4.11398E+01 0.00000E+00
 -1      2765 1.15011E+02 4.11398E+01 0.00000E+00
 -1      2766 1.13022E+02 4.00736E+01 0.00000E+00
 -1      2767 1.16511E+02 4.11398E+01 0.00000E+00
 -1      2768 1.18011E+02 4.11398E+01 0.00000E+00
 -1      2769 1.16022E+02 4.00736E+01 0.00000E+00
 -1      2770 1.19511E+02 4.11398E+01 0.00000E+00
 -1      2771 1.21011E+02 4.11398E+01 0.00000E+00
 -1      2772 1.19022E+02 4.00736E+01 0.00000E+00
 -1      2773 1.22511E+02 4.11398E+01 0.00000E+00
 -1      2774 1.24011E+02 4.11398E+01 0.00000E+00
 -1      2775 1.22022E+02 4.00736E+01 0.00000E+00
 -1      2776 1.25511E+02 4.11398E+01 0.00000E+00
 -1      2777 1.27011E+02 4.11398E+01 0.00000E+00
 -1      2778 1.25022E+02 4.00736E+01 0.00000E+00
 -1      2779 1.28511E+02 4.11398E+01 0.00000E+00
 -1      2780 1.30011E+02 4.11398E+01 0.00000E+00
 -1      2781 1.28022E+02 4.00736E+01 0.00000E+00
 -1      2782 1.31511E+02 4.11398E+01 0.00000E+00
 -1      2783 1.33011E+02 4.11398E+01 0.00000E+00
 -1      2784 1.31022E+02 4.00736E+01 0.00000E+00
 -1      2785 1.34511E+02 4.11398E+01 0.00000E+00
 -1      2786 1.36011E+02 4.11398E+01 0.00000E+00
 -1      2787 1.34022E+02 4.00736E+01 0.00000E+00
 -1      2788 1.37511E+02 4.11398E+01 0.00000E+00
 -1      2789 1.39011E+02 4.11398E+01 0.00000E+00
 -1      2790 1.37022E+02 4.00736E+01 0.00000E+00
 -1      2791 1.39925E+02 4.09311E+01 0.00000E+00
 -1      2792 1.41251E+02 4.06796E+01 0.00000E+00
 -1      2793 1.41265E+02 3.94476E+01 0.00000E+00
 -1      2794 1.39436E+02 3.98649E+01 0.00000E+00
 -1      2795 2.01240E+01 8.68250E+00 0.00000E+00
 -1      2796 1.86240E+01 8.68250E+00 0.00000E+00
 -1      2797 2.31240E+01 8.68250E+00 0.00000E+00
 -1      2798 2.16240E+01 8.68250E+00 0.00000E+00
 -1      2799 2.08740E+01 9.98150E+00 0.00000E+00
 -1      2800 1.71240E+01 8.68250E+00 0.00000E+00
 -1      2801 1.56240E+01 8.68250E+00 0.00000E+00
 -1      2802 1.78740E+01 9.98150E+00 0.00000E+00
 -1      2803 2.91240E+01 8.68250E+00 0.00000E+00
 -1      2804 2.76240E+01 8.68250E+00 0.00000E+00
 -1      2805 3.21240E+01 8.68250E+00 0.00000E+00
 -1      2806 3.06240E+01 8.68250E+00 0.00000E+00
 -1      2807 2.98740E+01 9.98150E+00 0.00000E+00
 -1      2808 3.51240E+01 8.68250E+00 0.00000E+00
 -1      2809 3.36240E+01 8.68250E+00 0.00000E+00
 -1      2810 3.28740E+01 9.98150E+00 0.00000E+00
 -1      2811 3.81240E+01 8.68250E+00 0.00000E+00
 -1      2812 3.66240E+01 8.68250E+00 0.00000E+00
 -1      2813 3.58740E+01 9.98150E+00 0.00000E+00
 -1      2814 4.11240E+01 8.68250E+00 0.00000E+00
 -1      2815 3.96240E+01 8.68250E+00 0.00000E+00
 -1      2816 3.88740E+01 9.98150E+00 0.00000E+00
 -1      2817 4.41240E+01 8.68250E+00 0.00000E+00
 -1      2818 4.26240E+01 8.68250E+00 0.00000E+00
 -1      2819 4.18740E+01 9.98150E+00 0.00000E+00
 -1      2820 4.71240E+01 8.68250E+00 0.00000E+00
 -1      2821 4.56240E+01 8.68250E+00 0.00000E+00
 -1      2822 4.48740E+01 9.98150E+00 0.00000E+00
 -1      2823 5.01240E+01 8.68250E+00 0.00000E+00
 -1      2824 4.86240E+01 8.68250E+00 0.00000E+00
 -1      2825 4.78740E+01 9.98150E+00 0.00000E+00
 -1      2826 5.31240E+01 8.68250E+00 0.00000E+00
 -1      2827 5.16240E+01 8.68250E+00 0.00000E+00
 -1      2828 5.08740E+01 9.98150E+00 0.00000E+00
 -1      2829 5.61240E+01 8.68250E+00 0.00000E+00
 -1      2830 5.46240E+01 8.68250E+00 0.00000E+00
 -1      2831 5.38740E+01 9.98150E+00 0.00000E+00
 -1      2832 5.91240E+01 8.68250E+00 0.00000E+00
 -1      2833 5.76240E+01 8.68250E+00 0.00000E+00
 -1      2834 5.68740E+01 9.98150E+00 0.00000E+00
 -1      2835 6.21240E+01 8.68250E+00 0.00000E+00
 -1      2836 6.06240E+01 8.68250E+00 0.00000E+00
 -1      2837 5.98740E+01 9.98150E+00 0.00000E+00
 -1      2838 6.51240E+01 8.68250E+00 0.00000E+00
 -1      2839 6.36240E+01 8.68250E+00 0.00000E+00
 -1      2840 6.28740E+01 9.98150E+00 0.00000E+00
 -1      2841 6.81240E+01 8.68250E+00 0.00000E+00
 -1      2842 6.66240E+01 8.68250E+00 0.00000E+00
 -1      2843 6.58740E+01 9.98150E+00 0.00000E+00
 -1      2844 7.11240E+01 8.68250E+00 0.00000E+00
 -1      2845 6.96240E+01 8.68250E+00 0.00000E+00
 -1      2846 6.88740E+01 9.98150E+00 0.00000E+00
 -1      2847 7.41240E+01 8.68250E+00 0.00000E+00
 -1      2848 7.26240E+01 8.68250E+00 0.00000E+00
 -1      2849 7.18740E+01 9.98150E+00 0.00000E+00
 -1      2850 7.71240E+01 8.68250E+00 0.00000E+00
 -1      2851 7.56240E+01 8.68250E+00 0.00000E+00
 -1      2852 7.48740E+01 9.98150E+00 0.00000E+00
 -1      2853 8.01240E+01 8.68250E+00 0.00000E+00
 -1      2854 7.86240E+01 8.68250E+00 0.00000E+00
 -1      2855 7.78740E+01 9.98150E+00 0.00000E+00
 -1      2856 8.31240E+01 8.68250E+00 0.00000E+00
 -1      2857 8.16240E+01 8.68250E+00 0.00000E+00
 -1      2858 8.08740E+01 9.98150E+00 0.00000E+00
 -1      2859 8.61240E+01 8.68250E+00 0.00000E+00
 -1      2860 8.46240E+01 8.68250E+00 0.00000E+00
 -1      2861 8.38740E+01 9.98150E+00 0.00000E+00
 -1      2862 8.91240E+01 8.68250E+00 0.00000E+00
 -1      2863 8.76240E+01 8.68250E+00 0.00000E+00
 -1      2864 8.68740E+01 9.98150E+00 0.00000E+00
 -1      2865 9.21240E+01 8.68250E+00 0.00000E+00
 -1      2866 9.06240E+01 8.68250E+00 0.00000E+00
 -1      2867 8.98740E+01 9.98150E+00 0.00000E+00
 -1      2868 9.51240E+01 8.68250E+00 0.00000E+00
 -1      2869 9.36240E+01 8.68250E+00 0.00000E+00
 -1      2870 9.28740E+01 9.98150E+00 0.00000E+00
 -1      2871 9.81240E+01 8.68250E+00 0.00000E+00
 -1      2872 9.66240E+01 8.68250E+00 0.00000E+00
 -1      2873 9.58740E+01 9.98150E+00 0.00000E+00
 -1      2874 1.01124E+02 8.68250E+00 0.00000E+00
 -1      2875 9.96240E+01 8.68250E+00 0.00000E+00
 -1      2876 9.88740E+01 9.98150E+00 0.00000E+00
 -1      2877 1.04124E+02 8.68250E+00 0.00000E+00
 -1      2878 1.02624E+02 8.68250E+00 0.00000E+00
 -1      2879 1.01874E+02 9.98150E+00 0.00000E+00
 -1      2880 1.07124E+02 8.68250E+00 0.00000E+00
 -1      2881 1.05624E+02 8.68250E+00 0.00000E+00
 -1      2882 1.04874E+02 9.98150E+00 0.00000E+00
 -1      2883 1.10124E+02 8.68250E+00 0.00000E+00
 -1      2884 1.08624E+02 8.68250E+00 0.00000E+00
 -1      2885 1.07874E+02 9.98150E+00 0.00000E+00
 -1      2886 1.13124E+02 8.68250E+00 0.00000E+00
 -1      2887 1.11624E+02 8.68250E+00 0.00000E+00
 -1      2888 1.10874E+02 9.98150E+00 0.00000E+00
 -1      2889 1.16124E+02 8.68250E+00 0.00000E+00
 -1      2890 1.14624E+02 8.68250E+00 0.00000E+00
 -1      2891 1.13874E+02 9.98150E+00 0.00000E+00
 -1      2892 1.19124E+02 8.68250E+00 0.00000E+00
 -1      2893 1.17624E+02 8.68250E+00 0.00000E+00
 -1      2894 1.16874E+02 9.98150E+00 0.00000E+00
 -1      2895 1.22124E+02 8.68250E+00 0.00000E+00
 -1      2896 1.20624E+02 8.68250E+00 0.00000E+00
 -1      2897 1.19874E+02 9.98150E+00 0.00000E+00
 -1      2898 1.25124E+02 8.68250E+00 0.00000E+00
 -1      2899 1.23624E+02 8.68250E+00 0.00000E+00
 -1      2900 1.22874E+02 9.98150E+00 0.00000E+00
 -1      2901 1.28124E+02 8.68250E+00 0.00000E+00
 -1      2902 1.26624E+02 8.68250E+00 0.00000E+00
 -1      2903 1.25874E+02 9.98150E+00 0.00000E+00
 -1      2904 1.31124E+02 8.68250E+00 0.00000E+00
 -1      2905 1.29624E+02 8.68250E+00 0.00000E+00
 -1      2906 1.28874E+02 9.98150E+00 0.00000E+00
 -1      2907 1.34124E+02 8.68250E+00 0.00000E+00
 -1      2908 1.32624E+02 8.68250E+00 0.00000E+00
 -1      2909 1.31874E+02 9.98150E+00 0.00000E+00
 -1      2910 1.37124E+02 8.68250E+00 0.00000E+00
 -1      2911 1.35624E+02 8.68250E+00 0.00000E+00
 -1      2912 1.34874E+02 9.98150E+00 0.00000E+00
 -1      2913 1.40082E+02 8.76838E+00 0.00000E+00
 -1      2914 1.38582E+02 8.76838E+00 0.00000E+00
 -1      2915 1.37832E+02 1.00674E+01 0.00000E+00
 -1      2916 1.40748E+02 1.02391E+01 0.00000E+00
 -1      2917 1.40907E+02 1.54500E+01 0.00000E+00
 -1      2918 1.40907E+02 1.40000E+01 0.00000E+00
 -1      2919 1.40907E+02 2.13375E+01 0.00000E+00
 -1      2920 1.40907E+02 1.98625E+01 0.00000E+00
 -1      2921 1.40827E+02 1.28571E+01 0.00000E+00
 -1      2922 1.40827E+02 1.13821E+01 0.00000E+00
 -1      2923 1.39370E+02 1.12962E+01 0.00000E+00
 -1      2924 1.39529E+02 1.35821E+01 0.00000E+00
 -1      2925 1.40907E+02 1.83937E+01 0.00000E+00
 -1      2926 1.40907E+02 1.69188E+01 0.00000E+00
 -1      2927 1.39608E+02 1.61938E+01 0.00000E+00
 -1      2928 1.39608E+02 1.91313E+01 0.00000E+00
 -1      2929 1.40907E+02 2.72375E+01 0.00000E+00
 -1      2930 1.40907E+02 2.57625E+01 0.00000E+00
 -1      2931 1.40907E+02 3.01375E+01 0.00000E+00
 -1      2932 1.40907E+02 2.86875E+01 0.00000E+00
 -1      2933 1.39608E+02 2.79500E+01 0.00000E+00
 -1      2934 1.40907E+02 3.30875E+01 0.00000E+00
 -1      2935 1.40907E+02 3.16125E+01 0.00000E+00
 -1      2936 1.39608E+02 3.08750E+01 0.00000E+00
 -1      2937 1.40907E+02 3.60375E+01 0.00000E+00
 -1      2938 1.40907E+02 3.45625E+01 0.00000E+00
 -1      2939 1.39608E+02 3.38250E+01 0.00000E+00
 -1      2940 8.44848E+01 2.01178E+01 0.00000E+00
 -1      2941 8.50806E+01 2.10572E+01 0.00000E+00
 -1      2942 8.62704E+01 2.09756E+01 0.00000E+00
 -1      2943 8.68892E+01 2.46214E+01 0.00000E+00
 -1      2944 8.70550E+01 2.59335E+01 0.00000E+00
 -1      2945 6.29434E+01 2.98138E+01 0.00000E+00
 -1      2946 6.27227E+01 2.86001E+01 0.00000E+00
 -1      2947 8.59862E+01 3.21110E+01 0.00000E+00
 -1      2948 8.54929E+01 3.31973E+01 0.00000E+00
 -1      2949 6.76484E+01 1.83239E+01 0.00000E+00
 -1      2950 6.85550E+01 1.77113E+01 0.00000E+00
 -1      2951 7.09303E+01 3.90648E+01 0.00000E+00
 -1      2952 6.98778E+01 3.85200E+01 0.00000E+00
 -1      2953 6.95465E+01 1.70434E+01 0.00000E+00
 -1      2954 7.06190E+01 1.63227E+01 0.00000E+00
 -1      2955 6.32155E+01 2.41697E+01 0.00000E+00
 -1      2956 6.39293E+01 2.31486E+01 0.00000E+00
 -1      2957 1.40907E+02 2.42875E+01 0.00000E+00
 -1      2958 1.40907E+02 2.28125E+01 0.00000E+00
 -1      2959 1.39608E+02 2.50250E+01 0.00000E+00
 -1      2960 1.14000E+01 4.09070E+01 0.00000E+00
 -1      2961 1.29000E+01 4.09070E+01 0.00000E+00
 -1      2962 1.36500E+01 3.96080E+01 0.00000E+00
 -1      2963 8.66799E+01 2.97252E+01 0.00000E+00
 -1      2964 8.64465E+01 3.08454E+01 0.00000E+00
 -1      2965 7.53367E+01 1.57697E+01 0.00000E+00
 -1      2966 7.63654E+01 1.63175E+01 0.00000E+00
 -1      2967 7.71129E+01 1.57823E+01 0.00000E+00
 -1      2968 8.22827E+01 1.82688E+01 0.00000E+00
 -1      2969 8.33331E+01 1.90530E+01 0.00000E+00
 -1      2970 6.26758E+01 2.72690E+01 0.00000E+00
 -1      2971 6.26288E+01 2.59379E+01 0.00000E+00
 -1      2972 6.17775E+01 2.80593E+01 0.00000E+00
 -1      2973 6.58358E+01 1.98931E+01 0.00000E+00
 -1      2974 6.66102E+01 1.90894E+01 0.00000E+00
 -1      2975 7.22558E+01 1.56477E+01 0.00000E+00
 -1      2976 7.37336E+01 1.54631E+01 0.00000E+00
 -1      2977 6.45152E+01 2.20699E+01 0.00000E+00
 -1      2978 6.51011E+01 2.09913E+01 0.00000E+00
 -1      2979 6.34898E+01 2.21131E+01 0.00000E+00
 -1      2980 8.37686E+01 3.68122E+01 0.00000E+00
 -1      2981 8.28335E+01 3.77118E+01 0.00000E+00
 -1      2982 9.09300E+00 1.68813E+01 0.00000E+00
 -1      2983 9.09300E+00 1.83563E+01 0.00000E+00
 -1      2984 1.03920E+01 1.90812E+01 0.00000E+00
 -1      2985 1.03920E+01 1.61437E+01 0.00000E+00
 -1      2986 6.39811E+01 3.23490E+01 0.00000E+00
 -1      2987 6.35042E+01 3.11529E+01 0.00000E+00
 -1      2988 6.49831E+01 3.43308E+01 0.00000E+00
 -1      2989 6.45058E+01 3.34751E+01 0.00000E+00
 -1      2990 6.63426E+01 3.66149E+01 0.00000E+00
 -1      2991 6.55707E+01 3.54445E+01 0.00000E+00
 -1      2992 7.85850E+00 3.92077E+01 0.00000E+00
 -1      2993 9.09300E+00 3.15875E+01 0.00000E+00
 -1      2994 9.09300E+00 3.30625E+01 0.00000E+00
 -1      2995 2.61240E+01 8.68250E+00 0.00000E+00
 -1      2996 2.46240E+01 8.68250E+00 0.00000E+00
 -1      2997 2.38740E+01 9.98150E+00 0.00000E+00
 -1      2998 2.68740E+01 9.98150E+00 0.00000E+00
 -1      2999 8.50688E+01 3.42942E+01 0.00000E+00
 -1      3000 8.46088E+01 3.54346E+01 0.00000E+00
 -1      3001 7.33154E+01 3.95448E+01 0.00000E+00
 -1      3002 7.19629E+01 3.93657E+01 0.00000E+00
 -1      3003 1.03920E+01 2.49750E+01 0.00000E+00
 -1      3004 9.09300E+00 2.57000E+01 0.00000E+00
 -1      3005 9.09300E+00 2.71750E+01 0.00000E+00
 -1      3006 9.00375E+00 8.96981E+00 0.00000E+00
 -1      3007 7.95317E+01 1.64533E+01 0.00000E+00
 -1      3008 8.04360E+01 1.59471E+01 0.00000E+00
 -1      3009 7.90459E+01 1.58240E+01 0.00000E+00
 -1      3010 6.23172E+01 2.49600E+01 0.00000E+00
 -1      3011 6.20057E+01 2.39821E+01 0.00000E+00
 -1      3012 6.14190E+01 2.57503E+01 0.00000E+00
 -1      3013 8.78830E+01 2.24532E+01 0.00000E+00
 -1      3014 8.73861E+01 2.35373E+01 0.00000E+00
 -1      3015 8.84029E+01 2.40754E+01 0.00000E+00
 -1      3016 8.75942E+01 2.92467E+01 0.00000E+00
 -1      3017 7.94034E+01 4.04612E+01 0.00000E+00
 -1      3018 6.80799E+01 3.95810E+01 0.00000E+00
 -1      3019 6.88299E+01 4.08800E+01 0.00000E+00
 -1      3020 7.03299E+01 4.08800E+01 0.00000E+00
 -1      3021 8.58192E+01 3.63133E+01 0.00000E+00
 -1      3022 8.47939E+01 3.65628E+01 0.00000E+00
 -1      3023 8.49789E+01 3.76910E+01 0.00000E+00
 -1      3024 8.60582E+01 3.40883E+01 0.00000E+00
 -1      3025 1.39608E+02 2.20750E+01 0.00000E+00
 -1      3026 9.09300E+00 3.45313E+01 0.00000E+00
 -1      3027 9.09300E+00 3.60000E+01 0.00000E+00
 -1      3028 1.03920E+01 3.37938E+01 0.00000E+00
 -1      3029 6.68322E+01 3.81449E+01 0.00000E+00
 -1      3030 6.56604E+01 3.80780E+01 0.00000E+00
 -1      3031 6.23853E+01 3.07295E+01 0.00000E+00
 -1      3032 7.12412E+01 1.52963E+01 0.00000E+00
 -1      3033 7.18635E+01 1.42699E+01 0.00000E+00
 -1      3034 7.02267E+01 1.49448E+01 0.00000E+00
 -1      3035 8.45228E+01 1.89714E+01 0.00000E+00
 -1      3036 1.41079E+02 3.83586E+01 0.00000E+00
 -1      3037 1.41093E+02 3.71266E+01 0.00000E+00
 -1      3038 1.39794E+02 3.63891E+01 0.00000E+00
 -1      3039 1.40165E+02 3.85672E+01 0.00000E+00
 -1      3040 1.48740E+01 9.98151E+00 0.00000E+00
 -1      3041 1.41240E+01 8.68251E+00 0.00000E+00
 -1      3042 7.44812E+01 1.49279E+01 0.00000E+00
 -1      3043 7.52287E+01 1.43927E+01 0.00000E+00
 -1      3044 7.36256E+01 1.40861E+01 0.00000E+00
 -1      3045 1.30515E+01 8.34733E+00 0.00000E+00
 -1      3046 6.86130E+01 1.66391E+01 0.00000E+00
 -1      3047 7.10424E+01 3.98549E+01 0.00000E+00
 -1      3048 6.65833E+01 1.80726E+01 0.00000E+00
 -1      3049 8.69425E+01 3.17259E+01 0.00000E+00
 -1      3050 7.59150E+01 3.96163E+01 0.00000E+00
 -1      3051 8.27376E+01 3.90070E+01 0.00000E+00
 -1      3052 1.03027E+01 9.70731E+00 0.00000E+00
 -1      3053 9.09300E+00 2.86437E+01 0.00000E+00
 -1      3054 9.09300E+00 3.01187E+01 0.00000E+00
 -1      3055 1.03920E+01 3.08563E+01 0.00000E+00
 -1      3056 1.03920E+01 2.79188E+01 0.00000E+00
 -1      3057 7.47779E+01 3.96286E+01 0.00000E+00
 -1      3058 8.78459E+01 2.65964E+01 0.00000E+00
 -1      3059 8.21465E+01 1.72415E+01 0.00000E+00
 -1      3060 6.48104E+01 1.99363E+01 0.00000E+00
 -1      3061 6.45831E+01 3.54343E+01 0.00000E+00
 -1      3062 6.34708E+01 3.31946E+01 0.00000E+00
 -1      3063 9.15750E+00 3.77359E+01 0.00000E+00
 -1      3064 9.22200E+00 4.02061E+01 0.00000E+00
 -1      3065 1.05855E+01 4.04701E+01 0.00000E+00
 -1      3066 1.04565E+01 3.69984E+01 0.00000E+00
 -1      3067 6.88973E+01 3.80917E+01 0.00000E+00
 -1      3068 6.77815E+01 3.76896E+01 0.00000E+00
 -1      3069 1.13355E+01 3.91711E+01 0.00000E+00
 -1      3070 1.16910E+01 1.24625E+01 0.00000E+00
 -1      3071 1.16910E+01 1.39375E+01 0.00000E+00
 -1      3072 1.14712E+01 7.20138E+00 0.00000E+00
 -1      3073 7.35375E+01 4.02395E+01 0.00000E+00
 -1      3074 1.89000E+01 3.83090E+01 0.00000E+00
 -1      3075 2.04000E+01 3.83090E+01 0.00000E+00
 -1      3076 2.19000E+01 3.83090E+01 0.00000E+00
 -1      3077 2.34000E+01 3.83090E+01 0.00000E+00
 -1      3078 2.11500E+01 3.70100E+01 0.00000E+00
 -1      3079 2.49000E+01 3.83090E+01 0.00000E+00
 -1      3080 2.64000E+01 3.83090E+01 0.00000E+00
 -1      3081 2.41500E+01 3.70100E+01 0.00000E+00
 -1      3082 2.79000E+01 3.83090E+01 0.00000E+00
 -1      3083 2.94000E+01 3.83090E+01 0.00000E+00
 -1      3084 2.71500E+01 3.70100E+01 0.00000E+00
 -1      3085 3.09000E+01 3.83090E+01 0.00000E+00
 -1      3086 3.24000E+01 3.83090E+01 0.00000E+00
 -1      3087 3.01500E+01 3.70100E+01 0.00000E+00
 -1      3088 3.39000E+01 3.83090E+01 0.00000E+00
 -1      3089 3.54000E+01 3.83090E+01 0.00000E+00
 -1      3090 3.31500E+01 3.70100E+01 0.00000E+00
 -1      3091 3.69000E+01 3.83090E+01 0.00000E+00
 -1      3092 3.84000E+01 3.83090E+01 0.00000E+00
 -1      3093 3.61500E+01 3.70100E+01 0.00000E+00
 -1      3094 3.99000E+01 3.83090E+01 0.00000E+00
 -1      3095 4.14000E+01 3.83090E+01 0.00000E+00
 -1      3096 3.91500E+01 3.70100E+01 0.00000E+00
 -1      3097 4.29000E+01 3.83090E+01 0.00000E+00
 -1      3098 4.44000E+01 3.83090E+01 0.00000E+00
 -1      3099 4.21500E+01 3.70100E+01 0.00000E+00
 -1      3100 4.59000E+01 3.83090E+01 0.00000E+00
 -1      3101 4.74000E+01 3.83090E+01 0.00000E+00
 -1      3102 4.51500E+01 3.70100E+01 0.00000E+00
 -1      3103 4.89000E+01 3.83090E+01 0.00000E+00
 -1      3104 5.04000E+01 3.83090E+01 0.00000E+00
 -1      3105 4.81500E+01 3.70100E+01 0.00000E+00
 -1      3106 5.19000E+01 3.83090E+01 0.00000E+00
 -1      3107 5.34000E+01 3.83090E+01 0.00000E+00
 -1      3108 5.11500E+01 3.70100E+01 0.00000E+00
 -1      3109 5.49000E+01 3.83090E+01 0.00000E+00
 -1      3110 5.64000E+01 3.83090E+01 0.00000E+00
 -1      3111 5.41500E+01 3.70100E+01 0.00000E+00
 -1      3112 5.79000E+01 3.83090E+01 0.00000E+00
 -1      3113 5.94000E+01 3.83090E+01 0.00000E+00
 -1      3114 5.71500E+01 3.70100E+01 0.00000E+00
 -1      3115 6.09000E+01 3.83090E+01 0.00000E+00
 -1      3116 6.24000E+01 3.83090E+01 0.00000E+00
 -1      3117 6.01500E+01 3.70100E+01 0.00000E+00
 -1      3118 6.41604E+01 3.80780E+01 0.00000E+00
 -1      3119 1.16460E+01 3.80848E+01 0.00000E+00
 -1      3120 1.24605E+01 3.85216E+01 0.00000E+00
 -1      3121 1.39605E+01 3.85216E+01 0.00000E+00
 -1      3122 1.15815E+01 3.63489E+01 0.00000E+00
 -1      3123 8.42376E+01 3.90070E+01 0.00000E+00
 -1      3124 6.75914E+01 1.61924E+01 0.00000E+00
 -1      3125 6.85828E+01 1.55245E+01 0.00000E+00
 -1      3126 8.82716E+01 3.87746E+01 0.00000E+00
 -1      3127 8.97716E+01 3.87746E+01 0.00000E+00
 -1      3128 9.12716E+01 3.87746E+01 0.00000E+00
 -1      3129 9.27716E+01 3.87746E+01 0.00000E+00
 -1      3130 9.05216E+01 3.74756E+01 0.00000E+00
 -1      3131 9.42716E+01 3.87746E+01 0.00000E+00
 -1      3132 9.57716E+01 3.87746E+01 0.00000E+00
 -1      3133 9.35216E+01 3.74756E+01 0.00000E+00
 -1      3134 9.72716E+01 3.87746E+01 0.00000E+00
 -1      3135 9.87716E+01 3.87746E+01 0.00000E+00
 -1      3136 9.65216E+01 3.74756E+01 0.00000E+00
 -1      3137 1.00272E+02 3.87746E+01 0.00000E+00
 -1      3138 1.01772E+02 3.87746E+01 0.00000E+00
 -1      3139 9.95216E+01 3.74756E+01 0.00000E+00
 -1      3140 1.03272E+02 3.87746E+01 0.00000E+00
 -1      3141 1.04772E+02 3.87746E+01 0.00000E+00
 -1      3142 1.02522E+02 3.74756E+01 0.00000E+00
 -1      3143 1.06272E+02 3.87746E+01 0.00000E+00
 -1      3144 1.07772E+02 3.87746E+01 0.00000E+00
 -1      3145 1.05522E+02 3.74756E+01 0.00000E+00
 -1      3146 1.09272E+02 3.87746E+01 0.00000E+00
 -1      3147 1.10772E+02 3.87746E+01 0.00000E+00
 -1      3148 1.08522E+02 3.74756E+01 0.00000E+00
 -1      3149 1.12272E+02 3.87746E+01 0.00000E+00
 -1      3150 1.13772E+02 3.87746E+01 0.00000E+00
 -1      3151 1.11522E+02 3.74756E+01 0.00000E+00
 -1      3152 1.15272E+02 3.87746E+01 0.00000E+00
 -1      3153 1.16772E+02 3.87746E+01 0.00000E+00
 -1      3154 1.14522E+02 3.74756E+01 0.00000E+00
 -1      3155 1.18272E+02 3.87746E+01 0.00000E+00
 -1      3156 1.19772E+02 3.87746E+01 0.00000E+00
 -1      3157 1.17522E+02 3.74756E+01 0.00000E+00
 -1      3158 1.21272E+02 3.87746E+01 0.00000E+00
 -1      3159 1.22772E+02 3.87746E+01 0.00000E+00
 -1      3160 1.20522E+02 3.74756E+01 0.00000E+00
 -1      3161 1.24272E+02 3.87746E+01 0.00000E+00
 -1      3162 1.25772E+02 3.87746E+01 0.00000E+00
 -1      3163 1.23522E+02 3.74756E+01 0.00000E+00
 -1      3164 1.27272E+02 3.87746E+01 0.00000E+00
 -1      3165 1.28772E+02 3.87746E+01 0.00000E+00
 -1      3166 1.26522E+02 3.74756E+01 0.00000E+00
 -1      3167 1.30272E+02 3.87746E+01 0.00000E+00
 -1      3168 1.31772E+02 3.87746E+01 0.00000E+00
 -1      3169 1.29522E+02 3.74756E+01 0.00000E+00
 -1      3170 1.33272E+02 3.87746E+01 0.00000E+00
 -1      3171 1.34772E+02 3.87746E+01 0.00000E+00
 -1      3172 1.32522E+02 3.74756E+01 0.00000E+00
 -1      3173 2.16240E+01 1.12805E+01 0.00000E+00
 -1      3174 2.01240E+01 1.12805E+01 0.00000E+00
 -1      3175 1.86240E+01 1.12805E+01 0.00000E+00
 -1      3176 1.71240E+01 1.12805E+01 0.00000E+00
 -1      3177 1.93740E+01 1.25795E+01 0.00000E+00
 -1      3178 3.36240E+01 1.12805E+01 0.00000E+00
 -1      3179 3.21240E+01 1.12805E+01 0.00000E+00
 -1      3180 3.06240E+01 1.12805E+01 0.00000E+00
 -1      3181 2.91240E+01 1.12805E+01 0.00000E+00
 -1      3182 3.13740E+01 1.25795E+01 0.00000E+00
 -1      3183 3.96240E+01 1.12805E+01 0.00000E+00
 -1      3184 3.81240E+01 1.12805E+01 0.00000E+00
 -1      3185 4.26240E+01 1.12805E+01 0.00000E+00
 -1      3186 4.11240E+01 1.12805E+01 0.00000E+00
 -1      3187 4.03740E+01 1.25795E+01 0.00000E+00
 -1      3188 4.56240E+01 1.12805E+01 0.00000E+00
 -1      3189 4.41240E+01 1.12805E+01 0.00000E+00
 -1      3190 4.33740E+01 1.25795E+01 0.00000E+00
 -1      3191 4.86240E+01 1.12805E+01 0.00000E+00
 -1      3192 4.71240E+01 1.12805E+01 0.00000E+00
 -1      3193 4.63740E+01 1.25795E+01 0.00000E+00
 -1      3194 5.16240E+01 1.12805E+01 0.00000E+00
 -1      3195 5.01240E+01 1.12805E+01 0.00000E+00
 -1      3196 4.93740E+01 1.25795E+01 0.00000E+00
 -1      3197 5.46240E+01 1.12805E+01 0.00000E+00
 -1      3198 5.31240E+01 1.12805E+01 0.00000E+00
 -1      3199 5.23740E+01 1.25795E+01 0.00000E+00
 -1      3200 5.76240E+01 1.12805E+01 0.00000E+00
 -1      3201 5.61240E+01 1.12805E+01 0.00000E+00
 -1      3202 5.53740E+01 1.25795E+01 0.00000E+00
 -1      3203 6.06240E+01 1.12805E+01 0.00000E+00
 -1      3204 5.91240E+01 1.12805E+01 0.00000E+00
 -1      3205 5.83740E+01 1.25795E+01 0.00000E+00
 -1      3206 6.36240E+01 1.12805E+01 0.00000E+00
 -1      3207 6.21240E+01 1.12805E+01 0.00000E+00
 -1      3208 6.13740E+01 1.25795E+01 0.00000E+00
 -1      3209 6.66240E+01 1.12805E+01 0.00000E+00
 -1      3210 6.51240E+01 1.12805E+01 0.00000E+00
 -1      3211 6.43740E+01 1.25795E+01 0.00000E+00
 -1      3212 7.21115E+01 1.19500E+01 0.00000E+00
 -1      3213 7.06115E+01 1.19500E+01 0.00000E+00
 -1      3214 7.56240E+01 1.10904E+01 0.00000E+00
 -1      3215 7.41240E+01 1.10904E+01 0.00000E+00
 -1      3216 7.86240E+01 1.10904E+01 0.00000E+00
 -1      3217 7.71240E+01 1.10904E+01 0.00000E+00
 -1      3218 7.63740E+01 1.21993E+01 0.00000E+00
 -1      3219 8.16240E+01 1.10904E+01 0.00000E+00
 -1      3220 8.01240E+01 1.10904E+01 0.00000E+00
 -1      3221 7.93740E+01 1.21993E+01 0.00000E+00
 -1      3222 8.46240E+01 1.10904E+01 0.00000E+00
 -1      3223 8.31240E+01 1.10904E+01 0.00000E+00
 -1      3224 8.23740E+01 1.21993E+01 0.00000E+00
 -1      3225 8.76240E+01 1.10904E+01 0.00000E+00
 -1      3226 8.61240E+01 1.10904E+01 0.00000E+00
 -1      3227 8.53740E+01 1.21993E+01 0.00000E+00
 -1      3228 9.06240E+01 1.10904E+01 0.00000E+00
 -1      3229 8.91240E+01 1.10904E+01 0.00000E+00
 -1      3230 8.83740E+01 1.21993E+01 0.00000E+00
 -1      3231 9.36240E+01 1.10904E+01 0.00000E+00
 -1      3232 9.21240E+01 1.10904E+01 0.00000E+00
 -1      3233 9.13740E+01 1.21993E+01 0.00000E+00
 -1      3234 9.66240E+01 1.10904E+01 0.00000E+00
 -1      3235 9.51240E+01 1.10904E+01 0.00000E+00
 -1      3236 9.43740E+01 1.21993E+01 0.00000E+00
 -1      3237 9.96240E+01 1.10904E+01 0.00000E+00
 -1      3238 9.81240E+01 1.10904E+01 0.00000E+00
 -1      3239 9.73740E+01 1.21993E+01 0.00000E+00
 -1      3240 1.02624E+02 1.10904E+01 0.00000E+00
 -1      3241 1.01124E+02 1.10904E+01 0.00000E+00
 -1      3242 1.00374E+02 1.21993E+01 0.00000E+00
 -1      3243 1.05624E+02 1.10904E+01 0.00000E+00
 -1      3244 1.04124E+02 1.10904E+01 0.00000E+00
 -1      3245 1.03374E+02 1.21993E+01 0.00000E+00
 -1      3246 1.08624E+02 1.10904E+01 0.00000E+00
 -1      3247 1.07124E+02 1.10904E+01 0.00000E+00
 -1      3248 1.06374E+02 1.21993E+01 0.00000E+00
 -1      3249 1.11624E+02 1.10904E+01 0.00000E+00
 -1      3250 1.10124E+02 1.10904E+01 0.00000E+00
 -1      3251 1.09374E+02 1.21993E+01 0.00000E+00
 -1      3252 1.14624E+02 1.10904E+01 0.00000E+00
 -1      3253 1.13124E+02 1.10904E+01 0.00000E+00
 -1      3254 1.12374E+02 1.21993E+01 0.00000E+00
 -1      3255 1.17624E+02 1.10904E+01 0.00000E+00
 -1      3256 1.16124E+02 1.10904E+01 0.00000E+00
 -1      3257 1.15374E+02 1.21993E+01 0.00000E+00
 -1      3258 1.20624E+02 1.10904E+01 0.00000E+00
 -1      3259 1.19124E+02 1.10904E+01 0.00000E+00
 -1      3260 1.18374E+02 1.21993E+01 0.00000E+00
 -1      3261 1.23624E+02 1.10904E+01 0.00000E+00
 -1      3262 1.22124E+02 1.10904E+01 0.00000E+00
 -1      3263 1.21374E+02 1.21993E+01 0.00000E+00
 -1      3264 1.26624E+02 1.10904E+01 0.00000E+00
 -1      3265 1.25124E+02 1.10904E+01 0.00000E+00
 -1      3266 1.24374E+02 1.21993E+01 0.00000E+00
 -1      3267 1.29624E+02 1.10904E+01 0.00000E+00
 -1      3268 1.28124E+02 1.10904E+01 0.00000E+00
 -1      3269 1.27374E+02 1.21993E+01 0.00000E+00
 -1      3270 1.32624E+02 1.10904E+01 0.00000E+00
 -1      3271 1.31124E+02 1.10904E+01 0.00000E+00
 -1      3272 1.30374E+02 1.21993E+01 0.00000E+00
 -1      3273 1.35624E+02 1.10904E+01 0.00000E+00
 -1      3274 1.34124E+02 1.10904E+01 0.00000E+00
 -1      3275 1.33374E+02 1.21993E+01 0.00000E+00
 -1      3276 1.38226E+02 1.12362E+01 0.00000E+00
 -1      3277 1.36768E+02 1.11504E+01 0.00000E+00
 -1      3278 1.36018E+02 1.22593E+01 0.00000E+00
 -1      3279 1.38305E+02 1.23792E+01 0.00000E+00
 -1      3280 1.38309E+02 3.16125E+01 0.00000E+00
 -1      3281 1.38309E+02 3.01375E+01 0.00000E+00
 -1      3282 6.17974E+01 3.17626E+01 0.00000E+00
 -1      3283 6.12366E+01 3.04235E+01 0.00000E+00
 -1      3284 6.23696E+01 2.22032E+01 0.00000E+00
 -1      3285 6.29555E+01 2.11245E+01 0.00000E+00
 -1      3286 1.38309E+02 3.45625E+01 0.00000E+00
 -1      3287 1.38309E+02 3.30875E+01 0.00000E+00
 -1      3288 1.37010E+02 3.23500E+01 0.00000E+00
 -1      3289 1.38309E+02 2.86875E+01 0.00000E+00
 -1      3290 1.38309E+02 2.72375E+01 0.00000E+00
 -1      3291 1.37010E+02 2.94250E+01 0.00000E+00
 -1      3292 8.69797E+01 1.98671E+01 0.00000E+00
 -1      3293 8.75755E+01 2.08065E+01 0.00000E+00
 -1      3294 6.09440E+01 2.87550E+01 0.00000E+00
 -1      3295 6.08971E+01 2.74240E+01 0.00000E+00
 -1      3296 8.86198E+01 2.87867E+01 0.00000E+00
 -1      3297 8.84283E+01 3.00002E+01 0.00000E+00
 -1      3298 1.38309E+02 2.57625E+01 0.00000E+00
 -1      3299 1.38309E+02 2.42875E+01 0.00000E+00
 -1      3300 1.37010E+02 2.65000E+01 0.00000E+00
 -1      3301 8.79785E+01 3.13861E+01 0.00000E+00
 -1      3302 8.75183E+01 3.26518E+01 0.00000E+00
 -1      3303 1.38309E+02 2.28125E+01 0.00000E+00
 -1      3304 1.38309E+02 2.13375E+01 0.00000E+00
 -1      3305 1.37010E+02 2.35500E+01 0.00000E+00
 -1      3306 3.66240E+01 1.12805E+01 0.00000E+00
 -1      3307 3.51240E+01 1.12805E+01 0.00000E+00
 -1      3308 3.43740E+01 1.25795E+01 0.00000E+00
 -1      3309 3.73740E+01 1.25795E+01 0.00000E+00
 -1      3310 6.90292E+01 3.91257E+01 0.00000E+00
 -1      3311 8.46997E+01 1.76248E+01 0.00000E+00
 -1      3312 8.58514E+01 1.86895E+01 0.00000E+00
 -1      3313 1.59000E+01 3.83090E+01 0.00000E+00
 -1      3314 1.74000E+01 3.83090E+01 0.00000E+00
 -1      3315 1.81500E+01 3.70100E+01 0.00000E+00
 -1      3316 1.17938E+01 8.83558E+00 0.00000E+00
 -1      3317 1.18830E+01 1.08533E+01 0.00000E+00
 -1      3318 7.69820E+01 1.47885E+01 0.00000E+00
 -1      3319 7.80107E+01 1.53363E+01 0.00000E+00
 -1      3320 8.20234E+01 1.60081E+01 0.00000E+00
 -1      3321 8.32480E+01 1.66732E+01 0.00000E+00
 -1      3322 6.34517E+01 1.98222E+01 0.00000E+00
 -1      3323 6.41865E+01 1.87240E+01 0.00000E+00
 -1      3324 6.34104E+01 3.67790E+01 0.00000E+00
 -1      3325 6.28227E+01 3.56653E+01 0.00000E+00
 -1      3326 8.89002E+01 2.59208E+01 0.00000E+00
 -1      3327 8.88400E+01 2.73577E+01 0.00000E+00
 -1      3328 8.71482E+01 3.38794E+01 0.00000E+00
 -1      3329 8.67242E+01 3.49762E+01 0.00000E+00
 -1      3330 8.52629E+01 3.87575E+01 0.00000E+00
 -1      3331 1.16910E+01 2.12875E+01 0.00000E+00
 -1      3332 1.16910E+01 2.27625E+01 0.00000E+00
 -1      3333 6.25724E+01 3.42770E+01 0.00000E+00
 -1      3334 6.20477E+01 3.31510E+01 0.00000E+00
 -1      3335 6.08991E+01 3.28450E+01 0.00000E+00
 -1      3336 6.13997E+01 3.56217E+01 0.00000E+00
 -1      3337 6.54559E+01 1.76302E+01 0.00000E+00
 -1      3338 6.64941E+01 1.68647E+01 0.00000E+00
 -1      3339 1.31820E+01 1.15908E+01 0.00000E+00
 -1      3340 7.89150E+01 1.48301E+01 0.00000E+00
 -1      3341 6.05855E+01 2.64461E+01 0.00000E+00
 -1      3342 6.02739E+01 2.54682E+01 0.00000E+00
 -1      3343 5.97519E+01 2.71418E+01 0.00000E+00
 -1      3344 8.85923E+01 2.13447E+01 0.00000E+00
 -1      3345 1.16910E+01 2.42375E+01 0.00000E+00
 -1      3346 1.16910E+01 2.57125E+01 0.00000E+00
 -1      3347 1.29900E+01 2.35000E+01 0.00000E+00
 -1      3348 2.76240E+01 1.12805E+01 0.00000E+00
 -1      3349 2.61240E+01 1.12805E+01 0.00000E+00
 -1      3350 2.83740E+01 1.25795E+01 0.00000E+00
 -1      3351 6.64639E+01 1.57501E+01 0.00000E+00
 -1      3352 8.67629E+01 3.87575E+01 0.00000E+00
 -1      3353 2.31240E+01 1.12805E+01 0.00000E+00
 -1      3354 2.23740E+01 1.25795E+01 0.00000E+00
 -1      3355 2.46240E+01 1.12805E+01 0.00000E+00
 -1      3356 1.36272E+02 3.87746E+01 0.00000E+00
 -1      3357 1.37772E+02 3.87746E+01 0.00000E+00
 -1      3358 1.39250E+02 3.87758E+01 0.00000E+00
 -1      3359 1.47105E+01 3.72226E+01 0.00000E+00
 -1      3360 6.96691E+01 1.34474E+01 0.00000E+00
 -1      3361 6.94316E+01 1.14789E+01 0.00000E+00
 -1      3362 6.79316E+01 1.14789E+01 0.00000E+00
 -1      3363 6.90469E+01 1.44738E+01 0.00000E+00
 -1      3364 6.71816E+01 1.27779E+01 0.00000E+00
 -1      3365 8.81843E+01 3.35396E+01 0.00000E+00
 -1      3366 5.97683E+01 3.08214E+01 0.00000E+00
 -1      3367 6.03561E+01 2.97882E+01 0.00000E+00
 -1      3368 5.94756E+01 2.91529E+01 0.00000E+00
 -1      3369 1.38309E+02 1.98687E+01 0.00000E+00
 -1      3370 1.38309E+02 1.84000E+01 0.00000E+00
 -1      3371 1.37010E+02 2.06063E+01 0.00000E+00
 -1      3372 1.16910E+01 3.30594E+01 0.00000E+00
 -1      3373 1.16910E+01 3.45281E+01 0.00000E+00
 -1      3374 6.70993E+01 3.91527E+01 0.00000E+00
 -1      3375 8.75129E+01 3.74585E+01 0.00000E+00
 -1      3376 6.23316E+01 1.99122E+01 0.00000E+00
 -1      3377 1.16910E+01 1.54063E+01 0.00000E+00
 -1      3378 1.16910E+01 1.68750E+01 0.00000E+00
 -1      3379 1.29900E+01 1.46687E+01 0.00000E+00
 -1      3380 8.71566E+01 1.85205E+01 0.00000E+00
 -1      3381 1.56240E+01 1.12805E+01 0.00000E+00
 -1      3382 1.41241E+01 1.12805E+01 0.00000E+00
 -1      3383 8.90041E+01 3.09261E+01 0.00000E+00
 -1      3384 1.38464E+02 1.46650E+01 0.00000E+00
 -1      3385 1.38385E+02 1.35221E+01 0.00000E+00
 -1      3386 1.37241E+02 1.34622E+01 0.00000E+00
 -1      3387 6.80252E+01 1.40270E+01 0.00000E+00
 -1      3388 8.45767E+01 1.63914E+01 0.00000E+00
 -1      3389 1.38500E+02 3.74768E+01 0.00000E+00
 -1      3390 1.38315E+02 3.63878E+01 0.00000E+00
 -1      3391 8.96741E+01 2.81112E+01 0.00000E+00
 -1      3392 1.37016E+02 3.56503E+01 0.00000E+00
 -1      3393 6.40972E+01 1.75161E+01 0.00000E+00
 -1      3394 8.98939E+01 2.37526E+01 0.00000E+00
 -1      3395 8.93970E+01 2.48367E+01 0.00000E+00
 -1      3396 9.03912E+01 2.55980E+01 0.00000E+00
 -1      3397 8.69092E+01 3.61044E+01 0.00000E+00
 -1      3398 1.16910E+01 3.01219E+01 0.00000E+00
 -1      3399 1.16910E+01 3.15906E+01 0.00000E+00
 -1      3400 1.29900E+01 3.23250E+01 0.00000E+00
 -1      3401 1.16910E+01 1.83469E+01 0.00000E+00
 -1      3402 1.16910E+01 1.98156E+01 0.00000E+00
 -1      3403 1.29900E+01 2.05531E+01 0.00000E+00
 -1      3404 1.29900E+01 1.76094E+01 0.00000E+00
 -1      3405 6.14714E+01 2.29935E+01 0.00000E+00
 -1      3406 6.09372E+01 2.20048E+01 0.00000E+00
 -1      3407 6.05732E+01 2.37838E+01 0.00000E+00
 -1      3408 1.38387E+02 1.72669E+01 0.00000E+00
 -1      3409 1.38387E+02 1.57981E+01 0.00000E+00
 -1      3410 1.37243E+02 1.57382E+01 0.00000E+00
 -1      3411 1.37088E+02 1.80044E+01 0.00000E+00
 -1      3412 1.39320E+01 1.28898E+01 0.00000E+00
 -1      3413 1.35522E+02 3.74756E+01 0.00000E+00
 -1      3414 1.63740E+01 1.25795E+01 0.00000E+00
 -1      3415 2.04000E+01 3.57110E+01 0.00000E+00
 -1      3416 2.19000E+01 3.57110E+01 0.00000E+00
 -1      3417 8.15376E+01 1.53788E+01 0.00000E+00
 -1      3418 4.71240E+01 1.38785E+01 0.00000E+00
 -1      3419 4.56240E+01 1.38785E+01 0.00000E+00
 -1      3420 2.34000E+01 3.57110E+01 0.00000E+00
 -1      3421 2.49000E+01 3.57110E+01 0.00000E+00
 -1      3422 2.26500E+01 3.44120E+01 0.00000E+00
 -1      3423 2.64000E+01 3.57110E+01 0.00000E+00
 -1      3424 2.79000E+01 3.57110E+01 0.00000E+00
 -1      3425 2.56500E+01 3.44120E+01 0.00000E+00
 -1      3426 2.94000E+01 3.57110E+01 0.00000E+00
 -1      3427 3.09000E+01 3.57110E+01 0.00000E+00
 -1      3428 2.86500E+01 3.44120E+01 0.00000E+00
 -1      3429 3.24000E+01 3.57110E+01 0.00000E+00
 -1      3430 3.39000E+01 3.57110E+01 0.00000E+00
 -1      3431 3.16500E+01 3.44120E+01 0.00000E+00
 -1      3432 3.54000E+01 3.57110E+01 0.00000E+00
 -1      3433 3.69000E+01 3.57110E+01 0.00000E+00
 -1      3434 3.46500E+01 3.44120E+01 0.00000E+00
 -1      3435 3.84000E+01 3.57110E+01 0.00000E+00
 -1      3436 3.99000E+01 3.57110E+01 0.00000E+00
 -1      3437 3.76500E+01 3.44120E+01 0.00000E+00
 -1      3438 4.14000E+01 3.57110E+01 0.00000E+00
 -1      3439 4.29000E+01 3.57110E+01 0.00000E+00
 -1      3440 4.06500E+01 3.44120E+01 0.00000E+00
 -1      3441 4.44000E+01 3.57110E+01 0.00000E+00
 -1      3442 4.59000E+01 3.57110E+01 0.00000E+00
 -1      3443 4.36500E+01 3.44120E+01 0.00000E+00
 -1      3444 4.74000E+01 3.57110E+01 0.00000E+00
 -1      3445 4.89000E+01 3.57110E+01 0.00000E+00
 -1      3446 4.66500E+01 3.44120E+01 0.00000E+00
 -1      3447 5.04000E+01 3.57110E+01 0.00000E+00
 -1      3448 5.19000E+01 3.57110E+01 0.00000E+00
 -1      3449 4.96500E+01 3.44120E+01 0.00000E+00
 -1      3450 5.34000E+01 3.57110E+01 0.00000E+00
 -1      3451 5.49000E+01 3.57110E+01 0.00000E+00
 -1      3452 5.26500E+01 3.44120E+01 0.00000E+00
 -1      3453 5.64000E+01 3.57110E+01 0.00000E+00
 -1      3454 5.79000E+01 3.57110E+01 0.00000E+00
 -1      3455 5.56500E+01 3.44120E+01 0.00000E+00
 -1      3456 5.98997E+01 3.56217E+01 0.00000E+00
 -1      3457 2.01240E+01 1.38785E+01 0.00000E+00
 -1      3458 1.86240E+01 1.38785E+01 0.00000E+00
 -1      3459 1.28805E+01 3.56145E+01 0.00000E+00
 -1      3460 8.97716E+01 3.61766E+01 0.00000E+00
 -1      3461 9.12716E+01 3.61766E+01 0.00000E+00
 -1      3462 1.71240E+01 1.38785E+01 0.00000E+00
 -1      3463 1.56241E+01 1.38785E+01 0.00000E+00
 -1      3464 1.78740E+01 1.51775E+01 0.00000E+00
 -1      3465 9.27716E+01 3.61766E+01 0.00000E+00
 -1      3466 9.42716E+01 3.61766E+01 0.00000E+00
 -1      3467 9.20216E+01 3.48776E+01 0.00000E+00
 -1      3468 9.57716E+01 3.61766E+01 0.00000E+00
 -1      3469 9.72716E+01 3.61766E+01 0.00000E+00
 -1      3470 9.50216E+01 3.48776E+01 0.00000E+00
 -1      3471 9.87716E+01 3.61766E+01 0.00000E+00
 -1      3472 1.00272E+02 3.61766E+01 0.00000E+00
 -1      3473 9.80216E+01 3.48776E+01 0.00000E+00
 -1      3474 1.01772E+02 3.61766E+01 0.00000E+00
 -1      3475 1.03272E+02 3.61766E+01 0.00000E+00
 -1      3476 1.01022E+02 3.48776E+01 0.00000E+00
 -1      3477 1.04772E+02 3.61766E+01 0.00000E+00
 -1      3478 1.06272E+02 3.61766E+01 0.00000E+00
 -1      3479 1.04022E+02 3.48776E+01 0.00000E+00
 -1      3480 1.07772E+02 3.61766E+01 0.00000E+00
 -1      3481 1.09272E+02 3.61766E+01 0.00000E+00
 -1      3482 1.07022E+02 3.48776E+01 0.00000E+00
 -1      3483 1.10772E+02 3.61766E+01 0.00000E+00
 -1      3484 1.12272E+02 3.61766E+01 0.00000E+00
 -1      3485 1.10022E+02 3.48776E+01 0.00000E+00
 -1      3486 1.13772E+02 3.61766E+01 0.00000E+00
 -1      3487 1.15272E+02 3.61766E+01 0.00000E+00
 -1      3488 1.13022E+02 3.48776E+01 0.00000E+00
 -1      3489 1.16772E+02 3.61766E+01 0.00000E+00
 -1      3490 1.18272E+02 3.61766E+01 0.00000E+00
 -1      3491 1.16022E+02 3.48776E+01 0.00000E+00
 -1      3492 1.19772E+02 3.61766E+01 0.00000E+00
 -1      3493 1.21272E+02 3.61766E+01 0.00000E+00
 -1      3494 1.19022E+02 3.48776E+01 0.00000E+00
 -1      3495 1.22772E+02 3.61766E+01 0.00000E+00
 -1      3496 1.24272E+02 3.61766E+01 0.00000E+00
 -1      3497 1.22022E+02 3.48776E+01 0.00000E+00
 -1      3498 1.25772E+02 3.61766E+01 0.00000E+00
 -1      3499 1.27272E+02 3.61766E+01 0.00000E+00
 -1      3500 1.25022E+02 3.48776E+01 0.00000E+00
 -1      3501 1.28772E+02 3.61766E+01 0.00000E+00
 -1      3502 1.30272E+02 3.61766E+01 0.00000E+00
 -1      3503 1.28022E+02 3.48776E+01 0.00000E+00
 -1      3504 1.31772E+02 3.61766E+01 0.00000E+00
 -1      3505 1.33272E+02 3.61766E+01 0.00000E+00
 -1      3506 1.31022E+02 3.48776E+01 0.00000E+00
 -1      3507 1.47780E+01 1.41185E+01 0.00000E+00
 -1      3508 1.38360E+01 1.44288E+01 0.00000E+00
 -1      3509 1.38360E+01 1.58975E+01 0.00000E+00
 -1      3510 1.55280E+01 1.54175E+01 0.00000E+00
 -1      3511 8.45629E+01 1.48292E+01 0.00000E+00
 -1      3512 8.60146E+01 1.57807E+01 0.00000E+00
 -1      3513 4.41240E+01 1.38785E+01 0.00000E+00
 -1      3514 4.26240E+01 1.38785E+01 0.00000E+00
 -1      3515 4.48740E+01 1.51775E+01 0.00000E+00
 -1      3516 4.11240E+01 1.38785E+01 0.00000E+00
 -1      3517 3.96240E+01 1.38785E+01 0.00000E+00
 -1      3518 4.18740E+01 1.51775E+01 0.00000E+00
 -1      3519 5.01240E+01 1.38785E+01 0.00000E+00
 -1      3520 4.86240E+01 1.38785E+01 0.00000E+00
 -1      3521 4.78740E+01 1.51775E+01 0.00000E+00
 -1      3522 5.31240E+01 1.38785E+01 0.00000E+00
 -1      3523 5.16240E+01 1.38785E+01 0.00000E+00
 -1      3524 5.08740E+01 1.51775E+01 0.00000E+00
 -1      3525 5.61240E+01 1.38785E+01 0.00000E+00
 -1      3526 5.46240E+01 1.38785E+01 0.00000E+00
 -1      3527 5.38740E+01 1.51775E+01 0.00000E+00
 -1      3528 5.91240E+01 1.38785E+01 0.00000E+00
 -1      3529 5.76240E+01 1.38785E+01 0.00000E+00
 -1      3530 5.68740E+01 1.51775E+01 0.00000E+00
 -1      3531 6.21240E+01 1.38785E+01 0.00000E+00
 -1      3532 6.06240E+01 1.38785E+01 0.00000E+00
 -1      3533 5.98740E+01 1.51775E+01 0.00000E+00
 -1      3534 7.28615E+01 1.30589E+01 0.00000E+00
 -1      3535 7.78769E+01 1.32709E+01 0.00000E+00
 -1      3536 7.63769E+01 1.32709E+01 0.00000E+00
 -1      3537 8.64374E+01 1.32089E+01 0.00000E+00
 -1      3538 8.49374E+01 1.32089E+01 0.00000E+00
 -1      3539 8.94374E+01 1.32089E+01 0.00000E+00
 -1      3540 8.79374E+01 1.32089E+01 0.00000E+00
 -1      3541 8.75009E+01 1.42185E+01 0.00000E+00
 -1      3542 9.24374E+01 1.32089E+01 0.00000E+00
 -1      3543 9.09374E+01 1.32089E+01 0.00000E+00
 -1      3544 9.05009E+01 1.42185E+01 0.00000E+00
 -1      3545 9.54374E+01 1.32089E+01 0.00000E+00
 -1      3546 9.39374E+01 1.32089E+01 0.00000E+00
 -1      3547 9.35009E+01 1.42185E+01 0.00000E+00
 -1      3548 9.84374E+01 1.32089E+01 0.00000E+00
 -1      3549 9.69374E+01 1.32089E+01 0.00000E+00
 -1      3550 9.65009E+01 1.42185E+01 0.00000E+00
 -1      3551 1.01437E+02 1.32089E+01 0.00000E+00
 -1      3552 9.99374E+01 1.32089E+01 0.00000E+00
 -1      3553 9.95009E+01 1.42185E+01 0.00000E+00
 -1      3554 1.04437E+02 1.32089E+01 0.00000E+00
 -1      3555 1.02937E+02 1.32089E+01 0.00000E+00
 -1      3556 1.02501E+02 1.42185E+01 0.00000E+00
 -1      3557 1.07437E+02 1.32089E+01 0.00000E+00
 -1      3558 1.05937E+02 1.32089E+01 0.00000E+00
 -1      3559 1.05501E+02 1.42185E+01 0.00000E+00
 -1      3560 1.10437E+02 1.32089E+01 0.00000E+00
 -1      3561 1.08937E+02 1.32089E+01 0.00000E+00
 -1      3562 1.08501E+02 1.42185E+01 0.00000E+00
 -1      3563 1.13437E+02 1.32089E+01 0.00000E+00
 -1      3564 1.11937E+02 1.32089E+01 0.00000E+00
 -1      3565 1.11501E+02 1.42185E+01 0.00000E+00
 -1      3566 1.16437E+02 1.32089E+01 0.00000E+00
 -1      3567 1.14937E+02 1.32089E+01 0.00000E+00
 -1      3568 1.14501E+02 1.42185E+01 0.00000E+00
 -1      3569 1.19437E+02 1.32089E+01 0.00000E+00
 -1      3570 1.17937E+02 1.32089E+01 0.00000E+00
 -1      3571 1.17501E+02 1.42185E+01 0.00000E+00
 -1      3572 1.22437E+02 1.32089E+01 0.00000E+00
 -1      3573 1.20937E+02 1.32089E+01 0.00000E+00
 -1      3574 1.20501E+02 1.42185E+01 0.00000E+00
 -1      3575 1.25437E+02 1.32089E+01 0.00000E+00
 -1      3576 1.23937E+02 1.32089E+01 0.00000E+00
 -1      3577 1.23501E+02 1.42185E+01 0.00000E+00
 -1      3578 1.28437E+02 1.32089E+01 0.00000E+00
 -1      3579 1.26937E+02 1.32089E+01 0.00000E+00
 -1      3580 1.26501E+02 1.42185E+01 0.00000E+00
 -1      3581 1.31437E+02 1.32089E+01 0.00000E+00
 -1      3582 1.29937E+02 1.32089E+01 0.00000E+00
 -1      3583 1.29501E+02 1.42185E+01 0.00000E+00
 -1      3584 1.34437E+02 1.32089E+01 0.00000E+00
 -1      3585 1.32937E+02 1.32089E+01 0.00000E+00
 -1      3586 1.32501E+02 1.42185E+01 0.00000E+00
 -1      3587 6.67176E+01 1.38286E+01 0.00000E+00
 -1      3588 8.95380E+01 3.35948E+01 0.00000E+00
 -1      3589 8.91679E+01 3.48224E+01 0.00000E+00
 -1      3590 1.35711E+02 3.30875E+01 0.00000E+00
 -1      3591 1.35711E+02 3.16125E+01 0.00000E+00
 -1      3592 1.35711E+02 3.01625E+01 0.00000E+00
 -1      3593 1.35711E+02 2.87125E+01 0.00000E+00
 -1      3594 1.34412E+02 3.09000E+01 0.00000E+00
 -1      3595 8.97155E+01 2.02829E+01 0.00000E+00
 -1      3596 9.00229E+01 2.19295E+01 0.00000E+00
 -1      3597 9.04375E+01 3.08229E+01 0.00000E+00
 -1      3598 8.99877E+01 3.22089E+01 0.00000E+00
 -1      3599 9.09714E+01 3.34916E+01 0.00000E+00
 -1      3600 1.48200E+01 3.54019E+01 0.00000E+00
 -1      3601 7.61265E+01 1.39467E+01 0.00000E+00
 -1      3602 3.21240E+01 1.38785E+01 0.00000E+00
 -1      3603 3.06240E+01 1.38785E+01 0.00000E+00
 -1      3604 6.10472E+01 2.01685E+01 0.00000E+00
 -1      3605 6.15434E+01 1.88662E+01 0.00000E+00
 -1      3606 1.74000E+01 3.57110E+01 0.00000E+00
 -1      3607 1.89000E+01 3.57110E+01 0.00000E+00
 -1      3608 1.96500E+01 3.44120E+01 0.00000E+00
 -1      3609 8.84179E+01 3.61214E+01 0.00000E+00
 -1      3610 1.16910E+01 2.71844E+01 0.00000E+00
 -1      3611 1.16910E+01 2.86531E+01 0.00000E+00
 -1      3612 1.29900E+01 2.93875E+01 0.00000E+00
 -1      3613 1.35711E+02 2.72375E+01 0.00000E+00
 -1      3614 1.35711E+02 2.57625E+01 0.00000E+00
 -1      3615 1.34412E+02 2.79750E+01 0.00000E+00
 -1      3616 9.09630E+01 2.75783E+01 0.00000E+00
 -1      3617 9.07428E+01 2.90073E+01 0.00000E+00
 -1      3618 8.75142E+01 1.70486E+01 0.00000E+00
 -1      3619 8.86424E+01 1.82262E+01 0.00000E+00
 -1      3620 6.21009E+01 1.68937E+01 0.00000E+00
 -1      3621 6.33703E+01 1.57999E+01 0.00000E+00
 -1      3622 1.35516E+02 3.56503E+01 0.00000E+00
 -1      3623 1.35711E+02 2.42875E+01 0.00000E+00
 -1      3624 1.35711E+02 2.28125E+01 0.00000E+00
 -1      3625 1.34412E+02 2.50250E+01 0.00000E+00
 -1      3626 7.93769E+01 1.32709E+01 0.00000E+00
 -1      3627 6.56203E+01 1.45009E+01 0.00000E+00
 -1      3628 1.42800E+01 3.32139E+01 0.00000E+00
 -1      3629 1.61100E+01 3.48221E+01 0.00000E+00
 -1      3630 1.68600E+01 3.35231E+01 0.00000E+00
 -1      3631 1.42800E+01 3.17452E+01 0.00000E+00
 -1      3632 1.34766E+02 3.43513E+01 0.00000E+00
 -1      3633 8.04121E+01 1.37585E+01 0.00000E+00
 -1      3634 6.41203E+01 1.45009E+01 0.00000E+00
 -1      3635 8.19995E+01 1.38196E+01 0.00000E+00
 -1      3636 8.34995E+01 1.38196E+01 0.00000E+00
 -1      3637 5.89310E+01 2.79420E+01 0.00000E+00
 -1      3638 5.86194E+01 2.69641E+01 0.00000E+00
 -1      3639 1.42890E+01 2.27625E+01 0.00000E+00
 -1      3640 1.42890E+01 2.42375E+01 0.00000E+00
 -1      3641 2.91240E+01 1.38785E+01 0.00000E+00
 -1      3642 2.76240E+01 1.38785E+01 0.00000E+00
 -1      3643 2.98740E+01 1.51775E+01 0.00000E+00
 -1      3644 5.91497E+01 3.43227E+01 0.00000E+00
 -1      3645 2.16240E+01 1.38785E+01 0.00000E+00
 -1      3646 2.08740E+01 1.51775E+01 0.00000E+00
 -1      3647 2.31240E+01 1.38785E+01 0.00000E+00
 -1      3648 1.33467E+02 3.36138E+01 0.00000E+00
 -1      3649 8.75004E+01 1.54864E+01 0.00000E+00
 -1      3650 2.53740E+01 1.25795E+01 0.00000E+00
 -1      3651 1.42890E+01 2.12906E+01 0.00000E+00
 -1      3652 1.55880E+01 2.20281E+01 0.00000E+00
 -1      3653 1.42890E+01 1.98188E+01 0.00000E+00
 -1      3654 5.83431E+01 2.89752E+01 0.00000E+00
 -1      3655 1.36411E+02 1.33655E+01 0.00000E+00
 -1      3656 1.35267E+02 1.33056E+01 0.00000E+00
 -1      3657 1.34831E+02 1.43152E+01 0.00000E+00
 -1      3658 1.36491E+02 1.45085E+01 0.00000E+00
 -1      3659 5.96087E+01 3.19704E+01 0.00000E+00
 -1      3660 5.87282E+01 3.13351E+01 0.00000E+00
 -1      3661 1.35711E+02 2.13438E+01 0.00000E+00
 -1      3662 1.35711E+02 1.98750E+01 0.00000E+00
 -1      3663 1.34412E+02 2.20812E+01 0.00000E+00
 -1      3664 9.10171E+01 2.26909E+01 0.00000E+00
 -1      3665 1.29900E+01 2.64469E+01 0.00000E+00
 -1      3666 9.17264E+01 3.02901E+01 0.00000E+00
 -1      3667 9.00731E+01 1.88110E+01 0.00000E+00
 -1      3668 9.15037E+01 1.93959E+01 0.00000E+00
 -1      3669 9.04307E+01 1.73391E+01 0.00000E+00
 -1      3670 6.01490E+01 2.09588E+01 0.00000E+00
 -1      3671 5.93609E+01 1.99129E+01 0.00000E+00
 -1      3672 5.92508E+01 2.17491E+01 0.00000E+00
 -1      3673 3.36240E+01 1.38785E+01 0.00000E+00
 -1      3674 3.28740E+01 1.51775E+01 0.00000E+00
 -1      3675 3.51240E+01 1.38785E+01 0.00000E+00
 -1      3676 3.81240E+01 1.38785E+01 0.00000E+00
 -1      3677 3.66240E+01 1.38785E+01 0.00000E+00
 -1      3678 3.58740E+01 1.51775E+01 0.00000E+00
 -1      3679 3.88740E+01 1.51775E+01 0.00000E+00
 -1      3680 6.08166E+01 1.71500E+01 0.00000E+00
 -1      3681 9.14599E+01 2.64942E+01 0.00000E+00
 -1      3682 9.25286E+01 2.73904E+01 0.00000E+00
 -1      3683 9.19567E+01 2.54101E+01 0.00000E+00
 -1      3684 5.89061E+01 2.51753E+01 0.00000E+00
 -1      3685 5.97396E+01 2.44795E+01 0.00000E+00
 -1      3686 5.92054E+01 2.34909E+01 0.00000E+00
 -1      3687 7.38760E+01 1.34103E+01 0.00000E+00
 -1      3688 1.36335E+02 1.67747E+01 0.00000E+00
 -1      3689 1.36413E+02 1.56416E+01 0.00000E+00
 -1      3690 1.35583E+02 1.55449E+01 0.00000E+00
 -1      3691 1.55880E+01 2.49719E+01 0.00000E+00
 -1      3692 1.42890E+01 2.57094E+01 0.00000E+00
 -1      3693 1.42890E+01 2.71812E+01 0.00000E+00
 -1      3694 5.16240E+01 1.64765E+01 0.00000E+00
 -1      3695 5.01240E+01 1.64765E+01 0.00000E+00
 -1      3696 2.49000E+01 3.31130E+01 0.00000E+00
 -1      3697 2.64000E+01 3.31130E+01 0.00000E+00
 -1      3698 2.79000E+01 3.31130E+01 0.00000E+00
 -1      3699 2.94000E+01 3.31130E+01 0.00000E+00
 -1      3700 2.71500E+01 3.18140E+01 0.00000E+00
 -1      3701 3.09000E+01 3.31130E+01 0.00000E+00
 -1      3702 3.24000E+01 3.31130E+01 0.00000E+00
 -1      3703 3.01500E+01 3.18140E+01 0.00000E+00
 -1      3704 3.39000E+01 3.31130E+01 0.00000E+00
 -1      3705 3.54000E+01 3.31130E+01 0.00000E+00
 -1      3706 3.31500E+01 3.18140E+01 0.00000E+00
 -1      3707 3.69000E+01 3.31130E+01 0.00000E+00
 -1      3708 3.84000E+01 3.31130E+01 0.00000E+00
 -1      3709 3.61500E+01 3.18140E+01 0.00000E+00
 -1      3710 3.99000E+01 3.31130E+01 0.00000E+00
 -1      3711 4.14000E+01 3.31130E+01 0.00000E+00
 -1      3712 3.91500E+01 3.18140E+01 0.00000E+00
 -1      3713 4.29000E+01 3.31130E+01 0.00000E+00
 -1      3714 4.44000E+01 3.31130E+01 0.00000E+00
 -1      3715 4.21500E+01 3.18140E+01 0.00000E+00
 -1      3716 4.59000E+01 3.31130E+01 0.00000E+00
 -1      3717 4.74000E+01 3.31130E+01 0.00000E+00
 -1      3718 4.51500E+01 3.18140E+01 0.00000E+00
 -1      3719 4.89000E+01 3.31130E+01 0.00000E+00
 -1      3720 5.04000E+01 3.31130E+01 0.00000E+00
 -1      3721 4.81500E+01 3.18140E+01 0.00000E+00
 -1      3722 5.19000E+01 3.31130E+01 0.00000E+00
 -1      3723 5.34000E+01 3.31130E+01 0.00000E+00
 -1      3724 5.11500E+01 3.18140E+01 0.00000E+00
 -1      3725 5.49000E+01 3.31130E+01 0.00000E+00
 -1      3726 5.64000E+01 3.31130E+01 0.00000E+00
 -1      3727 5.41500E+01 3.18140E+01 0.00000E+00
 -1      3728 1.86240E+01 1.64765E+01 0.00000E+00
 -1      3729 1.71241E+01 1.64765E+01 0.00000E+00
 -1      3730 9.24714E+01 3.34916E+01 0.00000E+00
 -1      3731 9.42716E+01 3.35786E+01 0.00000E+00
 -1      3732 9.57716E+01 3.35786E+01 0.00000E+00
 -1      3733 9.72716E+01 3.35786E+01 0.00000E+00
 -1      3734 9.87716E+01 3.35786E+01 0.00000E+00
 -1      3735 9.65216E+01 3.22796E+01 0.00000E+00
 -1      3736 1.00272E+02 3.35786E+01 0.00000E+00
 -1      3737 1.01772E+02 3.35786E+01 0.00000E+00
 -1      3738 9.95216E+01 3.22796E+01 0.00000E+00
 -1      3739 1.03272E+02 3.35786E+01 0.00000E+00
 -1      3740 1.04772E+02 3.35786E+01 0.00000E+00
 -1      3741 1.02522E+02 3.22796E+01 0.00000E+00
 -1      3742 1.06272E+02 3.35786E+01 0.00000E+00
 -1      3743 1.07772E+02 3.35786E+01 0.00000E+00
 -1      3744 1.05522E+02 3.22796E+01 0.00000E+00
 -1      3745 1.09272E+02 3.35786E+01 0.00000E+00
 -1      3746 1.10772E+02 3.35786E+01 0.00000E+00
 -1      3747 1.08522E+02 3.22796E+01 0.00000E+00
 -1      3748 1.12272E+02 3.35786E+01 0.00000E+00
 -1      3749 1.13772E+02 3.35786E+01 0.00000E+00
 -1      3750 1.11522E+02 3.22796E+01 0.00000E+00
 -1      3751 1.15272E+02 3.35786E+01 0.00000E+00
 -1      3752 1.16772E+02 3.35786E+01 0.00000E+00
 -1      3753 1.14522E+02 3.22796E+01 0.00000E+00
 -1      3754 1.18272E+02 3.35786E+01 0.00000E+00
 -1      3755 1.19772E+02 3.35786E+01 0.00000E+00
 -1      3756 1.17522E+02 3.22796E+01 0.00000E+00
 -1      3757 1.21272E+02 3.35786E+01 0.00000E+00
 -1      3758 1.22772E+02 3.35786E+01 0.00000E+00
 -1      3759 1.20522E+02 3.22796E+01 0.00000E+00
 -1      3760 1.24272E+02 3.35786E+01 0.00000E+00
 -1      3761 1.25772E+02 3.35786E+01 0.00000E+00
 -1      3762 1.23522E+02 3.22796E+01 0.00000E+00
 -1      3763 1.27272E+02 3.35786E+01 0.00000E+00
 -1      3764 1.28772E+02 3.35786E+01 0.00000E+00
 -1      3765 1.26522E+02 3.22796E+01 0.00000E+00
 -1      3766 1.30272E+02 3.35786E+01 0.00000E+00
 -1      3767 1.31772E+02 3.35786E+01 0.00000E+00
 -1      3768 1.29522E+02 3.22796E+01 0.00000E+00
 -1      3769 2.19000E+01 3.31130E+01 0.00000E+00
 -1      3770 2.34000E+01 3.31130E+01 0.00000E+00
 -1      3771 2.41500E+01 3.18140E+01 0.00000E+00
 -1      3772 4.56240E+01 1.64765E+01 0.00000E+00
 -1      3773 4.41240E+01 1.64765E+01 0.00000E+00
 -1      3774 4.86240E+01 1.64765E+01 0.00000E+00
 -1      3775 4.71240E+01 1.64765E+01 0.00000E+00
 -1      3776 4.63740E+01 1.77755E+01 0.00000E+00
 -1      3777 4.93740E+01 1.77755E+01 0.00000E+00
 -1      3778 4.26240E+01 1.64765E+01 0.00000E+00
 -1      3779 4.11240E+01 1.64765E+01 0.00000E+00
 -1      3780 4.33740E+01 1.77755E+01 0.00000E+00
 -1      3781 5.46240E+01 1.64765E+01 0.00000E+00
 -1      3782 5.31240E+01 1.64765E+01 0.00000E+00
 -1      3783 5.23740E+01 1.77755E+01 0.00000E+00
 -1      3784 5.76240E+01 1.64765E+01 0.00000E+00
 -1      3785 5.61240E+01 1.64765E+01 0.00000E+00
 -1      3786 5.53740E+01 1.77755E+01 0.00000E+00
 -1      3787 5.93166E+01 1.71500E+01 0.00000E+00
 -1      3788 8.90004E+01 1.54864E+01 0.00000E+00
 -1      3789 9.72509E+01 1.55175E+01 0.00000E+00
 -1      3790 9.57509E+01 1.55175E+01 0.00000E+00
 -1      3791 1.00251E+02 1.55175E+01 0.00000E+00
 -1      3792 9.87509E+01 1.55175E+01 0.00000E+00
 -1      3793 9.80009E+01 1.68165E+01 0.00000E+00
 -1      3794 1.03251E+02 1.55175E+01 0.00000E+00
 -1      3795 1.01751E+02 1.55175E+01 0.00000E+00
 -1      3796 1.01001E+02 1.68165E+01 0.00000E+00
 -1      3797 1.06251E+02 1.55175E+01 0.00000E+00
 -1      3798 1.04751E+02 1.55175E+01 0.00000E+00
 -1      3799 1.04001E+02 1.68165E+01 0.00000E+00
 -1      3800 1.09251E+02 1.55175E+01 0.00000E+00
 -1      3801 1.07751E+02 1.55175E+01 0.00000E+00
 -1      3802 1.07001E+02 1.68165E+01 0.00000E+00
 -1      3803 1.12251E+02 1.55175E+01 0.00000E+00
 -1      3804 1.10751E+02 1.55175E+01 0.00000E+00
 -1      3805 1.10001E+02 1.68165E+01 0.00000E+00
 -1      3806 1.15251E+02 1.55175E+01 0.00000E+00
 -1      3807 1.13751E+02 1.55175E+01 0.00000E+00
 -1      3808 1.13001E+02 1.68165E+01 0.00000E+00
 -1      3809 1.18251E+02 1.55175E+01 0.00000E+00
 -1      3810 1.16751E+02 1.55175E+01 0.00000E+00
 -1      3811 1.16001E+02 1.68165E+01 0.00000E+00
 -1      3812 1.21251E+02 1.55175E+01 0.00000E+00
 -1      3813 1.19751E+02 1.55175E+01 0.00000E+00
 -1      3814 1.19001E+02 1.68165E+01 0.00000E+00
 -1      3815 1.24251E+02 1.55175E+01 0.00000E+00
 -1      3816 1.22751E+02 1.55175E+01 0.00000E+00
 -1      3817 1.22001E+02 1.68165E+01 0.00000E+00
 -1      3818 1.27251E+02 1.55175E+01 0.00000E+00
 -1      3819 1.25751E+02 1.55175E+01 0.00000E+00
 -1      3820 1.25001E+02 1.68165E+01 0.00000E+00
 -1      3821 1.30251E+02 1.55175E+01 0.00000E+00
 -1      3822 1.28751E+02 1.55175E+01 0.00000E+00
 -1      3823 1.28001E+02 1.68165E+01 0.00000E+00
 -1      3824 1.33251E+02 1.55175E+01 0.00000E+00
 -1      3825 1.31751E+02 1.55175E+01 0.00000E+00
 -1      3826 1.31001E+02 1.68165E+01 0.00000E+00
 -1      3827 5.98590E+01 3.33587E+01 0.00000E+00
 -1      3828 5.76805E+01 3.00012E+01 0.00000E+00
 -1      3829 5.71359E+01 2.87902E+01 0.00000E+00
 -1      3830 5.72642E+01 2.67756E+01 0.00000E+00
 -1      3831 5.80851E+01 2.59755E+01 0.00000E+00
 -1      3832 5.75509E+01 2.49868E+01 0.00000E+00
 -1      3833 5.75209E+01 3.11501E+01 0.00000E+00
 -1      3834 1.89000E+01 3.31130E+01 0.00000E+00
 -1      3835 2.04000E+01 3.31130E+01 0.00000E+00
 -1      3836 2.11500E+01 3.18140E+01 0.00000E+00
 -1      3837 2.61240E+01 1.38785E+01 0.00000E+00
 -1      3838 2.46240E+01 1.38785E+01 0.00000E+00
 -1      3839 2.38740E+01 1.51775E+01 0.00000E+00
 -1      3840 2.68740E+01 1.51775E+01 0.00000E+00
 -1      3841 9.28900E+01 2.95522E+01 0.00000E+00
 -1      3842 9.25848E+01 3.13679E+01 0.00000E+00
 -1      3843 1.33113E+02 2.87125E+01 0.00000E+00
 -1      3844 1.33113E+02 2.72375E+01 0.00000E+00
 -1      3845 9.05004E+01 1.54864E+01 0.00000E+00
 -1      3846 1.34753E+02 1.54483E+01 0.00000E+00
 -1      3847 1.42890E+01 2.86500E+01 0.00000E+00
 -1      3848 1.42890E+01 3.01187E+01 0.00000E+00
 -1      3849 1.55880E+01 2.79125E+01 0.00000E+00
 -1      3850 1.33113E+02 2.57625E+01 0.00000E+00
 -1      3851 1.33113E+02 2.42875E+01 0.00000E+00
 -1      3852 1.31814E+02 2.65000E+01 0.00000E+00
 -1      3853 1.32717E+02 3.23148E+01 0.00000E+00
 -1      3854 1.40625E+01 1.71222E+01 0.00000E+00
 -1      3855 1.40625E+01 1.85941E+01 0.00000E+00
 -1      3856 1.53615E+01 1.93316E+01 0.00000E+00
 -1      3857 1.49085E+01 1.68822E+01 0.00000E+00
 -1      3858 1.36258E+02 1.79078E+01 0.00000E+00
 -1      3859 9.34311E+01 1.60713E+01 0.00000E+00
 -1      3860 9.19311E+01 1.60713E+01 0.00000E+00
 -1      3861 9.23774E+01 2.18710E+01 0.00000E+00
 -1      3862 9.22483E+01 2.36941E+01 0.00000E+00
 -1      3863 5.85666E+01 1.84490E+01 0.00000E+00
 -1      3864 9.43850E+01 3.14548E+01 0.00000E+00
 -1      3865 9.32214E+01 3.21926E+01 0.00000E+00
 -1      3866 9.33869E+01 2.84681E+01 0.00000E+00
 -1      3867 9.42452E+01 2.95459E+01 0.00000E+00
 -1      3868 9.38837E+01 2.73840E+01 0.00000E+00
 -1      3869 2.01240E+01 1.64765E+01 0.00000E+00
 -1      3870 1.93740E+01 1.77755E+01 0.00000E+00
 -1      3871 2.16240E+01 1.64765E+01 0.00000E+00
 -1      3872 5.78593E+01 3.34480E+01 0.00000E+00
 -1      3873 9.27350E+01 2.03991E+01 0.00000E+00
 -1      3874 9.39662E+01 2.14024E+01 0.00000E+00
 -1      3875 9.30926E+01 1.89273E+01 0.00000E+00
 -1      3876 5.71093E+01 3.21490E+01 0.00000E+00
 -1      3877 1.76100E+01 3.22241E+01 0.00000E+00
 -1      3878 1.55790E+01 3.10077E+01 0.00000E+00
 -1      3879 1.34003E+02 1.67473E+01 0.00000E+00
 -1      3880 1.31814E+02 2.35562E+01 0.00000E+00
 -1      3881 1.33113E+02 2.28188E+01 0.00000E+00
 -1      3882 1.33113E+02 2.13500E+01 0.00000E+00
 -1      3883 5.66016E+01 2.78016E+01 0.00000E+00
 -1      3884 5.60674E+01 2.68130E+01 0.00000E+00
 -1      3885 5.59390E+01 2.88276E+01 0.00000E+00
 -1      3886 9.41811E+01 1.73703E+01 0.00000E+00
 -1      3887 1.34959E+02 1.86453E+01 0.00000E+00
 -1      3888 5.84173E+01 2.24449E+01 0.00000E+00
 -1      3889 5.76291E+01 2.13989E+01 0.00000E+00
 -1      3890 5.75837E+01 2.31407E+01 0.00000E+00
 -1      3891 3.96240E+01 1.64765E+01 0.00000E+00
 -1      3892 3.81240E+01 1.64765E+01 0.00000E+00
 -1      3893 4.03740E+01 1.77755E+01 0.00000E+00
 -1      3894 9.33170E+01 2.45903E+01 0.00000E+00
 -1      3895 1.32717E+02 3.08648E+01 0.00000E+00
 -1      3896 1.31418E+02 3.01273E+01 0.00000E+00
 -1      3897 3.36240E+01 1.64765E+01 0.00000E+00
 -1      3898 3.21240E+01 1.64765E+01 0.00000E+00
 -1      3899 5.60616E+01 3.08151E+01 0.00000E+00
 -1      3900 5.76683E+01 1.92393E+01 0.00000E+00
 -1      3901 1.68870E+01 2.12922E+01 0.00000E+00
 -1      3902 1.68870E+01 2.27641E+01 0.00000E+00
 -1      3903 3.06240E+01 1.64765E+01 0.00000E+00
 -1      3904 2.91240E+01 1.64765E+01 0.00000E+00
 -1      3905 3.13740E+01 1.77755E+01 0.00000E+00
 -1      3906 1.68870E+01 2.42359E+01 0.00000E+00
 -1      3907 1.68870E+01 2.57078E+01 0.00000E+00
 -1      3908 1.81860E+01 2.35000E+01 0.00000E+00
 -1      3909 1.76190E+01 3.05976E+01 0.00000E+00
 -1      3910 1.65045E+01 1.79412E+01 0.00000E+00
 -1      3911 1.57545E+01 1.66422E+01 0.00000E+00
 -1      3912 2.94000E+01 3.05150E+01 0.00000E+00
 -1      3913 3.09000E+01 3.05150E+01 0.00000E+00
 -1      3914 3.24000E+01 3.05150E+01 0.00000E+00
 -1      3915 3.39000E+01 3.05150E+01 0.00000E+00
 -1      3916 3.16500E+01 2.92160E+01 0.00000E+00
 -1      3917 3.54000E+01 3.05150E+01 0.00000E+00
 -1      3918 3.69000E+01 3.05150E+01 0.00000E+00
 -1      3919 3.46500E+01 2.92160E+01 0.00000E+00
 -1      3920 3.84000E+01 3.05150E+01 0.00000E+00
 -1      3921 3.99000E+01 3.05150E+01 0.00000E+00
 -1      3922 3.76500E+01 2.92160E+01 0.00000E+00
 -1      3923 4.14000E+01 3.05150E+01 0.00000E+00
 -1      3924 4.29000E+01 3.05150E+01 0.00000E+00
 -1      3925 4.06500E+01 2.92160E+01 0.00000E+00
 -1      3926 4.44000E+01 3.05150E+01 0.00000E+00
 -1      3927 4.59000E+01 3.05150E+01 0.00000E+00
 -1      3928 4.36500E+01 2.92160E+01 0.00000E+00
 -1      3929 4.74000E+01 3.05150E+01 0.00000E+00
 -1      3930 4.89000E+01 3.05150E+01 0.00000E+00
 -1      3931 4.66500E+01 2.92160E+01 0.00000E+00
 -1      3932 5.04000E+01 3.05150E+01 0.00000E+00
 -1      3933 5.19000E+01 3.05150E+01 0.00000E+00
 -1      3934 4.96500E+01 2.92160E+01 0.00000E+00
 -1      3935 5.32308E+01 3.06651E+01 0.00000E+00
 -1      3936 5.47308E+01 3.06651E+01 0.00000E+00
 -1      3937 5.51425E+01 2.96662E+01 0.00000E+00
 -1      3938 5.24808E+01 2.93661E+01 0.00000E+00
 -1      3939 2.34000E+01 3.05150E+01 0.00000E+00
 -1      3940 2.49000E+01 3.05150E+01 0.00000E+00
 -1      3941 9.87716E+01 3.09806E+01 0.00000E+00
 -1      3942 1.00272E+02 3.09806E+01 0.00000E+00
 -1      3943 1.01772E+02 3.09806E+01 0.00000E+00
 -1      3944 1.03272E+02 3.09806E+01 0.00000E+00
 -1      3945 1.01022E+02 2.96816E+01 0.00000E+00
 -1      3946 1.04772E+02 3.09806E+01 0.00000E+00
 -1      3947 1.06272E+02 3.09806E+01 0.00000E+00
 -1      3948 1.04022E+02 2.96816E+01 0.00000E+00
 -1      3949 1.07772E+02 3.09806E+01 0.00000E+00
 -1      3950 1.09272E+02 3.09806E+01 0.00000E+00
 -1      3951 1.07022E+02 2.96816E+01 0.00000E+00
 -1      3952 1.10772E+02 3.09806E+01 0.00000E+00
 -1      3953 1.12272E+02 3.09806E+01 0.00000E+00
 -1      3954 1.10022E+02 2.96816E+01 0.00000E+00
 -1      3955 1.13772E+02 3.09806E+01 0.00000E+00
 -1      3956 1.15272E+02 3.09806E+01 0.00000E+00
 -1      3957 1.13022E+02 2.96816E+01 0.00000E+00
 -1      3958 1.16772E+02 3.09806E+01 0.00000E+00
 -1      3959 1.18272E+02 3.09806E+01 0.00000E+00
 -1      3960 1.16022E+02 2.96816E+01 0.00000E+00
 -1      3961 1.19772E+02 3.09806E+01 0.00000E+00
 -1      3962 1.21272E+02 3.09806E+01 0.00000E+00
 -1      3963 1.19022E+02 2.96816E+01 0.00000E+00
 -1      3964 1.22772E+02 3.09806E+01 0.00000E+00
 -1      3965 1.24272E+02 3.09806E+01 0.00000E+00
 -1      3966 1.22022E+02 2.96816E+01 0.00000E+00
 -1      3967 1.25772E+02 3.09806E+01 0.00000E+00
 -1      3968 1.27272E+02 3.09806E+01 0.00000E+00
 -1      3969 1.25022E+02 2.96816E+01 0.00000E+00
 -1      3970 1.28595E+02 3.05539E+01 0.00000E+00
 -1      3971 1.30095E+02 3.05539E+01 0.00000E+00
 -1      3972 1.30491E+02 2.84016E+01 0.00000E+00
 -1      3973 1.27845E+02 2.92549E+01 0.00000E+00
 -1      3974 4.41240E+01 1.90745E+01 0.00000E+00
 -1      3975 4.26240E+01 1.90745E+01 0.00000E+00
 -1      3976 1.04751E+02 1.81155E+01 0.00000E+00
 -1      3977 1.03251E+02 1.81155E+01 0.00000E+00
 -1      3978 1.01751E+02 1.81155E+01 0.00000E+00
 -1      3979 1.00251E+02 1.81155E+01 0.00000E+00
 -1      3980 1.02501E+02 1.94145E+01 0.00000E+00
 -1      3981 9.87509E+01 1.81155E+01 0.00000E+00
 -1      3982 9.72509E+01 1.81155E+01 0.00000E+00
 -1      3983 9.95009E+01 1.94145E+01 0.00000E+00
 -1      3984 1.07751E+02 1.81155E+01 0.00000E+00
 -1      3985 1.06251E+02 1.81155E+01 0.00000E+00
 -1      3986 1.05501E+02 1.94145E+01 0.00000E+00
 -1      3987 1.10751E+02 1.81155E+01 0.00000E+00
 -1      3988 1.09251E+02 1.81155E+01 0.00000E+00
 -1      3989 1.08501E+02 1.94145E+01 0.00000E+00
 -1      3990 1.13751E+02 1.81155E+01 0.00000E+00
 -1      3991 1.12251E+02 1.81155E+01 0.00000E+00
 -1      3992 1.11501E+02 1.94145E+01 0.00000E+00
 -1      3993 1.16751E+02 1.81155E+01 0.00000E+00
 -1      3994 1.15251E+02 1.81155E+01 0.00000E+00
 -1      3995 1.14501E+02 1.94145E+01 0.00000E+00
 -1      3996 1.19751E+02 1.81155E+01 0.00000E+00
 -1      3997 1.18251E+02 1.81155E+01 0.00000E+00
 -1      3998 1.17501E+02 1.94145E+01 0.00000E+00
 -1      3999 1.22751E+02 1.81155E+01 0.00000E+00
 -1      4000 1.21251E+02 1.81155E+01 0.00000E+00
 -1      4001 1.20501E+02 1.94145E+01 0.00000E+00
 -1      4002 1.25751E+02 1.81155E+01 0.00000E+00
 -1      4003 1.24251E+02 1.81155E+01 0.00000E+00
 -1      4004 1.23501E+02 1.94145E+01 0.00000E+00
 -1      4005 1.28751E+02 1.81155E+01 0.00000E+00
 -1      4006 1.27251E+02 1.81155E+01 0.00000E+00
 -1      4007 1.26501E+02 1.94145E+01 0.00000E+00
 -1      4008 1.33456E+02 1.87145E+01 0.00000E+00
 -1      4009 2.04000E+01 3.05150E+01 0.00000E+00
 -1      4010 2.19000E+01 3.05150E+01 0.00000E+00
 -1      4011 2.26500E+01 2.92160E+01 0.00000E+00
 -1      4012 5.59418E+01 2.47410E+01 0.00000E+00
 -1      4013 5.67627E+01 2.39408E+01 0.00000E+00
 -1      4014 5.59746E+01 2.28948E+01 0.00000E+00
 -1      4015 1.67310E+01 1.91659E+01 0.00000E+00
 -1      4016 2.64000E+01 3.05150E+01 0.00000E+00
 -1      4017 2.79000E+01 3.05150E+01 0.00000E+00
 -1      4018 2.56500E+01 2.92160E+01 0.00000E+00
 -1      4019 7.46236E+01 1.28751E+01 0.00000E+00
 -1      4020 3.66240E+01 1.64765E+01 0.00000E+00
 -1      4021 3.51240E+01 1.64765E+01 0.00000E+00
 -1      4022 3.43740E+01 1.77755E+01 0.00000E+00
 -1      4023 3.73740E+01 1.77755E+01 0.00000E+00
 -1      4024 9.58283E+01 3.12177E+01 0.00000E+00
 -1      4025 9.73283E+01 3.12177E+01 0.00000E+00
 -1      4026 9.80783E+01 2.99187E+01 0.00000E+00
 -1      4027 9.51916E+01 3.03929E+01 0.00000E+00
 -1      4028 1.80300E+01 1.99018E+01 0.00000E+00
 -1      4029 5.31240E+01 1.90745E+01 0.00000E+00
 -1      4030 5.16240E+01 1.90745E+01 0.00000E+00
 -1      4031 9.47435E+01 2.39499E+01 0.00000E+00
 -1      4032 9.44519E+01 2.56659E+01 0.00000E+00
 -1      4033 1.68870E+01 2.71766E+01 0.00000E+00
 -1      4034 1.68870E+01 2.86453E+01 0.00000E+00
 -1      4035 1.81860E+01 2.64406E+01 0.00000E+00
 -1      4036 1.30491E+02 2.69266E+01 0.00000E+00
 -1      4037 1.30491E+02 2.54516E+01 0.00000E+00
 -1      4038 1.29168E+02 2.73533E+01 0.00000E+00
 -1      4039 9.54123E+01 1.83735E+01 0.00000E+00
 -1      4040 1.95300E+01 1.99018E+01 0.00000E+00
 -1      4041 5.68987E+01 2.03191E+01 0.00000E+00
 -1      4042 5.61044E+01 1.88553E+01 0.00000E+00
 -1      4043 5.46044E+01 1.88553E+01 0.00000E+00
 -1      4044 5.60652E+01 2.10149E+01 0.00000E+00
 -1      4045 1.89180E+01 2.98617E+01 0.00000E+00
 -1      4046 1.32535E+02 2.00323E+01 0.00000E+00
 -1      4047 1.31579E+02 1.81343E+01 0.00000E+00
 -1      4048 1.30079E+02 1.81343E+01 0.00000E+00
 -1      4049 1.31236E+02 2.07698E+01 0.00000E+00
 -1      4050 2.86500E+01 2.92160E+01 0.00000E+00
 -1      4051 9.56885E+01 2.93088E+01 0.00000E+00
 -1      4052 2.31240E+01 1.64765E+01 0.00000E+00
 -1      4053 2.23740E+01 1.77755E+01 0.00000E+00
 -1      4054 2.46240E+01 1.64765E+01 0.00000E+00
 -1      4055 5.46082E+01 2.86775E+01 0.00000E+00
 -1      4056 9.51011E+01 2.24780E+01 0.00000E+00
 -1      4057 9.62359E+01 2.35536E+01 0.00000E+00
 -1      4058 9.54587E+01 2.10061E+01 0.00000E+00
 -1      4059 1.29329E+02 1.94333E+01 0.00000E+00
 -1      4060 2.13001E+01 1.95327E+01 0.00000E+00
 -1      4061 1.99560E+01 2.16590E+01 0.00000E+00
 -1      4062 9.61623E+01 1.96725E+01 0.00000E+00
 -1      4063 4.71240E+01 1.90745E+01 0.00000E+00
 -1      4064 4.56240E+01 1.90745E+01 0.00000E+00
 -1      4065 4.48740E+01 2.03735E+01 0.00000E+00
 -1      4066 1.30491E+02 2.39829E+01 0.00000E+00
 -1      4067 1.30491E+02 2.25141E+01 0.00000E+00
 -1      4068 1.29168E+02 2.44095E+01 0.00000E+00
 -1      4069 2.17261E+01 2.27618E+01 0.00000E+00
 -1      4070 1.99560E+01 2.31309E+01 0.00000E+00
 -1      4071 1.99560E+01 2.46028E+01 0.00000E+00
 -1      4072 1.96680E+01 2.85627E+01 0.00000E+00
 -1      4073 5.52792E+01 2.57670E+01 0.00000E+00
 -1      4074 5.44911E+01 2.47210E+01 0.00000E+00
 -1      4075 5.46167E+01 2.67929E+01 0.00000E+00
 -1      4076 5.08740E+01 2.03735E+01 0.00000E+00
 -1      4077 5.01240E+01 1.90745E+01 0.00000E+00
 -1      4078 4.86240E+01 1.90745E+01 0.00000E+00
 -1      4079 4.11240E+01 1.90745E+01 0.00000E+00
 -1      4080 3.96240E+01 1.90745E+01 0.00000E+00
 -1      4081 4.18740E+01 2.03735E+01 0.00000E+00
 -1      4082 2.76240E+01 1.64765E+01 0.00000E+00
 -1      4083 2.61240E+01 1.64765E+01 0.00000E+00
 -1      4084 2.53740E+01 1.77755E+01 0.00000E+00
 -1      4085 2.83740E+01 1.77755E+01 0.00000E+00
 -1      4086 9.53102E+01 2.67437E+01 0.00000E+00
 -1      4087 3.21240E+01 1.90745E+01 0.00000E+00
 -1      4088 3.06240E+01 1.90745E+01 0.00000E+00
 -1      4089 5.38544E+01 2.01543E+01 0.00000E+00
 -1      4090 3.51240E+01 1.90745E+01 0.00000E+00
 -1      4091 3.36240E+01 1.90745E+01 0.00000E+00
 -1      4092 3.28740E+01 2.03735E+01 0.00000E+00
 -1      4093 3.39000E+01 2.79170E+01 0.00000E+00
 -1      4094 3.54000E+01 2.79170E+01 0.00000E+00
 -1      4095 3.69000E+01 2.79170E+01 0.00000E+00
 -1      4096 3.84000E+01 2.79170E+01 0.00000E+00
 -1      4097 3.61500E+01 2.66180E+01 0.00000E+00
 -1      4098 3.99000E+01 2.79170E+01 0.00000E+00
 -1      4099 4.14000E+01 2.79170E+01 0.00000E+00
 -1      4100 3.91500E+01 2.66180E+01 0.00000E+00
 -1      4101 4.29000E+01 2.79170E+01 0.00000E+00
 -1      4102 4.44000E+01 2.79170E+01 0.00000E+00
 -1      4103 4.21500E+01 2.66180E+01 0.00000E+00
 -1      4104 4.59000E+01 2.79170E+01 0.00000E+00
 -1      4105 4.74000E+01 2.79170E+01 0.00000E+00
 -1      4106 4.51500E+01 2.66180E+01 0.00000E+00
 -1      4107 4.89000E+01 2.79170E+01 0.00000E+00
 -1      4108 5.04000E+01 2.79170E+01 0.00000E+00
 -1      4109 4.81500E+01 2.66180E+01 0.00000E+00
 -1      4110 5.18387E+01 2.82222E+01 0.00000E+00
 -1      4111 5.31695E+01 2.83723E+01 0.00000E+00
 -1      4112 5.39661E+01 2.75337E+01 0.00000E+00
 -1      4113 5.10887E+01 2.69232E+01 0.00000E+00
 -1      4114 2.28001E+01 1.95327E+01 0.00000E+00
 -1      4115 9.72972E+01 2.07481E+01 0.00000E+00
 -1      4116 1.03251E+02 2.07135E+01 0.00000E+00
 -1      4117 1.01751E+02 2.07135E+01 0.00000E+00
 -1      4118 1.03272E+02 2.83826E+01 0.00000E+00
 -1      4119 1.04772E+02 2.83826E+01 0.00000E+00
 -1      4120 1.06272E+02 2.83826E+01 0.00000E+00
 -1      4121 1.07772E+02 2.83826E+01 0.00000E+00
 -1      4122 1.05522E+02 2.70836E+01 0.00000E+00
 -1      4123 1.09272E+02 2.83826E+01 0.00000E+00
 -1      4124 1.10772E+02 2.83826E+01 0.00000E+00
 -1      4125 1.08522E+02 2.70836E+01 0.00000E+00
 -1      4126 1.12272E+02 2.83826E+01 0.00000E+00
 -1      4127 1.13772E+02 2.83826E+01 0.00000E+00
 -1      4128 1.11522E+02 2.70836E+01 0.00000E+00
 -1      4129 1.15272E+02 2.83826E+01 0.00000E+00
 -1      4130 1.16772E+02 2.83826E+01 0.00000E+00
 -1      4131 1.14522E+02 2.70836E+01 0.00000E+00
 -1      4132 1.18272E+02 2.83826E+01 0.00000E+00
 -1      4133 1.19772E+02 2.83826E+01 0.00000E+00
 -1      4134 1.17522E+02 2.70836E+01 0.00000E+00
 -1      4135 1.21272E+02 2.83826E+01 0.00000E+00
 -1      4136 1.22772E+02 2.83826E+01 0.00000E+00
 -1      4137 1.20522E+02 2.70836E+01 0.00000E+00
 -1      4138 1.24272E+02 2.83826E+01 0.00000E+00
 -1      4139 1.25772E+02 2.83826E+01 0.00000E+00
 -1      4140 1.23522E+02 2.70836E+01 0.00000E+00
 -1      4141 1.26808E+02 2.80812E+01 0.00000E+00
 -1      4142 1.28131E+02 2.76546E+01 0.00000E+00
 -1      4143 1.28131E+02 2.61796E+01 0.00000E+00
 -1      4144 1.26058E+02 2.67822E+01 0.00000E+00
 -1      4145 1.09251E+02 2.07135E+01 0.00000E+00
 -1      4146 1.07751E+02 2.07135E+01 0.00000E+00
 -1      4147 1.06251E+02 2.07135E+01 0.00000E+00
 -1      4148 1.04751E+02 2.07135E+01 0.00000E+00
 -1      4149 1.04001E+02 2.20125E+01 0.00000E+00
 -1      4150 1.29913E+02 2.11964E+01 0.00000E+00
 -1      4151 1.00274E+02 2.07308E+01 0.00000E+00
 -1      4152 9.87740E+01 2.07308E+01 0.00000E+00
 -1      4153 9.80704E+01 2.20644E+01 0.00000E+00
 -1      4154 1.01024E+02 2.20298E+01 0.00000E+00
 -1      4155 1.12251E+02 2.07135E+01 0.00000E+00
 -1      4156 1.10751E+02 2.07135E+01 0.00000E+00
 -1      4157 1.10001E+02 2.20125E+01 0.00000E+00
 -1      4158 1.15251E+02 2.07135E+01 0.00000E+00
 -1      4159 1.13751E+02 2.07135E+01 0.00000E+00
 -1      4160 1.13001E+02 2.20125E+01 0.00000E+00
 -1      4161 1.18251E+02 2.07135E+01 0.00000E+00
 -1      4162 1.16751E+02 2.07135E+01 0.00000E+00
 -1      4163 1.16001E+02 2.20125E+01 0.00000E+00
 -1      4164 1.21251E+02 2.07135E+01 0.00000E+00
 -1      4165 1.19751E+02 2.07135E+01 0.00000E+00
 -1      4166 1.19001E+02 2.20125E+01 0.00000E+00
 -1      4167 1.24251E+02 2.07135E+01 0.00000E+00
 -1      4168 1.22751E+02 2.07135E+01 0.00000E+00
 -1      4169 1.22001E+02 2.20125E+01 0.00000E+00
 -1      4170 1.27251E+02 2.07135E+01 0.00000E+00
 -1      4171 1.25751E+02 2.07135E+01 0.00000E+00
 -1      4172 1.25001E+02 2.20125E+01 0.00000E+00
 -1      4173 1.28584E+02 2.11776E+01 0.00000E+00
 -1      4174 2.79000E+01 2.79170E+01 0.00000E+00
 -1      4175 2.94000E+01 2.79170E+01 0.00000E+00
 -1      4176 2.49000E+01 2.79170E+01 0.00000E+00
 -1      4177 2.64000E+01 2.79170E+01 0.00000E+00
 -1      4178 2.71500E+01 2.66180E+01 0.00000E+00
 -1      4179 3.81240E+01 1.90745E+01 0.00000E+00
 -1      4180 3.66240E+01 1.90745E+01 0.00000E+00
 -1      4181 3.88740E+01 2.03735E+01 0.00000E+00
 -1      4182 1.98120E+01 2.58484E+01 0.00000E+00
 -1      4183 1.98120E+01 2.73171E+01 0.00000E+00
 -1      4184 2.12940E+01 2.79704E+01 0.00000E+00
 -1      4185 2.15821E+01 2.54793E+01 0.00000E+00
 -1      4186 1.00272E+02 2.83826E+01 0.00000E+00
 -1      4187 1.01772E+02 2.83826E+01 0.00000E+00
 -1      4188 1.02522E+02 2.70836E+01 0.00000E+00
 -1      4189 3.09000E+01 2.79170E+01 0.00000E+00
 -1      4190 3.24000E+01 2.79170E+01 0.00000E+00
 -1      4191 3.01500E+01 2.66180E+01 0.00000E+00
 -1      4192 5.52442E+01 2.18150E+01 0.00000E+00
 -1      4193 5.37638E+01 2.20342E+01 0.00000E+00
 -1      4194 9.68248E+01 2.58725E+01 0.00000E+00
 -1      4195 9.62566E+01 2.75906E+01 0.00000E+00
 -1      4196 9.72031E+01 2.84376E+01 0.00000E+00
 -1      4197 2.98740E+01 2.03735E+01 0.00000E+00
 -1      4198 2.91240E+01 1.90745E+01 0.00000E+00
 -1      4199 2.76240E+01 1.90745E+01 0.00000E+00
 -1      4200 2.27940E+01 2.79704E+01 0.00000E+00
 -1      4201 5.33775E+01 2.33776E+01 0.00000E+00
 -1      4202 5.19876E+01 2.17169E+01 0.00000E+00
 -1      4203 5.04876E+01 2.17169E+01 0.00000E+00
 -1      4204 5.27149E+01 2.44036E+01 0.00000E+00
 -1      4205 9.86464E+01 2.82005E+01 0.00000E+00
 -1      4206 2.44454E+01 1.93315E+01 0.00000E+00
 -1      4207 2.33715E+01 2.10887E+01 0.00000E+00
 -1      4208 3.31500E+01 2.66180E+01 0.00000E+00
 -1      4209 2.33715E+01 2.25606E+01 0.00000E+00
 -1      4210 4.78740E+01 2.03735E+01 0.00000E+00
 -1      4211 1.07001E+02 2.20125E+01 0.00000E+00
 -1      4212 4.56240E+01 2.16725E+01 0.00000E+00
 -1      4213 4.41240E+01 2.16725E+01 0.00000E+00
 -1      4214 9.76264E+01 2.32325E+01 0.00000E+00
 -1      4215 9.72687E+01 2.47044E+01 0.00000E+00
 -1      4216 9.82152E+01 2.55514E+01 0.00000E+00
 -1      4217 9.91032E+01 2.32152E+01 0.00000E+00
 -1      4218 1.27834E+02 2.24766E+01 0.00000E+00
 -1      4219 2.35440E+01 2.66714E+01 0.00000E+00
 -1      4220 3.58740E+01 2.03735E+01 0.00000E+00
 -1      4221 5.31780E+01 2.64877E+01 0.00000E+00
 -1      4222 4.26240E+01 2.16725E+01 0.00000E+00
 -1      4223 4.11240E+01 2.16725E+01 0.00000E+00
 -1      4224 4.33740E+01 2.29715E+01 0.00000E+00
 -1      4225 9.93964E+01 2.69015E+01 0.00000E+00
 -1      4226 3.06240E+01 2.16725E+01 0.00000E+00
 -1      4227 2.91240E+01 2.16725E+01 0.00000E+00
 -1      4228 3.36240E+01 2.16725E+01 0.00000E+00
 -1      4229 3.21240E+01 2.16725E+01 0.00000E+00
 -1      4230 3.13740E+01 2.29715E+01 0.00000E+00
 -1      4231 3.54000E+01 2.53190E+01 0.00000E+00
 -1      4232 3.69000E+01 2.53190E+01 0.00000E+00
 -1      4233 1.10751E+02 2.33115E+01 0.00000E+00
 -1      4234 1.09251E+02 2.33115E+01 0.00000E+00
 -1      4235 3.22620E+01 2.47948E+01 0.00000E+00
 -1      4236 3.37620E+01 2.47948E+01 0.00000E+00
 -1      4237 3.84000E+01 2.53190E+01 0.00000E+00
 -1      4238 3.99000E+01 2.53190E+01 0.00000E+00
 -1      4239 3.76500E+01 2.40200E+01 0.00000E+00
 -1      4240 4.12620E+01 2.47948E+01 0.00000E+00
 -1      4241 4.27620E+01 2.47948E+01 0.00000E+00
 -1      4242 4.42620E+01 2.47948E+01 0.00000E+00
 -1      4243 4.57620E+01 2.47948E+01 0.00000E+00
 -1      4244 1.27250E+02 2.50829E+01 0.00000E+00
 -1      4245 1.28287E+02 2.47816E+01 0.00000E+00
 -1      4246 4.71240E+01 2.16725E+01 0.00000E+00
 -1      4247 4.63740E+01 2.29715E+01 0.00000E+00
 -1      4248 4.86240E+01 2.16725E+01 0.00000E+00
 -1      4249 1.08511E+02 2.58470E+01 0.00000E+00
 -1      4250 1.10011E+02 2.58470E+01 0.00000E+00
 -1      4251 1.11511E+02 2.58470E+01 0.00000E+00
 -1      4252 1.13011E+02 2.58470E+01 0.00000E+00
 -1      4253 1.11501E+02 2.46105E+01 0.00000E+00
 -1      4254 1.14511E+02 2.58470E+01 0.00000E+00
 -1      4255 1.16011E+02 2.58470E+01 0.00000E+00
 -1      4256 1.14501E+02 2.46105E+01 0.00000E+00
 -1      4257 1.17511E+02 2.58470E+01 0.00000E+00
 -1      4258 1.19011E+02 2.58470E+01 0.00000E+00
 -1      4259 1.17501E+02 2.46105E+01 0.00000E+00
 -1      4260 1.20511E+02 2.58470E+01 0.00000E+00
 -1      4261 1.22011E+02 2.58470E+01 0.00000E+00
 -1      4262 1.20501E+02 2.46105E+01 0.00000E+00
 -1      4263 1.23511E+02 2.58470E+01 0.00000E+00
 -1      4264 1.24863E+02 2.56156E+01 0.00000E+00
 -1      4265 1.25899E+02 2.53143E+01 0.00000E+00
 -1      4266 1.26055E+02 2.39163E+01 0.00000E+00
 -1      4267 1.23352E+02 2.43791E+01 0.00000E+00
 -1      4268 9.98404E+01 2.57334E+01 0.00000E+00
 -1      4269 1.04772E+02 2.57846E+01 0.00000E+00
 -1      4270 1.06272E+02 2.57846E+01 0.00000E+00
 -1      4271 1.05511E+02 2.32490E+01 0.00000E+00
 -1      4272 1.04011E+02 2.32490E+01 0.00000E+00
 -1      4273 1.28287E+02 2.33128E+01 0.00000E+00
 -1      4274 1.19751E+02 2.33115E+01 0.00000E+00
 -1      4275 1.18251E+02 2.33115E+01 0.00000E+00
 -1      4276 1.22751E+02 2.33115E+01 0.00000E+00
 -1      4277 1.21251E+02 2.33115E+01 0.00000E+00
 -1      4278 1.25602E+02 2.30801E+01 0.00000E+00
 -1      4279 1.24102E+02 2.30801E+01 0.00000E+00
 -1      4280 2.36880E+01 2.54258E+01 0.00000E+00
 -1      4281 2.64000E+01 2.53190E+01 0.00000E+00
 -1      4282 2.79000E+01 2.53190E+01 0.00000E+00
 -1      4283 1.07011E+02 2.32490E+01 0.00000E+00
 -1      4284 3.67620E+01 2.21968E+01 0.00000E+00
 -1      4285 3.52620E+01 2.21968E+01 0.00000E+00
 -1      4286 3.97620E+01 2.21968E+01 0.00000E+00
 -1      4287 3.82620E+01 2.21968E+01 0.00000E+00
 -1      4288 1.26953E+02 2.28487E+01 0.00000E+00
 -1      4289 2.92620E+01 2.47948E+01 0.00000E+00
 -1      4290 3.07620E+01 2.47948E+01 0.00000E+00
 -1      4291 1.16751E+02 2.33115E+01 0.00000E+00
 -1      4292 1.15251E+02 2.33115E+01 0.00000E+00
 -1      4293 5.15765E+01 2.60338E+01 0.00000E+00
 -1      4294 5.22271E+01 2.52930E+01 0.00000E+00
 -1      4295 5.11134E+01 2.39497E+01 0.00000E+00
 -1      4296 5.01378E+01 2.57286E+01 0.00000E+00
 -1      4297 1.13751E+02 2.33115E+01 0.00000E+00
 -1      4298 1.12251E+02 2.33115E+01 0.00000E+00
 -1      4299 2.59454E+01 1.93315E+01 0.00000E+00
 -1      4300 2.53334E+01 2.37528E+01 0.00000E+00
 -1      4301 2.85120E+01 2.34958E+01 0.00000E+00
 -1      4302 2.77620E+01 2.21968E+01 0.00000E+00
 -1      4303 2.66954E+01 2.06305E+01 0.00000E+00
 -1      4304 1.01556E+02 2.57590E+01 0.00000E+00
 -1      4305 1.03056E+02 2.57590E+01 0.00000E+00
 -1      4306 1.03806E+02 2.44600E+01 0.00000E+00
 -1      4307 1.00375E+02 2.44089E+01 0.00000E+00
 -1      4308 4.72620E+01 2.47948E+01 0.00000E+00
 -1      4309 1.07761E+02 2.45480E+01 0.00000E+00
 -1      4310 3.45120E+01 2.34958E+01 0.00000E+00
 -1      4311 4.05120E+01 2.34958E+01 0.00000E+00
 -1      4312 4.87620E+01 2.47948E+01 0.00000E+00
 -1      4313 4.97376E+01 2.30159E+01 0.00000E+00
 -1      4314 1.02296E+02 2.32235E+01 0.00000E+00
 -1      4315 1.00819E+02 2.32408E+01 0.00000E+00
 -1      4316 2.60834E+01 2.24538E+01 0.00000E+00
 -1      4317 4.92498E+01 2.39053E+01 0.00000E+00
 -3
    3C                          2077                                     1
 -1       164    8    0    1
 -2         6         7        23      1121      1284      1138
 -1       165    8    0    1
 -2         7         8       164      1122      1285      1286
 -1       166    8    0    1
 -2         8         9       165      1123      1287      1288
 -1       167    8    0    1
 -2         8       165       164      1288      1289      1285
 -1       168    8    0    1
 -2         9        10       166      1124      1290      1291
 -1       169    8    0    1
 -2         9       166       165      1291      1292      1287
 -1       170    8    0    1
 -2        10        11       167      1125      1293      1294
 -1       171    8    0    1
 -2        10       167       166      1294      1295      1290
 -1       172    8    0    1
 -2        11        12       168      1126      1296      1297
 -1       173    8    0    1
 -2        11       168       167      1297      1298      1293
 -1       174    8    0    1
 -2        12        13       169      1127      1299      1300
 -1       175    8    0    1
 -2        12       169       168      1300      1301      1296
 -1       176    8    0    1
 -2        13        14       170      1128      1302      1303
 -1       177    8    0    1
 -2        13       170       169      1303      1304      1299
 -1       178    8    0    1
 -2        14        15       171      1129      1305      1306
 -1       179    8    0    1
 -2        14       171       170      1306      1307      1302
 -1       180    8    0    1
 -2        15        16       172      1130      1308      1309
 -1       181    8    0    1
 -2        15       172       171      1309      1310      1305
 -1       182    8    0    1
 -2        16        17       173      1131      1311      1312
 -1       183    8    0    1
 -2        16       173       172      1312      1313      1308
 -1       184    8    0    1
 -2        17        18       174      1132      1314      1315
 -1       185    8    0    1
 -2        17       174       173      1315      1316      1311
 -1       186    8    0    1
 -2        18        19       175      1133      1317      1318
 -1       187    8    0    1
 -2        18       175       174      1318      1319      1314
 -1       188    8    0    1
 -2        19        20       176      1134      1320      1321
 -1       189    8    0    1
 -2        19       176       175      1321      1322      1317
 -1       190    8    0    1
 -2        20        21       177      1135      1323      1324
 -1       191    8    0    1
 -2        20       177       176      1324      1325      1320
 -1       192    8    0    1
 -2        21        22       178      1136      1326      1327
 -1       193    8    0    1
 -2        21       178       177      1327      1328      1323
 -1       194    8    0    1
 -2        22         5       179      1137      1329      1330
 -1       195    8    0    1
 -2       178        22       179      1326      1330      1331
 -1       196    8    0    1
 -2         5        72       179      1188      1332      1329
 -1       197    8    0    1
 -2        24        23       180      1139      1333      1334
 -1       198    8    0    1
 -2        25        24       181      1140      1335      1336
 -1       199    8    0    1
 -2        24       180       181      1334      1337      1335
 -1       200    8    0    1
 -2        26        25       182      1141      1338      1339
 -1       201    8    0    1
 -2        25       181       182      1336      1340      1338
 -1       202    8    0    1
 -2        27        26       183      1142      1341      1342
 -1       203    8    0    1
 -2        26       182       183      1339      1343      1341
 -1       204    8    0    1
 -2        28        27       184      1143      1344      1345
 -1       205    8    0    1
 -2        27       183       184      1342      1346      1344
 -1       206    8    0    1
 -2        29        28       185      1144      1347      1348
 -1       207    8    0    1
 -2        28       184       185      1345      1349      1347
 -1       208    8    0    1
 -2        30        29       186      1145      1350      1351
 -1       209    8    0    1
 -2        29       185       186      1348      1352      1350
 -1       210    8    0    1
 -2        31        30       187      1146      1353      1354
 -1       211    8    0    1
 -2        30       186       187      1351      1355      1353
 -1       212    8    0    1
 -2        32        31       188      1147      1356      1357
 -1       213    8    0    1
 -2        31       187       188      1354      1358      1356
 -1       214    8    0    1
 -2        33        32       189      1148      1359      1360
 -1       215    8    0    1
 -2        32       188       189      1357      1361      1359
 -1       216    8    0    1
 -2        34        33       190      1149      1362      1363
 -1       217    8    0    1
 -2        33       189       190      1360      1364      1362
 -1       218    8    0    1
 -2        35        34       191      1150      1365      1366
 -1       219    8    0    1
 -2        34       190       191      1363      1367      1365
 -1       220    8    0    1
 -2        36        35       192      1151      1368      1369
 -1       221    8    0    1
 -2        35       191       192      1366      1370      1368
 -1       222    8    0    1
 -2        37        36       193      1152      1371      1372
 -1       223    8    0    1
 -2        36       192       193      1369      1373      1371
 -1       224    8    0    1
 -2        38        37       194      1153      1374      1375
 -1       225    8    0    1
 -2        37       193       194      1372      1376      1374
 -1       226    8    0    1
 -2        39        38       195      1154      1377      1378
 -1       227    8    0    1
 -2        38       194       195      1375      1379      1377
 -1       228    8    0    1
 -2        40        39       196      1155      1380      1381
 -1       229    8    0    1
 -2        39       195       196      1378      1382      1380
 -1       230    8    0    1
 -2        41        40       197      1156      1383      1384
 -1       231    8    0    1
 -2        40       196       197      1381      1385      1383
 -1       232    8    0    1
 -2        42        41       198      1157      1386      1387
 -1       233    8    0    1
 -2        41       197       198      1384      1388      1386
 -1       234    8    0    1
 -2        43        42       199      1158      1389      1390
 -1       235    8    0    1
 -2        42       198       199      1387      1391      1389
 -1       236    8    0    1
 -2        44        43       200      1159      1392      1393
 -1       237    8    0    1
 -2        43       199       200      1390      1394      1392
 -1       238    8    0    1
 -2        45        44       201      1160      1395      1396
 -1       239    8    0    1
 -2        44       200       201      1393      1397      1395
 -1       240    8    0    1
 -2        46        45       202      1161      1398      1399
 -1       241    8    0    1
 -2        45       201       202      1396      1400      1398
 -1       242    8    0    1
 -2        47        46       203      1162      1401      1402
 -1       243    8    0    1
 -2        46       202       203      1399      1403      1401
 -1       244    8    0    1
 -2        48        47       204      1163      1404      1405
 -1       245    8    0    1
 -2        47       203       204      1402      1406      1404
 -1       246    8    0    1
 -2        49        48       205      1164      1407      1408
 -1       247    8    0    1
 -2        48       204       205      1405      1409      1407
 -1       248    8    0    1
 -2        50        49       206      1165      1410      1411
 -1       249    8    0    1
 -2        49       205       206      1408      1412      1410
 -1       250    8    0    1
 -2        51        50       207      1166      1413      1414
 -1       251    8    0    1
 -2        50       206       207      1411      1415      1413
 -1       252    8    0    1
 -2        52        51       208      1167      1416      1417
 -1       253    8    0    1
 -2        51       207       208      1414      1418      1416
 -1       254    8    0    1
 -2        53        52       209      1168      1419      1420
 -1       255    8    0    1
 -2        52       208       209      1417      1421      1419
 -1       256    8    0    1
 -2        54        53       210      1169      1422      1423
 -1       257    8    0    1
 -2        53       209       210      1420      1424      1422
 -1       258    8    0    1
 -2        55        54       211      1170      1425      1426
 -1       259    8    0    1
 -2        54       210       211      1423      1427      1425
 -1       260    8    0    1
 -2        56        55       212      1171      1428      1429
 -1       261    8    0    1
 -2        55       211       212      1426      1430      1428
 -1       262    8    0    1
 -2        57        56       213      1172      1431      1432
 -1       263    8    0    1
 -2        56       212       213      1429      1433      1431
 -1       264    8    0    1
 -2        58        57       214      1173      1434      1435
 -1       265    8    0    1
 -2        57       213       214      1432      1436      1434
 -1       266    8    0    1
 -2        59        58       215      1174      1437      1438
 -1       267    8    0    1
 -2        58       214       215      1435      1439      1437
 -1       268    8    0    1
 -2        60        59       216      1175      1440      1441
 -1       269    8    0    1
 -2        59       215       216      1438      1442      1440
 -1       270    8    0    1
 -2        61        60       217      1176      1443      1444
 -1       271    8    0    1
 -2        60       216       217      1441      1445      1443
 -1       272    8    0    1
 -2        62        61       218      1177      1446      1447
 -1       273    8    0    1
 -2        61       217       218      1444      1448      1446
 -1       274    8    0    1
 -2        63        62       219      1178      1449      1450
 -1       275    8    0    1
 -2        62       218       219      1447      1451      1449
 -1       276    8    0    1
 -2        64        63       220      1179      1452      1453
 -1       277    8    0    1
 -2        63       219       220      1450      1454      1452
 -1       278    8    0    1
 -2        65        64       221      1180      1455      1456
 -1       279    8    0    1
 -2        64       220       221      1453      1457      1455
 -1       280    8    0    1
 -2        66        65       222      1181      1458      1459
 -1       281    8    0    1
 -2        65       221       222      1456      1460      1458
 -1       282    8    0    1
 -2        67        66       223      1182      1461      1462
 -1       283    8    0    1
 -2        66       222       223      1459      1463      1461
 -1       284    8    0    1
 -2        68        67       224      1183      1464      1465
 -1       285    8    0    1
 -2        67       223       224      1462      1466      1464
 -1       286    8    0    1
 -2        69        68       225      1184      1467      1468
 -1       287    8    0    1
 -2        68       224       225      1465      1469      1467
 -1       288    8    0    1
 -2        70        69       226      1185      1470      1471
 -1       289    8    0    1
 -2        69       225       226      1468      1472      1470
 -1       290    8    0    1
 -2        71        70       227      1186      1473      1474
 -1       291    8    0    1
 -2        70       226       227      1471      1475      1473
 -1       292    8    0    1
 -2         4        71       228      1187      1476      1477
 -1       293    8    0    1
 -2       136         4       228      1254      1477      1478
 -1       294    8    0    1
 -2        71       227       228      1474      1479      1476
 -1       295    8    0    1
 -2        72        73       229      1189      1480      1481
 -1       296    8    0    1
 -2        72       229       179      1481      1482      1332
 -1       297    8    0    1
 -2        73        74       230      1190      1483      1484
 -1       298    8    0    1
 -2        73       230       229      1484      1485      1480
 -1       299    8    0    1
 -2        74        75       231      1191      1486      1487
 -1       300    8    0    1
 -2        74       231       230      1487      1488      1483
 -1       301    8    0    1
 -2        75        76       232      1192      1489      1490
 -1       302    8    0    1
 -2        75       232       231      1490      1491      1486
 -1       303    8    0    1
 -2        76        77       233      1193      1492      1493
 -1       304    8    0    1
 -2        76       233       232      1493      1494      1489
 -1       305    8    0    1
 -2        77        78       234      1194      1495      1496
 -1       306    8    0    1
 -2        77       234       233      1496      1497      1492
 -1       307    8    0    1
 -2        78        79       235      1195      1498      1499
 -1       308    8    0    1
 -2        78       235       234      1499      1500      1495
 -1       309    8    0    1
 -2        79        80       236      1196      1501      1502
 -1       310    8    0    1
 -2        79       236       235      1502      1503      1498
 -1       311    8    0    1
 -2        80        81       237      1197      1504      1505
 -1       312    8    0    1
 -2        80       237       236      1505      1506      1501
 -1       313    8    0    1
 -2        81        82       238      1198      1507      1508
 -1       314    8    0    1
 -2        81       238       237      1508      1509      1504
 -1       315    8    0    1
 -2        82        83       239      1199      1510      1511
 -1       316    8    0    1
 -2        82       239       238      1511      1512      1507
 -1       317    8    0    1
 -2        83        84       240      1200      1513      1514
 -1       318    8    0    1
 -2        83       240       239      1514      1515      1510
 -1       319    8    0    1
 -2        84        85       241      1201      1516      1517
 -1       320    8    0    1
 -2        84       241       240      1517      1518      1513
 -1       321    8    0    1
 -2        85        86       242      1202      1519      1520
 -1       322    8    0    1
 -2        85       242       241      1520      1521      1516
 -1       323    8    0    1
 -2        86        87       243      1203      1522      1523
 -1       324    8    0    1
 -2        86       243       242      1523      1524      1519
 -1       325    8    0    1
 -2        87        88       244      1204      1525      1526
 -1       326    8    0    1
 -2        87       244       243      1526      1527      1522
 -1       327    8    0    1
 -2        88        89       245      1205      1528      1529
 -1       328    8    0    1
 -2        88       245       244      1529      1530      1525
 -1       329    8    0    1
 -2        89        90       246      1206      1531      1532
 -1       330    8    0    1
 -2        89       246       245      1532      1533      1528
 -1       331    8    0    1
 -2        90        91       247      1207      1534      1535
 -1       332    8    0    1
 -2        90       247       246      1535      1536      1531
 -1       333    8    0    1
 -2        91        92       248      1208      1537      1538
 -1       334    8    0    1
 -2        91       248       247      1538      1539      1534
 -1       335    8    0    1
 -2        92        93       249      1209      1540      1541
 -1       336    8    0    1
 -2        92       249       248      1541      1542      1537
 -1       337    8    0    1
 -2        93        94       250      1210      1543      1544
 -1       338    8    0    1
 -2        93       250       249      1544      1545      1540
 -1       339    8    0    1
 -2        94        95       251      1211      1546      1547
 -1       340    8    0    1
 -2        94       251       250      1547      1548      1543
 -1       341    8    0    1
 -2        95        96       252      1212      1549      1550
 -1       342    8    0    1
 -2        95       252       251      1550      1551      1546
 -1       343    8    0    1
 -2        96        97       253      1213      1552      1553
 -1       344    8    0    1
 -2        96       253       252      1553      1554      1549
 -1       345    8    0    1
 -2        97        98       254      1214      1555      1556
 -1       346    8    0    1
 -2        97       254       253      1556      1557      1552
 -1       347    8    0    1
 -2        98        99       255      1215      1558      1559
 -1       348    8    0    1
 -2        98       255       254      1559      1560      1555
 -1       349    8    0    1
 -2        99       100       256      1216      1561      1562
 -1       350    8    0    1
 -2        99       256       255      1562      1563      1558
 -1       351    8    0    1
 -2       100       101       257      1217      1564      1565
 -1       352    8    0    1
 -2       100       257       256      1565      1566      1561
 -1       353    8    0    1
 -2       101       102       258      1218      1567      1568
 -1       354    8    0    1
 -2       101       258       257      1568      1569      1564
 -1       355    8    0    1
 -2       102       103       259      1219      1570      1571
 -1       356    8    0    1
 -2       102       259       258      1571      1572      1567
 -1       357    8    0    1
 -2       103       104       260      1220      1573      1574
 -1       358    8    0    1
 -2       103       260       259      1574      1575      1570
 -1       359    8    0    1
 -2       104       105       261      1221      1576      1577
 -1       360    8    0    1
 -2       104       261       260      1577      1578      1573
 -1       361    8    0    1
 -2       105       106       262      1222      1579      1580
 -1       362    8    0    1
 -2       105       262       261      1580      1581      1576
 -1       363    8    0    1
 -2       106       107       263      1223      1582      1583
 -1       364    8    0    1
 -2       106       263       262      1583      1584      1579
 -1       365    8    0    1
 -2       107       108       264      1224      1585      1586
 -1       366    8    0    1
 -2       107       264       263      1586      1587      1582
 -1       367    8    0    1
 -2       108       109       265      1225      1588      1589
 -1       368    8    0    1
 -2       108       265       264      1589      1590      1585
 -1       369    8    0    1
 -2       109       110       266      1226      1591      1592
 -1       370    8    0    1
 -2       109       266       265      1592      1593      1588
 -1       371    8    0    1
 -2       110       111       267      1227      1594      1595
 -1       372    8    0    1
 -2       110       267       266      1595      1596      1591
 -1       373    8    0    1
 -2       111       112       268      1228      1597      1598
 -1       374    8    0    1
 -2       111       268       267      1598      1599      1594
 -1       375    8    0    1
 -2       112       113       269      1229      1600      1601
 -1       376    8    0    1
 -2       112       269       268      1601      1602      1597
 -1       377    8    0    1
 -2       113       114       270      1230      1603      1604
 -1       378    8    0    1
 -2       113       270       269      1604      1605      1600
 -1       379    8    0    1
 -2       114       115       271      1231      1606      1607
 -1       380    8    0    1
 -2       114       271       270      1607      1608      1603
 -1       381    8    0    1
 -2       115       116       272      1232      1609      1610
 -1       382    8    0    1
 -2       115       272       271      1610      1611      1606
 -1       383    8    0    1
 -2       116       117       273      1233      1612      1613
 -1       384    8    0    1
 -2       116       273       272      1613      1614      1609
 -1       385    8    0    1
 -2       117       118       274      1234      1615      1616
 -1       386    8    0    1
 -2       117       274       273      1616      1617      1612
 -1       387    8    0    1
 -2       118       119       275      1235      1618      1619
 -1       388    8    0    1
 -2       118       275       274      1619      1620      1615
 -1       389    8    0    1
 -2       119       120       276      1236      1621      1622
 -1       390    8    0    1
 -2       119       276       275      1622      1623      1618
 -1       391    8    0    1
 -2       120         3       121      1237      1238      1624
 -1       392    8    0    1
 -2       121       122       277      1239      1625      1626
 -1       393    8    0    1
 -2       122       123       278      1240      1627      1628
 -1       394    8    0    1
 -2       122       278       277      1628      1629      1625
 -1       395    8    0    1
 -2       123       124       279      1241      1630      1631
 -1       396    8    0    1
 -2       123       279       278      1631      1632      1627
 -1       397    8    0    1
 -2       124       125       280      1242      1633      1634
 -1       398    8    0    1
 -2       124       280       279      1634      1635      1630
 -1       399    8    0    1
 -2       125       126       281      1243      1636      1637
 -1       400    8    0    1
 -2       125       281       280      1637      1638      1633
 -1       401    8    0    1
 -2       126       127       282      1244      1639      1640
 -1       402    8    0    1
 -2       126       282       281      1640      1641      1636
 -1       403    8    0    1
 -2       127       128       283      1245      1642      1643
 -1       404    8    0    1
 -2       127       283       282      1643      1644      1639
 -1       405    8    0    1
 -2       128       129       284      1246      1645      1646
 -1       406    8    0    1
 -2       128       284       283      1646      1647      1642
 -1       407    8    0    1
 -2       129       130       285      1247      1648      1649
 -1       408    8    0    1
 -2       129       285       284      1649      1650      1645
 -1       409    8    0    1
 -2       130       131       286      1248      1651      1652
 -1       410    8    0    1
 -2       130       286       285      1652      1653      1648
 -1       411    8    0    1
 -2       131       132       287      1249      1654      1655
 -1       412    8    0    1
 -2       131       287       286      1655      1656      1651
 -1       413    8    0    1
 -2       132       133       288      1250      1657      1658
 -1       414    8    0    1
 -2       132       288       287      1658      1659      1654
 -1       415    8    0    1
 -2       133       134       289      1251      1660      1661
 -1       416    8    0    1
 -2       133       289       288      1661      1662      1657
 -1       417    8    0    1
 -2       134       135       290      1252      1663      1664
 -1       418    8    0    1
 -2       134       290       289      1664      1665      1660
 -1       419    8    0    1
 -2       135       136       291      1253      1666      1667
 -1       420    8    0    1
 -2       290       135       291      1663      1667      1668
 -1       421    8    0    1
 -2       136       228       291      1478      1669      1666
 -1       422    8    0    1
 -2         2       137       292      1255      1670      1671
 -1       423    8    0    1
 -2       137       138       293      1256      1672      1673
 -1       424    8    0    1
 -2       138       139       294      1257      1674      1675
 -1       425    8    0    1
 -2       139       140       295      1258      1676      1677
 -1       426    8    0    1
 -2       140       141       296      1259      1678      1679
 -1       427    8    0    1
 -2       141       142       297      1260      1680      1681
 -1       428    8    0    1
 -2       142       143       298      1261      1682      1683
 -1       429    8    0    1
 -2       143       144       299      1262      1684      1685
 -1       430    8    0    1
 -2       144       145       300      1263      1686      1687
 -1       431    8    0    1
 -2       145       146       301      1264      1688      1689
 -1       432    8    0    1
 -2       146       147       302      1265      1690      1691
 -1       433    8    0    1
 -2       147       148       303      1266      1692      1693
 -1       434    8    0    1
 -2       148       149       304      1267      1694      1695
 -1       435    8    0    1
 -2       149       150       305      1268      1696      1697
 -1       436    8    0    1
 -2       150       151       306      1269      1698      1699
 -1       437    8    0    1
 -2       151       152       307      1270      1700      1701
 -1       438    8    0    1
 -2       152         1       308      1271      1702      1703
 -1       439    8    0    1
 -2         1       153       309      1272      1704      1705
 -1       440    8    0    1
 -2       153       154       310      1273      1706      1707
 -1       441    8    0    1
 -2       154       155       311      1274      1708      1709
 -1       442    8    0    1
 -2       155       156       312      1275      1710      1711
 -1       443    8    0    1
 -2       156       157       313      1276      1712      1713
 -1       444    8    0    1
 -2       157       158       314      1277      1714      1715
 -1       445    8    0    1
 -2       158       159       315      1278      1716      1717
 -1       446    8    0    1
 -2       159       160       316      1279      1718      1719
 -1       447    8    0    1
 -2       160       161       317      1280      1720      1721
 -1       448    8    0    1
 -2       161       162       318      1281      1722      1723
 -1       449    8    0    1
 -2       162       163       319      1282      1724      1725
 -1       450    8    0    1
 -2       163         2       320      1283      1726      1727
 -1       451    8    0    1
 -2       294       139       295      1674      1677      1728
 -1       452    8    0    1
 -2         2       292       320      1671      1729      1726
 -1       453    8    0    1
 -2       120       121       276      1624      1730      1621
 -1       454    8    0    1
 -2       121       277       276      1626      1731      1730
 -1       455    8    0    1
 -2       292       137       293      1670      1673      1732
 -1       456    8    0    1
 -2       293       138       294      1672      1675      1733
 -1       457    8    0    1
 -2       140       296       295      1679      1734      1676
 -1       458    8    0    1
 -2       141       297       296      1681      1735      1678
 -1       459    8    0    1
 -2       142       298       297      1683      1736      1680
 -1       460    8    0    1
 -2       143       299       298      1685      1737      1682
 -1       461    8    0    1
 -2       144       300       299      1687      1738      1684
 -1       462    8    0    1
 -2       145       301       300      1689      1739      1686
 -1       463    8    0    1
 -2       146       302       301      1691      1740      1688
 -1       464    8    0    1
 -2       147       303       302      1693      1741      1690
 -1       465    8    0    1
 -2       148       304       303      1695      1742      1692
 -1       466    8    0    1
 -2       149       305       304      1697      1743      1694
 -1       467    8    0    1
 -2       150       306       305      1699      1744      1696
 -1       468    8    0    1
 -2       151       307       306      1701      1745      1698
 -1       469    8    0    1
 -2       152       308       307      1703      1746      1700
 -1       470    8    0    1
 -2         1       309       308      1705      1747      1702
 -1       471    8    0    1
 -2       153       310       309      1707      1748      1704
 -1       472    8    0    1
 -2       154       311       310      1709      1749      1706
 -1       473    8    0    1
 -2       155       312       311      1711      1750      1708
 -1       474    8    0    1
 -2       156       313       312      1713      1751      1710
 -1       475    8    0    1
 -2       157       314       313      1715      1752      1712
 -1       476    8    0    1
 -2       158       315       314      1717      1753      1714
 -1       477    8    0    1
 -2       159       316       315      1719      1754      1716
 -1       478    8    0    1
 -2       160       317       316      1721      1755      1718
 -1       479    8    0    1
 -2       161       318       317      1723      1756      1720
 -1       480    8    0    1
 -2       162       319       318      1725      1757      1722
 -1       481    8    0    1
 -2       163       320       319      1727      1758      1724
 -1       482    8    0    1
 -2        23         7       164      1284      1286      1759
 -1       483    8    0    1
 -2       165       166       321      1292      1760      1761
 -1       484    8    0    1
 -2       164       165       322      1289      1762      1763
 -1       485    8    0    1
 -2       165       321       322      1761      1764      1762
 -1       486    8    0    1
 -2       167       168       323      1298      1765      1766
 -1       487    8    0    1
 -2       168       169       324      1301      1767      1768
 -1       488    8    0    1
 -2       168       324       323      1768      1769      1765
 -1       489    8    0    1
 -2       169       170       325      1304      1770      1771
 -1       490    8    0    1
 -2       169       325       324      1771      1772      1767
 -1       491    8    0    1
 -2       170       171       326      1307      1773      1774
 -1       492    8    0    1
 -2       170       326       325      1774      1775      1770
 -1       493    8    0    1
 -2       171       172       327      1310      1776      1777
 -1       494    8    0    1
 -2       171       327       326      1777      1778      1773
 -1       495    8    0    1
 -2       172       173       328      1313      1779      1780
 -1       496    8    0    1
 -2       172       328       327      1780      1781      1776
 -1       497    8    0    1
 -2       173       174       329      1316      1782      1783
 -1       498    8    0    1
 -2       173       329       328      1783      1784      1779
 -1       499    8    0    1
 -2       174       175       330      1319      1785      1786
 -1       500    8    0    1
 -2       174       330       329      1786      1787      1782
 -1       501    8    0    1
 -2       175       176       331      1322      1788      1789
 -1       502    8    0    1
 -2       175       331       330      1789      1790      1785
 -1       503    8    0    1
 -2       176       177       332      1325      1791      1792
 -1       504    8    0    1
 -2       176       332       331      1792      1793      1788
 -1       505    8    0    1
 -2       177       178       333      1328      1794      1795
 -1       506    8    0    1
 -2       177       333       332      1795      1796      1791
 -1       507    8    0    1
 -2       178       179       334      1331      1797      1798
 -1       508    8    0    1
 -2       333       178       334      1794      1798      1799
 -1       509    8    0    1
 -2       179       229       334      1482      1800      1797
 -1       510    8    0    1
 -2       180        23       164      1333      1759      1801
 -1       511    8    0    1
 -2       229       230       335      1485      1802      1803
 -1       512    8    0    1
 -2       229       335       334      1803      1804      1800
 -1       513    8    0    1
 -2       180       164       322      1801      1763      1805
 -1       514    8    0    1
 -2       182       181       336      1340      1806      1807
 -1       515    8    0    1
 -2       183       182       337      1343      1808      1809
 -1       516    8    0    1
 -2       182       336       337      1807      1810      1808
 -1       517    8    0    1
 -2       184       183       338      1346      1811      1812
 -1       518    8    0    1
 -2       183       337       338      1809      1813      1811
 -1       519    8    0    1
 -2       185       184       339      1349      1814      1815
 -1       520    8    0    1
 -2       184       338       339      1812      1816      1814
 -1       521    8    0    1
 -2       186       185       340      1352      1817      1818
 -1       522    8    0    1
 -2       185       339       340      1815      1819      1817
 -1       523    8    0    1
 -2       187       186       341      1355      1820      1821
 -1       524    8    0    1
 -2       186       340       341      1818      1822      1820
 -1       525    8    0    1
 -2       188       187       342      1358      1823      1824
 -1       526    8    0    1
 -2       187       341       342      1821      1825      1823
 -1       527    8    0    1
 -2       189       188       343      1361      1826      1827
 -1       528    8    0    1
 -2       188       342       343      1824      1828      1826
 -1       529    8    0    1
 -2       190       189       344      1364      1829      1830
 -1       530    8    0    1
 -2       189       343       344      1827      1831      1829
 -1       531    8    0    1
 -2       191       190       345      1367      1832      1833
 -1       532    8    0    1
 -2       190       344       345      1830      1834      1832
 -1       533    8    0    1
 -2       192       191       346      1370      1835      1836
 -1       534    8    0    1
 -2       191       345       346      1833      1837      1835
 -1       535    8    0    1
 -2       193       192       347      1373      1838      1839
 -1       536    8    0    1
 -2       192       346       347      1836      1840      1838
 -1       537    8    0    1
 -2       194       193       348      1376      1841      1842
 -1       538    8    0    1
 -2       193       347       348      1839      1843      1841
 -1       539    8    0    1
 -2       195       194       349      1379      1844      1845
 -1       540    8    0    1
 -2       194       348       349      1842      1846      1844
 -1       541    8    0    1
 -2       196       195       350      1382      1847      1848
 -1       542    8    0    1
 -2       195       349       350      1845      1849      1847
 -1       543    8    0    1
 -2       197       196       351      1385      1850      1851
 -1       544    8    0    1
 -2       196       350       351      1848      1852      1850
 -1       545    8    0    1
 -2       198       197       352      1388      1853      1854
 -1       546    8    0    1
 -2       197       351       352      1851      1855      1853
 -1       547    8    0    1
 -2       199       198       353      1391      1856      1857
 -1       548    8    0    1
 -2       198       352       353      1854      1858      1856
 -1       549    8    0    1
 -2       200       199       354      1394      1859      1860
 -1       550    8    0    1
 -2       199       353       354      1857      1861      1859
 -1       551    8    0    1
 -2       201       200       355      1397      1862      1863
 -1       552    8    0    1
 -2       200       354       355      1860      1864      1862
 -1       553    8    0    1
 -2       202       201       356      1400      1865      1866
 -1       554    8    0    1
 -2       201       355       356      1863      1867      1865
 -1       555    8    0    1
 -2       203       202       357      1403      1868      1869
 -1       556    8    0    1
 -2       202       356       357      1866      1870      1868
 -1       557    8    0    1
 -2       204       203       358      1406      1871      1872
 -1       558    8    0    1
 -2       203       357       358      1869      1873      1871
 -1       559    8    0    1
 -2       205       204       359      1409      1874      1875
 -1       560    8    0    1
 -2       204       358       359      1872      1876      1874
 -1       561    8    0    1
 -2       206       205       360      1412      1877      1878
 -1       562    8    0    1
 -2       205       359       360      1875      1879      1877
 -1       563    8    0    1
 -2       207       206       361      1415      1880      1881
 -1       564    8    0    1
 -2       206       360       361      1878      1882      1880
 -1       565    8    0    1
 -2       208       207       362      1418      1883      1884
 -1       566    8    0    1
 -2       207       361       362      1881      1885      1883
 -1       567    8    0    1
 -2       209       208       363      1421      1886      1887
 -1       568    8    0    1
 -2       208       362       363      1884      1888      1886
 -1       569    8    0    1
 -2       210       209       364      1424      1889      1890
 -1       570    8    0    1
 -2       209       363       364      1887      1891      1889
 -1       571    8    0    1
 -2       211       210       365      1427      1892      1893
 -1       572    8    0    1
 -2       210       364       365      1890      1894      1892
 -1       573    8    0    1
 -2       212       211       366      1430      1895      1896
 -1       574    8    0    1
 -2       211       365       366      1893      1897      1895
 -1       575    8    0    1
 -2       213       212       367      1433      1898      1899
 -1       576    8    0    1
 -2       212       366       367      1896      1900      1898
 -1       577    8    0    1
 -2       214       213       368      1436      1901      1902
 -1       578    8    0    1
 -2       213       367       368      1899      1903      1901
 -1       579    8    0    1
 -2       215       214       369      1439      1904      1905
 -1       580    8    0    1
 -2       214       368       369      1902      1906      1904
 -1       581    8    0    1
 -2       216       215       370      1442      1907      1908
 -1       582    8    0    1
 -2       215       369       370      1905      1909      1907
 -1       583    8    0    1
 -2       217       216       371      1445      1910      1911
 -1       584    8    0    1
 -2       216       370       371      1908      1912      1910
 -1       585    8    0    1
 -2       218       217       372      1448      1913      1914
 -1       586    8    0    1
 -2       217       371       372      1911      1915      1913
 -1       587    8    0    1
 -2       219       218       373      1451      1916      1917
 -1       588    8    0    1
 -2       218       372       373      1914      1918      1916
 -1       589    8    0    1
 -2       220       219       374      1454      1919      1920
 -1       590    8    0    1
 -2       219       373       374      1917      1921      1919
 -1       591    8    0    1
 -2       221       220       375      1457      1922      1923
 -1       592    8    0    1
 -2       220       374       375      1920      1924      1922
 -1       593    8    0    1
 -2       222       221       376      1460      1925      1926
 -1       594    8    0    1
 -2       221       375       376      1923      1927      1925
 -1       595    8    0    1
 -2       223       222       377      1463      1928      1929
 -1       596    8    0    1
 -2       222       376       377      1926      1930      1928
 -1       597    8    0    1
 -2       224       223       378      1466      1931      1932
 -1       598    8    0    1
 -2       223       377       378      1929      1933      1931
 -1       599    8    0    1
 -2       225       224       379      1469      1934      1935
 -1       600    8    0    1
 -2       224       378       379      1932      1936      1934
 -1       601    8    0    1
 -2       226       225       380      1472      1937      1938
 -1       602    8    0    1
 -2       225       379       380      1935      1939      1937
 -1       603    8    0    1
 -2       227       226       381      1475      1940      1941
 -1       604    8    0    1
 -2       226       380       381      1938      1942      1940
 -1       605    8    0    1
 -2       228       227       291      1479      1943      1669
 -1       606    8    0    1
 -2       231       232       382      1491      1944      1945
 -1       607    8    0    1
 -2       232       233       383      1494      1946      1947
 -1       608    8    0    1
 -2       232       383       382      1947      1948      1944
 -1       609    8    0    1
 -2       233       234       384      1497      1949      1950
 -1       610    8    0    1
 -2       233       384       383      1950      1951      1946
 -1       611    8    0    1
 -2       234       235       385      1500      1952      1953
 -1       612    8    0    1
 -2       234       385       384      1953      1954      1949
 -1       613    8    0    1
 -2       235       236       386      1503      1955      1956
 -1       614    8    0    1
 -2       235       386       385      1956      1957      1952
 -1       615    8    0    1
 -2       236       237       387      1506      1958      1959
 -1       616    8    0    1
 -2       236       387       386      1959      1960      1955
 -1       617    8    0    1
 -2       237       238       388      1509      1961      1962
 -1       618    8    0    1
 -2       237       388       387      1962      1963      1958
 -1       619    8    0    1
 -2       238       239       389      1512      1964      1965
 -1       620    8    0    1
 -2       238       389       388      1965      1966      1961
 -1       621    8    0    1
 -2       239       240       390      1515      1967      1968
 -1       622    8    0    1
 -2       239       390       389      1968      1969      1964
 -1       623    8    0    1
 -2       240       241       391      1518      1970      1971
 -1       624    8    0    1
 -2       240       391       390      1971      1972      1967
 -1       625    8    0    1
 -2       241       242       392      1521      1973      1974
 -1       626    8    0    1
 -2       241       392       391      1974      1975      1970
 -1       627    8    0    1
 -2       242       243       393      1524      1976      1977
 -1       628    8    0    1
 -2       242       393       392      1977      1978      1973
 -1       629    8    0    1
 -2       243       244       394      1527      1979      1980
 -1       630    8    0    1
 -2       243       394       393      1980      1981      1976
 -1       631    8    0    1
 -2       244       245       395      1530      1982      1983
 -1       632    8    0    1
 -2       244       395       394      1983      1984      1979
 -1       633    8    0    1
 -2       245       246       396      1533      1985      1986
 -1       634    8    0    1
 -2       245       396       395      1986      1987      1982
 -1       635    8    0    1
 -2       246       247       397      1536      1988      1989
 -1       636    8    0    1
 -2       246       397       396      1989      1990      1985
 -1       637    8    0    1
 -2       247       248       398      1539      1991      1992
 -1       638    8    0    1
 -2       247       398       397      1992      1993      1988
 -1       639    8    0    1
 -2       248       249       399      1542      1994      1995
 -1       640    8    0    1
 -2       248       399       398      1995      1996      1991
 -1       641    8    0    1
 -2       249       250       400      1545      1997      1998
 -1       642    8    0    1
 -2       249       400       399      1998      1999      1994
 -1       643    8    0    1
 -2       250       251       401      1548      2000      2001
 -1       644    8    0    1
 -2       250       401       400      2001      2002      1997
 -1       645    8    0    1
 -2       251       252       402      1551      2003      2004
 -1       646    8    0    1
 -2       251       402       401      2004      2005      2000
 -1       647    8    0    1
 -2       252       253       403      1554      2006      2007
 -1       648    8    0    1
 -2       252       403       402      2007      2008      2003
 -1       649    8    0    1
 -2       253       254       404      1557      2009      2010
 -1       650    8    0    1
 -2       253       404       403      2010      2011      2006
 -1       651    8    0    1
 -2       254       255       405      1560      2012      2013
 -1       652    8    0    1
 -2       254       405       404      2013      2014      2009
 -1       653    8    0    1
 -2       255       256       406      1563      2015      2016
 -1       654    8    0    1
 -2       255       406       405      2016      2017      2012
 -1       655    8    0    1
 -2       256       257       407      1566      2018      2019
 -1       656    8    0    1
 -2       256       407       406      2019      2020      2015
 -1       657    8    0    1
 -2       257       258       408      1569      2021      2022
 -1       658    8    0    1
 -2       257       408       407      2022      2023      2018
 -1       659    8    0    1
 -2       258       259       409      1572      2024      2025
 -1       660    8    0    1
 -2       258       409       408      2025      2026      2021
 -1       661    8    0    1
 -2       259       260       410      1575      2027      2028
 -1       662    8    0    1
 -2       259       410       409      2028      2029      2024
 -1       663    8    0    1
 -2       260       261       411      1578      2030      2031
 -1       664    8    0    1
 -2       260       411       410      2031      2032      2027
 -1       665    8    0    1
 -2       261       262       412      1581      2033      2034
 -1       666    8    0    1
 -2       261       412       411      2034      2035      2030
 -1       667    8    0    1
 -2       262       263       413      1584      2036      2037
 -1       668    8    0    1
 -2       262       413       412      2037      2038      2033
 -1       669    8    0    1
 -2       263       264       414      1587      2039      2040
 -1       670    8    0    1
 -2       263       414       413      2040      2041      2036
 -1       671    8    0    1
 -2       264       265       415      1590      2042      2043
 -1       672    8    0    1
 -2       264       415       414      2043      2044      2039
 -1       673    8    0    1
 -2       265       266       416      1593      2045      2046
 -1       674    8    0    1
 -2       265       416       415      2046      2047      2042
 -1       675    8    0    1
 -2       266       267       417      1596      2048      2049
 -1       676    8    0    1
 -2       266       417       416      2049      2050      2045
 -1       677    8    0    1
 -2       267       268       418      1599      2051      2052
 -1       678    8    0    1
 -2       267       418       417      2052      2053      2048
 -1       679    8    0    1
 -2       268       269       419      1602      2054      2055
 -1       680    8    0    1
 -2       268       419       418      2055      2056      2051
 -1       681    8    0    1
 -2       269       270       420      1605      2057      2058
 -1       682    8    0    1
 -2       269       420       419      2058      2059      2054
 -1       683    8    0    1
 -2       270       271       421      1608      2060      2061
 -1       684    8    0    1
 -2       270       421       420      2061      2062      2057
 -1       685    8    0    1
 -2       271       272       422      1611      2063      2064
 -1       686    8    0    1
 -2       271       422       421      2064      2065      2060
 -1       687    8    0    1
 -2       272       273       423      1614      2066      2067
 -1       688    8    0    1
 -2       272       423       422      2067      2068      2063
 -1       689    8    0    1
 -2       273       274       424      1617      2069      2070
 -1       690    8    0    1
 -2       273       424       423      2070      2071      2066
 -1       691    8    0    1
 -2       274       275       425      1620      2072      2073
 -1       692    8    0    1
 -2       274       425       424      2073      2074      2069
 -1       693    8    0    1
 -2       275       276       426      1623      2075      2076
 -1       694    8    0    1
 -2       425       275       426      2072      2076      2077
 -1       695    8    0    1
 -2       276       277       426      1731      2078      2075
 -1       696    8    0    1
 -2       279       280       427      1635      2079      2080
 -1       697    8    0    1
 -2       278       279       428      1632      2081      2082
 -1       698    8    0    1
 -2       279       427       428      2080      2083      2081
 -1       699    8    0    1
 -2       277       278       426      1629      2084      2078
 -1       700    8    0    1
 -2       280       281       429      1638      2085      2086
 -1       701    8    0    1
 -2       280       429       427      2086      2087      2079
 -1       702    8    0    1
 -2       281       282       430      1641      2088      2089
 -1       703    8    0    1
 -2       281       430       429      2089      2090      2085
 -1       704    8    0    1
 -2       282       283       431      1644      2091      2092
 -1       705    8    0    1
 -2       282       431       430      2092      2093      2088
 -1       706    8    0    1
 -2       283       284       432      1647      2094      2095
 -1       707    8    0    1
 -2       283       432       431      2095      2096      2091
 -1       708    8    0    1
 -2       284       285       433      1650      2097      2098
 -1       709    8    0    1
 -2       284       433       432      2098      2099      2094
 -1       710    8    0    1
 -2       285       286       434      1653      2100      2101
 -1       711    8    0    1
 -2       285       434       433      2101      2102      2097
 -1       712    8    0    1
 -2       286       287       435      1656      2103      2104
 -1       713    8    0    1
 -2       286       435       434      2104      2105      2100
 -1       714    8    0    1
 -2       287       288       436      1659      2106      2107
 -1       715    8    0    1
 -2       287       436       435      2107      2108      2103
 -1       716    8    0    1
 -2       288       289       437      1662      2109      2110
 -1       717    8    0    1
 -2       288       437       436      2110      2111      2106
 -1       718    8    0    1
 -2       289       290       438      1665      2112      2113
 -1       719    8    0    1
 -2       289       438       437      2113      2114      2109
 -1       720    8    0    1
 -2       230       231       439      1488      2115      2116
 -1       721    8    0    1
 -2       335       230       439      1802      2116      2117
 -1       722    8    0    1
 -2       231       382       439      1945      2118      2115
 -1       723    8    0    1
 -2       293       294       440      1733      2119      2120
 -1       724    8    0    1
 -2       295       296       441      1734      2121      2122
 -1       725    8    0    1
 -2       320       292       442      1729      2123      2124
 -1       726    8    0    1
 -2       294       295       443      1728      2125      2126
 -1       727    8    0    1
 -2       166       167       444      1295      2127      2128
 -1       728    8    0    1
 -2       321       166       444      1760      2128      2129
 -1       729    8    0    1
 -2       167       323       444      1766      2130      2127
 -1       730    8    0    1
 -2       296       297       445      1735      2131      2132
 -1       731    8    0    1
 -2       297       298       446      1736      2133      2134
 -1       732    8    0    1
 -2       298       299       447      1737      2135      2136
 -1       733    8    0    1
 -2       299       300       448      1738      2137      2138
 -1       734    8    0    1
 -2       300       301       449      1739      2139      2140
 -1       735    8    0    1
 -2       301       302       450      1740      2141      2142
 -1       736    8    0    1
 -2       302       303       451      1741      2143      2144
 -1       737    8    0    1
 -2       303       304       452      1742      2145      2146
 -1       738    8    0    1
 -2       303       452       451      2146      2147      2143
 -1       739    8    0    1
 -2       304       305       453      1743      2148      2149
 -1       740    8    0    1
 -2       305       306       454      1744      2150      2151
 -1       741    8    0    1
 -2       305       454       453      2151      2152      2148
 -1       742    8    0    1
 -2       306       307       455      1745      2153      2154
 -1       743    8    0    1
 -2       307       308       456      1746      2155      2156
 -1       744    8    0    1
 -2       308       309       457      1747      2157      2158
 -1       745    8    0    1
 -2       309       310       458      1748      2159      2160
 -1       746    8    0    1
 -2       310       311       459      1749      2161      2162
 -1       747    8    0    1
 -2       311       312       460      1750      2163      2164
 -1       748    8    0    1
 -2       312       313       461      1751      2165      2166
 -1       749    8    0    1
 -2       313       314       462      1752      2167      2168
 -1       750    8    0    1
 -2       314       315       463      1753      2169      2170
 -1       751    8    0    1
 -2       314       463       462      2170      2171      2167
 -1       752    8    0    1
 -2       315       316       464      1754      2172      2173
 -1       753    8    0    1
 -2       316       317       465      1755      2174      2175
 -1       754    8    0    1
 -2       316       465       464      2175      2176      2172
 -1       755    8    0    1
 -2       317       318       466      1756      2177      2178
 -1       756    8    0    1
 -2       318       319       467      1757      2179      2180
 -1       757    8    0    1
 -2       319       320       468      1758      2181      2182
 -1       758    8    0    1
 -2       292       293       469      1732      2183      2184
 -1       759    8    0    1
 -2       291       227       381      1943      1941      2185
 -1       760    8    0    1
 -2       443       295       441      2125      2122      2186
 -1       761    8    0    1
 -2       180       322       181      1805      2187      1337
 -1       762    8    0    1
 -2       440       294       443      2119      2126      2188
 -1       763    8    0    1
 -2       296       445       441      2132      2189      2121
 -1       764    8    0    1
 -2       336       181       322      1806      2187      2190
 -1       765    8    0    1
 -2       426       278       428      2084      2082      2191
 -1       766    8    0    1
 -2       442       292       469      2123      2184      2192
 -1       767    8    0    1
 -2       290       291       381      1668      2185      2193
 -1       768    8    0    1
 -2       293       440       469      2120      2194      2183
 -1       769    8    0    1
 -2       320       442       468      2124      2195      2181
 -1       770    8    0    1
 -2       467       319       468      2179      2182      2196
 -1       771    8    0    1
 -2       465       317       466      2174      2178      2197
 -1       772    8    0    1
 -2       463       315       464      2169      2173      2198
 -1       773    8    0    1
 -2       461       313       462      2165      2168      2199
 -1       774    8    0    1
 -2       460       312       461      2163      2166      2200
 -1       775    8    0    1
 -2       459       311       460      2161      2164      2201
 -1       776    8    0    1
 -2       458       310       459      2159      2162      2202
 -1       777    8    0    1
 -2       457       309       458      2157      2160      2203
 -1       778    8    0    1
 -2       456       308       457      2155      2158      2204
 -1       779    8    0    1
 -2       454       306       455      2150      2154      2205
 -1       780    8    0    1
 -2       452       304       453      2145      2149      2206
 -1       781    8    0    1
 -2       450       302       451      2141      2144      2207
 -1       782    8    0    1
 -2       449       301       450      2139      2142      2208
 -1       783    8    0    1
 -2       448       300       449      2137      2140      2209
 -1       784    8    0    1
 -2       447       299       448      2135      2138      2210
 -1       785    8    0    1
 -2       445       297       446      2131      2134      2211
 -1       786    8    0    1
 -2       446       298       470      2133      2212      2213
 -1       787    8    0    1
 -2       298       447       470      2136      2214      2212
 -1       788    8    0    1
 -2       455       307       456      2153      2156      2215
 -1       789    8    0    1
 -2       466       318       467      2177      2180      2216
 -1       790    8    0    1
 -2       290       381       438      2193      2217      2112
 -1       791    8    0    1
 -2       324       325       471      1772      2218      2219
 -1       792    8    0    1
 -2       323       324       472      1769      2220      2221
 -1       793    8    0    1
 -2       324       471       472      2219      2222      2220
 -1       794    8    0    1
 -2       326       327       473      1778      2223      2224
 -1       795    8    0    1
 -2       327       328       474      1781      2225      2226
 -1       796    8    0    1
 -2       327       474       473      2226      2227      2223
 -1       797    8    0    1
 -2       328       329       475      1784      2228      2229
 -1       798    8    0    1
 -2       328       475       474      2229      2230      2225
 -1       799    8    0    1
 -2       329       330       476      1787      2231      2232
 -1       800    8    0    1
 -2       329       476       475      2232      2233      2228
 -1       801    8    0    1
 -2       330       331       477      1790      2234      2235
 -1       802    8    0    1
 -2       330       477       476      2235      2236      2231
 -1       803    8    0    1
 -2       331       332       478      1793      2237      2238
 -1       804    8    0    1
 -2       331       478       477      2238      2239      2234
 -1       805    8    0    1
 -2       332       333       479      1796      2240      2241
 -1       806    8    0    1
 -2       332       479       478      2241      2242      2237
 -1       807    8    0    1
 -2       333       334       480      1799      2243      2244
 -1       808    8    0    1
 -2       479       333       480      2240      2244      2245
 -1       809    8    0    1
 -2       334       335       480      1804      2246      2243
 -1       810    8    0    1
 -2       337       336       481      1810      2247      2248
 -1       811    8    0    1
 -2       440       443       482      2188      2249      2250
 -1       812    8    0    1
 -2       443       441       483      2186      2251      2252
 -1       813    8    0    1
 -2       338       337       484      1813      2253      2254
 -1       814    8    0    1
 -2       337       481       484      2248      2255      2253
 -1       815    8    0    1
 -2       339       338       485      1816      2256      2257
 -1       816    8    0    1
 -2       338       484       485      2254      2258      2256
 -1       817    8    0    1
 -2       340       339       486      1819      2259      2260
 -1       818    8    0    1
 -2       339       485       486      2257      2261      2259
 -1       819    8    0    1
 -2       341       340       487      1822      2262      2263
 -1       820    8    0    1
 -2       340       486       487      2260      2264      2262
 -1       821    8    0    1
 -2       342       341       488      1825      2265      2266
 -1       822    8    0    1
 -2       341       487       488      2263      2267      2265
 -1       823    8    0    1
 -2       343       342       489      1828      2268      2269
 -1       824    8    0    1
 -2       342       488       489      2266      2270      2268
 -1       825    8    0    1
 -2       344       343       490      1831      2271      2272
 -1       826    8    0    1
 -2       343       489       490      2269      2273      2271
 -1       827    8    0    1
 -2       345       344       491      1834      2274      2275
 -1       828    8    0    1
 -2       344       490       491      2272      2276      2274
 -1       829    8    0    1
 -2       346       345       492      1837      2277      2278
 -1       830    8    0    1
 -2       345       491       492      2275      2279      2277
 -1       831    8    0    1
 -2       347       346       493      1840      2280      2281
 -1       832    8    0    1
 -2       346       492       493      2278      2282      2280
 -1       833    8    0    1
 -2       348       347       494      1843      2283      2284
 -1       834    8    0    1
 -2       347       493       494      2281      2285      2283
 -1       835    8    0    1
 -2       349       348       495      1846      2286      2287
 -1       836    8    0    1
 -2       348       494       495      2284      2288      2286
 -1       837    8    0    1
 -2       350       349       496      1849      2289      2290
 -1       838    8    0    1
 -2       349       495       496      2287      2291      2289
 -1       839    8    0    1
 -2       351       350       497      1852      2292      2293
 -1       840    8    0    1
 -2       350       496       497      2290      2294      2292
 -1       841    8    0    1
 -2       352       351       498      1855      2295      2296
 -1       842    8    0    1
 -2       351       497       498      2293      2297      2295
 -1       843    8    0    1
 -2       353       352       499      1858      2298      2299
 -1       844    8    0    1
 -2       352       498       499      2296      2300      2298
 -1       845    8    0    1
 -2       354       353       500      1861      2301      2302
 -1       846    8    0    1
 -2       353       499       500      2299      2303      2301
 -1       847    8    0    1
 -2       355       354       501      1864      2304      2305
 -1       848    8    0    1
 -2       354       500       501      2302      2306      2304
 -1       849    8    0    1
 -2       356       355       502      1867      2307      2308
 -1       850    8    0    1
 -2       355       501       502      2305      2309      2307
 -1       851    8    0    1
 -2       357       356       503      1870      2310      2311
 -1       852    8    0    1
 -2       356       502       503      2308      2312      2310
 -1       853    8    0    1
 -2       358       357       504      1873      2313      2314
 -1       854    8    0    1
 -2       357       503       504      2311      2315      2313
 -1       855    8    0    1
 -2       359       358       505      1876      2316      2317
 -1       856    8    0    1
 -2       358       504       505      2314      2318      2316
 -1       857    8    0    1
 -2       360       359       506      1879      2319      2320
 -1       858    8    0    1
 -2       359       505       506      2317      2321      2319
 -1       859    8    0    1
 -2       361       360       507      1882      2322      2323
 -1       860    8    0    1
 -2       360       506       507      2320      2324      2322
 -1       861    8    0    1
 -2       362       361       508      1885      2325      2326
 -1       862    8    0    1
 -2       361       507       508      2323      2327      2325
 -1       863    8    0    1
 -2       363       362       509      1888      2328      2329
 -1       864    8    0    1
 -2       362       508       509      2326      2330      2328
 -1       865    8    0    1
 -2       364       363       510      1891      2331      2332
 -1       866    8    0    1
 -2       363       509       510      2329      2333      2331
 -1       867    8    0    1
 -2       365       364       511      1894      2334      2335
 -1       868    8    0    1
 -2       364       510       511      2332      2336      2334
 -1       869    8    0    1
 -2       366       365       512      1897      2337      2338
 -1       870    8    0    1
 -2       365       511       512      2335      2339      2337
 -1       871    8    0    1
 -2       367       366       513      1900      2340      2341
 -1       872    8    0    1
 -2       366       512       513      2338      2342      2340
 -1       873    8    0    1
 -2       368       367       514      1903      2343      2344
 -1       874    8    0    1
 -2       367       513       514      2341      2345      2343
 -1       875    8    0    1
 -2       369       368       515      1906      2346      2347
 -1       876    8    0    1
 -2       368       514       515      2344      2348      2346
 -1       877    8    0    1
 -2       370       369       516      1909      2349      2350
 -1       878    8    0    1
 -2       369       515       516      2347      2351      2349
 -1       879    8    0    1
 -2       371       370       517      1912      2352      2353
 -1       880    8    0    1
 -2       370       516       517      2350      2354      2352
 -1       881    8    0    1
 -2       372       371       518      1915      2355      2356
 -1       882    8    0    1
 -2       371       517       518      2353      2357      2355
 -1       883    8    0    1
 -2       373       372       519      1918      2358      2359
 -1       884    8    0    1
 -2       372       518       519      2356      2360      2358
 -1       885    8    0    1
 -2       374       373       520      1921      2361      2362
 -1       886    8    0    1
 -2       373       519       520      2359      2363      2361
 -1       887    8    0    1
 -2       375       374       521      1924      2364      2365
 -1       888    8    0    1
 -2       374       520       521      2362      2366      2364
 -1       889    8    0    1
 -2       376       375       522      1927      2367      2368
 -1       890    8    0    1
 -2       375       521       522      2365      2369      2367
 -1       891    8    0    1
 -2       377       376       523      1930      2370      2371
 -1       892    8    0    1
 -2       376       522       523      2368      2372      2370
 -1       893    8    0    1
 -2       378       377       524      1933      2373      2374
 -1       894    8    0    1
 -2       377       523       524      2371      2375      2373
 -1       895    8    0    1
 -2       379       378       525      1936      2376      2377
 -1       896    8    0    1
 -2       378       524       525      2374      2378      2376
 -1       897    8    0    1
 -2       380       379       526      1939      2379      2380
 -1       898    8    0    1
 -2       379       525       526      2377      2381      2379
 -1       899    8    0    1
 -2       381       380       527      1942      2382      2383
 -1       900    8    0    1
 -2       438       381       527      2217      2383      2384
 -1       901    8    0    1
 -2       380       526       527      2380      2385      2382
 -1       902    8    0    1
 -2       384       385       528      1954      2386      2387
 -1       903    8    0    1
 -2       383       384       529      1951      2388      2389
 -1       904    8    0    1
 -2       384       528       529      2387      2390      2388
 -1       905    8    0    1
 -2       382       383       530      1948      2391      2392
 -1       906    8    0    1
 -2       383       529       530      2389      2393      2391
 -1       907    8    0    1
 -2       385       386       531      1957      2394      2395
 -1       908    8    0    1
 -2       385       531       528      2395      2396      2386
 -1       909    8    0    1
 -2       386       387       532      1960      2397      2398
 -1       910    8    0    1
 -2       386       532       531      2398      2399      2394
 -1       911    8    0    1
 -2       387       388       533      1963      2400      2401
 -1       912    8    0    1
 -2       387       533       532      2401      2402      2397
 -1       913    8    0    1
 -2       388       389       534      1966      2403      2404
 -1       914    8    0    1
 -2       388       534       533      2404      2405      2400
 -1       915    8    0    1
 -2       389       390       535      1969      2406      2407
 -1       916    8    0    1
 -2       389       535       534      2407      2408      2403
 -1       917    8    0    1
 -2       390       391       536      1972      2409      2410
 -1       918    8    0    1
 -2       390       536       535      2410      2411      2406
 -1       919    8    0    1
 -2       391       392       537      1975      2412      2413
 -1       920    8    0    1
 -2       391       537       536      2413      2414      2409
 -1       921    8    0    1
 -2       392       393       538      1978      2415      2416
 -1       922    8    0    1
 -2       392       538       537      2416      2417      2412
 -1       923    8    0    1
 -2       393       394       539      1981      2418      2419
 -1       924    8    0    1
 -2       393       539       538      2419      2420      2415
 -1       925    8    0    1
 -2       394       395       540      1984      2421      2422
 -1       926    8    0    1
 -2       394       540       539      2422      2423      2418
 -1       927    8    0    1
 -2       395       396       541      1987      2424      2425
 -1       928    8    0    1
 -2       395       541       540      2425      2426      2421
 -1       929    8    0    1
 -2       396       397       542      1990      2427      2428
 -1       930    8    0    1
 -2       396       542       541      2428      2429      2424
 -1       931    8    0    1
 -2       397       398       543      1993      2430      2431
 -1       932    8    0    1
 -2       397       543       542      2431      2432      2427
 -1       933    8    0    1
 -2       398       399       544      1996      2433      2434
 -1       934    8    0    1
 -2       398       544       543      2434      2435      2430
 -1       935    8    0    1
 -2       399       400       545      1999      2436      2437
 -1       936    8    0    1
 -2       399       545       544      2437      2438      2433
 -1       937    8    0    1
 -2       400       401       546      2002      2439      2440
 -1       938    8    0    1
 -2       400       546       545      2440      2441      2436
 -1       939    8    0    1
 -2       401       402       547      2005      2442      2443
 -1       940    8    0    1
 -2       401       547       546      2443      2444      2439
 -1       941    8    0    1
 -2       402       403       548      2008      2445      2446
 -1       942    8    0    1
 -2       402       548       547      2446      2447      2442
 -1       943    8    0    1
 -2       403       404       549      2011      2448      2449
 -1       944    8    0    1
 -2       403       549       548      2449      2450      2445
 -1       945    8    0    1
 -2       404       405       550      2014      2451      2452
 -1       946    8    0    1
 -2       404       550       549      2452      2453      2448
 -1       947    8    0    1
 -2       405       406       551      2017      2454      2455
 -1       948    8    0    1
 -2       405       551       550      2455      2456      2451
 -1       949    8    0    1
 -2       406       407       552      2020      2457      2458
 -1       950    8    0    1
 -2       406       552       551      2458      2459      2454
 -1       951    8    0    1
 -2       407       408       553      2023      2460      2461
 -1       952    8    0    1
 -2       407       553       552      2461      2462      2457
 -1       953    8    0    1
 -2       408       409       554      2026      2463      2464
 -1       954    8    0    1
 -2       408       554       553      2464      2465      2460
 -1       955    8    0    1
 -2       409       410       555      2029      2466      2467
 -1       956    8    0    1
 -2       409       555       554      2467      2468      2463
 -1       957    8    0    1
 -2       410       411       556      2032      2469      2470
 -1       958    8    0    1
 -2       410       556       555      2470      2471      2466
 -1       959    8    0    1
 -2       411       412       557      2035      2472      2473
 -1       960    8    0    1
 -2       411       557       556      2473      2474      2469
 -1       961    8    0    1
 -2       412       413       558      2038      2475      2476
 -1       962    8    0    1
 -2       412       558       557      2476      2477      2472
 -1       963    8    0    1
 -2       413       414       559      2041      2478      2479
 -1       964    8    0    1
 -2       413       559       558      2479      2480      2475
 -1       965    8    0    1
 -2       414       415       560      2044      2481      2482
 -1       966    8    0    1
 -2       414       560       559      2482      2483      2478
 -1       967    8    0    1
 -2       415       416       561      2047      2484      2485
 -1       968    8    0    1
 -2       415       561       560      2485      2486      2481
 -1       969    8    0    1
 -2       416       417       562      2050      2487      2488
 -1       970    8    0    1
 -2       416       562       561      2488      2489      2484
 -1       971    8    0    1
 -2       417       418       563      2053      2490      2491
 -1       972    8    0    1
 -2       417       563       562      2491      2492      2487
 -1       973    8    0    1
 -2       418       419       564      2056      2493      2494
 -1       974    8    0    1
 -2       418       564       563      2494      2495      2490
 -1       975    8    0    1
 -2       419       420       565      2059      2496      2497
 -1       976    8    0    1
 -2       419       565       564      2497      2498      2493
 -1       977    8    0    1
 -2       420       421       566      2062      2499      2500
 -1       978    8    0    1
 -2       420       566       565      2500      2501      2496
 -1       979    8    0    1
 -2       421       422       567      2065      2502      2503
 -1       980    8    0    1
 -2       421       567       566      2503      2504      2499
 -1       981    8    0    1
 -2       422       423       568      2068      2505      2506
 -1       982    8    0    1
 -2       422       568       567      2506      2507      2502
 -1       983    8    0    1
 -2       423       424       569      2071      2508      2509
 -1       984    8    0    1
 -2       423       569       568      2509      2510      2505
 -1       985    8    0    1
 -2       424       425       570      2074      2511      2512
 -1       986    8    0    1
 -2       424       570       569      2512      2513      2508
 -1       987    8    0    1
 -2       425       426       428      2077      2191      2514
 -1       988    8    0    1
 -2       429       430       571      2090      2515      2516
 -1       989    8    0    1
 -2       427       429       572      2087      2517      2518
 -1       990    8    0    1
 -2       429       571       572      2516      2519      2517
 -1       991    8    0    1
 -2       428       427       573      2083      2520      2521
 -1       992    8    0    1
 -2       427       572       573      2518      2522      2520
 -1       993    8    0    1
 -2       442       469       574      2192      2523      2524
 -1       994    8    0    1
 -2       430       431       575      2093      2525      2526
 -1       995    8    0    1
 -2       430       575       571      2526      2527      2515
 -1       996    8    0    1
 -2       431       432       576      2096      2528      2529
 -1       997    8    0    1
 -2       431       576       575      2529      2530      2525
 -1       998    8    0    1
 -2       432       433       577      2099      2531      2532
 -1       999    8    0    1
 -2       432       577       576      2532      2533      2528
 -1      1000    8    0    1
 -2       433       434       578      2102      2534      2535
 -1      1001    8    0    1
 -2       433       578       577      2535      2536      2531
 -1      1002    8    0    1
 -2       434       435       579      2105      2537      2538
 -1      1003    8    0    1
 -2       434       579       578      2538      2539      2534
 -1      1004    8    0    1
 -2       435       436       580      2108      2540      2541
 -1      1005    8    0    1
 -2       435       580       579      2541      2542      2537
 -1      1006    8    0    1
 -2       436       437       581      2111      2543      2544
 -1      1007    8    0    1
 -2       436       581       580      2544      2545      2540
 -1      1008    8    0    1
 -2       437       438       582      2114      2546      2547
 -1      1009    8    0    1
 -2       581       437       582      2543      2547      2548
 -1      1010    8    0    1
 -2       438       527       582      2384      2549      2546
 -1      1011    8    0    1
 -2       336       322       583      2190      2550      2551
 -1      1012    8    0    1
 -2       481       336       583      2247      2551      2552
 -1      1013    8    0    1
 -2       322       321       583      1764      2553      2550
 -1      1014    8    0    1
 -2       441       445       584      2189      2554      2555
 -1      1015    8    0    1
 -2       468       442       585      2195      2556      2557
 -1      1016    8    0    1
 -2       467       468       586      2196      2558      2559
 -1      1017    8    0    1
 -2       461       462       587      2199      2560      2561
 -1      1018    8    0    1
 -2       450       451       588      2207      2562      2563
 -1      1019    8    0    1
 -2       325       326       589      1775      2564      2565
 -1      1020    8    0    1
 -2       471       325       589      2218      2565      2566
 -1      1021    8    0    1
 -2       326       473       589      2224      2567      2564
 -1      1022    8    0    1
 -2       455       456       590      2215      2568      2569
 -1      1023    8    0    1
 -2       445       446       591      2211      2570      2571
 -1      1024    8    0    1
 -2       447       448       592      2210      2572      2573
 -1      1025    8    0    1
 -2       448       449       593      2209      2574      2575
 -1      1026    8    0    1
 -2       449       450       594      2208      2576      2577
 -1      1027    8    0    1
 -2       451       452       595      2147      2578      2579
 -1      1028    8    0    1
 -2       452       453       596      2206      2580      2581
 -1      1029    8    0    1
 -2       452       596       595      2581      2582      2578
 -1      1030    8    0    1
 -2       453       454       597      2152      2583      2584
 -1      1031    8    0    1
 -2       466       467       598      2216      2585      2586
 -1      1032    8    0    1
 -2       454       455       599      2205      2587      2588
 -1      1033    8    0    1
 -2       456       457       600      2204      2589      2590
 -1      1034    8    0    1
 -2       457       458       601      2203      2591      2592
 -1      1035    8    0    1
 -2       457       601       600      2592      2593      2589
 -1      1036    8    0    1
 -2       458       459       602      2202      2594      2595
 -1      1037    8    0    1
 -2       459       460       603      2201      2596      2597
 -1      1038    8    0    1
 -2       460       461       604      2200      2598      2599
 -1      1039    8    0    1
 -2       462       463       605      2171      2600      2601
 -1      1040    8    0    1
 -2       463       464       606      2198      2602      2603
 -1      1041    8    0    1
 -2       464       465       607      2176      2604      2605
 -1      1042    8    0    1
 -2       465       466       608      2197      2606      2607
 -1      1043    8    0    1
 -2       469       440       609      2194      2608      2609
 -1      1044    8    0    1
 -2       425       428       570      2514      2610      2511
 -1      1045    8    0    1
 -2       323       472       610      2221      2611      2612
 -1      1046    8    0    1
 -2       323       610       444      2612      2613      2130
 -1      1047    8    0    1
 -2       584       445       591      2554      2571      2614
 -1      1048    8    0    1
 -2       480       335       611      2246      2615      2616
 -1      1049    8    0    1
 -2       335       439       611      2117      2617      2615
 -1      1050    8    0    1
 -2       482       443       483      2249      2252      2618
 -1      1051    8    0    1
 -2       440       482       609      2250      2619      2608
 -1      1052    8    0    1
 -2       442       574       585      2524      2620      2556
 -1      1053    8    0    1
 -2       574       469       609      2523      2609      2621
 -1      1054    8    0    1
 -2       608       466       598      2606      2586      2622
 -1      1055    8    0    1
 -2       607       465       608      2604      2607      2623
 -1      1056    8    0    1
 -2       583       321       444      2553      2129      2624
 -1      1057    8    0    1
 -2       586       468       585      2558      2557      2625
 -1      1058    8    0    1
 -2       455       590       599      2569      2626      2587
 -1      1059    8    0    1
 -2       439       382       612      2118      2627      2628
 -1      1060    8    0    1
 -2       611       439       612      2617      2628      2629
 -1      1061    8    0    1
 -2       382       530       612      2392      2630      2627
 -1      1062    8    0    1
 -2       606       464       607      2602      2605      2631
 -1      1063    8    0    1
 -2       605       463       606      2600      2603      2632
 -1      1064    8    0    1
 -2       428       573       570      2521      2633      2610
 -1      1065    8    0    1
 -2       604       461       587      2598      2561      2634
 -1      1066    8    0    1
 -2       467       586       598      2559      2635      2585
 -1      1067    8    0    1
 -2       603       460       604      2596      2599      2636
 -1      1068    8    0    1
 -2       601       458       602      2591      2595      2637
 -1      1069    8    0    1
 -2       450       588       594      2563      2638      2576
 -1      1070    8    0    1
 -2       596       453       597      2580      2584      2639
 -1      1071    8    0    1
 -2       593       449       594      2574      2577      2640
 -1      1072    8    0    1
 -2       592       448       593      2572      2575      2641
 -1      1073    8    0    1
 -2       588       451       595      2562      2579      2642
 -1      1074    8    0    1
 -2       587       462       605      2560      2601      2643
 -1      1075    8    0    1
 -2       591       446       613      2570      2644      2645
 -1      1076    8    0    1
 -2       446       470       613      2213      2646      2644
 -1      1077    8    0    1
 -2       441       584       483      2555      2647      2251
 -1      1078    8    0    1
 -2       470       447       592      2214      2573      2648
 -1      1079    8    0    1
 -2       597       454       599      2583      2588      2649
 -1      1080    8    0    1
 -2       456       600       590      2590      2650      2568
 -1      1081    8    0    1
 -2       602       459       603      2594      2597      2651
 -1      1082    8    0    1
 -2       474       475       614      2230      2652      2653
 -1      1083    8    0    1
 -2       473       474       615      2227      2654      2655
 -1      1084    8    0    1
 -2       474       614       615      2653      2656      2654
 -1      1085    8    0    1
 -2       476       477       616      2236      2657      2658
 -1      1086    8    0    1
 -2       477       478       617      2239      2659      2660
 -1      1087    8    0    1
 -2       477       617       616      2660      2661      2657
 -1      1088    8    0    1
 -2       479       480       618      2245      2662      2663
 -1      1089    8    0    1
 -2       480       611       618      2616      2664      2662
 -1      1090    8    0    1
 -2       584       591       619      2614      2665      2666
 -1      1091    8    0    1
 -2       609       482       620      2619      2667      2668
 -1      1092    8    0    1
 -2       585       574       621      2620      2669      2670
 -1      1093    8    0    1
 -2       606       607       622      2631      2671      2672
 -1      1094    8    0    1
 -2       485       484       623      2258      2673      2674
 -1      1095    8    0    1
 -2       486       485       624      2261      2675      2676
 -1      1096    8    0    1
 -2       485       623       624      2674      2677      2675
 -1      1097    8    0    1
 -2       487       486       625      2264      2678      2679
 -1      1098    8    0    1
 -2       486       624       625      2676      2680      2678
 -1      1099    8    0    1
 -2       488       487       626      2267      2681      2682
 -1      1100    8    0    1
 -2       487       625       626      2679      2683      2681
 -1      1101    8    0    1
 -2       489       488       627      2270      2684      2685
 -1      1102    8    0    1
 -2       488       626       627      2682      2686      2684
 -1      1103    8    0    1
 -2       490       489       628      2273      2687      2688
 -1      1104    8    0    1
 -2       489       627       628      2685      2689      2687
 -1      1105    8    0    1
 -2       491       490       629      2276      2690      2691
 -1      1106    8    0    1
 -2       490       628       629      2688      2692      2690
 -1      1107    8    0    1
 -2       492       491       630      2279      2693      2694
 -1      1108    8    0    1
 -2       491       629       630      2691      2695      2693
 -1      1109    8    0    1
 -2       493       492       631      2282      2696      2697
 -1      1110    8    0    1
 -2       492       630       631      2694      2698      2696
 -1      1111    8    0    1
 -2       494       493       632      2285      2699      2700
 -1      1112    8    0    1
 -2       493       631       632      2697      2701      2699
 -1      1113    8    0    1
 -2       495       494       633      2288      2702      2703
 -1      1114    8    0    1
 -2       494       632       633      2700      2704      2702
 -1      1115    8    0    1
 -2       496       495       634      2291      2705      2706
 -1      1116    8    0    1
 -2       495       633       634      2703      2707      2705
 -1      1117    8    0    1
 -2       497       496       635      2294      2708      2709
 -1      1118    8    0    1
 -2       496       634       635      2706      2710      2708
 -1      1119    8    0    1
 -2       498       497       636      2297      2711      2712
 -1      1120    8    0    1
 -2       497       635       636      2709      2713      2711
 -1      1121    8    0    1
 -2       499       498       637      2300      2714      2715
 -1      1122    8    0    1
 -2       498       636       637      2712      2716      2714
 -1      1123    8    0    1
 -2       500       499       638      2303      2717      2718
 -1      1124    8    0    1
 -2       499       637       638      2715      2719      2717
 -1      1125    8    0    1
 -2       501       500       639      2306      2720      2721
 -1      1126    8    0    1
 -2       500       638       639      2718      2722      2720
 -1      1127    8    0    1
 -2       502       501       640      2309      2723      2724
 -1      1128    8    0    1
 -2       501       639       640      2721      2725      2723
 -1      1129    8    0    1
 -2       504       503       641      2315      2726      2727
 -1      1130    8    0    1
 -2       505       504       642      2318      2728      2729
 -1      1131    8    0    1
 -2       506       505       605      2321      2730      2731
 -1      1132    8    0    1
 -2       507       506       622      2324      2732      2733
 -1      1133    8    0    1
 -2       508       507       643      2327      2734      2735
 -1      1134    8    0    1
 -2       507       622       643      2733      2736      2734
 -1      1135    8    0    1
 -2       509       508       644      2330      2737      2738
 -1      1136    8    0    1
 -2       508       643       644      2735      2739      2737
 -1      1137    8    0    1
 -2       510       509       645      2333      2740      2741
 -1      1138    8    0    1
 -2       509       644       645      2738      2742      2740
 -1      1139    8    0    1
 -2       511       510       646      2336      2743      2744
 -1      1140    8    0    1
 -2       510       645       646      2741      2745      2743
 -1      1141    8    0    1
 -2       512       511       647      2339      2746      2747
 -1      1142    8    0    1
 -2       511       646       647      2744      2748      2746
 -1      1143    8    0    1
 -2       513       512       648      2342      2749      2750
 -1      1144    8    0    1
 -2       512       647       648      2747      2751      2749
 -1      1145    8    0    1
 -2       514       513       649      2345      2752      2753
 -1      1146    8    0    1
 -2       513       648       649      2750      2754      2752
 -1      1147    8    0    1
 -2       515       514       650      2348      2755      2756
 -1      1148    8    0    1
 -2       514       649       650      2753      2757      2755
 -1      1149    8    0    1
 -2       516       515       651      2351      2758      2759
 -1      1150    8    0    1
 -2       515       650       651      2756      2760      2758
 -1      1151    8    0    1
 -2       517       516       652      2354      2761      2762
 -1      1152    8    0    1
 -2       516       651       652      2759      2763      2761
 -1      1153    8    0    1
 -2       518       517       653      2357      2764      2765
 -1      1154    8    0    1
 -2       517       652       653      2762      2766      2764
 -1      1155    8    0    1
 -2       519       518       654      2360      2767      2768
 -1      1156    8    0    1
 -2       518       653       654      2765      2769      2767
 -1      1157    8    0    1
 -2       520       519       655      2363      2770      2771
 -1      1158    8    0    1
 -2       519       654       655      2768      2772      2770
 -1      1159    8    0    1
 -2       521       520       656      2366      2773      2774
 -1      1160    8    0    1
 -2       520       655       656      2771      2775      2773
 -1      1161    8    0    1
 -2       522       521       657      2369      2776      2777
 -1      1162    8    0    1
 -2       521       656       657      2774      2778      2776
 -1      1163    8    0    1
 -2       523       522       658      2372      2779      2780
 -1      1164    8    0    1
 -2       522       657       658      2777      2781      2779
 -1      1165    8    0    1
 -2       524       523       659      2375      2782      2783
 -1      1166    8    0    1
 -2       523       658       659      2780      2784      2782
 -1      1167    8    0    1
 -2       525       524       660      2378      2785      2786
 -1      1168    8    0    1
 -2       524       659       660      2783      2787      2785
 -1      1169    8    0    1
 -2       526       525       661      2381      2788      2789
 -1      1170    8    0    1
 -2       525       660       661      2786      2790      2788
 -1      1171    8    0    1
 -2       527       526       662      2385      2791      2792
 -1      1172    8    0    1
 -2       582       527       662      2549      2792      2793
 -1      1173    8    0    1
 -2       526       661       662      2789      2794      2791
 -1      1174    8    0    1
 -2       529       528       663      2390      2795      2796
 -1      1175    8    0    1
 -2       528       531       664      2396      2797      2798
 -1      1176    8    0    1
 -2       528       664       663      2798      2799      2795
 -1      1177    8    0    1
 -2       530       529       665      2393      2800      2801
 -1      1178    8    0    1
 -2       529       663       665      2796      2802      2800
 -1      1179    8    0    1
 -2       532       533       666      2402      2803      2804
 -1      1180    8    0    1
 -2       533       534       667      2405      2805      2806
 -1      1181    8    0    1
 -2       533       667       666      2806      2807      2803
 -1      1182    8    0    1
 -2       534       535       668      2408      2808      2809
 -1      1183    8    0    1
 -2       534       668       667      2809      2810      2805
 -1      1184    8    0    1
 -2       535       536       669      2411      2811      2812
 -1      1185    8    0    1
 -2       535       669       668      2812      2813      2808
 -1      1186    8    0    1
 -2       536       537       670      2414      2814      2815
 -1      1187    8    0    1
 -2       536       670       669      2815      2816      2811
 -1      1188    8    0    1
 -2       537       538       671      2417      2817      2818
 -1      1189    8    0    1
 -2       537       671       670      2818      2819      2814
 -1      1190    8    0    1
 -2       538       539       672      2420      2820      2821
 -1      1191    8    0    1
 -2       538       672       671      2821      2822      2817
 -1      1192    8    0    1
 -2       539       540       673      2423      2823      2824
 -1      1193    8    0    1
 -2       539       673       672      2824      2825      2820
 -1      1194    8    0    1
 -2       540       541       674      2426      2826      2827
 -1      1195    8    0    1
 -2       540       674       673      2827      2828      2823
 -1      1196    8    0    1
 -2       541       542       675      2429      2829      2830
 -1      1197    8    0    1
 -2       541       675       674      2830      2831      2826
 -1      1198    8    0    1
 -2       542       543       676      2432      2832      2833
 -1      1199    8    0    1
 -2       542       676       675      2833      2834      2829
 -1      1200    8    0    1
 -2       543       544       677      2435      2835      2836
 -1      1201    8    0    1
 -2       543       677       676      2836      2837      2832
 -1      1202    8    0    1
 -2       544       545       678      2438      2838      2839
 -1      1203    8    0    1
 -2       544       678       677      2839      2840      2835
 -1      1204    8    0    1
 -2       545       546       679      2441      2841      2842
 -1      1205    8    0    1
 -2       545       679       678      2842      2843      2838
 -1      1206    8    0    1
 -2       546       547       680      2444      2844      2845
 -1      1207    8    0    1
 -2       546       680       679      2845      2846      2841
 -1      1208    8    0    1
 -2       547       548       681      2447      2847      2848
 -1      1209    8    0    1
 -2       547       681       680      2848      2849      2844
 -1      1210    8    0    1
 -2       548       549       682      2450      2850      2851
 -1      1211    8    0    1
 -2       548       682       681      2851      2852      2847
 -1      1212    8    0    1
 -2       549       550       683      2453      2853      2854
 -1      1213    8    0    1
 -2       549       683       682      2854      2855      2850
 -1      1214    8    0    1
 -2       550       551       684      2456      2856      2857
 -1      1215    8    0    1
 -2       550       684       683      2857      2858      2853
 -1      1216    8    0    1
 -2       551       552       685      2459      2859      2860
 -1      1217    8    0    1
 -2       551       685       684      2860      2861      2856
 -1      1218    8    0    1
 -2       552       553       686      2462      2862      2863
 -1      1219    8    0    1
 -2       552       686       685      2863      2864      2859
 -1      1220    8    0    1
 -2       553       554       687      2465      2865      2866
 -1      1221    8    0    1
 -2       553       687       686      2866      2867      2862
 -1      1222    8    0    1
 -2       554       555       688      2468      2868      2869
 -1      1223    8    0    1
 -2       554       688       687      2869      2870      2865
 -1      1224    8    0    1
 -2       555       556       689      2471      2871      2872
 -1      1225    8    0    1
 -2       555       689       688      2872      2873      2868
 -1      1226    8    0    1
 -2       556       557       690      2474      2874      2875
 -1      1227    8    0    1
 -2       556       690       689      2875      2876      2871
 -1      1228    8    0    1
 -2       557       558       691      2477      2877      2878
 -1      1229    8    0    1
 -2       557       691       690      2878      2879      2874
 -1      1230    8    0    1
 -2       558       559       692      2480      2880      2881
 -1      1231    8    0    1
 -2       558       692       691      2881      2882      2877
 -1      1232    8    0    1
 -2       559       560       693      2483      2883      2884
 -1      1233    8    0    1
 -2       559       693       692      2884      2885      2880
 -1      1234    8    0    1
 -2       560       561       694      2486      2886      2887
 -1      1235    8    0    1
 -2       560       694       693      2887      2888      2883
 -1      1236    8    0    1
 -2       561       562       695      2489      2889      2890
 -1      1237    8    0    1
 -2       561       695       694      2890      2891      2886
 -1      1238    8    0    1
 -2       562       563       696      2492      2892      2893
 -1      1239    8    0    1
 -2       562       696       695      2893      2894      2889
 -1      1240    8    0    1
 -2       563       564       697      2495      2895      2896
 -1      1241    8    0    1
 -2       563       697       696      2896      2897      2892
 -1      1242    8    0    1
 -2       564       565       698      2498      2898      2899
 -1      1243    8    0    1
 -2       564       698       697      2899      2900      2895
 -1      1244    8    0    1
 -2       565       566       699      2501      2901      2902
 -1      1245    8    0    1
 -2       565       699       698      2902      2903      2898
 -1      1246    8    0    1
 -2       566       567       700      2504      2904      2905
 -1      1247    8    0    1
 -2       566       700       699      2905      2906      2901
 -1      1248    8    0    1
 -2       567       568       701      2507      2907      2908
 -1      1249    8    0    1
 -2       567       701       700      2908      2909      2904
 -1      1250    8    0    1
 -2       568       569       702      2510      2910      2911
 -1      1251    8    0    1
 -2       568       702       701      2911      2912      2907
 -1      1252    8    0    1
 -2       569       570       703      2513      2913      2914
 -1      1253    8    0    1
 -2       702       569       703      2910      2914      2915
 -1      1254    8    0    1
 -2       570       573       703      2633      2916      2913
 -1      1255    8    0    1
 -2       572       571       704      2519      2917      2918
 -1      1256    8    0    1
 -2       575       576       705      2530      2919      2920
 -1      1257    8    0    1
 -2       573       572       706      2522      2921      2922
 -1      1258    8    0    1
 -2       703       573       706      2916      2922      2923
 -1      1259    8    0    1
 -2       572       704       706      2918      2924      2921
 -1      1260    8    0    1
 -2       571       575       707      2527      2925      2926
 -1      1261    8    0    1
 -2       704       571       707      2917      2926      2927
 -1      1262    8    0    1
 -2       575       705       707      2920      2928      2925
 -1      1263    8    0    1
 -2       577       578       708      2536      2929      2930
 -1      1264    8    0    1
 -2       578       579       709      2539      2931      2932
 -1      1265    8    0    1
 -2       578       709       708      2932      2933      2929
 -1      1266    8    0    1
 -2       579       580       710      2542      2934      2935
 -1      1267    8    0    1
 -2       579       710       709      2935      2936      2931
 -1      1268    8    0    1
 -2       580       581       711      2545      2937      2938
 -1      1269    8    0    1
 -2       580       711       710      2938      2939      2934
 -1      1270    8    0    1
 -2       482       483       712      2618      2940      2941
 -1      1271    8    0    1
 -2       482       712       620      2941      2942      2667
 -1      1272    8    0    1
 -2       574       609       713      2621      2943      2944
 -1      1273    8    0    1
 -2       599       590       714      2626      2945      2946
 -1      1274    8    0    1
 -2       598       586       715      2635      2947      2948
 -1      1275    8    0    1
 -2       594       588       716      2638      2949      2950
 -1      1276    8    0    1
 -2       603       604       717      2636      2951      2952
 -1      1277    8    0    1
 -2       593       594       718      2640      2953      2954
 -1      1278    8    0    1
 -2       596       597       719      2639      2955      2956
 -1      1279    8    0    1
 -2       576       577       720      2533      2957      2958
 -1      1280    8    0    1
 -2       577       708       720      2930      2959      2957
 -1      1281    8    0    1
 -2       484       481       721      2255      2960      2961
 -1      1282    8    0    1
 -2       484       721       623      2961      2962      2673
 -1      1283    8    0    1
 -2       586       585       722      2625      2963      2964
 -1      1284    8    0    1
 -2       470       592       723      2648      2965      2966
 -1      1285    8    0    1
 -2       470       723       613      2966      2967      2646
 -1      1286    8    0    1
 -2       483       584       724      2647      2968      2969
 -1      1287    8    0    1
 -2       597       599       725      2649      2970      2971
 -1      1288    8    0    1
 -2       599       714       725      2946      2972      2970
 -1      1289    8    0    1
 -2       588       595       726      2642      2973      2974
 -1      1290    8    0    1
 -2       592       593       727      2641      2975      2976
 -1      1291    8    0    1
 -2       595       596       728      2582      2977      2978
 -1      1292    8    0    1
 -2       596       719       728      2956      2979      2977
 -1      1293    8    0    1
 -2       607       608       729      2623      2980      2981
 -1      1294    8    0    1
 -2       475       476       730      2233      2982      2983
 -1      1295    8    0    1
 -2       614       475       730      2652      2983      2984
 -1      1296    8    0    1
 -2       476       616       730      2658      2985      2982
 -1      1297    8    0    1
 -2       590       600       731      2650      2986      2987
 -1      1298    8    0    1
 -2       600       601       732      2593      2988      2989
 -1      1299    8    0    1
 -2       601       602       733      2637      2990      2991
 -1      1300    8    0    1
 -2       583       444       610      2624      2613      2992
 -1      1301    8    0    1
 -2       472       471       734      2222      2993      2994
 -1      1302    8    0    1
 -2       531       532       735      2399      2995      2996
 -1      1303    8    0    1
 -2       664       531       735      2797      2996      2997
 -1      1304    8    0    1
 -2       532       666       735      2804      2998      2995
 -1      1305    8    0    1
 -2       608       598       736      2622      2999      3000
 -1      1306    8    0    1
 -2       604       587       641      2634      3001      3002
 -1      1307    8    0    1
 -2       473       615       737      2655      3003      3004
 -1      1308    8    0    1
 -2       473       737       589      3004      3005      2567
 -1      1309    8    0    1
 -2       479       618       478      2663      3006      2242
 -1      1310    8    0    1
 -2       619       591       738      2665      3007      3008
 -1      1311    8    0    1
 -2       591       613       738      2645      3009      3007
 -1      1312    8    0    1
 -2       719       597       739      2955      3010      3011
 -1      1313    8    0    1
 -2       597       725       739      2971      3012      3010
 -1      1314    8    0    1
 -2       609       620       740      2668      3013      3014
 -1      1315    8    0    1
 -2       609       740       713      3014      3015      2943
 -1      1316    8    0    1
 -2       585       621       722      2670      3016      2963
 -1      1317    8    0    1
 -2       606       622       506      2672      2732      3017
 -1      1318    8    0    1
 -2       502       640       717      2724      3018      3019
 -1      1319    8    0    1
 -2       503       502       717      2312      3019      3020
 -1      1320    8    0    1
 -2       506       605       606      2731      2632      3017
 -1      1321    8    0    1
 -2       608       736       741      3000      3021      3022
 -1      1322    8    0    1
 -2       608       741       729      3022      3023      2980
 -1      1323    8    0    1
 -2       736       598       715      2999      2948      3024
 -1      1324    8    0    1
 -2       705       576       720      2919      2958      3025
 -1      1325    8    0    1
 -2       610       472       742      2611      3026      3027
 -1      1326    8    0    1
 -2       472       734       742      2994      3028      3026
 -1      1327    8    0    1
 -2       733       602       640      2990      3029      3030
 -1      1328    8    0    1
 -2       714       590       731      2945      2987      3031
 -1      1329    8    0    1
 -2       727       593       743      2975      3032      3033
 -1      1330    8    0    1
 -2       593       718       743      2954      3034      3032
 -1      1331    8    0    1
 -2       712       483       724      2940      2969      3035
 -1      1332    8    0    1
 -2       581       582       744      2548      3036      3037
 -1      1333    8    0    1
 -2       711       581       744      2937      3037      3038
 -1      1334    8    0    1
 -2       582       662       744      2793      3039      3036
 -1      1335    8    0    1
 -2       530       665       745      2801      3040      3041
 -1      1336    8    0    1
 -2       723       592       746      2965      3042      3043
 -1      1337    8    0    1
 -2       592       727       746      2976      3044      3042
 -1      1338    8    0    1
 -2       612       530       745      2630      3041      3045
 -1      1339    8    0    1
 -2       718       594       716      2953      2950      3046
 -1      1340    8    0    1
 -2       717       604       641      2951      3002      3047
 -1      1341    8    0    1
 -2       588       726       716      2974      3048      2949
 -1      1342    8    0    1
 -2       715       586       722      2947      2964      3049
 -1      1343    8    0    1
 -2       605       505       642      2730      2729      3050
 -1      1344    8    0    1
 -2       607       729       622      2981      3051      2671
 -1      1345    8    0    1
 -2       478       618       617      3006      3052      2659
 -1      1346    8    0    1
 -2       471       589       747      2566      3053      3054
 -1      1347    8    0    1
 -2       734       471       747      2993      3054      3055
 -1      1348    8    0    1
 -2       589       737       747      3005      3056      3053
 -1      1349    8    0    1
 -2       605       642       587      3050      3057      2643
 -1      1350    8    0    1
 -2       621       574       713      2669      2944      3058
 -1      1351    8    0    1
 -2       724       584       619      2968      2666      3059
 -1      1352    8    0    1
 -2       726       595       728      2973      2978      3060
 -1      1353    8    0    1
 -2       732       601       733      2988      2991      3061
 -1      1354    8    0    1
 -2       600       732       731      2989      3062      2986
 -1      1355    8    0    1
 -2       583       610       748      2992      3063      3064
 -1      1356    8    0    1
 -2       481       583       748      2552      3064      3065
 -1      1357    8    0    1
 -2       610       742       748      3027      3066      3063
 -1      1358    8    0    1
 -2       602       603       749      2651      3067      3068
 -1      1359    8    0    1
 -2       503       717       641      3020      3047      2726
 -1      1360    8    0    1
 -2       481       748       721      3065      3069      2960
 -1      1361    8    0    1
 -2       616       617       750      2661      3070      3071
 -1      1362    8    0    1
 -2       618       611       612      2664      2629      3072
 -1      1363    8    0    1
 -2       504       641       642      2727      3073      2728
 -1      1364    8    0    1
 -2       625       624       751      2680      3074      3075
 -1      1365    8    0    1
 -2       626       625       752      2683      3076      3077
 -1      1366    8    0    1
 -2       625       751       752      3075      3078      3076
 -1      1367    8    0    1
 -2       627       626       753      2686      3079      3080
 -1      1368    8    0    1
 -2       626       752       753      3077      3081      3079
 -1      1369    8    0    1
 -2       628       627       754      2689      3082      3083
 -1      1370    8    0    1
 -2       627       753       754      3080      3084      3082
 -1      1371    8    0    1
 -2       629       628       755      2692      3085      3086
 -1      1372    8    0    1
 -2       628       754       755      3083      3087      3085
 -1      1373    8    0    1
 -2       630       629       756      2695      3088      3089
 -1      1374    8    0    1
 -2       629       755       756      3086      3090      3088
 -1      1375    8    0    1
 -2       631       630       757      2698      3091      3092
 -1      1376    8    0    1
 -2       630       756       757      3089      3093      3091
 -1      1377    8    0    1
 -2       632       631       758      2701      3094      3095
 -1      1378    8    0    1
 -2       631       757       758      3092      3096      3094
 -1      1379    8    0    1
 -2       633       632       759      2704      3097      3098
 -1      1380    8    0    1
 -2       632       758       759      3095      3099      3097
 -1      1381    8    0    1
 -2       634       633       760      2707      3100      3101
 -1      1382    8    0    1
 -2       633       759       760      3098      3102      3100
 -1      1383    8    0    1
 -2       635       634       761      2710      3103      3104
 -1      1384    8    0    1
 -2       634       760       761      3101      3105      3103
 -1      1385    8    0    1
 -2       636       635       762      2713      3106      3107
 -1      1386    8    0    1
 -2       635       761       762      3104      3108      3106
 -1      1387    8    0    1
 -2       637       636       763      2716      3109      3110
 -1      1388    8    0    1
 -2       636       762       763      3107      3111      3109
 -1      1389    8    0    1
 -2       638       637       764      2719      3112      3113
 -1      1390    8    0    1
 -2       637       763       764      3110      3114      3112
 -1      1391    8    0    1
 -2       639       638       765      2722      3115      3116
 -1      1392    8    0    1
 -2       638       764       765      3113      3117      3115
 -1      1393    8    0    1
 -2       640       639       733      2725      3118      3030
 -1      1394    8    0    1
 -2       721       748       766      3069      3119      3120
 -1      1395    8    0    1
 -2       623       721       766      2962      3120      3121
 -1      1396    8    0    1
 -2       748       742       766      3066      3122      3119
 -1      1397    8    0    1
 -2       622       729       643      3051      3123      2736
 -1      1398    8    0    1
 -2       718       716       767      3046      3124      3125
 -1      1399    8    0    1
 -2       645       644       768      2742      3126      3127
 -1      1400    8    0    1
 -2       646       645       769      2745      3128      3129
 -1      1401    8    0    1
 -2       645       768       769      3127      3130      3128
 -1      1402    8    0    1
 -2       647       646       770      2748      3131      3132
 -1      1403    8    0    1
 -2       646       769       770      3129      3133      3131
 -1      1404    8    0    1
 -2       648       647       771      2751      3134      3135
 -1      1405    8    0    1
 -2       647       770       771      3132      3136      3134
 -1      1406    8    0    1
 -2       649       648       772      2754      3137      3138
 -1      1407    8    0    1
 -2       648       771       772      3135      3139      3137
 -1      1408    8    0    1
 -2       650       649       773      2757      3140      3141
 -1      1409    8    0    1
 -2       649       772       773      3138      3142      3140
 -1      1410    8    0    1
 -2       651       650       774      2760      3143      3144
 -1      1411    8    0    1
 -2       650       773       774      3141      3145      3143
 -1      1412    8    0    1
 -2       652       651       775      2763      3146      3147
 -1      1413    8    0    1
 -2       651       774       775      3144      3148      3146
 -1      1414    8    0    1
 -2       653       652       776      2766      3149      3150
 -1      1415    8    0    1
 -2       652       775       776      3147      3151      3149
 -1      1416    8    0    1
 -2       654       653       777      2769      3152      3153
 -1      1417    8    0    1
 -2       653       776       777      3150      3154      3152
 -1      1418    8    0    1
 -2       655       654       778      2772      3155      3156
 -1      1419    8    0    1
 -2       654       777       778      3153      3157      3155
 -1      1420    8    0    1
 -2       656       655       779      2775      3158      3159
 -1      1421    8    0    1
 -2       655       778       779      3156      3160      3158
 -1      1422    8    0    1
 -2       657       656       780      2778      3161      3162
 -1      1423    8    0    1
 -2       656       779       780      3159      3163      3161
 -1      1424    8    0    1
 -2       658       657       781      2781      3164      3165
 -1      1425    8    0    1
 -2       657       780       781      3162      3166      3164
 -1      1426    8    0    1
 -2       659       658       782      2784      3167      3168
 -1      1427    8    0    1
 -2       658       781       782      3165      3169      3167
 -1      1428    8    0    1
 -2       660       659       783      2787      3170      3171
 -1      1429    8    0    1
 -2       659       782       783      3168      3172      3170
 -1      1430    8    0    1
 -2       663       664       784      2799      3173      3174
 -1      1431    8    0    1
 -2       665       663       785      2802      3175      3176
 -1      1432    8    0    1
 -2       663       784       785      3174      3177      3175
 -1      1433    8    0    1
 -2       667       668       786      2810      3178      3179
 -1      1434    8    0    1
 -2       666       667       787      2807      3180      3181
 -1      1435    8    0    1
 -2       667       786       787      3179      3182      3180
 -1      1436    8    0    1
 -2       669       670       788      2816      3183      3184
 -1      1437    8    0    1
 -2       670       671       789      2819      3185      3186
 -1      1438    8    0    1
 -2       670       789       788      3186      3187      3183
 -1      1439    8    0    1
 -2       671       672       790      2822      3188      3189
 -1      1440    8    0    1
 -2       671       790       789      3189      3190      3185
 -1      1441    8    0    1
 -2       672       673       791      2825      3191      3192
 -1      1442    8    0    1
 -2       672       791       790      3192      3193      3188
 -1      1443    8    0    1
 -2       673       674       792      2828      3194      3195
 -1      1444    8    0    1
 -2       673       792       791      3195      3196      3191
 -1      1445    8    0    1
 -2       674       675       793      2831      3197      3198
 -1      1446    8    0    1
 -2       674       793       792      3198      3199      3194
 -1      1447    8    0    1
 -2       675       676       794      2834      3200      3201
 -1      1448    8    0    1
 -2       675       794       793      3201      3202      3197
 -1      1449    8    0    1
 -2       676       677       795      2837      3203      3204
 -1      1450    8    0    1
 -2       676       795       794      3204      3205      3200
 -1      1451    8    0    1
 -2       677       678       796      2840      3206      3207
 -1      1452    8    0    1
 -2       677       796       795      3207      3208      3203
 -1      1453    8    0    1
 -2       678       679       797      2843      3209      3210
 -1      1454    8    0    1
 -2       678       797       796      3210      3211      3206
 -1      1455    8    0    1
 -2       680       681       743      2849      3212      3213
 -1      1456    8    0    1
 -2       681       682       798      2852      3214      3215
 -1      1457    8    0    1
 -2       682       683       799      2855      3216      3217
 -1      1458    8    0    1
 -2       682       799       798      3217      3218      3214
 -1      1459    8    0    1
 -2       683       684       800      2858      3219      3220
 -1      1460    8    0    1
 -2       683       800       799      3220      3221      3216
 -1      1461    8    0    1
 -2       684       685       801      2861      3222      3223
 -1      1462    8    0    1
 -2       684       801       800      3223      3224      3219
 -1      1463    8    0    1
 -2       685       686       802      2864      3225      3226
 -1      1464    8    0    1
 -2       685       802       801      3226      3227      3222
 -1      1465    8    0    1
 -2       686       687       803      2867      3228      3229
 -1      1466    8    0    1
 -2       686       803       802      3229      3230      3225
 -1      1467    8    0    1
 -2       687       688       804      2870      3231      3232
 -1      1468    8    0    1
 -2       687       804       803      3232      3233      3228
 -1      1469    8    0    1
 -2       688       689       805      2873      3234      3235
 -1      1470    8    0    1
 -2       688       805       804      3235      3236      3231
 -1      1471    8    0    1
 -2       689       690       806      2876      3237      3238
 -1      1472    8    0    1
 -2       689       806       805      3238      3239      3234
 -1      1473    8    0    1
 -2       690       691       807      2879      3240      3241
 -1      1474    8    0    1
 -2       690       807       806      3241      3242      3237
 -1      1475    8    0    1
 -2       691       692       808      2882      3243      3244
 -1      1476    8    0    1
 -2       691       808       807      3244      3245      3240
 -1      1477    8    0    1
 -2       692       693       809      2885      3246      3247
 -1      1478    8    0    1
 -2       692       809       808      3247      3248      3243
 -1      1479    8    0    1
 -2       693       694       810      2888      3249      3250
 -1      1480    8    0    1
 -2       693       810       809      3250      3251      3246
 -1      1481    8    0    1
 -2       694       695       811      2891      3252      3253
 -1      1482    8    0    1
 -2       694       811       810      3253      3254      3249
 -1      1483    8    0    1
 -2       695       696       812      2894      3255      3256
 -1      1484    8    0    1
 -2       695       812       811      3256      3257      3252
 -1      1485    8    0    1
 -2       696       697       813      2897      3258      3259
 -1      1486    8    0    1
 -2       696       813       812      3259      3260      3255
 -1      1487    8    0    1
 -2       697       698       814      2900      3261      3262
 -1      1488    8    0    1
 -2       697       814       813      3262      3263      3258
 -1      1489    8    0    1
 -2       698       699       815      2903      3264      3265
 -1      1490    8    0    1
 -2       698       815       814      3265      3266      3261
 -1      1491    8    0    1
 -2       699       700       816      2906      3267      3268
 -1      1492    8    0    1
 -2       699       816       815      3268      3269      3264
 -1      1493    8    0    1
 -2       700       701       817      2909      3270      3271
 -1      1494    8    0    1
 -2       700       817       816      3271      3272      3267
 -1      1495    8    0    1
 -2       701       702       818      2912      3273      3274
 -1      1496    8    0    1
 -2       701       818       817      3274      3275      3270
 -1      1497    8    0    1
 -2       702       703       819      2915      3276      3277
 -1      1498    8    0    1
 -2       818       702       819      3273      3277      3278
 -1      1499    8    0    1
 -2       703       706       819      2923      3279      3276
 -1      1500    8    0    1
 -2       709       710       820      2936      3280      3281
 -1      1501    8    0    1
 -2       714       731       821      3031      3282      3283
 -1      1502    8    0    1
 -2       728       719       822      2979      3284      3285
 -1      1503    8    0    1
 -2       710       711       823      2939      3286      3287
 -1      1504    8    0    1
 -2       710       823       820      3287      3288      3280
 -1      1505    8    0    1
 -2       708       709       824      2933      3289      3290
 -1      1506    8    0    1
 -2       709       820       824      3281      3291      3289
 -1      1507    8    0    1
 -2       620       712       825      2942      3292      3293
 -1      1508    8    0    1
 -2       725       714       826      2972      3294      3295
 -1      1509    8    0    1
 -2       722       621       827      3016      3296      3297
 -1      1510    8    0    1
 -2       720       708       828      2959      3298      3299
 -1      1511    8    0    1
 -2       708       824       828      3290      3300      3298
 -1      1512    8    0    1
 -2       715       722       829      3049      3301      3302
 -1      1513    8    0    1
 -2       705       720       830      3025      3303      3304
 -1      1514    8    0    1
 -2       720       828       830      3299      3305      3303
 -1      1515    8    0    1
 -2       668       669       831      2813      3306      3307
 -1      1516    8    0    1
 -2       786       668       831      3178      3307      3308
 -1      1517    8    0    1
 -2       669       788       831      3184      3309      3306
 -1      1518    8    0    1
 -2       603       717       749      2952      3310      3067
 -1      1519    8    0    1
 -2       712       724       832      3035      3311      3312
 -1      1520    8    0    1
 -2       624       623       833      2677      3313      3314
 -1      1521    8    0    1
 -2       624       833       751      3314      3315      3074
 -1      1522    8    0    1
 -2       617       618       745      3052      3316      3317
 -1      1523    8    0    1
 -2       613       723       834      2967      3318      3319
 -1      1524    8    0    1
 -2       724       619       835      3059      3320      3321
 -1      1525    8    0    1
 -2       726       728       836      3060      3322      3323
 -1      1526    8    0    1
 -2       612       745       618      3045      3316      3072
 -1      1527    8    0    1
 -2       732       733       765      3061      3324      3325
 -1      1528    8    0    1
 -2       621       713       837      3058      3326      3327
 -1      1529    8    0    1
 -2       736       715       838      3024      3328      3329
 -1      1530    8    0    1
 -2       643       729       741      3123      3023      3330
 -1      1531    8    0    1
 -2       615       614       839      2656      3331      3332
 -1      1532    8    0    1
 -2       731       732       840      3062      3333      3334
 -1      1533    8    0    1
 -2       821       731       840      3282      3334      3335
 -1      1534    8    0    1
 -2       732       765       840      3325      3336      3333
 -1      1535    8    0    1
 -2       641       587       642      3001      3057      3073
 -1      1536    8    0    1
 -2       716       726       841      3048      3337      3338
 -1      1537    8    0    1
 -2       617       745       750      3317      3339      3070
 -1      1538    8    0    1
 -2       733       639       765      3118      3116      3324
 -1      1539    8    0    1
 -2       738       613       834      3009      3319      3340
 -1      1540    8    0    1
 -2       739       725       842      3012      3341      3342
 -1      1541    8    0    1
 -2       725       826       842      3295      3343      3341
 -1      1542    8    0    1
 -2       740       620       825      3013      3293      3344
 -1      1543    8    0    1
 -2       737       615       843      3003      3345      3346
 -1      1544    8    0    1
 -2       615       839       843      3332      3347      3345
 -1      1545    8    0    1
 -2       735       666       844      2998      3348      3349
 -1      1546    8    0    1
 -2       666       787       844      3181      3350      3348
 -1      1547    8    0    1
 -2       767       716       841      3124      3338      3351
 -1      1548    8    0    1
 -2       644       643       741      2739      3330      3352
 -1      1549    8    0    1
 -2       784       664       845      3173      3353      3354
 -1      1550    8    0    1
 -2       664       735       845      2997      3355      3353
 -1      1551    8    0    1
 -2       661       660       846      2790      3356      3357
 -1      1552    8    0    1
 -2       662       661       744      2794      3358      3039
 -1      1553    8    0    1
 -2       833       623       766      3313      3121      3359
 -1      1554    8    0    1
 -2       680       743       847      3213      3360      3361
 -1      1555    8    0    1
 -2       679       680       847      2846      3361      3362
 -1      1556    8    0    1
 -2       743       718       847      3034      3363      3360
 -1      1557    8    0    1
 -2       797       679       847      3209      3362      3364
 -1      1558    8    0    1
 -2       715       829       838      3302      3365      3328
 -1      1559    8    0    1
 -2       714       821       848      3283      3366      3367
 -1      1560    8    0    1
 -2       714       848       826      3367      3368      3294
 -1      1561    8    0    1
 -2       707       705       849      2928      3369      3370
 -1      1562    8    0    1
 -2       705       830       849      3304      3371      3369
 -1      1563    8    0    1
 -2       742       734       850      3028      3372      3373
 -1      1564    8    0    1
 -2       640       602       749      3029      3068      3374
 -1      1565    8    0    1
 -2       768       644       741      3126      3352      3375
 -1      1566    8    0    1
 -2       728       822       836      3285      3376      3322
 -1      1567    8    0    1
 -2       730       616       851      2985      3377      3378
 -1      1568    8    0    1
 -2       616       750       851      3071      3379      3377
 -1      1569    8    0    1
 -2       825       712       832      3292      3312      3380
 -1      1570    8    0    1
 -2       745       665       852      3040      3381      3382
 -1      1571    8    0    1
 -2       722       827       829      3297      3383      3301
 -1      1572    8    0    1
 -2       706       704       853      2924      3384      3385
 -1      1573    8    0    1
 -2       706       853       819      3385      3386      3279
 -1      1574    8    0    1
 -2       718       767       847      3125      3387      3363
 -1      1575    8    0    1
 -2       832       724       835      3311      3321      3388
 -1      1576    8    0    1
 -2       711       744       846      3038      3389      3390
 -1      1577    8    0    1
 -2       827       621       837      3296      3327      3391
 -1      1578    8    0    1
 -2       711       846       823      3390      3392      3286
 -1      1579    8    0    1
 -2       726       836       841      3323      3393      3337
 -1      1580    8    0    1
 -2       713       740       854      3015      3394      3395
 -1      1581    8    0    1
 -2       713       854       837      3395      3396      3326
 -1      1582    8    0    1
 -2       736       838       741      3329      3397      3021
 -1      1583    8    0    1
 -2       734       747       855      3055      3398      3399
 -1      1584    8    0    1
 -2       734       855       850      3399      3400      3372
 -1      1585    8    0    1
 -2       614       730       856      2984      3401      3402
 -1      1586    8    0    1
 -2       839       614       856      3331      3402      3403
 -1      1587    8    0    1
 -2       730       851       856      3378      3404      3401
 -1      1588    8    0    1
 -2       822       719       857      3284      3405      3406
 -1      1589    8    0    1
 -2       719       739       857      3011      3407      3405
 -1      1590    8    0    1
 -2       704       707       858      2927      3408      3409
 -1      1591    8    0    1
 -2       853       704       858      3384      3409      3410
 -1      1592    8    0    1
 -2       707       849       858      3370      3411      3408
 -1      1593    8    0    1
 -2       661       846       744      3357      3389      3358
 -1      1594    8    0    1
 -2       750       745       852      3339      3382      3412
 -1      1595    8    0    1
 -2       846       660       783      3356      3171      3413
 -1      1596    8    0    1
 -2       852       665       785      3381      3176      3414
 -1      1597    8    0    1
 -2       752       751       859      3078      3415      3416
 -1      1598    8    0    1
 -2       619       738       835      3008      3417      3320
 -1      1599    8    0    1
 -2       790       791       860      3193      3418      3419
 -1      1600    8    0    1
 -2       753       752       861      3081      3420      3421
 -1      1601    8    0    1
 -2       752       859       861      3416      3422      3420
 -1      1602    8    0    1
 -2       754       753       862      3084      3423      3424
 -1      1603    8    0    1
 -2       753       861       862      3421      3425      3423
 -1      1604    8    0    1
 -2       755       754       863      3087      3426      3427
 -1      1605    8    0    1
 -2       754       862       863      3424      3428      3426
 -1      1606    8    0    1
 -2       756       755       864      3090      3429      3430
 -1      1607    8    0    1
 -2       755       863       864      3427      3431      3429
 -1      1608    8    0    1
 -2       757       756       865      3093      3432      3433
 -1      1609    8    0    1
 -2       756       864       865      3430      3434      3432
 -1      1610    8    0    1
 -2       758       757       866      3096      3435      3436
 -1      1611    8    0    1
 -2       757       865       866      3433      3437      3435
 -1      1612    8    0    1
 -2       759       758       867      3099      3438      3439
 -1      1613    8    0    1
 -2       758       866       867      3436      3440      3438
 -1      1614    8    0    1
 -2       760       759       868      3102      3441      3442
 -1      1615    8    0    1
 -2       759       867       868      3439      3443      3441
 -1      1616    8    0    1
 -2       761       760       869      3105      3444      3445
 -1      1617    8    0    1
 -2       760       868       869      3442      3446      3444
 -1      1618    8    0    1
 -2       762       761       870      3108      3447      3448
 -1      1619    8    0    1
 -2       761       869       870      3445      3449      3447
 -1      1620    8    0    1
 -2       763       762       871      3111      3450      3451
 -1      1621    8    0    1
 -2       762       870       871      3448      3452      3450
 -1      1622    8    0    1
 -2       764       763       872      3114      3453      3454
 -1      1623    8    0    1
 -2       763       871       872      3451      3455      3453
 -1      1624    8    0    1
 -2       765       764       840      3117      3456      3336
 -1      1625    8    0    1
 -2       785       784       873      3177      3457      3458
 -1      1626    8    0    1
 -2       766       742       850      3122      3373      3459
 -1      1627    8    0    1
 -2       769       768       874      3130      3460      3461
 -1      1628    8    0    1
 -2       852       785       875      3414      3462      3463
 -1      1629    8    0    1
 -2       785       873       875      3458      3464      3462
 -1      1630    8    0    1
 -2       770       769       876      3133      3465      3466
 -1      1631    8    0    1
 -2       769       874       876      3461      3467      3465
 -1      1632    8    0    1
 -2       771       770       877      3136      3468      3469
 -1      1633    8    0    1
 -2       770       876       877      3466      3470      3468
 -1      1634    8    0    1
 -2       772       771       878      3139      3471      3472
 -1      1635    8    0    1
 -2       771       877       878      3469      3473      3471
 -1      1636    8    0    1
 -2       773       772       879      3142      3474      3475
 -1      1637    8    0    1
 -2       772       878       879      3472      3476      3474
 -1      1638    8    0    1
 -2       774       773       880      3145      3477      3478
 -1      1639    8    0    1
 -2       773       879       880      3475      3479      3477
 -1      1640    8    0    1
 -2       775       774       881      3148      3480      3481
 -1      1641    8    0    1
 -2       774       880       881      3478      3482      3480
 -1      1642    8    0    1
 -2       776       775       882      3151      3483      3484
 -1      1643    8    0    1
 -2       775       881       882      3481      3485      3483
 -1      1644    8    0    1
 -2       777       776       883      3154      3486      3487
 -1      1645    8    0    1
 -2       776       882       883      3484      3488      3486
 -1      1646    8    0    1
 -2       778       777       884      3157      3489      3490
 -1      1647    8    0    1
 -2       777       883       884      3487      3491      3489
 -1      1648    8    0    1
 -2       779       778       885      3160      3492      3493
 -1      1649    8    0    1
 -2       778       884       885      3490      3494      3492
 -1      1650    8    0    1
 -2       780       779       886      3163      3495      3496
 -1      1651    8    0    1
 -2       779       885       886      3493      3497      3495
 -1      1652    8    0    1
 -2       781       780       887      3166      3498      3499
 -1      1653    8    0    1
 -2       780       886       887      3496      3500      3498
 -1      1654    8    0    1
 -2       782       781       888      3169      3501      3502
 -1      1655    8    0    1
 -2       781       887       888      3499      3503      3501
 -1      1656    8    0    1
 -2       783       782       889      3172      3504      3505
 -1      1657    8    0    1
 -2       782       888       889      3502      3506      3504
 -1      1658    8    0    1
 -2       750       852       890      3412      3507      3508
 -1      1659    8    0    1
 -2       851       750       890      3379      3508      3509
 -1      1660    8    0    1
 -2       852       875       890      3463      3510      3507
 -1      1661    8    0    1
 -2       832       835       891      3388      3511      3512
 -1      1662    8    0    1
 -2       789       790       892      3190      3513      3514
 -1      1663    8    0    1
 -2       790       860       892      3419      3515      3513
 -1      1664    8    0    1
 -2       788       789       893      3187      3516      3517
 -1      1665    8    0    1
 -2       789       892       893      3514      3518      3516
 -1      1666    8    0    1
 -2       791       792       894      3196      3519      3520
 -1      1667    8    0    1
 -2       791       894       860      3520      3521      3418
 -1      1668    8    0    1
 -2       792       793       895      3199      3522      3523
 -1      1669    8    0    1
 -2       792       895       894      3523      3524      3519
 -1      1670    8    0    1
 -2       793       794       896      3202      3525      3526
 -1      1671    8    0    1
 -2       793       896       895      3526      3527      3522
 -1      1672    8    0    1
 -2       794       795       897      3205      3528      3529
 -1      1673    8    0    1
 -2       794       897       896      3529      3530      3525
 -1      1674    8    0    1
 -2       795       796       898      3208      3531      3532
 -1      1675    8    0    1
 -2       795       898       897      3532      3533      3528
 -1      1676    8    0    1
 -2       743       681       798      3212      3215      3534
 -1      1677    8    0    1
 -2       798       799       834      3218      3535      3536
 -1      1678    8    0    1
 -2       801       802       891      3227      3537      3538
 -1      1679    8    0    1
 -2       802       803       899      3230      3539      3540
 -1      1680    8    0    1
 -2       802       899       891      3540      3541      3537
 -1      1681    8    0    1
 -2       803       804       900      3233      3542      3543
 -1      1682    8    0    1
 -2       803       900       899      3543      3544      3539
 -1      1683    8    0    1
 -2       804       805       901      3236      3545      3546
 -1      1684    8    0    1
 -2       804       901       900      3546      3547      3542
 -1      1685    8    0    1
 -2       805       806       902      3239      3548      3549
 -1      1686    8    0    1
 -2       805       902       901      3549      3550      3545
 -1      1687    8    0    1
 -2       806       807       903      3242      3551      3552
 -1      1688    8    0    1
 -2       806       903       902      3552      3553      3548
 -1      1689    8    0    1
 -2       807       808       904      3245      3554      3555
 -1      1690    8    0    1
 -2       807       904       903      3555      3556      3551
 -1      1691    8    0    1
 -2       808       809       905      3248      3557      3558
 -1      1692    8    0    1
 -2       808       905       904      3558      3559      3554
 -1      1693    8    0    1
 -2       809       810       906      3251      3560      3561
 -1      1694    8    0    1
 -2       809       906       905      3561      3562      3557
 -1      1695    8    0    1
 -2       810       811       907      3254      3563      3564
 -1      1696    8    0    1
 -2       810       907       906      3564      3565      3560
 -1      1697    8    0    1
 -2       811       812       908      3257      3566      3567
 -1      1698    8    0    1
 -2       811       908       907      3567      3568      3563
 -1      1699    8    0    1
 -2       812       813       909      3260      3569      3570
 -1      1700    8    0    1
 -2       812       909       908      3570      3571      3566
 -1      1701    8    0    1
 -2       813       814       910      3263      3572      3573
 -1      1702    8    0    1
 -2       813       910       909      3573      3574      3569
 -1      1703    8    0    1
 -2       814       815       911      3266      3575      3576
 -1      1704    8    0    1
 -2       814       911       910      3576      3577      3572
 -1      1705    8    0    1
 -2       815       816       912      3269      3578      3579
 -1      1706    8    0    1
 -2       815       912       911      3579      3580      3575
 -1      1707    8    0    1
 -2       816       817       913      3272      3581      3582
 -1      1708    8    0    1
 -2       816       913       912      3582      3583      3578
 -1      1709    8    0    1
 -2       817       818       914      3275      3584      3585
 -1      1710    8    0    1
 -2       817       914       913      3585      3586      3581
 -1      1711    8    0    1
 -2       847       767       797      3387      3587      3364
 -1      1712    8    0    1
 -2       838       829       874      3365      3588      3589
 -1      1713    8    0    1
 -2       820       823       915      3288      3590      3591
 -1      1714    8    0    1
 -2       824       820       916      3291      3592      3593
 -1      1715    8    0    1
 -2       820       915       916      3591      3594      3592
 -1      1716    8    0    1
 -2       740       825       917      3344      3595      3596
 -1      1717    8    0    1
 -2       829       827       918      3383      3597      3598
 -1      1718    8    0    1
 -2       829       918       874      3598      3599      3588
 -1      1719    8    0    1
 -2       833       766       850      3359      3459      3600
 -1      1720    8    0    1
 -2       723       746       834      3043      3601      3318
 -1      1721    8    0    1
 -2       787       786       919      3182      3602      3603
 -1      1722    8    0    1
 -2       836       822       920      3376      3604      3605
 -1      1723    8    0    1
 -2       751       833       921      3315      3606      3607
 -1      1724    8    0    1
 -2       751       921       859      3607      3608      3415
 -1      1725    8    0    1
 -2       768       741       838      3375      3397      3609
 -1      1726    8    0    1
 -2       747       737       922      3056      3610      3611
 -1      1727    8    0    1
 -2       747       922       855      3611      3612      3398
 -1      1728    8    0    1
 -2       828       824       923      3300      3613      3614
 -1      1729    8    0    1
 -2       824       916       923      3593      3615      3613
 -1      1730    8    0    1
 -2       827       837       924      3391      3616      3617
 -1      1731    8    0    1
 -2       825       832       925      3380      3618      3619
 -1      1732    8    0    1
 -2       841       836       898      3393      3620      3621
 -1      1733    8    0    1
 -2       823       846       783      3392      3413      3622
 -1      1734    8    0    1
 -2       830       828       926      3305      3623      3624
 -1      1735    8    0    1
 -2       828       923       926      3614      3625      3623
 -1      1736    8    0    1
 -2       799       800       834      3221      3626      3535
 -1      1737    8    0    1
 -2       797       767       841      3587      3351      3627
 -1      1738    8    0    1
 -2       833       850       927      3600      3628      3629
 -1      1739    8    0    1
 -2       921       833       927      3606      3629      3630
 -1      1740    8    0    1
 -2       850       855       927      3400      3631      3628
 -1      1741    8    0    1
 -2       768       838       874      3609      3589      3460
 -1      1742    8    0    1
 -2       823       783       889      3622      3505      3632
 -1      1743    8    0    1
 -2       834       800       738      3626      3633      3340
 -1      1744    8    0    1
 -2       797       841       796      3627      3634      3211
 -1      1745    8    0    1
 -2       738       800       835      3633      3635      3417
 -1      1746    8    0    1
 -2       796       841       898      3634      3621      3531
 -1      1747    8    0    1
 -2       835       800       801      3635      3224      3636
 -1      1748    8    0    1
 -2       835       801       891      3636      3538      3511
 -1      1749    8    0    1
 -2       842       826       928      3343      3637      3638
 -1      1750    8    0    1
 -2       843       839       929      3347      3639      3640
 -1      1751    8    0    1
 -2       844       787       930      3350      3641      3642
 -1      1752    8    0    1
 -2       787       919       930      3603      3643      3641
 -1      1753    8    0    1
 -2       717       640       749      3018      3374      3310
 -1      1754    8    0    1
 -2       840       764       872      3456      3454      3644
 -1      1755    8    0    1
 -2       873       784       931      3457      3645      3646
 -1      1756    8    0    1
 -2       784       845       931      3354      3647      3645
 -1      1757    8    0    1
 -2       823       889       915      3632      3648      3590
 -1      1758    8    0    1
 -2       832       891       925      3512      3649      3618
 -1      1759    8    0    1
 -2       845       735       844      3355      3349      3650
 -1      1760    8    0    1
 -2       929       839       932      3639      3651      3652
 -1      1761    8    0    1
 -2       839       856       932      3403      3653      3651
 -1      1762    8    0    1
 -2       928       826       848      3637      3368      3654
 -1      1763    8    0    1
 -2       818       819       933      3278      3655      3656
 -1      1764    8    0    1
 -2       914       818       933      3584      3656      3657
 -1      1765    8    0    1
 -2       819       853       933      3386      3658      3655
 -1      1766    8    0    1
 -2       848       821       934      3366      3659      3660
 -1      1767    8    0    1
 -2       849       830       935      3371      3661      3662
 -1      1768    8    0    1
 -2       830       926       935      3624      3663      3661
 -1      1769    8    0    1
 -2       740       917       854      3596      3664      3394
 -1      1770    8    0    1
 -2       737       843       922      3346      3665      3610
 -1      1771    8    0    1
 -2       827       924       918      3617      3666      3597
 -1      1772    8    0    1
 -2       917       825       936      3595      3667      3668
 -1      1773    8    0    1
 -2       825       925       936      3619      3669      3667
 -1      1774    8    0    1
 -2       920       822       937      3604      3670      3671
 -1      1775    8    0    1
 -2       822       857       937      3406      3672      3670
 -1      1776    8    0    1
 -2       919       786       938      3602      3673      3674
 -1      1777    8    0    1
 -2       786       831       938      3308      3675      3673
 -1      1778    8    0    1
 -2       831       788       939      3309      3676      3677
 -1      1779    8    0    1
 -2       938       831       939      3675      3677      3678
 -1      1780    8    0    1
 -2       788       893       939      3517      3679      3676
 -1      1781    8    0    1
 -2       836       920       898      3605      3680      3620
 -1      1782    8    0    1
 -2       924       837       940      3616      3681      3682
 -1      1783    8    0    1
 -2       837       854       940      3396      3683      3681
 -1      1784    8    0    1
 -2       739       842       941      3342      3684      3685
 -1      1785    8    0    1
 -2       739       941       857      3685      3686      3407
 -1      1786    8    0    1
 -2       727       743       798      3033      3534      3687
 -1      1787    8    0    1
 -2       853       858       942      3410      3688      3689
 -1      1788    8    0    1
 -2       853       942       933      3689      3690      3658
 -1      1789    8    0    1
 -2       843       929       943      3640      3691      3692
 -1      1790    8    0    1
 -2       843       943       922      3692      3693      3665
 -1      1791    8    0    1
 -2       894       895       944      3524      3694      3695
 -1      1792    8    0    1
 -2       862       861       945      3425      3696      3697
 -1      1793    8    0    1
 -2       863       862       946      3428      3698      3699
 -1      1794    8    0    1
 -2       862       945       946      3697      3700      3698
 -1      1795    8    0    1
 -2       864       863       947      3431      3701      3702
 -1      1796    8    0    1
 -2       863       946       947      3699      3703      3701
 -1      1797    8    0    1
 -2       865       864       948      3434      3704      3705
 -1      1798    8    0    1
 -2       864       947       948      3702      3706      3704
 -1      1799    8    0    1
 -2       866       865       949      3437      3707      3708
 -1      1800    8    0    1
 -2       865       948       949      3705      3709      3707
 -1      1801    8    0    1
 -2       867       866       950      3440      3710      3711
 -1      1802    8    0    1
 -2       866       949       950      3708      3712      3710
 -1      1803    8    0    1
 -2       868       867       951      3443      3713      3714
 -1      1804    8    0    1
 -2       867       950       951      3711      3715      3713
 -1      1805    8    0    1
 -2       869       868       952      3446      3716      3717
 -1      1806    8    0    1
 -2       868       951       952      3714      3718      3716
 -1      1807    8    0    1
 -2       870       869       953      3449      3719      3720
 -1      1808    8    0    1
 -2       869       952       953      3717      3721      3719
 -1      1809    8    0    1
 -2       871       870       954      3452      3722      3723
 -1      1810    8    0    1
 -2       870       953       954      3720      3724      3722
 -1      1811    8    0    1
 -2       872       871       955      3455      3725      3726
 -1      1812    8    0    1
 -2       871       954       955      3723      3727      3725
 -1      1813    8    0    1
 -2       875       873       956      3464      3728      3729
 -1      1814    8    0    1
 -2       876       874       918      3467      3599      3730
 -1      1815    8    0    1
 -2       877       876       957      3470      3731      3732
 -1      1816    8    0    1
 -2       878       877       958      3473      3733      3734
 -1      1817    8    0    1
 -2       877       957       958      3732      3735      3733
 -1      1818    8    0    1
 -2       879       878       959      3476      3736      3737
 -1      1819    8    0    1
 -2       878       958       959      3734      3738      3736
 -1      1820    8    0    1
 -2       880       879       960      3479      3739      3740
 -1      1821    8    0    1
 -2       879       959       960      3737      3741      3739
 -1      1822    8    0    1
 -2       881       880       961      3482      3742      3743
 -1      1823    8    0    1
 -2       880       960       961      3740      3744      3742
 -1      1824    8    0    1
 -2       882       881       962      3485      3745      3746
 -1      1825    8    0    1
 -2       881       961       962      3743      3747      3745
 -1      1826    8    0    1
 -2       883       882       963      3488      3748      3749
 -1      1827    8    0    1
 -2       882       962       963      3746      3750      3748
 -1      1828    8    0    1
 -2       884       883       964      3491      3751      3752
 -1      1829    8    0    1
 -2       883       963       964      3749      3753      3751
 -1      1830    8    0    1
 -2       885       884       965      3494      3754      3755
 -1      1831    8    0    1
 -2       884       964       965      3752      3756      3754
 -1      1832    8    0    1
 -2       886       885       966      3497      3757      3758
 -1      1833    8    0    1
 -2       885       965       966      3755      3759      3757
 -1      1834    8    0    1
 -2       887       886       967      3500      3760      3761
 -1      1835    8    0    1
 -2       886       966       967      3758      3762      3760
 -1      1836    8    0    1
 -2       888       887       968      3503      3763      3764
 -1      1837    8    0    1
 -2       887       967       968      3761      3765      3763
 -1      1838    8    0    1
 -2       889       888       969      3506      3766      3767
 -1      1839    8    0    1
 -2       888       968       969      3764      3768      3766
 -1      1840    8    0    1
 -2       861       859       970      3422      3769      3770
 -1      1841    8    0    1
 -2       861       970       945      3770      3771      3696
 -1      1842    8    0    1
 -2       892       860       971      3515      3772      3773
 -1      1843    8    0    1
 -2       860       894       972      3521      3774      3775
 -1      1844    8    0    1
 -2       971       860       972      3772      3775      3776
 -1      1845    8    0    1
 -2       894       944       972      3695      3777      3774
 -1      1846    8    0    1
 -2       893       892       973      3518      3778      3779
 -1      1847    8    0    1
 -2       892       971       973      3773      3780      3778
 -1      1848    8    0    1
 -2       895       896       974      3527      3781      3782
 -1      1849    8    0    1
 -2       895       974       944      3782      3783      3694
 -1      1850    8    0    1
 -2       896       897       975      3530      3784      3785
 -1      1851    8    0    1
 -2       896       975       974      3785      3786      3781
 -1      1852    8    0    1
 -2       897       898       920      3533      3680      3787
 -1      1853    8    0    1
 -2       891       899       925      3541      3788      3649
 -1      1854    8    0    1
 -2       901       902       976      3550      3789      3790
 -1      1855    8    0    1
 -2       902       903       977      3553      3791      3792
 -1      1856    8    0    1
 -2       902       977       976      3792      3793      3789
 -1      1857    8    0    1
 -2       903       904       978      3556      3794      3795
 -1      1858    8    0    1
 -2       903       978       977      3795      3796      3791
 -1      1859    8    0    1
 -2       904       905       979      3559      3797      3798
 -1      1860    8    0    1
 -2       904       979       978      3798      3799      3794
 -1      1861    8    0    1
 -2       905       906       980      3562      3800      3801
 -1      1862    8    0    1
 -2       905       980       979      3801      3802      3797
 -1      1863    8    0    1
 -2       906       907       981      3565      3803      3804
 -1      1864    8    0    1
 -2       906       981       980      3804      3805      3800
 -1      1865    8    0    1
 -2       907       908       982      3568      3806      3807
 -1      1866    8    0    1
 -2       907       982       981      3807      3808      3803
 -1      1867    8    0    1
 -2       908       909       983      3571      3809      3810
 -1      1868    8    0    1
 -2       908       983       982      3810      3811      3806
 -1      1869    8    0    1
 -2       909       910       984      3574      3812      3813
 -1      1870    8    0    1
 -2       909       984       983      3813      3814      3809
 -1      1871    8    0    1
 -2       910       911       985      3577      3815      3816
 -1      1872    8    0    1
 -2       910       985       984      3816      3817      3812
 -1      1873    8    0    1
 -2       911       912       986      3580      3818      3819
 -1      1874    8    0    1
 -2       911       986       985      3819      3820      3815
 -1      1875    8    0    1
 -2       912       913       987      3583      3821      3822
 -1      1876    8    0    1
 -2       912       987       986      3822      3823      3818
 -1      1877    8    0    1
 -2       913       914       988      3586      3824      3825
 -1      1878    8    0    1
 -2       913       988       987      3825      3826      3821
 -1      1879    8    0    1
 -2       934       821       840      3659      3335      3827
 -1      1880    8    0    1
 -2       928       848       989      3654      3828      3829
 -1      1881    8    0    1
 -2       842       928       990      3638      3830      3831
 -1      1882    8    0    1
 -2       842       990       941      3831      3832      3684
 -1      1883    8    0    1
 -2       848       934       989      3660      3833      3828
 -1      1884    8    0    1
 -2       859       921       991      3608      3834      3835
 -1      1885    8    0    1
 -2       859       991       970      3835      3836      3769
 -1      1886    8    0    1
 -2       845       844       992      3650      3837      3838
 -1      1887    8    0    1
 -2       931       845       992      3647      3838      3839
 -1      1888    8    0    1
 -2       844       930       992      3642      3840      3837
 -1      1889    8    0    1
 -2       918       924       993      3666      3841      3842
 -1      1890    8    0    1
 -2       923       916       994      3615      3843      3844
 -1      1891    8    0    1
 -2       925       899       900      3788      3544      3845
 -1      1892    8    0    1
 -2       914       933       942      3657      3690      3846
 -1      1893    8    0    1
 -2       855       922       995      3612      3847      3848
 -1      1894    8    0    1
 -2       922       943       995      3693      3849      3847
 -1      1895    8    0    1
 -2       926       923       996      3625      3850      3851
 -1      1896    8    0    1
 -2       923       994       996      3844      3852      3850
 -1      1897    8    0    1
 -2       915       889       969      3648      3767      3853
 -1      1898    8    0    1
 -2       856       851       997      3404      3854      3855
 -1      1899    8    0    1
 -2       932       856       997      3653      3855      3856
 -1      1900    8    0    1
 -2       851       890       997      3509      3857      3854
 -1      1901    8    0    1
 -2       858       849       942      3411      3858      3688
 -1      1902    8    0    1
 -2       900       901       936      3547      3859      3860
 -1      1903    8    0    1
 -2       854       917       998      3664      3861      3862
 -1      1904    8    0    1
 -2       897       920       975      3787      3863      3784
 -1      1905    8    0    1
 -2       925       900       936      3845      3860      3669
 -1      1906    8    0    1
 -2       918       993       957      3842      3864      3865
 -1      1907    8    0    1
 -2       993       924       999      3841      3866      3867
 -1      1908    8    0    1
 -2       924       940       999      3682      3868      3866
 -1      1909    8    0    1
 -2       956       873      1000      3728      3869      3870
 -1      1910    8    0    1
 -2       873       931      1000      3646      3871      3869
 -1      1911    8    0    1
 -2       876       918       957      3730      3865      3731
 -1      1912    8    0    1
 -2       840       872       934      3644      3872      3827
 -1      1913    8    0    1
 -2       998       917      1001      3861      3873      3874
 -1      1914    8    0    1
 -2       917       936      1001      3668      3875      3873
 -1      1915    8    0    1
 -2       934       872       955      3872      3726      3876
 -1      1916    8    0    1
 -2       921       927       991      3630      3877      3834
 -1      1917    8    0    1
 -2       855       995       927      3848      3878      3631
 -1      1918    8    0    1
 -2       914       942       988      3846      3879      3824
 -1      1919    8    0    1
 -2       926       996      1002      3851      3880      3881
 -1      1920    8    0    1
 -2       926      1002       935      3881      3882      3663
 -1      1921    8    0    1
 -2       990       928      1003      3830      3883      3884
 -1      1922    8    0    1
 -2       928       989      1003      3829      3885      3883
 -1      1923    8    0    1
 -2       901       976       936      3790      3886      3859
 -1      1924    8    0    1
 -2       849       935       942      3662      3887      3858
 -1      1925    8    0    1
 -2       937       857      1004      3672      3888      3889
 -1      1926    8    0    1
 -2       857       941      1004      3686      3890      3888
 -1      1927    8    0    1
 -2       939       893      1005      3679      3891      3892
 -1      1928    8    0    1
 -2       893       973      1005      3779      3893      3891
 -1      1929    8    0    1
 -2       940       854       998      3683      3862      3894
 -1      1930    8    0    1
 -2       916       915       969      3594      3853      3895
 -1      1931    8    0    1
 -2       994       916       969      3843      3895      3896
 -1      1932    8    0    1
 -2       919       938      1006      3674      3897      3898
 -1      1933    8    0    1
 -2       989       934       955      3833      3876      3899
 -1      1934    8    0    1
 -2       920       937       975      3671      3900      3863
 -1      1935    8    0    1
 -2       929       932      1007      3652      3901      3902
 -1      1936    8    0    1
 -2       930       919      1008      3643      3903      3904
 -1      1937    8    0    1
 -2       919      1006      1008      3898      3905      3903
 -1      1938    8    0    1
 -2       943       929      1009      3691      3906      3907
 -1      1939    8    0    1
 -2       929      1007      1009      3902      3908      3906
 -1      1940    8    0    1
 -2       991       927       995      3877      3878      3909
 -1      1941    8    0    1
 -2       875       956       997      3729      3910      3911
 -1      1942    8    0    1
 -2       947       946      1010      3703      3912      3913
 -1      1943    8    0    1
 -2       948       947      1011      3706      3914      3915
 -1      1944    8    0    1
 -2       947      1010      1011      3913      3916      3914
 -1      1945    8    0    1
 -2       949       948      1012      3709      3917      3918
 -1      1946    8    0    1
 -2       948      1011      1012      3915      3919      3917
 -1      1947    8    0    1
 -2       950       949      1013      3712      3920      3921
 -1      1948    8    0    1
 -2       949      1012      1013      3918      3922      3920
 -1      1949    8    0    1
 -2       951       950      1014      3715      3923      3924
 -1      1950    8    0    1
 -2       950      1013      1014      3921      3925      3923
 -1      1951    8    0    1
 -2       952       951      1015      3718      3926      3927
 -1      1952    8    0    1
 -2       951      1014      1015      3924      3928      3926
 -1      1953    8    0    1
 -2       953       952      1016      3721      3929      3930
 -1      1954    8    0    1
 -2       952      1015      1016      3927      3931      3929
 -1      1955    8    0    1
 -2       954       953      1017      3724      3932      3933
 -1      1956    8    0    1
 -2       953      1016      1017      3930      3934      3932
 -1      1957    8    0    1
 -2       955       954      1018      3727      3935      3936
 -1      1958    8    0    1
 -2       989       955      1018      3899      3936      3937
 -1      1959    8    0    1
 -2       954      1017      1018      3933      3938      3935
 -1      1960    8    0    1
 -2       945       970      1019      3771      3939      3940
 -1      1961    8    0    1
 -2       959       958      1020      3738      3941      3942
 -1      1962    8    0    1
 -2       960       959      1021      3741      3943      3944
 -1      1963    8    0    1
 -2       959      1020      1021      3942      3945      3943
 -1      1964    8    0    1
 -2       961       960      1022      3744      3946      3947
 -1      1965    8    0    1
 -2       960      1021      1022      3944      3948      3946
 -1      1966    8    0    1
 -2       962       961      1023      3747      3949      3950
 -1      1967    8    0    1
 -2       961      1022      1023      3947      3951      3949
 -1      1968    8    0    1
 -2       963       962      1024      3750      3952      3953
 -1      1969    8    0    1
 -2       962      1023      1024      3950      3954      3952
 -1      1970    8    0    1
 -2       964       963      1025      3753      3955      3956
 -1      1971    8    0    1
 -2       963      1024      1025      3953      3957      3955
 -1      1972    8    0    1
 -2       965       964      1026      3756      3958      3959
 -1      1973    8    0    1
 -2       964      1025      1026      3956      3960      3958
 -1      1974    8    0    1
 -2       966       965      1027      3759      3961      3962
 -1      1975    8    0    1
 -2       965      1026      1027      3959      3963      3961
 -1      1976    8    0    1
 -2       967       966      1028      3762      3964      3965
 -1      1977    8    0    1
 -2       966      1027      1028      3962      3966      3964
 -1      1978    8    0    1
 -2       968       967      1029      3765      3967      3968
 -1      1979    8    0    1
 -2       967      1028      1029      3965      3969      3967
 -1      1980    8    0    1
 -2       969       968      1030      3768      3970      3971
 -1      1981    8    0    1
 -2       994       969      1030      3896      3971      3972
 -1      1982    8    0    1
 -2       968      1029      1030      3968      3973      3970
 -1      1983    8    0    1
 -2       890       875       997      3510      3911      3857
 -1      1984    8    0    1
 -2       973       971      1031      3780      3974      3975
 -1      1985    8    0    1
 -2       978       979      1032      3799      3976      3977
 -1      1986    8    0    1
 -2       977       978      1033      3796      3978      3979
 -1      1987    8    0    1
 -2       978      1032      1033      3977      3980      3978
 -1      1988    8    0    1
 -2       976       977      1034      3793      3981      3982
 -1      1989    8    0    1
 -2       977      1033      1034      3979      3983      3981
 -1      1990    8    0    1
 -2       979       980      1035      3802      3984      3985
 -1      1991    8    0    1
 -2       979      1035      1032      3985      3986      3976
 -1      1992    8    0    1
 -2       980       981      1036      3805      3987      3988
 -1      1993    8    0    1
 -2       980      1036      1035      3988      3989      3984
 -1      1994    8    0    1
 -2       981       982      1037      3808      3990      3991
 -1      1995    8    0    1
 -2       981      1037      1036      3991      3992      3987
 -1      1996    8    0    1
 -2       982       983      1038      3811      3993      3994
 -1      1997    8    0    1
 -2       982      1038      1037      3994      3995      3990
 -1      1998    8    0    1
 -2       983       984      1039      3814      3996      3997
 -1      1999    8    0    1
 -2       983      1039      1038      3997      3998      3993
 -1      2000    8    0    1
 -2       984       985      1040      3817      3999      4000
 -1      2001    8    0    1
 -2       984      1040      1039      4000      4001      3996
 -1      2002    8    0    1
 -2       985       986      1041      3820      4002      4003
 -1      2003    8    0    1
 -2       985      1041      1040      4003      4004      3999
 -1      2004    8    0    1
 -2       986       987      1042      3823      4005      4006
 -1      2005    8    0    1
 -2       986      1042      1041      4006      4007      4002
 -1      2006    8    0    1
 -2       988       942       935      3879      3887      4008
 -1      2007    8    0    1
 -2       970       991      1043      3836      4009      4010
 -1      2008    8    0    1
 -2       970      1043      1019      4010      4011      3939
 -1      2009    8    0    1
 -2       941       990      1044      3832      4012      4013
 -1      2010    8    0    1
 -2       941      1044      1004      4013      4014      3890
 -1      2011    8    0    1
 -2       932       997       956      3856      3910      4015
 -1      2012    8    0    1
 -2       946       945      1045      3700      4016      4017
 -1      2013    8    0    1
 -2       945      1019      1045      3940      4018      4016
 -1      2014    8    0    1
 -2       746       727       798      3044      3687      4019
 -1      2015    8    0    1
 -2       938       939      1046      3678      4020      4021
 -1      2016    8    0    1
 -2      1006       938      1046      3897      4021      4022
 -1      2017    8    0    1
 -2       939      1005      1046      3892      4023      4020
 -1      2018    8    0    1
 -2       958       957      1047      3735      4024      4025
 -1      2019    8    0    1
 -2      1020       958      1047      3941      4025      4026
 -1      2020    8    0    1
 -2       957       993      1047      3864      4027      4024
 -1      2021    8    0    1
 -2      1007       932       956      3901      4015      4028
 -1      2022    8    0    1
 -2       944       974      1048      3783      4029      4030
 -1      2023    8    0    1
 -2       940       998      1049      3894      4031      4032
 -1      2024    8    0    1
 -2       995       943      1050      3849      4033      4034
 -1      2025    8    0    1
 -2       943      1009      1050      3907      4035      4033
 -1      2026    8    0    1
 -2       996       994      1051      3852      4036      4037
 -1      2027    8    0    1
 -2       994      1030      1051      3972      4038      4036
 -1      2028    8    0    1
 -2       936       976      1001      3886      4039      3875
 -1      2029    8    0    1
 -2      1007       956      1000      4028      3870      4040
 -1      2030    8    0    1
 -2       975       937      1052      3900      4041      4042
 -1      2031    8    0    1
 -2       974       975      1052      3786      4042      4043
 -1      2032    8    0    1
 -2       937      1004      1052      3889      4044      4041
 -1      2033    8    0    1
 -2       991       995      1050      3909      4034      4045
 -1      2034    8    0    1
 -2       746       798       834      4019      3536      3601
 -1      2035    8    0    1
 -2       988       935      1053      4008      4046      4047
 -1      2036    8    0    1
 -2       987       988      1053      3826      4047      4048
 -1      2037    8    0    1
 -2       935      1002      1053      3882      4049      4046
 -1      2038    8    0    1
 -2       946      1045      1010      4017      4050      3912
 -1      2039    8    0    1
 -2       993       999      1047      3867      4051      4027
 -1      2040    8    0    1
 -2      1000       931      1054      3871      4052      4053
 -1      2041    8    0    1
 -2       931       992      1054      3839      4054      4052
 -1      2042    8    0    1
 -2       989      1018      1003      3937      4055      3885
 -1      2043    8    0    1
 -2      1049       998      1055      4031      4056      4057
 -1      2044    8    0    1
 -2       998      1001      1055      3874      4058      4056
 -1      2045    8    0    1
 -2       987      1053      1042      4048      4059      4005
 -1      2046    8    0    1
 -2      1007      1000      1056      4040      4060      4061
 -1      2047    8    0    1
 -2      1001       976      1034      4039      3982      4062
 -1      2048    8    0    1
 -2       971       972      1057      3776      4063      4064
 -1      2049    8    0    1
 -2       971      1057      1031      4064      4065      3974
 -1      2050    8    0    1
 -2      1002       996      1058      3880      4066      4067
 -1      2051    8    0    1
 -2       996      1051      1058      4037      4068      4066
 -1      2052    8    0    1
 -2      1007      1056      1059      4061      4069      4070
 -1      2053    8    0    1
 -2      1007      1059      1009      4070      4071      3908
 -1      2054    8    0    1
 -2      1043       991      1050      4009      4045      4072
 -1      2055    8    0    1
 -2      1044       990      1060      4012      4073      4074
 -1      2056    8    0    1
 -2       990      1003      1060      3884      4075      4073
 -1      2057    8    0    1
 -2       944      1048      1061      4030      4076      4077
 -1      2058    8    0    1
 -2       944      1061       972      4077      4078      3777
 -1      2059    8    0    1
 -2      1005       973      1062      3893      4079      4080
 -1      2060    8    0    1
 -2       973      1031      1062      3975      4081      4079
 -1      2061    8    0    1
 -2       992       930      1063      3840      4082      4083
 -1      2062    8    0    1
 -2      1054       992      1063      4054      4083      4084
 -1      2063    8    0    1
 -2       930      1008      1063      3904      4085      4082
 -1      2064    8    0    1
 -2       999       940      1049      3868      4032      4086
 -1      2065    8    0    1
 -2      1008      1006      1064      3905      4087      4088
 -1      2066    8    0    1
 -2      1048       974      1052      4029      4043      4089
 -1      2067    8    0    1
 -2      1006      1046      1065      4022      4090      4091
 -1      2068    8    0    1
 -2      1006      1065      1064      4091      4092      4087
 -1      2069    8    0    1
 -2      1012      1011      1066      3919      4093      4094
 -1      2070    8    0    1
 -2      1013      1012      1067      3922      4095      4096
 -1      2071    8    0    1
 -2      1012      1066      1067      4094      4097      4095
 -1      2072    8    0    1
 -2      1014      1013      1068      3925      4098      4099
 -1      2073    8    0    1
 -2      1013      1067      1068      4096      4100      4098
 -1      2074    8    0    1
 -2      1015      1014      1069      3928      4101      4102
 -1      2075    8    0    1
 -2      1014      1068      1069      4099      4103      4101
 -1      2076    8    0    1
 -2      1016      1015      1070      3931      4104      4105
 -1      2077    8    0    1
 -2      1015      1069      1070      4102      4106      4104
 -1      2078    8    0    1
 -2      1017      1016      1071      3934      4107      4108
 -1      2079    8    0    1
 -2      1016      1070      1071      4105      4109      4107
 -1      2080    8    0    1
 -2      1018      1017      1072      3938      4110      4111
 -1      2081    8    0    1
 -2      1003      1018      1072      4055      4111      4112
 -1      2082    8    0    1
 -2      1017      1071      1072      4108      4113      4110
 -1      2083    8    0    1
 -2      1056      1000      1054      4060      4053      4114
 -1      2084    8    0    1
 -2      1001      1034      1055      4062      4115      4058
 -1      2085    8    0    1
 -2      1033      1032      1073      3980      4116      4117
 -1      2086    8    0    1
 -2      1022      1021      1074      3948      4118      4119
 -1      2087    8    0    1
 -2      1023      1022      1075      3951      4120      4121
 -1      2088    8    0    1
 -2      1022      1074      1075      4119      4122      4120
 -1      2089    8    0    1
 -2      1024      1023      1076      3954      4123      4124
 -1      2090    8    0    1
 -2      1023      1075      1076      4121      4125      4123
 -1      2091    8    0    1
 -2      1025      1024      1077      3957      4126      4127
 -1      2092    8    0    1
 -2      1024      1076      1077      4124      4128      4126
 -1      2093    8    0    1
 -2      1026      1025      1078      3960      4129      4130
 -1      2094    8    0    1
 -2      1025      1077      1078      4127      4131      4129
 -1      2095    8    0    1
 -2      1027      1026      1079      3963      4132      4133
 -1      2096    8    0    1
 -2      1026      1078      1079      4130      4134      4132
 -1      2097    8    0    1
 -2      1028      1027      1080      3966      4135      4136
 -1      2098    8    0    1
 -2      1027      1079      1080      4133      4137      4135
 -1      2099    8    0    1
 -2      1029      1028      1081      3969      4138      4139
 -1      2100    8    0    1
 -2      1028      1080      1081      4136      4140      4138
 -1      2101    8    0    1
 -2      1030      1029      1082      3973      4141      4142
 -1      2102    8    0    1
 -2      1051      1030      1082      4038      4142      4143
 -1      2103    8    0    1
 -2      1029      1081      1082      4139      4144      4141
 -1      2104    8    0    1
 -2      1035      1036      1083      3989      4145      4146
 -1      2105    8    0    1
 -2      1032      1035      1084      3986      4147      4148
 -1      2106    8    0    1
 -2      1032      1084      1073      4148      4149      4116
 -1      2107    8    0    1
 -2      1053      1002      1058      4049      4067      4150
 -1      2108    8    0    1
 -2      1034      1033      1085      3983      4151      4152
 -1      2109    8    0    1
 -2      1055      1034      1085      4115      4152      4153
 -1      2110    8    0    1
 -2      1033      1073      1085      4117      4154      4151
 -1      2111    8    0    1
 -2      1036      1037      1086      3992      4155      4156
 -1      2112    8    0    1
 -2      1036      1086      1083      4156      4157      4145
 -1      2113    8    0    1
 -2      1037      1038      1087      3995      4158      4159
 -1      2114    8    0    1
 -2      1037      1087      1086      4159      4160      4155
 -1      2115    8    0    1
 -2      1038      1039      1088      3998      4161      4162
 -1      2116    8    0    1
 -2      1038      1088      1087      4162      4163      4158
 -1      2117    8    0    1
 -2      1039      1040      1089      4001      4164      4165
 -1      2118    8    0    1
 -2      1039      1089      1088      4165      4166      4161
 -1      2119    8    0    1
 -2      1040      1041      1090      4004      4167      4168
 -1      2120    8    0    1
 -2      1040      1090      1089      4168      4169      4164
 -1      2121    8    0    1
 -2      1041      1042      1091      4007      4170      4171
 -1      2122    8    0    1
 -2      1041      1091      1090      4171      4172      4167
 -1      2123    8    0    1
 -2      1042      1053      1058      4059      4150      4173
 -1      2124    8    0    1
 -2      1010      1045      1092      4050      4174      4175
 -1      2125    8    0    1
 -2      1045      1019      1093      4018      4176      4177
 -1      2126    8    0    1
 -2      1045      1093      1092      4177      4178      4174
 -1      2127    8    0    1
 -2      1046      1005      1094      4023      4179      4180
 -1      2128    8    0    1
 -2      1005      1062      1094      4080      4181      4179
 -1      2129    8    0    1
 -2      1050      1009      1095      4035      4182      4183
 -1      2130    8    0    1
 -2      1043      1050      1095      4072      4183      4184
 -1      2131    8    0    1
 -2      1009      1059      1095      4071      4185      4182
 -1      2132    8    0    1
 -2      1021      1020      1096      3945      4186      4187
 -1      2133    8    0    1
 -2      1021      1096      1074      4187      4188      4118
 -1      2134    8    0    1
 -2      1011      1010      1097      3916      4189      4190
 -1      2135    8    0    1
 -2      1010      1092      1097      4175      4191      4189
 -1      2136    8    0    1
 -2      1004      1044      1052      4014      4192      4044
 -1      2137    8    0    1
 -2      1048      1052      1044      4089      4192      4193
 -1      2138    8    0    1
 -2       999      1049      1098      4086      4194      4195
 -1      2139    8    0    1
 -2       999      1098      1047      4195      4196      4051
 -1      2140    8    0    1
 -2      1008      1064      1099      4088      4197      4198
 -1      2141    8    0    1
 -2      1008      1099      1063      4198      4199      4085
 -1      2142    8    0    1
 -2      1019      1043      1095      4011      4184      4200
 -1      2143    8    0    1
 -2      1048      1044      1100      4193      4201      4202
 -1      2144    8    0    1
 -2      1061      1048      1100      4076      4202      4203
 -1      2145    8    0    1
 -2      1044      1060      1100      4074      4204      4201
 -1      2146    8    0    1
 -2      1020      1047      1098      4026      4196      4205
 -1      2147    8    0    1
 -2      1056      1054      1101      4114      4206      4207
 -1      2148    8    0    1
 -2      1011      1097      1066      4190      4208      4093
 -1      2149    8    0    1
 -2      1056      1101      1059      4207      4209      4069
 -1      2150    8    0    1
 -2      1057       972      1061      4063      4078      4210
 -1      2151    8    0    1
 -2      1035      1083      1084      4146      4211      4147
 -1      2152    8    0    1
 -2      1031      1057      1102      4065      4212      4213
 -1      2153    8    0    1
 -2      1049      1055      1103      4057      4214      4215
 -1      2154    8    0    1
 -2      1098      1049      1103      4194      4215      4216
 -1      2155    8    0    1
 -2      1055      1085      1103      4153      4217      4214
 -1      2156    8    0    1
 -2      1042      1058      1091      4173      4218      4170
 -1      2157    8    0    1
 -2      1093      1019      1095      4176      4200      4219
 -1      2158    8    0    1
 -2      1046      1094      1065      4180      4220      4090
 -1      2159    8    0    1
 -2      1060      1003      1072      4075      4112      4221
 -1      2160    8    0    1
 -2      1062      1031      1104      4081      4222      4223
 -1      2161    8    0    1
 -2      1031      1102      1104      4213      4224      4222
 -1      2162    8    0    1
 -2      1020      1098      1096      4205      4225      4186
 -1      2163    8    0    1
 -2      1099      1064      1105      4197      4226      4227
 -1      2164    8    0    1
 -2      1064      1065      1106      4092      4228      4229
 -1      2165    8    0    1
 -2      1064      1106      1105      4229      4230      4226
 -1      2166    8    0    1
 -2      1067      1066      1107      4097      4231      4232
 -1      2167    8    0    1
 -2      1083      1086      1108      4157      4233      4234
 -1      2168    8    0    1
 -2      1066      1097      1106      4208      4235      4236
 -1      2169    8    0    1
 -2      1068      1067      1109      4100      4237      4238
 -1      2170    8    0    1
 -2      1067      1107      1109      4232      4239      4237
 -1      2171    8    0    1
 -2      1069      1068      1104      4103      4240      4241
 -1      2172    8    0    1
 -2      1070      1069      1102      4106      4242      4243
 -1      2173    8    0    1
 -2      1051      1082      1110      4143      4244      4245
 -1      2174    8    0    1
 -2      1102      1057      1111      4212      4246      4247
 -1      2175    8    0    1
 -2      1057      1061      1111      4210      4248      4246
 -1      2176    8    0    1
 -2      1076      1075      1108      4125      4249      4250
 -1      2177    8    0    1
 -2      1077      1076      1112      4128      4251      4252
 -1      2178    8    0    1
 -2      1076      1108      1112      4250      4253      4251
 -1      2179    8    0    1
 -2      1078      1077      1113      4131      4254      4255
 -1      2180    8    0    1
 -2      1077      1112      1113      4252      4256      4254
 -1      2181    8    0    1
 -2      1079      1078      1114      4134      4257      4258
 -1      2182    8    0    1
 -2      1078      1113      1114      4255      4259      4257
 -1      2183    8    0    1
 -2      1080      1079      1115      4137      4260      4261
 -1      2184    8    0    1
 -2      1079      1114      1115      4258      4262      4260
 -1      2185    8    0    1
 -2      1081      1080      1115      4140      4261      4263
 -1      2186    8    0    1
 -2      1082      1081      1116      4144      4264      4265
 -1      2187    8    0    1
 -2      1110      1082      1116      4244      4265      4266
 -1      2188    8    0    1
 -2      1081      1115      1116      4263      4267      4264
 -1      2189    8    0    1
 -2      1096      1098      1103      4225      4216      4268
 -1      2190    8    0    1
 -2      1075      1074      1117      4122      4269      4270
 -1      2191    8    0    1
 -2      1073      1084      1117      4149      4271      4272
 -1      2192    8    0    1
 -2      1058      1051      1110      4068      4245      4273
 -1      2193    8    0    1
 -2      1088      1089      1114      4166      4274      4275
 -1      2194    8    0    1
 -2      1089      1090      1115      4169      4276      4277
 -1      2195    8    0    1
 -2      1090      1091      1116      4172      4278      4279
 -1      2196    8    0    1
 -2      1093      1095      1059      4219      4185      4280
 -1      2197    8    0    1
 -2      1092      1093      1118      4178      4281      4282
 -1      2198    8    0    1
 -2      1084      1083      1117      4211      4283      4271
 -1      2199    8    0    1
 -2      1065      1094      1107      4220      4284      4285
 -1      2200    8    0    1
 -2      1094      1062      1109      4181      4286      4287
 -1      2201    8    0    1
 -2      1091      1058      1110      4218      4273      4288
 -1      2202    8    0    1
 -2      1097      1092      1105      4191      4289      4290
 -1      2203    8    0    1
 -2      1087      1088      1113      4163      4291      4292
 -1      2204    8    0    1
 -2      1102      1069      1104      4242      4241      4224
 -1      2205    8    0    1
 -2      1060      1072      1119      4221      4293      4294
 -1      2206    8    0    1
 -2      1100      1060      1119      4204      4294      4295
 -1      2207    8    0    1
 -2      1072      1071      1119      4113      4296      4293
 -1      2208    8    0    1
 -2      1086      1087      1112      4160      4297      4298
 -1      2209    8    0    1
 -2      1054      1063      1101      4084      4299      4206
 -1      2210    8    0    1
 -2      1059      1101      1093      4209      4300      4280
 -1      2211    8    0    1
 -2      1099      1105      1118      4227      4301      4302
 -1      2212    8    0    1
 -2      1063      1099      1101      4199      4303      4299
 -1      2213    8    0    1
 -2      1074      1096      1120      4188      4304      4305
 -1      2214    8    0    1
 -2      1117      1074      1120      4269      4305      4306
 -1      2215    8    0    1
 -2      1096      1103      1120      4268      4307      4304
 -1      2216    8    0    1
 -2      1070      1102      1111      4243      4247      4308
 -1      2217    8    0    1
 -2      1097      1105      1106      4290      4230      4235
 -1      2218    8    0    1
 -2      1091      1110      1116      4288      4266      4278
 -1      2219    8    0    1
 -2      1105      1092      1118      4289      4282      4301
 -1      2220    8    0    1
 -2      1083      1108      1117      4234      4309      4283
 -1      2221    8    0    1
 -2      1066      1106      1107      4236      4310      4231
 -1      2222    8    0    1
 -2      1068      1109      1104      4238      4311      4240
 -1      2223    8    0    1
 -2      1088      1114      1113      4275      4259      4291
 -1      2224    8    0    1
 -2      1071      1070      1111      4109      4308      4312
 -1      2225    8    0    1
 -2      1086      1112      1108      4298      4253      4233
 -1      2226    8    0    1
 -2      1111      1061      1100      4248      4203      4313
 -1      2227    8    0    1
 -2      1108      1075      1117      4249      4270      4309
 -1      2228    8    0    1
 -2      1115      1090      1116      4276      4279      4267
 -1      2229    8    0    1
 -2      1073      1117      1120      4272      4306      4314
 -1      2230    8    0    1
 -2      1114      1089      1115      4274      4277      4262
 -1      2231    8    0    1
 -2      1085      1073      1120      4154      4314      4315
 -1      2232    8    0    1
 -2      1065      1107      1106      4285      4310      4228
 -1      2233    8    0    1
 -2      1109      1062      1104      4286      4223      4311
 -1      2234    8    0    1
 -2      1107      1094      1109      4284      4287      4239
 -1      2235    8    0    1
 -2      1087      1113      1112      4292      4256      4297
 -1      2236    8    0    1
 -2      1101      1099      1118      4303      4302      4316
 -1      2237    8    0    1
 -2      1103      1085      1120      4217      4315      4307
 -1      2238    8    0    1
 -2      1119      1071      1111      4296      4312      4317
 -1      2239    8    0    1
 -2      1119      1111      1100      4317      4313      4295
 -1      2240    8    0    1
 -2      1093      1101      1118      4300      4316      4281
 -3
    1PSTEP                         1           1           1          
  100CL  101 1.000000000        4317                     0    1           1
 -4  DISP        4    1
 -5  D1          1    2    1    0
 -5  D2          1    2    2    0
 -5  D3          1    2    3    0
 -5  ALL         1    2    0    0    1ALL
 -1         1 5.69756E-03-6.02586E-04-2.55829E-15
 -1         2 9.78422E-03-2.66111E-04-4.93082E-15
 -1         3 1.48634E-02-2.92947E-04-2.94341E-14
 -1         4 1.55352E-02-1.71717E-03-2.96569E-14
 -1         5 0.00000E+00 0.00000E+00 0.00000E+00
 -1         6 0.00000E+00 0.00000E+00 0.00000E+00
 -1         7 0.00000E+00 0.00000E+00 0.00000E+00
 -1         8 0.00000E+00 0.00000E+00 0.00000E+00
 -1         9 0.00000E+00 0.00000E+00 0.00000E+00
 -1        10 0.00000E+00 0.00000E+00 0.00000E+00
 -1        11 0.00000E+00 0.00000E+00 0.00000E+00
 -1        12 0.00000E+00 0.00000E+00 0.00000E+00
 -1        13 0.00000E+00 0.00000E+00 0.00000E+00
 -1        14 0.00000E+00 0.00000E+00 0.00000E+00
 -1        15 0.00000E+00 0.00000E+00 0.00000E+00
 -1        16 0.00000E+00 0.00000E+00 0.00000E+00
 -1        17 0.00000E+00 0.00000E+00 0.00000E+00
 -1        18 0.00000E+00 0.00000E+00 0.00000E+00
 -1        19 0.00000E+00 0.00000E+00 0.00000E+00
 -1        20 0.00000E+00 0.00000E+00 0.00000E+00
 -1        21 0.00000E+00 0.00000E+00 0.00000E+00
 -1        22 0.00000E+00 0.00000E+00 0.00000E+00
 -1        23 4.09721E-04-2.59230E-04 3.92684E-18
 -1        24 7.00714E-04-3.97719E-04 8.35513E-18
 -1        25 9.70151E-04-4.92901E-04 1.21193E-17
 -1        26 1.23435E-03-5.58955E-04 1.38405E-17
 -1        27 1.49801E-03-6.04937E-04 1.14045E-17
 -1        28 1.76342E-03-6.36143E-04 5.95295E-18
 -1        29 2.03179E-03-6.56203E-04-4.63496E-18
 -1        30 2.30385E-03-6.67768E-04-2.33510E-17
 -1        31 2.58018E-03-6.72877E-04-5.37019E-17
 -1        32 2.86133E-03-6.73181E-04-9.76731E-17
 -1        33 3.14794E-03-6.70129E-04-1.55993E-16
 -1        34 3.44089E-03-6.65139E-04-2.27296E-16
 -1        35 3.74129E-03-6.59785E-04-3.15865E-16
 -1        36 4.05057E-03-6.56025E-04-4.17963E-16
 -1        37 4.37040E-03-6.56461E-04-5.37104E-16
 -1        38 4.70253E-03-6.64629E-04-6.80754E-16
 -1        39 5.04835E-03-6.85252E-04-8.50048E-16
 -1        40 5.40820E-03-7.24272E-04-1.04258E-15
 -1        41 5.78003E-03-7.88300E-04-1.26398E-15
 -1        42 6.15798E-03-8.82871E-04-1.51577E-15
 -1        43 6.53114E-03-1.00892E-03-1.80325E-15
 -1        44 6.88473E-03-1.15777E-03-2.13268E-15
 -1        45 7.20513E-03-1.30725E-03-2.50995E-15
 -1        46 7.48864E-03-1.42436E-03-2.94867E-15
 -1        47 7.74800E-03-1.47789E-03-3.45273E-15
 -1        48 7.99544E-03-1.45872E-03-3.99425E-15
 -1        49 8.28103E-03-1.37828E-03-4.64258E-15
 -1        50 8.60382E-03-1.26750E-03-5.36918E-15
 -1        51 8.95930E-03-1.15900E-03-6.15793E-15
 -1        52 9.33359E-03-1.07414E-03-6.99604E-15
 -1        53 9.71207E-03-1.02086E-03-7.88136E-15
 -1        54 1.00843E-02-9.97839E-04-8.81611E-15
 -1        55 1.04446E-02-9.99425E-04-9.79945E-15
 -1        56 1.07915E-02-1.01908E-03-1.08168E-14
 -1        57 1.11253E-02-1.05103E-03-1.18673E-14
 -1        58 1.14479E-02-1.09080E-03-1.29413E-14
 -1        59 1.17611E-02-1.13516E-03-1.40423E-14
 -1        60 1.20668E-02-1.18191E-03-1.51482E-14
 -1        61 1.23668E-02-1.22960E-03-1.62827E-14
 -1        62 1.26624E-02-1.27734E-03-1.74475E-14
 -1        63 1.29548E-02-1.32460E-03-1.86321E-14
 -1        64 1.32448E-02-1.37112E-03-1.98389E-14
 -1        65 1.35332E-02-1.41678E-03-2.10596E-14
 -1        66 1.38203E-02-1.46157E-03-2.22982E-14
 -1        67 1.41067E-02-1.50555E-03-2.35388E-14
 -1        68 1.43926E-02-1.54880E-03-2.47630E-14
 -1        69 1.46783E-02-1.59144E-03-2.60005E-14
 -1        70 1.49639E-02-1.63359E-03-2.72312E-14
 -1        71 1.52495E-02-1.67543E-03-2.84611E-14
 -1        72 4.12177E-04 2.59930E-04 2.21448E-17
 -1        73 7.00600E-04 4.00433E-04 5.73170E-17
 -1        74 9.70774E-04 4.94715E-04 1.01891E-16
 -1        75 1.23531E-03 5.60756E-04 1.51073E-16
 -1        76 1.49917E-03 6.06892E-04 2.00222E-16
 -1        77 1.76471E-03 6.38355E-04 2.47164E-16
 -1        78 2.03316E-03 6.58794E-04 2.88049E-16
 -1        79 2.30527E-03 6.70903E-04 3.19874E-16
 -1        80 2.58154E-03 6.76783E-04 3.41117E-16
 -1        81 2.86240E-03 6.78170E-04 3.48215E-16
 -1        82 3.14833E-03 6.76606E-04 3.39325E-16
 -1        83 3.43985E-03 6.73597E-04 3.14656E-16
 -1        84 3.73756E-03 6.70751E-04 2.71220E-16
 -1        85 4.04204E-03 6.69914E-04 2.07791E-16
 -1        86 4.35374E-03 6.73262E-04 1.16233E-16
 -1        87 4.67275E-03 6.83333E-04-4.40796E-18
 -1        88 4.99840E-03 7.02903E-04-1.54387E-16
 -1        89 5.32890E-03 7.34606E-04-3.41818E-16
 -1        90 5.66086E-03 7.80188E-04-5.66109E-16
 -1        91 5.98923E-03 8.39339E-04-8.35174E-16
 -1        92 6.30769E-03 9.08285E-04-1.15724E-15
 -1        93 6.61018E-03 9.78739E-04-1.54334E-15
 -1        94 6.89323E-03 1.03821E-03-1.98270E-15
 -1        95 7.15837E-03 1.07252E-03-2.47293E-15
 -1        96 7.41294E-03 1.07034E-03-3.01620E-15
 -1        97 7.66814E-03 1.02761E-03-3.61338E-15
 -1        98 7.93498E-03 9.49286E-04-4.27696E-15
 -1        99 8.22024E-03 8.47207E-04-4.99786E-15
 -1       100 8.52489E-03 7.35531E-04-5.77247E-15
 -1       101 8.84511E-03 6.26374E-04-6.61323E-15
 -1       102 9.17477E-03 5.27532E-04-7.49859E-15
 -1       103 9.50771E-03 4.42369E-04-8.42611E-15
 -1       104 9.83912E-03 3.70953E-04-9.40348E-15
 -1       105 1.01660E-02 3.11465E-04-1.04299E-14
 -1       106 1.04867E-02 2.61340E-04-1.15069E-14
 -1       107 1.08011E-02 2.17986E-04-1.26235E-14
 -1       108 1.11093E-02 1.79152E-04-1.37681E-14
 -1       109 1.14122E-02 1.43054E-04-1.49345E-14
 -1       110 1.17106E-02 1.08373E-04-1.61212E-14
 -1       111 1.20054E-02 7.41918E-05-1.73141E-14
 -1       112 1.22974E-02 3.99118E-05-1.85267E-14
 -1       113 1.25873E-02 5.17318E-06-1.97418E-14
 -1       114 1.28755E-02-3.02129E-05-2.09577E-14
 -1       115 1.31627E-02-6.63181E-05-2.21759E-14
 -1       116 1.34491E-02-1.03138E-04-2.33949E-14
 -1       117 1.37351E-02-1.40617E-04-2.46092E-14
 -1       118 1.40208E-02-1.78670E-04-2.58264E-14
 -1       119 1.43064E-02-2.17181E-04-2.70526E-14
 -1       120 1.45920E-02-2.55992E-04-2.82799E-14
 -1       121 1.49016E-02-3.77261E-04-2.94776E-14
 -1       122 1.49399E-02-4.61644E-04-2.95398E-14
 -1       123 1.49785E-02-5.46035E-04-2.95932E-14
 -1       124 1.50174E-02-6.30319E-04-2.96352E-14
 -1       125 1.50567E-02-7.14408E-04-2.96604E-14
 -1       126 1.50954E-02-7.96846E-04-2.96944E-14
 -1       127 1.51350E-02-8.80492E-04-2.97267E-14
 -1       128 1.51746E-02-9.63989E-04-2.97586E-14
 -1       129 1.52142E-02-1.04744E-03-2.97946E-14
 -1       130 1.52538E-02-1.13094E-03-2.97984E-14
 -1       131 1.52935E-02-1.21461E-03-2.97727E-14
 -1       132 1.53327E-02-1.29707E-03-2.97772E-14
 -1       133 1.53727E-02-1.38118E-03-2.97734E-14
 -1       134 1.54131E-02-1.46549E-03-2.97548E-14
 -1       135 1.54538E-02-1.54990E-03-2.97085E-14
 -1       136 1.54948E-02-1.63429E-03-2.96677E-14
 -1       137 9.71211E-03-8.32671E-05-4.89347E-15
 -1       138 9.55135E-03 8.00044E-05-4.78469E-15
 -1       139 9.30377E-03 2.33009E-04-4.60778E-15
 -1       140 8.97078E-03 3.71210E-04-4.38314E-15
 -1       141 8.55604E-03 4.87011E-04-4.11674E-15
 -1       142 8.12803E-03 5.62022E-04-3.84895E-15
 -1       143 7.63585E-03 6.04069E-04-3.54905E-15
 -1       144 7.17201E-03 6.02459E-04-3.27692E-15
 -1       145 6.70824E-03 5.59100E-04-3.01875E-15
 -1       146 6.30418E-03 4.81106E-04-2.80394E-15
 -1       147 5.96275E-03 3.74016E-04-2.63585E-15
 -1       148 5.69894E-03 2.46270E-04-2.51113E-15
 -1       149 5.49978E-03 8.94492E-05-2.42569E-15
 -1       150 5.40281E-03-7.22255E-05-2.39425E-15
 -1       151 5.40143E-03-2.57031E-04-2.40916E-15
 -1       152 5.50075E-03-4.31008E-04-2.46504E-15
 -1       153 5.97770E-03-7.58504E-04-2.68810E-15
 -1       154 6.35964E-03-9.03295E-04-2.87106E-15
 -1       155 6.78398E-03-1.00971E-03-3.08035E-15
 -1       156 7.28535E-03-1.08171E-03-3.33728E-15
 -1       157 7.76793E-03-1.10177E-03-3.59898E-15
 -1       158 8.24362E-03-1.07545E-03-3.87473E-15
 -1       159 8.70701E-03-1.00034E-03-4.16262E-15
 -1       160 9.08873E-03-8.93110E-04-4.41882E-15
 -1       161 9.41250E-03-7.50272E-04-4.65401E-15
 -1       162 9.62451E-03-6.00771E-04-4.81000E-15
 -1       163 9.75371E-03-4.33712E-04-4.90266E-15
 -1       164 2.40128E-04-1.24529E-04 2.72067E-18
 -1       165 2.25305E-04-9.35878E-05 2.30054E-18
 -1       166 2.19699E-04-7.17181E-05 1.99561E-18
 -1       167 2.16938E-04-5.40936E-05 1.63308E-18
 -1       168 2.15443E-04-3.90902E-05 2.09387E-18
 -1       169 2.14575E-04-2.52685E-05 2.62919E-18
 -1       170 2.14125E-04-1.23012E-05 3.30682E-18
 -1       171 2.13989E-04 2.72370E-07 3.78454E-18
 -1       172 2.14140E-04 1.28586E-05 4.65190E-18
 -1       173 2.14608E-04 2.58663E-05 5.71578E-18
 -1       174 2.15479E-04 3.95188E-05 7.07781E-18
 -1       175 2.17032E-04 5.48973E-05 8.61941E-18
 -1       176 2.19844E-04 7.27515E-05 1.06116E-17
 -1       177 2.25463E-04 9.49815E-05 1.29223E-17
 -1       178 2.39063E-04 1.26591E-04 1.52398E-17
 -1       179 2.96975E-04 1.84310E-04 1.89024E-17
 -1       180 4.67635E-04-2.61400E-04 5.52943E-18
 -1       181 7.65376E-04-3.77954E-04 9.04292E-18
 -1       182 1.04913E-03-4.58319E-04 1.08420E-17
 -1       183 1.32681E-03-5.14009E-04 9.62568E-18
 -1       184 1.60222E-03-5.51943E-04 5.16012E-18
 -1       185 1.87763E-03-5.76700E-04-4.57398E-18
 -1       186 2.15444E-03-5.91492E-04-2.07320E-17
 -1       187 2.43361E-03-5.98694E-04-4.63056E-17
 -1       188 2.71589E-03-6.00146E-04-8.30736E-17
 -1       189 3.00194E-03-5.97363E-04-1.34146E-16
 -1       190 3.29248E-03-5.91719E-04-1.99798E-16
 -1       191 3.58832E-03-5.84632E-04-2.80676E-16
 -1       192 3.89042E-03-5.77780E-04-3.78563E-16
 -1       193 4.19985E-03-5.73355E-04-4.90551E-16
 -1       194 4.51776E-03-5.74369E-04-6.24873E-16
 -1       195 4.84518E-03-5.84981E-04-7.84136E-16
 -1       196 5.18271E-03-6.10742E-04-9.67864E-16
 -1       197 5.53006E-03-6.58485E-04-1.17861E-15
 -1       198 5.88531E-03-7.35365E-04-1.41995E-15
 -1       199 6.24424E-03-8.46269E-04-1.69199E-15
 -1       200 6.60001E-03-9.89061E-04-2.00354E-15
 -1       201 6.94437E-03-1.14869E-03-2.36192E-15
 -1       202 7.27121E-03-1.29472E-03-2.77521E-15
 -1       203 7.58156E-03-1.38886E-03-3.25139E-15
 -1       204 7.87032E-03-1.40536E-03-3.76177E-15
 -1       205 8.18149E-03-1.34669E-03-4.37362E-15
 -1       206 8.50958E-03-1.23830E-03-5.06129E-15
 -1       207 8.85508E-03-1.11842E-03-5.81602E-15
 -1       208 9.21164E-03-1.01669E-03-6.62782E-15
 -1       209 9.57105E-03-9.47201E-04-7.48837E-15
 -1       210 9.92668E-03-9.11521E-04-8.39775E-15
 -1       211 1.02745E-02-9.04528E-04-9.35341E-15
 -1       212 1.06129E-02-9.19074E-04-1.03471E-14
 -1       213 1.09416E-02-9.48463E-04-1.13765E-14
 -1       214 1.12614E-02-9.87358E-04-1.24376E-14
 -1       215 1.15736E-02-1.03187E-03-1.35193E-14
 -1       216 1.18795E-02-1.07934E-03-1.46175E-14
 -1       217 1.21802E-02-1.12803E-03-1.57332E-14
 -1       218 1.24768E-02-1.17684E-03-1.68779E-14
 -1       219 1.27703E-02-1.22515E-03-1.80510E-14
 -1       220 1.30614E-02-1.27263E-03-1.92437E-14
 -1       221 1.33508E-02-1.31913E-03-2.04550E-14
 -1       222 1.36389E-02-1.36464E-03-2.16824E-14
 -1       223 1.39261E-02-1.40921E-03-2.29227E-14
 -1       224 1.42126E-02-1.45294E-03-2.41539E-14
 -1       225 1.44988E-02-1.49594E-03-2.53851E-14
 -1       226 1.47846E-02-1.53835E-03-2.66238E-14
 -1       227 1.50704E-02-1.58033E-03-2.78554E-14
 -1       228 1.52826E-02-1.60732E-03-2.87729E-14
 -1       229 6.03235E-04 3.28098E-04 5.01071E-17
 -1       230 8.92017E-04 4.27545E-04 8.94975E-17
 -1       231 1.17091E-03 4.96607E-04 1.33364E-16
 -1       232 1.44573E-03 5.44463E-04 1.76684E-16
 -1       233 1.71958E-03 5.76826E-04 2.17620E-16
 -1       234 1.99433E-03 5.97626E-04 2.52863E-16
 -1       235 2.27109E-03 6.09716E-04 2.79887E-16
 -1       236 2.55064E-03 6.15281E-04 2.95736E-16
 -1       237 2.83357E-03 6.16096E-04 2.99297E-16
 -1       238 3.12041E-03 6.13715E-04 2.86002E-16
 -1       239 3.41164E-03 6.09629E-04 2.56356E-16
 -1       240 3.70779E-03 6.05427E-04 2.09146E-16
 -1       241 4.00930E-03 6.02937E-04 1.41810E-16
 -1       242 4.31651E-03 6.04346E-04 4.87857E-17
 -1       243 4.62948E-03 6.12252E-04-7.28787E-17
 -1       244 4.94775E-03 6.29585E-04-2.23908E-16
 -1       245 5.27014E-03 6.59263E-04-4.11343E-16
 -1       246 5.59447E-03 7.03473E-04-6.36688E-16
 -1       247 5.91748E-03 7.62473E-04-9.04485E-16
 -1       248 6.23513E-03 8.33046E-04-1.22246E-15
 -1       249 6.54347E-03 9.07173E-04-1.59871E-15
 -1       250 6.84001E-03 9.71998E-04-2.03121E-15
 -1       251 7.12529E-03 1.01221E-03-2.51511E-15
 -1       252 7.40350E-03 1.01489E-03-3.05180E-15
 -1       253 7.68147E-03 9.74665E-04-3.64823E-15
 -1       254 7.96612E-03 8.96156E-04-4.30501E-15
 -1       255 8.26191E-03 7.91870E-04-5.02163E-15
 -1       256 8.56968E-03 6.77101E-04-5.79106E-15
 -1       257 8.88716E-03 5.64988E-04-6.62140E-15
 -1       258 9.21049E-03 4.63926E-04-7.50297E-15
 -1       259 9.53569E-03 3.77458E-04-8.42434E-15
 -1       260 9.85949E-03 3.05562E-04-9.39435E-15
 -1       261 1.01798E-02 2.46214E-04-1.04146E-14
 -1       262 1.04953E-02 1.96625E-04-1.14777E-14
 -1       263 1.08059E-02 1.54017E-04-1.25820E-14
 -1       264 1.11116E-02 1.16001E-04-1.37148E-14
 -1       265 1.14129E-02 8.07034E-05-1.48720E-14
 -1       266 1.17105E-02 4.67533E-05-1.60480E-14
 -1       267 1.20050E-02 1.32075E-05-1.72386E-14
 -1       268 1.22970E-02-2.05402E-05-1.84413E-14
 -1       269 1.25871E-02-5.48460E-05-1.96544E-14
 -1       270 1.28758E-02-8.98896E-05-2.08709E-14
 -1       271 1.31634E-02-1.25731E-04-2.20894E-14
 -1       272 1.34502E-02-1.62353E-04-2.33082E-14
 -1       273 1.37365E-02-1.99691E-04-2.45227E-14
 -1       274 1.40225E-02-2.37650E-04-2.57437E-14
 -1       275 1.43083E-02-2.76109E-04-2.69707E-14
 -1       276 1.45940E-02-3.14908E-04-2.81963E-14
 -1       277 1.46733E-02-3.85683E-04-2.84471E-14
 -1       278 1.47117E-02-4.69925E-04-2.84928E-14
 -1       279 1.47505E-02-5.54060E-04-2.85322E-14
 -1       280 1.47897E-02-6.38035E-04-2.85696E-14
 -1       281 1.48284E-02-7.20400E-04-2.85992E-14
 -1       282 1.48680E-02-8.03999E-04-2.86265E-14
 -1       283 1.49076E-02-8.87450E-04-2.86547E-14
 -1       284 1.49472E-02-9.70821E-04-2.86805E-14
 -1       285 1.49868E-02-1.05419E-03-2.86969E-14
 -1       286 1.50264E-02-1.13765E-03-2.87023E-14
 -1       287 1.50654E-02-1.21984E-03-2.87063E-14
 -1       288 1.51053E-02-1.30364E-03-2.87011E-14
 -1       289 1.51454E-02-1.38763E-03-2.86849E-14
 -1       290 1.51860E-02-1.47178E-03-2.86632E-14
 -1       291 1.52342E-02-1.53953E-03-2.87174E-14
 -1       292 9.78200E-03-2.29475E-04-5.26612E-15
 -1       293 9.61940E-03-1.17521E-04-5.14613E-15
 -1       294 9.35294E-03 1.69868E-05-4.96835E-15
 -1       295 9.00496E-03 1.84212E-04-4.71585E-15
 -1       296 8.59735E-03 3.68445E-04-4.41388E-15
 -1       297 8.19733E-03 5.36827E-04-4.07616E-15
 -1       298 7.80035E-03 6.55746E-04-3.73047E-15
 -1       299 7.42181E-03 6.83418E-04-3.38487E-15
 -1       300 7.04631E-03 6.28691E-04-3.07127E-15
 -1       301 6.65483E-03 5.00097E-04-2.80811E-15
 -1       302 6.27275E-03 3.44946E-04-2.60452E-15
 -1       303 5.92976E-03 1.88912E-04-2.44726E-15
 -1       304 5.63987E-03 3.85857E-05-2.31911E-15
 -1       305 5.43606E-03-6.57351E-05-2.27726E-15
 -1       306 5.35808E-03-1.62729E-04-2.24136E-15
 -1       307 5.43225E-03-2.61033E-04-2.29691E-15
 -1       308 5.63415E-03-3.86349E-04-2.38819E-15
 -1       309 5.93949E-03-5.42542E-04-2.51279E-15
 -1       310 6.33396E-03-7.23930E-04-2.67200E-15
 -1       311 6.73235E-03-9.28400E-04-2.90251E-15
 -1       312 7.15934E-03-1.09243E-03-3.16042E-15
 -1       313 7.55725E-03-1.17556E-03-3.46628E-15
 -1       314 7.94290E-03-1.15711E-03-3.78385E-15
 -1       315 8.33439E-03-1.05323E-03-4.13936E-15
 -1       316 8.74847E-03-8.88868E-04-4.46000E-15
 -1       317 9.12240E-03-7.00090E-04-4.79408E-15
 -1       318 9.45866E-03-5.49391E-04-5.00635E-15
 -1       319 9.68867E-03-4.15603E-04-5.21339E-15
 -1       320 9.80362E-03-3.22280E-04-5.25257E-15
 -1       321 4.55650E-04-1.62365E-04 4.42829E-18
 -1       322 4.74108E-04-2.10541E-04 5.27871E-18
 -1       323 4.40822E-04-9.19477E-05 4.24194E-18
 -1       324 4.37754E-04-6.32785E-05 5.64124E-18
 -1       325 4.36018E-04-3.68622E-05 7.19300E-18
 -1       326 4.35237E-04-1.16655E-05 8.97516E-18
 -1       327 4.35264E-04 1.31613E-05 1.09030E-17
 -1       328 4.36105E-04 3.84191E-05 1.32950E-17
 -1       329 4.37874E-04 6.45023E-05 1.66730E-17
 -1       330 4.41027E-04 9.33481E-05 2.05253E-17
 -1       331 4.46432E-04 1.26003E-04 2.48960E-17
 -1       332 4.56221E-04 1.64883E-04 3.00968E-17
 -1       333 4.75715E-04 2.14531E-04 3.56974E-17
 -1       334 5.31366E-04 2.67282E-04 4.25990E-17
 -1       335 8.23736E-04 3.68634E-04 7.79169E-17
 -1       336 8.62988E-04-3.52051E-04 8.59569E-18
 -1       337 1.14963E-03-4.17971E-04 8.44322E-18
 -1       338 1.43306E-03-4.63660E-04 5.28887E-18
 -1       339 1.71490E-03-4.94153E-04-2.59192E-18
 -1       340 1.99647E-03-5.13127E-04-1.67238E-17
 -1       341 2.27874E-03-5.23317E-04-3.87568E-17
 -1       342 2.56247E-03-5.26802E-04-6.95787E-17
 -1       343 2.84829E-03-5.25227E-04-1.13194E-16
 -1       344 3.13676E-03-5.19994E-04-1.71700E-16
 -1       345 3.42845E-03-5.12437E-04-2.45202E-16
 -1       346 3.72397E-03-5.04017E-04-3.35347E-16
 -1       347 4.02402E-03-4.96553E-04-4.41917E-16
 -1       348 4.32941E-03-4.92495E-04-5.67007E-16
 -1       349 4.64104E-03-4.95242E-04-7.16654E-16
 -1       350 4.95998E-03-5.09466E-04-8.90425E-16
 -1       351 5.28739E-03-5.41312E-04-1.09103E-15
 -1       352 5.62438E-03-5.98176E-04-1.32011E-15
 -1       353 5.97150E-03-6.87480E-04-1.57920E-15
 -1       354 6.32743E-03-8.13517E-04-1.87365E-15
 -1       355 6.68734E-03-9.71427E-04-2.21090E-15
 -1       356 7.04266E-03-1.13947E-03-2.59989E-15
 -1       357 7.38568E-03-1.27700E-03-3.04580E-15
 -1       358 7.70120E-03-1.33817E-03-3.52627E-15
 -1       359 8.03364E-03-1.31039E-03-4.10154E-15
 -1       360 8.37753E-03-1.20919E-03-4.75324E-15
 -1       361 8.73355E-03-1.08020E-03-5.47708E-15
 -1       362 9.09371E-03-9.63227E-04-6.26064E-15
 -1       363 9.44957E-03-8.78733E-04-7.09776E-15
 -1       364 9.79661E-03-8.30816E-04-7.98374E-15
 -1       365 1.01337E-02-8.14870E-04-8.91584E-15
 -1       366 1.04615E-02-8.23426E-04-9.88858E-15
 -1       367 1.07812E-02-8.49197E-04-1.08935E-14
 -1       368 1.10940E-02-8.86222E-04-1.19333E-14
 -1       369 1.14011E-02-9.30068E-04-1.30010E-14
 -1       370 1.17035E-02-9.77638E-04-1.40883E-14
 -1       371 1.20019E-02-1.02687E-03-1.51909E-14
 -1       372 1.22973E-02-1.07646E-03-1.63157E-14
 -1       373 1.25901E-02-1.12563E-03-1.74723E-14
 -1       374 1.28810E-02-1.17396E-03-1.86552E-14
 -1       375 1.31704E-02-1.22125E-03-1.98566E-14
 -1       376 1.34587E-02-1.26747E-03-2.10741E-14
 -1       377 1.37461E-02-1.31264E-03-2.23047E-14
 -1       378 1.40330E-02-1.35688E-03-2.35395E-14
 -1       379 1.43194E-02-1.40029E-03-2.47745E-14
 -1       380 1.46055E-02-1.44301E-03-2.60138E-14
 -1       381 1.48914E-02-1.48519E-03-2.72555E-14
 -1       382 1.27172E-03 4.51774E-04 1.35952E-16
 -1       383 1.55346E-03 4.91014E-04 1.71460E-16
 -1       384 1.83421E-03 5.16804E-04 2.03220E-16
 -1       385 2.11521E-03 5.32432E-04 2.28628E-16
 -1       386 2.39736E-03 5.40395E-04 2.43942E-16
 -1       387 2.68132E-03 5.42658E-04 2.47459E-16
 -1       388 2.96764E-03 5.40857E-04 2.37095E-16
 -1       389 3.25681E-03 5.36481E-04 2.10312E-16
 -1       390 3.54927E-03 5.31028E-04 1.66018E-16
 -1       391 3.84549E-03 5.26160E-04 1.01569E-16
 -1       392 4.14588E-03 5.23856E-04 1.46740E-17
 -1       393 4.45081E-03 5.26509E-04-9.66261E-17
 -1       394 4.76049E-03 5.36960E-04-2.36864E-16
 -1       395 5.07485E-03 5.58343E-04-4.10066E-16
 -1       396 5.39336E-03 5.93628E-04-6.18819E-16
 -1       397 5.71476E-03 6.44710E-04-8.67701E-16
 -1       398 6.03680E-03 7.10945E-04-1.16161E-15
 -1       399 6.35633E-03 7.87349E-04-1.50636E-15
 -1       400 6.66989E-03 8.63237E-04-1.90795E-15
 -1       401 6.97520E-03 9.22799E-04-2.36260E-15
 -1       402 7.27304E-03 9.49037E-04-2.87106E-15
 -1       403 7.56771E-03 9.30488E-04-3.43922E-15
 -1       404 7.86518E-03 8.66643E-04-4.06563E-15
 -1       405 8.16997E-03 7.68285E-04-4.75292E-15
 -1       406 8.48313E-03 6.52210E-04-5.49602E-15
 -1       407 8.80261E-03 5.34467E-04-6.29494E-15
 -1       408 9.12500E-03 4.26185E-04-7.15162E-15
 -1       409 9.44712E-03 3.32745E-04-8.05236E-15
 -1       410 9.76672E-03 2.55068E-04-8.99446E-15
 -1       411 1.00825E-02 1.91439E-04-9.98606E-15
 -1       412 1.03940E-02 1.39010E-04-1.10211E-14
 -1       413 1.07012E-02 9.47639E-05-1.20952E-14
 -1       414 1.10044E-02 5.60251E-05-1.32054E-14
 -1       415 1.13039E-02 2.06462E-05-1.43463E-14
 -1       416 1.16004E-02-1.29724E-05-1.55057E-14
 -1       417 1.18943E-02-4.59502E-05-1.66810E-14
 -1       418 1.21861E-02-7.90208E-05-1.78725E-14
 -1       419 1.24763E-02-1.12627E-04-1.90801E-14
 -1       420 1.27651E-02-1.47003E-04-2.02953E-14
 -1       421 1.30530E-02-1.82239E-04-2.15103E-14
 -1       422 1.33401E-02-2.18334E-04-2.27269E-14
 -1       423 1.36268E-02-2.55230E-04-2.39438E-14
 -1       424 1.39130E-02-2.92833E-04-2.51643E-14
 -1       425 1.41990E-02-3.31028E-04-2.63872E-14
 -1       426 1.44362E-02-3.58247E-04-2.74167E-14
 -1       427 1.45227E-02-5.62133E-04-2.74687E-14
 -1       428 1.44837E-02-4.78219E-04-2.74360E-14
 -1       429 1.45614E-02-6.44412E-04-2.74994E-14
 -1       430 1.46010E-02-7.27892E-04-2.75234E-14
 -1       431 1.46406E-02-8.11189E-04-2.75476E-14
 -1       432 1.46803E-02-8.94361E-04-2.75705E-14
 -1       433 1.47199E-02-9.77491E-04-2.75938E-14
 -1       434 1.47595E-02-1.06066E-03-2.76124E-14
 -1       435 1.47984E-02-1.14255E-03-2.76258E-14
 -1       436 1.48381E-02-1.22603E-03-2.76299E-14
 -1       437 1.48780E-02-1.30973E-03-2.76218E-14
 -1       438 1.49182E-02-1.39365E-03-2.76049E-14
 -1       439 1.04847E-03 4.17788E-04 1.07502E-16
 -1       440 9.47280E-03-1.30866E-04-5.42662E-15
 -1       441 8.73670E-03 2.15571E-04-4.81433E-15
 -1       442 9.82854E-03-2.87971E-04-5.63700E-15
 -1       443 9.12888E-03 2.29053E-05-5.13699E-15
 -1       444 4.46000E-04-1.24159E-04 3.95395E-18
 -1       445 8.32322E-03 4.40524E-04-4.38159E-15
 -1       446 7.96511E-03 6.10333E-04-3.98547E-15
 -1       447 7.57880E-03 7.11389E-04-3.53447E-15
 -1       448 7.26742E-03 6.99616E-04-3.17089E-15
 -1       449 6.89274E-03 5.71416E-04-2.82104E-15
 -1       450 6.51581E-03 3.92044E-04-2.56677E-15
 -1       451 6.15543E-03 2.12043E-04-2.36891E-15
 -1       452 5.84886E-03 7.23805E-05-2.24527E-15
 -1       453 5.50933E-03-6.74394E-05-2.12405E-15
 -1       454 5.36889E-03-1.27061E-04-2.08869E-15
 -1       455 5.36666E-03-1.87255E-04-2.12042E-15
 -1       456 5.53125E-03-2.59412E-04-2.18254E-15
 -1       457 5.81141E-03-3.88526E-04-2.32299E-15
 -1       458 6.17063E-03-5.52275E-04-2.45232E-15
 -1       459 6.62636E-03-8.07350E-04-2.70698E-15
 -1       460 6.99503E-03-1.00571E-03-2.94572E-15
 -1       461 7.40833E-03-1.17736E-03-3.29084E-15
 -1       462 7.75805E-03-1.21498E-03-3.66226E-15
 -1       463 8.06280E-03-1.14919E-03-4.00636E-15
 -1       464 8.50228E-03-9.51458E-04-4.49939E-15
 -1       465 8.84245E-03-7.72460E-04-4.83220E-15
 -1       466 9.28235E-03-5.56124E-04-5.20310E-15
 -1       467 9.55882E-03-4.34394E-04-5.43137E-15
 -1       468 9.77992E-03-3.39669E-04-5.58401E-15
 -1       469 9.71654E-03-2.26546E-04-5.60826E-15
 -1       470 7.75489E-03 6.86362E-04-3.77834E-15
 -1       471 6.65867E-04-7.29464E-05 1.05371E-17
 -1       472 6.70082E-04-1.12836E-04 8.13490E-18
 -1       473 6.62923E-04 1.07823E-06 1.70660E-17
 -1       474 6.63711E-04 3.75870E-05 2.13520E-17
 -1       475 6.66034E-04 7.46112E-05 2.66578E-17
 -1       476 6.70368E-04 1.14665E-04 3.28242E-17
 -1       477 6.77568E-04 1.58671E-04 4.01832E-17
 -1       478 6.89435E-04 2.08682E-04 4.84469E-17
 -1       479 7.09953E-04 2.67563E-04 5.78252E-17
 -1       480 7.63327E-04 3.15983E-04 6.73323E-17
 -1       481 9.76798E-04-3.22057E-04 7.56909E-18
 -1       482 9.30254E-03-8.91313E-05-5.61574E-15
 -1       483 8.94171E-03 7.86337E-05-5.30012E-15
 -1       484 1.26312E-03-3.73807E-04 6.02071E-18
 -1       485 1.54878E-03-4.09753E-04 5.99699E-19
 -1       486 1.83388E-03-4.33166E-04-1.08895E-17
 -1       487 2.11882E-03-4.46850E-04-2.96258E-17
 -1       488 2.40407E-03-4.53020E-04-5.57856E-17
 -1       489 2.69002E-03-4.53437E-04-9.33532E-17
 -1       490 2.97703E-03-4.49552E-04-1.43891E-16
 -1       491 3.26543E-03-4.42656E-04-2.10040E-16
 -1       492 3.55552E-03-4.34050E-04-2.92196E-16
 -1       493 3.84767E-03-4.25228E-04-3.91224E-16
 -1       494 4.14234E-03-4.18096E-04-5.07742E-16
 -1       495 4.44023E-03-4.15229E-04-6.46422E-16
 -1       496 4.74241E-03-4.20162E-04-8.10265E-16
 -1       497 5.05065E-03-4.37701E-04-1.00057E-15
 -1       498 5.36771E-03-4.74179E-04-1.21890E-15
 -1       499 5.69743E-03-5.37492E-04-1.46447E-15
 -1       500 6.04388E-03-6.36272E-04-1.74294E-15
 -1       501 6.40862E-03-7.76717E-04-2.06125E-15
 -1       502 6.78565E-03-9.53625E-04-2.42456E-15
 -1       503 7.16176E-03-1.13586E-03-2.84142E-15
 -1       504 7.50644E-03-1.25767E-03-3.28893E-15
 -1       505 7.86164E-03-1.27665E-03-3.82570E-15
 -1       506 8.22497E-03-1.18530E-03-4.44255E-15
 -1       507 8.60136E-03-1.04154E-03-5.13485E-15
 -1       508 8.97849E-03-9.05808E-04-5.89398E-15
 -1       509 9.34238E-03-8.07250E-04-6.70552E-15
 -1       510 9.68803E-03-7.50078E-04-7.56999E-15
 -1       511 1.00172E-02-7.27832E-04-8.47652E-15
 -1       512 1.03341E-02-7.31846E-04-9.42944E-15
 -1       513 1.06425E-02-7.54341E-04-1.04156E-14
 -1       514 1.09452E-02-7.89143E-04-1.14349E-14
 -1       515 1.12439E-02-8.31650E-04-1.24841E-14
 -1       516 1.15396E-02-8.78580E-04-1.35564E-14
 -1       517 1.18332E-02-9.27684E-04-1.46527E-14
 -1       518 1.21249E-02-9.77488E-04-1.57633E-14
 -1       519 1.24153E-02-1.02708E-03-1.69003E-14
 -1       520 1.27045E-02-1.07593E-03-1.80707E-14
 -1       521 1.29928E-02-1.12377E-03-1.92628E-14
 -1       522 1.32805E-02-1.17052E-03-2.04691E-14
 -1       523 1.35675E-02-1.21619E-03-2.16885E-14
 -1       524 1.38542E-02-1.26086E-03-2.29217E-14
 -1       525 1.41405E-02-1.30465E-03-2.41573E-14
 -1       526 1.44266E-02-1.34768E-03-2.54019E-14
 -1       527 1.46725E-02-1.37087E-03-2.65065E-14
 -1       528 1.95404E-03 4.53601E-04 1.83718E-16
 -1       529 1.66951E-03 4.33968E-04 1.60326E-16
 -1       530 1.38454E-03 4.03054E-04 1.32896E-16
 -1       531 2.23868E-03 4.64568E-04 1.98704E-16
 -1       532 2.52392E-03 4.68965E-04 2.02820E-16
 -1       533 2.81020E-03 4.68506E-04 1.94133E-16
 -1       534 3.09792E-03 4.64674E-04 1.70718E-16
 -1       535 3.38748E-03 4.58874E-04 1.30114E-16
 -1       536 3.67930E-03 4.52582E-04 7.02427E-17
 -1       537 3.97386E-03 4.47497E-04-1.26005E-17
 -1       538 4.27174E-03 4.45673E-04-1.16857E-16
 -1       539 4.57366E-03 4.49627E-04-2.46653E-16
 -1       540 4.88042E-03 4.62351E-04-4.07619E-16
 -1       541 5.19282E-03 4.87155E-04-6.00726E-16
 -1       542 5.51136E-03 5.27191E-04-8.31546E-16
 -1       543 5.83568E-03 5.84409E-04-1.10378E-15
 -1       544 6.16386E-03 6.57750E-04-1.42084E-15
 -1       545 6.49197E-03 7.40678E-04-1.79155E-15
 -1       546 6.81498E-03 8.19114E-04-2.21481E-15
 -1       547 7.12955E-03 8.72559E-04-2.69458E-15
 -1       548 7.43744E-03 8.81038E-04-3.23344E-15
 -1       549 7.74506E-03 8.35819E-04-3.82961E-15
 -1       550 8.05909E-03 7.44439E-04-4.48610E-15
 -1       551 8.38162E-03 6.26371E-04-5.20313E-15
 -1       552 8.70965E-03 5.02312E-04-5.97231E-15
 -1       553 9.03822E-03 3.86933E-04-6.79929E-15
 -1       554 9.36325E-03 2.87308E-04-7.67843E-15
 -1       555 9.68269E-03 2.04803E-04-8.59898E-15
 -1       556 9.99613E-03 1.37645E-04-9.56466E-15
 -1       557 1.03041E-02 8.27954E-05-1.05724E-14
 -1       558 1.06073E-02 3.70291E-05-1.16173E-14
 -1       559 1.09067E-02-2.52770E-06-1.27034E-14
 -1       560 1.12031E-02-3.81988E-05-1.38241E-14
 -1       561 1.14970E-02-7.17384E-05-1.49669E-14
 -1       562 1.17889E-02-1.04395E-04-1.61340E-14
 -1       563 1.20793E-02-1.37004E-04-1.73135E-14
 -1       564 1.23684E-02-1.70085E-04-1.85118E-14
 -1       565 1.26567E-02-2.03926E-04-1.97209E-14
 -1       566 1.29442E-02-2.38653E-04-2.09373E-14
 -1       567 1.32311E-02-2.74285E-04-2.21481E-14
 -1       568 1.35177E-02-3.10774E-04-2.33631E-14
 -1       569 1.38039E-02-3.48033E-04-2.45815E-14
 -1       570 1.40899E-02-3.85955E-04-2.58018E-14
 -1       571 1.43340E-02-6.52245E-04-2.64268E-14
 -1       572 1.42951E-02-5.70301E-04-2.64023E-14
 -1       573 1.42557E-02-4.86656E-04-2.63759E-14
 -1       574 9.83061E-03-2.81393E-04-6.09076E-15
 -1       575 1.43738E-02-7.35342E-04-2.64492E-14
 -1       576 1.44136E-02-8.18240E-04-2.64676E-14
 -1       577 1.44532E-02-9.01031E-04-2.64867E-14
 -1       578 1.44928E-02-9.83820E-04-2.65121E-14
 -1       579 1.45316E-02-1.06531E-03-2.65320E-14
 -1       580 1.45711E-02-1.14839E-03-2.65413E-14
 -1       581 1.46107E-02-1.23174E-03-2.65435E-14
 -1       582 1.46414E-02-1.30121E-03-2.65271E-14
 -1       583 7.12989E-04-2.47556E-04 6.62041E-18
 -1       584 8.49423E-03 3.23350E-04-4.77475E-15
 -1       585 9.84840E-03-3.15696E-04-6.03298E-15
 -1       586 9.71739E-03-3.68145E-04-5.91319E-15
 -1       587 7.60017E-03-1.23037E-03-3.47593E-15
 -1       588 6.34057E-03 2.96226E-04-2.31073E-15
 -1       589 6.63608E-04-3.53906E-05 1.33187E-17
 -1       590 5.40370E-03-1.94942E-04-1.98715E-15
 -1       591 8.11668E-03 5.33350E-04-4.29565E-15
 -1       592 7.45679E-03 7.38175E-04-3.37147E-15
 -1       593 7.05934E-03 6.55981E-04-2.86169E-15
 -1       594 6.69201E-03 4.79410E-04-2.54914E-15
 -1       595 5.98289E-03 1.21731E-04-2.13367E-15
 -1       596 5.63687E-03-2.22054E-05-2.01966E-15
 -1       597 5.38645E-03-1.00803E-04-1.88486E-15
 -1       598 9.44156E-03-4.73291E-04-5.65287E-15
 -1       599 5.30681E-03-1.48078E-04-1.92012E-15
 -1       600 5.67728E-03-2.94360E-04-2.11029E-15
 -1       601 5.97023E-03-4.21057E-04-2.23044E-15
 -1       602 6.43317E-03-6.63496E-04-2.42575E-15
 -1       603 6.82614E-03-8.96697E-04-2.72387E-15
 -1       604 7.20510E-03-1.10560E-03-3.03386E-15
 -1       605 7.91935E-03-1.21057E-03-3.89364E-15
 -1       606 8.27522E-03-1.08082E-03-4.40606E-15
 -1       607 8.68995E-03-8.57570E-04-4.95507E-15
 -1       608 9.09851E-03-6.37126E-04-5.41760E-15
 -1       609 9.62979E-03-2.15394E-04-5.99174E-15
 -1       610 6.77117E-04-1.56376E-04 6.42051E-18
 -1       611 9.90537E-04 3.66344E-04 9.42206E-17
 -1       612 1.18735E-03 3.89703E-04 1.15149E-16
 -1       613 7.92368E-03 6.30260E-04-4.07490E-15
 -1       614 8.99163E-04 7.16023E-05 3.46132E-17
 -1       615 8.96840E-04 2.42923E-05 2.70881E-17
 -1       616 9.12080E-04 1.73197E-04 5.34918E-17
 -1       617 9.24769E-04 2.30939E-04 6.52148E-17
 -1       618 9.37072E-04 3.17385E-04 8.18844E-17
 -1       619 8.30688E-03 4.38585E-04-4.69147E-15
 -1       620 9.49307E-03-1.57857E-04-6.25047E-15
 -1       621 9.91149E-03-3.12091E-04-6.53849E-15
 -1       622 8.53208E-03-9.99923E-04-4.91047E-15
 -1       623 1.38427E-03-3.26111E-04 3.93362E-18
 -1       624 1.67068E-03-3.53029E-04-4.33681E-18
 -1       625 1.95718E-03-3.69952E-04-1.97630E-17
 -1       626 2.24356E-03-3.78958E-04-4.21416E-17
 -1       627 2.52981E-03-3.81790E-04-7.38748E-17
 -1       628 2.81596E-03-3.79902E-04-1.17334E-16
 -1       629 3.10206E-03-3.74551E-04-1.75397E-16
 -1       630 3.38811E-03-3.66914E-04-2.48628E-16
 -1       631 3.67416E-03-3.58230E-04-3.39650E-16
 -1       632 3.96029E-03-3.49955E-04-4.47867E-16
 -1       633 4.24677E-03-3.43933E-04-5.75474E-16
 -1       634 4.53425E-03-3.42597E-04-7.27073E-16
 -1       635 4.82413E-03-3.49210E-04-9.06772E-16
 -1       636 5.11912E-03-3.68201E-04-1.11436E-15
 -1       637 5.42397E-03-4.05769E-04-1.34812E-15
 -1       638 5.74589E-03-4.70822E-04-1.61011E-15
 -1       639 6.09361E-03-5.75911E-04-1.91037E-15
 -1       640 6.47291E-03-7.33984E-04-2.25259E-15
 -1       641 7.29164E-03-1.15799E-03-3.06843E-15
 -1       642 7.67148E-03-1.25295E-03-3.55511E-15
 -1       643 8.92811E-03-8.42443E-04-5.65391E-15
 -1       644 9.30078E-03-7.34732E-04-6.45303E-15
 -1       645 9.64478E-03-6.76386E-04-7.30270E-15
 -1       646 9.96573E-03-6.55179E-04-8.19589E-15
 -1       647 1.02715E-02-6.59893E-04-9.13318E-15
 -1       648 1.05683E-02-6.82283E-04-1.01078E-14
 -1       649 1.08603E-02-7.16457E-04-1.11139E-14
 -1       650 1.11499E-02-7.58172E-04-1.21525E-14
 -1       651 1.14382E-02-8.04386E-04-1.32172E-14
 -1       652 1.17259E-02-8.52956E-04-1.43053E-14
 -1       653 1.20132E-02-9.02427E-04-1.54107E-14
 -1       654 1.23002E-02-9.51855E-04-1.65365E-14
 -1       655 1.25870E-02-1.00067E-03-1.76935E-14
 -1       656 1.28737E-02-1.04857E-03-1.88752E-14
 -1       657 1.31601E-02-1.09544E-03-2.00763E-14
 -1       658 1.34463E-02-1.14125E-03-2.12911E-14
 -1       659 1.37325E-02-1.18607E-03-2.25176E-14
 -1       660 1.40185E-02-1.23000E-03-2.37542E-14
 -1       661 1.43044E-02-1.27316E-03-2.50006E-14
 -1       662 1.44729E-02-1.28730E-03-2.57657E-14
 -1       663 1.79125E-03 3.74239E-04 1.44500E-16
 -1       664 2.07760E-03 3.88229E-04 1.58930E-16
 -1       665 1.50485E-03 3.51075E-04 1.24314E-16
 -1       666 2.65041E-03 3.96477E-04 1.56749E-16
 -1       667 2.93721E-03 3.93874E-04 1.35393E-16
 -1       668 3.22457E-03 3.88563E-04 9.89199E-17
 -1       669 3.51280E-03 3.81820E-04 4.40627E-17
 -1       670 3.80234E-03 3.75031E-04-3.26480E-17
 -1       671 4.09380E-03 3.69829E-04-1.30992E-16
 -1       672 4.38809E-03 3.68231E-04-2.53016E-16
 -1       673 4.68651E-03 3.72753E-04-4.01497E-16
 -1       674 4.99075E-03 3.86497E-04-5.82254E-16
 -1       675 5.30281E-03 4.13116E-04-7.96214E-16
 -1       676 5.62450E-03 4.56482E-04-1.04756E-15
 -1       677 5.95631E-03 5.19568E-04-1.34121E-15
 -1       678 6.29589E-03 6.01933E-04-1.68297E-15
 -1       679 6.63710E-03 6.95419E-04-2.07534E-15
 -1       680 6.97178E-03 7.79686E-04-2.52077E-15
 -1       681 7.29499E-03 8.24866E-04-3.02876E-15
 -1       682 7.61351E-03 8.07380E-04-3.59802E-15
 -1       683 7.93655E-03 7.25419E-04-4.22394E-15
 -1       684 8.27035E-03 6.02263E-04-4.90966E-15
 -1       685 8.61129E-03 4.67855E-04-5.65418E-15
 -1       686 8.95134E-03 3.43260E-04-6.45273E-15
 -1       687 9.28396E-03 2.37628E-04-7.30564E-15
 -1       688 9.60652E-03 1.51746E-04-8.20431E-15
 -1       689 9.91940E-03 8.27522E-05-9.14542E-15
 -1       690 1.02244E-02 2.68696E-05-1.01302E-14
 -1       691 1.05234E-02-1.95193E-05-1.11510E-14
 -1       692 1.08182E-02-5.94497E-05-1.22132E-14
 -1       693 1.11102E-02-9.53032E-05-1.33090E-14
 -1       694 1.14002E-02-1.28864E-04-1.44352E-14
 -1       695 1.16889E-02-1.61409E-04-1.55871E-14
 -1       696 1.19767E-02-1.93807E-04-1.67566E-14
 -1       697 1.22640E-02-2.26612E-04-1.79460E-14
 -1       698 1.25507E-02-2.60142E-04-1.91477E-14
 -1       699 1.28372E-02-2.94548E-04-2.03565E-14
 -1       700 1.31235E-02-3.29868E-04-2.15668E-14
 -1       701 1.34096E-02-3.66067E-04-2.27787E-14
 -1       702 1.36955E-02-4.03066E-04-2.39929E-14
 -1       703 1.39757E-02-4.44571E-04-2.51846E-14
 -1       704 1.40674E-02-5.77822E-04-2.53440E-14
 -1       705 1.41470E-02-7.42606E-04-2.53787E-14
 -1       706 1.40214E-02-5.11305E-04-2.52653E-14
 -1       707 1.41072E-02-6.60368E-04-2.53646E-14
 -1       708 1.42264E-02-9.07293E-04-2.54140E-14
 -1       709 1.42651E-02-9.88265E-04-2.54346E-14
 -1       710 1.43044E-02-1.07083E-03-2.54502E-14
 -1       711 1.43437E-02-1.15370E-03-2.54573E-14
 -1       712 9.19736E-03-3.24621E-05-5.91451E-15
 -1       713 9.81878E-03-2.70271E-04-6.55841E-15
 -1       714 5.27463E-03-1.57265E-04-1.74874E-15
 -1       715 9.63959E-03-4.18609E-04-6.18981E-15
 -1       716 6.48498E-03 4.03163E-04-2.27254E-15
 -1       717 6.99221E-03-1.00553E-03-2.76175E-15
 -1       718 6.80972E-03 5.72777E-04-2.53316E-15
 -1       719 5.48402E-03-4.71598E-05-1.79659E-15
 -1       720 1.41868E-02-8.24989E-04-2.53936E-14
 -1       721 1.09850E-03-2.86980E-04 7.13879E-18
 -1       722 9.85258E-03-3.46228E-04-6.43897E-15
 -1       723 7.63583E-03 7.29830E-04-3.64217E-15
 -1       724 8.72564E-03 2.04773E-04-5.29773E-15
 -1       725 5.25186E-03-1.21563E-04-1.71501E-15
 -1       726 6.11119E-03 2.17872E-04-2.03289E-15
 -1       727 7.24593E-03 7.36293E-04-3.03931E-15
 -1       728 5.76103E-03 5.51421E-05-1.89451E-15
 -1       729 8.96442E-03-7.51746E-04-5.51428E-15
 -1       730 9.04017E-04 1.20697E-04 4.31919E-17
 -1       731 5.48393E-03-2.25215E-04-1.88122E-15
 -1       732 5.77290E-03-3.36367E-04-2.00464E-15
 -1       733 6.11787E-03-5.04760E-04-2.14179E-15
 -1       734 9.03671E-04-1.18323E-04 1.20414E-17
 -1       735 2.36394E-03 3.95076E-04 1.63654E-16
 -1       736 9.37771E-03-5.32564E-04-5.95892E-15
 -1       737 8.96783E-04-2.23420E-05 2.09793E-17
 -1       738 8.12245E-03 5.49357E-04-4.45492E-15
 -1       739 5.28136E-03-8.49887E-05-1.63116E-15
 -1       740 9.73859E-03-2.27494E-04-6.82399E-15
 -1       741 9.25266E-03-6.43096E-04-6.05529E-15
 -1       742 9.11531E-04-1.70600E-04 9.30720E-18
 -1       743 7.00741E-03 6.90899E-04-2.68808E-15
 -1       744 1.44082E-02-1.22037E-03-2.56123E-14
 -1       745 1.21868E-03 3.16434E-04 9.98482E-17
 -1       746 7.42004E-03 7.68075E-04-3.28771E-15
 -1       747 8.98971E-04-6.93783E-05 1.60157E-17
 -1       748 9.38877E-04-2.41133E-04 7.24721E-18
 -1       749 6.67328E-03-8.17681E-04-2.49425E-15
 -1       750 1.16188E-03 2.36022E-04 7.76221E-17
 -1       751 1.79675E-03-2.93887E-04-9.04970E-18
 -1       752 2.08349E-03-3.05193E-04-2.77285E-17
 -1       753 2.36992E-03-3.10337E-04-5.49013E-17
 -1       754 2.65565E-03-3.10673E-04-9.18150E-17
 -1       755 2.94037E-03-3.07377E-04-1.42081E-16
 -1       756 3.22382E-03-3.01518E-04-2.07320E-16
 -1       757 3.50570E-03-2.94142E-04-2.88137E-16
 -1       758 3.78573E-03-2.86376E-04-3.87504E-16
 -1       759 4.06370E-03-2.79528E-04-5.04981E-16
 -1       760 4.33961E-03-2.75188E-04-6.45720E-16
 -1       761 4.61390E-03-2.75339E-04-8.12884E-16
 -1       762 4.88793E-03-2.82526E-04-1.00586E-15
 -1       763 5.16478E-03-3.00285E-04-1.22855E-15
 -1       764 5.45056E-03-3.34542E-04-1.47879E-15
 -1       765 5.75579E-03-3.95630E-04-1.76061E-15
 -1       766 1.14399E-03-2.45927E-04 7.68767E-18
 -1       767 6.57260E-03 5.06537E-04-2.22289E-15
 -1       768 9.58978E-03-5.83479E-04-6.88812E-15
 -1       769 9.89537E-03-5.65457E-04-7.75950E-15
 -1       770 1.01833E-02-5.72678E-04-8.67609E-15
 -1       771 1.04629E-02-5.95645E-04-9.63132E-15
 -1       772 1.07396E-02-6.28964E-04-1.06205E-14
 -1       773 1.10161E-02-6.69148E-04-1.16416E-14
 -1       774 1.12937E-02-7.13717E-04-1.26923E-14
 -1       775 1.15728E-02-7.60839E-04-1.37695E-14
 -1       776 1.18534E-02-8.09176E-04-1.48671E-14
 -1       777 1.21352E-02-8.57797E-04-1.59826E-14
 -1       778 1.24181E-02-9.06089E-04-1.71211E-14
 -1       779 1.27018E-02-9.53685E-04-1.82869E-14
 -1       780 1.29861E-02-1.00040E-03-1.94750E-14
 -1       781 1.32709E-02-1.04618E-03-2.06825E-14
 -1       782 1.35559E-02-1.09103E-03-2.19052E-14
 -1       783 1.38412E-02-1.13503E-03-2.31378E-14
 -1       784 1.91693E-03 3.12348E-04 1.24202E-16
 -1       785 1.63012E-03 2.96106E-04 1.11439E-16
 -1       786 3.06244E-03 3.19669E-04 7.26111E-17
 -1       787 2.77664E-03 3.23824E-04 1.04917E-16
 -1       788 3.63330E-03 3.06056E-04-4.78709E-17
 -1       789 3.91907E-03 2.98874E-04-1.39601E-16
 -1       790 4.20602E-03 2.93279E-04-2.53652E-16
 -1       791 4.49545E-03 2.91102E-04-3.93132E-16
 -1       792 4.78934E-03 2.94747E-04-5.61071E-16
 -1       793 5.09048E-03 3.07451E-04-7.60148E-16
 -1       794 5.40240E-03 3.33592E-04-9.93939E-16
 -1       795 5.72874E-03 3.78796E-04-1.26641E-15
 -1       796 6.07118E-03 4.48802E-04-1.58132E-15
 -1       797 6.42673E-03 5.45547E-04-1.94328E-15
 -1       798 7.46921E-03 7.85568E-04-3.35529E-15
 -1       799 7.80156E-03 7.25118E-04-3.95329E-15
 -1       800 8.14642E-03 5.98428E-04-4.61039E-15
 -1       801 8.50134E-03 4.49203E-04-5.32889E-15
 -1       802 8.85554E-03 3.10862E-04-6.10219E-15
 -1       803 9.19845E-03 1.97211E-04-6.92733E-15
 -1       804 9.52618E-03 1.07894E-04-7.80194E-15
 -1       805 9.83989E-03 3.79738E-05-8.72156E-15
 -1       806 1.01427E-02-1.79653E-05-9.68477E-15
 -1       807 1.04380E-02-6.42151E-05-1.06854E-14
 -1       808 1.07283E-02-1.04073E-04-1.17243E-14
 -1       809 1.10159E-02-1.39940E-04-1.27976E-14
 -1       810 1.13018E-02-1.73548E-04-1.39056E-14
 -1       811 1.15870E-02-2.06128E-04-1.50406E-14
 -1       812 1.18718E-02-2.38520E-04-1.61984E-14
 -1       813 1.21567E-02-2.71269E-04-1.73740E-14
 -1       814 1.24416E-02-3.04699E-04-1.85693E-14
 -1       815 1.27267E-02-3.38972E-04-1.97726E-14
 -1       816 1.30119E-02-3.74139E-04-2.09795E-14
 -1       817 1.32973E-02-4.10176E-04-2.21901E-14
 -1       818 1.35828E-02-4.47014E-04-2.34008E-14
 -1       819 1.38021E-02-4.78968E-04-2.43309E-14
 -1       820 1.40383E-02-9.93495E-04-2.43599E-14
 -1       821 5.30150E-03-1.85942E-04-1.64750E-15
 -1       822 5.53824E-03 2.16011E-05-1.65542E-15
 -1       823 1.40772E-02-1.07572E-03-2.43695E-14
 -1       824 1.39998E-02-9.12988E-04-2.43440E-14
 -1       825 9.43936E-03-9.42908E-05-6.61729E-15
 -1       826 5.17008E-03-1.29576E-04-1.56621E-15
 -1       827 9.97608E-03-3.43755E-04-7.01950E-15
 -1       828 1.39604E-02-8.31263E-04-2.43301E-14
 -1       829 9.83062E-03-3.93075E-04-6.76541E-15
 -1       830 1.39206E-02-7.49527E-04-2.43165E-14
 -1       831 3.34792E-03 3.13387E-04 2.27682E-17
 -1       832 9.01588E-03 9.71806E-05-5.97502E-15
 -1       833 1.51026E-03-2.74909E-04 1.88041E-18
 -1       834 7.83775E-03 6.83057E-04-3.99356E-15
 -1       835 8.53622E-03 3.47161E-04-5.20291E-15
 -1       836 5.81038E-03 1.52793E-04-1.71623E-15
 -1       837 9.98010E-03-3.09433E-04-7.13292E-15
 -1       838 9.62380E-03-4.78455E-04-6.55709E-15
 -1       839 1.13655E-03 5.66627E-05 3.88144E-17
 -1       840 5.51170E-03-2.70427E-04-1.70796E-15
 -1       841 6.23872E-03 3.44114E-04-1.96681E-15
 -1       842 5.14853E-03-9.86986E-05-1.48735E-15
 -1       843 1.13499E-03 1.12471E-06 2.94429E-17
 -1       844 2.49042E-03 3.24786E-04 1.23131E-16
 -1       845 2.20380E-03 3.21401E-04 1.28901E-16
 -1       846 1.41267E-02-1.17829E-03-2.43798E-14
 -1       847 6.73453E-03 6.29601E-04-2.30936E-15
 -1       848 5.14533E-03-1.53029E-04-1.47442E-15
 -1       849 1.38806E-02-6.67942E-04-2.43063E-14
 -1       850 1.14877E-03-1.69823E-04 1.09572E-17
 -1       851 1.14939E-03 1.72831E-04 6.27177E-17
 -1       852 1.34398E-03 2.71007E-04 9.40681E-17
 -1       853 1.38483E-02-5.45277E-04-2.44104E-14
 -1       854 9.95834E-03-2.80650E-04-7.40643E-15
 -1       855 1.14086E-03-1.10776E-04 1.53008E-17
 -1       856 1.14122E-03 1.13429E-04 5.00258E-17
 -1       857 5.30189E-03-3.18914E-05-1.50012E-15
 -1       858 1.38644E-02-6.06760E-04-2.43582E-14
 -1       859 1.92587E-03-2.32697E-04-1.32713E-17
 -1       860 4.31091E-03 2.18009E-04-3.80416E-16
 -1       861 2.21214E-03-2.39462E-04-3.52230E-17
 -1       862 2.49765E-03-2.41744E-04-6.69969E-17
 -1       863 2.78175E-03-2.40563E-04-1.10006E-16
 -1       864 3.06386E-03-2.36855E-04-1.66713E-16
 -1       865 3.34342E-03-2.31507E-04-2.38355E-16
 -1       866 3.61984E-03-2.25415E-04-3.26765E-16
 -1       867 3.89251E-03-2.19543E-04-4.35165E-16
 -1       868 4.16082E-03-2.14960E-04-5.64205E-16
 -1       869 4.42424E-03-2.12857E-04-7.18470E-16
 -1       870 4.68251E-03-2.14544E-04-8.99153E-16
 -1       871 4.93597E-03-2.21546E-04-1.10757E-15
 -1       872 5.18638E-03-2.36115E-04-1.34585E-15
 -1       873 1.75892E-03 2.38324E-04 9.51523E-17
 -1       874 9.86005E-03-4.75607E-04-7.32452E-15
 -1       875 1.47301E-03 2.21383E-04 8.45779E-17
 -1       876 1.01181E-02-4.89084E-04-8.21926E-15
 -1       877 1.03734E-02-5.14666E-04-9.15629E-15
 -1       878 1.06306E-02-5.47968E-04-1.01302E-14
 -1       879 1.08916E-02-5.86631E-04-1.11352E-14
 -1       880 1.11569E-02-6.29082E-04-1.21691E-14
 -1       881 1.14261E-02-6.74037E-04-1.32312E-14
 -1       882 1.16989E-02-7.20440E-04-1.43194E-14
 -1       883 1.19746E-02-7.67465E-04-1.54302E-14
 -1       884 1.22528E-02-8.14510E-04-1.65576E-14
 -1       885 1.25329E-02-8.61173E-04-1.77067E-14
 -1       886 1.28144E-02-9.07214E-04-1.88791E-14
 -1       887 1.30972E-02-9.52518E-04-2.00755E-14
 -1       888 1.33808E-02-9.97056E-04-2.12899E-14
 -1       889 1.36650E-02-1.04086E-03-2.25185E-14
 -1       890 1.31051E-03 1.97648E-04 7.38985E-17
 -1       891 8.83518E-03 2.56815E-04-5.91395E-15
 -1       892 4.03016E-03 2.24552E-04-2.50420E-16
 -1       893 3.74967E-03 2.32213E-04-1.44019E-16
 -1       894 4.59351E-03 2.14073E-04-5.37331E-16
 -1       895 4.88056E-03 2.14917E-04-7.23583E-16
 -1       896 5.17597E-03 2.23955E-04-9.41240E-16
 -1       897 5.48493E-03 2.46830E-04-1.19417E-15
 -1       898 5.81481E-03 2.92274E-04-1.48636E-15
 -1       899 9.18596E-03 1.38393E-04-6.72613E-15
 -1       900 9.51524E-03 5.04423E-05-7.58517E-15
 -1       901 9.82669E-03-1.55942E-05-8.49243E-15
 -1       902 1.01247E-02-6.80665E-05-9.44215E-15
 -1       903 1.04143E-02-1.11653E-04-1.04357E-14
 -1       904 1.06991E-02-1.49822E-04-1.14616E-14
 -1       905 1.09813E-02-1.84786E-04-1.25191E-14
 -1       906 1.12627E-02-2.18034E-04-1.36112E-14
 -1       907 1.15439E-02-2.50586E-04-1.47345E-14
 -1       908 1.18255E-02-2.83128E-04-1.58817E-14
 -1       909 1.21078E-02-3.16103E-04-1.70496E-14
 -1       910 1.23906E-02-3.49774E-04-1.82388E-14
 -1       911 1.26741E-02-3.84268E-04-1.94387E-14
 -1       912 1.29582E-02-4.19621E-04-2.06421E-14
 -1       913 1.32427E-02-4.55805E-04-2.18498E-14
 -1       914 1.35275E-02-4.92753E-04-2.30620E-14
 -1       915 1.38114E-02-9.97965E-04-2.32915E-14
 -1       916 1.37734E-02-9.17954E-04-2.32811E-14
 -1       917 9.78144E-03-1.87091E-04-7.44520E-15
 -1       918 1.00351E-02-4.05197E-04-7.59256E-15
 -1       919 2.90268E-03 2.51784E-04 4.86129E-17
 -1       920 5.51277E-03 9.84269E-05-1.45898E-15
 -1       921 1.63967E-03-2.20309E-04 5.72594E-19
 -1       922 1.13639E-03-5.42563E-05 2.14774E-17
 -1       923 1.37343E-02-8.36886E-04-2.32713E-14
 -1       924 1.01218E-02-3.49661E-04-7.76634E-15
 -1       925 9.31896E-03 2.15849E-05-6.77412E-15
 -1       926 1.36947E-02-7.55918E-04-2.32630E-14
 -1       927 1.38776E-03-1.63911E-04 9.95433E-18
 -1       928 5.04424E-03-1.11938E-04-1.35728E-15
 -1       929 1.37764E-03 3.24110E-05 3.78895E-17
 -1       930 2.61788E-03 2.54410E-04 7.82354E-17
 -1       931 2.04554E-03 2.48708E-04 9.94417E-17
 -1       932 1.38137E-03 9.53047E-05 5.12218E-17
 -1       933 1.36879E-02-5.18905E-04-2.37350E-14
 -1       934 5.21076E-03-1.96208E-04-1.46051E-15
 -1       935 1.36547E-02-6.75151E-04-2.32557E-14
 -1       936 9.68167E-03-9.32658E-05-7.61091E-15
 -1       937 5.27106E-03 3.60996E-05-1.31912E-15
 -1       938 3.18624E-03 2.46680E-04 4.59092E-18
 -1       939 3.46851E-03 2.39889E-04-5.87502E-17
 -1       940 1.01525E-02-3.26424E-04-8.05248E-15
 -1       941 5.13051E-03-5.63979E-05-1.36587E-15
 -1       942 1.37042E-02-5.80217E-04-2.36828E-14
 -1       943 1.37754E-03-2.98224E-05 2.69085E-17
 -1       944 4.68145E-03 1.37661E-04-6.85605E-16
 -1       945 2.34303E-03-1.73283E-04-4.19891E-17
 -1       946 2.62700E-03-1.73808E-04-7.86385E-17
 -1       947 2.90879E-03-1.72161E-04-1.27370E-16
 -1       948 3.18760E-03-1.69063E-04-1.89566E-16
 -1       949 3.46263E-03-1.65230E-04-2.67371E-16
 -1       950 3.73303E-03-1.61402E-04-3.65410E-16
 -1       951 3.99783E-03-1.58364E-04-4.83432E-16
 -1       952 4.25588E-03-1.56932E-04-6.26411E-16
 -1       953 4.50583E-03-1.57894E-04-7.93494E-16
 -1       954 4.74594E-03-1.61921E-04-9.87505E-16
 -1       955 4.97399E-03-1.69518E-04-1.21129E-15
 -1       956 1.60502E-03 1.67757E-04 7.17403E-17
 -1       957 1.02948E-02-4.41993E-04-8.68471E-15
 -1       958 1.05284E-02-4.74843E-04-9.64052E-15
 -1       959 1.07719E-02-5.11391E-04-1.06308E-14
 -1       960 1.10238E-02-5.51033E-04-1.16498E-14
 -1       961 1.12827E-02-5.93062E-04-1.26989E-14
 -1       962 1.15474E-02-6.36742E-04-1.37730E-14
 -1       963 1.18167E-02-6.81396E-04-1.48742E-14
 -1       964 1.20898E-02-7.26466E-04-1.59942E-14
 -1       965 1.23659E-02-7.71538E-04-1.71331E-14
 -1       966 1.26445E-02-8.16329E-04-1.82912E-14
 -1       967 1.29249E-02-8.60671E-04-1.94765E-14
 -1       968 1.32068E-02-9.04486E-04-2.06801E-14
 -1       969 1.34897E-02-9.47748E-04-2.18980E-14
 -1       970 2.05772E-03-1.69830E-04-1.57751E-17
 -1       971 4.13638E-03 1.52658E-04-3.64627E-16
 -1       972 4.40875E-03 1.44574E-04-5.11350E-16
 -1       973 3.86279E-03 1.60932E-04-2.43136E-16
 -1       974 4.95731E-03 1.33678E-04-8.88876E-16
 -1       975 5.24110E-03 1.36040E-04-1.12319E-15
 -1       976 1.00767E-02-1.27837E-04-9.01226E-15
 -1       977 1.03568E-02-1.67053E-04-9.98528E-15
 -1       978 1.06324E-02-2.02443E-04-1.09934E-14
 -1       979 1.09066E-02-2.35938E-04-1.20325E-14
 -1       980 1.11810E-02-2.68636E-04-1.31037E-14
 -1       981 1.14563E-02-3.01209E-04-1.42032E-14
 -1       982 1.17331E-02-3.34089E-04-1.53318E-14
 -1       983 1.20114E-02-3.67544E-04-1.64839E-14
 -1       984 1.22912E-02-4.01723E-04-1.76621E-14
 -1       985 1.25723E-02-4.36694E-04-1.88550E-14
 -1       986 1.28544E-02-4.72459E-04-2.00542E-14
 -1       987 1.31375E-02-5.08980E-04-2.12585E-14
 -1       988 1.34214E-02-5.46193E-04-2.24671E-14
 -1       989 4.98423E-03-1.36914E-04-1.26412E-15
 -1       990 4.98814E-03-7.55755E-05-1.24543E-15
 -1       991 1.77205E-03-1.62670E-04 1.07404E-18
 -1       992 2.33205E-03 2.53705E-04 9.38716E-17
 -1       993 1.02233E-02-3.98702E-04-8.28906E-15
 -1       994 1.35087E-02-8.41664E-04-2.22146E-14
 -1       995 1.38105E-03-9.24495E-05 1.75031E-17
 -1       996 1.34694E-02-7.61579E-04-2.22098E-14
 -1       997 1.34470E-03 1.46454E-04 6.23857E-17
 -1       998 1.00793E-02-2.65614E-04-8.20038E-15
 -1       999 1.02940E-02-3.73470E-04-8.58815E-15
 -1      1000 1.89063E-03 1.78024E-04 7.49489E-17
 -1      1001 1.00091E-02-1.95399E-04-8.38261E-15
 -1      1002 1.34295E-02-6.81792E-04-2.22091E-14
 -1      1003 4.89188E-03-1.01421E-04-1.16119E-15
 -1      1004 5.08045E-03 1.16809E-06-1.19838E-15
 -1      1005 3.58718E-03 1.68750E-04-1.44877E-16
 -1      1006 3.02890E-03 1.81043E-04-1.21397E-17
 -1      1007 1.62404E-03 6.90343E-05 4.60312E-17
 -1      1008 2.74643E-03 1.84582E-04 2.80470E-17
 -1      1009 1.62184E-03 1.32177E-06 3.08354E-17
 -1      1010 2.75863E-03-1.07001E-04-8.83794E-17
 -1      1011 3.03787E-03-1.05914E-04-1.41675E-16
 -1      1012 3.31326E-03-1.04375E-04-2.10054E-16
 -1      1013 3.58386E-03-1.02944E-04-2.95811E-16
 -1      1014 3.84860E-03-1.02221E-04-4.03364E-16
 -1      1015 4.10618E-03-1.02849E-04-5.33461E-16
 -1      1016 4.35494E-03-1.05475E-04-6.88475E-16
 -1      1017 4.59246E-03-1.10678E-04-8.69947E-16
 -1      1018 4.79455E-03-1.22895E-04-1.05554E-15
 -1      1019 2.19235E-03-1.05698E-04-1.74861E-17
 -1      1020 1.06496E-02-4.43730E-04-1.01289E-14
 -1      1021 1.08891E-02-4.79571E-04-1.11334E-14
 -1      1022 1.11385E-02-5.17875E-04-1.21672E-14
 -1      1023 1.13957E-02-5.58110E-04-1.32254E-14
 -1      1024 1.16591E-02-5.99713E-04-1.43139E-14
 -1      1025 1.19274E-02-6.42162E-04-1.54269E-14
 -1      1026 1.21997E-02-6.85036E-04-1.65590E-14
 -1      1027 1.24753E-02-7.28025E-04-1.77101E-14
 -1      1028 1.27533E-02-7.70914E-04-1.88825E-14
 -1      1029 1.30334E-02-8.13579E-04-2.00752E-14
 -1      1030 1.32707E-02-8.28039E-04-2.11418E-14
 -1      1031 3.97405E-03 9.29520E-05-3.45701E-16
 -1      1032 1.08372E-02-2.83951E-04-1.15529E-14
 -1      1033 1.05734E-02-2.52478E-04-1.05294E-14
 -1      1034 1.03105E-02-2.20957E-04-9.53790E-15
 -1      1035 1.11031E-02-3.15917E-04-1.26028E-14
 -1      1036 1.13717E-02-3.48564E-04-1.36835E-14
 -1      1037 1.16431E-02-3.82000E-04-1.47904E-14
 -1      1038 1.19170E-02-4.16247E-04-1.59252E-14
 -1      1039 1.21933E-02-4.51296E-04-1.70879E-14
 -1      1040 1.24717E-02-4.87112E-04-1.82708E-14
 -1      1041 1.27517E-02-5.23643E-04-1.94689E-14
 -1      1042 1.30332E-02-5.60823E-04-2.06711E-14
 -1      1043 1.90729E-03-1.02311E-04 2.66307E-18
 -1      1044 4.91222E-03-2.71144E-05-1.09180E-15
 -1      1045 2.47647E-03-1.07108E-04-4.76710E-17
 -1      1046 3.30922E-03 1.75607E-04-6.80134E-17
 -1      1047 1.04315E-02-4.20144E-04-9.19071E-15
 -1      1048 4.75887E-03 6.36918E-05-8.36398E-16
 -1      1049 1.03176E-02-3.27084E-04-8.92448E-15
 -1      1050 1.62380E-03-6.61837E-05 1.83366E-17
 -1      1051 1.32320E-02-7.48998E-04-2.11445E-14
 -1      1052 5.02681E-03 6.61824E-05-1.04290E-15
 -1      1053 1.32840E-02-5.95251E-04-2.17353E-14
 -1      1054 2.17667E-03 1.83738E-04 6.94364E-17
 -1      1055 1.02843E-02-2.72995E-04-9.12174E-15
 -1      1056 1.96134E-03 9.19198E-05 4.51706E-17
 -1      1057 4.23905E-03 8.41091E-05-4.81931E-16
 -1      1058 1.31922E-02-6.70342E-04-2.11442E-14
 -1      1059 1.95755E-03 1.93885E-05 2.50349E-17
 -1      1060 4.78680E-03-5.92937E-05-1.01940E-15
 -1      1061 4.50040E-03 7.42345E-05-6.45127E-16
 -1      1062 3.70512E-03 1.00635E-04-2.33408E-16
 -1      1063 2.46218E-03 1.85685E-04 5.46031E-17
 -1      1064 2.87651E-03 1.15874E-04-2.46656E-17
 -1      1065 3.15603E-03 1.12203E-04-7.53317E-17
 -1      1066 3.17043E-03-4.19335E-05-1.53001E-16
 -1      1067 3.44295E-03-4.26982E-05-2.27347E-16
 -1      1068 3.71008E-03-4.42914E-05-3.23136E-16
 -1      1069 3.97064E-03-4.71887E-05-4.41037E-16
 -1      1070 4.22329E-03-5.19600E-05-5.82610E-16
 -1      1071 4.46597E-03-5.91625E-05-7.51017E-16
 -1      1072 4.68657E-03-7.96320E-05-9.44062E-16
 -1      1073 1.07709E-02-3.27901E-04-1.10737E-14
 -1      1074 1.09879E-02-4.47526E-04-1.16389E-14
 -1      1075 1.12398E-02-4.83874E-04-1.26835E-14
 -1      1076 1.14987E-02-5.21999E-04-1.37556E-14
 -1      1077 1.17633E-02-5.61373E-04-1.48562E-14
 -1      1078 1.20326E-02-6.01592E-04-1.59818E-14
 -1      1079 1.23056E-02-6.42328E-04-1.71277E-14
 -1      1080 1.25817E-02-6.83340E-04-1.82966E-14
 -1      1081 1.28601E-02-7.24455E-04-1.94793E-14
 -1      1082 1.30457E-02-7.36939E-04-2.03081E-14
 -1      1083 1.12882E-02-3.92219E-04-1.31715E-14
 -1      1084 1.10271E-02-3.59244E-04-1.21096E-14
 -1      1085 1.05248E-02-2.99560E-04-1.00833E-14
 -1      1086 1.15538E-02-4.26538E-04-1.42568E-14
 -1      1087 1.18232E-02-4.61936E-04-1.53760E-14
 -1      1088 1.20960E-02-4.98236E-04-1.65187E-14
 -1      1089 1.23715E-02-5.35283E-04-1.76904E-14
 -1      1090 1.26495E-02-5.72948E-04-1.88779E-14
 -1      1091 1.29293E-02-6.11127E-04-2.00778E-14
 -1      1092 2.61311E-03-4.12704E-05-4.96802E-17
 -1      1093 2.33014E-03-4.07015E-05-1.68797E-17
 -1      1094 3.43236E-03 1.07082E-04-1.44253E-16
 -1      1095 1.93078E-03-4.15674E-05 1.26140E-17
 -1      1096 1.07451E-02-4.13520E-04-1.06191E-14
 -1      1097 2.89352E-03-4.15832E-05-9.42443E-17
 -1      1098 1.04902E-02-3.73646E-04-9.54368E-15
 -1      1099 2.59438E-03 1.17873E-04 1.17297E-17
 -1      1100 4.64641E-03 3.81906E-06-8.30363E-16
 -1      1101 2.27502E-03 1.04562E-04 3.29259E-17
 -1      1102 4.08569E-03 2.90745E-05-4.50100E-16
 -1      1103 1.05129E-02-3.39447E-04-9.81604E-15
 -1      1104 3.82426E-03 3.61362E-05-3.24918E-16
 -1      1105 2.72918E-03 5.07238E-05-3.42134E-17
 -1      1106 3.00888E-03 4.87991E-05-8.04444E-17
 -1      1107 3.30813E-03 2.00546E-05-1.61299E-16
 -1      1108 1.14631E-02-4.67526E-04-1.37328E-14
 -1      1109 3.57893E-03 1.66094E-05-2.44793E-16
 -1      1110 1.30372E-02-6.67130E-04-2.04392E-14
 -1      1111 4.34078E-03 2.01125E-05-6.01441E-16
 -1      1112 1.17283E-02-5.04478E-04-1.48333E-14
 -1      1113 1.19978E-02-5.42429E-04-1.59618E-14
 -1      1114 1.22709E-02-5.81093E-04-1.71125E-14
 -1      1115 1.25469E-02-6.20266E-04-1.82854E-14
 -1      1116 1.27913E-02-6.43823E-04-1.93560E-14
 -1      1117 1.10751E-02-4.12356E-04-1.21425E-14
 -1      1118 2.47169E-03 2.48707E-05-1.28749E-17
 -1      1119 4.54991E-03-2.84724E-05-7.90688E-16
 -1      1120 1.07885E-02-3.74161E-04-1.09602E-14
 -1      1121 0.00000E+00 0.00000E+00 0.00000E+00
 -1      1122 0.00000E+00 0.00000E+00 0.00000E+00
 -1      1123 0.00000E+00 0.00000E+00 0.00000E+00
 -1      1124 0.00000E+00 0.00000E+00 0.00000E+00
 -1      1125 0.00000E+00 0.00000E+00 0.00000E+00
 -1      1126 0.00000E+00 0.00000E+00 0.00000E+00
 -1      1127 0.00000E+00 0.00000E+00 0.00000E+00
 -1      1128 0.00000E+00 0.00000E+00 0.00000E+00
 -1      1129 0.00000E+00 0.00000E+00 0.00000E+00
 -1      1130 0.00000E+00 0.00000E+00 0.00000E+00
 -1      1131 0.00000E+00 0.00000E+00 0.00000E+00
 -1      1132 0.00000E+00 0.00000E+00 0.00000E+00
 -1      1133 0.00000E+00 0.00000E+00 0.00000E+00
 -1      1134 0.00000E+00 0.00000E+00 0.00000E+00
 -1      1135 0.00000E+00 0.00000E+00 0.00000E+00
 -1      1136 0.00000E+00 0.00000E+00 0.00000E+00
 -1      1137 0.00000E+00 0.00000E+00 0.00000E+00
 -1      1138 2.10809E-04-1.47689E-04 1.89735E-18
 -1      1139 5.49510E-04-3.35325E-04 5.93601E-18
 -1      1140 8.30536E-04-4.54819E-04 9.70361E-18
 -1      1141 1.09966E-03-5.34058E-04 1.27123E-17
 -1      1142 1.36501E-03-5.88333E-04 1.20753E-17
 -1      1143 1.63030E-03-6.25437E-04 7.52165E-18
 -1      1144 1.89758E-03-6.49926E-04-1.13841E-18
 -1      1145 2.16803E-03-6.64845E-04-1.53415E-17
 -1      1146 2.44240E-03-6.72449E-04-3.93430E-17
 -1      1147 2.72127E-03-6.74514E-04-7.73849E-17
 -1      1148 3.00527E-03-6.72525E-04-1.29969E-16
 -1      1149 3.29517E-03-6.67850E-04-1.94384E-16
 -1      1150 3.59197E-03-6.61910E-04-2.73693E-16
 -1      1151 3.89692E-03-6.56392E-04-3.70038E-16
 -1      1152 4.21154E-03-6.53493E-04-4.81210E-16
 -1      1153 4.53752E-03-6.56222E-04-6.12371E-16
 -1      1154 4.87637E-03-6.68722E-04-7.68537E-16
 -1      1155 5.22894E-03-6.96509E-04-9.50737E-16
 -1      1156 5.59439E-03-7.46356E-04-1.15622E-15
 -1      1157 5.96895E-03-8.25265E-04-1.39287E-15
 -1      1158 6.34447E-03-9.37765E-04-1.66605E-15
 -1      1159 6.70828E-03-1.08105E-03-1.97654E-15
 -1      1160 7.04594E-03-1.23944E-03-2.32976E-15
 -1      1161 7.34811E-03-1.38276E-03-2.73663E-15
 -1      1162 7.61884E-03-1.47462E-03-3.20848E-15
 -1      1163 7.87130E-03-1.49064E-03-3.73289E-15
 -1      1164 8.13701E-03-1.43489E-03-4.32587E-15
 -1      1165 8.44146E-03-1.32921E-03-5.01503E-15
 -1      1166 8.78127E-03-1.21050E-03-5.77302E-15
 -1      1167 9.14658E-03-1.10821E-03-6.58534E-15
 -1      1168 9.52291E-03-1.03714E-03-7.44368E-15
 -1      1169 9.89791E-03-9.99481E-04-8.35286E-15
 -1      1170 1.02638E-02-9.90460E-04-9.31373E-15
 -1      1171 1.06172E-02-1.00308E-03-1.03146E-14
 -1      1172 1.09574E-02-1.03070E-03-1.13489E-14
 -1      1173 1.12856E-02-1.06802E-03-1.24072E-14
 -1      1174 1.16036E-02-1.11118E-03-1.34942E-14
 -1      1175 1.19132E-02-1.15751E-03-1.45992E-14
 -1      1176 1.22162E-02-1.20525E-03-1.57162E-14
 -1      1177 1.25141E-02-1.25331E-03-1.68702E-14
 -1      1178 1.28082E-02-1.30102E-03-1.80449E-14
 -1      1179 1.30995E-02-1.34803E-03-1.92366E-14
 -1      1180 1.33888E-02-1.39418E-03-2.04476E-14
 -1      1181 1.36766E-02-1.43943E-03-2.16798E-14
 -1      1182 1.39634E-02-1.48381E-03-2.29160E-14
 -1      1183 1.42496E-02-1.52740E-03-2.41481E-14
 -1      1184 1.45354E-02-1.57030E-03-2.53838E-14
 -1      1185 1.48210E-02-1.61265E-03-2.66184E-14
 -1      1186 1.51066E-02-1.65459E-03-2.78439E-14
 -1      1187 1.53923E-02-1.69632E-03-2.90554E-14
 -1      1188 2.27510E-04 1.60013E-04 1.06658E-17
 -1      1189 5.51720E-04 3.39943E-04 4.14572E-17
 -1      1190 8.31541E-04 4.57023E-04 8.07866E-17
 -1      1191 1.10067E-03 5.35811E-04 1.26364E-16
 -1      1192 1.36608E-03 5.90139E-04 1.74407E-16
 -1      1193 1.63147E-03 6.27457E-04 2.22654E-16
 -1      1194 1.89886E-03 6.52259E-04 2.66158E-16
 -1      1195 2.16937E-03 6.67626E-04 3.02682E-16
 -1      1196 2.44371E-03 6.75872E-04 3.28256E-16
 -1      1197 2.72239E-03 6.78849E-04 3.42554E-16
 -1      1198 3.00587E-03 6.78139E-04 3.41605E-16
 -1      1199 3.29467E-03 6.75218E-04 3.25477E-16
 -1      1200 3.58932E-03 6.71600E-04 2.90404E-16
 -1      1201 3.89043E-03 6.68980E-04 2.36099E-16
 -1      1202 4.19849E-03 6.69365E-04 1.59337E-16
 -1      1203 4.51375E-03 6.75153E-04 5.16080E-17
 -1      1204 4.83593E-03 6.89115E-04-8.48388E-17
 -1      1205 5.16379E-03 7.14173E-04-2.55004E-16
 -1      1206 5.49480E-03 7.52847E-04-4.59404E-16
 -1      1207 5.82479E-03 8.06252E-04-7.06954E-16
 -1      1208 6.14815E-03 8.72669E-04-1.00342E-15
 -1      1209 6.45871E-03 9.46078E-04-1.35807E-15
 -1      1210 6.75163E-03 1.01554E-03-1.76965E-15
 -1      1211 7.02583E-03 1.06659E-03-2.23350E-15
 -1      1212 7.28570E-03 1.08509E-03-2.75402E-15
 -1      1213 7.54054E-03 1.06244E-03-3.32506E-15
 -1      1214 7.80156E-03 9.99148E-04-3.95327E-15
 -1      1215 8.07772E-03 9.04625E-04-4.64563E-15
 -1      1216 8.37281E-03 7.93271E-04-5.39301E-15
 -1      1217 8.68532E-03 6.79306E-04-6.19917E-15
 -1      1218 9.01020E-03 5.73145E-04-7.06245E-15
 -1      1219 9.34133E-03 4.80286E-04-7.96879E-15
 -1      1220 9.67330E-03 4.02080E-04-8.92180E-15
 -1      1221 1.00022E-02 3.37246E-04-9.92370E-15
 -1      1222 1.03259E-02 2.83270E-04-1.09734E-14
 -1      1223 1.06434E-02 2.37365E-04-1.20671E-14
 -1      1224 1.09547E-02 1.97003E-04-1.31973E-14
 -1      1225 1.12603E-02 1.60124E-04-1.43550E-14
 -1      1226 1.15610E-02 1.25176E-04-1.55302E-14
 -1      1227 1.18576E-02 9.10585E-05-1.67213E-14
 -1      1228 1.21511E-02 5.70374E-05-1.79235E-14
 -1      1229 1.24421E-02 2.26580E-05-1.91391E-14
 -1      1230 1.27312E-02-1.23325E-05-2.03511E-14
 -1      1231 1.30190E-02-4.80472E-05-2.15677E-14
 -1      1232 1.33058E-02-8.45067E-05-2.27810E-14
 -1      1233 1.35920E-02-1.21673E-04-2.39976E-14
 -1      1234 1.38779E-02-1.59471E-04-2.52165E-14
 -1      1235 1.41635E-02-1.97798E-04-2.64355E-14
 -1      1236 1.44491E-02-2.36515E-04-2.76625E-14
 -1      1237 1.47276E-02-2.74446E-04-2.88601E-14
 -1      1238 1.48825E-02-3.35079E-04-2.94555E-14
 -1      1239 1.49207E-02-4.19426E-04-2.95114E-14
 -1      1240 1.49591E-02-5.03818E-04-2.95651E-14
 -1      1241 1.49979E-02-5.88157E-04-2.96164E-14
 -1      1242 1.50369E-02-6.72345E-04-2.96483E-14
 -1      1243 1.50760E-02-7.55610E-04-2.96722E-14
 -1      1244 1.51152E-02-8.38656E-04-2.97078E-14
 -1      1245 1.51548E-02-9.22233E-04-2.97410E-14
 -1      1246 1.51944E-02-1.00571E-03-2.97768E-14
 -1      1247 1.52340E-02-1.08920E-03-2.98008E-14
 -1      1248 1.52736E-02-1.17279E-03-2.97849E-14
 -1      1249 1.53130E-02-1.25586E-03-2.97706E-14
 -1      1250 1.53526E-02-1.33915E-03-2.97768E-14
 -1      1251 1.53928E-02-1.42336E-03-2.97671E-14
 -1      1252 1.54333E-02-1.50772E-03-2.97330E-14
 -1      1253 1.54742E-02-1.59212E-03-2.96847E-14
 -1      1254 1.55149E-02-1.67575E-03-2.96546E-14
 -1      1255 9.79984E-03-1.88508E-04-4.92233E-15
 -1      1256 9.66451E-03-3.57289E-05-4.85310E-15
 -1      1257 9.43483E-03 1.16462E-04-4.70965E-15
 -1      1258 9.11934E-03 2.72469E-04-4.51212E-15
 -1      1259 8.73015E-03 4.23484E-04-4.27468E-15
 -1      1260 8.30862E-03 5.45923E-04-4.00916E-15
 -1      1261 7.86478E-03 6.24345E-04-3.72521E-15
 -1      1262 7.41043E-03 6.47976E-04-3.43554E-15
 -1      1263 6.96727E-03 6.11728E-04-3.16647E-15
 -1      1264 6.54177E-03 5.26393E-04-2.92423E-15
 -1      1265 6.16110E-03 4.08403E-04-2.72655E-15
 -1      1266 5.83820E-03 2.73741E-04-2.57726E-15
 -1      1267 5.57873E-03 1.29254E-04-2.46700E-15
 -1      1268 5.40875E-03-1.68995E-05-2.40717E-15
 -1      1269 5.34793E-03-1.65861E-04-2.39771E-15
 -1      1270 5.40543E-03-3.20144E-04-2.43508E-15
 -1      1271 5.57426E-03-4.77422E-04-2.50955E-15
 -1      1272 5.84069E-03-6.41514E-04-2.62190E-15
 -1      1273 6.19441E-03-8.09592E-04-2.78373E-15
 -1      1274 6.60792E-03-9.63112E-04-2.98974E-15
 -1      1275 7.06167E-03-1.07914E-03-3.22870E-15
 -1      1276 7.53251E-03-1.13895E-03-3.49509E-15
 -1      1277 7.98762E-03-1.13113E-03-3.77048E-15
 -1      1278 8.44224E-03-1.05811E-03-4.05240E-15
 -1      1279 8.86511E-03-9.37989E-04-4.31746E-15
 -1      1280 9.23644E-03-7.89589E-04-4.56237E-15
 -1      1281 9.52961E-03-6.34314E-04-4.75755E-15
 -1      1282 9.72599E-03-4.84283E-04-4.87394E-15
 -1      1283 9.82021E-03-3.37777E-04-4.92357E-15
 -1      1284 1.66196E-04-1.09843E-04 1.85670E-18
 -1      1285 1.12461E-04-5.65990E-05 1.31460E-18
 -1      1286 1.17442E-04-6.72166E-05 1.42302E-18
 -1      1287 1.08471E-04-4.30608E-05 1.01644E-18
 -1      1288 1.10277E-04-4.91966E-05 1.19262E-18
 -1      1289 2.26261E-04-1.06725E-04 2.53432E-18
 -1      1290 1.06952E-04-3.31394E-05 9.75782E-19
 -1      1291 1.07773E-04-3.78697E-05 1.04354E-18
 -1      1292 2.19253E-04-8.14854E-05 2.24972E-18
 -1      1293 1.06197E-04-2.48942E-05 9.35124E-19
 -1      1294 1.06618E-04-2.89081E-05 9.62229E-19
 -1      1295 2.16099E-04-6.22791E-05 2.03288E-18
 -1      1296 1.05799E-04-1.76952E-05 1.30104E-18
 -1      1297 1.06030E-04-2.12212E-05 1.21973E-18
 -1      1298 2.14467E-04-4.62631E-05 2.37169E-18
 -1      1299 1.05568E-04-1.09581E-05 1.57209E-18
 -1      1300 1.05697E-04-1.42776E-05 1.42302E-18
 -1      1301 2.13534E-04-3.19948E-05 3.04932E-18
 -1      1302 1.05459E-04-4.56111E-06 1.97867E-18
 -1      1303 1.05516E-04-7.73306E-06 1.85670E-18
 -1      1304 2.13004E-04-1.86936E-05 3.86247E-18
 -1      1305 1.05445E-04 1.70041E-06 2.23617E-18
 -1      1306 1.05443E-04-1.42624E-06 2.10064E-18
 -1      1307 2.12767E-04-5.98728E-06 4.62141E-18
 -1      1308 1.05521E-04 8.01701E-06 3.00866E-18
 -1      1309 1.05461E-04 4.83849E-06 2.76472E-18
 -1      1310 2.12773E-04 6.53666E-06 5.71917E-18
 -1      1311 1.05707E-04 1.45865E-05 3.64563E-18
 -1      1312 1.05575E-04 1.12524E-05 3.41524E-18
 -1      1313 2.13022E-04 1.92692E-05 7.23705E-18
 -1      1314 1.06044E-04 2.15131E-05 4.52654E-18
 -1      1315 1.05808E-04 1.79649E-05 4.21484E-18
 -1      1316 2.13561E-04 3.25115E-05 8.87691E-18
 -1      1317 1.06656E-04 2.93384E-05 5.42101E-18
 -1      1318 1.06224E-04 2.52800E-05 5.02799E-18
 -1      1319 2.14518E-04 4.68672E-05 1.08420E-17
 -1      1320 1.07811E-04 3.84482E-05 6.66784E-18
 -1      1321 1.06985E-04 3.36474E-05 6.22061E-18
 -1      1322 2.16206E-04 6.32040E-05 1.30646E-17
 -1      1323 1.10256E-04 4.99343E-05 8.00954E-18
 -1      1324 1.08476E-04 4.37314E-05 7.46744E-18
 -1      1325 2.19356E-04 8.27307E-05 1.58971E-17
 -1      1326 1.16755E-04 6.72467E-05 9.22927E-18
 -1      1327 1.12100E-04 5.73888E-05 8.72783E-18
 -1      1328 2.26236E-04 1.08535E-04 1.87974E-17
 -1      1329 1.57070E-04 1.09378E-04 1.04354E-17
 -1      1330 1.35367E-04 8.56666E-05 1.02186E-17
 -1      1331 2.55614E-04 1.51133E-04 2.17383E-17
 -1      1332 3.34034E-04 2.19537E-04 2.46249E-17
 -1      1333 4.20283E-04-2.60096E-04 4.87891E-18
 -1      1334 5.73007E-04-3.34238E-04 6.61363E-18
 -1      1335 7.19903E-04-3.93822E-04 8.29415E-18
 -1      1336 8.62856E-04-4.41995E-04 9.69006E-18
 -1      1337 6.10929E-04-3.27895E-04 6.97955E-18
 -1      1338 1.00275E-03-4.81824E-04 1.06252E-17
 -1      1339 1.14057E-03-5.14443E-04 1.13435E-17
 -1      1340 9.03924E-04-4.26307E-04 9.40545E-18
 -1      1341 1.27714E-03-5.41700E-04 1.10182E-17
 -1      1342 1.41299E-03-5.64068E-04 9.36480E-18
 -1      1343 1.18646E-03-4.92934E-04 9.62229E-18
 -1      1344 1.54859E-03-5.82588E-04 6.89824E-18
 -1      1345 1.68421E-03-5.97593E-04 3.53721E-18
 -1      1346 1.46397E-03-5.38294E-04 6.53232E-18
 -1      1347 1.82013E-03-6.09684E-04-7.99599E-19
 -1      1348 1.95649E-03-6.19159E-04-6.96600E-18
 -1      1349 1.73986E-03-5.68452E-04-5.55654E-19
 -1      1350 2.09347E-03-6.26393E-04-1.50026E-17
 -1      1351 2.23115E-03-6.31648E-04-2.48824E-17
 -1      1352 2.01624E-03-5.87279E-04-1.37152E-17
 -1      1353 2.36966E-03-6.35177E-04-3.76760E-17
 -1      1354 2.50906E-03-6.37211E-04-5.26516E-17
 -1      1355 2.29441E-03-5.97502E-04-3.51146E-17
 -1      1356 2.64947E-03-6.37928E-04-7.18148E-17
 -1      1357 2.79093E-03-6.37542E-04-9.48948E-17
 -1      1358 2.57527E-03-6.01167E-04-6.68275E-17
 -1      1359 2.93357E-03-6.36186E-04-1.20252E-16
 -1      1360 3.07746E-03-6.34072E-04-1.49715E-16
 -1      1361 2.85955E-03-5.99892E-04-1.11117E-16
 -1      1362 3.22272E-03-6.31315E-04-1.82444E-16
 -1      1363 3.36944E-03-6.28143E-04-2.18087E-16
 -1      1364 3.14798E-03-5.95060E-04-1.69569E-16
 -1      1365 3.51777E-03-6.24680E-04-2.58460E-16
 -1      1366 3.66783E-03-6.21192E-04-3.02736E-16
 -1      1367 3.44130E-03-5.88003E-04-2.42509E-16
 -1      1368 3.81978E-03-6.17848E-04-3.50672E-16
 -1      1369 3.97377E-03-6.14977E-04-4.03093E-16
 -1      1370 3.74041E-03-5.80193E-04-3.31996E-16
 -1      1371 4.12998E-03-6.12835E-04-4.59580E-16
 -1      1372 4.28857E-03-6.11843E-04-5.21190E-16
 -1      1373 4.04630E-03-5.73484E-04-4.37435E-16
 -1      1374 4.44970E-03-6.12401E-04-5.88153E-16
 -1      1375 4.61352E-03-6.15050E-04-6.59764E-16
 -1      1376 4.36005E-03-5.70405E-04-5.61305E-16
 -1      1377 4.78015E-03-6.20397E-04-7.38179E-16
 -1      1378 4.94965E-03-6.29114E-04-8.24319E-16
 -1      1379 4.68269E-03-5.74504E-04-7.08363E-16
 -1      1380 5.12204E-03-6.42069E-04-9.15758E-16
 -1      1381 5.29720E-03-6.60035E-04-1.01342E-15
 -1      1382 5.01498E-03-5.90702E-04-8.80169E-16
 -1      1383 5.47495E-03-6.84116E-04-1.11783E-15
 -1      1384 5.65488E-03-7.15069E-04-1.22917E-15
 -1      1385 5.35703E-03-6.25474E-04-1.07725E-15
 -1      1386 5.83649E-03-7.54019E-04-1.34858E-15
 -1      1387 6.01895E-03-8.01416E-04-1.47663E-15
 -1      1388 5.70776E-03-6.86466E-04-1.30325E-15
 -1      1389 6.20138E-03-8.57866E-04-1.61367E-15
 -1      1390 6.38255E-03-9.22955E-04-1.76066E-15
 -1      1391 6.06432E-03-7.80829E-04-1.56147E-15
 -1      1392 6.56126E-03-9.95899E-04-1.91673E-15
 -1      1393 6.73609E-03-1.07469E-03-2.08244E-15
 -1      1394 6.42148E-03-9.11358E-04-1.85502E-15
 -1      1395 6.90594E-03-1.15636E-03-2.26173E-15
 -1      1396 7.06989E-03-1.23701E-03-2.45282E-15
 -1      1397 6.77191E-03-1.07032E-03-2.19154E-15
 -1      1398 7.22756E-03-1.31165E-03-2.65811E-15
 -1      1399 7.37932E-03-1.37545E-03-2.87938E-15
 -1      1400 7.10813E-03-1.23383E-03-2.57806E-15
 -1      1401 7.52607E-03-1.42345E-03-3.11535E-15
 -1      1402 7.66980E-03-1.45220E-03-3.36881E-15
 -1      1403 7.42690E-03-1.36364E-03-3.02174E-15
 -1      1404 7.80526E-03-1.45988E-03-3.62552E-15
 -1      1405 7.94214E-03-1.44850E-03-3.89700E-15
 -1      1406 7.72593E-03-1.42165E-03-3.51649E-15
 -1      1407 8.08943E-03-1.41827E-03-4.20218E-15
 -1      1408 8.24189E-03-1.37271E-03-4.52696E-15
 -1      1409 8.02539E-03-1.39736E-03-4.07679E-15
 -1      1410 8.40037E-03-1.31686E-03-4.86961E-15
 -1      1411 8.56514E-03-1.25560E-03-5.23241E-15
 -1      1412 8.34523E-03-1.30397E-03-4.72671E-15
 -1      1413 8.73578E-03-1.19381E-03-5.61004E-15
 -1      1414 8.91130E-03-1.13531E-03-6.00137E-15
 -1      1415 8.68265E-03-1.17923E-03-5.44667E-15
 -1      1416 9.09057E-03-1.08293E-03-6.40601E-15
 -1      1417 9.27218E-03-1.03856E-03-6.82467E-15
 -1      1418 9.03403E-03-1.06091E-03-6.22905E-15
 -1      1419 9.45496E-03-1.00287E-03-7.25537E-15
 -1      1420 9.63770E-03-9.76194E-04-7.69563E-15
 -1      1421 9.39181E-03-9.71847E-04-7.06379E-15
 -1      1422 9.81954E-03-9.57878E-04-8.15086E-15
 -1      1423 9.99971E-03-9.47446E-04-8.61873E-15
 -1      1424 9.74879E-03-9.18936E-04-7.94982E-15
 -1      1425 1.01777E-02-9.43762E-04-9.09764E-15
 -1      1426 1.03532E-02-9.46073E-04-9.58699E-15
 -1      1427 1.01000E-02-8.98967E-04-8.88313E-15
 -1      1428 1.05261E-02-9.53286E-04-1.00852E-14
 -1      1429 1.06961E-02-9.64649E-04-1.05917E-14
 -1      1430 1.04427E-02-9.04707E-04-9.85860E-15
 -1      1431 1.08635E-02-9.79312E-04-1.11063E-14
 -1      1432 1.10282E-02-9.96638E-04-1.16291E-14
 -1      1433 1.07761E-02-9.28601E-04-1.08666E-14
 -1      1434 1.11904E-02-1.01604E-03-1.21593E-14
 -1      1435 1.13503E-02-1.03702E-03-1.26934E-14
 -1      1436 1.11004E-02-9.64364E-04-1.19099E-14
 -1      1437 1.15080E-02-1.05922E-03-1.32339E-14
 -1      1438 1.16638E-02-1.08225E-03-1.37833E-14
 -1      1439 1.14165E-02-1.00732E-03-1.29796E-14
 -1      1440 1.18179E-02-1.10590E-03-1.43363E-14
 -1      1441 1.19704E-02-1.12991E-03-1.48884E-14
 -1      1442 1.17257E-02-1.05422E-03-1.40713E-14
 -1      1443 1.21215E-02-1.15417E-03-1.54481E-14
 -1      1444 1.22714E-02-1.17848E-03-1.60142E-14
 -1      1445 1.20291E-02-1.10293E-03-1.51789E-14
 -1      1446 1.24202E-02-1.20280E-03-1.65893E-14
 -1      1447 1.25681E-02-1.22700E-03-1.71732E-14
 -1      1448 1.23279E-02-1.15210E-03-1.63114E-14
 -1      1449 1.27151E-02-1.25107E-03-1.77597E-14
 -1      1450 1.28614E-02-1.27494E-03-1.83486E-14
 -1      1451 1.26231E-02-1.20093E-03-1.74718E-14
 -1      1452 1.30071E-02-1.29860E-03-1.89447E-14
 -1      1453 1.31523E-02-1.32202E-03-1.95448E-14
 -1      1454 1.29155E-02-1.24899E-03-1.86530E-14
 -1      1455 1.32971E-02-1.34520E-03-2.01490E-14
 -1      1456 1.34414E-02-1.36814E-03-2.07607E-14
 -1      1457 1.32059E-02-1.29607E-03-1.98533E-14
 -1      1458 1.35855E-02-1.39084E-03-2.13747E-14
 -1      1459 1.37293E-02-1.41330E-03-2.19905E-14
 -1      1460 1.34947E-02-1.34211E-03-2.10699E-14
 -1      1461 1.38728E-02-1.43554E-03-2.26101E-14
 -1      1462 1.40162E-02-1.45757E-03-2.32249E-14
 -1      1463 1.37823E-02-1.38716E-03-2.23013E-14
 -1      1464 1.41594E-02-1.47940E-03-2.38406E-14
 -1      1465 1.43025E-02-1.50103E-03-2.44590E-14
 -1      1466 1.40692E-02-1.43130E-03-2.35372E-14
 -1      1467 1.44455E-02-1.52251E-03-2.50778E-14
 -1      1468 1.45885E-02-1.54382E-03-2.56985E-14
 -1      1469 1.43556E-02-1.47464E-03-2.47699E-14
 -1      1470 1.47314E-02-1.56500E-03-2.63150E-14
 -1      1471 1.48742E-02-1.58606E-03-2.69281E-14
 -1      1472 1.46417E-02-1.51730E-03-2.60086E-14
 -1      1473 1.50171E-02-1.60703E-03-2.75433E-14
 -1      1474 1.51599E-02-1.62792E-03-2.81542E-14
 -1      1475 1.49275E-02-1.55944E-03-2.72413E-14
 -1      1476 1.52660E-02-1.64141E-03-2.86071E-14
 -1      1477 1.54089E-02-1.66226E-03-2.92064E-14
 -1      1478 1.53887E-02-1.62082E-03-2.92163E-14
 -1      1479 1.51765E-02-1.59387E-03-2.83112E-14
 -1      1480 6.41251E-04 3.69046E-04 5.65005E-17
 -1      1481 4.91473E-04 3.01653E-04 3.90313E-17
 -1      1482 4.43876E-04 2.64000E-04 3.68629E-17
 -1      1483 9.26396E-04 4.66840E-04 9.69412E-17
 -1      1484 7.85723E-04 4.22490E-04 7.58264E-17
 -1      1485 7.43300E-04 3.86851E-04 7.09204E-17
 -1      1486 1.20120E-03 5.33569E-04 1.41244E-16
 -1      1487 1.06453E-03 5.03284E-04 1.19073E-16
 -1      1488 1.02920E-03 4.69847E-04 1.11442E-16
 -1      1489 1.47215E-03 5.79549E-04 1.87215E-16
 -1      1490 1.33683E-03 5.58759E-04 1.64284E-16
 -1      1491 1.30737E-03 5.26697E-04 1.54499E-16
 -1      1492 1.74270E-03 6.10597E-04 2.30190E-16
 -1      1493 1.60729E-03 5.96693E-04 2.09197E-16
 -1      1494 1.58239E-03 5.65439E-04 1.96119E-16
 -1      1495 2.01479E-03 6.30513E-04 2.67703E-16
 -1      1496 1.87845E-03 6.21767E-04 2.49963E-16
 -1      1497 1.85704E-03 5.90925E-04 2.33984E-16
 -1      1498 2.28954E-03 6.42027E-04 2.96705E-16
 -1      1499 2.15177E-03 6.37178E-04 2.83438E-16
 -1      1500 2.13300E-03 6.06485E-04 2.65264E-16
 -1      1501 2.56768E-03 6.47241E-04 3.14608E-16
 -1      1502 2.42815E-03 6.45303E-04 3.07276E-16
 -1      1503 2.41129E-03 6.14573E-04 2.86392E-16
 -1      1504 2.84978E-03 6.47873E-04 3.18972E-16
 -1      1505 2.70820E-03 6.48023E-04 3.18430E-16
 -1      1506 2.69263E-03 6.17113E-04 2.95852E-16
 -1      1507 3.13636E-03 6.45438E-04 3.08374E-16
 -1      1508 2.99248E-03 6.46935E-04 3.15476E-16
 -1      1509 2.97759E-03 6.15717E-04 2.90553E-16
 -1      1510 3.42792E-03 6.41405E-04 2.80849E-16
 -1      1511 3.28148E-03 6.43512E-04 2.97180E-16
 -1      1512 3.26670E-03 6.11862E-04 2.69871E-16
 -1      1513 3.72499E-03 6.37352E-04 2.34486E-16
 -1      1514 3.57573E-03 6.39259E-04 2.60249E-16
 -1      1515 3.56044E-03 6.07047E-04 2.30962E-16
 -1      1516 4.02807E-03 6.35106E-04 1.67306E-16
 -1      1517 3.87575E-03 6.35864E-04 2.03749E-16
 -1      1518 3.85929E-03 6.02948E-04 1.72917E-16
 -1      1519 4.33745E-03 6.36867E-04 7.48913E-17
 -1      1520 4.18195E-03 6.35329E-04 1.24453E-16
 -1      1521 4.16364E-03 6.01565E-04 9.18726E-17
 -1      1522 4.65312E-03 6.45262E-04-4.71899E-17
 -1      1523 4.49451E-03 6.40070E-04 1.73066E-17
 -1      1524 4.47363E-03 6.05322E-04-1.64528E-17
 -1      1525 4.97444E-03 6.63259E-04-2.01472E-16
 -1      1526 4.81313E-03 6.52910E-04-1.19967E-16
 -1      1527 4.78907E-03 6.17081E-04-1.53726E-16
 -1      1528 5.29984E-03 6.93824E-04-3.88334E-16
 -1      1529 5.13676E-03 6.76879E-04-2.90417E-16
 -1      1530 5.10913E-03 6.39960E-04-3.24420E-16
 -1      1531 5.62658E-03 7.39161E-04-6.13130E-16
 -1      1532 5.46326E-03 7.14680E-04-4.95684E-16
 -1      1533 5.43215E-03 6.76821E-04-5.30270E-16
 -1      1534 5.95070E-03 7.99470E-04-8.84763E-16
 -1      1535 5.78926E-03 7.67688E-04-7.42895E-16
 -1      1536 5.75548E-03 7.29278E-04-7.77224E-16
 -1      1537 6.26744E-03 8.71344E-04-1.20699E-15
 -1      1538 6.11032E-03 8.34483E-04-1.03917E-15
 -1      1539 6.07558E-03 7.96206E-04-1.07149E-15
 -1      1540 6.57229E-03 9.46431E-04-1.58733E-15
 -1      1541 6.42161E-03 9.09284E-04-1.38962E-15
 -1      1542 6.38853E-03 8.72080E-04-1.41953E-15
 -1      1543 6.86271E-03 1.01148E-03-2.02046E-15
 -1      1544 6.71937E-03 9.81145E-04-1.79763E-15
 -1      1545 6.69111E-03 9.46013E-04-1.82344E-15
 -1      1546 7.13979E-03 1.05096E-03-2.50893E-15
 -1      1547 7.00271E-03 1.03521E-03-2.25835E-15
 -1      1548 6.98226E-03 1.00284E-03-2.28069E-15
 -1      1549 7.40881E-03 1.05202E-03-3.05336E-15
 -1      1550 7.27484E-03 1.05662E-03-2.77394E-15
 -1      1551 7.26426E-03 1.02702E-03-2.79295E-15
 -1      1552 7.67792E-03 1.00965E-03-3.64993E-15
 -1      1553 7.54278E-03 1.03597E-03-3.34398E-15
 -1      1554 7.54259E-03 1.00840E-03-3.36038E-15
 -1      1555 7.95524E-03 9.28960E-04-4.30726E-15
 -1      1556 7.81509E-03 9.73296E-04-3.97104E-15
 -1      1557 7.82416E-03 9.46536E-04-3.98603E-15
 -1      1558 8.24604E-03 8.22854E-04-5.02524E-15
 -1      1559 8.09875E-03 8.78087E-04-4.65970E-15
 -1      1560 8.11465E-03 8.50946E-04-4.67227E-15
 -1      1561 8.55135E-03 7.06863E-04-5.79997E-15
 -1      1562 8.39694E-03 7.65231E-04-5.40472E-15
 -1      1563 8.41659E-03 7.36934E-04-5.41396E-15
 -1      1564 8.86864E-03 5.94159E-04-6.63022E-15
 -1      1565 8.70874E-03 6.49550E-04-6.20779E-15
 -1      1566 8.72920E-03 6.19846E-04-6.21348E-15
 -1      1567 9.19347E-03 4.93019E-04-7.51107E-15
 -1      1568 9.03042E-03 5.41918E-04-7.06538E-15
 -1      1569 9.04939E-03 5.10959E-04-7.06783E-15
 -1      1570 9.52114E-03 4.06794E-04-8.43908E-15
 -1      1571 9.35723E-03 4.48054E-04-7.96952E-15
 -1      1572 9.37333E-03 4.16200E-04-7.96826E-15
 -1      1573 9.84778E-03 3.35269E-04-9.41471E-15
 -1      1574 9.68480E-03 3.69335E-04-8.92134E-15
 -1      1575 9.69749E-03 3.36987E-04-8.91733E-15
 -1      1576 1.01708E-02 2.76280E-04-1.04348E-14
 -1      1577 1.00099E-02 3.04394E-04-9.91717E-15
 -1      1578 1.00193E-02 2.71901E-04-9.91134E-15
 -1      1579 1.04888E-02 2.26965E-04-1.15030E-14
 -1      1580 1.03305E-02 2.50596E-04-1.09649E-14
 -1      1581 1.03370E-02 2.18212E-04-1.09515E-14
 -1      1582 1.08013E-02 1.84519E-04-1.26085E-14
 -1      1583 1.06458E-02 2.05037E-04-1.20511E-14
 -1      1584 1.06500E-02 1.72925E-04-1.20339E-14
 -1      1585 1.11085E-02 1.46560E-04-1.37478E-14
 -1      1586 1.09556E-02 1.65097E-04-1.31744E-14
 -1      1587 1.09581E-02 1.33339E-04-1.31516E-14
 -1      1588 1.14109E-02 1.11236E-04-1.49076E-14
 -1      1589 1.12603E-02 1.28654E-04-1.43254E-14
 -1      1590 1.12617E-02 9.72759E-05-1.42963E-14
 -1      1591 1.17092E-02 7.72028E-05-1.60897E-14
 -1      1592 1.15605E-02 9.41163E-05-1.54973E-14
 -1      1593 1.15612E-02 6.31058E-05-1.54624E-14
 -1      1594 1.20041E-02 4.35412E-05-1.72793E-14
 -1      1595 1.18570E-02 6.03625E-05-1.66831E-14
 -1      1596 1.18573E-02 2.96856E-05-1.66454E-14
 -1      1597 1.22964E-02 9.66336E-06-1.84902E-14
 -1      1598 1.21505E-02 2.66505E-05-1.78842E-14
 -1      1599 1.21507E-02-3.73734E-06-1.78430E-14
 -1      1600 1.25865E-02-2.47736E-05-1.97003E-14
 -1      1601 1.24417E-02-7.47505E-06-1.90950E-14
 -1      1602 1.24418E-02-3.76212E-05-1.90526E-14
 -1      1603 1.28752E-02-5.99404E-05-2.09158E-14
 -1      1604 1.27310E-02-4.22629E-05-2.03069E-14
 -1      1605 1.27312E-02-7.22130E-05-2.02640E-14
 -1      1606 1.31627E-02-9.58924E-05-2.21324E-14
 -1      1607 1.30191E-02-7.78202E-05-2.15252E-14
 -1      1608 1.30194E-02-1.07615E-04-2.14809E-14
 -1      1609 1.34494E-02-1.32611E-04-2.33480E-14
 -1      1610 1.33062E-02-1.14161E-04-2.27416E-14
 -1      1611 1.33067E-02-1.43837E-04-2.26986E-14
 -1      1612 1.37357E-02-1.70031E-04-2.45659E-14
 -1      1613 1.35926E-02-1.51240E-04-2.39546E-14
 -1      1614 1.35933E-02-1.80827E-04-2.39148E-14
 -1      1615 1.40216E-02-2.08060E-04-2.57861E-14
 -1      1616 1.38786E-02-1.88978E-04-2.51760E-14
 -1      1617 1.38794E-02-2.18501E-04-2.51330E-14
 -1      1618 1.43073E-02-2.46577E-04-2.70076E-14
 -1      1619 1.41644E-02-2.27267E-04-2.63966E-14
 -1      1620 1.41653E-02-2.56749E-04-2.63561E-14
 -1      1621 1.45930E-02-2.85417E-04-2.82336E-14
 -1      1622 1.44501E-02-2.65969E-04-2.76206E-14
 -1      1623 1.44511E-02-2.95429E-04-2.75809E-14
 -1      1624 1.47467E-02-3.16592E-04-2.88792E-14
 -1      1625 1.48066E-02-4.23616E-04-2.89895E-14
 -1      1626 1.47874E-02-3.81459E-04-2.89665E-14
 -1      1627 1.48451E-02-5.07902E-04-2.90361E-14
 -1      1628 1.48258E-02-4.65767E-04-2.90133E-14
 -1      1629 1.46924E-02-4.27783E-04-2.84656E-14
 -1      1630 1.48839E-02-5.92089E-04-2.90830E-14
 -1      1631 1.48644E-02-5.50012E-04-2.90594E-14
 -1      1632 1.47310E-02-5.11974E-04-2.85073E-14
 -1      1633 1.49231E-02-6.76112E-04-2.91114E-14
 -1      1634 1.49035E-02-6.34124E-04-2.90999E-14
 -1      1635 1.47700E-02-5.96028E-04-2.85459E-14
 -1      1636 1.49619E-02-7.58523E-04-2.91422E-14
 -1      1637 1.49424E-02-7.17342E-04-2.91269E-14
 -1      1638 1.48089E-02-6.79197E-04-2.85784E-14
 -1      1639 1.50014E-02-8.42171E-04-2.91741E-14
 -1      1640 1.49816E-02-8.00368E-04-2.91582E-14
 -1      1641 1.48481E-02-7.62182E-04-2.86090E-14
 -1      1642 1.50411E-02-9.25681E-04-2.92038E-14
 -1      1643 1.50212E-02-8.83940E-04-2.91877E-14
 -1      1644 1.48877E-02-8.45713E-04-2.86369E-14
 -1      1645 1.50807E-02-1.00913E-03-2.92328E-14
 -1      1646 1.50609E-02-9.67407E-04-2.92191E-14
 -1      1647 1.49274E-02-9.29131E-04-2.86632E-14
 -1      1648 1.51203E-02-1.09260E-03-2.92465E-14
 -1      1649 1.51005E-02-1.05086E-03-2.92428E-14
 -1      1650 1.49670E-02-1.01251E-03-2.86875E-14
 -1      1651 1.51599E-02-1.17618E-03-2.92400E-14
 -1      1652 1.51401E-02-1.13437E-03-2.92458E-14
 -1      1653 1.50066E-02-1.09594E-03-2.86994E-14
 -1      1654 1.51990E-02-1.25852E-03-2.92342E-14
 -1      1655 1.51794E-02-1.21733E-03-2.92349E-14
 -1      1656 1.50459E-02-1.17877E-03-2.86995E-14
 -1      1657 1.52389E-02-1.34246E-03-2.92349E-14
 -1      1658 1.52189E-02-1.30047E-03-2.92357E-14
 -1      1659 1.50853E-02-1.26176E-03-2.86985E-14
 -1      1660 1.52792E-02-1.42659E-03-2.92189E-14
 -1      1661 1.52590E-02-1.38451E-03-2.92310E-14
 -1      1662 1.51253E-02-1.34565E-03-2.86929E-14
 -1      1663 1.53198E-02-1.51085E-03-2.91886E-14
 -1      1664 1.52994E-02-1.46871E-03-2.92043E-14
 -1      1665 1.51656E-02-1.42972E-03-2.86744E-14
 -1      1666 1.53644E-02-1.58692E-03-2.91936E-14
 -1      1667 1.53439E-02-1.54475E-03-2.92103E-14
 -1      1668 1.52100E-02-1.50568E-03-2.86877E-14
 -1      1669 1.52583E-02-1.57345E-03-2.87383E-14
 -1      1670 9.78570E-03-1.96667E-04-5.08237E-15
 -1      1671 9.83125E-03-2.45230E-04-5.10139E-15
 -1      1672 9.59812E-03-7.67096E-05-4.97176E-15
 -1      1673 9.69807E-03-1.32824E-04-5.02632E-15
 -1      1674 9.30994E-03 6.80650E-05-4.79362E-15
 -1      1675 9.45454E-03-2.75997E-06-4.88539E-15
 -1      1676 8.94546E-03 2.42620E-04-4.56223E-15
 -1      1677 9.12188E-03 1.58769E-04-4.67289E-15
 -1      1678 8.52769E-03 4.28031E-04-4.28417E-15
 -1      1679 8.72189E-03 3.40593E-04-4.42146E-15
 -1      1680 8.12988E-03 5.82740E-04-3.98466E-15
 -1      1681 8.30739E-03 5.17804E-04-4.12075E-15
 -1      1682 7.72176E-03 6.83504E-04-3.66306E-15
 -1      1683 7.90686E-03 6.46877E-04-3.81468E-15
 -1      1684 7.33688E-03 6.88721E-04-3.35374E-15
 -1      1685 7.51052E-03 6.95894E-04-3.49070E-15
 -1      1686 6.94470E-03 6.13346E-04-3.06683E-15
 -1      1687 7.12747E-03 6.59201E-04-3.19409E-15
 -1      1688 6.54789E-03 4.76468E-04-2.82307E-15
 -1      1689 6.72638E-03 5.44641E-04-2.93133E-15
 -1      1690 6.16589E-03 3.18174E-04-2.63246E-15
 -1      1691 6.33698E-03 3.93509E-04-2.71503E-15
 -1      1692 5.83131E-03 1.64310E-04-2.48931E-15
 -1      1693 5.97905E-03 2.33247E-04-2.54991E-15
 -1      1694 5.55266E-03 1.77357E-05-2.37881E-15
 -1      1695 5.67562E-03 7.89910E-05-2.42039E-15
 -1      1696 5.37707E-03-8.66915E-05-2.33931E-15
 -1      1697 5.44094E-03-3.90986E-05-2.35481E-15
 -1      1698 5.33238E-03-1.88566E-04-2.32763E-15
 -1      1699 5.33443E-03-1.44391E-04-2.32052E-15
 -1      1700 5.43599E-03-2.95806E-04-2.38360E-15
 -1      1701 5.37200E-03-2.46237E-04-2.35714E-15
 -1      1702 5.66509E-03-4.32963E-04-2.47625E-15
 -1      1703 5.54403E-03-3.66972E-04-2.43082E-15
 -1      1704 5.98857E-03-5.98668E-04-2.60412E-15
 -1      1705 5.82980E-03-5.18201E-04-2.53981E-15
 -1      1706 6.39875E-03-7.90584E-04-2.78189E-15
 -1      1707 6.20582E-03-6.94426E-04-2.68893E-15
 -1      1708 6.80291E-03-9.84984E-04-3.00861E-15
 -1      1709 6.61353E-03-9.02065E-04-2.90292E-15
 -1      1710 7.23864E-03-1.13355E-03-3.26987E-15
 -1      1711 7.04102E-03-1.07181E-03-3.14134E-15
 -1      1712 7.64096E-03-1.19225E-03-3.56190E-15
 -1      1713 7.46006E-03-1.17712E-03-3.42784E-15
 -1      1714 8.03883E-03-1.15291E-03-3.86420E-15
 -1      1715 7.85509E-03-1.18186E-03-3.72323E-15
 -1      1716 8.44644E-03-1.02759E-03-4.18264E-15
 -1      1717 8.25361E-03-1.09658E-03-4.03806E-15
 -1      1718 8.85954E-03-8.59758E-04-4.46157E-15
 -1      1719 8.67792E-03-9.40405E-04-4.33510E-15
 -1      1720 9.23605E-03-6.70008E-04-4.74344E-15
 -1      1721 9.06098E-03-7.54899E-04-4.62285E-15
 -1      1722 9.54885E-03-5.24432E-04-4.92518E-15
 -1      1723 9.42116E-03-5.90000E-04-4.84636E-15
 -1      1724 9.75718E-03-3.94597E-04-5.06577E-15
 -1      1725 9.67214E-03-4.47209E-04-5.02124E-15
 -1      1726 9.84232E-03-2.98353E-04-5.09068E-15
 -1      1727 9.82009E-03-3.42605E-04-5.07710E-15
 -1      1728 9.16936E-03 5.89562E-05-4.84993E-15
 -1      1729 9.84646E-03-2.76094E-04-5.25940E-15
 -1      1730 1.47478E-02-3.46056E-04-2.88395E-14
 -1      1731 1.46336E-02-3.50265E-04-2.83180E-14
 -1      1732 9.74370E-03-2.02562E-04-5.21041E-15
 -1      1733 9.50450E-03-9.35984E-05-5.06348E-15
 -1      1734 8.76812E-03 2.52889E-04-4.57890E-15
 -1      1735 8.35656E-03 4.57943E-04-4.26474E-15
 -1      1736 7.96531E-03 6.28408E-04-3.92394E-15
 -1      1737 7.60946E-03 7.15994E-04-3.57830E-15
 -1      1738 7.25360E-03 6.95476E-04-3.24651E-15
 -1      1739 6.89002E-03 5.81413E-04-2.95564E-15
 -1      1740 6.50357E-03 4.11352E-04-2.71879E-15
 -1      1741 6.12456E-03 2.32496E-04-2.53500E-15
 -1      1742 5.78167E-03 6.80967E-05-2.38920E-15
 -1      1743 5.50670E-03-5.01946E-05-2.30229E-15
 -1      1744 5.34692E-03-1.33895E-04-2.26209E-15
 -1      1745 5.34309E-03-1.96841E-04-2.27183E-15
 -1      1746 5.49782E-03-2.85956E-04-2.34626E-15
 -1      1747 5.77823E-03-4.18495E-04-2.45428E-15
 -1      1748 6.15754E-03-5.95925E-04-2.59817E-15
 -1      1749 6.56970E-03-8.15019E-04-2.79753E-15
 -1      1750 6.98711E-03-1.02920E-03-3.04666E-15
 -1      1751 7.37623E-03-1.17669E-03-3.33311E-15
 -1      1752 7.74024E-03-1.21382E-03-3.65100E-15
 -1      1753 8.11036E-03-1.13785E-03-3.98984E-15
 -1      1754 8.49793E-03-9.72843E-04-4.32331E-15
 -1      1755 8.90594E-03-7.67879E-04-4.64354E-15
 -1      1756 9.28442E-03-5.80705E-04-4.91535E-15
 -1      1757 9.59609E-03-4.37374E-04-5.12104E-15
 -1      1758 9.79139E-03-3.44827E-04-5.23574E-15
 -1      1759 2.84561E-04-1.75206E-04 3.45589E-18
 -1      1760 3.32462E-04-1.15142E-04 3.13063E-18
 -1      1761 3.36497E-04-1.31402E-04 3.27971E-18
 -1      1762 3.42225E-04-1.50419E-04 3.64563E-18
 -1      1763 3.51559E-04-1.72449E-04 3.95734E-18
 -1      1764 4.58488E-04-1.85720E-04 4.59431E-18
 -1      1765 3.24913E-04-6.39702E-05 3.69984E-18
 -1      1766 3.26065E-04-7.51624E-05 3.15774E-18
 -1      1767 3.23357E-04-4.28023E-05 4.59431E-18
 -1      1768 3.24044E-04-5.31127E-05 4.07931E-18
 -1      1769 4.36891E-04-7.74246E-05 5.06865E-18
 -1      1770 3.22512E-04-2.31272E-05 5.92245E-18
 -1      1771 3.22871E-04-3.28067E-05 5.24483E-18
 -1      1772 4.34777E-04-4.99642E-05 6.65429E-18
 -1      1773 3.22184E-04-4.20749E-06 7.29126E-18
 -1      1774 3.22293E-04-1.35964E-05 6.69495E-18
 -1      1775 4.33663E-04-2.42160E-05 8.53809E-18
 -1      1776 3.22313E-04 1.45814E-05 8.99888E-18
 -1      1777 3.22190E-04 5.18194E-06 7.94178E-18
 -1      1778 4.33328E-04 7.46988E-07 1.05981E-17
 -1      1779 3.22923E-04 3.38469E-05 1.10453E-17
 -1      1780 3.22546E-04 2.41339E-05 9.94755E-18
 -1      1781 4.33714E-04 2.57405E-05 1.30240E-17
 -1      1782 3.24109E-04 5.39043E-05 1.37965E-17
 -1      1783 3.23418E-04 4.37176E-05 1.22244E-17
 -1      1784 4.34875E-04 5.13608E-05 1.62224E-17
 -1      1785 3.26201E-04 7.62999E-05 1.68593E-17
 -1      1786 3.24992E-04 6.48295E-05 1.53415E-17
 -1      1787 4.37033E-04 7.87413E-05 2.02339E-17
 -1      1788 3.29861E-04 1.02019E-04 2.03694E-17
 -1      1789 3.27734E-04 8.87143E-05 1.84179E-17
 -1      1790 4.40739E-04 1.09384E-04 2.45843E-17
 -1      1791 3.36783E-04 1.33505E-04 2.46792E-17
 -1      1792 3.32713E-04 1.16965E-04 2.24972E-17
 -1      1793 4.47196E-04 1.45003E-04 2.97071E-17
 -1      1794 3.52049E-04 1.75996E-04 2.89618E-17
 -1      1795 3.42791E-04 1.53133E-04 2.68340E-17
 -1      1796 4.59415E-04 1.89072E-04 3.56974E-17
 -1      1797 4.06993E-04 2.31914E-04 3.39626E-17
 -1      1798 3.77671E-04 2.00993E-04 3.14283E-17
 -1      1799 4.95542E-04 2.41554E-04 4.19451E-17
 -1      1800 5.57656E-04 2.99810E-04 4.90330E-17
 -1      1801 3.39525E-04-1.89509E-04 4.05221E-18
 -1      1802 8.52534E-04 4.02221E-04 8.49201E-17
 -1      1803 7.06166E-04 3.55616E-04 6.62448E-17
 -1      1804 6.72790E-04 3.25193E-04 6.15556E-17
 -1      1805 4.58511E-04-2.34555E-04 5.21772E-18
 -1      1806 8.06514E-04-3.69448E-04 8.28059E-18
 -1      1807 9.51814E-04-4.09356E-04 8.76849E-18
 -1      1808 1.09477E-03-4.42627E-04 8.67362E-18
 -1      1809 1.23665E-03-4.69956E-04 8.09086E-18
 -1      1810 1.00386E-03-3.91286E-04 8.00954E-18
 -1      1811 1.37739E-03-4.92702E-04 6.45100E-18
 -1      1812 1.51755E-03-5.11161E-04 3.75405E-18
 -1      1813 1.29003E-03-4.46083E-04 6.24772E-18
 -1      1814 1.65732E-03-5.26224E-04-3.52366E-19
 -1      1815 1.79697E-03-5.38127E-04-5.42101E-18
 -1      1816 1.57336E-03-4.83156E-04 6.23416E-19
 -1      1817 1.93669E-03-5.47449E-04-1.19533E-17
 -1      1818 2.07661E-03-5.54398E-04-2.09522E-17
 -1      1819 1.85548E-03-5.06990E-04-1.03948E-17
 -1      1820 2.21689E-03-5.59365E-04-3.24990E-17
 -1      1821 2.35761E-03-5.62534E-04-4.55636E-17
 -1      1822 2.13766E-03-5.20806E-04-2.88127E-17
 -1      1823 2.49889E-03-5.64180E-04-6.09864E-17
 -1      1824 2.64081E-03-5.64470E-04-7.99870E-17
 -1      1825 2.42086E-03-5.26980E-04-5.57958E-17
 -1      1826 2.78345E-03-5.63610E-04-1.02620E-16
 -1      1827 2.92690E-03-5.61755E-04-1.27936E-16
 -1      1828 2.70578E-03-5.27329E-04-9.34718E-17
 -1      1829 3.07123E-03-5.59077E-04-1.57616E-16
 -1      1830 3.21655E-03-5.55735E-04-1.90264E-16
 -1      1831 2.99305E-03-5.23331E-04-1.45324E-16
 -1      1832 3.36290E-03-5.51896E-04-2.26788E-16
 -1      1833 3.51045E-03-5.47740E-04-2.67622E-16
 -1      1834 3.28324E-03-5.16297E-04-2.11013E-16
 -1      1835 3.65920E-03-5.43464E-04-3.12752E-16
 -1      1836 3.80936E-03-5.39290E-04-3.61568E-16
 -1      1837 3.57694E-03-5.07563E-04-2.93155E-16
 -1      1838 3.96093E-03-5.35487E-04-4.14423E-16
 -1      1839 4.11415E-03-5.32345E-04-4.72360E-16
 -1      1840 3.87480E-03-4.98701E-04-3.91533E-16
 -1      1841 4.26899E-03-5.30258E-04-5.34986E-16
 -1      1842 4.42572E-03-5.29614E-04-6.03291E-16
 -1      1843 4.17753E-03-4.91775E-04-5.07515E-16
 -1      1844 4.58431E-03-5.30991E-04-6.77315E-16
 -1      1845 4.74498E-03-5.34913E-04-7.57017E-16
 -1      1846 4.48596E-03-4.89656E-04-6.45656E-16
 -1      1847 4.90776E-03-5.42185E-04-8.44092E-16
 -1      1848 5.07271E-03-5.53505E-04-9.37239E-16
 -1      1849 4.80105E-03-4.96378E-04-8.07405E-16
 -1      1850 5.24001E-03-5.69895E-04-1.03650E-15
 -1      1851 5.40937E-03-5.92238E-04-1.14249E-15
 -1      1852 5.12388E-03-5.17468E-04-9.94972E-16
 -1      1853 5.58124E-03-6.21629E-04-1.25708E-15
 -1      1854 5.75475E-03-6.59030E-04-1.37866E-15
 -1      1855 5.45569E-03-5.60047E-04-1.20940E-15
 -1      1856 5.93070E-03-7.05239E-04-1.50753E-15
 -1      1857 6.10740E-03-7.60933E-04-1.64608E-15
 -1      1858 5.79757E-03-6.32268E-04-1.45470E-15
 -1      1859 6.28590E-03-8.25949E-04-1.79442E-15
 -1      1860 6.46368E-03-8.99827E-04-1.95167E-15
 -1      1861 6.14961E-03-7.41263E-04-1.73184E-15
 -1      1862 6.64166E-03-9.80632E-04-2.12056E-15
 -1      1863 6.81711E-03-1.06556E-03-2.30206E-15
 -1      1864 6.50913E-03-8.88390E-04-2.05009E-15
 -1      1865 6.99021E-03-1.15044E-03-2.49632E-15
 -1      1866 7.15974E-03-1.22992E-03-2.70396E-15
 -1      1867 6.86886E-03-1.06108E-03-2.41392E-15
 -1      1868 7.32474E-03-1.29852E-03-2.92798E-15
 -1      1869 7.48737E-03-1.35022E-03-3.16503E-15
 -1      1870 7.21870E-03-1.22605E-03-2.83192E-15
 -1      1871 7.63798E-03-1.38015E-03-3.40693E-15
 -1      1872 7.78968E-03-1.38870E-03-3.66356E-15
 -1      1873 7.54547E-03-1.33314E-03-3.29661E-15
 -1      1874 7.94827E-03-1.37495E-03-3.95083E-15
 -1      1875 8.11124E-03-1.34084E-03-4.25745E-15
 -1      1876 7.86529E-03-1.35068E-03-3.82385E-15
 -1      1877 8.27681E-03-1.29039E-03-4.58218E-15
 -1      1878 8.44682E-03-1.22972E-03-4.92489E-15
 -1      1879 8.20096E-03-1.27690E-03-4.43741E-15
 -1      1880 8.62044E-03-1.16426E-03-5.28577E-15
 -1      1881 8.79628E-03-1.09934E-03-5.66291E-15
 -1      1882 8.55178E-03-1.14961E-03-5.12470E-15
 -1      1883 8.97456E-03-1.03898E-03-6.05268E-15
 -1      1884 9.15254E-03-9.85781E-04-6.45646E-15
 -1      1885 8.91203E-03-1.01713E-03-5.87701E-15
 -1      1886 9.33117E-03-9.41572E-04-6.87543E-15
 -1      1887 9.50797E-03-9.06682E-04-7.30556E-15
 -1      1888 9.27159E-03-9.11554E-04-6.68636E-15
 -1      1889 9.68400E-03-8.81206E-04-7.74733E-15
 -1      1890 9.85764E-03-8.64434E-04-8.20204E-15
 -1      1891 9.62350E-03-8.44207E-04-7.54702E-15
 -1      1892 1.00297E-02-8.55539E-04-8.66821E-15
 -1      1893 1.01992E-02-8.53556E-04-9.14575E-15
 -1      1894 9.96537E-03-8.13210E-04-8.45430E-15
 -1      1895 1.03668E-02-8.57390E-04-9.63265E-15
 -1      1896 1.05321E-02-8.66177E-04-1.01268E-14
 -1      1897 1.02974E-02-8.11293E-04-9.40724E-15
 -1      1898 1.06954E-02-8.78915E-04-1.06316E-14
 -1      1899 1.08567E-02-8.94927E-04-1.11427E-14
 -1      1900 1.06209E-02-8.30357E-04-1.03963E-14
 -1      1901 1.10160E-02-9.13436E-04-1.16622E-14
 -1      1902 1.11736E-02-9.33949E-04-1.21900E-14
 -1      1903 1.09370E-02-8.63440E-04-1.14176E-14
 -1      1904 1.13295E-02-9.55922E-04-1.27255E-14
 -1      1905 1.14839E-02-9.79004E-04-1.32647E-14
 -1      1906 1.12469E-02-9.05233E-04-1.24695E-14
 -1      1907 1.16369E-02-1.00284E-03-1.38061E-14
 -1      1908 1.17887E-02-1.02720E-03-1.43562E-14
 -1      1909 1.15516E-02-9.51968E-04-1.35457E-14
 -1      1910 1.19392E-02-1.05185E-03-1.49112E-14
 -1      1911 1.20888E-02-1.07665E-03-1.54689E-14
 -1      1912 1.18521E-02-1.00111E-03-1.46417E-14
 -1      1913 1.22375E-02-1.10147E-03-1.60358E-14
 -1      1914 1.23853E-02-1.12620E-03-1.66082E-14
 -1      1915 1.21491E-02-1.05104E-03-1.57609E-14
 -1      1916 1.25324E-02-1.15080E-03-1.71853E-14
 -1      1917 1.26789E-02-1.17518E-03-1.77708E-14
 -1      1918 1.24432E-02-1.10077E-03-1.69013E-14
 -1      1919 1.28248E-02-1.19934E-03-1.83606E-14
 -1      1920 1.29703E-02-1.22324E-03-1.89554E-14
 -1      1921 1.27352E-02-1.14974E-03-1.80692E-14
 -1      1922 1.31153E-02-1.24687E-03-1.95561E-14
 -1      1923 1.32599E-02-1.27023E-03-2.01595E-14
 -1      1924 1.30254E-02-1.19769E-03-1.92589E-14
 -1      1925 1.34042E-02-1.29332E-03-2.07679E-14
 -1      1926 1.35483E-02-1.31614E-03-2.13795E-14
 -1      1927 1.33143E-02-1.24452E-03-2.04666E-14
 -1      1928 1.36921E-02-1.33872E-03-2.19945E-14
 -1      1929 1.38358E-02-1.36104E-03-2.26116E-14
 -1      1930 1.36023E-02-1.29024E-03-2.16885E-14
 -1      1931 1.39792E-02-1.38314E-03-2.32293E-14
 -1      1932 1.41226E-02-1.40503E-03-2.38461E-14
 -1      1933 1.38894E-02-1.33496E-03-2.29212E-14
 -1      1934 1.42658E-02-1.42672E-03-2.44630E-14
 -1      1935 1.44089E-02-1.44822E-03-2.50838E-14
 -1      1936 1.41761E-02-1.37877E-03-2.41574E-14
 -1      1937 1.45520E-02-1.46957E-03-2.57025E-14
 -1      1938 1.46950E-02-1.49077E-03-2.63207E-14
 -1      1939 1.44623E-02-1.42181E-03-2.53952E-14
 -1      1940 1.48379E-02-1.51184E-03-2.69381E-14
 -1      1941 1.49808E-02-1.53281E-03-2.75536E-14
 -1      1942 1.47484E-02-1.46423E-03-2.66352E-14
 -1      1943 1.51522E-02-1.55998E-03-2.82841E-14
 -1      1944 1.35810E-03 5.01977E-04 1.54716E-16
 -1      1945 1.21777E-03 4.78558E-04 1.34875E-16
 -1      1946 1.63697E-03 5.37069E-04 1.92107E-16
 -1      1947 1.49771E-03 5.21386E-04 1.73987E-16
 -1      1948 1.41169E-03 4.76289E-04 1.53442E-16
 -1      1949 1.91530E-03 5.59689E-04 2.25433E-16
 -1      1950 1.77611E-03 5.49761E-04 2.09387E-16
 -1      1951 1.69346E-03 5.07796E-04 1.86781E-16
 -1      1952 2.19450E-03 5.72938E-04 2.50857E-16
 -1      1953 2.05473E-03 5.67346E-04 2.39229E-16
 -1      1954 1.97465E-03 5.27639E-04 2.15106E-16
 -1      1955 2.47554E-03 5.79148E-04 2.66334E-16
 -1      1956 2.33475E-03 5.76810E-04 2.59992E-16
 -1      1957 2.25644E-03 5.38694E-04 2.35218E-16
 -1      1958 2.75910E-03 5.80165E-04 2.68665E-16
 -1      1959 2.61697E-03 5.80210E-04 2.69113E-16
 -1      1960 2.53963E-03 5.43157E-04 2.44244E-16
 -1      1961 3.04575E-03 5.77557E-04 2.56888E-16
 -1      1962 2.90201E-03 5.79226E-04 2.64762E-16
 -1      1963 2.82488E-03 5.42787E-04 2.40476E-16
 -1      1964 3.33599E-03 5.72788E-04 2.28482E-16
 -1      1965 3.19039E-03 5.75353E-04 2.44691E-16
 -1      1966 3.11270E-03 5.39106E-04 2.21597E-16
 -1      1967 3.63030E-03 5.67382E-04 1.82187E-16
 -1      1968 3.48260E-03 5.70067E-04 2.07950E-16
 -1      1969 3.40356E-03 5.33569E-04 1.86415E-16
 -1      1970 3.92909E-03 5.63080E-04 1.15007E-16
 -1      1971 3.77910E-03 5.64980E-04 1.51368E-16
 -1      1972 3.69792E-03 5.27723E-04 1.31839E-16
 -1      1973 4.23272E-03 5.61984E-04 2.41371E-17
 -1      1974 4.08028E-03 5.61997E-04 7.24654E-17
 -1      1975 3.99620E-03 5.23370E-04 5.50504E-17
 -1      1976 4.54136E-03 5.66651E-04-9.24824E-17
 -1      1977 4.38642E-03 5.63439E-04-3.05203E-17
 -1      1978 4.29878E-03 5.22705E-04-4.45336E-17
 -1      1979 4.85488E-03 5.80083E-04-2.41113E-16
 -1      1980 4.69757E-03 5.72096E-04-1.62441E-16
 -1      1981 4.60595E-03 5.28401E-04-1.71331E-16
 -1      1982 5.17265E-03 6.05493E-04-4.21199E-16
 -1      1983 5.01336E-03 5.91120E-04-3.26860E-16
 -1      1984 4.91779E-03 5.43574E-04-3.28635E-16
 -1      1985 5.49339E-03 6.45703E-04-6.39259E-16
 -1      1986 5.33286E-03 6.23632E-04-5.26028E-16
 -1      1987 5.23404E-03 5.71506E-04-5.20132E-16
 -1      1988 5.81498E-03 7.02028E-04-8.99224E-16
 -1      1989 5.65438E-03 6.71872E-04-7.63238E-16
 -1      1990 5.55388E-03 6.14969E-04-7.50336E-16
 -1      1991 6.13450E-03 7.72643E-04-1.20757E-15
 -1      1992 5.97536E-03 7.35816E-04-1.04703E-15
 -1      1993 5.87567E-03 6.74990E-04-1.02274E-15
 -1      1994 6.44856E-03 8.50849E-04-1.56843E-15
 -1      1995 6.29253E-03 8.11398E-04-1.38066E-15
 -1      1996 6.19677E-03 7.49068E-04-1.34316E-15
 -1      1997 6.75428E-03 9.24277E-04-1.98318E-15
 -1      1998 6.60260E-03 8.89085E-04-1.76924E-15
 -1      1999 6.51376E-03 8.29323E-04-1.71658E-15
 -1      2000 7.05074E-03 9.76481E-04-2.45318E-15
 -1      2001 6.90348E-03 9.54053E-04-2.21103E-15
 -1      2002 6.82346E-03 9.01775E-04-2.14336E-15
 -1      2003 7.34020E-03 9.91802E-04-2.97902E-15
 -1      2004 7.19582E-03 9.89501E-04-2.70850E-15
 -1      2005 7.12482E-03 9.48605E-04-2.62598E-15
 -1      2006 7.62786E-03 9.61595E-04-3.56048E-15
 -1      2007 7.48357E-03 9.82511E-04-3.26227E-15
 -1      2008 7.42041E-03 9.54066E-04-3.16494E-15
 -1      2009 7.91978E-03 8.88292E-04-4.20145E-15
 -1      2010 7.77273E-03 9.29776E-04-3.87380E-15
 -1      2011 7.71579E-03 9.11474E-04-3.76119E-15
 -1      2012 8.22011E-03 7.84205E-04-4.90226E-15
 -1      2013 8.06866E-03 8.39124E-04-4.54442E-15
 -1      2014 8.01667E-03 8.26568E-04-4.41741E-15
 -1      2015 8.52977E-03 6.66075E-04-5.65990E-15
 -1      2016 8.37388E-03 7.25910E-04-5.27470E-15
 -1      2017 8.32589E-03 7.14633E-04-5.13435E-15
 -1      2018 8.84688E-03 5.48978E-04-6.47288E-15
 -1      2019 8.68769E-03 6.06672E-04-6.06008E-15
 -1      2020 8.64266E-03 5.93538E-04-5.90539E-15
 -1      2021 9.16820E-03 4.42898E-04-7.33726E-15
 -1      2022 9.00736E-03 4.94180E-04-6.89859E-15
 -1      2023 8.96393E-03 4.77650E-04-6.73082E-15
 -1      2024 9.49051E-03 3.52270E-04-8.24929E-15
 -1      2025 9.32953E-03 3.95551E-04-7.78681E-15
 -1      2026 9.28628E-03 3.75321E-04-7.60766E-15
 -1      2027 9.81125E-03 2.77381E-04-9.20874E-15
 -1      2028 9.65128E-03 3.12931E-04-8.72207E-15
 -1      2029 9.60705E-03 2.89397E-04-8.52894E-15
 -1      2030 1.01288E-02 2.16154E-04-1.02117E-14
 -1      2031 9.97053E-03 2.45213E-04-9.70551E-15
 -1      2032 9.92458E-03 2.19073E-04-9.49742E-15
 -1      2033 1.04421E-02 1.65591E-04-1.12584E-14
 -1      2034 1.02860E-02 1.89712E-04-1.07289E-14
 -1      2035 1.02381E-02 1.61720E-04-1.05107E-14
 -1      2036 1.07511E-02 1.22662E-04-1.23453E-14
 -1      2037 1.05971E-02 1.43330E-04-1.17982E-14
 -1      2038 1.05473E-02 1.14161E-04-1.15623E-14
 -1      2039 1.10557E-02 8.47537E-05-1.34670E-14
 -1      2040 1.09039E-02 1.03210E-04-1.29019E-14
 -1      2041 1.08524E-02 7.34084E-05-1.26547E-14
 -1      2042 1.13565E-02 4.98159E-05-1.46116E-14
 -1      2043 1.12066E-02 6.70130E-05-1.40367E-14
 -1      2044 1.11537E-02 3.69806E-05-1.37788E-14
 -1      2045 1.16539E-02 1.63501E-05-1.57809E-14
 -1      2046 1.15055E-02 3.29709E-05-1.51940E-14
 -1      2047 1.14517E-02 2.98286E-06-1.49279E-14
 -1      2048 1.19484E-02-1.66721E-05-1.69625E-14
 -1      2049 1.18014E-02-1.67313E-07-1.63701E-14
 -1      2050 1.17470E-02-2.99398E-05-1.60962E-14
 -1      2051 1.22406E-02-4.99104E-05-1.81627E-14
 -1      2052 1.20947E-02-3.32327E-05-1.75590E-14
 -1      2053 1.20399E-02-6.26967E-05-1.72809E-14
 -1      2054 1.25309E-02-8.37514E-05-1.93697E-14
 -1      2055 1.23860E-02-6.67370E-05-1.87660E-14
 -1      2056 1.23309E-02-9.58551E-05-1.84803E-14
 -1      2057 1.28199E-02-1.18389E-04-2.05821E-14
 -1      2058 1.26756E-02-1.00961E-04-1.99751E-14
 -1      2059 1.26205E-02-1.29733E-04-1.96880E-14
 -1      2060 1.31078E-02-1.53888E-04-2.17988E-14
 -1      2061 1.29640E-02-1.36028E-04-2.11904E-14
 -1      2062 1.29089E-02-1.64475E-04-2.09012E-14
 -1      2063 1.33949E-02-1.90231E-04-2.30167E-14
 -1      2064 1.32514E-02-1.71955E-04-2.24082E-14
 -1      2065 1.31964E-02-2.00112E-04-2.21171E-14
 -1      2066 1.36815E-02-2.27349E-04-2.42334E-14
 -1      2067 1.35382E-02-2.08696E-04-2.36256E-14
 -1      2068 1.34834E-02-2.36604E-04-2.33355E-14
 -1      2069 1.39676E-02-2.65145E-04-2.54547E-14
 -1      2070 1.38246E-02-2.46167E-04-2.48428E-14
 -1      2071 1.37698E-02-2.73866E-04-2.45538E-14
 -1      2072 1.42536E-02-3.03497E-04-2.66789E-14
 -1      2073 1.41106E-02-2.84258E-04-2.60682E-14
 -1      2074 1.40559E-02-3.11792E-04-2.57762E-14
 -1      2075 1.45150E-02-3.36532E-04-2.78072E-14
 -1      2076 1.43722E-02-3.17122E-04-2.71926E-14
 -1      2077 1.43175E-02-3.44547E-04-2.69021E-14
 -1      2078 1.45547E-02-3.71906E-04-2.79322E-14
 -1      2079 1.46561E-02-5.99987E-04-2.80172E-14
 -1      2080 1.46365E-02-5.58046E-04-2.80009E-14
 -1      2081 1.46170E-02-5.16053E-04-2.79826E-14
 -1      2082 1.45976E-02-4.74022E-04-2.79622E-14
 -1      2083 1.45031E-02-5.20161E-04-2.74537E-14
 -1      2084 1.45739E-02-4.14016E-04-2.79512E-14
 -1      2085 1.46948E-02-6.82309E-04-2.80473E-14
 -1      2086 1.46754E-02-6.41173E-04-2.80312E-14
 -1      2087 1.45419E-02-6.03261E-04-2.74853E-14
 -1      2088 1.47344E-02-7.65860E-04-2.80757E-14
 -1      2089 1.47146E-02-7.24107E-04-2.80613E-14
 -1      2090 1.45811E-02-6.86144E-04-2.75130E-14
 -1      2091 1.47741E-02-8.49256E-04-2.80993E-14
 -1      2092 1.47542E-02-8.07573E-04-2.80878E-14
 -1      2093 1.46208E-02-7.69535E-04-2.75380E-14
 -1      2094 1.48137E-02-9.32556E-04-2.81259E-14
 -1      2095 1.47939E-02-8.90912E-04-2.81127E-14
 -1      2096 1.46604E-02-8.52772E-04-2.75612E-14
 -1      2097 1.48533E-02-1.01584E-03-2.81464E-14
 -1      2098 1.48335E-02-9.74192E-04-2.81355E-14
 -1      2099 1.47001E-02-9.35926E-04-2.75845E-14
 -1      2100 1.48929E-02-1.09918E-03-2.81587E-14
 -1      2101 1.48731E-02-1.05749E-03-2.81538E-14
 -1      2102 1.47397E-02-1.01908E-03-2.76040E-14
 -1      2103 1.49318E-02-1.18123E-03-2.81622E-14
 -1      2104 1.49123E-02-1.14019E-03-2.81603E-14
 -1      2105 1.47789E-02-1.10161E-03-2.76174E-14
 -1      2106 1.49716E-02-1.26488E-03-2.81631E-14
 -1      2107 1.49517E-02-1.22304E-03-2.81640E-14
 -1      2108 1.48181E-02-1.18430E-03-2.76246E-14
 -1      2109 1.50116E-02-1.34873E-03-2.81523E-14
 -1      2110 1.49916E-02-1.30678E-03-2.81571E-14
 -1      2111 1.48579E-02-1.26789E-03-2.76217E-14
 -1      2112 1.50520E-02-1.43276E-03-2.81339E-14
 -1      2113 1.50318E-02-1.39073E-03-2.81447E-14
 -1      2114 1.48980E-02-1.35171E-03-2.76102E-14
 -1      2115 1.10715E-03 4.61361E-04 1.19750E-16
 -1      2116 9.64680E-04 4.28362E-04 9.98008E-17
 -1      2117 9.32869E-04 3.99063E-04 9.33498E-17
 -1      2118 1.15810E-03 4.39891E-04 1.21797E-16
 -1      2119 9.41038E-03-1.12097E-04-5.20359E-15
 -1      2120 9.55534E-03-1.66215E-04-5.29539E-15
 -1      2121 8.62413E-03 2.69130E-04-4.62977E-15
 -1      2122 8.82138E-03 1.62966E-04-4.78145E-15
 -1      2123 9.84374E-03-2.74522E-04-5.45658E-15
 -1      2124 9.85478E-03-2.91518E-04-5.44750E-15
 -1      2125 9.03890E-03 5.67282E-05-4.93513E-15
 -1      2126 9.22059E-03-2.82623E-05-5.06297E-15
 -1      2127 3.27491E-04-8.73972E-05 3.02221E-18
 -1      2128 3.29573E-04-1.00504E-04 2.99511E-18
 -1      2129 4.46722E-04-1.42766E-04 4.03865E-18
 -1      2130 4.40450E-04-1.07756E-04 4.18773E-18
 -1      2131 8.22038E-03 4.97345E-04-4.24850E-15
 -1      2132 8.40079E-03 3.95342E-04-4.42054E-15
 -1      2133 7.86396E-03 6.65516E-04-3.87862E-15
 -1      2134 8.02944E-03 5.92436E-04-4.05435E-15
 -1      2135 7.51493E-03 7.38060E-04-3.48010E-15
 -1      2136 7.66556E-03 7.22071E-04-3.65346E-15
 -1      2137 7.20242E-03 6.93612E-04-3.14074E-15
 -1      2138 7.35005E-03 7.30680E-04-3.29801E-15
 -1      2139 6.83457E-03 5.39305E-04-2.83324E-15
 -1      2140 7.00115E-03 6.20000E-04-2.96318E-15
 -1      2141 6.45112E-03 3.43473E-04-2.60028E-15
 -1      2142 6.62902E-03 4.37535E-04-2.70206E-15
 -1      2143 6.07951E-03 1.55763E-04-2.42087E-15
 -1      2144 6.25292E-03 2.41429E-04-2.49654E-15
 -1      2145 5.75004E-03 9.62384E-06-2.29270E-15
 -1      2146 5.90910E-03 7.85574E-05-2.35622E-15
 -1      2147 6.01649E-03 1.03954E-04-2.31870E-15
 -1      2148 5.45113E-03-9.91118E-05-2.20707E-15
 -1      2149 5.56223E-03-6.45595E-05-2.22669E-15
 -1      2150 5.32607E-03-1.49383E-04-2.16915E-15
 -1      2151 5.37174E-03-1.30082E-04-2.18763E-15
 -1      2152 5.40395E-03-1.23715E-04-2.11272E-15
 -1      2153 5.36592E-03-1.95749E-04-2.21264E-15
 -1      2154 5.32362E-03-1.75231E-04-2.18474E-15
 -1      2155 5.56956E-03-2.71210E-04-2.29034E-15
 -1      2156 5.45644E-03-2.30635E-04-2.24585E-15
 -1      2157 5.88733E-03-4.11824E-04-2.42188E-15
 -1      2158 5.72258E-03-3.40899E-04-2.36131E-15
 -1      2159 6.28653E-03-5.98895E-04-2.56965E-15
 -1      2160 6.08815E-03-4.99989E-04-2.49045E-15
 -1      2161 6.72524E-03-8.59807E-04-2.81716E-15
 -1      2162 6.53303E-03-7.41345E-04-2.70053E-15
 -1      2163 7.10875E-03-1.07055E-03-3.06810E-15
 -1      2164 6.92510E-03-9.71066E-04-2.93998E-15
 -1      2165 7.48565E-03-1.21759E-03-3.40098E-15
 -1      2166 7.32772E-03-1.16634E-03-3.24494E-15
 -1      2167 7.81847E-03-1.22632E-03-3.75272E-15
 -1      2168 7.66982E-03-1.23862E-03-3.58947E-15
 -1      2169 8.14369E-03-1.12075E-03-4.10270E-15
 -1      2170 7.98120E-03-1.18734E-03-3.92484E-15
 -1      2171 7.89022E-03-1.21964E-03-3.85729E-15
 -1      2172 8.56159E-03-9.06765E-04-4.50405E-15
 -1      2173 8.37771E-03-1.00727E-03-4.34418E-15
 -1      2174 8.93698E-03-6.99223E-04-4.83301E-15
 -1      2175 8.74952E-03-8.05107E-04-4.66557E-15
 -1      2176 8.63486E-03-8.49493E-04-4.68508E-15
 -1      2177 9.35469E-03-5.03228E-04-5.12294E-15
 -1      2178 9.17985E-03-5.79601E-04-5.01357E-15
 -1      2179 9.63783E-03-3.85639E-04-5.33497E-15
 -1      2180 9.50892E-03-4.37042E-04-5.23181E-15
 -1      2181 9.82631E-03-3.15754E-04-5.42115E-15
 -1      2182 9.76199E-03-3.39013E-04-5.40513E-15
 -1      2183 9.69046E-03-2.16431E-04-5.38460E-15
 -1      2184 9.78141E-03-2.46475E-04-5.44538E-15
 -1      2185 1.50627E-02-1.51245E-03-2.79847E-14
 -1      2186 8.90957E-03 8.66007E-05-4.98725E-15
 -1      2187 6.07343E-04-2.94962E-04 6.54587E-18
 -1      2188 9.30446E-03-9.68253E-05-5.28976E-15
 -1      2189 8.49373E-03 3.18327E-04-4.61274E-15
 -1      2190 6.63449E-04-2.88715E-04 6.65429E-18
 -1      2191 1.44598E-02-4.18226E-04-2.74276E-14
 -1      2192 9.82128E-03-2.71001E-04-5.63023E-15
 -1      2193 1.50386E-02-1.47859E-03-2.79571E-14
 -1      2194 9.62300E-03-2.14395E-04-5.52570E-15
 -1      2195 9.84960E-03-3.01420E-04-5.61608E-15
 -1      2196 9.70506E-03-3.51803E-04-5.51673E-15
 -1      2197 9.04380E-03-6.28039E-04-5.03415E-15
 -1      2198 8.24633E-03-1.07038E-03-4.27197E-15
 -1      2199 7.58745E-03-1.24172E-03-3.49422E-15
 -1      2200 7.23501E-03-1.12451E-03-3.13028E-15
 -1      2201 6.85158E-03-9.09223E-04-2.83657E-15
 -1      2202 6.42659E-03-6.53618E-04-2.58719E-15
 -1      2203 5.99992E-03-4.28662E-04-2.39475E-15
 -1      2204 5.65132E-03-2.80490E-04-2.25897E-15
 -1      2205 5.31316E-03-1.58358E-04-2.10990E-15
 -1      2206 5.65826E-03-4.09461E-05-2.19296E-15
 -1      2207 6.36709E-03 2.79018E-04-2.47956E-15
 -1      2208 6.74490E-03 4.84699E-04-2.70754E-15
 -1      2209 7.11155E-03 6.65089E-04-3.00975E-15
 -1      2210 7.42659E-03 7.45656E-04-3.36807E-15
 -1      2211 8.10786E-03 5.42460E-04-4.20218E-15
 -1      2212 7.75255E-03 7.04663E-04-3.77704E-15
 -1      2213 7.82971E-03 6.75084E-04-3.90332E-15
 -1      2214 7.66253E-03 7.31199E-04-3.67482E-15
 -1      2215 5.40785E-03-1.98174E-04-2.15762E-15
 -1      2216 9.42552E-03-4.51834E-04-5.33177E-15
 -1      2217 1.49046E-02-1.43945E-03-2.74273E-14
 -1      2218 5.47950E-04-5.37489E-05 9.14796E-18
 -1      2219 5.49071E-04-7.00816E-05 8.00954E-18
 -1      2220 5.50582E-04-8.70644E-05 7.04731E-18
 -1      2221 5.52540E-04-1.04752E-04 6.23416E-18
 -1      2222 6.65505E-04-9.28475E-05 9.26993E-18
 -1      2223 5.46412E-04 8.60509E-06 1.47994E-17
 -1      2224 5.46394E-04-6.76272E-06 1.31731E-17
 -1      2225 5.47239E-04 3.97081E-05 1.82146E-17
 -1      2226 5.46691E-04 2.40787E-05 1.63308E-17
 -1      2227 6.61170E-04 1.93222E-05 1.94614E-17
 -1      2228 5.49212E-04 7.15471E-05 2.27682E-17
 -1      2229 5.48070E-04 5.54277E-05 2.04237E-17
 -1      2230 6.62629E-04 5.60766E-05 2.43945E-17
 -1      2231 5.52771E-04 1.06403E-04 2.82299E-17
 -1      2232 5.50767E-04 8.86104E-05 2.53974E-17
 -1      2233 6.65719E-04 9.45971E-05 3.04119E-17
 -1      2234 5.58743E-04 1.45343E-04 3.42472E-17
 -1      2235 5.55397E-04 1.25285E-04 3.11302E-17
 -1      2236 6.71051E-04 1.36637E-04 3.73779E-17
 -1      2237 5.69029E-04 1.90731E-04 4.13352E-17
 -1      2238 5.63202E-04 1.67106E-04 3.76354E-17
 -1      2239 6.79814E-04 1.83718E-04 4.55500E-17
 -1      2240 5.88091E-04 2.46296E-04 4.93176E-17
 -1      2241 5.77183E-04 2.17049E-04 4.53739E-17
 -1      2242 6.94689E-04 2.38414E-04 5.49555E-17
 -1      2243 6.41805E-04 2.97840E-04 5.73407E-17
 -1      2244 6.14322E-04 2.70464E-04 5.31937E-17
 -1      2245 7.31640E-04 2.93515E-04 6.44558E-17
 -1      2246 7.88260E-04 3.45099E-04 7.41323E-17
 -1      2247 9.15440E-04-3.40471E-04 7.52165E-18
 -1      2248 1.05970E-03-3.72372E-04 7.23705E-18
 -1      2249 9.20572E-03-7.48903E-05-5.38367E-15
 -1      2250 9.38238E-03-1.46483E-04-5.53131E-15
 -1      2251 8.81291E-03 1.16621E-04-5.06783E-15
 -1      2252 9.00500E-03 1.70356E-05-5.23010E-15
 -1      2253 1.20321E-03-3.99163E-04 6.32903E-18
 -1      2254 1.34634E-03-4.21286E-04 4.67562E-18
 -1      2255 1.11777E-03-3.52481E-04 6.64074E-18
 -1      2256 1.48892E-03-4.39566E-04 1.57209E-18
 -1      2257 1.63122E-03-4.54266E-04-2.84603E-18
 -1      2258 1.40465E-03-3.95771E-04 2.77827E-18
 -1      2259 1.77328E-03-4.66031E-04-8.56520E-18
 -1      2260 1.91526E-03-4.75073E-04-1.56938E-17
 -1      2261 1.69060E-03-4.24753E-04-6.16640E-18
 -1      2262 2.05724E-03-4.81863E-04-2.48282E-17
 -1      2263 2.19931E-03-4.86576E-04-3.67951E-17
 -1      2264 1.97602E-03-4.42627E-04-2.12504E-17
 -1      2265 2.34157E-03-4.89555E-04-4.99953E-17
 -1      2266 2.48408E-03-4.90952E-04-6.57975E-17
 -1      2267 2.26139E-03-4.51937E-04-4.38831E-17
 -1      2268 2.62691E-03-4.91020E-04-8.48253E-17
 -1      2269 2.77014E-03-4.89897E-04-1.07187E-16
 -1      2270 2.54718E-03-4.54659E-04-7.62736E-17
 -1      2271 2.91379E-03-4.87785E-04-1.32801E-16
 -1      2272 3.05797E-03-4.84816E-04-1.62373E-16
 -1      2273 2.83382E-03-4.52370E-04-1.20645E-16
 -1      2274 3.20269E-03-4.81171E-04-1.95251E-16
 -1      2275 3.34805E-03-4.76989E-04-2.32033E-16
 -1      2276 3.12163E-03-4.46401E-04-1.79164E-16
 -1      2277 3.49405E-03-4.72464E-04-2.73273E-16
 -1      2278 3.64083E-03-4.67759E-04-3.18390E-16
 -1      2279 3.41094E-03-4.38000E-04-2.53324E-16
 -1      2280 3.78836E-03-4.63114E-04-3.67761E-16
 -1      2281 3.93682E-03-4.58740E-04-4.21484E-16
 -1      2282 3.70209E-03-4.28509E-04-3.44112E-16
 -1      2283 4.08618E-03-4.54963E-04-4.79421E-16
 -1      2284 4.23665E-03-4.52075E-04-5.43524E-16
 -1      2285 3.99547E-03-4.19570E-04-4.51936E-16
 -1      2286 4.38822E-03-4.50529E-04-6.13618E-16
 -1      2287 4.54112E-03-4.50743E-04-6.88563E-16
 -1      2288 4.29161E-03-4.13364E-04-5.80035E-16
 -1      2289 4.69541E-03-4.53328E-04-7.70204E-16
 -1      2290 4.85134E-03-4.58900E-04-8.58688E-16
 -1      2291 4.59137E-03-4.12905E-04-7.32148E-16
 -1      2292 5.00912E-03-4.68225E-04-9.52783E-16
 -1      2293 5.16893E-03-4.82201E-04-1.05370E-15
 -1      2294 4.89617E-03-4.22358E-04-9.09497E-16
 -1      2295 5.33130E-03-5.01679E-04-1.16105E-15
 -1      2296 5.49617E-03-5.27922E-04-1.27708E-15
 -1      2297 5.20834E-03-4.47374E-04-1.11330E-15
 -1      2298 5.66451E-03-5.61675E-04-1.40134E-15
 -1      2299 5.83576E-03-6.04496E-04-1.53118E-15
 -1      2300 5.53148E-03-4.95352E-04-1.34583E-15
 -1      2301 6.01132E-03-6.56680E-04-1.67029E-15
 -1      2302 6.18962E-03-7.19573E-04-1.82024E-15
 -1      2303 5.87015E-03-5.75280E-04-1.60939E-15
 -1      2304 6.37217E-03-7.92499E-04-1.97941E-15
 -1      2305 6.55589E-03-8.74972E-04-2.14980E-15
 -1      2306 6.22811E-03-6.96265E-04-1.90853E-15
 -1      2307 6.74167E-03-9.64467E-04-2.33248E-15
 -1      2308 6.92556E-03-1.05637E-03-2.52721E-15
 -1      2309 6.60363E-03-8.61671E-04-2.25052E-15
 -1      2310 7.10696E-03-1.14594E-03-2.73608E-15
 -1      2311 7.28445E-03-1.22395E-03-2.95942E-15
 -1      2312 6.98417E-03-1.05452E-03-2.64131E-15
 -1      2313 7.44750E-03-1.28249E-03-3.18610E-15
 -1      2314 7.60943E-03-1.31768E-03-3.42609E-15
 -1      2315 7.34254E-03-1.22182E-03-3.07568E-15
 -1      2316 7.77628E-03-1.32776E-03-3.69698E-15
 -1      2317 7.94678E-03-1.30939E-03-3.98553E-15
 -1      2318 7.68438E-03-1.30156E-03-3.56894E-15
 -1      2319 8.11818E-03-1.26505E-03-4.29404E-15
 -1      2320 8.29627E-03-1.20514E-03-4.61939E-15
 -1      2321 8.03495E-03-1.25746E-03-4.14781E-15
 -1      2322 8.47831E-03-1.13453E-03-4.96193E-15
 -1      2323 8.66248E-03-1.06237E-03-5.32431E-15
 -1      2324 8.40286E-03-1.12235E-03-4.80032E-15
 -1      2325 8.84840E-03-9.93210E-04-5.70017E-15
 -1      2326 9.03200E-03-9.31511E-04-6.09028E-15
 -1      2327 8.78394E-03-9.69169E-04-5.52255E-15
 -1      2328 9.21434E-03-8.79593E-04-6.49680E-15
 -1      2329 9.39236E-03-8.37624E-04-6.91632E-15
 -1      2330 9.15872E-03-8.45870E-04-6.30683E-15
 -1      2331 9.56768E-03-8.06297E-04-7.34616E-15
 -1      2332 9.73873E-03-7.84202E-04-7.78716E-15
 -1      2333 9.51572E-03-7.66976E-04-7.14499E-15
 -1      2334 9.90693E-03-7.71048E-04-8.24139E-15
 -1      2335 1.00718E-02-7.65242E-04-8.70770E-15
 -1      2336 9.85370E-03-7.28515E-04-8.02842E-15
 -1      2337 1.02341E-02-7.66055E-04-9.18285E-15
 -1      2338 1.03941E-02-7.72233E-04-9.66828E-15
 -1      2339 1.01765E-02-7.21349E-04-8.95860E-15
 -1      2340 1.05521E-02-7.82947E-04-1.01619E-14
 -1      2341 1.07083E-02-7.97316E-04-1.06635E-14
 -1      2342 1.04887E-02-7.36566E-04-9.92708E-15
 -1      2343 1.08629E-02-8.14598E-04-1.11734E-14
 -1      2344 1.10163E-02-8.34206E-04-1.16894E-14
 -1      2345 1.07939E-02-7.66937E-04-1.09281E-14
 -1      2346 1.11685E-02-8.55556E-04-1.22141E-14
 -1      2347 1.13196E-02-8.78263E-04-1.27466E-14
 -1      2348 1.10943E-02-8.06996E-04-1.19616E-14
 -1      2349 1.14697E-02-9.01909E-04-1.32868E-14
 -1      2350 1.16191E-02-9.26245E-04-1.38267E-14
 -1      2351 1.13913E-02-8.52806E-04-1.30240E-14
 -1      2352 1.17676E-02-9.50991E-04-1.43725E-14
 -1      2353 1.19155E-02-9.75990E-04-1.49270E-14
 -1      2354 1.16859E-02-9.01637E-04-1.41086E-14
 -1      2355 1.20627E-02-1.00107E-03-1.54841E-14
 -1      2356 1.22095E-02-1.02612E-03-1.60486E-14
 -1      2357 1.19786E-02-9.51678E-04-1.52110E-14
 -1      2358 1.23556E-02-1.05106E-03-1.66208E-14
 -1      2359 1.25014E-02-1.07582E-03-1.71967E-14
 -1      2360 1.22697E-02-1.00179E-03-1.63380E-14
 -1      2361 1.26467E-02-1.10036E-03-1.77791E-14
 -1      2362 1.27918E-02-1.12463E-03-1.83686E-14
 -1      2363 1.25595E-02-1.05128E-03-1.74921E-14
 -1      2364 1.29364E-02-1.14864E-03-1.89646E-14
 -1      2365 1.30809E-02-1.17236E-03-1.95641E-14
 -1      2366 1.28484E-02-1.09981E-03-1.86696E-14
 -1      2367 1.32250E-02-1.19579E-03-2.01675E-14
 -1      2368 1.33690E-02-1.21894E-03-2.07743E-14
 -1      2369 1.31364E-02-1.14721E-03-1.98686E-14
 -1      2370 1.35128E-02-1.24182E-03-2.13852E-14
 -1      2371 1.36564E-02-1.26442E-03-2.19981E-14
 -1      2372 1.34238E-02-1.19348E-03-2.10816E-14
 -1      2373 1.37999E-02-1.28679E-03-2.26132E-14
 -1      2374 1.39433E-02-1.30891E-03-2.32310E-14
 -1      2375 1.37107E-02-1.23868E-03-2.23066E-14
 -1      2376 1.40865E-02-1.33082E-03-2.38508E-14
 -1      2377 1.42297E-02-1.35253E-03-2.44704E-14
 -1      2378 1.39972E-02-1.28291E-03-2.35422E-14
 -1      2379 1.43728E-02-1.37405E-03-2.50892E-14
 -1      2380 1.45159E-02-1.39540E-03-2.57106E-14
 -1      2381 1.42835E-02-1.32631E-03-2.47819E-14
 -1      2382 1.46388E-02-1.40699E-03-2.62591E-14
 -1      2383 1.47818E-02-1.42807E-03-2.68776E-14
 -1      2384 1.47953E-02-1.38236E-03-2.70531E-14
 -1      2385 1.45495E-02-1.35939E-03-2.59536E-14
 -1      2386 2.03501E-03 4.94815E-04 2.03288E-16
 -1      2387 1.89334E-03 4.87423E-04 1.92337E-16
 -1      2388 1.75168E-03 4.77628E-04 1.79679E-16
 -1      2389 1.60990E-03 4.65223E-04 1.65680E-16
 -1      2390 1.81126E-03 4.46836E-04 1.71223E-16
 -1      2391 1.46791E-03 4.49631E-04 1.50623E-16
 -1      2392 1.32549E-03 4.30609E-04 1.34549E-16
 -1      2393 1.52603E-03 4.22280E-04 1.46340E-16
 -1      2394 2.31873E-03 5.03822E-04 2.17640E-16
 -1      2395 2.17678E-03 5.00223E-04 2.11541E-16
 -1      2396 2.09615E-03 4.61461E-04 1.89966E-16
 -1      2397 2.60354E-03 5.06691E-04 2.20635E-16
 -1      2398 2.46097E-03 5.05926E-04 2.21001E-16
 -1      2399 2.38130E-03 4.68531E-04 1.98734E-16
 -1      2400 2.88995E-03 5.05091E-04 2.11108E-16
 -1      2401 2.74651E-03 5.06364E-04 2.17721E-16
 -1      2402 2.66721E-03 4.69934E-04 1.96444E-16
 -1      2403 3.17844E-03 5.00493E-04 1.85751E-16
 -1      2404 3.03391E-03 5.03086E-04 2.00537E-16
 -1      2405 2.95431E-03 4.67238E-04 1.80750E-16
 -1      2406 3.46945E-03 4.94335E-04 1.42735E-16
 -1      2407 3.32360E-03 4.97523E-04 1.66140E-16
 -1      2408 3.24301E-03 4.61856E-04 1.48292E-16
 -1      2409 3.76341E-03 4.88180E-04 7.94449E-17
 -1      2410 3.61603E-03 4.91158E-04 1.13692E-16
 -1      2411 3.53370E-03 4.55200E-04 9.71039E-17
 -1      2412 4.06078E-03 4.83873E-04-5.84114E-18
 -1      2413 3.91164E-03 4.85674E-04 4.01832E-17
 -1      2414 3.82685E-03 4.48833E-04 2.61157E-17
 -1      2415 4.36205E-03 4.83679E-04-1.13773E-16
 -1      2416 4.21091E-03 4.83111E-04-5.69477E-17
 -1      2417 4.12298E-03 4.44623E-04-6.70172E-17
 -1      2418 4.66770E-03 4.90355E-04-2.51155E-16
 -1      2419 4.51432E-03 4.85974E-04-1.79002E-16
 -1      2420 4.42274E-03 4.44873E-04-1.85277E-16
 -1      2421 4.97814E-03 5.07109E-04-4.18150E-16
 -1      2422 4.82235E-03 4.97262E-04-3.30438E-16
 -1      2423 4.72691E-03 4.52402E-04-3.31752E-16
 -1      2424 5.29361E-03 5.37295E-04-6.20990E-16
 -1      2425 5.13534E-03 5.20314E-04-5.14671E-16
 -1      2426 5.03635E-03 4.70498E-04-5.09399E-16
 -1      2427 5.61380E-03 5.83700E-04-8.61575E-16
 -1      2428 5.45329E-03 5.58328E-04-7.36593E-16
 -1      2429 5.35184E-03 5.02637E-04-7.22431E-16
 -1      2430 5.93747E-03 6.47206E-04-1.14658E-15
 -1      2431 5.77549E-03 6.13359E-04-9.97751E-16
 -1      2432 5.67362E-03 5.51747E-04-9.74372E-16
 -1      2433 6.26199E-03 7.24808E-04-1.47912E-15
 -1      2434 6.10001E-03 6.84638E-04-1.30663E-15
 -1      2435 6.00066E-03 6.18766E-04-1.27003E-15
 -1      2436 6.58339E-03 8.07473E-04-1.86393E-15
 -1      2437 6.42344E-03 7.66375E-04-1.66536E-15
 -1      2438 6.32995E-03 7.00307E-04-1.61527E-15
 -1      2439 6.89770E-03 8.79336E-04-2.30365E-15
 -1      2440 6.74156E-03 8.46050E-04-2.07718E-15
 -1      2441 6.65649E-03 7.86000E-04-2.01223E-15
 -1      2442 7.20350E-03 9.20609E-04-2.79972E-15
 -1      2443 7.05130E-03 9.05076E-04-2.54455E-15
 -1      2444 6.97519E-03 8.57413E-04-2.46424E-15
 -1      2445 7.50416E-03 9.15209E-04-3.35224E-15
 -1      2446 7.35374E-03 9.24382E-04-3.06814E-15
 -1      2447 7.28478E-03 8.92089E-04-2.97321E-15
 -1      2448 7.80623E-03 8.58817E-04-3.96338E-15
 -1      2449 7.65423E-03 8.93010E-04-3.65075E-15
 -1      2450 7.59014E-03 8.73920E-04-3.54118E-15
 -1      2451 8.11546E-03 7.61423E-04-4.63532E-15
 -1      2452 7.95958E-03 8.14083E-04-4.29265E-15
 -1      2453 7.89924E-03 8.02073E-04-4.16743E-15
 -1      2454 8.43313E-03 6.41829E-04-5.36530E-15
 -1      2455 8.27335E-03 7.03077E-04-4.99207E-15
 -1      2456 8.21732E-03 6.91936E-04-4.85355E-15
 -1      2457 8.75654E-03 5.18790E-04-6.15020E-15
 -1      2458 8.59452E-03 5.79739E-04-5.75076E-15
 -1      2459 8.54352E-03 5.65771E-04-5.59620E-15
 -1      2460 9.08145E-03 4.05422E-04-6.98848E-15
 -1      2461 8.91923E-03 4.60385E-04-6.56384E-15
 -1      2462 8.87300E-03 4.42493E-04-6.39540E-15
 -1      2463 9.40437E-03 3.07949E-04-7.87573E-15
 -1      2464 9.24347E-03 3.54565E-04-7.42605E-15
 -1      2465 9.20063E-03 3.33141E-04-7.24675E-15
 -1      2466 9.72332E-03 2.27443E-04-8.80856E-15
 -1      2467 9.56452E-03 2.65665E-04-8.33612E-15
 -1      2468 9.52324E-03 2.41505E-04-8.14445E-15
 -1      2469 1.00375E-02 1.62024E-04-9.78658E-15
 -1      2470 9.88110E-03 1.93031E-04-9.29209E-15
 -1      2471 9.83973E-03 1.66883E-04-9.08719E-15
 -1      2472 1.03471E-02 1.08613E-04-1.08058E-14
 -1      2473 1.01929E-02 1.34021E-04-1.02925E-14
 -1      2474 1.01503E-02 1.06483E-04-1.00741E-14
 -1      2475 1.06523E-02 6.39655E-05-1.18658E-14
 -1      2476 1.05002E-02 8.53769E-05-1.13308E-14
 -1      2477 1.04557E-02 5.69199E-05-1.11013E-14
 -1      2478 1.09537E-02 2.52147E-05-1.29622E-14
 -1      2479 1.08034E-02 4.40016E-05-1.24092E-14
 -1      2480 1.07569E-02 1.49910E-05-1.21663E-14
 -1      2481 1.12518E-02-9.93157E-06-1.40883E-14
 -1      2482 1.11031E-02 7.30390E-06-1.35216E-14
 -1      2483 1.10547E-02-2.19774E-05-1.32674E-14
 -1      2484 1.15472E-02-4.31810E-05-1.52430E-14
 -1      2485 1.13998E-02-2.67123E-05-1.46633E-14
 -1      2486 1.13497E-02-5.60537E-05-1.43991E-14
 -1      2487 1.18404E-02-7.57291E-05-1.64113E-14
 -1      2488 1.16940E-02-5.94874E-05-1.58241E-14
 -1      2489 1.16426E-02-8.87414E-05-1.55548E-14
 -1      2490 1.21317E-02-1.08360E-04-1.75989E-14
 -1      2491 1.19862E-02-9.19989E-05-1.70034E-14
 -1      2492 1.19338E-02-1.21071E-04-1.67269E-14
 -1      2493 1.24216E-02-1.41550E-04-1.87986E-14
 -1      2494 1.22768E-02-1.24864E-04-1.81968E-14
 -1      2495 1.22236E-02-1.53702E-04-1.79162E-14
 -1      2496 1.27103E-02-1.75549E-04-2.00066E-14
 -1      2497 1.25660E-02-1.58438E-04-1.94011E-14
 -1      2498 1.25123E-02-1.87021E-04-1.91146E-14
 -1      2499 1.29981E-02-2.10458E-04-2.12196E-14
 -1      2500 1.28543E-02-1.92886E-04-2.06140E-14
 -1      2501 1.28002E-02-2.21215E-04-2.03262E-14
 -1      2502 1.32853E-02-2.46277E-04-2.24383E-14
 -1      2503 1.31418E-02-2.28255E-04-2.18302E-14
 -1      2504 1.30875E-02-2.56345E-04-2.15405E-14
 -1      2505 1.35720E-02-2.82947E-04-2.36537E-14
 -1      2506 1.34287E-02-2.64509E-04-2.30445E-14
 -1      2507 1.33743E-02-2.92384E-04-2.27554E-14
 -1      2508 1.38583E-02-3.20371E-04-2.48741E-14
 -1      2509 1.37152E-02-3.01569E-04-2.42638E-14
 -1      2510 1.36607E-02-3.29257E-04-2.39715E-14
 -1      2511 1.41443E-02-3.58437E-04-2.60963E-14
 -1      2512 1.40013E-02-3.39329E-04-2.54835E-14
 -1      2513 1.39469E-02-3.66860E-04-2.51923E-14
 -1      2514 1.43412E-02-4.04563E-04-2.69102E-14
 -1      2515 1.44674E-02-6.89979E-04-2.69781E-14
 -1      2516 1.44476E-02-6.48297E-04-2.69638E-14
 -1      2517 1.44282E-02-6.07263E-04-2.69517E-14
 -1      2518 1.44088E-02-5.66169E-04-2.69382E-14
 -1      2519 1.43144E-02-6.11277E-04-2.64205E-14
 -1      2520 1.43891E-02-5.24300E-04-2.69245E-14
 -1      2521 1.43696E-02-4.82373E-04-2.69086E-14
 -1      2522 1.42753E-02-5.28477E-04-2.63966E-14
 -1      2523 9.80263E-03-2.76583E-04-5.86044E-15
 -1      2524 9.85884E-03-2.87562E-04-5.87389E-15
 -1      2525 1.45072E-02-7.73187E-04-2.69995E-14
 -1      2526 1.44873E-02-7.31607E-04-2.69890E-14
 -1      2527 1.43538E-02-6.93801E-04-2.64429E-14
 -1      2528 1.45469E-02-8.56240E-04-2.70202E-14
 -1      2529 1.45270E-02-8.14727E-04-2.70085E-14
 -1      2530 1.43936E-02-7.76797E-04-2.64615E-14
 -1      2531 1.45865E-02-9.39222E-04-2.70443E-14
 -1      2532 1.45667E-02-8.97733E-04-2.70336E-14
 -1      2533 1.44334E-02-8.59638E-04-2.64821E-14
 -1      2534 1.46261E-02-1.02223E-03-2.70637E-14
 -1      2535 1.46063E-02-9.80715E-04-2.70527E-14
 -1      2536 1.44730E-02-9.42423E-04-2.65040E-14
 -1      2537 1.46649E-02-1.10393E-03-2.70753E-14
 -1      2538 1.46455E-02-1.06306E-03-2.70710E-14
 -1      2539 1.45121E-02-1.02456E-03-2.65218E-14
 -1      2540 1.47044E-02-1.18724E-03-2.70833E-14
 -1      2541 1.46847E-02-1.14556E-03-2.70800E-14
 -1      2542 1.45512E-02-1.10684E-03-2.65344E-14
 -1      2543 1.47442E-02-1.27078E-03-2.70792E-14
 -1      2544 1.47243E-02-1.22898E-03-2.70828E-14
 -1      2545 1.45908E-02-1.19006E-03-2.65398E-14
 -1      2546 1.47797E-02-1.34748E-03-2.70636E-14
 -1      2547 1.47596E-02-1.30556E-03-2.70676E-14
 -1      2548 1.46259E-02-1.26649E-03-2.65307E-14
 -1      2549 1.46568E-02-1.33606E-03-2.65110E-14
 -1      2550 5.88678E-04-2.34728E-04 5.85469E-18
 -1      2551 7.81520E-04-3.00081E-04 7.02021E-18
 -1      2552 8.41252E-04-2.88281E-04 6.91179E-18
 -1      2553 5.79347E-04-2.06947E-04 5.42101E-18
 -1      2554 8.37413E-03 3.74593E-04-4.59484E-15
 -1      2555 8.57115E-03 2.53774E-04-4.81295E-15
 -1      2556 9.86933E-03-2.99313E-04-5.84080E-15
 -1      2557 9.84278E-03-3.07362E-04-5.81372E-15
 -1      2558 9.76911E-03-3.29535E-04-5.75565E-15
 -1      2559 9.65402E-03-3.61464E-04-5.68137E-15
 -1      2560 7.67049E-03-1.25707E-03-3.59161E-15
 -1      2561 7.52265E-03-1.23687E-03-3.40225E-15
 -1      2562 6.28653E-03 2.28371E-04-2.35544E-15
 -1      2563 6.46125E-03 3.23792E-04-2.45202E-15
 -1      2564 5.46637E-04-2.22183E-05 1.16823E-17
 -1      2565 5.47147E-04-3.78113E-05 1.02593E-17
 -1      2566 6.62496E-04-5.41382E-05 1.18991E-17
 -1      2567 6.61122E-04-1.71456E-05 1.53144E-17
 -1      2568 5.44452E-03-1.95976E-04-2.09238E-15
 -1      2569 5.35904E-03-1.76349E-04-2.06067E-15
 -1      2570 8.01430E-03 5.87206E-04-4.15998E-15
 -1      2571 8.17391E-03 4.93491E-04-4.36030E-15
 -1      2572 7.38200E-03 7.50378E-04-3.28914E-15
 -1      2573 7.51172E-03 7.56156E-04-3.47267E-15
 -1      2574 7.01837E-03 6.29722E-04-2.85929E-15
 -1      2575 7.17883E-03 7.01282E-04-3.03251E-15
 -1      2576 6.65133E-03 4.28915E-04-2.57559E-15
 -1      2577 6.82361E-03 5.28416E-04-2.70053E-15
 -1      2578 5.93623E-03 6.04456E-05-2.20190E-15
 -1      2579 6.08965E-03 1.30265E-04-2.26062E-15
 -1      2580 5.56567E-03-7.74263E-05-2.08001E-15
 -1      2581 5.74099E-03-1.88352E-05-2.14018E-15
 -1      2582 5.80743E-03 1.37860E-05-2.08480E-15
 -1      2583 5.35682E-03-1.31203E-04-1.99301E-15
 -1      2584 5.42992E-03-1.15793E-04-2.01036E-15
 -1      2585 9.49786E-03-4.16331E-04-5.55692E-15
 -1      2586 9.35527E-03-4.71892E-04-5.44209E-15
 -1      2587 5.30561E-03-1.58014E-04-2.02576E-15
 -1      2588 5.30548E-03-1.49424E-04-2.01051E-15
 -1      2589 5.74366E-03-2.97239E-04-2.22237E-15
 -1      2590 5.59470E-03-2.43772E-04-2.15488E-15
 -1      2591 6.08625E-03-4.46773E-04-2.34758E-15
 -1      2592 5.90731E-03-3.65169E-04-2.28392E-15
 -1      2593 5.82012E-03-3.22134E-04-2.17752E-15
 -1      2594 6.56375E-03-7.12546E-04-2.57541E-15
 -1      2595 6.34297E-03-5.80217E-04-2.45053E-15
 -1      2596 6.94401E-03-9.54966E-04-2.84660E-15
 -1      2597 6.77436E-03-8.45608E-04-2.72822E-15
 -1      2598 7.32292E-03-1.16835E-03-3.17856E-15
 -1      2599 7.14346E-03-1.07290E-03-3.00568E-15
 -1      2600 7.96006E-03-1.20615E-03-3.97656E-15
 -1      2601 7.83154E-03-1.24405E-03-3.80241E-15
 -1      2602 8.33814E-03-1.02320E-03-4.47967E-15
 -1      2603 8.14478E-03-1.13117E-03-4.23083E-15
 -1      2604 8.71969E-03-7.97316E-04-4.91736E-15
 -1      2605 8.56196E-03-8.93187E-04-4.74818E-15
 -1      2606 9.15926E-03-5.60942E-04-5.32920E-15
 -1      2607 8.94619E-03-6.70838E-04-5.13848E-15
 -1      2608 9.56212E-03-2.12424E-04-5.71528E-15
 -1      2609 9.68801E-03-2.47111E-04-5.80957E-15
 -1      2610 1.42868E-02-4.31932E-04-2.66146E-14
 -1      2611 6.70709E-04-1.34571E-04 7.29126E-18
 -1      2612 5.55115E-04-1.23420E-04 5.67851E-18
 -1      2613 5.58308E-04-1.43245E-04 5.33970E-18
 -1      2614 8.27294E-03 4.33123E-04-4.54945E-15
 -1      2615 9.02404E-04 3.72348E-04 8.75900E-17
 -1      2616 8.73519E-04 3.46129E-04 8.18844E-17
 -1      2617 1.01620E-03 3.95106E-04 1.01048E-16
 -1      2618 9.11276E-03-3.71372E-05-5.46640E-15
 -1      2619 9.48333E-03-1.87938E-04-5.81111E-15
 -1      2620 9.88212E-03-2.97989E-04-6.07171E-15
 -1      2621 9.76777E-03-2.69985E-04-6.05200E-15
 -1      2622 9.26138E-03-5.22042E-04-5.55108E-15
 -1      2623 8.87118E-03-7.27958E-04-5.20382E-15
 -1      2624 5.72314E-04-1.82022E-04 5.24483E-18
 -1      2625 9.82026E-03-3.20534E-04-5.97994E-15
 -1      2626 5.31197E-03-1.59608E-04-1.96271E-15
 -1      2627 1.22740E-03 4.23532E-04 1.24968E-16
 -1      2628 1.11436E-03 4.07723E-04 1.12025E-16
 -1      2629 1.08648E-03 3.82198E-04 1.05330E-16
 -1      2630 1.28419E-03 3.99981E-04 1.24168E-16
 -1      2631 8.45322E-03-9.74267E-04-4.70038E-15
 -1      2632 8.07685E-03-1.17249E-03-4.16851E-15
 -1      2633 1.41727E-02-4.36266E-04-2.60927E-14
 -1      2634 7.41904E-03-1.20865E-03-3.26635E-15
 -1      2635 9.59973E-03-3.84569E-04-5.79414E-15
 -1      2636 7.04882E-03-1.01812E-03-2.89017E-15
 -1      2637 6.21967E-03-5.13492E-04-2.33618E-15
 -1      2638 6.54666E-03 3.79321E-04-2.44357E-15
 -1      2639 5.48440E-03-9.34577E-05-1.95911E-15
 -1      2640 6.91028E-03 5.84258E-04-2.71866E-15
 -1      2641 7.27299E-03 7.35564E-04-3.12649E-15
 -1      2642 6.18029E-03 1.82765E-04-2.23350E-15
 -1      2643 7.75446E-03-1.25991E-03-3.70136E-15
 -1      2644 7.91168E-03 6.38399E-04-4.05128E-15
 -1      2645 7.99144E-03 5.98237E-04-4.20422E-15
 -1      2646 7.82478E-03 6.80227E-04-3.94419E-15
 -1      2647 8.69343E-03 1.81876E-04-5.04714E-15
 -1      2648 7.59234E-03 7.48436E-04-3.59212E-15
 -1      2649 5.30471E-03-1.35757E-04-1.91110E-15
 -1      2650 5.50867E-03-2.12280E-04-2.05706E-15
 -1      2651 6.65581E-03-7.69659E-04-2.58304E-15
 -1      2652 7.80012E-04 7.49345E-05 3.11708E-17
 -1      2653 7.78625E-04 5.37022E-05 2.76201E-17
 -1      2654 7.77686E-04 3.24700E-05 2.45843E-17
 -1      2655 7.77218E-04 1.15100E-05 2.17654E-17
 -1      2656 8.95804E-04 4.79630E-05 3.02492E-17
 -1      2657 7.92006E-04 1.68781E-04 4.80031E-17
 -1      2658 7.87847E-04 1.43750E-04 4.32597E-17
 -1      2659 8.04008E-04 2.23460E-04 5.81403E-17
 -1      2660 7.97368E-04 1.95286E-04 5.27329E-17
 -1      2661 9.15357E-04 2.02366E-04 5.94685E-17
 -1      2662 8.46001E-04 3.20870E-04 7.63549E-17
 -1      2663 8.19973E-04 2.96467E-04 7.11914E-17
 -1      2664 9.60331E-04 3.44103E-04 8.86471E-17
 -1      2665 8.18784E-03 4.89180E-04-4.51023E-15
 -1      2666 8.36463E-03 3.80166E-04-4.75241E-15
 -1      2667 9.39765E-03-1.54906E-04-5.93916E-15
 -1      2668 9.56453E-03-2.10665E-04-6.13107E-15
 -1      2669 9.89745E-03-3.02073E-04-6.32531E-15
 -1      2670 9.90404E-03-3.07424E-04-6.29240E-15
 -1      2671 8.57702E-03-9.28308E-04-4.95791E-15
 -1      2672 8.38450E-03-1.04268E-03-4.67844E-15
 -1      2673 1.32132E-03-3.52403E-04 3.99800E-18
 -1      2674 1.46479E-03-3.69508E-04 7.31836E-19
 -1      2675 1.60810E-03-3.83508E-04-3.79471E-18
 -1      2676 1.75137E-03-3.94613E-04-9.67650E-18
 -1      2677 1.52619E-03-3.42549E-04-1.17907E-18
 -1      2678 1.89454E-03-4.03280E-04-1.71168E-17
 -1      2679 2.03766E-03-4.09691E-04-2.65494E-17
 -1      2680 1.81316E-03-3.63972E-04-1.29291E-17
 -1      2681 2.18074E-03-4.14204E-04-3.81233E-17
 -1      2682 2.32384E-03-4.16969E-04-5.15809E-17
 -1      2683 2.09995E-03-3.76424E-04-3.19433E-17
 -1      2684 2.46696E-03-4.18267E-04-6.79117E-17
 -1      2685 2.61016E-03-4.18225E-04-8.69801E-17
 -1      2686 2.38653E-03-3.81841E-04-5.96311E-17
 -1      2687 2.75344E-03-4.17070E-04-1.09260E-16
 -1      2688 2.89685E-03-4.14912E-04-1.34848E-16
 -1      2689 2.67293E-03-3.81819E-04-9.78221E-17
 -1      2690 3.04037E-03-4.11950E-04-1.63823E-16
 -1      2691 3.18409E-03-4.08289E-04-1.96932E-16
 -1      2692 2.95919E-03-3.77692E-04-1.48915E-16
 -1      2693 3.32795E-03-4.04123E-04-2.33686E-16
 -1      2694 3.47205E-03-3.99566E-04-2.74994E-16
 -1      2695 3.24534E-03-3.70645E-04-2.14835E-16
 -1      2696 3.61634E-03-3.94837E-04-3.20504E-16
 -1      2697 3.76094E-03-3.90075E-04-3.70282E-16
 -1      2698 3.53141E-03-3.61845E-04-2.96773E-16
 -1      2699 3.90577E-03-3.85549E-04-4.24384E-16
 -1      2700 4.05101E-03-3.81452E-04-4.83080E-16
 -1      2701 3.81744E-03-3.52594E-04-3.96452E-16
 -1      2702 4.19660E-03-3.78131E-04-5.47522E-16
 -1      2703 4.34275E-03-3.75866E-04-6.17697E-16
 -1      2704 4.10357E-03-3.44490E-04-5.15091E-16
 -1      2705 4.48948E-03-3.75101E-04-6.94242E-16
 -1      2706 4.63708E-03-3.76270E-04-7.76872E-16
 -1      2707 4.39024E-03-3.39619E-04-6.55753E-16
 -1      2708 4.78570E-03-3.79907E-04-8.66101E-16
 -1      2709 4.93575E-03-3.86707E-04-9.61701E-16
 -1      2710 4.67844E-03-3.40766E-04-8.22340E-16
 -1      2711 5.08761E-03-3.97251E-04-1.06372E-15
 -1      2712 5.24185E-03-4.12678E-04-1.17328E-15
 -1      2713 4.97024E-03-3.51698E-04-1.01386E-15
 -1      2714 5.39924E-03-4.33510E-04-1.29028E-15
 -1      2715 5.56036E-03-4.61624E-04-1.41465E-15
 -1      2716 5.26954E-03-3.77608E-04-1.23423E-15
 -1      2717 5.72660E-03-4.97326E-04-1.54728E-15
 -1      2718 5.89803E-03-5.43349E-04-1.68780E-15
 -1      2719 5.58288E-03-4.26077E-04-1.48442E-15
 -1      2720 6.07669E-03-5.99690E-04-1.83768E-15
 -1      2721 6.26097E-03-6.69351E-04-1.99827E-15
 -1      2722 5.91943E-03-5.08375E-04-1.76659E-15
 -1      2723 6.45368E-03-7.51048E-04-2.16961E-15
 -1      2724 6.64913E-03-8.46088E-04-2.35199E-15
 -1      2725 6.28862E-03-6.39877E-04-2.08847E-15
 -1      2726 7.23784E-03-1.16007E-03-2.97093E-15
 -1      2727 7.41401E-03-1.23142E-03-3.19563E-15
 -1      2728 7.58796E-03-1.27878E-03-3.44040E-15
 -1      2729 7.76703E-03-1.28883E-03-3.71026E-15
 -1      2730 7.87417E-03-1.26471E-03-3.88682E-15
 -1      2731 8.06340E-03-1.21279E-03-4.18821E-15
 -1      2732 8.35569E-03-1.10611E-03-4.69540E-15
 -1      2733 8.55153E-03-1.02219E-03-5.04412E-15
 -1      2734 8.74961E-03-9.41089E-04-5.40812E-15
 -1      2735 8.94296E-03-8.69779E-04-5.78884E-15
 -1      2736 8.71846E-03-9.13228E-04-5.29370E-15
 -1      2737 9.13299E-03-8.11251E-04-6.18457E-15
 -1      2738 9.31563E-03-7.64499E-04-6.59428E-15
 -1      2739 9.11081E-03-7.74263E-04-6.06233E-15
 -1      2740 9.49266E-03-7.30435E-04-7.01622E-15
 -1      2741 9.66313E-03-7.06324E-04-7.44892E-15
 -1      2742 9.47352E-03-6.91722E-04-6.88600E-15
 -1      2743 9.82858E-03-6.92015E-04-7.89283E-15
 -1      2744 9.98943E-03-6.85106E-04-8.34856E-15
 -1      2745 9.80725E-03-6.54374E-04-7.75701E-15
 -1      2746 1.01467E-02-6.85082E-04-8.81574E-15
 -1      2747 1.03012E-02-6.90335E-04-9.29154E-15
 -1      2748 1.01204E-02-6.48667E-04-8.67154E-15
 -1      2749 1.04534E-02-7.00228E-04-9.77496E-15
 -1      2750 1.06039E-02-7.13750E-04-1.02692E-14
 -1      2751 1.04211E-02-6.64372E-04-9.62553E-15
 -1      2752 1.07531E-02-7.30275E-04-1.07728E-14
 -1      2753 1.09013E-02-7.49181E-04-1.12830E-14
 -1      2754 1.07149E-02-6.94396E-04-1.06152E-14
 -1      2755 1.10487E-02-7.69931E-04-1.17991E-14
 -1      2756 1.11955E-02-7.92137E-04-1.23229E-14
 -1      2757 1.10053E-02-7.33722E-04-1.16377E-14
 -1      2758 1.13417E-02-8.15379E-04-1.28550E-14
 -1      2759 1.14876E-02-8.39419E-04-1.33934E-14
 -1      2760 1.12939E-02-7.78762E-04-1.26869E-14
 -1      2761 1.16331E-02-8.63951E-04-1.39374E-14
 -1      2762 1.17784E-02-8.88829E-04-1.44834E-14
 -1      2763 1.15818E-02-8.26970E-04-1.37637E-14
 -1      2764 1.19233E-02-9.13845E-04-1.50341E-14
 -1      2765 1.20680E-02-9.38912E-04-1.55930E-14
 -1      2766 1.18692E-02-8.76594E-04-1.48602E-14
 -1      2767 1.22125E-02-9.63899E-04-1.61584E-14
 -1      2768 1.23569E-02-9.88758E-04-1.67296E-14
 -1      2769 1.21564E-02-9.26479E-04-1.59785E-14
 -1      2770 1.25010E-02-1.01341E-03-1.73067E-14
 -1      2771 1.26451E-02-1.03784E-03-1.78892E-14
 -1      2772 1.24433E-02-9.75906E-04-1.71210E-14
 -1      2773 1.27889E-02-1.06200E-03-1.84785E-14
 -1      2774 1.29327E-02-1.08589E-03-1.90735E-14
 -1      2775 1.27301E-02-1.02447E-03-1.82888E-14
 -1      2776 1.30763E-02-1.10950E-03-1.96745E-14
 -1      2777 1.32198E-02-1.13282E-03-2.02781E-14
 -1      2778 1.30166E-02-1.07199E-03-1.94796E-14
 -1      2779 1.33632E-02-1.15587E-03-2.08834E-14
 -1      2780 1.35066E-02-1.17864E-03-2.14937E-14
 -1      2781 1.33030E-02-1.11840E-03-2.06871E-14
 -1      2782 1.36498E-02-1.20117E-03-2.21068E-14
 -1      2783 1.37931E-02-1.22344E-03-2.27216E-14
 -1      2784 1.35892E-02-1.16376E-03-2.19072E-14
 -1      2785 1.39362E-02-1.24550E-03-2.33394E-14
 -1      2786 1.40793E-02-1.26733E-03-2.39601E-14
 -1      2787 1.38753E-02-1.20815E-03-2.31385E-14
 -1      2788 1.42223E-02-1.28898E-03-2.45801E-14
 -1      2789 1.43653E-02-1.31045E-03-2.52031E-14
 -1      2790 1.41613E-02-1.25170E-03-2.43770E-14
 -1      2791 1.44496E-02-1.31752E-03-2.55841E-14
 -1      2792 1.45726E-02-1.32913E-03-2.61339E-14
 -1      2793 1.45571E-02-1.29432E-03-2.61418E-14
 -1      2794 1.43885E-02-1.28030E-03-2.53824E-14
 -1      2795 1.87207E-03 4.15428E-04 1.62048E-16
 -1      2796 1.72902E-03 4.06130E-04 1.52208E-16
 -1      2797 2.15803E-03 4.27618E-04 1.75194E-16
 -1      2798 2.01505E-03 4.22533E-04 1.69651E-16
 -1      2799 1.93382E-03 3.83557E-04 1.51043E-16
 -1      2800 1.58589E-03 3.94208E-04 1.40811E-16
 -1      2801 1.44261E-03 3.79454E-04 1.28654E-16
 -1      2802 1.64702E-03 3.65514E-04 1.34292E-16
 -1      2803 2.73066E-03 4.32981E-04 1.71196E-16
 -1      2804 2.58731E-03 4.33504E-04 1.76305E-16
 -1      2805 3.01800E-03 4.29339E-04 1.48807E-16
 -1      2806 2.87421E-03 4.31551E-04 1.62142E-16
 -1      2807 2.79384E-03 3.95978E-04 1.44212E-16
 -1      2808 3.30646E-03 4.23312E-04 1.08718E-16
 -1      2809 3.16206E-03 4.26549E-04 1.30836E-16
 -1      2810 3.08099E-03 3.91524E-04 1.15142E-16
 -1      2811 3.59642E-03 4.16269E-04 5.08491E-17
 -1      2812 3.45122E-03 4.19835E-04 8.25620E-17
 -1      2813 3.36881E-03 3.84968E-04 6.87384E-17
 -1      2814 3.88837E-03 4.09750E-04-2.87991E-17
 -1      2815 3.74211E-03 4.12844E-04 1.36745E-17
 -1      2816 3.65765E-03 3.77619E-04 2.76472E-18
 -1      2817 4.18294E-03 4.05615E-04-1.29765E-16
 -1      2818 4.03528E-03 4.07256E-04-7.61245E-17
 -1      2819 3.94803E-03 3.70966E-04-8.46220E-17
 -1      2820 4.48098E-03 4.06170E-04-2.58176E-16
 -1      2821 4.33147E-03 4.05139E-04-1.90671E-16
 -1      2822 4.24074E-03 3.66824E-04-1.94709E-16
 -1      2823 4.78364E-03 4.14264E-04-4.13542E-16
 -1      2824 4.63168E-03 4.09061E-04-3.32037E-16
 -1      2825 4.53689E-03 3.67471E-04-3.31413E-16
 -1      2826 5.09230E-03 4.33270E-04-6.01515E-16
 -1      2827 4.93719E-03 4.22143E-04-5.03476E-16
 -1      2828 4.83803E-03 3.75762E-04-4.96619E-16
 -1      2829 5.40837E-03 4.66856E-04-8.25051E-16
 -1      2830 5.24943E-03 4.47959E-04-7.08811E-16
 -1      2831 5.14614E-03 3.95187E-04-6.94675E-16
 -1      2832 5.73268E-03 5.18294E-04-1.08759E-15
 -1      2833 5.56964E-03 4.90123E-04-9.51076E-16
 -1      2834 5.46336E-03 4.29760E-04-9.28579E-16
 -1      2835 6.06441E-03 5.88893E-04-1.39508E-15
 -1      2836 5.89796E-03 5.51224E-04-1.23550E-15
 -1      2837 5.79112E-03 4.83410E-04-1.20173E-15
 -1      2838 6.39989E-03 6.75193E-04-1.75093E-15
 -1      2839 6.23223E-03 6.30654E-04-1.56662E-15
 -1      2840 6.12864E-03 5.58232E-04-1.51927E-15
 -1      2841 6.73264E-03 7.65147E-04-2.15968E-15
 -1      2842 6.56717E-03 7.21005E-04-1.94906E-15
 -1      2843 6.47125E-03 6.50644E-04-1.88762E-15
 -1      2844 7.05600E-03 8.37141E-04-2.62437E-15
 -1      2845 6.89562E-03 8.05447E-04-2.38480E-15
 -1      2846 6.81040E-03 7.46584E-04-2.30763E-15
 -1      2847 7.36883E-03 8.64324E-04-3.14799E-15
 -1      2848 7.21286E-03 8.57806E-04-2.87928E-15
 -1      2849 7.13797E-03 8.18922E-04-2.78462E-15
 -1      2850 7.67880E-03 8.30988E-04-3.72788E-15
 -1      2851 7.52309E-03 8.55522E-04-3.42937E-15
 -1      2852 7.45438E-03 8.35678E-04-3.32071E-15
 -1      2853 7.99555E-03 7.41095E-04-4.37111E-15
 -1      2854 7.83552E-03 7.91621E-04-4.04239E-15
 -1      2855 7.77063E-03 7.83127E-04-3.91713E-15
 -1      2856 8.32329E-03 6.17562E-04-5.07081E-15
 -1      2857 8.15813E-03 6.81589E-04-4.71410E-15
 -1      2858 8.09732E-03 6.73455E-04-4.57467E-15
 -1      2859 8.65811E-03 4.85929E-04-5.82864E-15
 -1      2860 8.49042E-03 5.51222E-04-5.44279E-15
 -1      2861 8.43583E-03 5.37547E-04-5.29047E-15
 -1      2862 8.99282E-03 3.64385E-04-6.64189E-15
 -1      2863 8.82609E-03 4.23220E-04-6.22886E-15
 -1      2864 8.77858E-03 4.03216E-04-6.06222E-15
 -1      2865 9.32191E-03 2.60774E-04-7.50298E-15
 -1      2866 9.15846E-03 3.10233E-04-7.06748E-15
 -1      2867 9.11682E-03 2.85912E-04-6.88815E-15
 -1      2868 9.64301E-03 1.76066E-04-8.41153E-15
 -1      2869 9.48362E-03 2.16237E-04-7.95112E-15
 -1      2870 9.44549E-03 1.89655E-04-7.76060E-15
 -1      2871 9.95619E-03 1.07821E-04-9.36478E-15
 -1      2872 9.80061E-03 1.40142E-04-8.88304E-15
 -1      2873 9.76360E-03 1.12562E-04-8.67881E-15
 -1      2874 1.02626E-02 5.25450E-05-1.03614E-14
 -1      2875 1.01102E-02 7.88170E-05-9.85869E-15
 -1      2876 1.00725E-02 5.08151E-05-9.64307E-15
 -1      2877 1.05638E-02 6.71195E-06-1.13958E-14
 -1      2878 1.04138E-02 2.86611E-05-1.08743E-14
 -1      2879 1.03743E-02 4.70325E-07-1.06483E-14
 -1      2880 1.08610E-02-3.27109E-05-1.24686E-14
 -1      2881 1.07128E-02-1.36353E-05-1.19277E-14
 -1      2882 1.06710E-02-4.19386E-05-1.16903E-14
 -1      2883 1.11553E-02-6.81347E-05-1.35732E-14
 -1      2884 1.10084E-02-5.08008E-05-1.30175E-14
 -1      2885 1.09643E-02-7.91750E-05-1.27695E-14
 -1      2886 1.14473E-02-1.01366E-04-1.47086E-14
 -1      2887 1.13015E-02-8.49385E-05-1.41372E-14
 -1      2888 1.12551E-02-1.13341E-04-1.38788E-14
 -1      2889 1.17378E-02-1.33688E-04-1.58640E-14
 -1      2890 1.15928E-02-1.17583E-04-1.52836E-14
 -1      2891 1.15444E-02-1.45967E-04-1.50145E-14
 -1      2892 1.20271E-02-1.65962E-04-1.70410E-14
 -1      2893 1.18826E-02-1.49794E-04-1.64499E-14
 -1      2894 1.18326E-02-1.78115E-04-1.61745E-14
 -1      2895 1.23155E-02-1.98722E-04-1.82314E-14
 -1      2896 1.21714E-02-1.82260E-04-1.76347E-14
 -1      2897 1.21201E-02-2.10481E-04-1.73526E-14
 -1      2898 1.26031E-02-2.32269E-04-1.94320E-14
 -1      2899 1.24593E-02-2.15387E-04-1.88310E-14
 -1      2900 1.24072E-02-2.43484E-04-1.85459E-14
 -1      2901 1.28902E-02-2.66734E-04-2.06428E-14
 -1      2902 1.27467E-02-2.49383E-04-2.00369E-14
 -1      2903 1.26938E-02-2.77344E-04-1.97485E-14
 -1      2904 1.31769E-02-3.02139E-04-2.18573E-14
 -1      2905 1.30336E-02-2.84320E-04-2.12487E-14
 -1      2906 1.29802E-02-3.12140E-04-2.09583E-14
 -1      2907 1.34633E-02-3.38436E-04-2.30703E-14
 -1      2908 1.33202E-02-3.20180E-04-2.24660E-14
 -1      2909 1.32664E-02-3.47863E-04-2.21713E-14
 -1      2910 1.37495E-02-3.75537E-04-2.42889E-14
 -1      2911 1.36064E-02-3.56891E-04-2.36786E-14
 -1      2912 1.35524E-02-3.84447E-04-2.33854E-14
 -1      2913 1.40326E-02-4.15243E-04-2.54919E-14
 -1      2914 1.38897E-02-3.96266E-04-2.48823E-14
 -1      2915 1.38355E-02-4.23703E-04-2.45877E-14
 -1      2916 1.41156E-02-4.65507E-04-2.57813E-14
 -1      2917 1.42006E-02-6.14941E-04-2.58893E-14
 -1      2918 1.41811E-02-5.74030E-04-2.58799E-14
 -1      2919 1.42802E-02-7.80345E-04-2.59254E-14
 -1      2920 1.42603E-02-7.38994E-04-2.59178E-14
 -1      2921 1.41582E-02-5.40705E-04-2.58347E-14
 -1      2922 1.41384E-02-4.98943E-04-2.58236E-14
 -1      2923 1.39984E-02-4.77931E-04-2.52227E-14
 -1      2924 1.40443E-02-5.44564E-04-2.53071E-14
 -1      2925 1.42404E-02-6.97768E-04-2.59075E-14
 -1      2926 1.42205E-02-6.56303E-04-2.58973E-14
 -1      2927 1.40872E-02-6.19120E-04-2.53584E-14
 -1      2928 1.41270E-02-7.01509E-04-2.53759E-14
 -1      2929 1.43595E-02-9.45510E-04-2.59653E-14
 -1      2930 1.43397E-02-9.04223E-04-2.59562E-14
 -1      2931 1.43982E-02-1.02676E-03-2.59810E-14
 -1      2932 1.43789E-02-9.86117E-04-2.59733E-14
 -1      2933 1.42457E-02-9.47766E-04-2.54270E-14
 -1      2934 1.44376E-02-1.10961E-03-2.59926E-14
 -1      2935 1.44179E-02-1.06815E-03-2.59878E-14
 -1      2936 1.42847E-02-1.02952E-03-2.54414E-14
 -1      2937 1.44771E-02-1.19275E-03-2.59985E-14
 -1      2938 1.44573E-02-1.15114E-03-2.59972E-14
 -1      2939 1.43240E-02-1.11224E-03-2.54527E-14
 -1      2940 9.05920E-03-6.05240E-06-5.61390E-15
 -1      2941 9.23374E-03-8.75049E-05-5.77556E-15
 -1      2942 9.34717E-03-1.20161E-04-6.09113E-15
 -1      2943 9.74503E-03-2.65199E-04-6.28220E-15
 -1      2944 9.84304E-03-2.87196E-04-6.33635E-15
 -1      2945 5.31729E-03-1.60247E-04-1.87439E-15
 -1      2946 5.26677E-03-1.49046E-04-1.84129E-15
 -1      2947 9.68647E-03-3.67601E-04-6.05908E-15
 -1      2948 9.54708E-03-4.12516E-04-5.93042E-15
 -1      2949 6.44585E-03 3.39315E-04-2.30991E-15
 -1      2950 6.61342E-03 4.33941E-04-2.42670E-15
 -1      2951 7.11860E-03-1.06742E-03-2.91100E-15
 -1      2952 6.94492E-03-9.56683E-04-2.75699E-15
 -1      2953 6.78530E-03 5.30471E-04-2.55981E-15
 -1      2954 6.95330E-03 6.25074E-04-2.71145E-15
 -1      2955 5.42066E-03-9.40750E-05-1.84954E-15
 -1      2956 5.55357E-03-6.32027E-05-1.91442E-15
 -1      2957 1.43199E-02-8.62945E-04-2.59453E-14
 -1      2958 1.43001E-02-8.21656E-04-2.59344E-14
 -1      2959 1.42066E-02-8.66140E-04-2.54093E-14
 -1      2960 1.03453E-03-3.07123E-04 6.77626E-18
 -1      2961 1.17793E-03-3.31697E-04 6.07153E-18
 -1      2962 1.23938E-03-3.09837E-04 5.20417E-18
 -1      2963 9.87180E-03-3.18919E-04-6.24271E-15
 -1      2964 9.80518E-03-3.33841E-04-6.18265E-15
 -1      2965 7.54774E-03 7.60764E-04-3.52360E-15
 -1      2966 7.67874E-03 7.32335E-04-3.73134E-15
 -1      2967 7.76204E-03 7.08173E-04-3.87350E-15
 -1      2968 8.58688E-03 2.48647E-04-5.04914E-15
 -1      2969 8.80374E-03 1.24675E-04-5.31286E-15
 -1      2970 5.25889E-03-1.37644E-04-1.82510E-15
 -1      2971 5.29197E-03-1.25859E-04-1.80674E-15
 -1      2972 5.22838E-03-1.38315E-04-1.74107E-15
 -1      2973 6.07054E-03 1.47287E-04-2.09504E-15
 -1      2974 6.24457E-03 2.34522E-04-2.18183E-15
 -1      2975 7.17553E-03 7.18442E-04-2.96872E-15
 -1      2976 7.35339E-03 7.60764E-04-3.22363E-15
 -1      2977 5.70592E-03-1.14346E-05-1.96667E-15
 -1      2978 5.87732E-03 5.76163E-05-2.02161E-15
 -1      2979 5.61220E-03-2.28729E-05-1.85371E-15
 -1      2980 9.00470E-03-6.77114E-04-5.48545E-15
 -1      2981 8.80909E-03-7.88431E-04-5.25281E-15
 -1      2982 7.84531E-04 1.19949E-04 3.88551E-17
 -1      2983 7.81974E-04 9.70383E-05 3.48842E-17
 -1      2984 8.99253E-04 9.62004E-05 3.85434E-17
 -1      2985 9.05442E-04 1.47076E-04 4.83690E-17
 -1      2986 5.56791E-03-2.28864E-04-2.00218E-15
 -1      2987 5.42855E-03-1.89364E-04-1.94381E-15
 -1      2988 5.87451E-03-3.46280E-04-2.12374E-15
 -1      2989 5.72857E-03-2.86969E-04-2.06607E-15
 -1      2990 6.28840E-03-5.58881E-04-2.29169E-15
 -1      2991 6.06630E-03-4.37318E-04-2.19589E-15
 -1      2992 6.89152E-04-2.00007E-04 6.15285E-18
 -1      2993 7.81734E-04-9.50121E-05 1.11673E-17
 -1      2994 7.84219E-04-1.17833E-04 9.82558E-18
 -1      2995 2.44412E-03 4.32895E-04 1.79070E-16
 -1      2996 2.30104E-03 4.31023E-04 1.78514E-16
 -1      2997 2.22046E-03 3.93449E-04 1.59622E-16
 -1      2998 2.50707E-03 3.97069E-04 1.57900E-16
 -1      2999 9.39777E-03-4.73938E-04-5.82175E-15
 -1      3000 9.23268E-03-5.54463E-04-5.70158E-15
 -1      3001 7.44993E-03-1.22678E-03-3.28548E-15
 -1      3002 7.27059E-03-1.15042E-03-3.06859E-15
 -1      3003 8.94659E-04 9.75817E-07 2.34865E-17
 -1      3004 7.77191E-04-9.39308E-06 1.93530E-17
 -1      3005 7.77606E-04-3.03338E-05 1.68729E-17
 -1      3006 8.08076E-04 2.63329E-04 6.52283E-17
 -1      3007 8.09165E-03 5.48494E-04-4.39464E-15
 -1      3008 8.19162E-03 5.01338E-04-4.58990E-15
 -1      3009 8.00650E-03 6.01460E-04-4.27941E-15
 -1      3010 5.32263E-03-1.08255E-04-1.76458E-15
 -1      3011 5.36277E-03-8.49090E-05-1.72151E-15
 -1      3012 5.24584E-03-1.12744E-04-1.68246E-15
 -1      3013 9.62725E-03-2.13404E-04-6.54433E-15
 -1      3014 9.68527E-03-2.42868E-04-6.41392E-15
 -1      3015 9.79052E-03-2.63599E-04-6.70309E-15
 -1      3016 9.91619E-03-3.19667E-04-6.49866E-15
 -1      3017 8.22219E-03-1.14480E-03-4.45312E-15
 -1      3018 6.74648E-03-8.64154E-04-2.50944E-15
 -1      3019 6.90393E-03-9.79614E-04-2.60547E-15
 -1      3020 7.09975E-03-1.08360E-03-2.81735E-15
 -1      3021 9.30273E-03-5.68617E-04-6.02262E-15
 -1      3022 9.15691E-03-6.16346E-04-5.74984E-15
 -1      3023 9.10018E-03-6.79209E-04-5.79837E-15
 -1      3024 9.51414E-03-4.47013E-04-6.08508E-15
 -1      3025 1.41668E-02-7.83810E-04-2.53922E-14
 -1      3026 7.87453E-04-1.41527E-04 8.59230E-18
 -1      3027 7.91522E-04-1.66316E-04 7.65718E-18
 -1      3028 9.05013E-04-1.44582E-04 9.92045E-18
 -1      3029 6.48566E-03-6.87535E-04-2.35172E-15
 -1      3030 6.31961E-03-6.07409E-04-2.21001E-15
 -1      3031 5.34536E-03-1.71427E-04-1.82361E-15
 -1      3032 7.05358E-03 6.85174E-04-2.79434E-15
 -1      3033 7.13615E-03 7.30507E-04-2.88001E-15
 -1      3034 6.93108E-03 6.45783E-04-2.62865E-15
 -1      3035 8.95070E-03 6.31167E-05-5.61488E-15
 -1      3036 1.45247E-02-1.26082E-03-2.60659E-14
 -1      3037 1.45094E-02-1.22613E-03-2.60757E-14
 -1      3038 1.43758E-02-1.18703E-03-2.55327E-14
 -1      3039 1.44404E-02-1.25384E-03-2.56876E-14
 -1      3040 1.36012E-03 3.37064E-04 1.12134E-16
 -1      3041 1.29925E-03 3.61339E-04 1.15196E-16
 -1      3042 7.44094E-03 7.72874E-04-3.35014E-15
 -1      3043 7.52276E-03 7.72755E-04-3.48198E-15
 -1      3044 7.34019E-03 7.73099E-04-3.18083E-15
 -1      3045 1.19971E-03 3.54830E-04 1.07458E-16
 -1      3046 6.67248E-03 4.90682E-04-2.41728E-15
 -1      3047 7.16168E-03-1.09995E-03-2.92684E-15
 -1      3048 6.31661E-03 2.96411E-04-2.16389E-15
 -1      3049 9.77334E-03-3.57029E-04-6.32218E-15
 -1      3050 7.78153E-03-1.26516E-03-3.74389E-15
 -1      3051 8.72446E-03-8.70683E-04-5.22806E-15
 -1      3052 9.26028E-04 2.74310E-04 7.38884E-17
 -1      3053 7.78482E-04-5.14366E-05 1.47451E-17
 -1      3054 7.79834E-04-7.29784E-05 1.28613E-17
 -1      3055 8.98994E-04-9.38965E-05 1.31595E-17
 -1      3056 8.95686E-04-4.58752E-05 1.78216E-17
 -1      3057 7.63915E-03-1.26789E-03-3.53594E-15
 -1      3058 9.90152E-03-2.99299E-04-6.55931E-15
 -1      3059 8.49325E-03 3.16803E-04-5.00567E-15
 -1      3060 5.94324E-03 1.11833E-04-1.97239E-15
 -1      3061 5.94953E-03-3.93999E-04-2.08306E-15
 -1      3062 5.61342E-03-2.52269E-04-1.95246E-15
 -1      3063 8.03721E-04-1.98600E-04 7.11508E-18
 -1      3064 8.22338E-04-2.48735E-04 6.57298E-18
 -1      3065 9.53562E-04-2.81951E-04 6.83047E-18
 -1      3066 9.21772E-04-2.05726E-04 7.67073E-18
 -1      3067 6.77686E-03-8.51339E-04-2.62155E-15
 -1      3068 6.58397E-03-7.33015E-04-2.47301E-15
 -1      3069 1.01601E-03-2.65605E-04 6.99310E-18
 -1      3070 1.04087E-03 2.36607E-04 7.20723E-17
 -1      3071 1.03399E-03 2.05311E-04 6.52554E-17
 -1      3072 1.05965E-03 3.57197E-04 9.85269E-17
 -1      3073 7.48985E-03-1.24407E-03-3.32178E-15
 -1      3074 1.73231E-03-3.25001E-04-8.82270E-18
 -1      3075 1.87589E-03-3.32856E-04-1.62495E-17
 -1      3076 2.01940E-03-3.38769E-04-2.55059E-17
 -1      3077 2.16287E-03-3.42881E-04-3.72017E-17
 -1      3078 1.93933E-03-3.01347E-04-1.93666E-17
 -1      3079 2.30622E-03-3.45465E-04-5.08491E-17
 -1      3080 2.44947E-03-3.46642E-04-6.72205E-17
 -1      3081 2.22625E-03-3.09172E-04-4.21348E-17
 -1      3082 2.59258E-03-3.46642E-04-8.66820E-17
 -1      3083 2.73555E-03-3.45564E-04-1.08895E-16
 -1      3084 2.51258E-03-3.11501E-04-7.51894E-17
 -1      3085 2.87833E-03-3.43610E-04-1.34238E-16
 -1      3086 3.02096E-03-3.40863E-04-1.63159E-16
 -1      3087 2.79798E-03-3.09597E-04-1.19696E-16
 -1      3088 3.16336E-03-3.37517E-04-1.96051E-16
 -1      3089 3.30558E-03-3.33649E-04-2.32697E-16
 -1      3090 3.08217E-03-3.04564E-04-1.77403E-16
 -1      3091 3.44753E-03-3.29462E-04-2.73327E-16
 -1      3092 3.58928E-03-3.25038E-04-3.18579E-16
 -1      3093 3.36486E-03-2.97436E-04-2.50749E-16
 -1      3094 3.73072E-03-3.20610E-04-3.68100E-16
 -1      3095 3.87194E-03-3.16280E-04-4.22527E-16
 -1      3096 3.64576E-03-2.89267E-04-3.40141E-16
 -1      3097 4.01284E-03-3.12329E-04-4.81860E-16
 -1      3098 4.15358E-03-3.08899E-04-5.46695E-16
 -1      3099 3.92460E-03-2.81236E-04-4.48995E-16
 -1      3100 4.29406E-03-3.06327E-04-6.17833E-16
 -1      3101 4.43453E-03-3.04834E-04-6.95150E-16
 -1      3102 4.20123E-03-2.74747E-04-5.79384E-16
 -1      3103 4.57496E-03-3.04803E-04-7.77414E-16
 -1      3104 4.71578E-03-3.06607E-04-8.67131E-16
 -1      3105 4.47583E-03-2.71521E-04-7.33653E-16
 -1      3106 4.85708E-03-3.10639E-04-9.65062E-16
 -1      3107 4.99959E-03-3.17583E-04-1.06768E-15
 -1      3108 4.74927E-03-2.73701E-04-9.13725E-16
 -1      3109 5.14365E-03-3.27767E-04-1.17744E-15
 -1      3110 5.29043E-03-3.42516E-04-1.29587E-15
 -1      3111 5.02381E-03-2.84088E-04-1.12178E-15
 -1      3112 5.44072E-03-3.62037E-04-1.42127E-15
 -1      3113 5.59616E-03-3.88993E-04-1.55472E-15
 -1      3114 5.30422E-03-3.06742E-04-1.35792E-15
 -1      3115 5.75851E-03-4.23319E-04-1.69611E-15
 -1      3116 5.92896E-03-4.70061E-04-1.84665E-15
 -1      3117 5.59983E-03-3.49380E-04-1.62514E-15
 -1      3118 6.12705E-03-5.26989E-04-2.03680E-15
 -1      3119 1.03901E-03-2.46239E-04 7.02021E-18
 -1      3120 1.11879E-03-2.67848E-04 6.54587E-18
 -1      3121 1.26158E-03-2.87140E-04 4.87891E-18
 -1      3122 1.02451E-03-2.08281E-04 7.87402E-18
 -1      3123 8.92767E-03-7.88680E-04-5.60274E-15
 -1      3124 6.55376E-03 4.53784E-04-2.26894E-15
 -1      3125 6.70715E-03 5.39774E-04-2.39496E-15
 -1      3126 9.44224E-03-6.44702E-04-6.68393E-15
 -1      3127 9.61086E-03-6.20950E-04-7.10815E-15
 -1      3128 9.77214E-03-6.08415E-04-7.54446E-15
 -1      3129 9.92741E-03-6.02826E-04-7.99114E-15
 -1      3130 9.74569E-03-5.60328E-04-7.33114E-15
 -1      3131 1.00781E-02-6.04148E-04-8.44762E-15
 -1      3132 1.02256E-02-6.10092E-04-8.91614E-15
 -1      3133 1.00424E-02-5.59223E-04-8.22530E-15
 -1      3134 1.03707E-02-6.20397E-04-9.39220E-15
 -1      3135 1.05143E-02-6.33881E-04-9.87781E-15
 -1      3136 1.03253E-02-5.77164E-04-9.15892E-15
 -1      3137 1.06568E-02-6.50152E-04-1.03715E-14
 -1      3138 1.07988E-02-6.68592E-04-1.08757E-14
 -1      3139 1.06026E-02-6.07230E-04-1.01312E-14
 -1      3140 1.09403E-02-6.88791E-04-1.13878E-14
 -1      3141 1.10818E-02-7.10393E-04-1.19044E-14
 -1      3142 1.08786E-02-6.45366E-04-1.11351E-14
 -1      3143 1.12232E-02-7.33040E-04-1.24285E-14
 -1      3144 1.13648E-02-7.56516E-04-1.29611E-14
 -1      3145 1.11552E-02-6.88786E-04-1.21712E-14
 -1      3146 1.15064E-02-7.80539E-04-1.34974E-14
 -1      3147 1.16483E-02-8.04974E-04-1.40419E-14
 -1      3148 1.14332E-02-7.35425E-04-1.32333E-14
 -1      3149 1.17902E-02-8.29614E-04-1.45902E-14
 -1      3150 1.19323E-02-8.54375E-04-1.51418E-14
 -1      3151 1.17129E-02-7.83755E-04-1.43187E-14
 -1      3152 1.20745E-02-8.79119E-04-1.57032E-14
 -1      3153 1.22168E-02-9.03793E-04-1.62696E-14
 -1      3154 1.19940E-02-8.32679E-04-1.54282E-14
 -1      3155 1.23593E-02-9.28314E-04-1.68389E-14
 -1      3156 1.25018E-02-9.52652E-04-1.74154E-14
 -1      3157 1.22764E-02-8.81457E-04-1.65584E-14
 -1      3158 1.26444E-02-9.76762E-04-1.79993E-14
 -1      3159 1.27871E-02-1.00063E-03-1.85879E-14
 -1      3160 1.25597E-02-9.29627E-04-1.77103E-14
 -1      3161 1.29298E-02-1.02424E-03-1.91796E-14
 -1      3162 1.30726E-02-1.04759E-03-1.97803E-14
 -1      3163 1.28437E-02-9.76937E-04-1.88855E-14
 -1      3164 1.32154E-02-1.07068E-03-2.03848E-14
 -1      3165 1.33582E-02-1.09350E-03-2.09911E-14
 -1      3166 1.31283E-02-1.02328E-03-2.00809E-14
 -1      3167 1.35010E-02-1.11609E-03-2.16015E-14
 -1      3168 1.36439E-02-1.13843E-03-2.22131E-14
 -1      3169 1.34132E-02-1.06866E-03-2.12949E-14
 -1      3170 1.37867E-02-1.16055E-03-2.28304E-14
 -1      3171 1.39296E-02-1.18245E-03-2.34494E-14
 -1      3172 1.36984E-02-1.11312E-03-2.25210E-14
 -1      3173 1.99643E-03 3.51243E-04 1.38561E-16
 -1      3174 1.85287E-03 3.44770E-04 1.33655E-16
 -1      3175 1.70932E-03 3.36207E-04 1.26730E-16
 -1      3176 1.56576E-03 3.25388E-04 1.17853E-16
 -1      3177 1.77250E-03 3.06333E-04 1.17446E-16
 -1      3178 3.14338E-03 3.53894E-04 8.02716E-17
 -1      3179 3.00007E-03 3.56770E-04 1.00465E-16
 -1      3180 2.85678E-03 3.59016E-04 1.16064E-16
 -1      3181 2.71348E-03 3.60535E-04 1.27231E-16
 -1      3182 2.91946E-03 3.22213E-04 8.59501E-17
 -1      3183 3.71750E-03 3.39335E-04-4.65665E-17
 -1      3184 3.57372E-03 3.43134E-04-6.58653E-18
 -1      3185 4.00596E-03 3.32529E-04-1.40729E-16
 -1      3186 3.86153E-03 3.35738E-04-9.13305E-17
 -1      3187 3.77601E-03 3.01467E-04-9.65211E-17
 -1      3188 4.29646E-03 3.28242E-04-2.61089E-16
 -1      3189 4.15087E-03 3.29941E-04-1.97813E-16
 -1      3190 4.06218E-03 2.94445E-04-1.99602E-16
 -1      3191 4.59039E-03 3.28681E-04-4.05668E-16
 -1      3192 4.44289E-03 3.27691E-04-3.29923E-16
 -1      3193 4.35011E-03 2.89813E-04-3.27456E-16
 -1      3194 4.88977E-03 3.36686E-04-5.80292E-16
 -1      3195 4.73927E-03 3.31487E-04-4.88718E-16
 -1      3196 4.64149E-03 2.89665E-04-4.80857E-16
 -1      3197 5.19722E-03 3.55892E-04-7.88838E-16
 -1      3198 5.04235E-03 3.44548E-04-6.80472E-16
 -1      3199 4.93880E-03 2.96814E-04-6.65416E-16
 -1      3200 5.51571E-03 3.90798E-04-1.03213E-15
 -1      3201 5.35501E-03 3.70951E-04-9.05715E-16
 -1      3202 5.24541E-03 3.15099E-04-8.82798E-16
 -1      3203 5.84747E-03 4.46321E-04-1.31560E-15
 -1      3204 5.68005E-03 4.15564E-04-1.16825E-15
 -1      3205 5.56528E-03 3.49781E-04-1.13630E-15
 -1      3206 6.19189E-03 5.25941E-04-1.64526E-15
 -1      3207 6.01859E-03 4.83056E-04-1.47489E-15
 -1      3208 5.90157E-03 4.07415E-04-1.43063E-15
 -1      3209 6.54357E-03 6.26080E-04-2.02430E-15
 -1      3210 6.36801E-03 5.74165E-04-1.82868E-15
 -1      3211 6.25425E-03 4.93068E-04-1.77174E-15
 -1      3212 7.16901E-03 7.80946E-04-2.87212E-15
 -1      3213 7.00047E-03 7.43474E-04-2.62575E-15
 -1      3214 7.54197E-03 8.10438E-04-3.49109E-15
 -1      3215 7.38211E-03 8.18726E-04-3.20918E-15
 -1      3216 7.86469E-03 7.34615E-04-4.10379E-15
 -1      3217 7.70122E-03 7.81236E-04-3.78805E-15
 -1      3218 7.63170E-03 7.80092E-04-3.66344E-15
 -1      3219 8.20169E-03 6.04575E-04-4.77441E-15
 -1      3220 8.03095E-03 6.73306E-04-4.43187E-15
 -1      3221 7.96504E-03 6.77092E-04-4.28901E-15
 -1      3222 8.55061E-03 4.58986E-04-5.50616E-15
 -1      3223 8.37577E-03 5.31257E-04-5.13382E-15
 -1      3224 8.31519E-03 5.27790E-04-4.97643E-15
 -1      3225 8.89911E-03 3.25599E-04-6.29289E-15
 -1      3226 8.72585E-03 3.89704E-04-5.89267E-15
 -1      3227 8.67334E-03 3.76662E-04-5.72415E-15
 -1      3228 9.23827E-03 2.15087E-04-7.12866E-15
 -1      3229 9.07048E-03 2.67427E-04-6.70457E-15
 -1      3230 9.02510E-03 2.47853E-04-6.52206E-15
 -1      3231 9.56438E-03 1.27245E-04-8.01303E-15
 -1      3232 9.40311E-03 1.68689E-04-7.56639E-15
 -1      3233 9.36236E-03 1.46287E-04-7.37183E-15
 -1      3234 9.87825E-03 5.77533E-05-8.94354E-15
 -1      3235 9.72277E-03 9.05807E-05-8.47220E-15
 -1      3236 9.68394E-03 6.75192E-05-8.26840E-15
 -1      3237 1.01824E-02 2.03342E-06-9.91920E-15
 -1      3238 1.00314E-02 2.85039E-05-9.42599E-15
 -1      3239 9.99236E-03 5.57548E-06-9.21045E-15
 -1      3240 1.04797E-02-4.40038E-05-1.09312E-14
 -1      3241 1.03318E-02-2.19437E-05-1.04204E-14
 -1      3242 1.02912E-02-4.45312E-05-1.01948E-14
 -1      3243 1.07724E-02-8.35711E-05-1.19797E-14
 -1      3244 1.06265E-02-6.44141E-05-1.14494E-14
 -1      3245 1.05838E-02-8.67506E-05-1.12135E-14
 -1      3246 1.10622E-02-1.19098E-04-1.30646E-14
 -1      3247 1.09175E-02-1.01711E-04-1.25191E-14
 -1      3248 1.08725E-02-1.23924E-04-1.22700E-14
 -1      3249 1.13502E-02-1.52371E-04-1.41775E-14
 -1      3250 1.12063E-02-1.35928E-04-1.36165E-14
 -1      3251 1.11590E-02-1.58108E-04-1.33580E-14
 -1      3252 1.16372E-02-1.84657E-04-1.53189E-14
 -1      3253 1.14938E-02-1.68579E-04-1.47462E-14
 -1      3254 1.14444E-02-1.90768E-04-1.44771E-14
 -1      3255 1.19236E-02-2.16818E-04-1.64819E-14
 -1      3256 1.17805E-02-2.00716E-04-1.58977E-14
 -1      3257 1.17293E-02-2.22921E-04-1.56232E-14
 -1      3258 1.22098E-02-2.49405E-04-1.76638E-14
 -1      3259 1.20667E-02-2.33038E-04-1.70707E-14
 -1      3260 1.20141E-02-2.55246E-04-1.67890E-14
 -1      3261 1.24957E-02-2.82736E-04-1.88582E-14
 -1      3262 1.23527E-02-2.65968E-04-1.82599E-14
 -1      3263 1.22990E-02-2.88159E-04-1.79731E-14
 -1      3264 1.27816E-02-3.16963E-04-2.00601E-14
 -1      3265 1.26386E-02-2.99735E-04-1.94585E-14
 -1      3266 1.25840E-02-3.21890E-04-1.91690E-14
 -1      3267 1.30674E-02-3.52123E-04-2.12716E-14
 -1      3268 1.29245E-02-3.34428E-04-2.06662E-14
 -1      3269 1.28691E-02-3.56532E-04-2.03735E-14
 -1      3270 1.33532E-02-3.88183E-04-2.24832E-14
 -1      3271 1.32103E-02-3.70046E-04-2.18759E-14
 -1      3272 1.31545E-02-3.92088E-04-2.15824E-14
 -1      3273 1.36389E-02-4.25062E-04-2.37003E-14
 -1      3274 1.34961E-02-4.06526E-04-2.30922E-14
 -1      3275 1.34399E-02-4.28502E-04-2.27962E-14
 -1      3276 1.38887E-02-4.61759E-04-2.47570E-14
 -1      3277 1.37487E-02-4.41012E-04-2.41634E-14
 -1      3278 1.36923E-02-4.62923E-04-2.38683E-14
 -1      3279 1.39117E-02-4.95066E-04-2.47975E-14
 -1      3280 1.41712E-02-1.03213E-03-2.49041E-14
 -1      3281 1.41516E-02-9.90967E-04-2.48976E-14
 -1      3282 5.37892E-03-1.87866E-04-1.77066E-15
 -1      3283 5.27089E-03-1.61030E-04-1.70606E-15
 -1      3284 5.51052E-03-3.08527E-05-1.73611E-15
 -1      3285 5.64707E-03 1.59918E-05-1.78222E-15
 -1      3286 1.42103E-02-1.11471E-03-2.49129E-14
 -1      3287 1.41907E-02-1.07337E-03-2.49086E-14
 -1      3288 1.40577E-02-1.03456E-03-2.43683E-14
 -1      3289 1.41323E-02-9.50571E-04-2.48897E-14
 -1      3290 1.41130E-02-9.10220E-04-2.48832E-14
 -1      3291 1.40190E-02-9.53207E-04-2.43559E-14
 -1      3292 9.31661E-03-8.40397E-05-6.27234E-15
 -1      3293 9.46015E-03-1.43178E-04-6.44437E-15
 -1      3294 5.20351E-03-1.38864E-04-1.66506E-15
 -1      3295 5.19199E-03-1.27901E-04-1.64829E-15
 -1      3296 9.96274E-03-3.23806E-04-6.78615E-15
 -1      3297 9.93272E-03-3.33608E-04-6.73507E-15
 -1      3298 1.40933E-02-8.69204E-04-2.48760E-14
 -1      3299 1.40735E-02-8.28193E-04-2.48684E-14
 -1      3300 1.39801E-02-8.72113E-04-2.43430E-14
 -1      3301 9.85436E-03-3.54000E-04-6.61182E-15
 -1      3302 9.74770E-03-3.83350E-04-6.48350E-15
 -1      3303 1.40536E-02-7.87172E-04-2.48602E-14
 -1      3304 1.40336E-02-7.46116E-04-2.48528E-14
 -1      3305 1.39404E-02-7.90406E-04-2.43305E-14
 -1      3306 3.43016E-03 3.46926E-04 2.68747E-17
 -1      3307 3.28672E-03 3.50577E-04 5.55789E-17
 -1      3308 3.20514E-03 3.16556E-04 4.41406E-17
 -1      3309 3.49054E-03 3.09269E-04-1.59649E-17
 -1      3310 6.85596E-03-9.14382E-04-2.63906E-15
 -1      3311 8.85991E-03 1.33826E-04-5.64600E-15
 -1      3312 9.08899E-03 1.74733E-05-5.95807E-15
 -1      3313 1.44532E-03-3.02370E-04 1.68051E-18
 -1      3314 1.58878E-03-3.14897E-04-2.60209E-18
 -1      3315 1.65227E-03-2.86560E-04-4.32326E-18
 -1      3316 1.07497E-03 3.22041E-04 9.24418E-17
 -1      3317 1.06846E-03 2.75445E-04 8.17488E-17
 -1      3318 7.73009E-03 7.27343E-04-3.83244E-15
 -1      3319 7.86214E-03 6.73096E-04-4.05203E-15
 -1      3320 8.40424E-03 3.88736E-04-4.96176E-15
 -1      3321 8.60540E-03 2.71609E-04-5.26727E-15
 -1      3322 5.79925E-03 8.63291E-05-1.81579E-15
 -1      3323 5.96647E-03 1.64476E-04-1.88104E-15
 -1      3324 5.93818E-03-4.24290E-04-1.95529E-15
 -1      3325 5.77912E-03-3.47180E-04-1.89147E-15
 -1      3326 9.92019E-03-2.99209E-04-6.85343E-15
 -1      3327 9.96270E-03-3.12357E-04-6.84322E-15
 -1      3328 9.63040E-03-4.27666E-04-6.38216E-15
 -1      3329 9.50396E-03-4.80452E-04-6.26892E-15
 -1      3330 9.07630E-03-7.30461E-04-5.86788E-15
 -1      3331 1.01553E-03 6.56894E-05 3.67273E-17
 -1      3332 1.01420E-03 3.96708E-05 3.23092E-17
 -1      3333 5.63665E-03-2.78681E-04-1.86189E-15
 -1      3334 5.49730E-03-2.29179E-04-1.80392E-15
 -1      3335 5.39074E-03-2.10401E-04-1.68794E-15
 -1      3336 5.63159E-03-3.14993E-04-1.74622E-15
 -1      3337 6.19655E-03 2.70589E-04-2.01315E-15
 -1      3338 6.37720E-03 3.62391E-04-2.13250E-15
 -1      3339 1.18726E-03 2.76614E-04 8.79152E-17
 -1      3340 7.96250E-03 6.34115E-04-4.23664E-15
 -1      3341 5.18848E-03-1.15173E-04-1.60790E-15
 -1      3342 5.19718E-03-1.00268E-04-1.56755E-15
 -1      3343 5.14027E-03-1.16357E-04-1.53593E-15
 -1      3344 9.59736E-03-1.80915E-04-6.73280E-15
 -1      3345 1.01353E-03 1.38939E-05 2.82164E-17
 -1      3346 1.01349E-03-1.17721E-05 2.45707E-17
 -1      3347 1.13367E-03 2.89177E-05 3.31766E-17
 -1      3348 2.57017E-03 3.61127E-04 1.35688E-16
 -1      3349 2.42680E-03 3.60691E-04 1.40865E-16
 -1      3350 2.63334E-03 3.25190E-04 1.12147E-16
 -1      3351 6.42143E-03 4.20991E-04-2.10853E-15
 -1      3352 9.26371E-03-6.78789E-04-6.26887E-15
 -1      3353 2.13993E-03 3.55940E-04 1.41570E-16
 -1      3354 2.05971E-03 3.18582E-04 1.25293E-16
 -1      3355 2.28340E-03 3.59001E-04 1.42424E-16
 -1      3356 1.40724E-02-1.20417E-03-2.40713E-14
 -1      3357 1.42153E-02-1.22570E-03-2.46929E-14
 -1      3358 1.43562E-02-1.24680E-03-2.53061E-14
 -1      3359 1.32506E-03-2.64000E-04 4.54010E-18
 -1      3360 6.88126E-03 6.68174E-04-2.51300E-15
 -1      3361 6.86760E-03 7.17939E-04-2.43073E-15
 -1      3362 6.69450E-03 6.66181E-04-2.21008E-15
 -1      3363 6.79175E-03 6.04810E-04-2.44050E-15
 -1      3364 6.58950E-03 5.88874E-04-2.13764E-15
 -1      3365 9.74003E-03-4.14561E-04-6.67169E-15
 -1      3366 5.20815E-03-1.60221E-04-1.56824E-15
 -1      3367 5.20141E-03-1.47740E-04-1.61673E-15
 -1      3368 5.14086E-03-1.36902E-04-1.52912E-15
 -1      3369 1.40137E-02-7.05184E-04-2.48453E-14
 -1      3370 1.39938E-02-6.64182E-04-2.48376E-14
 -1      3371 1.39006E-02-7.08768E-04-2.43169E-14
 -1      3372 1.02344E-03-1.44121E-04 1.11944E-17
 -1      3373 1.02781E-03-1.72668E-04 9.62229E-18
 -1      3374 6.58983E-03-7.68182E-04-2.38472E-15
 -1      3375 9.42191E-03-5.93396E-04-6.48018E-15
 -1      3376 5.67451E-03 6.82924E-05-1.69653E-15
 -1      3377 1.02837E-03 1.75491E-04 5.86689E-17
 -1      3378 1.02389E-03 1.46817E-04 5.23399E-17
 -1      3379 1.15310E-03 2.04794E-04 6.94567E-17
 -1      3380 9.22681E-03-1.83664E-05-6.30565E-15
 -1      3381 1.42234E-03 3.11970E-04 1.07987E-16
 -1      3382 1.27905E-03 2.95749E-04 9.71174E-17
 -1      3383 9.93063E-03-3.53252E-04-6.90007E-15
 -1      3384 1.39577E-02-5.61491E-04-2.48811E-14
 -1      3385 1.39347E-02-5.28309E-04-2.48382E-14
 -1      3386 1.38251E-02-5.12139E-04-2.43732E-14
 -1      3387 6.67149E-03 5.73750E-04-2.28538E-15
 -1      3388 8.76284E-03 2.10928E-04-5.59784E-15
 -1      3389 1.42673E-02-1.19943E-03-2.49969E-14
 -1      3390 1.42351E-02-1.16610E-03-2.49206E-14
 -1      3391 1.00073E-02-3.25011E-04-7.08376E-15
 -1      3392 1.41018E-02-1.12692E-03-2.43800E-14
 -1      3393 6.03176E-03 2.31536E-04-1.84981E-15
 -1      3394 9.86380E-03-2.66277E-04-7.12406E-15
 -1      3395 9.89498E-03-2.85413E-04-6.99050E-15
 -1      3396 9.98467E-03-3.01675E-04-7.27954E-15
 -1      3397 9.44132E-03-5.35832E-04-6.31743E-15
 -1      3398 1.01729E-03-8.96388E-05 1.52737E-17
 -1      3399 1.01995E-03-1.16492E-04 1.30240E-17
 -1      3400 1.14255E-03-1.40482E-04 1.20075E-17
 -1      3401 1.02029E-03 1.19035E-04 4.70137E-17
 -1      3402 1.01755E-03 9.20989E-05 4.16469E-17
 -1      3403 1.13672E-03 8.51285E-05 4.36662E-17
 -1      3404 1.14299E-03 1.43312E-04 5.57009E-17
 -1      3405 5.38799E-03-5.59909E-05-1.65415E-15
 -1      3406 5.40839E-03-2.20067E-05-1.58674E-15
 -1      3407 5.28183E-03-7.03873E-05-1.57598E-15
 -1      3408 1.39857E-02-6.33494E-04-2.48633E-14
 -1      3409 1.39658E-02-5.92329E-04-2.48561E-14
 -1      3410 1.38563E-02-5.76047E-04-2.43878E-14
 -1      3411 1.38725E-02-6.37382E-04-2.43365E-14
 -1      3412 1.25093E-03 2.54972E-04 8.54893E-17
 -1      3413 1.39838E-02-1.15677E-03-2.37625E-14
 -1      3414 1.48552E-03 2.85995E-04 1.02891E-16
 -1      3415 1.86002E-03-2.64392E-04-1.35390E-17
 -1      3416 2.00349E-03-2.69481E-04-2.24972E-17
 -1      3417 8.31338E-03 4.50149E-04-4.83682E-15
 -1      3418 4.40168E-03 2.51603E-04-3.94460E-16
 -1      3419 4.25894E-03 2.53814E-04-3.23851E-16
 -1      3420 2.14688E-03-2.73102E-04-3.36780E-17
 -1      3421 2.29013E-03-2.75359E-04-4.73661E-17
 -1      3422 2.06825E-03-2.37319E-04-2.53161E-17
 -1      3423 2.43315E-03-2.76465E-04-6.34665E-17
 -1      3424 2.57591E-03-2.76503E-04-8.32532E-17
 -1      3425 2.35444E-03-2.41533E-04-5.24483E-17
 -1      3426 2.71832E-03-2.75667E-04-1.04517E-16
 -1      3427 2.86035E-03-2.74023E-04-1.29806E-16
 -1      3428 2.63946E-03-2.41752E-04-8.98804E-17
 -1      3429 3.00193E-03-2.71756E-04-1.58998E-16
 -1      3430 3.14302E-03-2.68918E-04-1.91186E-16
 -1      3431 2.92270E-03-2.38952E-04-1.40269E-16
 -1      3432 3.28354E-03-2.65700E-04-2.28225E-16
 -1      3433 3.42348E-03-2.62143E-04-2.68435E-16
 -1      3434 3.20360E-03-2.34034E-04-2.05334E-16
 -1      3435 3.56271E-03-2.58456E-04-3.12508E-16
 -1      3436 3.70126E-03-2.54680E-04-3.61771E-16
 -1      3437 3.48157E-03-2.27869E-04-2.85335E-16
 -1      3438 3.83898E-03-2.51054E-04-4.16334E-16
 -1      3439 3.97593E-03-2.47620E-04-4.75856E-16
 -1      3440 3.75598E-03-2.21365E-04-3.83645E-16
 -1      3441 4.11194E-03-2.44659E-04-5.40841E-16
 -1      3442 4.24713E-03-2.42224E-04-6.12439E-16
 -1      3443 4.02620E-03-2.15508E-04-5.03219E-16
 -1      3444 4.38133E-03-2.40627E-04-6.89729E-16
 -1      3445 4.51479E-03-2.39953E-04-7.72738E-16
 -1      3446 4.29161E-03-2.11385E-04-6.45209E-16
 -1      3447 4.64732E-03-2.40526E-04-8.63472E-16
 -1      3448 4.77946E-03-2.42523E-04-9.61077E-16
 -1      3449 4.55175E-03-2.10158E-04-8.13856E-16
 -1      3450 4.91098E-03-2.46246E-04-1.06517E-15
 -1      3451 5.04299E-03-2.52120E-04-1.17590E-15
 -1      3452 4.80659E-03-2.13048E-04-1.00764E-15
 -1      3453 5.17517E-03-2.60396E-04-1.29440E-15
 -1      3454 5.30970E-03-2.72038E-04-1.42098E-15
 -1      3455 5.05711E-03-2.21510E-04-1.23131E-15
 -1      3456 5.48785E-03-2.90227E-04-1.60121E-15
 -1      3457 1.83653E-03 2.75922E-04 1.07377E-16
 -1      3458 1.69300E-03 2.68551E-04 1.03053E-16
 -1      3459 1.14358E-03-2.08160E-04 7.99599E-18
 -1      3460 9.73147E-03-5.12052E-04-7.12019E-15
 -1      3461 9.87552E-03-5.10319E-04-7.55623E-15
 -1      3462 1.54966E-03 2.59214E-04 9.69548E-17
 -1      3463 1.40658E-03 2.47766E-04 8.94060E-17
 -1      3464 1.61454E-03 2.31594E-04 8.96906E-17
 -1      3465 1.00142E-02-5.15113E-04-8.00204E-15
 -1      3466 1.01507E-02-5.23484E-04-8.45964E-15
 -1      3467 9.99397E-03-4.71184E-04-7.78062E-15
 -1      3468 1.02849E-02-5.35376E-04-8.92712E-15
 -1      3469 1.04186E-02-5.49614E-04-9.40341E-15
 -1      3470 1.02493E-02-4.94761E-04-8.69449E-15
 -1      3471 1.05519E-02-5.66008E-04-9.88924E-15
 -1      3472 1.06855E-02-5.84134E-04-1.03828E-14
 -1      3473 1.05043E-02-5.26441E-04-9.64842E-15
 -1      3474 1.08194E-02-6.03694E-04-1.08859E-14
 -1      3475 1.09540E-02-6.24484E-04-1.13968E-14
 -1      3476 1.07625E-02-5.63775E-04-1.06370E-14
 -1      3477 1.10892E-02-6.46194E-04-1.19135E-14
 -1      3478 1.12252E-02-6.68727E-04-1.24372E-14
 -1      3479 1.10250E-02-6.05289E-04-1.16566E-14
 -1      3480 1.13618E-02-6.91802E-04-1.29697E-14
 -1      3481 1.14991E-02-7.15362E-04-1.35061E-14
 -1      3482 1.12918E-02-6.49707E-04-1.27056E-14
 -1      3483 1.16371E-02-7.39180E-04-1.40486E-14
 -1      3484 1.17757E-02-7.63220E-04-1.45974E-14
 -1      3485 1.15625E-02-6.95936E-04-1.37799E-14
 -1      3486 1.19148E-02-7.87311E-04-1.51525E-14
 -1      3487 1.20544E-02-8.11436E-04-1.57142E-14
 -1      3488 1.18366E-02-7.43068E-04-1.48792E-14
 -1      3489 1.21945E-02-8.35473E-04-1.62773E-14
 -1      3490 1.23350E-02-8.59417E-04-1.68471E-14
 -1      3491 1.21135E-02-7.90416E-04-1.59968E-14
 -1      3492 1.24758E-02-8.83188E-04-1.74229E-14
 -1      3493 1.26169E-02-9.06791E-04-1.80040E-14
 -1      3494 1.23926E-02-8.37498E-04-1.71368E-14
 -1      3495 1.27583E-02-9.30177E-04-1.85917E-14
 -1      3496 1.28999E-02-9.53357E-04-1.91822E-14
 -1      3497 1.26734E-02-8.84011E-04-1.82984E-14
 -1      3498 1.30417E-02-9.76306E-04-1.97812E-14
 -1      3499 1.31837E-02-9.99037E-04-2.03848E-14
 -1      3500 1.29556E-02-9.29793E-04-1.94835E-14
 -1      3501 1.33258E-02-1.02154E-03-2.09907E-14
 -1      3502 1.34681E-02-1.04384E-03-2.16003E-14
 -1      3503 1.32388E-02-9.74785E-04-2.06873E-14
 -1      3504 1.36104E-02-1.06593E-03-2.22136E-14
 -1      3505 1.37529E-02-1.08782E-03-2.28320E-14
 -1      3506 1.35227E-02-1.01900E-03-2.19074E-14
 -1      3507 1.32490E-03 2.34698E-04 8.31719E-17
 -1      3508 1.23406E-03 2.18669E-04 7.59348E-17
 -1      3509 1.22800E-03 1.86131E-04 6.79253E-17
 -1      3510 1.39007E-03 2.10521E-04 7.90654E-17
 -1      3511 8.67656E-03 2.93727E-04-5.56845E-15
 -1      3512 8.90795E-03 1.71827E-04-5.95981E-15
 -1      3513 4.11679E-03 2.56796E-04-2.59314E-16
 -1      3514 3.97495E-03 2.60286E-04-1.99818E-16
 -1      3515 4.16981E-03 2.19580E-04-3.18728E-16
 -1      3516 3.83332E-03 2.64107E-04-1.47628E-16
 -1      3517 3.69171E-03 2.68099E-04-1.01414E-16
 -1      3518 3.88947E-03 2.27296E-04-2.00361E-16
 -1      3519 4.68993E-03 2.50473E-04-5.57144E-16
 -1      3520 4.54521E-03 2.50343E-04-4.72536E-16
 -1      3521 4.45114E-03 2.13554E-04-4.62819E-16
 -1      3522 4.98448E-03 2.56159E-04-7.51189E-16
 -1      3523 4.83618E-03 2.52165E-04-6.50033E-16
 -1      3524 4.73559E-03 2.10958E-04-6.34719E-16
 -1      3525 5.28948E-03 2.72742E-04-9.77991E-16
 -1      3526 5.13540E-03 2.62624E-04-8.60342E-16
 -1      3527 5.02657E-03 2.14463E-04-8.37289E-16
 -1      3528 5.61006E-03 3.06377E-04-1.24128E-15
 -1      3529 5.44759E-03 2.86687E-04-1.10501E-15
 -1      3530 5.32901E-03 2.28442E-04-1.07371E-15
 -1      3531 5.95126E-03 3.65564E-04-1.54580E-15
 -1      3532 5.77830E-03 3.31876E-04-1.38793E-15
 -1      3533 5.64974E-03 2.60143E-04-1.34673E-15
 -1      3534 7.25246E-03 7.74913E-04-3.02534E-15
 -1      3535 7.81036E-03 7.17255E-04-3.98977E-15
 -1      3536 7.64117E-03 7.64054E-04-3.68560E-15
 -1      3537 8.83714E-03 2.81454E-04-6.02319E-15
 -1      3538 8.65652E-03 3.52109E-04-5.63224E-15
 -1      3539 9.18721E-03 1.64338E-04-6.83991E-15
 -1      3540 9.01483E-03 2.19002E-04-6.42611E-15
 -1      3541 9.00747E-03 1.88597E-04-6.32750E-15
 -1      3542 9.51809E-03 7.58031E-05-7.70717E-15
 -1      3543 9.35510E-03 1.17257E-04-7.26749E-15
 -1      3544 9.35053E-03 8.66227E-05-7.16370E-15
 -1      3545 9.83199E-03 7.97951E-06-8.62113E-15
 -1      3546 9.67699E-03 3.98941E-05-8.15920E-15
 -1      3547 9.67231E-03 1.11515E-05-8.04796E-15
 -1      3548 1.01331E-02-4.57975E-05-9.57674E-15
 -1      3549 9.98383E-03-2.02842E-05-9.09204E-15
 -1      3550 9.97724E-03-4.66711E-05-8.97633E-15
 -1      3551 1.04258E-02-9.02812E-05-1.05730E-14
 -1      3552 1.02803E-02-6.89173E-05-1.00694E-14
 -1      3553 1.02708E-02-9.34185E-05-9.94601E-15
 -1      3554 1.07135E-02-1.28879E-04-1.16034E-14
 -1      3555 1.05701E-02-1.10134E-04-1.10841E-14
 -1      3556 1.05576E-02-1.33359E-04-1.09538E-14
 -1      3557 1.09984E-02-1.63917E-04-1.26700E-14
 -1      3558 1.08562E-02-1.46724E-04-1.21323E-14
 -1      3559 1.08408E-02-1.69209E-04-1.19964E-14
 -1      3560 1.12820E-02-1.97015E-04-1.37672E-14
 -1      3561 1.11403E-02-1.80630E-04-1.32159E-14
 -1      3562 1.11223E-02-2.02765E-04-1.30712E-14
 -1      3563 1.15652E-02-2.29298E-04-1.48939E-14
 -1      3564 1.14236E-02-2.13208E-04-1.43254E-14
 -1      3565 1.14034E-02-2.35245E-04-1.41780E-14
 -1      3566 1.18484E-02-2.61530E-04-1.60453E-14
 -1      3567 1.17067E-02-2.45389E-04-1.54674E-14
 -1      3568 1.16847E-02-2.67474E-04-1.53105E-14
 -1      3569 1.21319E-02-2.94202E-04-1.72169E-14
 -1      3570 1.19901E-02-2.77793E-04-1.66276E-14
 -1      3571 1.19665E-02-2.99997E-04-1.64676E-14
 -1      3572 1.24159E-02-3.27601E-04-1.84052E-14
 -1      3573 1.22738E-02-3.10802E-04-1.78098E-14
 -1      3574 1.22490E-02-3.33150E-04-1.76452E-14
 -1      3575 1.27002E-02-3.61869E-04-1.96030E-14
 -1      3576 1.25580E-02-3.44625E-04-1.90037E-14
 -1      3577 1.25322E-02-3.67113E-04-1.88370E-14
 -1      3578 1.29848E-02-3.97041E-04-2.08101E-14
 -1      3579 1.28425E-02-3.79344E-04-2.02059E-14
 -1      3580 1.28160E-02-4.01957E-04-2.00385E-14
 -1      3581 1.32698E-02-4.33088E-04-2.20186E-14
 -1      3582 1.31273E-02-4.14960E-04-2.14136E-14
 -1      3583 1.31003E-02-4.37675E-04-2.12442E-14
 -1      3584 1.35550E-02-4.69937E-04-2.32331E-14
 -1      3585 1.34124E-02-4.51419E-04-2.26239E-14
 -1      3586 1.33850E-02-4.74213E-04-2.24553E-14
 -1      3587 6.51323E-03 5.24737E-04-2.10136E-15
 -1      3588 9.84531E-03-4.19983E-04-7.05623E-15
 -1      3589 9.74662E-03-4.59939E-04-6.95076E-15
 -1      3590 1.39441E-02-1.03680E-03-2.38316E-14
 -1      3591 1.39248E-02-9.95824E-04-2.38278E-14
 -1      3592 1.39057E-02-9.55653E-04-2.38219E-14
 -1      3593 1.38865E-02-9.15563E-04-2.38155E-14
 -1      3594 1.37924E-02-9.57889E-04-2.32875E-14
 -1      3595 9.61954E-03-1.57454E-04-7.03949E-15
 -1      3596 9.75932E-03-2.18725E-04-7.14564E-15
 -1      3597 1.00173E-02-3.65043E-04-7.31468E-15
 -1      3598 9.94182E-03-3.86245E-04-7.18571E-15
 -1      3599 9.96141E-03-4.26137E-04-7.47341E-15
 -1      3600 1.32615E-03-2.22182E-04 6.23416E-18
 -1      3601 7.62099E-03 7.61199E-04-3.64780E-15
 -1      3602 2.98197E-03 2.85655E-04 5.57551E-17
 -1      3603 2.83941E-03 2.87860E-04 7.34682E-17
 -1      3604 5.53052E-03 4.72694E-05-1.56740E-15
 -1      3605 5.65964E-03 1.09655E-04-1.59456E-15
 -1      3606 1.57329E-03-2.48991E-04-2.57498E-19
 -1      3607 1.71661E-03-2.57599E-04-6.09864E-18
 -1      3608 1.78163E-03-2.28033E-04-7.31836E-18
 -1      3609 9.59967E-03-5.16391E-04-6.73513E-15
 -1      3610 1.01410E-03-3.74757E-05 2.11690E-17
 -1      3611 1.01535E-03-6.33452E-05 1.79978E-17
 -1      3612 1.13647E-03-8.25957E-05 1.72117E-17
 -1      3613 1.38669E-02-8.74846E-04-2.38107E-14
 -1      3614 1.38472E-02-8.34163E-04-2.38066E-14
 -1      3615 1.37539E-02-8.77381E-04-2.32797E-14
 -1      3616 1.00663E-02-3.30195E-04-7.45913E-15
 -1      3617 1.00617E-02-3.42793E-04-7.40027E-15
 -1      3618 9.16424E-03 4.56928E-05-6.38298E-15
 -1      3619 9.36993E-03-4.67162E-05-6.70965E-15
 -1      3620 5.82775E-03 2.14972E-04-1.61383E-15
 -1      3621 6.03048E-03 3.03154E-04-1.73037E-15
 -1      3622 1.39592E-02-1.10551E-03-2.37571E-14
 -1      3623 1.38274E-02-7.93492E-04-2.38006E-14
 -1      3624 1.38075E-02-7.52800E-04-2.37944E-14
 -1      3625 1.37145E-02-7.96401E-04-2.32712E-14
 -1      3626 7.98408E-03 6.50289E-04-4.31087E-15
 -1      3627 6.35683E-03 4.46936E-04-1.97134E-15
 -1      3628 1.26633E-03-1.68771E-04 9.87979E-18
 -1      3629 1.44599E-03-2.18652E-04 4.58075E-18
 -1      3630 1.51175E-03-1.92528E-04 4.71628E-18
 -1      3631 1.26192E-03-1.37230E-04 1.23192E-17
 -1      3632 1.38710E-02-1.05852E-03-2.34447E-14
 -1      3633 8.11741E-03 5.80095E-04-4.55034E-15
 -1      3634 6.17123E-03 3.92214E-04-1.78797E-15
 -1      3635 8.31540E-03 4.84508E-04-4.91964E-15
 -1      3636 8.50148E-03 3.99115E-04-5.28446E-15
 -1      3637 5.09708E-03-1.20022E-04-1.46861E-15
 -1      3638 5.08150E-03-1.07240E-04-1.43079E-15
 -1      3639 1.25504E-03 4.57163E-05 3.81233E-17
 -1      3640 1.25418E-03 1.60029E-05 3.27429E-17
 -1      3641 2.69664E-03 2.89330E-04 8.69530E-17
 -1      3642 2.55365E-03 2.89993E-04 9.75375E-17
 -1      3643 2.76003E-03 2.53648E-04 6.11219E-17
 -1      3644 5.34381E-03-2.38581E-04-1.52949E-15
 -1      3645 1.98009E-03 2.81569E-04 1.10399E-16
 -1      3646 1.90124E-03 2.45012E-04 9.66566E-17
 -1      3647 2.12366E-03 2.85610E-04 1.10860E-16
 -1      3648 1.37382E-02-1.01946E-03-2.29074E-14
 -1      3649 9.07120E-03 1.26624E-04-6.35231E-15
 -1      3650 2.34673E-03 3.24390E-04 1.24195E-16
 -1      3651 1.25674E-03 7.56241E-05 4.41406E-17
 -1      3652 1.37752E-03 6.39284E-05 4.32326E-17
 -1      3653 1.25929E-03 1.05934E-04 5.06322E-17
 -1      3654 5.07572E-03-1.29053E-04-1.42550E-15
 -1      3655 1.37448E-02-4.98971E-04-2.40340E-14
 -1      3656 1.36352E-02-4.82970E-04-2.35714E-14
 -1      3657 1.36076E-02-5.05801E-04-2.33979E-14
 -1      3658 1.37680E-02-5.32056E-04-2.40751E-14
 -1      3659 5.25007E-03-1.80828E-04-1.56022E-15
 -1      3660 5.16444E-03-1.65618E-04-1.47670E-15
 -1      3661 1.37876E-02-7.12240E-04-2.37890E-14
 -1      3662 1.37675E-02-6.71609E-04-2.37830E-14
 -1      3663 1.36747E-02-7.15570E-04-2.32619E-14
 -1      3664 9.88226E-03-2.47379E-04-7.44103E-15
 -1      3665 1.13360E-03-2.65865E-05 2.45165E-17
 -1      3666 1.01041E-02-3.69326E-04-7.69531E-15
 -1      3667 9.55642E-03-1.04407E-04-7.12124E-15
 -1      3668 9.73063E-03-1.49522E-04-7.54435E-15
 -1      3669 9.50379E-03-4.82061E-05-7.20184E-15
 -1      3670 5.40252E-03 1.51602E-05-1.49229E-15
 -1      3671 5.38596E-03 5.45703E-05-1.39819E-15
 -1      3672 5.28489E-03-7.87772E-06-1.41972E-15
 -1      3673 3.12429E-03 2.82879E-04 3.36780E-17
 -1      3674 3.04429E-03 2.49439E-04 2.42048E-17
 -1      3675 3.26641E-03 2.79601E-04 7.26415E-18
 -1      3676 3.55008E-03 2.72091E-04-5.96718E-17
 -1      3677 3.40832E-03 2.75979E-04-2.40015E-17
 -1      3678 3.32720E-03 2.43118E-04-3.05474E-17
 -1      3679 3.60883E-03 2.35463E-04-1.04842E-16
 -1      3680 5.67084E-03 1.82715E-04-1.48574E-15
 -1      3681 1.00729E-02-3.20463E-04-7.59817E-15
 -1      3682 1.01515E-02-3.38934E-04-7.92386E-15
 -1      3683 1.00698E-02-3.08444E-04-7.73972E-15
 -1      3684 5.12704E-03-8.39826E-05-1.43599E-15
 -1      3685 5.19921E-03-7.92148E-05-1.50487E-15
 -1      3686 5.20352E-03-5.41816E-05-1.44159E-15
 -1      3687 7.36734E-03 7.83540E-04-3.21370E-15
 -1      3688 1.37843E-02-5.93461E-04-2.40228E-14
 -1      3689 1.37761E-02-5.62800E-04-2.40494E-14
 -1      3690 1.36960E-02-5.49605E-04-2.37113E-14
 -1      3691 1.37561E-03 1.29528E-06 3.10217E-17
 -1      3692 1.25413E-03-1.35620E-05 2.79182E-17
 -1      3693 1.25491E-03-4.31896E-05 2.33917E-17
 -1      3694 4.77809E-03 1.71454E-04-7.12795E-16
 -1      3695 4.63769E-03 1.73168E-04-6.18673E-16
 -1      3696 2.27658E-03-2.06810E-04-4.11590E-17
 -1      3697 2.41925E-03-2.07749E-04-5.72052E-17
 -1      3698 2.56153E-03-2.07901E-04-7.59890E-17
 -1      3699 2.70335E-03-2.07312E-04-9.73343E-17
 -1      3700 2.48456E-03-1.74084E-04-6.16369E-17
 -1      3701 2.84460E-03-2.06154E-04-1.21580E-16
 -1      3702 2.98523E-03-2.04457E-04-1.50406E-16
 -1      3703 2.76763E-03-1.73268E-04-1.04205E-16
 -1      3704 3.12511E-03-2.02395E-04-1.82553E-16
 -1      3705 3.26420E-03-1.99984E-04-2.18575E-16
 -1      3706 3.04802E-03-1.70617E-04-1.59906E-16
 -1      3707 3.40235E-03-1.97414E-04-2.58203E-16
 -1      3708 3.53953E-03-1.94688E-04-3.01733E-16
 -1      3709 3.32496E-03-1.66842E-04-2.30664E-16
 -1      3710 3.67557E-03-1.92019E-04-3.51417E-16
 -1      3711 3.81044E-03-1.89394E-04-4.05830E-16
 -1      3712 3.59758E-03-1.62659E-04-3.19013E-16
 -1      3713 3.94395E-03-1.87063E-04-4.65394E-16
 -1      3714 4.07609E-03-1.84985E-04-5.31029E-16
 -1      3715 3.86496E-03-1.58816E-04-4.27935E-16
 -1      3716 4.20660E-03-1.83454E-04-6.02017E-16
 -1      3717 4.33553E-03-1.82382E-04-6.79659E-16
 -1      3718 4.12601E-03-1.56095E-04-5.58689E-16
 -1      3719 4.46254E-03-1.82107E-04-7.62994E-16
 -1      3720 4.58779E-03-1.82469E-04-8.53701E-16
 -1      3721 4.37941E-03-1.55262E-04-7.13270E-16
 -1      3722 4.71078E-03-1.83853E-04-9.51550E-16
 -1      3723 4.83197E-03-1.86017E-04-1.05590E-15
 -1      3724 4.62351E-03-1.56949E-04-8.94819E-16
 -1      3725 4.95060E-03-1.89428E-04-1.16714E-15
 -1      3726 5.06769E-03-1.93839E-04-1.28617E-15
 -1      3727 4.85625E-03-1.61541E-04-1.10373E-15
 -1      3728 1.68019E-03 2.03203E-04 8.15456E-17
 -1      3729 1.53729E-03 1.95776E-04 7.78186E-17
 -1      3730 1.00787E-02-4.37987E-04-7.91651E-15
 -1      3731 1.02175E-02-4.56843E-04-8.46628E-15
 -1      3732 1.03377E-02-4.72507E-04-8.93350E-15
 -1      3733 1.04589E-02-4.89152E-04-9.40838E-15
 -1      3734 1.05822E-02-5.07088E-04-9.89378E-15
 -1      3735 1.04150E-02-4.54200E-04-9.17090E-15
 -1      3736 1.07070E-02-5.25902E-04-1.03878E-14
 -1      3737 1.08337E-02-5.45723E-04-1.08912E-14
 -1      3738 1.06522E-02-4.90102E-04-1.01415E-14
 -1      3739 1.09618E-02-5.66212E-04-1.14016E-14
 -1      3740 1.10916E-02-5.87482E-04-1.19179E-14
 -1      3741 1.08991E-02-5.28984E-04-1.11457E-14
 -1      3742 1.12227E-02-6.09233E-04-1.24413E-14
 -1      3743 1.13551E-02-6.31523E-04-1.29721E-14
 -1      3744 1.11540E-02-5.70392E-04-1.21800E-14
 -1      3745 1.14887E-02-6.54102E-04-1.35113E-14
 -1      3746 1.16234E-02-6.77003E-04-1.40535E-14
 -1      3747 1.14154E-02-6.13694E-04-1.32400E-14
 -1      3748 1.17591E-02-7.00028E-04-1.46000E-14
 -1      3749 1.18957E-02-7.23198E-04-1.51569E-14
 -1      3750 1.16821E-02-6.58213E-04-1.43258E-14
 -1      3751 1.20331E-02-7.46365E-04-1.57164E-14
 -1      3752 1.21712E-02-7.69545E-04-1.62802E-14
 -1      3753 1.19531E-02-7.03347E-04-1.54339E-14
 -1      3754 1.23099E-02-7.92633E-04-1.68518E-14
 -1      3755 1.24492E-02-8.15645E-04-1.74265E-14
 -1      3756 1.22277E-02-7.48625E-04-1.65656E-14
 -1      3757 1.25890E-02-8.38510E-04-1.80085E-14
 -1      3758 1.27293E-02-8.61245E-04-1.85936E-14
 -1      3759 1.25050E-02-7.93708E-04-1.77183E-14
 -1      3760 1.28699E-02-8.83807E-04-1.91859E-14
 -1      3761 1.30108E-02-9.06213E-04-1.97835E-14
 -1      3762 1.27845E-02-8.38382E-04-1.88907E-14
 -1      3763 1.31521E-02-9.28439E-04-2.03852E-14
 -1      3764 1.32936E-02-9.50499E-04-2.09899E-14
 -1      3765 1.30656E-02-8.82533E-04-2.00837E-14
 -1      3766 1.34353E-02-9.72388E-04-2.15984E-14
 -1      3767 1.35772E-02-9.94120E-04-2.22118E-14
 -1      3768 1.33480E-02-9.26119E-04-2.12928E-14
 -1      3769 1.99054E-03-2.01999E-04-1.68187E-17
 -1      3770 2.13365E-03-2.04915E-04-2.77827E-17
 -1      3771 2.19966E-03-1.72327E-04-3.01544E-17
 -1      3772 4.22137E-03 1.82962E-04-3.79471E-16
 -1      3773 4.08303E-03 1.86988E-04-3.13524E-16
 -1      3774 4.49843E-03 1.75898E-04-5.32777E-16
 -1      3775 4.35970E-03 1.79194E-04-4.52709E-16
 -1      3776 4.27147E-03 1.46960E-04-4.41839E-16
 -1      3777 4.54352E-03 1.38597E-04-6.02532E-16
 -1      3778 3.94463E-03 1.91156E-04-2.53175E-16
 -1      3779 3.80594E-03 1.95363E-04-1.98775E-16
 -1      3780 3.99887E-03 1.55737E-04-3.07114E-16
 -1      3781 5.06406E-03 1.72165E-04-9.23672E-16
 -1      3782 4.91989E-03 1.70825E-04-8.13897E-16
 -1      3783 4.81724E-03 1.31832E-04-7.91210E-16
 -1      3784 5.36220E-03 1.82734E-04-1.16891E-15
 -1      3785 5.21104E-03 1.75590E-04-1.04224E-15
 -1      3786 5.09652E-03 1.28992E-04-1.01091E-15
 -1      3787 5.51062E-03 1.66118E-04-1.33841E-15
 -1      3788 9.24478E-03 7.41104E-05-6.76492E-15
 -1      3789 1.00995E-02-1.01107E-04-9.24033E-15
 -1      3790 9.95360E-03-7.79009E-05-8.76592E-15
 -1      3791 1.03850E-02-1.41969E-04-1.02196E-14
 -1      3792 1.02431E-02-1.22218E-04-9.72378E-15
 -1      3793 1.02187E-02-1.51251E-04-9.50516E-15
 -1      3794 1.06655E-02-1.78277E-04-1.12357E-14
 -1      3795 1.05256E-02-1.60504E-04-1.07236E-14
 -1      3796 1.04960E-02-1.87387E-04-1.04939E-14
 -1      3797 1.09438E-02-2.12114E-04-1.22848E-14
 -1      3798 1.08048E-02-1.95401E-04-1.17565E-14
 -1      3799 1.07705E-02-2.21028E-04-1.15178E-14
 -1      3800 1.12216E-02-2.44755E-04-1.33656E-14
 -1      3801 1.10827E-02-2.28523E-04-1.28208E-14
 -1      3802 1.10444E-02-2.53567E-04-1.25729E-14
 -1      3803 1.14999E-02-2.77034E-04-1.44738E-14
 -1      3804 1.13606E-02-2.60904E-04-1.39172E-14
 -1      3805 1.13190E-02-2.85802E-04-1.36577E-14
 -1      3806 1.17791E-02-3.09504E-04-1.56121E-14
 -1      3807 1.16393E-02-2.93224E-04-1.50396E-14
 -1      3808 1.15948E-02-3.18236E-04-1.47710E-14
 -1      3809 1.20593E-02-3.42517E-04-1.67725E-14
 -1      3810 1.19190E-02-3.25932E-04-1.61901E-14
 -1      3811 1.18723E-02-3.51189E-04-1.59133E-14
 -1      3812 1.23406E-02-3.76274E-04-1.79542E-14
 -1      3813 1.21998E-02-3.59298E-04-1.73607E-14
 -1      3814 1.21512E-02-3.84852E-04-1.70767E-14
 -1      3815 1.26229E-02-4.10871E-04-1.91443E-14
 -1      3816 1.24817E-02-3.93468E-04-1.85480E-14
 -1      3817 1.24316E-02-4.19318E-04-1.82603E-14
 -1      3818 1.29061E-02-4.46322E-04-2.03477E-14
 -1      3819 1.27644E-02-4.28493E-04-1.97449E-14
 -1      3820 1.27132E-02-4.54611E-04-1.94530E-14
 -1      3821 1.31899E-02-4.82590E-04-2.15547E-14
 -1      3822 1.30479E-02-4.64358E-04-2.09511E-14
 -1      3823 1.29958E-02-4.90707E-04-2.06567E-14
 -1      3824 1.34742E-02-5.19607E-04-2.27638E-14
 -1      3825 1.33320E-02-5.01011E-04-2.21571E-14
 -1      3826 1.32793E-02-5.27545E-04-2.18618E-14
 -1      3827 5.34501E-03-2.16096E-04-1.59145E-15
 -1      3828 5.05615E-03-1.40231E-04-1.37581E-15
 -1      3829 5.00162E-03-1.22027E-04-1.31982E-15
 -1      3830 5.00369E-03-9.56412E-05-1.31060E-15
 -1      3831 5.06130E-03-9.03481E-05-1.37194E-15
 -1      3832 5.04681E-03-7.10143E-05-1.31369E-15
 -1      3833 5.07885E-03-1.57917E-04-1.36996E-15
 -1      3834 1.70430E-03-1.92523E-04-1.28749E-18
 -1      3835 1.84739E-03-1.97893E-04-8.23994E-18
 -1      3836 1.91382E-03-1.67227E-04-8.42967E-18
 -1      3837 2.41048E-03 2.89670E-04 1.04910E-16
 -1      3838 2.26712E-03 2.88277E-04 1.08867E-16
 -1      3839 2.18814E-03 2.52402E-04 9.52878E-17
 -1      3840 2.47455E-03 2.54935E-04 8.38766E-17
 -1      3841 1.01830E-02-3.70329E-04-8.04175E-15
 -1      3842 1.01409E-02-3.94618E-04-7.95300E-15
 -1      3843 1.36409E-02-8.79694E-04-2.27492E-14
 -1      3844 1.36214E-02-8.39379E-04-2.27477E-14
 -1      3845 9.41146E-03 3.05047E-05-7.18863E-15
 -1      3846 1.36158E-02-5.36463E-04-2.33727E-14
 -1      3847 1.25651E-03-7.29922E-05 1.91226E-17
 -1      3848 1.25896E-03-1.03181E-04 1.53550E-17
 -1      3849 1.37731E-03-6.12141E-05 2.07760E-17
 -1      3850 1.36018E-02-7.99113E-04-2.27438E-14
 -1      3851 1.35819E-02-7.58852E-04-2.27410E-14
 -1      3852 1.34891E-02-8.01596E-04-2.22166E-14
 -1      3853 1.36504E-02-9.72900E-04-2.25955E-14
 -1      3854 1.24506E-03 1.61457E-04 6.25720E-17
 -1      3855 1.24087E-03 1.30255E-04 5.56331E-17
 -1      3856 1.36116E-03 1.21360E-04 5.57958E-17
 -1      3857 1.32564E-03 1.72702E-04 6.74780E-17
 -1      3858 1.37924E-02-6.24038E-04-2.39962E-14
 -1      3859 9.74698E-03-5.80254E-05-8.06209E-15
 -1      3860 9.59367E-03-2.77889E-05-7.61430E-15
 -1      3861 9.94291E-03-2.37209E-04-7.83353E-15
 -1      3862 1.00219E-02-2.79350E-04-7.81273E-15
 -1      3863 5.37810E-03 1.08778E-04-1.29565E-15
 -1      3864 1.02653E-02-4.15484E-04-8.50211E-15
 -1      3865 1.01692E-02-4.16544E-04-8.14594E-15
 -1      3866 1.02142E-02-3.60027E-04-8.18767E-15
 -1      3867 1.02705E-02-3.83147E-04-8.45378E-15
 -1      3868 1.02351E-02-3.49928E-04-8.33377E-15
 -1      3869 1.82335E-03 2.09134E-04 8.39715E-17
 -1      3870 1.74650E-03 1.74032E-04 7.27093E-17
 -1      3871 1.96667E-03 2.13643E-04 8.45678E-17
 -1      3872 5.19415E-03-2.07320E-04-1.41083E-15
 -1      3873 9.89643E-03-1.98270E-04-7.92120E-15
 -1      3874 1.00491E-02-2.37702E-04-8.30651E-15
 -1      3875 9.85255E-03-1.54325E-04-8.00712E-15
 -1      3876 5.08454E-03-1.75292E-04-1.34020E-15
 -1      3877 1.57818E-03-1.65471E-04 5.25838E-18
 -1      3878 1.38227E-03-1.28313E-04 1.24141E-17
 -1      3879 1.35627E-02-5.63151E-04-2.30743E-14
 -1      3880 1.34496E-02-7.21716E-04-2.22136E-14
 -1      3881 1.35620E-02-7.18741E-04-2.27375E-14
 -1      3882 1.35420E-02-6.78564E-04-2.27329E-14
 -1      3883 4.96116E-03-1.06112E-04-1.26591E-15
 -1      3884 4.92806E-03-8.95672E-05-1.21164E-15
 -1      3885 4.92630E-03-1.17330E-04-1.22154E-15
 -1      3886 9.88032E-03-1.16900E-04-8.31274E-15
 -1      3887 1.36794E-02-6.27872E-04-2.34716E-14
 -1      3888 5.18843E-03-2.35405E-05-1.35449E-15
 -1      3889 5.16801E-03 9.83042E-06-1.26812E-15
 -1      3890 5.10017E-03-3.45400E-05-1.29145E-15
 -1      3891 3.66695E-03 1.99485E-04-1.50636E-16
 -1      3892 3.52752E-03 2.03471E-04-1.07580E-16
 -1      3893 3.72453E-03 1.64226E-04-1.97352E-16
 -1      3894 1.01304E-02-3.02729E-04-8.14243E-15
 -1      3895 1.36316E-02-9.33082E-04-2.25914E-14
 -1      3896 1.34994E-02-8.94652E-04-2.20603E-14
 -1      3897 3.10656E-03 2.13645E-04-8.74138E-18
 -1      3898 2.96529E-03 2.16216E-04 1.48536E-17
 -1      3899 4.97000E-03-1.48520E-04-1.24605E-15
 -1      3900 5.25849E-03 7.88912E-05-1.23182E-15
 -1      3901 1.50101E-03 8.33168E-05 4.79759E-17
 -1      3902 1.49899E-03 5.03652E-05 4.04678E-17
 -1      3903 2.82360E-03 2.18212E-04 3.45183E-17
 -1      3904 2.68149E-03 2.19601E-04 4.99411E-17
 -1      3905 2.88737E-03 1.83111E-04 6.07153E-18
 -1      3906 1.49796E-03 1.76451E-05 3.35561E-17
 -1      3907 1.49790E-03-1.49946E-05 2.74845E-17
 -1      3908 1.62109E-03 3.52199E-05 3.60904E-17
 -1      3909 1.57414E-03-1.27307E-04 9.24282E-18
 -1      3910 1.47311E-03 1.58078E-04 6.62990E-17
 -1      3911 1.40658E-03 1.83745E-04 7.22214E-17
 -1      3912 2.69182E-03-1.40328E-04-8.69530E-17
 -1      3913 2.83247E-03-1.39650E-04-1.10494E-16
 -1      3914 2.97234E-03-1.38693E-04-1.37856E-16
 -1      3915 3.11134E-03-1.37454E-04-1.69258E-16
 -1      3916 2.89796E-03-1.06517E-04-1.16525E-16
 -1      3917 3.24934E-03-1.36100E-04-2.04223E-16
 -1      3918 3.38625E-03-1.34611E-04-2.43024E-16
 -1      3919 3.17533E-03-1.05014E-04-1.77918E-16
 -1      3920 3.52191E-03-1.33178E-04-2.87137E-16
 -1      3921 3.65624E-03-1.31763E-04-3.36238E-16
 -1      3922 3.44828E-03-1.03318E-04-2.55574E-16
 -1      3923 3.78905E-03-1.30592E-04-3.90204E-16
 -1      3924 3.92023E-03-1.29590E-04-4.49957E-16
 -1      3925 3.71579E-03-1.02009E-04-3.52813E-16
 -1      3926 4.04955E-03-1.29034E-04-5.15308E-16
 -1      3927 4.17690E-03-1.28790E-04-5.86757E-16
 -1      3928 3.97665E-03-1.01705E-04-4.72048E-16
 -1      3929 4.30195E-03-1.29204E-04-6.63965E-16
 -1      3930 4.42455E-03-1.30021E-04-7.47381E-16
 -1      3931 4.22933E-03-1.03050E-04-6.14228E-16
 -1      3932 4.54423E-03-1.31693E-04-8.38197E-16
 -1      3933 4.66084E-03-1.33752E-04-9.36805E-16
 -1      3934 4.47173E-03-1.06653E-04-7.82496E-16
 -1      3935 4.76360E-03-1.39068E-04-1.03009E-15
 -1      3936 4.87331E-03-1.42236E-04-1.14009E-15
 -1      3937 4.88387E-03-1.27082E-04-1.16533E-15
 -1      3938 4.68983E-03-1.14994E-04-9.67501E-16
 -1      3939 2.12375E-03-1.38213E-04-1.89600E-17
 -1      3940 2.26636E-03-1.39600E-04-3.18755E-17
 -1      3941 1.05965E-02-4.56554E-04-9.89223E-15
 -1      3942 1.07148E-02-4.74870E-04-1.03870E-14
 -1      3943 1.08358E-02-4.93613E-04-1.08889E-14
 -1      3944 1.09593E-02-5.13172E-04-1.13997E-14
 -1      3945 1.07711E-02-4.60085E-04-1.06341E-14
 -1      3946 1.10849E-02-5.33157E-04-1.19171E-14
 -1      3947 1.12125E-02-5.53760E-04-1.24395E-14
 -1      3948 1.10149E-02-4.97488E-04-1.16535E-14
 -1      3949 1.13418E-02-5.74687E-04-1.29712E-14
 -1      3950 1.14727E-02-5.96048E-04-1.35094E-14
 -1      3951 1.12677E-02-5.37046E-04-1.27026E-14
 -1      3952 1.16050E-02-6.17613E-04-1.40506E-14
 -1      3953 1.17386E-02-6.39446E-04-1.45977E-14
 -1      3954 1.15276E-02-5.78207E-04-1.37757E-14
 -1      3955 1.18733E-02-6.61372E-04-1.51522E-14
 -1      3956 1.20090E-02-6.83433E-04-1.57133E-14
 -1      3957 1.17933E-02-6.20431E-04-1.48720E-14
 -1      3958 1.21456E-02-7.05497E-04-1.62804E-14
 -1      3959 1.22830E-02-7.27596E-04-1.68532E-14
 -1      3960 1.20635E-02-6.63251E-04-1.59940E-14
 -1      3961 1.24211E-02-7.49636E-04-1.74278E-14
 -1      3962 1.25599E-02-7.71643E-04-1.80092E-14
 -1      3963 1.23373E-02-7.06305E-04-1.71389E-14
 -1      3964 1.26992E-02-7.93552E-04-1.85960E-14
 -1      3965 1.28391E-02-8.15386E-04-1.91881E-14
 -1      3966 1.26141E-02-7.49335E-04-1.83018E-14
 -1      3967 1.29793E-02-8.37106E-04-1.97830E-14
 -1      3968 1.31200E-02-8.58726E-04-2.03835E-14
 -1      3969 1.28932E-02-7.92174E-04-1.94846E-14
 -1      3970 1.32389E-02-8.66230E-04-2.09159E-14
 -1      3971 1.33801E-02-8.87550E-04-2.15224E-14
 -1      3972 1.33896E-02-8.34910E-04-2.16820E-14
 -1      3973 1.31520E-02-8.20853E-04-2.06116E-14
 -1      3974 4.05247E-03 1.21208E-04-3.62245E-16
 -1      3975 3.91749E-03 1.25632E-04-3.00175E-16
 -1      3976 1.08724E-02-2.61795E-04-1.18006E-14
 -1      3977 1.07378E-02-2.45853E-04-1.12817E-14
 -1      3978 1.06034E-02-2.29852E-04-1.07681E-14
 -1      3979 1.04688E-02-2.13631E-04-1.02648E-14
 -1      3980 1.07067E-02-2.69870E-04-1.10440E-14
 -1      3981 1.03339E-02-1.97131E-04-9.77182E-15
 -1      3982 1.01980E-02-1.79951E-04-9.28741E-15
 -1      3983 1.04440E-02-2.39234E-04-1.00383E-14
 -1      3984 1.11425E-02-2.93736E-04-1.28619E-14
 -1      3985 1.10072E-02-2.77746E-04-1.23272E-14
 -1      3986 1.09710E-02-3.01027E-04-1.20837E-14
 -1      3987 1.14143E-02-3.26044E-04-1.39508E-14
 -1      3988 1.12781E-02-3.09835E-04-1.34030E-14
 -1      3989 1.12379E-02-3.32974E-04-1.31490E-14
 -1      3990 1.16882E-02-3.58959E-04-1.50681E-14
 -1      3991 1.15510E-02-3.42425E-04-1.45056E-14
 -1      3992 1.15076E-02-3.65764E-04-1.42423E-14
 -1      3993 1.19643E-02-3.92615E-04-1.62120E-14
 -1      3994 1.18260E-02-3.75699E-04-1.56369E-14
 -1      3995 1.17801E-02-3.99431E-04-1.53636E-14
 -1      3996 1.22422E-02-4.27068E-04-1.73824E-14
 -1      3997 1.21030E-02-4.09748E-04-1.67947E-14
 -1      3998 1.20551E-02-4.33956E-04-1.65125E-14
 -1      3999 1.25219E-02-4.62331E-04-1.85645E-14
 -1      4000 1.23818E-02-4.44606E-04-1.79712E-14
 -1      4001 1.23324E-02-4.69302E-04-1.76846E-14
 -1      4002 1.28030E-02-4.98373E-04-1.97612E-14
 -1      4003 1.26623E-02-4.80262E-04-1.91610E-14
 -1      4004 1.26115E-02-5.05416E-04-1.88687E-14
 -1      4005 1.30852E-02-5.35140E-04-2.09640E-14
 -1      4006 1.29440E-02-5.16673E-04-2.03613E-14
 -1      4007 1.28923E-02-5.42234E-04-2.00673E-14
 -1      4008 1.35381E-02-6.10607E-04-2.28611E-14
 -1      4009 1.83818E-03-1.33184E-04-3.38813E-19
 -1      4010 1.98098E-03-1.36091E-04-8.49743E-18
 -1      4011 2.04886E-03-1.04511E-04-8.03665E-18
 -1      4012 4.94294E-03-5.52386E-05-1.17668E-15
 -1      4013 5.01766E-03-4.61202E-05-1.23301E-15
 -1      4014 4.98779E-03-1.85313E-05-1.15314E-15
 -1      4015 1.49094E-03 1.30998E-04 5.96447E-17
 -1      4016 2.40865E-03-1.40381E-04-4.74203E-17
 -1      4017 2.55051E-03-1.40576E-04-6.56213E-17
 -1      4018 2.33376E-03-1.06799E-04-3.31766E-17
 -1      4019 7.44672E-03 7.93573E-04-3.33984E-15
 -1      4020 3.38768E-03 2.07196E-04-7.01343E-17
 -1      4021 3.24734E-03 2.10630E-04-3.72017E-17
 -1      4022 3.16881E-03 1.78359E-04-4.27447E-17
 -1      4023 3.44789E-03 1.71916E-04-1.09925E-16
 -1      4024 1.03726E-02-4.26878E-04-8.95053E-15
 -1      4025 1.04850E-02-4.43977E-04-9.42589E-15
 -1      4026 1.05438E-02-4.29924E-04-9.66474E-15
 -1      4027 1.03324E-02-4.05909E-04-8.74837E-15
 -1      4028 1.61213E-03 1.18502E-04 5.68529E-17
 -1      4029 4.85285E-03 9.28492E-05-8.69883E-16
 -1      4030 4.71939E-03 9.73026E-05-7.67737E-16
 -1      4031 1.02096E-02-3.01162E-04-8.57334E-15
 -1      4032 1.02396E-02-3.28839E-04-8.49716E-15
 -1      4033 1.49882E-03-4.76190E-05 2.17789E-17
 -1      4034 1.50071E-03-8.04651E-05 1.66290E-17
 -1      4035 1.62096E-03-3.24608E-05 2.23888E-17
 -1      4036 1.33702E-02-7.95114E-04-2.16809E-14
 -1      4037 1.33506E-02-7.55355E-04-2.16810E-14
 -1      4038 1.32515E-02-7.88457E-04-2.11468E-14
 -1      4039 1.00409E-02-1.65903E-04-8.70983E-15
 -1      4040 1.75464E-03 1.22502E-04 5.71239E-17
 -1      4041 5.14712E-03 4.47334E-05-1.18612E-15
 -1      4042 5.12872E-03 9.32310E-05-1.09206E-15
 -1      4043 4.99162E-03 9.55148E-05-9.74616E-16
 -1      4044 5.05117E-03 2.80203E-05-1.12985E-15
 -1      4045 1.69553E-03-1.13775E-04 7.64363E-18
 -1      4046 1.34692E-02-6.35034E-04-2.24953E-14
 -1      4047 1.33525E-02-5.70914E-04-2.21004E-14
 -1      4048 1.32108E-02-5.52144E-04-2.14992E-14
 -1      4049 1.33568E-02-6.38497E-04-2.19742E-14
 -1      4050 2.61712E-03-1.07287E-04-6.89282E-17
 -1      4051 1.03693E-02-3.94335E-04-8.90179E-15
 -1      4052 2.10998E-03 2.16910E-04 8.31448E-17
 -1      4053 2.03272E-03 1.81860E-04 7.17064E-17
 -1      4054 2.25321E-03 2.19003E-04 7.86860E-17
 -1      4055 4.83556E-03-1.10423E-04-1.11594E-15
 -1      4056 1.01842E-02-2.73125E-04-8.67055E-15
 -1      4057 1.03085E-02-3.04282E-04-9.03811E-15
 -1      4058 1.01551E-02-2.40656E-04-8.76296E-15
 -1      4059 1.31585E-02-5.78025E-04-2.12018E-14
 -1      4060 1.92419E-03 1.35341E-04 5.81268E-17
 -1      4061 1.79127E-03 8.07877E-05 4.48047E-17
 -1      4062 1.01617E-02-2.12093E-04-8.96420E-15
 -1      4063 4.32040E-03 1.11854E-04-5.04398E-16
 -1      4064 4.18669E-03 1.16617E-04-4.29778E-16
 -1      4065 4.10557E-03 8.76390E-05-4.17282E-16
 -1      4066 1.33308E-02-7.15770E-04-2.16779E-14
 -1      4067 1.33107E-02-6.76135E-04-2.16759E-14
 -1      4068 1.32122E-02-7.09687E-04-2.11459E-14
 -1      4069 1.95779E-03 5.57009E-05 3.25803E-17
 -1      4070 1.78920E-03 4.53914E-05 3.56160E-17
 -1      4071 1.78827E-03 1.01630E-05 2.70644E-17
 -1      4072 1.76402E-03-8.42435E-05 9.85269E-18
 -1      4073 4.88281E-03-6.88594E-05-1.13684E-15
 -1      4074 4.84027E-03-4.61069E-05-1.06343E-15
 -1      4075 4.83079E-03-8.13531E-05-1.09777E-15
 -1      4076 4.62751E-03 6.64658E-05-7.44332E-16
 -1      4077 4.58654E-03 1.02116E-04-6.73723E-16
 -1      4078 4.45354E-03 1.06996E-04-5.85754E-16
 -1      4079 3.78181E-03 1.29801E-04-2.44474E-16
 -1      4080 3.64532E-03 1.33737E-04-1.95021E-16
 -1      4081 3.83894E-03 9.62718E-05-2.92884E-16
 -1      4082 2.53903E-03 2.20242E-04 6.20977E-17
 -1      4083 2.39624E-03 2.20094E-04 7.15167E-17
 -1      4084 2.31879E-03 1.85485E-04 6.06340E-17
 -1      4085 2.60388E-03 1.85677E-04 3.98851E-17
 -1      4086 1.03198E-02-3.52096E-04-8.77210E-15
 -1      4087 2.95147E-03 1.48405E-04-2.27682E-17
 -1      4088 2.81062E-03 1.50119E-04-1.42302E-18
 -1      4089 4.88892E-03 6.04366E-05-9.43744E-16
 -1      4090 3.23123E-03 1.43652E-04-7.74934E-17
 -1      4091 3.09168E-03 1.46256E-04-4.75152E-17
 -1      4092 3.01595E-03 1.14176E-04-5.19062E-17
 -1      4093 3.10283E-03-7.35766E-05-1.51436E-16
 -1      4094 3.24028E-03-7.32512E-05-1.85344E-16
 -1      4095 3.37654E-03-7.30331E-05-2.24199E-16
 -1      4096 3.51148E-03-7.28759E-05-2.67635E-16
 -1      4097 3.30638E-03-4.21661E-05-1.92730E-16
 -1      4098 3.64495E-03-7.29748E-05-3.15665E-16
 -1      4099 3.77683E-03-7.32472E-05-3.69361E-16
 -1      4100 3.57609E-03-4.32512E-05-2.78803E-16
 -1      4101 3.90692E-03-7.39465E-05-4.28409E-16
 -1      4102 4.03504E-03-7.49416E-05-4.93556E-16
 -1      4103 3.83970E-03-4.54243E-05-3.85136E-16
 -1      4104 4.16098E-03-7.65562E-05-5.65303E-16
 -1      4105 4.28445E-03-7.85622E-05-6.42552E-16
 -1      4106 4.09591E-03-4.92065E-05-5.15484E-16
 -1      4107 4.40517E-03-8.14106E-05-7.26402E-16
 -1      4108 4.52275E-03-8.47408E-05-8.17556E-16
 -1      4109 4.34300E-03-5.52154E-05-6.70579E-16
 -1      4110 4.63338E-03-9.40991E-05-9.13508E-16
 -1      4111 4.73199E-03-1.00521E-04-1.00679E-15
 -1      4112 4.78503E-03-9.01503E-05-1.05652E-15
 -1      4113 4.57363E-03-6.92624E-05-8.51139E-16
 -1      4114 2.06711E-03 1.37625E-04 5.42101E-17
 -1      4115 1.02997E-02-2.50802E-04-9.34239E-15
 -1      4116 1.08056E-02-3.07781E-04-1.13205E-14
 -1      4117 1.06765E-02-2.92728E-04-1.08081E-14
 -1      4118 1.09428E-02-4.63138E-04-1.13917E-14
 -1      4119 1.10664E-02-4.81665E-04-1.19082E-14
 -1      4120 1.11921E-02-5.00596E-04-1.24337E-14
 -1      4121 1.13199E-02-5.20080E-04-1.29653E-14
 -1      4122 1.11147E-02-4.65207E-04-1.21651E-14
 -1      4123 1.14493E-02-5.39865E-04-1.35005E-14
 -1      4124 1.15803E-02-5.60054E-04-1.40420E-14
 -1      4125 1.13697E-02-5.02501E-04-1.32244E-14
 -1      4126 1.17127E-02-5.80442E-04-1.45920E-14
 -1      4127 1.18463E-02-6.01087E-04-1.51459E-14
 -1      4128 1.16312E-02-5.41338E-04-1.43103E-14
 -1      4129 1.19810E-02-6.21842E-04-1.57071E-14
 -1      4130 1.21167E-02-6.42748E-04-1.62756E-14
 -1      4131 1.18980E-02-5.81225E-04-1.54223E-14
 -1      4132 1.22534E-02-6.63694E-04-1.68499E-14
 -1      4133 1.23908E-02-6.84713E-04-1.74271E-14
 -1      4134 1.21690E-02-6.21778E-04-1.65584E-14
 -1      4135 1.25289E-02-7.05725E-04-1.80085E-14
 -1      4136 1.26677E-02-7.26754E-04-1.85968E-14
 -1      4137 1.24435E-02-6.62709E-04-1.77166E-14
 -1      4138 1.28070E-02-7.47746E-04-1.91887E-14
 -1      4139 1.29468E-02-7.68720E-04-1.97814E-14
 -1      4140 1.27207E-02-7.03817E-04-1.88913E-14
 -1      4141 1.30398E-02-7.75224E-04-2.01970E-14
 -1      4142 1.31582E-02-7.82234E-04-2.07291E-14
 -1      4143 1.31388E-02-7.42996E-04-2.07314E-14
 -1      4144 1.29528E-02-7.30708E-04-1.98978E-14
 -1      4145 1.13309E-02-3.71489E-04-1.34343E-14
 -1      4146 1.11981E-02-3.55121E-04-1.28959E-14
 -1      4147 1.10663E-02-3.38987E-04-1.23644E-14
 -1      4148 1.09354E-02-3.23217E-04-1.18391E-14
 -1      4149 1.09002E-02-3.44278E-04-1.15946E-14
 -1      4150 1.32381E-02-6.33068E-04-2.14420E-14
 -1      4151 1.05510E-02-2.78626E-04-1.03121E-14
 -1      4152 1.04236E-02-2.64250E-04-9.81824E-15
 -1      4153 1.04072E-02-2.88484E-04-9.60733E-15
 -1      4154 1.06496E-02-3.14924E-04-1.05810E-14
 -1      4155 1.15990E-02-4.05120E-04-1.45329E-14
 -1      4156 1.14645E-02-3.88185E-04-1.39815E-14
 -1      4157 1.14214E-02-4.09666E-04-1.37194E-14
 -1      4158 1.18705E-02-4.39766E-04-1.56582E-14
 -1      4159 1.17344E-02-4.22340E-04-1.50920E-14
 -1      4160 1.16886E-02-4.44401E-04-1.48226E-14
 -1      4161 1.21449E-02-4.75299E-04-1.68122E-14
 -1      4162 1.20073E-02-4.57440E-04-1.62307E-14
 -1      4163 1.19596E-02-4.80178E-04-1.59541E-14
 -1      4164 1.24217E-02-5.11617E-04-1.79839E-14
 -1      4165 1.22830E-02-4.93375E-04-1.73966E-14
 -1      4166 1.22337E-02-5.16804E-04-1.71084E-14
 -1      4167 1.27006E-02-5.48621E-04-1.91730E-14
 -1      4168 1.25609E-02-5.30045E-04-1.85768E-14
 -1      4169 1.25104E-02-5.54129E-04-1.82850E-14
 -1      4170 1.29813E-02-5.86228E-04-2.03710E-14
 -1      4171 1.28408E-02-5.67360E-04-1.97705E-14
 -1      4172 1.27892E-02-5.92033E-04-1.94741E-14
 -1      4173 1.31130E-02-6.15569E-04-2.09084E-14
 -1      4174 2.54356E-03-7.42058E-05-5.12014E-17
 -1      4175 2.68457E-03-7.42243E-05-7.13947E-17
 -1      4176 2.25992E-03-7.34348E-05-1.94343E-17
 -1      4177 2.40197E-03-7.39394E-05-3.41795E-17
 -1      4178 2.47104E-03-4.10729E-05-3.41388E-17
 -1      4179 3.50807E-03 1.37363E-04-1.50284E-16
 -1      4180 3.37002E-03 1.40697E-04-1.11659E-16
 -1      4181 3.56832E-03 1.03609E-04-1.91822E-16
 -1      4182 1.77470E-03-1.95447E-05 2.11962E-17
 -1      4183 1.77586E-03-5.46222E-05 1.43657E-17
 -1      4184 1.91751E-03-7.21061E-05 5.28549E-18
 -1      4185 1.94266E-03-1.11657E-05 1.62630E-17
 -1      4186 1.07034E-02-4.28072E-04-1.03801E-14
 -1      4187 1.08217E-02-4.45377E-04-1.08828E-14
 -1      4188 1.08680E-02-4.29982E-04-1.11304E-14
 -1      4189 2.82486E-03-7.41179E-05-9.47322E-17
 -1      4190 2.96432E-03-7.38569E-05-1.21173E-16
 -1      4191 2.75290E-03-4.14400E-05-7.29126E-17
 -1      4192 4.95984E-03 1.15741E-05-1.07840E-15
 -1      4193 4.83484E-03 1.38424E-05-9.69995E-16
 -1      4194 1.04109E-02-3.51399E-04-9.24400E-15
 -1      4195 1.03975E-02-3.73503E-04-9.07334E-15
 -1      4196 1.04726E-02-3.96078E-04-9.37860E-15
 -1      4197 2.73504E-03 1.17164E-04-8.09086E-18
 -1      4198 2.66921E-03 1.51294E-04 1.65205E-17
 -1      4199 2.52730E-03 1.51922E-04 3.04525E-17
 -1      4200 2.06007E-03-7.34547E-05-3.51010E-18
 -1      4201 4.77755E-03-1.36679E-05-9.63320E-16
 -1      4202 4.69639E-03 2.98014E-05-8.40040E-16
 -1      4203 4.57163E-03 3.64584E-05-7.43397E-16
 -1      4204 4.71184E-03-3.02875E-05-9.30571E-16
 -1      4205 1.05775E-02-4.07468E-04-9.84362E-15
 -1      4206 2.22445E-03 1.44444E-04 4.96836E-17
 -1      4207 2.11724E-03 9.87165E-05 3.87738E-17
 -1      4208 3.03166E-03-4.16977E-05-1.25198E-16
 -1      4209 2.11446E-03 6.15897E-05 2.67527E-17
 -1      4210 4.36825E-03 7.76901E-05-5.67377E-16
 -1      4211 1.11584E-02-3.76233E-04-1.26440E-14
 -1      4212 4.15865E-03 5.52322E-05-4.73092E-16
 -1      4213 4.02810E-03 5.97307E-05-4.04326E-16
 -1      4214 1.04065E-02-3.09394E-04-9.47765E-15
 -1      4215 1.04181E-02-3.34708E-04-9.37664E-15
 -1      4216 1.05077E-02-3.58021E-04-9.68823E-15
 -1      4217 1.05232E-02-3.21829E-04-9.95627E-15
 -1      4218 1.30607E-02-6.40636E-04-2.06081E-14
 -1      4219 2.12962E-03-4.13871E-05-1.96512E-18
 -1      4220 3.29388E-03 1.09607E-04-1.12364E-16
 -1      4221 4.72998E-03-6.99400E-05-9.88108E-16
 -1      4222 3.89633E-03 6.37616E-05-3.41469E-16
 -1      4223 3.76322E-03 6.74449E-05-2.84915E-16
 -1      4224 3.95417E-03 3.23440E-05-3.90706E-16
 -1      4225 1.06198E-02-3.93072E-04-1.00844E-14
 -1      4226 2.80151E-03 8.33381E-05-3.32308E-17
 -1      4227 2.66067E-03 8.42556E-05-1.41895E-17
 -1      4228 3.08097E-03 8.04717E-05-8.20741E-17
 -1      4229 2.94163E-03 8.20927E-05-5.54976E-17
 -1      4230 2.86866E-03 4.98913E-05-5.86553E-17
 -1      4231 3.23769E-03-1.07317E-05-1.61709E-16
 -1      4232 3.37395E-03-1.16396E-05-1.99602E-16
 -1      4233 1.15096E-02-4.47700E-04-1.40038E-14
 -1      4234 1.13778E-02-4.30158E-04-1.34596E-14
 -1      4235 2.94911E-03 3.70114E-06-9.18455E-17
 -1      4236 3.08775E-03 2.97843E-06-1.20360E-16
 -1      4237 3.50896E-03-1.28350E-05-2.42197E-16
 -1      4238 3.64253E-03-1.42433E-05-2.89645E-16
 -1      4239 3.44315E-03 1.83809E-05-2.05619E-16
 -1      4240 3.76328E-03-4.18695E-06-3.31264E-16
 -1      4241 3.89405E-03-6.54805E-06-3.88808E-16
 -1      4242 4.02310E-03-9.48009E-06-4.53237E-16
 -1      4243 4.15016E-03-1.27998E-05-5.23954E-16
 -1      4244 1.30417E-02-7.02074E-04-2.03744E-14
 -1      4245 1.31347E-02-7.07908E-04-2.07900E-14
 -1      4246 4.28773E-03 5.03306E-05-5.48606E-16
 -1      4247 4.21198E-03 2.40653E-05-5.29565E-16
 -1      4248 4.41559E-03 4.48611E-05-6.31046E-16
 -1      4249 1.13527E-02-4.76170E-04-1.32143E-14
 -1      4250 1.14828E-02-4.94790E-04-1.37530E-14
 -1      4251 1.16143E-02-5.13688E-04-1.43011E-14
 -1      4252 1.17471E-02-5.32915E-04-1.48541E-14
 -1      4253 1.15959E-02-4.85951E-04-1.42886E-14
 -1      4254 1.18811E-02-5.52333E-04-1.54133E-14
 -1      4255 1.20161E-02-5.71980E-04-1.59786E-14
 -1      4256 1.18631E-02-5.23406E-04-1.54034E-14
 -1      4257 1.21520E-02-5.91751E-04-1.65485E-14
 -1      4258 1.22888E-02-6.11674E-04-1.71274E-14
 -1      4259 1.21343E-02-5.61717E-04-1.65407E-14
 -1      4260 1.24264E-02-6.31670E-04-1.77098E-14
 -1      4261 1.25646E-02-6.51757E-04-1.82967E-14
 -1      4262 1.24087E-02-6.00642E-04-1.77023E-14
 -1      4263 1.27035E-02-6.71912E-04-1.88872E-14
 -1      4264 1.28260E-02-6.84078E-04-1.94217E-14
 -1      4265 1.29185E-02-6.90108E-04-1.98361E-14
 -1      4266 1.29141E-02-6.55521E-04-1.98955E-14
 -1      4267 1.26689E-02-6.32092E-04-1.88232E-14
 -1      4268 1.06357E-02-3.76861E-04-1.02227E-14
 -1      4269 1.10346E-02-4.30469E-04-1.18950E-14
 -1      4270 1.11604E-02-4.47976E-04-1.24202E-14
 -1      4271 1.10539E-02-3.86765E-04-1.21326E-14
 -1      4272 1.09269E-02-3.70745E-04-1.16113E-14
 -1      4273 1.31147E-02-6.68789E-04-2.07890E-14
 -1      4274 1.23216E-02-5.58541E-04-1.74048E-14
 -1      4275 1.21841E-02-5.39585E-04-1.68233E-14
 -1      4276 1.25984E-02-5.96891E-04-1.85839E-14
 -1      4277 1.24597E-02-5.77664E-04-1.79936E-14
 -1      4278 1.28603E-02-6.27691E-04-1.97153E-14
 -1      4279 1.27206E-02-6.08330E-04-1.91191E-14
 -1      4280 2.14265E-03-1.02150E-05 4.45878E-18
 -1      4281 2.39956E-03-7.97522E-06-1.69813E-17
 -1      4282 2.54110E-03-8.21332E-06-3.27971E-17
 -1      4283 1.11824E-02-4.03274E-04-1.26596E-14
 -1      4284 3.36765E-03 6.32761E-05-1.58903E-16
 -1      4285 3.23040E-03 6.54398E-05-1.22921E-16
 -1      4286 3.63886E-03 5.80379E-05-2.46195E-16
 -1      4287 3.50381E-03 6.08590E-05-2.00130E-16
 -1      4288 1.29834E-02-6.39106E-04-2.02536E-14
 -1      4289 2.66919E-03 4.75969E-06-4.60379E-17
 -1      4290 2.80955E-03 4.32008E-06-6.73154E-17
 -1      4291 1.20474E-02-5.20768E-04-1.62481E-14
 -1      4292 1.19115E-02-5.02167E-04-1.56768E-14
 -1      4293 4.61266E-03-5.52017E-05-8.72485E-16
 -1      4294 4.66610E-03-4.47088E-05-9.07938E-16
 -1      4295 4.59269E-03-1.40751E-05-8.16120E-16
 -1      4296 4.50296E-03-4.43390E-05-7.76844E-16
 -1      4297 1.17766E-02-4.83746E-04-1.51135E-14
 -1      4298 1.16426E-02-4.65607E-04-1.45555E-14
 -1      4299 2.36710E-03 1.45178E-04 4.04678E-17
 -1      4300 2.29924E-03 3.18907E-05 4.35036E-18
 -1      4301 2.59974E-03 3.79420E-05-2.51128E-17
 -1      4302 2.53115E-03 7.13011E-05-4.26905E-18
 -1      4303 2.43409E-03 1.11684E-04 2.14401E-17
 -1      4304 1.07715E-02-3.94639E-04-1.07957E-14
 -1      4305 1.08927E-02-4.10831E-04-1.13040E-14
 -1      4306 1.09328E-02-3.93365E-04-1.15514E-14
 -1      4307 1.06524E-02-3.57288E-04-1.03894E-14
 -1      4308 4.27520E-03-1.68803E-05-6.00391E-16
 -1      4309 1.12688E-02-4.39649E-04-1.29365E-14
 -1      4310 3.15828E-03 3.43262E-05-1.22054E-16
 -1      4311 3.70052E-03 2.64307E-05-2.88384E-16
 -1      4312 4.39782E-03-2.14420E-05-6.83359E-16
 -1      4313 4.49209E-03 1.10382E-05-7.16712E-16
 -1      4314 1.07833E-02-3.52504E-04-1.10230E-14
 -1      4315 1.06622E-02-3.38387E-04-1.05257E-14
 -1      4316 2.37193E-03 6.49441E-05 9.43256E-18
 -1      4317 4.44343E-03-5.39113E-06-6.99419E-16
 -3
    1PSTEP                         2           1           1          
  100CL  101 1.000000000        4317                     0    1           1
 -4  STRESS      6    1
 -5  SXX         1    4    1    1
 -5  SYY         1    4    2    2
 -5  SZZ         1    4    3    3
 -5  SXY         1    4    1    2
 -5  SYZ         1    4    2    3
 -5  SZX         1    4    3    1
 -1         1-4.43173E-01-2.84129E+00-1.85344E+00-8.24402E-01-5.23970E-13-2.72782E-13
 -1         2-6.91629E-01-2.44875E+01-3.36300E+00-7.54431E-02 3.12968E-13 1.82625E-13
 -1         3 2.00000E+01 1.94918E-04 2.23340E-03 1.58103E-04-5.26495E-13-5.89720E-13
 -1         4 1.99997E+01-7.13089E-05 2.05035E-03-2.53515E-04-8.86862E-15-7.68285E-14
 -1         5 3.26310E+01 6.11698E+00 2.72439E+00 6.20096E+00-7.03604E-15 3.83416E-13
 -1         6 3.55978E+01 1.22080E+01 5.09533E+00-8.61130E+00 1.83187E-15 8.75411E-14
 -1         7 2.07776E+01 6.08722E+00-1.26019E-01-4.70352E+00-3.55271E-15 8.83148E-14
 -1         8 1.96618E+01 5.93144E+00 5.25870E-02-3.25082E+00-1.66533E-16 7.62849E-14
 -1         9 1.91474E+01 5.77438E+00 5.03665E-02-2.49880E+00 5.91541E-16 5.57466E-14
 -1        10 1.89152E+01 5.69766E+00 5.15320E-02-1.92165E+00 2.18662E-15 4.73788E-14
 -1        11 1.87980E+01 5.65807E+00 5.02092E-02-1.42811E+00 8.72566E-16 4.47754E-14
 -1        12 1.87351E+01 5.63662E+00 4.81750E-02-9.91906E-01 1.38214E-15 5.27208E-14
 -1        13 1.87004E+01 5.62484E+00 4.63190E-02-5.79992E-01 1.99840E-15 6.87326E-14
 -1        14 1.86852E+01 5.61968E+00 4.53463E-02-1.85807E-01 4.51684E-15 7.75094E-14
 -1        15 1.86855E+01 5.61978E+00 4.53850E-02 2.02910E-01 4.04332E-15 8.84306E-14
 -1        16 1.87013E+01 5.62514E+00 4.64443E-02 5.97919E-01 4.35383E-15 1.15463E-13
 -1        17 1.87368E+01 5.63707E+00 4.84017E-02 1.01176E+00 5.00424E-15 1.40860E-13
 -1        18 1.88010E+01 5.65890E+00 5.07035E-02 1.45092E+00 3.90313E-15 1.73159E-13
 -1        19 1.89202E+01 5.69912E+00 5.21932E-02 1.95038E+00 4.32640E-15 2.15942E-13
 -1        20 1.91523E+01 5.77680E+00 5.02956E-02 2.53590E+00 3.99160E-15 2.66764E-13
 -1        21 1.96566E+01 5.94577E+00 4.74266E-02 3.28457E+00 5.03070E-15 3.27999E-13
 -1        22 2.11569E+01 6.36744E+00 1.40236E-01 4.50147E+00-1.11022E-15 3.82621E-13
 -1        23 2.29417E+01-1.37555E+00-9.37193E-01-7.06203E-01 4.42701E-15 8.46545E-14
 -1        24 1.93105E+01-9.94867E-02-3.08963E-01 6.31738E-02-1.43635E-15 1.24007E-13
 -1        25 1.86449E+01-5.66898E-02-6.87732E-02 6.03189E-02 1.29215E-15 1.42102E-13
 -1        26 1.84687E+01-2.28350E-02-7.04677E-03 3.25307E-02-4.55495E-15 1.15276E-13
 -1        27 1.85157E+01-1.29456E-02 5.57079E-04 2.21665E-02-6.20652E-15 8.15233E-14
 -1        28 1.86807E+01-7.85833E-03 2.11051E-04 1.59814E-02 5.80303E-15 1.28284E-13
 -1        29 1.89136E+01-5.27553E-03-5.12234E-04 1.20912E-02 1.73052E-14 2.11914E-13
 -1        30 1.91919E+01-4.11025E-03-1.16586E-03 9.58159E-03 2.44043E-15 2.20068E-13
 -1        31 1.95085E+01-3.83563E-03-2.06876E-03 8.08061E-03-1.21095E-14 1.21318E-13
 -1        32 1.98667E+01-4.15691E-03-3.36705E-03 7.47801E-03-1.35440E-14 4.25276E-14
 -1        33 2.02775E+01-4.86735E-03-5.07170E-03 7.80816E-03 5.29170E-14 1.84596E-13
 -1        34 2.07573E+01-5.76134E-03-7.10412E-03 9.20308E-03-1.42354E-14 2.00103E-13
 -1        35 2.13261E+01-6.55843E-03-9.24636E-03 1.18580E-02 2.12741E-14 1.32720E-13
 -1        36 2.20036E+01-6.81630E-03-1.09889E-02 1.59630E-02 2.53859E-14 2.76271E-13
 -1        37 2.28024E+01-5.83373E-03-1.12587E-02 2.15291E-02-3.92290E-14 3.78492E-13
 -1        38 2.37161E+01-2.58743E-03-8.05107E-03 2.79946E-02-4.82973E-14 2.24161E-13
 -1        39 2.46988E+01 4.15736E-03 1.80531E-03 3.34589E-02 2.43831E-14 1.97583E-13
 -1        40 2.56360E+01 1.52825E-02 2.20423E-02 3.35217E-02 1.36302E-14 3.22901E-13
 -1        41 2.63137E+01 2.99220E-02 5.40456E-02 2.03338E-02-1.97156E-14 1.61350E-13
 -1        42 2.64136E+01 4.33370E-02 9.04831E-02-1.59470E-02-2.51457E-14 4.13333E-14
 -1        43 2.55919E+01 4.58733E-02 1.08146E-01-7.90164E-02-3.88058E-14 2.65302E-13
 -1        44 2.37013E+01 2.68755E-02 7.27743E-02-1.50684E-01 2.09698E-14 4.69937E-13
 -1        45 2.11042E+01-1.42337E-02-2.87186E-02-1.83287E-01-4.20502E-15 6.33146E-13
 -1        46 1.87865E+01-5.90672E-02-1.50138E-01-1.27568E-01 2.82066E-14 2.68653E-13
 -1        47 1.79212E+01-7.28798E-02-2.00260E-01 1.36749E-02 2.26529E-14 3.56279E-13
 -1        48 1.89005E+01-5.82305E-02-1.45877E-01 1.31389E-01-5.89715E-14 1.58311E-13
 -1        49 2.12711E+01-1.14059E-02-2.20529E-02 1.83578E-01 4.50777E-14-3.44766E-13
 -1        50 2.38568E+01 2.84979E-02 7.64002E-02 1.46998E-01 4.72664E-14-3.59060E-13
 -1        51 2.56968E+01 4.59666E-02 1.07492E-01 7.45878E-02 5.73057E-14-3.27492E-13
 -1        52 2.64683E+01 4.23851E-02 8.77565E-02 1.30009E-02-6.52898E-14-1.43273E-13
 -1        53 2.63411E+01 2.85906E-02 5.12461E-02-2.15558E-02-1.07720E-13-3.79028E-13
 -1        54 2.56634E+01 1.39701E-02 1.98251E-02-3.35457E-02 7.06801E-14-7.28983E-13
 -1        55 2.47501E+01 2.99375E-03 1.61371E-04-3.27807E-02 1.25250E-15-6.00178E-13
 -1        56 2.38106E+01-3.62775E-03-9.37315E-03-2.68945E-02-2.42090E-14-7.43901E-13
 -1        57 2.29568E+01-6.81567E-03-1.25028E-02-2.00839E-02 7.09189E-14-6.02578E-13
 -1        58 2.22336E+01-7.78903E-03-1.23242E-02-1.41150E-02-1.07640E-13-7.26405E-13
 -1        59 2.16480E+01-7.53050E-03-1.07623E-02-9.46785E-03-2.18467E-17-6.84514E-13
 -1        60 2.11885E+01-6.69130E-03-8.82780E-03-6.07509E-03-4.11142E-14-3.72850E-13
 -1        61 2.08365E+01-5.65376E-03-6.97874E-03-3.69641E-03-7.92856E-14-9.56906E-13
 -1        62 2.05725E+01-4.62075E-03-5.38519E-03-2.07823E-03 3.51871E-14-7.55284E-13
 -1        63 2.03782E+01-3.68765E-03-4.08304E-03-1.00735E-03 5.42358E-14-5.96135E-13
 -1        64 2.02381E+01-2.89024E-03-3.05332E-03-3.19836E-04 3.03891E-15-6.88517E-13
 -1        65 2.01397E+01-2.23355E-03-2.25992E-03 1.05699E-04-6.06480E-15-7.69454E-13
 -1        66 2.00726E+01-1.70804E-03-1.66738E-03 3.58919E-04-1.99892E-14-6.47536E-13
 -1        67 2.00292E+01-1.29722E-03-1.24741E-03 5.09958E-04 1.22541E-13-6.50564E-13
 -1        68 2.00035E+01-9.78375E-04-9.72162E-04 6.22219E-04-1.85273E-13-1.22102E-12
 -1        69 1.99914E+01-7.13688E-04-7.75794E-04 7.63200E-04 5.01039E-14-9.36377E-13
 -1        70 1.99897E+01-4.40694E-04-4.42775E-04 9.88447E-04-1.18799E-13-1.81298E-13
 -1        71 1.99951E+01-1.38970E-04 5.37095E-04 1.22472E-03 5.29378E-14-4.02191E-13
 -1        72 2.09637E+01-4.03791E-01-9.79049E-01-3.10848E-01-1.02210E-14 4.41092E-13
 -1        73 1.92775E+01-6.66442E-02-2.90049E-01-5.36155E-02 8.41688E-15 4.62555E-13
 -1        74 1.86566E+01-2.15947E-02-6.37446E-02-2.05006E-02-3.52040E-16 4.66512E-13
 -1        75 1.84813E+01-1.10812E-02-9.66515E-03-1.52813E-02-5.85057E-15 5.27654E-13
 -1        76 1.85283E+01-6.23937E-03-4.73204E-04-1.17565E-02-4.21755E-17 6.37081E-13
 -1        77 1.86922E+01-3.75726E-03 1.31673E-04-9.11187E-03 3.10179E-15 6.59545E-13
 -1        78 1.89227E+01-2.51212E-03-2.30363E-04-7.20251E-03 8.78393E-16 6.65174E-13
 -1        79 1.91955E+01-1.93830E-03-6.89465E-04-5.78982E-03 9.88280E-15 6.37709E-13
 -1        80 1.95011E+01-1.73791E-03-1.29940E-03-4.80476E-03-4.03071E-15 6.94098E-13
 -1        81 1.98382E+01-1.71180E-03-2.06625E-03-4.28901E-03 1.19522E-14 6.62750E-13
 -1        82 2.02102E+01-1.68602E-03-2.86432E-03-4.34464E-03 2.66871E-15 6.38652E-13
 -1        83 2.06221E+01-1.47525E-03-3.45061E-03-5.10659E-03 8.62605E-15 5.04159E-13
 -1        84 2.10766E+01-8.63946E-04-3.44470E-03-6.70905E-03 1.59553E-14 4.88882E-13
 -1        85 2.15697E+01 3.91866E-04-2.28912E-03-9.21692E-03-1.93223E-14 5.21410E-13
 -1        86 2.20840E+01 2.52530E-03 7.60209E-04-1.24895E-02 1.93318E-14 3.74180E-13
 -1        87 2.25816E+01 5.65162E-03 6.52168E-03-1.59463E-02-4.77621E-14 3.49886E-13
 -1        88 2.29968E+01 9.56236E-03 1.55057E-02-1.82459E-02 2.61923E-14 4.77192E-13
 -1        89 2.32324E+01 1.34364E-02 2.71143E-02-1.70317E-02-6.12542E-15 4.78773E-13
 -1        90 2.31686E+01 1.56177E-02 3.84980E-02-9.16421E-03-4.58149E-14 4.16999E-13
 -1        91 2.26939E+01 1.38163E-02 4.37756E-02 7.90497E-03-5.29102E-15 3.27344E-13
 -1        92 2.17632E+01 6.24083E-03 3.52946E-02 3.32636E-02 5.37558E-14 3.83062E-14
 -1        93 2.04721E+01-6.44092E-03 8.36313E-03 5.93690E-02-8.63421E-14-7.80626E-15
 -1        94 1.90994E+01-1.97576E-02-3.18310E-02 7.26053E-02 4.79152E-15-5.56812E-14
 -1        95 1.80535E+01-2.72757E-02-6.82476E-02 6.11293E-02 6.20055E-15-6.54459E-14
 -1        96 1.77039E+01-2.49161E-02-8.10908E-02 2.54822E-02 3.75134E-15 1.56397E-13
 -1        97 1.81845E+01-1.40567E-02-6.26594E-02-1.91284E-02 1.94285E-14 2.65078E-13
 -1        98 1.93159E+01-3.95598E-04-2.37280E-02-5.25757E-02 3.41268E-14 1.69725E-14
 -1        99 2.07084E+01 1.04182E-02 1.51157E-02-6.37994E-02-5.29480E-14-6.48440E-14
 -1       100 2.19660E+01 1.56569E-02 3.87477E-02-5.53271E-02-2.56679E-14-4.86555E-14
 -1       101 2.28399E+01 1.56850E-02 4.40910E-02-3.69950E-02 9.50151E-15-2.47415E-13
 -1       102 2.32624E+01 1.25051E-02 3.68598E-02-1.81149E-02 2.84264E-14-3.70906E-13
 -1       103 2.32959E+01 8.19593E-03 2.46731E-02-3.71121E-03-1.84659E-14-2.59183E-13
 -1       104 2.30580E+01 4.16902E-03 1.29644E-02 5.11706E-03 4.59563E-14-1.22228E-13
 -1       105 2.26679E+01 1.07587E-03 4.14656E-03 9.33019E-03 4.01342E-14-1.73314E-13
 -1       106 2.22197E+01-9.66594E-04-1.42786E-03 1.04476E-02-7.97491E-14-3.59621E-13
 -1       107 2.17767E+01-2.11395E-03-4.36956E-03 9.81429E-03-3.01197E-14-5.94063E-13
 -1       108 2.13750E+01-2.60598E-03-5.51130E-03 8.37783E-03-9.34810E-14-5.66837E-13
 -1       109 2.10314E+01-2.67032E-03-5.57179E-03 6.71375E-03 4.02677E-14-4.34504E-13
 -1       110 2.07499E+01-2.48589E-03-5.06474E-03 5.12897E-03-8.21448E-14-4.55707E-13
 -1       111 2.05271E+01-2.17869E-03-4.31789E-03 3.76117E-03 1.05003E-13-3.45390E-13
 -1       112 2.03561E+01-1.83037E-03-3.52278E-03 2.65148E-03-8.47091E-14-2.73708E-13
 -1       113 2.02287E+01-1.48988E-03-2.78195E-03 1.79103E-03 4.72453E-14 2.94983E-13
 -1       114 2.01367E+01-1.18377E-03-2.14453E-03 1.14804E-03-6.07388E-14 2.57669E-13
 -1       115 2.00726E+01-9.23679E-04-1.63071E-03 6.81703E-04 7.28153E-15 2.48545E-13
 -1       116 2.00304E+01-7.10910E-04-1.24678E-03 3.46847E-04 9.71952E-14-2.14688E-13
 -1       117 2.00050E+01-5.36834E-04-9.87478E-04 9.05855E-05 2.32158E-14-8.35297E-13
 -1       118 1.99927E+01-3.73822E-04-8.07846E-04-1.54199E-04 6.40452E-15-7.22953E-13
 -1       119 1.99908E+01-1.43083E-04-4.54221E-04-5.35244E-04 8.02593E-14-1.33040E-12
 -1       120 1.99961E+01 2.71011E-04 5.90908E-04-1.07390E-03 1.64286E-13-1.41407E-12
 -1       121 1.99999E+01-3.83271E-03 4.24619E-04-1.31968E-03-1.19951E-12 5.89301E-14
 -1       122 1.99995E+01-8.31349E-03-6.47990E-04-6.83635E-04-7.16501E-13-4.55726E-15
 -1       123 1.99994E+01-4.74209E-03-7.86124E-04-5.57120E-05-3.44909E-13-2.44227E-14
 -1       124 1.99996E+01 6.40939E-03-4.91013E-04 3.18090E-04 1.55807E-13 1.05307E-13
 -1       125 1.99998E+01 2.21214E-02-1.08147E-04 4.99707E-04 4.33559E-13-6.48586E-14
 -1       126 2.00000E+01 3.82382E-02 2.47603E-04 4.98261E-04-9.52749E-14-2.00781E-15
 -1       127 2.00002E+01 5.15332E-02 5.18928E-04 3.52622E-04-3.06604E-13 2.65480E-13
 -1       128 2.00003E+01 5.87961E-02 6.63303E-04 1.15747E-04-5.37862E-13 4.28798E-14
 -1       129 2.00003E+01 5.84468E-02 6.59714E-04-1.51596E-04-2.83375E-13-2.23431E-13
 -1       130 2.00002E+01 5.05198E-02 5.06616E-04-3.85170E-04 1.03728E-12-2.21119E-14
 -1       131 2.00000E+01 3.66839E-02 2.22440E-04-5.24874E-04 8.76094E-13-1.18633E-13
 -1       132 1.99998E+01 2.02554E-02-1.42281E-04-5.09197E-04-2.63064E-13 2.10268E-13
 -1       133 1.99996E+01 4.54548E-03-5.31700E-04-3.05994E-04 2.53259E-14 8.16114E-15
 -1       134 1.99994E+01-6.18557E-03-8.18743E-04 8.15998E-05 7.21993E-13 8.79005E-14
 -1       135 1.99996E+01-9.15107E-03-6.05365E-04 7.98873E-04 1.04872E-12-7.19015E-14
 -1       136 1.99995E+01-4.61244E-03 4.47990E-04 1.11742E-03 8.49192E-13 8.00087E-14
 -1       137-1.39558E+00-1.89325E+01-3.00734E+00-3.79801E+00 1.24961E-12 1.80980E-13
 -1       138-1.38496E+00-7.33580E+00-2.16191E+00-2.65050E+00 9.74609E-13 3.32179E-13
 -1       139 3.51969E+00 4.43531E+00-9.45881E-01 4.19052E+00 1.46033E-12 1.24645E-12
 -1       140 1.66795E+01 1.08362E+01 5.06870E-01 1.33242E+01 1.77253E-12 2.13729E-12
 -1       141 3.68418E+01 9.67350E+00 1.93177E+00 1.82496E+01 1.06570E-12 1.83492E-12
 -1       142 5.51450E+01 4.62445E+00 2.94426E+00 1.44234E+01 3.03049E-13 1.03917E-12
 -1       143 6.52315E+01 1.07047E+00 3.45966E+00 2.91654E+00 6.06112E-14-5.37070E-14
 -1       144 6.12844E+01 2.53381E+00 3.29093E+00-1.01000E+01 2.03553E-13-8.79380E-13
 -1       145 4.52844E+01 7.65158E+00 2.45301E+00-1.76840E+01 5.69017E-13-1.36890E-12
 -1       146 2.53663E+01 1.11573E+01 1.19009E+00-1.65016E+01 9.44245E-13-1.51679E-12
 -1       147 9.10984E+00 8.59470E+00-2.20816E-01-8.91340E+00 1.22197E-12-1.06554E-12
 -1       148 5.82682E-01-6.24113E-01-1.52842E+00-6.39504E-01 1.31395E-12-9.18821E-13
 -1       149-1.77033E+00-1.33846E+01-2.61966E+00 3.98390E+00 7.31804E-13-2.56475E-13
 -1       150-9.77628E-01-2.26363E+01-3.24705E+00 2.33684E+00 1.25538E-13 1.88304E-15
 -1       151-9.80749E-01-2.35288E+01-3.32575E+00-2.03638E+00-4.86819E-13-8.96540E-14
 -1       152-1.86008E+00-1.55167E+01-2.84784E+00-4.37596E+00-5.08149E-13-1.46452E-13
 -1       153 7.82548E+00 7.38919E+00-4.91065E-01 7.71874E+00-8.51985E-13-9.21263E-13
 -1       154 2.52408E+01 1.09451E+01 1.09408E+00 1.63545E+01-9.34530E-13-1.20437E-12
 -1       155 4.64800E+01 7.54785E+00 2.56469E+00 1.78369E+01-4.30045E-13-1.07953E-12
 -1       156 6.36087E+01 2.39446E+00 3.56485E+00 9.61528E+00-1.20155E-13-7.09793E-13
 -1       157 6.70605E+01 1.04990E+00 3.73810E+00-3.75828E+00-4.76008E-15-2.02824E-13
 -1       158 5.58546E+01 4.93381E+00 3.11496E+00-1.52133E+01-2.85050E-13 7.05769E-13
 -1       159 3.50847E+01 9.90507E+00 1.82759E+00-1.81046E+01-8.05772E-13 1.40954E-12
 -1       160 1.52771E+01 1.01372E+01 2.63069E-01-1.23999E+01-6.81122E-13 1.08541E-12
 -1       161 2.35394E+00 2.49770E+00-1.25629E+00-2.79160E+00-1.03584E-12 6.35159E-13
 -1       162-1.67830E+00-9.47729E+00-2.41400E+00 3.31108E+00-1.72140E-12 6.11733E-13
 -1       163-1.43740E+00-2.04032E+01-3.13910E+00 3.92776E+00-1.49977E-12 3.96093E-13
 -1       164 2.09919E+01 3.68449E+00-5.68602E-02-3.58113E+00 4.66294E-15 8.23473E-14
 -1       165 1.99950E+01 4.20462E+00-4.53117E-02-2.77726E+00 5.47739E-15 7.25149E-14
 -1       166 1.95258E+01 4.48158E+00-3.13055E-02-2.16020E+00 1.81326E-14 5.75200E-14
 -1       167 1.92884E+01 4.62735E+00-2.34756E-02-1.64226E+00 1.37854E-14 4.03132E-14
 -1       168 1.91574E+01 4.71580E+00-1.91921E-02-1.19005E+00 1.12658E-14 4.50404E-14
 -1       169 1.90804E+01 4.77225E+00-1.70847E-02-7.70533E-01 1.16347E-14 6.54147E-14
 -1       170 1.90401E+01 4.80346E+00-1.60645E-02-3.75445E-01 2.90147E-14 7.65837E-14
 -1       171 1.90279E+01 4.81308E+00-1.57675E-02 8.25965E-03 3.70625E-14 9.29690E-14
 -1       172 1.90414E+01 4.80203E+00-1.61121E-02 3.92314E-01 3.75437E-14 9.56154E-14
 -1       173 1.90832E+01 4.76901E+00-1.71936E-02 7.88526E-01 4.14204E-14 1.15795E-13
 -1       174 1.91605E+01 4.71132E+00-1.93969E-02 1.20265E+00 4.12473E-14 1.50122E-13
 -1       175 1.92968E+01 4.61756E+00-2.37230E-02 1.66498E+00 5.26404E-14 1.83820E-13
 -1       176 1.95400E+01 4.46409E+00-3.23315E-02 2.19149E+00 4.03171E-14 2.22045E-13
 -1       177 2.00160E+01 4.18096E+00-4.67681E-02 2.81551E+00 3.57015E-14 2.80442E-13
 -1       178 2.11124E+01 3.45520E+00-5.96310E-02 3.50760E+00 2.36807E-14 3.27606E-13
 -1       179 2.23681E+01 1.13998E+00-3.35326E-01 2.99349E+00-1.97412E-15 3.56062E-13
 -1       180 2.19324E+01 8.55568E-01 7.22979E-04-1.93847E+00 2.16736E-14 8.09491E-14
 -1       181 2.04288E+01 1.90522E-01-9.78641E-03-7.44418E-01 1.31267E-14 8.19995E-14
 -1       182 1.96779E+01 1.03790E-01 1.37553E-02-2.62357E-01-1.02479E-14 1.10590E-13
 -1       183 1.93702E+01 5.08855E-02 1.02788E-02-3.65938E-02-1.75897E-14 1.11176E-13
 -1       184 1.92838E+01 2.82167E-02 5.53946E-03 8.33671E-02-4.46778E-15 1.14762E-13
 -1       185 1.93302E+01 1.75338E-02 2.94957E-03 1.54318E-01 3.04229E-14 9.10959E-14
 -1       186 1.94611E+01 1.30100E-02 1.81171E-03 2.01834E-01 2.58911E-14 8.19560E-14
 -1       187 1.96522E+01 1.23187E-02 1.36359E-03 2.40198E-01-4.40718E-14 1.06567E-13
 -1       188 1.98933E+01 1.43187E-02 1.23217E-03 2.78592E-01-1.91251E-14 1.38405E-13
 -1       189 2.01833E+01 1.83180E-02 1.25145E-03 3.23457E-01 5.10576E-14 1.96670E-13
 -1       190 2.05269E+01 2.37137E-02 1.32374E-03 3.79314E-01 9.77842E-16 9.82739E-14
 -1       191 2.09322E+01 2.96887E-02 1.35343E-03 4.48677E-01-1.63204E-14 1.48028E-13
 -1       192 2.14084E+01 3.48200E-02 1.21748E-03 5.31076E-01 1.92553E-14 1.42488E-13
 -1       193 2.19612E+01 3.65020E-02 7.57948E-04 6.20928E-01 3.40575E-14 7.81134E-14
 -1       194 2.25882E+01 3.01768E-02-1.90054E-04 7.03850E-01-4.46965E-14 1.74395E-13
 -1       195 2.32695E+01 8.64871E-03-1.70483E-03 7.51413E-01-8.22590E-15 2.43443E-13
 -1       196 2.39574E+01-3.74676E-02-3.60013E-03 7.15834E-01 3.08415E-14 1.63747E-13
 -1       197 2.45643E+01-1.15611E-01-5.19288E-03 5.30152E-01-8.43574E-14 1.56863E-13
 -1       198 2.49579E+01-2.19640E-01-5.35233E-03 1.26476E-01-5.83630E-14 1.46683E-13
 -1       199 2.49761E+01-3.09490E-01-3.22522E-03-5.09579E-01 4.20037E-14 1.23012E-13
 -1       200 2.44860E+01-2.99066E-01 2.26547E-05-1.24550E+00 1.18697E-13 1.68248E-13
 -1       201 2.35062E+01-1.00687E-01 1.31923E-04-1.73937E+00 2.63312E-14 2.16148E-13
 -1       202 2.23385E+01 2.59231E-01-4.69537E-03-1.56617E+00-2.50112E-14 3.93968E-13
 -1       203 2.15469E+01 5.54510E-01-9.17511E-03-5.88989E-01-8.52981E-14 3.05552E-13
 -1       204 2.15741E+01 5.44978E-01-1.02802E-02 6.70843E-01-1.17625E-13 2.74750E-14
 -1       205 2.24106E+01 2.37428E-01-4.44785E-03 1.60459E+00-2.25777E-13 2.54206E-14
 -1       206 2.35877E+01-1.17863E-01-1.02442E-04 1.73209E+00-1.04578E-13-2.47750E-13
 -1       207 2.45519E+01-3.04107E-01-7.74788E-04 1.21206E+00 1.92901E-14-2.07619E-13
 -1       208 2.50199E+01-3.04671E-01-3.78948E-03 4.76991E-01-3.77823E-14-3.57044E-13
 -1       209 2.49886E+01-2.11563E-01-5.45305E-03-1.43069E-01-2.02950E-14-5.00434E-13
 -1       210 2.45956E+01-1.07937E-01-5.04225E-03-5.27502E-01-1.19067E-13-3.38586E-13
 -1       211 2.40038E+01-3.11615E-02-3.33962E-03-6.95875E-01 8.90458E-14-3.29280E-13
 -1       212 2.33443E+01 1.38402E-02-1.42381E-03-7.16978E-01-7.82496E-14-2.19699E-13
 -1       213 2.27032E+01 3.48599E-02 8.21262E-05-6.56817E-01 1.31447E-14-3.19387E-13
 -1       214 2.21275E+01 4.11804E-02 1.01059E-03-5.61930E-01-1.29910E-13-4.66661E-13
 -1       215 2.16367E+01 3.97771E-02 1.44639E-03-4.59880E-01 2.99683E-14-4.66364E-13
 -1       216 2.12332E+01 3.49795E-02 1.54755E-03-3.64736E-01 1.21558E-13-3.85811E-13
 -1       217 2.09106E+01 2.91662E-02 1.45784E-03-2.82363E-01-2.69038E-13-2.85365E-13
 -1       218 2.06584E+01 2.35089E-02 1.27891E-03-2.14160E-01-2.69383E-14-3.25853E-13
 -1       219 2.04652E+01 1.85060E-02 1.07278E-03-1.59343E-01 3.04457E-14-2.10507E-13
 -1       220 2.03198E+01 1.43106E-02 8.72993E-04-1.16222E-01 8.65720E-14-9.05413E-14
 -1       221 2.02126E+01 1.09128E-02 6.95110E-04-8.28577E-02 3.13274E-14 1.09503E-13
 -1       222 2.01353E+01 8.23657E-03 5.44142E-04-5.73719E-02 2.30122E-15-6.81835E-14
 -1       223 2.00811E+01 6.18853E-03 4.18296E-04-3.80758E-02-1.43275E-13-3.10975E-13
 -1       224 2.00446E+01 4.67775E-03 3.11462E-04-2.35053E-02-1.78312E-13-5.94164E-13
 -1       225 2.00214E+01 3.58635E-03 2.17911E-04-1.24582E-02 3.12020E-14-5.49345E-13
 -1       226 2.00080E+01 2.73013E-03 1.35894E-04-4.14262E-03 2.30582E-13-5.81628E-13
 -1       227 2.00017E+01 1.61628E-03 1.35121E-04 1.32304E-03-4.21028E-14-1.31775E-13
 -1       228 1.99999E+01-6.84803E-04 9.06192E-05 2.98143E-03 2.91890E-13-2.11229E-13
 -1       229 2.09306E+01 2.77413E-01-5.04739E-02 1.14835E+00 2.62984E-15 3.13589E-13
 -1       230 1.98632E+01 1.31261E-01 1.01862E-02 4.29668E-01-1.92008E-14 3.25448E-13
 -1       231 1.93854E+01 5.81600E-02 1.35660E-02 1.27149E-01-4.74568E-14 3.43137E-13
 -1       232 1.92088E+01 2.55373E-02 7.49592E-03-2.29000E-02-3.31091E-14 3.69284E-13
 -1       233 1.92050E+01 1.40471E-02 3.79333E-03-1.03287E-01-7.75823E-15 3.74384E-13
 -1       234 1.93055E+01 8.80631E-03 1.99114E-03-1.51085E-01 3.84469E-15 3.69852E-13
 -1       235 1.94732E+01 6.67054E-03 1.17283E-03-1.83322E-01-6.49166E-16 3.82855E-13
 -1       236 1.96887E+01 6.33491E-03 7.65930E-04-2.09153E-01-2.21113E-14 3.80037E-13
 -1       237 1.99434E+01 7.03466E-03 5.22940E-04-2.33888E-01 3.11416E-14 3.96125E-13
 -1       238 2.02341E+01 8.12419E-03 3.36115E-04-2.60226E-01 3.32648E-14 3.92938E-13
 -1       239 2.05601E+01 8.88875E-03 1.48255E-04-2.88490E-01 8.03168E-14 3.52969E-13
 -1       240 2.09200E+01 8.40978E-03-7.50929E-05-3.16306E-01 4.45053E-14 3.08676E-13
 -1       241 2.13076E+01 5.46675E-03-3.44003E-04-3.37909E-01-6.74421E-15 2.74513E-13
 -1       242 2.17087E+01-1.47169E-03-6.28070E-04-3.43314E-01 8.55501E-15 3.50057E-13
 -1       243 2.20961E+01-1.40261E-02-8.37191E-04-3.17864E-01-5.03829E-16 3.58547E-13
 -1       244 2.24259E+01-3.32052E-02-8.21941E-04-2.43201E-01-7.26353E-14 2.80091E-13
 -1       245 2.26371E+01-5.79364E-02-4.26032E-04-1.01469E-01 1.61633E-15 4.02030E-13
 -1       246 2.26576E+01-8.28784E-02 3.76402E-04 1.15188E-01 7.35002E-14 2.77484E-13
 -1       247 2.24221E+01-9.66370E-02 1.28082E-03 3.89493E-01 5.98202E-14 1.65036E-13
 -1       248 2.19045E+01-8.32563E-02 1.56889E-03 6.63611E-01 7.53080E-14 2.42871E-13
 -1       249 2.11588E+01-3.05650E-02 5.96911E-04 8.38100E-01-1.03135E-13 2.98268E-13
 -1       250 2.03438E+01 5.48763E-02-1.58434E-03 8.04570E-01 1.00133E-13 2.19122E-13
 -1       251 1.96986E+01 1.39361E-01-3.46425E-03 5.13914E-01-1.33838E-14 2.04576E-13
 -1       252 1.94488E+01 1.77870E-01-3.32672E-03 3.56692E-02-1.08654E-13 1.70891E-13
 -1       253 1.96899E+01 1.47475E-01-9.04917E-04-4.57198E-01 6.77340E-14 2.68003E-13
 -1       254 2.03315E+01 6.63066E-02 2.11404E-03-7.82506E-01 7.14992E-14 1.66519E-13
 -1       255 2.11504E+01-2.07989E-02 3.61455E-03-8.53082E-01-2.78086E-14 2.23381E-13
 -1       256 2.19084E+01-7.78853E-02 3.00500E-03-7.04283E-01-8.61290E-16 1.04014E-13
 -1       257 2.24456E+01-9.54033E-02 1.15864E-03-4.40505E-01 6.33655E-14 9.41565E-15
 -1       258 2.27066E+01-8.38108E-02-6.15532E-04-1.65559E-01 3.02419E-14-6.10892E-14
 -1       259 2.27163E+01-5.92563E-02-1.63829E-03 5.61052E-02-6.86083E-14-5.08079E-14
 -1       260 2.25399E+01-3.38596E-02-1.84473E-03 2.02289E-01-1.38010E-14 1.06195E-14
 -1       261 2.22502E+01-1.35557E-02-1.51866E-03 2.78252E-01 5.07617E-14-6.63612E-14
 -1       262 2.19098E+01 1.88205E-04-9.76516E-04 3.00998E-01 8.81240E-16-1.31688E-13
 -1       263 2.15642E+01 8.16600E-03-4.44732E-04 2.89116E-01 1.09397E-13-7.92127E-14
 -1       264 2.12420E+01 1.19112E-02-3.04726E-05 2.58030E-01-4.46372E-14-2.24889E-13
 -1       265 2.09588E+01 1.29058E-02 2.41951E-04 2.18747E-01-7.23202E-14-3.22431E-13
 -1       266 2.07203E+01 1.23012E-02 3.90849E-04 1.78288E-01-4.26456E-14-1.87446E-13
 -1       267 2.05263E+01 1.08924E-02 4.48706E-04 1.40645E-01 5.18950E-14-3.35425E-13
 -1       268 2.03732E+01 9.18397E-03 4.47204E-04 1.07745E-01-1.13100E-13-3.11163E-14
 -1       269 2.02556E+01 7.47361E-03 4.11444E-04 8.02053E-02-1.55489E-13 3.31225E-14
 -1       270 2.01677E+01 5.92243E-03 3.58873E-04 5.78747E-02-8.77840E-14 2.62137E-13
 -1       271 2.01040E+01 4.60764E-03 2.99744E-04 4.01902E-02 1.70577E-13 1.43847E-13
 -1       272 2.00596E+01 3.55661E-03 2.37807E-04 2.64013E-02 3.87634E-13-1.37417E-13
 -1       273 2.00302E+01 2.76332E-03 1.70993E-04 1.57162E-02 1.80892E-13-7.24616E-14
 -1       274 2.00125E+01 2.16282E-03 1.02880E-04 7.44307E-03 5.46849E-14-5.06674E-14
 -1       275 2.00033E+01 1.66254E-03 9.10334E-05 1.12793E-03 2.59442E-13-1.24504E-13
 -1       276 2.00001E+01 3.82653E-04 2.50423E-04-2.55498E-03-1.47736E-13-2.91522E-13
 -1       277 2.00016E+01 1.75209E-03 9.08077E-05-6.98791E-04-2.74016E-13 2.62231E-13
 -1       278 2.00024E+01 7.18811E-03 7.87618E-06 4.65702E-03-1.67611E-13 2.87830E-13
 -1       279 2.00017E+01 1.66355E-02 1.09111E-05 9.77986E-03-1.41173E-13 2.24926E-13
 -1       280 2.00006E+01 2.91032E-02 1.62053E-07 1.29292E-02-1.22887E-13 3.24436E-13
 -1       281 1.99994E+01 4.21932E-02-2.79615E-05 1.31768E-02 2.17224E-13-3.21108E-13
 -1       282 1.99983E+01 5.39733E-02-5.64282E-05 1.05927E-02 1.41408E-13-3.15785E-13
 -1       283 1.99976E+01 6.19887E-02-7.85549E-05 5.77752E-03-1.40910E-13-1.07728E-13
 -1       284 1.99973E+01 6.47292E-02-8.63617E-05-2.42949E-04 1.48135E-13 8.57019E-14
 -1       285 1.99976E+01 6.16623E-02-7.80652E-05-6.24028E-03 2.03580E-13 6.25223E-13
 -1       286 1.99983E+01 5.33434E-02-5.60465E-05-1.09763E-02 5.31655E-14-1.58444E-14
 -1       287 1.99994E+01 4.15621E-02-2.56272E-05-1.33900E-02 2.49474E-13-5.61395E-13
 -1       288 2.00007E+01 2.81321E-02 3.59763E-07-1.29386E-02 3.64894E-13 2.88987E-13
 -1       289 2.00019E+01 1.57086E-02 1.61362E-05-9.52944E-03 3.92334E-13 3.23188E-13
 -1       290 2.00024E+01 6.50949E-03 6.03380E-06-4.09610E-03 8.12934E-14 7.75302E-14
 -1       291 2.00017E+01 1.47006E-03 6.47777E-06 4.50525E-04 6.52895E-14-1.26348E-13
 -1       292-7.07578E-01-1.02536E+01-9.11951E-01 1.45611E+00 7.31498E-14 4.48419E-13
 -1       293 2.92825E+00-8.24518E+00-7.95113E-01 3.55286E+00 3.56937E-13-5.55112E-16
 -1       294 9.58913E+00-4.51504E+00-4.85722E-01 5.67533E+00 3.12250E-13 7.92505E-13
 -1       295 1.88798E+01-4.31278E-01-7.21273E-02 7.37323E+00 4.14363E-13 7.68857E-13
 -1       296 2.97515E+01 2.68944E+00 3.43841E-01 7.36227E+00 5.74416E-13 4.44395E-13
 -1       297 3.87725E+01 5.10640E+00 6.67262E-01 5.71202E+00 6.02025E-13 2.46747E-13
 -1       298 4.29626E+01 6.78645E+00 7.08011E-01 2.07588E+00 5.09440E-13-1.07817E-13
 -1       299 4.55556E+01 6.80475E+00 9.22511E-01-1.11192E+00 3.64014E-13-2.09027E-13
 -1       300 4.12726E+01 5.90767E+00 7.26535E-01-4.07676E+00 3.36925E-13-3.69177E-13
 -1       301 3.40435E+01 3.83624E+00 4.99628E-01-6.80830E+00 3.46716E-13-3.67928E-13
 -1       302 2.40253E+01 1.29567E+00 1.41115E-01-7.73817E+00 3.32068E-13-5.11480E-13
 -1       303 1.43269E+01-2.38214E+00-2.65578E-01-6.66239E+00 4.70957E-13-2.59043E-13
 -1       304 6.81450E+00-6.29990E+00-5.32821E-01-5.24005E+00 1.76414E-13-4.95586E-13
 -1       305 7.94109E-01-9.58049E+00-8.75084E-01-2.54944E+00 2.89491E-14-3.08448E-13
 -1       306-1.09361E+00-9.49013E+00-7.53392E-01-3.74609E-01-1.95382E-14-2.35451E-13
 -1       307 3.69183E-01-9.70284E+00-8.56760E-01 2.09327E+00-4.18277E-14-3.87329E-14
 -1       308 5.12540E+00-7.26896E+00-7.43510E-01 4.08885E+00-1.12799E-13-4.48955E-14
 -1       309 1.32694E+01-3.26313E+00-3.67944E-01 6.23726E+00-1.25511E-13-4.69930E-13
 -1       310 2.44355E+01-1.07614E-01 6.14045E-02 6.97257E+00-2.11359E-13-5.88724E-13
 -1       311 3.48569E+01 3.71618E+00 5.50143E-01 7.00548E+00-4.54192E-13-5.79925E-13
 -1       312 4.25214E+01 5.80967E+00 7.93124E-01 3.77964E+00-2.95014E-13-4.67487E-13
 -1       313 4.67747E+01 6.86346E+00 1.02122E+00 7.55955E-01-2.93016E-13-2.34222E-13
 -1       314 4.61689E+01 6.30873E+00 1.04750E+00-2.92470E+00-3.50553E-13 1.22957E-14
 -1       315 3.87754E+01 4.59265E+00 6.36302E-01-5.08456E+00-5.09044E-13 2.36061E-13
 -1       316 2.92243E+01 2.16700E+00 3.05837E-01-7.42707E+00-2.69784E-13 6.95999E-13
 -1       317 1.89247E+01-2.03103E+00-1.42650E-01-6.83178E+00-4.99267E-13 5.25524E-13
 -1       318 8.69064E+00-5.38122E+00-5.66084E-01-5.17380E+00-6.67244E-13 3.25365E-13
 -1       319 2.68976E+00-8.30087E+00-7.13423E-01-3.49604E+00-4.77368E-13 2.45776E-13
 -1       320-9.44758E-01-1.09067E+01-9.92890E-01-8.01551E-01-1.75082E-13 7.12541E-13
 -1       321 2.01594E+01 3.02185E+00-1.78807E-02-2.06879E+00 1.45626E-14 8.21912E-14
 -1       322 2.07544E+01 2.20697E+00-1.76523E-02-2.32824E+00 6.92892E-15 7.45255E-14
 -1       323 1.96010E+01 3.72095E+00-1.49695E-02-1.27700E+00 1.17784E-14 4.10574E-14
 -1       324 1.94713E+01 3.88871E+00-1.33727E-02-8.91369E-01 7.00083E-15 5.68035E-14
 -1       325 1.93965E+01 3.98724E+00-1.24334E-02-5.23063E-01 2.60151E-14 8.49282E-14
 -1       326 1.93624E+01 4.03262E+00-1.20093E-02-1.66191E-01 4.51725E-14 9.31169E-14
 -1       327 1.93636E+01 4.03083E+00-1.20326E-02 1.86889E-01 5.15882E-14 1.03729E-13
 -1       328 1.94003E+01 3.98153E+00-1.25078E-02 5.44193E-01 4.24151E-14 9.82860E-14
 -1       329 1.94765E+01 3.88034E+00-1.35673E-02 9.07145E-01 3.72950E-14 1.46586E-13
 -1       330 1.96089E+01 3.70731E+00-1.55364E-02 1.29389E+00 5.94297E-14 1.76535E-13
 -1       331 1.98259E+01 3.42709E+00-1.89498E-02 1.69693E+00 5.13101E-14 1.97302E-13
 -1       332 2.01885E+01 2.95742E+00-2.31631E-02 2.08271E+00 3.07681E-14 2.36694E-13
 -1       333 2.07571E+01 2.10527E+00-2.92875E-02 2.27251E+00 2.62344E-14 2.69324E-13
 -1       334 2.10763E+01 1.18455E+00-2.38885E-02 1.88713E+00 1.76300E-14 2.92393E-13
 -1       335 2.03828E+01 4.96484E-01 7.94561E-03 8.94794E-01-1.24701E-14 2.83356E-13
 -1       336 2.04706E+01 6.81985E-01 1.24915E-02-9.85066E-01 8.89133E-15 6.54392E-14
 -1       337 2.00724E+01 3.49973E-01 7.36129E-03-4.04951E-01-2.58018E-15 7.64234E-14
 -1       338 1.98498E+01 1.96656E-01 4.36330E-03-7.69200E-02-1.40541E-14 1.16411E-13
 -1       339 1.97567E+01 1.19452E-01 2.22187E-03 1.22403E-01 7.52382E-15 1.11123E-13
 -1       340 1.97585E+01 8.08156E-02 1.25856E-03 2.52129E-01 3.25253E-15 9.09204E-14
 -1       341 1.98290E+01 6.46672E-02 8.94867E-04 3.46449E-01-7.56285E-16 7.81147E-14
 -1       342 1.99525E+01 6.31593E-02 8.16144E-04 4.26849E-01 1.43590E-14 8.10736E-14
 -1       343 2.01205E+01 7.19142E-02 8.83060E-04 5.07744E-01 4.41968E-14 1.00742E-13
 -1       344 2.03302E+01 8.78467E-02 1.02803E-03 5.99112E-01-2.11365E-14 8.71247E-14
 -1       345 2.05822E+01 1.07816E-01 1.19427E-03 7.07286E-01 3.78182E-14 1.13661E-13
 -1       346 2.08795E+01 1.27341E-01 1.30542E-03 8.34441E-01-2.50682E-14 1.00478E-13
 -1       347 2.12258E+01 1.38942E-01 1.24404E-03 9.76709E-01-1.99133E-14 1.68612E-13
 -1       348 2.16248E+01 1.29949E-01 8.36845E-04 1.12062E+00 2.32840E-14 1.38629E-13
 -1       349 2.20793E+01 8.01568E-02-1.37170E-04 1.23756E+00-2.23815E-15 6.60595E-14
 -1       350 2.25905E+01-3.87190E-02-1.88452E-03 1.27689E+00-3.83337E-14 5.55892E-14
 -1       351 2.31558E+01-2.56537E-01-4.43433E-03 1.16068E+00-2.19789E-14 4.41214E-14
 -1       352 2.37600E+01-5.80847E-01-7.20645E-03 7.89141E-01 5.31216E-15 1.45734E-13
 -1       353 2.43534E+01-9.45509E-01-8.91605E-03 7.57448E-02-1.98279E-14 9.21407E-14
 -1       354 2.48115E+01-1.14121E+00-8.32618E-03-9.59166E-01 2.47094E-14 1.05541E-13
 -1       355 2.49289E+01-8.29569E-01-7.60015E-03-2.02715E+00 1.90335E-13 2.84521E-14
 -1       356 2.45603E+01 1.81557E-01-1.52694E-02-2.50091E+00 1.58975E-13 1.19309E-13
 -1       357 2.39279E+01 1.48441E+00-2.48385E-02-1.73745E+00-2.23849E-14 2.25595E-13
 -1       358 2.36314E+01 2.06539E+00-2.41265E-02 1.63105E-02-2.11839E-13 3.27570E-13
 -1       359 2.39594E+01 1.43156E+00-2.38159E-02 1.83026E+00-2.34866E-13 1.66867E-13
 -1       360 2.46035E+01 1.09437E-01-1.48358E-02 2.51366E+00-1.95906E-13-2.22359E-14
 -1       361 2.49503E+01-8.68613E-01-9.76338E-03 1.98638E+00-2.52836E-14 1.32354E-13
 -1       362 2.48139E+01-1.13751E+00-9.85250E-03 9.08820E-01-7.04679E-14-4.72859E-14
 -1       363 2.43527E+01-9.20519E-01-9.18570E-03-1.05019E-01 6.55257E-14 1.81011E-13
 -1       364 2.37683E+01-5.52018E-01-7.02696E-03-7.89809E-01-7.96299E-14 4.58828E-14
 -1       365 2.31806E+01-2.30718E-01-4.11733E-03-1.13385E+00-1.09937E-14 2.42907E-14
 -1       366 2.26376E+01-1.70029E-02-1.58020E-03-1.22629E+00 3.73171E-14-1.16164E-13
 -1       367 2.21538E+01 9.92885E-02 1.48672E-04-1.16624E+00 1.60348E-15 1.06107E-13
 -1       368 2.17318E+01 1.48260E-01 1.10316E-03-1.03005E+00-1.50316E-14 1.07890E-13
 -1       369 2.13708E+01 1.57583E-01 1.50016E-03-8.67160E-01-1.23951E-13 3.52698E-13
 -1       370 2.10677E+01 1.46623E-01 1.55422E-03-7.05741E-01 2.31857E-15-2.50044E-14
 -1       371 2.08179E+01 1.27147E-01 1.42899E-03-5.59758E-01 2.06984E-14-9.64256E-14
 -1       372 2.06159E+01 1.05608E-01 1.22902E-03-4.34645E-01 2.48391E-14 1.75999E-13
 -1       373 2.04554E+01 8.52033E-02 1.01355E-03-3.31144E-01 8.48761E-14 4.13008E-13
 -1       374 2.03300E+01 6.72924E-02 8.12308E-04-2.47661E-01 1.65066E-13 5.79968E-13
 -1       375 2.02338E+01 5.22733E-02 6.37814E-04-1.81615E-01 1.58334E-13 6.18940E-13
 -1       376 2.01613E+01 4.00766E-02 4.93123E-04-1.30170E-01-1.27743E-13 4.30009E-13
 -1       377 2.01078E+01 3.04301E-02 3.76658E-04-9.06028E-02-1.88980E-13 2.05951E-13
 -1       378 2.00691E+01 2.30017E-02 2.83024E-04-6.04702E-02-3.71143E-13-5.27059E-14
 -1       379 2.00418E+01 1.74077E-02 2.12610E-04-3.76917E-02-1.36047E-13-3.10329E-13
 -1       380 2.00232E+01 1.30614E-02 1.58550E-04-2.06405E-02 1.83040E-13-1.51518E-13
 -1       381 2.00107E+01 9.20008E-03 1.20143E-04-8.27732E-03 1.81805E-13-1.17371E-13
 -1       382 1.98868E+01 2.38108E-01 7.08730E-03 2.20816E-01-3.32182E-14 2.37527E-13
 -1       383 1.97282E+01 1.31506E-01 3.58091E-03-2.69493E-02-1.87592E-14 2.27319E-13
 -1       384 1.96855E+01 8.08010E-02 1.87299E-03-1.76611E-01-3.80555E-16 2.68808E-13
 -1       385 1.97260E+01 5.51318E-02 1.09180E-03-2.74480E-01 7.36200E-15 2.71192E-13
 -1       386 1.98259E+01 4.38749E-02 7.67196E-04-3.45663E-01-7.37621E-15 2.25641E-13
 -1       387 1.99709E+01 4.10866E-02 6.42476E-04-4.05023E-01-1.96064E-14 2.31555E-13
 -1       388 2.01531E+01 4.26596E-02 5.94688E-04-4.61095E-01 2.26026E-14 2.55160E-13
 -1       389 2.03682E+01 4.48789E-02 5.46436E-04-5.17520E-01 1.04830E-13 2.34315E-13
 -1       390 2.06139E+01 4.35936E-02 4.27198E-04-5.73184E-01 7.23772E-14 2.37721E-13
 -1       391 2.08874E+01 3.36763E-02 1.61822E-04-6.21570E-01-3.88223E-15 1.95306E-13
 -1       392 2.11841E+01 8.82200E-03-3.24987E-04-6.49694E-01-1.01430E-13 2.46073E-13
 -1       393 2.14949E+01-3.79226E-02-1.08709E-03-6.37185E-01-2.11159E-14 2.58260E-13
 -1       394 2.18042E+01-1.12119E-01-2.11356E-03-5.56652E-01-3.85399E-14 2.45173E-13
 -1       395 2.20872E+01-2.13298E-01-3.26853E-03-3.77395E-01-3.24784E-14 1.91008E-13
 -1       396 2.23077E+01-3.27099E-01-4.21418E-03-7.56158E-02 7.70313E-14 1.99212E-13
 -1       397 2.24179E+01-4.16432E-01-4.39810E-03 3.45991E-01 4.00938E-15 2.65376E-13
 -1       398 2.23654E+01-4.19751E-01-3.31232E-03 8.31040E-01-1.08555E-14 3.96612E-13
 -1       399 2.21155E+01-2.70976E-01-1.03897E-03 1.24818E+00-4.57783E-14 4.98930E-13
 -1       400 2.16924E+01 4.87013E-02 1.98507E-03 1.40692E+00 9.42210E-14 3.42744E-13
 -1       401 2.12179E+01 4.49268E-01 4.23556E-03 1.14422E+00 8.09767E-14 3.04594E-13
 -1       402 2.08940E+01 7.38501E-01 5.72287E-03 4.62600E-01-6.31942E-14 1.43563E-13
 -1       403 2.08823E+01 7.51911E-01 5.90265E-03-4.05212E-01-9.90627E-14 1.43597E-13
 -1       404 2.11926E+01 4.77634E-01 4.64766E-03-1.11299E+00 9.55080E-14 3.11905E-13
 -1       405 2.16675E+01 7.86644E-02 1.97752E-03-1.41200E+00 1.01202E-13 1.25273E-13
 -1       406 2.21062E+01-2.50315E-01-1.14311E-03-1.28469E+00 1.17094E-17 1.51056E-13
 -1       407 2.23796E+01-4.11392E-01-3.63781E-03-8.85240E-01 2.99023E-14 1.65818E-13
 -1       408 2.24573E+01-4.15628E-01-4.58286E-03-4.06068E-01-3.06409E-14 2.55623E-13
 -1       409 2.23718E+01-3.28108E-01-4.27380E-03 1.48588E-02 1.65662E-14 1.82690E-13
 -1       410 2.21762E+01-2.12448E-01-3.23770E-03 3.15946E-01-8.66729E-14 1.90676E-13
 -1       411 2.19196E+01-1.07537E-01-2.01129E-03 4.91570E-01 2.99746E-14 2.17866E-13
 -1       412 2.16398E+01-2.90506E-02-9.07083E-04 5.64131E-01 7.82847E-14 3.11504E-13
 -1       413 2.13628E+01 2.16074E-02-8.42416E-05 5.64271E-01 8.70854E-14 2.19724E-13
 -1       414 2.11052E+01 4.94973E-02 4.41744E-04 5.20181E-01 1.00168E-13 2.86629E-13
 -1       415 2.08761E+01 6.12170E-02 7.21048E-04 4.53583E-01 1.03455E-13 1.00915E-13
 -1       416 2.06794E+01 6.26277E-02 8.23353E-04 3.79390E-01-9.21460E-14-3.13466E-14
 -1       417 2.05154E+01 5.81593E-02 8.12983E-04 3.06858E-01-5.89904E-14-1.66011E-13
 -1       418 2.03822E+01 5.08485E-02 7.39693E-04 2.41086E-01-2.15730E-13 4.01292E-14
 -1       419 2.02766E+01 4.26260E-02 6.37996E-04 1.84355E-01-1.38739E-13 2.54326E-13
 -1       420 2.01948E+01 3.46325E-02 5.29835E-04 1.37169E-01-2.28432E-13-7.90382E-15
 -1       421 2.01328E+01 2.74826E-02 4.27968E-04 9.89960E-02 1.21874E-13-1.90464E-13
 -1       422 2.00871E+01 2.14567E-02 3.38303E-04 6.87621E-02 2.74137E-13-2.27522E-14
 -1       423 2.00542E+01 1.66086E-02 2.61873E-04 4.51842E-02 1.53341E-13 1.19616E-13
 -1       424 2.00314E+01 1.28160E-02 1.96876E-04 2.70344E-02-7.11833E-14-2.84715E-14
 -1       425 2.00161E+01 9.64074E-03 1.21521E-04 1.34703E-02 2.82394E-13-8.86296E-14
 -1       426 2.00072E+01 6.23429E-03 8.12684E-05 4.59742E-03 3.10008E-13 1.40398E-13
 -1       427 2.00045E+01 3.54034E-02 3.69780E-05 2.34038E-02 2.96074E-14 3.62165E-13
 -1       428 2.00081E+01 2.16708E-02 6.70233E-05 1.71949E-02-8.04795E-14 3.04907E-13
 -1       429 2.00000E+01 4.96554E-02 1.41423E-06 2.53858E-02-2.72232E-14 1.69882E-13
 -1       430 1.99954E+01 6.28771E-02-3.60490E-05 2.25338E-02-4.16689E-14-4.11962E-13
 -1       431 1.99919E+01 7.29614E-02-6.69503E-05 1.53583E-02 3.15685E-15-4.58870E-13
 -1       432 1.99900E+01 7.84173E-02-8.38205E-05 5.25238E-03-1.06326E-13 2.76016E-13
 -1       433 1.99900E+01 7.84167E-02-8.36515E-05-5.88049E-03 4.29674E-14 1.94231E-13
 -1       434 1.99920E+01 7.29290E-02-6.60778E-05-1.59467E-02-2.14601E-13 1.10026E-13
 -1       435 1.99956E+01 6.29683E-02-3.54407E-05-2.29156E-02-2.39197E-13-3.07916E-13
 -1       436 2.00002E+01 4.96577E-02-4.51261E-07-2.56153E-02 1.50424E-13 4.47894E-13
 -1       437 2.00049E+01 3.50436E-02 3.25327E-05-2.33270E-02 2.46486E-13 1.60256E-13
 -1       438 2.00083E+01 2.11939E-02 4.39396E-05-1.66441E-02 1.95110E-13 4.17472E-14
 -1       439 2.00618E+01 3.35977E-01 1.06235E-02 4.97190E-01-2.34721E-14 2.79109E-13
 -1       440 1.09899E+01-5.37783E+00-1.49140E-02 7.10236E+00 1.08677E-13 3.69538E-13
 -1       441 2.68098E+01-3.02388E+00-4.81848E-03 4.26482E+00 3.96905E-15-1.48770E-13
 -1       442 1.02865E+00-4.47473E+00-7.90301E-02 2.84816E-01-7.05365E-14 8.29531E-13
 -1       443 1.91768E+01-5.10802E+00-1.84736E-02 6.70683E+00-7.84234E-14 4.13863E-13
 -1       444 1.98060E+01 3.45741E+00-2.07396E-02-1.68358E+00 1.83352E-14 5.66799E-14
 -1       445 3.22912E+01 1.41234E+00 4.09217E-02 1.68556E+00 2.85615E-13-2.10804E-13
 -1       446 3.47905E+01 5.44851E+00 3.63572E-02 1.02755E-01 5.84033E-13-2.71436E-13
 -1       447 3.57179E+01 8.03282E+00 3.43070E-02 2.61909E-02 4.55469E-13-2.76199E-13
 -1       448 3.39065E+01 7.13716E+00-3.40524E-02 5.42751E-01 2.39003E-13-6.98538E-14
 -1       449 3.31654E+01 3.08146E+00-1.32028E-02-3.88565E-01 1.25518E-13 2.84633E-14
 -1       450 2.95580E+01-1.21489E+00 1.62844E-03-3.05264E+00 9.77621E-14-4.85584E-14
 -1       451 2.34756E+01-4.34123E+00-8.16246E-03-5.59232E+00 1.35725E-14-1.36044E-13
 -1       452 1.63470E+01-5.39371E+00 3.20932E-04-7.12959E+00-5.44009E-15-1.26552E-13
 -1       453 7.18401E+00-4.96266E+00-1.22381E-02-6.25845E+00-1.41720E-13-4.21954E-13
 -1       454 2.64721E+00-3.96222E+00 1.10779E-02-3.22979E+00-5.61912E-14-2.03185E-13
 -1       455 1.87565E+00-4.31429E+00-4.04811E-02 2.11343E+00 6.21864E-14-6.36713E-14
 -1       456 6.80446E+00-5.05955E+00-2.66549E-02 5.80387E+00 3.02258E-14-7.04298E-14
 -1       457 1.38458E+01-5.80577E+00-7.65842E-02 6.85682E+00 2.16493E-14-3.75351E-13
 -1       458 2.27490E+01-5.06075E+00-3.71426E-02 5.63854E+00 1.86656E-13-3.67123E-13
 -1       459 3.06438E+01-1.26111E+00 5.00292E-02 2.79934E+00 5.68295E-15-8.39051E-14
 -1       460 3.45362E+01 2.86976E+00 4.87639E-02 4.34073E-01-2.00250E-13-3.88856E-14
 -1       461 3.55485E+01 7.01370E+00 2.31974E-02-5.71673E-01-3.29653E-13-2.13982E-13
 -1       462 3.59464E+01 7.76213E+00 3.51817E-02 2.56823E-01-4.95493E-13-2.21836E-13
 -1       463 3.55955E+01 5.51472E+00 6.68925E-02 4.72669E-01-4.23050E-13-1.69129E-13
 -1       464 3.22679E+01 3.81880E-02-1.46703E-02-1.10266E+00-2.01106E-13-2.64927E-14
 -1       465 2.76728E+01-3.47364E+00 2.08580E-02-3.84819E+00-3.28765E-14 2.54213E-13
 -1       466 1.80590E+01-5.66843E+00-5.93308E-02-6.62653E+00-2.53075E-13 2.54657E-14
 -1       467 1.03244E+01-5.60518E+00-4.68243E-02-6.64759E+00-1.32769E-13 2.84425E-14
 -1       468 2.97146E+00-4.99819E+00-1.05640E-01-3.71039E+00-2.12413E-13 5.91902E-13
 -1       469 4.34844E+00-4.48170E+00-1.04623E-02 4.90461E+00-1.48756E-13 1.80342E-13
 -1       470 3.16040E+01 6.86393E+00-1.18321E-01-9.59522E-01 6.06251E-13-3.12965E-13
 -1       471 1.97294E+01 3.17226E+00-5.25904E-03-5.98870E-01 1.46179E-14 7.52601E-14
 -1       472 1.98350E+01 2.98619E+00-5.73720E-03-9.03157E-01 1.85927E-14 4.07680E-14
 -1       473 1.96515E+01 3.30620E+00-4.90862E-03 8.36127E-03 3.14896E-14 9.92209E-14
 -1       474 1.96725E+01 3.26984E+00-4.99817E-03 3.11180E-01 2.82878E-14 1.00088E-13
 -1       475 1.97334E+01 3.16427E+00-5.32960E-03 6.10396E-01 3.66128E-14 1.27628E-13
 -1       476 1.98416E+01 2.97329E+00-5.87620E-03 9.13691E-01 5.06056E-14 1.69273E-13
 -1       477 2.00067E+01 2.67156E+00-6.52032E-03 1.20225E+00 3.72421E-14 1.70410E-13
 -1       478 2.02415E+01 2.21656E+00-5.74721E-03 1.43624E+00 3.19544E-14 2.00079E-13
 -1       479 2.04925E+01 1.55600E+00-3.17896E-03 1.49592E+00 2.21316E-14 2.33428E-13
 -1       480 2.05424E+01 9.96336E-01 3.28651E-03 1.25818E+00-2.60209E-17 2.41620E-13
 -1       481 2.03720E+01 9.98975E-01 3.07387E-03-8.81003E-01 1.18732E-14 8.52141E-14
 -1       482 1.77342E+01-5.23323E+00 7.93802E-02 6.75987E+00-2.22759E-13 2.24208E-13
 -1       483 2.42788E+01-5.21345E+00 3.63349E-03 4.38668E+00-1.83506E-13-1.81744E-13
 -1       484 2.02188E+01 5.79293E-01 1.91576E-03-3.83640E-01-4.46404E-15 6.56707E-14
 -1       485 2.00961E+01 3.56693E-01 1.16004E-03-5.07210E-02-2.98669E-15 6.09406E-14
 -1       486 2.00283E+01 2.34129E-01 6.15620E-04 1.74080E-01 5.10423E-15 7.46975E-14
 -1       487 2.00119E+01 1.71718E-01 3.88748E-04 3.33872E-01-5.77600E-15 9.26935E-14
 -1       488 2.00385E+01 1.47801E-01 3.25821E-04 4.59340E-01-3.17036E-14 9.53786E-14
 -1       489 2.01000E+01 1.50312E-01 3.41388E-04 5.71959E-01 2.02263E-14 3.28775E-14
 -1       490 2.01909E+01 1.71475E-01 4.00900E-04 6.87122E-01 1.54690E-14 2.77828E-14
 -1       491 2.03076E+01 2.04816E-01 4.83545E-04 8.15524E-01 2.94708E-14 3.80796E-14
 -1       492 2.04489E+01 2.42872E-01 5.65181E-04 9.63497E-01 1.77890E-14 2.26927E-14
 -1       493 2.06159E+01 2.74662E-01 6.07945E-04 1.13228E+00 4.26223E-14 9.08434E-14
 -1       494 2.08138E+01 2.82421E-01 5.49987E-04 1.31608E+00 1.75634E-14 9.38563E-14
 -1       495 2.10548E+01 2.37590E-01 2.97255E-04 1.49866E+00-4.10980E-14 7.49831E-14
 -1       496 2.13637E+01 9.73940E-02-2.71766E-04 1.64797E+00-2.38275E-14 1.09994E-13
 -1       497 2.17850E+01-1.93451E-01-1.28490E-03 1.70848E+00-3.70507E-14 1.41747E-13
 -1       498 2.23858E+01-6.84472E-01-2.83561E-03 1.59148E+00 7.54601E-14 7.30262E-14
 -1       499 2.32370E+01-1.36196E+00-4.24460E-03 1.17113E+00-3.87514E-14 6.34270E-14
 -1       500 2.43501E+01-2.03873E+00-5.42269E-03 3.07497E-01-9.34365E-15 1.19259E-13
 -1       501 2.55398E+01-2.19737E+00-8.70789E-03-1.02620E+00 2.11718E-13 8.55349E-14
 -1       502 2.62828E+01-1.10823E+00-3.17515E-02-2.38502E+00 1.87890E-13 2.13367E-13
 -1       503 2.62300E+01 1.43870E+00-8.04421E-02-2.75005E+00 1.87725E-13 1.66160E-13
 -1       504 2.58685E+01 3.71392E+00-9.93863E-02-1.26463E+00-9.15518E-14 2.30142E-13
 -1       505 2.58288E+01 3.64873E+00-9.76342E-02 1.34054E+00-3.88009E-13 2.28017E-13
 -1       506 2.62099E+01 1.26844E+00-7.63024E-02 2.85659E+00-3.70863E-13 2.59601E-13
 -1       507 2.63110E+01-1.19862E+00-2.76571E-02 2.35239E+00-1.36662E-13 1.59391E-13
 -1       508 2.54736E+01-2.19787E+00-8.27313E-03 9.43862E-01-1.03172E-13 2.36184E-13
 -1       509 2.42923E+01-1.98974E+00-2.51412E-03-3.55513E-01 1.42801E-14 1.47147E-13
 -1       510 2.31997E+01-1.30236E+00-2.48951E-03-1.17973E+00 8.68450E-14 1.89395E-13
 -1       511 2.23733E+01-6.29383E-01-1.96551E-03-1.56387E+00-8.60729E-14 2.91975E-13
 -1       512 2.17968E+01-1.47713E-01-1.01544E-03-1.65088E+00-2.03404E-13 2.98249E-13
 -1       513 2.13971E+01 1.36520E-01-2.00362E-04-1.56546E+00 2.15412E-14 1.96742E-13
 -1       514 2.11085E+01 2.73797E-01 2.91301E-04-1.39364E+00 3.08850E-14 1.01040E-13
 -1       515 2.08877E+01 3.18330E-01 5.32198E-04-1.18939E+00 2.21791E-15-1.34990E-13
 -1       516 2.07106E+01 3.11241E-01 6.03202E-04-9.84199E-01-1.37783E-13-1.33433E-14
 -1       517 2.05646E+01 2.79265E-01 5.79460E-04-7.94844E-01-9.85777E-14 1.61227E-14
 -1       518 2.04433E+01 2.38127E-01 5.11371E-04-6.28926E-01 2.41474E-13-2.40873E-13
 -1       519 2.03429E+01 1.96313E-01 4.28881E-04-4.88595E-01 2.00289E-13 7.24247E-14
 -1       520 2.02610E+01 1.57954E-01 3.47933E-04-3.72970E-01 2.20194E-13 1.38399E-13
 -1       521 2.01950E+01 1.24725E-01 2.75720E-04-2.79648E-01 1.88037E-13 3.02739E-14
 -1       522 2.01429E+01 9.70002E-02 2.15071E-04-2.05610E-01-1.02040E-15 4.49307E-14
 -1       523 2.01023E+01 7.45150E-02 1.65585E-04-1.47729E-01-2.82266E-13 2.29864E-13
 -1       524 2.00712E+01 5.66794E-02 1.21610E-04-1.03077E-01-4.47032E-13-3.59056E-15
 -1       525 2.00477E+01 4.29126E-02 9.39593E-05-6.90436E-02-2.28657E-13 1.13978E-13
 -1       526 2.00302E+01 3.23498E-02 1.16954E-04-4.35122E-02 7.90045E-14 5.70053E-14
 -1       527 2.00178E+01 2.71859E-02 7.60241E-05-2.83820E-02 9.95841E-14 7.47437E-14
 -1       528 1.99768E+01 1.73429E-01 5.90062E-04-2.38832E-01 4.00846E-15 1.90498E-13
 -1       529 2.00197E+01 2.62307E-01 1.12622E-03-5.75722E-02-7.16464E-15 1.82807E-13
 -1       530 2.01237E+01 4.23973E-01 1.22800E-03 2.14422E-01-1.47411E-14 1.91358E-13
 -1       531 1.99855E+01 1.27321E-01 3.77569E-04-3.67506E-01-8.01015E-15 1.95788E-13
 -1       532 2.00358E+01 1.07206E-01 3.00140E-04-4.67602E-01 1.83612E-15 2.23519E-13
 -1       533 2.01202E+01 1.02332E-01 2.77680E-04-5.54560E-01 1.39160E-14 2.02561E-13
 -1       534 2.02342E+01 1.04148E-01 2.70404E-04-6.37305E-01 2.75801E-14 1.96086E-13
 -1       535 2.03758E+01 1.04192E-01 2.47721E-04-7.18962E-01 7.29174E-14 2.71981E-13
 -1       536 2.05453E+01 9.27278E-02 1.76411E-04-7.96664E-01 4.93143E-14 2.80707E-13
 -1       537 2.07449E+01 5.79277E-02 1.84168E-05-8.60689E-01-1.37763E-14 3.56493E-13
 -1       538 2.09784E+01-1.40209E-02-2.65554E-04-8.93236E-01-2.33381E-14 2.49055E-13
 -1       539 2.12504E+01-1.36856E-01-7.02324E-04-8.67463E-01-4.75991E-14 2.31693E-13
 -1       540 2.15641E+01-3.18442E-01-1.27988E-03-7.47994E-01-8.16475E-14 2.66394E-13
 -1       541 2.19153E+01-5.48982E-01-1.92479E-03-4.95434E-01-1.05003E-14 2.75110E-13
 -1       542 2.22813E+01-7.82593E-01-2.38442E-03-7.97474E-02 3.20297E-14 3.67702E-13
 -1       543 2.26067E+01-9.20251E-01-2.17326E-03 4.91588E-01-9.04375E-14 2.87466E-13
 -1       544 2.27987E+01-8.15683E-01-1.16838E-03 1.13072E+00-6.60238E-14 3.15289E-13
 -1       545 2.27578E+01-3.40769E-01-8.25510E-04 1.63141E+00 9.30370E-14 3.39411E-13
 -1       546 2.24678E+01 4.72208E-01-9.55387E-04 1.69831E+00 8.72595E-14 3.36006E-13
 -1       547 2.20902E+01 1.30723E+00-1.84355E-03 1.12006E+00 6.78593E-14 4.57934E-13
 -1       548 2.19083E+01 1.68161E+00-1.35012E-03 4.29037E-02-8.84084E-14 3.64424E-13
 -1       549 2.20720E+01 1.35690E+00-6.05987E-04-1.06497E+00-5.58633E-14 1.96324E-13
 -1       550 2.24466E+01 5.43510E-01-2.38036E-04-1.68878E+00 1.36208E-13 1.22970E-13
 -1       551 2.27531E+01-2.80340E-01-5.34829E-04-1.67057E+00 4.32637E-14 2.31927E-13
 -1       552 2.28200E+01-7.83936E-01-2.00261E-03-1.19931E+00 6.09934E-15 3.61127E-14
 -1       553 2.26502E+01-9.11239E-01-2.36899E-03-5.68637E-01-7.16378E-14 2.05595E-13
 -1       554 2.23393E+01-7.82514E-01-2.25743E-03 2.93006E-03 1.22331E-13 2.62086E-13
 -1       555 2.19844E+01-5.48432E-01-1.79281E-03 4.18981E-01-1.52358E-13 1.47000E-13
 -1       556 2.16440E+01-3.12220E-01-1.25046E-03 6.68832E-01-7.95288E-14 2.38405E-13
 -1       557 2.13424E+01-1.22338E-01-6.69718E-04 7.80414E-01 2.21056E-14 4.01710E-13
 -1       558 2.10851E+01 8.71790E-03-2.12185E-04 7.92886E-01 7.22182E-14 3.58675E-13
 -1       559 2.08691E+01 8.73525E-02 9.75009E-05 7.42699E-01-2.14974E-14 4.24277E-13
 -1       560 2.06892E+01 1.26355E-01 2.75851E-04 6.58411E-01 2.11694E-13 1.72761E-13
 -1       561 2.05403E+01 1.38533E-01 3.56064E-04 5.60226E-01 1.12204E-13 1.07130E-13
 -1       562 2.04181E+01 1.34273E-01 3.71542E-04 4.61266E-01-1.72972E-13 4.07921E-13
 -1       563 2.03187E+01 1.21102E-01 3.48939E-04 3.69265E-01-2.49972E-13 6.53366E-13
 -1       564 2.02390E+01 1.04063E-01 3.07193E-04 2.88158E-01-3.07097E-13 5.01358E-13
 -1       565 2.01759E+01 8.63091E-02 2.58731E-04 2.19356E-01 1.22799E-15 4.64813E-13
 -1       566 2.01268E+01 6.96648E-02 2.10868E-04 1.62707E-01 1.61705E-14 4.17075E-15
 -1       567 2.00891E+01 5.50701E-02 1.68114E-04 1.17176E-01 6.87316E-14 1.14580E-13
 -1       568 2.00606E+01 4.28938E-02 1.34357E-04 8.13003E-02 2.20976E-13 1.24949E-13
 -1       569 2.00393E+01 3.30346E-02 1.05091E-04 5.35336E-02 1.02570E-13 3.70586E-13
 -1       570 2.00235E+01 2.51912E-02 9.32715E-05 3.23886E-02 3.35626E-13 2.26046E-13
 -1       571 1.99941E+01 7.38902E-02-9.87532E-06 3.73406E-02-1.18274E-13-1.75393E-13
 -1       572 2.00038E+01 5.69461E-02-6.28400E-06 3.91998E-02-3.00423E-15 2.85278E-13
 -1       573 2.00127E+01 3.87555E-02 1.51461E-05 3.46720E-02 7.21743E-14 1.62377E-13
 -1       574 5.27647E+00-1.42533E+00 1.71876E-01 2.66146E+00-1.95864E-13 4.91385E-13
 -1       575 1.99855E+01 8.80855E-02-2.60591E-05 2.90729E-02-2.62944E-14-2.78049E-13
 -1       576 1.99796E+01 9.74510E-02-3.56155E-05 1.57928E-02-6.10391E-14-2.04376E-13
 -1       577 1.99776E+01 1.00852E-01-3.91072E-05-2.33320E-04-2.77041E-13 2.08129E-13
 -1       578 1.99797E+01 9.78063E-02-3.51122E-05-1.62932E-02-3.19140E-13 2.62850E-13
 -1       579 1.99856E+01 8.88531E-02-2.51131E-05-2.94166E-02-1.40306E-13-1.66043E-13
 -1       580 1.99944E+01 7.47648E-02-1.11838E-05-3.77272E-02-9.41009E-14-2.56012E-13
 -1       581 2.00045E+01 5.73230E-02-1.25264E-05-3.94960E-02-2.78412E-13 2.55221E-13
 -1       582 2.00123E+01 4.19870E-02 2.51769E-05-3.59241E-02 6.53919E-14 1.58557E-13
 -1       583 2.04109E+01 1.78585E+00-5.64637E-03-1.49544E+00 7.62259E-15 9.04961E-14
 -1       584 2.90650E+01-2.11340E+00-5.72219E-02 7.82474E-01 9.89911E-14-1.62308E-13
 -1       585 4.74542E+00-1.69898E+00 1.64117E-01-2.05907E+00-1.20969E-13 8.11629E-13
 -1       586 9.15562E+00-3.31439E+00 1.30259E-01-5.76778E+00-1.58588E-13 5.56638E-14
 -1       587 3.11585E+01 7.06549E+00-1.48634E-01-4.15082E-01-3.51483E-13-1.81851E-14
 -1       588 2.70667E+01-4.07657E+00-2.44573E-02-2.55029E+00-9.95315E-14 8.36692E-14
 -1       589 1.96699E+01 3.27487E+00-4.99086E-03-2.94446E-01 3.28653E-14 1.00656E-13
 -1       590 6.89257E+00-2.28114E+00 1.53378E-01 4.34033E+00-1.51337E-14 6.32827E-15
 -1       591 3.05075E+01 2.39198E+00-1.19934E-01-1.31737E+00 4.10630E-13-2.38073E-13
 -1       592 2.90670E+01 7.12322E+00-1.91238E-01 3.58840E-01 1.91902E-13-3.33240E-15
 -1       593 2.94301E+01 3.97735E+00-1.61938E-01 1.94267E+00 8.16708E-14 3.46570E-13
 -1       594 2.97746E+01-5.35364E-01-9.58702E-02 3.27713E-01 8.15494E-14 1.60448E-13
 -1       595 2.17994E+01-5.49912E+00 4.04183E-02-5.63144E+00-8.50708E-14 4.71394E-14
 -1       596 1.39262E+01-4.56975E+00 9.89286E-02-7.02590E+00-2.00333E-13-1.80793E-13
 -1       597 8.58968E+00-1.91979E+00 1.78319E-01-5.02480E+00-1.02772E-13-2.75509E-13
 -1       598 1.68188E+01-5.27203E+00 8.18667E-02-6.66485E+00-5.11119E-14-4.88255E-14
 -1       599 4.83146E+00-1.07862E+00 1.87576E-01-4.05215E-01 1.08628E-14-1.45925E-13
 -1       600 1.38306E+01-4.61803E+00 1.15801E-01 6.74153E+00 1.62245E-13-1.94421E-13
 -1       601 2.05264E+01-5.75416E+00 3.81631E-02 5.89511E+00 2.40474E-13-1.67196E-13
 -1       602 2.77646E+01-4.60199E+00-1.05711E-02 1.79051E+00 2.35829E-13 1.95746E-13
 -1       603 3.08661E+01-6.66233E-01-8.77743E-02-7.88560E-01 6.21309E-14 3.01772E-13
 -1       604 3.12581E+01 3.89022E+00-1.50447E-01-2.07867E+00 7.71605E-15 1.33137E-13
 -1       605 3.07615E+01 5.83511E+00-1.61623E-01 1.64503E+00-4.55969E-13-3.46313E-13
 -1       606 3.03130E+01 1.51066E+00-1.48279E-01 2.37230E+00-2.69430E-13-3.02640E-13
 -1       607 2.90473E+01-3.24184E+00-8.07197E-02-7.58956E-02-1.12449E-13-4.44714E-14
 -1       608 2.45976E+01-5.59298E+00 2.58552E-02-3.99594E+00-1.09635E-14-4.17756E-14
 -1       609 1.10001E+01-3.14480E+00 1.56810E-01 6.37220E+00-6.83550E-14 2.86299E-13
 -1       610 1.99954E+01 2.70172E+00-6.55779E-03-1.19986E+00 1.08487E-14 4.14846E-14
 -1       611 2.02916E+01 6.67627E-01 6.36932E-03 7.45193E-01-3.01413E-14 2.24998E-13
 -1       612 2.01806E+01 5.23950E-01 3.59486E-03 4.50030E-01-1.35945E-14 2.05117E-13
 -1       613 2.88130E+01 4.22762E+00-1.50631E-01-1.96573E+00 5.25316E-13-1.73542E-13
 -1       614 1.99354E+01 2.55175E+00-1.58344E-03 3.57259E-01 1.21791E-14 1.27368E-13
 -1       615 1.98962E+01 2.63492E+00-1.48976E-03 1.22472E-01 9.06570E-15 9.01403E-14
 -1       616 2.01236E+01 2.11476E+00-1.77881E-03 7.83284E-01 3.00388E-14 1.57632E-13
 -1       617 2.02589E+01 1.72996E+00-1.99540E-03 9.30973E-01 2.09093E-14 1.82829E-13
 -1       618 2.03894E+01 1.04579E+00 3.49407E-03 9.51412E-01-1.66651E-14 1.98801E-13
 -1       619 2.81823E+01-4.88652E-01-8.92780E-02-1.36332E+00 2.30642E-13-2.48135E-13
 -1       620 1.68543E+01-3.56669E+00 8.13476E-02 5.84714E+00-2.14474E-13-9.82096E-14
 -1       621 7.41892E+00 2.99824E-03 1.54034E-01-9.23254E-05-2.56424E-13 6.92092E-13
 -1       622 2.79743E+01-1.31317E+00-6.75542E-02 2.16544E+00-2.67668E-13 8.74596E-14
 -1       623 2.02778E+01 7.41157E-01-5.93031E-04-2.79814E-01 2.13736E-14 6.55742E-14
 -1       624 2.02170E+01 4.93372E-01 2.88031E-04 1.63594E-02-1.69313E-14 1.11371E-13
 -1       625 2.01652E+01 3.48472E-01 1.15710E-04 2.32682E-01-9.76775E-15 7.71560E-14
 -1       626 2.01315E+01 2.75590E-01 8.91197E-05 3.98934E-01-3.56067E-14 2.44843E-14
 -1       627 2.01148E+01 2.52928E-01 9.18546E-05 5.37893E-01 3.16997E-16 6.86530E-14
 -1       628 2.01119E+01 2.66262E-01 1.10108E-04 6.68057E-01 5.96361E-14 1.51122E-13
 -1       629 2.01185E+01 3.04845E-01 1.38718E-04 8.03326E-01 2.10409E-14 1.56898E-13
 -1       630 2.01311E+01 3.58412E-01 1.73927E-04 9.53613E-01 4.09604E-14 1.07578E-13
 -1       631 2.01475E+01 4.14202E-01 2.10038E-04 1.12507E+00 4.59623E-15 1.12270E-13
 -1       632 2.01694E+01 4.53384E-01 2.35916E-04 1.31990E+00 3.10391E-14 1.02084E-13
 -1       633 2.02062E+01 4.46433E-01 2.31116E-04 1.53573E+00 1.45714E-14 1.17655E-13
 -1       634 2.02824E+01 3.47646E-01 1.67616E-04 1.76404E+00 2.89770E-14 1.23171E-13
 -1       635 2.04496E+01 9.07151E-02 4.39907E-05 1.98644E+00-8.78463E-15 1.86531E-13
 -1       636 2.08024E+01-4.08599E-01-7.86748E-05 2.16489E+00-8.67177E-14 1.61732E-13
 -1       637 2.14922E+01-1.22523E+00-3.94323E-04 2.21480E+00 4.08972E-14 4.66249E-14
 -1       638 2.27095E+01-2.32862E+00 1.18567E-03 1.97122E+00 7.97932E-15 8.30471E-14
 -1       639 2.45848E+01-3.38727E+00-4.49957E-03 1.11716E+00 1.02232E-13 2.29010E-13
 -1       640 2.68290E+01-3.38459E+00-4.31245E-02-5.66240E-01 2.48015E-13 2.18594E-13
 -1       641 2.84755E+01 3.79484E+00-1.48892E-01-2.35560E+00 6.60999E-14 1.88159E-13
 -1       642 2.81377E+01 5.77234E+00-1.88261E-01-6.51949E-02-2.30579E-13 1.18655E-13
 -1       643 2.63122E+01-3.19212E+00-4.67845E-03 3.83236E-01-4.46422E-14 5.24485E-14
 -1       644 2.42762E+01-3.00582E+00-1.82355E-04-1.08704E+00 4.08564E-14 4.30438E-14
 -1       645 2.26368E+01-1.97921E+00-4.79001E-04-1.83268E+00 3.58894E-14 1.98609E-13
 -1       646 2.15650E+01-9.73841E-01-9.01732E-04-2.05596E+00-4.64327E-14-9.76989E-14
 -1       647 2.09473E+01-2.54672E-01-3.64926E-04-2.00434E+00-8.48380E-14 8.24721E-15
 -1       648 2.06165E+01 1.76070E-01 1.44802E-04-1.82613E+00-2.67076E-14 9.11085E-14
 -1       649 2.04441E+01 3.92152E-01 3.38994E-04-1.59758E+00 6.05493E-15 1.45042E-13
 -1       650 2.03504E+01 4.70519E-01 4.01024E-04-1.35792E+00-1.74439E-13-3.36793E-14
 -1       651 2.02921E+01 4.69741E-01 3.81609E-04-1.12795E+00 1.24329E-13-3.19098E-13
 -1       652 2.02484E+01 4.28696E-01 3.30990E-04-9.18521E-01 6.74486E-14 5.35883E-14
 -1       653 2.02107E+01 3.70983E-01 2.72530E-04-7.34674E-01-3.06307E-14 1.45000E-13
 -1       654 2.01762E+01 3.09906E-01 2.17089E-04-5.77772E-01 3.95219E-13-2.47322E-13
 -1       655 2.01446E+01 2.52358E-01 1.69319E-04-4.46913E-01 1.76871E-13-3.99419E-13
 -1       656 2.01162E+01 2.01463E-01 1.30096E-04-3.39892E-01 8.69387E-14-3.63156E-13
 -1       657 2.00914E+01 1.58237E-01 9.87954E-05-2.53863E-01 1.93049E-13-3.46480E-13
 -1       658 2.00703E+01 1.22599E-01 7.53798E-05-1.85786E-01-2.18158E-14-2.70465E-13
 -1       659 2.00527E+01 9.39194E-02 5.41247E-05-1.32644E-01-4.18893E-13-4.10599E-14
 -1       660 2.00382E+01 7.13117E-02 3.85263E-05-9.19233E-02-1.95463E-13 1.54902E-13
 -1       661 2.00262E+01 5.37085E-02 3.71121E-05-6.10358E-02-1.40868E-13 3.81750E-13
 -1       662 2.00183E+01 4.78690E-02-2.73837E-05-4.73797E-02-1.61215E-13 1.79933E-13
 -1       663 2.01728E+01 3.83507E-01 2.36193E-04-1.13875E-01 6.88516E-15 1.26798E-13
 -1       664 2.01325E+01 2.71494E-01 1.27039E-04-2.98123E-01-4.82175E-16 1.18948E-13
 -1       665 2.02346E+01 5.79077E-01 5.69229E-04 1.40575E-01-6.02674E-15 1.48208E-13
 -1       666 2.01229E+01 1.88887E-01 8.74708E-05-5.55202E-01 6.72466E-15 1.62242E-13
 -1       667 2.01505E+01 1.84085E-01 8.93864E-05-6.61203E-01-2.82024E-14 2.21749E-13
 -1       668 2.01988E+01 1.85473E-01 9.09781E-05-7.64738E-01-9.07333E-15 2.18525E-13
 -1       669 2.02699E+01 1.78992E-01 8.37311E-05-8.68336E-01 5.61585E-14 2.44950E-13
 -1       670 2.03698E+01 1.48115E-01 5.56374E-05-9.68579E-01-6.55992E-14 2.67258E-13
 -1       671 2.05094E+01 7.29989E-02-1.03618E-05-1.05508E+00-1.26787E-14 2.95932E-13
 -1       672 2.07056E+01-6.87441E-02-1.35625E-04-1.10887E+00 1.84624E-14 2.22394E-13
 -1       673 2.09818E+01-2.97833E-01-3.35541E-04-1.10034E+00-5.00967E-14 1.21781E-13
 -1       674 2.13645E+01-6.22620E-01-6.07757E-04-9.87320E-01-9.29306E-14 1.88770E-13
 -1       675 2.18719E+01-1.01747E+00-1.00885E-03-7.15551E-01-3.34851E-14 2.26717E-13
 -1       676 2.24873E+01-1.38707E+00-1.39585E-03-2.31470E-01-8.33360E-14 3.75905E-13
 -1       677 2.31245E+01-1.53753E+00-1.18365E-03 4.77352E-01-6.05437E-14 3.67900E-13
 -1       678 2.36047E+01-1.19138E+00-1.87471E-03 1.30179E+00-5.09115E-14 3.63391E-13
 -1       679 2.37153E+01-1.36327E-01-8.67615E-03 1.91814E+00 6.45575E-14 3.95614E-13
 -1       680 2.34353E+01 1.41349E+00-1.12419E-02 1.85173E+00-3.70925E-14 4.10558E-13
 -1       681 2.30175E+01 2.70551E+00-2.70717E-02 8.11637E-01 1.63213E-13 3.82145E-13
 -1       682 2.30394E+01 2.72457E+00-1.53193E-02-7.03414E-01 5.87304E-14 1.84434E-13
 -1       683 2.33973E+01 1.53863E+00-1.38297E-02-1.79856E+00-4.68636E-15 3.83950E-14
 -1       684 2.37097E+01-2.65113E-02-7.90993E-03-1.95120E+00 2.01974E-14 8.98855E-15
 -1       685 2.36298E+01-1.12428E+00-5.66245E-03-1.38230E+00 7.75904E-14 1.24996E-13
 -1       686 2.31771E+01-1.51997E+00-2.70606E-03-5.65008E-01-1.30996E-13 1.41552E-13
 -1       687 2.25468E+01-1.38741E+00-8.96856E-04 1.49366E-01 5.67252E-14 1.00602E-13
 -1       688 2.19300E+01-1.01778E+00-1.72583E-04 6.37335E-01 5.23139E-14 1.78796E-13
 -1       689 2.14190E+01-6.16309E-01-3.42373E-04 9.07932E-01-1.60715E-13-1.12914E-13
 -1       690 2.10324E+01-2.78716E-01-1.52320E-04 1.01433E+00-1.27373E-13-2.39291E-13
 -1       691 2.07542E+01-3.65360E-02-1.91510E-05 1.00977E+00-4.47581E-14-1.48657E-13
 -1       692 2.05578E+01 1.16097E-01 7.32830E-05 9.38346E-01-1.03768E-13 2.89325E-13
 -1       693 2.04188E+01 1.98426E-01 1.24703E-04 8.31621E-01 2.23955E-13 3.36099E-13
 -1       694 2.03186E+01 2.31310E-01 1.44796E-04 7.11017E-01 6.09994E-14 6.27006E-13
 -1       695 2.02446E+01 2.32454E-01 1.45173E-04 5.90332E-01-1.95921E-13 7.41181E-13
 -1       696 2.01885E+01 2.15200E-01 1.34059E-04 4.77837E-01-3.30843E-13 6.39469E-13
 -1       697 2.01452E+01 1.88838E-01 1.17052E-04 3.77908E-01-1.59048E-13 7.51932E-13
 -1       698 2.01113E+01 1.59428E-01 9.83844E-05 2.92280E-01-1.47589E-13 5.19857E-13
 -1       699 2.00845E+01 1.30661E-01 8.00642E-05 2.20986E-01 2.81853E-13 4.84819E-13
 -1       700 2.00633E+01 1.04580E-01 6.25285E-05 1.63042E-01 2.05644E-13 1.60214E-13
 -1       701 2.00464E+01 8.21507E-02 4.86793E-05 1.16961E-01 3.11465E-13 2.73689E-14
 -1       702 2.00331E+01 6.35953E-02 5.57197E-05 8.10106E-02 1.60376E-13 1.93632E-13
 -1       703 2.00217E+01 5.02165E-02 5.18335E-05 5.47032E-02 1.05185E-13-7.56061E-14
 -1       704 1.99965E+01 8.45193E-02-6.79651E-06 5.63977E-02 1.06939E-13 6.33584E-15
 -1       705 1.99681E+01 1.19869E-01-1.46457E-05 3.22812E-02 2.04301E-13-3.55024E-13
 -1       706 2.00096E+01 6.77399E-02 2.23631E-05 5.80259E-02 1.07931E-13 4.20456E-13
 -1       707 1.99804E+01 1.04742E-01-4.37480E-05 4.80768E-02 1.36870E-13-3.69186E-13
 -1       708 1.99612E+01 1.28663E-01-1.24520E-05-1.13517E-02-2.24893E-13 1.15741E-13
 -1       709 1.99679E+01 1.21314E-01-1.13181E-05-3.21179E-02-3.59891E-13 6.75204E-14
 -1       710 1.99805E+01 1.06641E-01-8.45238E-06-4.83294E-02-1.79657E-13-7.79120E-14
 -1       711 1.99968E+01 8.64432E-02 2.09147E-05-5.66841E-02-1.76073E-13-1.87485E-13
 -1       712 2.16648E+01-4.87980E+00 3.23396E-02 4.76310E+00-2.72553E-13-1.66865E-13
 -1       713 1.01457E+01-8.02403E-01 1.41551E-01 4.10900E+00-2.01238E-13 3.76019E-13
 -1       714 8.81858E+00-9.11500E-02 1.49460E-01 2.09854E+00-4.26803E-14-5.69753E-14
 -1       715 1.48795E+01-3.38889E+00 1.17624E-01-5.94064E+00 2.81823E-14-1.36009E-13
 -1       716 2.75525E+01-2.76978E+00-4.93734E-02-2.91423E-02-1.48658E-13 2.07390E-13
 -1       717 2.89542E+01 5.47025E-01-9.54151E-02-2.56982E+00 1.67991E-13 1.58970E-13
 -1       718 2.78452E+01 6.17877E-01-9.85756E-02 1.94679E+00 1.63470E-13 5.03729E-13
 -1       719 1.38292E+01-2.75886E+00 1.05528E-01-5.90776E+00-2.05336E-13-1.90903E-13
 -1       720 1.99612E+01 1.28221E-01-1.48439E-05 1.14176E-02 1.18110E-14 1.29509E-14
 -1       721 2.03190E+01 1.17345E+00 1.51366E-03-6.77504E-01 1.51051E-15 5.10892E-14
 -1       722 9.28776E+00-1.01529E+00 1.45148E-01-3.82776E+00-2.92162E-14 2.58633E-13
 -1       723 2.72222E+01 6.05581E+00-1.43862E-01-9.38861E-01 4.33029E-13 1.77143E-13
 -1       724 2.65379E+01-4.02125E+00-2.44473E-02 1.34074E+00-2.07574E-13-5.37036E-14
 -1       725 8.66337E+00-1.15231E-02 1.42922E-01-1.92594E+00-1.20458E-13-7.22408E-14
 -1       726 2.46948E+01-4.84881E+00 7.20239E-03-3.08206E+00-2.68278E-13 1.59785E-13
 -1       727 2.64173E+01 5.01105E+00-9.85831E-02 1.53921E+00-1.21604E-13 4.78124E-13
 -1       728 1.94738E+01-4.66258E+00 5.74484E-02-5.69889E+00-2.69274E-13 2.41748E-13
 -1       729 2.64340E+01-4.36796E+00-2.65282E-02-1.09448E+00-1.35992E-13 1.62696E-13
 -1       730 2.00124E+01 2.38240E+00-1.69445E-03 5.82217E-01 3.33253E-14 1.76839E-13
 -1       731 1.25510E+01-2.36794E+00 1.20109E-01 5.43620E+00 8.83044E-14-2.08722E-14
 -1       732 1.86714E+01-4.47270E+00 7.76913E-02 5.64309E+00 2.67390E-13-6.08333E-14
 -1       733 2.42961E+01-5.05418E+00 3.06717E-02 3.26745E+00 2.58172E-13 1.46595E-13
 -1       734 2.00083E+01 2.39391E+00-1.62158E-03-5.74012E-01 2.39480E-14 4.61768E-14
 -1       735 2.01164E+01 2.13121E-01 9.39569E-05-4.38709E-01 2.98701E-15 1.38433E-13
 -1       736 2.08274E+01-4.78323E+00 5.53611E-02-4.93520E+00-1.90854E-14-1.94320E-13
 -1       737 1.98953E+01 2.63715E+00-1.47758E-03-1.14553E-01 1.62767E-14 9.51757E-14
 -1       738 2.73161E+01 1.35119E+00-8.16937E-02-2.25082E+00 3.14356E-13-6.52429E-14
 -1       739 1.17300E+01-6.59123E-01 9.36499E-02-3.89786E+00-1.15546E-13-2.30475E-13
 -1       740 1.46618E+01-1.68330E+00 5.81853E-02 4.85833E+00-2.11525E-13 7.60121E-14
 -1       741 2.39992E+01-4.43699E+00 2.57453E-02-2.71383E+00 3.79731E-15 2.93063E-13
 -1       742 2.01184E+01 2.13434E+00-1.67581E-03-7.78696E-01 4.05885E-15 6.25500E-14
 -1       743 2.58719E+01 2.57867E+00-7.88180E-02 2.25862E+00-4.75661E-15 3.95973E-13
 -1       744 2.00091E+01 6.67320E-02 2.11024E-05-5.45724E-02-2.70489E-13 6.71255E-13
 -1       745 2.03077E+01 9.08110E-01 1.80285E-03 4.93366E-01-3.47916E-14 1.62107E-13
 -1       746 2.52656E+01 4.88310E+00-1.35333E-01 4.29907E-01 3.09943E-14 6.62765E-13
 -1       747 1.99325E+01 2.55904E+00-1.52102E-03-3.48426E-01 2.19573E-14 1.10707E-13
 -1       748 2.02771E+01 1.64740E+00-9.52456E-04-9.21064E-01-1.71838E-14 5.74837E-14
 -1       749 2.83713E+01-2.58486E+00-1.04297E-01-7.79096E-01 2.30542E-13 3.73330E-13
 -1       750 2.02736E+01 1.38928E+00-7.16706E-04 5.39312E-01 1.94995E-14 1.49382E-13
 -1       751 2.02602E+01 5.98963E-01 4.56130E-05 8.92273E-02-9.80434E-15 4.59529E-14
 -1       752 2.02090E+01 4.51252E-01 1.75081E-05 2.80570E-01-7.34275E-14 6.86991E-14
 -1       753 2.01493E+01 3.81864E-01 1.36288E-05 4.35271E-01-3.18990E-14 4.64008E-15
 -1       754 2.00839E+01 3.70015E-01 1.86408E-05 5.71157E-01 7.30507E-14-9.80583E-15
 -1       755 2.00112E+01 4.00253E-01 2.77018E-05 7.02607E-01 7.95343E-14 4.05426E-14
 -1       756 1.99273E+01 4.59456E-01 3.91459E-05 8.41045E-01 9.95790E-15 2.03883E-13
 -1       757 1.98276E+01 5.33867E-01 5.54345E-05 9.95279E-01 3.65868E-14 1.77725E-13
 -1       758 1.97087E+01 6.05911E-01 7.75834E-05 1.17224E+00 2.82357E-14 2.00627E-13
 -1       759 1.95712E+01 6.50201E-01 1.05323E-04 1.37825E+00 3.66366E-14 8.71571E-14
 -1       760 1.94249E+01 6.28269E-01 1.39163E-04 1.62096E+00 1.17772E-14 9.83459E-14
 -1       761 1.92989E+01 4.81912E-01 2.32472E-04 1.91147E+00 1.87336E-14 8.06886E-14
 -1       762 1.92577E+01 1.26581E-01 7.56237E-04 2.26424E+00-1.03821E-13 9.65963E-14
 -1       763 1.94280E+01-5.51972E-01 2.26215E-03 2.69107E+00-7.17779E-14 7.56960E-14
 -1       764 2.00736E+01-1.68447E+00 4.33498E-03 3.12245E+00 5.62010E-14 4.50984E-14
 -1       765 2.15620E+01-3.26544E+00 2.76304E-02 3.39761E+00 2.03938E-13 5.07962E-14
 -1       766 2.02875E+01 1.35870E+00 1.06769E-03-5.78411E-01 1.40383E-14 6.69460E-14
 -1       767 2.64853E+01-1.43770E+00-3.25658E-02 1.34494E+00-1.16357E-13 5.23716E-13
 -1       768 2.15553E+01-2.86372E+00 1.37273E-02-3.07967E+00 1.53313E-14 5.88167E-14
 -1       769 2.02468E+01-1.40307E+00 4.09493E-03-2.86468E+00-1.73114E-13-8.79288E-15
 -1       770 1.96630E+01-3.82790E-01 9.91017E-04-2.48346E+00-3.14376E-14-2.99928E-14
 -1       771 1.94806E+01 2.26614E-01 4.75161E-04-2.10388E+00-4.39355E-14 1.20216E-14
 -1       772 1.94901E+01 5.41686E-01 1.92711E-04-1.76790E+00 8.28372E-14-4.37717E-14
 -1       773 1.95763E+01 6.67328E-01 1.67384E-04-1.47660E+00-2.52510E-13-1.34702E-13
 -1       774 1.96802E+01 6.80762E-01 1.47397E-04-1.22324E+00-2.69746E-14 6.26485E-14
 -1       775 1.97753E+01 6.33701E-01 1.27547E-04-1.00249E+00-1.05031E-14-1.32395E-13
 -1       776 1.98522E+01 5.58572E-01 1.06278E-04-8.11191E-01 7.83860E-14-4.50846E-13
 -1       777 1.99097E+01 4.74646E-01 8.56891E-05-6.47284E-01 4.75129E-14-2.26993E-13
 -1       778 1.99504E+01 3.92670E-01 6.82165E-05-5.08878E-01 2.19197E-13-1.01818E-13
 -1       779 1.99776E+01 3.18102E-01 5.38007E-05-3.93843E-01 1.64486E-13-1.16943E-13
 -1       780 1.99949E+01 2.53244E-01 4.25240E-05-2.99753E-01 2.34169E-13-9.42500E-14
 -1       781 2.00050E+01 1.98585E-01 3.33831E-05-2.24009E-01-8.53409E-14-3.50105E-13
 -1       782 2.00102E+01 1.53656E-01 4.62133E-05-1.64063E-01-1.56295E-13-5.62065E-13
 -1       783 2.00114E+01 1.17647E-01-2.37327E-05-1.17210E-01 8.69091E-14-1.60232E-13
 -1       784 2.02374E+01 4.83297E-01 2.16775E-05-1.74443E-01 1.71287E-14 6.81039E-14
 -1       785 2.02795E+01 6.88357E-01 1.22941E-05 4.54546E-02 2.24819E-14 1.07225E-13
 -1       786 2.00787E+01 2.81252E-01 2.61653E-05-7.22788E-01-5.43461E-14 2.31460E-13
 -1       787 2.01083E+01 2.82602E-01 2.22614E-05-6.05297E-01-5.53109E-14 2.30334E-13
 -1       788 2.00623E+01 2.67249E-01 3.45588E-05-9.68787E-01 5.05646E-15 3.01422E-13
 -1       789 2.00946E+01 2.11498E-01 3.77061E-05-1.09898E+00 3.10206E-14 1.62002E-13
 -1       790 2.01788E+01 8.72910E-02 2.43130E-05-1.22615E+00 1.56150E-14 1.29086E-13
 -1       791 2.03472E+01-1.36981E-01-2.50839E-05-1.33468E+00-3.61075E-14 2.05099E-13
 -1       792 2.06455E+01-4.90565E-01-9.08051E-05-1.39590E+00-7.16561E-14 1.77713E-13
 -1       793 2.11301E+01-9.85302E-01-1.89394E-04-1.36011E+00-7.09436E-14 8.27109E-14
 -1       794 2.18572E+01-1.58402E+00-5.23837E-04-1.14415E+00-1.54835E-13 1.93806E-13
 -1       795 2.28254E+01-2.12336E+00-8.69004E-04-6.34347E-01-1.19422E-13 1.88804E-13
 -1       796 2.39173E+01-2.28565E+00-3.58293E-03 2.61253E-01-9.64023E-14 2.30042E-13
 -1       797 2.47468E+01-1.47915E+00-2.38956E-02 1.39027E+00 6.59516E-14 2.34094E-13
 -1       798 2.41172E+01 4.24726E+00-9.29174E-02 4.53682E-02 7.82031E-14 6.13587E-13
 -1       799 2.44825E+01 3.04840E+00-5.34792E-02-1.66035E+00 1.91071E-13 2.42882E-13
 -1       800 2.47745E+01 7.27204E-01-4.17661E-02-2.23644E+00 9.04945E-14-1.10501E-13
 -1       801 2.46876E+01-1.24468E+00-1.24753E-02-1.56112E+00 2.29539E-14-2.75744E-13
 -1       802 2.39230E+01-2.10445E+00-3.40171E-03-4.63672E-01-1.48997E-13-8.76992E-14
 -1       803 2.29065E+01-2.02921E+00 8.09211E-04 4.33267E-01-4.51087E-14 5.44230E-14
 -1       804 2.19793E+01-1.54330E+00 1.79809E-03 9.73410E-01-4.74492E-14 4.29433E-14
 -1       805 2.12535E+01-9.66124E-01 5.72195E-04 1.21784E+00 1.11686E-15 4.30575E-14
 -1       806 2.07521E+01-4.72734E-01 4.47262E-05 1.27567E+00-6.82256E-14-1.36085E-13
 -1       807 2.04324E+01-1.10590E-01-7.21699E-06 1.22020E+00-8.75054E-14-8.21631E-14
 -1       808 2.02403E+01 1.24394E-01-3.22305E-05 1.10719E+00-3.37440E-13 2.50847E-14
 -1       809 2.01313E+01 2.57740E-01-2.98098E-05 9.68586E-01 5.03978E-14 1.13886E-13
 -1       810 2.00730E+01 3.17944E-01-2.28390E-05 8.23691E-01 2.51339E-14 2.94217E-13
 -1       811 2.00437E+01 3.29728E-01-1.51207E-05 6.83935E-01-1.46575E-13 3.46298E-13
 -1       812 2.00301E+01 3.12156E-01-8.20953E-06 5.55850E-01-6.36361E-14 2.52954E-13
 -1       813 2.00243E+01 2.78878E-01-4.14319E-06 4.42754E-01-2.10230E-13-1.86801E-14
 -1       814 2.00219E+01 2.39088E-01-1.40619E-06 3.45803E-01-4.41937E-14 2.06782E-14
 -1       815 2.00205E+01 1.98606E-01 3.64486E-07 2.64745E-01 1.10137E-13-1.52540E-13
 -1       816 2.00192E+01 1.60855E-01 1.26220E-06 1.98446E-01 4.13300E-13-1.18158E-13
 -1       817 2.00175E+01 1.27548E-01-4.06413E-06 1.45298E-01 1.94395E-13-9.59325E-14
 -1       818 2.00153E+01 9.95124E-02 2.51726E-05 1.03837E-01 6.29783E-14 3.36379E-13
 -1       819 2.00123E+01 8.25511E-02 2.29411E-05 7.85684E-02 1.83269E-13 5.75102E-13
 -1       820 1.99563E+01 1.47037E-01-2.45441E-05-5.55888E-02-1.05758E-13 1.92534E-13
 -1       821 1.27111E+01-5.69242E-01 7.19442E-02 3.68509E+00 2.37067E-14 1.72917E-13
 -1       822 1.77993E+01-3.06505E+00 4.43452E-02-5.07942E+00-2.42037E-13 1.97972E-13
 -1       823 1.99783E+01 1.24842E-01-2.32029E-05-7.36386E-02 1.98981E-13-1.83804E-13
 -1       824 1.99418E+01 1.60907E-01 1.34463E-06-2.97565E-02-2.16371E-13 8.76120E-14
 -1       825 2.00648E+01-3.41775E+00 3.54123E-02 4.33645E+00-1.68860E-13-1.28097E-13
 -1       826 1.04924E+01 6.26330E-01 7.73962E-02 1.11818E-01-4.78246E-14-8.58931E-14
 -1       827 1.04987E+01 3.77271E-01 9.00882E-02-1.86410E+00 8.54438E-15 1.37702E-13
 -1       828 1.99367E+01 1.65204E-01-7.64975E-06 5.98212E-04-1.93736E-14-1.48145E-13
 -1       829 1.37366E+01-1.41543E+00 8.81584E-02-4.56807E+00 1.94674E-13-2.88297E-13
 -1       830 1.99421E+01 1.59304E-01-2.19023E-06 3.07601E-02 2.34785E-13-3.19674E-13
 -1       831 2.00611E+01 2.82684E-01 2.89804E-05-8.42890E-01-1.54462E-14 2.63212E-13
 -1       832 2.41376E+01-4.15548E+00 3.16597E-04 2.17710E+00-1.81172E-13 1.02898E-13
 -1       833 2.03027E+01 8.46920E-01 5.05644E-04-1.57900E-01 3.05165E-14 4.71566E-14
 -1       834 2.62118E+01 4.06508E+00-1.05177E-01-1.93280E+00 4.42524E-13 1.37508E-13
 -1       835 2.63816E+01-2.28224E+00-4.10143E-02-8.82335E-01 1.38778E-15-1.05338E-13
 -1       836 2.21830E+01-4.13056E+00 1.09415E-02-3.55244E+00-2.47889E-13 1.82605E-13
 -1       837 1.07282E+01 5.63330E-01 8.96208E-02 1.57788E+00-1.67871E-13 6.12847E-13
 -1       838 1.85658E+01-3.21443E+00 5.41259E-02-4.81113E+00-1.95503E-15-2.93975E-14
 -1       839 2.00857E+01 2.03355E+00-3.13326E-04 1.65268E-01 3.39551E-15 1.13659E-13
 -1       840 1.72631E+01-2.26341E+00 5.18403E-02 4.60257E+00 1.12674E-13-5.97439E-15
 -1       841 2.55854E+01-3.59512E+00-7.11783E-03-7.03626E-01-2.17497E-13 3.01379E-13
 -1       842 1.17786E+01 4.61951E-01 6.10457E-02-1.91848E+00-3.87531E-14-1.09307E-13
 -1       843 2.00683E+01 2.07796E+00-3.04562E-04 1.94636E-03 1.01726E-14 8.95666E-14
 -1       844 2.01463E+01 3.04338E-01 1.63256E-05-4.83029E-01-2.03894E-14 1.56357E-13
 -1       845 2.01904E+01 3.64326E-01 1.25884E-05-3.44516E-01-3.97848E-14 1.09237E-13
 -1       846 2.00112E+01 8.91896E-02 9.61305E-05-8.12624E-02 1.11659E-13 3.41311E-13
 -1       847 2.52575E+01 1.38066E-01-3.51890E-02 2.11762E+00-2.60529E-14 4.77713E-13
 -1       848 1.26865E+01 5.01398E-01 4.62076E-02 1.98520E+00-5.31779E-15 5.68434E-14
 -1       849 1.99570E+01 1.43979E-01-1.87010E-05 5.60055E-02 1.51347E-13-2.38331E-13
 -1       850 2.02042E+01 1.70190E+00-8.00080E-05-4.53492E-01 1.09462E-14 5.69262E-14
 -1       851 2.02011E+01 1.69158E+00-6.36167E-04 4.50640E-01 2.88911E-14 1.83166E-13
 -1       852 2.03010E+01 1.02198E+00 5.38726E-04 3.33841E-01 2.63150E-15 1.11608E-13
 -1       853 1.99935E+01 1.03351E-01 5.03786E-06 7.58259E-02 1.33345E-13-1.70429E-14
 -1       854 1.34056E+01-3.59287E-02 3.70200E-02 3.13527E+00-2.09681E-13 3.38696E-13
 -1       855 2.01301E+01 1.91574E+00-2.06177E-04-3.15392E-01 1.77673E-14 8.26551E-14
 -1       856 2.01323E+01 1.90551E+00-5.69024E-04 3.18313E-01 4.95867E-15 1.75634E-13
 -1       857 1.51786E+01-1.26647E+00 4.96756E-02-4.27700E+00-2.32799E-13-6.56818E-14
 -1       858 1.99746E+01 1.24989E-01 4.56058E-05 6.92496E-02 3.26912E-14-1.90300E-13
 -1       859 2.02562E+01 6.70613E-01 3.81073E-05 1.45499E-01-1.74983E-14 9.32468E-15
 -1       860 1.97278E+01 1.24550E-01 5.27460E-05-1.38464E+00 1.61051E-14 2.06624E-13
 -1       861 2.01870E+01 5.36670E-01-1.06245E-05 2.98777E-01-5.05907E-14 6.22744E-14
 -1       862 2.00918E+01 4.82406E-01-1.14364E-06 4.28850E-01-1.35428E-14 9.54374E-14
 -1       863 1.99723E+01 4.88535E-01 2.46534E-06 5.46884E-01 8.70358E-14 6.19664E-14
 -1       864 1.98265E+01 5.39243E-01 4.31860E-06 6.63223E-01 1.08870E-13 4.21003E-14
 -1       865 1.96493E+01 6.19690E-01 5.84537E-06 7.86572E-01 9.16376E-15 8.07312E-14
 -1       866 1.94337E+01 7.13704E-01 1.05364E-05 9.24590E-01-1.45447E-14 7.87882E-14
 -1       867 1.91721E+01 8.01054E-01 1.69323E-05 1.08559E+00-6.65497E-17 3.58363E-14
 -1       868 1.88581E+01 8.53942E-01 1.61480E-05 1.28168E+00 6.40526E-14 3.26438E-14
 -1       869 1.84901E+01 8.32230E-01 7.40828E-06 1.53409E+00 2.52279E-14 2.85835E-14
 -1       870 1.80787E+01 6.75887E-01 2.21264E-04 1.88067E+00-1.01312E-14 8.46369E-15
 -1       871 1.76652E+01 2.94116E-01 2.44793E-03 2.38223E+00-7.16296E-14 7.06041E-14
 -1       872 1.73361E+01-4.31134E-01 1.24081E-02 3.12761E+00-6.07574E-14 1.07545E-13
 -1       873 2.02854E+01 7.54717E-01-1.21306E-04-4.09938E-02 1.14181E-14 1.59458E-13
 -1       874 1.79417E+01-1.54252E+00 2.12495E-02-3.83030E+00 1.22775E-14 1.84555E-13
 -1       875 2.02917E+01 1.06874E+00-1.56364E-04 1.81628E-01 1.18208E-14 1.45430E-13
 -1       876 1.77838E+01-3.10980E-01 5.09177E-03-2.91486E+00-1.15448E-13 2.85935E-13
 -1       877 1.79949E+01 3.82402E-01 1.65377E-03-2.24950E+00-1.21894E-13 4.18443E-14
 -1       878 1.83261E+01 7.36740E-01 1.83626E-04-1.77927E+00-1.82225E-15-1.23800E-13
 -1       879 1.86639E+01 8.80330E-01 5.04947E-05-1.43918E+00 7.60846E-15-1.18868E-13
 -1       880 1.89665E+01 8.97288E-01 2.59611E-05-1.17857E+00 1.42184E-14-3.72191E-14
 -1       881 1.92201E+01 8.43055E-01 2.19293E-05-9.67577E-01-9.31031E-14-1.58081E-13
 -1       882 1.94241E+01 7.52957E-01 1.67068E-05-7.90533E-01 4.16162E-15 7.58249E-15
 -1       883 1.95835E+01 6.49130E-01 8.25466E-06-6.39689E-01 2.10503E-13 7.76864E-14
 -1       884 1.97050E+01 5.44879E-01 5.40779E-06-5.11140E-01 2.42397E-13 2.51335E-13
 -1       885 1.97959E+01 4.47661E-01 2.80381E-06-4.02536E-01 1.37549E-13 2.20111E-13
 -1       886 1.98626E+01 3.61164E-01 3.33241E-06-3.12009E-01 1.80865E-14-1.62004E-14
 -1       887 1.99105E+01 2.86802E-01-2.44838E-07-2.37706E-01 1.64938E-14-3.13154E-13
 -1       888 1.99443E+01 2.24375E-01-5.63973E-06-1.77669E-01-7.00390E-14-1.87020E-13
 -1       889 1.99672E+01 1.73216E-01-3.36717E-05-1.29787E-01 3.61177E-14-8.35296E-14
 -1       890 2.02625E+01 1.35727E+00 8.79016E-04 3.18383E-01 1.05162E-14 1.79929E-13
 -1       891 2.46031E+01-2.79998E+00-4.32965E-03 1.60065E-02-2.39068E-13-4.72749E-14
 -1       892 1.97140E+01 2.94690E-01 5.29611E-05-1.19216E+00 1.82225E-14 1.84446E-13
 -1       893 1.97589E+01 3.72911E-01 2.27030E-05-1.02056E+00 9.31256E-14 2.07192E-13
 -1       894 1.98465E+01-1.79256E-01 4.28952E-05-1.59170E+00-6.28212E-14 9.90112E-14
 -1       895 2.01404E+01-6.59164E-01 2.46368E-04-1.79203E+00-4.36727E-14 1.31620E-13
 -1       896 2.07080E+01-1.34058E+00 1.27269E-03-1.92922E+00-9.95429E-14 1.81034E-13
 -1       897 2.16828E+01-2.20083E+00-5.16362E-03-1.87488E+00-1.21107E-13 4.46294E-14
 -1       898 2.31555E+01-3.00477E+00 1.21247E-02-1.45327E+00-1.88204E-13 4.21815E-14
 -1       899 2.30358E+01-2.62878E+00-5.60359E-03 1.03052E+00-2.37290E-13 2.25588E-14
 -1       900 2.18262E+01-1.97286E+00-2.13830E-04 1.50483E+00-7.45905E-14 1.87677E-13
 -1       901 2.09286E+01-1.20565E+00-1.81843E-03 1.63361E+00 8.77550E-14 1.79731E-13
 -1       902 2.03479E+01-5.73687E-01-3.45824E-04 1.57716E+00-5.00136E-16 2.50521E-13
 -1       903 2.00287E+01-1.20714E-01 1.43560E-04 1.42122E+00-2.03184E-13 2.05630E-13
 -1       904 1.98686E+01 1.70788E-01 1.33072E-04 1.23818E+00-1.01553E-13 2.49756E-13
 -1       905 1.98067E+01 3.36119E-01 1.22996E-04 1.05379E+00-2.25526E-13 9.53347E-14
 -1       906 1.97998E+01 4.11394E-01 9.77105E-05 8.80373E-01-1.61000E-14 5.00463E-13
 -1       907 1.98206E+01 4.26854E-01 7.55633E-05 7.23271E-01 3.06692E-14 3.02781E-13
 -1       908 1.98526E+01 4.05566E-01 5.96959E-05 5.84663E-01 1.06626E-13 8.42902E-14
 -1       909 1.98864E+01 3.64163E-01 4.38803E-05 4.65028E-01 7.58742E-15-1.68220E-13
 -1       910 1.99173E+01 3.13999E-01 3.15853E-05 3.63786E-01-8.49191E-14-3.93259E-13
 -1       911 1.99431E+01 2.62399E-01 2.27549E-05 2.79688E-01 1.48592E-13-3.84371E-13
 -1       912 1.99635E+01 2.13755E-01 1.57862E-05 2.11087E-01 1.61798E-13-4.04538E-13
 -1       913 1.99785E+01 1.70433E-01 3.41450E-06 1.56059E-01 2.77610E-13 1.22657E-13
 -1       914 1.99891E+01 1.33480E-01 2.24597E-06 1.12946E-01-1.13382E-13 1.10521E-13
 -1       915 1.99478E+01 1.73807E-01 1.28618E-04-8.79418E-02 6.06682E-14 1.95173E-13
 -1       916 1.99204E+01 1.96619E-01-2.12246E-05-5.72846E-02-2.42232E-14 4.00812E-13
 -1       917 1.75946E+01-1.52450E+00 2.62967E-02 3.85880E+00-1.46933E-13-1.98401E-13
 -1       918 1.46320E+01-1.21150E-02 3.78608E-02-3.06647E+00 1.91251E-13-1.92632E-13
 -1       919 2.00108E+01 3.83993E-01 1.05623E-05-6.12073E-01-4.29247E-14 1.68347E-13
 -1       920 2.00343E+01-2.82163E+00 1.41029E-02-3.69849E+00-1.06119E-13 1.75828E-13
 -1       921 2.02920E+01 9.06837E-01-3.56439E-05-4.78636E-02-7.22606E-15-6.37007E-15
 -1       922 2.00842E+01 2.03833E+00-3.07420E-04-1.61279E-01-6.32009E-15 9.33466E-14
 -1       923 1.99067E+01 2.07835E-01-9.43076E-06-1.89450E-02-9.57457E-14-2.13566E-13
 -1       924 1.25784E+01 1.02179E+00 3.71081E-02-3.90576E-01 1.37074E-14 2.58083E-13
 -1       925 2.22537E+01-3.16613E+00 5.51904E-03 2.41326E+00-2.23546E-13-7.64436E-14
 -1       926 1.99072E+01 2.06231E-01-2.47291E-05 2.20380E-02 1.21222E-13-4.38526E-13
 -1       927 2.02524E+01 1.35192E+00-8.69997E-04-2.13039E-01-1.37936E-15 4.53228E-14
 -1       928 1.27327E+01 9.62398E-01 3.93203E-02-2.10710E-01-6.33274E-14-9.73501E-14
 -1       929 2.01849E+01 1.60089E+00 1.82848E-05 4.52804E-02 1.93776E-14 8.11486E-14
 -1       930 2.00974E+01 3.96168E-01 9.03024E-06-4.92077E-01-7.35997E-14 1.86607E-13
 -1       931 2.02417E+01 5.58596E-01-3.69439E-05-2.19303E-01 1.75457E-15 1.53551E-13
 -1       932 2.02111E+01 1.51872E+00 2.43533E-04 1.33644E-01 5.37181E-14 1.31590E-13
 -1       933 1.99913E+01 1.17925E-01 2.69675E-05 9.29381E-02 6.91900E-15-2.76653E-14
 -1       934 1.50266E+01-2.05241E-01 3.88803E-02 3.20058E+00-7.07162E-14 1.09622E-13
 -1       935 1.99217E+01 1.92679E-01-4.34915E-05 5.96844E-02 1.88605E-13-2.20077E-13
 -1       936 2.01076E+01-1.97764E+00 5.06726E-03 2.88504E+00-2.20035E-13 1.70625E-14
 -1       937 1.77934E+01-1.49895E+00 1.98532E-02-3.66667E+00-1.50864E-13 4.49467E-14
 -1       938 1.99209E+01 3.90691E-01 4.26719E-06-7.35205E-01-3.72796E-14 1.68604E-13
 -1       939 1.98335E+01 3.95116E-01 2.71365E-06-8.69436E-01-2.17373E-14 1.75680E-13
 -1       940 1.36129E+01 9.12840E-01 1.63315E-02 1.25072E+00-5.21452E-14 2.57207E-13
 -1       941 1.41721E+01-3.20622E-02 2.85920E-02-2.96169E+00-5.22394E-14-1.37737E-15
 -1       942 1.99672E+01 1.43204E-01 2.56310E-05 8.53838E-02 8.45713E-14-3.19116E-13
 -1       943 2.01836E+01 1.60400E+00-2.44814E-05-4.63184E-02 9.54345E-15 9.46467E-14
 -1       944 1.91124E+01-1.40481E-01-2.14160E-04-1.86290E+00-9.64408E-14 2.56852E-13
 -1       945 2.01200E+01 6.01991E-01 2.45156E-05 2.73365E-01 1.00174E-14 9.75552E-14
 -1       946 1.99839E+01 5.69705E-01 3.64590E-06 3.68674E-01 4.69468E-14 1.65675E-13
 -1       947 1.98090E+01 5.97205E-01-9.37766E-07 4.55747E-01 1.05103E-13 1.63646E-13
 -1       948 1.95919E+01 6.68261E-01-6.93036E-06 5.41084E-01 5.13350E-14 1.10294E-13
 -1       949 1.93252E+01 7.67024E-01-2.08503E-05 6.30135E-01-1.70738E-14 1.28377E-13
 -1       950 1.89975E+01 8.76466E-01-3.37900E-05 7.28479E-01-4.82056E-14 5.85275E-14
 -1       951 1.85928E+01 9.76759E-01-6.58969E-05 8.44187E-01 3.77808E-14 5.31045E-14
 -1       952 1.80895E+01 1.04319E+00-1.41175E-04 9.92072E-01 2.75475E-14 7.49539E-14
 -1       953 1.74577E+01 1.04334E+00-5.42764E-05 1.20098E+00-8.57452E-15-2.45287E-14
 -1       954 1.66533E+01 9.29622E-01 6.25503E-04 1.52306E+00 5.74646E-14 7.86966E-14
 -1       955 1.56065E+01 6.27277E-01 5.35343E-03 2.06287E+00-3.31623E-14 9.01729E-14
 -1       956 2.02782E+01 1.06939E+00 6.81634E-06 6.40353E-02 2.55025E-14 1.25765E-13
 -1       957 1.61309E+01 6.84044E-01 5.09497E-03-2.02286E+00-2.86129E-13 7.43519E-16
 -1       958 1.69763E+01 9.81638E-01-6.18334E-04-1.50763E+00-6.03807E-14 1.25437E-13
 -1       959 1.76626E+01 1.09753E+00-2.93775E-06-1.18174E+00 1.42989E-13 3.67710E-14
 -1       960 1.82049E+01 1.09910E+00-7.47063E-05-9.58615E-01 1.28097E-13 2.43883E-13
 -1       961 1.86327E+01 1.03428E+00-1.87936E-05-7.91566E-01-1.45802E-13 2.98750E-13
 -1       962 1.89690E+01 9.32575E-01 8.84026E-06-6.56492E-01-2.50692E-14 4.39295E-13
 -1       963 1.92315E+01 8.14351E-01-3.37703E-06-5.41611E-01 7.61911E-14 2.89898E-13
 -1       964 1.94348E+01 6.93132E-01-1.38181E-07-4.41959E-01 1.93473E-13 1.17988E-13
 -1       965 1.95906E+01 5.77453E-01 1.92325E-06-3.55526E-01 1.75315E-13 3.12608E-14
 -1       966 1.97087E+01 4.72198E-01-8.52712E-07-2.81367E-01-3.93596E-14 5.18961E-14
 -1       967 1.97972E+01 3.79636E-01-6.58052E-06-2.18799E-01 4.08879E-14 2.70310E-13
 -1       968 1.98621E+01 3.00791E-01-9.76415E-06-1.67226E-01-5.96863E-14 2.84638E-13
 -1       969 1.99089E+01 2.35099E-01-8.76721E-06-1.24990E-01-2.20877E-14 2.28887E-13
 -1       970 2.02163E+01 7.11911E-01-4.71182E-05 1.63014E-01-2.00725E-14 9.59205E-14
 -1       971 1.92137E+01 4.16251E-01 5.14635E-05-1.23667E+00-1.22262E-14 1.42790E-13
 -1       972 1.91122E+01 2.19405E-01-3.19505E-05-1.51531E+00-5.60661E-15 2.19015E-13
 -1       973 1.93618E+01 5.04293E-01 2.15249E-05-1.01520E+00 8.10752E-14 1.87235E-13
 -1       974 1.92985E+01-7.21307E-01 5.54691E-04-2.28057E+00-1.17140E-13 2.75860E-13
 -1       975 1.98623E+01-1.58939E+00 5.75452E-03-2.72892E+00-7.49054E-15 1.84543E-13
 -1       976 1.96478E+01-6.80224E-01 8.38289E-04 2.06067E+00-1.68456E-14 2.20644E-13
 -1       977 1.93689E+01-1.16682E-01-2.56988E-04 1.72022E+00-4.83317E-14 2.90108E-13
 -1       978 1.92886E+01 2.46018E-01 7.54139E-06 1.41164E+00-1.18105E-13 1.34397E-13
 -1       979 1.93138E+01 4.50893E-01 4.75419E-05 1.14941E+00-9.58025E-14 1.53018E-13
 -1       980 1.93908E+01 5.44867E-01 2.26165E-05 9.30557E-01-2.10816E-13-8.02319E-14
 -1       981 1.94877E+01 5.65406E-01 1.15260E-05 7.48353E-01-8.23405E-15-2.00709E-13
 -1       982 1.95865E+01 5.39815E-01 2.14141E-05 5.96896E-01 8.75771E-14 8.94915E-14
 -1       983 1.96777E+01 4.88169E-01 1.69377E-05 4.71404E-01 2.12284E-13-1.74696E-13
 -1       984 1.97565E+01 4.24401E-01 1.51740E-05 3.67993E-01 1.25431E-13 2.49035E-14
 -1       985 1.98218E+01 3.57765E-01 1.61042E-05 2.83494E-01-3.18704E-14-8.28656E-14
 -1       986 1.98738E+01 2.94042E-01 9.63745E-06 2.15149E-01-3.17780E-14 7.22056E-15
 -1       987 1.99142E+01 2.36290E-01 1.91609E-05 1.60679E-01 1.91106E-14 6.84178E-14
 -1       988 1.99439E+01 1.86628E-01 1.11912E-05 1.17778E-01 1.71385E-13 8.43155E-15
 -1       989 1.41269E+01 9.45829E-01 2.17425E-02 1.20634E+00-2.65540E-14 2.30237E-14
 -1       990 1.40305E+01 7.54156E-01 1.62330E-02-1.51359E+00-5.50325E-14-1.44126E-13
 -1       991 2.02712E+01 9.16320E-01 2.21886E-04 2.75740E-02-5.49760E-15 8.72289E-14
 -1       992 2.01762E+01 4.47233E-01-8.00701E-06-3.65233E-01-5.71559E-14 1.55056E-13
 -1       993 1.46037E+01 8.62161E-01 6.77716E-03-1.59417E+00-6.64864E-14-2.43549E-13
 -1       994 1.98719E+01 2.55714E-01 3.05450E-05-5.02379E-02 4.56350E-14 2.27025E-13
 -1       995 2.02097E+01 1.52457E+00 1.65342E-04-1.35129E-01-1.09383E-14 8.38147E-14
 -1       996 1.98632E+01 2.60770E-01-3.75580E-06 3.23647E-03 1.30738E-13-3.85860E-13
 -1       997 2.02332E+01 1.46436E+00 4.65502E-04 2.25634E-01 3.56080E-14 1.71912E-13
 -1       998 1.59221E+01 3.12440E-02 1.47605E-02 2.73360E+00-1.99267E-13 2.54333E-13
 -1       999 1.44885E+01 1.19580E+00 9.49126E-03-2.51008E-01 7.72991E-14 4.45721E-13
 -1      1000 2.02643E+01 7.85299E-01-2.08113E-04-9.60474E-02 2.33749E-14 1.12796E-13
 -1      1001 1.81679E+01-6.94370E-01 4.22580E-03 2.77846E+00-1.12332E-13-1.40719E-13
 -1      1002 1.98749E+01 2.50344E-01 1.11043E-04 5.53691E-02 1.11193E-13-5.73171E-13
 -1      1003 1.44355E+01 1.10314E+00 1.33164E-02-8.53360E-02-2.94514E-14-1.00458E-13
 -1      1004 1.65226E+01-4.25578E-01 7.25257E-03-3.01479E+00-3.58374E-14 6.29444E-14
 -1      1005 1.95270E+01 5.24762E-01-5.43835E-05-8.37611E-01 2.92614E-14 1.48989E-13
 -1      1006 1.98481E+01 4.90515E-01 1.78065E-05-5.68688E-01-7.37637E-14 1.14536E-13
 -1      1007 2.02453E+01 1.20721E+00-4.25669E-04 2.11495E-02 2.53029E-14 1.62776E-13
 -1      1008 1.99882E+01 4.86060E-01 1.56350E-05-4.57504E-01-4.74583E-14 1.43902E-13
 -1      1009 2.02331E+01 1.24731E+00 3.53742E-05-3.93819E-03-8.72058E-16 1.00585E-13
 -1      1010 1.98509E+01 6.35999E-01-2.68684E-05 2.49114E-01 3.66930E-14 1.18756E-13
 -1      1011 1.96260E+01 6.83850E-01-2.86489E-05 2.94407E-01 5.98742E-14 9.08617E-14
 -1      1012 1.93478E+01 7.70385E-01-1.40249E-05 3.33960E-01-1.75828E-14 1.44648E-14
 -1      1013 1.90056E+01 8.79170E-01-7.15893E-05 3.68972E-01-2.96926E-14-3.60187E-14
 -1      1014 1.85830E+01 9.93401E-01-1.16713E-04 4.00587E-01 2.05945E-14 7.17129E-14
 -1      1015 1.80530E+01 1.09613E+00-2.58278E-04 4.31611E-01 1.55084E-14 2.40466E-14
 -1      1016 1.73762E+01 1.16732E+00-1.10266E-04 4.68860E-01 2.12167E-14 3.35787E-14
 -1      1017 1.64800E+01 1.18838E+00 5.68119E-04 5.27874E-01 6.58587E-14 1.79976E-14
 -1      1018 1.54761E+01 1.12368E+00 4.09429E-03 7.65464E-01 5.39607E-14 1.59331E-14
 -1      1019 2.01572E+01 7.21109E-01-3.78190E-04 1.32364E-01 9.57386E-16 8.59540E-14
 -1      1020 1.66927E+01 1.26531E+00 2.30639E-03-6.22506E-01 4.70774E-14 2.47527E-13
 -1      1021 1.74877E+01 1.24361E+00 3.06790E-05-5.24069E-01 2.58148E-13 5.96057E-14
 -1      1022 1.80845E+01 1.17356E+00-4.27715E-06-4.55052E-01 5.94074E-14 7.59997E-14
 -1      1023 1.85425E+01 1.06905E+00-1.98514E-05-3.98454E-01-6.91055E-14 2.69403E-13
 -1      1024 1.88971E+01 9.47074E-01-6.80244E-05-3.45813E-01-4.58089E-14 1.70458E-13
 -1      1025 1.91731E+01 8.18389E-01-4.32119E-05-2.95256E-01 9.09504E-14-4.62773E-14
 -1      1026 1.93872E+01 6.92080E-01-2.72221E-05-2.47098E-01 6.11958E-14-2.05274E-13
 -1      1027 1.95525E+01 5.74083E-01-1.88050E-05-2.02439E-01 9.30144E-14-2.64982E-13
 -1      1028 1.96787E+01 4.67832E-01-3.97872E-05-1.62170E-01 2.69970E-13 1.97695E-14
 -1      1029 1.97734E+01 3.75337E-01-1.14777E-04-1.27470E-01-4.41858E-15 1.94716E-13
 -1      1030 1.98265E+01 3.12425E-01-3.16893E-05-8.32278E-02 2.34533E-13 4.10035E-13
 -1      1031 1.88778E+01 6.67461E-01 1.85300E-05-9.29775E-01 3.74535E-14 1.15134E-13
 -1      1032 1.87050E+01 6.13932E-01 6.99886E-05 1.17973E+00-1.14814E-13-9.95811E-14
 -1      1033 1.85216E+01 4.00566E-01-3.34167E-04 1.52986E+00-1.32054E-13-5.58308E-14
 -1      1034 1.84063E+01 1.37579E-02-1.09069E-03 1.99205E+00-3.58872E-14-1.04090E-14
 -1      1035 1.89091E+01 7.05073E-01-1.51354E-04 9.13841E-01 2.34740E-14-2.54905E-14
 -1      1036 1.91061E+01 7.20133E-01-8.38196E-05 7.10639E-01-5.10036E-14-3.05147E-14
 -1      1037 1.92865E+01 6.83896E-01-5.22859E-07 5.52591E-01-8.10315E-14-6.23764E-14
 -1      1038 1.94434E+01 6.18901E-01-7.90420E-06 4.28586E-01 1.57732E-13-3.60806E-15
 -1      1039 1.95756E+01 5.40133E-01-9.46015E-06 3.30529E-01 3.25565E-14 3.49624E-13
 -1      1040 1.96840E+01 4.57833E-01-3.41178E-06 2.52856E-01 1.20392E-13 4.70852E-13
 -1      1041 1.97705E+01 3.78653E-01-1.97984E-06 1.91377E-01 6.02954E-14 2.98509E-13
 -1      1042 1.98376E+01 3.06963E-01 1.74002E-05 1.43265E-01-8.68311E-14 6.83340E-14
 -1      1043 2.02332E+01 8.99406E-01 4.69268E-04 5.48631E-02 6.62490E-15 9.63566E-14
 -1      1044 1.58556E+01 3.91561E-01 1.42157E-03-2.12569E+00-4.92762E-14 3.58715E-14
 -1      1045 2.00275E+01 6.43883E-01 5.04885E-05 1.96730E-01 6.25090E-14 9.25719E-14
 -1      1046 1.96924E+01 5.11086E-01-2.44909E-05-6.92086E-01-6.81790E-14 1.21299E-13
 -1      1047 1.57714E+01 1.17317E+00 3.37130E-03-9.67483E-01-6.43404E-15 1.89808E-13
 -1      1048 1.80431E+01 4.29167E-02-1.02077E-03-2.06806E+00-9.38800E-14-1.87895E-14
 -1      1049 1.55448E+01 9.20109E-01 7.82395E-03 1.37739E+00-1.31010E-13 1.85691E-13
 -1      1050 2.02395E+01 1.21417E+00-8.60761E-04-2.51186E-02-3.68583E-15 1.25949E-13
 -1      1051 1.98080E+01 3.23482E-01 1.84227E-05-1.43604E-02 3.06718E-13-3.67003E-13
 -1      1052 1.82036E+01-6.62587E-01 8.59979E-03-2.74324E+00 5.26432E-14-3.88044E-14
 -1      1053 1.98833E+01 2.50805E-01-2.52946E-05 1.08981E-01 1.40637E-13 4.90370E-14
 -1      1054 2.02031E+01 6.11283E-01 5.18107E-06-2.31572E-01-4.03313E-14 9.15611E-14
 -1      1055 1.70367E+01 3.37862E-01 1.70093E-03 2.04991E+00-1.42690E-13-7.67507E-16
 -1      1056 2.02282E+01 8.61350E-01 1.37053E-03-7.39234E-02 1.07986E-14 1.94327E-13
 -1      1057 1.85817E+01 5.93426E-01-3.97915E-05-1.19597E+00-2.20169E-14 6.36617E-14
 -1      1058 1.98157E+01 3.15516E-01-2.41806E-05 5.51039E-02 3.54113E-13-6.07489E-13
 -1      1059 2.02171E+01 9.01775E-01 2.64730E-04-2.35379E-02-4.18188E-15 1.42288E-13
 -1      1060 1.55473E+01 9.57686E-01 3.15392E-03-1.02192E+00-3.41643E-14-7.16538E-14
 -1      1061 1.82900E+01 4.07694E-01 2.83663E-04-1.56020E+00-1.03963E-14 6.31329E-14
 -1      1062 1.91547E+01 6.73228E-01-3.23183E-05-7.34163E-01 5.62559E-15 6.25361E-14
 -1      1063 2.01083E+01 5.18949E-01-6.20152E-06-3.48424E-01-9.03589E-14 9.56197E-14
 -1      1064 1.98362E+01 5.72165E-01-5.25173E-05-3.71836E-01-2.21117E-14 7.59797E-14
 -1      1065 1.96383E+01 6.00259E-01 1.71266E-04-4.69473E-01-7.14153E-14 5.62300E-14
 -1      1066 1.94578E+01 7.36537E-01-5.51151E-05 6.64076E-02-4.23343E-14-3.20274E-14
 -1      1067 1.91400E+01 8.26217E-01-1.16879E-04 4.98471E-02-5.02218E-14 5.33827E-14
 -1      1068 1.87499E+01 9.29908E-01 8.96232E-05 1.35973E-02 7.28123E-15 1.15298E-13
 -1      1069 1.82683E+01 1.02840E+00-1.85832E-04-5.14345E-02 2.26698E-15 4.54065E-14
 -1      1070 1.76648E+01 1.10491E+00-4.12551E-04-1.52449E-01-4.27254E-14 5.92104E-15
 -1      1071 1.69016E+01 1.13155E+00-8.53813E-04-3.03909E-01 8.67955E-15-8.03378E-14
 -1      1072 1.58724E+01 1.14563E+00-1.49825E-04-2.54301E-01 3.21201E-14-2.08150E-14
 -1      1073 1.79804E+01 8.31768E-01-5.64700E-04 1.07828E+00-9.13529E-14-2.58477E-13
 -1      1074 1.76788E+01 1.21177E+00 4.10027E-04 4.25922E-02 1.67525E-13-1.12120E-13
 -1      1075 1.82193E+01 1.12965E+00 5.38451E-04-1.82002E-02 7.71645E-14-1.38663E-13
 -1      1076 1.86361E+01 1.02044E+00-3.44256E-05-5.36557E-02-1.06318E-13 6.11442E-14
 -1      1077 1.89615E+01 8.99581E-01-9.78036E-05-7.18854E-02-1.01320E-13 2.15400E-14
 -1      1078 1.92172E+01 7.74896E-01-6.31571E-05-7.69569E-02 2.28111E-14-8.33601E-14
 -1      1079 1.94175E+01 6.53414E-01-7.73282E-05-7.37233E-02-2.67134E-14-1.85873E-13
 -1      1080 1.95747E+01 5.40435E-01 3.07794E-04-6.70131E-02 1.17936E-13-2.99945E-13
 -1      1081 1.96926E+01 4.40042E-01 5.83951E-06-5.78171E-02 2.64702E-13-5.87271E-13
 -1      1082 1.97546E+01 3.79549E-01 1.05468E-04-3.27494E-02 5.98824E-13-4.13177E-13
 -1      1083 1.86962E+01 8.87788E-01-1.67504E-04 5.88997E-01-1.19766E-14-3.11624E-13
 -1      1084 1.83756E+01 8.90282E-01 8.95204E-04 7.93784E-01-6.45180E-14-2.57077E-13
 -1      1085 1.75330E+01 6.64486E-01-1.52397E-03 1.47789E+00-9.04058E-14-1.03367E-13
 -1      1086 1.89714E+01 8.31563E-01-1.62913E-05 4.38412E-01-5.85984E-14-2.13109E-13
 -1      1087 1.92013E+01 7.49530E-01-3.68217E-05 3.27664E-01-1.02150E-14-6.75026E-14
 -1      1088 1.93902E+01 6.54320E-01-3.45801E-05 2.45035E-01-1.37088E-13 1.65654E-14
 -1      1089 1.95429E+01 5.56203E-01-2.54740E-05 1.82872E-01 1.76068E-14 2.23120E-13
 -1      1090 1.96645E+01 4.61834E-01-2.24677E-05 1.36151E-01 1.67606E-13 2.40917E-13
 -1      1091 1.97591E+01 3.75852E-01-9.04054E-05 1.00459E-01 2.08097E-13-9.08523E-14
 -1      1092 1.99282E+01 6.59535E-01 8.16894E-05 6.67825E-02 7.73530E-14 6.42343E-14
 -1      1093 2.00880E+01 7.07738E-01-2.09443E-04 5.02867E-02 3.84684E-14 8.58715E-14
 -1      1094 1.94100E+01 6.42030E-01 1.91619E-04-5.86733E-01-4.58404E-14-9.68253E-15
 -1      1095 2.02228E+01 9.20967E-01 8.78811E-04 1.81589E-02-6.08449E-15 9.96290E-14
 -1      1096 1.69685E+01 1.25705E+00 9.80090E-04 1.38291E-01 4.28362E-14 1.71705E-13
 -1      1097 1.97183E+01 6.75598E-01 4.29769E-05 7.12691E-02 2.34830E-14 5.33183E-14
 -1      1098 1.59231E+01 1.21513E+00-1.04566E-03 4.43846E-01-6.22297E-14 2.77911E-13
 -1      1099 2.00018E+01 5.81034E-01 7.00996E-05-2.86842E-01-9.16054E-14 6.56506E-14
 -1      1100 1.71054E+01 6.45668E-01 1.15583E-03-1.51165E+00 9.12378E-15-1.02596E-14
 -1      1101 2.01404E+01 6.73035E-01 1.57477E-04-1.74070E-01-3.14168E-14 1.67115E-13
 -1      1102 1.83244E+01 8.61049E-01 1.05510E-04-7.32211E-01-1.60343E-14-2.67411E-14
 -1      1103 1.66581E+01 9.72651E-01-3.41566E-04 1.10272E+00 1.53677E-14 2.27737E-13
 -1      1104 1.87400E+01 8.36780E-01 1.31081E-04-5.39710E-01-1.71705E-14-4.99097E-14
 -1      1105 1.98721E+01 6.32269E-01-1.70722E-05-1.72725E-01-5.97265E-15 3.28437E-14
 -1      1106 1.96601E+01 6.53950E-01-3.23919E-05-2.30489E-01-8.10395E-14 1.79174E-14
 -1      1107 1.93426E+01 7.41506E-01-1.20423E-04-2.10872E-01-9.94097E-15-4.08357E-14
 -1      1108 1.86761E+01 9.70364E-01-4.32951E-04 2.39525E-01-4.53279E-14-1.59328E-13
 -1      1109 1.90123E+01 8.20800E-01-1.94551E-04-2.94437E-01-2.50949E-15-1.44283E-14
 -1      1110 1.97674E+01 3.64700E-01 2.66689E-05 4.63196E-02 6.04681E-13-3.21886E-13
 -1      1111 1.78389E+01 8.26798E-01 7.05929E-05-1.00794E+00 4.43352E-15 5.96983E-15
 -1      1112 1.89781E+01 8.69773E-01 1.14767E-04 1.61357E-01-6.23000E-14-2.08750E-13
 -1      1113 1.92220E+01 7.58086E-01 1.24930E-04 1.07707E-01-1.07867E-14-8.07745E-14
 -1      1114 1.94161E+01 6.45176E-01 1.09728E-04 7.15127E-02-1.66438E-13-1.52090E-13
 -1      1115 1.95680E+01 5.37818E-01-1.24503E-04 4.61474E-02-3.16736E-14-2.70476E-13
 -1      1116 1.96804E+01 4.45905E-01 9.03700E-05 4.69943E-02 3.42746E-13-3.74563E-14
 -1      1117 1.80777E+01 1.07201E+00-9.01181E-04 4.45295E-01 8.62406E-14-1.06033E-13
 -1      1118 2.00173E+01 6.68113E-01-1.26615E-03-7.58776E-02 4.17789E-14 1.05988E-13
 -1      1119 1.68565E+01 9.63258E-01-1.30093E-03-8.96271E-01 8.08080E-14-3.13651E-14
 -1      1120 1.74635E+01 1.07273E+00-1.40535E-03 7.00681E-01-7.21920E-14 4.69335E-14
 -1      1121 2.78690E+01 9.05486E+00 2.31370E+00-6.67048E+00-3.88578E-16 8.87901E-14
 -1      1122 2.05198E+01 6.21914E+00 2.10619E-01-3.88151E+00-2.22045E-16 8.20524E-14
 -1      1123 1.94348E+01 5.85353E+00 7.69730E-02-2.86223E+00-5.55112E-17 6.60565E-14
 -1      1124 1.90412E+01 5.73080E+00 6.14229E-02-2.20632E+00 6.90420E-16 5.03894E-14
 -1      1125 1.88621E+01 5.67600E+00 5.79404E-02-1.67264E+00 1.08594E-15 4.74776E-14
 -1      1126 1.87708E+01 5.64785E+00 5.53082E-02-1.20845E+00 6.48787E-16 4.80527E-14
 -1      1127 1.87216E+01 5.63236E+00 5.29666E-02-7.84961E-01 7.55906E-16 6.03771E-14
 -1      1128 1.86964E+01 5.62432E+00 5.13114E-02-3.82423E-01 7.43112E-16 7.58855E-14
 -1      1129 1.86889E+01 5.62190E+00 5.07715E-02 8.53233E-03 1.16628E-15 8.02813E-14
 -1      1130 1.86970E+01 5.62453E+00 5.14139E-02 3.99895E-01 2.34339E-15 1.02452E-13
 -1      1131 1.87229E+01 5.63282E+00 5.31786E-02 8.03755E-01 2.22045E-15 1.27122E-13
 -1      1132 1.87736E+01 5.64888E+00 5.59453E-02 1.22975E+00 3.14766E-15 1.58795E-13
 -1      1133 1.88665E+01 5.67761E+00 5.88540E-02 1.69826E+00 1.71911E-15 1.93035E-13
 -1      1134 1.90463E+01 5.73241E+00 6.17355E-02 2.23942E+00 1.90820E-15 2.42929E-13
 -1      1135 1.94310E+01 5.85061E+00 7.10377E-02 2.90262E+00 1.17961E-15 2.98022E-13
 -1      1136 2.04260E+01 6.17407E+00 1.54179E-01 3.85600E+00-8.88178E-16 3.55271E-13
 -1      1137 2.51352E+01 7.96729E+00 1.42235E+00 5.82211E+00-1.14908E-14 3.96572E-13
 -1      1138 2.86922E+01 3.59728E+00 1.25932E+00-4.19810E+00 2.66454E-15 8.61533E-14
 -1      1139 2.01576E+01-1.77796E-01-6.15652E-01-1.08532E-01-9.22873E-16 1.03750E-13
 -1      1140 1.87883E+01-9.67540E-02-2.36090E-01 6.23270E-02-6.07153E-16 1.34734E-13
 -1      1141 1.84776E+01-4.90342E-02-6.03886E-02 4.01374E-02 7.08201E-16 1.41068E-13
 -1      1142 1.84524E+01-2.61744E-02-1.68340E-02 2.64076E-02-4.53370E-15 8.15042E-14
 -1      1143 1.85761E+01-1.53625E-02-7.52279E-03 1.87546E-02 1.10372E-16 1.12126E-13
 -1      1144 1.87835E+01-9.80716E-03-5.11775E-03 1.40206E-02 1.36683E-14 1.63914E-13
 -1      1145 1.90428E+01-7.11149E-03-4.42416E-03 1.09755E-02-4.05600E-16 2.26307E-13
 -1      1146 1.93411E+01-6.17982E-03-4.77864E-03 9.06369E-03-5.47164E-15 1.98605E-13
 -1      1147 1.96776E+01-6.42868E-03-6.09285E-03 8.08142E-03 3.02763E-15 5.70533E-14
 -1      1148 2.00597E+01-7.49731E-03-8.25201E-03 8.00667E-03 1.08670E-14 9.24131E-14
 -1      1149 2.05018E+01-9.08576E-03-1.10648E-02 8.92684E-03 2.09351E-14 2.58174E-13
 -1      1150 2.10226E+01-1.08340E-02-1.41909E-02 1.09997E-02 2.41571E-15 1.33147E-13
 -1      1151 2.16429E+01-1.21885E-02-1.69623E-02 1.43999E-02 1.83362E-14 2.19897E-13
 -1      1152 2.23806E+01-1.22321E-02-1.80711E-02 1.91952E-02-7.68504E-15 3.39100E-13
 -1      1153 2.32419E+01-9.48953E-03-1.51276E-02 2.50635E-02-3.68869E-14 3.36765E-13
 -1      1154 2.42049E+01-1.81290E-03-4.27616E-03 3.07285E-02-6.74057E-15 1.47538E-13
 -1      1155 2.51947E+01 1.33286E-02 1.94816E-02 3.30383E-02 1.66711E-14 2.97151E-13
 -1      1156 2.60502E+01 3.75059E-02 5.97654E-02 2.59785E-02 3.62774E-15 2.44721E-13
 -1      1157 2.64991E+01 6.80364E-02 1.12190E-01 9.36089E-04-1.02817E-14 5.85920E-14
 -1      1158 2.61843E+01 9.28530E-02 1.54333E-01-4.87214E-02 1.15203E-14 1.70308E-13
 -1      1159 2.48121E+01 8.79170E-02 1.42786E-01-1.15998E-01-4.63483E-14 3.75672E-13
 -1      1160 2.24481E+01 2.93493E-02 3.91966E-02-1.68412E-01 4.12233E-14 6.59056E-13
 -1      1161 1.97922E+01-7.42768E-02-1.34339E-01-1.56931E-01-5.63872E-15 4.22856E-13
 -1      1162 1.80421E+01-1.55086E-01-2.70679E-01-5.96496E-02 4.53717E-14 2.91739E-13
 -1      1163 1.81181E+01-1.61655E-01-2.68231E-01 7.62496E-02-2.78545E-14 3.78933E-13
 -1      1164 1.99417E+01-6.80716E-02-1.25441E-01 1.60249E-01-1.28500E-14-1.52212E-13
 -1      1165 2.26190E+01 3.41926E-02 4.73051E-02 1.66739E-01 4.87353E-14-3.69677E-13
 -1      1166 2.49455E+01 8.92131E-02 1.45070E-01 1.11937E-01 2.25835E-14-3.47000E-13
 -1      1167 2.62618E+01 9.13654E-02 1.51756E-01 4.50554E-02 1.91271E-14-2.13496E-13
 -1      1168 2.65354E+01 6.55703E-02 1.07970E-01-3.00576E-03-4.93702E-14-1.69879E-13
 -1      1169 2.60728E+01 3.50195E-02 5.58235E-02-2.66028E-02-4.25376E-14-5.61825E-13
 -1      1170 2.52300E+01 1.11704E-02 1.63271E-02-3.27102E-02 6.65145E-14-6.49779E-13
 -1      1171 2.42744E+01-3.67187E-03-6.80027E-03-2.98229E-02-3.69802E-14-6.55316E-13
 -1      1172 2.33633E+01-1.11923E-02-1.73606E-02-2.37558E-02 4.73147E-14-6.99451E-13
 -1      1173 2.25698E+01-1.39074E-02-2.02997E-02-1.74954E-02-1.99376E-14-6.13617E-13
 -1      1174 2.19156E+01-1.38976E-02-1.93569E-02-1.22117E-02-7.71523E-14-8.44155E-13
 -1      1175 2.13958E+01-1.25581E-02-1.68058E-02-8.15800E-03-5.91519E-15-3.53784E-13
 -1      1176 2.09936E+01-1.07150E-02-1.38483E-02-5.21370E-03-3.19148E-14-6.20802E-13
 -1      1177 2.06891E+01-8.81225E-03-1.10444E-02-3.15153E-03-7.12906E-15-8.80296E-13
 -1      1178 2.04631E+01-7.06308E-03-8.61187E-03-1.74792E-03 2.18030E-14-5.08518E-13
 -1      1179 2.02986E+01-5.55251E-03-6.60250E-03-8.18220E-04 5.27384E-14-6.95120E-13
 -1      1180 2.01816E+01-4.29904E-03-4.99585E-03-2.20474E-04-4.60168E-15-8.22765E-13
 -1      1181 2.01006E+01-3.28924E-03-3.74646E-03 1.51617E-04 1.10802E-14-6.10524E-13
 -1      1182 2.00467E+01-2.49660E-03-2.80651E-03 3.79073E-04 3.24703E-14-5.57859E-13
 -1      1183 2.00132E+01-1.88895E-03-2.12972E-03 5.29566E-04-3.16774E-14-8.80348E-13
 -1      1184 1.99950E+01-1.42218E-03-1.64668E-03 6.67465E-04-1.96022E-14-1.29323E-12
 -1      1185 1.99888E+01-1.02883E-03-1.17868E-03 8.54853E-04-1.33362E-14-3.22059E-13
 -1      1186 1.99915E+01-5.24115E-04-2.74455E-04 1.07926E-03 2.08088E-14-3.32845E-13
 -1      1187 1.99982E+01-1.40756E-04 1.41584E-03 5.40755E-04-3.31794E-14-2.24643E-13
 -1      1188 2.76790E+01 5.23375E-01 3.69948E-01 1.95952E+00-7.52870E-15 3.99014E-13
 -1      1189 2.00186E+01-6.68878E-02-5.72915E-01 1.29012E-01-5.04805E-15 4.54720E-13
 -1      1190 1.88642E+01-4.24799E-02-1.93086E-01 1.95993E-02 2.30024E-15 4.58999E-13
 -1      1191 1.85094E+01-2.35435E-02-5.11612E-02 1.88827E-03 1.32490E-15 5.01193E-13
 -1      1192 1.84691E+01-1.50804E-02-1.52156E-02-3.32858E-03-4.79174E-15 5.80643E-13
 -1      1193 1.85869E+01-9.81652E-03-7.19745E-03-4.27709E-03-3.54415E-15 6.55948E-13
 -1      1194 1.87908E+01-6.99232E-03-5.20045E-03-4.12916E-03 5.22228E-15 6.64923E-13
 -1      1195 1.90461E+01-5.55593E-03-4.58216E-03-3.59222E-03 1.07938E-15 6.70571E-13
 -1      1196 1.93369E+01-4.98611E-03-4.66026E-03-2.96829E-03 2.11804E-15 6.60444E-13
 -1      1197 1.96584E+01-4.93643E-03-5.27107E-03-2.44453E-03 5.19392E-15 7.03429E-13
 -1      1198 2.00124E+01-5.10745E-03-6.19374E-03-2.20616E-03-1.61785E-15 6.30730E-13
 -1      1199 2.04035E+01-5.17109E-03-7.06949E-03-2.46190E-03 1.16586E-14 5.70190E-13
 -1      1200 2.08362E+01-4.71647E-03-7.36136E-03-3.44750E-03 1.18402E-14 4.91567E-13
 -1      1201 2.13108E+01-3.21675E-03-6.29319E-03-5.40200E-03-1.45458E-14 5.06097E-13
 -1      1202 2.18179E+01-4.30159E-05-2.81187E-03-8.49113E-03 1.04216E-15 4.75541E-13
 -1      1203 2.23316E+01 5.41600E-03 4.32620E-03-1.26386E-02-1.76986E-14 3.24091E-13
 -1      1204 2.28015E+01 1.34369E-02 1.61692E-02-1.72322E-02 3.23645E-15 4.32307E-13
 -1      1205 2.31469E+01 2.33750E-02 3.26716E-02-2.07368E-02 5.94945E-15 4.68528E-13
 -1      1206 2.32571E+01 3.29056E-02 5.12383E-02-2.04422E-02-2.83701E-14 4.47612E-13
 -1      1207 2.30100E+01 3.76074E-02 6.52972E-02-1.28736E-02-1.01048E-14 4.26534E-13
 -1      1208 2.23158E+01 3.19070E-02 6.46074E-02 4.44396E-03 1.13971E-15 1.98785E-13
 -1      1209 2.11875E+01 1.24804E-02 3.96893E-02 2.98411E-02 2.68483E-14 3.06005E-15
 -1      1210 1.98077E+01-1.71675E-02-9.60573E-03 5.48847E-02-3.13475E-14 1.95330E-14
 -1      1211 1.85330E+01-4.49697E-02-6.71391E-02 6.65707E-02-7.88779E-15-6.53783E-14
 -1      1212 1.77805E+01-5.69734E-02-1.05816E-01 5.54005E-02 5.85382E-15-1.45058E-14
 -1      1213 1.78276E+01-4.73466E-02-1.05222E-01 2.36837E-02-1.45821E-14 2.64490E-13
 -1      1214 1.86569E+01-2.29356E-02-6.71323E-02-1.45912E-02 3.82173E-14 1.33400E-13
 -1      1215 1.99662E+01 2.78707E-03-1.36729E-02-4.31175E-02-6.65744E-15-5.86059E-14
 -1      1216 2.13378E+01 1.98997E-02 3.01807E-02-5.36185E-02-4.20640E-14-1.35864E-14
 -1      1217 2.24334E+01 2.59886E-02 5.17837E-02-4.81218E-02-7.50658E-15-1.82895E-13
 -1      1218 2.30925E+01 2.39013E-02 5.26497E-02-3.40745E-02 2.58678E-14-3.08104E-13
 -1      1219 2.33179E+01 1.78609E-02 4.14166E-02-1.86999E-02 2.97423E-14-3.76004E-13
 -1      1220 2.32065E+01 1.11001E-02 2.65890E-02-6.20210E-03-2.46901E-14-1.89338E-13
 -1      1221 2.28822E+01 5.33261E-03 1.33696E-02 2.12314E-03 9.13289E-15-1.13888E-13
 -1      1222 2.24541E+01 1.13943E-03 3.74149E-03 6.68190E-03-1.11869E-14-3.00383E-13
 -1      1223 2.20020E+01-1.53448E-03-2.26234E-03 8.49590E-03-8.93316E-15-4.89418E-13
 -1      1224 2.15753E+01-3.00108E-03-5.42304E-03 8.59382E-03-6.18563E-14-6.33636E-13
 -1      1225 2.12002E+01-3.61525E-03-6.65417E-03 7.77058E-03-2.77897E-15-3.95016E-13
 -1      1226 2.08864E+01-3.68215E-03-6.71571E-03 6.55645E-03-2.28965E-14-6.08106E-13
 -1      1227 2.06339E+01-3.43203E-03-6.14908E-03 5.26781E-03-2.67012E-14-2.59982E-13
 -1      1228 2.04371E+01-3.02480E-03-5.30500E-03 4.07290E-03 4.51221E-14-4.22504E-13
 -1      1229 2.02884E+01-2.56468E-03-4.39474E-03 3.04684E-03-2.67008E-14 3.07413E-14
 -1      1230 2.01792E+01-2.11571E-03-3.53734E-03 2.21053E-03-8.40934E-16 2.74513E-13
 -1      1231 2.01016E+01-1.71462E-03-2.79552E-03 1.55530E-03-4.22317E-14 2.20748E-13
 -1      1232 2.00490E+01-1.37935E-03-2.19991E-03 1.05637E-03 2.10305E-14 1.27257E-13
 -1      1233 2.00155E+01-1.11176E-03-1.75970E-03 6.76699E-04 8.80813E-14-5.35974E-13
 -1      1234 1.99970E+01-8.91559E-04-1.44832E-03 3.64766E-04-2.43836E-14-7.93208E-13
 -1      1235 1.99901E+01-6.26954E-04-1.09755E-03 1.32151E-05 7.06728E-14-9.53219E-13
 -1      1236 1.99925E+01-3.81836E-05-1.55133E-04-5.26537E-04 9.84777E-14-1.48811E-12
 -1      1237 1.99985E+01 4.86738E-04 1.50510E-03-4.83532E-04-4.24874E-14-1.01787E-12
 -1      1238 2.00002E+01-1.48297E-03 1.36875E-03-5.39341E-04-1.02321E-12-5.80353E-14
 -1      1239 1.99994E+01-7.17337E-03-4.11455E-04-9.34261E-04-1.06441E-12-2.03024E-14
 -1      1240 1.99990E+01-7.97650E-03-1.18577E-03-3.68412E-04-5.09179E-13-4.83053E-14
 -1      1241 1.99992E+01-2.79135E-04-9.76406E-04 1.16859E-04-7.79954E-14 5.29604E-14
 -1      1242 1.99996E+01 1.38104E-02-4.28190E-04 3.95327E-04 4.80558E-13-5.82774E-14
 -1      1243 2.00000E+01 3.04708E-02 1.75854E-04 4.83040E-04 8.17323E-14 1.92289E-14
 -1      1244 2.00004E+01 4.58291E-02 6.95208E-04 4.15627E-04-2.05922E-13 8.17245E-14
 -1      1245 2.00006E+01 5.65545E-02 1.04471E-03 2.28454E-04-4.12794E-13 6.12633E-14
 -1      1246 2.00007E+01 6.01639E-02 1.16369E-03-1.82365E-05-6.20050E-13-1.60178E-13
 -1      1247 2.00006E+01 5.58597E-02 1.03298E-03-2.63512E-04 4.19483E-13-1.51031E-14
 -1      1248 2.00004E+01 4.45149E-02 6.67733E-04-4.43757E-04 1.37102E-12-7.97157E-14
 -1      1249 2.00000E+01 2.87066E-02 1.33175E-04-5.03561E-04 4.54596E-14 1.20266E-14
 -1      1250 1.99996E+01 1.18819E-02-4.84143E-04-3.94818E-04-1.02713E-13-2.68993E-15
 -1      1251 1.99992E+01-2.00769E-03-1.03016E-03-8.78738E-05 2.70771E-13 2.38015E-14
 -1      1252 1.99991E+01-9.11163E-03-1.19144E-03 4.10395E-04 1.12223E-12 9.65766E-14
 -1      1253 1.99993E+01-7.60382E-03-3.63908E-04 9.95404E-04 1.04728E-12-1.10297E-13
 -1      1254 1.99995E+01-1.41143E-03 1.39719E-03 2.96228E-04 3.57910E-13 6.87086E-14
 -1      1255-1.06253E+00-2.33778E+01-3.62441E+00-2.24913E+00 1.02757E-12 1.26524E-13
 -1      1256-1.69560E+00-1.41448E+01-2.94384E+00-3.88299E+00 1.11777E-12 3.37508E-13
 -1      1257 5.40212E-01-1.59240E+00-1.72744E+00 2.44984E-01 1.05183E-12 7.03437E-13
 -1      1258 9.68401E+00 8.22974E+00-1.56439E-01 8.75524E+00 1.83875E-12 1.77369E-12
 -1      1259 2.70899E+01 1.10744E+01 1.53895E+00 1.64710E+01 1.46316E-12 2.11187E-12
 -1      1260 4.75552E+01 7.76769E+00 3.05717E+00 1.72437E+01 6.64857E-13 1.52478E-12
 -1      1261 6.25053E+01 3.13936E+00 3.91085E+00 9.18724E+00 1.95961E-13 5.13700E-13
 -1      1262 6.60070E+01 1.90033E+00 4.17363E+00-3.82991E+00 8.55566E-14-5.99465E-13
 -1      1263 5.51623E+01 5.55703E+00 3.51812E+00-1.46755E+01 3.56160E-13-1.10911E-12
 -1      1264 3.61429E+01 1.01935E+01 2.27758E+00-1.79093E+01 8.52540E-13-1.57252E-12
 -1      1265 1.71014E+01 1.06281E+01 6.64915E-01-1.30390E+01 1.05915E-12-1.30518E-12
 -1      1266 4.28061E+00 4.21009E+00-9.69311E-01-4.47012E+00 1.33471E-12-1.01941E-12
 -1      1267-1.10305E+00-7.53421E+00-2.34599E+00 2.29432E+00 1.04605E-12-6.07514E-13
 -1      1268-1.50446E+00-1.96217E+01-3.41464E+00 3.78616E+00 4.28213E-13-1.11272E-13
 -1      1269-1.05914E+00-2.49195E+01-3.78991E+00 1.91557E-01-2.10082E-13-7.11722E-14
 -1      1270-1.57759E+00-2.11994E+01-3.59008E+00-3.74189E+00-5.47007E-13-1.20293E-13
 -1      1271-1.59561E+00-9.93545E+00-2.66965E+00-3.31456E+00-4.64961E-13-1.98730E-13
 -1      1272 3.12955E+00 2.47452E+00-1.25460E+00 3.05941E+00-6.62137E-13-5.72875E-13
 -1      1273 1.62738E+01 9.91303E+00 4.41883E-01 1.22857E+01-9.89431E-13-1.16840E-12
 -1      1274 3.66467E+01 9.98724E+00 2.25810E+00 1.80082E+01-6.95777E-13-1.23501E-12
 -1      1275 5.70275E+01 5.39759E+00 3.72046E+00 1.45477E+01-2.13274E-13-8.95950E-13
 -1      1276 6.79805E+01 1.86462E+00 4.42437E+00 3.09776E+00-8.95811E-14-4.82087E-13
 -1      1277 6.39222E+01 3.08101E+00 4.12946E+00-1.00919E+01-1.19571E-13 2.12830E-13
 -1      1278 4.67182E+01 8.07564E+00 2.99213E+00-1.75208E+01-5.24025E-13 1.10756E-12
 -1      1279 2.53498E+01 1.08431E+01 1.32632E+00-1.59005E+01-8.13793E-13 1.34492E-12
 -1      1280 8.28671E+00 6.82365E+00-4.90784E-01-7.47829E+00-8.14904E-13 8.06910E-13
 -1      1281-2.37285E-01-3.86576E+00-2.09014E+00 9.32291E-01-1.43485E-12 7.37188E-13
 -1      1282-1.91083E+00-1.60533E+01-3.16609E+00 4.23067E+00-1.88916E-12 6.46205E-13
 -1      1283-1.05294E+00-2.42677E+01-3.74600E+00 2.22679E+00-6.25555E-13 2.44790E-13
 -1      1284 2.22009E+01 1.83529E+00-7.23332E-01-2.77670E+00-4.44089E-16 8.73746E-14
 -1      1285 2.03431E+01 4.68360E+00-4.76953E-02-3.28169E+00 1.38778E-15 7.77434E-14
 -1      1286 2.08348E+01 4.79889E+00-1.12405E-01-4.13548E+00 2.77556E-17 8.39051E-14
 -1      1287 1.95384E+01 4.99231E+00-1.90657E-02-2.62524E+00 4.23273E-15 6.32341E-14
 -1      1288 1.98268E+01 5.08630E+00 1.14021E-03-3.01762E+00 3.71231E-15 7.06379E-14
 -1      1289 2.05172E+01 3.94723E+00-2.54433E-02-3.04510E+00 3.98639E-15 7.77295E-14
 -1      1290 1.92021E+01 5.08864E+00-3.49850E-03-2.03901E+00 1.13295E-14 5.24268E-14
 -1      1291 1.93469E+01 5.14251E+00 1.13280E-02-2.33261E+00 7.20951E-15 6.18082E-14
 -1      1292 1.97650E+01 4.36731E+00-2.38042E-02-2.45652E+00 6.40113E-15 6.77583E-14
 -1      1293 1.90311E+01 5.13997E+00 3.13870E-03-1.53455E+00 7.81146E-15 4.13766E-14
 -1      1294 1.91074E+01 5.16947E+00 1.30854E-02-1.78347E+00 1.06460E-14 4.28546E-14
 -1      1295 1.94117E+01 4.56457E+00-1.91616E-02-1.89757E+00 2.10014E-14 4.69798E-14
 -1      1296 1.89377E+01 5.17332E+00 6.26505E-03-1.09120E+00 9.57697E-15 5.15542E-14
 -1      1297 1.89806E+01 5.18980E+00 1.30233E-02-1.31006E+00 6.12357E-15 4.83155E-14
 -1      1298 1.92265E+01 4.67744E+00-1.56600E-02-1.41376E+00 5.04111E-15 4.51063E-14
 -1      1299 1.88842E+01 5.19581E+00 7.75945E-03-6.75558E-01 8.32038E-15 6.81174E-14
 -1      1300 1.89084E+01 5.20504E+00 1.20810E-02-8.81662E-01 7.23380E-15 5.88349E-14
 -1      1301 1.91217E+01 4.74885E+00-1.35285E-02-9.78876E-01 1.25312E-14 5.24025E-14
 -1      1302 1.88585E+01 5.20938E+00 8.84660E-03-2.80845E-01 2.00944E-14 7.78978E-14
 -1      1303 1.88692E+01 5.21348E+00 1.08909E-02-4.77871E-01 1.59547E-14 7.38003E-14
 -1      1304 1.90628E+01 4.79212E+00-1.24771E-02-5.72232E-01 1.85292E-14 7.32990E-14
 -1      1305 1.88542E+01 5.21493E+00 9.87013E-03 1.05522E-01 2.01766E-14 9.07885E-14
 -1      1306 1.88539E+01 5.21482E+00 9.79668E-03-8.87137E-02 2.17942E-14 8.43752E-14
 -1      1307 1.90364E+01 4.81231E+00-1.20331E-02-1.83360E-01 3.43107E-14 8.58168E-14
 -1      1308 1.88704E+01 5.21296E+00 1.09797E-02 4.95273E-01 2.20900E-14 1.07962E-13
 -1      1309 1.88591E+01 5.20863E+00 8.77804E-03 2.97823E-01 2.05248E-14 9.55538E-14
 -1      1310 1.90371E+01 4.81159E+00-1.20564E-02 2.00016E-01 3.21227E-14 9.52884E-14
 -1      1311 1.89108E+01 5.20362E+00 1.21343E-02 9.00565E-01 2.48699E-14 1.31777E-13
 -1      1312 1.88860E+01 5.19427E+00 7.68864E-03 6.93496E-01 2.45836E-14 1.18367E-13
 -1      1313 1.90648E+01 4.78982E+00-1.25572E-02 5.89608E-01 3.83996E-14 1.05711E-13
 -1      1314 1.89837E+01 5.18780E+00 1.31653E-02 1.32765E+00 2.62490E-14 1.65461E-13
 -1      1315 1.89400E+01 5.17090E+00 6.10666E-03 1.10741E+00 2.52012E-14 1.48451E-13
 -1      1316 1.91249E+01 4.74507E+00-1.35955E-02 9.94182E-01 3.72122E-14 1.32370E-13
 -1      1317 1.91147E+01 5.16529E+00 1.34000E-02 1.80927E+00 2.92127E-14 2.00538E-13
 -1      1318 1.90364E+01 5.13527E+00 2.99748E-03 1.55758E+00 3.00992E-14 1.80642E-13
 -1      1319 1.92321E+01 4.67080E+00-1.57708E-02 1.43144E+00 4.75323E-14 1.69375E-13
 -1      1320 1.93569E+01 5.13618E+00 1.11458E-02 2.36654E+00 2.58543E-14 2.48836E-13
 -1      1321 1.92107E+01 5.08068E+00-4.04586E-03 2.06880E+00 2.54449E-14 2.22197E-13
 -1      1322 1.94232E+01 4.55127E+00-1.95340E-02 1.92418E+00 4.22362E-14 2.01499E-13
 -1      1323 1.98510E+01 5.09537E+00 6.85240E-03 3.05590E+00 2.04420E-14 3.09759E-13
 -1      1324 1.95494E+01 4.98341E+00-1.97292E-02 2.66736E+00 2.25722E-14 2.77039E-13
 -1      1325 1.97837E+01 4.34693E+00-2.43492E-02 2.49499E+00 3.66512E-14 2.53603E-13
 -1      1326 2.10694E+01 4.89485E+00 8.42923E-03 4.02861E+00 9.90874E-15 3.61849E-13
 -1      1327 2.03172E+01 4.72704E+00-4.72098E-02 3.39014E+00 1.67227E-14 3.34496E-13
 -1      1328 2.05536E+01 3.91050E+00-2.24019E-02 3.14842E+00 2.70409E-14 3.05186E-13
 -1      1329 2.71106E+01 3.19271E+00 9.22100E-01 4.56025E+00-7.97973E-15 3.75977E-13
 -1      1330 2.19706E+01 3.51396E+00-1.80953E-01 3.86352E+00 1.63758E-15 3.69982E-13
 -1      1331 2.20748E+01 2.55513E+00-3.23122E-02 3.43099E+00 1.25065E-14 3.39395E-13
 -1      1332 2.13630E+01 3.58566E-01-7.61736E-01 1.17377E+00-9.93650E-15 4.02789E-13
 -1      1333 2.19405E+01 1.30840E-01-3.99989E-01-1.27359E+00 1.42525E-14 8.16291E-14
 -1      1334 2.06308E+01 3.05781E-01-1.64051E-01-7.95812E-01 9.45771E-15 9.96286E-14
 -1      1335 2.00428E+01 1.53520E-01-7.31296E-02-3.92373E-01 1.02279E-14 9.61228E-14
 -1      1336 1.95849E+01 9.16507E-02-1.45782E-02-3.20232E-01 2.48759E-15 1.07879E-13
 -1      1337 2.09430E+01 3.68264E-01-1.04080E-01-1.25411E+00 1.71738E-14 7.98320E-14
 -1      1338 1.92397E+01 6.53625E-02 3.24379E-03-1.24102E-01-2.41387E-15 1.23731E-13
 -1      1339 1.90991E+01 4.25465E-02 1.34692E-02-1.05760E-01-9.68670E-15 1.18787E-13
 -1      1340 1.99139E+01 1.34573E-01-3.54235E-02-4.82757E-01 1.89432E-15 9.77673E-14
 -1      1341 1.89546E+01 3.31506E-02 1.34171E-02-1.29300E-02-6.62317E-15 1.10884E-13
 -1      1342 1.89536E+01 2.14527E-02 1.13539E-02-2.64201E-03-1.01160E-14 9.25770E-14
 -1      1343 1.94641E+01 5.76301E-02-8.98006E-03-1.42903E-01-1.54252E-14 1.18121E-13
 -1      1344 1.89190E+01 1.85347E-02 8.97537E-03 4.62347E-02-2.24061E-15 1.05357E-13
 -1      1345 1.89875E+01 1.21226E-02 6.79845E-03 5.22557E-02 5.68122E-16 1.18910E-13
 -1      1346 1.92919E+01 2.79464E-02-4.22673E-03 2.62317E-02-1.02340E-14 1.16150E-13
 -1      1347 1.90173E+01 1.14809E-02 4.89947E-03 8.09995E-02 2.62407E-14 1.07650E-13
 -1      1348 1.91250E+01 7.72472E-03 4.09640E-03 8.48660E-02 2.67852E-14 1.41579E-13
 -1      1349 1.92854E+01 1.54456E-02-3.23504E-03 1.20367E-01 1.69630E-14 9.68323E-14
 -1      1350 1.91956E+01 8.15720E-03 2.69320E-03 1.04077E-01 2.07941E-14 1.49436E-13
 -1      1351 1.93290E+01 5.97486E-03 2.76888E-03 1.07033E-01 2.37874E-15 1.51189E-13
 -1      1352 1.93811E+01 1.01074E-02-2.68592E-03 1.78868E-01 3.07994E-14 7.90730E-14
 -1      1353 1.94288E+01 7.07280E-03 1.57887E-03 1.22593E-01-1.04573E-14 1.58023E-13
 -1      1354 1.95832E+01 5.91163E-03 2.09393E-03 1.25483E-01-3.17968E-14 1.21179E-13
 -1      1355 1.95454E+01 8.57736E-03-2.34876E-03 2.21345E-01-9.09060E-15 1.03126E-13
 -1      1356 1.97074E+01 7.51800E-03 9.42409E-04 1.41177E-01-1.62747E-14 1.09915E-13
 -1      1357 1.98839E+01 7.03113E-03 1.69851E-03 1.44631E-01-1.79530E-14 7.73669E-14
 -1      1358 1.97626E+01 9.51959E-03-2.30781E-03 2.59404E-01-4.11294E-14 1.21200E-13
 -1      1359 2.00323E+01 9.08759E-03 4.78759E-04 1.63120E-01 4.64559E-15 1.20728E-13
 -1      1360 2.02356E+01 8.99649E-03 1.40533E-03 1.67628E-01 4.33390E-14 1.71980E-13
 -1      1361 2.00278E+01 1.22493E-02-2.56887E-03 3.00808E-01 1.66885E-14 1.68704E-13
 -1      1362 2.04109E+01 1.14724E-02 2.98457E-05 1.90784E-01 4.05982E-14 1.37411E-13
 -1      1363 2.06487E+01 1.14780E-02 1.10277E-03 1.96708E-01-6.69343E-15 1.43472E-13
 -1      1364 2.03432E+01 1.62914E-02-3.08122E-03 3.51028E-01 4.18992E-14 1.43589E-13
 -1      1365 2.08555E+01 1.43072E-02-5.10270E-04 2.25573E-01-3.53472E-14 1.53149E-13
 -1      1366 2.11368E+01 1.40047E-02 6.91566E-04 2.33099E-01-9.75110E-15 1.28831E-13
 -1      1367 2.07158E+01 2.11056E-02-3.76596E-03 4.13609E-01-2.60625E-14 1.23729E-13
 -1      1368 2.13802E+01 1.69946E-02-1.21920E-03 2.67466E-01 4.43131E-14 1.28060E-13
 -1      1369 2.17137E+01 1.57693E-02 8.34735E-05 2.76454E-01 2.78193E-14 1.90769E-13
 -1      1370 2.11550E+01 2.57947E-02-4.50413E-03 4.89641E-01 2.24426E-14 1.44920E-13
 -1      1371 2.19969E+01 1.84531E-02-2.11292E-03 3.13960E-01 3.48675E-14 1.68369E-13
 -1      1372 2.23875E+01 1.53556E-02-7.48299E-04 3.23658E-01-8.48757E-15 2.11718E-13
 -1      1373 2.16690E+01 2.86888E-02-5.09057E-03 5.76224E-01 1.18625E-14 1.25574E-13
 -1      1374 2.27096E+01 1.67683E-02-3.04301E-03 3.58212E-01-4.36795E-14 2.53049E-13
 -1      1375 2.31520E+01 1.04178E-02-1.64574E-03 3.66743E-01-6.41488E-14 2.07211E-13
 -1      1376 2.22612E+01 2.67582E-02-5.15193E-03 6.63584E-01 7.68049E-15 1.13132E-13
 -1      1377 2.35031E+01 8.83169E-03-3.50943E-03 3.86289E-01-3.00150E-14 2.17906E-13
 -1      1378 2.39724E+01-2.48121E-03-2.06921E-03 3.89912E-01 7.03508E-15 2.01610E-13
 -1      1379 2.29222E+01 1.49733E-02-4.03229E-03 7.30594E-01-4.04362E-14 2.38612E-13
 -1      1380 2.43277E+01-9.65774E-03-2.44743E-03 3.74174E-01 3.29441E-14 1.88786E-13
 -1      1381 2.47662E+01-2.72578E-02-9.31265E-04 3.66516E-01 1.29725E-14 2.37026E-13
 -1      1382 2.36207E+01-1.37902E-02-7.00186E-04 7.39373E-01 1.58584E-14 1.90184E-13
 -1      1383 2.50794E+01-4.28180E-02 1.74706E-03 2.87138E-01-3.81709E-14 2.19226E-13
 -1      1384 2.53844E+01-6.56570E-02 3.15116E-03 2.59318E-01-7.64814E-14 1.56066E-13
 -1      1385 2.42909E+01-6.66999E-02 6.13660E-03 6.32321E-01-2.65933E-14 1.61368E-13
 -1      1386 2.55844E+01-9.01396E-02 1.02658E-02 8.78087E-02-4.48652E-14 1.43355E-13
 -1      1387 2.56107E+01-1.11117E-01 1.05637E-02 3.15560E-02-5.93726E-14 6.20337E-14
 -1      1388 2.48216E+01-1.43934E-01 1.72675E-02 3.40487E-01-7.44405E-14 1.44484E-13
 -1      1389 2.56095E+01-1.37654E-01 2.13870E-02-2.37242E-01 3.03299E-14 1.14769E-13
 -1      1390 2.52109E+01-1.40247E-01 1.80786E-02-3.20377E-01 8.37351E-15 1.55993E-13
 -1      1391 2.50574E+01-2.24573E-01 3.09852E-02-1.81217E-01-1.79023E-15 1.48274E-13
 -1      1392 2.49351E+01-1.49854E-01 2.73932E-02-6.28833E-01 2.11515E-14 2.10040E-13
 -1      1393 2.40649E+01-1.12822E-01 1.70381E-02-7.13137E-01 5.58182E-14 2.96679E-13
 -1      1394 2.48323E+01-2.53302E-01 3.99447E-02-8.79557E-01 6.46046E-14 9.74151E-14
 -1      1395 2.35235E+01-8.25443E-02 1.64605E-02-9.16575E-01 5.09670E-14 3.45196E-13
 -1      1396 2.23616E+01-3.98823E-04-1.14773E-03-9.48931E-01 5.62072E-15 3.93699E-13
 -1      1397 2.40641E+01-1.58394E-01 3.02284E-02-1.51829E+00 8.89323E-14 2.15435E-13
 -1      1398 2.17186E+01 6.96340E-02-1.39800E-02-8.71252E-01-3.50397E-14 4.67071E-13
 -1      1399 2.07014E+01 1.62471E-01-3.17250E-02-8.02617E-01-6.50799E-14 3.21063E-13
 -1      1400 2.29037E+01 7.76819E-02-7.88738E-03-1.69989E+00 1.03875E-14 3.23810E-13
 -1      1401 2.02637E+01 2.21461E-01-4.61215E-02-3.92328E-01 4.44436E-15 2.99101E-13
 -1      1402 1.98885E+01 2.65937E-01-5.11648E-02-2.37315E-01-1.91860E-15 2.89516E-13
 -1      1403 2.18187E+01 3.45205E-01-5.82686E-02-1.11693E+00-7.67580E-14 3.89471E-13
 -1      1404 1.99081E+01 2.61005E-01-5.20436E-02 2.91886E-01-2.57988E-14 2.15678E-13
 -1      1405 2.03309E+01 2.19612E-01-4.41952E-02 4.32234E-01-1.06287E-13 1.19467E-13
 -1      1406 2.13990E+01 4.55733E-01-8.15992E-02 4.29340E-02-6.63601E-14 1.78020E-13
 -1      1407 2.07884E+01 1.51630E-01-3.15622E-02 8.25731E-01-1.44475E-13 5.10980E-14
 -1      1408 2.18325E+01 5.99003E-02-1.21833E-02 8.88934E-01-7.88258E-14-1.93456E-13
 -1      1409 2.18733E+01 3.33488E-01-5.60458E-02 1.17768E+00-1.90306E-13-2.68188E-15
 -1      1410 2.24804E+01-9.00779E-03 7.60362E-06 9.47299E-01-1.37160E-14-2.76917E-13
 -1      1411 2.36393E+01-8.90657E-02 1.74298E-02 9.10233E-01-1.37390E-15-3.24338E-13
 -1      1412 2.29862E+01 6.14738E-02-5.40563E-03 1.71506E+00-1.62955E-13-9.56041E-14
 -1      1413 2.41718E+01-1.16639E-01 1.71135E-02 6.95724E-01-5.59622E-15-2.97318E-13
 -1      1414 2.50210E+01-1.50727E-01 2.69393E-02 6.10257E-01 8.78811E-15-2.55566E-13
 -1      1415 2.41411E+01-1.68212E-01 3.09187E-02 1.49630E+00-4.28112E-14-2.96332E-13
 -1      1416 2.52844E+01-1.39142E-01 1.73297E-02 3.01900E-01 4.01398E-14-3.31173E-13
 -1      1417 2.56611E+01-1.34698E-01 2.04333E-02 2.20296E-01-6.13658E-14-2.96910E-13
 -1      1418 2.48869E+01-2.54048E-01 3.90163E-02 8.45332E-01 2.21351E-14-2.20350E-13
 -1      1419 2.56547E+01-1.07771E-01 9.83734E-03-4.18688E-02-5.79172E-14-3.29593E-13
 -1      1420 2.56161E+01-8.62417E-02 9.57349E-03-9.58849E-02-7.71778E-14-4.57773E-13
 -1      1421 2.50924E+01-2.19297E-01 2.97283E-02 1.56277E-01-5.31797E-14-4.02194E-13
 -1      1422 2.54158E+01-6.20624E-02 2.74377E-03-2.59308E-01-1.51350E-13-3.87461E-13
 -1      1423 2.51110E+01-3.93314E-02 1.42171E-03-2.85132E-01-3.73234E-14-5.53058E-13
 -1      1424 2.48497E+01-1.37378E-01 1.61544E-02-3.47397E-01-8.88855E-14-4.42286E-13
 -1      1425 2.48052E+01-2.41334E-02-1.08108E-03-3.57228E-01 6.88932E-14-5.10623E-13
 -1      1426 2.43784E+01-6.83727E-03-2.49716E-03-3.63307E-01 4.04713E-14-5.17225E-13
 -1      1427 2.43269E+01-6.08898E-02 5.26337E-03-6.20847E-01-2.74347E-15-2.90098E-13
 -1      1428 2.40374E+01 1.45555E-04-2.08588E-03-3.72960E-01-4.15746E-14-3.78465E-13
 -1      1429 2.35892E+01 1.11687E-02-3.41638E-03-3.68064E-01-9.25681E-14-4.53988E-13
 -1      1430 2.36787E+01-9.05836E-03-1.38775E-03-7.12031E-01 5.08248E-14-2.76205E-13
 -1      1431 2.32586E+01 1.27785E-02-1.63736E-03-3.43236E-01-7.50485E-15-5.20271E-13
 -1      1432 2.28456E+01 1.89006E-02-2.90312E-03-3.33557E-01 4.56525E-14-4.94424E-13
 -1      1433 2.30147E+01 1.89928E-02-4.62502E-03-6.89776E-01-8.06586E-14-2.68470E-13
 -1      1434 2.25497E+01 1.76868E-02-7.83545E-04-2.93992E-01 1.02260E-14-5.66415E-13
 -1      1435 2.21962E+01 2.05831E-02-1.98817E-03-2.83136E-01-9.71178E-14-5.58971E-13
 -1      1436 2.23996E+01 3.05518E-02-5.72140E-03-6.10531E-01-5.23952E-15-4.30406E-13
 -1      1437 2.19448E+01 1.82236E-02-4.00335E-05-2.40516E-01-6.07864E-14-6.34853E-13
 -1      1438 2.16564E+01 1.92128E-02-1.14962E-03-2.30285E-01 1.42902E-14-6.51444E-13
 -1      1439 2.18641E+01 3.26152E-02-5.67419E-03-5.11108E-01-1.00891E-13-4.88588E-13
 -1      1440 2.14504E+01 1.66317E-02 4.43465E-04-1.90559E-01 8.24772E-14-5.70026E-13
 -1      1441 2.12226E+01 1.65902E-02-5.32689E-04-1.81691E-01 1.38652E-14-4.35326E-13
 -1      1442 2.14174E+01 3.00273E-02-5.10521E-03-4.12044E-01 1.17583E-13-4.25263E-13
 -1      1443 2.10585E+01 1.42216E-02 6.87628E-04-1.47329E-01-1.45871E-13-4.23272E-13
 -1      1444 2.08830E+01 1.36802E-02-1.32814E-04-1.40003E-01-1.81851E-13-6.90680E-13
 -1      1445 2.10562E+01 2.56369E-02-4.35496E-03-3.23097E-01-8.34753E-14-3.03992E-13
 -1      1446 2.07552E+01 1.16833E-02 7.63444E-04-1.11584E-01-5.27221E-14-7.15751E-13
 -1      1447 2.06229E+01 1.09437E-02 1.00981E-04-1.05717E-01 1.06670E-14-6.52411E-13
 -1      1448 2.07711E+01 2.09308E-02-3.59311E-03-2.47765E-01-1.47076E-13-3.12503E-13
 -1      1449 2.05252E+01 9.34123E-03 7.38781E-04-8.29030E-02 4.77344E-14-5.54378E-13
 -1      1450 2.04274E+01 8.56586E-03 2.21917E-04-7.83055E-02 6.13584E-14-4.34949E-13
 -1      1451 2.05508E+01 1.65935E-02-2.89612E-03-1.86282E-01 6.98248E-15-3.26341E-13
 -1      1452 2.03541E+01 7.32176E-03 6.62919E-04-6.03817E-02 4.81098E-14-3.46267E-13
 -1      1453 2.02833E+01 6.59283E-03 2.71597E-04-5.68391E-02 1.09955E-14-4.03607E-13
 -1      1454 2.03836E+01 1.28812E-02-2.29269E-03-1.37370E-01 5.74599E-14-8.55954E-14
 -1      1455 2.02294E+01 5.65186E-03 5.66647E-04-4.29873E-02-2.49062E-14-3.27754E-13
 -1      1456 2.01793E+01 5.00666E-03 2.78425E-04-4.02939E-02-1.54565E-14-4.81956E-13
 -1      1457 2.02592E+01 9.84078E-03-1.78819E-03-9.91927E-02 4.28143E-14-1.14073E-14
 -1      1458 2.01406E+01 4.31309E-03 4.66516E-04-2.97250E-02-3.26260E-14-3.31093E-13
 -1      1459 2.01063E+01 3.76459E-03 2.59301E-04-2.76977E-02-3.95001E-14-3.84975E-13
 -1      1460 2.01685E+01 7.42780E-03-1.37746E-03-6.98316E-02 2.66599E-14 1.11722E-14
 -1      1461 2.00793E+01 3.27046E-03 3.68160E-04-1.97029E-02-5.46108E-14-4.99368E-13
 -1      1462 2.00569E+01 2.81845E-03 2.21567E-04-1.81832E-02-4.36044E-15-5.02439E-13
 -1      1463 2.01040E+01 5.56796E-03-1.05129E-03-4.74995E-02-4.93039E-14-2.96122E-13
 -1      1464 2.00388E+01 2.48593E-03 2.69252E-04-1.21487E-02-3.76118E-14-6.66012E-13
 -1      1465 2.00253E+01 2.11875E-03 1.66428E-04-1.09999E-02-2.14557E-13-9.64010E-13
 -1      1466 2.00596E+01 4.18334E-03-8.00237E-04-3.06187E-02-1.65453E-13-4.30975E-13
 -1      1467 2.00139E+01 1.91283E-03 1.65639E-04-6.42204E-03-6.97416E-14-9.14933E-13
 -1      1468 2.00073E+01 1.59997E-03 1.03155E-04-5.53162E-03 3.14486E-14-8.33750E-13
 -1      1469 2.00306E+01 3.19044E-03-6.11986E-04-1.78510E-02-8.80921E-14-5.91566E-13
 -1      1470 2.00009E+01 1.47386E-03 7.24025E-05-2.07705E-03 1.67054E-13-6.90239E-13
 -1      1471 1.99993E+01 1.13761E-03 8.61260E-05-1.37886E-03 9.17083E-14-3.99339E-13
 -1      1472 2.00130E+01 2.46143E-03-4.60104E-04-8.19837E-03 1.33405E-13-5.55744E-13
 -1      1473 1.99965E+01 9.21344E-04 8.49274E-05 9.18796E-04-1.22684E-13-1.31091E-13
 -1      1474 1.99983E+01 5.46031E-04 3.37974E-04 1.27290E-03-1.95895E-14-2.70225E-13
 -1      1475 2.00038E+01 1.63628E-03-2.89509E-04-1.19108E-03 7.01066E-14-2.79275E-13
 -1      1476 1.99977E+01-9.44200E-05 3.92402E-04 2.06302E-03 1.69287E-13-3.03148E-13
 -1      1477 1.99996E+01-5.74959E-04 9.83781E-04 1.27283E-03 1.83373E-13-1.42227E-13
 -1      1478 1.99999E+01-2.52957E-03 3.29004E-04 1.98363E-03 5.27866E-13-1.30034E-14
 -1      1479 2.00005E+01 7.47873E-04 9.31137E-05 2.24544E-03 1.05293E-13-2.23129E-13
 -1      1480 2.02152E+01 7.57461E-02-1.51155E-01 4.75342E-01 9.99548E-15 3.88904E-13
 -1      1481 2.14725E+01 2.15804E-01-2.28939E-01 7.12092E-01 2.90046E-15 3.79280E-13
 -1      1482 2.16848E+01 8.79070E-01-8.53613E-02 2.04650E+00-2.88658E-15 3.34718E-13
 -1      1483 1.93080E+01 3.45049E-02-2.05980E-02 1.76742E-01-9.29291E-15 3.92089E-13
 -1      1484 1.97192E+01 1.14397E-01-6.15958E-02 2.30551E-01-3.81639E-15 3.86415E-13
 -1      1485 2.02797E+01 1.86004E-01-5.55030E-02 7.71587E-01-3.83027E-15 3.15532E-13
 -1      1486 1.89544E+01 1.73867E-02 6.04270E-03 4.17905E-02-2.15886E-14 4.38510E-13
 -1      1487 1.90810E+01 5.22771E-02 1.87138E-03 6.97389E-02-2.17023E-14 4.02779E-13
 -1      1488 1.95550E+01 6.76927E-02-1.55533E-02 2.78239E-01-3.47240E-14 3.32564E-13
 -1      1489 1.88804E+01 9.76462E-03 7.02714E-03-2.38016E-02-1.88924E-14 5.01300E-13
 -1      1490 1.88786E+01 2.69497E-02 1.16506E-02-7.76186E-03-2.34786E-14 4.52825E-13
 -1      1491 1.92506E+01 2.29148E-02-7.33397E-03 5.12940E-02-4.14052E-14 3.65215E-13
 -1      1492 1.89565E+01 5.49669E-03 4.56440E-03-6.02114E-02 2.64068E-15 5.10003E-13
 -1      1493 1.88877E+01 1.58191E-02 8.65651E-03-5.04193E-02-5.19246E-15 4.99123E-13
 -1      1494 1.91756E+01 9.62238E-03-5.34894E-03-6.30630E-02-2.55759E-14 3.66247E-13
 -1      1495 1.91201E+01 3.41555E-03 2.91387E-03-8.19451E-02 8.95920E-15 5.10723E-13
 -1      1496 1.90135E+01 1.03572E-02 5.44451E-03-7.53768E-02 2.52673E-15 5.10224E-13
 -1      1497 1.92347E+01 4.59017E-03-4.16779E-03-1.26763E-01-2.56717E-15 3.81112E-13
 -1      1498 1.93394E+01 2.53658E-03 1.95696E-03-9.67793E-02 1.31000E-14 5.09180E-13
 -1      1499 1.92090E+01 7.70255E-03 3.54558E-03-9.18256E-02 9.58131E-15 5.13201E-13
 -1      1500 1.93748E+01 2.80538E-03-3.36044E-03-1.66613E-01 6.39744E-15 3.79155E-13
 -1      1501 1.95996E+01 2.35775E-03 1.30724E-03-1.08996E-01-1.47879E-14 5.18209E-13
 -1      1502 1.94513E+01 6.62334E-03 2.46170E-03-1.04648E-01-7.81254E-15 5.03455E-13
 -1      1503 1.95696E+01 2.59472E-03-2.86459E-03-1.95517E-01-7.31251E-15 3.98405E-13
 -1      1504 1.98955E+01 2.56577E-03 7.73721E-04-1.21115E-01 3.45440E-14 5.38628E-13
 -1      1505 1.97306E+01 6.51005E-03 1.78627E-03-1.16716E-01 1.76336E-14 5.51561E-13
 -1      1506 1.98062E+01 3.24471E-03-2.67064E-03-2.20693E-01-9.83675E-15 3.85535E-13
 -1      1507 2.02271E+01 2.89351E-03 3.03588E-04-1.34404E-01 1.47989E-14 5.23742E-13
 -1      1508 2.00444E+01 6.91622E-03 1.30987E-03-1.29575E-01 1.54202E-14 5.20101E-13
 -1      1509 2.00795E+01 4.25637E-03-2.71065E-03-2.46156E-01 3.91463E-14 3.85108E-13
 -1      1510 2.05963E+01 3.05026E-03-8.34236E-05-1.48951E-01 3.36241E-14 4.28759E-13
 -1      1511 2.03940E+01 7.39740E-03 9.38347E-04-1.43599E-01 3.69019E-14 4.84126E-13
 -1      1512 2.03880E+01 5.12255E-03-2.87628E-03-2.73454E-01 6.20531E-14 3.72937E-13
 -1      1513 2.10032E+01 2.67412E-03-3.11140E-04-1.63458E-01 2.96765E-14 4.05668E-13
 -1      1514 2.07807E+01 7.40767E-03 6.34093E-04-1.57851E-01 1.82558E-14 4.05247E-13
 -1      1515 2.07313E+01 5.20946E-03-3.02059E-03-3.01623E-01 5.23363E-14 3.41889E-13
 -1      1516 2.14424E+01 1.30215E-03-2.33982E-04-1.74842E-01-7.89128E-15 3.94394E-13
 -1      1517 2.12024E+01 6.22207E-03 4.00840E-04-1.69755E-01-4.26487E-15 3.78811E-13
 -1      1518 2.11063E+01 3.67322E-03-2.93897E-03-3.26685E-01 8.87425E-15 2.96263E-13
 -1      1519 2.18975E+01-1.61990E-03 3.80881E-04-1.77765E-01 3.42312E-14 3.60489E-13
 -1      1520 2.16492E+01 2.90162E-03 2.92470E-04-1.74662E-01 6.57018E-15 4.24233E-13
 -1      1521 2.15035E+01-5.67252E-04-2.34374E-03-3.40881E-01-6.47877E-15 3.28481E-13
 -1      1522 2.23353E+01-6.63475E-03 1.84106E-03-1.64342E-01-3.50471E-14 3.32281E-13
 -1      1523 2.20980E+01-3.62976E-03 4.26805E-04-1.65543E-01 4.86471E-15 3.52883E-13
 -1      1524 2.19032E+01-8.71352E-03-8.54372E-04-3.31997E-01 2.37247E-14 3.61062E-13
 -1      1525 2.27008E+01-1.39887E-02 4.42388E-03-1.24610E-01-7.99577E-15 3.92160E-13
 -1      1526 2.25067E+01-1.42621E-02 9.74791E-04-1.33278E-01-5.23379E-14 3.00837E-13
 -1      1527 2.22705E+01-2.16606E-02 1.95413E-03-2.83546E-01-5.47704E-14 2.84025E-13
 -1      1528 2.29154E+01-2.30712E-02 8.09873E-03-4.87741E-02 1.45457E-15 4.37515E-13
 -1      1529 2.28106E+01-2.89535E-02 2.07818E-03-6.83812E-02 6.13442E-15 4.30321E-13
 -1      1530 2.25532E+01-3.90530E-02 6.37432E-03-1.77199E-01-3.26874E-14 3.68870E-13
 -1      1531 2.28853E+01-3.16311E-02 1.20521E-02 6.75838E-02 1.38175E-14 3.24396E-13
 -1      1532 2.29246E+01-4.55132E-02 3.64562E-03 3.47526E-02 3.39494E-14 3.86059E-13
 -1      1533 2.26834E+01-5.77959E-02 1.21871E-02 5.59894E-04 4.07556E-14 3.59060E-13
 -1      1534 2.25258E+01-3.52326E-02 1.42261E-02 2.15074E-01 4.82982E-14 2.38795E-13
 -1      1535 2.27577E+01-5.83667E-02 5.04499E-03 1.70638E-01 1.62370E-15 2.76147E-13
 -1      1536 2.25887E+01-7.06310E-02 1.81072E-02 2.46179E-01 5.25144E-14 1.93777E-13
 -1      1537 2.18060E+01-2.80423E-02 1.15394E-02 3.61847E-01 5.43207E-14 1.18371E-13
 -1      1538 2.22458E+01-5.86903E-02 4.92073E-03 3.14472E-01 4.15466E-14 2.51309E-13
 -1      1539 2.22172E+01-6.65333E-02 2.13870E-02 5.23377E-01 8.12588E-14 2.07168E-13
 -1      1540 2.08027E+01-6.18813E-03 1.63039E-03 4.53089E-01-8.58619E-14 1.26246E-13
 -1      1541 2.14014E+01-3.79431E-02 1.71080E-03 4.19356E-01-2.67364E-15 1.46584E-13
 -1      1542 2.15760E+01-3.55068E-02 1.83956E-02 7.53747E-01-5.90370E-15 2.66204E-13
 -1      1543 1.97313E+01 2.66588E-02-1.41245E-02 4.29785E-01 6.80523E-14 8.49459E-14
 -1      1544 2.03592E+01 4.52547E-03-5.01747E-03 4.28641E-01-6.70557E-15 1.06658E-13
 -1      1545 2.07680E+01 2.21936E-02 6.98998E-03 8.31104E-01-1.78291E-14 2.58600E-13
 -1      1546 1.89065E+01 5.68426E-02-2.88405E-02 2.67093E-01-6.65700E-15 9.31685E-14
 -1      1547 1.93802E+01 5.51123E-02-1.28635E-02 3.07499E-01-1.45613E-14 5.59136E-14
 -1      1548 1.99982E+01 8.80373E-02-1.03368E-02 6.72201E-01 4.42459E-14 1.99448E-13
 -1      1549 1.86165E+01 6.76441E-02-3.36402E-02 5.84938E-03-6.01975E-14 1.31413E-13
 -1      1550 1.87727E+01 9.01321E-02-1.72408E-02 7.67458E-02-5.05516E-14 3.54300E-14
 -1      1551 1.95152E+01 1.31973E-01-2.53458E-02 2.84259E-01-3.16067E-14 1.87342E-13
 -1      1552 1.89729E+01 5.20854E-02-2.46237E-02-2.57987E-01 4.55061E-14 2.86098E-13
 -1      1553 1.87526E+01 9.15647E-02-1.46029E-02-1.84111E-01 1.30590E-14 2.47958E-13
 -1      1554 1.94960E+01 1.29497E-01-3.00780E-02-2.09565E-01-7.15573E-14 2.48307E-13
 -1      1555 1.98451E+01 1.89828E-02-6.55467E-03-4.26748E-01 6.97775E-14 8.24132E-14
 -1      1556 1.93274E+01 6.04260E-02-5.76388E-03-3.77560E-01 5.75278E-14 1.98317E-13
 -1      1557 1.99492E+01 8.14132E-02-2.25248E-02-6.26187E-01 9.28545E-14 1.99212E-13
 -1      1558 2.09346E+01-1.39543E-02 1.07697E-02-4.56845E-01-3.11618E-14 6.32341E-14
 -1      1559 2.02931E+01 1.55183E-02 4.49502E-03-4.44119E-01 8.61136E-15 8.62574E-14
 -1      1560 2.07089E+01 1.23690E-02-8.62209E-03-8.26535E-01 3.18163E-14 1.81173E-13
 -1      1561 2.19304E+01-3.38575E-02 2.02593E-02-3.71045E-01 5.14346E-16 2.35020E-14
 -1      1562 2.13446E+01-2.20990E-02 1.11893E-02-3.88527E-01-2.71901E-14-7.00828E-15
 -1      1563 2.15291E+01-4.59487E-02 3.94272E-03-7.85170E-01-4.54771E-14 1.47176E-13
 -1      1564 2.26300E+01-3.83682E-02 2.09203E-02-2.27395E-01 4.85063E-14-6.64920E-14
 -1      1565 2.22167E+01-4.17097E-02 1.25195E-02-2.60083E-01 2.12851E-14 1.59456E-14
 -1      1566 2.21993E+01-7.53312E-02 1.09636E-02-5.75018E-01 1.92728E-14 9.77508E-14
 -1      1567 2.29709E+01-3.22929E-02 1.60538E-02-8.13407E-02 3.76942E-14-2.16179E-13
 -1      1568 2.27657E+01-4.41581E-02 9.83465E-03-1.15366E-01 4.02447E-14-1.63432E-13
 -1      1569 2.26082E+01-7.61693E-02 1.24882E-02-3.02629E-01 8.05094E-14-1.01101E-13
 -1      1570 2.29946E+01-2.19896E-02 9.56597E-03 3.40893E-02-2.04411E-14-1.63940E-13
 -1      1571 2.29727E+01-3.61237E-02 5.67669E-03 6.77493E-03 2.87964E-16-2.34651E-13
 -1      1572 2.27431E+01-5.96874E-02 1.05960E-02-5.29033E-02-8.86444E-16-7.98476E-14
 -1      1573 2.27908E+01-1.19184E-02 3.98568E-03 1.08621E-01 4.22514E-14-7.15695E-14
 -1      1574 2.28994E+01-2.44026E-02 1.96799E-03 9.05353E-02-2.56180E-14-1.19346E-13
 -1      1575 2.26533E+01-3.78696E-02 7.41577E-03 1.31221E-01-7.80157E-14-6.41275E-14
 -1      1576 2.24541E+01-4.11329E-03 2.07620E-04 1.46143E-01 6.10178E-14-1.27285E-13
 -1      1577 2.26380E+01-1.33397E-02-4.75235E-04 1.36485E-01 4.17728E-14-4.81516E-14
 -1      1578 2.24118E+01-1.83713E-02 4.28951E-03 2.41907E-01-3.46164E-15 3.64860E-14
 -1      1579 2.20625E+01 1.03787E-03-1.86347E-03 1.56201E-01-6.07633E-14-1.73552E-13
 -1      1580 2.22767E+01-4.82009E-03-1.66804E-03 1.52866E-01 3.82816E-14-1.57481E-13
 -1      1581 2.20889E+01-4.18266E-03 1.81552E-03 2.90729E-01 5.97370E-14-1.90898E-13
 -1      1582 2.16699E+01 3.93678E-03-2.70275E-03 1.48751E-01 8.02667E-15-3.02924E-13
 -1      1583 2.18839E+01 8.55066E-04-1.97288E-03 1.49528E-01 3.13703E-15-2.43481E-13
 -1      1584 2.17397E+01 4.59431E-03 1.12593E-04 2.95697E-01 4.43176E-14-1.06649E-13
 -1      1585 2.13092E+01 5.21599E-03-2.79787E-03 1.31842E-01-6.06316E-14-4.44563E-13
 -1      1586 2.15047E+01 4.13089E-03-1.78593E-03 1.34932E-01-5.39054E-15-3.95139E-13
 -1      1587 2.14016E+01 9.09776E-03-9.24853E-04 2.73884E-01 5.61492E-14-9.22400E-14
 -1      1588 2.09964E+01 5.45970E-03-2.51455E-03 1.11106E-01 2.30036E-14-3.42890E-13
 -1      1589 2.11647E+01 5.66222E-03-1.39906E-03 1.15237E-01-7.48358E-14-3.69371E-13
 -1      1590 2.10963E+01 1.06997E-02-1.46551E-03 2.38495E-01-7.41354E-14-2.94285E-13
 -1      1591 2.07367E+01 5.11278E-03-2.08391E-03 9.00652E-02-6.30865E-14-3.01354E-13
 -1      1592 2.08754E+01 6.05340E-03-9.84258E-04 9.44245E-02-7.14272E-15-3.07007E-13
 -1      1593 2.08342E+01 1.05572E-02-1.66874E-03 1.98511E-01-5.07621E-14-3.09795E-13
 -1      1594 2.05284E+01 4.47867E-03-1.63430E-03 7.06813E-02 2.87203E-14-2.74928E-13
 -1      1595 2.06387E+01 5.77168E-03-6.23101E-04 7.48009E-02-4.57765E-14-3.43123E-13
 -1      1596 2.06177E+01 9.49996E-03-1.66063E-03 1.59408E-01 1.38914E-14-3.09530E-13
 -1      1597 2.03662E+01 3.74830E-03-1.22790E-03 5.38653E-02-1.07952E-13-1.86488E-13
 -1      1598 2.04513E+01 5.14355E-03-3.42461E-04 5.75111E-02 2.43798E-14-2.38385E-13
 -1      1599 2.04443E+01 8.06469E-03-1.53226E-03 1.24120E-01 2.79095E-15-1.43526E-13
 -1      1600 2.02435E+01 3.03287E-03-8.88835E-04 3.98748E-02-3.09878E-14 1.50714E-13
 -1      1601 2.03073E+01 4.38131E-03-1.41418E-04 4.29620E-02-1.23069E-13-6.59592E-14
 -1      1602 2.03095E+01 6.57046E-03-1.34570E-03 9.39028E-02-1.56571E-13-1.80725E-14
 -1      1603 2.01534E+01 2.39133E-03-6.21751E-04 2.85900E-02-4.83963E-14 2.74732E-13
 -1      1604 2.01997E+01 3.61467E-03-7.85377E-06 3.11235E-02-2.29094E-14 3.19704E-13
 -1      1605 2.02074E+01 5.19083E-03-1.14135E-03 6.89804E-02-1.31195E-13 1.47039E-13
 -1      1606 2.00893E+01 1.85037E-03-4.23388E-04 1.96935E-02 7.22073E-14 1.60193E-13
 -1      1607 2.01218E+01 2.91812E-03 7.23385E-05 2.17286E-02 5.15049E-14 2.42175E-13
 -1      1608 2.01323E+01 4.00924E-03-9.44706E-04 4.89906E-02 4.98594E-14 2.26384E-13
 -1      1609 2.00459E+01 1.41721E-03-2.89289E-04 1.27798E-02 2.13116E-13-1.60285E-13
 -1      1610 2.00674E+01 2.33090E-03 1.10423E-04 1.43987E-02 1.71621E-13 5.25991E-14
 -1      1611 2.00789E+01 3.05604E-03-7.72050E-04 3.32745E-02 2.74557E-13-1.52218E-14
 -1      1612 2.00184E+01 1.08502E-03-2.15353E-04 7.42576E-03 1.98481E-13-4.94168E-13
 -1      1613 2.00315E+01 1.86824E-03 1.12666E-04 8.72335E-03 2.09558E-13-1.88545E-13
 -1      1614 2.00426E+01 2.33063E-03-6.33710E-04 2.10599E-02 2.65155E-13-2.39125E-14
 -1      1615 2.00032E+01 8.31496E-04-1.78181E-04 3.26480E-03 2.10875E-14-4.86473E-13
 -1      1616 2.00099E+01 1.51622E-03 8.57176E-05 4.32770E-03-1.43459E-15-4.86872E-13
 -1      1617 2.00195E+01 1.79388E-03-5.32795E-04 1.15948E-02 1.11543E-13-9.37713E-14
 -1      1618 1.99976E+01 5.78099E-04-7.06319E-05 5.68470E-05 1.24485E-13-7.35856E-13
 -1      1619 1.99991E+01 1.21383E-03 6.04981E-05 9.57181E-04 1.21467E-13-4.53086E-13
 -1      1620 2.00064E+01 1.39914E-03-4.23249E-04 4.32785E-03 1.86042E-13-1.29315E-13
 -1      1621 1.99982E+01 1.09584E-04 3.98969E-04-1.76554E-03-8.85070E-14-8.06892E-13
 -1      1622 1.99964E+01 6.43698E-04 1.76182E-04-1.18297E-03 1.07647E-14-7.76809E-13
 -1      1623 2.00007E+01 7.09730E-04-1.91310E-04-7.64150E-04 8.73342E-14-2.06287E-13
 -1      1624 1.99987E+01-1.00465E-03 7.06562E-04-1.20887E-03-5.24078E-13-5.75152E-13
 -1      1625 2.00007E+01-2.64257E-03-1.09307E-04-4.87921E-04-5.16637E-13 2.02156E-13
 -1      1626 2.00005E+01-1.34733E-03 2.52932E-04-9.04974E-04-6.90923E-13 7.05481E-14
 -1      1627 2.00010E+01 1.90558E-03-1.76958E-04 2.49153E-03-2.76258E-13 1.24052E-13
 -1      1628 2.00010E+01-1.20731E-04-1.02935E-04 1.75799E-03-3.70123E-13 1.36833E-13
 -1      1629 2.00019E+01 3.71099E-03-2.09053E-04 1.85219E-03-2.44492E-13 3.10583E-13
 -1      1630 2.00006E+01 1.18890E-02-1.39060E-04 5.15744E-03-5.52395E-14 5.68671E-14
 -1      1631 2.00007E+01 6.57250E-03-1.36357E-04 4.64678E-03-1.81473E-13 1.33008E-13
 -1      1632 2.00016E+01 1.11746E-02-3.12888E-04 7.24955E-03-9.71110E-14 3.57529E-13
 -1      1633 2.00000E+01 2.55786E-02-7.78252E-05 6.69246E-03 1.24665E-13 1.38011E-13
 -1      1634 2.00003E+01 1.82026E-02-7.62985E-05 6.49194E-03-4.02614E-14 2.54987E-13
 -1      1635 2.00009E+01 2.24551E-02-1.64735E-04 1.14985E-02-1.76986E-13 1.54072E-13
 -1      1636 1.99994E+01 3.98237E-02-3.43626E-05 6.69868E-03 1.21319E-13-1.69515E-13
 -1      1637 1.99997E+01 3.22774E-02-3.30342E-05 6.81372E-03 2.90425E-13-1.46223E-13
 -1      1638 2.00000E+01 3.57210E-02 1.00955E-05 1.31959E-02 4.71550E-14 8.94730E-16
 -1      1639 1.99990E+01 5.21086E-02-5.00074E-06 5.24731E-03-6.38776E-14-2.89713E-14
 -1      1640 1.99992E+01 4.58810E-02-3.16670E-06 5.64058E-03 3.76735E-14-1.22733E-13
 -1      1641 1.99991E+01 4.86605E-02 1.81009E-04 1.20158E-02 1.92609E-13-3.45627E-13
 -1      1642 1.99987E+01 5.96368E-02 1.04548E-05 2.68165E-03-3.25206E-13-5.15191E-15
 -1      1643 1.99988E+01 5.62348E-02 1.25712E-05 3.25869E-03-2.68214E-13 1.13592E-13
 -1      1644 1.99984E+01 5.89613E-02 3.13423E-04 8.27242E-03-2.70615E-14-2.27954E-13
 -1      1645 1.99986E+01 6.08812E-02 1.51502E-05-4.49506E-04-1.00480E-13-1.05405E-13
 -1      1646 1.99986E+01 6.10460E-02 1.71678E-05 1.90868E-04-2.09136E-13 8.46779E-14
 -1      1647 1.99980E+01 6.45612E-02 3.84880E-04 2.79716E-03-2.15621E-14 1.85236E-15
 -1      1648 1.99988E+01 5.55816E-02 9.00154E-06-3.50225E-03 4.67748E-13 2.90064E-13
 -1      1649 1.99987E+01 5.92963E-02 1.13086E-05-2.93016E-03 6.75992E-14 2.94973E-13
 -1      1650 1.99980E+01 6.43957E-02 3.84377E-04-3.27474E-03 2.14108E-13 3.66400E-13
 -1      1651 1.99992E+01 4.48121E-02-9.70433E-06-5.83647E-03 5.29045E-13-1.10092E-13
 -1      1652 1.99990E+01 5.12950E-02-5.32690E-06-5.45734E-03 5.64432E-13-2.04663E-16
 -1      1653 1.99984E+01 5.84766E-02 3.10194E-04-8.70003E-03 1.42528E-13 3.38012E-13
 -1      1654 1.99998E+01 3.10664E-02-3.86293E-05-6.91958E-03 3.23300E-14-8.97593E-14
 -1      1655 1.99995E+01 3.87521E-02-3.83823E-05-6.82267E-03 5.00830E-13-3.86280E-13
 -1      1656 1.99992E+01 4.80076E-02 1.78523E-04-1.23137E-02 1.14718E-13-4.17040E-13
 -1      1657 2.00004E+01 1.68179E-02-8.36032E-05-6.48109E-03 1.77750E-13 6.80050E-14
 -1      1658 2.00000E+01 2.41879E-02-8.69391E-05-6.71022E-03 8.57829E-14 2.32669E-13
 -1      1659 2.00001E+01 3.48962E-02 2.11018E-06-1.33170E-02 3.01839E-13 9.55558E-14
 -1      1660 2.00008E+01 5.42566E-03-1.26555E-04-4.50062E-03 4.61238E-13 1.86366E-13
 -1      1661 2.00006E+01 1.05251E-02-1.50697E-04-5.03794E-03 2.28762E-13 1.33742E-13
 -1      1662 2.00011E+01 2.14809E-02-1.72641E-04-1.13763E-02 3.73609E-13 2.00118E-13
 -1      1663 2.00010E+01-8.55213E-04-6.73375E-05-1.43915E-03 5.25832E-13 1.45666E-14
 -1      1664 2.00010E+01 8.23966E-04-2.05024E-04-2.21671E-03 4.44599E-13 1.40354E-13
 -1      1665 2.00017E+01 1.02781E-02-3.03376E-04-6.87490E-03 2.27970E-13 2.49288E-13
 -1      1666 2.00005E+01-1.97860E-03 1.91011E-04 8.60384E-04 4.77487E-13-6.31473E-14
 -1      1667 2.00007E+01-3.29019E-03-1.49379E-04 4.32096E-04 4.91427E-13-1.39825E-13
 -1      1668 2.00015E+01 3.38338E-03-3.16762E-04-1.64819E-03 1.11172E-13-1.28964E-13
 -1      1669 2.00011E+01 3.41885E-05 4.69361E-05 1.70718E-03 1.55512E-13-5.48225E-14
 -1      1670-5.28850E-01-1.41348E+01-1.64093E+00-8.18584E-01 6.94000E-13 2.21295E-13
 -1      1671-5.53463E-01-1.65777E+01-1.85859E+00 4.17649E-01 2.30316E-13 3.88772E-13
 -1      1672 1.40740E+00-7.59166E+00-1.19360E+00 5.27661E-01 6.89337E-13 2.24570E-13
 -1      1673 6.28488E-01-1.27730E+01-1.72420E+00-1.66792E-01 7.08544E-13 1.73007E-13
 -1      1674 6.99315E+00 1.69437E-02-5.19756E-01 4.70052E+00 8.34666E-13 9.80549E-13
 -1      1675 3.86073E+00-5.43911E+00-1.29010E+00 1.76750E+00 6.15397E-13 5.82367E-13
 -1      1676 1.76379E+01 5.33044E+00 2.66213E-01 9.93340E+00 1.14642E-12 1.41320E-12
 -1      1677 1.09741E+01 1.97625E+00-6.30525E-01 6.15677E+00 9.48575E-13 1.07236E-12
 -1      1678 3.25530E+01 6.29699E+00 9.96295E-01 1.24454E+01 8.45046E-13 1.13842E-12
 -1      1679 2.31619E+01 6.12430E+00 1.60616E-01 1.05611E+01 1.06870E-12 1.28275E-12
 -1      1680 4.56725E+01 4.88583E+00 1.46114E+00 1.00020E+01 4.59632E-13 6.72573E-13
 -1      1681 3.74943E+01 6.53214E+00 9.08394E-01 1.17837E+01 7.54008E-13 9.81881E-13
 -1      1682 5.28152E+01 3.76600E+00 1.64607E+00 2.85145E+00 3.15081E-13 1.11855E-14
 -1      1683 4.84420E+01 4.97125E+00 1.37710E+00 7.76474E+00 4.00471E-13 3.71259E-13
 -1      1684 5.24765E+01 4.06900E+00 1.62729E+00-5.07546E+00 2.60902E-13-5.48284E-13
 -1      1685 5.42650E+01 3.53947E+00 1.73193E+00 5.04426E-01 2.16632E-13-1.58523E-13
 -1      1686 4.28931E+01 5.85974E+00 1.15648E+00-1.05431E+01 3.93879E-13-8.01914E-13
 -1      1687 4.99944E+01 4.21411E+00 1.64453E+00-7.24989E+00 3.03368E-13-5.89639E-13
 -1      1688 2.95641E+01 6.71256E+00 5.20125E-01-1.17088E+01 6.33049E-13-9.27702E-13
 -1      1689 3.86211E+01 5.86199E+00 1.24239E+00-1.20261E+01 4.87221E-13-8.72857E-13
 -1      1690 1.63968E+01 4.64143E+00-2.30196E-01-8.65082E+00 7.34857E-13-7.95142E-13
 -1      1691 2.42775E+01 6.37270E+00 6.31472E-01-1.17254E+01 6.35159E-13-1.02673E-12
 -1      1692 7.23585E+00-1.19725E+00-9.12911E-01-3.99475E+00 8.65974E-13-5.98188E-13
 -1      1693 1.19285E+01 3.23041E+00-9.40051E-02-7.45775E+00 8.80185E-13-6.55254E-13
 -1      1694 2.40272E+00-9.12285E+00-1.43741E+00-8.85428E-01 4.49196E-13-3.96572E-13
 -1      1695 4.38140E+00-3.48353E+00-7.80179E-01-2.89403E+00 7.01439E-13-7.04381E-13
 -1      1696-1.03614E-01-1.52105E+01-1.80991E+00 8.45595E-02 8.29892E-14-1.33893E-13
 -1      1697 8.52753E-02-1.11232E+01-1.44017E+00 5.39411E-01 3.90243E-13-2.68632E-13
 -1      1698-6.97780E-01-1.56666E+01-1.67714E+00-8.44472E-01-2.18284E-13-1.70752E-13
 -1      1699-6.66512E-01-1.53057E+01-1.64853E+00 5.95316E-01 1.83742E-14-1.18905E-13
 -1      1700-1.21045E-01-1.21937E+01-1.51412E+00-8.39058E-01-3.10640E-13-9.04901E-14
 -1      1701-2.29152E-01-1.56479E+01-1.79240E+00-1.48474E-01-2.63400E-13-6.97498E-14
 -1      1702 2.94214E+00-4.93254E+00-1.04054E+00 1.58473E+00-3.23741E-13-1.72196E-13
 -1      1703 1.43639E+00-1.06084E+01-1.65041E+00-5.51279E-02-3.13305E-13-1.05194E-13
 -1      1704 1.07285E+01 2.11518E+00-3.06772E-01 6.63789E+00-4.64517E-13-6.03184E-13
 -1      1705 6.14984E+00-2.73698E+00-1.13623E+00 3.05480E+00-3.35287E-13-3.53273E-13
 -1      1706 2.45647E+01 5.40736E+00 5.55070E-01 1.11215E+01-5.96079E-13-8.04912E-13
 -1      1707 1.62275E+01 3.27303E+00-3.61497E-01 7.76394E+00-5.28466E-13-7.59059E-13
 -1      1708 3.96189E+01 5.84211E+00 1.34686E+00 1.22434E+01-4.59244E-13-8.17346E-13
 -1      1709 2.98523E+01 6.67616E+00 5.22326E-01 1.17940E+01-6.31384E-13-8.90843E-13
 -1      1710 5.16813E+01 4.09103E+00 1.78675E+00 6.88582E+00-1.99105E-13-5.69544E-13
 -1      1711 4.41685E+01 5.76106E+00 1.26012E+00 1.04341E+01-3.35912E-13-7.38409E-13
 -1      1712 5.58654E+01 3.57639E+00 1.94693E+00-1.00736E+00-1.53322E-13-2.60181E-13
 -1      1713 5.42586E+01 3.98080E+00 1.80442E+00 4.63247E+00-2.22100E-13-4.41980E-13
 -1      1714 5.04101E+01 4.86405E+00 1.64582E+00-8.67903E+00-2.94792E-13 3.23741E-13
 -1      1715 5.54623E+01 3.53386E+00 2.01067E+00-3.73204E+00-1.93651E-13-9.97535E-14
 -1      1716 3.68410E+01 6.28055E+00 8.61410E-01-1.14227E+01-6.09124E-13 7.76490E-13
 -1      1717 4.61137E+01 4.86688E+00 1.58850E+00-1.00348E+01-4.34444E-13 4.62075E-13
 -1      1718 2.20324E+01 5.73847E+00 4.70542E-02-1.01988E+01-4.46643E-13 9.15712E-13
 -1      1719 3.13997E+01 6.28990E+00 9.62871E-01-1.24573E+01-5.91305E-13 1.05738E-12
 -1      1720 1.06569E+01 2.28024E-01-7.53624E-01-5.31285E+00-7.65499E-13 5.48117E-13
 -1      1721 1.72015E+01 3.99280E+00 1.40012E-01-9.13879E+00-5.83977E-13 8.10130E-13
 -1      1722 3.26783E+00-6.78999E+00-1.40434E+00-1.15819E+00-1.12799E-12 4.85556E-13
 -1      1723 5.95082E+00-1.32463E+00-7.02537E-01-3.79299E+00-8.63976E-13 5.12257E-13
 -1      1724 5.67934E-01-1.34212E+01-1.69178E+00 1.38626E-01-9.85323E-13 3.65305E-13
 -1      1725 1.22302E+00-8.69505E+00-1.25058E+00-3.09855E-01-1.07003E-12 3.05311E-13
 -1      1726-6.59448E-01-1.69097E+01-1.89741E+00-1.37029E-01 2.17742E-14 4.35207E-13
 -1      1727-7.27714E-01-1.50986E+01-1.74705E+00 1.25943E+00-7.07101E-13 4.61353E-13
 -1      1728 1.41344E+01-2.56611E+00-3.20130E-01 6.50903E+00 3.48499E-13 8.29115E-13
 -1      1729-1.32507E+00-1.14979E+01-1.32724E+00 3.16737E-01-5.04527E-14 7.02549E-13
 -1      1730 1.99999E+01-1.53619E-03 2.97087E-04-2.09002E-03-6.28760E-13-2.06988E-13
 -1      1731 2.00009E+01 1.21046E-03 2.26319E-04-1.76372E-03-2.52612E-13-1.02469E-13
 -1      1732 6.61310E-01-1.00939E+01-1.19237E+00 2.42121E+00 2.64899E-13 1.09218E-13
 -1      1733 5.91391E+00-6.87194E+00-8.63993E-01 4.52154E+00 3.40838E-13 4.46337E-13
 -1      1734 2.47207E+01 1.41181E+00 3.23565E-01 7.54105E+00 5.54667E-13 6.24389E-13
 -1      1735 3.50620E+01 4.43371E+00 8.78819E-01 6.71962E+00 6.17228E-13 3.58047E-13
 -1      1736 4.22135E+01 6.50495E+00 1.19259E+00 4.07807E+00 5.83256E-13 2.76446E-14
 -1      1737 4.56669E+01 7.39804E+00 1.35303E+00 5.48534E-01 4.57689E-13-9.57706E-14
 -1      1738 4.46712E+01 7.14093E+00 1.39401E+00-2.70568E+00 3.62488E-13-3.31124E-13
 -1      1739 3.87843E+01 5.46141E+00 1.08628E+00-5.62852E+00 3.48221E-13-4.36207E-13
 -1      1740 2.96671E+01 2.99391E+00 6.14485E-01-7.50215E+00 3.58935E-13-4.80505E-13
 -1      1741 1.92318E+01-4.54012E-01-1.50554E-02-7.25419E+00 4.24549E-13-3.91243E-13
 -1      1742 1.02962E+01-4.77533E+00-5.73028E-01-5.76390E+00 3.16747E-13-4.21496E-13
 -1      1743 3.38381E+00-8.48253E+00-9.72209E-01-3.86748E+00 1.50213E-13-3.93532E-13
 -1      1744-6.55636E-01-1.05234E+01-1.20768E+00-1.42152E+00-5.81479E-14-2.51466E-13
 -1      1745-8.69061E-01-1.05506E+01-1.19223E+00 8.23437E-01 2.24820E-14-1.87295E-13
 -1      1746 2.27397E+00-9.26209E+00-1.13268E+00 2.98797E+00-1.01363E-13-3.05311E-14
 -1      1747 8.90750E+00-5.60452E+00-7.14382E-01 5.07781E+00-1.24900E-13-2.78444E-13
 -1      1748 1.90576E+01-1.57181E+00-7.39521E-02 6.79124E+00-1.61315E-13-5.53113E-13
 -1      1749 2.99584E+01 2.11383E+00 5.00542E-01 7.00007E+00-3.51608E-13-6.06404E-13
 -1      1750 3.98943E+01 5.29477E+00 1.13584E+00 5.60031E+00-4.02400E-13-5.13145E-13
 -1      1751 4.59541E+01 7.11434E+00 1.48505E+00 2.34768E+00-2.99594E-13-3.49054E-13
 -1      1752 4.79815E+01 7.33409E+00 1.65519E+00-1.10511E+00-3.19023E-13-1.36641E-13
 -1      1753 4.35328E+01 6.12732E+00 1.32826E+00-4.11931E+00-4.46754E-13 1.44662E-13
 -1      1754 3.49645E+01 3.84424E+00 8.52214E-01-6.51969E+00-3.87357E-13 4.85723E-13
 -1      1755 2.41832E+01 1.87696E-01 1.72436E-01-7.05895E+00-3.00426E-13 6.90781E-13
 -1      1756 1.37279E+01-3.76449E+00-3.98928E-01-6.12542E+00-6.31939E-13 3.80251E-13
 -1      1757 5.31228E+00-7.51720E+00-9.07123E-01-4.16842E+00-6.15841E-13 2.34764E-13
 -1      1758 3.98095E-01-1.02981E+01-1.17294E+00-2.09822E+00-3.81639E-13 5.87974E-13
 -1      1759 2.28034E+01 1.97886E+00-2.41107E-02-2.70311E+00 5.18335E-15 8.63198E-14
 -1      1760 1.98403E+01 3.71891E+00-3.54700E-02-2.11539E+00 1.54919E-14 6.38690E-14
 -1      1761 2.00676E+01 3.56455E+00-3.98074E-02-2.40823E+00 9.08475E-15 7.53946E-14
 -1      1762 2.03645E+01 3.17912E+00-4.55941E-02-2.55154E+00 6.84695E-15 7.92491E-14
 -1      1763 2.05735E+01 2.80490E+00-1.41749E-01-2.82152E+00 2.03657E-15 7.88189E-14
 -1      1764 2.04313E+01 2.69559E+00-3.98603E-03-2.18616E+00 1.28792E-14 8.26561E-14
 -1      1765 1.93728E+01 4.21249E+00-2.01671E-02-1.23623E+00 5.31996E-15 3.94077E-14
 -1      1766 1.94483E+01 4.17001E+00-1.65421E-02-1.45826E+00 1.02973E-14 3.89740E-14
 -1      1767 1.92716E+01 4.32641E+00-1.67987E-02-8.32920E-01 1.05508E-14 6.22835E-14
 -1      1768 1.93169E+01 4.30020E+00-1.38923E-02-1.03962E+00 1.11987E-14 4.46830E-14
 -1      1769 1.95411E+01 3.81842E+00-8.58788E-03-1.08324E+00 4.01643E-15 4.58557E-14
 -1      1770 1.92159E+01 4.39247E+00-1.47431E-02-4.50806E-01 2.48667E-14 7.90739E-14
 -1      1771 1.92399E+01 4.37821E+00-1.29961E-02-6.45793E-01 1.89835E-14 7.16059E-14
 -1      1772 1.94378E+01 3.94788E+00-8.69110E-03-7.06523E-01 1.77944E-14 7.56617E-14
 -1      1773 1.91942E+01 4.42075E+00-1.35136E-02-8.02331E-02 4.63849E-14 9.29187E-14
 -1      1774 1.92015E+01 4.41637E+00-1.29753E-02-2.69696E-01 3.52546E-14 8.08069E-14
 -1      1775 1.93829E+01 4.01827E+00-8.62247E-03-3.44266E-01 3.03769E-14 8.85281E-14
 -1      1776 1.92028E+01 4.41484E+00-1.29236E-02 2.88533E-01 4.67429E-14 9.65287E-14
 -1      1777 1.91946E+01 4.41983E+00-1.36058E-02 9.88984E-02 4.58711E-14 9.51426E-14
 -1      1778 1.93662E+01 4.03962E+00-8.60051E-03 1.03352E-02 4.83417E-14 1.00440E-13
 -1      1779 1.92433E+01 4.37381E+00-1.30165E-02 6.65423E-01 4.31391E-14 1.01570E-13
 -1      1780 1.92182E+01 4.38897E+00-1.48712E-02 4.69897E-01 4.56080E-14 8.83772E-14
 -1      1781 1.93852E+01 4.01460E+00-8.67314E-03 3.65170E-01 4.94805E-14 1.03237E-13
 -1      1782 1.93211E+01 4.29391E+00-1.40527E-02 1.05389E+00 3.72822E-14 1.45739E-13
 -1      1783 1.92755E+01 4.32059E+00-1.70228E-02 8.49887E-01 3.85876E-14 1.28333E-13
 -1      1784 1.94424E+01 3.94091E+00-8.74323E-03 7.24926E-01 3.69737E-14 1.24520E-13
 -1      1785 1.94559E+01 4.15811E+00-1.70549E-02 1.47809E+00 5.75026E-14 1.78409E-13
 -1      1786 1.93781E+01 4.20353E+00-2.06122E-02 1.25098E+00 4.91547E-14 1.60438E-13
 -1      1787 1.95476E+01 3.80763E+00-8.90039E-03 1.09944E+00 4.72257E-14 1.65881E-13
 -1      1788 1.96834E+01 3.93234E+00-2.49524E-02 1.94115E+00 4.52693E-14 2.04087E-13
 -1      1789 1.95523E+01 4.01230E+00-2.70158E-02 1.68460E+00 5.10538E-14 1.86087E-13
 -1      1790 1.97245E+01 3.58920E+00-8.61251E-03 1.49415E+00 5.25743E-14 1.86476E-13
 -1      1791 2.00875E+01 3.52429E+00-4.38645E-02 2.43914E+00 3.67779E-14 2.51757E-13
 -1      1792 1.98550E+01 3.68892E+00-3.79514E-02 2.14356E+00 3.46286E-14 2.21531E-13
 -1      1793 2.00183E+01 3.23364E+00-6.15746E-03 1.88973E+00 3.87104E-14 2.16650E-13
 -1      1794 2.09068E+01 2.66552E+00-6.16224E-02 2.82383E+00 2.87726E-14 2.89796E-13
 -1      1795 2.04127E+01 3.09819E+00-4.94497E-02 2.57966E+00 3.17385E-14 2.69132E-13
 -1      1796 2.05038E+01 2.61147E+00-6.10521E-04 2.20041E+00 2.73978E-14 2.56954E-13
 -1      1797 2.16959E+01 1.20878E+00-1.22833E-01 2.30504E+00 1.01585E-14 3.19272E-13
 -1      1798 2.12562E+01 2.26747E+00 3.27729E-03 2.71354E+00 2.07386E-14 3.03674E-13
 -1      1799 2.09492E+01 1.68797E+00-1.34251E-02 2.11389E+00 2.58162E-14 2.85012E-13
 -1      1800 2.09350E+01 7.77620E-01-6.01204E-02 1.50091E+00 3.43475E-15 3.03774E-13
 -1      1801 2.17657E+01 2.45131E+00 9.06038E-02-3.02209E+00 1.32030E-14 8.52096E-14
 -1      1802 2.01153E+01 3.01732E-01-4.44779E-03 6.38503E-01-1.44711E-14 3.12826E-13
 -1      1803 2.06344E+01 4.39303E-01-1.39829E-02 1.00974E+00-6.42542E-15 2.97717E-13
 -1      1804 2.07391E+01 8.47246E-01 5.22798E-03 1.38003E+00 2.93168E-15 2.83055E-13
 -1      1805 2.14874E+01 1.73966E+00 7.92065E-02-2.30851E+00 1.08837E-14 7.65707E-14
 -1      1806 2.05192E+01 5.03715E-01 3.25817E-02-8.91787E-01 1.12584E-14 7.76784E-14
 -1      1807 2.01004E+01 3.57414E-01 8.25701E-03-5.97520E-01-9.81853E-16 7.86714E-14
 -1      1808 1.99172E+01 2.64576E-01 2.76382E-02-3.53526E-01-7.79845E-15 9.26143E-14
 -1      1809 1.97429E+01 1.87528E-01 1.12841E-02-2.10725E-01-1.10554E-14 8.81534E-14
 -1      1810 2.02220E+01 4.92712E-01-6.41090E-03-6.76433E-01-6.15827E-16 6.97845E-14
 -1      1811 1.96363E+01 1.44224E-01 1.69857E-02-6.87740E-02-2.29369E-14 1.10880E-13
 -1      1812 1.95807E+01 1.07387E-01 8.12797E-03 9.73385E-03-1.30347E-14 1.16906E-13
 -1      1813 1.99232E+01 2.59624E-01-6.28775E-03-2.33619E-01-5.35292E-15 9.71350E-14
 -1      1814 1.95365E+01 8.52333E-02 9.16473E-03 9.56240E-02-6.89769E-16 1.12109E-13
 -1      1815 1.95529E+01 6.69292E-02 5.66904E-03 1.42844E-01 2.41608E-14 1.09197E-13
 -1      1816 1.97767E+01 1.48584E-01-5.35475E-03 2.66270E-02-1.00230E-14 1.09637E-13
 -1      1817 1.95548E+01 5.55766E-02 4.89680E-03 1.98565E-01 8.71211E-15 9.59426E-14
 -1      1818 1.96169E+01 4.72670E-02 4.49832E-03 2.30365E-01 2.13089E-14 7.46466E-14
 -1      1819 1.97391E+01 9.35451E-02-4.34769E-03 1.89336E-01 1.07522E-14 1.01904E-13
 -1      1820 1.96522E+01 4.22603E-02 2.69633E-03 2.70898E-01 2.57635E-14 7.39386E-14
 -1      1821 1.97466E+01 4.01504E-02 4.12404E-03 2.96213E-01-1.43167E-14 1.08012E-13
 -1      1822 1.97801E+01 6.78329E-02-3.44460E-03 3.00249E-01 1.10350E-15 6.34823E-14
 -1      1823 1.98077E+01 3.93169E-02 1.58155E-03 3.30991E-01-1.61370E-14 1.07534E-13
 -1      1824 1.99287E+01 4.14444E-02 4.22523E-03 3.55522E-01 9.50466E-15 1.34410E-13
 -1      1825 1.98799E+01 5.99238E-02-2.79702E-03 3.86889E-01-1.05266E-14 9.41627E-14
 -1      1826 2.00116E+01 4.35501E-02 1.04134E-03 3.90894E-01 1.96468E-14 1.49835E-13
 -1      1827 2.01580E+01 4.87232E-02 4.62965E-03 4.18590E-01 5.25261E-14 1.60317E-13
 -1      1828 2.00270E+01 6.39235E-02-2.42720E-03 4.67034E-01 3.70452E-14 9.55550E-14
 -1      1829 2.02613E+01 5.28724E-02 8.11982E-04 4.58970E-01 1.96184E-14 1.36480E-13
 -1      1830 2.04352E+01 6.01043E-02 5.20368E-03 4.92550E-01-1.09010E-14 1.09010E-13
 -1      1831 2.02161E+01 7.62721E-02-2.28351E-03 5.52820E-01 2.34350E-15 7.99268E-14
 -1      1832 2.05593E+01 6.53653E-02 7.34075E-04 5.40761E-01 3.15004E-15 1.12687E-13
 -1      1833 2.07645E+01 7.34342E-02 5.77435E-03 5.81693E-01 2.72065E-14 1.34774E-13
 -1      1834 2.04467E+01 9.39991E-02-2.30033E-03 6.52399E-01 6.52928E-15 9.74201E-14
 -1      1835 2.09110E+01 7.84699E-02 6.91553E-04 6.38716E-01 4.39839E-15 1.45259E-13
 -1      1836 2.11514E+01 8.54080E-02 6.06858E-03 6.86692E-01-2.29617E-14 1.39136E-13
 -1      1837 2.07209E+01 1.13433E-01-2.42415E-03 7.70079E-01 2.45470E-14 1.20183E-13
 -1      1838 2.13225E+01 8.79888E-02 5.96295E-04 7.50786E-01-1.83267E-14 1.44402E-13
 -1      1839 2.16002E+01 9.03856E-02 5.65452E-03 8.02561E-01 1.51571E-16 1.31215E-13
 -1      1840 2.10424E+01 1.28747E-01-2.62721E-03 9.05134E-01-3.92692E-14 1.04137E-13
 -1      1841 2.17983E+01 8.67317E-02 4.03928E-04 8.67579E-01 3.77936E-14 9.88064E-14
 -1      1842 2.21109E+01 7.88631E-02 3.90166E-03 9.15005E-01 1.34842E-14 1.45249E-13
 -1      1843 2.14154E+01 1.30041E-01-2.92191E-03 1.04910E+00 2.86988E-15 1.69861E-13
 -1      1844 2.23383E+01 6.29266E-02 1.58535E-04 9.67768E-01-1.58569E-14 1.38061E-13
 -1      1845 2.26741E+01 3.60636E-02 2.11948E-05 9.95065E-01 6.56441E-15 1.74896E-13
 -1      1846 2.18434E+01 1.01060E-01-3.36884E-03 1.18125E+00 1.17170E-15 8.76787E-14
 -1      1847 2.29329E+01-6.71034E-04 4.03012E-05 1.01201E+00-2.82890E-14 1.66589E-13
 -1      1848 2.32657E+01-5.75669E-02-6.68894E-03 9.93115E-01-1.57710E-14 1.24960E-13
 -1      1849 2.23287E+01 1.77097E-02-4.04170E-03 1.26232E+00 5.57822E-16 5.65277E-14
 -1      1850 2.35563E+01-1.24167E-01 3.10507E-04 9.37699E-01-1.53089E-16 9.23111E-14
 -1      1851 2.38408E+01-2.19523E-01-1.61513E-02 8.36574E-01-4.05596E-14 9.11020E-14
 -1      1852 2.28706E+01-1.49004E-01-4.86088E-03 1.22824E+00-4.33961E-14 4.93856E-14
 -1      1853 2.41569E+01-3.18330E-01 1.01593E-03 6.61949E-01-4.02707E-14 1.39785E-13
 -1      1854 2.43276E+01-4.44711E-01-2.62689E-02 4.42288E-01-1.34935E-14 1.39921E-13
 -1      1855 2.34608E+01-4.17717E-01-5.12451E-03 9.89586E-01-1.06304E-14 8.22790E-14
 -1      1856 2.46424E+01-5.55468E-01 1.05057E-03 1.08575E-01-3.33379E-14 1.85042E-13
 -1      1857 2.46257E+01-6.66368E-01-3.14702E-02-2.38326E-01-2.05495E-14 1.50101E-13
 -1      1858 2.40686E+01-7.58776E-01-2.97134E-03 4.50793E-01 6.52256E-15 1.33658E-13
 -1      1859 2.48689E+01-7.24414E-01-2.70344E-03-7.18080E-01 5.58581E-15 1.38007E-13
 -1      1860 2.46169E+01-7.18698E-01-2.36423E-02-1.12454E+00 7.93688E-14 1.49755E-13
 -1      1861 2.46100E+01-1.03265E+00 4.18585E-03-4.27861E-01-3.04227E-14 6.53832E-14
 -1      1862 2.46702E+01-6.18083E-01-1.38032E-02-1.60982E+00 1.58302E-13 1.24073E-13
 -1      1863 2.42147E+01-3.89494E-01-1.58714E-03-1.89267E+00 9.09377E-14 1.25296E-13
 -1      1864 2.49156E+01-9.62014E-01 1.45348E-02-1.50250E+00 1.39012E-13 8.51229E-14
 -1      1865 2.39993E+01-7.15498E-02-2.96285E-02-2.09349E+00 8.93829E-14 1.97675E-13
 -1      1866 2.34897E+01 3.53600E-01 1.89544E-02-2.01520E+00 1.00489E-13 2.42166E-13
 -1      1867 2.47913E+01-2.97599E-01 1.08940E-02-2.31515E+00 1.77206E-13 7.93142E-14
 -1      1868 2.31274E+01 7.63174E-01-3.15936E-02-1.65302E+00 1.39402E-14 2.95515E-13
 -1      1869 2.27959E+01 1.11817E+00 1.69528E-02-1.12080E+00-1.09423E-13 2.91526E-13
 -1      1870 2.42511E+01 8.36312E-01-2.05235E-02-2.19608E+00 7.26363E-14 1.46249E-13
 -1      1871 2.26297E+01 1.29680E+00-6.70127E-03-3.16517E-01-1.72459E-13 2.85752E-13
 -1      1872 2.26399E+01 1.28547E+00-9.23915E-03 3.74695E-01-1.75925E-13 1.98557E-13
 -1      1873 2.37418E+01 1.74710E+00-5.01739E-02-8.95928E-01-1.50074E-13 2.67018E-13
 -1      1874 2.28237E+01 1.08522E+00 1.51458E-02 1.20669E+00-1.77650E-13 7.91346E-14
 -1      1875 2.31805E+01 7.20345E-01-3.15961E-02 1.71582E+00-1.95465E-13 7.54397E-14
 -1      1876 2.37576E+01 1.73168E+00-4.60179E-02 9.59082E-01-2.28761E-13 2.85313E-13
 -1      1877 2.35443E+01 3.04739E-01 1.76887E-02 2.04326E+00-2.12618E-13 5.58650E-14
 -1      1878 2.40611E+01-1.13577E-01-2.90111E-02 2.09666E+00-1.58722E-13-6.94531E-14
 -1      1879 2.42957E+01 7.75716E-01-1.68085E-02 2.24947E+00-2.00985E-13-2.66627E-15
 -1      1880 2.42641E+01-4.22303E-01-4.24958E-03 1.87057E+00-6.98283E-14-4.93824E-14
 -1      1881 2.47158E+01-6.35801E-01-1.37228E-02 1.57340E+00 2.83159E-14-3.58082E-14
 -1      1882 2.48244E+01-3.52822E-01 1.04642E-02 2.29806E+00-8.59677E-14 8.30881E-14
 -1      1883 2.46498E+01-7.22778E-01-2.55902E-02 1.08249E+00-2.90098E-14-4.41782E-14
 -1      1884 2.48929E+01-7.16807E-01-2.85324E-03 6.77203E-01-6.60080E-14-1.57835E-13
 -1      1885 2.49257E+01-9.84646E-01 1.07772E-02 1.45451E+00-7.50207E-14 6.48340E-14
 -1      1886 2.46477E+01-6.52195E-01-3.16634E-02 2.06906E-01-1.94150E-14-1.08086E-13
 -1      1887 2.46582E+01-5.37688E-01 1.14322E-03-1.31121E-01 3.64587E-14-6.41067E-14
 -1      1888 2.46082E+01-1.01927E+00 2.24086E-03 3.87515E-01 9.29031E-15 8.97036E-15
 -1      1889 2.43481E+01-4.25724E-01-2.56500E-02-4.51536E-01 1.63394E-14-2.18695E-13
 -1      1890 2.41775E+01-2.99827E-01 1.27587E-03-6.60563E-01-5.48415E-14-1.13738E-13
 -1      1891 2.40706E+01-7.32453E-01-3.71454E-03-4.65669E-01 3.53016E-16 1.65951E-13
 -1      1892 2.38701E+01-2.01930E-01-1.53684E-02-8.22480E-01-2.78822E-14-1.83723E-13
 -1      1893 2.35928E+01-1.08156E-01 7.41955E-04-9.13878E-01 6.19019E-14-1.25274E-13
 -1      1894 2.34759E+01-3.90760E-01-5.36823E-03-9.76249E-01-5.24403E-14-3.22379E-14
 -1      1895 2.33136E+01-4.28337E-02-6.01395E-03-9.58408E-01 6.05679E-14-2.13849E-13
 -1      1896 2.29947E+01 1.27941E-02 6.10207E-04-9.69031E-01 1.58891E-14-1.79497E-13
 -1      1897 2.29053E+01-1.25551E-01-4.94613E-03-1.18928E+00-3.62167E-15-1.14570E-14
 -1      1898 2.27497E+01 4.86806E-02 5.13559E-04-9.42704E-01-3.97256E-14-1.04723E-13
 -1      1899 2.24340E+01 7.50095E-02 8.50814E-04-9.08102E-01 1.88009E-14-6.44710E-14
 -1      1900 2.23883E+01 3.77782E-02-4.12052E-03-1.20124E+00 3.31530E-14-1.70766E-14
 -1      1901 2.22228E+01 9.05949E-02 4.23273E-03-8.46675E-01 1.91787E-14-8.49527E-14
 -1      1902 2.19360E+01 9.85318E-02 1.18532E-03-7.92287E-01-9.06746E-14-1.50859E-13
 -1      1903 2.19330E+01 1.19376E-01-3.47105E-03-1.10029E+00 4.67335E-15 1.15687E-13
 -1      1904 2.17567E+01 1.02151E-01 5.85540E-03-7.18724E-01-1.66700E-13-6.24015E-14
 -1      1905 2.15101E+01 1.00142E-01 1.43391E-03-6.59904E-01-3.74718E-14 1.62337E-14
 -1      1906 2.15404E+01 1.48092E-01-3.03299E-03-9.49077E-01-5.81288E-14 1.58750E-13
 -1      1907 2.13603E+01 9.75935E-02 6.15427E-03-5.87146E-01 1.76070E-14-1.23385E-13
 -1      1908 2.11564E+01 9.10497E-02 1.53868E-03-5.31926E-01 5.89808E-14-1.20247E-13
 -1      1909 2.12081E+01 1.47303E-01-2.71203E-03-7.86046E-01-9.35801E-14 2.55890E-13
 -1      1910 2.10334E+01 8.58465E-02 5.73153E-03-4.66302E-01 8.47716E-14-1.81733E-13
 -1      1911 2.08696E+01 7.78479E-02 1.51573E-03-4.18159E-01-9.41612E-14-1.00262E-13
 -1      1912 2.09323E+01 1.32419E-01-2.43020E-03-6.31956E-01 2.64669E-14-1.38170E-13
 -1      1913 2.07702E+01 7.19170E-02 4.98606E-03-3.62072E-01-1.12949E-13 4.45835E-14
 -1      1914 2.06417E+01 6.40428E-02 1.40563E-03-3.21944E-01-8.66928E-16 9.95191E-14
 -1      1915 2.07074E+01 1.12410E-01-2.15113E-03-4.96294E-01 5.26304E-15-2.36217E-14
 -1      1916 2.05629E+01 5.83454E-02 4.15262E-03-2.75668E-01-2.14412E-15 1.36487E-13
 -1      1917 2.04641E+01 5.13052E-02 1.24833E-03-2.43213E-01 4.11502E-14 2.02490E-13
 -1      1918 2.05274E+01 9.20015E-02-1.86850E-03-3.82015E-01 7.77647E-14 2.91649E-13
 -1      1919 2.04025E+01 4.62599E-02 3.35478E-03-2.05978E-01 4.41464E-14 2.96310E-13
 -1      1920 2.03280E+01 4.02970E-02 1.07439E-03-1.80297E-01 1.63263E-13 3.11682E-13
 -1      1921 2.03857E+01 7.34039E-02-1.58969E-03-2.88615E-01 1.13065E-13 4.62605E-13
 -1      1922 2.02808E+01 3.60375E-02 2.64836E-03-1.50908E-01 1.05080E-13 2.62387E-13
 -1      1923 2.02257E+01 3.11644E-02 9.04090E-04-1.30928E-01 8.78843E-14 4.57554E-13
 -1      1924 2.02761E+01 5.74581E-02-1.32509E-03-2.13966E-01 1.82804E-13 6.02208E-13
 -1      1925 2.01901E+01 2.76850E-02 2.05096E-03-1.08084E-01-1.81343E-14 3.56881E-13
 -1      1926 2.01503E+01 2.38113E-02 7.48858E-04-9.27440E-02-2.47908E-14 2.58931E-13
 -1      1927 2.01929E+01 4.43094E-02-1.08310E-03-1.55338E-01-5.00853E-15 4.91200E-13
 -1      1928 2.01240E+01 2.10450E-02 1.55994E-03-7.52068E-02-4.28631E-14 6.78871E-14
 -1      1929 2.00960E+01 1.80453E-02 6.13387E-04-6.35432E-02-1.54037E-13 3.33502E-15
 -1      1930 2.01308E+01 3.37798E-02-8.68848E-04-1.09940E-01-1.33635E-13 2.87196E-13
 -1      1931 2.00770E+01 1.59057E-02 1.16162E-03-5.02049E-02-2.97618E-13-7.50004E-14
 -1      1932 2.00580E+01 1.36460E-02 4.95061E-04-4.13789E-02-2.69984E-13-2.68985E-13
 -1      1933 2.00856E+01 2.55730E-02-6.82431E-04-7.51866E-02-2.66770E-13 7.64461E-14
 -1      1934 2.00446E+01 1.20342E-02 8.41028E-04-3.12936E-02-1.20160E-13-4.34713E-13
 -1      1935 2.00325E+01 1.03588E-02 3.94042E-04-2.46210E-02-1.40034E-14-4.09618E-13
 -1      1936 2.00533E+01 1.93300E-02-5.25094E-04-4.88059E-02-2.80839E-13-2.86991E-13
 -1      1937 2.00233E+01 9.08216E-03 5.75423E-04-1.70147E-02 8.81651E-14-3.74930E-13
 -1      1938 2.00162E+01 7.72194E-03 2.84478E-04-1.20493E-02 1.87449E-13-3.67416E-13
 -1      1939 2.00308E+01 1.46159E-02-4.01447E-04-2.89551E-02 3.16989E-14-2.15403E-13
 -1      1940 2.00101E+01 6.57899E-03 4.07854E-04-6.57432E-03 2.22867E-13-3.67386E-13
 -1      1941 2.00063E+01 4.92264E-03 1.07479E-04-3.22355E-03 1.62533E-13-1.47075E-13
 -1      1942 2.00158E+01 1.04691E-02-3.17168E-04-1.42232E-02 2.35253E-13-1.31093E-13
 -1      1943 2.00023E+01 2.28982E-03 2.88184E-04 6.62122E-04 3.55139E-14-1.31097E-13
 -1      1944 1.95638E+01 1.21250E-01 1.04098E-02 8.43573E-02-3.36762E-14 2.95092E-13
 -1      1945 1.96613E+01 1.66008E-01 1.74212E-02 1.83118E-01-4.88620E-14 2.89693E-13
 -1      1946 1.94765E+01 7.02055E-02 7.18873E-03-7.29048E-02-1.56368E-14 3.09661E-13
 -1      1947 1.94875E+01 9.30883E-02 1.23890E-02-1.89123E-02-2.49197E-14 2.92160E-13
 -1      1948 1.97772E+01 1.69340E-01-5.14194E-03 8.99885E-02-2.54631E-14 2.25878E-13
 -1      1949 1.95020E+01 4.43855E-02 5.06752E-03-1.69323E-01 1.17614E-15 3.21799E-13
 -1      1950 1.94569E+01 5.60108E-02 6.80840E-03-1.36271E-01-4.13992E-15 3.32564E-13
 -1      1951 1.96840E+01 9.81968E-02-4.77504E-03-1.04700E-01-7.89733E-15 2.53181E-13
 -1      1952 1.96042E+01 3.16225E-02 3.97888E-03-2.33109E-01-7.48381E-15 3.29992E-13
 -1      1953 1.95230E+01 3.70142E-02 3.68329E-03-2.10434E-01 4.00537E-15 3.21116E-13
 -1      1954 1.96900E+01 6.23204E-02-3.78029E-03-2.27091E-01 5.72329E-15 2.80009E-13
 -1      1955 1.97610E+01 2.64926E-02 3.46636E-03-2.80963E-01-9.76801E-15 3.02339E-13
 -1      1956 1.96543E+01 2.82163E-02 2.05134E-03-2.62896E-01-1.55741E-14 3.02548E-13
 -1      1957 1.97644E+01 4.53160E-02-2.95508E-03-3.10835E-01 1.81658E-15 2.45874E-13
 -1      1958 1.99604E+01 2.58143E-02 3.23477E-03-3.22737E-01-9.60842E-15 3.01004E-13
 -1      1959 1.98334E+01 2.54362E-02 1.19414E-03-3.05914E-01-2.41987E-14 2.95515E-13
 -1      1960 1.98894E+01 3.91155E-02-2.38894E-03-3.75640E-01-1.37552E-14 2.23317E-13
 -1      1961 2.01966E+01 2.72112E-02 3.09177E-03-3.63857E-01 3.43835E-14 3.07673E-13
 -1      1962 2.00512E+01 2.59641E-02 7.35780E-04-3.46547E-01 2.32128E-14 3.12819E-13
 -1      1963 2.00544E+01 3.89285E-02-2.05508E-03-4.33109E-01-4.98386E-15 2.52776E-13
 -1      1964 2.04667E+01 2.83688E-02 2.86278E-03-4.06123E-01 9.45280E-14 2.83069E-13
 -1      1965 2.03037E+01 2.75044E-02 4.67948E-04-3.88053E-01 6.37374E-14 3.01822E-13
 -1      1966 2.02539E+01 4.10305E-02-1.88154E-03-4.89306E-01 7.25986E-14 2.45699E-13
 -1      1967 2.07684E+01 2.65815E-02 2.35105E-03-4.47581E-01 8.35396E-14 2.66445E-13
 -1      1968 2.05892E+01 2.75992E-02 2.54884E-04-4.30112E-01 9.71100E-14 3.00613E-13
 -1      1969 2.04850E+01 4.16585E-02-1.78788E-03-5.45512E-01 8.21933E-14 2.39597E-13
 -1      1970 2.10971E+01 1.84613E-02 1.33000E-03-4.81837E-01-1.00727E-14 2.21424E-13
 -1      1971 2.09050E+01 2.32498E-02-2.58953E-06-4.68338E-01 2.60671E-14 2.41235E-13
 -1      1972 2.07457E+01 3.63461E-02-1.69270E-03-5.97959E-01 4.79179E-14 2.18520E-13
 -1      1973 2.14428E+01-1.01318E-04-4.30784E-04-4.97113E-01-8.02384E-14 3.08547E-13
 -1      1974 2.12457E+01 1.07196E-02-3.73915E-04-4.93412E-01-5.83947E-14 2.56277E-13
 -1      1975 2.10326E+01 1.95624E-02-1.50827E-03-6.36950E-01-5.01538E-14 1.99840E-13
 -1      1976 2.17873E+01-3.34135E-02-3.08848E-03-4.75607E-01 6.89509E-15 3.09225E-13
 -1      1977 2.15991E+01-1.42929E-02-8.91924E-04-4.90208E-01-4.73070E-15 3.30701E-13
 -1      1978 2.13393E+01-1.51272E-02-1.12787E-03-6.45844E-01-7.08169E-14 3.01528E-13
 -1      1979 2.21012E+01-8.43316E-02-6.57777E-03-3.94277E-01-7.15521E-14 2.71671E-13
 -1      1980 2.19437E+01-5.56863E-02-1.54559E-03-4.37746E-01-1.31351E-14 3.26569E-13
 -1      1981 2.16538E+01-7.37951E-02-4.06437E-04-6.00708E-01-1.70517E-14 2.29646E-13
 -1      1982 2.23425E+01-1.50807E-01-1.03849E-02-2.29017E-01-1.66599E-14 3.07878E-13
 -1      1983 2.22453E+01-1.14533E-01-2.29301E-03-3.11551E-01-7.52684E-14 2.90633E-13
 -1      1984 2.19561E+01-1.58851E-01 8.57536E-04-4.72236E-01-7.08311E-14 2.30663E-13
 -1      1985 2.24592E+01-2.20568E-01-1.33249E-02 3.51465E-02 8.05580E-14 2.35792E-13
 -1      1986 2.24559E+01-1.84644E-01-3.09409E-03-9.08683E-02 5.73361E-14 2.97260E-13
 -1      1987 2.22154E+01-2.62866E-01 2.90450E-03-2.32531E-01 4.28945E-14 1.97503E-13
 -1      1988 2.23979E+01-2.66195E-01-1.35838E-02 3.86393E-01 3.68846E-14 2.44435E-13
 -1      1989 2.25170E+01-2.46914E-01-3.93682E-03 2.26838E-01 5.47921E-14 2.61023E-13
 -1      1990 2.23887E+01-3.60432E-01 5.85287E-03 1.30115E-01 4.45512E-14 2.18183E-13
 -1      1991 2.21227E+01-2.46879E-01-9.46389E-03 7.64891E-01 2.31742E-14 3.59942E-13
 -1      1992 2.23722E+01-2.66467E-01-4.79909E-03 6.04907E-01 7.89559E-15 3.25101E-13
 -1      1993 2.24232E+01-4.03204E-01 9.24421E-03 5.87615E-01-1.99216E-14 3.30578E-13
 -1      1994 2.16436E+01-1.26166E-01-9.00237E-04 1.05279E+00-8.48583E-14 3.87908E-13
 -1      1995 2.19939E+01-2.00949E-01-5.40262E-03 9.49541E-01 1.18681E-14 4.12649E-13
 -1      1996 2.22711E+01-3.29462E-01 1.12863E-02 1.04687E+00-1.56138E-14 4.71834E-13
 -1      1997 2.10468E+01 9.19949E-02 9.03620E-03 1.10089E+00 9.68696E-14 2.60805E-13
 -1      1998 2.14232E+01-2.79822E-02-4.45428E-03 1.11748E+00-2.36365E-14 3.14278E-13
 -1      1999 2.19217E+01-1.00345E-01 8.92254E-03 1.34498E+00 2.36048E-14 4.01812E-13
 -1      2000 2.05021E+01 3.32534E-01 1.48373E-02 8.08711E-01 2.33789E-14 2.43076E-13
 -1      2001 2.07988E+01 2.15130E-01-4.44806E-04 9.74396E-01 8.86955E-14 2.65954E-13
 -1      2002 2.14469E+01 2.46783E-01 2.06483E-04 1.29886E+00 8.94384E-14 3.41708E-13
 -1      2003 2.02137E+01 4.73925E-01 1.36538E-02 2.21663E-01-4.77535E-14 1.76431E-13
 -1      2004 2.03339E+01 4.21861E-01 7.19168E-03 4.95596E-01-1.77115E-14 1.86360E-13
 -1      2005 2.10183E+01 5.74095E-01-1.17273E-02 8.20721E-01 5.57714E-15 2.07703E-13
 -1      2006 2.03102E+01 4.34318E-01 7.16235E-03-4.53843E-01-1.64486E-14 1.73653E-13
 -1      2007 2.02115E+01 4.78530E-01 1.46885E-02-1.72760E-01-1.19167E-13 1.87222E-13
 -1      2008 2.08369E+01 7.17248E-01-1.72924E-02 2.97332E-02-8.58463E-14 1.59837E-13
 -1      2009 2.07615E+01 2.36691E-01 5.12073E-04-9.57372E-01 9.13826E-14 2.74305E-13
 -1      2010 2.04777E+01 3.50579E-01 1.67932E-02-7.74684E-01 1.23426E-13 2.42196E-13
 -1      2011 2.09975E+01 5.93615E-01-1.25225E-02-7.75629E-01-1.49377E-14 2.06688E-13
 -1      2012 2.13891E+01-6.55944E-03-3.05478E-03-1.12985E+00 6.88457E-14 1.71998E-13
 -1      2013 2.10129E+01 1.14230E-01 1.09595E-02-1.09329E+00 8.90217E-14 2.04860E-13
 -1      2014 2.14179E+01 2.73417E-01-1.45707E-03-1.28563E+00 1.11047E-13 2.86206E-13
 -1      2015 2.19789E+01-1.86261E-01-3.73731E-03-9.84868E-01-1.30946E-14 1.36137E-13
 -1      2016 2.16168E+01-1.07954E-01 5.88480E-04-1.07145E+00-3.57431E-14 2.20633E-13
 -1      2017 2.19009E+01-7.69428E-02 7.24871E-03-1.36631E+00 4.26052E-14 6.27679E-14
 -1      2018 2.23851E+01-2.59841E-01-3.23859E-03-6.51564E-01 1.35629E-14 8.71313E-14
 -1      2019 2.21163E+01-2.36693E-01-8.71540E-03-8.01192E-01 1.49932E-14 1.58119E-13
 -1      2020 2.22710E+01-3.16163E-01 9.98657E-03-1.09296E+00 2.42701E-14 1.40366E-13
 -1      2021 2.25606E+01-2.45236E-01-2.54590E-03-2.75922E-01-4.03193E-14 1.68629E-13
 -1      2022 2.24190E+01-2.62610E-01-1.34837E-02-4.30584E-01 1.98747E-14 9.46877E-14
 -1      2023 2.24486E+01-3.99109E-01 8.45527E-03-6.45194E-01 1.85013E-14 2.11901E-13
 -1      2024 2.25303E+01-1.84476E-01-2.01634E-03 4.27922E-02-3.17723E-14 1.45408E-13
 -1      2025 2.25108E+01-2.20071E-01-1.35943E-02-8.16166E-02-1.29133E-14 1.42238E-13
 -1      2026 2.24395E+01-3.60759E-01 5.46027E-03-1.90664E-01-2.96729E-14 1.85004E-13
 -1      2027 2.23512E+01-1.13588E-01-1.52026E-03 2.63741E-01-4.19673E-14 5.42231E-14
 -1      2028 2.24260E+01-1.50553E-01-1.08022E-02 1.81565E-01-6.07995E-14 5.93987E-14
 -1      2029 2.22914E+01-2.63015E-01 2.75677E-03 1.71468E-01-1.99259E-14 2.06165E-13
 -1      2030 2.20833E+01-5.27209E-02-9.80957E-04 3.87213E-01 2.94385E-14 6.42641E-14
 -1      2031 2.22181E+01-8.25947E-02-6.99407E-03 3.44338E-01 2.40977E-14 1.70813E-13
 -1      2032 2.20579E+01-1.56195E-01 8.18807E-04 4.09117E-01-5.16473E-14 2.49340E-13
 -1      2033 2.17767E+01-8.88198E-03-4.18682E-04 4.33096E-01 3.17715E-14 9.56006E-15
 -1      2034 2.19406E+01-2.93665E-02-3.41469E-03 4.20177E-01 9.78360E-14 5.35466E-14
 -1      2035 2.17834E+01-6.72106E-02-4.15696E-04 5.31826E-01 9.80236E-14 1.90085E-13
 -1      2036 2.14674E+01 1.84110E-02 8.59473E-05 4.26012E-01 7.66830E-14 7.19043E-14
 -1      2037 2.16369E+01 6.36754E-03-6.45218E-04 4.32767E-01 1.79369E-14 5.76089E-14
 -1      2038 2.15004E+01-4.54058E-03-1.13482E-03 5.66775E-01 2.77006E-14 3.30754E-13
 -1      2039 2.11785E+01 3.27114E-02 4.76447E-04 3.87691E-01 3.07107E-14 7.79565E-14
 -1      2040 2.13384E+01 2.70065E-02 1.19320E-03 4.05512E-01 1.77086E-13 1.42155E-13
 -1      2041 2.12301E+01 3.35466E-02-1.51555E-03 5.43666E-01 9.83336E-14 2.21765E-13
 -1      2042 2.09224E+01 3.80476E-02 7.32823E-04 3.34388E-01-3.14232E-14-1.01238E-13
 -1      2043 2.10643E+01 3.65596E-02 2.22541E-03 3.57063E-01 9.36523E-15-3.90231E-14
 -1      2044 2.09850E+01 5.27308E-02-1.67371E-03 4.87515E-01 1.29731E-13 1.87193E-13
 -1      2045 2.07045E+01 3.78197E-02 8.65468E-04 2.76961E-01-1.01424E-13-1.36685E-13
 -1      2046 2.08249E+01 3.88445E-02 2.65833E-03 3.00471E-01-1.32745E-13-2.17077E-13
 -1      2047 2.07713E+01 5.90871E-02-1.68366E-03 4.16598E-01-4.68868E-14 6.05595E-14
 -1      2048 2.05251E+01 3.45239E-02 9.00600E-04 2.21944E-01 2.63615E-14-2.27267E-13
 -1      2049 2.06234E+01 3.68488E-02 2.69458E-03 2.43958E-01-2.39074E-14-2.18357E-13
 -1      2050 2.05909E+01 5.76236E-02-1.59644E-03 3.42932E-01-6.08848E-14-1.12110E-13
 -1      2051 2.03813E+01 2.98356E-02 8.68254E-04 1.72775E-01-1.27874E-13 9.41206E-15
 -1      2052 2.04593E+01 3.26678E-02 2.49735E-03 1.92138E-01-1.51609E-14-1.20757E-13
 -1      2053 2.04428E+01 5.19636E-02-1.44977E-03 2.73627E-01-1.29917E-13-4.61188E-15
 -1      2054 2.02690E+01 2.48004E-02 7.95460E-04 1.30851E-01-1.49772E-13 1.20143E-13
 -1      2055 2.03293E+01 2.76592E-02 2.18382E-03 1.47163E-01-1.46760E-13 1.28260E-13
 -1      2056 2.03240E+01 4.45093E-02-1.27224E-03 2.12319E-01-1.94921E-13 1.34377E-13
 -1      2057 2.01836E+01 2.00235E-02 7.03473E-04 9.63149E-02-1.36555E-13 7.98463E-14
 -1      2058 2.02288E+01 2.26413E-02 1.83090E-03 1.09624E-01-1.62879E-13 4.92558E-14
 -1      2059 2.02311E+01 3.67408E-02-1.08483E-03 1.60364E-01-1.78884E-13 1.24204E-13
 -1      2060 2.01203E+01 1.58221E-02 6.07080E-04 6.85960E-02 1.87692E-13-1.12611E-13
 -1      2061 2.01532E+01 1.80679E-02 1.48462E-03 7.92011E-02 3.61526E-14 2.66849E-14
 -1      2062 2.01599E+01 2.95000E-02-9.01810E-04 1.17720E-01-7.02350E-14-1.38261E-14
 -1      2063 2.00748E+01 1.23299E-02 5.13704E-04 4.67703E-02 3.60159E-13-1.37584E-13
 -1      2064 2.00978E+01 1.41593E-02 1.16862E-03 5.50850E-02 2.57743E-13-2.88274E-14
 -1      2065 2.01068E+01 2.32150E-02-7.31873E-04 8.35689E-02 1.93217E-13-1.97854E-13
 -1      2066 2.00433E+01 9.55296E-03 4.22234E-04 2.97982E-02 1.18136E-13 6.64699E-14
 -1      2067 2.00587E+01 1.09842E-02 8.90974E-04 3.62635E-02 3.07241E-13-1.28181E-15
 -1      2068 2.00682E+01 1.80431E-02-5.80340E-04 5.67185E-02 1.97523E-13 1.07268E-13
 -1      2069 2.00227E+01 7.37638E-03 3.30025E-04 1.67134E-02 1.73038E-14 7.27015E-14
 -1      2070 2.00321E+01 8.50008E-03 6.49428E-04 2.17204E-02-3.09141E-14 2.10476E-14
 -1      2071 2.00409E+01 1.39451E-02-4.49004E-04 3.59040E-02 4.00003E-14 1.98357E-14
 -1      2072 2.00101E+01 5.52456E-03 2.47179E-04 6.85670E-03 2.91432E-13-9.81223E-15
 -1      2073 2.00151E+01 6.45493E-03 4.25521E-04 1.06102E-02 1.94870E-13 6.95801E-14
 -1      2074 2.00222E+01 1.06046E-02-3.80817E-04 2.00410E-02 1.41044E-13-7.52072E-14
 -1      2075 2.00034E+01 2.98626E-03 1.91658E-04 7.73845E-04 9.38305E-14-6.28725E-14
 -1      2076 2.00057E+01 4.31279E-03 2.86204E-04 2.89421E-03 3.54807E-13 5.89815E-14
 -1      2077 2.00110E+01 7.66579E-03-1.51042E-04 8.80359E-03 2.88084E-13-2.07114E-14
 -1      2078 2.00040E+01 4.05100E-03 3.06122E-05 1.74370E-03-7.55757E-15 1.88920E-13
 -1      2079 2.00021E+01 3.21651E-02-1.16169E-04 1.81449E-02 1.24179E-14 2.88709E-13
 -1      2080 2.00036E+01 2.63108E-02 2.19528E-04 1.64513E-02-9.66145E-14 3.51329E-13
 -1      2081 2.00047E+01 1.92454E-02 1.00387E-05 1.35470E-02-9.71371E-14 3.14272E-13
 -1      2082 2.00053E+01 1.45099E-02 1.15708E-04 1.06587E-02-1.31950E-13 3.55837E-13
 -1      2083 2.00062E+01 2.83843E-02-2.11157E-05 2.04102E-02-2.93877E-14 3.21174E-13
 -1      2084 2.00052E+01 7.15563E-03 1.47249E-04 4.95442E-03 9.14836E-15 1.74357E-13
 -1      2085 1.99991E+01 4.56317E-02-2.07083E-04 1.91362E-02 5.79301E-14-8.18772E-14
 -1      2086 2.00007E+01 3.95086E-02 1.41753E-04 1.90951E-02-3.58760E-14 2.91720E-13
 -1      2087 2.00023E+01 4.26276E-02 4.60257E-05 2.46284E-02 7.76930E-15 2.51608E-13
 -1      2088 1.99963E+01 5.79593E-02-2.78497E-04 1.63164E-02 5.91087E-14-3.70912E-13
 -1      2089 1.99977E+01 5.24517E-02 1.93052E-05 1.79192E-02 7.85208E-14-2.87949E-13
 -1      2090 1.99979E+01 5.67172E-02 1.50301E-04 2.41845E-02-1.37305E-14-1.83125E-13
 -1      2091 1.99943E+01 6.69133E-02-3.09168E-04 1.02598E-02-7.97670E-14-3.31761E-13
 -1      2092 1.99953E+01 6.31651E-02-1.09687E-04 1.31594E-02 5.69721E-14-3.74150E-13
 -1      2093 1.99940E+01 6.87060E-02 2.53846E-04 1.91220E-02-2.28789E-14-4.46079E-13
 -1      2094 1.99934E+01 7.10077E-02-2.90424E-04 2.18615E-03 3.37801E-14 1.49053E-13
 -1      2095 1.99937E+01 6.97302E-02-2.18046E-04 5.78909E-03-8.03962E-14 1.92299E-14
 -1      2096 1.99914E+01 7.67107E-02 3.23488E-04 1.04006E-02-2.39997E-14-1.40106E-13
 -1      2097 1.99937E+01 6.95659E-02-2.21543E-04-6.33507E-03 1.84928E-13 3.40019E-13
 -1      2098 1.99934E+01 7.10091E-02-2.86362E-04-2.74318E-03 1.30432E-13 1.44166E-13
 -1      2099 1.99905E+01 7.95254E-02 3.50131E-04-3.15055E-04-6.11028E-14 2.85886E-13
 -1      2100 1.99953E+01 6.28326E-02-1.13570E-04-1.36422E-02-3.67184E-14 1.08747E-13
 -1      2101 1.99944E+01 6.67385E-02-3.04437E-04-1.07856E-02-3.17284E-14 4.38437E-13
 -1      2102 1.99915E+01 7.67058E-02 3.26657E-04-1.10128E-02-1.00532E-13 1.57852E-13
 -1      2103 1.99979E+01 5.21795E-02 1.88646E-05-1.82120E-02-6.94131E-14-4.85320E-13
 -1      2104 1.99964E+01 5.76886E-02-2.77276E-04-1.66993E-02-1.77532E-13-8.04790E-14
 -1      2105 1.99942E+01 6.87428E-02 2.64001E-04-1.96076E-02-2.05197E-13-1.29477E-13
 -1      2106 2.00009E+01 3.90294E-02 1.45603E-04-1.92101E-02 3.26236E-13 5.05559E-13
 -1      2107 1.99993E+01 4.53112E-02-2.10411E-04-1.93562E-02 1.78886E-13-1.07518E-14
 -1      2108 1.99981E+01 5.67779E-02 1.54402E-04-2.44969E-02-6.36527E-14-5.69327E-14
 -1      2109 2.00039E+01 2.56729E-02 2.28548E-04-1.63039E-02 4.00884E-13 3.17761E-13
 -1      2110 2.00023E+01 3.15087E-02-1.23815E-04-1.81144E-02 3.41434E-13 2.28410E-13
 -1      2111 2.00026E+01 4.24624E-02 3.88239E-05-2.46955E-02 1.88309E-13 3.80122E-13
 -1      2112 2.00056E+01 1.42634E-02 2.33887E-04-1.03239E-02 1.50347E-13 4.39681E-14
 -1      2113 2.00048E+01 1.85572E-02-3.89188E-05-1.31729E-02 2.78386E-13 1.42180E-13
 -1      2114 2.00067E+01 2.80161E-02 1.79841E-05-2.01479E-02 2.48032E-13 8.58984E-14
 -1      2115 1.97453E+01 1.83755E-01 1.32062E-02 2.95657E-01-3.52912E-14 3.06200E-13
 -1      2116 1.99859E+01 2.59824E-01 1.72197E-02 4.76660E-01-2.60816E-14 3.03932E-13
 -1      2117 2.01879E+01 4.19538E-01-7.29760E-04 6.97238E-01-2.10769E-14 2.83378E-13
 -1      2118 1.99399E+01 2.73050E-01-4.18959E-03 3.56139E-01-3.15616E-14 2.63445E-13
 -1      2119 1.05574E+01-4.90204E+00-1.22564E-01 6.52690E+00 1.59761E-13 5.34510E-13
 -1      2120 6.96641E+00-6.52911E+00-3.81464E-01 5.35701E+00 2.33646E-13 1.37168E-13
 -1      2121 2.80227E+01-2.23877E-01 1.46068E-01 5.75363E+00 3.46834E-13 1.24900E-13
 -1      2122 2.29589E+01-2.03744E+00-1.57855E-01 5.76130E+00 2.08000E-13 2.89602E-13
 -1      2123 2.45579E-01-7.05147E+00-3.87983E-01 1.07717E+00-2.70617E-14 6.02463E-13
 -1      2124 1.77082E-01-7.44379E+00-4.41261E-01-5.00468E-01-1.29688E-13 7.40297E-13
 -1      2125 1.90868E+01-2.81675E+00 1.14399E-02 7.02262E+00 1.39222E-13 5.43843E-13
 -1      2126 1.43580E+01-4.79232E+00-3.11189E-01 6.23837E+00 8.14904E-14 5.86003E-13
 -1      2127 1.95382E+01 4.03000E+00-2.70895E-02-1.66504E+00 1.40330E-14 4.63431E-14
 -1      2128 1.96649E+01 3.95691E+00-2.42920E-02-1.91582E+00 1.79501E-14 5.62952E-14
 -1      2129 1.99882E+01 3.25911E+00-1.38160E-02-1.87652E+00 1.88590E-14 7.48481E-14
 -1      2130 1.97153E+01 3.60882E+00-7.03370E-03-1.47937E+00 1.87836E-14 4.41765E-14
 -1      2131 3.51081E+01 3.26714E+00 2.87948E-01 3.79276E+00 4.45671E-13 8.54872E-15
 -1      2132 3.09234E+01 1.72269E+00 2.98391E-02 4.31288E+00 3.81681E-13 8.00471E-14
 -1      2133 3.83476E+01 6.06915E+00 2.34155E-01 1.29012E+00 5.48228E-13-2.13163E-13
 -1      2134 3.68161E+01 5.08050E+00 2.71240E-01 2.61159E+00 6.09568E-13-3.80806E-14
 -1      2135 4.03862E+01 7.35266E+00 3.96566E-01-2.24461E-01 4.03566E-13-2.03816E-13
 -1      2136 3.91610E+01 7.30039E+00 2.90648E-01 8.10270E-01 4.54914E-13-1.37890E-13
 -1      2137 3.72090E+01 6.21810E+00 1.36686E-01-1.34163E+00 2.77556E-13-1.82299E-13
 -1      2138 3.91763E+01 6.89763E+00 3.11336E-01-5.55977E-01 3.04978E-13-1.61288E-13
 -1      2139 3.34806E+01 3.08877E+00 7.30090E-02-3.28297E+00 2.19894E-13-1.78191E-13
 -1      2140 3.65758E+01 4.43876E+00 2.08086E-01-2.32843E+00 2.14245E-13-1.43163E-13
 -1      2141 2.67756E+01-3.13994E-01-8.29000E-02-5.25406E+00 2.12608E-13-2.78111E-13
 -1      2142 3.13908E+01 1.27691E+00 1.79864E-01-4.88421E+00 2.13274E-13-1.81855E-13
 -1      2143 1.89642E+01-3.51816E+00-2.31255E-01-6.17991E+00 2.55129E-13-1.21736E-13
 -1      2144 2.37340E+01-1.60383E+00 1.02092E-01-6.58836E+00 1.95510E-13-2.42917E-13
 -1      2145 1.15369E+01-5.63337E+00-2.74214E-01-6.19560E+00 8.79852E-14-3.23123E-13
 -1      2146 1.56114E+01-3.88343E+00-3.26661E-02-6.97044E+00 2.28484E-13-1.68227E-13
 -1      2147 2.00226E+01-4.94447E+00-5.94834E-03-6.37563E+00 4.44644E-14-1.07470E-13
 -1      2148 4.03688E+00-6.95411E+00-3.98648E-01-4.34361E+00-7.94920E-14-3.55549E-13
 -1      2149 7.12749E+00-5.49086E+00-1.60860E-01-5.90248E+00 3.61933E-14-4.26992E-13
 -1      2150 8.52275E-01-6.38195E+00-2.71902E-01-1.66158E+00-5.74540E-14-1.85407E-13
 -1      2151 1.95069E+00-6.60757E+00-3.26711E-01-3.18125E+00-3.50275E-14-2.50300E-13
 -1      2152 4.80761E+00-4.74810E+00-1.16102E-01-4.74290E+00-1.26343E-13-3.13471E-13
 -1      2153 1.31374E+00-6.82236E+00-3.53475E-01 2.34659E+00 3.75810E-14-5.78981E-14
 -1      2154 4.33221E-01-6.62560E+00-3.23953E-01 7.01482E-01 5.17017E-14-1.59539E-13
 -1      2155 6.29406E+00-6.07179E+00-2.44991E-01 5.19684E+00-2.24265E-14-3.76088E-14
 -1      2156 3.60703E+00-7.00406E+00-3.80312E-01 3.90595E+00 2.12053E-14-1.38223E-14
 -1      2157 1.36752E+01-4.50987E+00-1.39388E-01 6.58804E+00-5.42899E-14-4.74509E-13
 -1      2158 9.39569E+00-6.35428E+00-4.29845E-01 5.47266E+00-1.76525E-14-1.97703E-13
 -1      2159 2.34172E+01-2.57459E+00 3.14365E-02 6.33783E+00-7.21645E-16-5.26246E-13
 -1      2160 1.81209E+01-4.31701E+00-2.75889E-01 5.95645E+00 5.07927E-14-4.52471E-13
 -1      2161 3.24950E+01 1.22390E+00 2.78417E-01 4.89981E+00-2.45803E-13-3.72147E-13
 -1      2162 2.73651E+01-8.08677E-01-8.42375E-02 4.76677E+00-1.23457E-13-3.65485E-13
 -1      2163 3.79138E+01 4.27065E+00 2.71125E-01 2.24569E+00-2.59209E-13-2.67231E-13
 -1      2164 3.46871E+01 2.91757E+00 1.59438E-01 3.41091E+00-3.54390E-13-3.00093E-13
 -1      2165 4.05240E+01 6.86614E+00 3.62119E-01 3.77683E-01-3.18634E-13-2.24820E-13
 -1      2166 3.86670E+01 6.16125E+00 2.23434E-01 1.18523E+00-3.04590E-13-2.90157E-13
 -1      2167 4.05323E+01 6.79609E+00 3.30410E-01-9.08338E-01-3.80918E-13-1.33782E-13
 -1      2168 4.06909E+01 7.15469E+00 3.05997E-01 1.98360E-01-3.85358E-13-2.15328E-13
 -1      2169 3.69016E+01 4.79038E+00 1.49085E-01-1.98389E+00-4.43368E-13 2.33147E-14
 -1      2170 4.03253E+01 5.84610E+00 4.24356E-01-1.38864E+00-3.63931E-13-5.83977E-14
 -1      2171 3.63832E+01 7.04780E+00 3.33122E-01 3.58612E-01-4.48364E-13-1.38278E-13
 -1      2172 3.07967E+01 6.59032E-01-1.24394E-02-4.04527E+00-2.78166E-13 2.82663E-13
 -1      2173 3.49993E+01 2.30507E+00 2.17135E-01-3.19347E+00-3.49568E-13 5.73430E-14
 -1      2174 2.32742E+01-2.85172E+00-1.69499E-01-5.29324E+00-1.97398E-13 4.01290E-13
 -1      2175 2.83389E+01-7.40401E-01 1.65002E-01-5.56460E+00-1.47105E-13 4.93272E-13
 -1      2176 3.03662E+01-1.55484E+00 1.64951E-01-2.46958E+00-1.59678E-13 1.75859E-13
 -1      2177 1.33867E+01-5.50356E+00-3.56683E-01-5.91806E+00-4.06564E-13 1.92124E-13
 -1      2178 1.83936E+01-3.77138E+00-5.39787E-02-6.77203E+00-3.97904E-13 2.79166E-13
 -1      2179 6.47169E+00-6.72089E+00-3.70000E-01-5.00313E+00-2.92821E-13 1.37140E-13
 -1      2180 9.79900E+00-5.52768E+00-2.10433E-01-6.04773E+00-4.47864E-13 1.93352E-13
 -1      2181 1.05252E+00-7.69444E+00-5.02284E-01-2.08598E+00-2.29150E-13 6.52534E-13
 -1      2182 2.94879E+00-6.46683E+00-3.11155E-01-3.73887E+00-3.69038E-13 4.34208E-13
 -1      2183 3.88785E+00-6.19341E+00-2.70780E-01 4.49424E+00 1.43996E-13 4.74343E-14
 -1      2184 1.85295E+00-6.96955E+00-3.75651E-01 3.06202E+00-6.63636E-14 2.73004E-13
 -1      2185 2.00056E+01 5.77453E-03 2.88112E-05-3.61617E-03 1.08648E-13-1.42461E-13
 -1      2186 2.32640E+01-4.06483E+00 6.07600E-02 5.57683E+00-2.23710E-14 1.74749E-13
 -1      2187 2.07260E+01 1.10863E+00-2.03205E-02-1.58728E+00 9.79425E-15 7.62879E-14
 -1      2188 1.50361E+01-5.44340E+00-5.89453E-02 6.92797E+00-2.65343E-14 5.15008E-13
 -1      2189 2.99308E+01-6.88274E-01 1.57734E-01 2.97188E+00 1.43954E-13-1.97953E-13
 -1      2190 2.06299E+01 1.33265E+00-1.89674E-02-1.64008E+00 1.23044E-14 7.29104E-14
 -1      2191 2.00082E+01 1.33469E-02-1.84121E-05 1.09962E-02 5.84807E-14 2.10284E-13
 -1      2192 2.39419E+00-4.80451E+00-1.71034E-01 2.64598E+00-1.35225E-13 4.50195E-13
 -1      2193 2.00066E+01 8.46722E-03 9.76455E-05-6.38210E-03 5.68568E-14-4.57743E-14
 -1      2194 7.55579E+00-5.24585E+00-1.15273E-01 6.03047E+00 4.45755E-14 2.53020E-13
 -1      2195 1.79432E+00-5.05028E+00-2.18407E-01-1.71591E+00-1.47923E-13 8.14959E-13
 -1      2196 6.42997E+00-5.55815E+00-1.61094E-01-5.26447E+00-1.53655E-13 2.58904E-13
 -1      2197 2.31349E+01-4.65854E+00 3.40666E-02-5.38763E+00-1.38889E-13 1.39611E-13
 -1      2198 3.45883E+01 3.03802E+00 2.35349E-01-2.98661E-01-2.98012E-13-1.62204E-13
 -1      2199 3.63864E+01 7.79891E+00 2.94963E-01-1.54742E-01-4.32654E-13-2.80144E-13
 -1      2200 3.57328E+01 5.24094E+00 2.60623E-01-7.97553E-02-2.40030E-13-9.98090E-14
 -1      2201 3.30538E+01 1.03415E+00 2.30925E-01 1.64464E+00-1.15217E-13-8.19345E-14
 -1      2202 2.69677E+01-3.22053E+00 8.11509E-02 4.19532E+00 7.79654E-14-2.53852E-13
 -1      2203 1.84496E+01-5.43975E+00-1.73614E-02 6.39137E+00 9.58678E-14-3.60573E-13
 -1      2204 1.01670E+01-5.75936E+00-1.45793E-01 6.29137E+00 1.10467E-14-2.30663E-13
 -1      2205 1.91577E+00-4.46867E+00-1.33761E-01-5.92565E-01 1.92277E-14-1.46716E-13
 -1      2206 1.15615E+01-5.49129E+00-8.79891E-02-6.78587E+00-6.40599E-14-3.26794E-13
 -1      2207 2.67989E+01-2.70427E+00 1.07354E-01-4.34651E+00 4.99323E-14-1.36724E-13
 -1      2208 3.19313E+01 1.16824E+00 2.00345E-01-1.79308E+00 1.32512E-13-7.88258E-15
 -1      2209 3.42257E+01 5.40451E+00 2.12895E-01 8.32924E-02 1.78635E-13 7.99361E-15
 -1      2210 3.53658E+01 7.99582E+00 2.54320E-01 2.36944E-01 3.58713E-13-2.18159E-13
 -1      2211 3.41289E+01 3.77247E+00 2.63724E-01 9.32621E-01 4.65183E-13-2.11275E-13
 -1      2212 3.67885E+01 6.85864E+00 2.46141E-01 3.68387E-01 5.23803E-13-1.72112E-13
 -1      2213 3.33785E+01 6.29324E+00 5.13478E-02-4.42460E-01 5.68823E-13-2.65177E-13
 -1      2214 3.35210E+01 7.40562E+00-8.51422E-02-5.02290E-01 5.21638E-13-2.89005E-13
 -1      2215 4.14799E+00-4.97431E+00-1.47516E-01 4.00247E+00 6.18672E-14-5.14033E-14
 -1      2216 1.42010E+01-5.76395E+00-7.20386E-02-6.64545E+00-1.87739E-13 2.59653E-14
 -1      2217 2.00099E+01 1.52431E-02 1.06105E-04-1.26721E-02 1.18870E-13-1.07001E-14
 -1      2218 1.95601E+01 3.57362E+00-1.12499E-02-5.63872E-01 2.29491E-14 8.56086E-14
 -1      2219 1.95995E+01 3.52435E+00-1.02031E-02-7.42196E-01 8.60835E-15 6.71754E-14
 -1      2220 1.96499E+01 3.42943E+00-1.29117E-02-9.00721E-01 1.35418E-14 5.01934E-14
 -1      2221 1.97151E+01 3.34376E+00-1.23706E-02-1.08593E+00 1.44791E-14 4.91430E-14
 -1      2222 1.97884E+01 3.09593E+00 6.59384E-04-7.50892E-01 1.64420E-14 5.80395E-14
 -1      2223 1.95063E+01 3.66385E+00-9.57086E-03 9.52827E-02 4.26237E-14 1.01230E-13
 -1      2224 1.95057E+01 3.66475E+00-9.58707E-03-7.65540E-02 3.55676E-14 1.00680E-13
 -1      2225 1.95356E+01 3.62070E+00-9.57632E-03 4.25234E-01 3.58113E-14 1.02323E-13
 -1      2226 1.95160E+01 3.64522E+00-1.02079E-02 2.51577E-01 4.12581E-14 1.00496E-13
 -1      2227 1.96667E+01 3.30015E+00-4.07967E-04 1.59707E-01 3.37998E-14 9.71502E-14
 -1      2228 1.96040E+01 3.51596E+00-1.03897E-02 7.55747E-01 3.94107E-14 1.36299E-13
 -1      2229 1.95640E+01 3.56648E+00-1.13776E-02 5.80105E-01 3.52468E-14 1.16012E-13
 -1      2230 1.97083E+01 3.23048E+00-6.46771E-05 4.60633E-01 2.58228E-14 1.16140E-13
 -1      2231 1.97226E+01 3.33037E+00-1.26562E-02 1.09936E+00 5.63007E-14 1.71647E-13
 -1      2232 1.96558E+01 3.41848E+00-1.31242E-02 9.14057E-01 4.00537E-14 1.57873E-13
 -1      2233 1.97937E+01 3.08573E+00 6.03640E-04 7.62081E-01 4.23210E-14 1.52022E-13
 -1      2234 1.99078E+01 3.03106E+00-1.78121E-02 1.44171E+00 4.76611E-14 1.88881E-13
 -1      2235 1.98055E+01 3.17732E+00-1.55230E-02 1.25318E+00 4.54007E-14 1.71532E-13
 -1      2236 1.99325E+01 2.84587E+00 2.22752E-03 1.05883E+00 3.88865E-14 1.66559E-13
 -1      2237 2.01842E+01 2.55197E+00-2.83358E-02 1.73932E+00 2.95329E-14 2.19193E-13
 -1      2238 2.00323E+01 2.80306E+00-1.82756E-02 1.57399E+00 4.20390E-14 1.96627E-13
 -1      2239 2.01341E+01 2.47872E+00 5.88394E-03 1.32367E+00 3.65414E-14 1.87551E-13
 -1      2240 2.05914E+01 1.79959E+00-2.62487E-02 1.85064E+00 2.32731E-14 2.52461E-13
 -1      2241 2.03768E+01 2.23310E+00-1.09124E-02 1.80935E+00 2.42020E-14 2.41899E-13
 -1      2242 2.04044E+01 1.92796E+00 1.38607E-02 1.48211E+00 2.10257E-14 2.19526E-13
 -1      2243 2.07882E+01 1.06916E+00-1.75536E-02 1.55744E+00 6.59889E-15 2.68832E-13
 -1      2244 2.06805E+01 1.53801E+00 7.45908E-04 1.75514E+00 1.42820E-14 2.57227E-13
 -1      2245 2.05162E+01 1.28809E+00 7.67177E-04 1.37738E+00 1.93786E-14 2.35141E-13
 -1      2246 2.04549E+01 7.48239E-01-1.38951E-03 1.07605E+00-6.70644E-15 2.62243E-13
 -1      2247 2.04226E+01 8.69540E-01 1.31547E-02-9.49560E-01 1.03789E-14 7.82673E-14
 -1      2248 2.02237E+01 6.47285E-01-3.26774E-03-6.32725E-01 1.62197E-16 8.19544E-14
 -1      2249 1.82851E+01-5.25394E+00-1.14397E-02 6.80326E+00-1.40665E-13 3.19227E-13
 -1      2250 1.44042E+01-5.18299E+00 4.03461E-02 6.84796E+00-4.54636E-14 3.92672E-13
 -1      2251 2.52406E+01-4.29205E+00-9.02182E-02 4.42567E+00-1.02141E-13-1.46161E-13
 -1      2252 2.19195E+01-5.07607E+00 1.88257E-02 5.44231E+00-8.60978E-14 1.72501E-14
 -1      2253 2.01667E+01 4.92973E-01 1.61526E-02-4.07050E-01-5.26619E-15 8.37322E-14
 -1      2254 2.00421E+01 3.74038E-01 1.00034E-03-2.25025E-01-3.04097E-15 9.52575E-14
 -1      2255 2.02809E+01 7.73889E-01-2.33299E-03-6.20959E-01-3.71469E-15 7.93723E-14
 -1      2256 1.99901E+01 2.95179E-01 1.08336E-02-7.27343E-02-1.03327E-14 9.42740E-14
 -1      2257 1.99337E+01 2.30854E-01 1.97336E-03 3.97823E-02-3.83526E-15 1.00028E-13
 -1      2258 2.01378E+01 4.60040E-01-4.28744E-03-2.11072E-01-2.72113E-15 4.70737E-14
 -1      2259 1.99048E+01 1.88183E-01 6.38523E-03 1.42133E-01 1.16395E-15 9.79095E-14
 -1      2260 1.98997E+01 1.54414E-01 2.38849E-03 2.16204E-01 6.47995E-15 9.63802E-14
 -1      2261 2.00456E+01 2.89123E-01-4.20233E-03 6.53119E-02 1.59432E-15 7.24454E-14
 -1      2262 1.98937E+01 1.32843E-01 3.57360E-03 2.88739E-01-2.66814E-15 9.11395E-14
 -1      2263 1.99260E+01 1.17801E-01 2.75703E-03 3.42739E-01-5.33059E-15 8.58440E-14
 -1      2264 2.00070E+01 1.98021E-01-3.60929E-03 2.55979E-01-3.30600E-15 7.58220E-14
 -1      2265 1.99396E+01 1.09592E-01 1.83963E-03 3.99848E-01-3.46648E-14 1.05633E-13
 -1      2266 2.00006E+01 1.06945E-01 3.17696E-03 4.45396E-01-2.48154E-14 8.35764E-14
 -1      2267 2.00150E+01 1.55962E-01-2.90291E-03 3.97541E-01-1.55675E-14 1.18092E-13
 -1      2268 2.00304E+01 1.07890E-01 7.42638E-04 4.97117E-01 2.43767E-14 3.99259E-14
 -1      2269 2.01153E+01 1.13961E-01 3.66803E-03 5.42053E-01 4.18298E-14 4.35312E-14
 -1      2270 2.00611E+01 1.45989E-01-2.31533E-03 5.15823E-01-3.91039E-15 5.68834E-14
 -1      2271 2.01588E+01 1.21360E-01 3.76900E-05 5.95591E-01 3.30204E-14 4.70130E-14
 -1      2272 2.02656E+01 1.33520E-01 4.21353E-03 6.45317E-01-9.34149E-15 6.64450E-14
 -1      2273 2.01387E+01 1.58291E-01-1.87940E-03 6.29171E-01 3.42666E-14 2.59918E-14
 -1      2274 2.03213E+01 1.45100E-01-4.08236E-04 7.05703E-01 7.85645E-15 6.29984E-14
 -1      2275 2.04501E+01 1.60765E-01 4.75086E-03 7.63623E-01 4.53631E-14 7.62031E-14
 -1      2276 2.02433E+01 1.85829E-01-1.57293E-03 7.50593E-01 2.50472E-15 3.90032E-14
 -1      2277 2.05177E+01 1.73846E-01-6.52212E-04 8.33848E-01 2.41956E-14 7.33062E-14
 -1      2278 2.06694E+01 1.89526E-01 5.15475E-03 9.01137E-01 4.46171E-15 7.40649E-14
 -1      2279 2.03729E+01 2.21704E-01-1.38119E-03 8.88612E-01 2.90412E-14 1.41108E-14
 -1      2280 2.07498E+01 2.00082E-01-6.76069E-04 9.81751E-01 6.61071E-15 9.58729E-14
 -1      2281 2.09258E+01 2.10200E-01 5.21305E-03 1.05646E+00 1.08003E-14 1.69949E-13
 -1      2282 2.05274E+01 2.56730E-01-1.33792E-03 1.04707E+00 3.33494E-14 4.46063E-14
 -1      2283 2.10225E+01 2.11632E-01-3.62835E-04 1.14454E+00 7.21352E-15 1.67630E-13
 -1      2284 2.12237E+01 2.06986E-01 4.59733E-03 1.21991E+00 1.31104E-14 1.51952E-13
 -1      2285 2.07097E+01 2.76500E-01-1.57493E-03 1.22380E+00 3.59983E-14 1.05885E-13
 -1      2286 2.13439E+01 1.88608E-01 5.42215E-04 1.30718E+00-2.51025E-14 1.08259E-13
 -1      2287 2.15706E+01 1.54704E-01 2.83843E-03 1.36910E+00-3.84419E-14 9.40255E-14
 -1      2288 2.09279E+01 2.57682E-01-2.38616E-03 1.40799E+00-2.26831E-14 6.04239E-14
 -1      2289 2.17287E+01 1.00501E-01 2.45598E-03 1.43903E+00-9.71555E-15 6.23751E-14
 -1      2290 2.19794E+01 1.69054E-02-6.75106E-04 1.46286E+00-1.18648E-14 5.68099E-14
 -1      2291 2.11994E+01 1.64196E-01-4.27924E-03 1.57577E+00-2.44874E-14 9.22999E-14
 -1      2292 2.22004E+01-9.35373E-02 5.86179E-03 1.48648E+00-3.90557E-14 6.65285E-14
 -1      2293 2.24709E+01-2.49555E-01-6.63265E-03 1.43481E+00-2.99045E-14 1.09924E-13
 -1      2294 2.15571E+01-5.37436E-02-7.92028E-03 1.68377E+00-3.27774E-14 1.17997E-13
 -1      2295 2.27910E+01-4.33472E-01 1.08266E-02 1.36595E+00 4.71207E-14 6.75141E-14
 -1      2296 2.30705E+01-6.71762E-01-1.52152E-02 1.19085E+00 6.94280E-14 1.16066E-13
 -1      2297 2.20553E+01-4.49569E-01-1.37343E-02 1.66047E+00 1.45779E-14 1.24221E-13
 -1      2298 2.35253E+01-9.20604E-01 1.61272E-02 9.65633E-01-1.98376E-14 1.21920E-13
 -1      2299 2.37873E+01-1.20330E+00-2.49217E-02 6.24352E-01-2.86143E-14 7.05675E-14
 -1      2300 2.27651E+01-1.04162E+00-2.04822E-02 1.39867E+00 3.25391E-14 4.54801E-14
 -1      2301 2.43745E+01-1.44104E+00 1.65402E-02 1.77694E-01 4.64689E-15 4.90862E-14
 -1      2302 2.45649E+01-1.62540E+00-2.99736E-02-3.27358E-01 1.05783E-14 4.56164E-14
 -1      2303 2.37371E+01-1.72674E+00-2.37237E-02 7.64918E-01-3.40763E-14 1.10576E-13
 -1      2304 2.51688E+01-1.65843E+00 8.03828E-04-9.91020E-01 1.13558E-13 1.02985E-13
 -1      2305 2.52225E+01-1.47365E+00-1.76644E-02-1.53686E+00 1.84309E-13 4.90276E-14
 -1      2306 2.49046E+01-2.14313E+00-1.66710E-02-3.34288E-01 1.12733E-13 7.83319E-14
 -1      2307 2.55577E+01-1.04356E+00-4.37584E-02-2.17305E+00 1.79841E-13 1.31191E-13
 -1      2308 2.54491E+01-3.04108E-01 2.91862E-04-2.44524E+00 1.72449E-13 1.33748E-13
 -1      2309 2.59317E+01-1.61261E+00-1.27400E-03-1.73618E+00 1.97137E-13 1.57886E-13
 -1      2310 2.53364E+01 6.28625E-01-9.06214E-02-2.58377E+00 1.60962E-13 1.82021E-13
 -1      2311 2.51118E+01 1.64964E+00-8.73888E-03-2.22258E+00 9.87335E-14 2.17664E-13
 -1      2312 2.63555E+01 1.16669E-01-3.12786E-02-2.66039E+00 1.88096E-13 1.82312E-13
 -1      2313 2.48413E+01 2.46444E+00-8.93937E-02-1.48109E+00-4.51028E-14 2.45084E-13
 -1      2314 2.47360E+01 2.93671E+00-4.41174E-02-6.03711E-01-1.65527E-13 2.94246E-13
 -1      2315 2.61267E+01 2.62664E+00-6.93472E-02-2.09338E+00 5.72459E-14 1.91056E-13
 -1      2316 2.47452E+01 2.92675E+00-3.94999E-02 6.35156E-01-2.86417E-13 2.84738E-13
 -1      2317 2.48658E+01 2.42673E+00-8.45848E-02 1.53565E+00-3.68837E-13 2.18541E-13
 -1      2318 2.59154E+01 3.77586E+00-8.89289E-02 3.40266E-02-2.31107E-13 1.75486E-13
 -1      2319 2.51233E+01 1.53632E+00-1.80964E-02 2.30881E+00-2.93564E-13 1.74548E-13
 -1      2320 2.53830E+01 5.08210E-01-8.89288E-02 2.60349E+00-2.73722E-13 7.43377E-14
 -1      2321 2.61229E+01 2.49757E+00-5.01802E-02 2.15449E+00-3.87641E-13 1.79377E-13
 -1      2322 2.54415E+01-4.01867E-01-7.49925E-03 2.44108E+00-1.69724E-13 6.03233E-14
 -1      2323 2.55844E+01-1.10868E+00-3.49011E-02 2.14220E+00-6.56905E-14 1.41004E-13
 -1      2324 2.63590E+01 4.98584E-02-3.36316E-02 2.66049E+00-2.66710E-13 2.27575E-13
 -1      2325 2.51951E+01-1.50859E+00-2.43331E-02 1.47292E+00-9.64834E-14 1.29809E-13
 -1      2326 2.51443E+01-1.65320E+00 2.40292E-03 9.34944E-01-6.74090E-14 7.64536E-14
 -1      2327 2.59002E+01-1.73060E+00-1.28272E-02 1.64053E+00-1.19158E-13 1.21434E-13
 -1      2328 2.45443E+01-1.60069E+00-2.84179E-02 2.79783E-01-2.92943E-14-2.48503E-14
 -1      2329 2.43462E+01-1.40429E+00 1.65859E-02-2.09060E-01 3.51702E-14 9.10782E-14
 -1      2330 2.48460E+01-2.13631E+00-1.81680E-02 2.66885E-01-2.84885E-14 2.85535E-13
 -1      2331 2.37758E+01-1.16060E+00-2.24870E-02-6.41527E-01 1.01992E-13 1.16771E-13
 -1      2332 2.35109E+01-8.77995E-01 1.55191E-02-9.66345E-01-2.85375E-14 1.14094E-13
 -1      2333 2.36962E+01-1.67713E+00-2.08143E-02-7.92754E-01 4.34305E-14 1.36903E-13
 -1      2334 2.30743E+01-6.29072E-01-1.33095E-02-1.17633E+00-1.15186E-13 1.75659E-13
 -1      2335 2.27977E+01-3.94792E-01 1.03410E-02-1.33718E+00-4.55395E-14 1.63933E-13
 -1      2336 2.27474E+01-9.82187E-01-1.67749E-02-1.38782E+00-1.58476E-14 2.85758E-13
 -1      2337 2.24930E+01-2.13123E-01-5.52709E-03-1.39221E+00-1.10010E-13 1.64072E-13
 -1      2338 2.22309E+01-6.09095E-02 5.70619E-03-1.43228E+00-7.22174E-14 4.68079E-14
 -1      2339 2.20611E+01-3.95693E-01-1.07228E-02-1.61633E+00-1.46061E-13 2.75601E-13
 -1      2340 2.20218E+01 4.75279E-02-2.59124E-04-1.39648E+00 2.10189E-14 3.51089E-14
 -1      2341 2.17842E+01 1.29200E-01 2.68892E-03-1.36272E+00 1.12098E-14 1.09802E-13
 -1      2342 2.15841E+01-8.36857E-03-5.88268E-03-1.61260E+00-1.10791E-13 2.69328E-13
 -1      2343 2.16359E+01 1.82189E-01 2.81191E-03-1.28138E+00 4.55755E-15 7.82695E-14
 -1      2344 2.14260E+01 2.15831E-01 1.03589E-03-1.21029E+00 3.93617E-14 1.09122E-13
 -1      2345 2.12461E+01 2.04015E-01-2.93255E-03-1.48126E+00 1.18202E-15 1.68295E-13
 -1      2346 2.13149E+01 2.33662E-01 4.30669E-03-1.11179E+00-1.77048E-14 2.50965E-14
 -1      2347 2.11337E+01 2.39006E-01 2.70924E-04-1.02738E+00-3.08885E-14 4.18057E-14
 -1      2348 2.09941E+01 2.95303E-01-1.42943E-03-1.29169E+00 8.96104E-15 1.85097E-14
 -1      2349 2.10460E+01 2.37278E-01 4.77959E-03-9.28090E-01-1.95111E-13 1.65047E-13
 -1      2350 2.08928E+01 2.28024E-01-1.37045E-05-8.44315E-01-1.34874E-13 3.70762E-14
 -1      2351 2.07962E+01 3.13953E-01-7.83880E-04-1.08618E+00-2.57801E-14-1.89935E-13
 -1      2352 2.08214E+01 2.16887E-01 4.64742E-03-7.52776E-01-1.84984E-14-5.52015E-14
 -1      2353 2.06945E+01 2.01426E-01-7.20777E-05-6.76714E-01-4.64687E-14-9.31139E-14
 -1      2354 2.06348E+01 2.94270E-01-5.65888E-04-8.88562E-01-1.30200E-13 1.11379E-13
 -1      2355 2.06356E+01 1.86815E-01 4.19933E-03-5.96707E-01 6.24772E-14-1.46627E-13
 -1      2356 2.05325E+01 1.69825E-01-4.28974E-05-5.31220E-01 1.01349E-13-1.28161E-13
 -1      2357 2.05011E+01 2.57618E-01-5.21371E-04-7.10836E-01 1.47094E-15-1.42459E-13
 -1      2358 2.04839E+01 1.54919E-01 3.61993E-03-4.63754E-01 1.12489E-13 1.10097E-13
 -1      2359 2.04017E+01 1.38771E-01 7.47150E-06-4.09328E-01 1.37819E-13 2.06462E-13
 -1      2360 2.03903E+01 2.16128E-01-5.24039E-04-5.57756E-01 3.00519E-13-1.22367E-13
 -1      2361 2.03621E+01 1.25099E-01 3.01858E-03-3.53908E-01 1.23884E-13 2.25546E-13
 -1      2362 2.02977E+01 1.10841E-01 5.20681E-05-3.09811E-01 2.22580E-13 2.88414E-13
 -1      2363 2.02993E+01 1.76096E-01-5.21570E-04-4.29886E-01 1.11581E-13 8.47859E-14
 -1      2364 2.02659E+01 9.90144E-02 2.45409E-03-2.65211E-01 2.08334E-13 2.12316E-13
 -1      2365 2.02162E+01 8.69755E-02 8.31633E-05-2.30177E-01 2.55767E-13 3.74133E-13
 -1      2366 2.02256E+01 1.40400E-01-4.99000E-04-3.25544E-01 2.36025E-13 9.78893E-15
 -1      2367 2.01911E+01 7.71278E-02 1.95378E-03-1.94890E-01 1.05683E-13 2.98773E-13
 -1      2368 2.01536E+01 6.72795E-02 1.01256E-04-1.67494E-01-8.72508E-14 2.53955E-13
 -1      2369 2.01668E+01 1.10043E-01-4.57077E-04-2.41994E-01 1.20067E-13 1.04501E-13
 -1      2370 2.01341E+01 5.93112E-02 1.52603E-03-1.39976E-01-2.20689E-13 3.14141E-13
 -1      2371 2.01062E+01 5.14558E-02 1.07741E-04-1.18829E-01-2.72115E-13 2.60669E-13
 -1      2372 2.01207E+01 8.50651E-02-4.01637E-04-1.76156E-01-1.57151E-13 1.66770E-13
 -1      2373 2.00913E+01 4.51573E-02 1.16759E-03-9.76456E-02-3.01792E-13 9.04329E-14
 -1      2374 2.00711E+01 3.90419E-02 1.05106E-04-8.15022E-02-3.67712E-13-1.37970E-14
 -1      2375 2.00852E+01 6.50319E-02-3.41390E-04-1.24991E-01-3.36834E-13 7.01718E-14
 -1      2376 2.00598E+01 3.41973E-02 8.73366E-04-6.53770E-02-3.38807E-13-2.30842E-14
 -1      2377 2.00455E+01 2.95306E-02 1.02637E-04-5.31578E-02-2.25202E-13-7.36557E-14
 -1      2378 2.00582E+01 4.93339E-02-2.80185E-04-8.57449E-02-3.89893E-13 3.79156E-14
 -1      2379 2.00370E+01 2.57863E-02 6.49349E-04-4.09760E-02-3.88056E-14-2.32317E-14
 -1      2380 2.00273E+01 2.23082E-02 1.93998E-04-3.19314E-02 1.41117E-13-4.22517E-14
 -1      2381 2.00379E+01 3.72833E-02-2.08295E-04-5.59965E-02-6.22825E-14 1.47879E-13
 -1      2382 2.00212E+01 2.08297E-02 4.43025E-04-2.48789E-02 1.43348E-13 2.60138E-14
 -1      2383 2.00148E+01 1.77504E-02 1.83167E-04-1.81935E-02 1.62092E-13-2.15686E-14
 -1      2384 2.00125E+01 2.36352E-02-2.63047E-04-2.23341E-02 1.66751E-13 8.84735E-14
 -1      2385 2.00229E+01 2.92982E-02-3.20550E-04-3.57315E-02 6.95539E-14 7.87615E-14
 -1      2386 1.98572E+01 1.12311E-01 2.57958E-03-2.59417E-01 9.64214E-15 2.25186E-13
 -1      2387 1.98417E+01 1.36296E-01 5.15956E-03-2.02503E-01-1.30272E-15 2.20300E-13
 -1      2388 1.98597E+01 1.66558E-01 2.57346E-03-1.20734E-01-5.35336E-15 2.13458E-13
 -1      2389 1.98891E+01 2.11863E-01 8.91786E-03-3.45493E-02-1.43041E-14 1.99034E-13
 -1      2390 1.99827E+01 2.11978E-01-4.06720E-03-1.51148E-01-1.28478E-17 1.85048E-13
 -1      2391 1.99336E+01 2.68917E-01 2.66121E-03 8.77147E-02-1.41584E-14 2.03407E-13
 -1      2392 2.00189E+01 3.49159E-01 1.10337E-02 2.28449E-01-1.56403E-14 2.07580E-13
 -1      2393 2.00513E+01 3.35165E-01-4.70418E-03 7.17323E-02-1.32525E-14 1.87918E-13
 -1      2394 1.99106E+01 8.54688E-02 2.64900E-03-3.58810E-01-7.30915E-16 2.13010E-13
 -1      2395 1.98630E+01 9.66434E-02 2.86970E-03-3.17374E-01-1.46286E-16 2.16756E-13
 -1      2396 1.99693E+01 1.45959E-01-3.33809E-03-3.04799E-01 3.30365E-15 1.89949E-13
 -1      2397 2.00076E+01 7.51264E-02 2.74540E-03-4.38210E-01-1.13160E-14 2.23482E-13
 -1      2398 1.99359E+01 7.85740E-02 1.50912E-03-4.04028E-01-5.32482E-15 2.36380E-13
 -1      2399 2.00015E+01 1.13840E-01-2.66936E-03-4.18372E-01-2.17231E-15 2.18874E-13
 -1      2400 2.01405E+01 7.40256E-02 2.81268E-03-5.09511E-01 1.43061E-14 2.35389E-13
 -1      2401 2.00492E+01 7.33371E-02 7.18287E-04-4.77800E-01 2.87151E-16 2.38624E-13
 -1      2402 2.00707E+01 1.01989E-01-2.17868E-03-5.11398E-01 9.73611E-15 2.23473E-13
 -1      2403 2.03046E+01 7.60316E-02 2.76371E-03-5.78904E-01 9.27229E-14 2.46646E-13
 -1      2404 2.01965E+01 7.44091E-02 3.03685E-04-5.47547E-01 3.76888E-14 2.49566E-13
 -1      2405 2.01710E+01 1.00853E-01-1.87091E-03-5.96001E-01 9.98217E-15 1.84176E-13
 -1      2406 2.04977E+01 7.47265E-02 2.47141E-03-6.47308E-01 5.89876E-14 2.60365E-13
 -1      2407 2.03744E+01 7.56502E-02 1.65228E-04-6.16740E-01 1.04981E-13 2.69331E-13
 -1      2408 2.02996E+01 1.02008E-01-1.72294E-03-6.78199E-01 6.02579E-14 2.39359E-13
 -1      2409 2.07184E+01 6.24932E-02 1.76661E-03-7.09946E-01 3.85446E-14 2.58335E-13
 -1      2410 2.05819E+01 7.01631E-02 2.59613E-04-6.83452E-01 6.01229E-14 2.62187E-13
 -1      2411 2.04556E+01 9.64213E-02-1.71972E-03-7.58149E-01 6.43059E-14 2.65783E-13
 -1      2412 2.09651E+01 3.00577E-02 4.48816E-04-7.55391E-01-5.29374E-14 2.87216E-13
 -1      2413 2.08187E+01 4.95701E-02 5.81318E-04-7.39602E-01-1.81816E-14 2.80772E-13
 -1      2414 2.06404E+01 7.33515E-02-1.86407E-03-8.29608E-01 1.43959E-14 2.85022E-13
 -1      2415 2.12352E+01-3.30910E-02-1.67711E-03-7.64511E-01-3.37825E-14 2.42225E-13
 -1      2416 2.10841E+01 3.88985E-03 1.14147E-03-7.69829E-01-6.00611E-14 2.66435E-13
 -1      2417 2.08570E+01 1.99966E-02-2.16888E-03-8.78875E-01-3.07155E-14 3.13072E-13
 -1      2418 2.15231E+01-1.36445E-01-4.71446E-03-7.10185E-01-1.96605E-14 2.07937E-13
 -1      2419 2.13760E+01-7.73242E-02 1.92487E-03-7.50569E-01-1.28443E-14 2.04538E-13
 -1      2420 2.11098E+01-7.74125E-02-2.62063E-03-8.83666E-01-2.04592E-14 2.28090E-13
 -1      2421 2.18180E+01-2.82888E-01-8.50570E-03-5.59433E-01-6.41019E-14 1.89946E-13
 -1      2422 2.16877E+01-2.01355E-01 2.79941E-03-6.50556E-01-7.02697E-14 2.21502E-13
 -1      2423 2.14027E+01-2.29639E-01-3.09348E-03-8.12811E-01-6.93053E-14 2.36380E-13
 -1      2424 2.21002E+01-4.58272E-01-1.23174E-02-2.80771E-01 1.84813E-14 2.08824E-13
 -1      2425 2.20044E+01-3.64579E-01 3.35304E-03-4.35066E-01-1.09253E-14 1.85856E-13
 -1      2426 2.17360E+01-4.35516E-01-3.20324E-03-6.28634E-01-6.33588E-14 2.65799E-13
 -1      2427 2.23356E+01-6.17403E-01-1.44595E-02 1.39172E-01 7.76809E-15 3.00569E-13
 -1      2428 2.22952E+01-5.39783E-01 2.78561E-03-7.78289E-02 4.58700E-14 2.63894E-13
 -1      2429 2.20976E+01-6.66594E-01-2.14152E-03-2.95559E-01 2.12320E-14 3.07251E-13
 -1      2430 2.24727E+01-6.75297E-01-1.23192E-02 6.67792E-01-6.37463E-14 2.99122E-13
 -1      2431 2.25074E+01-6.62924E-01 6.38176E-05 4.15243E-01-7.53967E-14 2.51902E-13
 -1      2432 2.24503E+01-8.49500E-01 1.15813E-03 1.99363E-01-2.55215E-14 3.27394E-13
 -1      2433 2.24507E+01-5.23410E-01-3.85867E-03 1.19406E+00-6.63107E-14 3.98518E-13
 -1      2434 2.25684E+01-6.33018E-01-5.53077E-03 9.71793E-01-8.10072E-15 3.71497E-13
 -1      2435 2.27199E+01-8.60803E-01 6.97271E-03 8.10931E-01-7.54483E-14 3.45551E-13
 -1      2436 2.22330E+01-9.52889E-02 9.46317E-03 1.51778E+00 1.08799E-13 3.65044E-13
 -1      2437 2.24144E+01-3.49587E-01-1.31019E-02 1.42511E+00 2.95840E-14 4.31394E-13
 -1      2438 2.28054E+01-5.64737E-01 1.22585E-02 1.39384E+00-1.67774E-14 3.22007E-13
 -1      2439 2.18661E+01 5.26872E-01 2.02550E-02 1.41088E+00 9.10188E-14 3.28663E-13
 -1      2440 2.20574E+01 1.95849E-01-1.71646E-02 1.53821E+00 1.00828E-13 3.55097E-13
 -1      2441 2.26381E+01 7.83223E-02 1.00037E-02 1.69313E+00 1.20033E-13 3.59618E-13
 -1      2442 2.15186E+01 1.06632E+00 1.88182E-02 7.74178E-01-2.87478E-14 2.96549E-13
 -1      2443 2.16423E+01 8.22848E-01-1.21053E-02 1.12871E+00 9.42467E-14 3.78250E-13
 -1      2444 2.22833E+01 8.96871E-01-3.20090E-04 1.44355E+00 8.51242E-14 4.04543E-13
 -1      2445 2.14083E+01 1.20978E+00 5.56916E-03-1.92850E-01-8.76920E-14 2.51363E-13
 -1      2446 2.14125E+01 1.19742E+00 3.78719E-03 2.62493E-01-8.72809E-14 2.56196E-13
 -1      2447 2.19825E+01 1.48048E+00-1.44270E-02 5.98500E-01-4.78688E-14 4.13591E-13
 -1      2448 2.16229E+01 8.65011E-01-9.98066E-03-1.08537E+00-2.21767E-14 2.36783E-13
 -1      2449 2.15023E+01 1.09592E+00 1.87898E-02-7.17837E-01-7.87148E-14 1.91207E-13
 -1      2450 2.19704E+01 1.50494E+00-1.48805E-02-5.25569E-01-7.05928E-14 2.95256E-13
 -1      2451 2.20342E+01 2.47219E-01-1.66938E-02-1.53607E+00 1.08336E-13 1.52137E-13
 -1      2452 2.18431E+01 5.76726E-01 2.10735E-02-1.38919E+00 1.22676E-13 2.24782E-13
 -1      2453 2.22614E+01 9.51175E-01-1.99718E-03-1.40977E+00 5.46091E-14 1.27170E-13
 -1      2454 2.24070E+01-3.10285E-01-1.34490E-02-1.46278E+00 2.63292E-14 1.55697E-13
 -1      2455 2.22193E+01-4.77939E-02 1.05406E-02-1.53910E+00 3.54590E-14 1.34033E-13
 -1      2456 2.26236E+01 1.44916E-01 1.03115E-02-1.70865E+00 7.91965E-14 1.81594E-13
 -1      2457 2.25855E+01-6.14327E-01-6.45880E-03-1.03272E+00 1.40265E-14 1.26226E-13
 -1      2458 2.24577E+01-4.94168E-01-3.25765E-03-1.24637E+00 1.23881E-14 1.36754E-13
 -1      2459 2.28141E+01-5.18931E-01 1.18323E-02-1.44908E+00 3.90660E-14 1.14322E-13
 -1      2460 2.25485E+01-6.58474E-01-1.93566E-04-4.83658E-01-3.29311E-14 2.43487E-13
 -1      2461 2.25018E+01-6.64715E-01-1.21954E-02-7.33507E-01-7.95284E-15 2.01259E-13
 -1      2462 2.27534E+01-8.39691E-01 7.05208E-03-8.84701E-01-3.93774E-14 8.26799E-14
 -1      2463 2.23563E+01-5.40091E-01 3.02101E-03 8.92931E-03 5.10052E-14 1.26419E-13
 -1      2464 2.23842E+01-6.16359E-01-1.45318E-02-2.07719E-01 5.76414E-14 2.15696E-13
 -1      2465 2.25016E+01-8.44615E-01 1.49102E-03-2.76564E-01 3.89818E-14 2.71998E-13
 -1      2466 2.20838E+01-3.63402E-01 3.80539E-03 3.65898E-01-1.23554E-13 1.84555E-13
 -1      2467 2.21667E+01-4.58581E-01-1.25032E-02 2.12114E-01-3.36914E-14 1.74292E-13
 -1      2468 2.21612E+01-6.66139E-01-1.89471E-03 2.18903E-01-1.56795E-14 1.82892E-13
 -1      2469 2.17860E+01-1.95295E-01 3.34265E-03 5.78140E-01-6.40319E-14 2.59926E-13
 -1      2470 2.19024E+01-2.79825E-01-8.77660E-03 4.89101E-01-1.27745E-13 2.61941E-13
 -1      2471 2.18101E+01-4.32165E-01-3.17643E-03 5.50951E-01-1.46175E-13 1.81081E-13
 -1      2472 2.14950E+01-6.49700E-02 2.54454E-03 6.70193E-01 3.90210E-14 3.96466E-13
 -1      2473 2.16268E+01-1.27553E-01-4.98448E-03 6.34189E-01 3.73021E-14 2.64722E-13
 -1      2474 2.14880E+01-2.19448E-01-3.23307E-03 7.29944E-01 8.88233E-16 2.98111E-13
 -1      2475 2.12274E+01 2.22024E-02 1.79779E-03 6.76639E-01 1.03424E-13 2.98225E-13
 -1      2476 2.13611E+01-1.79122E-02-1.88759E-03 6.77940E-01 5.71591E-14 4.07476E-13
 -1      2477 2.12085E+01-5.90032E-02-2.78815E-03 7.90186E-01 1.96582E-14 4.49378E-13
 -1      2478 2.09902E+01 7.25567E-02 1.23714E-03 6.29670E-01 7.96582E-15 3.67534E-13
 -1      2479 2.11167E+01 5.06655E-02 2.86994E-04 6.53852E-01 9.89857E-14 2.80617E-13
 -1      2480 2.09720E+01 4.58730E-02-2.29501E-03 7.69874E-01 4.29208E-14 3.60881E-13
 -1      2481 2.07853E+01 9.58634E-02 8.58545E-04 5.54399E-01 1.50902E-13 8.61536E-14
 -1      2482 2.08993E+01 8.69086E-02 1.62352E-03 5.90295E-01 1.25851E-13 2.47972E-13
 -1      2483 2.07742E+01 1.04739E-01-1.89820E-03 7.01573E-01 1.14888E-13 3.62990E-13
 -1      2484 2.06122E+01 1.01324E-01 6.16078E-04 4.68384E-01 3.41848E-14 1.01793E-14
 -1      2485 2.07111E+01 1.00645E-01 2.30852E-03 5.08266E-01 1.55052E-13 1.12658E-13
 -1      2486 2.06100E+01 1.30406E-01-1.60695E-03 6.09622E-01 1.59662E-13 1.92255E-13
 -1      2487 2.04688E+01 9.61630E-02 4.63132E-04 3.82813E-01-1.78234E-13 1.22033E-13
 -1      2488 2.05519E+01 1.00226E-01 2.53781E-03 4.21840E-01-1.21024E-13 1.38485E-13
 -1      2489 2.04747E+01 1.34483E-01-1.38863E-03 5.10608E-01-2.77149E-14 1.94437E-13
 -1      2490 2.03522E+01 8.54959E-02 3.64823E-04 3.04100E-01-2.81223E-13 3.11906E-13
 -1      2491 2.04202E+01 9.18594E-02 2.47709E-03 3.39572E-01-1.59640E-13 1.80987E-13
 -1      2492 2.03642E+01 1.25926E-01-1.21104E-03 4.14883E-01-2.10850E-13 5.71558E-13
 -1      2493 2.02593E+01 7.26793E-02 2.98633E-04 2.35348E-01-2.11663E-13 3.65771E-13
 -1      2494 2.03136E+01 7.97766E-02 2.25143E-03 2.66034E-01-3.07487E-13 2.71398E-13
 -1      2495 2.02751E+01 1.11011E-01-1.05388E-03 3.28219E-01-3.03769E-13 6.08202E-13
 -1      2496 2.01866E+01 5.97666E-02 2.51319E-04 1.77509E-01-1.47878E-13 1.98583E-13
 -1      2497 2.02289E+01 6.66630E-02 1.94791E-03 2.03112E-01-4.54344E-14 3.81316E-13
 -1      2498 2.02042E+01 9.38195E-02-9.07502E-04 2.53241E-01-1.76100E-13 4.71155E-13
 -1      2499 2.01308E+01 4.79132E-02 2.15508E-04 1.30239E-01 1.67748E-14 2.10372E-14
 -1      2500 2.01630E+01 5.41017E-02 1.62272E-03 1.51016E-01-1.59415E-13-2.18342E-14
 -1      2501 2.01485E+01 7.68277E-02-7.68997E-04 1.90542E-01 2.45823E-14 1.81399E-13
 -1      2502 2.00889E+01 3.76881E-02 1.87169E-04 9.24825E-02 1.41366E-13 1.24653E-13
 -1      2503 2.01128E+01 4.29373E-02 1.30944E-03 1.08982E-01 7.51105E-14-1.08252E-13
 -1      2504 2.01056E+01 6.14072E-02-6.37937E-04 1.39505E-01 6.43773E-14 1.57933E-14
 -1      2505 2.00581E+01 2.92712E-02 1.62773E-04 6.28649E-02 1.46169E-13 1.50727E-13
 -1      2506 2.00753E+01 3.35397E-02 1.02668E-03 7.57531E-02 2.07025E-13 1.18460E-13
 -1      2507 2.00729E+01 4.82075E-02-5.14088E-04 9.88670E-02 1.31160E-13 2.31908E-13
 -1      2508 2.00358E+01 2.25258E-02 1.36835E-04 3.99896E-02 5.49978E-15 1.64847E-13
 -1      2509 2.00479E+01 2.59277E-02 7.83682E-04 4.99012E-02 1.48028E-13 2.32572E-13
 -1      2510 2.00484E+01 3.73511E-02-4.09389E-04 6.71046E-02 1.76060E-13 1.92573E-13
 -1      2511 2.00203E+01 1.71648E-02 1.83400E-04 2.28000E-02 3.37364E-13-3.39688E-14
 -1      2512 2.00284E+01 1.98760E-02 6.24451E-04 3.00897E-02 1.50169E-13 8.07130E-14
 -1      2513 2.00302E+01 2.85229E-02-3.37698E-04 4.26828E-02 1.95591E-13 4.01741E-13
 -1      2514 2.00127E+01 1.63752E-02 3.05870E-04 1.59250E-02 7.22049E-14 3.33941E-14
 -1      2515 1.99940E+01 6.78513E-02-3.68541E-04 2.96745E-02-1.20785E-13-2.96372E-13
 -1      2516 1.99977E+01 6.18151E-02 1.67139E-04 3.13536E-02-1.19856E-13 2.62936E-14
 -1      2517 2.00011E+01 5.29273E-02-3.09033E-04 3.21300E-02-3.45124E-14 2.71992E-13
 -1      2518 2.00048E+01 4.63661E-02 2.52029E-04 3.12831E-02 2.36614E-14 3.03562E-13
 -1      2519 1.99991E+01 6.59123E-02 1.64985E-04 3.85557E-02-9.38072E-14 1.07419E-13
 -1      2520 2.00080E+01 3.68092E-02-2.30779E-04 2.89715E-02 5.99895E-14 2.71755E-13
 -1      2521 2.00107E+01 3.03388E-02 2.11532E-04 2.57581E-02 2.96149E-14 1.86535E-13
 -1      2522 2.00086E+01 4.82509E-02 1.86366E-04 3.72431E-02 6.47128E-14 2.41116E-13
 -1      2523 4.66893E+00-2.93119E+00 4.83963E-02 3.82599E+00-1.82743E-13 3.32956E-13
 -1      2524 3.26331E+00-2.81045E+00 8.70640E-02 1.40200E+00-1.41817E-13 6.24611E-13
 -1      2525 1.99880E+01 7.99214E-02-3.78475E-04 2.19067E-02 1.95437E-14-3.16124E-13
 -1      2526 1.99909E+01 7.53451E-02 4.37059E-05 2.59021E-02-7.17202E-14-3.36199E-13
 -1      2527 1.99901E+01 8.17316E-02 2.70212E-04 3.34836E-02-9.23296E-14-3.14208E-13
 -1      2528 1.99844E+01 8.73459E-02-3.32984E-04 1.02099E-02-1.13124E-13 6.28046E-14
 -1      2529 1.99859E+01 8.48760E-02-1.00823E-04 1.57688E-02-3.84813E-14-3.40261E-13
 -1      2530 1.99830E+01 9.37367E-02 3.53003E-04 2.26125E-02 4.39639E-15-2.62282E-13
 -1      2531 1.99836E+01 8.91380E-02-2.38999E-04-3.33113E-03-1.80589E-13 1.86473E-13
 -1      2532 1.99836E+01 8.91459E-02-2.30663E-04 2.78195E-03-2.05834E-13 2.51687E-13
 -1      2533 1.99791E+01 1.00259E-01 4.07802E-04 7.84559E-03-8.24334E-14 1.09347E-14
 -1      2534 1.99860E+01 8.50220E-02-1.11651E-04-1.63171E-02-2.46560E-13 1.39878E-13
 -1      2535 1.99844E+01 8.75261E-02-3.26819E-04-1.07716E-02-1.68535E-13 1.92352E-13
 -1      2536 1.99791E+01 1.00454E-01 4.11423E-04-8.32732E-03-3.82019E-13 2.45886E-13
 -1      2537 1.99910E+01 7.57594E-02 3.57564E-05-2.62686E-02-1.39833E-13-1.24793E-13
 -1      2538 1.99881E+01 8.02718E-02-3.79608E-04-2.23661E-02-1.70701E-13-8.98678E-14
 -1      2539 1.99831E+01 9.43265E-02 3.75462E-04-2.30341E-02-2.16964E-13-1.24100E-16
 -1      2540 1.99979E+01 6.22430E-02 1.68989E-04-3.16614E-02 1.79056E-14 1.24421E-13
 -1      2541 1.99942E+01 6.83055E-02-3.76288E-04-3.00433E-02-1.28696E-13-2.88140E-13
 -1      2542 1.99903E+01 8.25852E-02 2.83685E-04-3.38509E-02-1.01213E-13-2.24747E-13
 -1      2543 2.00053E+01 4.62902E-02 2.15643E-04-3.12907E-02-2.80409E-14 1.96038E-13
 -1      2544 2.00016E+01 5.31106E-02-3.11335E-04-3.23711E-02-5.94411E-14 3.23345E-13
 -1      2545 1.99995E+01 6.65541E-02 1.41510E-04-3.89400E-02-1.72469E-13 6.44094E-14
 -1      2546 2.00108E+01 3.15206E-02 1.98372E-04-2.60684E-02 1.25404E-13 3.61063E-14
 -1      2547 2.00080E+01 3.81918E-02-2.30793E-04-2.94516E-02 9.82656E-14 1.10819E-13
 -1      2548 2.00086E+01 5.00438E-02 1.64928E-04-3.79382E-02-6.77703E-14 3.32281E-13
 -1      2549 2.00154E+01 3.50224E-02 2.65945E-04-3.23671E-02 9.10607E-14 4.08893E-14
 -1      2550 2.05572E+01 1.96174E+00-1.33231E-02-1.85623E+00 8.39606E-15 8.31921E-14
 -1      2551 2.04272E+01 1.22548E+00-6.76694E-03-1.24096E+00 6.54424E-15 7.58375E-14
 -1      2552 2.04034E+01 1.39790E+00 6.49529E-03-1.18086E+00 1.42794E-14 8.67709E-14
 -1      2553 2.03052E+01 2.39535E+00-5.01362E-03-1.79652E+00 1.43371E-14 9.28979E-14
 -1      2554 3.03779E+01-5.21610E-01-9.81341E-02 1.33369E+00 2.18775E-13-2.18658E-13
 -1      2555 2.80361E+01-2.45118E+00-8.53109E-03 2.39473E+00 3.15789E-14-2.27263E-13
 -1      2556 2.89848E+00-2.97669E+00 4.84981E-02-8.21863E-01-1.00288E-13 8.66973E-13
 -1      2557 3.86620E+00-3.26716E+00 3.91631E-02-2.97948E+00-1.40554E-13 6.99329E-13
 -1      2558 6.16291E+00-4.00876E+00 4.45829E-02-4.70786E+00-1.29174E-13 2.49523E-13
 -1      2559 9.57145E+00-4.51143E+00 1.12078E-03-6.27401E+00-1.20071E-13 4.33820E-14
 -1      2560 3.34600E+01 7.30227E+00-9.42777E-02 7.46344E-02-4.73344E-13-1.79145E-13
 -1      2561 3.32036E+01 7.02334E+00-9.71978E-02-6.42281E-01-3.52773E-13-1.37321E-13
 -1      2562 2.53601E+01-4.13272E+00-1.13652E-02-3.96336E+00-1.13021E-13-4.09117E-14
 -1      2563 2.80485E+01-2.79150E+00-8.06489E-02-2.88345E+00-1.08108E-14 4.35485E-14
 -1      2564 1.95142E+01 3.64866E+00-1.01512E-02-2.32813E-01 3.71709E-14 9.36872E-14
 -1      2565 1.95325E+01 3.62619E+00-9.50794E-03-4.06291E-01 2.82092E-14 9.18354E-14
 -1      2566 1.97048E+01 3.23702E+00-9.91612E-05-4.46499E-01 2.46070E-14 9.48876E-14
 -1      2567 1.96653E+01 3.30260E+00-4.15246E-04-1.42991E-01 2.80675E-14 9.74754E-14
 -1      2568 6.78045E+00-3.66594E+00 4.72316E-02 5.13474E+00-1.19349E-14-4.61853E-14
 -1      2569 4.44344E+00-3.19171E+00 6.08997E-02 3.15117E+00 1.74860E-15-3.10862E-15
 -1      2570 3.22975E+01 3.83130E+00-1.40391E-01-5.07335E-01 5.15810E-13-3.09891E-13
 -1      2571 3.14179E+01 1.96723E+00-5.18012E-02 8.13731E-03 3.94434E-13-2.03615E-13
 -1      2572 3.13065E+01 7.17113E+00-1.56438E-01 5.67645E-01 2.31482E-13-3.31679E-15
 -1      2573 3.23508E+01 7.49040E+00-8.93510E-02-2.98679E-02 3.43003E-13-1.20081E-13
 -1      2574 3.13151E+01 3.56796E+00-8.40306E-02 9.78414E-01 9.88654E-14 1.54321E-13
 -1      2575 3.13813E+01 5.42007E+00-1.90070E-01 1.11166E+00 1.17489E-13 1.02376E-13
 -1      2576 2.97467E+01-8.36513E-01-3.82993E-02-1.22225E+00 8.13585E-14 9.63118E-14
 -1      2577 3.11315E+01 1.12164E+00-1.53544E-01-1.20484E-01 1.24345E-13 9.18987E-14
 -1      2578 1.92624E+01-5.36928E+00 4.91059E-02-6.25271E+00-5.13201E-14-4.32293E-14
 -1      2579 2.24016E+01-5.01010E+00-4.49819E-02-5.68091E+00-3.99680E-14-9.04415E-14
 -1      2580 1.05935E+01-4.64095E+00 6.06535E-02-6.58555E+00-1.74638E-13-3.14693E-13
 -1      2581 1.49117E+01-5.10909E+00-4.19189E-03-7.15246E+00-1.20626E-13-1.73514E-13
 -1      2582 1.79780E+01-5.11997E+00 9.28260E-02-6.47903E+00-1.32588E-13-6.39523E-14
 -1      2583 5.81458E+00-2.73950E+00 1.48875E-01-4.08266E+00-7.87564E-14-2.47496E-13
 -1      2584 7.90187E+00-3.34979E+00 9.81816E-02-5.74836E+00-1.17018E-13-3.70759E-13
 -1      2585 1.36994E+01-5.32805E+00 4.78368E-02-6.53026E+00-4.14113E-14 2.29539E-14
 -1      2586 1.72406E+01-5.55992E+00-5.49768E-02-6.69781E+00-1.80356E-13-4.78680E-14
 -1      2587 3.39745E+00-2.60074E+00 9.84919E-02 9.19903E-01 1.82770E-14-1.05915E-13
 -1      2588 3.61677E+00-2.49353E+00 7.07204E-02-1.85441E+00 1.52656E-15-1.53988E-13
 -1      2589 1.38162E+01-5.30096E+00-8.33893E-04 6.87204E+00 9.16489E-14-2.58835E-13
 -1      2590 1.03836E+01-4.71840E+00 6.32285E-02 6.22681E+00 7.79377E-14-1.40693E-13
 -1      2591 2.13441E+01-5.53004E+00-8.63377E-02 5.84403E+00 2.04836E-13-2.31204E-13
 -1      2592 1.73699E+01-5.67229E+00 1.52978E-02 6.30199E+00 1.17684E-13-2.43514E-13
 -1      2593 1.72658E+01-5.21301E+00 1.05150E-01 6.33471E+00 1.99091E-13-1.92235E-13
 -1      2594 2.88843E+01-3.20804E+00-7.08232E-02 2.35779E+00 1.14547E-13 6.70852E-14
 -1      2595 2.55338E+01-4.70462E+00 2.15403E-02 3.61524E+00 1.68976E-13-8.47100E-14
 -1      2596 3.23599E+01 9.38257E-01-1.21638E-01-5.14569E-02-7.07767E-14 1.04083E-13
 -1      2597 3.07317E+01-9.15185E-01-3.53282E-02 8.59707E-01 8.22502E-14 8.13238E-14
 -1      2598 3.31638E+01 5.31073E+00-1.46448E-01-1.18892E+00-1.29452E-13-3.56659E-14
 -1      2599 3.29571E+01 3.42944E+00-3.66341E-02-1.02254E+00-8.15736E-14 1.00808E-13
 -1      2600 3.29946E+01 5.64443E+00-1.12100E-01 1.21248E+00-4.17943E-13-2.61652E-13
 -1      2601 3.31734E+01 6.64247E+00-1.49399E-01 7.88409E-01-4.82558E-13-2.27221E-13
 -1      2602 3.13518E+01 8.70839E-01-9.58036E-02 8.13462E-01-2.15591E-13-1.59872E-13
 -1      2603 3.26001E+01 3.35367E+00-1.32716E-01 1.27665E+00-3.70592E-13-2.53131E-13
 -1      2604 2.84094E+01-3.31584E+00-3.31341E-02-1.74216E+00-9.13228E-14 9.86988E-14
 -1      2605 3.02731E+01-1.82513E+00-1.56029E-01-6.69134E-01-1.30946E-13 4.67404E-14
 -1      2606 2.16388E+01-5.53773E+00 2.80914E-02-5.22515E+00-1.38889E-13-6.30052E-14
 -1      2607 2.57555E+01-4.77805E+00-8.29066E-02-3.96685E+00-5.01821E-14 1.36086E-13
 -1      2608 1.08857E+01-4.27097E+00 5.68759E-02 6.82931E+00 3.93297E-14 3.14970E-13
 -1      2609 7.83210E+00-3.64513E+00 1.21191E-01 5.58519E+00-1.23623E-13 2.31537E-13
 -1      2610 2.00147E+01 2.35174E-02-2.17434E-04 2.45428E-02 1.19934E-13 2.24367E-13
 -1      2611 1.99245E+01 2.86378E+00 2.80115E-03-1.04748E+00 1.26323E-14 4.15661E-14
 -1      2612 1.97979E+01 3.19406E+00-1.48736E-02-1.23770E+00 2.03791E-14 4.37757E-14
 -1      2613 1.98952E+01 3.06552E+00-1.71646E-02-1.43447E+00 1.83057E-14 4.65036E-14
 -1      2614 3.00733E+01 2.56294E-01-7.91763E-03-3.28050E-01 2.41362E-13-1.38028E-13
 -1      2615 2.03451E+01 5.97601E-01 9.24529E-03 8.31015E-01-2.57207E-14 2.53206E-13
 -1      2616 2.04092E+01 8.44630E-01 6.53261E-03 1.00255E+00-2.26572E-14 2.34836E-13
 -1      2617 2.01858E+01 4.99436E-01 8.44743E-03 6.17077E-01-1.75710E-14 2.52302E-13
 -1      2618 2.11850E+01-5.26899E+00 7.68679E-02 5.67659E+00-2.02949E-13-2.07404E-14
 -1      2619 1.42765E+01-4.34763E+00 1.00541E-01 6.61830E+00-1.29202E-13 3.19855E-13
 -1      2620 4.92714E+00-1.60941E+00 1.64492E-01 3.27938E-01-1.90395E-13 6.91669E-13
 -1      2621 8.02649E+00-2.32815E+00 1.67895E-01 4.64322E+00-1.14173E-13 3.59268E-13
 -1      2622 2.09672E+01-5.41613E+00 1.02559E-01-5.43746E+00-6.55032E-14-1.74537E-13
 -1      2623 2.70466E+01-4.51404E+00 1.21836E-02-2.11659E+00-6.40599E-14 4.89192E-14
 -1      2624 2.01317E+01 2.63730E+00-1.18022E-02-1.63106E+00 1.93181E-14 7.74415E-14
 -1      2625 6.89152E+00-2.55466E+00 1.49778E-01-3.96250E+00-9.83935E-14 3.65846E-13
 -1      2626 5.79463E+00-1.71657E+00 1.78454E-01 1.97905E+00-9.95731E-15-6.35880E-14
 -1      2627 2.00473E+01 3.83689E-01 8.97292E-03 3.32208E-01-1.84258E-14 2.20604E-13
 -1      2628 2.01292E+01 4.47520E-01 1.18630E-02 4.82265E-01-1.33331E-14 2.37089E-13
 -1      2629 2.02178E+01 5.83039E-01-3.15478E-03 5.94266E-01-1.84193E-14 2.13905E-13
 -1      2630 2.01327E+01 4.66497E-01-5.58335E-03 3.29397E-01-1.39350E-14 1.95922E-13
 -1      2631 3.00744E+01-7.94130E-01-1.83968E-02 1.22940E+00-1.93429E-13-1.70391E-13
 -1      2632 3.07931E+01 3.77374E+00-5.34078E-02 2.04557E+00-3.57631E-13-3.63709E-13
 -1      2633 2.00183E+01 3.26899E-02 2.82114E-04 3.39051E-02 1.68201E-13 1.97254E-13
 -1      2634 3.14139E+01 5.68718E+00-8.42436E-02-1.26750E+00-1.07025E-13 4.01762E-14
 -1      2635 1.29712E+01-4.36978E+00 1.22702E-01-6.30764E+00-8.79019E-14 6.02990E-14
 -1      2636 3.13973E+01 1.74418E+00-2.60746E-02-1.47954E+00-2.05114E-14 2.37060E-13
 -1      2637 2.44653E+01-5.24460E+00 5.77758E-02 4.01014E+00 2.47358E-13-3.53328E-14
 -1      2638 2.86527E+01-2.28516E+00 1.12777E-02-1.09468E+00 3.60441E-14 1.29008E-13
 -1      2639 1.11230E+01-3.36028E+00 1.20022E-01-6.03777E+00-1.87156E-13-2.68008E-13
 -1      2640 2.99439E+01 1.85925E+00-4.38626E-02 1.17171E+00 8.50847E-14 2.52381E-13
 -1      2641 2.95145E+01 5.78234E+00-1.10285E-01 1.20840E+00 9.73943E-14 1.76567E-13
 -1      2642 2.46183E+01-4.83661E+00 4.81284E-02-4.10840E+00-1.09635E-13 2.19547E-14
 -1      2643 3.12645E+01 6.61938E+00-7.51820E-02 6.71593E-01-4.63796E-13-2.05211E-13
 -1      2644 3.17024E+01 4.80027E+00-4.08030E-02-1.00789E+00 5.45314E-13-2.69063E-13
 -1      2645 2.97981E+01 3.44986E+00-5.69087E-02-1.60639E+00 4.47503E-13-2.75086E-13
 -1      2646 2.99797E+01 5.40900E+00-2.25006E-01-1.48565E+00 5.86808E-13-3.09697E-13
 -1      2647 2.69391E+01-3.74697E+00 3.18360E-02 2.57627E+00-5.05984E-14-1.28342E-13
 -1      2648 3.05119E+01 7.11969E+00-1.14178E-01-3.00295E-01 4.05787E-13-1.37224E-13
 -1      2649 6.55365E+00-1.55254E+00 1.63410E-01-2.83290E+00-4.24383E-14-1.57485E-13
 -1      2650 1.02537E+01-3.52503E+00 1.35223E-01 5.65504E+00 7.13873E-14-9.62286E-14
 -1      2651 2.93546E+01-2.71555E+00-2.20929E-02 4.39871E-01 1.64990E-13 2.12830E-13
 -1      2652 1.98311E+01 2.84971E+00-6.19271E-03 4.79996E-01 2.09138E-14 1.22322E-13
 -1      2653 1.98017E+01 2.90337E+00-6.01414E-03 3.37675E-01 1.81577E-14 1.13620E-13
 -1      2654 1.97817E+01 2.94531E+00-5.65614E-03 2.13390E-01 1.88340E-14 8.80663E-14
 -1      2655 1.97715E+01 2.96370E+00-5.62547E-03 6.86632E-02 2.59265E-14 9.22942E-14
 -1      2656 1.99217E+01 2.60866E+00 4.11841E-03 2.40039E-01 1.06269E-14 1.07234E-13
 -1      2657 2.00538E+01 2.37722E+00-1.05978E-02 9.85164E-01 3.34348E-14 1.62314E-13
 -1      2658 1.99831E+01 2.53384E+00-6.77981E-03 8.53237E-01 4.00145E-14 1.64247E-13
 -1      2659 2.02258E+01 1.94948E+00-1.60382E-02 1.17201E+00 2.76637E-14 1.89426E-13
 -1      2660 2.01399E+01 2.18882E+00-5.19588E-03 1.07007E+00 3.33695E-14 1.74503E-13
 -1      2661 2.02013E+01 1.94906E+00 7.88539E-03 8.58290E-01 2.92735E-14 1.75194E-13
 -1      2662 2.04611E+01 1.02578E+00 2.28758E-03 1.10546E+00-1.10779E-14 2.20276E-13
 -1      2663 2.04202E+01 1.28987E+00-7.11613E-03 1.21444E+00 4.08788E-15 2.15271E-13
 -1      2664 2.03389E+01 8.63542E-01 6.38281E-03 8.43978E-01-2.57259E-14 2.16770E-13
 -1      2665 2.91363E+01 8.49327E-01-1.64283E-01-1.29549E+00 3.10266E-13-2.03684E-13
 -1      2666 2.87121E+01-1.10395E+00-2.14650E-02-4.44476E-01 1.44558E-13-1.75249E-13
 -1      2667 1.71499E+01-4.43733E+00 4.64498E-02 6.35966E+00-2.15578E-13 6.49758E-14
 -1      2668 1.40112E+01-3.30800E+00 1.16786E-01 6.14212E+00-1.69115E-13 1.57943E-13
 -1      2669 6.18527E+00-7.67724E-01 8.92529E-02 1.31550E+00-2.32640E-13 6.40848E-13
 -1      2670 6.14050E+00-8.36669E-01 1.58600E-01-1.05014E+00-2.04069E-13 7.75713E-13
 -1      2671 2.86436E+01-2.01440E+00 3.65910E-03 1.21878E+00-2.14953E-13-9.02195E-14
 -1      2672 2.88694E+01-2.64687E-02-1.74359E-01 2.18321E+00-2.51563E-13-1.26829E-13
 -1      2673 2.02601E+01 6.80787E-01 8.35715E-03-3.39113E-01 9.52141E-15 5.67911E-14
 -1      2674 2.01877E+01 5.40802E-01-2.47553E-03-1.63413E-01 1.41548E-14 5.44331E-14
 -1      2675 2.01670E+01 4.38983E-01 6.28646E-03-2.28181E-02-8.48304E-15 8.34751E-14
 -1      2676 2.01256E+01 3.57074E-01-5.51591E-04 9.72135E-02-7.05068E-15 8.28698E-14
 -1      2677 2.02372E+01 6.17152E-01-1.82908E-03-1.27087E-01 5.36171E-15 9.68440E-14
 -1      2678 2.01049E+01 3.00216E-01 3.92805E-03 1.99042E-01 6.92179E-15 5.97472E-14
 -1      2679 2.00921E+01 2.56837E-01 6.77376E-04 2.85214E-01-3.44294E-15 7.20285E-14
 -1      2680 2.01818E+01 4.17155E-01-2.34329E-03 1.27116E-01-1.64913E-14 9.45472E-14
 -1      2681 2.00776E+01 2.28908E-01 2.16430E-03 3.63287E-01-1.80199E-14 5.72179E-14
 -1      2682 2.00886E+01 2.10980E-01 1.55744E-03 4.30872E-01-2.48552E-14 5.79023E-14
 -1      2683 2.01405E+01 3.09057E-01-2.11120E-03 3.17454E-01-1.95373E-14 5.90008E-14
 -1      2684 2.00806E+01 2.02759E-01 7.89426E-04 4.96449E-01-1.18934E-14 6.68781E-14
 -1      2685 2.01110E+01 2.02775E-01 2.23600E-03 5.56498E-01-6.36204E-15 6.61983E-14
 -1      2686 2.01170E+01 2.61936E-01-1.68458E-03 4.69145E-01-1.86345E-14 4.87921E-14
 -1      2687 2.01083E+01 2.08536E-01-2.64173E-04 6.18563E-01 4.04962E-14 9.51473E-14
 -1      2688 2.01548E+01 2.21373E-01 2.80032E-03 6.79010E-01 4.63498E-14 8.12830E-14
 -1      2689 2.01089E+01 2.57888E-01-1.21396E-03 6.03025E-01 3.50039E-14 1.09940E-13
 -1      2690 2.01558E+01 2.36856E-01-1.07671E-03 7.44331E-01 2.70012E-14 8.46927E-14
 -1      2691 2.02164E+01 2.58232E-01 3.29105E-03 8.10682E-01 3.49734E-14 9.33995E-14
 -1      2692 2.01122E+01 2.84410E-01-7.56035E-04 7.35245E-01 4.67641E-14 1.72565E-13
 -1      2693 2.02195E+01 2.79311E-01-1.68466E-03 8.84089E-01 2.07706E-14 9.20368E-14
 -1      2694 2.02931E+01 3.04470E-01 3.71541E-03 9.59610E-01 1.86250E-14 6.39247E-14
 -1      2695 2.01232E+01 3.31009E-01-3.40582E-04 8.77690E-01 2.79462E-14 1.37929E-13
 -1      2696 2.02978E+01 3.25867E-01-2.06129E-03 1.04407E+00 2.02488E-14 6.82236E-14
 -1      2697 2.03848E+01 3.48124E-01 4.06149E-03 1.12949E+00 3.17534E-14 7.99472E-14
 -1      2698 2.01388E+01 3.86162E-01-2.26751E-05 1.03839E+00 1.75135E-14 9.58832E-14
 -1      2699 2.03924E+01 3.61848E-01-2.08664E-03 1.22592E+00 3.46666E-14 7.41734E-14
 -1      2700 2.04948E+01 3.70733E-01 4.30922E-03 1.31862E+00 2.79008E-14 8.28310E-14
 -1      2701 2.01586E+01 4.33991E-01 5.68689E-05 1.22154E+00 2.21014E-14 9.71494E-14
 -1      2702 2.05110E+01 3.64072E-01-1.49635E-03 1.42532E+00 1.91055E-14 7.45120E-14
 -1      2703 2.06346E+01 3.42991E-01 4.42855E-03 1.51790E+00-4.43487E-15 5.85431E-14
 -1      2704 2.01872E+01 4.50084E-01-4.08193E-04 1.42710E+00 2.53930E-14 1.21131E-13
 -1      2705 2.06731E+01 2.96233E-01 1.96896E-04 1.62940E+00-1.58196E-14 1.05268E-13
 -1      2706 2.08296E+01 2.20177E-01 4.33550E-03 1.70751E+00-1.07161E-14 1.31854E-13
 -1      2707 2.02402E+01 3.96320E-01-1.99328E-03 1.64968E+00 1.76267E-14 1.11878E-13
 -1      2708 2.09186E+01 1.05212E-01 3.80701E-03 1.81207E+00-1.84717E-14 1.87099E-13
 -1      2709 2.11287E+01-5.95619E-02 3.70828E-03 1.85122E+00-1.98490E-14 1.85985E-13
 -1      2710 2.03527E+01 2.15743E-01-5.62972E-03 1.87603E+00 1.38996E-14 1.43848E-13
 -1      2711 2.13188E+01-2.76372E-01 1.04882E-02 1.92513E+00-5.64619E-14 1.56709E-13
 -1      2712 2.16126E+01-5.65428E-01 1.37796E-03 1.88670E+00-2.57975E-14 1.25157E-13
 -1      2713 2.05938E+01-1.68477E-01-1.25803E-02 2.07851E+00-4.84174E-14 1.71555E-13
 -1      2714 2.19836E+01-9.08110E-01 2.10509E-02 1.88118E+00 4.95003E-14 6.75052E-14
 -1      2715 2.23898E+01-1.32931E+00-4.27731E-03 1.70858E+00 1.59343E-14 6.48650E-14
 -1      2716 2.10823E+01-8.39012E-01-2.42370E-02 2.19816E+00-1.19236E-14 1.29658E-13
 -1      2717 2.30371E+01-1.76851E+00 3.48930E-02 1.53471E+00-1.56121E-14 9.24161E-14
 -1      2718 2.35544E+01-2.24067E+00-1.48817E-02 1.16212E+00-3.08191E-14 1.51163E-13
 -1      2719 2.19880E+01-1.81987E+00-3.95710E-02 2.11232E+00 1.57947E-14 4.81160E-14
 -1      2720 2.45217E+01-2.60827E+00 3.99235E-02 6.80375E-01 1.79390E-14 2.11610E-13
 -1      2721 2.50760E+01-2.82303E+00-2.19136E-02 8.04243E-02 1.50595E-13 1.56558E-13
 -1      2722 2.34752E+01-2.92226E+00-5.53266E-02 1.58794E+00 5.81978E-14 1.62762E-13
 -1      2723 2.62020E+01-2.76742E+00-8.20500E-03-7.80154E-01 2.44981E-13 1.75667E-13
 -1      2724 2.65982E+01-2.12640E+00-1.35485E-02-1.48687E+00 2.24916E-13 2.06434E-13
 -1      2725 2.55590E+01-3.42652E+00-6.08353E-02 3.36550E-01 1.65434E-13 2.23107E-13
 -1      2726 2.72339E+01 2.39259E+00-1.75099E-01-2.49048E+00 1.46994E-13 1.50997E-13
 -1      2727 2.71335E+01 3.89148E+00-1.07376E-01-1.84786E+00-2.49245E-14 2.71533E-13
 -1      2728 2.69384E+01 4.71659E+00-1.59408E-01-6.00049E-01-1.28897E-13 1.51863E-13
 -1      2729 2.68298E+01 4.75313E+00-1.51628E-01 6.64158E-01-2.74891E-13 1.96541E-13
 -1      2730 2.80697E+01 4.69716E+00-1.40773E-01 1.55984E+00-3.93074E-13-9.11077E-15
 -1      2731 2.80997E+01 3.29719E+00-1.70020E-01 2.25561E+00-4.36762E-13 9.50628E-16
 -1      2732 2.72367E+01 1.17646E-01-3.50566E-02 2.49927E+00-3.25240E-13 1.73136E-13
 -1      2733 2.71523E+01-1.28405E+00-3.83717E-02 2.24735E+00-1.88561E-13 1.59799E-13
 -1      2734 2.63115E+01-2.23157E+00-4.50184E-02 1.35967E+00-1.12108E-13 1.28472E-13
 -1      2735 2.59353E+01-2.63064E+00 2.68213E-02 6.94767E-01-6.30867E-14 1.24784E-13
 -1      2736 2.70279E+01-2.39422E+00-7.91053E-02 1.25796E+00-1.82215E-13 1.63907E-13
 -1      2737 2.48867E+01-2.67345E+00-2.70849E-02-9.85077E-02-6.16885E-14 2.23403E-13
 -1      2738 2.43548E+01-2.40730E+00 4.34400E-02-6.90385E-01 1.31694E-14 1.15051E-13
 -1      2739 2.51629E+01-3.17928E+00-4.36192E-02-3.92679E-01 1.05276E-14 4.54380E-14
 -1      2740 2.34776E+01-2.03586E+00-1.16438E-02-1.12176E+00 5.41563E-14 2.08783E-13
 -1      2741 2.29728E+01-1.57831E+00 3.07588E-02-1.48380E+00 6.19101E-14 2.17816E-13
 -1      2742 2.33236E+01-2.55033E+00-4.68579E-02-1.49267E+00 3.93674E-14 1.47104E-13
 -1      2743 2.23931E+01-1.16262E+00-2.47077E-03-1.63565E+00 2.22387E-14 5.46724E-14
 -1      2744 2.20005E+01-7.67835E-01 1.60880E-02-1.79699E+00-4.65541E-14 6.52372E-14
 -1      2745 2.20106E+01-1.51283E+00-3.45624E-02-1.96073E+00-1.69999E-14 4.68484E-14
 -1      2746 2.16666E+01-4.50983E-01 1.85545E-03-1.79264E+00-8.29645E-14 1.00351E-13
 -1      2747 2.13855E+01-1.85350E-01 6.58741E-03-1.82106E+00-1.19908E-13 1.94013E-13
 -1      2748 2.12069E+01-6.33650E-01-2.04453E-02-2.03681E+00-8.12054E-14-8.06894E-14
 -1      2749 2.12090E+01 1.20957E-02 3.33214E-03-1.74110E+00-1.63429E-13 2.13563E-13
 -1      2750 2.10095E+01 1.62521E-01 1.46565E-03-1.69267E+00-1.81504E-14 1.27332E-13
 -1      2751 2.07597E+01-4.80341E-02-9.92437E-03-1.91763E+00-6.04693E-14 7.13548E-14
 -1      2752 2.09208E+01 2.65170E-01 3.60871E-03-1.58112E+00 2.59055E-14 1.68813E-13
 -1      2753 2.07735E+01 3.34369E-01-1.04975E-03-1.49406E+00-2.20395E-14 1.75194E-13
 -1      2754 2.05230E+01 2.81060E-01-3.72981E-03-1.71237E+00 2.47672E-14 1.31821E-13
 -1      2755 2.07288E+01 3.74361E-01 3.49562E-03-1.37430E+00-9.16602E-14 5.09665E-14
 -1      2756 2.06141E+01 3.93508E-01-2.08485E-03-1.27271E+00-1.05296E-13-8.59717E-14
 -1      2757 2.03969E+01 4.31018E-01-6.05350E-04-1.47740E+00-9.58491E-14 1.58792E-13
 -1      2758 2.05892E+01 3.96965E-01 3.27175E-03-1.15713E+00 1.92340E-14-2.79639E-13
 -1      2759 2.04959E+01 3.88563E-01-2.35574E-03-1.05531E+00 8.21129E-14-2.73385E-13
 -1      2760 2.03234E+01 4.70869E-01 7.00372E-04-1.24216E+00-8.41715E-14-2.38409E-13
 -1      2761 2.04792E+01 3.73261E-01 2.99679E-03-9.50174E-01 2.92089E-15-1.25638E-14
 -1      2762 2.04014E+01 3.51714E-01-2.25146E-03-8.55955E-01-1.33502E-14 1.50924E-13
 -1      2763 2.02728E+01 4.50193E-01 1.05309E-03-1.02227E+00 1.55433E-13-2.40957E-13
 -1      2764 2.03877E+01 3.28513E-01 2.68746E-03-7.64025E-01-8.07252E-14 6.68597E-14
 -1      2765 2.03226E+01 3.02298E-01-1.98468E-03-6.81084E-01 1.13149E-13-2.54273E-15
 -1      2766 2.02315E+01 4.00696E-01 9.76544E-04-8.25586E-01-1.68527E-14 1.92931E-13
 -1      2767 2.03101E+01 2.77300E-01 2.35684E-03-6.03016E-01 3.65742E-13-2.78601E-13
 -1      2768 2.02560E+01 2.51033E-01-1.66748E-03-5.32497E-01 3.72114E-13-1.40966E-13
 -1      2769 2.01946E+01 3.41071E-01 7.50117E-04-6.55242E-01 1.60308E-13-4.10978E-14
 -1      2770 2.02443E+01 2.27373E-01 2.02172E-03-4.67720E-01 1.82211E-13-1.80174E-13
 -1      2771 2.02000E+01 2.03335E-01-1.35596E-03-4.09309E-01 1.95894E-13-8.14006E-14
 -1      2772 2.01609E+01 2.81530E-01 5.07846E-04-5.11441E-01 2.97111E-13-3.77877E-13
 -1      2773 2.01893E+01 1.82417E-01 1.69815E-03-3.56595E-01 1.61211E-13-9.83330E-14
 -1      2774 2.01535E+01 1.61547E-01-1.07598E-03-3.09208E-01 1.00712E-13-2.48748E-13
 -1      2775 2.01304E+01 2.27123E-01 3.04000E-04-3.92605E-01 1.33354E-13-3.40517E-13
 -1      2776 2.01439E+01 1.43823E-01 1.39810E-03-2.67032E-01 1.73809E-13-2.12144E-13
 -1      2777 2.01155E+01 1.26337E-01-8.36450E-04-2.29254E-01 1.04205E-13-1.49761E-13
 -1      2778 2.01035E+01 1.79928E-01 1.52688E-04-2.96192E-01 1.39976E-13-4.27747E-13
 -1      2779 2.01073E+01 1.11771E-01 1.12935E-03-1.96022E-01-4.93721E-14-1.17859E-13
 -1      2780 2.00851E+01 9.75169E-02-6.37416E-04-1.66358E-01-1.48812E-13 1.73376E-14
 -1      2781 2.00804E+01 1.40410E-01 5.20145E-05-2.19248E-01 7.69953E-14-2.91280E-13
 -1      2782 2.00781E+01 8.58338E-02 8.92710E-04-1.40530E-01-3.08429E-13 1.89316E-14
 -1      2783 2.00611E+01 7.44424E-02-4.85225E-04-1.17544E-01-4.40786E-13-4.31543E-14
 -1      2784 2.00610E+01 1.08211E-01-5.10101E-06-1.58755E-01-1.87814E-13-1.18956E-13
 -1      2785 2.00552E+01 6.52819E-02 6.84266E-04-9.78038E-02-4.14989E-13 2.89936E-14
 -1      2786 2.00423E+01 5.64533E-02-3.56992E-04-8.02291E-02-2.31117E-13 1.25528E-13
 -1      2787 2.00449E+01 8.25379E-02-2.88873E-05-1.11887E-01-3.40765E-13 4.53535E-14
 -1      2788 2.00374E+01 4.92548E-02 5.05275E-04-6.51913E-02-1.45703E-13 2.42686E-13
 -1      2789 2.00281E+01 4.26770E-02-8.13973E-05-5.21892E-02-4.85221E-14 1.85357E-13
 -1      2790 2.00317E+01 6.24984E-02-3.63524E-05-7.60888E-02-1.14987E-13 2.91553E-13
 -1      2791 2.00247E+01 4.07595E-02 3.32328E-04-4.57926E-02 1.18603E-14 7.11916E-14
 -1      2792 2.00184E+01 3.73690E-02 1.11079E-04-3.78534E-02-1.89487E-14 1.80990E-13
 -1      2793 2.00148E+01 4.44235E-02-2.85783E-04-4.15397E-02-3.09840E-14 2.51583E-13
 -1      2794 2.00217E+01 5.09373E-02-9.93777E-05-5.41149E-02-1.87318E-13 2.20297E-13
 -1      2795 2.00785E+01 2.73181E-01 1.90815E-04-1.78474E-01 3.36601E-15 1.62607E-13
 -1      2796 2.01064E+01 3.34835E-01 5.59871E-03-8.04932E-02 3.32307E-15 1.64504E-13
 -1      2797 2.00627E+01 1.96941E-01 1.05234E-03-3.34671E-01-6.02285E-15 1.74726E-13
 -1      2798 2.00623E+01 2.30209E-01 3.44460E-03-2.64545E-01-1.87470E-15 1.68966E-13
 -1      2799 2.01431E+01 3.23825E-01-2.57540E-03-2.08376E-01 2.07621E-15 1.17419E-13
 -1      2800 2.01306E+01 4.11536E-01-8.96755E-04 3.89187E-02-2.98459E-15 1.67866E-13
 -1      2801 2.01922E+01 5.16080E-01 7.73858E-03 1.82522E-01-9.28831E-15 1.76456E-13
 -1      2802 2.01931E+01 4.76790E-01-2.54301E-03 9.31716E-03 6.25436E-15 1.31838E-13
 -1      2803 2.01249E+01 1.46240E-01 2.02116E-03-5.56314E-01 1.52513E-14 1.75540E-13
 -1      2804 2.00832E+01 1.50569E-01 8.62593E-04-5.09330E-01 1.87169E-14 1.91353E-13
 -1      2805 2.01954E+01 1.45311E-01 2.24395E-03-6.50529E-01-1.86070E-14 1.95567E-13
 -1      2806 2.01381E+01 1.44453E-01 2.10236E-04-6.06318E-01-1.84697E-14 1.99234E-13
 -1      2807 2.01315E+01 1.84524E-01-1.61285E-03-6.08436E-01-2.21730E-14 1.87979E-13
 -1      2808 2.02902E+01 1.45959E-01 2.28772E-03-7.42973E-01 1.41400E-14 2.66679E-13
 -1      2809 2.02186E+01 1.45573E-01-9.20067E-05-6.99729E-01-9.15819E-15 1.90429E-13
 -1      2810 2.01702E+01 1.83079E-01-1.47777E-03-7.12984E-01-1.27917E-14 1.96102E-13
 -1      2811 2.04102E+01 1.36197E-01 2.09651E-03-8.33467E-01 3.98461E-14 2.73028E-13
 -1      2812 2.03250E+01 1.42708E-01-3.88432E-05-7.92395E-01 5.88281E-14 2.54887E-13
 -1      2813 2.02301E+01 1.80604E-01-1.53945E-03-8.16569E-01 2.63114E-14 2.53019E-13
 -1      2814 2.05597E+01 1.01702E-01 1.57673E-03-9.15447E-01-2.56549E-14 3.34327E-13
 -1      2815 2.04603E+01 1.22854E-01 4.23510E-04-8.81144E-01-1.85939E-14 2.80071E-13
 -1      2816 2.03151E+01 1.61753E-01-1.87008E-03-9.18779E-01 1.06913E-15 2.48844E-13
 -1      2817 2.07459E+01 2.54694E-02 5.95698E-04-9.74853E-01-1.74484E-14 3.30982E-13
 -1      2818 2.06311E+01 7.03694E-02 1.38871E-03-9.55851E-01-9.88821E-15 4.02189E-13
 -1      2819 2.04335E+01 1.08239E-01-2.57569E-03-1.01277E+00-4.79554E-14 2.88798E-13
 -1      2820 2.09794E+01-1.10714E-01-1.01716E-03-9.88827E-01-4.60452E-14 2.77342E-13
 -1      2821 2.08481E+01-3.26481E-02 2.96003E-03-9.98039E-01-8.83695E-15 2.68760E-13
 -1      2822 2.05987E+01-1.20371E-03-3.77709E-03-1.08394E+00 1.41193E-14 2.32366E-13
 -1      2823 2.12735E+01-3.21122E-01-3.44951E-03-9.24896E-01-4.23688E-14 2.15002E-13
 -1      2824 2.11253E+01-2.03384E-01 5.17221E-03-9.79423E-01-6.06772E-14 2.16618E-13
 -1      2825 2.08307E+01-1.88285E-01-5.53468E-03-1.10812E+00-1.75392E-14 2.03932E-13
 -1      2826 2.16388E+01-6.04449E-01-6.82321E-03-7.42165E-01-4.55905E-14 2.64616E-13
 -1      2827 2.14769E+01-4.50420E-01 7.80872E-03-8.61366E-01-8.20171E-14 2.79656E-13
 -1      2828 2.11547E+01-4.67580E-01-7.67030E-03-1.04950E+00-8.15003E-14 1.34282E-13
 -1      2829 2.20725E+01-9.22542E-01-1.06993E-02-3.97983E-01-2.06731E-14 3.06611E-13
 -1      2830 2.19084E+01-7.57884E-01 9.99182E-03-5.97775E-01-1.53508E-14 2.75270E-13
 -1      2831 2.15948E+01-8.30085E-01-9.47326E-03-8.59915E-01-4.11414E-14 1.80512E-13
 -1      2832 2.25390E+01-1.17321E+00-1.32442E-02 1.31231E-01-5.32697E-14 3.38815E-13
 -1      2833 2.23971E+01-1.05985E+00 9.91064E-03-1.48593E-01-1.43317E-14 3.77555E-13
 -1      2834 2.21561E+01-1.21370E+00-9.15990E-03-4.84370E-01-6.81949E-14 2.86036E-13
 -1      2835 2.29515E+01-1.17774E+00-1.07193E-02 8.07768E-01-7.17475E-14 3.24783E-13
 -1      2836 2.28683E+01-1.21684E+00 5.01382E-03 4.85994E-01-6.56017E-14 3.70342E-13
 -1      2837 2.27925E+01-1.47066E+00-4.19185E-03 1.12255E-01-7.88011E-14 3.85583E-13
 -1      2838 2.31763E+01-7.28475E-01-1.21990E-03 1.47092E+00 1.94473E-15 2.76366E-13
 -1      2839 2.31849E+01-1.02362E+00-7.32474E-03 1.20583E+00-4.59056E-14 3.10103E-13
 -1      2840 2.33740E+01-1.36131E+00 6.37151E-03 8.87866E-01-4.64817E-14 3.82030E-13
 -1      2841 2.30968E+01 2.46432E-01 1.03061E-02 1.80716E+00 6.27337E-14 3.92015E-13
 -1      2842 2.32016E+01-3.06631E-01-2.57059E-02 1.75175E+00 5.74242E-14 3.30535E-13
 -1      2843 2.36989E+01-6.53366E-01 1.19666E-02 1.63071E+00-8.72783E-15 3.72501E-13
 -1      2844 2.27824E+01 1.45690E+00 2.00365E-02 1.48029E+00 5.51260E-14 4.68221E-13
 -1      2845 2.29095E+01 8.43568E-01-3.65666E-02 1.74750E+00 4.30975E-14 4.11576E-13
 -1      2846 2.36275E+01 6.68270E-01 9.82425E-03 1.92705E+00 3.80520E-14 4.34340E-13
 -1      2847 2.24994E+01 2.18511E+00 1.46879E-03 4.02469E-01 1.55015E-14 4.04904E-13
 -1      2848 2.25226E+01 1.90621E+00-3.93827E-02 9.36874E-01 1.08942E-13 4.47921E-13
 -1      2849 2.32472E+01 2.13831E+00 1.05215E-03 1.39746E+00 5.24459E-14 3.86163E-13
 -1      2850 2.25341E+01 1.97970E+00-2.20810E-02-8.81691E-01-5.08361E-15 1.78719E-13
 -1      2851 2.24755E+01 2.21633E+00-2.24076E-04-3.16230E-01 7.65013E-15 2.44935E-13
 -1      2852 2.30683E+01 2.68186E+00-2.40358E-02 6.11425E-02 1.10707E-13 2.60403E-13
 -1      2853 2.28810E+01 9.44109E-01-3.54218E-02-1.72162E+00 4.33989E-14 1.09745E-13
 -1      2854 2.27541E+01 1.53127E+00 1.79168E-02-1.42076E+00-6.27449E-15 9.25156E-14
 -1      2855 2.32332E+01 2.14574E+00-1.44611E-02-1.29454E+00 2.01193E-14 8.47863E-14
 -1      2856 2.31924E+01-2.21598E-01-2.68532E-02-1.78839E+00 3.34132E-14 1.90198E-13
 -1      2857 2.30884E+01 3.43645E-01 1.39603E-02-1.82100E+00 6.85294E-14 1.39700E-13
 -1      2858 2.35951E+01 7.73858E-01 4.30039E-03-1.92238E+00 6.14352E-15 7.02077E-14
 -1      2859 2.32061E+01-9.78303E-01-1.13329E-02-1.28039E+00 5.30270E-14 8.15706E-14
 -1      2860 2.31905E+01-6.59541E-01-4.55093E-04-1.53384E+00 8.54698E-14 2.16062E-13
 -1      2861 2.37075E+01-5.61028E-01 1.06970E-02-1.68769E+00 4.90614E-14 2.05222E-14
 -1      2862 2.29145E+01-1.20569E+00 2.65523E-03-5.68649E-01-1.27771E-13 1.83795E-13
 -1      2863 2.29923E+01-1.14955E+00-1.06507E-02-8.88886E-01-4.35550E-14 6.99821E-14
 -1      2864 2.34189E+01-1.31949E+00 5.14774E-03-9.73799E-01 8.36505E-15 1.20402E-13
 -1      2865 2.24553E+01-1.06136E+00 9.25657E-03 6.87933E-02 8.49149E-14 2.61431E-13
 -1      2866 2.25938E+01-1.16820E+00-1.26331E-02-2.12537E-01-2.59250E-14 1.86322E-13
 -1      2867 2.28529E+01-1.46079E+00-2.92452E-03-1.97896E-01-9.07574E-14 9.47143E-14
 -1      2868 2.19724E+01-7.58838E-01 1.00935E-02 5.19891E-01-8.83253E-14 1.46440E-13
 -1      2869 2.21331E+01-9.23276E-01-1.01012E-02 3.19310E-01 8.03572E-14 2.37122E-13
 -1      2870 2.22192E+01-1.21053E+00-6.20662E-03 4.03846E-01 7.81827E-14 1.68360E-13
 -1      2871 2.15450E+01-4.44424E-01 8.09158E-03 7.81803E-01-1.15446E-13 5.42944E-14
 -1      2872 2.17023E+01-6.01870E-01-6.69607E-03 6.63691E-01-1.70019E-13 6.66575E-14
 -1      2873 2.16542E+01-8.25091E-01-7.48637E-03 7.80651E-01-5.88258E-14 5.29357E-14
 -1      2874 2.11975E+01-1.86448E-01 5.65855E-03 8.92704E-01-7.19932E-14 7.34703E-14
 -1      2875 2.13396E+01-3.09642E-01-3.65513E-03 8.42273E-01-7.24067E-14-3.28721E-14
 -1      2876 2.12092E+01-4.53555E-01-6.48142E-03 9.66859E-01-1.24093E-13-2.64913E-13
 -1      2877 2.09266E+01-4.91869E-03 3.51216E-03 8.98305E-01-7.19507E-15 1.35844E-13
 -1      2878 2.10500E+01-8.83882E-02-1.32070E-03 8.95929E-01 2.12612E-14 1.23880E-13
 -1      2879 2.08815E+01-1.61746E-01-4.77354E-03 1.01560E+00-7.06297E-14-1.70883E-13
 -1      2880 2.07181E+01 1.06852E-01 1.92975E-03 8.38652E-01-1.12577E-13 3.90484E-13
 -1      2881 2.08233E+01 5.75668E-02 2.33834E-04 8.66581E-01-4.08892E-14 2.99331E-13
 -1      2882 2.06481E+01 3.70166E-02-3.27223E-03 9.76092E-01-9.75205E-14 2.67218E-14
 -1      2883 2.05570E+01 1.64823E-01 8.79632E-04 7.43875E-01 2.28181E-13 2.24551E-13
 -1      2884 2.06459E+01 1.41002E-01 1.18822E-03 7.88247E-01 8.59062E-14 3.35532E-13
 -1      2885 2.04830E+01 1.55369E-01-2.17438E-03 8.85978E-01 8.49610E-14 3.36640E-13
 -1      2886 2.04314E+01 1.85600E-01 2.41326E-04 6.34914E-01 5.90528E-14 3.53383E-13
 -1      2887 2.05059E+01 1.78913E-01 1.70369E-03 6.85895E-01 1.71435E-13 3.41582E-13
 -1      2888 2.03650E+01 2.13494E-01-1.45333E-03 7.71626E-01 1.43339E-13 4.90800E-13
 -1      2889 2.03327E+01 1.82987E-01-1.10085E-04 5.25338E-01-1.57588E-13 5.53660E-13
 -1      2890 2.03946E+01 1.86776E-01 1.91220E-03 5.76504E-01-5.42453E-14 3.48529E-13
 -1      2891 2.02789E+01 2.30808E-01-1.00763E-03 6.50552E-01-6.75450E-14 6.74764E-13
 -1      2892 2.02546E+01 1.67204E-01-2.76326E-04 4.23229E-01-2.64993E-13 6.59541E-13
 -1      2893 2.03054E+01 1.76660E-01 1.91573E-03 4.70763E-01-2.07657E-13 5.57572E-13
 -1      2894 2.02144E+01 2.22933E-01-7.38467E-04 5.33714E-01-2.65386E-13 7.39103E-13
 -1      2895 2.01929E+01 1.45256E-01-3.31073E-04 3.32790E-01-2.32295E-13 6.82863E-13
 -1      2896 2.02340E+01 1.57144E-01 1.79131E-03 3.74733E-01-1.96036E-13 7.80052E-13
 -1      2897 2.01651E+01 2.01245E-01-5.73814E-04 4.27381E-01-2.44676E-13 6.79320E-13
 -1      2898 2.01442E+01 1.21629E-01-3.23628E-04 2.55623E-01-1.12780E-13 5.00602E-13
 -1      2899 2.01770E+01 1.33917E-01 1.59583E-03 2.91264E-01-2.19787E-13 5.41090E-13
 -1      2900 2.01267E+01 1.73455E-01-4.66400E-04 3.34566E-01-1.63983E-13 6.41907E-13
 -1      2901 2.01061E+01 9.89946E-02-2.86150E-04 1.91684E-01 1.97007E-13 2.62525E-13
 -1      2902 2.01319E+01 1.10502E-01 1.36924E-03 2.21092E-01 1.98959E-13 4.69607E-13
 -1      2903 2.00965E+01 1.44453E-01-3.88357E-04 2.56121E-01 7.27149E-14 4.19643E-13
 -1      2904 2.00766E+01 7.87862E-02-2.38367E-04 1.39975E-01 1.36811E-13 1.02124E-13
 -1      2905 2.00965E+01 8.89038E-02 1.13780E-03 1.63661E-01 1.28992E-13 1.42561E-13
 -1      2906 2.00727E+01 1.17111E-01-3.25697E-04 1.91547E-01 2.23883E-13 3.86823E-13
 -1      2907 2.00538E+01 6.16453E-02-1.84265E-04 9.90215E-02 2.68746E-13 1.22224E-13
 -1      2908 2.00690E+01 7.01259E-02 9.19603E-04 1.17713E-01 1.29493E-13 9.98785E-14
 -1      2909 2.00539E+01 9.29333E-02-2.69778E-04 1.39589E-01 2.52760E-13 1.70571E-14
 -1      2910 2.00364E+01 4.76232E-02-1.08424E-04 6.71451E-02 8.71125E-14 1.20745E-13
 -1      2911 2.00478E+01 5.45251E-02 7.37431E-04 8.16260E-02 2.56078E-13 2.64191E-14
 -1      2912 2.00389E+01 7.25188E-02-2.30681E-04 9.86210E-02 3.50314E-13 1.51346E-13
 -1      2913 2.00228E+01 3.71923E-02-3.27553E-05 4.35104E-02 1.88709E-13 9.67365E-14
 -1      2914 2.00313E+01 4.27401E-02 5.78633E-04 5.45910E-02 6.42888E-14 1.15525E-13
 -1      2915 2.00264E+01 5.63728E-02-3.47394E-04 6.75095E-02 5.89700E-14 3.46300E-14
 -1      2916 2.00164E+01 4.37760E-02-3.86863E-04 4.43145E-02 7.69970E-14 2.32913E-14
 -1      2917 1.99942E+01 7.86545E-02-4.33341E-04 4.65372E-02 5.58593E-14-6.32362E-14
 -1      2918 2.00007E+01 7.06633E-02 1.54962E-04 4.76380E-02 8.26602E-14 9.90875E-14
 -1      2919 1.99732E+01 1.07948E-01-4.14142E-04 2.36741E-02 5.71231E-14-3.22310E-13
 -1      2920 1.99772E+01 1.03737E-01 2.25910E-05 3.08021E-02 8.68202E-14-3.21058E-13
 -1      2921 2.00057E+01 6.17596E-02-3.94980E-04 4.82805E-02 4.65321E-14 2.64811E-13
 -1      2922 2.00117E+01 5.29932E-02 1.07050E-04 4.61389E-02 7.32956E-14 3.09135E-13
 -1      2923 2.00166E+01 5.98163E-02 5.27660E-04 5.66562E-02 1.36376E-13 2.51721E-13
 -1      2924 2.00036E+01 7.70251E-02 4.32633E-04 5.75193E-02 1.00548E-13 1.38810E-13
 -1      2925 1.99820E+01 9.57544E-02-4.65295E-04 3.82094E-02 4.09117E-14-3.35122E-13
 -1      2926 1.99880E+01 8.92691E-02 1.52448E-04 4.27531E-02 7.41786E-14-3.24590E-13
 -1      2927 1.99888E+01 9.55592E-02 3.32741E-04 5.26656E-02 6.23432E-14-1.91874E-13
 -1      2928 1.99745E+01 1.13331E-01 3.47660E-04 4.04352E-02 2.02838E-13-3.66185E-13
 -1      2929 1.99705E+01 1.12772E-01-1.54630E-04-1.40743E-02-2.68877E-13 2.10540E-13
 -1      2930 1.99691E+01 1.14147E-01-2.87429E-04-5.46858E-03-2.91192E-13 1.88019E-13
 -1      2931 1.99771E+01 1.04826E-01 1.50146E-05-3.09301E-02-2.88832E-13-1.16519E-13
 -1      2932 1.99731E+01 1.08824E-01-4.09982E-04-2.38472E-02-3.52532E-13 1.97784E-13
 -1      2933 1.99651E+01 1.26206E-01 4.98423E-04-2.18822E-02-2.78422E-13 1.01423E-13
 -1      2934 1.99882E+01 9.06887E-02 1.84369E-04-4.30850E-02-1.61406E-13-2.47801E-13
 -1      2935 1.99821E+01 9.69965E-02-4.82967E-04-3.84957E-02-1.41165E-13-1.21043E-13
 -1      2936 1.99746E+01 1.15074E-01 4.27514E-04-4.05212E-02-2.58148E-13 2.73927E-14
 -1      2937 2.00014E+01 7.18520E-02 1.99655E-04-4.79464E-02-2.59893E-13 2.37368E-14
 -1      2938 1.99947E+01 7.98856E-02-4.43827E-04-4.69178E-02-1.13551E-13-2.44222E-13
 -1      2939 1.99890E+01 9.72594E-02 2.94341E-04-5.30000E-02-1.85359E-13-1.60071E-13
 -1      2940 2.26416E+01-5.22077E+00-9.31828E-02 4.68509E+00-2.57905E-13-1.71543E-13
 -1      2941 1.98788E+01-4.91377E+00 1.00345E-01 5.65406E+00-2.81525E-13-3.01807E-14
 -1      2942 1.94067E+01-4.24019E+00 1.05109E-01 5.33414E+00-2.33799E-13-1.13388E-13
 -1      2943 1.03278E+01-2.01649E+00 8.09113E-02 5.19061E+00-1.02585E-13 2.38976E-13
 -1      2944 7.88509E+00-1.06061E+00 2.01083E-01 3.39847E+00-2.10408E-13 3.95906E-13
 -1      2945 7.81670E+00-1.15225E+00 1.37484E-01 3.22923E+00-2.49661E-14 4.99600E-15
 -1      2946 6.73843E+00-5.66450E-01 1.26453E-01 8.82707E-01-1.27546E-14-1.03584E-13
 -1      2947 1.21732E+01-3.27472E+00 1.59817E-01-5.81085E+00-1.23665E-13-8.07687E-14
 -1      2948 1.55534E+01-4.44332E+00 3.48225E-03-6.34145E+00-1.57097E-14-6.91808E-14
 -1      2949 2.74131E+01-3.25857E+00 1.49864E-02-1.17547E+00-9.82357E-14 1.28980E-13
 -1      2950 2.84062E+01-1.82374E+00-1.57714E-01 5.02149E-02-4.54151E-14 1.55986E-13
 -1      2951 2.98706E+01 2.09199E+00-2.02347E-01-2.21815E+00 5.28744E-14 1.35822E-13
 -1      2952 2.99819E+01 8.15505E-02-7.24883E-02-1.76934E+00 1.00919E-13 2.27734E-13
 -1      2953 2.89266E+01 1.57944E-01-5.22101E-02 1.23585E+00 8.78048E-14 3.29486E-13
 -1      2954 2.84976E+01 2.19775E+00-1.73234E-01 1.92363E+00 1.52905E-13 4.43978E-13
 -1      2955 1.11718E+01-2.38090E+00 1.07352E-01-5.49739E+00-1.32588E-13-2.19991E-13
 -1      2956 1.38156E+01-3.68457E+00 8.30231E-02-6.49320E+00-2.00034E-13-1.77650E-13
 -1      2957 1.99691E+01 1.13916E-01-3.02088E-04 5.26458E-03-1.34393E-13 1.49551E-13
 -1      2958 1.99705E+01 1.12403E-01-1.31010E-04 1.38512E-02 2.20406E-14-4.42033E-14
 -1      2959 1.99618E+01 1.29722E-01 5.15811E-04 3.38889E-05-1.74886E-13 5.83645E-14
 -1      2960 2.03422E+01 1.09717E+00 3.44955E-03-7.84070E-01 1.29172E-15 6.47266E-14
 -1      2961 2.02640E+01 8.60847E-01-5.05315E-03-5.27307E-01-5.48281E-15 6.14506E-14
 -1      2962 2.02906E+01 9.44326E-01-3.38377E-03-4.70474E-01 8.50405E-15 5.59007E-14
 -1      2963 7.05446E+00-1.33670E+00 1.42439E-01-2.93355E+00-4.08770E-14 5.41789E-13
 -1      2964 9.07377E+00-2.19360E+00 8.25961E-02-4.81610E+00-1.40776E-13 2.04337E-13
 -1      2965 2.80923E+01 6.58530E+00-1.69469E-01-3.62183E-01 2.93904E-13 5.23054E-14
 -1      2966 2.94582E+01 6.41334E+00-1.16616E-01-9.89773E-01 4.97852E-13-6.17284E-14
 -1      2967 2.81811E+01 5.19261E+00-1.26781E-01-1.39649E+00 4.90497E-13 3.27446E-14
 -1      2968 2.74979E+01-3.32497E+00-1.62246E-01 1.17130E+00-3.99021E-14-6.25611E-14
 -1      2969 2.56081E+01-4.41526E+00 6.86377E-02 2.74345E+00-2.09874E-13-1.32769E-13
 -1      2970 6.88791E+00-4.92390E-01 1.94752E-01-1.17292E+00-4.29535E-14-1.25011E-13
 -1      2971 8.39497E+00-9.91719E-01 1.03043E-01-3.41094E+00-1.14249E-13-1.16601E-13
 -1      2972 8.64176E+00-2.69731E-02 1.63789E-01 4.69978E-02-8.02084E-14-1.13062E-13
 -1      2973 2.34394E+01-5.00907E+00 8.90746E-02-4.22854E+00-2.11983E-13 1.50949E-13
 -1      2974 2.55952E+01-4.63572E+00-1.07569E-01-2.90458E+00-1.99042E-13 8.06855E-14
 -1      2975 2.78791E+01 4.55982E+00-1.37180E-01 1.72651E+00 1.57929E-14 3.66318E-13
 -1      2976 2.76557E+01 5.96957E+00-1.78901E-01 9.47427E-01 1.35447E-14 1.92624E-13
 -1      2977 1.68993E+01-4.49654E+00 1.20072E-01-6.32087E+00-2.16591E-13 3.42643E-14
 -1      2978 2.03511E+01-5.22131E+00-4.99710E-02-5.73931E+00-1.86559E-13 1.58686E-13
 -1      2979 1.67247E+01-3.72155E+00 1.23008E-01-5.87821E+00-2.64386E-13 1.97481E-14
 -1      2980 2.55997E+01-4.80248E+00 4.41530E-02-2.45322E+00-8.52790E-14 8.76313E-14
 -1      2981 2.75186E+01-3.97743E+00-1.31975E-01-7.26950E-01-1.33442E-13-1.11022E-16
 -1      2982 1.99213E+01 2.66692E+00-7.63521E-03 7.42821E-01 4.30406E-14 1.71019E-13
 -1      2983 1.98711E+01 2.76489E+00-6.51939E-03 6.00350E-01 3.76043E-14 1.47460E-13
 -1      2984 1.99806E+01 2.48427E+00 4.64994E-03 4.70266E-01 2.33005E-14 1.52884E-13
 -1      2985 2.00761E+01 2.26922E+00 5.71495E-03 6.84073E-01 2.42576E-14 1.67859E-13
 -1      2986 1.29864E+01-3.57575E+00 5.12022E-02 6.12012E+00 1.19099E-13-1.00114E-13
 -1      2987 9.75514E+00-2.28139E+00 1.33999E-01 4.88471E+00 4.10505E-14-2.60347E-14
 -1      2988 1.92527E+01-5.23164E+00-5.13964E-02 5.83292E+00 2.69063E-13-9.33420E-14
 -1      2989 1.64001E+01-4.43962E+00 1.36464E-01 6.08884E+00 2.12191E-13-1.26288E-13
 -1      2990 2.56675E+01-5.01287E+00-1.10816E-01 2.59982E+00 2.79318E-13 2.04420E-13
 -1      2991 2.27258E+01-5.27352E+00 1.24575E-01 4.49126E+00 2.73351E-13-3.42573E-14
 -1      2992 2.01991E+01 2.29978E+00 4.59993E-04-1.36980E+00 8.72338E-15 6.59785E-14
 -1      2993 1.98667E+01 2.77461E+00-6.53210E-03-5.90331E-01 1.95954E-14 5.84398E-14
 -1      2994 1.99158E+01 2.67907E+00-7.57860E-03-7.33312E-01 1.89044E-14 4.30825E-14
 -1      2995 2.00796E+01 1.59603E-01 1.63448E-03-4.54776E-01 7.08179E-15 1.74013E-13
 -1      2996 2.00564E+01 1.74871E-01 1.90984E-03-4.00258E-01-5.91619E-15 1.80371E-13
 -1      2997 2.01166E+01 2.39328E-01-2.25860E-03-3.69810E-01-3.08168E-15 1.24821E-13
 -1      2998 2.01133E+01 1.98612E-01-1.89286E-03-4.97643E-01 1.66103E-14 1.54302E-13
 -1      2999 1.91343E+01-4.96388E+00 1.34597E-01-5.71729E+00-5.31242E-14-1.59980E-13
 -1      3000 2.24259E+01-5.23999E+00-2.29501E-02-4.45074E+00 3.19189E-16-1.96483E-13
 -1      3001 2.96987E+01 5.47367E+00-1.70033E-01-1.40874E+00-1.00336E-13 1.08649E-13
 -1      3002 2.98379E+01 3.82139E+00-1.42021E-01-2.27200E+00 3.44169E-14 1.21653E-13
 -1      3003 1.99015E+01 2.65074E+00 3.97336E-03 3.96495E-03 1.85972E-14 1.03340E-13
 -1      3004 1.97709E+01 2.96483E+00-5.66387E-03-5.64117E-02 2.46762E-14 9.85746E-14
 -1      3005 1.97801E+01 2.94895E+00-5.60478E-03-2.01173E-01 2.37963E-14 9.50819E-14
 -1      3006 2.03452E+01 1.62459E+00 1.43789E-03 1.21380E+00 1.60592E-14 2.01270E-13
 -1      3007 2.88519E+01 1.81040E+00-1.02073E-01-1.80592E+00 3.28876E-13-1.20820E-13
 -1      3008 2.77762E+01 5.90072E-01-3.32577E-02-1.80621E+00 2.94195E-13-2.17867E-13
 -1      3009 2.79098E+01 2.74527E+00-1.61425E-01-2.07861E+00 3.95850E-13-6.52534E-14
 -1      3010 1.04142E+01-1.24856E+00 1.81221E-01-4.38932E+00-1.02154E-13-2.63983E-13
 -1      3011 1.26464E+01-1.67481E+00 9.33842E-02-4.84453E+00-1.48749E-13-2.02102E-13
 -1      3012 1.01252E+01-3.69134E-01 9.00987E-02-3.01933E+00-1.02841E-13-1.42053E-13
 -1      3013 1.55470E+01-2.71850E+00-7.72487E-03 5.34216E+00-1.95857E-13-5.24927E-14
 -1      3014 1.31313E+01-2.33965E+00 1.49466E-01 5.51561E+00-1.16032E-13 1.88585E-13
 -1      3015 1.24305E+01-1.22307E+00 9.14673E-02 4.55487E+00-2.20768E-13 2.36158E-13
 -1      3016 8.38550E+00-4.60710E-01 1.96235E-01-1.92322E+00-7.76636E-14 4.52111E-13
 -1      3017 2.80382E+01 1.44195E+00-1.28668E-01 2.72069E+00-3.29167E-13 3.95656E-14
 -1      3018 2.79214E+01-1.67027E+00-6.40981E-02-1.61425E+00 2.41612E-13 1.64660E-13
 -1      3019 2.74838E+01-5.56927E-01-1.13039E-01-2.42976E+00 2.06057E-13 1.86642E-13
 -1      3020 2.75450E+01 1.18889E+00-6.47750E-02-2.65675E+00 1.84811E-13 1.52670E-13
 -1      3021 2.25613E+01-4.49754E+00 1.00470E-01-3.81111E+00-1.26982E-14 6.04863E-14
 -1      3022 2.42627E+01-5.03319E+00 2.00887E-02-3.31240E+00-1.33088E-14 1.58370E-13
 -1      3023 2.50457E+01-4.45226E+00-4.93306E-02-1.89802E+00-7.09710E-14 2.91225E-13
 -1      3024 1.80354E+01-4.17079E+00 1.15165E-01-5.53454E+00 8.32667E-15-1.02002E-13
 -1      3025 1.99652E+01 1.25236E-01 4.78678E-04 2.20208E-02 1.40045E-13-1.63891E-13
 -1      3026 1.99760E+01 2.54760E+00-7.24782E-03-8.44348E-01 1.05756E-14 4.50395E-14
 -1      3027 2.00379E+01 2.39548E+00-1.37769E-02-9.78903E-01 4.31784E-15 5.56768E-14
 -1      3028 2.00717E+01 2.28400E+00 6.08954E-03-6.76621E-01 1.34888E-14 5.03717E-14
 -1      3029 2.74282E+01-3.83291E+00 3.18730E-02 4.66818E-01 2.48654E-13 2.72629E-13
 -1      3030 2.57811E+01-4.19719E+00 8.83450E-03 1.38442E+00 2.41626E-13 2.06429E-13
 -1      3031 1.05596E+01-1.19208E+00 1.63084E-01 3.82923E+00 1.34198E-14-2.15661E-14
 -1      3032 2.75850E+01 3.06271E+00-1.24867E-01 2.06260E+00 7.82430E-14 3.99805E-13
 -1      3033 2.61327E+01 3.75552E+00-1.07142E-01 1.93872E+00-4.49918E-14 4.12462E-13
 -1      3034 2.68784E+01 1.60863E+00-8.19805E-02 2.03921E+00 9.18293E-14 4.46289E-13
 -1      3035 2.43099E+01-4.55062E+00 5.06870E-02 3.12792E+00-2.59209E-13-1.51282E-13
 -1      3036 2.00112E+01 5.41064E-02 9.11315E-05-4.51699E-02-4.68329E-14 4.78137E-13
 -1      3037 2.00061E+01 6.14470E-02-3.48818E-04-4.68579E-02-2.20478E-13 4.75784E-13
 -1      3038 2.00025E+01 7.68177E-02-4.22807E-05-5.57439E-02-1.79564E-13 3.58852E-13
 -1      3039 2.00140E+01 5.73637E-02 7.03547E-05-5.11239E-02-2.80405E-13 3.37210E-13
 -1      3040 2.02574E+01 7.37834E-01-2.17084E-03 3.11107E-01-2.53088E-14 1.60969E-13
 -1      3041 2.02243E+01 6.62215E-01 2.01894E-03 3.54832E-01-3.15464E-14 1.79015E-13
 -1      3042 2.71143E+01 5.84053E+00-1.40520E-01 4.37136E-01 7.86454E-14 2.77927E-13
 -1      3043 2.62388E+01 5.52229E+00-1.21559E-01-2.27403E-01 2.52687E-13 3.65491E-13
 -1      3044 2.59293E+01 4.97418E+00-6.92913E-02 1.01003E+00-6.27137E-14 6.62383E-13
 -1      3045 2.02482E+01 7.34896E-01 6.57404E-03 4.78306E-01-2.49453E-14 1.82467E-13
 -1      3046 2.78794E+01-1.06387E+00-4.39901E-02 9.99200E-01-5.48173E-16 3.50359E-13
 -1      3047 2.88692E+01 2.18045E+00-9.05989E-02-2.45270E+00 1.09343E-13 1.80425E-13
 -1      3048 2.62912E+01-3.86206E+00 1.54143E-02-1.52573E+00-2.01429E-13 1.23776E-13
 -1      3049 1.20658E+01-2.17507E+00 1.72335E-01-4.97365E+00-6.96387E-14 1.06304E-14
 -1      3050 2.95400E+01 5.92442E+00-1.52400E-01 7.74362E-01-3.71508E-13-1.25424E-13
 -1      3051 2.74688E+01-2.93835E+00-3.14447E-02 5.78843E-01-2.08826E-13 1.06422E-13
 -1      3052 2.03395E+01 1.42335E+00 8.83272E-03 9.58158E-01 4.19337E-15 1.85129E-13
 -1      3053 1.97988E+01 2.90957E+00-6.00568E-03-3.24925E-01 3.02459E-14 1.12796E-13
 -1      3054 1.98277E+01 2.85741E+00-6.09686E-03-4.69727E-01 1.39048E-14 9.29135E-14
 -1      3055 1.99771E+01 2.49402E+00 4.83603E-03-4.61537E-01 1.82427E-14 7.57085E-14
 -1      3056 1.99199E+01 2.61337E+00 4.16253E-03-2.31673E-01 2.15547E-14 1.02143E-13
 -1      3057 2.96528E+01 6.31172E+00-1.80942E-01-2.94663E-01-3.16469E-13 1.02439E-13
 -1      3058 8.70525E+00-3.62910E-01 1.82281E-01 2.15280E+00-2.39475E-13 5.47895E-13
 -1      3059 2.75524E+01-2.30348E+00-2.80623E-02-1.06613E-01 1.10112E-14-1.03903E-13
 -1      3060 2.22579E+01-4.83511E+00 6.10372E-02-4.47396E+00-2.69437E-13 2.24765E-13
 -1      3061 2.16931E+01-4.84216E+00 9.50499E-02 4.54671E+00 2.82607E-13 1.65497E-14
 -1      3062 1.56922E+01-3.43584E+00 1.41993E-01 5.64549E+00 1.70169E-13-5.05707E-14
 -1      3063 2.01583E+01 2.17157E+00 7.25066E-04-1.07861E+00-5.09391E-15 4.45984E-14
 -1      3064 2.03134E+01 1.71144E+00-1.05318E-02-1.18708E+00-5.12134E-15 7.05169E-14
 -1      3065 2.03140E+01 1.33824E+00-7.65825E-04-9.07222E-01 2.61461E-15 7.16885E-14
 -1      3066 2.02167E+01 1.91524E+00 8.95578E-03-8.58594E-01-4.19212E-15 6.22115E-14
 -1      3067 2.95458E+01-1.73012E+00-1.05338E-01-7.11644E-01 1.46732E-13 3.60212E-13
 -1      3068 2.81965E+01-3.45465E+00-1.91155E-02 4.01158E-01 2.44360E-13 2.65482E-13
 -1      3069 2.02988E+01 1.41448E+00 1.55707E-03-8.02776E-01-7.59484E-15 5.72941E-14
 -1      3070 2.02507E+01 1.53976E+00-9.46812E-03 7.26347E-01 1.72863E-14 1.72914E-13
 -1      3071 2.02056E+01 1.73995E+00-1.95650E-03 6.65476E-01 2.70169E-14 1.55051E-13
 -1      3072 2.02911E+01 7.76474E-01 6.51014E-03 6.92516E-01-2.14819E-14 2.06605E-13
 -1      3073 2.84100E+01 4.96214E+00-1.42408E-01-1.21679E+00-9.21208E-14 1.67186E-13
 -1      3074 2.02448E+01 5.54856E-01 3.41602E-03 4.92880E-02-1.80853E-14 8.20432E-14
 -1      3075 2.02135E+01 4.68158E-01-1.28724E-03 1.61837E-01-2.91836E-14 7.07592E-14
 -1      3076 2.01919E+01 4.06101E-01 2.16530E-03 2.54035E-01-4.97036E-14 7.29980E-14
 -1      3077 2.01716E+01 3.60520E-01-1.12012E-04 3.40636E-01-6.02133E-14 3.84540E-14
 -1      3078 2.02309E+01 5.23624E-01-5.29094E-04 1.87062E-01-4.34641E-14 6.09961E-14
 -1      3079 2.01436E+01 3.32180E-01 9.07719E-04 4.15262E-01-2.42462E-14 1.37515E-14
 -1      3080 2.01337E+01 3.16608E-01 7.72315E-04 4.87416E-01-5.68450E-15 3.27144E-14
 -1      3081 2.01759E+01 4.15288E-01-5.60048E-04 3.59085E-01-4.84500E-14 4.15662E-14
 -1      3082 2.01010E+01 3.12589E-01-2.04895E-04 5.53433E-01 4.17032E-14 3.02681E-14
 -1      3083 2.00995E+01 3.18923E-01 1.41843E-03 6.20276E-01 6.12343E-14 7.06510E-14
 -1      3084 2.01145E+01 3.75164E-01-2.87256E-04 5.03697E-01 1.50034E-14-3.39778E-15
 -1      3085 2.00617E+01 3.32474E-01-1.18314E-03 6.84938E-01 6.95206E-14 1.09240E-13
 -1      3086 2.00663E+01 3.54456E-01 1.90581E-03 7.53387E-01 4.27411E-14 1.06393E-13
 -1      3087 2.00470E+01 3.84971E-01 1.52744E-04 6.36821E-01 8.11308E-14 7.90194E-15
 -1      3088 2.00217E+01 3.79863E-01-2.03909E-03 8.22433E-01-4.93410E-15 1.45176E-13
 -1      3089 2.00302E+01 4.11586E-01 2.30437E-03 8.97425E-01 4.73397E-14 1.38647E-13
 -1      3090 1.99705E+01 4.30391E-01 6.84793E-04 7.71348E-01 3.82545E-14 1.14153E-13
 -1      3091 1.99770E+01 4.42714E-01-2.77169E-03 9.75276E-01 4.98906E-14 1.19065E-13
 -1      3092 1.99882E+01 4.77142E-01 2.69974E-03 1.05991E+00 8.09159E-15 1.35368E-13
 -1      3093 1.98807E+01 4.97967E-01 1.25298E-03 9.17372E-01 2.22418E-14 2.08544E-13
 -1      3094 1.99249E+01 5.05856E-01-3.34440E-03 1.14996E+00 4.64020E-15 1.67920E-13
 -1      3095 1.99397E+01 5.33065E-01 3.22884E-03 1.24550E+00 2.95216E-14 1.68832E-13
 -1      3096 1.97732E+01 5.71976E-01 1.76398E-03 1.08272E+00 3.32928E-14 1.79638E-13
 -1      3097 1.98670E+01 5.47234E-01-3.64876E-03 1.35062E+00 3.06407E-14 1.33319E-13
 -1      3098 1.98902E+01 5.52128E-01 4.12329E-03 1.45639E+00 1.83758E-14 1.34910E-13
 -1      3099 1.96463E+01 6.30797E-01 2.02293E-03 1.27395E+00 3.17458E-14 1.56785E-13
 -1      3100 1.98137E+01 5.33069E-01-3.43186E-03 1.57953E+00 1.69715E-14 1.34100E-13
 -1      3101 1.98580E+01 4.92492E-01 5.73768E-03 1.69263E+00 4.27194E-14 1.17211E-13
 -1      3102 1.95041E+01 6.42186E-01 1.64346E-03 1.49793E+00 2.62219E-14 6.39327E-14
 -1      3103 1.97932E+01 4.12090E-01-2.11776E-03 1.83731E+00 3.72954E-14 9.54606E-14
 -1      3104 1.98850E+01 2.91849E-01 8.53486E-03 1.95136E+00 5.76903E-15 9.77596E-14
 -1      3105 1.93638E+01 5.57162E-01-8.21593E-05 1.76390E+00 7.77246E-15 1.10535E-13
 -1      3106 1.98667E+01 1.10690E-01 1.64527E-03 2.12064E+00-6.62949E-14 9.56742E-14
 -1      3107 2.00535E+01-1.35524E-01 1.29877E-02 2.22208E+00-1.03464E-13 1.07610E-13
 -1      3108 1.92685E+01 3.03035E-01-4.27079E-03 2.08466E+00-3.12459E-14 6.71984E-14
 -1      3109 2.01508E+01-4.65357E-01 1.08625E-02 2.41280E+00-8.95010E-14 1.25298E-13
 -1      3110 2.05037E+01-8.94030E-01 1.63964E-02 2.47193E+00-4.87587E-14 5.87987E-14
 -1      3111 1.93067E+01-2.21385E-01-1.25916E-02 2.47245E+00-7.55502E-14 1.08943E-13
 -1      3112 2.08507E+01-1.40011E+00 3.26721E-02 2.63943E+00 1.64183E-14 3.05576E-14
 -1      3113 2.14551E+01-2.02622E+00 2.15112E-02 2.59290E+00 3.07115E-14 5.11464E-14
 -1      3114 1.96519E+01-1.15460E+00-3.07562E-02 2.91211E+00-3.94168E-14 4.54879E-14
 -1      3115 2.22514E+01-2.69887E+00 6.58273E-02 2.62216E+00 1.26258E-13 1.00355E-13
 -1      3116 2.31788E+01-3.40442E+00 2.24529E-02 2.31885E+00 1.76515E-13 1.40851E-13
 -1      3117 2.06023E+01-2.55309E+00-6.36976E-02 3.26907E+00 1.55772E-13 7.41802E-14
 -1      3118 2.45912E+01-4.11501E+00 6.23069E-02 2.07718E+00 1.77239E-13 2.05258E-13
 -1      3119 2.02665E+01 1.49238E+00-6.60820E-03-7.42514E-01-4.32618E-15 7.11886E-14
 -1      3120 2.03107E+01 1.28565E+00 9.19320E-03-6.30204E-01 1.26111E-14 5.74078E-14
 -1      3121 2.02776E+01 1.02998E+00-6.12526E-03-4.25726E-01 1.72746E-14 5.95638E-14
 -1      3122 2.02117E+01 1.74286E+00-3.06228E-04-6.90587E-01 5.02593E-15 7.18129E-14
 -1      3123 2.65779E+01-3.68315E+00 6.00453E-02-3.13093E-01-6.74231E-14 1.02376E-13
 -1      3124 2.70768E+01-1.96753E+00 6.43962E-04 7.49355E-01-1.03521E-13 3.70620E-13
 -1      3125 2.70498E+01-5.04065E-01-1.02176E-01 1.61044E+00 1.49047E-14 5.29951E-13
 -1      3126 2.29972E+01-2.99151E+00 1.11900E-02-2.11964E+00 9.01154E-14 2.66200E-14
 -1      3127 2.21951E+01-2.33376E+00 4.87300E-02-2.39273E+00 2.50344E-14 1.16602E-13
 -1      3128 2.15047E+01-1.70828E+00 1.70406E-02-2.37327E+00-9.34504E-14 1.79740E-14
 -1      3129 2.09653E+01-1.14709E+00 2.35852E-02-2.42827E+00-1.05210E-13-3.01398E-14
 -1      3130 2.07392E+01-2.18035E+00-4.50715E-02-2.98448E+00-9.61301E-14 1.54373E-14
 -1      3131 2.06539E+01-6.80164E-01 1.43783E-02-2.28252E+00-2.65211E-14-4.09871E-14
 -1      3132 2.03349E+01-3.04484E-01 8.46561E-03-2.23031E+00-4.87045E-14 9.05547E-15
 -1      3133 1.98752E+01-9.16749E-01-2.64655E-02-2.67535E+00-8.47907E-14-2.65213E-14
 -1      3134 2.02359E+01-1.14911E-02 1.05453E-02-2.05963E+00-1.17743E-13 5.39824E-15
 -1      3135 2.00610E+01 2.03882E-01 1.40958E-03-1.96097E+00-2.70363E-14-9.68735E-16
 -1      3136 1.95394E+01-8.63362E-02-1.19912E-02-2.29133E+00-4.77113E-14 2.08230E-14
 -1      3137 2.00639E+01 3.61731E-01 7.08305E-03-1.79891E+00 4.88947E-14 7.40768E-14
 -1      3138 1.99708E+01 4.64725E-01-1.72492E-03-1.68317E+00 2.93186E-14 2.22290E-14
 -1      3139 1.94766E+01 3.82909E-01-3.99782E-03-1.93364E+00 3.67625E-14 6.37520E-14
 -1      3140 2.00147E+01 5.32232E-01 4.74221E-03-1.53743E+00-1.44581E-13-2.66357E-14
 -1      3141 1.99632E+01 5.64936E-01-2.84592E-03-1.41941E+00-2.11152E-13-2.07552E-14
 -1      3142 1.95351E+01 6.06337E-01-2.48469E-05-1.62052E+00-9.10988E-14-1.31305E-13
 -1      3143 2.00171E+01 5.77989E-01 3.38109E-03-1.29045E+00-1.18934E-13-3.02112E-14
 -1      3144 1.99846E+01 5.70699E-01-3.06616E-03-1.17813E+00 4.54070E-14-3.99504E-14
 -1      3145 1.96339E+01 6.76748E-01 1.62086E-03-1.34855E+00-1.64136E-13-4.95143E-14
 -1      3146 2.00346E+01 5.54145E-01 2.62667E-03-1.06510E+00 1.08434E-13-8.70741E-14
 -1      3147 2.00101E+01 5.26635E-01-2.87686E-03-9.62859E-01 9.42760E-14-8.65668E-14
 -1      3148 1.97340E+01 6.59852E-01 2.03732E-03-1.11168E+00-7.44584E-15 2.37973E-14
 -1      3149 2.00511E+01 4.96182E-01 2.19401E-03-8.64903E-01 9.19752E-14-2.33219E-13
 -1      3150 2.00299E+01 4.60482E-01-2.52193E-03-7.74894E-01 5.99638E-14-1.63236E-13
 -1      3151 1.98191E+01 5.98297E-01 1.88957E-03-9.05739E-01 4.95525E-14-3.60978E-13
 -1      3152 2.00611E+01 4.25418E-01 1.90488E-03-6.91207E-01 2.04453E-14-1.04159E-13
 -1      3153 2.00418E+01 3.88394E-01-2.12160E-03-6.14068E-01 2.19445E-13-1.62457E-13
 -1      3154 1.98851E+01 5.18227E-01 1.53383E-03-7.28196E-01 5.78571E-14-3.52703E-13
 -1      3155 2.00644E+01 3.53837E-01 1.67027E-03-5.43686E-01 2.96413E-13-1.62822E-13
 -1      3156 2.00467E+01 3.19112E-01-1.73434E-03-4.79057E-01 1.83825E-13-2.65740E-13
 -1      3157 1.99330E+01 4.34786E-01 1.14803E-03-5.77108E-01 1.69476E-13-1.64697E-13
 -1      3158 2.00623E+01 2.87624E-01 1.45392E-03-4.20813E-01 1.61314E-13-2.70649E-13
 -1      3159 2.00464E+01 2.56875E-01-1.38717E-03-3.67719E-01 1.70150E-13-1.99858E-13
 -1      3160 1.99659E+01 3.56120E-01 8.08407E-04-4.50471E-01 1.61889E-13-1.41994E-13
 -1      3161 2.00567E+01 2.29522E-01 1.24610E-03-3.20280E-01 1.51808E-13-1.76944E-13
 -1      3162 2.00428E+01 2.03305E-01-1.09075E-03-2.77417E-01 1.86319E-13-1.50232E-13
 -1      3163 1.99874E+01 2.86116E-01 5.40502E-04-3.46007E-01 2.19412E-13-9.92913E-14
 -1      3164 2.00493E+01 1.80316E-01 1.04818E-03-2.39379E-01 6.40399E-14-2.58303E-13
 -1      3165 2.00374E+01 1.58586E-01-8.46432E-04-2.05326E-01-2.81433E-14-2.79440E-13
 -1      3166 2.00006E+01 2.26151E-01 3.41092E-04-2.61191E-01 5.21293E-14-1.95924E-13
 -1      3167 2.00412E+01 1.39769E-01 8.68016E-04-1.75307E-01-7.15197E-14-3.89716E-13
 -1      3168 2.00313E+01 1.22215E-01-6.38138E-04-1.48658E-01-2.60924E-13-2.80981E-13
 -1      3169 2.00078E+01 1.76231E-01 2.09367E-04-1.93424E-01-1.58576E-13-4.38648E-13
 -1      3170 2.00331E+01 1.06900E-01 6.36890E-04-1.25257E-01-2.14280E-13-1.29396E-13
 -1      3171 2.00247E+01 9.29652E-02-6.04530E-04-1.04963E-01-2.30288E-14 1.57603E-13
 -1      3172 2.00112E+01 1.35638E-01 1.58124E-04-1.40100E-01-2.90237E-14-5.15773E-13
 -1      3173 2.01863E+01 3.72856E-01-6.66966E-04-2.37317E-01 1.08532E-14 8.42649E-14
 -1      3174 2.02112E+01 4.41865E-01 3.25289E-03-1.40825E-01 6.28507E-15 8.67327E-14
 -1      3175 2.02265E+01 5.28531E-01-2.03511E-03-3.50978E-02 1.40061E-14 1.22350E-13
 -1      3176 2.02636E+01 6.44666E-01 4.27218E-03 9.66468E-02 5.75055E-15 1.17142E-13
 -1      3177 2.02537E+01 5.83916E-01-7.87868E-04-6.72053E-02 2.09855E-14 8.72351E-14
 -1      3178 2.01411E+01 2.34603E-01 1.93014E-03-7.44635E-01-2.28049E-14 2.03209E-13
 -1      3179 2.01162E+01 2.33139E-01-3.29691E-04-6.91033E-01-3.63497E-14 2.27691E-13
 -1      3180 2.01317E+01 2.33975E-01 1.57288E-03-6.34183E-01-4.08611E-14 2.28307E-13
 -1      3181 2.01179E+01 2.37290E-01 1.78286E-04-5.78914E-01-3.42883E-14 1.92764E-13
 -1      3182 2.00906E+01 2.80887E-01-8.65248E-04-6.64068E-01-5.48053E-14 2.45337E-13
 -1      3183 2.02190E+01 2.08533E-01 2.29735E-03-9.69649E-01-4.09121E-14 2.69155E-13
 -1      3184 2.01678E+01 2.23652E-01-3.08503E-04-9.17611E-01 2.46261E-14 2.81781E-13
 -1      3185 2.03057E+01 1.41941E-01 2.29296E-03-1.07831E+00 1.22328E-14 1.84010E-13
 -1      3186 2.02352E+01 1.81783E-01 4.20687E-04-1.03228E+00-1.88619E-14 1.97778E-13
 -1      3187 2.00737E+01 2.37734E-01-2.01237E-03-1.03382E+00 1.06818E-14 2.27844E-13
 -1      3188 2.04472E+01 6.89096E-03 2.05350E-03-1.16945E+00 3.54874E-14 1.30282E-13
 -1      3189 2.03497E+01 8.49125E-02 1.85508E-03-1.13798E+00 1.51867E-14 1.49933E-13
 -1      3190 2.01286E+01 1.46550E-01-3.40899E-03-1.16295E+00 2.69052E-14 1.34327E-13
 -1      3191 2.06712E+01-2.23216E-01 1.33749E-03-1.22057E+00-4.07296E-14 1.79777E-13
 -1      3192 2.05362E+01-9.34703E-02 4.23095E-03-1.21715E+00 5.10822E-15 1.87804E-13
 -1      3193 2.02490E+01-2.98763E-02-5.72312E-03-1.28166E+00-2.08194E-14 1.60311E-13
 -1      3194 2.10134E+01-5.67861E-01-3.19981E-04-1.19627E+00-1.00300E-13 1.51194E-13
 -1      3195 2.08294E+01-3.77766E-01 7.78578E-03-1.24044E+00-8.57372E-14 1.41286E-13
 -1      3196 2.04732E+01-3.22350E-01-9.15547E-03-1.36809E+00-4.87998E-14 2.29201E-13
 -1      3197 2.15098E+01-1.02091E+00-3.84817E-03-1.04431E+00-4.03187E-14 1.61195E-13
 -1      3198 2.12706E+01-7.77747E-01 1.25034E-02-1.16187E+00-8.03457E-14 1.15057E-13
 -1      3199 2.08521E+01-7.51715E-01-1.36063E-02-1.38348E+00-5.85540E-14 8.59263E-14
 -1      3200 2.21765E+01-1.51275E+00-9.66254E-03-6.94998E-01-1.20975E-13 2.89755E-13
 -1      3201 2.18930E+01-1.26248E+00 1.71971E-02-9.14042E-01-8.27832E-14 2.34613E-13
 -1      3202 2.14430E+01-1.30453E+00-1.83559E-02-1.26305E+00-1.11643E-13 1.46197E-13
 -1      3203 2.29704E+01-1.85825E+00-1.53586E-02-8.36864E-02-8.98615E-14 2.58898E-13
 -1      3204 2.26838E+01-1.71194E+00 1.89106E-02-4.16939E-01-1.11936E-13 3.34605E-13
 -1      3205 2.22832E+01-1.88239E+00-2.09812E-02-9.05514E-01-1.35376E-13 2.11250E-13
 -1      3206 2.37491E+01-1.73004E+00-1.27960E-02 7.71880E-01-1.01635E-13 3.11159E-13
 -1      3207 2.35241E+01-1.87379E+00 1.06566E-02 3.66952E-01-8.19221E-14 3.12067E-13
 -1      3208 2.33117E+01-2.22904E+00-2.05001E-02-2.09121E-01-1.17010E-13 2.03991E-13
 -1      3209 2.42320E+01-7.72112E-01-1.53257E-02 1.63870E+00 7.21680E-14 3.08241E-13
 -1      3210 2.41658E+01-1.36733E+00-1.48827E-02 1.32181E+00-3.43076E-14 3.07323E-13
 -1      3211 2.43523E+01-1.87002E+00 1.98457E-03 8.45054E-01-3.22381E-14 2.15869E-13
 -1      3212 2.43820E+01 2.86093E+00-4.06911E-02 1.54548E+00 7.04645E-14 3.46083E-13
 -1      3213 2.45506E+01 1.88244E+00-7.08331E-02 2.00220E+00-4.99392E-14 3.70013E-13
 -1      3214 2.35670E+01 3.41775E+00-4.98869E-02-2.94119E-01 1.06783E-13 3.69678E-13
 -1      3215 2.35416E+01 3.42066E+00-6.79587E-02 4.44503E-01 1.56600E-13 4.20417E-13
 -1      3216 2.38782E+01 2.18003E+00-6.88255E-02-1.70219E+00 1.06224E-13 4.16099E-14
 -1      3217 2.37654E+01 3.00722E+00-2.76905E-03-1.19208E+00 1.50244E-13 2.26605E-13
 -1      3218 2.43409E+01 3.77681E+00-4.30965E-02-8.50231E-01 1.67200E-13 4.65981E-13
 -1      3219 2.42134E+01 2.36342E-01-5.43674E-02-2.03535E+00 4.61835E-14-1.30220E-13
 -1      3220 2.41114E+01 1.25954E+00 3.41678E-03-1.99674E+00 5.52683E-14-4.06569E-14
 -1      3221 2.46697E+01 1.87930E+00-3.45488E-02-1.95794E+00 1.43777E-13 7.19008E-14
 -1      3222 2.41273E+01-1.21739E+00-1.85273E-02-1.44547E+00-2.04090E-14-9.89599E-14
 -1      3223 2.41786E+01-5.61627E-01-3.36428E-03-1.74571E+00 8.29198E-15-1.60327E-13
 -1      3224 2.47818E+01-2.34400E-01-1.44296E-02-1.92183E+00 6.86187E-14-2.27905E-13
 -1      3225 2.35579E+01-1.78998E+00 7.61217E-03-5.20169E-01-1.19643E-13 6.36271E-14
 -1      3226 2.37580E+01-1.60689E+00-1.61618E-02-9.19693E-01-2.45693E-14-3.88693E-14
 -1      3227 2.42927E+01-1.71107E+00-1.29302E-02-9.97155E-01-7.32886E-14-2.70214E-13
 -1      3228 2.27492E+01-1.67055E+00 1.68790E-02 2.75231E-01-9.13115E-16 3.26458E-14
 -1      3229 2.30340E+01-1.80139E+00-1.56359E-02-5.68927E-02-7.98992E-14 9.56950E-14
 -1      3230 2.33835E+01-2.10825E+00-1.51205E-02 6.80054E-03-8.61725E-14 6.41609E-14
 -1      3231 2.19792E+01-1.24402E+00 1.71551E-02 7.90080E-01 1.77537E-14 1.12407E-13
 -1      3232 2.22638E+01-1.49147E+00-8.96433E-03 5.68046E-01 2.93316E-14 3.87551E-14
 -1      3233 2.24051E+01-1.80815E+00-1.17533E-02 7.16268E-01-5.22666E-14 1.62843E-14
 -1      3234 2.13564E+01-7.65029E-01 1.21486E-02 1.05162E+00-1.04239E-13-3.30394E-14
 -1      3235 2.15953E+01-1.01145E+00-4.93841E-03 9.33937E-01 2.87021E-14 8.15154E-14
 -1      3236 2.15804E+01-1.27129E+00-1.22632E-02 1.10504E+00-5.68622E-14 9.35953E-14
 -1      3237 2.09063E+01-3.58839E-01 7.60636E-03 1.13727E+00-1.26721E-13-1.57526E-13
 -1      3238 2.10910E+01-5.57759E-01-2.03441E-03 1.09578E+00-1.39432E-13-1.65339E-13
 -1      3239 2.09780E+01-7.30065E-01-9.30191E-03 1.25232E+00-4.02478E-15-5.75028E-14
 -1      3240 2.06020E+01-6.36700E-02 4.23322E-03 1.11032E+00-7.43804E-14-1.82174E-13
 -1      3241 2.07373E+01-2.02159E-01-5.03544E-05 1.11932E+00-7.77717E-14-2.00794E-13
 -1      3242 2.05767E+01-2.96307E-01-5.88003E-03 1.25028E+00-5.31642E-14-9.93318E-14
 -1      3243 2.04041E+01 1.25478E-01 1.97483E-03 1.02012E+00-2.53648E-13 6.63644E-14
 -1      3244 2.05012E+01 4.00392E-02 8.72843E-04 1.05941E+00-2.08607E-13-9.18418E-14
 -1      3245 2.03276E+01 4.92570E-03-3.45032E-03 1.16473E+00-1.90320E-13 3.37179E-14
 -1      3246 2.02776E+01 2.30300E-01 5.60922E-04 8.98705E-01 1.72391E-13 3.05742E-13
 -1      3247 2.03476E+01 1.85374E-01 1.30836E-03 9.53806E-01-1.42990E-14 2.12952E-13
 -1      3248 2.01815E+01 1.90573E-01-1.81480E-03 1.03813E+00-2.29460E-13 1.98110E-14
 -1      3249 2.01968E+01 2.74964E-01-2.63554E-04 7.66687E-01-5.00447E-15 4.66382E-13
 -1      3250 2.02483E+01 2.58147E-01 1.48088E-03 8.27740E-01 1.22961E-13 3.43443E-13
 -1      3251 2.01004E+01 2.88070E-01-8.04862E-04 8.95936E-01 1.33910E-13 2.29913E-13
 -1      3252 2.01444E+01 2.80315E-01-6.95501E-04 6.36871E-01-1.86184E-13 6.20448E-13
 -1      3253 2.01832E+01 2.81423E-01 1.51034E-03 6.97498E-01-7.01685E-14 5.37633E-13
 -1      3254 2.00580E+01 3.24359E-01-2.29073E-04 7.53369E-01-1.05675E-13 2.64768E-13
 -1      3255 2.01091E+01 2.62305E-01-8.76686E-04 5.16789E-01-2.39309E-13 4.94114E-13
 -1      3256 2.01391E+01 2.73757E-01 1.45552E-03 5.73141E-01-1.39865E-13 5.47837E-13
 -1      3257 2.00372E+01 3.21534E-01 6.99273E-05 6.19333E-01-7.28105E-14 3.13977E-13
 -1      3258 2.00844E+01 2.32228E-01-9.06218E-04 4.10372E-01-1.67111E-13 3.56576E-13
 -1      3259 2.01079E+01 2.48754E-01 1.34691E-03 4.60402E-01-2.87373E-13 3.29204E-13
 -1      3260 2.00277E+01 2.96062E-01 2.00045E-04 4.98709E-01-1.55763E-13 1.77909E-13
 -1      3261 2.00661E+01 1.97589E-01-8.49457E-04 3.19117E-01-1.10381E-13 2.58778E-13
 -1      3262 2.00849E+01 2.15743E-01 1.20631E-03 3.62017E-01-6.08560E-14 3.25388E-13
 -1      3263 2.00236E+01 2.59436E-01 2.35247E-04 3.93702E-01-7.93249E-14-6.77680E-15
 -1      3264 2.00521E+01 1.63057E-01-7.49748E-04 2.42946E-01 1.62294E-13 7.18565E-14
 -1      3265 2.00670E+01 1.80731E-01 1.05012E-03 2.78711E-01 3.22227E-14 1.86304E-13
 -1      3266 2.00216E+01 2.19199E-01 2.22531E-04 3.04745E-01 1.07519E-14-7.05694E-16
 -1      3267 2.00409E+01 1.31299E-01-6.37170E-04 1.80816E-01 3.08754E-13-2.36976E-14
 -1      3268 2.00528E+01 1.47322E-01 8.90648E-04 2.09932E-01 3.24452E-13 1.56389E-13
 -1      3269 2.00202E+01 1.79989E-01 1.89970E-04 2.31130E-01 2.30658E-13-1.67785E-13
 -1      3270 2.00317E+01 1.03607E-01-5.30238E-04 1.31192E-01 2.57610E-13-9.58258E-15
 -1      3271 2.00412E+01 1.17445E-01 7.35670E-04 1.54389E-01 2.38249E-13-4.72485E-15
 -1      3272 2.00186E+01 1.44386E-01 1.49507E-04 1.71473E-01 3.38852E-13-1.05937E-13
 -1      3273 2.00240E+01 8.06834E-02-3.09888E-04 9.23799E-02 1.42601E-13 4.45685E-13
 -1      3274 2.00315E+01 9.20239E-02 6.17856E-04 1.10476E-01 2.13621E-13 1.79823E-13
 -1      3275 2.00164E+01 1.13565E-01 8.98682E-05 1.24158E-01 8.06807E-14 7.95260E-14
 -1      3276 2.00173E+01 6.58029E-02-8.15729E-05 6.65252E-02 2.05287E-13 3.16139E-13
 -1      3277 2.00234E+01 7.40771E-02 5.48139E-04 8.00685E-02 1.66689E-13 5.00056E-13
 -1      3278 2.00132E+01 9.06237E-02-2.40036E-04 9.09378E-02 1.50815E-13 5.16954E-13
 -1      3279 2.00101E+01 7.42727E-02-4.64245E-04 6.79791E-02 1.93201E-13 5.52795E-13
 -1      3280 1.99692E+01 1.26694E-01 1.30712E-04-5.20919E-02-1.55968E-13 1.44292E-14
 -1      3281 1.99611E+01 1.33271E-01-5.55804E-04-4.33905E-02-2.24985E-13 9.18895E-14
 -1      3282 1.25402E+01-1.48048E+00 6.60760E-02 4.55444E+00 5.79189E-14 9.04693E-14
 -1      3283 1.07807E+01-3.59290E-01 9.99217E-02 2.95181E+00-1.87350E-16 6.56558E-14
 -1      3284 1.58969E+01-2.90217E+00 8.05891E-02-5.46809E+00-2.32592E-13-8.45157E-15
 -1      3285 1.84292E+01-3.93811E+00-1.44776E-02-5.42584E+00-2.57322E-13 2.47913E-13
 -1      3286 1.99889E+01 1.05803E-01 3.85749E-04-6.54862E-02-6.99823E-14-2.80757E-13
 -1      3287 1.99784E+01 1.14785E-01-5.83148E-04-6.07471E-02-3.29849E-15-1.98385E-13
 -1      3288 1.99679E+01 1.37127E-01 4.60100E-04-6.51443E-02 7.60642E-14-1.21307E-14
 -1      3289 1.99552E+01 1.40692E-01-5.29049E-05-3.11533E-02-2.75288E-13 5.28460E-14
 -1      3290 1.99509E+01 1.43978E-01-4.10588E-04-2.01398E-02-1.86453E-13 1.12389E-13
 -1      3291 1.99497E+01 1.55352E-01 5.83376E-04-4.29461E-02-1.93134E-13 1.29054E-13
 -1      3292 2.05956E+01-4.23877E+00-5.99320E-02 4.60653E+00-1.79162E-13-8.97581E-14
 -1      3293 1.86906E+01-3.39172E+00 1.32330E-01 5.03545E+00-1.87690E-13-1.21361E-13
 -1      3294 9.63335E+00 2.78615E-01 1.03240E-01 1.03911E+00-4.59337E-14-8.95395E-14
 -1      3295 9.51938E+00 2.64746E-01 8.23075E-02-8.68599E-01-1.01062E-13-8.57509E-14
 -1      3296 8.88998E+00 1.32779E-01 6.84244E-02-9.48188E-01-1.57108E-13 4.37123E-13
 -1      3297 9.84091E+00-3.34836E-01 8.81088E-02-2.82538E+00 1.48180E-14 1.74111E-13
 -1      3298 1.99488E+01 1.46298E-01-2.56634E-04-5.72070E-03-1.62239E-13-2.54511E-15
 -1      3299 1.99488E+01 1.46102E-01-2.31187E-04 6.33367E-03-3.12014E-14-8.62759E-14
 -1      3300 1.99399E+01 1.64555E-01 6.37956E-04-1.46732E-02-8.14738E-14 1.79995E-14
 -1      3301 1.15490E+01-1.21816E+00 1.15672E-01-4.19192E+00 1.08233E-13-6.64468E-14
 -1      3302 1.40803E+01-2.46652E+00 3.05303E-02-5.25944E+00 1.22458E-13-2.06862E-13
 -1      3303 1.99510E+01 1.42946E-01-4.30453E-04 2.06790E-02 1.21878E-13-2.35365E-13
 -1      3304 1.99555E+01 1.39236E-01-1.54525E-05 3.17447E-02 2.68679E-13-3.54542E-13
 -1      3305 1.99401E+01 1.63708E-01 6.13241E-04 1.57852E-02 4.37268E-14-2.90906E-13
 -1      3306 2.01681E+01 2.32166E-01 2.16771E-03-8.56475E-01 2.23518E-14 2.52796E-13
 -1      3307 2.01313E+01 2.34175E-01-5.17197E-04-8.03003E-01-6.19743E-15 2.49470E-13
 -1      3308 2.00673E+01 2.81033E-01-9.32472E-04-7.82641E-01-4.15565E-14 2.40767E-13
 -1      3309 2.00586E+01 2.73881E-01-1.26257E-03-9.05602E-01 6.61268E-15 3.04590E-13
 -1      3310 2.88373E+01-9.37702E-01-3.23390E-02-1.75867E+00 2.04829E-13 2.65343E-13
 -1      3311 2.50497E+01-4.30671E+00-1.29067E-01 1.87422E+00-2.24896E-13 5.64028E-14
 -1      3312 2.30668E+01-4.35648E+00 8.08971E-02 3.39204E+00-2.04496E-13-4.27661E-14
 -1      3313 2.02994E+01 8.13451E-01 7.83814E-03-2.21264E-01 2.61762E-14 6.46644E-14
 -1      3314 2.02556E+01 6.64917E-01-2.61529E-03-6.90151E-02 1.13470E-14 6.56370E-14
 -1      3315 2.02734E+01 7.23516E-01-5.70056E-04-2.99010E-02 1.90906E-14 4.66393E-14
 -1      3316 2.03211E+01 9.65325E-01-6.86945E-03 7.07067E-01-2.40832E-14 1.67454E-13
 -1      3317 2.02999E+01 1.30896E+00 3.03758E-03 7.18685E-01-5.67873E-15 1.69620E-13
 -1      3318 2.66705E+01 5.03737E+00-1.52800E-01-1.40742E+00 4.61409E-13 1.38986E-13
 -1      3319 2.75781E+01 4.06542E+00-1.24579E-01-1.95665E+00 4.32793E-13 4.73094E-14
 -1      3320 2.71289E+01-1.64825E+00-1.54057E-01-1.02138E+00 1.31326E-13-1.62280E-13
 -1      3321 2.66052E+01-2.89853E+00 5.73971E-02 1.23749E-01-1.12924E-13-9.60482E-14
 -1      3322 2.10331E+01-4.23883E+00 1.05696E-01-4.52954E+00-2.33032E-13 2.60366E-13
 -1      3323 2.31385E+01-4.65862E+00-9.88776E-02-3.40496E+00-2.53318E-13 2.11173E-13
 -1      3324 2.25550E+01-4.25106E+00-5.97980E-02 3.38229E+00 2.07136E-13 9.03479E-14
 -1      3325 2.03564E+01-3.75148E+00 1.12241E-01 4.39781E+00 2.30638E-13-3.04409E-14
 -1      3326 1.02482E+01-1.76404E-01 5.58276E-02 2.79305E+00-1.67231E-13 5.54001E-13
 -1      3327 9.16738E+00 3.40090E-01 1.51335E-01 8.31613E-01-2.48657E-13 6.41903E-13
 -1      3328 1.69386E+01-3.19092E+00 1.50872E-01-5.28699E+00 6.49272E-14-3.90590E-14
 -1      3329 1.94373E+01-4.14233E+00-4.28257E-02-4.93895E+00-2.67494E-14-1.04999E-13
 -1      3330 2.52637E+01-3.84945E+00 5.36886E-03-1.14873E+00-1.48978E-14 8.52894E-14
 -1      3331 2.00063E+01 2.28388E+00-4.31004E-03 2.57132E-01 1.19617E-14 1.23570E-13
 -1      3332 1.99885E+01 2.32633E+00-3.71680E-03 1.47683E-01 4.32316E-15 1.00494E-13
 -1      3333 1.77292E+01-3.43523E+00-1.04594E-02 5.12953E+00 1.76290E-13-4.22509E-14
 -1      3334 1.50945E+01-2.26273E+00 1.14062E-01 4.97753E+00 1.27010E-13-1.03806E-14
 -1      3335 1.50123E+01-1.45230E+00 7.63763E-02 4.24967E+00 8.07826E-14 7.31221E-14
 -1      3336 1.95999E+01-2.81042E+00 7.07002E-02 4.06038E+00 1.49002E-13-2.27960E-14
 -1      3337 2.52903E+01-4.06006E+00 6.74751E-02-1.81018E+00-2.23916E-13 2.05003E-13
 -1      3338 2.63383E+01-3.35088E+00-1.16114E-01-4.65469E-01-1.83703E-13 2.95076E-13
 -1      3339 2.03012E+01 1.16166E+00 5.21301E-03 5.23196E-01-9.44053E-15 1.65668E-13
 -1      3340 2.68613E+01 2.66815E+00-8.42666E-02-2.04076E+00 3.55840E-13 3.50969E-14
 -1      3341 1.04241E+01 2.69620E-01 1.44907E-01-1.90226E+00-8.24419E-14-9.20930E-14
 -1      3342 1.16268E+01-1.21473E-01 4.23291E-02-2.86745E+00-6.37520E-14-1.70572E-13
 -1      3343 1.11247E+01 5.29701E-01 7.14756E-02-9.81221E-01-5.95383E-14-1.10037E-13
 -1      3344 1.74121E+01-2.60588E+00 5.96296E-02 4.72396E+00-2.19935E-13-7.10473E-14
 -1      3345 1.99791E+01 2.34840E+00-3.87007E-03 5.83611E-02 4.69062E-15 9.82214E-14
 -1      3346 1.99787E+01 2.34955E+00-3.85011E-03-5.24071E-02 1.04959E-14 9.90514E-14
 -1      3347 2.00833E+01 2.07168E+00 5.58191E-03 8.37138E-02 7.14412E-15 9.70606E-14
 -1      3348 2.01368E+01 2.46108E-01 1.06200E-03-5.20120E-01-8.43486E-15 1.66646E-13
 -1      3349 2.01348E+01 2.62013E-01 9.70034E-04-4.58981E-01-1.22020E-14 1.47807E-13
 -1      3350 2.01238E+01 2.92176E-01-9.44730E-04-5.44585E-01-3.08947E-14 2.00294E-13
 -1      3351 2.61713E+01-2.52591E+00 6.24706E-03 3.92381E-01-1.73800E-13 3.99555E-13
 -1      3352 2.42337E+01-3.56818E+00 6.88152E-02-1.78399E+00 8.19770E-14 7.63192E-14
 -1      3353 2.01663E+01 3.23544E-01 2.01626E-03-3.18736E-01-1.67940E-14 1.02349E-13
 -1      3354 2.02091E+01 4.21937E-01-1.07408E-03-2.61232E-01-1.12824E-14 7.97423E-14
 -1      3355 2.01553E+01 2.86508E-01 3.40324E-04-3.92667E-01-2.61434E-14 1.26951E-13
 -1      3356 2.00254E+01 8.13141E-02 5.53635E-04-8.66926E-02 1.89780E-14 2.23134E-13
 -1      3357 2.00190E+01 7.04670E-02-2.26076E-04-7.12128E-02 1.52757E-14 4.00709E-13
 -1      3358 2.00178E+01 6.08050E-02 2.24904E-04-5.80622E-02-2.64858E-13 3.67485E-13
 -1      3359 2.02856E+01 1.08208E+00-4.79463E-03-3.57322E-01 2.51544E-14 6.15267E-14
 -1      3360 2.55879E+01 1.32908E+00-3.52685E-02 2.22224E+00-4.37150E-14 4.64170E-13
 -1      3361 2.43225E+01 8.60894E-01-2.43122E-02 1.96041E+00-4.97484E-14 3.76265E-13
 -1      3362 2.44326E+01-5.57165E-02-4.70773E-02 1.99225E+00 7.94954E-14 3.49666E-13
 -1      3363 2.65042E+01 3.17632E-01-6.94132E-02 2.01899E+00 4.37914E-14 5.55583E-13
 -1      3364 2.50459E+01-6.73241E-01-6.37560E-03 1.77549E+00 5.33826E-14 3.62290E-13
 -1      3365 1.62586E+01-2.27135E+00 1.24681E-01-4.74841E+00 5.67740E-14-1.40638E-13
 -1      3366 1.25958E+01-2.55960E-02 2.66923E-02 2.78500E+00 1.13555E-14 1.29181E-13
 -1      3367 1.10183E+01 1.93678E-01 1.12946E-01 2.01906E+00-9.77170E-15-2.74294E-14
 -1      3368 1.15553E+01 5.36775E-01 4.11910E-02 1.12714E+00-1.90334E-14-3.59296E-14
 -1      3369 1.99617E+01 1.31002E-01-4.90926E-04 4.37382E-02 1.92456E-13-2.78337E-13
 -1      3370 1.99693E+01 1.24016E-01 2.85494E-05 5.19129E-02 1.60057E-13-3.58366E-13
 -1      3371 1.99502E+01 1.52829E-01 5.33075E-04 4.38269E-02 2.22687E-13-2.51030E-13
 -1      3372 2.01026E+01 2.04083E+00-3.66247E-03-5.15440E-01 2.16341E-14 5.41429E-14
 -1      3373 2.01458E+01 1.90525E+00-8.25776E-03-6.04815E-01 3.79398E-15 6.36168E-14
 -1      3374 2.74248E+01-3.16022E+00-1.53068E-01-7.21744E-01 2.51089E-13 2.99968E-13
 -1      3375 2.25074E+01-3.72174E+00-5.45297E-02-2.94951E+00 3.97772E-14 1.88563E-13
 -1      3376 2.00971E+01-3.61818E+00 5.15463E-02-4.42014E+00-2.30378E-13 2.02704E-13
 -1      3377 2.01544E+01 1.88959E+00-6.39100E-03 6.11913E-01 2.68882E-14 1.57015E-13
 -1      3378 2.01092E+01 2.02680E+00-3.09614E-03 5.21108E-01 2.83133E-14 1.73493E-13
 -1      3379 2.02438E+01 1.55402E+00 4.08548E-03 4.96874E-01 3.04403E-14 1.62208E-13
 -1      3380 2.22076E+01-3.81992E+00 5.38603E-02 3.30385E+00-1.30902E-13-2.17101E-14
 -1      3381 2.02671E+01 7.90396E-01-2.66803E-03 2.35950E-01-8.25430E-15 1.33540E-13
 -1      3382 2.03030E+01 9.69396E-01 1.13094E-03 4.15614E-01-1.76985E-14 1.47715E-13
 -1      3383 1.21166E+01-4.31953E-01 1.46734E-01-3.24916E+00 1.97193E-13-7.35662E-14
 -1      3384 1.99943E+01 9.30066E-02-4.59787E-04 6.57509E-02 1.58465E-13 3.61633E-14
 -1      3385 2.00018E+01 8.50805E-02-8.84335E-05 6.69164E-02 1.51160E-13 2.30184E-13
 -1      3386 2.00036E+01 9.39310E-02 4.90829E-04 7.75478E-02 9.98735E-14 1.73626E-13
 -1      3387 2.58612E+01-6.22205E-01-3.75379E-02 1.68269E+00-7.10265E-14 5.76088E-13
 -1      3388 2.54520E+01-3.28331E+00 2.18495E-02 6.50110E-01-1.35062E-13 2.76827E-14
 -1      3389 2.00104E+01 7.78515E-02 1.57309E-04-6.75924E-02-1.09753E-13 5.56054E-13
 -1      3390 2.00028E+01 8.74425E-02-3.28318E-04-6.89379E-02-4.08293E-14 1.06170E-13
 -1      3391 1.06155E+01 5.32978E-01 1.38189E-01-9.27913E-02-1.58802E-13 3.75588E-13
 -1      3392 1.99938E+01 1.07038E-01-3.01415E-04-7.83074E-02 1.04974E-13 1.58582E-14
 -1      3393 2.40536E+01-3.99859E+00 2.75601E-02-2.18818E+00-2.61173E-13 2.09204E-13
 -1      3394 1.37766E+01-9.11712E-01-2.72084E-02 3.95500E+00-2.18710E-13 2.27963E-13
 -1      3395 1.20650E+01-3.71334E-01 1.44727E-01 3.56030E+00-2.25552E-13 3.60809E-13
 -1      3396 1.20506E+01 2.58762E-01 5.32170E-02 2.41683E+00-1.52364E-13 4.76334E-13
 -1      3397 2.13273E+01-3.90312E+00 4.81748E-02-3.88832E+00-2.61180E-14 1.58878E-13
 -1      3398 2.00294E+01 2.22895E+00-3.70347E-03-3.35821E-01 2.57508E-14 9.48503E-14
 -1      3399 2.00631E+01 2.14417E+00-5.18721E-03-4.39126E-01 2.25972E-14 6.19652E-14
 -1      3400 2.01754E+01 1.83187E+00 8.33315E-03-3.85788E-01 1.44222E-14 6.21607E-14
 -1      3401 2.00670E+01 2.13360E+00-5.04812E-03 4.46333E-01 2.20762E-14 1.82864E-13
 -1      3402 2.00334E+01 2.21996E+00-3.55802E-03 3.42331E-01 8.85839E-15 1.58927E-13
 -1      3403 2.01158E+01 1.98515E+00 5.42599E-03 2.42383E-01 3.88654E-15 1.43506E-13
 -1      3404 2.01726E+01 1.81355E+00 4.61695E-03 3.85327E-01 1.94084E-14 1.81826E-13
 -1      3405 1.45643E+01-1.97278E+00 9.03102E-02-5.06959E+00-2.21892E-13-1.59324E-13
 -1      3406 1.64625E+01-2.13240E+00 6.94361E-02-4.65188E+00-2.30191E-13 2.49800E-14
 -1      3407 1.34053E+01-1.00150E+00 4.11615E-02-4.13837E+00-1.81636E-13-1.25532E-13
 -1      3408 1.99766E+01 1.13951E-01-4.92542E-04 5.84831E-02 4.91037E-14-2.38625E-13
 -1      3409 1.99861E+01 1.04295E-01 3.58657E-06 6.29328E-02 6.95187E-14-7.81717E-14
 -1      3410 1.99847E+01 1.14922E-01 4.37137E-04 7.27121E-02 1.41857E-13-1.17166E-13
 -1      3411 1.99652E+01 1.35021E-01 3.77941E-05 6.27911E-02 6.75245E-14-2.26848E-13
 -1      3412 2.02870E+01 1.21372E+00 2.17472E-03 4.40664E-01 8.89994E-15 1.34974E-13
 -1      3413 2.00115E+01 1.04313E-01 3.90799E-04-9.90015E-02 1.15852E-13 1.01795E-13
 -1      3414 2.02879E+01 8.50213E-01-4.25653E-05 1.85171E-01 1.07975E-14 1.01060E-13
 -1      3415 2.02606E+01 6.40760E-01 1.59869E-03 1.16074E-01-9.61817E-15 1.27420E-14
 -1      3416 2.02314E+01 5.56723E-01-1.48864E-03 2.12844E-01-4.44779E-14 3.79423E-14
 -1      3417 2.68668E+01-5.13206E-01-6.08369E-02-1.62166E+00 1.85608E-13-1.02293E-13
 -1      3418 2.00465E+01-4.45459E-03 4.72018E-03-1.36314E+00-1.64665E-14 1.95544E-13
 -1      3419 1.99596E+01 1.08291E-01 1.31031E-03-1.30257E+00 1.27599E-14 1.94714E-13
 -1      3420 2.01999E+01 4.97631E-01 7.34632E-04 2.88447E-01-6.51919E-14 6.43868E-14
 -1      3421 2.01679E+01 4.56869E-01-5.39466E-04 3.67065E-01-5.37641E-14 4.11282E-14
 -1      3422 2.02216E+01 6.03670E-01 7.82471E-04 2.23271E-01-3.96747E-14 3.54647E-14
 -1      3423 2.01213E+01 4.33877E-01-1.27989E-04 4.31390E-01-3.17215E-14 4.33792E-14
 -1      3424 2.00877E+01 4.25312E-01 1.44916E-04 4.99952E-01 2.98526E-14 4.52177E-14
 -1      3425 2.01399E+01 5.09763E-01 7.55592E-04 3.64591E-01-3.09076E-14 8.14607E-14
 -1      3426 2.00275E+01 4.29200E-01-1.03619E-03 5.59007E-01 7.69036E-14 4.26761E-14
 -1      3427 1.99914E+01 4.44634E-01 6.18396E-04 6.24442E-01 7.86140E-14 3.37992E-14
 -1      3428 2.00337E+01 4.86157E-01 1.03865E-03 4.88166E-01 4.39680E-14 1.04018E-13
 -1      3429 1.99168E+01 4.68044E-01-1.93519E-03 6.83612E-01 9.35159E-14 3.67802E-14
 -1      3430 1.98760E+01 5.00394E-01 9.42558E-04 7.51435E-01 6.53062E-14 1.22431E-13
 -1      3431 1.99029E+01 5.15264E-01 1.54232E-03 6.04951E-01 9.33439E-14 2.58382E-14
 -1      3432 1.97847E+01 5.36396E-01-2.82955E-03 8.15265E-01 7.62956E-15 1.41866E-13
 -1      3433 1.97368E+01 5.78415E-01 1.20956E-03 8.89714E-01 2.11690E-14 1.62153E-13
 -1      3434 1.97437E+01 5.81739E-01 2.22973E-03 7.24469E-01 6.70510E-14 4.91936E-14
 -1      3435 1.96255E+01 6.19170E-01-3.74993E-03 9.62202E-01 7.50417E-15 1.55281E-13
 -1      3436 1.95689E+01 6.62072E-01 1.57254E-03 1.04664E+00 1.09490E-14 1.33852E-13
 -1      3437 1.95501E+01 6.70056E-01 3.06256E-03 8.54854E-01-1.08040E-14 1.13311E-13
 -1      3438 1.94337E+01 6.97241E-01-4.74712E-03 1.13202E+00 1.82599E-15 9.15062E-14
 -1      3439 1.93690E+01 7.28991E-01 2.29603E-03 1.22965E+00 8.27105E-15 6.91073E-14
 -1      3440 1.93146E+01 7.61988E-01 3.98546E-03 1.00399E+00 2.51769E-15 3.33221E-14
 -1      3441 1.92067E+01 7.43692E-01-5.87613E-03 1.33387E+00 5.60604E-14 2.52102E-14
 -1      3442 1.91396E+01 7.46748E-01 3.83485E-03 1.44892E+00 3.55193E-14 3.98593E-14
 -1      3443 1.90301E+01 8.33446E-01 4.87889E-03 1.18191E+00 2.72801E-14 5.72302E-14
 -1      3444 1.89492E+01 7.18862E-01-7.11766E-03 1.58194E+00-5.97883E-15 5.81795E-14
 -1      3445 1.88959E+01 6.67085E-01 6.94595E-03 1.72113E+00-9.06678E-15 5.37918E-14
 -1      3446 1.86919E+01 8.50320E-01 5.50746E-03 1.40497E+00 6.47511E-14 2.43998E-14
 -1      3447 1.86828E+01 5.63746E-01-8.01803E-03 1.90010E+00 1.51859E-15 3.71228E-14
 -1      3448 1.86777E+01 4.18358E-01 1.29095E-02 2.07341E+00-4.14358E-14 5.41126E-14
 -1      3449 1.83028E+01 7.62206E-01 5.42882E-03 1.70229E+00-1.65466E-14 1.85853E-14
 -1      3450 1.84635E+01 1.92621E-01-6.39799E-03 2.32454E+00-9.89888E-14 1.06191E-13
 -1      3451 1.85727E+01-1.02186E-01 2.39380E-02 2.54225E+00-7.10697E-14 1.02299E-13
 -1      3452 1.78843E+01 4.92417E-01 4.16775E-03 2.12304E+00-2.12537E-14 2.49034E-14
 -1      3453 1.84146E+01-5.02558E-01 7.41429E-03 2.90274E+00-5.21718E-14 9.44353E-14
 -1      3454 1.87699E+01-1.04995E+00 3.70296E-02 3.15575E+00-3.43042E-15 7.70488E-14
 -1      3455 1.74983E+01-7.48292E-02 1.50433E-03 2.73712E+00-7.76163E-14 9.90590E-14
 -1      3456 1.88392E+01-1.92648E+00 5.55244E-02 3.79042E+00 1.12686E-13 3.51715E-14
 -1      3457 2.02602E+01 6.13677E-01-2.03383E-03-1.07637E-01 2.26587E-14 1.24001E-13
 -1      3458 2.02858E+01 7.28637E-01 2.13385E-03 4.05340E-03 1.98552E-14 1.41634E-13
 -1      3459 2.02608E+01 1.55261E+00 9.22081E-03-5.22446E-01 5.85046E-15 6.37718E-14
 -1      3460 1.98381E+01-2.18559E+00 5.91288E-02-3.49797E+00-2.45186E-14 1.56647E-13
 -1      3461 1.91550E+01-1.44810E+00 2.85909E-02-3.31241E+00-1.17018E-13 1.04903E-13
 -1      3462 2.02833E+01 8.71659E-01-2.83781E-03 1.13866E-01 1.97911E-14 1.25406E-13
 -1      3463 2.02963E+01 1.05007E+00 1.06334E-03 2.57541E-01 1.42960E-14 1.25112E-13
 -1      3464 2.02893E+01 9.10325E-01 1.00512E-03 6.73905E-02 1.17211E-14 1.49693E-13
 -1      3465 1.90650E+01-8.34464E-01 3.43616E-02-2.91364E+00-1.62657E-13 1.85131E-13
 -1      3466 1.87470E+01-3.52039E-01 4.07948E-03-2.69055E+00-1.23112E-13 9.87869E-14
 -1      3467 1.77681E+01-9.56806E-01-2.22373E-02-3.36480E+00-6.58310E-14 2.17097E-13
 -1      3468 1.88539E+01 1.96040E-02 1.98444E-02-2.37301E+00-1.06620E-13 2.36301E-14
 -1      3469 1.87423E+01 2.90672E-01-4.85369E-03-2.17658E+00-3.15957E-14-1.99307E-14
 -1      3470 1.78752E+01 3.54836E-02-1.76262E-03-2.57109E+00-1.47044E-13 2.32676E-13
 -1      3471 1.89123E+01 4.95468E-01 1.11862E-02-1.94238E+00-2.96034E-14-6.29457E-14
 -1      3472 1.89034E+01 6.27091E-01-6.63391E-03-1.77685E+00 3.74630E-14-1.36629E-13
 -1      3473 1.81702E+01 5.64821E-01 2.53591E-03-2.00671E+00-4.62813E-14-4.52499E-14
 -1      3474 1.90782E+01 7.19007E-01 6.02531E-03-1.60196E+00 7.12444E-14-2.36623E-13
 -1      3475 1.91129E+01 7.64203E-01-6.13712E-03-1.46175E+00-9.47105E-14-1.63370E-13
 -1      3476 1.85106E+01 8.15720E-01 4.55935E-03-1.60503E+00 9.23145E-15-1.97293E-13
 -1      3477 1.92696E+01 7.86909E-01 3.34555E-03-1.32532E+00-1.05342E-13-1.01999E-13
 -1      3478 1.93160E+01 7.81473E-01-5.27567E-03-1.20450E+00-4.17087E-15-1.13067E-14
 -1      3479 1.88312E+01 8.95373E-01 4.96658E-03-1.30639E+00-3.21281E-14-2.91821E-14
 -1      3480 1.94475E+01 7.64875E-01 2.02861E-03-1.09326E+00-5.85470E-14-3.04371E-14
 -1      3481 1.94912E+01 7.32250E-01-4.43146E-03-9.88074E-01-9.72062E-14-2.00964E-13
 -1      3482 1.91074E+01 8.75793E-01 4.58693E-03-1.07150E+00-3.79364E-14-5.65195E-14
 -1      3483 1.95974E+01 6.95660E-01 1.43285E-03-8.94785E-01-4.82684E-14-1.18519E-13
 -1      3484 1.96328E+01 6.50629E-01-3.68854E-03-8.03309E-01 1.23602E-14-1.98640E-13
 -1      3485 1.93337E+01 8.02557E-01 3.90374E-03-8.77905E-01-2.69016E-14-1.59742E-13
 -1      3486 1.97161E+01 6.05995E-01 1.17416E-03-7.24196E-01 1.58675E-13-1.51319E-13
 -1      3487 1.97423E+01 5.57504E-01-3.04680E-03-6.45397E-01 1.04503E-13-4.97712E-14
 -1      3488 1.95129E+01 7.04583E-01 3.15232E-03-7.14157E-01 1.44007E-13 3.61847E-15
 -1      3489 1.98062E+01 5.11858E-01 1.05246E-03-5.78402E-01 1.57253E-13 9.08903E-14
 -1      3490 1.98243E+01 4.65018E-01-2.49119E-03-5.11467E-01 2.63887E-13 1.01231E-13
 -1      3491 1.96511E+01 5.99680E-01 2.45816E-03-5.74562E-01 2.23548E-13 2.40943E-13
 -1      3492 1.98725E+01 4.22210E-01 9.70064E-04-4.55240E-01 1.81013E-13 1.37506E-13
 -1      3493 1.98841E+01 3.79678E-01-2.01595E-03-3.99283E-01 1.79455E-13 7.62586E-14
 -1      3494 1.97555E+01 4.98242E-01 1.86606E-03-4.56057E-01 1.41188E-13 2.23735E-13
 -1      3495 1.99199E+01 3.41575E-01 8.88457E-04-3.52706E-01 6.57552E-14 7.29416E-14
 -1      3496 1.99267E+01 3.04507E-01-1.61080E-03-3.06692E-01 1.35820E-13-9.34286E-14
 -1      3497 1.98329E+01 4.05830E-01 1.38488E-03-3.56559E-01 9.77532E-14 1.18786E-13
 -1      3498 1.99528E+01 2.71798E-01 7.97495E-04-2.68673E-01 1.36469E-13-3.01663E-13
 -1      3499 1.99563E+01 2.40430E-01-1.27875E-03-2.31442E-01-3.41426E-14-4.08326E-13
 -1      3500 1.98891E+01 3.24973E-01 1.01144E-03-2.74230E-01 1.61928E-14-2.50372E-13
 -1      3501 1.99749E+01 2.13091E-01 7.00919E-04-2.00892E-01-9.59953E-14-3.43298E-13
 -1      3502 1.99762E+01 1.87187E-01-9.73332E-04-1.71274E-01-1.30109E-13-3.59802E-13
 -1      3503 1.99292E+01 2.56234E-01 7.01931E-04-2.07096E-01-4.61881E-14-2.54756E-13
 -1      3504 1.99892E+01 1.65003E-01 6.53752E-04-1.47069E-01-1.03390E-14-3.55780E-13
 -1      3505 1.99884E+01 1.44057E-01-7.81303E-04-1.23499E-01 9.98352E-14-2.19372E-13
 -1      3506 1.99568E+01 1.99379E-01 4.52438E-04-1.53462E-01-2.20032E-14-9.07957E-14
 -1      3507 2.02798E+01 1.19402E+00-2.47042E-05 3.26984E-01 1.10570E-14 1.37659E-13
 -1      3508 2.02620E+01 1.37052E+00-2.82672E-03 4.25193E-01 2.37982E-14 1.47836E-13
 -1      3509 2.02324E+01 1.52282E+00 2.32261E-04 3.86142E-01 2.16455E-14 1.91248E-13
 -1      3510 2.02770E+01 1.21672E+00 1.56395E-03 2.51024E-01 8.44671E-15 1.71067E-13
 -1      3511 2.53227E+01-2.65058E+00-7.21061E-02-3.54371E-01-1.40436E-13-5.84702E-14
 -1      3512 2.44988E+01-3.32687E+00 5.33250E-02 9.90093E-01-2.13796E-13-4.05136E-14
 -1      3513 1.99521E+01 1.93495E-01 3.84490E-03-1.21109E+00 1.00731E-14 1.59569E-13
 -1      3514 1.99070E+01 2.53010E-01-2.33156E-04-1.14436E+00 1.68779E-14 1.91668E-13
 -1      3515 1.97122E+01 2.06809E-01-3.74523E-03-1.28754E+00 1.89583E-14 2.11511E-13
 -1      3516 1.99303E+01 2.94758E-01 3.04661E-03-1.06084E+00 5.57733E-14 2.11797E-13
 -1      3517 1.99114E+01 3.18968E-01-9.62381E-04-9.94241E-01 5.87494E-14 2.35083E-13
 -1      3518 1.97327E+01 3.32676E-01-1.78735E-03-1.10546E+00 5.11423E-14 2.03196E-13
 -1      3519 2.02597E+01-3.35526E-01 5.38690E-03-1.49974E+00-6.08973E-14 1.86494E-13
 -1      3520 2.01093E+01-1.50885E-01 4.15311E-03-1.45741E+00-6.32894E-14 1.83491E-13
 -1      3521 1.97695E+01-3.33326E-02-7.12487E-03-1.48771E+00-3.42492E-14 1.33562E-13
 -1      3522 2.06545E+01-8.29122E-01 4.97221E-03-1.58550E+00-5.82753E-14 1.23842E-13
 -1      3523 2.04152E+01-5.58719E-01 9.10017E-03-1.58318E+00-4.12596E-14 1.52359E-13
 -1      3524 1.99611E+01-4.30548E-01-1.23584E-02-1.69256E+00-4.58569E-14 8.42102E-14
 -1      3525 2.13082E+01-1.48110E+00 2.80580E-03-1.55154E+00-1.44450E-13 1.61350E-13
 -1      3526 2.09550E+01-1.13167E+00 1.70825E-02-1.62650E+00-1.00237E-13 1.12919E-13
 -1      3527 2.03701E+01-1.02137E+00-1.97955E-02-1.86483E+00-6.12180E-14 1.55366E-13
 -1      3528 2.22794E+01-2.19585E+00-3.14852E-03-1.28919E+00-1.23104E-13 9.88220E-14
 -1      3529 2.18100E+01-1.83232E+00 2.63516E-02-1.49284E+00-1.57416E-13 1.11127E-13
 -1      3530 2.10863E+01-1.80018E+00-3.44388E-02-1.91439E+00-1.10595E-13 1.37538E-13
 -1      3531 2.35390E+01-2.69857E+00-9.80111E-03-6.15479E-01-1.42785E-13 1.07808E-13
 -1      3532 2.30493E+01-2.48159E+00 4.35530E-02-1.00303E+00-1.55195E-13 8.66838E-14
 -1      3533 2.22909E+01-2.68591E+00-5.28037E-02-1.68559E+00-1.50894E-13 2.78458E-14
 -1      3534 2.50758E+01 3.66772E+00-6.18804E-02 1.23853E+00 1.61121E-14 4.69291E-13
 -1      3535 2.52870E+01 3.48208E+00-9.51308E-02-1.77448E+00 2.85619E-13 2.46247E-13
 -1      3536 2.51639E+01 4.37083E+00-7.66771E-02-9.21754E-01 3.04159E-13 4.07676E-13
 -1      3537 2.43062E+01-2.36136E+00 3.29855E-02-2.46112E-01-2.03756E-13-8.76426E-14
 -1      3538 2.46731E+01-2.06412E+00-1.98308E-02-7.67363E-01-6.09903E-14-1.09079E-13
 -1      3539 2.30355E+01-2.27535E+00 2.89907E-02 7.16159E-01-1.58342E-13 6.31778E-14
 -1      3540 2.35062E+01-2.44652E+00-2.17235E-02 3.03563E-01-2.10570E-13 2.70803E-14
 -1      3541 2.37296E+01-2.79767E+00-4.07876E-02 5.68921E-01-2.56181E-13-1.97533E-14
 -1      3542 2.19407E+01-1.72428E+00 2.16723E-02 1.22480E+00-3.89445E-14 1.23780E-13
 -1      3543 2.23731E+01-2.03481E+00-5.33061E-03 9.80199E-01-5.95721E-14 1.60838E-13
 -1      3544 2.23814E+01-2.28029E+00-6.23937E-03 1.25910E+00-1.63902E-13 1.05867E-13
 -1      3545 2.11092E+01-1.05493E+00 1.51241E-02 1.42110E+00 1.24803E-15 1.03044E-13
 -1      3546 2.14597E+01-1.38317E+00 3.37083E-03 1.32859E+00-1.13048E-14 8.70501E-14
 -1      3547 2.13210E+01-1.60895E+00-2.31396E-02 1.58135E+00 2.31000E-15 1.49402E-13
 -1      3548 2.05623E+01-5.11980E-01 6.01252E-03 1.41948E+00-1.13842E-14 3.83592E-14
 -1      3549 2.08079E+01-7.74895E-01 2.84327E-03 1.40788E+00 3.66575E-14 1.11257E-13
 -1      3550 2.05828E+01-9.14840E-01-2.13957E-02 1.61335E+00 5.14535E-14 2.22953E-13
 -1      3551 2.02350E+01-1.11960E-01 1.98980E-03 1.31713E+00-1.97375E-13 1.34950E-13
 -1      3552 2.03949E+01-2.94092E-01 4.04284E-03 1.35415E+00-1.38618E-13-1.51178E-15
 -1      3553 2.01643E+01-3.57349E-01-1.01763E-02 1.49992E+00-7.71336E-14 1.91456E-13
 -1      3554 2.00549E+01 1.47777E-01-9.08337E-05 1.17103E+00-2.22084E-13 2.20183E-13
 -1      3555 2.01529E+01 3.39666E-02 3.50448E-03 1.23231E+00-1.47260E-13 1.56633E-13
 -1      3556 1.99361E+01 2.00079E-02-5.41783E-03 1.32963E+00-1.75348E-13 2.10180E-13
 -1      3557 1.99673E+01 2.95553E-01-1.10096E-03 1.01062E+00-1.11761E-13-5.47465E-15
 -1      3558 2.00245E+01 2.33969E-01 2.76005E-03 1.08183E+00-2.40598E-13 2.97276E-14
 -1      3559 1.98325E+01 2.51403E-01-2.50356E-03 1.14531E+00-1.18769E-13 1.90838E-13
 -1      3560 1.99337E+01 3.62691E-01-1.52982E-03 8.52025E-01 2.75322E-14 4.08464E-13
 -1      3561 1.99657E+01 3.37714E-01 2.09263E-03 9.24761E-01 4.47397E-14 2.86520E-13
 -1      3562 1.98022E+01 3.73378E-01-7.83354E-04 9.66218E-01-1.47156E-13 2.28991E-13
 -1      3563 1.99291E+01 3.76169E-01-1.64465E-03 7.03842E-01-8.62526E-14 2.08470E-13
 -1      3564 1.99465E+01 3.74996E-01 1.58823E-03 7.73214E-01-1.71141E-14 3.19001E-13
 -1      3565 1.98113E+01 4.19596E-01 1.47136E-04 8.00931E-01-4.31285E-15 4.58738E-13
 -1      3566 1.99384E+01 3.56815E-01-1.58965E-03 5.70570E-01 7.15525E-14 9.48682E-14
 -1      3567 1.99477E+01 3.69812E-01 1.23059E-03 6.33799E-01 2.07275E-14 1.53741E-13
 -1      3568 1.98386E+01 4.17077E-01 6.08143E-04 6.53109E-01 7.41645E-14 1.13066E-13
 -1      3569 1.99526E+01 3.19654E-01-1.44939E-03 4.54192E-01-1.33671E-13-1.78192E-13
 -1      3570 1.99579E+01 3.39993E-01 9.75521E-04 5.09894E-01-3.23993E-14-1.57671E-14
 -1      3571 1.98717E+01 3.85845E-01 7.80010E-04 5.24053E-01 3.82843E-14 7.59027E-14
 -1      3572 1.99672E+01 2.74901E-01-1.26912E-03 3.55046E-01-8.10308E-14-1.89910E-13
 -1      3573 1.99705E+01 2.98011E-01 7.88338E-04 4.02776E-01-9.32617E-14-3.04930E-13
 -1      3574 1.99039E+01 3.40027E-01 7.90176E-04 4.13695E-01 2.13120E-14-3.97598E-13
 -1      3575 1.99798E+01 2.29095E-01-1.07811E-03 2.72406E-01 1.03749E-13-2.22505E-13
 -1      3576 1.99823E+01 2.52097E-01 6.45158E-04 3.12342E-01 1.77140E-14-1.11711E-13
 -1      3577 1.99320E+01 2.89038E-01 7.18164E-04 3.21111E-01-7.75901E-15-3.37816E-13
 -1      3578 1.99897E+01 1.86129E-01-8.93537E-04 2.04902E-01 2.51821E-13-2.87013E-13
 -1      3579 1.99919E+01 2.07344E-01 5.30408E-04 2.37607E-01 1.12813E-13-3.28365E-13
 -1      3580 1.99547E+01 2.38774E-01 6.09466E-04 2.44843E-01 1.80044E-13-3.88923E-13
 -1      3581 1.99967E+01 1.48011E-01-7.30966E-04 1.50778E-01 2.57237E-13-3.93681E-14
 -1      3582 1.99989E+01 1.66635E-01 4.32994E-04 1.77035E-01 3.73621E-13-6.10602E-14
 -1      3583 1.99721E+01 1.92653E-01 4.90258E-04 1.83114E-01 2.01076E-13-1.22928E-13
 -1      3584 2.00014E+01 1.15822E-01-4.39652E-04 1.08490E-01-2.77831E-14 1.36015E-13
 -1      3585 2.00033E+01 1.31256E-01 3.31112E-04 1.28834E-01 8.29654E-15-3.76657E-14
 -1      3586 1.99846E+01 1.52348E-01 3.64154E-04 1.33997E-01 1.21150E-13 1.51642E-13
 -1      3587 2.55490E+01-1.54324E+00-6.38013E-02 1.33942E+00-8.57300E-15 3.99316E-13
 -1      3588 1.59445E+01-1.47065E+00 5.14058E-02-4.17718E+00 9.26793E-14-3.32442E-14
 -1      3589 1.80717E+01-2.44598E+00-3.72362E-02-4.32217E+00 1.89154E-14 1.29750E-13
 -1      3590 1.99633E+01 1.47923E-01-3.13056E-04-8.04649E-02 1.81848E-13 4.72221E-14
 -1      3591 1.99507E+01 1.58873E-01-7.67718E-04-7.16992E-02-7.54363E-15 1.98558E-13
 -1      3592 1.99392E+01 1.71584E-01 1.07015E-04-5.66949E-02-7.44123E-14 3.27205E-13
 -1      3593 1.99303E+01 1.77559E-01-5.97876E-04-4.31047E-02-1.54998E-13 1.53324E-13
 -1      3594 1.99334E+01 1.86235E-01 1.75350E-04-7.33648E-02-1.20846E-14 3.36227E-13
 -1      3595 1.86091E+01-2.48117E+00-1.62139E-02 4.09621E+00-1.88442E-13-1.92079E-13
 -1      3596 1.63693E+01-1.49651E+00 1.28364E-01 4.33828E+00-1.75651E-13-7.56426E-14
 -1      3597 1.25220E+01 1.47789E-01 2.76940E-02-2.53952E+00 1.44549E-13-1.15602E-13
 -1      3598 1.41350E+01-7.43415E-01 2.69905E-02-3.80609E+00 1.99001E-13-1.82576E-13
 -1      3599 1.63682E+01-7.46784E-01 7.28341E-02-3.48170E+00 1.29702E-13 8.99975E-15
 -1      3600 2.02620E+01 1.25665E+00-1.93389E-03-3.14910E-01 1.51283E-14 4.72209E-14
 -1      3601 2.57981E+01 4.73745E+00-1.04428E-01-8.02330E-01 3.07018E-13 3.77613E-13
 -1      3602 2.00462E+01 3.33589E-01 1.35131E-03-6.67874E-01-4.30971E-14 2.07388E-13
 -1      3603 2.00603E+01 3.33518E-01-5.44271E-04-6.08158E-01-4.80712E-14 2.16333E-13
 -1      3604 1.90113E+01-2.87667E+00 6.40832E-02-4.35053E+00-1.83284E-13 2.08951E-13
 -1      3605 2.08764E+01-3.56448E+00-6.44400E-02-3.68749E+00-1.68756E-13 1.65057E-13
 -1      3606 2.02944E+01 8.79286E-01-1.41918E-03-1.03250E-01 9.07645E-15 1.86519E-14
 -1      3607 2.02724E+01 7.47638E-01-2.68638E-03 2.14989E-02-4.11726E-16 9.69729E-15
 -1      3608 2.02736E+01 7.91114E-01 1.55427E-03 5.22904E-02-8.18169E-15-6.38039E-15
 -1      3609 2.01991E+01-2.97847E+00 6.78627E-02-3.88393E+00-1.08108E-14 1.13173E-14
 -1      3610 1.99872E+01 2.32997E+00-3.71589E-03-1.41631E-01 5.42926E-15 9.14738E-14
 -1      3611 2.00040E+01 2.29006E+00-4.27340E-03-2.50618E-01 1.13406E-14 9.76158E-14
 -1      3612 2.01142E+01 1.99386E+00 6.07249E-03-2.39211E-01 5.82547E-15 8.79012E-14
 -1      3613 1.99244E+01 1.83764E-01-1.72696E-04-2.47332E-02-1.46959E-13-2.17731E-14
 -1      3614 1.99213E+01 1.85680E-01-3.81605E-04-8.72906E-03-7.41409E-15-1.40063E-13
 -1      3615 1.99148E+01 2.03858E-01 8.29685E-04-3.84576E-02-4.94928E-14 8.27478E-14
 -1      3616 1.15614E+01 7.39264E-01 1.71577E-02 5.49257E-01-6.85597E-14 4.08770E-13
 -1      3617 1.15806E+01 7.10894E-01 6.61596E-02-1.09435E+00 2.24647E-15 1.65312E-13
 -1      3618 2.29997E+01-3.76842E+00-6.90338E-02 2.36947E+00-1.75986E-13 1.30868E-14
 -1      3619 2.12058E+01-3.24658E+00 2.61629E-02 3.30026E+00-1.46463E-13-1.01602E-13
 -1      3620 2.28697E+01-3.43898E+00 8.52904E-02-2.40418E+00-2.23717E-13 1.21706E-13
 -1      3621 2.41241E+01-3.39867E+00-4.78209E-02-1.15817E+00-1.85742E-13 1.79339E-13
 -1      3622 1.99937E+01 1.22627E-01 2.28221E-04-9.53647E-02 1.36210E-13-1.36402E-13
 -1      3623 1.99214E+01 1.84850E-01-4.35469E-04 1.08639E-02 6.73701E-14-2.90227E-13
 -1      3624 1.99249E+01 1.82233E-01-1.40952E-04 2.66878E-02 1.38687E-13-3.68330E-13
 -1      3625 1.99077E+01 2.08797E-01 7.54663E-04 1.60785E-03 5.19237E-14-2.53807E-13
 -1      3626 2.53986E+01 2.25820E+00-7.46610E-02-2.11791E+00 2.55844E-13 4.23273E-14
 -1      3627 2.52390E+01-2.42982E+00-1.26551E-02 4.36184E-01-6.39419E-14 2.57987E-13
 -1      3628 2.02221E+01 1.51251E+00-5.87327E-03-3.31587E-01 4.58525E-15 4.86462E-14
 -1      3629 2.02875E+01 1.11858E+00 5.00452E-03-1.93652E-01 1.19534E-14 4.33048E-14
 -1      3630 2.02719E+01 1.12585E+00-1.44008E-03-1.33188E-01 9.58109E-16 2.48984E-14
 -1      3631 2.01918E+01 1.62385E+00-3.03801E-03-2.69942E-01 3.67620E-15 6.31129E-14
 -1      3632 1.99728E+01 1.48941E-01 1.28304E-04-1.00564E-01 1.49118E-13-6.54604E-14
 -1      3633 2.59868E+01 9.80674E-01-8.02772E-02-2.25147E+00 1.92329E-13-3.24810E-14
 -1      3634 2.47132E+01-2.87006E+00 5.28252E-03-1.51230E-01-1.25766E-13 2.35451E-13
 -1      3635 2.56728E+01-6.11100E-01-2.79828E-02-1.65777E+00 7.75525E-14-1.21797E-13
 -1      3636 2.55009E+01-1.65780E+00-1.63833E-02-1.27854E+00 3.32442E-14-2.01967E-13
 -1      3637 1.17560E+01 8.66164E-01 1.09927E-01-5.56790E-02-4.63102E-14-9.92678E-14
 -1      3638 1.21665E+01 6.77131E-01 1.73394E-02-1.01998E+00-6.47531E-14-7.41143E-14
 -1      3639 2.01316E+01 1.80897E+00-3.29703E-03 1.00983E-01 1.19569E-14 1.02721E-13
 -1      3640 2.01237E+01 1.83136E+00-3.05699E-03 2.75824E-02 1.90610E-14 7.18096E-14
 -1      3641 2.01039E+01 3.39244E-01 7.73254E-04-5.49131E-01-6.36786E-14 2.12599E-13
 -1      3642 2.01234E+01 3.51889E-01 7.36127E-05-4.86621E-01-5.07302E-14 1.73940E-13
 -1      3643 2.00534E+01 3.89863E-01 9.36853E-06-5.52162E-01-5.18785E-14 1.90018E-13
 -1      3644 1.72241E+01-1.32202E+00 1.13507E-02 3.81768E+00 1.93734E-14 7.02910E-14
 -1      3645 2.02427E+01 5.26425E-01 1.61347E-03-1.95076E-01 1.05769E-14 1.34779E-13
 -1      3646 2.02624E+01 6.56396E-01 3.77545E-04-1.31924E-01 4.42537E-15 1.66321E-13
 -1      3647 2.02160E+01 4.58083E-01-8.76584E-04-2.82115E-01-1.85591E-14 1.29400E-13
 -1      3648 1.99578E+01 1.74585E-01 5.17115E-04-1.08418E-01 2.35591E-14 6.60199E-14
 -1      3649 2.35610E+01-3.06560E+00 1.74433E-02 1.24128E+00-2.53486E-13-6.47668E-14
 -1      3650 2.01641E+01 3.32732E-01-1.05826E-03-4.14777E-01-3.51207E-14 1.34284E-13
 -1      3651 2.01461E+01 1.76851E+00-2.63219E-03 1.53683E-01 2.19793E-14 1.23246E-13
 -1      3652 2.02049E+01 1.57501E+00 5.97330E-03 8.97932E-02 2.68156E-14 1.23792E-13
 -1      3653 2.01663E+01 1.70516E+00-3.19603E-03 2.20964E-01 3.00038E-14 1.39671E-13
 -1      3654 1.26338E+01 7.39336E-01 4.29306E-02 8.34995E-01-4.49263E-14-5.58234E-14
 -1      3655 2.00019E+01 9.97789E-02-1.24313E-04 8.58117E-02 4.57409E-14 2.10121E-13
 -1      3656 2.00037E+01 1.09536E-01 3.96426E-04 9.86323E-02 1.86757E-14 8.75325E-14
 -1      3657 1.99901E+01 1.26357E-01 1.88225E-04 1.02826E-01-5.99592E-14 4.99659E-14
 -1      3658 1.99919E+01 1.10019E-01-3.17455E-04 8.42579E-02 5.03587E-14-5.57650E-14
 -1      3659 1.40521E+01-3.22449E-01 1.14381E-01 3.42534E+00-3.56330E-14 1.52850E-13
 -1      3660 1.37746E+01 8.15482E-02 7.27061E-03 2.66911E+00-3.69114E-14 1.48229E-13
 -1      3661 1.99311E+01 1.74917E-01-5.77009E-04 4.46729E-02 2.53249E-13-1.79187E-13
 -1      3662 1.99407E+01 1.68341E-01 3.19659E-04 5.82877E-02 1.78552E-13-1.72646E-13
 -1      3663 1.99152E+01 2.00871E-01 6.22517E-04 4.10343E-02 1.31903E-13-4.04277E-13
 -1      3664 1.55277E+01-8.44330E-01 2.98157E-02 3.62387E+00-1.57076E-13 9.20479E-14
 -1      3665 2.00826E+01 2.07429E+00 5.64913E-03-7.96902E-02 3.08423E-15 9.69493E-14
 -1      3666 1.34883E+01 5.85323E-01 6.32244E-02-1.77403E+00 6.99666E-14-1.09926E-13
 -1      3667 2.01235E+01-2.66843E+00 3.01254E-02 3.55474E+00-2.11253E-13-3.73070E-14
 -1      3668 1.88019E+01-1.80964E+00-2.20324E-02 3.39122E+00-2.56341E-13-3.95309E-14
 -1      3669 2.11275E+01-2.52941E+00 1.27265E-02 2.63981E+00-2.19577E-13-4.02627E-14
 -1      3670 1.77304E+01-2.24202E+00 2.33526E-02-4.37020E+00-2.04430E-13 1.15599E-13
 -1      3671 1.89063E+01-2.11975E+00 4.40826E-02-3.67915E+00-1.26558E-13 9.27470E-14
 -1      3672 1.64797E+01-1.39803E+00 1.86931E-02-3.97669E+00-2.07990E-13 1.70731E-14
 -1      3673 2.00000E+01 3.35199E-01-9.79782E-04-7.28749E-01-3.65367E-14 2.01075E-13
 -1      3674 1.99654E+01 3.87290E-01-3.35400E-05-6.73342E-01-3.97447E-14 1.62842E-13
 -1      3675 1.99927E+01 3.38441E-01 1.86548E-03-7.89533E-01-2.23972E-14 2.11306E-13
 -1      3676 1.99503E+01 3.33456E-01 2.40156E-03-9.19764E-01 8.56189E-15 2.28392E-13
 -1      3677 1.99475E+01 3.37642E-01-1.15653E-03-8.55985E-01-1.76210E-14 2.17959E-13
 -1      3678 1.98767E+01 3.92870E-01-2.34283E-04-8.01732E-01-3.86007E-14 1.66499E-13
 -1      3679 1.97948E+01 3.83685E-01-7.46390E-04-9.44208E-01 4.39587E-14 1.70504E-13
 -1      3680 2.17674E+01-2.99039E+00 2.16744E-02-2.62291E+00-1.44947E-13 1.30015E-13
 -1      3681 1.23923E+01 7.60406E-01 9.22125E-02 1.37271E+00-7.39317E-14 4.41036E-13
 -1      3682 1.30846E+01 9.61860E-01 2.15227E-02 4.83726E-01 1.09496E-14 3.66387E-13
 -1      3683 1.33235E+01 3.97632E-01-3.24029E-02 2.13215E+00-1.24103E-13 2.63727E-13
 -1      3684 1.29231E+01 1.83093E-01 2.17919E-02-2.50147E+00-4.19751E-14-8.71560E-14
 -1      3685 1.30976E+01-3.06595E-01 9.46905E-02-3.40782E+00-1.13444E-13-1.31780E-13
 -1      3686 1.46147E+01-6.36956E-01 3.51816E-02-3.58752E+00-1.48759E-13-2.90185E-14
 -1      3687 2.53507E+01 4.63878E+00-7.23450E-02 7.97282E-01-6.62387E-14 6.28300E-13
 -1      3688 1.99711E+01 1.34237E-01 1.62600E-04 7.72103E-02 5.64715E-14-2.55990E-13
 -1      3689 1.99808E+01 1.23026E-01 2.84524E-05 8.06710E-02 1.56890E-13-1.84263E-13
 -1      3690 1.99790E+01 1.30543E-01-4.72322E-05 8.92029E-02 1.14113E-13-2.42606E-13
 -1      3691 2.01907E+01 1.61785E+00 5.76971E-03-4.74308E-04 2.01781E-14 8.23122E-14
 -1      3692 2.01231E+01 1.83291E+00-3.06106E-03-2.61146E-02 1.86962E-14 9.29616E-14
 -1      3693 2.01300E+01 1.81243E+00-3.53672E-03-9.94282E-02 2.07781E-15 9.96522E-14
 -1      3694 1.96472E+01-3.90951E-01 1.10608E-02-1.83593E+00-7.98870E-14 1.79602E-13
 -1      3695 1.94916E+01-1.58689E-01 1.71496E-03-1.72227E+00-6.14759E-14 1.35110E-13
 -1      3696 2.01533E+01 5.71139E-01-2.12087E-04 2.85943E-01-1.44090E-14 7.49895E-14
 -1      3697 2.01042E+01 5.40059E-01-8.88259E-04 3.50437E-01-1.25946E-14 9.18795E-14
 -1      3698 2.00367E+01 5.26505E-01-8.78269E-04 3.99095E-01 2.42335E-14 1.37110E-13
 -1      3699 1.99762E+01 5.27901E-01-4.77547E-04 4.56897E-01 6.75201E-14 1.26878E-13
 -1      3700 2.00554E+01 5.87299E-01 1.83370E-03 3.21546E-01 3.52810E-14 1.33245E-13
 -1      3701 1.98882E+01 5.41942E-01-1.62770E-03 5.02266E-01 9.58988E-14 1.18160E-13
 -1      3702 1.98153E+01 5.67646E-01-2.60771E-04 5.58209E-01 1.01859E-13 1.07389E-13
 -1      3703 1.99013E+01 5.85393E-01 2.16819E-03 4.12431E-01 6.57375E-14 1.76955E-13
 -1      3704 1.97052E+01 6.01471E-01-2.44992E-03 6.03866E-01 8.05358E-14 9.18778E-14
 -1      3705 1.96171E+01 6.43786E-01-1.93429E-04 6.61952E-01 2.50997E-14 9.79395E-14
 -1      3706 1.97076E+01 6.35499E-01 2.79561E-03 4.98392E-01 8.77297E-14 1.14749E-13
 -1      3707 1.94813E+01 6.89630E-01-3.39955E-03 7.10995E-01-1.18884E-14 9.88181E-14
 -1      3708 1.93747E+01 7.40489E-01-1.87203E-04 7.74704E-01-2.04534E-14 9.36227E-14
 -1      3709 1.94688E+01 7.21569E-01 3.72007E-03 5.85375E-01 8.63991E-15 1.26067E-13
 -1      3710 1.92073E+01 7.89564E-01-4.58685E-03 8.30321E-01-1.70050E-14 5.87649E-14
 -1      3711 1.90784E+01 8.39497E-01-7.85913E-05 9.03435E-01 3.49753E-15 5.72325E-14
 -1      3712 1.91756E+01 8.27178E-01 4.95878E-03 6.78841E-01-3.60311E-14 1.02456E-13
 -1      3713 1.88712E+01 8.80743E-01-6.23119E-03 9.70125E-01 1.50845E-14 5.28646E-14
 -1      3714 1.87174E+01 9.17615E-01 3.99051E-04 1.05829E+00 2.70430E-14 7.04981E-14
 -1      3715 1.88148E+01 9.34010E-01 6.59149E-03 7.85460E-01-2.26381E-16 5.06968E-14
 -1      3716 1.84587E+01 9.36094E-01-8.69028E-03 1.14402E+00 6.20491E-14 6.01732E-14
 -1      3717 1.82803E+01 9.43467E-01 1.73121E-03 1.25736E+00 6.36972E-14 6.83122E-14
 -1      3718 1.83680E+01 1.01990E+00 8.74043E-03 9.16439E-01 4.93449E-14 6.42359E-14
 -1      3719 1.79535E+01 9.18327E-01-1.23760E-02 1.37736E+00 2.58615E-15 2.58584E-14
 -1      3720 1.77580E+01 8.72675E-01 5.05905E-03 1.53442E+00-3.15020E-14 1.75270E-14
 -1      3721 1.78101E+01 1.05673E+00 1.17443E-02 1.09326E+00 4.21814E-15 3.12690E-14
 -1      3722 1.73396E+01 7.73320E-01-1.71103E-02 1.71760E+00 1.65153E-14 5.67268E-14
 -1      3723 1.71529E+01 6.40015E-01 1.42242E-02 1.94916E+00-7.07550E-16 6.52237E-14
 -1      3724 1.71037E+01 1.00390E+00 1.52796E-02 1.35615E+00 2.46790E-14 3.21206E-14
 -1      3725 1.66176E+01 4.17614E-01-1.81313E-02 2.24955E+00-4.88038E-14 7.04645E-14
 -1      3726 1.64828E+01 1.38997E-01 3.52715E-02 2.59738E+00-5.37851E-14 8.69907E-14
 -1      3727 1.61952E+01 7.98944E-01 1.98155E-02 1.77764E+00 1.73975E-14 9.06606E-14
 -1      3728 2.02771E+01 9.06330E-01-3.10772E-03 1.03080E-02 1.70912E-14 1.30536E-13
 -1      3729 2.02864E+01 1.07223E+00 1.09166E-03 1.21922E-01 1.12669E-14 1.36129E-13
 -1      3730 1.62648E+01-2.05588E-01 6.80008E-03-3.00006E+00 5.98983E-14 6.35282E-14
 -1      3731 1.69587E+01 2.26063E-01 2.55757E-02-2.47050E+00-1.33428E-13 1.19780E-13
 -1      3732 1.70341E+01 4.98177E-01-1.53308E-02-2.15473E+00-1.96931E-13 1.00810E-13
 -1      3733 1.74778E+01 7.04984E-01 1.08004E-02-1.87699E+00-9.46679E-14 7.18925E-14
 -1      3734 1.76279E+01 8.34759E-01-1.51304E-02-1.65724E+00 1.11393E-14 6.99677E-14
 -1      3735 1.65980E+01 8.41888E-01 1.41526E-02-1.75589E+00-1.99168E-13 1.28662E-13
 -1      3736 1.79863E+01 9.28619E-01 4.83649E-03-1.47495E+00 1.03711E-13-1.79673E-14
 -1      3737 1.81456E+01 9.71789E-01-1.08571E-02-1.31910E+00 8.81411E-14 5.00238E-14
 -1      3738 1.73588E+01 1.05701E+00 1.28182E-02-1.33922E+00 6.82525E-14 1.20635E-14
 -1      3739 1.84260E+01 9.94710E-01 1.68386E-03-1.19372E+00 3.81944E-14 1.18180E-13
 -1      3740 1.85719E+01 9.86927E-01-7.86705E-03-1.07514E+00 6.80098E-14 1.66976E-13
 -1      3741 1.79664E+01 1.11019E+00 1.04695E-02-1.06721E+00 1.21705E-13 7.54008E-14
 -1      3742 1.87922E+01 9.67850E-01 4.04971E-04-9.80707E-01-1.32782E-14 1.16547E-13
 -1      3743 1.89157E+01 9.30829E-01-5.85739E-03-8.84628E-01-1.25235E-13 1.37074E-13
 -1      3744 1.84436E+01 1.07605E+00 8.15806E-03-8.73477E-01 2.84836E-14 2.83462E-13
 -1      3745 1.90884E+01 8.88712E-01-5.05014E-05-8.08535E-01-2.51046E-14 4.98094E-14
 -1      3746 1.91882E+01 8.36940E-01-4.51510E-03-7.27400E-01 3.50971E-14 2.53327E-13
 -1      3747 1.88199E+01 9.90677E-01 6.41190E-03-7.23090E-01-1.16113E-13 2.80708E-13
 -1      3748 1.93231E+01 7.84270E-01-1.21985E-04-6.63388E-01 4.92651E-14 1.41459E-13
 -1      3749 1.94010E+01 7.27130E-01-3.58552E-03-5.93648E-01 1.20891E-13 1.22860E-13
 -1      3750 1.91147E+01 8.79016E-01 4.99310E-03-5.98395E-01 1.99055E-14 4.02534E-13
 -1      3751 1.95056E+01 6.71823E-01-3.43099E-05-5.38841E-01 2.07708E-13 1.18542E-13
 -1      3752 1.95648E+01 6.15202E-01-2.88248E-03-4.78853E-01 2.29070E-13 1.32955E-13
 -1      3753 1.93442E+01 7.58002E-01 3.88012E-03-4.91233E-01 1.80506E-13 1.64575E-13
 -1      3754 1.96453E+01 5.62020E-01 8.96309E-05-4.31918E-01 1.90040E-13 1.38828E-13
 -1      3755 1.96893E+01 5.09356E-01-2.32833E-03-3.80793E-01 1.51105E-13 1.83408E-13
 -1      3756 1.95210E+01 6.38524E-01 2.99752E-03-3.98229E-01 1.59250E-13 5.61583E-14
 -1      3757 1.97506E+01 4.60917E-01 1.92675E-04-3.40978E-01 1.45544E-14 1.37022E-13
 -1      3758 1.97826E+01 4.13967E-01-1.87830E-03-2.98023E-01-1.37191E-14 3.58860E-14
 -1      3759 1.96559E+01 5.27259E-01 2.29556E-03-3.17957E-01 7.71847E-14 7.45235E-14
 -1      3760 1.98288E+01 3.71473E-01 2.66474E-04-2.64761E-01 2.72510E-14 5.85460E-14
 -1      3761 1.98515E+01 3.30901E-01-1.53461E-03-2.29257E-01 3.21147E-14 6.27209E-14
 -1      3762 1.97575E+01 4.27724E-01 1.73129E-03-2.49618E-01-1.00176E-14 7.69158E-14
 -1      3763 1.98859E+01 2.94939E-01 3.76867E-04-2.02087E-01 7.05097E-15 1.14684E-14
 -1      3764 1.99012E+01 2.60601E-01-1.31322E-03-1.73141E-01-4.20341E-15 5.09781E-14
 -1      3765 1.98333E+01 3.41235E-01 1.28945E-03-1.92509E-01 1.00430E-14 2.52134E-13
 -1      3766 1.99268E+01 2.30468E-01 3.51612E-04-1.51088E-01-6.55184E-14 3.43651E-14
 -1      3767 1.99374E+01 2.01994E-01-1.00152E-03-1.28179E-01-5.50416E-14 3.46694E-14
 -1      3768 1.98881E+01 2.68665E-01 8.85321E-04-1.45916E-01-5.03104E-14 2.66064E-13
 -1      3769 2.02368E+01 6.94335E-01 3.61603E-04 1.53552E-01-2.12537E-14 5.84267E-14
 -1      3770 2.01997E+01 6.21028E-01-1.51202E-03 2.30063E-01-3.17016E-14 6.61038E-14
 -1      3771 2.01711E+01 6.58248E-01 1.79105E-03 2.19036E-01-6.41196E-15 9.17645E-14
 -1      3772 1.94778E+01 2.77323E-01 5.83585E-03-1.31285E+00-3.72230E-15 1.54301E-13
 -1      3773 1.94644E+01 3.51280E-01-2.00013E-03-1.21430E+00 4.67562E-15 1.61745E-13
 -1      3774 1.94919E+01 2.84754E-02 8.18684E-03-1.55812E+00-3.12431E-14 1.41983E-13
 -1      3775 1.94246E+01 1.68808E-01-9.65011E-04-1.44822E+00-2.28158E-15 1.78288E-13
 -1      3776 1.91577E+01 3.16550E-01-2.67350E-03-1.37319E+00-1.66743E-14 1.46703E-13
 -1      3777 1.90961E+01 3.47926E-02-6.86739E-03-1.68624E+00-3.72969E-14 2.40932E-13
 -1      3778 1.95417E+01 4.04696E-01 4.05180E-03-1.10460E+00 5.40229E-14 1.70178E-13
 -1      3779 1.95592E+01 4.34491E-01-2.29697E-03-1.01843E+00 8.13241E-14 1.99407E-13
 -1      3780 1.92876E+01 4.60611E-01-6.02953E-04-1.12384E+00 3.64049E-14 1.72380E-13
 -1      3781 2.00369E+01-1.03039E+00 1.31706E-02-2.11843E+00-9.49247E-14 2.10675E-13
 -1      3782 1.97494E+01-6.80148E-01 8.34395E-03-2.02404E+00-9.19094E-14 1.90872E-13
 -1      3783 1.91723E+01-4.44104E-01-1.38169E-02-2.06841E+00-1.28654E-13 2.71607E-13
 -1      3784 2.08621E+01-1.89591E+00 2.53031E-02-2.29994E+00-5.43662E-14 1.14964E-13
 -1      3785 2.03389E+01-1.44020E+00 2.31329E-02-2.30225E+00-4.91710E-14 1.96874E-13
 -1      3786 1.95104E+01-1.17578E+00-1.85629E-02-2.50774E+00-4.42242E-14 2.43441E-13
 -1      3787 2.10256E+01-2.46530E+00 3.60334E-02-2.74025E+00-9.79217E-14 1.35448E-13
 -1      3788 2.27476E+01-2.86814E+00 2.80145E-02 1.70060E+00-2.34190E-13-4.14746E-14
 -1      3789 2.00273E+01-6.14536E-01 1.05944E-02 1.80598E+00-5.01691E-14 3.01394E-13
 -1      3790 2.03334E+01-9.49014E-01 1.17230E-02 1.85391E+00 6.21859E-14 2.22107E-13
 -1      3791 1.97130E+01-1.16125E-01 2.68185E-03 1.56449E+00-6.38974E-14 2.48830E-13
 -1      3792 1.98808E+01-3.41710E-01 8.71782E-03 1.65383E+00-3.24768E-14 3.05083E-13
 -1      3793 1.94741E+01-4.15049E-01-1.28660E-02 1.89025E+00-8.05918E-14 2.98748E-13
 -1      3794 1.95848E+01 2.06711E-01-4.70783E-05 1.32299E+00-1.08998E-13 1.47914E-13
 -1      3795 1.96719E+01 6.72996E-02 6.81792E-03 1.41993E+00-1.30160E-13 1.94331E-13
 -1      3796 1.93119E+01 5.96062E-02-7.03055E-03 1.56359E+00-4.94195E-14 2.24696E-13
 -1      3797 1.95622E+01 3.90117E-01-1.32393E-03 1.10181E+00-1.51028E-13 2.10419E-13
 -1      3798 1.95987E+01 3.14875E-01 4.79123E-03 1.19560E+00-4.04805E-14 2.29107E-13
 -1      3799 1.92949E+01 3.46711E-01-3.03711E-03 1.27853E+00-1.08862E-13 9.86564E-14
 -1      3800 1.95950E+01 4.74316E-01-1.84948E-03 9.06668E-01-1.94148E-13 2.01532E-13
 -1      3801 1.96026E+01 4.43744E-01 3.27961E-03 9.92939E-01-2.91952E-13 1.09472E-13
 -1      3802 1.93518E+01 4.98111E-01-7.57672E-04 1.03829E+00-1.39510E-13 4.73316E-14
 -1      3803 1.96528E+01 4.92343E-01-1.98641E-03 7.37424E-01 7.52767E-14 1.36060E-13
 -1      3804 1.96456E+01 4.90996E-01 2.23983E-03 8.14637E-01 1.56426E-14 2.03054E-13
 -1      3805 1.94414E+01 5.56167E-01 3.60395E-04 8.38099E-01-1.38999E-13-1.58773E-13
 -1      3806 1.97179E+01 4.69143E-01-1.91222E-03 5.92460E-01 4.89703E-14 1.18637E-13
 -1      3807 1.97043E+01 4.85498E-01 1.57761E-03 6.60108E-01 1.17387E-13 1.91974E-13
 -1      3808 1.95404E+01 5.54060E-01 9.48629E-04 6.71487E-01 7.06419E-14-3.91941E-14
 -1      3809 1.97803E+01 4.22955E-01-1.74376E-03 4.69789E-01 1.43060E-13-4.29410E-14
 -1      3810 1.97653E+01 4.48728E-01 1.14564E-03 5.27971E-01 1.38766E-13 5.54693E-14
 -1      3811 1.96357E+01 5.15476E-01 1.15639E-03 5.33197E-01 1.10191E-13-3.96591E-14
 -1      3812 1.98354E+01 3.66362E-01-1.52888E-03 3.67274E-01-1.54020E-15-1.82571E-13
 -1      3813 1.98214E+01 3.95921E-01 8.64320E-04 4.16441E-01 1.15414E-13-1.57528E-13
 -1      3814 1.97204E+01 4.57656E-01 1.15860E-03 4.18885E-01 2.04513E-13-1.32096E-13
 -1      3815 1.98812E+01 3.07628E-01-1.29884E-03 2.82758E-01 4.25495E-14-3.50428E-13
 -1      3816 1.98694E+01 3.37337E-01 6.75698E-04 3.23596E-01-7.82424E-14-2.09080E-13
 -1      3817 1.97921E+01 3.92266E-01 1.05825E-03 3.25046E-01 3.17085E-14 1.43263E-14
 -1      3818 1.99176E+01 2.51780E-01-1.08958E-03 2.14058E-01 1.58747E-13-1.84995E-13
 -1      3819 1.99084E+01 2.79503E-01 5.44027E-04 2.47411E-01 1.14179E-13-2.01083E-13
 -1      3820 1.98502E+01 3.26871E-01 9.11028E-04 2.48741E-01-9.16709E-14-5.49940E-14
 -1      3821 1.99454E+01 2.01690E-01-8.89751E-04 1.59039E-01 1.01046E-13 7.70854E-14
 -1      3822 1.99388E+01 2.26282E-01 4.76361E-04 1.85884E-01 7.43996E-14-1.39592E-13
 -1      3823 1.98958E+01 2.65878E-01 7.14510E-04 1.87356E-01 3.20293E-14 9.83196E-14
 -1      3824 1.99658E+01 1.58656E-01-6.96701E-04 1.16000E-01 1.09653E-13 6.25458E-14
 -1      3825 1.99614E+01 1.79397E-01 3.82501E-04 1.36997E-01 2.48114E-13 1.27644E-13
 -1      3826 1.99306E+01 2.11690E-01 5.22278E-04 1.38774E-01 9.03758E-14 6.96238E-15
 -1      3827 1.60008E+01-1.21823E+00 3.73666E-02 3.89634E+00 3.17801E-15 3.25261E-14
 -1      3828 1.34944E+01 8.11286E-01 8.61436E-02 1.56983E+00-2.02980E-14 5.61374E-14
 -1      3829 1.33431E+01 8.92046E-01-1.09371E-02 5.49368E-01-4.34349E-14-4.74586E-14
 -1      3830 1.33330E+01 8.25347E-01 6.33606E-03-9.03696E-01-6.27077E-14-1.14110E-13
 -1      3831 1.30387E+01 6.45627E-01 7.46863E-02-1.70530E+00-5.09180E-14-1.30382E-13
 -1      3832 1.40376E+01 3.58125E-01 1.15730E-02-2.20834E+00-5.09545E-14-5.82139E-14
 -1      3833 1.44894E+01 3.92278E-01 2.87452E-02 2.19783E+00-4.78506E-14 9.76823E-14
 -1      3834 2.02862E+01 9.21096E-01 3.89389E-03-8.49449E-03-1.28330E-14 5.43382E-14
 -1      3835 2.02591E+01 7.90733E-01-2.44528E-03 8.64113E-02-1.64331E-14 5.57372E-14
 -1      3836 2.02436E+01 8.16916E-01 1.37507E-03 9.74516E-02-1.19577E-14 9.52307E-14
 -1      3837 2.01619E+01 3.74197E-01 5.12966E-05-4.24510E-01-4.39615E-14 1.56217E-13
 -1      3838 2.01857E+01 4.09248E-01 8.26347E-04-3.53480E-01-5.12305E-14 1.39990E-13
 -1      3839 2.02075E+01 5.02526E-01 1.21992E-04-2.93375E-01-2.24228E-14 1.36120E-13
 -1      3840 2.01356E+01 4.21337E-01 2.77432E-05-4.29187E-01-7.07913E-14 1.81898E-13
 -1      3841 1.35772E+01 9.20287E-01 1.48320E-02-1.05201E+00-4.26638E-14-3.96523E-14
 -1      3842 1.45806E+01 4.76979E-01 3.70721E-02-2.28523E+00 5.91578E-14-2.75099E-13
 -1      3843 1.98968E+01 2.25382E-01-7.07143E-05-5.39986E-02 5.76096E-14 4.30192E-13
 -1      3844 1.98885E+01 2.30476E-01-6.01098E-04-3.40745E-02-4.47797E-14-7.17088E-14
 -1      3845 2.20589E+01-2.52566E+00 1.58641E-02 1.93900E+00-1.86597E-13 3.37554E-14
 -1      3846 1.99779E+01 1.38932E-01 1.71910E-04 9.88135E-02-1.02529E-14-1.90043E-13
 -1      3847 2.01433E+01 1.77533E+00-2.76775E-03-1.50533E-01-1.34272E-14 8.84107E-14
 -1      3848 2.01624E+01 1.71016E+00-4.90805E-03-2.18417E-01-2.55555E-15 8.43258E-14
 -1      3849 2.02028E+01 1.58414E+00 6.88514E-03-9.11066E-02-7.40978E-15 9.10036E-14
 -1      3850 1.98847E+01 2.33130E-01-4.63423E-04-8.15218E-03-1.50548E-14-3.45840E-13
 -1      3851 1.98853E+01 2.32791E-01-2.32170E-04 1.31190E-02 1.76741E-13-3.74677E-13
 -1      3852 1.98684E+01 2.60020E-01 8.45613E-04-2.35100E-02 6.53340E-14-1.93812E-13
 -1      3853 1.99304E+01 2.04487E-01 6.29542E-04-1.05538E-01 3.47497E-14 1.59925E-13
 -1      3854 2.02112E+01 1.57330E+00-2.93670E-03 3.32816E-01 3.31514E-14 1.84001E-13
 -1      3855 2.01825E+01 1.67795E+00-1.80607E-03 2.73489E-01 1.64978E-14 1.76102E-13
 -1      3856 2.02263E+01 1.50090E+00 4.15830E-03 1.79496E-01 4.62113E-14 1.48500E-13
 -1      3857 2.02474E+01 1.41646E+00 1.85783E-03 2.72541E-01 2.27832E-14 1.80239E-13
 -1      3858 1.99606E+01 1.43410E-01-4.28948E-04 7.10707E-02 5.92467E-14-1.28814E-13
 -1      3859 2.05776E+01-1.56046E+00 1.00164E-02 2.19120E+00 1.30538E-15 8.07885E-14
 -1      3860 2.10352E+01-2.01724E+00 6.70667E-04 2.19797E+00-1.04604E-13 3.57431E-14
 -1      3861 1.65966E+01-7.84875E-01-2.27002E-02 3.29170E+00-1.74791E-13 1.69101E-14
 -1      3862 1.48527E+01 9.24516E-02 9.48474E-02 2.93786E+00-2.18647E-13 3.09908E-13
 -1      3863 1.98568E+01-2.21266E+00-2.16383E-02-3.20421E+00-6.84973E-14 1.50783E-13
 -1      3864 1.53370E+01 7.42832E-01-1.67474E-02-1.82212E+00-2.04808E-13-1.70782E-13
 -1      3865 1.54460E+01 3.25495E-01 1.61595E-02-2.48709E+00-1.75055E-14-7.47900E-14
 -1      3866 1.36768E+01 1.11847E+00 5.18429E-02-3.34028E-01 4.92150E-14 4.25419E-13
 -1      3867 1.45716E+01 1.03830E+00 2.20444E-02-8.97257E-01 2.66297E-14 1.63562E-13
 -1      3868 1.39243E+01 1.00702E+00-3.25086E-02 4.48196E-01 1.94463E-14 4.08113E-13
 -1      3869 2.02772E+01 7.74993E-01 1.49628E-03-6.82456E-02 1.34168E-14 1.34736E-13
 -1      3870 2.02729E+01 9.25992E-01 7.43140E-04-1.98965E-02 2.17374E-14 1.14578E-13
 -1      3871 2.02499E+01 6.68595E-01-1.88102E-03-1.58543E-01 1.60838E-14 1.24272E-13
 -1      3872 1.61266E+01-3.49883E-01-7.81436E-03 3.15362E+00-5.43359E-14 7.92560E-14
 -1      3873 1.79624E+01-1.07180E+00 4.36435E-02 3.27688E+00-1.30225E-13-1.74971E-13
 -1      3874 1.69830E+01-3.88534E-01-2.49553E-02 2.79187E+00-1.81237E-13-3.25295E-14
 -1      3875 1.91198E+01-1.31349E+00 1.78929E-02 2.84697E+00-1.70748E-13 1.28561E-14
 -1      3876 1.53466E+01 2.39624E-01 3.41914E-02 2.60861E+00-4.92247E-14 6.81677E-14
 -1      3877 2.02594E+01 1.12047E+00-2.74111E-03-8.54486E-02-4.37874E-15 6.77225E-14
 -1      3878 2.02411E+01 1.45340E+00 6.42214E-03-1.74807E-01-3.87582E-15 6.13594E-14
 -1      3879 1.99564E+01 1.65731E-01 5.21959E-04 1.01151E-01 1.32504E-13-1.69506E-13
 -1      3880 1.98692E+01 2.57220E-01 6.56086E-04 2.98213E-02 1.55735E-13-4.05916E-13
 -1      3881 1.98902E+01 2.26839E-01-6.44686E-04 3.84118E-02 9.69000E-14-4.30723E-13
 -1      3882 1.98981E+01 2.20065E-01-4.81610E-04 5.72206E-02 1.52919E-13-4.12688E-13
 -1      3883 1.36990E+01 1.06654E+00 6.22574E-02-1.42875E-01-4.15943E-14-6.60756E-14
 -1      3884 1.41722E+01 9.13805E-01 1.18425E-03-7.63877E-01-3.43657E-14-1.02581E-13
 -1      3885 1.42550E+01 1.00565E+00 6.98660E-03 5.35906E-01-2.39236E-14-6.35880E-14
 -1      3886 1.97989E+01-1.29637E+00-9.59634E-03 2.45721E+00-8.93794E-14 6.50044E-14
 -1      3887 1.99436E+01 1.67815E-01-3.18144E-04 7.38770E-02 1.01843E-13-8.11664E-14
 -1      3888 1.59140E+01-8.26332E-01 3.80476E-02-3.62462E+00-1.40098E-13 1.02592E-14
 -1      3889 1.71736E+01-9.42820E-01 3.04589E-02-3.31285E+00-1.07702E-13 3.57579E-14
 -1      3890 1.53199E+01-2.59390E-01-4.52338E-03-3.01852E+00-4.33134E-14 5.13582E-14
 -1      3891 1.96450E+01 4.52675E-01 2.78461E-03-9.29391E-01 5.60419E-14 1.80585E-13
 -1      3892 1.96785E+01 4.56541E-01-2.20832E-03-8.54261E-01 3.62956E-15 1.68695E-13
 -1      3893 1.94464E+01 5.15377E-01 3.01028E-04-9.24741E-01 5.18755E-14 1.72178E-13
 -1      3894 1.47483E+01 4.60275E-01 1.70322E-02 2.08091E+00-1.46817E-13 2.35614E-13
 -1      3895 1.99127E+01 2.15933E-01-3.81336E-04-8.93202E-02 1.03672E-14 3.49153E-13
 -1      3896 1.98886E+01 2.47999E-01 4.44278E-04-8.82359E-02 5.81118E-14 3.72217E-13
 -1      3897 1.98849E+01 4.42113E-01 1.22812E-03-6.51875E-01-6.87391E-14 1.38702E-13
 -1      3898 1.99284E+01 4.35882E-01-1.32539E-03-5.90699E-01-7.00995E-14 1.39054E-13
 -1      3899 1.47848E+01 7.39498E-01-2.17132E-02 1.64485E+00-2.19460E-14 6.52742E-14
 -1      3900 1.88356E+01-1.55806E+00 1.56095E-03-3.19265E+00-6.53531E-14 1.06118E-13
 -1      3901 2.02244E+01 1.36040E+00-1.89559E-03 7.25289E-02 3.88471E-14 1.60460E-13
 -1      3902 2.02107E+01 1.39778E+00-2.86378E-03 3.69208E-02 1.76065E-14 1.23537E-13
 -1      3903 1.99996E+01 4.35420E-01 6.16060E-04-5.34679E-01-4.53184E-14 1.43560E-13
 -1      3904 2.00424E+01 4.41086E-01-7.67371E-04-4.74753E-01-5.89735E-14 1.59384E-13
 -1      3905 1.99201E+01 4.89083E-01 9.57141E-04-5.12783E-01-6.03689E-14 1.27822E-13
 -1      3906 2.02057E+01 1.41697E+00-2.95259E-03 1.70662E-02 1.15862E-14 8.09210E-14
 -1      3907 2.02050E+01 1.41906E+00-2.81346E-03-2.14007E-02 2.73662E-15 9.09548E-14
 -1      3908 2.02462E+01 1.24382E+00 6.24935E-03 7.14773E-03 7.27299E-15 1.21378E-13
 -1      3909 2.02440E+01 1.20719E+00-1.18185E-03-6.14034E-02 1.90206E-15 8.41734E-14
 -1      3910 2.02581E+01 1.26374E+00 9.82074E-04 1.44259E-01 2.94245E-14 1.54632E-13
 -1      3911 2.02604E+01 1.26560E+00-1.65735E-03 2.06783E-01 2.14439E-14 1.55169E-13
 -1      3912 1.99147E+01 6.02556E-01-1.32136E-03 3.09987E-01 4.32962E-14 1.37971E-13
 -1      3913 1.98265E+01 6.14847E-01-1.16842E-03 3.50821E-01 6.90749E-14 1.50244E-13
 -1      3914 1.97136E+01 6.39316E-01-1.89894E-03 3.76756E-01 8.38905E-14 1.03080E-13
 -1      3915 1.96045E+01 6.74311E-01-1.27843E-03 4.15541E-01 5.45029E-14 7.59439E-14
 -1      3916 1.97457E+01 6.62860E-01 2.94080E-03 2.72039E-01 4.79207E-14 1.15949E-13
 -1      3917 1.94643E+01 7.17039E-01-2.60568E-03 4.40062E-01 3.01686E-14 6.04030E-14
 -1      3918 1.93304E+01 7.66678E-01-1.59051E-03 4.79007E-01 2.86094E-16 6.25780E-14
 -1      3919 1.94970E+01 7.31043E-01 3.78773E-03 3.14346E-01 1.60287E-14 5.89784E-14
 -1      3920 1.91576E+01 8.19550E-01-3.55928E-03 5.03208E-01-1.57920E-14 3.21724E-14
 -1      3921 1.89932E+01 8.75440E-01-2.09778E-03 5.44512E-01-6.07433E-14 2.95395E-15
 -1      3922 1.91909E+01 8.29976E-01 4.96932E-03 3.51658E-01-1.41945E-14-2.80854E-14
 -1      3923 1.87791E+01 9.29634E-01-4.94220E-03 5.69688E-01-2.60190E-14 3.15015E-14
 -1      3924 1.85763E+01 9.82658E-01-2.70690E-03 6.16598E-01 4.49833E-14 5.38618E-14
 -1      3925 1.88139E+01 9.43495E-01 6.64106E-03 3.85054E-01-1.20060E-14 1.84958E-14
 -1      3926 1.83070E+01 1.02794E+00-7.15565E-03 6.45244E-01 4.71200E-14 3.18533E-14
 -1      3927 1.80552E+01 1.06753E+00-3.44653E-03 7.03972E-01 6.32686E-16 4.13946E-14
 -1      3928 1.83457E+01 1.05487E+00 9.15539E-03 4.16022E-01 3.27525E-14 7.86326E-14
 -1      3929 1.77089E+01 1.09174E+00-1.07185E-02 7.41382E-01 6.35852E-15 3.81000E-14
 -1      3930 1.73946E+01 1.10611E+00-3.41589E-03 8.23988E-01 2.59155E-14-1.17777E-15
 -1      3931 1.77541E+01 1.14569E+00 1.29083E-02 4.50270E-01 5.06930E-15 1.19848E-14
 -1      3932 1.69328E+01 1.09449E+00-1.58969E-02 8.84704E-01 4.15373E-14-1.83371E-14
 -1      3933 1.65392E+01 1.06702E+00 1.61016E-04 1.01427E+00 6.96587E-14 3.05924E-14
 -1      3934 1.69824E+01 1.19897E+00 1.81806E-02 4.96825E-01 5.45625E-14 3.03564E-14
 -1      3935 1.60065E+01 9.92685E-01-2.28789E-02 1.16466E+00 6.98211E-14 4.62970E-14
 -1      3936 1.55074E+01 8.94429E-01 5.85652E-03 1.38771E+00 1.81195E-14 6.93829E-14
 -1      3937 1.49095E+01 1.05805E+00 4.20614E-02 9.73603E-01 1.07442E-14-1.62383E-14
 -1      3938 1.60438E+01 1.18127E+00 2.55027E-02 6.39488E-01 5.05482E-14 2.09597E-14
 -1      3939 2.01863E+01 7.18978E-01-2.60606E-04 1.48307E-01-1.34378E-14 9.47886E-14
 -1      3940 2.01350E+01 6.60156E-01-1.74062E-03 2.01779E-01 2.00182E-15 8.23087E-14
 -1      3941 1.68226E+01 1.13399E+00 4.26946E-03-1.04809E+00-2.81932E-14 1.90892E-13
 -1      3942 1.71501E+01 1.15650E+00-1.43861E-02-9.17145E-01 7.49277E-14 1.64574E-13
 -1      3943 1.75562E+01 1.17115E+00-2.53172E-03-8.42965E-01 1.72553E-13 9.44136E-14
 -1      3944 1.78250E+01 1.15803E+00-9.90873E-03-7.51218E-01 1.96173E-13 1.43323E-13
 -1      3945 1.71465E+01 1.27110E+00 1.85348E-02-5.73144E-01 1.42312E-13 1.68452E-13
 -1      3946 1.81303E+01 1.13496E+00-2.66616E-03-6.99474E-01 8.10385E-14 2.11484E-13
 -1      3947 1.83434E+01 1.09546E+00-6.81446E-03-6.30354E-01-8.03540E-14 1.96337E-13
 -1      3948 1.78234E+01 1.22209E+00 1.24218E-02-4.88818E-01 1.99813E-13 4.83572E-14
 -1      3949 1.85767E+01 1.04985E+00-2.30006E-03-5.89396E-01-1.45977E-13 3.20241E-13
 -1      3950 1.87445E+01 9.95256E-01-4.90076E-03-5.32711E-01-9.43786E-14 3.49372E-13
 -1      3951 1.83400E+01 1.13108E+00 8.93514E-03-4.26368E-01 2.84679E-15 1.80032E-13
 -1      3952 1.89248E+01 9.38147E-01-1.85300E-03-4.96951E-01-5.47444E-14 3.66534E-13
 -1      3953 1.90559E+01 8.76571E-01-3.74964E-03-4.47690E-01-8.96223E-15 2.69398E-13
 -1      3954 1.87391E+01 1.01533E+00 6.55177E-03-3.72111E-01-5.86956E-14 1.59267E-13
 -1      3955 1.91961E+01 8.15152E-01-1.39109E-03-4.15264E-01 7.93823E-14 1.87740E-13
 -1      3956 1.92975E+01 7.52463E-01-2.95003E-03-3.71642E-01 1.23784E-13 1.23026E-14
 -1      3957 1.90496E+01 8.88312E-01 5.00988E-03-3.20483E-01-2.31290E-15 8.85383E-14
 -1      3958 1.94064E+01 6.91885E-01-9.82089E-04-3.42170E-01 8.77968E-14-3.09557E-14
 -1      3959 1.94839E+01 6.32016E-01-2.36915E-03-3.03642E-01 1.26913E-13-1.24953E-13
 -1      3960 1.92912E+01 7.59498E-01 3.87043E-03-2.71083E-01 5.47442E-14-2.18436E-13
 -1      3961 1.95682E+01 5.75478E-01-6.50108E-04-2.77244E-01 9.78127E-14-1.75227E-13
 -1      3962 1.96267E+01 5.20803E-01-1.92138E-03-2.43692E-01 5.81555E-14-1.43930E-13
 -1      3963 1.94782E+01 6.36316E-01 2.99346E-03-2.24616E-01 8.27189E-14-1.69083E-13
 -1      3964 1.96913E+01 4.70083E-01-4.02495E-04-2.20526E-01 6.60648E-14 3.58180E-14
 -1      3965 1.97349E+01 4.21680E-01-1.58840E-03-1.91839E-01 1.01298E-13 1.94227E-13
 -1      3966 1.96219E+01 5.23415E-01 2.29170E-03-1.82119E-01 1.94128E-13-1.55282E-13
 -1      3967 1.97840E+01 3.78016E-01-1.01680E-04-1.72124E-01-1.00993E-16 3.05329E-13
 -1      3968 1.98151E+01 3.36014E-01-1.52113E-03-1.47833E-01-8.49873E-14 2.77101E-13
 -1      3969 1.97310E+01 4.22963E-01 1.58785E-03-1.44650E-01 1.24426E-13 1.73657E-13
 -1      3970 1.98431E+01 3.08183E-01 3.06357E-04-1.25055E-01 1.04800E-14 3.73155E-13
 -1      3971 1.98659E+01 2.72650E-01-9.81993E-04-1.06048E-01 1.15936E-13 3.51252E-13
 -1      3972 1.98501E+01 2.83615E-01 1.01989E-04-6.61114E-02 1.25386E-13 3.09780E-13
 -1      3973 1.98018E+01 3.44869E-01 7.67049E-04-1.04543E-01 1.15153E-13 2.95096E-13
 -1      3974 1.90481E+01 5.50075E-01 4.73249E-03-1.08323E+00 1.54428E-14 1.55320E-13
 -1      3975 1.91147E+01 5.77577E-01-4.49509E-03-9.74830E-01 4.91614E-14 1.74894E-13
 -1      3976 1.90067E+01 5.23887E-01-4.03671E-03 1.16584E+00-1.57168E-13-1.25844E-14
 -1      3977 1.90034E+01 4.39601E-01 6.73689E-03 1.29714E+00-9.63281E-14-1.48609E-14
 -1      3978 1.89062E+01 3.13810E-01-3.99011E-03 1.47064E+00-7.49214E-14 3.99844E-14
 -1      3979 1.89584E+01 1.55463E-01 1.00425E-02 1.62880E+00-5.14838E-14 1.08894E-13
 -1      3980 1.86161E+01 5.09320E-01 3.41355E-05 1.35053E+00-9.14409E-14-1.30529E-13
 -1      3981 1.88954E+01-6.20956E-02-3.46143E-03 1.85296E+00-6.20607E-14 7.21727E-14
 -1      3982 1.90562E+01-3.17333E-01 1.63229E-02 2.03221E+00-2.01384E-14 1.18092E-13
 -1      3983 1.84601E+01 2.07416E-01-2.41706E-03 1.75674E+00-7.22305E-14-4.46696E-14
 -1      3984 1.91459E+01 6.18116E-01-3.75904E-03 9.24275E-01-9.99694E-15-1.13799E-13
 -1      3985 1.91139E+01 5.85210E-01 4.28695E-03 1.03162E+00-6.23204E-14 5.85191E-14
 -1      3986 1.88128E+01 6.62479E-01 1.39046E-03 1.04331E+00-9.10511E-14-2.54635E-14
 -1      3987 1.92926E+01 6.36885E-01-3.33947E-03 7.31616E-01-5.56635E-14-1.71487E-13
 -1      3988 1.92489E+01 6.37224E-01 2.63195E-03 8.20183E-01-8.35424E-14-5.10352E-14
 -1      3989 1.90144E+01 7.15177E-01 1.71945E-03 8.10351E-01-2.25827E-14-1.28367E-14
 -1      3990 1.94324E+01 6.06960E-01-2.86533E-03 5.76702E-01-1.80182E-14-1.22987E-14
 -1      3991 1.93866E+01 6.28067E-01 1.71466E-03 6.49683E-01-6.21972E-14-1.47834E-13
 -1      3992 1.92034E+01 7.04970E-01 2.20445E-03 6.29974E-01-5.33465E-14-5.90853E-14
 -1      3993 1.95568E+01 5.49466E-01-2.44343E-03 4.51725E-01 1.96277E-13-1.56236E-13
 -1      3994 1.95140E+01 5.81851E-01 1.10850E-03 5.11908E-01 2.04092E-13-1.03717E-14
 -1      3995 1.93715E+01 6.54026E-01 2.15605E-03 4.89386E-01 6.90893E-14-2.26275E-14
 -1      3996 1.96629E+01 4.78879E-01-2.05629E-03 3.50735E-01 3.59364E-14 2.36542E-13
 -1      3997 1.96256E+01 5.16070E-01 7.41524E-04 4.00201E-01 6.00151E-14 6.22568E-14
 -1      3998 1.95152E+01 5.81821E-01 1.96396E-03 3.78621E-01 3.81977E-14 1.25573E-13
 -1      3999 1.97502E+01 4.05003E-01-1.70076E-03 2.69392E-01 8.98471E-14 2.16664E-13
 -1      4000 1.97193E+01 4.42661E-01 5.22150E-04 3.09771E-01 1.47266E-13 3.35671E-13
 -1      4001 1.96346E+01 5.00927E-01 1.71296E-03 2.90940E-01 9.07323E-14 4.99395E-13
 -1      4002 1.98200E+01 3.34017E-01-1.41013E-03 2.04261E-01-7.33563E-14 6.04065E-14
 -1      4003 1.97954E+01 3.69496E-01 3.89922E-04 2.36924E-01 2.40365E-14 1.05728E-13
 -1      4004 1.97312E+01 4.19857E-01 1.44379E-03 2.21528E-01 9.06496E-14 3.25242E-13
 -1      4005 1.98741E+01 2.69620E-01-1.18528E-03 1.52694E-01-2.13379E-14 1.24977E-13
 -1      4006 1.98554E+01 3.01562E-01 3.71977E-04 1.78808E-01-9.55914E-14 6.62817E-15
 -1      4007 1.98076E+01 3.43764E-01 1.19224E-03 1.66774E-01-1.01477E-14 1.87949E-13
 -1      4008 1.99315E+01 1.91146E-01 1.87386E-04 8.87254E-02 9.17534E-14-5.28488E-14
 -1      4009 2.02471E+01 9.08089E-01-2.16228E-03 4.14025E-02 8.96901E-15 7.88755E-14
 -1      4010 2.02203E+01 8.02701E-01-2.04860E-03 1.09562E-01-2.77209E-15 9.49167E-14
 -1      4011 2.01978E+01 8.08311E-01 7.91289E-04 9.69210E-02 3.55305E-15 9.57415E-14
 -1      4012 1.49028E+01 5.52043E-01-1.07116E-02-1.83174E+00-6.67461E-14-5.30721E-14
 -1      4013 1.51019E+01 2.02924E-01 3.68649E-02-2.51826E+00-4.64600E-14 6.26790E-14
 -1      4014 1.61127E+01-3.50879E-02-1.35342E-02-2.57415E+00-5.07138E-14 9.86398E-14
 -1      4015 2.02434E+01 1.28753E+00-2.47450E-03 1.04504E-01 5.17115E-14 1.39440E-13
 -1      4016 2.00721E+01 6.23672E-01-7.33529E-04 2.35760E-01 4.21996E-14 9.36926E-14
 -1      4017 2.00028E+01 6.04599E-01-1.26587E-03 2.81378E-01 5.75055E-14 1.21114E-13
 -1      4018 2.00963E+01 6.86981E-01 2.59241E-03 1.65339E-01 2.82472E-14 7.64442E-14
 -1      4019 2.45669E+01 4.45583E+00-1.84319E-01 1.98435E-01 3.24601E-14 7.05779E-13
 -1      4020 1.97640E+01 4.55785E-01 1.90787E-03-7.80800E-01-3.99464E-14 1.65632E-13
 -1      4021 1.98051E+01 4.48431E-01-1.83502E-03-7.14277E-01-4.95236E-14 1.59458E-13
 -1      4022 1.97727E+01 5.01990E-01 9.71288E-04-6.29732E-01-6.86430E-14 1.18296E-13
 -1      4023 1.96122E+01 5.19199E-01 7.56405E-04-7.63667E-01-2.16068E-14 1.36266E-13
 -1      4024 1.59542E+01 9.51317E-01 1.79714E-02-1.48315E+00-1.58814E-13 3.53680E-14
 -1      4025 1.63258E+01 1.04085E+00-2.44212E-02-1.25722E+00-4.85171E-14 1.87326E-13
 -1      4026 1.62818E+01 1.25117E+00 2.36410E-02-7.85476E-01-8.05009E-15 2.49056E-13
 -1      4027 1.52543E+01 1.02921E+00 2.03598E-02-1.27167E+00-7.60720E-15-2.71111E-14
 -1      4028 2.02623E+01 1.15566E+00 2.98722E-03 4.65928E-02 2.64196E-14 1.52170E-13
 -1      4029 1.86849E+01-3.17225E-01 1.65624E-02-2.18846E+00-1.17032E-13 1.45991E-13
 -1      4030 1.85798E+01-5.51858E-02-2.86716E-03-1.96206E+00-1.15241E-13 1.43520E-13
 -1      4031 1.56041E+01 4.41076E-01-2.91706E-02 2.02925E+00-1.15909E-13 2.52007E-13
 -1      4032 1.47060E+01 9.89307E-01 6.34071E-02 1.33027E+00-1.35586E-13 1.68333E-13
 -1      4033 2.02101E+01 1.40115E+00-2.90674E-03-3.99895E-02 8.15564E-16 1.08743E-13
 -1      4034 2.02201E+01 1.35836E+00-4.52634E-03-7.91304E-02-2.12368E-16 1.02569E-13
 -1      4035 2.02428E+01 1.24714E+00 5.61167E-03-1.39266E-02-6.20398E-15 1.16596E-13
 -1      4036 1.98392E+01 2.88152E-01-7.27147E-04-3.29828E-02 1.64366E-13-1.65196E-13
 -1      4037 1.98364E+01 2.91383E-01-3.34970E-05-5.38308E-03 2.06765E-13-3.60398E-13
 -1      4038 1.98184E+01 3.19373E-01 8.14145E-04-4.86280E-02 3.20975E-13-1.78742E-14
 -1      4039 1.89086E+01-7.06848E-01-1.08116E-02 2.39745E+00-2.09967E-14 6.91443E-14
 -1      4040 2.02557E+01 9.93596E-01-1.67604E-03-2.87028E-02 2.24515E-14 1.47473E-13
 -1      4041 1.79910E+01-1.09153E+00 2.77353E-03-3.18359E+00-3.80418E-14-1.08585E-14
 -1      4042 1.90343E+01-1.10499E+00 1.96542E-02-2.73459E+00 3.12033E-14 1.12123E-13
 -1      4043 1.87563E+01-6.94717E-01 2.61352E-03-2.48077E+00-2.75704E-14 1.56632E-13
 -1      4044 1.73961E+01-5.42618E-01 1.91437E-02-2.88996E+00 2.30397E-14-6.25281E-15
 -1      4045 2.02597E+01 1.07916E+00 3.65446E-03-3.67121E-03 2.31920E-15 1.01607E-13
 -1      4046 1.99033E+01 2.21711E-01 1.99289E-04 8.33463E-02 1.32432E-13-1.65797E-13
 -1      4047 1.99126E+01 2.16985E-01-8.85188E-04 1.13431E-01 1.31933E-13 6.77047E-14
 -1      4048 1.98988E+01 2.44770E-01 4.40083E-04 1.34439E-01 1.26969E-13 1.02021E-13
 -1      4049 1.98784E+01 2.51198E-01 9.60232E-05 8.20616E-02 8.91279E-14-3.73297E-13
 -1      4050 1.99449E+01 6.42104E-01 2.53284E-03 2.23309E-01 5.40012E-14 1.04882E-13
 -1      4051 1.50828E+01 1.13705E+00-2.36455E-02-6.19564E-01 2.36759E-14 2.91797E-13
 -1      4052 2.02239E+01 5.88122E-01 6.83109E-04-2.24889E-01-1.99100E-14 1.20148E-13
 -1      4053 2.02343E+01 6.99323E-01 1.16111E-03-1.66592E-01-6.07073E-15 1.06663E-13
 -1      4054 2.01883E+01 5.27132E-01-8.64707E-04-2.98467E-01-4.21216E-14 1.11133E-13
 -1      4055 1.49077E+01 1.07960E+00-1.62156E-02 3.60794E-01 1.04649E-14-5.25665E-14
 -1      4056 1.65893E+01 2.26193E-01 4.44083E-02 2.35777E+00-1.57033E-13 1.75113E-13
 -1      4057 1.62403E+01 5.91487E-01-1.80122E-02 1.74482E+00-1.26399E-13 1.92071E-13
 -1      4058 1.75625E+01-1.59251E-01 4.44548E-03 2.41637E+00-1.51002E-13-1.37445E-13
 -1      4059 1.98622E+01 2.80074E-01 7.97936E-04 1.25864E-01 3.35788E-14 9.29299E-14
 -1      4060 2.02439E+01 8.27554E-01 5.65313E-05-8.26326E-02 9.20778E-15 1.47315E-13
 -1      4061 2.02392E+01 1.02382E+00-6.48294E-04-2.58770E-02 1.69582E-14 1.79918E-13
 -1      4062 1.82895E+01-3.36692E-01-6.25174E-04 2.36771E+00-1.06517E-13 1.90439E-14
 -1      4063 1.88531E+01 4.17809E-01 7.26810E-03-1.35686E+00-1.89954E-14 1.42794E-13
 -1      4064 1.88934E+01 4.94185E-01-5.23146E-03-1.21842E+00-1.14593E-14 1.21550E-13
 -1      4065 1.87380E+01 6.34205E-01 2.30650E-03-1.05900E+00 2.41021E-14 7.60651E-14
 -1      4066 1.98382E+01 2.86929E-01-7.56512E-04 2.80368E-02 1.85284E-13-4.07150E-13
 -1      4067 1.98473E+01 2.83019E-01 5.69694E-04 5.55145E-02 2.40276E-13-6.89906E-13
 -1      4068 1.98115E+01 3.20727E-01 3.58997E-04 2.04110E-02 2.72548E-13-3.53328E-13
 -1      4069 2.02248E+01 8.93244E-01 4.45334E-03-4.87879E-02-1.74285E-17 1.74405E-13
 -1      4070 2.02284E+01 1.04453E+00-2.96409E-03-1.01043E-02 6.25197E-15 1.43704E-13
 -1      4071 2.02224E+01 1.06364E+00-2.87308E-03-1.04548E-02-5.86955E-15 1.21073E-13
 -1      4072 2.02372E+01 1.05432E+00-2.68871E-04 1.09125E-02-1.89152E-15 1.18166E-13
 -1      4073 1.48589E+01 8.90326E-01 3.44382E-02-1.26062E+00-5.09972E-14-9.15743E-14
 -1      4074 1.56605E+01 6.94124E-01 3.45508E-03-1.53574E+00-4.39245E-14-3.77623E-14
 -1      4075 1.49547E+01 1.01581E+00-4.80537E-03-5.75824E-01-4.07738E-14-8.78100E-14
 -1      4076 1.81523E+01 2.18202E-01-6.92487E-03-1.80674E+00-5.20174E-14 2.36599E-14
 -1      4077 1.87127E+01 1.49547E-01 1.14782E-02-1.71714E+00-5.72231E-14 1.79152E-13
 -1      4078 1.86990E+01 3.01758E-01-5.03116E-03-1.53881E+00-1.06485E-14 1.60361E-13
 -1      4079 1.92601E+01 5.94239E-01 3.16718E-03-8.74242E-01 6.30231E-14 1.31139E-13
 -1      4080 1.93356E+01 5.92252E-01-4.19766E-03-7.87858E-01 3.84421E-14 1.04040E-13
 -1      4081 1.90260E+01 6.72988E-01 2.60107E-03-8.29417E-01 1.93146E-14 9.67415E-14
 -1      4082 2.01025E+01 4.56782E-01-4.91854E-05-4.20196E-01-7.64548E-14 1.30193E-13
 -1      4083 2.01426E+01 4.84559E-01-1.76834E-04-3.56587E-01-6.69642E-14 1.19801E-13
 -1      4084 2.01567E+01 5.66863E-01 1.29392E-03-2.91173E-01-6.04898E-14 8.55941E-14
 -1      4085 2.00497E+01 5.03241E-01 9.65522E-04-4.03037E-01-7.11626E-14 1.29018E-13
 -1      4086 1.49897E+01 1.07789E+00 1.59932E-02 6.09040E-01-6.76369E-14 2.54796E-13
 -1      4087 1.98413E+01 5.32252E-01 4.09512E-04-4.69607E-01-3.35358E-14 1.11641E-13
 -1      4088 1.99101E+01 5.27325E-01-1.62956E-03-4.15454E-01-2.91765E-14 1.28687E-13
 -1      4089 1.80714E+01-3.34984E-01-1.77824E-02-2.40674E+00-2.24256E-14-3.68423E-14
 -1      4090 1.96651E+01 5.57413E-01 1.07409E-03-5.78863E-01-7.63828E-14 6.63071E-14
 -1      4091 1.97408E+01 5.41902E-01-2.10749E-03-5.19387E-01-6.40158E-14 7.87195E-14
 -1      4092 1.97432E+01 5.88210E-01 2.33179E-03-4.19937E-01-4.26776E-14 6.52421E-14
 -1      4093 1.95374E+01 7.08760E-01-1.91096E-03 1.83683E-01 3.66005E-15 5.58531E-14
 -1      4094 1.93974E+01 7.49672E-01-2.30053E-03 1.98124E-01-4.98736E-14 1.36184E-14
 -1      4095 1.92376E+01 7.97000E-01-2.24782E-03 1.94934E-01-6.11900E-14 4.22053E-14
 -1      4096 1.90642E+01 8.48019E-01-3.38934E-03 2.05315E-01-5.25937E-14 1.29923E-14
 -1      4097 1.93123E+01 7.85938E-01 4.68993E-03 5.88158E-02-4.14600E-14 2.65916E-14
 -1      4098 1.88707E+01 9.02547E-01-2.67565E-03 1.94671E-01-5.18772E-15 4.73223E-14
 -1      4099 1.86540E+01 9.55107E-01-5.00740E-03 2.00482E-01 7.40494E-15 7.51097E-14
 -1      4100 1.89641E+01 8.83509E-01 6.03878E-03 3.28762E-02-1.45335E-14 9.14028E-14
 -1      4101 1.84161E+01 1.00717E+00-4.05146E-03 1.82008E-01 3.63658E-15 6.77577E-14
 -1      4102 1.81447E+01 1.05283E+00-7.05991E-03 1.82868E-01 1.02038E-14 4.54905E-14
 -1      4103 1.85351E+01 9.88715E-01 8.70936E-03-1.70928E-02 3.05620E-15 8.78271E-14
 -1      4104 1.78447E+01 1.09450E+00-6.05475E-03 1.51687E-01-1.20607E-14 3.57507E-14
 -1      4105 1.74979E+01 1.12393E+00-9.53519E-03 1.49341E-01-1.71137E-14 4.97060E-14
 -1      4106 1.80082E+01 1.08032E+00 1.32643E-02-9.93518E-02-1.37239E-14 3.33975E-14
 -1      4107 1.71091E+01 1.14186E+00-9.57078E-03 1.05911E-01 1.21546E-14-4.59967E-15
 -1      4108 1.66702E+01 1.15441E+00-5.73264E-03 9.94037E-02 5.35880E-14-3.61250E-14
 -1      4109 1.73268E+01 1.14067E+00 1.59513E-02-2.23679E-01-3.75726E-14-3.97495E-14
 -1      4110 1.61287E+01 1.14475E+00-1.79756E-02 1.54713E-01 5.18851E-14 1.12462E-14
 -1      4111 1.56578E+01 1.13241E+00 2.59779E-04 2.35246E-01 3.89437E-14 1.17870E-14
 -1      4112 1.52292E+01 1.14198E+00 2.62892E-02-1.73044E-01-1.05384E-14-6.03549E-14
 -1      4113 1.64508E+01 1.15829E+00 1.98820E-02-2.81867E-01 4.50740E-14-8.43852E-14
 -1      4114 2.02120E+01 7.30482E-01-2.26443E-03-1.52002E-01-1.06780E-14 1.36194E-13
 -1      4115 1.76934E+01 1.43027E-01-1.96853E-02 2.02230E+00-9.29663E-14-5.22458E-14
 -1      4116 1.83332E+01 7.03722E-01-9.28493E-03 1.13790E+00-7.55477E-14-2.28346E-13
 -1      4117 1.82530E+01 6.27808E-01 6.07243E-03 1.30369E+00-1.43993E-13-2.06641E-13
 -1      4118 1.75597E+01 1.21756E+00-7.86932E-03-2.28772E-01 2.39018E-13-2.35895E-14
 -1      4119 1.78634E+01 1.18506E+00-6.44986E-03-2.14451E-01 1.78953E-13-3.05737E-14
 -1      4120 1.81345E+01 1.14456E+00-5.29612E-03-2.29434E-01 4.90852E-14-2.32067E-14
 -1      4121 1.83665E+01 1.09448E+00-4.47466E-03-2.14549E-01 9.93357E-15 8.18272E-14
 -1      4122 1.79814E+01 1.18229E+00 1.15871E-02 1.04480E-02 1.31757E-13-1.87550E-13
 -1      4123 1.85766E+01 1.04070E+00-3.76354E-03-2.22331E-01-1.05034E-13 1.74781E-13
 -1      4124 1.87557E+01 9.82065E-01-3.19668E-03-2.05087E-01-9.28052E-14 1.77358E-13
 -1      4125 1.84461E+01 1.07861E+00 5.30572E-03-3.48429E-02-3.64400E-16-4.32350E-14
 -1      4126 1.89200E+01 9.20339E-01-2.83584E-03-2.06041E-01-1.13694E-13 1.16425E-13
 -1      4127 1.90593E+01 8.57616E-01-2.49897E-03-1.87655E-01-1.77178E-15 6.01917E-14
 -1      4128 1.88124E+01 9.64448E-01 4.20447E-03-6.26105E-02-1.09182E-13 3.11259E-14
 -1      4129 1.91882E+01 7.94517E-01-2.09522E-03-1.84076E-01 6.50592E-14-1.44147E-13
 -1      4130 1.92962E+01 7.32273E-01-1.98460E-03-1.65209E-01 4.43388E-14-1.44456E-13
 -1      4131 1.90998E+01 8.40682E-01 3.27007E-03-7.42783E-02-6.16169E-14-6.21607E-14
 -1      4132 1.93972E+01 6.71393E-01-1.53295E-03-1.58936E-01 1.70475E-14-2.18198E-13
 -1      4133 1.94803E+01 6.12606E-01-1.63743E-03-1.40503E-01 2.43018E-14-1.96843E-13
 -1      4134 1.93254E+01 7.16755E-01 2.53771E-03-7.52328E-02 8.51305E-15-1.35095E-13
 -1      4135 1.95592E+01 5.56627E-01-1.01454E-03-1.33240E-01 1.42609E-13-2.89405E-13
 -1      4136 1.96224E+01 5.03213E-01-1.35718E-03-1.15963E-01 2.94096E-13-2.46687E-13
 -1      4137 1.95015E+01 5.97750E-01 1.57472E-03-6.97584E-02 3.05921E-14-1.80177E-13
 -1      4138 1.96834E+01 4.53419E-01-6.06533E-04-1.08332E-01 2.72903E-13-3.28354E-13
 -1      4139 1.97302E+01 4.06039E-01-1.34728E-03-9.33049E-02 1.35785E-13-2.63641E-13
 -1      4140 1.96379E+01 4.90752E-01 1.30416E-03-6.31396E-02 1.74057E-13-4.69894E-13
 -1      4141 1.97635E+01 3.78604E-01 3.87826E-04-7.98929E-02 3.09012E-13-2.38292E-13
 -1      4142 1.97891E+01 3.44094E-01-1.04369E-03-5.87505E-02 4.51612E-13-7.86024E-14
 -1      4143 1.97831E+01 3.51696E-01 6.05281E-04-2.32091E-02 4.59264E-13-4.40047E-13
 -1      4144 1.97258E+01 4.10793E-01 1.00001E-03-4.45538E-02 4.70349E-13-4.78698E-13
 -1      4145 1.88924E+01 7.96015E-01-4.74225E-03 6.53368E-01-5.96782E-14-1.70047E-13
 -1      4146 1.87987E+01 8.01439E-01 1.90404E-03 7.50867E-01-4.69541E-14-1.67235E-13
 -1      4147 1.86302E+01 7.87967E-01-6.13967E-03 8.57190E-01-1.32806E-14-1.81392E-13
 -1      4148 1.85354E+01 7.65060E-01 4.69170E-03 9.84133E-01-7.01328E-14-1.69643E-13
 -1      4149 1.81940E+01 8.71397E-01 6.05048E-03 9.29265E-01-8.47069E-14-2.90304E-13
 -1      4150 1.98482E+01 2.82322E-01-6.11937E-04 8.39664E-02 2.47549E-13-2.80433E-13
 -1      4151 1.80171E+01 5.08125E-01-1.23246E-02 1.51417E+00-1.43668E-13-1.38581E-13
 -1      4152 1.79709E+01 3.56164E-01 8.74695E-03 1.74011E+00-3.50902E-14-7.51181E-14
 -1      4153 1.73237E+01 5.14357E-01 1.25588E-02 1.74871E+00-7.55174E-14-3.46225E-14
 -1      4154 1.77854E+01 7.64429E-01 9.71489E-03 1.26783E+00-1.21483E-13-2.53767E-13
 -1      4155 1.91223E+01 7.51309E-01-3.88722E-03 4.98570E-01-2.92963E-14-1.11595E-13
 -1      4156 1.90362E+01 7.79722E-01 1.26236E-03 5.72602E-01-1.37715E-15-1.01749E-13
 -1      4157 1.88456E+01 8.64832E-01 4.25561E-03 5.11196E-01-3.35252E-14-2.68022E-13
 -1      4158 1.93169E+01 6.79260E-01-3.09764E-03 3.80716E-01 1.66180E-14-1.80588E-14
 -1      4159 1.92413E+01 7.19225E-01 6.39079E-04 4.38488E-01-4.97339E-14-7.24182E-14
 -1      4160 1.90967E+01 7.94585E-01 3.44322E-03 3.81705E-01-6.27795E-14-1.37239E-13
 -1      4161 1.94784E+01 5.93358E-01-2.48468E-03 2.89900E-01-9.69849E-15 1.32074E-13
 -1      4162 1.94144E+01 6.38329E-01 2.76979E-04 3.35381E-01-1.89713E-14 1.81512E-14
 -1      4163 1.93043E+01 7.05272E-01 2.90495E-03 2.85381E-01-1.24033E-14-1.84513E-14
 -1      4164 1.96098E+01 5.03985E-01-1.98133E-03 2.19562E-01 5.43006E-14 3.62460E-13
 -1      4165 1.95572E+01 5.49390E-01 8.12388E-05 2.55506E-01 5.82352E-14 2.54512E-13
 -1      4166 1.94735E+01 6.07991E-01 2.41830E-03 2.13235E-01-1.18023E-13 9.49471E-14
 -1      4167 1.97147E+01 4.18089E-01-1.48949E-03 1.64871E-01 8.35880E-14 2.59735E-13
 -1      4168 1.96723E+01 4.60906E-01-1.10601E-05 1.93374E-01 1.04658E-13 2.85722E-13
 -1      4169 1.96089E+01 5.11322E-01 1.92981E-03 1.58983E-01 1.42672E-13 2.81268E-13
 -1      4170 1.97958E+01 3.39755E-01-1.22329E-03 1.22504E-01 3.88400E-14 2.82229E-14
 -1      4171 1.97631E+01 3.78245E-01-5.63928E-05 1.45005E-01 1.21146E-13 1.88226E-13
 -1      4172 1.97155E+01 4.20082E-01 1.20958E-03 1.18005E-01 1.84671E-13 4.84699E-14
 -1      4173 1.98246E+01 3.12574E-01 2.35084E-05 9.93739E-02 1.78846E-13-2.60077E-13
 -1      4174 1.99758E+01 6.51400E-01-9.34096E-04 1.32503E-01 6.69679E-14 9.79456E-14
 -1      4175 1.98855E+01 6.45008E-01-1.88285E-03 1.56102E-01 4.23555E-14 8.29414E-14
 -1      4176 2.01231E+01 7.17062E-01 5.49290E-04 9.37255E-02 2.42077E-14 9.45852E-14
 -1      4177 2.00543E+01 6.73542E-01-1.75155E-03 1.23848E-01 4.94317E-14 8.35387E-14
 -1      4178 2.00149E+01 6.85689E-01 2.91954E-03 6.03295E-02 6.77367E-14 7.56630E-14
 -1      4179 1.94698E+01 5.86985E-01 2.18858E-03-7.10371E-01-1.25684E-14 6.24827E-14
 -1      4180 1.95472E+01 5.71490E-01-3.17158E-03-6.40060E-01-7.13336E-14 4.36075E-14
 -1      4181 1.92904E+01 6.60752E-01 2.72143E-03-6.58405E-01-2.96457E-14 2.79765E-14
 -1      4182 2.02245E+01 1.07186E+00-3.59428E-03 3.76518E-03-1.26857E-15 1.02990E-13
 -1      4183 2.02283E+01 1.05987E+00-2.51519E-03 1.26186E-03-1.05085E-14 1.11928E-13
 -1      4184 2.02315E+01 9.21854E-01 4.65206E-03 3.59230E-02-1.18558E-15 1.05627E-13
 -1      4185 2.02290E+01 9.24697E-01 6.76261E-03-1.76490E-03 2.08676E-15 1.15385E-13
 -1      4186 1.67907E+01 1.24675E+00-1.18028E-02-2.24790E-01 6.22447E-14 1.81738E-13
 -1      4187 1.71998E+01 1.23759E+00-9.93012E-03-2.03890E-01 1.50261E-13 1.39181E-13
 -1      4188 1.73732E+01 1.25286E+00 1.79443E-02 8.80076E-02 1.04282E-13 1.01587E-13
 -1      4189 1.97819E+01 6.54896E-01-1.26035E-03 1.62043E-01 2.83725E-14 1.08323E-13
 -1      4190 1.96677E+01 6.76630E-01-1.97034E-03 1.81046E-01 4.01043E-14 9.70564E-14
 -1      4191 1.98308E+01 6.70690E-01 3.20553E-03 6.97958E-02 4.89299E-14 6.39449E-14
 -1      4192 1.70144E+01-1.38311E-01 1.22529E-02-2.49609E+00 9.48980E-15 1.72266E-14
 -1      4193 1.69991E+01 2.07989E-01 1.65027E-03-2.12052E+00-4.26583E-14-1.08367E-14
 -1      4194 1.56767E+01 1.02756E+00-2.48557E-02 9.02640E-01-9.23558E-14 2.02641E-13
 -1      4195 1.52647E+01 1.24377E+00 2.71784E-02 1.22174E-01-3.20638E-14 3.07427E-13
 -1      4196 1.58202E+01 1.21419E+00 8.27060E-03-2.38217E-01-7.53382E-14 2.75465E-13
 -1      4197 1.99234E+01 5.77475E-01 1.71950E-03-3.29159E-01-5.81890E-14 6.68250E-14
 -1      4198 1.99942E+01 5.33531E-01 7.31845E-05-3.71643E-01-6.18395E-14 1.09141E-13
 -1      4199 2.00527E+01 5.49081E-01-1.34655E-03-3.17455E-01-9.06073E-14 9.42906E-14
 -1      4200 2.01853E+01 8.14085E-01-2.96094E-03 7.25749E-02 2.03464E-15 9.57741E-14
 -1      4201 1.65141E+01 5.27970E-01 5.61267E-03-1.80791E+00-1.30599E-14-1.86355E-14
 -1      4202 1.75907E+01 3.62334E-01 1.34968E-02-1.78249E+00-6.19691E-14 1.62398E-14
 -1      4203 1.76926E+01 5.10979E-01-6.51443E-03-1.53668E+00-1.57676E-14 2.77336E-14
 -1      4204 1.63063E+01 7.76941E-01-1.24270E-02-1.29066E+00 1.70723E-14-6.27970E-14
 -1      4205 1.62591E+01 1.22676E+00-1.34031E-02-1.23616E-01 2.15908E-14 2.45614E-13
 -1      4206 2.01718E+01 6.43061E-01-1.01880E-04-2.02016E-01-3.69958E-14 1.22934E-13
 -1      4207 2.01881E+01 7.59554E-01 6.55421E-04-1.24717E-01-3.10070E-15 1.81484E-13
 -1      4208 1.95974E+01 7.10938E-01 3.98529E-03 6.94615E-02-1.31434E-14-8.40872E-15
 -1      4209 2.01748E+01 7.81276E-01-2.64198E-03-9.11676E-02-1.29432E-14 1.60444E-13
 -1      4210 1.84417E+01 5.01718E-01 1.13573E-03-1.37270E+00-2.46639E-14 4.51632E-14
 -1      4211 1.85424E+01 8.85458E-01-9.83310E-05 6.93344E-01-3.48048E-14-2.82425E-13
 -1      4212 1.84554E+01 7.35620E-01 4.26835E-03-9.58333E-01-8.83245E-15 4.51645E-14
 -1      4213 1.85921E+01 7.49288E-01-7.95741E-03-8.33799E-01 2.30409E-14 5.71692E-14
 -1      4214 1.68015E+01 6.53688E-01-7.39189E-03 1.57661E+00-6.95496E-14 1.79673E-13
 -1      4215 1.61947E+01 9.70792E-01 3.22725E-02 1.22094E+00-2.75131E-14 2.38114E-13
 -1      4216 1.62673E+01 1.06898E+00-1.47687E-02 7.99523E-01-3.00439E-14 2.07195E-13
 -1      4217 1.70512E+01 7.91105E-01-2.10343E-02 1.30534E+00-4.24630E-14 1.54382E-13
 -1      4218 1.97887E+01 3.46373E-01 4.97551E-04 7.71044E-02 2.88634E-13-4.04824E-13
 -1      4219 2.01573E+01 8.03602E-01-9.82538E-04 3.54972E-02 7.91354E-15 9.75134E-14
 -1      4220 1.95306E+01 6.25051E-01 2.90555E-03-5.26933E-01-4.75913E-14 3.32769E-14
 -1      4221 1.56680E+01 1.03739E+00-1.29474E-02-6.20280E-01-3.87494E-15-3.71506E-14
 -1      4222 1.88104E+01 7.56952E-01 2.55938E-03-7.29144E-01 1.47778E-14 3.42760E-14
 -1      4223 1.89398E+01 7.43737E-01-6.05023E-03-6.37573E-01-1.64521E-14-5.23258E-15
 -1      4224 1.85567E+01 8.58081E-01 8.15784E-03-6.32897E-01-2.22075E-14-2.40483E-14
 -1      4225 1.65208E+01 1.26419E+00 2.43846E-02 2.76276E-01-6.05418E-16 2.15184E-13
 -1      4226 1.98531E+01 6.01902E-01-2.43135E-04-2.70772E-01-3.38604E-14 3.78413E-14
 -1      4227 1.99342E+01 6.02548E-01-2.39513E-03-2.30371E-01-6.36987E-14 3.17347E-14
 -1      4228 1.96442E+01 6.26589E-01-1.16690E-03-3.48985E-01-8.90540E-14 5.62959E-14
 -1      4229 1.97435E+01 6.09633E-01-2.65743E-03-3.01846E-01-6.28953E-14 3.58258E-14
 -1      4230 1.97740E+01 6.46159E-01 3.22801E-03-2.00922E-01-4.31457E-14 2.64401E-14
 -1      4231 1.93932E+01 7.37871E-01-2.38718E-03-6.98171E-02-1.62183E-14-4.14643E-14
 -1      4232 1.92326E+01 7.78729E-01-3.98426E-03-8.23868E-02-5.55561E-15 7.35683E-15
 -1      4233 1.88118E+01 8.93076E-01-5.02946E-03 3.42377E-01-1.20547E-13-1.67032E-13
 -1      4234 1.86838E+01 9.34216E-01 1.41349E-03 4.08605E-01 9.85312E-15-1.62636E-13
 -1      4235 1.96825E+01 6.65805E-01-1.36956E-03-7.86856E-02-2.15692E-14 4.65193E-15
 -1      4236 1.95529E+01 6.92460E-01-2.46768E-03-8.70275E-02-5.24570E-14-3.17867E-14
 -1      4237 1.90717E+01 8.24097E-01-1.14932E-03-1.16789E-01 1.16075E-15 3.13700E-14
 -1      4238 1.88684E+01 8.66763E-01-5.83633E-03-1.41427E-01 3.06887E-15 8.28731E-14
 -1      4239 1.91912E+01 7.85911E-01 4.37491E-03-2.50472E-01 1.58977E-15-1.22881E-14
 -1      4240 1.87292E+01 8.87873E-01-9.19268E-04-2.61897E-01-9.65309E-15 3.86877E-14
 -1      4241 1.84821E+01 9.21367E-01-8.24947E-03-3.07549E-01-1.39000E-14 7.36271E-15
 -1      4242 1.82699E+01 9.49115E-01-3.11444E-03-3.90432E-01-1.50113E-14-2.68264E-14
 -1      4243 1.79614E+01 9.66381E-01-1.25670E-02-4.57667E-01-2.52001E-14-6.15849E-14
 -1      4244 1.97602E+01 3.72978E-01 1.94237E-04 7.54300E-03 5.54416E-13-2.94557E-13
 -1      4245 1.97853E+01 3.42911E-01-9.69238E-04 1.57643E-02 4.23003E-13-3.31189E-13
 -1      4246 1.81945E+01 6.90465E-01-1.06012E-02-1.10563E+00-1.33054E-14 3.21487E-14
 -1      4247 1.81115E+01 8.56361E-01 1.13258E-02-8.64701E-01-1.57665E-15-2.13324E-14
 -1      4248 1.80638E+01 6.29059E-01 5.76561E-03-1.27730E+00 3.98293E-15 2.23642E-14
 -1      4249 1.84405E+01 1.04262E+00-5.25937E-03 1.17597E-01 7.25229E-14-1.18946E-13
 -1      4250 1.86534E+01 9.95201E-01 6.47370E-05 9.08827E-02-4.59525E-14-1.14920E-13
 -1      4251 1.88033E+01 9.40621E-01-2.93784E-03 5.93412E-02-9.09083E-14-9.97165E-14
 -1      4252 1.89678E+01 8.83715E-01-3.85966E-04 4.29944E-02-2.77750E-14-1.27262E-13
 -1      4253 1.88379E+01 9.24108E-01 3.95143E-03 2.00941E-01-1.32581E-13-2.36338E-13
 -1      4254 1.90884E+01 8.25343E-01-2.29279E-03 2.23730E-02-6.97851E-14-8.86782E-14
 -1      4255 1.92177E+01 7.65990E-01-3.11013E-04 1.39992E-02 1.53179E-14-3.05046E-14
 -1      4256 1.91099E+01 8.16902E-01 3.33450E-03 1.34461E-01-3.38620E-14-1.78918E-13
 -1      4257 1.93139E+01 7.07121E-01-1.80154E-03 9.83437E-04-4.31970E-14-7.72776E-14
 -1      4258 1.94153E+01 6.49189E-01-2.10904E-04-2.15328E-03-7.17543E-14-1.64220E-13
 -1      4259 1.93269E+01 7.03907E-01 2.70263E-03 8.95047E-02-5.19351E-14-1.27334E-14
 -1      4260 1.94913E+01 5.94205E-01-1.02511E-03-1.00381E-02-3.62682E-14-2.27196E-13
 -1      4261 1.95696E+01 5.39216E-01-2.48967E-04-1.04628E-02-7.95256E-14-2.44546E-13
 -1      4262 1.94985E+01 5.93080E-01 2.09446E-03 5.91418E-02-6.94269E-14-2.41118E-13
 -1      4263 1.96294E+01 4.88661E-01-5.82132E-04-9.35195E-03 1.01534E-13-4.16466E-13
 -1      4264 1.96854E+01 4.44089E-01 2.53590E-04-5.32952E-03 2.90989E-13-2.76465E-13
 -1      4265 1.97153E+01 4.11485E-01-9.37393E-04 5.72083E-03 4.73259E-13-2.09315E-13
 -1      4266 1.97268E+01 4.05348E-01 7.39303E-04 4.67633E-02 4.83870E-13-1.87594E-13
 -1      4267 1.96282E+01 4.92574E-01 1.16803E-03 4.61073E-02 1.40157E-13-1.25804E-13
 -1      4268 1.67903E+01 1.11876E+00-3.14868E-03 6.00699E-01 1.59265E-14 1.32762E-13
 -1      4269 1.78569E+01 1.12521E+00-1.01164E-02 2.56348E-01 1.13823E-13-2.12397E-13
 -1      4270 1.81415E+01 1.10022E+00-1.16733E-03 2.07531E-01 1.34105E-13-1.71123E-13
 -1      4271 1.82130E+01 9.76028E-01-3.71462E-03 6.23936E-01-3.07667E-14-6.32153E-14
 -1      4272 1.80110E+01 9.61763E-01-1.42794E-03 7.51459E-01-4.19357E-14-6.06908E-14
 -1      4273 1.97922E+01 3.39503E-01-6.57557E-05 5.04103E-02 4.79644E-13-5.33565E-13
 -1      4274 1.94746E+01 5.97838E-01-2.05498E-03 1.28364E-01-9.46285E-14 1.61384E-14
 -1      4275 1.93995E+01 6.50510E-01-4.07324E-04 1.56091E-01-1.98405E-13-4.57936E-14
 -1      4276 1.96140E+01 4.97710E-01-1.20963E-03 9.26462E-02 1.24304E-13 3.81132E-14
 -1      4277 1.95532E+01 5.47103E-01-4.31856E-04 1.13061E-01 7.24042E-14 1.71116E-14
 -1      4278 1.97191E+01 4.09464E-01-6.63352E-04 7.52481E-02 3.30399E-13-9.82102E-14
 -1      4279 1.96705E+01 4.53783E-01-4.63826E-04 9.13043E-02 2.94232E-13 1.47471E-13
 -1      4280 2.01541E+01 7.96913E-01-1.41635E-03 5.80152E-03 1.46958E-14 1.19254E-13
 -1      4281 2.00487E+01 6.89664E-01-2.04446E-03-9.98364E-03 4.30794E-14 9.53486E-14
 -1      4282 1.99677E+01 6.60728E-01-2.81046E-03-5.54148E-03 6.79761E-14 7.13071E-14
 -1      4283 1.83904E+01 9.75009E-01-2.96766E-03 5.23009E-01 8.33879E-14-1.72112E-13
 -1      4284 1.93694E+01 6.94621E-01 1.01016E-05-3.99344E-01-2.64849E-14-1.20374E-14
 -1      4285 1.94858E+01 6.67059E-01-2.50623E-03-3.45776E-01-5.22552E-14 7.24220E-15
 -1      4286 1.90782E+01 7.52869E-01 1.73460E-03-5.15544E-01-2.84094E-14 3.23038E-16
 -1      4287 1.92040E+01 7.24267E-01-4.18743E-03-4.48325E-01-2.76322E-14-4.03219E-14
 -1      4288 1.97639E+01 3.70292E-01 1.65571E-04 7.29796E-02 4.42924E-13-2.14744E-13
 -1      4289 1.98963E+01 6.48950E-01-3.22585E-04-5.22534E-02 5.38201E-14 4.32932E-14
 -1      4290 1.97892E+01 6.50899E-01-2.63409E-03-5.48491E-02 1.66727E-14 4.09120E-14
 -1      4291 1.92999E+01 7.02338E-01-2.66862E-03 1.77948E-01-6.09362E-14-3.85038E-15
 -1      4292 1.92070E+01 7.55059E-01-3.59865E-04 2.15050E-01 2.80725E-14-1.11786E-13
 -1      4293 1.63524E+01 1.04595E+00-6.59890E-03-5.99753E-01 6.67856E-14-3.17937E-14
 -1      4294 1.62632E+01 9.66246E-01 1.41637E-02-9.61606E-01 4.97089E-14-7.67500E-14
 -1      4295 1.69718E+01 8.08962E-01 1.36866E-03-1.19126E+00 6.42836E-14-3.57693E-14
 -1      4296 1.68392E+01 1.03452E+00-1.40265E-02-6.03787E-01 3.87457E-14-5.13738E-14
 -1      4297 1.90817E+01 8.04539E-01-3.46042E-03 2.46642E-01-2.33826E-14-8.78192E-14
 -1      4298 1.89689E+01 8.52898E-01-1.40055E-04 2.96729E-01-1.19557E-13-1.91520E-13
 -1      4299 2.01227E+01 5.93071E-01-8.77893E-04-2.59816E-01-6.90619E-14 1.27194E-13
 -1      4300 2.01108E+01 7.08394E-01 2.11138E-03-6.46686E-02 1.01989E-14 1.33263E-13
 -1      4301 1.99488E+01 6.54061E-01 2.00381E-03-1.21426E-01 2.11021E-14 5.69076E-14
 -1      4302 2.00117E+01 6.28089E-01 9.24788E-04-1.80648E-01-3.29121E-14 8.24626E-14
 -1      4303 2.00728E+01 6.26350E-01 1.22234E-03-2.30286E-01-6.76461E-14 1.13902E-13
 -1      4304 1.71833E+01 1.14149E+00-1.49042E-02 4.37496E-01-3.33858E-14 3.30460E-14
 -1      4305 1.75519E+01 1.14259E+00-4.21854E-03 3.62778E-01-7.84431E-15-5.21916E-14
 -1      4306 1.78088E+01 1.09030E+00 1.30348E-02 5.64652E-01-2.94533E-14-1.04007E-13
 -1      4307 1.71162E+01 1.04860E+00 1.82892E-02 8.88374E-01 6.45534E-15 1.41949E-13
 -1      4308 1.77140E+01 9.72067E-01-3.39512E-03-5.78607E-01-2.81367E-14-2.80265E-14
 -1      4309 1.84022E+01 1.02624E+00 4.22861E-03 3.40590E-01 8.06806E-14-1.28743E-13
 -1      4310 1.95155E+01 7.00685E-01 4.33119E-03-2.21325E-01-4.91901E-14-1.39335E-14
 -1      4311 1.88866E+01 8.36172E-01 4.81178E-03-4.13838E-01-1.18750E-14-4.10162E-14
 -1      4312 1.73395E+01 9.62989E-01-1.10871E-02-6.80079E-01-2.03153E-14-1.96743E-14
 -1      4313 1.74942E+01 7.40553E-01 4.06318E-03-1.24780E+00 2.69429E-14-1.21563E-14
 -1      4314 1.76911E+01 9.33205E-01-1.41830E-02 9.00401E-01-8.08317E-14-1.50501E-14
 -1      4315 1.74778E+01 8.81956E-01-1.40498E-03 1.07850E+00-6.65116E-14 5.07070E-14
 -1      4316 2.00800E+01 6.74188E-01 4.25493E-05-1.31825E-01 4.50890E-15 1.42356E-13
 -1      4317 1.73746E+01 8.93104E-01 4.15527E-03-9.52505E-01 2.78237E-14 2.05760E-15
 -3
    1PSTEP                         3           1           1          
  100CL  101 1.000000000        4317                     0    1           1
 -4  TOSTRAIN    6    1
 -5  EXX         1    4    1    1
 -5  EYY         1    4    2    2
 -5  EZZ         1    4    3    3
 -5  EXY         1    4    1    2
 -5  EYZ         1    4    2    3
 -5  EZX         1    4    3    1
 -1         1 4.59641E-06-1.02491E-05-4.13383E-06-5.10344E-06-3.24371E-18-1.68920E-18
 -1         2 3.64929E-05-1.10815E-04 1.99559E-05-4.67029E-07 1.93740E-18 1.13039E-18
 -1         3 9.52346E-05-2.85737E-05-2.85611E-05 9.78734E-10-3.25926E-18-3.65065E-18
 -1         4 9.52338E-05-2.85742E-05-2.85611E-05-1.56938E-09-5.49009E-20-4.75605E-19
 -1         5 1.42755E-04-2.13793E-05-4.23810E-05 3.83869E-05-4.34634E-20 2.37381E-18
 -1         6 1.44794E-04 2.56581E-10-4.40306E-05-5.33081E-05 1.18585E-20 5.42525E-19
 -1         7 9.04250E-05-5.15546E-07-3.89784E-05-2.91170E-05-2.15993E-20 5.46601E-19
 -1         8 8.50792E-05 8.14501E-08-3.63114E-05-2.01241E-05-1.11173E-21 4.72244E-19
 -1         9 8.28569E-05 7.17141E-08-3.53627E-05-1.54687E-05 3.67930E-21 3.45093E-19
 -1        10 8.18592E-05 3.64250E-08-3.49158E-05-1.18959E-05 1.35459E-20 2.93287E-19
 -1        11 8.13598E-05 1.71314E-08-3.46982E-05-8.84065E-06 5.40645E-21 2.77170E-19
 -1        12 8.10935E-05 7.82695E-09-3.45873E-05-6.14037E-06 8.55636E-21 3.26367E-19
 -1        13 8.09477E-05 3.95394E-09-3.45297E-05-3.59042E-06 1.23730E-20 4.25492E-19
 -1        14 8.08842E-05 2.48100E-09-3.45053E-05-1.15024E-06 2.79614E-20 4.79816E-19
 -1        15 8.08853E-05 2.48724E-09-3.45056E-05 1.25611E-06 2.50315E-20 5.47426E-19
 -1        16 8.09514E-05 3.94215E-09-3.45309E-05 3.70140E-06 2.69520E-20 7.14777E-19
 -1        17 8.11008E-05 7.17293E-09-3.45894E-05 6.26325E-06 3.09763E-20 8.71992E-19
 -1        18 8.13719E-05 1.61709E-08-3.47012E-05 8.98189E-06 2.41537E-20 1.07193E-18
 -1        19 8.18802E-05 3.52191E-08-3.49220E-05 1.20738E-05 2.68205E-20 1.33680E-18
 -1        20 8.28769E-05 7.63282E-08-3.53735E-05 1.56984E-05 2.47625E-20 1.65139E-18
 -1        21 8.50414E-05 1.64499E-07-3.63490E-05 2.03330E-05 3.12873E-20 2.03051E-18
 -1        22 9.14505E-05-1.03333E-07-3.86527E-05 2.78662E-05-6.98802E-21 2.36856E-18
 -1        23 1.12550E-04-3.79852E-05-3.52716E-05-4.37173E-06 2.74492E-20 5.24208E-19
 -1        24 9.25382E-05-2.76188E-05-2.89155E-05 3.91076E-07-8.89715E-21 7.67650E-19
 -1        25 8.89644E-05-2.68073E-05-2.68821E-05 3.73403E-07 8.01703E-21 8.79697E-19
 -1        26 8.79890E-05-2.64826E-05-2.63848E-05 2.01380E-07-2.81986E-20 7.13638E-19
 -1        27 8.81879E-05-2.65135E-05-2.64299E-05 1.37221E-07-3.84209E-20 5.04679E-19
 -1        28 8.89666E-05-2.67244E-05-2.66745E-05 9.89326E-08 3.59261E-20 7.94146E-19
 -1        29 9.00731E-05-2.70439E-05-2.70144E-05 7.48504E-08 1.07128E-19 1.31185E-18
 -1        30 9.13976E-05-2.74349E-05-2.74167E-05 5.93146E-08 1.51072E-20 1.36234E-18
 -1        31 9.29061E-05-2.78846E-05-2.78737E-05 5.00228E-08-7.49643E-20 7.51014E-19
 -1        32 9.46142E-05-2.83960E-05-2.83911E-05 4.62924E-08-8.38432E-20 2.63278E-19
 -1        33 9.65736E-05-2.89838E-05-2.89850E-05 4.83362E-08 3.27580E-19 1.14274E-18
 -1        34 9.88627E-05-2.96706E-05-2.96789E-05 5.69714E-08-8.81247E-20 1.23873E-18
 -1        35 1.01576E-04-3.04839E-05-3.05006E-05 7.34068E-08 1.31695E-19 8.21586E-19
 -1        36 1.04804E-04-3.14504E-05-3.14763E-05 9.88183E-08 1.57151E-19 1.71026E-18
 -1        37 1.08607E-04-3.25865E-05-3.26201E-05 1.33276E-07-2.42847E-19 2.34306E-18
 -1        38 1.12949E-04-3.38809E-05-3.39147E-05 1.73300E-07-2.98982E-19 1.38769E-18
 -1        39 1.17605E-04-3.52668E-05-3.52813E-05 2.07127E-07 1.50941E-19 1.22317E-18
 -1        40 1.22023E-04-3.65816E-05-3.65398E-05 2.07515E-07 8.43790E-20 1.99891E-18
 -1        41 1.25183E-04-3.75257E-05-3.73764E-05 1.25876E-07-1.22044E-19 9.98827E-19
 -1        42 1.25588E-04-3.76566E-05-3.73648E-05-9.87196E-08-1.55654E-19 2.55877E-19
 -1        43 1.21646E-04-3.64959E-05-3.61104E-05-4.89149E-07-2.40243E-19 1.64245E-18
 -1        44 1.12721E-04-3.38350E-05-3.35509E-05-9.32807E-07 1.29816E-19 2.90919E-18
 -1        45 1.00557E-04-3.01756E-05-3.02653E-05-1.13463E-06-2.60330E-20 3.91959E-18
 -1        46 8.97583E-05-2.69046E-05-2.74684E-05-7.89707E-07 1.74624E-19 1.66302E-18
 -1        47 8.57294E-05-2.56627E-05-2.64513E-05 8.46541E-08 1.40240E-19 2.20554E-18
 -1        48 9.02941E-05-2.70696E-05-2.76122E-05 8.13359E-07-3.65065E-19 9.79885E-19
 -1        49 1.01339E-04-3.04101E-05-3.04760E-05 1.13643E-06 2.79049E-19-2.13421E-18
 -1        50 1.13454E-04-3.40545E-05-3.37580E-05 9.09990E-07 2.92600E-19-2.22246E-18
 -1        51 1.22146E-04-3.66444E-05-3.62635E-05 4.61734E-07 3.54748E-19-2.02721E-18
 -1        52 1.25854E-04-3.77354E-05-3.74545E-05 8.04815E-08-4.04164E-19-8.86896E-19
 -1        53 1.25320E-04-3.75672E-05-3.74269E-05-1.33441E-07-6.66840E-19-2.34636E-18
 -1        54 1.22158E-04-3.66238E-05-3.65876E-05-2.07664E-07 4.37545E-19-4.51271E-18
 -1        55 1.17853E-04-3.53432E-05-3.53608E-05-2.02928E-07 7.75471E-21-3.71536E-18
 -1        56 1.13403E-04-3.40191E-05-3.40546E-05-1.66490E-07-1.49864E-19-4.60506E-18
 -1        57 1.09346E-04-3.28100E-05-3.28452E-05-1.24329E-07 4.39021E-19-3.73025E-18
 -1        58 1.05903E-04-3.17818E-05-3.18098E-05-8.73784E-08-6.66344E-19-4.49680E-18
 -1        59 1.03112E-04-3.09462E-05-3.09662E-05-5.86105E-08-1.37312E-22-4.23747E-18
 -1        60 1.00920E-04-3.02885E-05-3.03017E-05-3.76077E-08-2.54516E-19-2.30811E-18
 -1        61 9.92396E-05-2.97834E-05-2.97916E-05-2.28825E-08-4.90817E-19-5.92370E-18
 -1        62 9.79784E-05-2.94035E-05-2.94083E-05-1.28653E-08 2.17825E-19-4.67557E-18
 -1        63 9.70500E-05-2.91234E-05-2.91258E-05-6.23595E-09 3.35746E-19-3.69036E-18
 -1        64 9.63806E-05-2.89210E-05-2.89220E-05-1.97994E-09 1.88128E-20-4.26225E-18
 -1        65 9.59096E-05-2.87784E-05-2.87785E-05 6.54324E-10-3.75440E-20-4.76329E-18
 -1        66 9.55887E-05-2.86809E-05-2.86807E-05 2.22188E-09-1.23743E-19-4.00856E-18
 -1        67 9.53807E-05-2.86175E-05-2.86172E-05 3.15688E-09 7.58587E-19-4.02730E-18
 -1        68 9.52576E-05-2.85797E-05-2.85797E-05 3.85183E-09-1.14693E-18-7.55868E-18
 -1        69 9.51991E-05-2.85614E-05-2.85618E-05 4.72457E-09 3.10167E-19-5.79662E-18
 -1        70 9.51902E-05-2.85582E-05-2.85582E-05 6.11896E-09-7.35425E-19-1.12232E-18
 -1        71 9.52140E-05-2.85658E-05-2.85616E-05 7.58160E-09 3.27710E-19-2.48976E-18
 -1        72 1.01802E-04-3.04723E-05-3.40334E-05-1.92430E-06-6.33157E-20 2.73030E-18
 -1        73 9.23073E-05-2.74423E-05-2.88253E-05-3.31905E-07 5.21289E-20 2.86343E-18
 -1        74 8.89628E-05-2.66640E-05-2.69250E-05-1.26908E-07-2.18045E-21 2.88796E-18
 -1        75 8.80359E-05-2.64408E-05-2.64321E-05-9.45985E-08-3.62185E-20 3.26649E-18
 -1        76 8.82395E-05-2.64980E-05-2.64623E-05-7.27785E-08-2.60562E-22 3.94383E-18
 -1        77 8.90156E-05-2.67212E-05-2.66971E-05-5.64068E-08 1.92009E-20 4.08290E-18
 -1        78 9.01118E-05-2.70440E-05-2.70299E-05-4.45869E-08 5.43830E-21 4.11775E-18
 -1        79 9.14111E-05-2.74304E-05-2.74227E-05-3.58417E-08 6.11791E-20 3.94772E-18
 -1        80 9.28668E-05-2.78652E-05-2.78624E-05-2.97437E-08-2.49517E-20 4.29679E-18
 -1        81 9.44729E-05-2.83454E-05-2.83476E-05-2.65510E-08 7.39903E-20 4.10273E-18
 -1        82 9.62454E-05-2.88756E-05-2.88829E-05-2.68954E-08 1.65206E-20 3.95355E-18
 -1        83 9.82074E-05-2.94622E-05-2.94744E-05-3.16122E-08 5.33992E-20 3.12098E-18
 -1        84 1.00371E-04-3.01087E-05-3.01246E-05-4.15322E-08 9.87703E-20 3.02641E-18
 -1        85 1.02715E-04-3.08087E-05-3.08253E-05-5.70571E-08-1.19614E-19 3.22777E-18
 -1        86 1.05157E-04-3.15376E-05-3.15485E-05-7.73160E-08 1.19673E-19 2.31635E-18
 -1        87 1.07514E-04-3.22419E-05-3.22365E-05-9.87152E-08-2.95671E-19 2.16596E-18
 -1        88 1.09473E-04-3.28292E-05-3.27924E-05-1.12951E-07 1.62143E-19 2.95404E-18
 -1        89 1.10573E-04-3.31639E-05-3.30792E-05-1.05434E-07-3.79171E-20 2.96383E-18
 -1        90 1.10250E-04-3.30787E-05-3.29371E-05-5.67308E-08-2.83613E-19 2.58142E-18
 -1        91 1.07984E-04-3.24166E-05-3.22311E-05 4.89355E-08-3.27630E-20 2.02643E-18
 -1        92 1.03575E-04-3.11110E-05-3.09312E-05 2.05918E-07 3.32776E-19 2.37156E-19
 -1        93 9.74837E-05-2.92885E-05-2.91969E-05 3.67522E-07-5.34500E-19-4.83603E-20
 -1        94 9.10233E-05-2.73335E-05-2.74082E-05 4.49461E-07 2.96610E-20-3.44716E-19
 -1        95 8.61057E-05-2.58232E-05-2.60768E-05 3.78420E-07 3.83828E-20-4.05186E-19
 -1        96 8.44555E-05-2.52940E-05-2.56418E-05 1.57747E-07 2.32190E-20 9.68170E-19
 -1        97 8.67027E-05-2.59553E-05-2.62562E-05-1.18414E-07 1.20270E-19 1.64097E-18
 -1        98 9.20151E-05-2.75622E-05-2.77066E-05-3.25469E-07 2.11261E-19 1.05059E-19
 -1        99 9.85748E-05-2.95554E-05-2.95263E-05-3.94949E-07-3.27773E-19-4.01388E-19
 -1       100 1.04522E-04-3.13608E-05-3.12178E-05-3.42501E-07-1.58893E-19-3.01186E-19
 -1       101 1.08676E-04-3.26167E-05-3.24408E-05-2.29017E-07 5.88159E-20-1.53162E-18
 -1       102 1.10703E-04-3.32252E-05-3.30744E-05-1.12140E-07 1.75974E-19-2.29608E-18
 -1       103 1.10886E-04-3.32760E-05-3.31740E-05-2.29742E-08-1.14314E-19-1.60446E-18
 -1       104 1.09775E-04-3.29386E-05-3.28842E-05 3.16770E-08 2.84490E-19-7.56632E-19
 -1       105 1.07935E-04-3.23835E-05-3.23645E-05 5.77583E-08 2.48450E-19-1.07290E-18
 -1       106 1.05812E-04-3.17450E-05-3.17479E-05 6.46755E-08-4.93685E-19-2.22623E-18
 -1       107 1.03708E-04-3.11134E-05-3.11273E-05 6.07551E-08-1.86455E-19-3.67753E-18
 -1       108 1.01797E-04-3.05403E-05-3.05583E-05 5.18627E-08-5.78693E-19-3.50899E-18
 -1       109 1.00161E-04-3.00497E-05-3.00676E-05 4.15613E-08 2.49276E-19-2.68978E-18
 -1       110 9.88199E-05-2.96473E-05-2.96633E-05 3.17508E-08-5.08515E-19-2.82104E-18
 -1       111 9.77575E-05-2.93287E-05-2.93419E-05 2.32834E-08 6.50021E-19-2.13813E-18
 -1       112 9.69417E-05-2.90839E-05-2.90944E-05 1.64139E-08-5.24390E-19-1.69438E-18
 -1       113 9.63334E-05-2.89013E-05-2.89093E-05 1.10873E-08 2.92471E-19 1.82609E-18
 -1       114 9.58937E-05-2.87693E-05-2.87752E-05 7.10693E-09-3.76002E-19 1.59509E-18
 -1       115 9.55876E-05-2.86773E-05-2.86816E-05 4.22007E-09 4.50761E-20 1.53861E-18
 -1       116 9.53856E-05-2.86164E-05-2.86198E-05 2.14715E-09 6.01685E-19-1.32902E-18
 -1       117 9.52640E-05-2.85797E-05-2.85825E-05 5.60768E-10 1.43717E-19-5.17088E-18
 -1       118 9.52051E-05-2.85616E-05-2.85643E-05-9.54566E-10 3.96470E-20-4.47542E-18
 -1       119 9.51953E-05-2.85584E-05-2.85603E-05-3.31342E-09 4.96843E-19-8.23580E-18
 -1       120 9.52182E-05-2.85654E-05-2.85634E-05-6.64795E-09 1.01701E-18-8.75379E-18
 -1       121 9.52426E-05-2.85902E-05-2.85638E-05-8.16944E-09-7.42553E-18 3.64805E-19
 -1       122 9.52485E-05-2.86094E-05-2.85619E-05-4.23203E-09-4.43548E-18-2.82117E-20
 -1       123 9.52433E-05-2.85921E-05-2.85676E-05-3.44884E-10-2.13515E-18-1.51188E-19
 -1       124 9.52277E-05-2.85396E-05-2.85823E-05 1.96913E-09 9.64520E-19 6.51900E-19
 -1       125 9.52057E-05-2.84656E-05-2.86033E-05 3.09343E-09 2.68394E-18-4.01505E-19
 -1       126 9.51832E-05-2.83897E-05-2.86249E-05 3.08447E-09-5.89797E-19-1.24292E-20
 -1       127 9.51646E-05-2.83270E-05-2.86428E-05 2.18290E-09-1.89802E-18 1.64345E-18
 -1       128 9.51545E-05-2.82928E-05-2.86527E-05 7.16531E-10-3.32962E-18 2.65446E-19
 -1       129 9.51550E-05-2.82945E-05-2.86522E-05-9.38451E-10-1.75423E-18-1.38315E-18
 -1       130 9.51661E-05-2.83318E-05-2.86415E-05-2.38439E-09 6.42125E-18-1.36883E-19
 -1       131 9.51854E-05-2.83971E-05-2.86228E-05-3.24922E-09 5.42344E-18-7.34394E-19
 -1       132 9.52084E-05-2.84745E-05-2.86007E-05-3.15217E-09-1.62849E-18 1.30166E-18
 -1       133 9.52303E-05-2.85484E-05-2.85798E-05-1.89425E-09 1.56779E-19 5.05213E-20
 -1       134 9.52452E-05-2.85988E-05-2.85656E-05 5.05142E-10 4.46948E-18 5.44146E-19
 -1       135 9.52500E-05-2.86135E-05-2.85606E-05 4.94540E-09 6.49209E-18-4.45105E-19
 -1       136 9.52419E-05-2.85934E-05-2.85621E-05 6.91735E-09 5.25691E-18 4.95292E-19
 -1       137 2.46970E-05-8.38649E-05 1.47194E-05-2.35115E-05 7.73447E-18 1.12033E-18
 -1       138 6.97310E-06-2.98654E-05 2.16343E-06-1.64079E-05 6.03003E-18 2.05660E-18
 -1       139 1.17755E-05 1.74437E-05-1.58685E-05 2.59413E-05 9.04208E-18 7.71562E-18
 -1       140 6.32221E-05 2.70488E-05-3.68945E-05 8.24833E-05 1.09712E-17 1.32315E-17
 -1       141 1.58858E-04-9.32651E-06-5.72515E-05 1.12974E-04 6.59648E-18 1.13587E-17
 -1       142 2.51783E-04-6.09634E-05-7.13646E-05 8.92877E-05 1.87613E-18 6.43322E-18
 -1       143 3.04155E-04-9.30327E-05-7.82425E-05 1.80548E-05 3.75103E-19-3.32619E-19
 -1       144 2.83510E-04-8.01848E-05-7.54978E-05-6.25239E-05 1.26000E-18-5.44219E-18
 -1       145 2.01205E-04-3.17602E-05-6.39418E-05-1.09472E-04 3.52281E-18-8.47456E-18
 -1       146 1.03153E-04 1.51924E-05-4.65095E-05-1.02153E-04 5.84622E-18-9.38978E-18
 -1       147 3.14175E-05 2.82286E-05-2.63437E-05-5.51782E-05 7.56527E-18-6.59627E-18
 -1       148 5.84972E-06-1.62092E-06-7.21899E-06-3.95883E-06 8.13787E-18-5.68804E-18
 -1       149 1.44331E-05-5.74649E-05 9.17537E-06 2.46622E-05 4.53036E-18-1.58755E-18
 -1       150 3.23208E-05-1.01757E-04 1.82720E-05 1.44661E-05 7.76306E-19 1.15871E-20
 -1       151 3.36934E-05-1.05890E-04 1.91768E-05-1.26062E-05-3.01364E-18-5.54833E-19
 -1       152 1.73775E-05-6.71634E-05 1.12628E-05-2.70893E-05-3.14546E-18-9.06537E-19
 -1       153 2.74097E-05 2.47089E-05-2.40736E-05 4.77827E-05-5.27236E-18-5.70223E-18
 -1       154 1.02996E-04 1.44984E-05-4.64844E-05 1.01242E-04-5.78524E-18-7.45516E-18
 -1       155 2.06887E-04-3.41216E-05-6.49698E-05 1.10419E-04-2.66148E-18-6.68182E-18
 -1       156 2.94385E-04-8.45600E-05-7.73147E-05 5.95231E-05-7.43755E-19-4.39398E-18
 -1       157 3.12496E-04-9.61414E-05-7.95001E-05-2.32655E-05-2.96197E-20-1.25562E-18
 -1       158 2.54476E-04-6.07479E-05-7.20074E-05-9.41777E-05-1.76469E-18 4.36857E-18
 -1       159 1.50309E-04-5.56480E-06-5.55682E-05-1.12076E-04-4.98818E-18 8.72740E-18
 -1       160 5.78906E-05 2.60720E-05-3.50534E-05-7.67615E-05-4.21653E-18 6.71909E-18
 -1       161 9.43579E-06 1.03257E-05-1.29132E-05-1.72813E-05-6.41162E-18 3.93193E-18
 -1       162 8.99566E-06-3.92838E-05 4.44135E-06 2.04972E-05-1.06544E-17 3.78708E-18
 -1       163 2.67870E-05-9.06201E-05 1.62527E-05 2.43147E-05-9.28412E-18 2.45200E-18
 -1       164 9.47792E-05-1.23620E-05-3.55228E-05-2.21689E-05 2.87991E-20 5.09755E-19
 -1       165 8.92726E-05-8.47760E-06-3.47867E-05-1.71925E-05 3.39078E-20 4.48954E-19
 -1       166 8.66224E-05-6.50841E-06-3.44453E-05-1.33727E-05 1.12242E-19 3.56058E-19
 -1       167 8.52727E-05-5.48638E-06-3.42772E-05-1.01664E-05 8.53419E-20 2.49590E-19
 -1       168 8.45163E-05-4.88411E-06-3.41960E-05-7.36697E-06 6.97413E-20 2.78813E-19
 -1       169 8.40657E-05-4.50826E-06-3.41565E-05-4.76996E-06 7.20243E-20 4.04941E-19
 -1       170 8.38282E-05-4.30360E-06-3.41388E-05-2.32418E-06 1.79615E-19 4.74094E-19
 -1       171 8.37559E-05-4.24080E-06-3.41337E-05 5.11312E-08 2.29435E-19 5.75526E-19
 -1       172 8.38363E-05-4.31219E-06-3.41388E-05 2.42861E-06 2.32413E-19 5.91904E-19
 -1       173 8.40841E-05-4.52758E-06-3.41565E-05 4.88135E-06 2.56414E-19 7.16855E-19
 -1       174 8.45379E-05-4.90960E-06-3.41950E-05 7.44498E-06 2.55342E-19 9.29327E-19
 -1       175 8.53268E-05-5.54457E-06-3.42763E-05 1.03070E-05 3.25864E-19 1.13794E-18
 -1       176 8.67166E-05-6.61056E-06-3.44455E-05 1.35664E-05 2.49580E-19 1.37455E-18
 -1       177 8.94082E-05-8.61813E-06-3.47898E-05 1.74293E-05 2.20983E-19 1.73605E-18
 -1       178 9.56846E-05-1.36221E-05-3.53806E-05 2.17137E-05 1.46590E-19 2.02809E-18
 -1       179 1.05365E-04-2.60469E-05-3.51798E-05 1.85311E-05-1.22026E-20 2.20435E-18
 -1       180 1.03217E-04-2.72589E-05-3.25508E-05-1.20000E-05 1.34255E-19 5.01073E-19
 -1       181 9.70216E-05-2.82627E-05-2.95027E-05-4.60830E-06 8.12622E-20 5.07621E-19
 -1       182 9.35363E-05-2.76367E-05-2.81940E-05-1.62411E-06-6.34348E-20 6.84614E-19
 -1       183 9.21515E-05-2.74440E-05-2.76954E-05-2.26533E-07-1.08895E-19 6.88231E-19
 -1       184 9.17795E-05-2.74219E-05-2.75623E-05 5.16082E-07-2.76543E-20 7.10431E-19
 -1       185 9.20193E-05-2.75353E-05-2.76256E-05 9.55300E-07 1.88333E-19 5.63927E-19
 -1       186 9.26507E-05-2.77422E-05-2.78115E-05 1.24945E-06 1.60277E-19 5.07345E-19
 -1       187 9.35623E-05-2.80179E-05-2.80857E-05 1.48694E-06-2.72826E-19 6.59703E-19
 -1       188 9.47079E-05-2.83526E-05-2.84336E-05 1.72462E-06-1.18394E-19 8.56794E-19
 -1       189 9.60829E-05-2.87478E-05-2.88535E-05 2.00236E-06 3.16072E-19 1.21748E-18
 -1       190 9.77112E-05-2.92130E-05-2.93517E-05 2.34814E-06 6.05372E-21 6.08362E-19
 -1       191 9.96329E-05-2.97637E-05-2.99391E-05 2.77752E-06-1.01033E-19 9.16364E-19
 -1       192 1.01893E-04-3.04193E-05-3.06273E-05 3.28762E-06 1.19202E-19 8.82072E-19
 -1       193 1.04524E-04-3.12005E-05-3.14218E-05 3.84384E-06 2.10832E-19 4.83558E-19
 -1       194 1.07520E-04-3.21249E-05-3.23129E-05 4.35716E-06-2.76693E-19 1.07959E-18
 -1       195 1.10797E-04-3.31985E-05-3.32626E-05 4.65160E-06-5.09226E-20 1.50703E-18
 -1       196 1.14141E-04-3.43981E-05-3.41884E-05 4.43135E-06 1.90921E-19 1.01367E-18
 -1       197 1.17145E-04-3.56349E-05-3.49514E-05 3.28190E-06-5.22216E-19 9.71062E-19
 -1       198 1.19169E-04-3.66924E-05-3.53659E-05 7.82948E-07-3.61286E-19 9.08031E-19
 -1       199 1.19380E-04-3.71493E-05-3.52533E-05-3.15453E-06 2.60016E-19 7.61506E-19
 -1       200 1.17027E-04-3.64042E-05-3.45527E-05-7.71022E-06 7.34801E-19 1.04153E-18
 -1       201 1.12078E-04-3.40599E-05-3.34358E-05-1.07675E-05 1.63003E-19 1.33809E-18
 -1       202 1.06010E-04-3.06710E-05-3.23048E-05-9.69534E-06-1.54825E-19 2.43887E-18
 -1       203 1.01825E-04-2.81277E-05-3.16172E-05-3.64612E-06-5.28065E-19 1.89152E-18
 -1       204 1.01970E-04-2.82103E-05-3.16476E-05 4.15284E-06-7.28131E-19 1.70085E-19
 -1       205 1.06384E-04-3.08782E-05-3.23755E-05 9.93319E-06-1.39765E-18 1.57383E-19
 -1       206 1.12491E-04-3.42579E-05-3.35289E-05 1.07224E-05-6.47385E-19-1.53373E-18
 -1       207 1.17349E-04-3.65211E-05-3.46433E-05 7.50320E-06 1.19415E-19-1.28523E-18
 -1       208 1.19583E-04-3.71881E-05-3.53255E-05 2.95280E-06-2.33887E-19-2.21028E-18
 -1       209 1.19303E-04-3.66976E-05-3.54217E-05-8.85666E-07-1.25642E-19-3.09793E-18
 -1       210 1.17284E-04-3.56434E-05-3.50064E-05-3.26549E-06-7.37074E-19-2.09601E-18
 -1       211 1.14353E-04-3.44348E-05-3.42626E-05-4.30780E-06 5.51235E-19-2.03841E-18
 -1       212 1.11146E-04-3.32811E-05-3.33756E-05-4.43844E-06-4.84402E-19-1.36004E-18
 -1       213 1.08061E-04-3.22673E-05-3.24826E-05-4.06601E-06 8.13722E-20-1.97716E-18
 -1       214 1.05309E-04-3.14161E-05-3.16648E-05-3.47862E-06-8.04204E-19-2.88885E-18
 -1       215 1.02973E-04-3.07222E-05-3.09595E-05-2.84688E-06 1.85522E-19-2.88702E-18
 -1       216 1.01058E-04-3.01688E-05-3.03757E-05-2.25789E-06 7.52501E-19-2.38836E-18
 -1       217 9.95305E-05-2.97355E-05-2.99070E-05-1.74796E-06-1.66547E-18-1.76654E-18
 -1       218 9.83380E-05-2.94019E-05-2.95395E-05-1.32575E-06-1.66763E-19-2.01719E-18
 -1       219 9.74251E-05-2.91493E-05-2.92573E-05-9.86409E-07 1.88472E-19-1.30314E-18
 -1       220 9.67392E-05-2.89614E-05-2.90446E-05-7.19470E-07 5.35922E-19-5.60494E-19
 -1       221 9.62339E-05-2.88242E-05-2.88874E-05-5.12928E-07 1.93932E-19 6.77879E-19
 -1       222 9.58699E-05-2.87263E-05-2.87739E-05-3.55160E-07 1.42455E-20-4.22089E-19
 -1       223 9.56149E-05-2.86584E-05-2.86941E-05-2.35707E-07-8.86941E-19-1.92508E-18
 -1       224 9.54432E-05-2.86133E-05-2.86403E-05-1.45509E-07-1.10384E-18-3.67816E-18
 -1       225 9.53344E-05-2.85852E-05-2.86060E-05-7.71223E-08 1.93155E-19-3.40071E-18
 -1       226 9.52723E-05-2.85701E-05-2.85862E-05-2.56448E-08 1.42741E-18-3.60056E-18
 -1       227 9.52436E-05-2.85663E-05-2.85755E-05 8.19023E-09-2.60636E-19-8.15753E-19
 -1       228 9.52383E-05-2.85746E-05-2.85698E-05 1.84565E-08 1.80694E-18-1.30761E-18
 -1       229 9.93451E-05-2.85077E-05-3.05374E-05 7.10885E-06 1.63186E-20 1.94129E-18
 -1       230 9.43845E-05-2.77655E-05-2.85150E-05 2.65985E-06-1.18849E-19 2.01469E-18
 -1       231 9.22088E-05-2.74358E-05-2.77119E-05 7.87115E-07-2.93781E-19 2.12417E-18
 -1       232 9.14233E-05-2.73302E-05-2.74419E-05-1.41762E-07-2.04960E-19 2.28604E-18
 -1       233 9.14269E-05-2.73742E-05-2.74377E-05-6.39397E-07-4.80261E-20 2.31762E-18
 -1       234 9.19157E-05-2.75402E-05-2.75824E-05-9.35285E-07 2.38001E-20 2.28957E-18
 -1       235 9.27183E-05-2.77888E-05-2.78228E-05-1.13485E-06-4.01844E-21 2.37006E-18
 -1       236 9.37458E-05-2.80977E-05-2.81322E-05-1.29476E-06-1.36880E-19 2.35261E-18
 -1       237 9.49577E-05-2.84578E-05-2.84981E-05-1.44788E-06 1.92780E-19 2.45220E-18
 -1       238 9.63407E-05-2.88676E-05-2.89158E-05-1.61092E-06 2.05925E-19 2.43247E-18
 -1       239 9.78925E-05-2.93295E-05-2.93836E-05-1.78589E-06 4.97199E-19 2.18504E-18
 -1       240 9.96069E-05-2.98455E-05-2.98980E-05-1.95809E-06 2.75509E-19 1.91085E-18
 -1       241 1.01458E-04-3.04129E-05-3.04489E-05-2.09181E-06-4.17497E-20 1.69937E-18
 -1       242 1.03378E-04-3.10186E-05-3.10133E-05-2.12528E-06 5.29598E-20 2.16702E-18
 -1       243 1.05241E-04-3.16314E-05-3.15498E-05-1.96773E-06-3.11930E-21 2.21957E-18
 -1       244 1.06839E-04-3.21939E-05-3.19935E-05-1.50553E-06-4.49645E-19 1.73389E-18
 -1       245 1.07879E-04-3.26140E-05-3.22580E-05-6.28143E-07 1.00039E-20 2.48876E-18
 -1       246 1.08011E-04-3.27632E-05-3.22478E-05 7.13067E-07 4.55009E-19 1.71776E-18
 -1       247 1.06908E-04-3.24935E-05-3.18874E-05 2.41115E-06 3.70324E-19 1.02165E-18
 -1       248 1.04424E-04-3.16909E-05-3.11658E-05 4.10807E-06 4.66196E-19 1.50348E-18
 -1       249 1.00799E-04-3.03733E-05-3.01804E-05 5.18824E-06-6.38454E-19 1.84642E-18
 -1       250 9.67989E-05-2.87989E-05-2.91485E-05 4.98067E-06 6.19874E-19 1.35646E-18
 -1       251 9.36085E-05-2.74722E-05-2.83564E-05 3.18137E-06-8.28504E-20 1.26642E-18
 -1       252 9.23641E-05-2.69323E-05-2.80540E-05 2.20810E-07-6.72633E-19 1.05789E-18
 -1       253 9.35520E-05-2.74249E-05-2.83434E-05-2.83027E-06 4.19295E-19 1.65907E-18
 -1       254 9.67191E-05-2.87323E-05-2.91297E-05-4.84409E-06 4.42616E-19 1.03082E-18
 -1       255 1.00741E-04-3.03191E-05-3.01680E-05-5.28098E-06-1.72148E-19 1.38281E-18
 -1       256 1.04433E-04-3.16730E-05-3.11722E-05-4.35985E-06-5.32704E-21 6.43904E-19
 -1       257 1.07018E-04-3.25211E-05-3.19233E-05-2.72694E-06 3.92271E-19 5.82848E-20
 -1       258 1.08247E-04-3.28361E-05-3.23211E-05-1.02489E-06 1.87212E-19-3.78171E-19
 -1       259 1.08260E-04-3.27316E-05-3.23750E-05 3.47318E-07-4.24719E-19-3.14524E-19
 -1       260 1.07384E-04-3.23584E-05-3.21602E-05 1.25227E-06-8.54387E-20 6.57410E-20
 -1       261 1.05975E-04-3.18484E-05-3.17739E-05 1.72251E-06 3.14239E-19-4.10803E-19
 -1       262 1.04334E-04-3.12975E-05-3.13047E-05 1.86332E-06 5.45536E-21-8.15209E-19
 -1       263 1.02675E-04-3.07664E-05-3.08197E-05 1.78977E-06 6.77217E-19-4.90361E-19
 -1       264 1.01135E-04-3.02890E-05-3.03629E-05 1.59733E-06-2.76326E-19-1.39217E-18
 -1       265 9.97849E-05-2.98800E-05-2.99584E-05 1.35415E-06-4.47698E-19-1.99600E-18
 -1       266 9.86498E-05-2.95424E-05-2.96161E-05 1.10368E-06-2.63996E-19-1.16038E-18
 -1       267 9.77280E-05-2.92720E-05-2.93367E-05 8.70658E-07 3.21256E-19-2.07644E-18
 -1       268 9.70013E-05-2.90614E-05-2.91155E-05 6.66993E-07-7.00143E-19-1.92625E-19
 -1       269 9.64438E-05-2.89015E-05-2.89452E-05 4.96509E-07-9.62550E-19 2.05044E-19
 -1       270 9.60277E-05-2.87833E-05-2.88177E-05 3.58272E-07-5.43425E-19 1.62275E-18
 -1       271 9.57264E-05-2.86985E-05-2.87252E-05 2.48797E-07 1.05596E-18 8.90480E-19
 -1       272 9.55164E-05-2.86400E-05-2.86605E-05 1.63437E-07 2.39964E-18-8.50678E-19
 -1       273 9.53778E-05-2.86017E-05-2.86177E-05 9.72909E-08 1.11981E-18-4.48571E-19
 -1       274 9.52942E-05-2.85791E-05-2.85918E-05 4.60761E-08 3.38526E-19-3.13655E-19
 -1       275 9.52513E-05-2.85684E-05-2.85781E-05 6.98243E-09 1.60607E-18-7.70737E-19
 -1       276 9.52378E-05-2.85701E-05-2.85710E-05-1.58165E-08-9.14556E-19-1.80466E-18
 -1       277 9.52431E-05-2.85655E-05-2.85758E-05-4.32585E-09-1.69629E-18 1.62334E-18
 -1       278 9.52392E-05-2.85406E-05-2.85851E-05 2.88291E-08-1.03759E-18 1.78181E-18
 -1       279 9.52225E-05-2.84947E-05-2.85976E-05 6.05420E-08-8.73926E-19 1.39240E-18
 -1       280 9.51993E-05-2.84337E-05-2.86138E-05 8.00379E-08-7.60731E-19 2.00841E-18
 -1       281 9.51748E-05-2.83696E-05-2.86309E-05 8.15707E-08 1.34472E-18-1.98781E-18
 -1       282 9.51529E-05-2.83119E-05-2.86464E-05 6.55737E-08 8.75385E-19-1.95486E-18
 -1       283 9.51381E-05-2.82727E-05-2.86569E-05 3.57656E-08-8.72298E-19-6.66887E-19
 -1       284 9.51330E-05-2.82593E-05-2.86605E-05-1.50397E-09 9.17026E-19 5.30536E-19
 -1       285 9.51387E-05-2.82743E-05-2.86565E-05-3.86303E-08 1.26026E-18 3.87043E-18
 -1       286 9.51541E-05-2.83150E-05-2.86455E-05-6.79486E-08 3.29120E-19-9.80844E-20
 -1       287 9.51760E-05-2.83727E-05-2.86301E-05-8.28905E-08 1.54436E-18-3.47530E-18
 -1       288 9.52012E-05-2.84385E-05-2.86126E-05-8.00959E-08 2.25887E-18 1.78897E-18
 -1       289 9.52245E-05-2.84993E-05-2.85964E-05-5.89918E-08 2.42873E-18 2.00069E-18
 -1       290 9.52401E-05-2.85438E-05-2.85841E-05-2.53568E-08 5.03245E-19 4.79948E-19
 -1       291 9.52441E-05-2.85669E-05-2.85759E-05 2.78897E-09 4.04173E-19-7.82153E-19
 -1       292 1.25814E-05-4.65130E-05 1.13162E-05 9.01403E-06 4.52845E-19 2.77626E-18
 -1       293 2.68588E-05-4.23101E-05 3.80936E-06 2.19939E-05 2.20885E-18-3.28225E-21
 -1       294 5.28065E-05-3.45051E-05-9.56167E-06 3.51330E-05 1.93314E-18 4.90591E-18
 -1       295 9.06227E-05-2.89217E-05-2.66984E-05 4.56438E-05 2.56545E-18 4.75905E-18
 -1       296 1.37340E-04-3.01864E-05-4.47068E-05 4.55760E-05 3.55606E-18 2.75116E-18
 -1       297 1.76383E-04-3.20264E-05-5.95068E-05 3.53601E-05 3.72687E-18 1.52805E-18
 -1       298 1.93877E-04-3.00701E-05-6.76986E-05 1.28507E-05 3.15382E-18-6.67038E-19
 -1       299 2.05893E-04-3.39937E-05-7.04076E-05-6.88333E-06 2.25374E-18-1.29403E-18
 -1       300 1.87059E-04-3.18670E-05-6.39407E-05-2.52371E-05 2.08561E-18-2.28466E-18
 -1       301 1.55918E-04-3.10796E-05-5.17348E-05-4.21466E-05 2.14643E-18-2.27661E-18
 -1       302 1.12354E-04-2.83536E-05-3.55009E-05-4.79030E-05 2.05575E-18-3.16515E-18
 -1       303 7.20056E-05-3.14311E-05-1.83285E-05-4.12433E-05 2.91464E-18-1.60312E-18
 -1       304 4.22110E-05-3.89733E-05-3.27239E-06-3.24384E-05 1.09267E-18-3.06792E-18
 -1       305 1.87180E-05-4.55057E-05 8.38490E-06-1.57823E-05 1.79359E-19-1.90953E-18
 -1       306 9.42593E-06-4.25525E-05 1.15321E-05-2.31901E-06-1.20980E-19-1.45743E-18
 -1       307 1.68432E-05-4.55075E-05 9.25399E-06 1.29583E-05-2.59086E-19-2.39604E-19
 -1       308 3.58531E-05-4.08739E-05-4.78303E-07 2.53120E-05-6.98802E-19-2.77896E-19
 -1       309 6.83746E-05-3.39693E-05-1.60467E-05 3.86116E-05-7.76941E-19-2.90913E-18
 -1       310 1.16425E-04-3.55080E-05-3.44617E-05 4.31635E-05-1.30803E-18-3.64415E-18
 -1       311 1.59890E-04-3.28853E-05-5.24846E-05 4.33673E-05-2.81183E-18-3.58867E-18
 -1       312 1.93050E-04-3.42127E-05-6.52675E-05 2.33978E-05-1.82620E-18-2.89325E-18
 -1       313 2.11473E-04-3.55967E-05-7.17630E-05 4.67972E-06-1.81392E-18-1.45001E-18
 -1       314 2.09343E-04-3.74104E-05-6.99800E-05-1.81053E-05-2.17010E-18 7.65506E-20
 -1       315 1.77175E-04-3.44326E-05-5.89243E-05-3.14759E-05-3.15133E-18 1.46198E-18
 -1       316 1.35631E-04-3.18669E-05-4.33883E-05-4.59771E-05-1.67024E-18 4.30801E-18
 -1       317 9.32228E-05-3.65030E-05-2.48131E-05-4.22920E-05-3.08976E-18 3.25324E-18
 -1       318 4.98802E-05-3.72314E-05-7.42339E-06-3.20283E-05-4.13013E-18 2.01398E-18
 -1       319 2.56859E-05-4.23513E-05 4.61863E-06-2.16422E-05-2.95424E-18 1.52148E-18
 -1       320 1.25005E-05-4.91684E-05 1.22026E-05-4.96198E-06-1.08383E-18 4.41061E-18
 -1       321 9.17055E-05-1.43838E-05-3.32012E-05-1.28068E-05 9.01470E-20 5.08782E-19
 -1       322 9.57031E-05-1.91146E-05-3.28861E-05-1.44129E-05 4.28844E-20 4.61355E-19
 -1       323 8.80440E-05-1.02613E-05-3.33884E-05-7.90522E-06 7.29122E-20 2.54166E-19
 -1       324 8.71844E-05-9.27943E-06-3.34352E-05-5.51800E-06 4.33374E-20 3.51641E-19
 -1       325 8.66862E-05-8.70471E-06-3.34646E-05-3.23801E-06 1.61046E-19 5.25733E-19
 -1       326 8.64582E-05-8.44049E-06-3.34787E-05-1.02880E-06 2.79639E-19 5.76446E-19
 -1       327 8.64663E-05-8.45063E-06-3.34779E-05 1.15693E-06 3.19356E-19 6.42130E-19
 -1       328 8.67121E-05-8.73709E-06-3.34621E-05 3.36881E-06 2.62570E-19 6.08434E-19
 -1       329 8.72213E-05-9.32640E-06-3.34315E-05 5.61566E-06 2.30873E-19 9.07434E-19
 -1       330 8.81016E-05-1.03366E-05-3.33828E-05 8.00980E-06 3.67898E-19 1.09284E-18
 -1       331 8.95403E-05-1.19762E-05-3.33088E-05 1.05048E-05 3.17632E-19 1.22141E-18
 -1       332 9.19439E-05-1.47247E-05-3.31759E-05 1.28929E-05 1.90467E-19 1.46526E-18
 -1       333 9.58777E-05-1.95861E-05-3.28000E-05 1.40679E-05 1.62394E-19 1.66723E-18
 -1       334 9.87050E-05-2.44341E-05-3.19149E-05 1.16822E-05 1.09161E-19 1.81008E-18
 -1       335 9.63404E-05-2.67654E-05-2.97897E-05 5.53920E-06-7.71793E-20 1.75411E-18
 -1       336 9.64868E-05-2.60140E-05-3.01585E-05-6.09803E-06 5.50472E-20 4.05103E-19
 -1       337 9.50724E-05-2.70188E-05-2.91398E-05-2.50684E-06-1.59745E-20 4.73096E-19
 -1       338 9.42355E-05-2.74266E-05-2.86170E-05-4.76171E-07-8.70004E-20 7.20636E-19
 -1       339 9.39059E-05-2.76583E-05-2.83840E-05 7.57734E-07 4.65740E-20 6.87906E-19
 -1       340 9.39708E-05-2.78434E-05-2.83359E-05 1.56080E-06 2.01350E-20 5.62841E-19
 -1       341 9.43303E-05-2.80205E-05-2.84153E-05 2.14469E-06-4.68184E-21 4.83567E-19
 -1       342 9.49205E-05-2.82040E-05-2.85899E-05 2.64240E-06 8.88890E-20 5.01884E-19
 -1       343 9.57081E-05-2.84024E-05-2.88422E-05 3.14318E-06 2.73599E-19 6.23640E-19
 -1       344 9.66836E-05-2.86263E-05-2.91638E-05 3.70879E-06-1.30845E-19 5.39344E-19
 -1       345 9.78550E-05-2.88915E-05-2.95515E-05 4.37844E-06 2.34112E-19 7.03618E-19
 -1       346 9.92424E-05-2.92233E-05-3.00035E-05 5.16559E-06-1.55184E-19 6.22006E-19
 -1       347 1.00875E-04-2.96627E-05-3.05151E-05 6.04630E-06-1.23272E-19 1.04379E-18
 -1       348 1.02788E-04-3.02749E-05-3.10742E-05 6.93714E-06 1.44140E-19 8.58178E-19
 -1       349 1.05025E-04-3.11600E-05-3.16570E-05 7.66107E-06-1.38558E-20 4.08941E-19
 -1       350 1.07632E-04-3.24539E-05-3.22259E-05 7.90458E-06-2.37303E-19 3.44124E-19
 -1       351 1.10638E-04-3.42950E-05-3.27343E-05 7.18519E-06-1.36064E-19 2.73133E-19
 -1       352 1.13983E-04-3.66985E-05-3.31474E-05 4.88516E-06 3.28854E-20 9.02165E-19
 -1       353 1.17332E-04-3.92802E-05-3.34823E-05 4.68897E-07-1.22740E-19 5.70393E-19
 -1       354 1.19792E-04-4.08674E-05-3.38543E-05-5.93770E-06 1.52956E-19 6.53347E-19
 -1       355 1.19905E-04-3.95522E-05-3.44638E-05-1.25491E-05 1.17827E-18 1.76132E-19
 -1       356 1.16716E-04-3.41998E-05-3.54183E-05-1.54818E-05 9.84140E-19 7.38576E-19
 -1       357 1.11857E-04-2.70787E-05-3.64216E-05-1.07557E-05-1.38569E-19 1.39654E-18
 -1       358 1.09614E-04-2.38895E-05-3.68246E-05 1.00970E-07-1.31133E-18 2.02782E-18
 -1       359 1.12081E-04-2.73768E-05-3.63862E-05 1.13302E-05-1.45391E-18 1.03300E-18
 -1       360 1.17024E-04-3.46055E-05-3.53748E-05 1.55607E-05-1.21275E-18-1.37658E-19
 -1       361 1.20066E-04-3.97656E-05-3.44489E-05 1.22966E-05-1.56519E-19 8.19338E-19
 -1       362 1.19801E-04-4.08511E-05-3.38703E-05 5.62603E-06-4.36232E-19-2.92724E-19
 -1       363 1.17293E-04-3.91598E-05-3.35182E-05-6.50118E-07 4.05639E-19 1.12055E-18
 -1       364 1.13981E-04-3.65733E-05-3.31996E-05-4.88930E-06-4.92948E-19 2.84041E-19
 -1       365 1.10719E-04-3.42079E-05-3.28052E-05-7.01905E-06-6.80546E-20 1.50372E-19
 -1       366 1.07825E-04-3.24182E-05-3.23227E-05-7.59129E-06 2.31010E-19-7.19111E-19
 -1       367 1.05352E-04-3.11756E-05-3.17894E-05-7.21955E-06 9.92637E-21 6.56851E-19
 -1       368 1.03271E-04-3.03410E-05-3.12520E-05-6.37649E-06-9.30545E-20 6.67889E-19
 -1       369 1.01538E-04-2.97814E-05-3.07477E-05-5.36814E-06-7.67315E-19 2.18337E-18
 -1       370 1.00111E-04-2.94007E-05-3.02987E-05-4.36887E-06 1.43524E-20-1.54789E-19
 -1       371 9.89493E-05-2.91365E-05-2.99147E-05-3.46517E-06 1.28134E-19-5.96920E-19
 -1       372 9.80184E-05-2.89502E-05-2.95963E-05-2.69066E-06 1.53766E-19 1.08952E-18
 -1       373 9.72833E-05-2.88177E-05-2.93388E-05-2.04994E-06 5.25423E-19 2.55672E-18
 -1       374 9.67122E-05-2.87236E-05-2.91351E-05-1.53314E-06 1.02184E-18 3.59028E-18
 -1       375 9.62758E-05-2.86574E-05-2.89771E-05-1.12428E-06 9.80161E-19 3.83153E-18
 -1       376 9.59483E-05-2.86117E-05-2.88568E-05-8.05817E-07-7.90793E-19 2.66196E-18
 -1       377 9.57073E-05-2.85810E-05-2.87671E-05-5.60874E-07-1.16987E-18 1.27493E-18
 -1       378 9.55339E-05-2.85610E-05-2.87017E-05-3.74340E-07-2.29755E-18-3.26275E-19
 -1       379 9.54122E-05-2.85486E-05-2.86551E-05-2.33330E-07-8.42194E-19-1.92108E-18
 -1       380 9.53297E-05-2.85426E-05-2.86225E-05-1.27774E-07 1.13311E-18-9.37968E-19
 -1       381 9.52756E-05-2.85430E-05-2.85993E-05-5.12405E-08 1.12546E-18-7.26582E-19
 -1       382 9.43486E-05-2.72860E-05-2.87161E-05 1.36696E-06-2.05634E-19 1.47041E-18
 -1       383 9.37507E-05-2.75620E-05-2.83539E-05-1.66829E-07-1.16129E-19 1.40721E-18
 -1       384 9.36225E-05-2.77401E-05-2.82287E-05-1.09331E-06-2.35540E-21 1.66405E-18
 -1       385 9.38530E-05-2.79190E-05-2.82536E-05-1.69916E-06 4.55743E-20 1.67881E-18
 -1       386 9.43452E-05-2.81149E-05-2.83817E-05-2.13982E-06-4.56616E-20 1.39683E-18
 -1       387 9.50400E-05-2.83351E-05-2.85855E-05-2.50729E-06-1.21372E-19 1.43343E-18
 -1       388 9.59052E-05-2.85878E-05-2.88482E-05-2.85439E-06 1.39921E-19 1.57956E-18
 -1       389 9.69265E-05-2.88845E-05-2.91589E-05-3.20369E-06 6.48948E-19 1.45052E-18
 -1       390 9.80983E-05-2.92414E-05-2.95086E-05-3.54828E-06 4.48049E-19 1.47161E-18
 -1       391 9.94156E-05-2.96791E-05-2.98865E-05-3.84781E-06-2.40329E-20 1.20904E-18
 -1       392 1.00865E-04-3.02206E-05-3.02772E-05-4.02191E-06-6.27900E-19 1.52331E-18
 -1       393 1.02413E-04-3.08861E-05-3.06580E-05-3.94448E-06-1.30718E-19 1.59875E-18
 -1       394 1.03993E-04-3.16798E-05-3.09988E-05-3.44594E-06-2.38580E-19 1.51774E-18
 -1       395 1.05487E-04-3.25642E-05-3.12640E-05-2.33625E-06-2.01061E-19 1.18243E-18
 -1       396 1.06700E-04-3.34198E-05-3.14209E-05-4.68098E-07 4.76862E-19 1.23321E-18
 -1       397 1.07353E-04-3.40023E-05-3.14516E-05 2.14185E-06 2.48204E-20 1.64280E-18
 -1       398 1.07106E-04-3.39447E-05-3.13667E-05 5.14453E-06-6.72002E-20 2.45522E-18
 -1       399 1.05701E-04-3.28825E-05-3.12114E-05 7.72684E-06-2.83386E-19 3.08862E-18
 -1       400 1.03225E-04-3.07601E-05-3.10493E-05 8.70953E-06 5.83274E-19 2.12175E-18
 -1       401 1.00390E-04-2.81780E-05-3.09329E-05 7.08328E-06 5.01283E-19 1.88558E-18
 -1       402 9.84319E-05-2.63400E-05-3.08763E-05 2.86371E-06-3.91205E-19 8.88722E-19
 -1       403 9.83569E-05-2.62598E-05-3.08779E-05-2.50845E-06-6.13239E-19 8.88938E-19
 -1       404 1.00228E-04-2.80073E-05-3.09353E-05-6.88991E-06 5.91244E-19 1.93084E-18
 -1       405 1.03063E-04-3.05818E-05-3.10565E-05-8.74096E-06 6.26490E-19 7.75502E-19
 -1       406 1.05627E-04-3.27706E-05-3.12281E-05-7.95286E-06 7.27919E-23 9.35111E-19
 -1       407 1.07163E-04-3.39247E-05-3.14005E-05-5.48006E-06 1.85108E-19 1.02649E-18
 -1       408 1.07540E-04-3.40545E-05-3.15099E-05-2.51375E-06-1.89677E-19 1.58243E-18
 -1       409 1.07007E-04-3.35160E-05-3.15113E-05 9.19830E-08 1.02551E-19 1.13094E-18
 -1       410 1.05909E-04-3.26873E-05-3.13922E-05 1.95585E-06-5.36547E-19 1.18037E-18
 -1       411 1.04536E-04-3.18229E-05-3.11697E-05 3.04305E-06 1.85559E-19 1.34870E-18
 -1       412 1.03089E-04-3.10510E-05-3.08768E-05 3.49224E-06 4.84619E-19 1.92836E-18
 -1       413 1.01697E-04-3.04153E-05-3.05496E-05 3.49311E-06 5.39100E-19 1.36019E-18
 -1       414 1.00430E-04-2.99152E-05-3.02189E-05 3.22017E-06 6.20087E-19 1.77437E-18
 -1       415 9.93214E-05-2.95325E-05-2.99070E-05 2.80789E-06 6.40436E-19 6.24715E-19
 -1       416 9.83825E-05-2.92449E-05-2.96275E-05 2.34860E-06-5.70428E-19-1.94050E-19
 -1       417 9.76081E-05-2.90319E-05-2.93869E-05 1.89960E-06-3.65179E-19-1.02769E-18
 -1       418 9.69845E-05-2.88764E-05-2.91866E-05 1.49244E-06-1.33547E-18 2.48419E-19
 -1       419 9.64935E-05-2.87645E-05-2.90245E-05 1.14124E-06-8.58863E-19 1.57440E-18
 -1       420 9.61154E-05-2.86855E-05-2.88966E-05 8.49141E-07-1.41410E-18-4.89285E-20
 -1       421 9.58306E-05-2.86309E-05-2.87984E-05 6.12832E-07 7.54458E-19-1.17906E-18
 -1       422 9.56215E-05-2.85941E-05-2.87248E-05 4.25670E-07 1.69704E-18-1.40847E-19
 -1       423 9.54722E-05-2.85702E-05-2.86714E-05 2.79711E-07 9.49252E-19 7.40477E-19
 -1       424 9.53689E-05-2.85555E-05-2.86336E-05 1.67356E-07-4.40659E-19-1.76253E-19
 -1       425 9.53008E-05-2.85487E-05-2.86076E-05 8.33877E-08 1.74815E-18-5.48659E-19
 -1       426 9.52632E-05-2.85521E-05-2.85902E-05 2.84602E-08 1.91910E-18 8.69133E-19
 -1       427 9.52091E-05-2.84094E-05-2.86283E-05 1.44881E-07 1.83284E-19 2.24197E-18
 -1       428 9.52458E-05-2.84800E-05-2.86137E-05 1.06445E-07-4.98206E-19 1.88752E-18
 -1       429 9.51670E-05-2.83349E-05-2.86423E-05 1.57150E-07-1.68525E-19 1.05165E-18
 -1       430 9.51265E-05-2.82654E-05-2.86549E-05 1.39495E-07-2.57950E-19-2.55024E-18
 -1       431 9.50953E-05-2.82123E-05-2.86644E-05 9.50752E-08 1.95424E-20-2.84063E-18
 -1       432 9.50784E-05-2.81836E-05-2.86695E-05 3.25148E-08-6.58207E-19 1.70867E-18
 -1       433 9.50786E-05-2.81836E-05-2.86696E-05-3.64031E-08 2.65989E-19 1.20238E-18
 -1       434 9.50959E-05-2.82126E-05-2.86645E-05-9.87175E-08-1.32848E-18 6.81111E-19
 -1       435 9.51271E-05-2.82652E-05-2.86552E-05-1.41859E-07-1.48074E-18-1.90615E-18
 -1       436 9.51682E-05-2.83353E-05-2.86427E-05-1.58571E-07 9.31198E-19 2.77268E-18
 -1       437 9.52114E-05-2.84116E-05-2.86284E-05-1.44405E-07 1.52586E-18 9.92059E-19
 -1       438 9.52475E-05-2.84825E-05-2.86134E-05-1.03035E-07 1.20782E-18 2.58435E-19
 -1       439 9.50372E-05-2.70750E-05-2.90891E-05 3.07784E-06-1.45293E-19 1.72781E-18
 -1       440 6.00370E-05-4.12873E-05-8.08833E-06 4.39670E-05 6.72332E-19 2.28757E-18
 -1       441 1.31992E-04-5.26922E-05-3.40028E-05 2.64012E-05 2.42463E-20-9.20937E-19
 -1       442 1.14037E-05-2.26648E-05 4.54663E-06 1.76315E-06-4.36632E-19 5.13535E-18
 -1       443 9.86415E-05-5.16929E-05-2.01862E-05 4.15185E-05-4.85562E-19 2.56201E-18
 -1       444 8.94046E-05-1.18008E-05-3.33321E-05-1.04222E-05 1.13502E-19 3.50880E-19
 -1       445 1.51692E-04-3.94634E-05-4.79531E-05 1.04344E-05 1.76812E-18-1.30507E-18
 -1       446 1.57833E-04-2.38073E-05-5.73111E-05 6.36103E-07 3.61524E-18-1.68009E-18
 -1       447 1.58561E-04-1.28231E-05-6.23377E-05 1.62134E-07 2.81956E-18-1.70987E-18
 -1       448 1.51312E-04-1.44027E-05-5.87959E-05 3.35989E-06 1.47966E-18-4.32357E-19
 -1       449 1.53547E-04-3.26867E-05-5.18441E-05-2.40540E-06 7.77153E-19 1.76500E-19
 -1       450 1.42485E-04-4.80132E-05-4.04824E-05-1.88973E-05 6.05099E-19-3.01226E-19
 -1       451 1.18002E-04-5.41974E-05-2.73736E-05-3.46191E-05 8.43857E-20-8.42110E-19
 -1       452 8.55478E-05-4.90377E-05-1.56461E-05-4.41356E-05-3.41990E-20-7.83413E-19
 -1       453 4.13166E-05-3.38771E-05-3.23164E-06-3.87428E-05-8.77314E-19-2.61225E-18
 -1       454 1.82502E-05-2.26653E-05 1.93134E-06-1.99940E-05-3.47601E-19-1.25753E-18
 -1       455 1.51527E-05-2.31659E-05 3.29101E-06 1.30831E-05 3.85135E-19-3.94294E-19
 -1       456 3.96682E-05-3.37757E-05-2.61966E-06 3.59287E-05 1.87194E-19-4.35798E-19
 -1       457 7.43358E-05-4.73169E-05-1.18505E-05 4.24470E-05 1.33937E-19-2.32361E-18
 -1       458 1.15611E-04-5.65444E-05-2.54458E-05 3.49052E-05 1.15514E-18-2.27248E-18
 -1       459 1.47653E-04-4.98536E-05-4.17371E-05 1.73293E-05 3.50460E-20-5.19231E-19
 -1       460 1.60289E-04-3.57415E-05-5.32049E-05 2.68712E-06-1.23969E-18-2.40451E-19
 -1       461 1.59226E-04-1.74181E-05-6.06926E-05-3.53893E-06-2.04061E-18-1.32449E-18
 -1       462 1.60034E-04-1.44398E-05-6.22733E-05 1.58986E-06-3.06721E-18-1.37325E-18
 -1       463 1.61529E-04-2.46857E-05-5.84104E-05 2.92605E-06-2.61903E-18-1.04704E-18
 -1       464 1.53623E-04-4.58942E-05-4.62214E-05-6.82601E-06-1.24493E-18-1.64113E-19
 -1       465 1.36708E-04-5.61035E-05-3.44709E-05-2.38221E-05-2.03658E-19 1.57368E-18
 -1       466 9.41776E-05-5.27063E-05-1.79833E-05-4.10214E-05-1.56733E-18 1.57760E-19
 -1       467 5.72379E-05-4.13735E-05-6.96465E-06-4.11517E-05-8.21622E-19 1.76130E-19
 -1       468 2.14410E-05-2.78949E-05 2.39228E-06-2.29691E-05-1.31502E-18 3.66437E-18
 -1       469 2.71242E-05-2.75385E-05 1.40543E-07 3.03619E-05-9.20725E-19 1.11650E-18
 -1       470 1.40858E-04-1.22941E-05-5.55176E-05-5.93990E-06 3.75310E-18-1.93751E-18
 -1       471 8.94251E-05-1.30713E-05-3.27416E-05-3.70729E-06 9.04921E-20 4.65895E-19
 -1       472 9.01946E-05-1.41076E-05-3.26290E-05-5.59097E-06 1.15097E-19 2.52372E-19
 -1       473 8.88623E-05-1.23227E-05-3.28201E-05 5.17603E-08 1.94935E-19 6.14225E-19
 -1       474 8.90147E-05-1.25258E-05-3.27986E-05 1.92635E-06 1.75115E-19 6.19591E-19
 -1       475 8.94557E-05-1.31149E-05-3.27363E-05 3.77864E-06 2.26651E-19 7.90082E-19
 -1       476 9.02448E-05-1.41783E-05-3.26207E-05 5.65618E-06 3.13272E-19 1.04789E-18
 -1       477 9.14628E-05-1.58500E-05-3.24286E-05 7.44251E-06 2.30546E-19 1.05492E-18
 -1       478 9.32297E-05-1.83532E-05-3.21103E-05 8.89098E-06 1.97811E-19 1.23859E-18
 -1       479 9.53652E-05-2.18610E-05-3.15131E-05 9.26047E-06 1.37003E-19 1.44503E-18
 -1       480 9.63931E-05-2.46066E-05-3.07540E-05 7.78871E-06-1.35658E-22 1.49574E-18
 -1       481 9.55781E-05-2.43502E-05-3.05153E-05-5.45383E-06 7.35041E-20 5.27515E-19
 -1       482 9.18114E-05-5.03682E-05-1.74806E-05 4.18468E-05-1.37892E-18 1.38797E-18
 -1       483 1.23056E-04-5.95151E-05-2.72189E-05 2.71556E-05-1.13603E-18-1.12515E-18
 -1       484 9.54497E-05-2.61282E-05-2.97025E-05-2.37492E-06-2.76344E-20 4.06534E-19
 -1       485 9.51845E-05-2.70118E-05-2.92128E-05-3.13987E-07-1.84892E-20 3.77252E-19
 -1       486 9.50375E-05-2.74978E-05-2.89434E-05 1.07764E-06 3.15981E-20 4.62413E-19
 -1       487 9.50489E-05-2.77713E-05-2.88319E-05 2.06683E-06-3.57560E-20 5.73817E-19
 -1       488 9.52097E-05-2.79230E-05-2.88360E-05 2.84353E-06-1.96260E-19 5.90439E-19
 -1       489 9.54993E-05-2.79991E-05-2.89275E-05 3.54070E-06 1.25210E-19 2.03528E-19
 -1       490 9.59016E-05-2.80282E-05-2.90872E-05 4.25361E-06 9.57603E-20 1.71989E-19
 -1       491 9.64096E-05-2.80362E-05-2.93012E-05 5.04848E-06 1.82439E-19 2.35731E-19
 -1       492 9.70278E-05-2.80569E-05-2.95569E-05 5.96450E-06 1.10123E-19 1.40479E-19
 -1       493 9.77777E-05-2.81442E-05-2.98408E-05 7.00934E-06 2.63852E-19 5.62364E-19
 -1       494 9.87091E-05-2.83899E-05-3.01348E-05 8.14715E-06 1.08726E-19 5.81015E-19
 -1       495 9.99210E-05-2.89473E-05-3.04162E-05 9.27742E-06-2.54416E-19 4.64181E-19
 -1       496 1.01593E-04-3.00553E-05-3.06599E-05 1.02017E-05-1.47503E-19 6.80915E-19
 -1       497 1.04016E-04-3.20408E-05-3.08512E-05 1.05763E-05-2.29361E-19 8.77483E-19
 -1       498 1.07581E-04-3.52351E-05-3.10154E-05 9.85203E-06 4.67136E-19 4.52067E-19
 -1       499 1.12604E-04-3.96752E-05-3.12703E-05 7.24985E-06-2.39887E-19 3.92643E-19
 -1       500 1.18873E-04-4.44864E-05-3.18992E-05 1.90355E-06-5.78402E-20 7.38269E-19
 -1       501 1.24770E-04-4.69367E-05-3.33878E-05-6.35269E-06 1.31064E-18 5.29488E-19
 -1       502 1.26785E-04-4.27788E-05-3.61149E-05-1.47644E-05 1.16312E-18 1.32085E-18
 -1       503 1.22964E-04-3.05056E-05-3.99098E-05-1.70241E-05 1.16210E-18 1.02861E-18
 -1       504 1.18020E-04-1.91276E-05-4.27338E-05-7.82864E-06-5.66877E-19 1.42468E-18
 -1       505 1.17921E-04-1.93839E-05-4.25757E-05 8.29861E-06-2.40195E-18 1.41153E-18
 -1       506 1.23106E-04-3.12934E-05-3.96181E-05 1.76837E-05-2.29586E-18 1.60707E-18
 -1       507 1.27042E-04-4.32554E-05-3.60066E-05 1.45624E-05-8.46011E-19 9.86707E-19
 -1       508 1.24454E-04-4.68451E-05-3.32904E-05 5.84295E-06-6.38684E-19 1.46210E-18
 -1       509 1.18524E-04-4.41747E-05-3.18728E-05-2.20079E-06 8.83933E-20 9.10908E-19
 -1       510 1.12339E-04-3.93406E-05-3.12938E-05-7.30308E-06 5.37611E-19 1.17244E-18
 -1       511 1.07442E-04-3.49561E-05-3.10721E-05-9.68111E-06-5.32831E-19 1.80746E-18
 -1       512 1.04007E-04-3.18403E-05-3.09322E-05-1.02197E-05-1.25917E-18 1.84630E-18
 -1       513 1.01696E-04-2.99169E-05-3.07633E-05-9.69092E-06 1.33350E-19 1.21793E-18
 -1       514 1.00125E-04-2.88516E-05-3.05447E-05-8.62731E-06 1.91193E-19 6.25485E-19
 -1       515 9.90098E-05-2.83245E-05-3.02918E-05-7.36290E-06 1.37300E-20-8.35655E-19
 -1       516 9.81764E-05-2.81053E-05-3.00283E-05-6.09266E-06-8.52941E-19-8.26013E-20
 -1       517 9.75268E-05-2.80490E-05-2.97742E-05-4.92046E-06-6.10243E-19 9.98073E-20
 -1       518 9.70079E-05-2.80714E-05-2.95424E-05-3.89335E-06 1.49484E-18-1.49112E-18
 -1       519 9.65901E-05-2.81271E-05-2.93397E-05-3.02464E-06 1.23988E-18 4.48343E-19
 -1       520 9.62547E-05-2.81926E-05-2.91682E-05-2.30886E-06 1.36311E-18 8.56753E-19
 -1       521 9.59883E-05-2.82565E-05-2.90269E-05-1.73116E-06 1.16404E-18 1.87410E-19
 -1       522 9.57795E-05-2.83139E-05-2.89131E-05-1.27282E-06-6.31676E-21 2.78143E-19
 -1       523 9.56184E-05-2.83629E-05-2.88232E-05-9.14510E-07-1.74736E-18 1.42297E-18
 -1       524 9.54960E-05-2.84034E-05-2.87535E-05-6.38099E-07-2.76734E-18-2.22272E-20
 -1       525 9.54038E-05-2.84354E-05-2.87004E-05-4.27413E-07-1.41550E-18 7.05576E-19
 -1       526 9.53353E-05-2.84606E-05-2.86602E-05-2.69361E-07 4.89075E-19 3.52890E-19
 -1       527 9.52837E-05-2.84675E-05-2.86353E-05-1.75698E-07 6.16473E-19 4.62699E-19
 -1       528 9.48792E-05-2.77133E-05-2.87833E-05-1.47848E-06 2.48146E-20 1.17927E-18
 -1       529 9.49556E-05-2.73521E-05-2.89689E-05-3.56399E-07-4.43521E-20 1.13166E-18
 -1       530 9.52196E-05-2.67309E-05-2.93479E-05 1.32737E-06-9.12550E-20 1.18460E-18
 -1       531 9.49868E-05-2.79450E-05-2.87309E-05-2.27504E-06-4.95863E-20 1.21202E-18
 -1       532 9.52551E-05-2.81125E-05-2.87743E-05-2.89468E-06 1.13666E-20 1.38369E-18
 -1       533 9.56639E-05-2.82563E-05-2.88880E-05-3.43299E-06 8.61465E-20 1.25395E-18
 -1       534 9.62041E-05-2.84104E-05-2.90535E-05-3.94522E-06 1.70734E-19 1.21386E-18
 -1       535 9.68784E-05-2.86125E-05-2.92559E-05-4.45072E-06 4.51393E-19 1.68369E-18
 -1       536 9.77022E-05-2.89092E-05-2.94821E-05-4.93173E-06 3.05279E-19 1.73771E-18
 -1       537 9.87027E-05-2.93598E-05-2.97183E-05-5.32807E-06-8.52823E-20 2.20686E-18
 -1       538 9.99177E-05-3.00356E-05-2.99504E-05-5.52956E-06-1.44474E-19 1.54177E-18
 -1       539 1.01389E-04-3.10084E-05-3.01656E-05-5.37001E-06-2.94661E-19 1.43429E-18
 -1       540 1.03143E-04-3.23204E-05-3.03570E-05-4.63044E-06-5.05437E-19 1.64911E-18
 -1       541 1.05146E-04-3.39190E-05-3.05325E-05-3.06697E-06-6.50015E-20 1.70306E-18
 -1       542 1.07223E-04-3.55537E-05-3.07238E-05-4.93675E-07 1.98279E-19 2.27625E-18
 -1       543 1.08969E-04-3.66744E-05-3.09910E-05 3.04317E-06-5.59849E-19 1.77955E-18
 -1       544 1.09732E-04-3.64522E-05-3.14099E-05 6.99971E-06-4.08719E-19 1.95179E-18
 -1       545 1.08859E-04-3.41327E-05-3.20283E-05 1.00992E-05 5.75945E-19 2.10112E-18
 -1       546 1.06316E-04-2.98469E-05-3.27760E-05 1.05134E-05 5.40182E-19 2.08004E-18
 -1       547 1.03327E-04-2.53299E-05-3.34337E-05 6.93367E-06 4.20085E-19 2.83483E-18
 -1       548 1.01925E-04-2.32880E-05-3.37064E-05 2.65594E-07-5.47289E-19 2.25596E-18
 -1       549 1.03167E-04-2.50691E-05-3.34727E-05-6.59269E-06-3.45816E-19 1.21534E-18
 -1       550 1.06113E-04-2.94781E-05-3.28442E-05-1.04544E-05 8.43191E-19 7.61244E-19
 -1       551 1.08750E-04-3.38387E-05-3.21066E-05-1.03416E-05 2.67822E-19 1.43574E-18
 -1       552 1.09789E-04-3.63301E-05-3.14896E-05-7.42431E-06 3.77600E-20 2.23555E-19
 -1       553 1.09163E-04-3.66933E-05-3.10669E-05-3.52013E-06-4.43473E-19 1.27273E-18
 -1       554 1.07499E-04-3.56363E-05-3.08061E-05 1.81385E-08 7.57288E-19 1.62244E-18
 -1       555 1.05474E-04-3.40154E-05-3.06314E-05 2.59369E-06-9.43168E-19 9.09997E-19
 -1       556 1.03514E-04-3.24049E-05-3.04799E-05 4.14039E-06-4.92321E-19 1.47584E-18
 -1       557 1.01806E-04-3.10707E-05-3.03175E-05 4.83113E-06 1.36844E-19 2.48678E-18
 -1       558 1.00393E-04-3.00797E-05-3.01350E-05 4.90834E-06 4.47065E-19 2.22037E-18
 -1       559 9.92516E-05-2.93971E-05-2.99373E-05 4.59766E-06-1.33079E-19 2.62647E-18
 -1       560 9.83390E-05-2.89547E-05-2.97352E-05 4.07588E-06 1.31049E-18 1.06947E-18
 -1       561 9.76125E-05-2.86841E-05-2.95395E-05 3.46807E-06 6.94596E-19 6.63188E-19
 -1       562 9.70365E-05-2.85298E-05-2.93587E-05 2.85545E-06-1.07078E-18 2.52523E-18
 -1       563 9.65824E-05-2.84506E-05-2.91981E-05 2.28593E-06-1.54745E-18 4.04464E-18
 -1       564 9.62272E-05-2.84178E-05-2.90601E-05 1.78384E-06-1.90107E-18 3.10364E-18
 -1       565 9.59523E-05-2.84121E-05-2.89448E-05 1.35792E-06 7.60174E-21 2.87741E-18
 -1       566 9.57420E-05-2.84211E-05-2.88511E-05 1.00723E-06 1.00103E-19 2.58188E-20
 -1       567 9.55834E-05-2.84367E-05-2.87766E-05 7.25372E-07 4.25482E-19 7.09308E-19
 -1       568 9.54651E-05-2.84539E-05-2.87186E-05 5.03288E-07 1.36795E-18 7.73495E-19
 -1       569 9.53780E-05-2.84705E-05-2.86743E-05 3.31399E-07 6.34958E-19 2.29410E-18
 -1       570 9.53138E-05-2.84852E-05-2.86405E-05 2.00501E-07 2.07769E-18 1.39933E-18
 -1       571 9.51046E-05-2.82112E-05-2.86687E-05 2.31156E-07-7.32175E-19-1.08577E-18
 -1       572 9.51747E-05-2.83056E-05-2.86582E-05 2.42665E-07-1.85976E-20 1.76601E-18
 -1       573 9.52431E-05-2.84050E-05-2.86448E-05 2.14636E-07 4.46793E-19 1.00519E-18
 -1       574 2.69167E-05-1.45706E-05-4.68318E-06 1.64757E-05-1.21250E-18 3.04212E-18
 -1       575 9.50431E-05-2.81312E-05-2.86766E-05 1.79975E-07-1.62775E-19-1.72126E-18
 -1       576 9.50020E-05-2.80782E-05-2.86817E-05 9.77648E-08-3.77861E-19-1.26518E-18
 -1       577 9.49874E-05-2.80591E-05-2.86837E-05-1.44436E-09-1.71501E-18 1.28842E-18
 -1       578 9.50018E-05-2.80766E-05-2.86823E-05-1.00863E-07-1.97563E-18 1.62716E-18
 -1       579 9.50425E-05-2.81277E-05-2.86779E-05-1.82103E-07-8.68563E-19-1.02789E-18
 -1       580 9.51047E-05-2.82074E-05-2.86703E-05-2.33550E-07-5.82529E-19-1.58484E-18
 -1       581 9.51774E-05-2.83048E-05-2.86597E-05-2.44499E-07-1.72351E-18 1.57994E-18
 -1       582 9.52364E-05-2.83890E-05-2.86488E-05-2.22387E-07 4.04807E-19 9.81545E-19
 -1       583 9.46518E-05-2.06464E-05-3.17366E-05-9.25749E-06 4.71873E-20 5.60219E-19
 -1       584 1.41506E-04-5.15035E-05-3.87747E-05 4.84389E-06 6.12810E-19-1.00485E-18
 -1       585 2.47899E-05-1.51040E-05-3.57055E-06-1.27466E-05-7.48883E-19 5.02428E-18
 -1       586 4.81470E-05-2.90484E-05-7.72433E-06-3.57053E-05-9.81764E-19 3.44742E-19
 -1       587 1.38493E-04-1.06546E-05-5.53135E-05-2.56956E-06-2.17582E-18-1.12576E-19
 -1       588 1.34747E-04-5.80440E-05-3.29594E-05-1.57875E-05-6.16111E-19 5.18067E-19
 -1       589 8.89948E-05-1.24981E-05-3.28020E-05-1.82276E-06 2.03452E-19 6.23106E-19
 -1       590 3.58614E-05-2.09282E-05-5.85740E-06 2.68687E-05-9.36236E-20 3.89635E-20
 -1       591 1.42028E-04-3.20205E-05-4.75704E-05-8.15513E-06 2.54189E-18-1.47400E-18
 -1       592 1.28511E-04-7.33094E-06-5.26109E-05 2.22139E-06 1.18818E-18-2.06200E-20
 -1       593 1.34693E-04-2.28720E-05-4.84961E-05 1.20261E-05 5.05732E-19 2.14553E-18
 -1       594 1.42685E-04-4.49475E-05-4.22268E-05 2.02870E-06 5.04845E-19 9.93146E-19
 -1       595 1.11605E-04-5.73860E-05-2.30936E-05-3.48613E-05-5.26749E-19 2.91776E-19
 -1       596 7.27021E-05-4.17966E-05-1.28952E-05-4.34937E-05-1.24006E-18-1.11909E-18
 -1       597 4.33910E-05-2.16676E-05-8.67927E-06-3.11059E-05-6.36201E-19-1.70561E-18
 -1       598 8.75038E-05-4.92487E-05-1.61055E-05-4.12586E-05-3.16737E-19-3.02364E-19
 -1       599 2.42799E-05-1.23064E-05-4.46798E-06-2.50847E-06 6.71935E-20-9.02937E-19
 -1       600 7.22916E-05-4.19140E-05-1.26093E-05 4.17333E-05 1.00448E-18-1.20371E-18
 -1       601 1.05911E-04-5.67787E-05-2.09215E-05 3.64936E-05 1.48866E-18-1.03497E-18
 -1       602 1.38802E-04-6.15629E-05-3.31398E-05 1.10841E-05 1.45987E-18 1.21163E-18
 -1       603 1.48059E-04-4.71416E-05-4.35607E-05-4.88156E-06 3.84566E-19 1.86845E-18
 -1       604 1.43506E-04-2.59147E-05-5.09284E-05-1.28680E-05 4.78574E-20 8.24216E-19
 -1       605 1.38378E-04-1.59279E-05-5.30505E-05 1.01835E-05-2.82210E-18-2.14389E-18
 -1       606 1.42401E-04-3.58989E-05-4.61685E-05 1.46857E-05-1.66786E-18-1.87343E-18
 -1       607 1.43067E-04-5.68181E-05-3.72493E-05-4.69830E-07-6.96129E-19-2.75180E-19
 -1       608 1.25084E-04-6.18096E-05-2.70264E-05-2.47368E-05-6.78156E-20-2.58570E-19
 -1       609 5.66498E-05-3.09136E-05-1.04751E-05 3.94469E-05-4.23040E-19 1.77220E-18
 -1       610 9.13658E-05-1.56901E-05-3.24556E-05-7.42773E-06 6.71586E-20 2.56811E-19
 -1       611 9.56638E-05-2.58179E-05-2.99114E-05 4.61310E-06-1.86587E-19 1.39285E-18
 -1       612 9.53444E-05-2.63396E-05-2.95608E-05 2.78590E-06-8.41590E-20 1.26977E-18
 -1       613 1.31381E-04-2.08148E-05-4.79182E-05-1.21688E-05 3.25176E-18-1.07425E-18
 -1       614 9.12875E-05-1.63257E-05-3.21321E-05 2.21160E-06 7.53947E-20 7.88470E-19
 -1       615 9.09817E-05-1.58738E-05-3.21944E-05 7.58160E-07 5.61210E-20 5.58013E-19
 -1       616 9.28081E-05-1.86752E-05-3.17775E-05 4.84890E-06 1.85955E-19 9.75815E-19
 -1       617 9.40023E-05-2.07005E-05-3.14221E-05 5.76316E-06 1.29438E-19 1.13180E-18
 -1       618 9.55934E-05-2.41527E-05-3.06051E-05 5.88970E-06-1.03166E-19 1.23067E-18
 -1       619 1.35027E-04-4.24598E-05-3.99875E-05-8.43959E-06 1.42783E-18-1.53601E-18
 -1       620 8.52378E-05-4.11781E-05-1.85950E-05 3.61966E-05-1.32771E-18-6.07878E-19
 -1       621 3.51038E-05-1.08042E-05-9.86924E-06-5.71538E-10-1.58738E-18 4.28440E-18
 -1       622 1.35183E-04-4.61199E-05-3.84090E-05 1.34051E-05-1.65701E-18 5.41413E-19
 -1       623 9.55028E-05-2.54381E-05-3.00298E-05-1.73218E-06 1.32313E-19 4.05936E-19
 -1       624 9.55661E-05-2.65324E-05-2.95849E-05 1.01272E-07-1.04812E-19 6.89443E-19
 -1       625 9.55268E-05-2.71482E-05-2.93047E-05 1.44041E-06-6.04669E-20 4.77632E-19
 -1       626 9.54704E-05-2.74471E-05-2.91525E-05 2.46959E-06-2.20422E-19 1.51569E-19
 -1       627 9.54235E-05-2.75312E-05-2.90964E-05 3.32982E-06 1.96238E-21 4.24995E-19
 -1       628 9.53904E-05-2.74635E-05-2.91111E-05 4.13559E-06 3.69176E-19 9.35519E-19
 -1       629 9.53669E-05-2.72893E-05-2.91756E-05 4.97297E-06 1.30253E-19 9.71272E-19
 -1       630 9.53501E-05-2.70522E-05-2.92699E-05 5.90332E-06 2.53565E-19 6.65959E-19
 -1       631 9.53486E-05-2.68101E-05-2.93729E-05 6.96472E-06 2.84528E-20 6.95008E-19
 -1       632 9.53968E-05-2.66548E-05-2.94600E-05 8.17083E-06 1.92147E-19 6.31947E-19
 -1       633 9.55819E-05-2.67405E-05-2.95027E-05 9.50689E-06 9.02038E-20 7.28343E-19
 -1       634 9.60860E-05-2.73197E-05-2.94707E-05 1.09202E-05 1.79381E-19 7.62489E-19
 -1       635 9.72492E-05-2.87817E-05-2.93430E-05 1.22970E-05-5.43806E-20 1.15472E-18
 -1       636 9.96429E-05-3.16633E-05-2.91344E-05 1.34017E-05-5.36825E-19 1.00120E-18
 -1       637 1.04095E-04-3.65371E-05-2.89548E-05 1.37107E-05 2.53169E-19 2.88628E-19
 -1       638 1.11465E-04-4.35325E-05-2.91099E-05 1.22028E-05 4.93990E-20 5.14098E-19
 -1       639 1.21916E-04-5.12445E-05-3.03036E-05 6.91576E-06 6.32859E-19 1.41768E-18
 -1       640 1.32654E-04-5.43826E-05-3.36974E-05-3.50529E-06 1.53533E-18 1.35318E-18
 -1       641 1.30389E-04-2.23959E-05-4.68095E-05-1.45823E-05 4.09382E-19 1.16483E-18
 -1       642 1.26012E-04-1.24405E-05-4.93395E-05-4.03588E-07-1.42720E-18 7.34550E-19
 -1       643 1.29863E-04-5.27828E-05-3.30510E-05 2.37241E-06-2.76363E-19 3.24685E-19
 -1       644 1.19895E-04-4.89934E-05-3.03871E-05-6.72931E-06 2.52916E-19 2.66472E-19
 -1       645 1.10623E-04-4.17625E-05-2.95132E-05-1.13451E-05 2.22172E-19 1.22948E-18
 -1       646 1.04083E-04-3.54431E-05-2.94202E-05-1.27274E-05-2.87441E-19-6.04804E-19
 -1       647 1.00114E-04-3.11370E-05-2.95627E-05-1.24078E-05-5.25189E-19 5.10540E-20
 -1       648 9.79220E-05-2.86139E-05-2.97030E-05-1.13046E-05-1.65333E-19 5.64005E-19
 -1       649 9.67920E-05-2.73389E-05-2.97644E-05-9.88978E-06 3.74829E-20 8.97878E-19
 -1       650 9.62340E-05-2.68320E-05-2.97423E-05-8.40619E-06-1.07986E-18-2.08491E-19
 -1       651 9.59576E-05-2.67524E-05-2.96580E-05-6.98252E-06 7.69657E-19-1.97537E-18
 -1       652 9.58082E-05-2.68854E-05-2.95372E-05-5.68608E-06 4.17539E-19 3.31737E-19
 -1       653 9.57111E-05-2.71062E-05-2.94011E-05-4.54798E-06-1.89619E-19 8.97620E-19
 -1       654 9.56341E-05-2.73477E-05-2.92648E-05-3.57668E-06 2.44659E-18-1.53104E-18
 -1       655 9.55658E-05-2.75765E-05-2.91377E-05-2.76661E-06 1.09491E-18-2.47259E-18
 -1       656 9.55034E-05-2.77783E-05-2.90246E-05-2.10410E-06 5.38192E-19-2.24811E-18
 -1       657 9.54472E-05-2.79486E-05-2.89276E-05-1.57153E-06 1.19506E-18-2.14487E-18
 -1       658 9.53977E-05-2.80882E-05-2.88467E-05-1.15010E-06-1.35050E-19-1.67431E-18
 -1       659 9.53547E-05-2.81995E-05-2.87806E-05-8.21129E-07-2.59315E-18-2.54180E-19
 -1       660 9.53179E-05-2.82864E-05-2.87276E-05-5.69049E-07-1.21001E-18 9.58916E-19
 -1       661 9.52862E-05-2.83532E-05-2.86854E-05-3.77840E-07-8.72042E-19 2.36322E-18
 -1       662 9.52568E-05-2.83696E-05-2.86661E-05-2.93303E-07-9.97999E-19 1.11387E-18
 -1       663 9.55126E-05-2.69924E-05-2.93650E-05-7.04942E-07 4.26225E-20 7.84939E-19
 -1       664 9.54810E-05-2.74680E-05-2.91479E-05-1.84552E-06-2.98492E-21 7.36347E-19
 -1       665 9.55271E-05-2.61498E-05-2.97311E-05 8.70226E-07-3.73082E-20 9.17478E-19
 -1       666 9.55536E-05-2.78477E-05-2.90165E-05-3.43696E-06 4.16290E-20 1.00435E-18
 -1       667 9.56917E-05-2.79100E-05-2.90490E-05-4.09316E-06-1.74586E-19 1.37273E-18
 -1       668 9.59195E-05-2.79723E-05-2.91199E-05-4.73410E-06-5.61682E-20 1.35277E-18
 -1       669 9.62676E-05-2.81048E-05-2.92123E-05-5.37541E-06 3.47648E-19 1.51636E-18
 -1       670 9.67876E-05-2.83945E-05-2.93111E-05-5.99597E-06-4.06090E-19 1.65445E-18
 -1       671 9.75595E-05-2.89515E-05-2.94035E-05-6.53145E-06-7.84870E-20 1.83196E-18
 -1       672 9.86964E-05-2.99065E-05-2.94818E-05-6.86443E-06 1.14291E-19 1.37673E-18
 -1       673 1.00339E-04-3.13917E-05-2.95501E-05-6.81162E-06-3.10122E-19 7.53883E-19
 -1       674 1.02626E-04-3.34847E-05-2.96341E-05-6.11198E-06-5.75286E-19 1.16857E-18
 -1       675 1.05607E-04-3.60893E-05-2.97969E-05-4.42960E-06-2.07288E-19 1.40349E-18
 -1       676 1.09066E-04-3.87278E-05-3.01498E-05-1.43291E-06-5.15888E-19 2.32703E-18
 -1       677 1.12315E-04-4.03549E-05-3.08442E-05 2.95504E-06-3.74792E-19 2.27748E-18
 -1       678 1.14108E-04-3.93916E-05-3.20280E-05 8.05867E-06-3.15167E-19 2.24956E-18
 -1       679 1.13137E-04-3.45158E-05-3.37256E-05 1.18742E-05 3.99632E-19 2.44904E-18
 -1       680 1.09593E-04-2.67320E-05-3.55518E-05 1.14631E-05-2.29613E-19 2.54156E-18
 -1       681 1.05781E-04-1.99600E-05-3.68760E-05 5.02442E-06 1.01039E-18 2.36566E-18
 -1       682 1.05841E-04-1.99174E-05-3.68786E-05-4.35447E-06 3.63572E-19 1.14174E-18
 -1       683 1.09237E-04-2.60781E-05-3.56886E-05-1.11339E-05-2.90241E-20 2.37681E-19
 -1       684 1.12953E-04-3.39860E-05-3.38708E-05-1.20789E-05 1.25023E-19 5.56462E-20
 -1       685 1.14137E-04-3.91025E-05-3.21777E-05-8.55710E-06 4.80322E-19 7.73780E-19
 -1       686 1.12543E-04-4.03443E-05-3.09517E-05-3.49767E-06-8.10926E-19 8.76272E-19
 -1       687 1.09349E-04-3.88152E-05-3.02320E-05 9.24648E-07 3.51154E-19 6.22775E-19
 -1       688 1.05883E-04-3.61749E-05-2.98754E-05 3.94540E-06 3.23848E-19 1.10683E-18
 -1       689 1.02876E-04-3.35329E-05-2.97198E-05 5.62053E-06-9.94902E-19-6.98990E-19
 -1       690 1.00553E-04-3.13732E-05-2.96488E-05 6.27921E-06-7.88503E-19-1.48133E-18
 -1       691 9.88818E-05-2.98228E-05-2.95968E-05 6.25094E-06-2.77074E-19-9.20258E-19
 -1       692 9.77285E-05-2.88156E-05-2.95338E-05 5.80881E-06-6.42375E-19 1.79106E-18
 -1       693 9.69487E-05-2.82250E-05-2.94526E-05 5.14813E-06 1.38639E-18 2.08061E-18
 -1       694 9.64246E-05-2.79253E-05-2.93563E-05 4.40153E-06 3.77615E-19 3.88147E-18
 -1       695 9.60705E-05-2.78141E-05-2.92522E-05 3.65444E-06-1.21284E-18 4.58827E-18
 -1       696 9.58282E-05-2.78162E-05-2.91475E-05 2.95804E-06-2.04808E-18 3.95862E-18
 -1       697 9.56596E-05-2.78798E-05-2.90481E-05 2.33943E-06-9.84581E-19 4.65482E-18
 -1       698 9.55400E-05-2.79713E-05-2.89577E-05 1.80935E-06-9.13648E-19 3.21816E-18
 -1       699 9.54535E-05-2.80700E-05-2.88784E-05 1.36801E-06 1.74480E-18 3.00126E-18
 -1       700 9.53898E-05-2.81639E-05-2.88109E-05 1.00931E-06 1.27303E-18 9.91798E-19
 -1       701 9.53417E-05-2.82466E-05-2.87549E-05 7.24043E-07 1.92811E-18 1.69427E-19
 -1       702 9.53045E-05-2.83159E-05-2.87092E-05 5.01494E-07 9.92807E-19 1.19867E-18
 -1       703 9.52698E-05-2.83634E-05-2.86740E-05 3.38639E-07 6.51144E-19-4.68038E-19
 -1       704 9.51006E-05-2.81639E-05-2.86872E-05 3.49129E-07 6.62006E-19 3.92219E-20
 -1       705 9.49149E-05-2.79550E-05-2.86971E-05 1.99836E-07 1.26472E-18-2.19776E-18
 -1       706 9.51870E-05-2.82626E-05-2.86818E-05 3.59208E-07 6.68146E-19 2.60282E-18
 -1       707 9.49952E-05-2.80446E-05-2.86933E-05 2.97618E-07 8.47293E-19-2.28544E-18
 -1       708 9.48696E-05-2.79033E-05-2.86999E-05-7.02722E-08-1.39219E-18 7.16494E-19
 -1       709 9.49118E-05-2.79478E-05-2.86989E-05-1.98825E-07-2.22790E-18 4.17983E-19
 -1       710 9.49930E-05-2.80358E-05-2.86960E-05-2.99182E-07-1.11217E-18-4.82312E-19
 -1       711 9.50993E-05-2.81552E-05-2.86902E-05-3.50901E-07-1.08998E-18-1.16062E-18
 -1       712 1.10091E-04-5.42331E-05-2.38246E-05 2.94859E-05-1.68729E-18-1.03298E-18
 -1       713 4.92568E-05-1.85170E-05-1.26735E-05 2.54367E-05-1.24577E-18 2.32775E-18
 -1       714 4.19099E-05-1.32455E-05-1.17560E-05 1.29910E-05-2.64201E-19-3.52763E-19
 -1       715 7.55278E-05-3.75620E-05-1.58550E-05-3.67754E-05 1.74515E-19-8.41871E-19
 -1       716 1.35230E-04-5.24796E-05-3.56390E-05-1.80405E-07-9.20268E-19 1.28384E-18
 -1       717 1.37232E-04-3.86220E-05-4.25990E-05-1.59084E-05 1.03989E-18 9.84067E-19
 -1       718 1.31855E-04-3.66958E-05-4.11310E-05 1.20516E-05 1.01191E-18 3.11833E-18
 -1       719 6.96440E-05-3.30442E-05-1.53123E-05-3.65719E-05-1.27118E-18-1.18174E-18
 -1       720 9.48703E-05-2.79054E-05-2.86993E-05 7.06803E-08 7.31159E-20 8.01724E-20
 -1       721 9.50788E-05-2.34415E-05-3.06963E-05-4.19407E-06 9.35086E-21 3.16267E-19
 -1       722 4.54705E-05-1.83103E-05-1.11266E-05-2.36956E-05-1.80828E-19 1.60100E-18
 -1       723 1.21184E-04-9.84610E-06-4.82250E-05-5.81200E-06 2.68081E-18 1.09660E-18
 -1       724 1.32150E-04-5.70251E-05-3.22830E-05 8.29984E-06-1.28496E-18-3.32474E-19
 -1       725 4.10664E-05-1.26353E-05-1.16792E-05-1.19225E-05-7.45690E-19-4.47286E-19
 -1       726 1.24511E-04-5.83781E-05-2.83171E-05-1.90794E-05-1.66082E-18 9.89156E-19
 -1       727 1.18779E-04-1.37360E-05-4.53670E-05 9.52845E-06-7.52748E-19 2.95986E-18
 -1       728 9.93113E-05-5.01046E-05-2.08854E-05-3.52789E-05-1.66685E-18 1.49656E-18
 -1       729 1.32154E-04-5.85248E-05-3.16493E-05-6.77536E-06-8.41866E-19 1.00714E-18
 -1       730 9.18961E-05-1.72419E-05-3.20006E-05 3.60420E-06 2.06300E-19 1.09472E-18
 -1       731 6.29780E-05-2.93775E-05-1.39753E-05 3.36527E-05 5.46733E-19-1.29278E-19
 -1       732 9.51901E-05-4.80830E-05-1.99139E-05 3.49334E-05 1.65523E-18-3.76586E-19
 -1       733 1.22872E-04-5.88201E-05-2.73425E-05 2.02270E-05 1.59823E-18 9.07497E-19
 -1       734 9.18599E-05-1.71814E-05-3.20108E-05-3.55341E-06 1.48250E-19 2.85855E-19
 -1       735 9.54876E-05-2.77229E-05-2.90417E-05-2.71582E-06 1.84912E-20 8.56963E-19
 -1       736 1.05932E-04-5.26097E-05-2.26566E-05-3.05512E-05-1.18095E-19-1.20289E-18
 -1       737 9.09743E-05-1.58619E-05-3.21962E-05-7.09135E-07 1.00761E-19 5.89182E-19
 -1       738 1.28263E-04-3.24721E-05-4.13423E-05-1.39336E-05 1.94601E-18-4.03876E-19
 -1       739 5.66652E-05-2.00297E-05-1.53696E-05-2.41296E-05-7.15313E-19-1.42673E-18
 -1       740 7.21396E-05-2.90443E-05-1.82636E-05 3.00754E-05-1.30945E-18 4.70606E-19
 -1       741 1.20584E-04-5.54499E-05-2.78234E-05-1.67999E-05 2.34787E-20 1.81421E-18
 -1       742 9.27554E-05-1.85747E-05-3.17976E-05-4.82050E-06 2.51274E-20 3.87215E-19
 -1       743 1.19629E-04-2.45679E-05-4.10191E-05 1.39819E-05-2.94344E-20 2.45125E-18
 -1       744 9.51860E-05-2.82667E-05-2.86797E-05-3.37829E-07-1.67445E-18 4.15539E-18
 -1       745 9.54035E-05-2.46892E-05-3.02997E-05 3.05417E-06-2.15376E-19 1.00352E-18
 -1       746 1.13530E-04-1.26476E-05-4.37141E-05 2.66133E-06 1.91800E-19 4.10284E-18
 -1       747 9.12631E-05-1.62869E-05-3.21380E-05-2.15693E-06 1.35926E-19 6.85332E-19
 -1       748 9.42055E-05-2.11212E-05-3.13252E-05-5.70183E-06-1.06376E-19 3.55853E-19
 -1       749 1.38943E-04-5.26903E-05-3.73345E-05-4.82297E-06 1.42718E-18 2.31102E-18
 -1       750 9.45573E-05-2.23457E-05-3.09504E-05 3.33860E-06 1.20712E-19 9.24745E-19
 -1       751 9.56213E-05-2.60910E-05-2.97986E-05 5.52360E-07-6.06933E-20 2.84470E-19
 -1       752 9.55886E-05-2.67212E-05-2.95145E-05 1.73686E-06-4.54551E-19 4.25280E-19
 -1       753 9.54034E-05-2.69663E-05-2.93301E-05 2.69453E-06-1.97470E-19 2.87243E-20
 -1       754 9.51090E-05-2.69293E-05-2.92198E-05 3.53573E-06 4.52218E-19-6.07028E-20
 -1       755 9.47195E-05-2.66815E-05-2.91591E-05 4.34947E-06 4.92355E-19 2.50978E-19
 -1       756 9.42353E-05-2.62797E-05-2.91237E-05 5.20647E-06 6.16442E-20 1.26213E-18
 -1       757 9.36544E-05-2.57830E-05-2.90875E-05 6.16125E-06 2.26490E-19 1.10020E-18
 -1       758 9.29854E-05-2.52701E-05-2.90205E-05 7.25674E-06 1.74792E-19 1.24198E-18
 -1       759 9.22672E-05-2.48628E-05-2.88872E-05 8.53204E-06 2.26798E-19 5.39544E-19
 -1       760 9.16019E-05-2.47583E-05-2.86468E-05 1.00345E-05 7.29061E-20 6.08808E-19
 -1       761 9.12107E-05-2.52753E-05-2.82572E-05 1.18329E-05 1.15969E-19 4.99501E-19
 -1       762 9.15215E-05-2.69094E-05-2.76883E-05 1.40167E-05-6.42698E-19 5.97977E-19
 -1       763 9.32994E-05-3.03859E-05-2.69549E-05 1.66590E-05-4.44337E-19 4.68591E-19
 -1       764 9.79889E-05-3.67041E-05-2.62496E-05 1.93295E-05 3.47910E-19 2.79180E-19
 -1       765 1.07302E-04-4.63921E-05-2.60064E-05 2.10328E-05 1.26247E-18 3.14435E-19
 -1       766 9.46648E-05-2.25137E-05-3.09181E-05-3.58064E-06 8.69040E-20 4.14428E-19
 -1       767 1.28221E-04-4.46359E-05-3.59374E-05 8.32584E-06-7.20249E-19 3.24207E-18
 -1       768 1.06716E-04-4.44496E-05-2.66368E-05-1.90646E-05 9.48975E-20 3.64105E-19
 -1       769 9.84117E-05-3.56111E-05-2.69001E-05-1.77337E-05-1.07166E-18-5.44318E-20
 -1       770 9.41789E-05-2.99143E-05-2.75385E-05-1.53738E-05-1.94612E-19-1.85668E-19
 -1       771 9.24405E-05-2.67510E-05-2.81509E-05-1.30240E-05-2.71982E-19 7.44206E-20
 -1       772 9.20359E-05-2.52638E-05-2.86159E-05-1.09442E-05 5.12802E-19-2.70968E-19
 -1       773 9.22668E-05-2.47886E-05-2.89186E-05-9.14083E-06-1.56316E-18-8.33871E-19
 -1       774 9.27425E-05-2.48730E-05-2.90864E-05-7.57245E-06-1.66986E-19 3.87824E-19
 -1       775 9.32626E-05-2.52330E-05-2.91551E-05-6.20590E-06-6.50189E-20-8.19586E-19
 -1       776 9.37361E-05-2.57005E-05-2.91577E-05-5.02166E-06 4.85247E-19-2.79095E-18
 -1       777 9.41301E-05-2.61824E-05-2.91201E-05-4.00700E-06 2.94128E-19-1.40520E-18
 -1       778 9.44408E-05-2.66308E-05-2.90612E-05-3.15020E-06 1.35694E-18-6.30302E-19
 -1       779 9.46771E-05-2.70248E-05-2.89937E-05-2.43808E-06 1.01825E-18-7.23934E-19
 -1       780 9.48519E-05-2.73583E-05-2.89257E-05-1.85562E-06 1.44962E-18-5.83452E-19
 -1       781 9.49781E-05-2.76330E-05-2.88621E-05-1.38672E-06-5.28301E-19-2.16732E-18
 -1       782 9.50670E-05-2.78544E-05-2.88053E-05-1.01563E-06-9.67541E-19-3.47945E-18
 -1       783 9.51244E-05-2.80275E-05-2.87559E-05-7.25588E-07 5.38009E-19-9.91915E-19
 -1       784 9.56779E-05-2.66091E-05-2.96008E-05-1.07989E-06 1.06035E-19 4.21596E-19
 -1       785 9.55857E-05-2.56929E-05-2.99540E-05 2.81386E-07 1.39174E-19 6.63773E-19
 -1       786 9.52111E-05-2.73446E-05-2.90855E-05-4.47440E-06-3.36428E-19 1.43285E-18
 -1       787 9.53500E-05-2.73804E-05-2.91297E-05-3.74708E-06-3.42401E-19 1.42587E-18
 -1       788 9.51528E-05-2.73878E-05-2.90420E-05-5.99725E-06 3.13020E-20 1.86594E-18
 -1       789 9.53863E-05-2.76995E-05-2.90085E-05-6.80321E-06 1.92032E-19 1.00287E-18
 -1       790 9.59649E-05-2.84112E-05-2.89515E-05-7.59048E-06 9.66643E-20 7.99104E-19
 -1       791 9.70872E-05-2.97197E-05-2.88719E-05-8.26232E-06-2.23522E-19 1.26966E-18
 -1       792 9.90127E-05-3.18294E-05-2.87932E-05-8.64130E-06-4.43585E-19 1.10013E-18
 -1       793 1.02027E-04-3.48775E-05-2.87791E-05-8.41972E-06-4.39176E-19 5.12019E-19
 -1       794 1.06346E-04-3.87668E-05-2.89642E-05-7.08281E-06-9.58501E-19 1.19975E-18
 -1       795 1.11727E-04-4.27177E-05-2.95785E-05-3.92691E-06-7.39279E-19 1.16879E-18
 -1       796 1.17162E-04-4.50465E-05-3.09194E-05 1.61728E-06-5.96779E-19 1.42406E-18
 -1       797 1.19989E-04-4.23619E-05-3.33532E-05 8.60641E-06 4.08253E-19 1.44915E-18
 -1       798 1.08909E-04-1.40954E-05-4.09632E-05 2.80851E-07 4.84093E-19 3.79840E-18
 -1       799 1.12305E-04-2.03825E-05-3.95846E-05-1.02783E-05 1.18280E-18 1.50356E-18
 -1       800 1.16995E-04-3.18697E-05-3.66300E-05-1.38447E-05 5.60213E-19-6.84063E-19
 -1       801 1.19356E-04-4.11772E-05-3.35493E-05-9.66406E-06 1.42083E-19-1.70700E-18
 -1       802 1.16930E-04-4.41920E-05-3.11855E-05-2.87035E-06-9.22363E-19-5.42902E-19
 -1       803 1.11976E-04-4.23877E-05-2.98209E-05 2.68213E-06-2.79242E-19 3.36905E-19
 -1       804 1.06865E-04-3.87506E-05-2.91857E-05 6.02587E-06-2.93736E-19 2.65841E-19
 -1       805 1.02586E-04-3.49635E-05-2.89792E-05 7.53899E-06 6.91430E-21 2.66546E-19
 -1       806 9.94946E-05-3.18970E-05-2.89702E-05 7.89698E-06-4.22349E-19-8.42430E-19
 -1       807 9.74549E-05-2.97157E-05-2.90311E-05 7.55359E-06-5.41700E-19-5.08629E-19
 -1       808 9.62048E-05-2.83223E-05-2.90926E-05 6.85400E-06-2.08891E-18 1.55286E-19
 -1       809 9.54954E-05-2.75317E-05-2.91274E-05 5.99601E-06 3.11987E-19 7.05009E-19
 -1       810 9.51314E-05-2.71616E-05-2.91300E-05 5.09904E-06 1.55591E-19 1.82134E-18
 -1       811 9.49752E-05-2.70637E-05-2.91050E-05 4.23388E-06-9.07370E-19 2.14375E-18
 -1       812 9.49356E-05-2.71280E-05-2.90604E-05 3.44098E-06-3.93938E-19 1.56591E-18
 -1       813 9.49554E-05-2.72781E-05-2.90046E-05 2.74086E-06-1.30142E-18-1.15638E-19
 -1       814 9.50006E-05-2.74641E-05-2.89442E-05 2.14069E-06-2.73580E-19 1.28008E-19
 -1       815 9.50521E-05-2.76550E-05-2.88845E-05 1.63889E-06 6.81800E-19-9.44297E-19
 -1       816 9.50997E-05-2.78329E-05-2.88286E-05 1.22847E-06 2.55853E-18-7.31454E-19
 -1       817 9.51391E-05-2.79890E-05-2.87786E-05 8.99465E-07 1.20340E-18-5.93868E-19
 -1       818 9.51687E-05-2.81194E-05-2.87353E-05 6.42799E-07 3.89865E-19 2.08235E-18
 -1       819 9.51789E-05-2.81960E-05-2.87069E-05 4.86376E-07 1.13452E-18 3.56016E-18
 -1       820 9.48201E-05-2.78088E-05-2.87192E-05-3.44121E-07-6.54692E-19 1.19188E-18
 -1       821 6.12397E-05-2.09722E-05-1.70030E-05 2.28125E-05 1.46775E-19 1.07041E-18
 -1       822 8.90740E-05-4.00864E-05-2.08378E-05-3.14441E-05-1.49831E-18 1.22556E-18
 -1       823 9.49564E-05-2.79459E-05-2.87189E-05-4.55858E-07 1.23179E-18-1.13784E-18
 -1       824 9.47312E-05-2.77221E-05-2.87182E-05-1.84207E-07-1.33944E-18 5.42360E-19
 -1       825 1.00379E-04-4.49896E-05-2.36129E-05 2.68447E-05-1.04530E-18-7.92965E-19
 -1       826 4.89587E-05-1.21172E-05-1.55154E-05 6.92204E-07-2.96056E-19-5.31698E-19
 -1       827 4.93262E-05-1.33303E-05-1.51081E-05-1.15397E-05 5.28949E-20 8.52433E-19
 -1       828 9.47008E-05-2.76943E-05-2.87171E-05 3.70322E-09-1.19932E-19-9.17087E-19
 -1       829 6.73087E-05-2.64899E-05-1.71819E-05-2.82785E-05 1.20513E-18-1.78467E-18
 -1       830 9.47350E-05-2.77302E-05-2.87164E-05 1.90420E-07 1.45343E-18-1.97894E-18
 -1       831 9.51252E-05-2.73127E-05-2.90624E-05-5.21789E-06-9.56195E-20 1.62941E-18
 -1       832 1.20877E-04-5.42707E-05-2.85443E-05 1.34773E-05-1.12154E-18 6.36995E-19
 -1       833 9.54689E-05-2.49716E-05-3.02113E-05-9.77477E-07 1.88912E-19 2.91923E-19
 -1       834 1.19161E-04-1.79376E-05-4.37535E-05-1.19649E-05 2.73938E-18 8.51255E-19
 -1       835 1.28946E-04-4.84973E-05-3.46230E-05-5.46207E-06 8.61591E-21-6.52103E-19
 -1       836 1.11518E-04-5.13750E-05-2.57371E-05-2.19913E-05-1.53458E-18 1.13042E-18
 -1       837 5.01540E-05-1.27715E-05-1.57040E-05 9.76780E-06-1.03920E-18 3.79375E-18
 -1       838 9.29233E-05-4.19067E-05-2.16728E-05-2.97832E-05-1.20570E-20-1.82006E-19
 -1       839 9.27417E-05-1.90099E-05-3.16004E-05 1.02309E-06 2.10199E-20 7.03604E-19
 -1       840 8.53646E-05-3.55138E-05-2.11813E-05 2.84921E-05 6.97525E-19-3.69253E-20
 -1       841 1.26981E-04-5.36600E-05-3.14486E-05-4.35578E-06-1.34640E-18 1.86568E-18
 -1       842 5.53412E-05-1.47140E-05-1.71958E-05-1.18763E-05-2.39909E-19-6.76687E-19
 -1       843 9.25953E-05-1.87735E-05-3.16390E-05 1.20489E-08 6.29735E-20 5.54460E-19
 -1       844 9.55000E-05-2.73312E-05-2.92151E-05-2.99018E-06-1.26220E-19 9.67923E-19
 -1       845 9.56245E-05-2.71086E-05-2.93639E-05-2.13272E-06-2.46287E-19 6.76231E-19
 -1       846 9.51638E-05-2.81628E-05-2.87144E-05-5.03053E-07 6.91224E-19 2.11288E-18
 -1       847 1.20127E-04-3.53744E-05-3.64469E-05 1.31091E-05-1.61267E-19 2.95727E-18
 -1       848 5.96295E-05-1.58019E-05-1.86198E-05 1.22893E-05-3.29317E-20 3.51883E-19
 -1       849 9.48275E-05-2.78243E-05-2.87157E-05 3.46700E-07 9.36908E-19-1.47538E-18
 -1       850 9.37794E-05-2.07588E-05-3.12948E-05-2.80733E-06 6.77620E-20 3.52400E-19
 -1       851 9.37801E-05-2.08026E-05-3.12783E-05 2.78968E-06 1.78849E-19 1.13388E-18
 -1       852 9.52107E-05-2.41356E-05-3.04588E-05 2.06664E-06 1.62899E-20 6.90909E-19
 -1       853 9.50594E-05-2.80700E-05-2.87097E-05 4.69398E-07 8.25469E-19-1.05504E-19
 -1       854 6.38346E-05-1.93748E-05-1.89232E-05 1.94088E-05-1.29803E-18 2.09670E-18
 -1       855 9.31213E-05-1.96345E-05-3.14951E-05-1.95243E-06 1.09988E-19 5.11674E-19
 -1       856 9.31468E-05-1.96857E-05-3.14853E-05 1.97051E-06 3.06965E-20 1.08726E-18
 -1       857 7.40172E-05-2.77854E-05-1.96379E-05-2.64767E-05-1.44115E-18-4.06576E-19
 -1       858 9.49384E-05-2.79400E-05-2.87134E-05 4.28688E-07 2.02374E-19-1.17805E-18
 -1       859 9.54998E-05-2.57440E-05-2.98952E-05 9.00706E-07-1.08323E-19 5.77242E-20
 -1       860 9.37637E-05-2.75895E-05-2.83602E-05-8.57156E-06 9.96983E-20 1.27910E-18
 -1       861 9.53621E-05-2.62830E-05-2.96053E-05 1.84957E-06-3.13181E-19 3.85508E-19
 -1       862 9.49860E-05-2.64054E-05-2.93917E-05 2.65479E-06-8.38361E-20 5.90803E-19
 -1       863 9.44082E-05-2.62055E-05-2.92297E-05 3.38547E-06 5.38793E-19 3.83601E-19
 -1       864 9.36414E-05-2.57557E-05-2.90938E-05 4.10567E-06 6.73955E-19 2.60621E-19
 -1       865 9.26826E-05-2.51195E-05-2.89556E-05 4.86925E-06 5.67280E-20 4.99764E-19
 -1       866 9.15218E-05-2.43638E-05-2.87819E-05 5.72365E-06-9.00388E-20 4.87737E-19
 -1       867 9.01514E-05-2.35742E-05-2.85330E-05 6.72030E-06-4.12194E-22 2.21844E-19
 -1       868 8.85806E-05-2.28738E-05-2.81600E-05 7.93423E-06 3.96516E-19 2.02080E-19
 -1       869 8.68590E-05-2.24514E-05-2.76032E-05 9.49674E-06 1.56173E-19 1.76946E-19
 -1       870 8.51231E-05-2.26085E-05-2.67912E-05 1.16422E-05-6.27172E-20 5.23946E-20
 -1       871 8.36966E-05-2.38390E-05-2.56446E-05 1.47471E-05-4.43420E-19 4.37075E-19
 -1       872 8.31511E-05-2.68366E-05-2.40909E-05 1.93614E-05-3.76114E-19 6.65754E-19
 -1       873 9.55190E-05-2.53850E-05-3.00579E-05-2.53771E-07 7.06836E-20 9.87121E-19
 -1       874 8.76101E-05-3.30068E-05-2.33263E-05-2.37114E-05 7.60113E-20 1.14248E-18
 -1       875 9.51006E-05-2.38987E-05-3.05156E-05 1.12436E-06 7.31765E-20 9.00284E-19
 -1       876 8.51217E-05-2.68936E-05-2.49369E-05-1.80443E-05-7.14679E-19 1.77008E-18
 -1       877 8.51415E-05-2.38885E-05-2.62455E-05-1.39255E-05-7.54583E-19 2.59038E-19
 -1       878 8.62146E-05-2.26722E-05-2.72318E-05-1.10145E-05-1.12806E-20-7.66383E-19
 -1       879 8.76180E-05-2.24707E-05-2.79201E-05-8.90922E-06 4.70990E-20-7.35847E-19
 -1       880 8.90348E-05-2.28222E-05-2.83767E-05-7.29589E-06 8.80189E-20-2.30403E-19
 -1       881 9.03200E-05-2.34428E-05-2.86616E-05-5.98976E-06-5.76352E-19-9.78598E-19
 -1       882 9.14202E-05-2.41633E-05-2.88243E-05-4.89377E-06 2.57620E-20 4.69395E-20
 -1       883 9.23272E-05-2.48853E-05-2.89037E-05-3.95998E-06 1.30311E-18 4.80915E-19
 -1       884 9.30549E-05-2.55553E-05-2.89284E-05-3.16420E-06 1.50055E-18 1.55589E-18
 -1       885 9.36265E-05-2.61481E-05-2.89193E-05-2.49189E-06 8.51492E-19 1.36259E-18
 -1       886 9.40676E-05-2.66553E-05-2.88910E-05-1.93148E-06 1.11964E-19-1.00288E-19
 -1       887 9.44022E-05-2.70778E-05-2.88533E-05-1.47151E-06 1.02105E-19-1.93857E-18
 -1       888 9.46526E-05-2.74235E-05-2.88125E-05-1.09986E-06-4.33575E-19-1.15774E-18
 -1       889 9.48346E-05-2.76997E-05-2.87722E-05-8.03444E-07 2.23586E-19-5.17088E-19
 -1       890 9.45480E-05-2.24846E-05-3.08812E-05 1.97094E-06 6.51001E-20 1.11385E-18
 -1       891 1.21164E-04-4.84743E-05-3.11679E-05 9.90878E-08-1.47995E-18-2.92670E-19
 -1       892 9.34553E-05-2.67597E-05-2.85836E-05-7.38007E-06 1.12806E-19 1.14181E-18
 -1       893 9.35572E-05-2.64512E-05-2.87596E-05-6.31775E-06 5.76492E-19 1.28261E-18
 -1       894 9.47629E-05-2.92057E-05-2.80958E-05-9.85337E-06-3.88893E-19 6.12927E-19
 -1       895 9.68478E-05-3.19112E-05-2.78291E-05-1.10935E-05-2.70353E-19 8.14789E-19
 -1       896 1.00523E-04-3.59684E-05-2.76617E-05-1.19428E-05-6.16221E-19 1.12069E-18
 -1       897 1.06403E-04-4.14482E-05-2.78559E-05-1.16064E-05-7.49713E-19 2.76275E-19
 -1       898 1.14540E-04-4.74051E-05-2.87291E-05-8.99646E-06-1.16507E-18 2.61111E-19
 -1       899 1.13457E-04-4.54182E-05-2.91795E-05 6.37943E-06-1.46894E-18 1.39641E-19
 -1       900 1.06753E-04-4.05746E-05-2.83630E-05 9.31561E-06-4.61752E-19 1.16182E-18
 -1       901 1.01385E-04-3.56367E-05-2.81844E-05 1.01128E-05 5.43246E-19 1.11262E-18
 -1       902 9.77148E-05-3.17998E-05-2.82505E-05 9.76339E-06-3.09634E-21 1.55084E-18
 -1       903 9.55468E-05-2.91874E-05-2.84392E-05 8.79802E-06-1.25781E-18 1.27295E-18
 -1       904 9.43683E-05-2.75707E-05-2.86271E-05 7.66494E-06-6.28662E-19 1.54611E-18
 -1       905 9.38373E-05-2.66949E-05-2.87749E-05 6.52344E-06-1.39611E-18 5.90167E-19
 -1       906 9.36971E-05-2.63266E-05-2.88727E-05 5.44993E-06-9.96666E-20 3.09810E-18
 -1       907 9.37740E-05-2.62826E-05-2.89246E-05 4.47739E-06 1.89857E-19 1.87436E-18
 -1       908 9.39567E-05-2.64297E-05-2.89399E-05 3.61934E-06 6.60064E-19 5.21797E-19
 -1       909 9.41769E-05-2.66751E-05-2.89292E-05 2.87874E-06 4.69698E-20-1.04136E-18
 -1       910 9.43956E-05-2.69581E-05-2.89017E-05 2.25201E-06-5.25690E-19-2.43446E-18
 -1       911 9.45925E-05-2.72407E-05-2.88650E-05 1.73140E-06 9.19857E-19-2.37944E-18
 -1       912 9.47588E-05-2.75014E-05-2.88245E-05 1.30673E-06 1.00160E-18-2.50429E-18
 -1       913 9.48924E-05-2.77292E-05-2.87842E-05 9.66077E-07 1.71854E-18 7.59304E-19
 -1       914 9.49953E-05-2.79202E-05-2.87465E-05 6.99188E-07-7.01890E-19 6.84175E-19
 -1       915 9.47409E-05-2.76693E-05-2.87445E-05-5.44401E-07 3.75565E-19 1.20821E-18
 -1       916 9.45783E-05-2.75214E-05-2.87387E-05-3.54619E-07-1.49953E-19 2.48122E-18
 -1       917 8.59241E-05-3.24323E-05-2.28321E-05 2.38878E-05-9.09597E-19-1.22819E-18
 -1       918 6.96393E-05-2.10146E-05-2.07052E-05-1.89829E-05 1.18394E-18-1.19249E-18
 -1       919 9.47410E-05-2.67583E-05-2.91354E-05-3.78902E-06-2.65724E-19 1.04215E-18
 -1       920 9.94124E-05-4.20769E-05-2.45224E-05-2.28954E-05-6.56932E-19 1.08845E-18
 -1       921 9.53332E-05-2.46703E-05-3.02842E-05-2.96299E-07-4.47328E-20-3.94337E-20
 -1       922 9.27278E-05-1.89850E-05-3.16051E-05-9.98395E-07-3.91240E-20 5.77860E-19
 -1       923 9.44968E-05-2.74484E-05-2.87351E-05-1.17278E-07-5.92712E-19-1.32207E-18
 -1       924 5.83845E-05-1.31565E-05-1.92522E-05-2.41785E-06 8.48522E-20 1.59764E-18
 -1       925 1.10485E-04-4.68758E-05-2.72417E-05 1.49392E-05-1.38387E-18-4.73225E-19
 -1       926 9.45018E-05-2.74568E-05-2.87336E-05 1.36426E-07 7.50420E-19-2.71468E-18
 -1       927 9.45099E-05-2.24930E-05-3.08674E-05-1.31881E-06-8.53901E-21 2.80570E-19
 -1       928 5.92011E-05-1.36629E-05-1.93772E-05-1.30439E-06-3.92027E-19-6.02684E-19
 -1       929 9.38315E-05-2.12123E-05-3.11225E-05 2.80308E-07 1.19956E-19 5.02348E-19
 -1       930 9.51360E-05-2.68241E-05-2.92765E-05-3.04619E-06-4.55617E-19 1.15519E-18
 -1       931 9.55913E-05-2.62567E-05-2.97149E-05-1.35759E-06 1.08617E-20 9.50554E-19
 -1       932 9.40736E-05-2.16414E-05-3.10415E-05 8.27319E-07 3.32540E-19 8.14606E-19
 -1       933 9.50283E-05-2.79975E-05-2.87274E-05 5.75331E-07 4.28319E-20-1.71262E-19
 -1       934 7.17927E-05-2.24994E-05-2.09882E-05 1.98131E-05-4.37754E-19 6.78593E-19
 -1       935 9.45899E-05-2.75419E-05-2.87350E-05 3.69475E-07 1.16756E-18-1.36238E-18
 -1       936 9.85684E-05-3.81497E-05-2.58758E-05 1.78598E-05-1.36212E-18 1.05624E-19
 -1       937 8.68436E-05-3.25854E-05-2.31833E-05-2.26985E-05-9.33923E-19 2.78230E-19
 -1       938 9.43031E-05-2.65979E-05-2.90165E-05-4.55127E-06-2.30778E-19 1.04374E-18
 -1       939 9.38810E-05-2.64521E-05-2.88981E-05-5.38222E-06-1.34565E-19 1.08755E-18
 -1       940 6.34959E-05-1.51235E-05-2.06733E-05 7.74258E-06-3.22800E-19 1.59222E-18
 -1       941 6.74914E-05-2.04394E-05-2.00640E-05-1.83343E-05-3.23385E-19-8.53320E-21
 -1       942 9.48771E-05-2.78426E-05-2.87290E-05 5.28566E-07 5.23536E-19-1.97548E-18
 -1       943 9.38211E-05-2.11956E-05-3.11253E-05-2.86733E-07 5.90784E-20 5.85908E-19
 -1       944 9.12125E-05-2.79721E-05-2.71038E-05-1.15322E-05-5.97015E-19 1.59003E-18
 -1       945 9.49497E-05-2.58763E-05-2.96028E-05 1.69226E-06 6.20123E-20 6.03913E-19
 -1       946 9.43473E-05-2.58355E-05-2.93622E-05 2.28227E-06 2.90623E-19 1.02561E-18
 -1       947 9.34753E-05-2.54547E-05-2.91517E-05 2.82129E-06 6.50638E-19 1.01304E-18
 -1       948 9.23401E-05-2.48062E-05-2.89431E-05 3.34957E-06 3.17789E-19 6.82773E-19
 -1       949 9.09291E-05-2.39549E-05-2.87033E-05 3.90084E-06-1.05695E-19 7.94715E-19
 -1       950 8.92121E-05-2.29655E-05-2.83915E-05 4.50963E-06-2.98416E-19 3.62313E-19
 -1       951 8.71419E-05-2.19098E-05-2.79568E-05 5.22592E-06 2.33880E-19 3.28743E-19
 -1       952 8.46504E-05-2.08744E-05-2.73331E-05 6.14140E-06 1.70532E-19 4.64000E-19
 -1       953 8.16413E-05-1.99711E-05-2.64303E-05 7.43464E-06-5.30818E-20-1.51845E-19
 -1       954 7.79725E-05-1.93645E-05-2.51155E-05 9.42844E-06 3.55734E-19 4.87169E-19
 -1       955 7.34130E-05-1.93157E-05-2.31657E-05 1.27701E-05-2.05290E-19 5.58218E-19
 -1       956 9.50353E-05-2.38766E-05-3.04966E-05 3.96409E-07 1.57872E-19 7.78545E-19
 -1       957 7.58292E-05-1.97940E-05-2.39970E-05-1.25225E-05-1.77128E-18 4.60326E-21
 -1       958 7.94381E-05-1.95765E-05-2.56572E-05-9.33297E-06-3.73784E-19 7.76514E-19
 -1       959 8.25396E-05-2.00059E-05-2.68002E-05-7.31552E-06 8.85170E-19 2.27630E-19
 -1       960 8.51199E-05-2.07731E-05-2.75775E-05-5.93428E-06 7.92984E-19 1.50975E-18
 -1       961 8.72498E-05-2.16930E-05-2.80958E-05-4.90017E-06-9.02585E-19 1.84940E-18
 -1       962 8.89962E-05-2.26577E-05-2.84307E-05-4.06400E-06-1.55190E-19 2.71944E-18
 -1       963 9.04151E-05-2.35957E-05-2.86369E-05-3.35283E-06 4.71659E-19 1.79461E-18
 -1       964 9.15563E-05-2.44633E-05-2.87541E-05-2.73594E-06 1.19769E-18 7.30402E-19
 -1       965 9.24636E-05-2.52368E-05-2.88115E-05-2.20088E-06 1.08528E-18 1.93519E-19
 -1       966 9.31764E-05-2.59067E-05-2.88299E-05-1.74179E-06-2.43655E-19 3.21261E-19
 -1       967 9.37298E-05-2.64738E-05-2.88240E-05-1.35447E-06 2.53116E-19 1.67335E-18
 -1       968 9.41518E-05-2.69421E-05-2.88042E-05-1.03521E-06-3.69487E-19 1.76205E-18
 -1       969 9.44684E-05-2.73217E-05-2.87772E-05-7.73746E-07-1.36733E-19 1.41692E-18
 -1       970 9.52511E-05-2.54903E-05-2.98977E-05 1.00914E-06-1.24258E-19 5.93794E-19
 -1       971 9.08989E-05-2.54660E-05-2.80425E-05-7.65557E-06-7.56856E-20 8.83936E-19
 -1       972 9.06972E-05-2.62584E-05-2.76168E-05-9.38047E-06-3.47074E-20 1.35581E-18
 -1       973 9.14785E-05-2.52583E-05-2.83800E-05-6.28456E-06 5.01894E-19 1.15907E-18
 -1       974 9.29273E-05-3.10049E-05-2.65362E-05-1.41178E-05-7.25151E-19 1.70770E-18
 -1       975 9.68445E-05-3.59514E-05-2.60767E-05-1.68933E-05-4.63701E-20 1.14240E-18
 -1       976 9.45316E-05-3.13087E-05-2.70926E-05 1.27566E-05-1.04282E-19 1.36589E-18
 -1       977 9.23997E-05-2.82251E-05-2.75043E-05 1.06490E-05-2.99196E-19 1.79591E-18
 -1       978 9.14990E-05-2.63836E-05-2.79066E-05 8.73870E-06-7.31124E-19 8.31980E-19
 -1       979 9.13261E-05-2.54441E-05-2.82350E-05 7.11541E-06-5.93063E-19 9.47252E-19
 -1       980 9.15588E-05-2.51066E-05-2.84794E-05 5.76059E-06-1.30505E-18-4.96674E-19
 -1       981 9.19907E-05-2.51471E-05-2.86472E-05 4.63266E-06-5.09727E-20-1.24249E-18
 -1       982 9.24981E-05-2.54103E-05-2.87518E-05 3.69507E-06 5.42144E-19 5.53995E-19
 -1       983 9.30057E-05-2.57863E-05-2.88082E-05 2.91822E-06 1.31414E-18-1.08145E-18
 -1       984 9.34724E-05-2.62027E-05-2.88298E-05 2.27805E-06 7.76475E-19 1.54164E-19
 -1       985 9.38784E-05-2.66132E-05-2.88279E-05 1.75496E-06-1.97293E-19-5.12977E-19
 -1       986 9.42172E-05-2.69910E-05-2.88112E-05 1.33188E-06-1.96721E-19 4.46986E-20
 -1       987 9.44919E-05-2.73237E-05-2.87863E-05 9.94678E-07 1.18304E-19 4.23539E-19
 -1       988 9.47043E-05-2.76026E-05-2.87578E-05 7.29100E-07 1.06096E-18 5.21953E-20
 -1       989 6.58887E-05-1.57084E-05-2.14289E-05 7.46783E-06-1.64380E-19 1.42540E-19
 -1       990 6.57116E-05-1.64756E-05-2.10437E-05-9.36986E-06-3.40670E-19-8.92227E-19
 -1       991 9.52200E-05-2.45957E-05-3.02668E-05 1.70696E-07-3.40327E-20 5.39988E-19
 -1       992 9.54384E-05-2.66935E-05-2.94621E-05-2.26096E-06-3.53822E-19 9.59869E-19
 -1       993 6.82999E-05-1.67665E-05-2.20618E-05-9.86867E-06-4.11584E-19-1.50767E-18
 -1       994 9.42625E-05-2.71707E-05-2.87535E-05-3.10996E-07 2.82502E-19 1.40539E-18
 -1       995 9.40586E-05-2.16114E-05-3.10482E-05-8.36515E-07-6.77133E-20 5.18853E-19
 -1       996 9.42140E-05-2.71342E-05-2.87485E-05 2.00353E-08 8.09330E-19-2.38865E-18
 -1       997 9.42561E-05-2.19321E-05-3.09943E-05 1.39678E-06 2.20430E-19 1.06422E-18
 -1       998 7.57540E-05-2.26182E-05-2.27202E-05 1.69223E-05-1.23356E-18 1.57443E-18
 -1       999 6.72712E-05-1.50172E-05-2.23610E-05-1.55386E-06 4.78522E-19 2.75922E-18
 -1      1000 9.53750E-05-2.52091E-05-3.00718E-05-5.94579E-07 1.44702E-19 6.98262E-19
 -1      1001 8.74996E-05-2.92667E-05-2.49420E-05 1.72000E-05-6.95383E-19-8.71120E-19
 -1      1002 9.42845E-05-2.72007E-05-2.87498E-05 3.42761E-07 6.88337E-19-3.54820E-18
 -1      1003 6.71456E-05-1.53881E-05-2.21347E-05-5.28270E-07-1.82320E-19-6.21884E-19
 -1      1004 7.92768E-05-2.56407E-05-2.29613E-05-1.86630E-05-2.21849E-19 3.89648E-19
 -1      1005 9.22362E-05-2.53968E-05-2.86457E-05-5.18521E-06 1.81142E-19 9.22315E-19
 -1      1006 9.38139E-05-2.60186E-05-2.90551E-05-3.52045E-06-4.56633E-19 7.09031E-19
 -1      1007 9.46822E-05-2.31726E-05-3.06485E-05 1.30925E-07 1.56637E-19 1.00766E-18
 -1      1008 9.44874E-05-2.62400E-05-2.92488E-05-2.83217E-06-2.93790E-19 8.90822E-19
 -1      1009 9.45662E-05-2.29649E-05-3.06861E-05-2.43793E-08-5.39818E-21 6.22670E-19
 -1      1010 9.36196E-05-2.53298E-05-2.92671E-05 1.54213E-06 2.27147E-19 7.35155E-19
 -1      1011 9.24802E-05-2.47806E-05-2.90142E-05 1.82252E-06 3.70650E-19 5.62477E-19
 -1      1012 9.10316E-05-2.39711E-05-2.87403E-05 2.06737E-06-1.08846E-19 8.95441E-20
 -1      1013 8.92472E-05-2.29643E-05-2.84072E-05 2.28412E-06-1.83811E-19-2.22973E-19
 -1      1014 8.70717E-05-2.18165E-05-2.79669E-05 2.47983E-06 1.27490E-19 4.43937E-19
 -1      1015 8.44010E-05-2.05699E-05-2.73571E-05 2.67188E-06 9.60039E-20 1.48859E-19
 -1      1016 8.10763E-05-1.92643E-05-2.64912E-05 2.90247E-06 1.31341E-19 2.07866E-19
 -1      1017 7.67778E-05-1.78847E-05-2.52379E-05 3.26779E-06 4.07696E-19 1.11415E-19
 -1      1018 7.20844E-05-1.67636E-05-2.36944E-05 4.73859E-06 3.34047E-19 9.86314E-20
 -1      1019 9.49572E-05-2.53617E-05-2.98280E-05 8.19398E-07 5.92687E-21 5.32096E-19
 -1      1020 7.76781E-05-1.78247E-05-2.56433E-05-3.85361E-06 2.91434E-19 1.53231E-18
 -1      1021 8.14980E-05-1.90605E-05-2.67588E-05-3.24424E-06 1.59806E-18 3.68987E-19
 -1      1022 8.44400E-05-2.02466E-05-2.75115E-05-2.81699E-06 3.67760E-19 4.70475E-19
 -1      1023 8.67704E-05-2.13985E-05-2.80166E-05-2.46662E-06-4.27796E-19 1.66773E-18
 -1      1024 8.86332E-05-2.24858E-05-2.83491E-05-2.14075E-06-2.83579E-19 1.05522E-18
 -1      1025 9.01312E-05-2.34929E-05-2.85594E-05-1.82777E-06 5.63026E-19-2.86479E-19
 -1      1026 9.13316E-05-2.44004E-05-2.86849E-05-1.52966E-06 3.78831E-19-1.27074E-18
 -1      1027 9.22868E-05-2.51983E-05-2.87523E-05-1.25319E-06 5.75803E-19-1.64036E-18
 -1      1028 9.30399E-05-2.58846E-05-2.87810E-05-1.00391E-06 1.67124E-18 1.22383E-19
 -1      1029 9.36230E-05-2.64602E-05-2.87845E-05-7.89097E-07-2.73534E-20 1.20538E-18
 -1      1030 9.39654E-05-2.68357E-05-2.87700E-05-5.15220E-07 1.45187E-18 2.53831E-18
 -1      1031 8.89406E-05-2.37899E-05-2.79217E-05-5.75575E-06 2.31855E-19 7.12736E-19
 -1      1032 8.81945E-05-2.37981E-05-2.75982E-05 7.30310E-06-7.10756E-19-6.16455E-19
 -1      1033 8.76265E-05-2.45516E-05-2.70333E-05 9.47058E-06-8.17474E-19-3.45618E-19
 -1      1034 8.76308E-05-2.62276E-05-2.63195E-05 1.23318E-05-2.22159E-19-6.44378E-20
 -1      1035 8.90362E-05-2.36553E-05-2.80209E-05 5.65711E-06 1.45315E-19-1.57799E-19
 -1      1036 8.99529E-05-2.38651E-05-2.83236E-05 4.39919E-06-3.15737E-19-1.88900E-19
 -1      1037 9.08633E-05-2.42954E-05-2.85291E-05 3.42080E-06-5.01623E-19-3.86139E-19
 -1      1038 9.17034E-05-2.48291E-05-2.86604E-05 2.65315E-06 9.76439E-19-2.23355E-20
 -1      1039 9.24456E-05-2.53931E-05-2.87368E-05 2.04613E-06 2.01540E-19 2.16434E-18
 -1      1040 9.30791E-05-2.59398E-05-2.87740E-05 1.56530E-06 7.45282E-19 2.91480E-18
 -1      1041 9.36045E-05-2.64405E-05-2.87846E-05 1.18471E-06 3.73258E-19 1.84791E-18
 -1      1042 9.40261E-05-2.68777E-05-2.87778E-05 8.86880E-07-5.37526E-19 4.23020E-19
 -1      1043 9.50630E-05-2.46224E-05-3.01872E-05 3.39629E-07 4.10116E-20 5.96493E-19
 -1      1044 7.49415E-05-2.07883E-05-2.32035E-05-1.31590E-05-3.05040E-19 2.22057E-19
 -1      1045 9.44491E-05-2.55447E-05-2.95303E-05 1.21785E-06 3.86961E-19 5.73064E-19
 -1      1046 9.30434E-05-2.56983E-05-2.88623E-05-4.28434E-06-4.22060E-19 7.50901E-19
 -1      1047 7.34210E-05-1.69488E-05-2.41904E-05-5.98918E-06-3.98300E-20 1.17500E-18
 -1      1048 8.58598E-05-2.55701E-05-2.58421E-05-1.28023E-05-5.81163E-19-1.16317E-19
 -1      1049 7.26972E-05-1.78365E-05-2.34840E-05 8.52670E-06-8.11016E-19 1.14952E-18
 -1      1050 9.46453E-05-2.31306E-05-3.06522E-05-1.55496E-07-2.28171E-20 7.79684E-19
 -1      1051 9.38615E-05-2.67567E-05-2.87591E-05-8.88977E-08 1.89873E-18-2.27192E-18
 -1      1052 8.76181E-05-2.91726E-05-2.50176E-05-1.69820E-05 3.25891E-19-2.40216E-19
 -1      1053 9.43243E-05-2.72104E-05-2.87632E-05 6.74643E-07 8.70610E-19 3.03562E-19
 -1      1054 9.53318E-05-2.59507E-05-2.97348E-05-1.43354E-06-2.49670E-19 5.66807E-19
 -1      1055 8.06420E-05-2.27317E-05-2.48127E-05 1.26899E-05-8.83321E-19-4.75133E-21
 -1      1056 9.50922E-05-2.47977E-05-3.01214E-05-4.57621E-07 6.68485E-20 1.20298E-18
 -1      1057 8.76365E-05-2.37194E-05-2.73932E-05-7.40360E-06-1.36296E-19 3.94095E-19
 -1      1058 9.39096E-05-2.68056E-05-2.87590E-05 3.41119E-07 2.19213E-18-3.76065E-18
 -1      1059 9.49831E-05-2.45877E-05-3.01685E-05-1.45711E-07-2.58878E-20 8.80831E-19
 -1      1060 7.26622E-05-1.76545E-05-2.35635E-05-6.32614E-06-2.11494E-19-4.43569E-19
 -1      1061 8.65126E-05-2.41876E-05-2.67097E-05-9.65837E-06-6.43592E-20 3.90823E-19
 -1      1062 9.02514E-05-2.41580E-05-2.83258E-05-4.54482E-06 3.48249E-20 3.87129E-19
 -1      1063 9.50125E-05-2.62549E-05-2.94675E-05-2.15691E-06-5.59365E-19 5.91931E-19
 -1      1064 9.36409E-05-2.56128E-05-2.91551E-05-2.30184E-06-1.36882E-19 4.70351E-19
 -1      1065 9.26579E-05-2.51966E-05-2.89114E-05-2.90626E-06-4.42095E-19 3.48091E-19
 -1      1066 9.16042E-05-2.42895E-05-2.88494E-05 4.11094E-07-2.62069E-19-1.98265E-19
 -1      1067 8.99628E-05-2.34083E-05-2.85237E-05 3.08577E-07-3.10897E-19 3.30464E-19
 -1      1068 8.79566E-05-2.23575E-05-2.81136E-05 8.41739E-08 4.50742E-20 7.13749E-19
 -1      1069 8.55228E-05-2.12001E-05-2.75675E-05-3.18404E-07 1.40347E-20 2.81087E-19
 -1      1070 8.25404E-05-1.99734E-05-2.68159E-05-9.43733E-07-2.64490E-19 3.66532E-20
 -1      1071 7.88685E-05-1.87556E-05-2.57657E-05-1.88134E-06 5.37308E-20-4.97329E-19
 -1      1072 7.39465E-05-1.72193E-05-2.43122E-05-1.57424E-06 1.98839E-19-1.28856E-19
 -1      1073 8.44336E-05-2.17247E-05-2.68772E-05 6.67507E-06-5.65518E-19-1.60010E-18
 -1      1074 8.24532E-05-1.94857E-05-2.69846E-05 2.63666E-07 1.03706E-18-6.94078E-19
 -1      1075 8.51442E-05-2.06491E-05-2.76389E-05-1.12668E-07 4.77684E-19-8.58389E-19
 -1      1076 8.72858E-05-2.17638E-05-2.80810E-05-3.32155E-07-6.58157E-19 3.78512E-19
 -1      1077 8.90081E-05-2.28041E-05-2.83735E-05-4.45005E-07-6.27218E-19 1.33343E-19
 -1      1078 9.04037E-05-2.37631E-05-2.85605E-05-4.76400E-07 1.41211E-19-5.16039E-19
 -1      1079 9.15311E-05-2.46277E-05-2.86732E-05-4.56382E-07-1.65369E-19-1.15064E-18
 -1      1080 9.24404E-05-2.53908E-05-2.87345E-05-4.14843E-07 7.30080E-19-1.85680E-18
 -1      1081 9.31456E-05-2.60368E-05-2.87609E-05-3.57915E-07 1.63863E-18-3.63548E-18
 -1      1082 9.35272E-05-2.64136E-05-2.87626E-05-2.02735E-07 3.70700E-18-2.55777E-18
 -1      1083 8.77614E-05-2.24810E-05-2.79779E-05 3.64617E-06-7.41406E-20-1.92910E-18
 -1      1084 8.62296E-05-2.20127E-05-2.75184E-05 4.91390E-06-3.99398E-19-1.59143E-18
 -1      1085 8.25432E-05-2.18807E-05-2.60036E-05 9.14881E-06-5.59656E-19-6.39888E-19
 -1      1086 8.91520E-05-2.31421E-05-2.82900E-05 2.71398E-06-3.62752E-19-1.31925E-18
 -1      1087 9.03640E-05-2.38612E-05-2.85013E-05 2.02840E-06-6.32359E-20-4.17873E-19
 -1      1088 9.13996E-05-2.45844E-05-2.86352E-05 1.51688E-06-8.48642E-19 1.02547E-19
 -1      1089 9.22668E-05-2.52698E-05-2.87131E-05 1.13206E-06 1.08994E-19 1.38122E-18
 -1      1090 9.29807E-05-2.58929E-05-2.87520E-05 8.42842E-07 1.03756E-18 1.49139E-18
 -1      1091 9.35540E-05-2.64373E-05-2.87646E-05 6.21888E-07 1.28822E-18-5.62419E-19
 -1      1092 9.39541E-05-2.53284E-05-2.94107E-05 4.13416E-07 4.78852E-19 3.97641E-19
 -1      1093 9.46466E-05-2.53267E-05-2.97093E-05 3.11299E-07 2.38138E-19 5.31585E-19
 -1      1094 9.15110E-05-2.46715E-05-2.86448E-05-3.63216E-06-2.83774E-19-5.99395E-20
 -1      1095 9.49819E-05-2.45053E-05-3.02011E-05 1.12412E-07-3.76661E-20 6.16751E-19
 -1      1096 7.90052E-05-1.82562E-05-2.60318E-05 8.56085E-07 2.65176E-19 1.06294E-18
 -1      1097 9.29312E-05-2.49519E-05-2.91339E-05 4.41190E-07 1.45371E-19 3.30065E-19
 -1      1098 7.40901E-05-1.69595E-05-2.44882E-05 2.74762E-06-3.85233E-19 1.72040E-18
 -1      1099 9.44167E-05-2.58073E-05-2.94038E-05-1.77569E-06-5.67081E-19 4.06409E-19
 -1      1100 8.05304E-05-2.13634E-05-2.53532E-05-9.35783E-06 5.64782E-20-6.35113E-20
 -1      1101 9.49450E-05-2.55673E-05-2.97327E-05-1.07758E-06-1.94485E-19 1.03452E-18
 -1      1102 8.60288E-05-2.20776E-05-2.74073E-05-4.53274E-06-9.92597E-20-1.65540E-19
 -1      1103 7.79354E-05-1.91652E-05-2.51884E-05 6.82638E-06 9.51332E-20 1.40980E-18
 -1      1104 8.80424E-05-2.27869E-05-2.79662E-05-3.34106E-06-1.06293E-19-3.08965E-19
 -1      1105 9.37260E-05-2.53779E-05-2.92921E-05-1.06925E-06-3.69736E-20 2.03318E-19
 -1      1106 9.26852E-05-2.49717E-05-2.90202E-05-1.42684E-06-5.01673E-19 1.10918E-19
 -1      1107 9.10486E-05-2.41012E-05-2.86922E-05-1.30540E-06-6.15390E-20-2.52792E-19
 -1      1108 8.75481E-05-2.20587E-05-2.80684E-05 1.48277E-06-2.80601E-19-9.86317E-19
 -1      1109 8.93626E-05-2.32516E-05-2.83340E-05-1.82271E-06-1.55355E-20-8.93185E-20
 -1      1110 9.36096E-05-2.65026E-05-2.87601E-05 2.86740E-07 3.74326E-18-1.99263E-18
 -1      1111 8.37660E-05-2.15471E-05-2.66650E-05-6.23963E-06 2.74459E-20 3.69570E-20
 -1      1112 8.91291E-05-2.29699E-05-2.83535E-05 9.98879E-07-3.85666E-19-1.29226E-18
 -1      1113 9.04500E-05-2.38502E-05-2.85423E-05 6.66759E-07-6.67751E-20-5.00033E-19
 -1      1114 9.15356E-05-2.46651E-05-2.86584E-05 4.42698E-07-1.03033E-18-9.41507E-19
 -1      1115 9.24129E-05-2.53931E-05-2.87232E-05 2.85674E-07-1.96075E-19-1.67437E-18
 -1      1116 9.30792E-05-2.59917E-05-2.87515E-05 2.90917E-07 2.12176E-18-2.31872E-19
 -1      1117 8.45542E-05-2.07192E-05-2.73610E-05 2.75659E-06 5.33871E-19-6.56397E-19
 -1      1118 9.43679E-05-2.54129E-05-2.95566E-05-4.69718E-07 2.58631E-19 6.56114E-19
 -1      1119 7.88948E-05-1.94919E-05-2.54630E-05-5.54834E-06 5.00240E-19-1.94166E-19
 -1      1120 8.16290E-05-1.98376E-05-2.64870E-05 4.33755E-06-4.46905E-19 2.90541E-19
 -1      1121 1.16469E-04 2.56581E-10-4.17307E-05-4.12935E-05-2.11758E-21 5.49724E-19
 -1      1122 8.85280E-05 7.19835E-11-3.71955E-05-2.40284E-05-1.05879E-21 5.07849E-19
 -1      1123 8.40743E-05 4.15980E-11-3.57596E-05-1.77185E-05-3.17637E-22 4.08945E-19
 -1      1124 8.23979E-05 3.20700E-11-3.50961E-05-1.36582E-05 4.26163E-21 3.11920E-19
 -1      1125 8.16279E-05 2.72131E-11-3.47785E-05-1.03544E-05 6.71009E-21 2.93901E-19
 -1      1126 8.12375E-05 2.43173E-11-3.46205E-05-7.48087E-06 4.02341E-21 2.97461E-19
 -1      1127 8.10284E-05 2.25047E-11-3.45391E-05-4.85928E-06 4.68184E-21 3.73780E-19
 -1      1128 8.09224E-05 2.15047E-11-3.44995E-05-2.36738E-06 4.60243E-21 4.69772E-19
 -1      1129 8.08908E-05 2.11976E-11-3.44879E-05 5.28192E-08 7.22294E-21 4.96970E-19
 -1      1130 8.09249E-05 2.15493E-11-3.45002E-05 2.47554E-06 1.45071E-20 6.34236E-19
 -1      1131 8.10337E-05 2.26040E-11-3.45406E-05 4.97563E-06 1.37444E-20 7.86947E-19
 -1      1132 8.12485E-05 2.44704E-11-3.46229E-05 7.61272E-06 1.94884E-20 9.83028E-19
 -1      1133 8.16455E-05 2.75143E-11-3.47828E-05 1.05131E-05 1.06673E-20 1.19498E-18
 -1      1134 8.24192E-05 3.25474E-11-3.51041E-05 1.38631E-05 1.18320E-20 1.50387E-18
 -1      1135 8.40689E-05 4.20541E-11-3.57782E-05 1.79686E-05 7.41154E-21 1.84494E-18
 -1      1136 8.82263E-05 6.68333E-11-3.72659E-05 2.38705E-05-5.39984E-21 2.19937E-18
 -1      1137 1.06277E-04 1.63524E-10-4.05161E-05 3.60416E-05-7.11508E-20 2.45491E-18
 -1      1138 1.29692E-04-2.56580E-05-4.01311E-05-2.59882E-05 1.68348E-20 5.33631E-19
 -1      1139 9.71220E-05-2.87637E-05-3.14742E-05-6.71863E-07-5.77041E-21 6.42157E-19
 -1      1140 8.99435E-05-2.69639E-05-2.78264E-05 3.85834E-07-3.74547E-21 8.34102E-19
 -1      1141 8.81451E-05-2.65439E-05-2.66141E-05 2.48470E-07 4.38737E-21 8.73317E-19
 -1      1142 8.79301E-05-2.64612E-05-2.64034E-05 1.63475E-07-2.80646E-20 5.04514E-19
 -1      1143 8.84905E-05-2.65998E-05-2.65512E-05 1.16100E-07 6.83251E-22 6.94144E-19
 -1      1144 8.94665E-05-2.68729E-05-2.68439E-05 8.67940E-08 8.46156E-20 1.01472E-18
 -1      1145 9.06965E-05-2.72316E-05-2.72149E-05 6.79433E-08-2.51215E-21 1.40098E-18
 -1      1146 9.21164E-05-2.76528E-05-2.76441E-05 5.61085E-08-3.38726E-20 1.22947E-18
 -1      1147 9.37205E-05-2.81327E-05-2.81306E-05 5.00278E-08 1.87431E-20 3.53200E-19
 -1      1148 9.55449E-05-2.86806E-05-2.86853E-05 4.95651E-08 6.72713E-20 5.72065E-19
 -1      1149 9.76563E-05-2.93157E-05-2.93279E-05 5.52614E-08 1.29596E-19 1.59822E-18
 -1      1150 1.00143E-04-3.00636E-05-3.00843E-05 6.80933E-08 1.49538E-20 8.24242E-19
 -1      1151 1.03103E-04-3.09522E-05-3.09818E-05 8.91421E-08 1.13508E-19 1.36122E-18
 -1      1152 1.06618E-04-3.20048E-05-3.20409E-05 1.18827E-07-4.75753E-20 2.09917E-18
 -1      1153 1.10711E-04-3.32263E-05-3.32612E-05 1.55155E-07-2.28347E-19 2.08479E-18
 -1      1154 1.15270E-04-3.45809E-05-3.45962E-05 1.90224E-07-4.17271E-20 9.13313E-19
 -1      1155 1.19928E-04-3.59568E-05-3.59187E-05 2.04523E-07 1.03202E-19 1.83954E-18
 -1      1156 1.23910E-04-3.71213E-05-3.69835E-05 1.60820E-07 2.24596E-20 1.51492E-18
 -1      1157 1.25929E-04-3.76921E-05-3.74188E-05 5.79484E-09-6.36400E-20 3.62709E-19
 -1      1158 1.24334E-04-3.71845E-05-3.68039E-05-3.01609E-07 7.13162E-20 1.05429E-18
 -1      1159 1.17823E-04-3.52312E-05-3.48915E-05-7.18081E-07-2.86919E-19 2.32574E-18
 -1      1160 1.06798E-04-3.19850E-05-3.19240E-05-1.04255E-06 2.55192E-19 4.07995E-18
 -1      1161 9.45468E-05-2.84364E-05-2.88082E-05-9.71477E-07-3.49004E-20 2.61754E-18
 -1      1162 8.65231E-05-2.61263E-05-2.68419E-05-3.69259E-07 2.80911E-19 1.80603E-18
 -1      1163 8.68908E-05-2.62696E-05-2.69294E-05 4.72021E-07-1.72464E-19 2.34570E-18
 -1      1164 9.52367E-05-2.86330E-05-2.89882E-05 9.92018E-07-7.95483E-20-9.42430E-19
 -1      1165 1.07593E-04-3.22176E-05-3.21365E-05 1.03219E-06 3.01694E-19-2.28847E-18
 -1      1166 1.18453E-04-3.54188E-05-3.50731E-05 6.92940E-07 1.39794E-19-2.14776E-18
 -1      1167 1.24709E-04-3.72985E-05-3.69247E-05 2.78914E-07 1.18413E-19-1.32158E-18
 -1      1168 1.26111E-04-3.77498E-05-3.74873E-05-1.86071E-08-3.05620E-19-1.05161E-18
 -1      1169 1.24026E-04-3.71598E-05-3.70311E-05-1.64684E-07-2.63321E-19-3.47792E-18
 -1      1170 1.20103E-04-3.60129E-05-3.59810E-05-2.02492E-07 4.11757E-19-4.02240E-18
 -1      1171 1.15607E-04-3.46855E-05-3.47048E-05-1.84618E-07-2.28925E-19-4.05671E-18
 -1      1172 1.11295E-04-3.34046E-05-3.34428E-05-1.47060E-07 2.92901E-19-4.32993E-18
 -1      1173 1.07524E-04-3.22798E-05-3.23194E-05-1.08305E-07-1.23425E-19-3.79860E-18
 -1      1174 1.04408E-04-3.13466E-05-3.13804E-05-7.55964E-08-4.77610E-19-5.22572E-18
 -1      1175 1.01927E-04-3.06012E-05-3.06275E-05-5.05019E-08-3.66193E-20-2.19010E-18
 -1      1176 1.00004E-04-3.00220E-05-3.00414E-05-3.22753E-08-1.97568E-19-3.84306E-18
 -1      1177 9.85478E-05-2.95820E-05-2.95958E-05-1.95095E-08-4.41334E-20-5.44945E-18
 -1      1178 9.74657E-05-2.92543E-05-2.92639E-05-1.08205E-08 1.34972E-19-3.14797E-18
 -1      1179 9.66775E-05-2.90151E-05-2.90216E-05-5.06517E-09 3.26476E-19-4.30312E-18
 -1      1180 9.61161E-05-2.88442E-05-2.88485E-05-1.36484E-09-2.84860E-20-5.09331E-18
 -1      1181 9.57272E-05-2.87255E-05-2.87283E-05 9.38582E-10 6.85913E-20-3.77943E-18
 -1      1182 9.54682E-05-2.86461E-05-2.86480E-05 2.34664E-09 2.01007E-19-3.45341E-18
 -1      1183 9.53066E-05-2.85962E-05-2.85977E-05 3.27827E-09-1.96098E-19-5.44978E-18
 -1      1184 9.52188E-05-2.85688E-05-2.85701E-05 4.13193E-09-1.21347E-19-8.00571E-18
 -1      1185 9.51878E-05-2.85586E-05-2.85595E-05 5.29195E-09-8.25576E-20-1.99370E-18
 -1      1186 9.51990E-05-2.85614E-05-2.85599E-05 6.68112E-09 1.28816E-19-2.06047E-18
 -1      1187 9.52278E-05-2.85716E-05-2.85619E-05 3.34753E-09-2.05396E-19-1.39065E-18
 -1      1188 1.30529E-04-3.75777E-05-3.85275E-05 1.21304E-05-4.66133E-20 2.47037E-18
 -1      1189 9.62408E-05-2.80981E-05-3.12306E-05 7.98647E-07-3.12873E-20 2.81490E-18
 -1      1190 9.01659E-05-2.68753E-05-2.78076E-05 1.21329E-07 1.42540E-20 2.84144E-18
 -1      1191 8.82468E-05-2.64810E-05-2.66520E-05 1.16893E-08 8.19901E-21 3.10263E-18
 -1      1192 8.79914E-05-2.64345E-05-2.64353E-05-2.06055E-08-2.96627E-20 3.59446E-18
 -1      1193 8.85333E-05-2.65892E-05-2.65730E-05-2.64772E-08-2.19410E-20 4.06062E-18
 -1      1194 8.94975E-05-2.68699E-05-2.68588E-05-2.55615E-08 3.23287E-20 4.11618E-18
 -1      1195 9.07100E-05-2.72286E-05-2.72225E-05-2.22376E-08 6.68279E-21 4.15115E-18
 -1      1196 9.20941E-05-2.76412E-05-2.76391E-05-1.83751E-08 1.31121E-20 4.08847E-18
 -1      1197 9.36262E-05-2.80995E-05-2.81015E-05-1.51328E-08 3.21525E-20 4.35454E-18
 -1      1198 9.53133E-05-2.86046E-05-2.86113E-05-1.36572E-08-1.00143E-20 3.90452E-18
 -1      1199 9.71769E-05-2.91624E-05-2.91741E-05-1.52404E-08 7.21723E-20 3.52975E-18
 -1      1200 9.92373E-05-2.97780E-05-2.97943E-05-2.13417E-08 7.32961E-20 3.04302E-18
 -1      1201 1.01494E-04-3.04504E-05-3.04694E-05-3.34410E-08-9.00452E-20 3.13298E-18
 -1      1202 1.03899E-04-3.11647E-05-3.11818E-05-5.25641E-08 6.45139E-21 2.94384E-18
 -1      1203 1.06327E-04-3.18827E-05-3.18894E-05-7.82392E-08-1.09563E-19 2.00628E-18
 -1      1204 1.08536E-04-3.25327E-05-3.25158E-05-1.06676E-07 2.00335E-20 2.67620E-18
 -1      1205 1.10143E-04-3.30023E-05-3.29447E-05-1.28371E-07 3.68294E-20 2.90042E-18
 -1      1206 1.10628E-04-3.31409E-05-3.30274E-05-1.26547E-07-1.75620E-19 2.77094E-18
 -1      1207 1.09424E-04-3.27856E-05-3.26142E-05-7.96936E-08-6.25514E-20 2.64039E-18
 -1      1208 1.06128E-04-3.18201E-05-3.16177E-05 2.75102E-08 7.04758E-21 1.23058E-18
 -1      1209 1.00818E-04-3.02651E-05-3.00967E-05 1.84731E-07 1.66202E-19 1.89524E-20
 -1      1210 9.43604E-05-2.83647E-05-2.83179E-05 3.39762E-07-1.94055E-19 1.20808E-19
 -1      1211 8.84125E-05-2.65939E-05-2.67312E-05 4.12104E-07-4.88268E-20-4.04829E-19
 -1      1212 8.49014E-05-2.55208E-05-2.58231E-05 3.42956E-07 3.62272E-20-8.97855E-20
 -1      1213 8.51112E-05-2.55431E-05-2.59014E-05 1.46613E-07-9.02719E-20 1.63730E-18
 -1      1214 8.89712E-05-2.66661E-05-2.69397E-05-9.03263E-08 2.36580E-19 8.25804E-19
 -1      1215 9.50927E-05-2.84903E-05-2.85922E-05-2.66918E-07-4.12126E-20-3.62689E-19
 -1      1216 1.01537E-04-3.04309E-05-3.03672E-05-3.31924E-07-2.60395E-19-8.40680E-20
 -1      1217 1.06715E-04-3.19980E-05-3.18383E-05-2.97897E-07-4.64677E-20-1.13217E-18
 -1      1218 1.09855E-04-3.29507E-05-3.27728E-05-2.10937E-07 1.60137E-19-1.90733E-18
 -1      1219 1.10953E-04-3.32853E-05-3.31395E-05-1.15762E-07 1.84117E-19-2.32765E-18
 -1      1220 1.10453E-04-3.31373E-05-3.30414E-05-3.83939E-08-1.52845E-19-1.17209E-18
 -1      1221 1.08936E-04-3.26825E-05-3.26328E-05 1.31432E-08 5.65370E-20-7.05009E-19
 -1      1222 1.06917E-04-3.20773E-05-3.20611E-05 4.13641E-08-6.92526E-20-1.85950E-18
 -1      1223 1.04777E-04-3.14354E-05-3.14399E-05 5.25937E-08-5.53004E-20-3.02973E-18
 -1      1224 1.02752E-04-3.08284E-05-3.08434E-05 5.31998E-08-3.82920E-19-3.92248E-18
 -1      1225 1.00968E-04-3.02937E-05-3.03125E-05 4.81036E-08-1.72037E-20-2.44534E-18
 -1      1226 9.94739E-05-2.98456E-05-2.98644E-05 4.05875E-08-1.41740E-19-3.76446E-18
 -1      1227 9.82702E-05-2.94845E-05-2.95013E-05 3.26102E-08-1.65294E-19-1.60941E-18
 -1      1228 9.73316E-05-2.92027E-05-2.92169E-05 2.52132E-08 2.79327E-19-2.61550E-18
 -1      1229 9.66212E-05-2.89893E-05-2.90006E-05 1.88614E-08-1.65290E-19 1.90303E-19
 -1      1230 9.60993E-05-2.88324E-05-2.88412E-05 1.36842E-08-5.20607E-21 1.69937E-18
 -1      1231 9.57286E-05-2.87208E-05-2.87275E-05 9.62802E-09-2.61435E-19 1.36654E-18
 -1      1232 9.54765E-05-2.86448E-05-2.86499E-05 6.53945E-09 1.30189E-19 7.87780E-19
 -1      1233 9.53162E-05-2.85964E-05-2.86004E-05 4.18909E-09 5.45265E-19-3.31793E-18
 -1      1234 9.52270E-05-2.85693E-05-2.85727E-05 2.25808E-09-1.50946E-19-4.91033E-18
 -1      1235 9.51936E-05-2.85588E-05-2.85617E-05 8.18076E-11 4.37498E-19-5.90088E-18
 -1      1236 9.52026E-05-2.85606E-05-2.85614E-05-3.25952E-09 6.09624E-19-9.21213E-18
 -1      1237 9.52280E-05-2.85691E-05-2.85628E-05-2.99329E-09-2.63017E-19-6.30108E-18
 -1      1238 9.52393E-05-2.85807E-05-2.85631E-05-3.33878E-09-6.33417E-18-3.59266E-19
 -1      1239 9.52460E-05-2.86041E-05-2.85623E-05-5.78352E-09-6.58918E-18-1.25681E-19
 -1      1240 9.52465E-05-2.86063E-05-2.85643E-05-2.28064E-09-3.15206E-18-2.99033E-19
 -1      1241 9.52362E-05-2.85702E-05-2.85746E-05 7.23413E-10-4.82829E-19 3.27850E-19
 -1      1242 9.52170E-05-2.85045E-05-2.85926E-05 2.44726E-09 2.97489E-18-3.60765E-19
 -1      1243 9.51943E-05-2.84266E-05-2.86141E-05 2.99025E-09 5.05961E-19 1.19036E-19
 -1      1244 9.51734E-05-2.83547E-05-2.86341E-05 2.57293E-09-1.27475E-18 5.05913E-19
 -1      1245 9.51588E-05-2.83045E-05-2.86481E-05 1.41424E-09-2.55539E-18 3.79249E-19
 -1      1246 9.51539E-05-2.82876E-05-2.86529E-05-1.12893E-10-3.83840E-18-9.91575E-19
 -1      1247 9.51598E-05-2.83078E-05-2.86472E-05-1.63126E-09 2.59680E-18-9.34954E-20
 -1      1248 9.51752E-05-2.83609E-05-2.86323E-05-2.74707E-09 8.48724E-18-4.93478E-19
 -1      1249 9.51968E-05-2.84349E-05-2.86118E-05-3.11728E-09 2.81416E-19 7.44504E-20
 -1      1250 9.52197E-05-2.85135E-05-2.85901E-05-2.44411E-09-6.35841E-19-1.66520E-20
 -1      1251 9.52386E-05-2.85784E-05-2.85723E-05-5.43981E-10 1.67620E-18 1.47343E-19
 -1      1252 9.52483E-05-2.86118E-05-2.85627E-05 2.54054E-09 6.94712E-18 5.97855E-19
 -1      1253 9.52461E-05-2.86061E-05-2.85613E-05 6.16203E-09 6.48316E-18-6.82790E-19
 -1      1254 9.52359E-05-2.85795E-05-2.85621E-05 1.83379E-09 2.21564E-18 4.25339E-19
 -1      1255 3.35149E-05-1.04627E-04 1.76556E-05-1.39232E-05 6.36164E-18 7.83188E-19
 -1      1256 1.63381E-05-6.07284E-05 8.61084E-06-2.40375E-05 6.91857E-18 2.08963E-18
 -1      1257 7.31507E-06-5.88683E-06-6.72277E-06 1.51656E-06 6.51199E-18 4.35544E-18
 -1      1258 3.45810E-05 2.55784E-05-2.63360E-05 5.41991E-05 1.13824E-17 1.09784E-17
 -1      1259 1.10981E-04 1.18369E-05-4.71921E-05 1.01963E-04 9.05732E-18 1.30748E-17
 -1      1260 2.10989E-04-3.53143E-05-6.44747E-05 1.06747E-04 4.11531E-18 9.43849E-18
 -1      1261 2.87573E-04-7.99309E-05-7.51550E-05 5.68734E-05 1.21311E-18 3.18103E-18
 -1      1262 3.05642E-04-9.12089E-05-7.71361E-05-2.37090E-05 5.29449E-19-3.71085E-18
 -1      1263 2.49713E-04-5.73671E-05-6.99889E-05-9.08481E-05 2.20462E-18-6.86436E-18
 -1      1264 1.54293E-04-6.34595E-06-5.53491E-05-1.10867E-04 5.27786E-18-9.73410E-18
 -1      1265 6.53024E-05 2.52294E-05-3.64473E-05-8.07178E-05 6.55688E-18-8.07900E-18
 -1      1266 1.57542E-05 1.53176E-05-1.67453E-05-2.76721E-05 8.26535E-18-6.31209E-18
 -1      1267 8.86193E-06-3.09500E-05 1.16755E-06 1.42030E-05 6.47641E-18-3.76125E-18
 -1      1268 2.57450E-05-8.64093E-05 1.39200E-05 2.34382E-05 2.64952E-18-6.88638E-19
 -1      1269 3.59700E-05-1.11737E-04 1.90653E-05 1.18583E-06-1.30094E-18-4.40616E-19
 -1      1270 2.79012E-05-9.35672E-05 1.54429E-05-2.31641E-05-3.38474E-18-7.44754E-19
 -1      1271 1.04092E-05-4.12185E-05 3.76034E-06-2.05187E-05-2.88076E-18-1.22989E-18
 -1      1272 1.31599E-05 9.10495E-06-1.39801E-05 1.89392E-05-4.09964E-18-3.54568E-18
 -1      1273 6.27016E-05 2.33253E-05-3.53056E-05 7.60545E-05-6.12320E-18-7.23197E-18
 -1      1274 1.57015E-04-8.01995E-06-5.58670E-05 1.11479E-04-4.30632E-18-7.64701E-18
 -1      1275 2.58533E-04-6.10799E-05-7.14622E-05 9.00571E-05-1.32010E-18-5.54468E-18
 -1      1276 3.14732E-04-9.45564E-05-7.87103E-05 1.91766E-05-5.54436E-19-2.98410E-18
 -1      1277 2.94091E-04-8.25452E-05-7.60548E-05-6.24737E-05-7.40307E-19 1.31798E-18
 -1      1278 2.06656E-04-3.25593E-05-6.40286E-05-1.08462E-04-3.24414E-18 6.85419E-18
 -1      1279 1.03328E-04 1.35252E-05-4.53884E-05-9.84320E-05-5.03646E-18 8.32803E-18
 -1      1280 3.04136E-05 2.13565E-05-2.39233E-05-4.62942E-05-5.04323E-18 4.99580E-18
 -1      1281 7.37851E-06-1.50835E-05-4.09157E-06 5.77133E-06-8.87860E-18 4.56381E-18
 -1      1282 1.83571E-05-6.91915E-05 1.05864E-05 2.61899E-05-1.16941E-17 4.00011E-18
 -1      1283 3.50056E-05-1.08705E-04 1.83342E-05 1.37849E-05-3.87306E-18 1.51539E-18
 -1      1284 1.04130E-04-2.19427E-05-3.77818E-05-1.71891E-05-2.32934E-21 5.41254E-19
 -1      1285 9.02493E-05-6.69063E-06-3.59796E-05-2.03152E-05 8.57621E-21 4.81221E-19
 -1      1286 9.25183E-05-6.75155E-06-3.71548E-05-2.56006E-05 2.11758E-22 5.19496E-19
 -1      1287 8.59354E-05-4.11188E-06-3.51347E-05-1.62515E-05 2.62580E-20 3.91488E-19
 -1      1288 8.71455E-05-4.10514E-06-3.55847E-05-1.86805E-05 2.30816E-20 4.37281E-19
 -1      1289 9.20985E-05-1.04776E-05-3.50704E-05-1.88506E-05 2.46698E-20 4.81115E-19
 -1      1290 8.41741E-05-3.19495E-06-3.47177E-05-1.26224E-05 7.01317E-20 3.24519E-19
 -1      1291 8.47655E-05-3.16649E-06-3.49309E-05-1.44400E-05 4.46280E-20 3.82594E-19
 -1      1292 8.79140E-05-7.40499E-06-3.45881E-05-1.52070E-05 3.96385E-20 4.19467E-19
 -1      1293 8.32771E-05-2.71578E-06-3.45152E-05-9.49960E-06 4.83603E-20 2.56122E-19
 -1      1294 8.35838E-05-2.69840E-06-3.46189E-05-1.10405E-05 6.59098E-20 2.65293E-19
 -1      1295 8.59432E-05-5.96759E-06-3.43431E-05-1.17468E-05 1.30006E-19 2.90876E-19
 -1      1296 8.27801E-05-2.42794E-06-3.44145E-05-6.75502E-06 5.92857E-20 3.19146E-19
 -1      1297 8.29510E-05-2.42036E-06-3.44671E-05-8.10992E-06 3.79047E-20 2.99109E-19
 -1      1298 8.48953E-05-5.17058E-06-3.42231E-05-8.75182E-06 3.12046E-20 2.79256E-19
 -1      1299 8.24913E-05-2.24662E-06-3.43631E-05-4.18202E-06 5.15069E-20 4.21664E-19
 -1      1300 8.25870E-05-2.24335E-06-3.43902E-05-5.45791E-06 4.47869E-20 3.64224E-19
 -1      1301 8.42909E-05-4.68381E-06-3.41652E-05-6.05971E-06 7.75747E-20 3.24374E-19
 -1      1302 8.23476E-05-2.14670E-06-3.43405E-05-1.73856E-06 1.24393E-19 4.82253E-19
 -1      1303 8.23900E-05-2.14548E-06-3.43520E-05-2.95825E-06 9.87670E-20 4.56882E-19
 -1      1304 8.39471E-05-4.39508E-06-3.41379E-05-3.54239E-06 1.14704E-19 4.53745E-19
 -1      1305 8.23177E-05-2.11563E-06-3.43374E-05 6.53233E-07 1.24904E-19 5.62046E-19
 -1      1306 8.23168E-05-2.11570E-06-3.43373E-05-5.49180E-07 1.34916E-19 5.22328E-19
 -1      1307 8.37922E-05-4.26196E-06-3.41269E-05-1.13508E-06 2.12400E-19 5.31262E-19
 -1      1308 8.23964E-05-2.14981E-06-3.43525E-05 3.06598E-06 1.36745E-19 6.68335E-19
 -1      1309 8.23519E-05-2.15114E-06-3.43407E-05 1.84367E-06 1.27058E-19 5.91533E-19
 -1      1310 8.37962E-05-4.26627E-06-3.41269E-05 1.23819E-06 1.98855E-19 5.89879E-19
 -1      1311 8.26002E-05-2.25360E-06-3.43913E-05 5.57493E-06 1.53961E-19 8.15759E-19
 -1      1312 8.25020E-05-2.25635E-06-3.43638E-05 4.29307E-06 1.52188E-19 7.32750E-19
 -1      1313 8.39600E-05-4.40879E-06-3.41378E-05 3.64996E-06 2.37714E-19 6.54386E-19
 -1      1314 8.29686E-05-2.43457E-06-3.44680E-05 8.21877E-06 1.62491E-19 1.02429E-18
 -1      1315 8.27948E-05-2.44254E-06-3.44151E-05 6.85541E-06 1.56006E-19 9.19004E-19
 -1      1316 8.43118E-05-4.70631E-06-3.41647E-05 6.15446E-06 2.30363E-19 8.19451E-19
 -1      1317 8.36241E-05-2.72922E-06-3.46218E-05 1.12002E-05 1.80842E-19 1.24143E-18
 -1      1318 8.33090E-05-2.74544E-06-3.45166E-05 9.64219E-06 1.86321E-19 1.11824E-18
 -1      1319 8.49314E-05-5.20999E-06-3.42221E-05 8.86131E-06 2.94251E-19 1.04849E-18
 -1      1320 8.48225E-05-3.21067E-06-3.49371E-05 1.46500E-05 1.60063E-19 1.54041E-18
 -1      1321 8.42274E-05-3.24444E-06-3.47213E-05 1.28069E-05 1.57522E-19 1.37550E-18
 -1      1322 8.60174E-05-6.04676E-06-3.43422E-05 1.19116E-05 2.61455E-19 1.24736E-18
 -1      1323 8.72396E-05-4.10466E-06-3.56050E-05 1.89174E-05 1.26526E-19 1.91750E-18
 -1      1324 8.60012E-05-4.16894E-06-3.51408E-05 1.65122E-05 1.39760E-19 1.71503E-18
 -1      1325 8.80330E-05-7.52798E-06-3.45883E-05 1.54451E-05 2.26872E-19 1.56990E-18
 -1      1326 9.33259E-05-6.80240E-06-3.70517E-05 2.49390E-05 6.14099E-20 2.24003E-18
 -1      1327 9.00631E-05-6.44745E-06-3.60023E-05 2.09866E-05 1.03656E-19 2.07068E-18
 -1      1328 9.23198E-05-1.07089E-05-3.50554E-05 1.94902E-05 1.67395E-19 1.88925E-18
 -1      1329 1.23220E-04-2.48433E-05-3.88994E-05 2.82301E-05-4.94455E-20 2.32765E-18
 -1      1330 9.98604E-05-1.43949E-05-3.72682E-05 2.39170E-05 1.02703E-20 2.29027E-18
 -1      1331 1.01514E-04-1.93220E-05-3.53395E-05 2.12395E-05 7.74241E-20 2.10128E-18
 -1      1332 1.02305E-04-2.77230E-05-3.46582E-05 7.26617E-06-6.14628E-20 2.49345E-18
 -1      1333 1.04863E-04-3.01491E-05-3.34352E-05-7.88411E-06 8.83032E-20 5.05255E-19
 -1      1334 9.80395E-05-2.77821E-05-3.06906E-05-4.92645E-06 5.86570E-20 6.16746E-19
 -1      1335 9.53270E-05-2.77970E-05-2.92001E-05-2.42897E-06 6.32892E-20 5.95074E-19
 -1      1336 9.31511E-05-2.75211E-05-2.81787E-05-1.98239E-06 1.54584E-20 6.67859E-19
 -1      1337 9.93510E-05-2.80162E-05-3.09402E-05-7.76352E-06 1.06409E-19 4.94191E-19
 -1      1338 9.15194E-05-2.71786E-05-2.75631E-05-7.68248E-07-1.49488E-20 7.65956E-19
 -1      1339 9.08679E-05-2.71010E-05-2.72810E-05-6.54704E-07-5.99541E-20 7.35383E-19
 -1      1340 9.46864E-05-2.77570E-05-2.88093E-05-2.98849E-06 1.16996E-20 6.05232E-19
 -1      1341 9.01933E-05-2.69392E-05-2.70614E-05-8.00426E-08-4.10017E-20 6.86467E-19
 -1      1342 9.02084E-05-2.69906E-05-2.70532E-05-1.63553E-08-6.26209E-20 5.73097E-19
 -1      1343 9.26169E-05-2.75186E-05-2.79310E-05-8.84638E-07-9.55030E-20 7.31214E-19
 -1      1344 9.00513E-05-2.69518E-05-2.70109E-05 2.86215E-07-1.38702E-20 6.52189E-19
 -1      1345 9.03898E-05-2.70770E-05-2.71100E-05 3.23487E-07 3.52048E-21 7.36125E-19
 -1      1346 9.18322E-05-2.74207E-05-2.76199E-05 1.62387E-07-6.33554E-20 7.19025E-19
 -1      1347 9.05354E-05-2.71200E-05-2.71607E-05 5.01425E-07 1.62444E-19 6.66403E-19
 -1      1348 9.10547E-05-2.72905E-05-2.73130E-05 5.25361E-07 1.65815E-19 8.76441E-19
 -1      1349 9.18177E-05-2.74724E-05-2.75880E-05 7.45129E-07 1.05012E-19 5.99435E-19
 -1      1350 9.13923E-05-2.73873E-05-2.74212E-05 6.44287E-07 1.28724E-19 9.25092E-19
 -1      1351 9.20305E-05-2.75884E-05-2.76083E-05 6.62586E-07 1.47255E-20 9.35938E-19
 -1      1352 9.22802E-05-2.76353E-05-2.77145E-05 1.10728E-06 1.90662E-19 4.89496E-19
 -1      1353 9.25056E-05-2.77240E-05-2.77580E-05 7.58908E-07-6.47360E-20 9.78244E-19
 -1      1354 9.32420E-05-2.79509E-05-2.79745E-05 7.76798E-07-1.96838E-19 7.50150E-19
 -1      1355 9.30646E-05-2.78779E-05-2.79455E-05 1.37023E-06-5.62748E-20 6.38400E-19
 -1      1356 9.38327E-05-2.81190E-05-2.81597E-05 8.73953E-07-1.00748E-19 6.80419E-19
 -1      1357 9.46726E-05-2.83745E-05-2.84075E-05 8.95333E-07-1.11138E-19 4.78941E-19
 -1      1358 9.40975E-05-2.81837E-05-2.82569E-05 1.60583E-06-2.54608E-19 7.50287E-19
 -1      1359 9.53780E-05-2.85749E-05-2.86282E-05 1.00979E-06 2.87578E-20 7.47364E-19
 -1      1360 9.63449E-05-2.88671E-05-2.89141E-05 1.03769E-06 2.68288E-19 1.06463E-18
 -1      1361 9.53565E-05-2.85491E-05-2.86408E-05 1.86214E-06 1.03308E-19 1.04436E-18
 -1      1362 9.71784E-05-2.91039E-05-2.91747E-05 1.18104E-06 2.51322E-19 8.50646E-19
 -1      1363 9.83091E-05-2.94450E-05-2.95093E-05 1.21772E-06-4.14360E-20 8.88160E-19
 -1      1364 9.68534E-05-2.89797E-05-2.90996E-05 2.17303E-06 2.59376E-19 8.88884E-19
 -1      1365 9.92924E-05-2.97248E-05-2.98165E-05 1.39641E-06-2.18816E-19 9.48055E-19
 -1      1366 1.00631E-04-3.01298E-05-3.02122E-05 1.44299E-06-6.03676E-20 7.97528E-19
 -1      1367 9.86220E-05-2.94881E-05-2.96421E-05 2.56044E-06-1.61340E-19 7.65942E-19
 -1      1368 1.01788E-04-3.04604E-05-3.05732E-05 1.65574E-06 2.74316E-19 7.92750E-19
 -1      1369 1.03376E-04-3.09446E-05-3.10417E-05 1.71138E-06 1.72212E-19 1.18096E-18
 -1      1370 1.00707E-04-3.00921E-05-3.02797E-05 3.03111E-06 1.38932E-19 8.97127E-19
 -1      1371 1.04724E-04-3.13333E-05-3.14606E-05 1.94356E-06 2.15848E-19 1.04227E-18
 -1      1372 1.06586E-04-3.19079E-05-3.20076E-05 2.00359E-06-5.25425E-20 1.31062E-18
 -1      1373 1.03152E-04-3.08119E-05-3.10210E-05 3.56710E-06 7.34354E-20 7.77360E-19
 -1      1374 1.08122E-04-3.23581E-05-3.24808E-05 2.21750E-06-2.70398E-19 1.56651E-18
 -1      1375 1.10235E-04-3.30223E-05-3.30970E-05 2.27031E-06-3.97111E-19 1.28277E-18
 -1      1376 1.05975E-04-3.16669E-05-3.18644E-05 4.10790E-06 4.75430E-20 7.00341E-19
 -1      1377 1.11912E-04-3.35289E-05-3.36053E-05 2.39131E-06-1.85807E-19 1.34894E-18
 -1      1378 1.14161E-04-3.42551E-05-3.42526E-05 2.41374E-06 4.35504E-20 1.24809E-18
 -1      1379 1.09138E-04-3.26689E-05-3.27866E-05 4.52272E-06-2.50319E-19 1.47712E-18
 -1      1380 1.15864E-04-3.47964E-05-3.47518E-05 2.31632E-06 2.03936E-19 1.16872E-18
 -1      1381 1.17974E-04-3.55087E-05-3.53457E-05 2.26891E-06 8.03043E-20 1.46727E-18
 -1      1382 1.12500E-04-3.38085E-05-3.37275E-05 4.57707E-06 9.81698E-20 1.17732E-18
 -1      1383 1.19484E-04-3.60341E-05-3.57582E-05 1.77752E-06-2.36302E-19 1.35712E-18
 -1      1384 1.20967E-04-3.65805E-05-3.61546E-05 1.60530E-06-4.73452E-19 9.66114E-19
 -1      1385 1.15757E-04-3.50277E-05-3.45768E-05 3.91437E-06-1.64625E-19 9.98936E-19
 -1      1386 1.21945E-04-3.69931E-05-3.63715E-05 5.43577E-07-2.77734E-19 8.87432E-19
 -1      1387 1.22099E-04-3.71309E-05-3.63777E-05 1.95347E-07-3.67520E-19 3.83997E-19
 -1      1388 1.18379E-04-3.61695E-05-3.51715E-05 2.10778E-06-4.60819E-19 8.94420E-19
 -1      1389 1.22116E-04-3.72710E-05-3.62865E-05-1.46864E-06 1.87750E-19 7.10489E-19
 -1      1390 1.20226E-04-3.67092E-05-3.57291E-05-1.98329E-06 5.18411E-20 9.65697E-19
 -1      1391 1.19597E-04-3.69099E-05-3.53279E-05-1.12182E-06-1.10908E-20 9.17876E-19
 -1      1392 1.18914E-04-3.63743E-05-3.52771E-05-3.89278E-06 1.30933E-19 1.30025E-18
 -1      1393 1.14732E-04-3.49400E-05-3.41361E-05-4.41466E-06 3.45550E-19 1.83663E-18
 -1      1394 1.18554E-04-3.67380E-05-3.49227E-05-5.44488E-06 3.99945E-19 6.03028E-19
 -1      1395 1.12111E-04-3.40215E-05-3.34086E-05-5.67404E-06 3.15507E-19 2.13706E-18
 -1      1396 1.06486E-04-3.19454E-05-3.19500E-05-5.87433E-06 3.47978E-20 2.43734E-18
 -1      1397 1.14774E-04-3.51747E-05-3.40070E-05-9.39896E-06 5.50545E-19 1.33367E-18
 -1      1398 1.03342E-04-3.06750E-05-3.11926E-05-5.39346E-06-2.16933E-19 2.89145E-18
 -1      1399 9.83913E-05-2.87544E-05-2.99566E-05-4.96858E-06-4.02883E-19 1.98751E-18
 -1      1400 1.08965E-04-3.23383E-05-3.28681E-05-1.05232E-05 6.43017E-20 2.00456E-18
 -1      1401 9.62434E-05-2.78277E-05-2.94842E-05-2.42870E-06 2.75418E-20 1.85161E-18
 -1      1402 9.44006E-05-2.70728E-05-2.90358E-05-1.46909E-06-1.18849E-20 1.79224E-18
 -1      1403 1.03489E-04-2.94426E-05-3.19403E-05-6.91432E-06-4.75185E-19 2.41103E-18
 -1      1404 9.45018E-05-2.71229E-05-2.90608E-05 1.80691E-06-1.59666E-19 1.33515E-18
 -1      1405 9.65631E-05-2.79352E-05-2.95683E-05 2.67573E-06-6.57959E-19 7.39566E-19
 -1      1406 1.01365E-04-2.82832E-05-3.16096E-05 2.65782E-07-4.10811E-19 1.10203E-18
 -1      1407 9.88207E-05-2.89305E-05-3.00646E-05 5.11167E-06-8.94361E-19 3.16261E-19
 -1      1408 1.03896E-04-3.08867E-05-3.13329E-05 5.50293E-06-4.87977E-19-1.19760E-18
 -1      1409 1.03762E-04-2.95795E-05-3.19909E-05 7.29041E-06-1.17806E-18-1.65966E-20
 -1      1410 1.07062E-04-3.21578E-05-3.21020E-05 5.86423E-06-8.49084E-20-1.71439E-18
 -1      1411 1.12670E-04-3.42194E-05-3.35601E-05 5.63477E-06-8.50673E-21-2.00768E-18
 -1      1412 1.09378E-04-3.25369E-05-3.29510E-05 1.06170E-05-1.00876E-18-5.91838E-19
 -1      1413 1.15246E-04-3.51110E-05-3.42830E-05 4.30686E-06-3.46489E-20-1.84039E-18
 -1      1414 1.19325E-04-3.65006E-05-3.54007E-05 3.77778E-06 5.43954E-20-1.58205E-18
 -1      1415 1.15154E-04-3.53325E-05-3.40998E-05 9.26282E-06-2.65015E-19-1.83444E-18
 -1      1416 1.20576E-04-3.68079E-05-3.58393E-05 1.86890E-06 2.48485E-19-2.05014E-18
 -1      1417 1.22359E-04-3.73293E-05-3.63689E-05 1.36374E-06-3.79868E-19-1.83801E-18
 -1      1418 1.18816E-04-3.68183E-05-3.50041E-05 5.23301E-06 1.37034E-19-1.36408E-18
 -1      1419 1.22305E-04-3.71768E-05-3.64488E-05-2.59188E-07-3.58527E-19-2.04033E-18
 -1      1420 1.22091E-04-3.70187E-05-3.64256E-05-5.93573E-07-4.77760E-19-2.83383E-18
 -1      1421 1.19758E-04-3.69330E-05-3.53914E-05 9.67432E-07-3.29218E-19-2.48978E-18
 -1      1422 1.21113E-04-3.66078E-05-3.62066E-05-1.60524E-06-9.36928E-19-2.39857E-18
 -1      1423 1.19630E-04-3.60622E-05-3.58099E-05-1.76510E-06-2.31048E-19-3.42367E-18
 -1      1424 1.18505E-04-3.61768E-05-3.52264E-05-2.15055E-06-5.50247E-19-2.73796E-18
 -1      1425 1.18156E-04-3.55494E-05-3.54067E-05-2.21141E-06 4.26481E-19-3.16098E-18
 -1      1426 1.16101E-04-3.48552E-05-3.48284E-05-2.24904E-06 2.50538E-19-3.20186E-18
 -1      1427 1.15922E-04-3.50502E-05-3.46407E-05-3.84334E-06-1.69870E-20-1.79584E-18
 -1      1428 1.14467E-04-3.43355E-05-3.43493E-05-2.30880E-06-2.57366E-19-2.34287E-18
 -1      1429 1.12319E-04-3.36409E-05-3.37311E-05-2.27849E-06-5.73040E-19-2.81039E-18
 -1      1430 1.12771E-04-3.38679E-05-3.38205E-05-4.40781E-06 3.14630E-19-1.70986E-18
 -1      1431 1.10739E-04-3.31634E-05-3.32526E-05-2.12479E-06-4.64594E-20-3.22072E-18
 -1      1432 1.08766E-04-3.25424E-05-3.26774E-05-2.06488E-06 2.82611E-19-3.06073E-18
 -1      1433 1.09573E-04-3.27811E-05-3.29273E-05-4.27004E-06-4.99316E-19-1.66196E-18
 -1      1434 1.07355E-04-3.21285E-05-3.22428E-05-1.81995E-06 6.33025E-20-3.50640E-18
 -1      1435 1.05670E-04-3.16081E-05-3.17478E-05-1.75274E-06-6.01208E-19-3.46030E-18
 -1      1436 1.06629E-04-3.18457E-05-3.20703E-05-3.77948E-06-3.24354E-20-2.66441E-18
 -1      1437 1.04473E-04-3.12629E-05-3.13760E-05-1.48891E-06-3.76296E-19-3.93005E-18
 -1      1438 1.03100E-04-3.08445E-05-3.09706E-05-1.42557E-06 8.84620E-20-4.03275E-18
 -1      1439 1.04076E-04-3.10710E-05-3.13081E-05-3.16400E-06-6.24559E-19-3.02459E-18
 -1      1440 1.02120E-04-3.05649E-05-3.06651E-05-1.17965E-06 5.10572E-19-3.52873E-18
 -1      1441 1.01037E-04-3.02382E-05-3.03442E-05-1.12476E-06 8.58332E-20-2.69487E-18
 -1      1442 1.01952E-04-3.04461E-05-3.06636E-05-2.55075E-06 7.27896E-19-2.63258E-18
 -1      1443 1.00257E-04-3.00168E-05-3.01006E-05-9.12036E-07-9.03013E-19-2.62025E-18
 -1      1444 9.94237E-05-2.97676E-05-2.98531E-05-8.66686E-07-1.12574E-18-4.27564E-18
 -1      1445 1.00237E-04-2.99520E-05-3.01377E-05-2.00012E-06-5.16753E-19-1.88186E-18
 -1      1446 9.88163E-05-2.95957E-05-2.96633E-05-6.90758E-07-3.26378E-19-4.43084E-18
 -1      1447 9.81884E-05-2.94093E-05-2.94764E-05-6.54436E-07 6.60322E-20-4.03874E-18
 -1      1448 9.88854E-05-2.95683E-05-2.97201E-05-1.53379E-06-9.10471E-19-1.93454E-18
 -1      1449 9.77244E-05-2.92782E-05-2.93315E-05-5.13209E-07 2.95499E-19-3.43187E-18
 -1      1450 9.72606E-05-2.91415E-05-2.91931E-05-4.84748E-07 3.79839E-19-2.69254E-18
 -1      1451 9.78412E-05-2.92751E-05-2.93957E-05-1.15318E-06 4.32235E-20-2.02021E-18
 -1      1452 9.69129E-05-2.90434E-05-2.90846E-05-3.73791E-07 2.97822E-19-2.14356E-18
 -1      1453 9.65772E-05-2.89451E-05-2.89842E-05-3.51861E-07 6.80687E-20-2.49852E-18
 -1      1454 9.70496E-05-2.90548E-05-2.91488E-05-8.50386E-07 3.55704E-19-5.29876E-19
 -1      1455 9.63217E-05-2.88731E-05-2.89045E-05-2.66112E-07-1.54181E-19-2.02895E-18
 -1      1456 9.60846E-05-2.88042E-05-2.88335E-05-2.49438E-07-9.56837E-20-2.98354E-18
 -1      1457 9.64608E-05-2.88923E-05-2.89643E-05-6.14050E-07 2.65040E-19-7.06166E-20
 -1      1458 9.59010E-05-2.87525E-05-2.87763E-05-1.84012E-07-2.01971E-19-2.04962E-18
 -1      1459 9.57387E-05-2.87058E-05-2.87275E-05-1.71462E-07-2.44525E-19-2.38318E-18
 -1      1460 9.60318E-05-2.87748E-05-2.88293E-05-4.32291E-07 1.65037E-19 6.91612E-20
 -1      1461 9.56106E-05-2.86697E-05-2.86877E-05-1.21970E-07-3.38067E-19-3.09132E-18
 -1      1462 9.55046E-05-2.86396E-05-2.86557E-05-1.12563E-07-2.69934E-20-3.11034E-18
 -1      1463 9.57269E-05-2.86920E-05-2.87330E-05-2.94044E-07-3.05214E-19-1.83314E-18
 -1      1464 9.54188E-05-2.86154E-05-2.86291E-05-7.52059E-08-2.32835E-19-4.12293E-18
 -1      1465 9.53553E-05-2.85977E-05-2.86098E-05-6.80944E-08-1.32821E-18-5.96768E-18
 -1      1466 9.55173E-05-2.86356E-05-2.86664E-05-1.89544E-07-1.02423E-18-2.66794E-18
 -1      1467 9.53015E-05-2.85825E-05-2.85933E-05-3.97555E-08-4.31734E-19-5.66387E-18
 -1      1468 9.52702E-05-2.85743E-05-2.85836E-05-3.42434E-08 1.94682E-19-5.16131E-18
 -1      1469 9.53800E-05-2.85990E-05-2.86226E-05-1.10506E-07-5.45333E-19-3.66207E-18
 -1      1470 9.52401E-05-2.85658E-05-2.85745E-05-1.28580E-08 1.03415E-18-4.27291E-18
 -1      1471 9.52332E-05-2.85652E-05-2.85717E-05-8.53580E-09 5.67718E-19-2.47210E-18
 -1      1472 9.52970E-05-2.85776E-05-2.85957E-05-5.07518E-08 8.25841E-19-3.44032E-18
 -1      1473 9.52201E-05-2.85622E-05-2.85674E-05 5.68778E-09-7.59472E-19-8.11518E-19
 -1      1474 9.52285E-05-2.85668E-05-2.85681E-05 7.87985E-09-1.21269E-19-1.67282E-18
 -1      1475 9.52541E-05-2.85686E-05-2.85805E-05-7.37333E-09 4.33993E-19-1.72885E-18
 -1      1476 9.52268E-05-2.85692E-05-2.85662E-05 1.27711E-08 1.04797E-18-1.87663E-18
 -1      1477 9.52358E-05-2.85751E-05-2.85654E-05 7.87943E-09 1.13516E-18-8.80454E-19
 -1      1478 9.52407E-05-2.85838E-05-2.85661E-05 1.22796E-08 3.26774E-18-8.04970E-20
 -1      1479 9.52393E-05-2.85687E-05-2.85728E-05 1.39003E-08 6.51813E-19-1.38128E-18
 -1      1480 9.63707E-05-2.83023E-05-2.97069E-05 2.94259E-06 6.18599E-20 2.40753E-18
 -1      1481 1.02269E-04-2.93204E-05-3.20735E-05 4.40819E-06 1.79465E-20 2.34766E-18
 -1      1482 1.02127E-04-2.66703E-05-3.26406E-05 1.26688E-05-1.77877E-20 2.07205E-18
 -1      1483 9.19228E-05-2.73891E-05-2.77302E-05 1.09412E-06-5.75188E-20 2.42725E-18
 -1      1484 9.38257E-05-2.75376E-05-2.86271E-05 1.42722E-06-2.36110E-20 2.39211E-18
 -1      1485 9.63838E-05-2.80060E-05-2.95011E-05 4.77649E-06-2.36640E-20 1.95332E-18
 -1      1486 9.02257E-05-2.70036E-05-2.70738E-05 2.58703E-07-1.33639E-19 2.71461E-18
 -1      1487 9.07844E-05-2.70123E-05-2.73243E-05 4.31717E-07-1.34347E-19 2.49343E-18
 -1      1488 9.30446E-05-2.75911E-05-2.81065E-05 1.72243E-06-2.14961E-19 2.05869E-18
 -1      1489 8.98826E-05-2.69355E-05-2.69525E-05-1.47343E-07-1.16950E-19 3.10326E-18
 -1      1490 8.98431E-05-2.68578E-05-2.69525E-05-4.80496E-08-1.45344E-19 2.80323E-18
 -1      1491 9.16474E-05-2.73813E-05-2.75686E-05 3.17534E-07-2.56320E-19 2.26085E-18
 -1      1492 9.02549E-05-2.70611E-05-2.70669E-05-3.72737E-07 1.63467E-20 3.15718E-18
 -1      1493 8.99067E-05-2.69195E-05-2.69639E-05-3.12120E-07-3.21426E-20 3.08982E-18
 -1      1494 9.13060E-05-2.73402E-05-2.74329E-05-3.90390E-07-1.58322E-19 2.26724E-18
 -1      1495 9.10391E-05-2.73023E-05-2.73054E-05-5.07279E-07 5.54592E-20 3.16162E-18
 -1      1496 9.05179E-05-2.71206E-05-2.71510E-05-4.66619E-07 1.56412E-20 3.15851E-18
 -1      1497 9.15931E-05-2.74503E-05-2.75045E-05-7.84726E-07-1.58951E-20 2.35926E-18
 -1      1498 9.20860E-05-2.76185E-05-2.76220E-05-5.99110E-07 8.10951E-20 3.15205E-18
 -1      1499 9.14554E-05-2.74098E-05-2.74355E-05-5.68444E-07 5.93138E-20 3.17697E-18
 -1      1500 9.22617E-05-2.76601E-05-2.76983E-05-1.03141E-06 3.96021E-20 2.34715E-18
 -1      1501 9.33264E-05-2.79901E-05-2.79966E-05-6.74740E-07-9.15433E-20 3.20796E-18
 -1      1502 9.26122E-05-2.77595E-05-2.77853E-05-6.47820E-07-4.83628E-20 3.11662E-18
 -1      1503 9.31891E-05-2.79402E-05-2.79740E-05-1.21034E-06-4.52675E-20 2.46632E-18
 -1      1504 9.47359E-05-2.84111E-05-2.84222E-05-7.49757E-07 2.13844E-19 3.33436E-18
 -1      1505 9.39433E-05-2.81581E-05-2.81873E-05-7.22527E-07 1.09161E-19 3.41443E-18
 -1      1506 9.43146E-05-2.82754E-05-2.83120E-05-1.36620E-06-6.08954E-20 2.38665E-18
 -1      1507 9.63151E-05-2.88826E-05-2.88986E-05-8.32024E-07 9.16136E-20 3.24221E-18
 -1      1508 9.54379E-05-2.86038E-05-2.86385E-05-8.02132E-07 9.54587E-20 3.21967E-18
 -1      1509 9.56144E-05-2.86608E-05-2.87040E-05-1.52383E-06 2.42333E-19 2.38400E-18
 -1      1510 9.80733E-05-2.94086E-05-2.94280E-05-9.22080E-07 2.08149E-19 2.65423E-18
 -1      1511 9.71023E-05-2.91004E-05-2.91404E-05-8.88945E-07 2.28440E-19 2.99697E-18
 -1      1512 9.70826E-05-2.90972E-05-2.91468E-05-1.69281E-06 3.84139E-19 2.30866E-18
 -1      1513 1.00012E-04-2.99914E-05-3.00099E-05-1.01188E-06 1.83712E-19 2.51127E-18
 -1      1514 9.89440E-05-2.96523E-05-2.96942E-05-9.77174E-07 1.13012E-19 2.50867E-18
 -1      1515 9.87174E-05-2.95870E-05-2.96380E-05-1.86719E-06 3.23986E-19 2.11645E-18
 -1      1516 1.02105E-04-3.06255E-05-3.06350E-05-1.08235E-06-4.88508E-20 2.44148E-18
 -1      1517 1.00954E-04-3.02601E-05-3.02961E-05-1.05087E-06-2.64011E-20 2.34502E-18
 -1      1518 1.00505E-04-3.01301E-05-3.01710E-05-2.02233E-06 5.49364E-20 1.83401E-18
 -1      1519 1.04275E-04-3.12904E-05-3.12780E-05-1.10045E-06 2.11907E-19 2.23159E-18
 -1      1520 1.03087E-04-3.09141E-05-3.09302E-05-1.08124E-06 4.06727E-20 2.62620E-18
 -1      1521 1.02402E-04-3.07187E-05-3.07297E-05-2.11021E-06-4.01064E-20 2.03345E-18
 -1      1522 1.06365E-04-3.19418E-05-3.18893E-05-1.01736E-06-2.16960E-19 2.05698E-18
 -1      1523 1.05233E-04-3.15865E-05-3.15614E-05-1.02479E-06 3.01143E-20 2.18452E-18
 -1      1524 1.04315E-04-3.13305E-05-3.12819E-05-2.05522E-06 1.46870E-19 2.23514E-18
 -1      1525 1.08113E-04-3.25026E-05-3.23887E-05-7.71398E-07-4.94952E-20 2.42765E-18
 -1      1526 1.07194E-04-3.22217E-05-3.21274E-05-8.25052E-07-3.23997E-19 1.86232E-18
 -1      1527 1.06078E-04-3.19210E-05-3.17748E-05-1.75529E-06-3.39055E-19 1.75826E-18
 -1      1528 1.09142E-04-3.28578E-05-3.26648E-05-3.01935E-07 8.99973E-21 2.70842E-18
 -1      1529 1.08660E-04-3.27274E-05-3.25353E-05-4.23312E-07 3.79709E-20 2.66389E-18
 -1      1530 1.07443E-04-3.24140E-05-3.21328E-05-1.09694E-06-2.02352E-19 2.28348E-18
 -1      1531 1.09006E-04-3.28611E-05-3.25907E-05 4.18376E-07 8.55404E-20 2.00816E-18
 -1      1532 1.09224E-04-3.29713E-05-3.26670E-05 2.15135E-07 2.10167E-19 2.38989E-18
 -1      1533 1.08081E-04-3.26975E-05-3.22643E-05 3.46601E-09 2.52297E-19 2.22275E-18
 -1      1534 1.07296E-04-3.23678E-05-3.20616E-05 1.33141E-06 2.98993E-19 1.47823E-18
 -1      1535 1.08446E-04-3.27961E-05-3.24036E-05 1.05633E-06 1.00519E-20 1.70947E-18
 -1      1536 1.07640E-04-3.26317E-05-3.20824E-05 1.52397E-06 3.25089E-19 1.19957E-18
 -1      1537 1.03862E-04-3.13015E-05-3.10564E-05 2.24001E-06 3.36272E-19 7.32789E-19
 -1      1538 1.06009E-04-3.20663E-05-3.16725E-05 1.94673E-06 2.57190E-19 1.55576E-18
 -1      1539 1.05861E-04-3.20863E-05-3.15420E-05 3.23995E-06 5.03032E-19 1.28247E-18
 -1      1540 9.90672E-05-2.97500E-05-2.97016E-05 2.80484E-06-5.31526E-19 7.81494E-19
 -1      1541 1.01963E-04-3.07565E-05-3.05110E-05 2.59602E-06-1.65502E-20 9.07437E-19
 -1      1542 1.02767E-04-3.10182E-05-3.06845E-05 4.66605E-06-3.65481E-20 1.64793E-18
 -1      1543 9.39409E-05-2.80405E-05-2.82930E-05 2.66057E-06 4.21273E-19 5.25822E-19
 -1      1544 9.69494E-05-2.90559E-05-2.91150E-05 2.65349E-06-4.15079E-20 6.60183E-19
 -1      1545 9.88534E-05-2.95728E-05-2.96670E-05 5.14493E-06-1.10372E-19 1.60087E-18
 -1      1546 8.99910E-05-2.66974E-05-2.72279E-05 1.65343E-06-4.12134E-20 5.76724E-19
 -1      1547 9.22265E-05-2.74052E-05-2.78260E-05 1.90357E-06-9.01428E-20 3.46198E-19
 -1      1548 9.51187E-05-2.81349E-05-2.87439E-05 4.16124E-06 2.73903E-19 1.23470E-18
 -1      1549 8.86016E-05-2.62249E-05-2.68519E-05 3.62105E-08-3.72655E-19 8.13509E-19
 -1      1550 8.92899E-05-2.63644E-05-2.70291E-05 4.75093E-07-3.12946E-19 2.19329E-19
 -1      1551 9.27772E-05-2.72142E-05-2.81881E-05 1.75970E-06-1.95651E-19 1.15974E-18
 -1      1552 9.03077E-05-2.68209E-05-2.72957E-05-1.59706E-06 2.81705E-19 1.77107E-18
 -1      1553 8.91879E-05-2.63325E-05-2.69897E-05-1.13973E-06 8.08453E-20 1.53497E-18
 -1      1554 9.26963E-05-2.71919E-05-2.81797E-05-1.29731E-06-4.42985E-19 1.53713E-18
 -1      1555 9.44827E-05-2.82504E-05-2.84085E-05-2.64177E-06 4.31957E-19 5.10179E-19
 -1      1556 9.19572E-05-2.73146E-05-2.77243E-05-2.33728E-06 3.56128E-19 1.22772E-18
 -1      1557 9.49119E-05-2.80789E-05-2.87224E-05-3.87640E-06 5.74804E-19 1.23323E-18
 -1      1558 9.96933E-05-2.99885E-05-2.98354E-05-2.82809E-06-1.92906E-19 3.91462E-19
 -1      1559 9.66051E-05-2.89226E-05-2.89909E-05-2.74931E-06 5.33089E-20 5.33922E-19
 -1      1560 9.86083E-05-2.95129E-05-2.96428E-05-5.11664E-06 1.96957E-19 1.12152E-18
 -1      1561 1.04450E-04-3.15193E-05-3.11843E-05-2.29695E-06 3.18299E-21 1.45504E-19
 -1      1562 1.01656E-04-3.06135E-05-3.04074E-05-2.40516E-06-1.68318E-19-4.33575E-20
 -1      1563 1.02579E-04-3.09802E-05-3.06714E-05-4.86058E-06-2.81529E-19 9.11063E-19
 -1      1564 1.07787E-04-3.25411E-05-3.21741E-05-1.40768E-06 3.00280E-19-4.11632E-19
 -1      1565 1.05835E-04-3.19546E-05-3.16189E-05-1.61004E-06 1.31780E-19 9.87323E-20
 -1      1566 1.05803E-04-3.20876E-05-3.15534E-05-3.55964E-06 1.19319E-19 6.05119E-19
 -1      1567 1.09408E-04-3.29923E-05-3.26930E-05-5.03538E-07 2.33344E-19-1.33824E-18
 -1      1568 1.08457E-04-3.27467E-05-3.24125E-05-7.14169E-07 2.49134E-19-1.01174E-18
 -1      1569 1.07749E-04-3.26780E-05-3.21292E-05-1.87342E-06 4.98393E-19-6.25865E-19
 -1      1570 1.09516E-04-3.29678E-05-3.27725E-05 2.11029E-07-1.26539E-19-1.01486E-18
 -1      1571 1.09437E-04-3.29982E-05-3.27395E-05 4.19400E-08 1.78340E-21-1.45261E-18
 -1      1572 1.08370E-04-3.27895E-05-3.23544E-05-3.27497E-07-5.49910E-21-4.94293E-19
 -1      1573 1.08539E-04-3.26207E-05-3.25222E-05 6.72415E-07 2.61556E-19-4.43051E-19
 -1      1574 1.09077E-04-3.28324E-05-3.26692E-05 5.60457E-07-1.58590E-19-7.38805E-19
 -1      1575 1.07916E-04-3.25528E-05-3.22724E-05 8.12322E-07-4.82954E-19-3.96974E-19
 -1      1576 1.06930E-04-3.20972E-05-3.20705E-05 9.04694E-07 3.77730E-19-7.87966E-19
 -1      1577 1.07820E-04-3.24028E-05-3.23232E-05 8.44906E-07 2.58595E-19-2.98063E-19
 -1      1578 1.06743E-04-3.21105E-05-3.19702E-05 1.49752E-06-2.14256E-20 2.25863E-19
 -1      1579 1.05060E-04-3.15102E-05-3.15282E-05 9.66960E-07-3.76154E-19-1.07438E-18
 -1      1580 1.06089E-04-3.18445E-05-3.18250E-05 9.46315E-07 2.36982E-19-9.74882E-19
 -1      1581 1.05189E-04-3.15781E-05-3.15410E-05 1.79975E-06 3.69801E-19-1.18174E-18
 -1      1582 1.03188E-04-3.09345E-05-3.09756E-05 9.20840E-07 4.96885E-20-1.87524E-18
 -1      1583 1.04211E-04-3.12558E-05-3.12733E-05 9.25649E-07 1.94193E-20-1.50727E-18
 -1      1584 1.03516E-04-3.10350E-05-3.10628E-05 1.83051E-06 2.74347E-19-6.60204E-19
 -1      1585 1.01469E-04-3.04129E-05-3.04625E-05 8.16167E-07-3.75339E-19-2.75205E-18
 -1      1586 1.02400E-04-3.06987E-05-3.07353E-05 8.35295E-07-3.33701E-20-2.44609E-18
 -1      1587 1.01901E-04-3.05290E-05-3.05911E-05 1.69547E-06 3.47590E-19-5.71009E-19
 -1      1588 9.99788E-05-2.99653E-05-3.00147E-05 6.87798E-07 1.42403E-19-2.12265E-18
 -1      1589 1.00778E-04-3.02063E-05-3.02501E-05 7.13369E-07-4.63269E-19-2.28659E-18
 -1      1590 1.00446E-04-3.00846E-05-3.01599E-05 1.47640E-06-4.58935E-19-1.82176E-18
 -1      1591 9.87418E-05-2.95965E-05-2.96411E-05 5.57546E-07-3.90535E-19-1.86553E-18
 -1      1592 9.93992E-05-2.97917E-05-2.98353E-05 5.84533E-07-4.42169E-20-1.90052E-18
 -1      1593 9.91979E-05-2.97105E-05-2.97862E-05 1.22888E-06-3.14242E-19-1.91778E-18
 -1      1594 9.77500E-05-2.93026E-05-2.93404E-05 4.37551E-07 1.77793E-19-1.70193E-18
 -1      1595 9.82720E-05-2.94554E-05-2.94950E-05 4.63053E-07-2.83377E-19-2.12409E-18
 -1      1596 9.81681E-05-2.94062E-05-2.94753E-05 9.86810E-07 8.59970E-20-1.91614E-18
 -1      1597 9.69784E-05-2.90750E-05-2.91058E-05 3.33452E-07-6.68275E-19-1.15445E-18
 -1      1598 9.73802E-05-2.91911E-05-2.92251E-05 3.56021E-07 1.50923E-19-1.47572E-18
 -1      1599 9.73446E-05-2.91656E-05-2.92250E-05 7.68361E-07 1.72790E-20-8.88497E-19
 -1      1600 9.63947E-05-2.89036E-05-2.89279E-05 2.46844E-07-1.91829E-19 9.32991E-19
 -1      1601 9.66952E-05-2.89893E-05-2.90173E-05 2.65955E-07-7.61854E-19-4.08320E-19
 -1      1602 9.67044E-05-2.89803E-05-2.90293E-05 5.81303E-07-9.69251E-19-1.11878E-19
 -1      1603 9.59660E-05-2.87783E-05-2.87969E-05 1.76986E-07-2.99596E-19 1.70072E-18
 -1      1604 9.61838E-05-2.88395E-05-2.88619E-05 1.92669E-07-1.41820E-19 1.97912E-18
 -1      1605 9.62200E-05-2.88414E-05-2.88806E-05 4.27022E-07-8.12161E-19 9.10243E-19
 -1      1606 9.56615E-05-2.86897E-05-2.87037E-05 1.21912E-07 4.46998E-19 9.91672E-19
 -1      1607 9.58137E-05-2.87316E-05-2.87492E-05 1.34510E-07 3.18840E-19 1.49918E-18
 -1      1608 9.58638E-05-2.87400E-05-2.87707E-05 3.03275E-07 3.08653E-19 1.40143E-18
 -1      1609 9.54549E-05-2.86298E-05-2.86403E-05 7.91129E-08 1.31929E-18-9.92239E-19
 -1      1610 9.55557E-05-2.86568E-05-2.86706E-05 8.91346E-08 1.06242E-18 3.25614E-19
 -1      1611 9.56105E-05-2.86685E-05-2.86922E-05 2.05985E-07 1.69964E-18-9.42299E-20
 -1      1612 9.53243E-05-2.85922E-05-2.86002E-05 4.59690E-08 1.22869E-18-3.05914E-18
 -1      1613 9.53853E-05-2.86077E-05-2.86186E-05 5.40017E-08 1.29726E-18-1.16718E-18
 -1      1614 9.54383E-05-2.86202E-05-2.86386E-05 1.30371E-07 1.64143E-18-1.48030E-19
 -1      1615 9.52526E-05-2.85719E-05-2.85781E-05 2.02107E-08 1.30542E-19-3.01150E-18
 -1      1616 9.52827E-05-2.85784E-05-2.85873E-05 2.67905E-08-8.88092E-21-3.01397E-18
 -1      1617 9.53289E-05-2.85899E-05-2.86043E-05 7.17772E-08 6.90501E-19-5.80489E-19
 -1      1618 9.52258E-05-2.85651E-05-2.85691E-05 3.51910E-10 7.70622E-19-4.55530E-18
 -1      1619 9.52320E-05-2.85645E-05-2.85716E-05 5.92541E-09 7.51942E-19-2.80482E-18
 -1      1620 9.52674E-05-2.85734E-05-2.85846E-05 2.67915E-08 1.15169E-18-8.00524E-19
 -1      1621 9.52288E-05-2.85689E-05-2.85671E-05-1.09295E-08-5.47900E-19-4.99505E-18
 -1      1622 9.52197E-05-2.85634E-05-2.85663E-05-7.32312E-09 6.66384E-20-4.80881E-18
 -1      1623 9.52407E-05-2.85688E-05-2.85744E-05-4.73046E-09 5.40640E-19-1.27702E-18
 -1      1624 9.52321E-05-2.85753E-05-2.85647E-05-7.48348E-09-3.24429E-18-3.56047E-18
 -1      1625 9.52455E-05-2.85849E-05-2.85692E-05-3.02046E-09-3.19823E-18 1.25144E-18
 -1      1626 9.52420E-05-2.85789E-05-2.85690E-05-5.60222E-09-4.27714E-18 4.36726E-19
 -1      1627 9.52403E-05-2.85635E-05-2.85764E-05 1.54238E-08-1.71017E-18 7.67943E-19
 -1      1628 9.52430E-05-2.85732E-05-2.85731E-05 1.08828E-08-2.29124E-18 8.47064E-19
 -1      1629 9.52422E-05-2.85562E-05-2.85805E-05 1.14659E-08-1.51352E-18 1.92266E-18
 -1      1630 9.52240E-05-2.85154E-05-2.85899E-05 3.19270E-08-3.41959E-19 3.52034E-19
 -1      1631 9.52325E-05-2.85410E-05-2.85825E-05 2.87658E-08-1.12340E-18 8.23384E-19
 -1      1632 9.52300E-05-2.85200E-05-2.85911E-05 4.48782E-08-6.01164E-19 2.21327E-18
 -1      1633 9.52017E-05-2.84495E-05-2.86083E-05 4.14295E-08 7.71738E-19 8.54351E-19
 -1      1634 9.52136E-05-2.84851E-05-2.85982E-05 4.01882E-08-2.49237E-19 1.57849E-18
 -1      1635 9.52108E-05-2.84656E-05-2.86056E-05 7.11814E-08-1.09563E-18 9.53780E-19
 -1      1636 9.51785E-05-2.83809E-05-2.86277E-05 4.14680E-08 7.51022E-19-1.04938E-18
 -1      1637 9.51907E-05-2.84173E-05-2.86173E-05 4.21802E-08 1.79787E-18-9.05190E-19
 -1      1638 9.51870E-05-2.84013E-05-2.86224E-05 8.16892E-08 2.91912E-19 5.53880E-21
 -1      1639 9.51587E-05-2.83218E-05-2.86444E-05 3.24833E-08-3.95433E-19-1.79346E-19
 -1      1640 9.51687E-05-2.83518E-05-2.86358E-05 3.49179E-08 2.33217E-19-7.59777E-19
 -1      1641 9.51640E-05-2.83387E-05-2.86388E-05 7.43834E-08 1.19234E-18-2.13960E-18
 -1      1642 9.51466E-05-2.82856E-05-2.86547E-05 1.66007E-08-2.01318E-18-3.18929E-20
 -1      1643 9.51521E-05-2.83020E-05-2.86500E-05 2.01729E-08-1.66037E-18 7.03190E-19
 -1      1644 9.51457E-05-2.82888E-05-2.86519E-05 5.12102E-08-1.67524E-19-1.41114E-18
 -1      1645 9.51446E-05-2.82796E-05-2.86564E-05-2.78266E-09-6.22017E-19-6.52507E-19
 -1      1646 9.51443E-05-2.82788E-05-2.86566E-05 1.18157E-09-1.29465E-18 5.24197E-19
 -1      1647 9.51358E-05-2.82617E-05-2.86590E-05 1.73157E-08-1.33480E-19 1.14668E-20
 -1      1648 9.51531E-05-2.83051E-05-2.86491E-05-2.16806E-08 2.89558E-18 1.79563E-18
 -1      1649 9.51471E-05-2.82872E-05-2.86542E-05-1.81391E-08 4.18471E-19 1.82602E-18
 -1      1650 9.51361E-05-2.82625E-05-2.86587E-05-2.02722E-08 1.32543E-18 2.26819E-18
 -1      1651 9.51704E-05-2.83569E-05-2.86344E-05-3.61305E-08 3.27504E-18-6.81522E-19
 -1      1652 9.51600E-05-2.83257E-05-2.86433E-05-3.37836E-08 3.49410E-18-1.26693E-21
 -1      1653 9.51465E-05-2.82911E-05-2.86512E-05-5.38573E-08 8.82315E-19 2.09246E-18
 -1      1654 9.51926E-05-2.84231E-05-2.86157E-05-4.28355E-08 2.00138E-19-5.55653E-19
 -1      1655 9.51802E-05-2.83861E-05-2.86262E-05-4.22356E-08 3.10038E-18-2.39126E-18
 -1      1656 9.51652E-05-2.83419E-05-2.86380E-05-7.62276E-08 7.10159E-19-2.58167E-18
 -1      1657 9.52159E-05-2.84917E-05-2.85964E-05-4.01211E-08 1.10036E-18 4.20983E-19
 -1      1658 9.52039E-05-2.84562E-05-2.86065E-05-4.15395E-08 5.31037E-19 1.44033E-18
 -1      1659 9.51886E-05-2.84054E-05-2.86214E-05-8.24384E-08 1.86853E-18 5.91536E-19
 -1      1660 9.52344E-05-2.85466E-05-2.85809E-05-2.78610E-08 2.85528E-18 1.15369E-18
 -1      1661 9.52262E-05-2.85220E-05-2.85881E-05-3.11873E-08 1.41614E-18 8.27927E-19
 -1      1662 9.52127E-05-2.84704E-05-2.86044E-05-7.04247E-08 2.31282E-18 1.23882E-18
 -1      1663 9.52443E-05-2.85769E-05-2.85720E-05-8.90905E-09 3.25515E-18 9.01743E-20
 -1      1664 9.52417E-05-2.85686E-05-2.85749E-05-1.37225E-08 2.75228E-18 8.68856E-19
 -1      1665 9.52322E-05-2.85245E-05-2.85900E-05-4.25589E-08 1.41124E-18 1.54321E-18
 -1      1666 9.52429E-05-2.85818E-05-2.85684E-05 5.32619E-09 2.95587E-18-3.90912E-19
 -1      1667 9.52463E-05-2.85879E-05-2.85684E-05 2.67488E-09 3.04217E-18-8.65580E-19
 -1      1668 9.52409E-05-2.85570E-05-2.85799E-05-1.02031E-08 6.88210E-19-7.98347E-19
 -1      1669 9.52431E-05-2.85729E-05-2.85728E-05 1.05682E-08 9.62691E-19-3.39377E-19
 -1      1670 2.00184E-05-6.42088E-05 1.31341E-05-5.06743E-06 4.29615E-18 1.37008E-18
 -1      1671 2.37020E-05-7.54955E-05 1.56226E-05 2.58545E-06 1.42556E-18 2.40684E-18
 -1      1672 1.92523E-05-3.64562E-05 3.15085E-06 3.26647E-06 4.26566E-18 1.39062E-18
 -1      1673 2.37031E-05-5.92587E-05 9.13888E-06-1.03252E-06 4.38509E-18 1.07099E-18
 -1      1674 3.40190E-05-9.16702E-06-1.24894E-05 2.90984E-05 5.16944E-18 6.06941E-18
 -1      1675 2.79976E-05-2.95729E-05-3.88848E-06 1.09417E-05 3.80826E-18 3.60540E-18
 -1      1676 7.59947E-05-1.94236E-07-3.15442E-05 6.14925E-05 7.09559E-18 8.74816E-18
 -1      1677 5.03352E-05-5.36586E-06-2.15030E-05 3.81133E-05 5.87333E-18 6.63904E-18
 -1      1678 1.44595E-04-1.79419E-05-5.07557E-05 7.70431E-05 5.23128E-18 7.04901E-18
 -1      1679 1.01316E-04-4.15449E-06-4.10725E-05 6.53784E-05 6.61533E-18 7.94178E-18
 -1      1680 2.08421E-04-4.40679E-05-6.52684E-05 6.19173E-05 2.84545E-18 4.16317E-18
 -1      1681 1.67915E-04-2.37555E-05-5.85692E-05 7.29469E-05 4.66694E-18 6.07831E-18
 -1      1682 2.43769E-04-5.98685E-05-7.29919E-05 1.76519E-05 1.95051E-18 6.92449E-20
 -1      1683 2.21607E-04-4.74975E-05-6.97470E-05 4.80674E-05 2.47905E-18 2.29800E-18
 -1      1684 2.41751E-04-5.79150E-05-7.30304E-05-3.14195E-05 1.61529E-18-3.39364E-18
 -1      1685 2.50874E-04-6.31410E-05-7.43305E-05 3.12264E-06 1.34085E-18-9.81261E-19
 -1      1686 1.94229E-04-3.50244E-05-6.41398E-05-6.52667E-05 2.43808E-18-4.96531E-18
 -1      1687 2.29699E-04-5.37027E-05-6.96096E-05-4.48803E-05 1.87777E-18-3.64986E-18
 -1      1688 1.30449E-04-1.10129E-05-4.93470E-05-7.24829E-05 3.91922E-18-5.74288E-18
 -1      1689 1.73761E-04-2.90337E-05-5.76312E-05-7.44474E-05 3.01650E-18-5.40322E-18
 -1      1690 7.17783E-05-9.93100E-07-3.11508E-05-5.35527E-05 4.55026E-18-4.92041E-18
 -1      1691 1.05601E-04-5.23800E-06-4.07790E-05-7.25859E-05 3.93277E-18-6.35444E-18
 -1      1692 3.74710E-05-1.47340E-05-1.29738E-05-2.47294E-05 5.36426E-18-3.70153E-18
 -1      1693 5.23218E-05-1.52352E-06-2.21032E-05-4.61670E-05 5.44896E-18-4.05644E-18
 -1      1694 2.65276E-05-4.48212E-05 2.75537E-06-5.48122E-06 2.77996E-18-2.45470E-18
 -1      1695 2.69548E-05-2.17329E-05-4.99780E-06-1.79154E-05 4.34358E-18-4.36053E-18
 -1      1696 2.38214E-05-6.96972E-05 1.32586E-05 5.23463E-07 5.14149E-19-8.29033E-19
 -1      1697 1.83538E-05-5.10322E-05 8.91057E-06 3.33921E-06 2.41658E-18-1.66262E-18
 -1      1698 2.14541E-05-7.12103E-05 1.53914E-05-5.22769E-06-1.35123E-18-1.05667E-18
 -1      1699 2.10465E-05-6.95771E-05 1.49673E-05 3.68529E-06 1.13291E-19-7.36283E-19
 -1      1700 1.90062E-05-5.57292E-05 1.03824E-05-5.19417E-06-1.92276E-18-5.60101E-19
 -1      1701 2.38235E-05-7.16259E-05 1.41463E-05-9.19128E-07-1.63054E-18-4.31352E-19
 -1      1702 2.25432E-05-2.62048E-05-2.11154E-06 9.81024E-06-2.00408E-18-1.06599E-18
 -1      1703 2.43525E-05-5.02104E-05 5.24378E-06-3.41268E-07-1.94140E-18-6.51262E-19
 -1      1704 4.85044E-05-4.81584E-06-1.98089E-05 4.10917E-05-2.87314E-18-3.73372E-18
 -1      1705 3.48181E-05-2.01956E-05-1.02861E-05 1.89107E-05-2.07608E-18-2.18746E-18
 -1      1706 1.08457E-04-1.01360E-05-4.01740E-05 6.88475E-05-3.68968E-18-4.98309E-18
 -1      1707 7.31147E-05-7.07992E-06-2.95794E-05 4.80625E-05-3.26955E-18-4.69764E-18
 -1      1708 1.78392E-04-3.07030E-05-5.85307E-05 7.57926E-05-2.84264E-18-5.05933E-18
 -1      1709 1.31870E-04-1.16010E-05-4.96962E-05 7.30106E-05-3.90948E-18-5.51418E-18
 -1      1710 2.37704E-04-5.69018E-05-7.11664E-05 4.26265E-05-1.23233E-18-3.52577E-18
 -1      1711 2.00296E-04-3.74644E-05-6.53274E-05 6.45918E-05-2.07910E-18-4.57059E-18
 -1      1712 2.58135E-04-6.55586E-05-7.56458E-05-6.23602E-06-9.48677E-19-1.61063E-18
 -1      1713 2.50110E-04-6.11338E-05-7.46067E-05 2.86772E-05-1.37495E-18-2.73634E-18
 -1      1714 2.30748E-04-5.12035E-05-7.11259E-05-5.37273E-05-1.82483E-18 2.00408E-18
 -1      1715 2.56185E-04-6.52763E-05-7.47056E-05-2.31031E-05-1.19898E-18-6.17487E-19
 -1      1716 1.65231E-04-2.39532E-05-5.75003E-05-7.07120E-05-3.77120E-18 4.80522E-18
 -1      1717 2.10367E-04-4.49704E-05-6.52652E-05-6.21203E-05-2.68944E-18 2.85958E-18
 -1      1718 9.66511E-05-4.21600E-06-3.94486E-05-6.31352E-05-2.76472E-18 5.66834E-18
 -1      1719 1.39162E-04-1.62804E-05-4.92573E-05-7.71166E-05-3.66130E-18 6.54756E-18
 -1      1720 5.14982E-05-1.30618E-05-1.91386E-05-3.28891E-05-4.74000E-18 3.39321E-18
 -1      1721 7.60080E-05-5.76030E-06-2.96109E-05-5.65735E-05-3.61598E-18 5.01359E-18
 -1      1722 2.72673E-05-3.49954E-05-1.65566E-06-7.16973E-06-6.98209E-18 3.00612E-18
 -1      1723 3.12332E-05-1.38053E-05-9.95426E-06-2.34804E-05-5.34732E-18 3.17087E-18
 -1      1724 2.42945E-05-6.23052E-05 1.03058E-05 8.58162E-07-6.09864E-18 2.26137E-18
 -1      1725 2.00319E-05-4.13656E-05 4.71918E-06-1.91815E-06-6.62380E-18 1.89047E-18
 -1      1726 2.37271E-05-7.68697E-05 1.60635E-05-8.48277E-07 1.34678E-19 2.69399E-18
 -1      1727 2.05999E-05-6.83628E-05 1.42898E-05 7.79644E-06-4.37747E-18 2.85577E-18
 -1      1728 7.14300E-05-3.19543E-05-1.80506E-05 4.02940E-05 2.15824E-18 5.13302E-18
 -1      1729 1.20118E-05-5.09631E-05 1.19984E-05 1.96076E-06-3.12290E-19 4.34867E-18
 -1      1730 9.52395E-05-2.85791E-05-2.85677E-05-1.29382E-08-3.89233E-18-1.28135E-18
 -1      1731 9.52403E-05-2.85673E-05-2.85734E-05-1.09183E-08-1.56379E-18-6.34332E-19
 -1      1732 1.92723E-05-4.73075E-05 7.79718E-06 1.49884E-05 1.63986E-18 6.76144E-19
 -1      1733 3.92128E-05-3.99377E-05-2.74564E-06 2.79905E-05 2.10911E-18 2.76297E-18
 -1      1734 1.15239E-04-2.90547E-05-3.57914E-05 4.66827E-05 3.43430E-18 3.86501E-18
 -1      1735 1.59373E-04-3.02311E-05-5.22376E-05 4.15977E-05 3.82097E-18 2.21669E-18
 -1      1736 1.90020E-04-3.10327E-05-6.39187E-05 2.52452E-05 3.61048E-18 1.70677E-19
 -1      1737 2.04960E-04-3.19426E-05-6.93641E-05 3.39568E-06 2.83417E-18-5.92711E-19
 -1      1738 2.00527E-04-3.18030E-05-6.73791E-05-1.67494E-05 2.24337E-18-2.04982E-18
 -1      1739 1.75333E-04-3.09512E-05-5.80354E-05-3.48432E-05 2.15565E-18-2.70034E-18
 -1      1740 1.36117E-04-2.90026E-05-4.37324E-05-4.64419E-05 2.22219E-18-2.97309E-18
 -1      1741 9.22503E-05-2.96145E-05-2.68972E-05-4.49069E-05 2.62919E-18-2.42124E-18
 -1      1742 5.66701E-05-3.66299E-05-1.06157E-05-3.56813E-05 1.96173E-18-2.60907E-18
 -1      1743 2.96202E-05-4.38382E-05 2.65432E-06-2.39416E-05 9.30466E-19-2.43607E-18
 -1      1744 1.36366E-05-4.74495E-05 1.02192E-05-8.79987E-06-3.59989E-19-1.55685E-18
 -1      1745 1.26370E-05-4.72960E-05 1.06365E-05 5.09747E-06 1.39125E-19-1.15959E-18
 -1      1746 2.56781E-05-4.57356E-05 4.58929E-06 1.84969E-05-6.28075E-19-1.88888E-19
 -1      1747 5.14437E-05-3.83926E-05-8.12035E-06 3.14340E-05-7.74188E-19-1.72371E-18
 -1      1748 9.31014E-05-3.46043E-05-2.53318E-05 4.20410E-05-9.97805E-19-3.42455E-18
 -1      1749 1.38924E-04-3.34469E-05-4.34339E-05 4.33338E-05-2.17603E-18-3.75405E-18
 -1      1750 1.80786E-04-3.34014E-05-5.91471E-05 3.46686E-05-2.49102E-18-3.17553E-18
 -1      1751 2.06544E-04-3.38924E-05-6.87404E-05 1.45333E-05-1.85500E-18-2.16078E-18
 -1      1752 2.15641E-04-3.59853E-05-7.11403E-05-6.84118E-06-1.97443E-18-8.45868E-19
 -1      1753 1.96648E-04-3.49094E-05-6.46179E-05-2.55005E-05-2.76556E-18 8.96161E-19
 -1      1754 1.59788E-04-3.28608E-05-5.13829E-05-4.03600E-05-2.39816E-18 3.00697E-18
 -1      1755 1.14644E-04-3.39000E-05-3.39945E-05-4.36982E-05-1.85881E-18 4.27582E-18
 -1      1756 7.13187E-05-3.69675E-05-1.61331E-05-3.79192E-05-3.91245E-18 2.35306E-18
 -1      1757 3.73313E-05-4.20893E-05-1.16975E-06-2.58045E-05-3.81165E-18 1.45335E-18
 -1      1758 1.82829E-05-4.79316E-05 8.55739E-06-1.29890E-05-2.36237E-18 3.63928E-18
 -1      1759 1.05795E-04-2.31187E-05-3.55181E-05-1.67335E-05 3.20946E-20 5.34266E-19
 -1      1760 8.92155E-05-1.05835E-05-3.38249E-05-1.30953E-05 9.59066E-20 3.95353E-19
 -1      1761 9.05246E-05-1.16371E-05-3.39498E-05-1.49081E-05 5.62417E-20 4.66742E-19
 -1      1762 9.24972E-05-1.38883E-05-3.38508E-05-1.57952E-05 4.23847E-20 4.90591E-19
 -1      1763 9.41647E-05-1.58316E-05-3.40728E-05-1.74666E-05 1.26128E-20 4.87891E-19
 -1      1764 9.34467E-05-1.63457E-05-3.30574E-05-1.35333E-05 7.97237E-20 5.11661E-19
 -1      1765 8.62625E-05-7.58717E-06-3.37894E-05-7.65285E-06 3.29334E-20 2.43945E-19
 -1      1766 8.66775E-05-7.90246E-06-3.38192E-05-9.02731E-06 6.37458E-20 2.41285E-19
 -1      1767 8.56131E-05-6.90496E-06-3.37915E-05-5.15617E-06 6.53142E-20 3.85559E-19
 -1      1768 8.58620E-05-7.09862E-06-3.38049E-05-6.43571E-06 6.93277E-20 2.76609E-19
 -1      1769 8.76102E-05-9.72062E-06-3.34116E-05-6.70580E-06 2.48617E-20 2.83888E-19
 -1      1770 8.52502E-05-6.51364E-06-3.37964E-05-2.79070E-06 1.53937E-19 4.89479E-19
 -1      1771 8.53824E-05-6.61833E-06-3.38020E-05-3.99777E-06 1.17517E-19 4.43263E-19
 -1      1772 8.69337E-05-8.95651E-06-3.34496E-05-4.37371E-06 1.10156E-19 4.68389E-19
 -1      1773 8.51048E-05-6.34977E-06-3.38000E-05-4.96681E-07 2.87145E-19 5.75215E-19
 -1      1774 8.51449E-05-6.38177E-06-3.38015E-05-1.66955E-06 2.18243E-19 5.00226E-19
 -1      1775 8.65713E-05-8.54291E-06-3.34713E-05-2.13117E-06 1.88047E-19 5.48030E-19
 -1      1776 8.51537E-05-6.39111E-06-3.38011E-05 1.78615E-06 2.89361E-19 5.97555E-19
 -1      1777 8.51082E-05-6.35460E-06-3.37997E-05 6.12228E-07 2.83964E-19 5.88953E-19
 -1      1778 8.64615E-05-8.41748E-06-3.34779E-05 6.39799E-08 2.99258E-19 6.21762E-19
 -1      1779 8.54050E-05-6.64416E-06-3.38007E-05 4.11928E-06 2.67052E-19 6.28763E-19
 -1      1780 8.52664E-05-6.53342E-06-3.37953E-05 2.90888E-06 2.82337E-19 5.47077E-19
 -1      1781 8.65879E-05-8.56366E-06-3.34696E-05 2.26058E-06 3.06308E-19 6.39100E-19
 -1      1782 8.58913E-05-7.13435E-06-3.38027E-05 6.52409E-06 2.30797E-19 9.02209E-19
 -1      1783 8.56400E-05-6.93785E-06-3.37897E-05 5.26121E-06 2.38873E-19 7.94464E-19
 -1      1784 8.69657E-05-8.99618E-06-3.34464E-05 4.48764E-06 2.28885E-19 7.70826E-19
 -1      1785 8.67314E-05-7.96929E-06-3.38155E-05 9.15010E-06 3.55966E-19 1.10446E-18
 -1      1786 8.63011E-05-7.63677E-06-3.37862E-05 7.74415E-06 3.04290E-19 9.93186E-19
 -1      1787 8.76571E-05-9.78087E-06-3.34070E-05 6.80606E-06 2.92349E-19 1.02688E-18
 -1      1788 8.81486E-05-9.35811E-06-3.38556E-05 1.20166E-05 2.80222E-19 1.26340E-18
 -1      1789 8.74128E-05-8.78702E-06-3.37923E-05 1.04285E-05 3.16043E-19 1.15198E-18
 -1      1790 8.88111E-05-1.10741E-05-3.33463E-05 9.24948E-06 3.25459E-19 1.15437E-18
 -1      1791 9.06829E-05-1.18515E-05-3.39401E-05 1.50994E-05 2.27667E-19 1.55851E-18
 -1      1792 8.93322E-05-1.07439E-05-3.38150E-05 1.32697E-05 2.14372E-19 1.37140E-18
 -1      1793 9.07144E-05-1.31904E-05-3.32463E-05 1.16983E-05 2.39638E-19 1.34116E-18
 -1      1794 9.58363E-05-1.70859E-05-3.39682E-05 1.74808E-05 1.78135E-19 1.79391E-18
 -1      1795 9.28481E-05-1.43371E-05-3.38225E-05 1.59694E-05 1.96475E-19 1.66601E-18
 -1      1796 9.39074E-05-1.68547E-05-3.30247E-05 1.36216E-05 1.69603E-19 1.59065E-18
 -1      1797 1.01763E-04-2.50626E-05-3.33059E-05 1.42693E-05 6.29451E-20 1.97655E-18
 -1      1798 9.79758E-05-1.95731E-05-3.35896E-05 1.67981E-05 1.28392E-19 1.87988E-18
 -1      1799 9.73661E-05-2.18703E-05-3.24028E-05 1.30860E-05 1.59785E-19 1.76440E-18
 -1      1800 9.86657E-05-2.61184E-05-3.13044E-05 9.29134E-06 2.13346E-20 1.88053E-18
 -1      1801 1.00015E-04-1.95505E-05-3.41643E-05-1.87082E-05 8.17387E-20 5.27490E-19
 -1      1802 9.53622E-05-2.72929E-05-2.91883E-05 3.95264E-06-8.95473E-20 1.93658E-18
 -1      1803 9.76515E-05-2.73658E-05-3.01719E-05 6.25076E-06-3.97576E-20 1.84302E-18
 -1      1804 9.75400E-05-2.56003E-05-3.08128E-05 8.54304E-06 1.81847E-20 1.75222E-18
 -1      1805 9.97228E-05-2.25254E-05-3.28044E-05-1.42908E-05 6.74450E-20 4.74021E-19
 -1      1806 9.69441E-05-2.69610E-05-2.98775E-05-5.52058E-06 6.97214E-20 4.80876E-19
 -1      1807 9.51936E-05-2.70246E-05-2.91861E-05-3.69894E-06-6.06158E-21 4.87031E-19
 -1      1808 9.44262E-05-2.72327E-05-2.86994E-05-2.18849E-06-4.82809E-20 5.73335E-19
 -1      1809 9.37299E-05-2.73273E-05-2.84183E-05-1.30449E-06-6.84376E-20 5.45711E-19
 -1      1810 9.56006E-05-2.65332E-05-2.96230E-05-4.18744E-06-3.81165E-21 4.31998E-19
 -1      1811 9.32757E-05-2.73893E-05-2.81770E-05-4.25744E-07-1.41994E-19 6.86401E-19
 -1      1812 9.30763E-05-2.74726E-05-2.80871E-05 6.02571E-08-8.06898E-20 7.23704E-19
 -1      1813 9.45106E-05-2.72165E-05-2.88626E-05-1.44621E-06-3.31402E-20 6.01307E-19
 -1      1814 9.28962E-05-2.75165E-05-2.79874E-05 5.91958E-07-4.26825E-21 6.94009E-19
 -1      1815 9.30055E-05-2.76221E-05-2.80014E-05 8.84271E-07 1.49567E-19 6.75979E-19
 -1      1816 9.39703E-05-2.75373E-05-2.84902E-05 1.64834E-07-6.20485E-20 6.78707E-19
 -1      1817 9.30316E-05-2.76777E-05-2.79915E-05 1.22921E-06 5.39322E-20 5.93928E-19
 -1      1818 9.33398E-05-2.78055E-05-2.80702E-05 1.42607E-06 1.31912E-19 4.62096E-19
 -1      1819 9.38681E-05-2.77470E-05-2.83530E-05 1.17208E-06 6.65616E-20 6.30838E-19
 -1      1820 9.35177E-05-2.78772E-05-2.81221E-05 1.67699E-06 1.59489E-19 4.57715E-19
 -1      1821 9.39684E-05-2.80242E-05-2.82472E-05 1.83370E-06-8.86250E-20 6.68643E-19
 -1      1822 9.40992E-05-2.79294E-05-2.83707E-05 1.85868E-06 6.83086E-21 3.92986E-19
 -1      1823 9.42641E-05-2.81118E-05-2.83454E-05 2.04899E-06-9.98953E-20 6.65686E-19
 -1      1824 9.48333E-05-2.82782E-05-2.85086E-05 2.20085E-06 5.88407E-20 8.32062E-19
 -1      1825 9.45846E-05-2.81105E-05-2.84988E-05 2.39503E-06-6.51632E-20 5.82912E-19
 -1      1826 9.52294E-05-2.83820E-05-2.86452E-05 2.41982E-06 1.21622E-19 9.27548E-19
 -1      1827 9.59143E-05-2.85717E-05-2.88447E-05 2.59127E-06 3.25164E-19 9.92440E-19
 -1      1828 9.52786E-05-2.83021E-05-2.87128E-05 2.89116E-06 2.29328E-19 5.91531E-19
 -1      1829 9.64055E-05-2.86940E-05-2.90163E-05 2.84124E-06 1.21449E-19 8.44878E-19
 -1      1830 9.72172E-05-2.89144E-05-2.92542E-05 3.04912E-06-6.74814E-20 6.74827E-19
 -1      1831 9.61616E-05-2.85137E-05-2.90000E-05 3.42222E-06 1.45087E-20 4.94785E-19
 -1      1832 9.78070E-05-2.90602E-05-2.94603E-05 3.34757E-06 1.95000E-20 6.97586E-19
 -1      1833 9.87653E-05-2.93221E-05-2.97410E-05 3.60095E-06 1.68422E-19 8.34318E-19
 -1      1834 9.72344E-05-2.87587E-05-2.93549E-05 4.03866E-06 4.04194E-20 6.03077E-19
 -1      1835 9.94630E-05-2.95002E-05-2.99816E-05 3.95396E-06 2.72275E-20 8.99222E-19
 -1      1836 1.00590E-04-2.98182E-05-3.03094E-05 4.25095E-06-1.42143E-19 8.61319E-19
 -1      1837 9.85125E-05-2.90577E-05-2.97749E-05 4.76716E-06 1.51956E-19 7.43989E-19
 -1      1838 1.01409E-04-3.00425E-05-3.05835E-05 4.64773E-06-1.13449E-19 8.93918E-19
 -1      1839 1.02721E-04-3.04352E-05-3.09597E-05 4.96823E-06 9.39677E-22 8.12283E-19
 -1      1840 1.00022E-04-2.94438E-05-3.02571E-05 5.60321E-06-2.43094E-19 6.44660E-19
 -1      1841 1.03677E-04-3.07281E-05-3.12625E-05 5.37073E-06 2.33962E-19 6.11659E-19
 -1      1842 1.05172E-04-3.12170E-05-3.16811E-05 5.66432E-06 8.34741E-20 8.99160E-19
 -1      1843 1.01796E-04-2.99700E-05-3.07931E-05 6.49443E-06 1.77670E-20 1.05152E-18
 -1      1844 1.06283E-04-3.16125E-05-3.20010E-05 5.99094E-06-9.81615E-20 8.54663E-19
 -1      1845 1.07920E-04-3.22198E-05-3.24429E-05 6.15993E-06 4.06369E-20 1.08269E-18
 -1      1846 1.03877E-04-3.07188E-05-3.13653E-05 7.31248E-06 7.25272E-21 5.42772E-19
 -1      1847 1.09205E-04-3.27645E-05-3.27601E-05 6.26482E-06-1.75123E-19 1.03126E-18
 -1      1848 1.10881E-04-3.35013E-05-3.31863E-05 6.14785E-06-9.76305E-20 7.73559E-19
 -1      1849 1.06307E-04-3.18080E-05-3.19426E-05 7.81434E-06 3.45265E-21 3.49934E-19
 -1      1850 1.12350E-04-3.42436E-05-3.34731E-05 5.80481E-06-9.49603E-22 5.71443E-19
 -1      1851 1.13864E-04-3.50806E-05-3.38216E-05 5.17879E-06-2.51082E-19 5.63968E-19
 -1      1852 1.09127E-04-3.33748E-05-3.24825E-05 7.60337E-06-2.68640E-19 3.05723E-19
 -1      1853 1.15486E-04-3.60272E-05-3.40503E-05 4.09778E-06-2.49292E-19 8.65333E-19
 -1      1854 1.16519E-04-3.68339E-05-3.42435E-05 2.73797E-06-8.35122E-20 8.66172E-19
 -1      1855 1.12322E-04-3.54972E-05-3.29430E-05 6.12601E-06-6.58105E-20 5.09346E-19
 -1      1856 1.18137E-04-3.78500E-05-3.44049E-05 6.72128E-07-2.06365E-19 1.14549E-18
 -1      1857 1.18262E-04-3.83078E-05-3.43774E-05-1.47535E-06-1.27214E-19 9.29190E-19
 -1      1858 1.15700E-04-3.79926E-05-3.33138E-05 2.79063E-06 4.03929E-20 8.27407E-19
 -1      1859 1.19462E-04-3.89728E-05-3.45050E-05-4.44526E-06 3.45761E-20 8.54327E-19
 -1      1860 1.18284E-04-3.85555E-05-3.42528E-05-6.96145E-06 4.91332E-19 9.27051E-19
 -1      1861 1.18660E-04-4.00805E-05-3.36620E-05-2.64867E-06-1.88326E-19 4.04754E-19
 -1      1862 1.18380E-04-3.81667E-05-3.44259E-05-9.96555E-06 9.79971E-19 7.68060E-19
 -1      1863 1.15867E-04-3.64449E-05-3.40436E-05-1.17165E-05 5.62943E-19 7.75631E-19
 -1      1864 1.19999E-04-4.01955E-05-3.41502E-05-9.30118E-06 8.60542E-19 5.26957E-19
 -1      1865 1.14427E-04-3.45832E-05-3.43236E-05-1.29597E-05 5.53334E-19 1.22370E-18
 -1      1866 1.11323E-04-3.18999E-05-3.39715E-05-1.24751E-05 6.22093E-19 1.49913E-18
 -1      1867 1.18463E-04-3.68489E-05-3.49391E-05-1.43319E-05 1.09698E-18 4.90991E-19
 -1      1868 1.09085E-04-2.93599E-05-3.42799E-05-1.02330E-05 8.63180E-20 1.82939E-18
 -1      1869 1.06930E-04-2.72652E-05-3.40822E-05-6.93831E-06-6.77388E-19 1.80469E-18
 -1      1870 1.14316E-04-3.06327E-05-3.59369E-05-1.35948E-05 4.49642E-19 9.05352E-19
 -1      1871 1.05918E-04-2.61434E-05-3.42127E-05-1.95939E-06-1.06758E-18 1.76895E-18
 -1      1872 1.05986E-04-2.62082E-05-3.42230E-05 2.31954E-06-1.08905E-18 1.22915E-18
 -1      1873 1.10632E-04-2.55257E-05-3.66516E-05-5.54622E-06-9.28957E-19 1.65297E-18
 -1      1874 1.07112E-04-2.74591E-05-3.40834E-05 7.46998E-06-1.09971E-18 4.89889E-19
 -1      1875 1.09399E-04-2.96396E-05-3.42945E-05 1.06218E-05-1.21001E-18 4.67006E-19
 -1      1876 1.10723E-04-2.56276E-05-3.66324E-05 5.93718E-06-1.41611E-18 1.76623E-18
 -1      1877 1.11655E-04-3.22089E-05-3.39859E-05 1.26487E-05-1.31618E-18 3.45828E-19
 -1      1878 1.14780E-04-3.48723E-05-3.43488E-05 1.29794E-05-9.82565E-19-4.29962E-19
 -1      1879 1.14609E-04-3.09902E-05-3.58963E-05 1.39253E-05-1.24421E-18-1.65023E-20
 -1      1880 1.16153E-04-3.66679E-05-3.40800E-05 1.15797E-05-4.32271E-19-3.05699E-19
 -1      1881 1.18622E-04-3.83163E-05-3.44654E-05 9.74012E-06 1.75289E-19-2.21658E-19
 -1      1882 1.18701E-04-3.71585E-05-3.49096E-05 1.42261E-05-5.32191E-19 5.14354E-19
 -1      1883 1.18449E-04-3.86193E-05-3.43033E-05 6.70110E-06-1.79584E-19-2.73486E-19
 -1      1884 1.19566E-04-3.89706E-05-3.45509E-05 4.19221E-06-4.08607E-19-9.77076E-19
 -1      1885 1.20085E-04-4.03124E-05-3.41502E-05 9.00411E-06-4.64419E-19 4.01355E-19
 -1      1886 1.18347E-04-3.82714E-05-3.44300E-05 1.28084E-06-1.20199E-19-6.69110E-19
 -1      1887 1.18186E-04-3.77880E-05-3.44524E-05-8.11702E-07 2.25688E-19-3.96855E-19
 -1      1888 1.18635E-04-4.00114E-05-3.36878E-05 2.39890E-06 5.75188E-20 5.55299E-20
 -1      1889 1.16588E-04-3.67737E-05-3.42970E-05-2.79522E-06 1.01134E-19-1.35383E-18
 -1      1890 1.15557E-04-3.59688E-05-3.41049E-05-4.08920E-06-3.39495E-19-7.04083E-19
 -1      1891 1.15674E-04-3.78691E-05-3.33579E-05-2.88271E-06 2.17052E-21 1.02732E-18
 -1      1892 1.13978E-04-3.50398E-05-3.38849E-05-5.09154E-06-1.72606E-19-1.13733E-18
 -1      1893 1.12500E-04-3.42201E-05-3.35460E-05-5.65734E-06 3.83200E-19-7.75508E-19
 -1      1894 1.12356E-04-3.53901E-05-3.30043E-05-6.04345E-06-3.24629E-19-1.99569E-19
 -1      1895 1.11087E-04-3.35005E-05-3.32726E-05-5.93300E-06 3.74943E-19-1.32383E-18
 -1      1896 1.09479E-04-3.27895E-05-3.28650E-05-5.99876E-06 9.83592E-20-1.11117E-18
 -1      1897 1.09259E-04-3.33127E-05-3.25660E-05-7.36220E-06-2.24216E-20-7.09258E-20
 -1      1898 1.08262E-04-3.22685E-05-3.25666E-05-5.83578E-06-2.45920E-19-6.48288E-19
 -1      1899 1.06720E-04-3.16926E-05-3.21517E-05-5.62158E-06 1.16387E-19-3.99105E-19
 -1      1900 1.06563E-04-3.17975E-05-3.20568E-05-7.43625E-06 2.05233E-19-1.05714E-19
 -1      1901 1.05687E-04-3.13215E-05-3.18561E-05-5.24132E-06 1.18724E-19-5.25900E-19
 -1      1902 1.04315E-04-3.08697E-05-3.14723E-05-4.90463E-06-5.61318E-19-9.33889E-19
 -1      1903 1.04277E-04-3.07595E-05-3.15200E-05-6.81130E-06 2.89298E-20 7.16158E-19
 -1      1904 1.03449E-04-3.06029E-05-3.11990E-05-4.44924E-06-1.03195E-18-3.86296E-19
 -1      1905 1.02284E-04-3.02539E-05-3.08650E-05-4.08512E-06-2.31966E-19 1.00494E-19
 -1      1906 1.02366E-04-3.00624E-05-3.09980E-05-5.87524E-06-3.59847E-19 9.82738E-19
 -1      1907 1.01568E-04-3.00588E-05-3.06249E-05-3.63471E-06 1.08998E-19-7.63812E-19
 -1      1908 1.00613E-04-2.97921E-05-3.03462E-05-3.29288E-06 3.65118E-19-7.44389E-19
 -1      1909 1.00785E-04-2.95920E-05-3.05207E-05-4.86600E-06-5.79305E-19 1.58408E-18
 -1      1910 1.00028E-04-2.96471E-05-3.01430E-05-2.88663E-06 5.24775E-19-1.12501E-18
 -1      1911 9.92657E-05-2.94452E-05-2.99177E-05-2.58861E-06-5.82903E-19-6.20672E-19
 -1      1912 9.94918E-05-2.92692E-05-3.01040E-05-3.91211E-06 1.63843E-19-8.55339E-19
 -1      1913 9.87961E-05-2.93364E-05-2.97508E-05-2.24140E-06-6.99206E-19 2.75993E-19
 -1      1914 9.82005E-05-2.91852E-05-2.95730E-05-1.99299E-06-5.36757E-21 6.16071E-19
 -1      1915 9.84492E-05-2.90437E-05-2.97529E-05-3.07230E-06 3.25818E-20-1.46230E-19
 -1      1916 9.78292E-05-2.91036E-05-2.94391E-05-1.70651E-06-1.32729E-20 8.44922E-19
 -1      1917 9.73729E-05-2.89919E-05-2.93017E-05-1.50560E-06 2.54739E-19 1.25351E-18
 -1      1918 9.76206E-05-2.88840E-05-2.94651E-05-2.36485E-06 4.81401E-19 1.80544E-18
 -1      1919 9.70840E-05-2.89310E-05-2.91966E-05-1.27510E-06 2.73286E-19 1.83430E-18
 -1      1920 9.67409E-05-2.88496E-05-2.90924E-05-1.11613E-06 1.01067E-18 1.92946E-18
 -1      1921 9.69722E-05-2.87706E-05-2.92349E-05-1.78666E-06 6.99921E-19 2.86374E-18
 -1      1922 9.65200E-05-2.88048E-05-2.90115E-05-9.34193E-07 6.50494E-19 1.62430E-18
 -1      1923 9.62670E-05-2.87467E-05-2.89340E-05-8.10505E-07 5.44046E-19 2.83248E-18
 -1      1924 9.64728E-05-2.86904E-05-2.90543E-05-1.32455E-06 1.13165E-18 3.72795E-18
 -1      1925 9.61011E-05-2.87142E-05-2.88728E-05-6.69091E-07-1.12259E-19 2.20927E-18
 -1      1926 9.59185E-05-2.86738E-05-2.88165E-05-5.74129E-07-1.53467E-19 1.60290E-18
 -1      1927 9.60949E-05-2.86344E-05-2.89154E-05-9.61618E-07-3.10052E-20 3.04076E-18
 -1      1928 9.57964E-05-2.86506E-05-2.87713E-05-4.65566E-07-2.65343E-19 4.20253E-19
 -1      1929 9.56684E-05-2.86235E-05-2.87314E-05-3.93363E-07-9.53560E-19 2.06453E-20
 -1      1930 9.58141E-05-2.85962E-05-2.88107E-05-6.80584E-07-8.27265E-19 1.77788E-18
 -1      1931 9.55805E-05-2.86074E-05-2.86986E-05-3.10792E-07-1.84239E-18-4.64288E-19
 -1      1932 9.54940E-05-2.85900E-05-2.86714E-05-2.56155E-07-1.67133E-18-1.66514E-18
 -1      1933 9.56099E-05-2.85709E-05-2.87334E-05-4.65441E-07-1.65143E-18 4.73238E-19
 -1      1934 9.54323E-05-2.85791E-05-2.86484E-05-1.93722E-07-7.43848E-19-2.69108E-18
 -1      1935 9.53773E-05-2.85690E-05-2.86307E-05-1.52416E-07-8.66877E-20-2.53573E-18
 -1      1936 9.54649E-05-2.85547E-05-2.86777E-05-3.02132E-07-1.73852E-18-1.77661E-18
 -1      1937 9.53351E-05-2.85622E-05-2.86149E-05-1.05329E-07 5.45784E-19-2.32099E-18
 -1      1938 9.53037E-05-2.85582E-05-2.86042E-05-7.45907E-08 1.16040E-18-2.27448E-18
 -1      1939 9.53645E-05-2.85453E-05-2.86382E-05-1.79246E-07 1.96231E-19-1.33345E-18
 -1      1940 9.52760E-05-2.85550E-05-2.85933E-05-4.06981E-08 1.37965E-18-2.27429E-18
 -1      1941 9.52608E-05-2.85571E-05-2.85869E-05-1.99553E-08 1.00615E-18-9.10463E-19
 -1      1942 9.52988E-05-2.85437E-05-2.86105E-05-8.80485E-08 1.45633E-18-8.11528E-19
 -1      1943 9.52452E-05-2.85642E-05-2.85766E-05 4.09885E-09 2.19848E-19-8.11552E-19
 -1      1944 9.29731E-05-2.73858E-05-2.80720E-05 5.22212E-07-2.08473E-19 1.82676E-18
 -1      1945 9.33630E-05-2.73219E-05-2.82417E-05 1.13359E-06-3.02464E-19 1.79333E-18
 -1      1946 9.26345E-05-2.74995E-05-2.78896E-05-4.51315E-07-9.67967E-20 1.91695E-18
 -1      1947 9.26471E-05-2.74138E-05-2.79133E-05-1.17076E-07-1.54268E-19 1.80860E-18
 -1      1948 9.39428E-05-2.74395E-05-2.85196E-05 5.57071E-07-1.57628E-19 1.39830E-18
 -1      1949 9.27958E-05-2.76558E-05-2.78992E-05-1.04819E-06 7.27919E-21 1.99209E-18
 -1      1950 9.25623E-05-2.75386E-05-2.78432E-05-8.43581E-07-2.56277E-20 2.05873E-18
 -1      1951 9.35999E-05-2.76456E-05-2.82830E-05-6.48140E-07-4.88897E-20 1.56731E-18
 -1      1952 9.33025E-05-2.78611E-05-2.80322E-05-1.44305E-06-4.63287E-20 2.04281E-18
 -1      1953 9.29085E-05-2.77190E-05-2.79253E-05-1.30269E-06 2.47939E-20 1.98786E-18
 -1      1954 9.36781E-05-2.78264E-05-2.82356E-05-1.40580E-06 3.54306E-20 1.73339E-18
 -1      1955 9.40573E-05-2.81088E-05-2.82514E-05-1.73930E-06-6.04686E-20 1.87162E-18
 -1      1956 9.35489E-05-2.79462E-05-2.81082E-05-1.62745E-06-9.64112E-20 1.87292E-18
 -1      1957 9.40558E-05-2.80149E-05-2.83137E-05-1.92422E-06 1.12459E-20 1.52208E-18
 -1      1958 9.50083E-05-2.83966E-05-2.85364E-05-1.99789E-06-5.94801E-20 1.86336E-18
 -1      1959 9.44066E-05-2.82140E-05-2.83640E-05-1.89376E-06-1.49803E-19 1.82938E-18
 -1      1960 9.46589E-05-2.82237E-05-2.84807E-05-2.32539E-06-8.51504E-20 1.38244E-18
 -1      1961 9.61310E-05-2.87271E-05-2.88764E-05-2.25245E-06 2.12849E-19 1.90464E-18
 -1      1962 9.54436E-05-2.85219E-05-2.86781E-05-2.14529E-06 1.43698E-19 1.93649E-18
 -1      1963 9.54444E-05-2.84608E-05-2.87145E-05-2.68115E-06-3.08522E-20 1.56480E-18
 -1      1964 9.74158E-05-2.91071E-05-2.92650E-05-2.51410E-06 5.85174E-19 1.75233E-18
 -1      1965 9.66444E-05-2.88750E-05-2.90424E-05-2.40224E-06 3.94565E-19 1.86842E-18
 -1      1966 9.63911E-05-2.87360E-05-2.90017E-05-3.02903E-06 4.49420E-19 1.52100E-18
 -1      1967 9.88558E-05-2.95459E-05-2.96959E-05-2.77074E-06 5.17150E-19 1.64942E-18
 -1      1968 9.80038E-05-2.92820E-05-2.94513E-05-2.66260E-06 6.01158E-19 1.86094E-18
 -1      1969 9.74907E-05-2.90634E-05-2.93323E-05-3.37698E-06 5.08815E-19 1.48322E-18
 -1      1970 1.00434E-04-3.00527E-05-3.01587E-05-2.98280E-06-6.23549E-20 1.37072E-18
 -1      1971 9.95146E-05-2.97536E-05-2.98976E-05-2.89923E-06 1.61368E-19 1.49336E-18
 -1      1972 9.87394E-05-2.94612E-05-2.96966E-05-3.70165E-06 2.96635E-19 1.35274E-18
 -1      1973 1.02109E-04-3.06324E-05-3.06345E-05-3.07737E-06-4.96714E-19 1.91005E-18
 -1      1974 1.01155E-04-3.02994E-05-3.03681E-05-3.05446E-06-3.61491E-19 1.58647E-18
 -1      1975 1.00129E-04-2.99513E-05-3.00817E-05-3.94302E-06-3.10476E-19 1.23710E-18
 -1      1976 1.03801E-04-3.12794E-05-3.10917E-05-2.94424E-06 4.26833E-20 1.91425E-18
 -1      1977 1.02874E-04-3.09226E-05-3.08397E-05-3.03462E-06-2.92855E-20 2.04720E-18
 -1      1978 1.01639E-04-3.05552E-05-3.04685E-05-3.99808E-06-4.38391E-19 1.86660E-18
 -1      1979 1.05373E-04-3.19653E-05-3.14839E-05-2.44076E-06-4.42940E-19 1.68177E-18
 -1      1980 1.04575E-04-3.16111E-05-3.12759E-05-2.70986E-06-8.13135E-20 2.02162E-18
 -1      1981 1.03220E-04-3.12849E-05-3.08306E-05-3.71867E-06-1.05557E-19 1.42162E-18
 -1      1982 1.06623E-04-3.26211E-05-3.17518E-05-1.41772E-06-1.03130E-19 1.90591E-18
 -1      1983 1.06097E-04-3.23211E-05-3.16263E-05-1.92865E-06-4.65941E-19 1.79915E-18
 -1      1984 1.04779E-04-3.21235E-05-3.11349E-05-2.92337E-06-4.38482E-19 1.42791E-18
 -1      1985 1.07282E-04-3.31158E-05-3.18329E-05 2.17574E-07 4.98701E-19 1.45967E-18
 -1      1986 1.07201E-04-3.29547E-05-3.18308E-05-5.62518E-07 3.54943E-19 1.84018E-18
 -1      1987 1.06159E-04-3.29922E-05-3.13470E-05-1.43948E-06 2.65538E-19 1.22264E-18
 -1      1988 1.07056E-04-3.32452E-05-3.16814E-05 2.39196E-06 2.28342E-19 1.51317E-18
 -1      1989 1.07582E-04-3.33374E-05-3.18332E-05 1.40423E-06 3.39190E-19 1.61586E-18
 -1      1990 1.07119E-04-3.37085E-05-3.14410E-05 8.05471E-07 2.75792E-19 1.35066E-18
 -1      1991 1.05712E-04-3.27659E-05-3.12962E-05 4.73504E-06 1.43466E-19 2.22821E-18
 -1      1992 1.06922E-04-3.32223E-05-3.16025E-05 3.74467E-06 4.88831E-20 2.01252E-18
 -1      1993 1.07340E-04-3.39664E-05-3.14132E-05 3.63762E-06-1.23323E-19 2.04643E-18
 -1      1994 1.03246E-04-3.15189E-05-3.07435E-05 6.51726E-06-5.25309E-19 2.40135E-18
 -1      1995 1.05028E-04-3.23691E-05-3.11585E-05 5.87811E-06 7.34768E-20 2.55449E-18
 -1      1996 1.06508E-04-3.34009E-05-3.12915E-05 6.48060E-06-9.66577E-20 2.92088E-18
 -1      1997 1.00079E-04-2.96418E-05-3.01553E-05 6.81500E-06 5.99670E-19 1.61451E-18
 -1      1998 1.02061E-04-3.07314E-05-3.05858E-05 6.91771E-06-1.46321E-19 1.94552E-18
 -1      1999 1.04520E-04-3.18073E-05-3.11309E-05 8.32605E-06 1.46128E-19 2.48741E-18
 -1      2000 9.71328E-05-2.77264E-05-2.96931E-05 5.00630E-06 1.44717E-19 1.50475E-18
 -1      2001 9.87350E-05-2.86874E-05-3.00219E-05 6.03198E-06 5.49073E-19 1.64636E-18
 -1      2002 1.01775E-04-2.94635E-05-3.09900E-05 8.04059E-06 5.53667E-19 2.11533E-18
 -1      2003 9.55591E-05-2.66394E-05-2.94887E-05 1.37220E-06-2.95614E-19 1.09219E-18
 -1      2004 9.62150E-05-2.70498E-05-2.96168E-05 3.06798E-06-1.09631E-19 1.15366E-18
 -1      2005 9.92836E-05-2.72755E-05-3.09021E-05 5.08065E-06 3.45298E-20 1.28578E-18
 -1      2006 9.60848E-05-2.69567E-05-2.96010E-05-2.80950E-06-1.01842E-19 1.07499E-18
 -1      2007 9.55408E-05-2.66159E-05-2.94873E-05-1.06947E-06-7.37726E-19 1.15899E-18
 -1      2008 9.82236E-05-2.63269E-05-3.08740E-05 1.84063E-07-5.31434E-19 9.89464E-19
 -1      2009 9.85253E-05-2.85329E-05-2.99949E-05-5.92659E-06 5.65702E-19 1.69809E-18
 -1      2010 9.69880E-05-2.76084E-05-2.96747E-05-4.79566E-06 7.64057E-19 1.49931E-18
 -1      2011 9.91578E-05-2.71518E-05-3.09040E-05-4.80151E-06-9.24854E-20 1.27950E-18
 -1      2012 1.01867E-04-3.05827E-05-3.05610E-05-6.99431E-06 4.26188E-19 1.06473E-18
 -1      2013 9.98825E-05-2.94901E-05-3.01294E-05-6.76797E-06 5.51089E-19 1.26820E-18
 -1      2014 1.01602E-04-2.92929E-05-3.09945E-05-7.95866E-06 6.87440E-19 1.77175E-18
 -1      2015 1.04933E-04-3.22800E-05-3.11501E-05-6.09680E-06-8.10637E-20 8.42751E-19
 -1      2016 1.03091E-04-3.13960E-05-3.07241E-05-6.63278E-06-2.21268E-19 1.36582E-18
 -1      2017 1.04390E-04-3.16637E-05-3.11426E-05-8.45809E-06 2.63748E-19 3.88560E-19
 -1      2018 1.06972E-04-3.32114E-05-3.16229E-05-4.03349E-06 8.39621E-20 5.39388E-19
 -1      2019 1.05666E-04-3.27094E-05-3.12981E-05-4.95976E-06 9.28196E-20 9.78846E-19
 -1      2020 1.06490E-04-3.33355E-05-3.13165E-05-6.76595E-06 1.50239E-19 8.68937E-19
 -1      2021 1.07785E-04-3.33936E-05-3.18912E-05-1.70809E-06-2.49584E-19 1.04389E-18
 -1      2022 1.07152E-04-3.32584E-05-3.17162E-05-2.66552E-06 1.23038E-19 5.86160E-19
 -1      2023 1.07456E-04-3.39820E-05-3.14590E-05-3.99406E-06 1.14535E-19 1.31177E-18
 -1      2024 1.07554E-04-3.30617E-05-3.19322E-05 2.64904E-07-1.96697E-19 9.00148E-19
 -1      2025 1.07528E-04-3.31868E-05-3.19086E-05-5.05246E-07-7.99354E-20 8.80524E-19
 -1      2026 1.07362E-04-3.37822E-05-3.15151E-05-1.18030E-06-1.83684E-19 1.14526E-18
 -1      2027 1.06599E-04-3.24690E-05-3.17753E-05 1.63268E-06-2.59798E-19 3.35670E-19
 -1      2028 1.07021E-04-3.27386E-05-3.18735E-05 1.12397E-06-3.76377E-19 3.67707E-19
 -1      2029 1.06521E-04-3.31012E-05-3.14560E-05 1.06147E-06-1.23349E-19 1.27626E-18
 -1      2030 1.05236E-04-3.17973E-05-3.14770E-05 2.39703E-06 1.82238E-19 3.97826E-19
 -1      2031 1.05929E-04-3.21235E-05-3.16555E-05 2.13161E-06 1.49177E-19 1.05742E-18
 -1      2032 1.05259E-04-3.22562E-05-3.12842E-05 2.53263E-06-3.19724E-19 1.54354E-18
 -1      2033 1.03712E-04-3.11513E-05-3.10989E-05 2.68107E-06 1.96681E-19 5.91815E-20
 -1      2034 1.04526E-04-3.14786E-05-3.13180E-05 2.60109E-06 6.05651E-19 3.31484E-19
 -1      2035 1.03827E-04-3.14387E-05-3.10252E-05 3.29226E-06 6.06815E-19 1.17672E-18
 -1      2036 1.02199E-04-3.05802E-05-3.06937E-05 2.63722E-06 4.74704E-19 4.45124E-19
 -1      2037 1.03025E-04-3.08787E-05-3.09221E-05 2.67903E-06 1.11038E-19 3.56624E-19
 -1      2038 1.02391E-04-3.07349E-05-3.07138E-05 3.50860E-06 1.71480E-19 2.04752E-18
 -1      2039 1.00802E-04-3.00999E-05-3.02994E-05 2.39999E-06 1.90114E-19 4.82587E-19
 -1      2040 1.01571E-04-3.03565E-05-3.05163E-05 2.51031E-06 1.09624E-18 8.80010E-19
 -1      2041 1.01050E-04-3.01668E-05-3.03838E-05 3.36555E-06 6.08731E-19 1.37283E-18
 -1      2042 9.95753E-05-2.97091E-05-2.99401E-05 2.07002E-06-1.94525E-19-6.26715E-19
 -1      2043 1.00251E-04-2.99210E-05-3.01335E-05 2.21039E-06 5.79763E-20-2.41573E-19
 -1      2044 9.98555E-05-2.97250E-05-3.00618E-05 3.01795E-06 8.03094E-19 1.15881E-18
 -1      2045 9.85378E-05-2.93991E-05-2.96278E-05 1.71452E-06-6.27863E-19-8.46144E-19
 -1      2046 9.91067E-05-2.95686E-05-2.97926E-05 1.86006E-06-8.21757E-19-1.34381E-18
 -1      2047 9.88290E-05-2.93895E-05-2.97657E-05 2.57894E-06-2.90251E-19 3.74892E-19
 -1      2048 9.76877E-05-2.91584E-05-2.93665E-05 1.37394E-06 1.63191E-19-1.40689E-18
 -1      2049 9.81504E-05-2.92904E-05-2.95019E-05 1.51022E-06-1.47998E-19-1.35173E-18
 -1      2050 9.79721E-05-2.91389E-05-2.95055E-05 2.12291E-06-3.76907E-19-6.94017E-19
 -1      2051 9.70098E-05-2.89753E-05-2.91546E-05 1.06956E-06-7.91601E-19 5.82652E-20
 -1      2052 9.73752E-05-2.90756E-05-2.92624E-05 1.18943E-06-9.38536E-20-7.47545E-19
 -1      2053 9.72744E-05-2.89545E-05-2.92851E-05 1.69388E-06-8.04249E-19-2.85497E-20
 -1      2054 9.64827E-05-2.88388E-05-2.89874E-05 8.10032E-07-9.27161E-19 7.43743E-19
 -1      2055 9.67633E-05-2.89132E-05-2.90709E-05 9.11007E-07-9.08514E-19 7.93993E-19
 -1      2056 9.67194E-05-2.88206E-05-2.91040E-05 1.31436E-06-1.20665E-18 8.31857E-19
 -1      2057 9.60828E-05-2.87394E-05-2.88590E-05 5.96235E-07-8.45341E-19 4.94287E-19
 -1      2058 9.62926E-05-2.87931E-05-2.89219E-05 6.78627E-07-1.00830E-18 3.04917E-19
 -1      2059 9.62875E-05-2.87250E-05-2.89592E-05 9.92728E-07-1.10738E-18 7.68881E-19
 -1      2060 9.57874E-05-2.86688E-05-2.87630E-05 4.24642E-07 1.16190E-18-6.97116E-19
 -1      2061 9.59396E-05-2.87063E-05-2.88090E-05 4.90293E-07 2.23802E-19 1.65192E-19
 -1      2062 9.59589E-05-2.86582E-05-2.88464E-05 7.28745E-07-4.34788E-19-8.55903E-20
 -1      2063 9.55757E-05-2.86202E-05-2.86934E-05 2.89530E-07 2.22956E-18-8.51712E-19
 -1      2064 9.56821E-05-2.86454E-05-2.87259E-05 3.41003E-07 1.59555E-18-1.78455E-19
 -1      2065 9.57146E-05-2.86124E-05-2.87607E-05 5.17331E-07 1.19611E-18-1.22481E-18
 -1      2066 9.54300E-05-2.85884E-05-2.86449E-05 1.84465E-07 7.31320E-19 4.11481E-19
 -1      2067 9.55005E-05-2.86042E-05-2.86667E-05 2.24488E-07 1.90197E-18-7.93514E-21
 -1      2068 9.55377E-05-2.85821E-05-2.86973E-05 3.51114E-07 1.22276E-18 6.64039E-19
 -1      2069 9.53350E-05-2.85691E-05-2.86128E-05 1.03464E-07 1.07119E-19 4.50057E-19
 -1      2070 9.53779E-05-2.85777E-05-2.86263E-05 1.34460E-07-1.91373E-19 1.30295E-19
 -1      2071 9.54136E-05-2.85628E-05-2.86519E-05 2.22263E-07 2.47621E-19 1.22792E-19
 -1      2072 9.52777E-05-2.85598E-05-2.85925E-05 4.24463E-08 1.80410E-18-6.07424E-20
 -1      2073 9.53003E-05-2.85629E-05-2.86002E-05 6.56823E-08 1.20634E-18 4.30734E-19
 -1      2074 9.53293E-05-2.85521E-05-2.86201E-05 1.24064E-07 8.73132E-19-4.65568E-19
 -1      2075 9.52498E-05-2.85624E-05-2.85797E-05 4.79047E-09 5.80855E-19-3.89211E-19
 -1      2076 9.52587E-05-2.85594E-05-2.85844E-05 1.79165E-08 2.19643E-18 3.65123E-19
 -1      2077 9.52796E-05-2.85504E-05-2.85988E-05 5.44984E-08 1.78338E-18-1.28213E-19
 -1      2078 9.52514E-05-2.85579E-05-2.85828E-05 1.07943E-08-4.67849E-20 1.16951E-18
 -1      2079 9.52024E-05-2.84211E-05-2.86210E-05 1.12326E-07 7.68730E-20 1.78725E-18
 -1      2080 9.52172E-05-2.84516E-05-2.86131E-05 1.01842E-07-5.98090E-19 2.17490E-18
 -1      2081 9.52330E-05-2.84865E-05-2.86056E-05 8.38622E-08-6.01325E-19 1.94549E-18
 -1      2082 9.52426E-05-2.85101E-05-2.85992E-05 6.59827E-08-8.16833E-19 2.20280E-18
 -1      2083 9.52270E-05-2.84450E-05-2.86209E-05 1.26349E-07-1.81924E-19 1.98822E-18
 -1      2084 9.52525E-05-2.85450E-05-2.85884E-05 3.06702E-08 5.66327E-20 1.07935E-18
 -1      2085 9.51691E-05-2.83526E-05-2.86364E-05 1.18462E-07 3.58615E-19-5.06859E-19
 -1      2086 9.51850E-05-2.83845E-05-2.86282E-05 1.18208E-07-2.22089E-19 1.80589E-18
 -1      2087 9.51880E-05-2.83718E-05-2.86354E-05 1.52461E-07 4.80957E-20 1.55757E-18
 -1      2088 9.51382E-05-2.82898E-05-2.86503E-05 1.01006E-07 3.65911E-19-2.29612E-18
 -1      2089 9.51524E-05-2.83185E-05-2.86430E-05 1.10929E-07 4.86081E-19-1.78254E-18
 -1      2090 9.51468E-05-2.82985E-05-2.86487E-05 1.49714E-07-8.49980E-20-1.13363E-18
 -1      2091 9.51158E-05-2.82442E-05-2.86603E-05 6.35128E-08-4.93796E-19-2.05376E-18
 -1      2092 9.51254E-05-2.82637E-05-2.86554E-05 8.14631E-08 3.52684E-19-2.31617E-18
 -1      2093 9.51110E-05-2.82361E-05-2.86598E-05 1.18374E-07-1.41632E-19-2.76144E-18
 -1      2094 9.51055E-05-2.82234E-05-2.86648E-05 1.35333E-08 2.09115E-19 9.22711E-19
 -1      2095 9.51088E-05-2.82301E-05-2.86631E-05 3.58372E-08-4.97691E-19 1.19042E-19
 -1      2096 9.50870E-05-2.81943E-05-2.86672E-05 6.43849E-08-1.48569E-19-8.67324E-19
 -1      2097 9.51092E-05-2.82309E-05-2.86629E-05-3.92171E-08 1.14479E-18 2.10488E-18
 -1      2098 9.51056E-05-2.82234E-05-2.86648E-05-1.69816E-08 8.07438E-19 8.92454E-19
 -1      2099 9.50787E-05-2.81796E-05-2.86698E-05-1.95034E-09-3.78255E-19 1.76977E-18
 -1      2100 9.51263E-05-2.82654E-05-2.86551E-05-8.44518E-08-2.27304E-19 6.73195E-19
 -1      2101 9.51163E-05-2.82451E-05-2.86602E-05-6.67679E-08-1.96414E-19 2.71414E-18
 -1      2102 9.50874E-05-2.81944E-05-2.86672E-05-6.81746E-08-6.22343E-19 9.77176E-19
 -1      2103 9.51533E-05-2.83199E-05-2.86428E-05-1.12741E-07-4.29700E-19-3.00436E-18
 -1      2104 9.51391E-05-2.82912E-05-2.86501E-05-1.03377E-07-1.09900E-18-4.98203E-19
 -1      2105 9.51117E-05-2.82361E-05-2.86600E-05-1.21380E-07-1.27027E-18-8.01527E-19
 -1      2106 9.51866E-05-2.83871E-05-2.86278E-05-1.18920E-07 2.01956E-18 3.12965E-18
 -1      2107 9.51703E-05-2.83543E-05-2.86361E-05-1.19824E-07 1.10739E-18-6.65586E-20
 -1      2108 9.51477E-05-2.82985E-05-2.86491E-05-1.51647E-07-3.94041E-19-3.52440E-19
 -1      2109 9.52195E-05-2.84550E-05-2.86125E-05-1.00929E-07 2.48166E-18 1.96709E-18
 -1      2110 9.52045E-05-2.84246E-05-2.86204E-05-1.12137E-07 2.11364E-18 1.41397E-18
 -1      2111 9.51897E-05-2.83730E-05-2.86356E-05-1.52877E-07 1.16572E-18 2.35314E-18
 -1      2112 9.52442E-05-2.85119E-05-2.85987E-05-6.39098E-08 9.30718E-19 2.72183E-19
 -1      2113 9.52346E-05-2.84899E-05-2.86050E-05-8.15467E-08 1.72334E-18 8.80161E-19
 -1      2114 9.52299E-05-2.84476E-05-2.86209E-05-1.24725E-07 1.53543E-18 5.31752E-19
 -1      2115 9.37439E-05-2.73514E-05-2.84072E-05 1.83026E-06-2.18442E-19 1.89551E-18
 -1      2116 9.47753E-05-2.73387E-05-2.88405E-05 2.95075E-06-1.61439E-19 1.88149E-18
 -1      2117 9.55345E-05-2.68410E-05-2.94426E-05 4.31624E-06-1.30470E-19 1.75423E-18
 -1      2118 9.45680E-05-2.71794E-05-2.88956E-05 2.20467E-06-1.95373E-19 1.63085E-18
 -1      2119 5.74512E-05-3.82499E-05-8.66269E-06 4.04046E-05 9.88911E-19 3.30896E-18
 -1      2120 4.30456E-05-4.04981E-05-2.44121E-06 3.31625E-05 1.44546E-18 8.49045E-19
 -1      2121 1.33552E-04-4.13071E-05-3.90170E-05 3.56177E-05 2.14702E-18 7.72494E-19
 -1      2122 1.12464E-04-4.22751E-05-3.06396E-05 3.56652E-05 1.28749E-18 1.79275E-18
 -1      2123 1.17972E-05-3.33750E-05 7.87517E-06 6.66819E-06-1.67395E-19 3.72949E-18
 -1      2124 1.21076E-05-3.50692E-05 8.27977E-06-3.09813E-06-8.02670E-19 4.58287E-18
 -1      2125 9.48969E-05-4.06963E-05-2.31884E-05 4.34733E-05 8.62280E-19 3.36696E-18
 -1      2126 7.56621E-05-4.28874E-05-1.51471E-05 3.86185E-05 5.03985E-19 3.62805E-18
 -1      2127 8.73207E-05-8.68255E-06-3.37979E-05-1.03074E-05 8.68738E-20 2.86906E-19
 -1      2128 8.80245E-05-9.21564E-06-3.38612E-05-1.18598E-05 1.11120E-19 3.48501E-19
 -1      2129 9.05460E-05-1.30153E-05-3.32763E-05-1.16166E-05 1.16738E-19 4.63353E-19
 -1      2130 8.87371E-05-1.09699E-05-3.33537E-05-9.15802E-06 1.16278E-19 2.73459E-19
 -1      2131 1.62103E-04-3.50079E-05-5.34505E-05 2.34790E-05 2.75895E-18 5.33631E-20
 -1      2132 1.44751E-04-3.60156E-05-4.64952E-05 2.66988E-05 2.36269E-18 4.95514E-19
 -1      2133 1.73603E-04-2.62160E-05-6.23374E-05 7.98644E-06 3.39364E-18-1.31947E-18
 -1      2134 1.67669E-04-2.87891E-05-5.85607E-05 1.61670E-05 3.77353E-18-2.36322E-19
 -1      2135 1.81245E-04-2.32485E-05-6.63100E-05-1.38952E-06 2.49832E-18-1.26171E-18
 -1      2136 1.75637E-04-2.15958E-05-6.49894E-05 5.01596E-06 2.81638E-18-8.53597E-19
 -1      2137 1.68107E-04-2.37410E-05-6.13878E-05-8.30534E-06 1.71778E-18-1.12867E-18
 -1      2138 1.76255E-04-2.35650E-05-6.43373E-05-3.44176E-06 1.88846E-18-9.98652E-19
 -1      2139 1.54914E-04-3.32253E-05-5.18942E-05-2.03232E-05 1.36139E-18-1.10199E-18
 -1      2140 1.67532E-04-3.14114E-05-5.76013E-05-1.44141E-05 1.32624E-18-8.85573E-19
 -1      2141 1.28070E-04-3.96277E-05-3.81971E-05-3.25252E-05 1.31587E-18-1.72244E-18
 -1      2142 1.47399E-04-3.90203E-05-4.58116E-05-3.02356E-05 1.32010E-18-1.12571E-18
 -1      2143 9.56619E-05-4.35144E-05-2.31669E-05-3.82566E-05 1.57972E-18-7.53436E-19
 -1      2144 1.15165E-04-4.16889E-05-3.11284E-05-4.07851E-05 1.21126E-18-1.50348E-18
 -1      2145 6.33768E-05-4.29151E-05-9.73935E-06-3.83537E-05 5.43795E-19-2.00027E-18
 -1      2146 7.99344E-05-4.07478E-05-1.69098E-05-4.31503E-05 1.41285E-18-1.04143E-18
 -1      2147 1.02418E-04-5.21403E-05-2.15685E-05-3.94682E-05 2.75286E-19-6.65556E-19
 -1      2148 2.97272E-05-3.83123E-05 2.26916E-06-2.68890E-05-4.92126E-19-2.20102E-18
 -1      2149 4.20143E-05-3.60993E-05-3.10405E-06-3.65391E-05 2.24464E-19-2.64327E-18
 -1      2150 1.35640E-05-3.12193E-05 6.60476E-06-1.02860E-05-3.55542E-19-1.14815E-18
 -1      2151 1.91951E-05-3.37846E-05 5.09692E-06-1.96935E-05-2.16840E-19-1.54922E-18
 -1      2152 2.98422E-05-2.93121E-05-6.37884E-07-2.93608E-05-7.82235E-19-1.94034E-18
 -1      2153 1.65071E-05-3.38592E-05 6.18625E-06 1.45265E-05 2.32722E-19-3.58718E-19
 -1      2154 1.19909E-05-3.17066E-05 7.30362E-06 4.34251E-06 3.20178E-19-9.87640E-19
 -1      2155 3.89957E-05-3.75548E-05-1.48416E-06 3.21709E-05-1.39337E-19-2.32722E-19
 -1      2156 2.77254E-05-3.79623E-05 3.04189E-06 2.41797E-05 1.32137E-19-8.55503E-20
 -1      2157 7.17620E-05-4.08125E-05-1.37571E-05 4.07831E-05-3.35425E-19-2.93772E-18
 -1      2158 5.44330E-05-4.30668E-05-6.39175E-06 3.38784E-05-1.09267E-19-1.22379E-18
 -1      2159 1.15143E-04-4.57580E-05-2.96254E-05 3.92342E-05-5.08220E-21-3.25769E-18
 -1      2160 9.28511E-05-4.60500E-05-2.10335E-05 3.68732E-05 3.13826E-19-2.80114E-18
 -1      2161 1.52592E-04-4.09910E-05-4.68440E-05 3.03321E-05-1.52191E-18-2.30393E-18
 -1      2162 1.31585E-04-4.28235E-05-3.83388E-05 2.95086E-05-7.64659E-19-2.26200E-18
 -1      2163 1.74054E-04-3.42135E-05-5.89725E-05 1.39019E-05-1.60492E-18-1.65341E-18
 -1      2164 1.60781E-04-3.58875E-05-5.29617E-05 2.11151E-05-2.19408E-18-1.85627E-18
 -1      2165 1.82645E-04-2.57128E-05-6.59758E-05 2.33804E-06-1.97232E-18-1.39178E-18
 -1      2166 1.75007E-04-2.62184E-05-6.29764E-05 7.33714E-06-1.88550E-18-1.79656E-18
 -1      2167 1.82830E-04-2.60129E-05-6.60385E-05-5.62304E-06-2.35856E-18-8.28186E-19
 -1      2168 1.83108E-04-2.44970E-05-6.68937E-05 1.22795E-06-2.38524E-18-1.33312E-18
 -1      2169 1.68665E-04-3.01182E-05-5.88500E-05-1.22812E-05-2.74502E-18 1.44843E-19
 -1      2170 1.83067E-04-3.03752E-05-6.39384E-05-8.59632E-06-2.25311E-18-3.61683E-19
 -1      2171 1.62709E-04-1.88909E-05-6.04579E-05 2.21998E-06-2.77573E-18-8.56350E-19
 -1      2172 1.45727E-04-4.08393E-05-4.49960E-05-2.50422E-05-1.72202E-18 1.74997E-18
 -1      2173 1.63060E-04-3.93326E-05-5.22579E-05-1.97691E-05-2.16396E-18 3.55330E-19
 -1      2174 1.15146E-04-4.65863E-05-2.99821E-05-3.27677E-05-1.22185E-18 2.48350E-18
 -1      2175 1.35769E-04-4.42455E-05-3.86407E-05-3.44475E-05-9.10560E-19 3.05313E-18
 -1      2176 1.46586E-04-5.10199E-05-4.03736E-05-1.52879E-05-9.88593E-19 1.08844E-18
 -1      2177 7.21181E-05-4.48218E-05-1.29601E-05-3.66356E-05-2.51823E-18 1.18923E-18
 -1      2178 9.30534E-05-4.41584E-05-2.11459E-05-4.19221E-05-2.46487E-18 1.72774E-18
 -1      2179 4.09474E-05-4.07210E-05-1.40590E-06-3.09718E-05-1.81223E-18 8.49151E-19
 -1      2180 5.48592E-05-4.00202E-05-7.10395E-06-3.74383E-05-2.77234E-18 1.19702E-18
 -1      2181 1.67216E-05-3.74262E-05 7.09662E-06-1.29132E-05-1.41814E-18 4.03992E-18
 -1      2182 2.37247E-05-3.45625E-05 3.54407E-06-2.31454E-05-2.28445E-18 2.68806E-18
 -1      2183 2.77481E-05-3.46597E-05 2.00423E-06 2.78215E-05 8.91502E-19 2.93709E-19
 -1      2184 1.93167E-05-3.52988E-05 5.52062E-06 1.89554E-05-4.11234E-19 1.68983E-18
 -1      2185 9.52563E-05-2.85519E-05-2.85875E-05-2.23858E-08 6.72581E-19-8.81898E-19
 -1      2186 1.16501E-04-5.26774E-05-2.71380E-05 3.45232E-05-1.38490E-19 1.08166E-18
 -1      2187 9.71407E-05-2.43004E-05-3.12892E-05-9.82604E-06 6.06687E-20 4.72274E-19
 -1      2188 7.94611E-05-4.73169E-05-1.39846E-05 4.28874E-05-1.64748E-19 3.18823E-18
 -1      2189 1.43285E-04-4.62611E-05-4.10239E-05 1.83973E-05 8.90973E-19-1.22566E-18
 -1      2190 9.63609E-05-2.30982E-05-3.14654E-05-1.01529E-05 7.61800E-20 4.51336E-19
 -1      2191 9.52579E-05-2.85195E-05-2.86022E-05 6.80717E-08 3.62023E-19 1.30176E-18
 -1      2192 1.85088E-05-2.60545E-05 2.62887E-06 1.63799E-05-8.37186E-19 2.78674E-18
 -1      2193 9.52572E-05-2.85406E-05-2.85925E-05-3.95082E-08 3.51971E-19-2.83365E-19
 -1      2194 4.36387E-05-3.56096E-05-3.84883E-06 3.73315E-05 2.76133E-19 1.56659E-18
 -1      2195 1.60711E-05-2.63003E-05 3.61134E-06-1.06223E-05-9.15643E-19 5.04493E-18
 -1      2196 3.87893E-05-3.54229E-05-2.01256E-06-3.25896E-05-9.51218E-19 1.60259E-18
 -1      2197 1.16773E-04-5.52821E-05-2.62326E-05-3.33520E-05-8.59738E-19 8.64397E-19
 -1      2198 1.60030E-04-3.52813E-05-5.26312E-05-1.84886E-06-1.84484E-18-1.00458E-18
 -1      2199 1.61706E-04-1.52643E-05-6.17173E-05-9.57927E-07-2.67832E-18-1.73409E-18
 -1      2200 1.62297E-04-2.64623E-05-5.72929E-05-4.93723E-07-1.48570E-18-6.17699E-19
 -1      2201 1.55592E-04-4.26251E-05-4.75974E-05 1.01811E-05-7.13374E-19-5.06526E-19
 -1      2202 1.32902E-04-5.39771E-05-3.35381E-05 2.59710E-05 4.82174E-19-1.57082E-18
 -1      2203 9.56510E-05-5.22353E-05-1.86681E-05 3.95656E-05 5.93347E-19-2.23204E-18
 -1      2204 5.68501E-05-4.17415E-05-6.99083E-06 3.89466E-05 6.77626E-20-1.42789E-18
 -1      2205 1.56976E-05-2.38251E-05 3.01005E-06-3.66826E-06 1.19140E-19-9.08443E-19
 -1      2206 6.30250E-05-4.25397E-05-9.09067E-06-4.20078E-05-3.97258E-19-2.02314E-18
 -1      2207 1.31324E-04-5.13150E-05-3.39097E-05-2.69069E-05 3.08744E-19-8.46186E-19
 -1      2208 1.50099E-04-4.03393E-05-4.63310E-05-1.11000E-05 8.20312E-19-4.87044E-20
 -1      2209 1.54955E-04-2.34622E-05-5.56008E-05 5.15620E-07 1.10644E-18 4.93397E-20
 -1      2210 1.56623E-04-1.28105E-05-6.07341E-05 1.46680E-06 2.22050E-18-1.35044E-18
 -1      2211 1.56752E-04-3.11681E-05-5.28889E-05 5.77337E-06 2.87991E-18-1.30867E-18
 -1      2212 1.65034E-04-2.02465E-05-6.11810E-05 2.28049E-06 3.24244E-18-1.06557E-18
 -1      2213 1.49882E-04-1.77891E-05-5.64294E-05-2.73904E-06 3.52133E-18-1.64155E-18
 -1      2214 1.49166E-04-1.25006E-05-5.88720E-05-3.10941E-06 3.22889E-18-1.78915E-18
 -1      2215 2.70692E-05-2.94021E-05 4.77995E-07 2.47772E-05 3.83282E-19-3.18061E-19
 -1      2216 7.59611E-05-4.76317E-05-1.23960E-05-4.11385E-05-1.16298E-18 1.60764E-19
 -1      2217 9.52632E-05-2.85131E-05-2.86068E-05-7.84464E-08 7.35861E-19-6.62389E-20
 -1      2218 8.80545E-05-1.09098E-05-3.31018E-05-3.49063E-06 1.42066E-19 5.29951E-19
 -1      2219 8.83106E-05-1.12020E-05-3.30826E-05-4.59455E-06 5.32903E-20 4.15847E-19
 -1      2220 8.86900E-05-1.17222E-05-3.30319E-05-5.57589E-06 8.38302E-20 3.10709E-19
 -1      2221 8.91223E-05-1.22241E-05-3.30001E-05-6.72245E-06 8.96329E-20 3.04217E-19
 -1      2222 8.98069E-05-1.35276E-05-3.26888E-05-4.64838E-06 1.01785E-19 3.59288E-19
 -1      2223 8.76669E-05-1.04056E-05-3.31458E-05 5.89846E-07 2.63861E-19 6.26659E-19
 -1      2224 8.76626E-05-1.04004E-05-3.31463E-05-4.73906E-07 2.20180E-19 6.23251E-19
 -1      2225 8.78681E-05-1.06530E-05-3.31261E-05 2.63240E-06 2.21689E-19 6.33422E-19
 -1      2226 8.77406E-05-1.05073E-05-3.31361E-05 1.55738E-06 2.55407E-19 6.22119E-19
 -1      2227 8.89368E-05-1.23797E-05-3.28117E-05 9.88662E-07 2.09237E-19 6.01403E-19
 -1      2228 8.83444E-05-1.12482E-05-3.30780E-05 4.67843E-06 2.43971E-19 8.43751E-19
 -1      2229 8.80833E-05-1.09491E-05-3.30978E-05 3.59113E-06 2.18194E-19 7.18165E-19
 -1      2230 8.92342E-05-1.27714E-05-3.27700E-05 2.85154E-06 1.59855E-19 7.18962E-19
 -1      2231 8.91775E-05-1.22981E-05-3.29931E-05 6.80555E-06 3.48528E-19 1.06259E-18
 -1      2232 8.87344E-05-1.17825E-05-3.30258E-05 5.65845E-06 2.47952E-19 9.77304E-19
 -1      2233 8.98465E-05-1.35836E-05-3.26820E-05 4.71764E-06 2.61988E-19 9.41093E-19
 -1      2234 9.04943E-05-1.39806E-05-3.28546E-05 8.92489E-06 2.95045E-19 1.16926E-18
 -1      2235 8.97950E-05-1.31413E-05-3.29065E-05 7.75775E-06 2.81053E-19 1.06188E-18
 -1      2236 9.08480E-05-1.49264E-05-3.25299E-05 6.55467E-06 2.40724E-19 1.03108E-18
 -1      2237 9.25098E-05-1.66418E-05-3.26151E-05 1.07672E-05 1.82821E-19 1.35692E-18
 -1      2238 9.14138E-05-1.52436E-05-3.27090E-05 9.74373E-06 2.60243E-19 1.21723E-18
 -1      2239 9.23274E-05-1.69680E-05-3.22761E-05 8.19415E-06 2.26208E-19 1.16104E-18
 -1      2240 9.55207E-05-2.08093E-05-3.21121E-05 1.14564E-05 1.44062E-19 1.56286E-18
 -1      2241 9.38579E-05-1.84603E-05-3.23519E-05 1.12007E-05 1.49822E-19 1.49749E-18
 -1      2242 9.43896E-05-1.99881E-05-3.18373E-05 9.17498E-06 1.30159E-19 1.35897E-18
 -1      2243 9.74891E-05-2.45811E-05-3.13084E-05 9.64130E-06 4.08693E-20 1.66419E-18
 -1      2244 9.62804E-05-2.22208E-05-3.17372E-05 1.08652E-05 8.84355E-20 1.59236E-18
 -1      2245 9.58547E-05-2.31761E-05-3.11453E-05 8.52662E-06 1.19968E-19 1.45563E-18
 -1      2246 9.63372E-05-2.56562E-05-3.02968E-05 6.66128E-06-4.15311E-20 1.62342E-18
 -1      2247 9.59893E-05-2.50532E-05-3.03547E-05-5.87823E-06 6.42488E-20 4.84513E-19
 -1      2248 9.53832E-05-2.58040E-05-2.98312E-05-3.91687E-06 1.00254E-21 5.07336E-19
 -1      2249 9.45939E-05-5.11240E-05-1.86704E-05 4.21154E-05-8.70750E-19 1.97615E-18
 -1      2250 7.59380E-05-4.53159E-05-1.29810E-05 4.23921E-05-2.81638E-19 2.43093E-18
 -1      2251 1.26454E-04-5.63675E-05-3.03562E-05 2.73970E-05-6.32310E-19-9.04949E-19
 -1      2252 1.11603E-04-5.55122E-05-2.39724E-05 3.36905E-05-5.33207E-19 1.06832E-19
 -1      2253 9.53045E-05-2.64851E-05-2.94369E-05-2.51984E-06-3.26042E-20 5.18341E-19
 -1      2254 9.49027E-05-2.68518E-05-2.91611E-05-1.39301E-06-1.88266E-20 5.89688E-19
 -1      2255 9.54735E-05-2.52842E-05-3.00894E-05-3.84403E-06-2.29956E-20 4.91352E-19
 -1      2256 9.47539E-05-2.71672E-05-2.89274E-05-4.50260E-07-6.39642E-20 5.83601E-19
 -1      2257 9.45899E-05-2.73803E-05-2.87972E-05 2.46271E-07-2.37417E-20 6.19219E-19
 -1      2258 9.52433E-05-2.65715E-05-2.94459E-05-1.30664E-06-1.68464E-20 2.91409E-19
 -1      2259 9.45067E-05-2.75484E-05-2.86738E-05 8.79871E-07 7.20640E-21 6.06107E-19
 -1      2260 9.45366E-05-2.76963E-05-2.86374E-05 1.33841E-06 4.01158E-20 5.96639E-19
 -1      2261 9.50483E-05-2.72538E-05-2.90697E-05 4.04312E-07 9.86992E-21 4.48471E-19
 -1      2262 9.45369E-05-2.77921E-05-2.85923E-05 1.78743E-06-1.65169E-20 5.64197E-19
 -1      2263 9.47135E-05-2.79087E-05-2.86209E-05 2.12172E-06-3.29991E-20 5.31415E-19
 -1      2264 9.49938E-05-2.76333E-05-2.88815E-05 1.58463E-06-2.04649E-20 4.69374E-19
 -1      2265 9.47914E-05-2.79659E-05-2.86330E-05 2.47525E-06-2.14591E-19 6.53921E-19
 -1      2266 9.50837E-05-2.80676E-05-2.87099E-05 2.75721E-06-1.53619E-19 5.17378E-19
 -1      2267 9.50906E-05-2.78460E-05-2.88294E-05 2.46097E-06-9.63699E-20 7.31049E-19
 -1      2268 9.52278E-05-2.81022E-05-2.87655E-05 3.07739E-06 1.50903E-19 2.47161E-19
 -1      2269 9.56191E-05-2.81987E-05-2.88815E-05 3.35557E-06 2.58946E-19 2.69479E-19
 -1      2270 9.53237E-05-2.79602E-05-2.88783E-05 3.19319E-06-2.42068E-20 3.52135E-19
 -1      2271 9.58208E-05-2.82204E-05-2.89715E-05 3.68699E-06 2.04412E-19 2.91033E-19
 -1      2272 9.63063E-05-2.83211E-05-2.91216E-05 3.99482E-06-5.78282E-20 4.11326E-19
 -1      2273 9.56750E-05-2.80131E-05-2.90046E-05 3.89487E-06 2.12127E-19 1.60902E-19
 -1      2274 9.65615E-05-2.83389E-05-2.92397E-05 4.36864E-06 4.86357E-20 3.89990E-19
 -1      2275 9.71451E-05-2.84557E-05-2.94215E-05 4.72719E-06 2.80819E-19 4.71733E-19
 -1      2276 9.61337E-05-2.80319E-05-2.91920E-05 4.64653E-06 1.55059E-20 2.41448E-19
 -1      2277 9.74557E-05-2.84822E-05-2.95624E-05 5.16192E-06 1.49781E-19 4.53800E-19
 -1      2278 9.81476E-05-2.86326E-05-2.97739E-05 5.57846E-06 2.76196E-20 4.58497E-19
 -1      2279 9.66991E-05-2.80465E-05-2.94275E-05 5.50093E-06 1.79779E-19 8.73529E-20
 -1      2280 9.85239E-05-2.86889E-05-2.99317E-05 6.07751E-06 4.09223E-20 5.93499E-19
 -1      2281 9.93392E-05-2.89006E-05-3.01695E-05 6.54000E-06 6.68594E-20 1.05207E-18
 -1      2282 9.73845E-05-2.81004E-05-2.96979E-05 6.48186E-06 2.06447E-19 2.76134E-19
 -1      2283 9.98051E-05-2.90238E-05-3.03361E-05 7.08523E-06 4.46549E-20 1.03771E-18
 -1      2284 1.00763E-04-2.93406E-05-3.05934E-05 7.55184E-06 8.11588E-20 9.40656E-19
 -1      2285 9.82248E-05-2.82663E-05-2.99878E-05 7.57593E-06 2.22847E-19 6.55476E-19
 -1      2286 1.01367E-04-2.95939E-05-3.07582E-05 8.09209E-06-1.55397E-19 6.70177E-19
 -1      2287 1.02492E-04-3.00825E-05-3.10226E-05 8.47538E-06-2.37974E-19 5.82062E-19
 -1      2288 9.92920E-05-2.86665E-05-3.02765E-05 8.71614E-06-1.40420E-19 3.74053E-19
 -1      2289 1.03323E-04-3.05659E-05-3.11729E-05 8.90828E-06-6.01438E-20 3.86132E-19
 -1      2290 1.04640E-04-3.13176E-05-3.14265E-05 9.05580E-06-7.34483E-20 3.51682E-19
 -1      2291 1.00721E-04-2.94968E-05-3.05398E-05 9.75479E-06-1.51588E-19 5.71380E-19
 -1      2292 1.05842E-04-3.21687E-05-3.15533E-05 9.20202E-06-2.41772E-19 4.11843E-19
 -1      2293 1.07370E-04-3.32802E-05-3.17764E-05 8.88215E-06-1.85123E-19 6.80483E-19
 -1      2294 1.02741E-04-3.10404E-05-3.07567E-05 1.04233E-05-2.02908E-19 7.30455E-19
 -1      2295 1.09133E-04-3.46382E-05-3.18878E-05 8.45586E-06 2.91697E-19 4.17945E-19
 -1      2296 1.10841E-04-3.61350E-05-3.20707E-05 7.37190E-06 4.29790E-19 7.18504E-19
 -1      2297 1.05687E-04-3.36288E-05-3.09308E-05 1.02791E-05 9.02446E-20 7.68984E-19
 -1      2298 1.13318E-04-3.80145E-05-3.22157E-05 5.97773E-06-1.22803E-19 7.54746E-19
 -1      2299 1.15027E-04-3.96762E-05-3.23815E-05 3.86504E-06-1.77129E-19 4.36842E-19
 -1      2300 1.09923E-04-3.74524E-05-3.11311E-05 8.65841E-06 2.01436E-19 2.81543E-19
 -1      2301 1.18104E-04-4.17065E-05-3.26834E-05 1.10001E-06 2.87660E-20 3.03866E-19
 -1      2302 1.19341E-04-4.27899E-05-3.29135E-05-2.02650E-06 6.54862E-20 2.82390E-19
 -1      2303 1.15534E-04-4.20988E-05-3.15563E-05 4.73521E-06-2.10948E-19 6.84518E-19
 -1      2304 1.22219E-04-4.38539E-05-3.35824E-05-6.13489E-06 7.02971E-19 6.37528E-19
 -1      2305 1.22238E-04-4.30243E-05-3.40111E-05-9.51389E-06 1.14096E-18 3.03499E-19
 -1      2306 1.21679E-04-4.57595E-05-3.25958E-05-2.06940E-06 6.97874E-19 4.84913E-19
 -1      2307 1.23257E-04-4.14179E-05-3.52286E-05-1.34522E-05 1.11330E-18 8.12133E-19
 -1      2308 1.21620E-04-3.78044E-05-3.59200E-05-1.51372E-05 1.06753E-18 8.27966E-19
 -1      2309 1.25790E-04-4.47226E-05-3.47477E-05-1.07478E-05 1.22037E-18 9.77370E-19
 -1      2310 1.19881E-04-3.30719E-05-3.75244E-05-1.59947E-05 9.96428E-19 1.12679E-18
 -1      2311 1.17236E-04-2.80061E-05-3.82723E-05-1.37588E-05 6.11134E-19 1.34744E-18
 -1      2312 1.25380E-04-3.70505E-05-3.79663E-05-1.64691E-05 1.16441E-18 1.12859E-18
 -1      2313 1.14899E-04-2.36245E-05-3.94339E-05-9.16866E-06-2.79150E-19 1.51719E-18
 -1      2314 1.13658E-04-2.12898E-05-3.97425E-05-3.73726E-06-1.02465E-18 1.82153E-18
 -1      2315 1.20759E-04-2.47170E-05-4.14064E-05-1.29590E-05 3.54536E-19 1.18272E-18
 -1      2316 1.13710E-04-2.13569E-05-3.97194E-05 3.93192E-06-1.77300E-18 1.76268E-18
 -1      2317 1.15063E-04-2.38460E-05-3.93922E-05 9.50639E-06-2.28323E-18 1.35287E-18
 -1      2318 1.18140E-04-1.89147E-05-4.28396E-05 2.10641E-07-1.43064E-18 1.08632E-18
 -1      2319 1.17466E-04-2.85488E-05-3.81714E-05 1.42926E-05-1.81731E-18 1.08054E-18
 -1      2320 1.20272E-04-3.37143E-05-3.74109E-05 1.61168E-05-1.69449E-18 4.60164E-19
 -1      2321 1.20898E-04-2.53535E-05-4.11253E-05 1.33373E-05-2.39964E-18 1.11046E-18
 -1      2322 1.21735E-04-3.82479E-05-3.58066E-05 1.51114E-05-1.05068E-18 3.73409E-19
 -1      2323 1.23464E-04-4.17788E-05-3.51316E-05 1.32613E-05-4.06660E-19 8.72881E-19
 -1      2324 1.25496E-04-3.73702E-05-3.78871E-05 1.64697E-05-1.65105E-18 1.40877E-18
 -1      2325 1.22167E-04-4.31420E-05-3.39538E-05 9.11810E-06-5.97280E-19 8.03586E-19
 -1      2326 1.22093E-04-4.37963E-05-3.35473E-05 5.78775E-06-4.17292E-19 4.73280E-19
 -1      2327 1.25825E-04-4.52229E-05-3.45890E-05 1.01557E-05-7.37647E-19 7.51729E-19
 -1      2328 1.19205E-04-4.26450E-05-3.29119E-05 1.73199E-06-1.81344E-19-1.53838E-19
 -1      2329 1.17917E-04-4.14910E-05-3.26951E-05-1.29418E-06 2.17717E-19 5.63816E-19
 -1      2330 1.21392E-04-4.56412E-05-3.25289E-05 1.65214E-06-1.76368E-19 1.76760E-18
 -1      2331 1.14908E-04-3.94600E-05-3.24145E-05-3.97135E-06 6.31370E-19 7.22867E-19
 -1      2332 1.13189E-04-3.77901E-05-3.22588E-05-5.98214E-06-1.76663E-19 7.06296E-19
 -1      2333 1.15265E-04-4.18084E-05-3.15550E-05-4.90752E-06 2.68850E-19 8.47490E-19
 -1      2334 1.10795E-04-3.59398E-05-3.21279E-05-7.28202E-06-7.13053E-19 1.08741E-18
 -1      2335 1.09110E-04-3.44629E-05-3.19549E-05-8.27780E-06-2.81910E-19 1.01482E-18
 -1      2336 1.09748E-04-3.71495E-05-3.11731E-05-8.59128E-06-9.81020E-20 1.76898E-18
 -1      2337 1.07422E-04-3.31399E-05-3.18547E-05-8.61845E-06-6.81013E-19 1.01569E-18
 -1      2338 1.05940E-04-3.20567E-05-3.16443E-05-8.86650E-06-4.47061E-19 2.89765E-19
 -1      2339 1.05633E-04-3.33848E-05-3.10016E-05-1.00058E-05-9.04189E-19 1.70610E-18
 -1      2340 1.04798E-04-3.12331E-05-3.15289E-05-8.64487E-06 1.30117E-19 2.17339E-19
 -1      2341 1.03546E-04-3.05088E-05-3.12920E-05-8.43587E-06 6.93935E-20 6.79724E-19
 -1      2342 1.02802E-04-3.08658E-05-3.08504E-05-9.98273E-06-6.85851E-19 1.66727E-18
 -1      2343 1.02764E-04-3.00448E-05-3.11553E-05-7.93233E-06 2.82126E-20 4.84525E-19
 -1      2344 1.01719E-04-2.95823E-05-3.09120E-05-7.49226E-06 2.43666E-19 6.75518E-19
 -1      2345 1.00884E-04-2.93758E-05-3.06569E-05-9.16971E-06 7.31672E-21 1.04182E-18
 -1      2346 1.01159E-04-2.93433E-05-3.07631E-05-6.88252E-06-1.09602E-19 1.55359E-19
 -1      2347 1.00295E-04-2.90533E-05-3.05312E-05-6.36000E-06-1.91215E-19 2.58797E-19
 -1      2348 9.95523E-05-2.85834E-05-3.04203E-05-7.99620E-06 5.54732E-20 1.14584E-19
 -1      2349 9.98733E-05-2.89427E-05-3.03819E-05-5.74532E-06-1.20783E-18 1.02172E-18
 -1      2350 9.91640E-05-2.87611E-05-3.01727E-05-5.22671E-06-8.34938E-19 2.29520E-19
 -1      2351 9.85819E-05-2.82127E-05-3.01610E-05-6.72398E-06-1.59591E-19-1.17579E-18
 -1      2352 9.88330E-05-2.87187E-05-3.00326E-05-4.66004E-06-1.14515E-19-3.41723E-19
 -1      2353 9.82576E-05-2.86043E-05-2.98517E-05-4.18918E-06-2.87664E-19-5.76419E-19
 -1      2354 9.78412E-05-2.80762E-05-2.99013E-05-5.50062E-06-8.06002E-19 6.89491E-19
 -1      2355 9.79917E-05-2.85958E-05-2.97263E-05-3.69390E-06 3.86763E-19-9.07691E-19
 -1      2356 9.75311E-05-2.85233E-05-2.95749E-05-3.28851E-06 6.27399E-19-7.93380E-19
 -1      2357 9.72570E-05-2.80598E-05-2.96578E-05-4.40041E-06 9.10602E-21-8.81888E-19
 -1      2358 9.73161E-05-2.85302E-05-2.94668E-05-2.87086E-06 6.96362E-19 6.81554E-19
 -1      2359 9.69526E-05-2.84844E-05-2.93435E-05-2.53393E-06 8.53167E-19 1.27810E-18
 -1      2360 9.67887E-05-2.80991E-05-2.94403E-05-3.45278E-06 1.86035E-18-7.57512E-19
 -1      2361 9.67795E-05-2.84973E-05-2.92531E-05-2.19086E-06 7.66902E-19 1.39623E-18
 -1      2362 9.64971E-05-2.84689E-05-2.91547E-05-1.91788E-06 1.37787E-18 1.78542E-18
 -1      2363 9.64125E-05-2.81597E-05-2.92530E-05-2.66120E-06 6.90741E-19 5.24865E-19
 -1      2364 9.63592E-05-2.84833E-05-2.90810E-05-1.64178E-06 1.28969E-18 1.31434E-18
 -1      2365 9.61434E-05-2.84663E-05-2.90042E-05-1.42491E-06 1.58332E-18 2.31606E-18
 -1      2366 9.61124E-05-2.82244E-05-2.90966E-05-2.01527E-06 1.46111E-18 6.05981E-20
 -1      2367 9.60352E-05-2.84800E-05-2.89453E-05-1.20646E-06 6.54229E-19 1.84955E-18
 -1      2368 9.58732E-05-2.84706E-05-2.88865E-05-1.03687E-06-5.40124E-19 1.57210E-18
 -1      2369 9.58758E-05-2.82850E-05-2.89691E-05-1.49806E-06 7.43269E-19 6.46913E-19
 -1      2370 9.57895E-05-2.84827E-05-2.88404E-05-8.66519E-07-1.36617E-18 1.94468E-18
 -1      2371 9.56703E-05-2.84783E-05-2.87962E-05-7.35610E-07-1.68452E-18 1.61366E-18
 -1      2372 9.56920E-05-2.83382E-05-2.88673E-05-1.09049E-06-9.72841E-19 1.03239E-18
 -1      2373 9.56066E-05-2.84885E-05-2.87608E-05-6.04473E-07-1.86824E-18 5.59823E-19
 -1      2374 9.55207E-05-2.84872E-05-2.87283E-05-5.04538E-07-2.27631E-18-8.54100E-20
 -1      2375 9.55514E-05-2.83830E-05-2.87877E-05-7.73756E-07-2.08516E-18 4.34397E-19
 -1      2376 9.54726E-05-2.84952E-05-2.87015E-05-4.04715E-07-2.09737E-18-1.42902E-19
 -1      2377 9.54124E-05-2.84959E-05-2.86781E-05-3.29072E-07-1.39411E-18-4.55964E-19
 -1      2378 9.54453E-05-2.84193E-05-2.87264E-05-5.30802E-07-2.41362E-18 2.34716E-19
 -1      2379 9.53765E-05-2.85024E-05-2.86580E-05-2.53661E-07-2.40225E-19-1.43816E-19
 -1      2380 9.53361E-05-2.85045E-05-2.86414E-05-1.97671E-07 8.73583E-19-2.61558E-19
 -1      2381 9.53656E-05-2.84477E-05-2.86798E-05-3.46645E-07-3.85558E-19 9.15440E-19
 -1      2382 9.53088E-05-2.85032E-05-2.86294E-05-1.54012E-07 8.87392E-19 1.61038E-19
 -1      2383 9.52827E-05-2.85082E-05-2.86170E-05-1.12626E-07 1.00342E-18-1.33520E-19
 -1      2384 9.52640E-05-2.84763E-05-2.86242E-05-1.38259E-07 1.03227E-18 5.47693E-19
 -1      2385 9.53058E-05-2.84642E-05-2.86476E-05-2.21195E-07 4.30572E-19 4.87571E-19
 -1      2386 9.43941E-05-2.78363E-05-2.85156E-05-1.60592E-06 5.96902E-20 1.39401E-18
 -1      2387 9.42824E-05-2.77037E-05-2.85155E-05-1.25359E-06-8.06418E-21 1.36376E-18
 -1      2388 9.43286E-05-2.75816E-05-2.85967E-05-7.47400E-07-3.31393E-20 1.32140E-18
 -1      2389 9.43948E-05-2.74169E-05-2.86733E-05-2.13876E-07-8.85489E-20 1.23211E-18
 -1      2390 9.48588E-05-2.75315E-05-2.88690E-05-9.35681E-07-7.85822E-23 1.14554E-18
 -1      2391 9.45340E-05-2.71998E-05-2.88481E-05 5.42996E-07-8.76464E-20 1.25919E-18
 -1      2392 9.48134E-05-2.69515E-05-2.90446E-05 1.41421E-06-9.68165E-20 1.28502E-18
 -1      2393 9.50103E-05-2.70420E-05-2.91459E-05 4.44057E-07-8.20381E-20 1.16330E-18
 -1      2394 9.46864E-05-2.80405E-05-2.85532E-05-2.22120E-06-4.52426E-21 1.31863E-18
 -1      2395 9.44436E-05-2.79196E-05-2.85001E-05-1.96470E-06-9.05763E-22 1.34182E-18
 -1      2396 9.48881E-05-2.78277E-05-2.87520E-05-1.88685E-06 2.04516E-20 1.17588E-18
 -1      2397 9.51631E-05-2.82285E-05-2.86766E-05-2.71273E-06-7.00506E-20 1.38346E-18
 -1      2398 9.48184E-05-2.81078E-05-2.85849E-05-2.50113E-06-3.29623E-20 1.46330E-18
 -1      2399 9.50863E-05-2.80276E-05-2.87489E-05-2.58992E-06-1.34475E-20 1.35494E-18
 -1      2400 9.57972E-05-2.84236E-05-2.88644E-05-3.15412E-06 8.85617E-20 1.45717E-18
 -1      2401 9.53666E-05-2.82935E-05-2.87431E-05-2.95781E-06 1.77740E-21 1.47719E-18
 -1      2402 9.54320E-05-2.81836E-05-2.88284E-05-3.16580E-06 6.02714E-20 1.38340E-18
 -1      2403 9.65760E-05-2.86485E-05-2.91020E-05-3.58369E-06 5.73999E-19 1.52685E-18
 -1      2404 9.60669E-05-2.84982E-05-2.89569E-05-3.38957E-06 2.33312E-19 1.54493E-18
 -1      2405 9.59111E-05-2.83328E-05-2.89687E-05-3.68953E-06 6.17945E-20 1.14014E-18
 -1      2406 9.74978E-05-2.89301E-05-2.93774E-05-4.00715E-06 3.65161E-19 1.61178E-18
 -1      2407 9.69128E-05-2.87463E-05-2.92136E-05-3.81792E-06 6.49881E-19 1.66729E-18
 -1      2408 9.65213E-05-2.85112E-05-2.91533E-05-4.19838E-06 3.73025E-19 1.48175E-18
 -1      2409 9.85671E-05-2.93026E-05-2.96785E-05-4.39491E-06 2.38610E-19 1.59922E-18
 -1      2410 9.79086E-05-2.90690E-05-2.95018E-05-4.23089E-06 3.72189E-19 1.62306E-18
 -1      2411 9.72722E-05-2.87607E-05-2.93682E-05-4.69330E-06 3.98084E-19 1.64532E-18
 -1      2412 9.97904E-05-2.98077E-05-2.99910E-05-4.67623E-06-3.27708E-19 1.77800E-18
 -1      2413 9.90649E-05-2.95057E-05-2.98090E-05-4.57849E-06-1.12553E-19 1.73811E-18
 -1      2414 9.81855E-05-2.91343E-05-2.96000E-05-5.13567E-06 8.91174E-20 1.76442E-18
 -1      2415 1.01170E-04-3.04912E-05-3.02968E-05-4.73269E-06-2.09130E-19 1.49949E-18
 -1      2416 1.00393E-04-3.01033E-05-3.01203E-05-4.76561E-06-3.71807E-19 1.64936E-18
 -1      2417 9.92938E-05-2.96975E-05-2.98347E-05-5.44066E-06-1.90144E-19 1.93807E-18
 -1      2418 1.02693E-04-3.13903E-05-3.05748E-05-4.39639E-06-1.21707E-19 1.28723E-18
 -1      2419 1.01898E-04-3.09080E-05-3.04174E-05-4.64638E-06-7.95123E-20 1.26619E-18
 -1      2420 1.00637E-04-3.05217E-05-3.00587E-05-5.47031E-06-1.26652E-19 1.41199E-18
 -1      2421 1.04311E-04-3.25035E-05-3.08049E-05-3.46316E-06-3.96823E-19 1.17586E-18
 -1      2422 1.03559E-04-3.19453E-05-3.06815E-05-4.02725E-06-4.35004E-19 1.37120E-18
 -1      2423 1.02250E-04-3.16643E-05-3.02619E-05-5.03169E-06-4.29033E-19 1.46330E-18
 -1      2424 1.05911E-04-3.37363E-05-3.09757E-05-1.73811E-06 1.14409E-19 1.29272E-18
 -1      2425 1.05299E-04-3.31757E-05-3.08980E-05-2.69326E-06-6.76369E-20 1.15054E-18
 -1      2426 1.04131E-04-3.31207E-05-3.04445E-05-3.89154E-06-3.92223E-19 1.64543E-18
 -1      2427 1.07263E-04-3.48273E-05-3.10948E-05 8.61543E-07 4.80890E-20 1.86066E-18
 -1      2428 1.06935E-04-3.44247E-05-3.10660E-05-4.81798E-07 2.83956E-19 1.63363E-18
 -1      2429 1.06182E-04-3.47392E-05-3.06260E-05-1.82965E-06 1.31437E-19 1.90203E-18
 -1      2430 1.07995E-04-3.53019E-05-3.11978E-05 4.13395E-06-3.94615E-19 1.85171E-18
 -1      2431 1.08125E-04-3.53104E-05-3.12062E-05 2.57055E-06-4.66745E-19 1.55939E-18
 -1      2432 1.08118E-04-3.61187E-05-3.08527E-05 1.23415E-06-1.57991E-19 2.02672E-18
 -1      2433 1.07661E-04-3.45593E-05-3.13431E-05 7.39179E-06-4.10497E-19 2.46702E-18
 -1      2434 1.08381E-04-3.52470E-05-3.13626E-05 6.01586E-06-5.01437E-20 2.29975E-18
 -1      2435 1.09410E-04-3.65661E-05-3.11941E-05 5.02005E-06-4.67061E-19 2.13913E-18
 -1      2436 1.05994E-04-3.22287E-05-3.15803E-05 9.39581E-06 6.73517E-19 2.25979E-18
 -1      2437 1.07253E-04-3.36665E-05-3.15835E-05 8.82212E-06 1.83139E-19 2.67053E-18
 -1      2438 1.09386E-04-3.52859E-05-3.17140E-05 8.62852E-06-1.03860E-19 1.99338E-18
 -1      2439 1.03342E-04-2.87572E-05-3.18934E-05 8.73402E-06 5.63449E-19 2.03458E-18
 -1      2440 1.04780E-04-3.05534E-05-3.18721E-05 9.52226E-06 6.24173E-19 2.19822E-18
 -1      2441 1.07674E-04-3.19815E-05-3.24044E-05 1.04813E-05 7.43069E-19 2.22620E-18
 -1      2442 1.00920E-04-2.56901E-05-3.21746E-05 4.79253E-06-1.77963E-19 1.83578E-18
 -1      2443 1.01900E-04-2.69819E-05-3.21507E-05 6.98726E-06 5.83430E-19 2.34154E-18
 -1      2444 1.04830E-04-2.75621E-05-3.31161E-05 8.93624E-06 5.26960E-19 2.50431E-18
 -1      2445 1.00208E-04-2.48304E-05-3.22850E-05-1.19383E-06-5.42842E-19 1.55606E-18
 -1      2446 1.00248E-04-2.48927E-05-3.22819E-05 1.62496E-06-5.40314E-19 1.58598E-18
 -1      2447 1.02584E-04-2.43330E-05-3.35872E-05 3.70500E-06-2.96326E-19 2.56033E-18
 -1      2448 1.01745E-04-2.67565E-05-3.21731E-05-6.71895E-06-1.37286E-19 1.46580E-18
 -1      2449 1.00799E-04-2.55257E-05-3.21937E-05-4.44375E-06-4.87282E-19 1.18366E-18
 -1      2450 1.02493E-04-2.41987E-05-3.36071E-05-3.25352E-06-4.37003E-19 1.82778E-18
 -1      2451 1.04596E-04-3.02764E-05-3.19101E-05-9.50901E-06 6.70653E-19 9.41798E-19
 -1      2452 1.03161E-04-2.84882E-05-3.19280E-05-8.59975E-06 7.59425E-19 1.39150E-18
 -1      2453 1.04651E-04-2.72698E-05-3.31704E-05-8.72716E-06 3.38055E-19 7.87245E-19
 -1      2454 1.07162E-04-3.34683E-05-3.16308E-05-9.05527E-06 1.62993E-19 9.63833E-19
 -1      2455 1.05859E-04-3.19845E-05-3.16234E-05-9.52774E-06 2.19508E-19 8.29722E-19
 -1      2456 1.07510E-04-3.16441E-05-3.24774E-05-1.05773E-05 4.90267E-19 1.12415E-18
 -1      2457 1.08437E-04-3.51811E-05-3.14181E-05-6.39301E-06 8.68291E-20 7.81402E-19
 -1      2458 1.07652E-04-3.44310E-05-3.13920E-05-7.71562E-06 7.66879E-20 8.46571E-19
 -1      2459 1.09363E-04-3.50795E-05-3.17938E-05-8.97050E-06 2.41839E-19 7.07708E-19
 -1      2460 1.08315E-04-3.53475E-05-3.12724E-05-2.99407E-06-2.03859E-19 1.50730E-18
 -1      2461 1.08118E-04-3.52933E-05-3.12539E-05-4.54076E-06-4.92272E-20 1.24589E-18
 -1      2462 1.09539E-04-3.65135E-05-3.12717E-05-5.47672E-06-2.43764E-19 5.11829E-19
 -1      2463 1.07226E-04-3.45138E-05-3.11516E-05 5.52767E-08 3.15748E-19 7.82592E-19
 -1      2464 1.07493E-04-3.48918E-05-3.11662E-05-1.28588E-06 3.56839E-19 1.33526E-18
 -1      2465 1.08355E-04-3.61692E-05-3.09314E-05-1.71206E-06 2.41313E-19 1.68380E-18
 -1      2466 1.05675E-04-3.32842E-05-3.10110E-05 2.26509E-06-7.64859E-19 1.14248E-18
 -1      2467 1.06229E-04-3.38326E-05-3.10711E-05 1.31309E-06-2.08562E-19 1.07895E-18
 -1      2468 1.06484E-04-3.48282E-05-3.07162E-05 1.35511E-06-9.70630E-20 1.13219E-18
 -1      2469 1.04017E-04-3.20575E-05-3.08279E-05 3.57896E-06-3.96388E-19 1.60907E-18
 -1      2470 1.04709E-04-3.26091E-05-3.09312E-05 3.02777E-06-7.90805E-19 1.62154E-18
 -1      2471 1.04480E-04-3.32107E-05-3.05551E-05 3.41065E-06-9.04889E-19 1.12098E-18
 -1      2472 1.02446E-04-3.10202E-05-3.06022E-05 4.14881E-06 2.41559E-19 2.45431E-18
 -1      2473 1.03174E-04-3.14957E-05-3.07370E-05 3.92593E-06 2.30919E-19 1.63876E-18
 -1      2474 1.02642E-04-3.17376E-05-3.03991E-05 4.51870E-06 5.49827E-21 1.84545E-18
 -1      2475 1.01049E-04-3.02217E-05-3.03481E-05 4.18871E-06 6.40246E-19 1.84615E-18
 -1      2476 1.01748E-04-3.05985E-05-3.04993E-05 4.19677E-06 3.53841E-19 2.52247E-18
 -1      2477 1.01081E-04-3.05748E-05-3.02268E-05 4.89163E-06 1.21694E-19 2.78186E-18
 -1      2478 9.98478E-05-2.96422E-05-3.00837E-05 3.89796E-06 4.93120E-20 2.27521E-18
 -1      2479 1.00483E-04-2.99259E-05-3.02377E-05 4.04766E-06 6.12769E-19 1.73715E-18
 -1      2480 9.98043E-05-2.97382E-05-3.00364E-05 4.76588E-06 2.65700E-19 2.23402E-18
 -1      2481 9.88393E-05-2.92380E-05-2.98261E-05 3.43199E-06 9.34155E-19 5.33331E-19
 -1      2482 9.93940E-05-2.94446E-05-2.99726E-05 3.65421E-06 7.79075E-19 1.53507E-18
 -1      2483 9.87778E-05-2.91759E-05-2.98361E-05 4.34307E-06 7.11210E-19 2.24708E-18
 -1      2484 9.80075E-05-2.89643E-05-2.95878E-05 2.89952E-06 2.11620E-19 6.30149E-20
 -1      2485 9.84770E-05-2.91113E-05-2.97200E-05 3.14641E-06 9.59845E-19 6.97405E-19
 -1      2486 9.79587E-05-2.88195E-05-2.96368E-05 3.77385E-06 9.88381E-19 1.19015E-18
 -1      2487 9.73323E-05-2.87838E-05-2.93763E-05 2.36979E-06-1.10335E-18 7.55443E-19
 -1      2488 9.77194E-05-2.88862E-05-2.94909E-05 2.61139E-06-7.49194E-19 8.57285E-19
 -1      2489 9.73083E-05-2.86072E-05-2.94483E-05 3.16090E-06-1.71568E-19 1.20366E-18
 -1      2490 9.67928E-05-2.86680E-05-2.91950E-05 1.88252E-06-1.74091E-18 1.93085E-18
 -1      2491 9.71045E-05-2.87379E-05-2.92912E-05 2.10211E-06-9.88248E-19 1.12040E-18
 -1      2492 9.67943E-05-2.84904E-05-2.92774E-05 2.56832E-06-1.30526E-18 3.53822E-18
 -1      2493 9.63687E-05-2.85962E-05-2.90443E-05 1.45691E-06-1.31030E-18 2.26430E-18
 -1      2494 9.66142E-05-2.86427E-05-2.91227E-05 1.64687E-06-1.90349E-18 1.68008E-18
 -1      2495 9.63911E-05-2.84343E-05-2.91281E-05 2.03183E-06-1.88047E-18 3.76506E-18
 -1      2496 9.60410E-05-2.85538E-05-2.89222E-05 1.09887E-06-9.15434E-19 1.22932E-18
 -1      2497 9.62301E-05-2.85838E-05-2.89844E-05 1.25736E-06-2.81261E-19 2.36053E-18
 -1      2498 9.60776E-05-2.84151E-05-2.90015E-05 1.56768E-06-1.09014E-18 2.91668E-18
 -1      2499 9.57924E-05-2.85305E-05-2.88258E-05 8.06242E-07 1.03844E-19 1.30230E-19
 -1      2500 9.59348E-05-2.85490E-05-2.88739E-05 9.34864E-07-9.86857E-19-1.35164E-19
 -1      2501 9.58367E-05-2.84167E-05-2.88970E-05 1.17954E-06 1.52176E-19 1.12294E-18
 -1      2502 9.56074E-05-2.85192E-05-2.87514E-05 5.72511E-07 8.75122E-19 7.71664E-19
 -1      2503 9.57121E-05-2.85300E-05-2.87877E-05 6.74653E-07 4.64970E-19-6.70133E-19
 -1      2504 9.56540E-05-2.84289E-05-2.88130E-05 8.63603E-07 3.98526E-19 9.77679E-20
 -1      2505 9.54725E-05-2.85152E-05-2.86954E-05 3.89163E-07 9.04854E-19 9.33070E-19
 -1      2506 9.55474E-05-2.85208E-05-2.87221E-05 4.68948E-07 1.28158E-18 7.33325E-19
 -1      2507 9.55172E-05-2.84453E-05-2.87469E-05 6.12034E-07 8.11943E-19 1.43562E-18
 -1      2508 9.53763E-05-2.85155E-05-2.86541E-05 2.47555E-07 3.40461E-20 1.02048E-18
 -1      2509 9.54281E-05-2.85175E-05-2.86732E-05 3.08912E-07 9.16361E-19 1.43973E-18
 -1      2510 9.54159E-05-2.84621E-05-2.86959E-05 4.15409E-07 1.08990E-18 1.19212E-18
 -1      2511 9.53099E-05-2.85189E-05-2.86241E-05 1.41143E-07 2.08844E-18-2.10283E-19
 -1      2512 9.53440E-05-2.85182E-05-2.86374E-05 1.86269E-07 9.29619E-19 4.99652E-19
 -1      2513 9.53418E-05-2.84783E-05-2.86570E-05 2.64227E-07 1.21080E-18 2.48697E-18
 -1      2514 9.52748E-05-2.85120E-05-2.86115E-05 9.85836E-08 4.46983E-19 2.06725E-19
 -1      2515 9.51131E-05-2.82392E-05-2.86615E-05 1.83699E-07-7.47714E-19-1.83468E-18
 -1      2516 9.51384E-05-2.82740E-05-2.86556E-05 1.94094E-07-7.41966E-19 1.62770E-19
 -1      2517 9.51681E-05-2.83205E-05-2.86501E-05 1.98900E-07-2.13648E-19 1.68376E-18
 -1      2518 9.51944E-05-2.83579E-05-2.86433E-05 1.93657E-07 1.46475E-19 1.87920E-18
 -1      2519 9.51395E-05-2.82565E-05-2.86635E-05 2.38678E-07-5.80711E-19 6.64972E-19
 -1      2520 9.52237E-05-2.84072E-05-2.86365E-05 1.79347E-07 3.71364E-19 1.68229E-18
 -1      2521 9.52454E-05-2.84425E-05-2.86290E-05 1.59455E-07 1.83330E-19 1.15474E-18
 -1      2522 9.52096E-05-2.83542E-05-2.86517E-05 2.30552E-07 4.00603E-19 1.49263E-18
 -1      2523 2.63513E-05-2.06971E-05-2.25202E-06 2.36847E-05-1.13132E-18 2.06147E-18
 -1      2524 1.94301E-05-1.81693E-05-2.32353E-07 8.67903E-06-8.77950E-19 3.86628E-18
 -1      2525 9.50674E-05-2.81732E-05-2.86703E-05 1.35613E-07 1.20985E-19-1.95696E-18
 -1      2526 9.50870E-05-2.81997E-05-2.86658E-05 1.60347E-07-4.43982E-19-2.08123E-18
 -1      2527 9.50739E-05-2.81685E-05-2.86728E-05 2.07280E-07-5.71564E-19-1.94509E-18
 -1      2528 9.50393E-05-2.81327E-05-2.86755E-05 6.32044E-08-7.00288E-19 3.88790E-19
 -1      2529 9.50500E-05-2.81470E-05-2.86731E-05 9.76163E-08-2.38218E-19-2.10638E-18
 -1      2530 9.50226E-05-2.81012E-05-2.86793E-05 1.39982E-07 2.72157E-20-1.62365E-18
 -1      2531 9.50332E-05-2.81232E-05-2.86765E-05-2.06213E-08-1.11793E-18 1.15435E-18
 -1      2532 9.50331E-05-2.81232E-05-2.86765E-05 1.72216E-08-1.27421E-18 1.55807E-18
 -1      2533 9.49948E-05-2.80647E-05-2.86829E-05 4.85680E-08-5.10302E-19 6.76906E-20
 -1      2534 9.50501E-05-2.81464E-05-2.86734E-05-1.01010E-07-1.52632E-18 8.65914E-19
 -1      2535 9.50393E-05-2.81319E-05-2.86757E-05-6.66813E-08-1.04331E-18 1.19075E-18
 -1      2536 9.49947E-05-2.80639E-05-2.86832E-05-5.15501E-08-2.36488E-18 1.52215E-18
 -1      2537 9.50870E-05-2.81979E-05-2.86666E-05-1.62615E-07-8.65633E-19-7.72528E-19
 -1      2538 9.50674E-05-2.81717E-05-2.86709E-05-1.38457E-07-1.05672E-18-5.56324E-19
 -1      2539 9.50223E-05-2.80987E-05-2.86803E-05-1.42592E-07-1.34311E-18-7.68231E-22
 -1      2540 9.51391E-05-2.82723E-05-2.86566E-05-1.95999E-07 1.10844E-19 7.70226E-19
 -1      2541 9.51134E-05-2.82373E-05-2.86625E-05-1.85982E-07-7.96689E-19-1.78373E-18
 -1      2542 9.50736E-05-2.81647E-05-2.86742E-05-2.09553E-07-6.26557E-19-1.39129E-18
 -1      2543 9.51969E-05-2.83589E-05-2.86441E-05-1.93704E-07-1.73586E-19 1.21357E-18
 -1      2544 9.51701E-05-2.83203E-05-2.86510E-05-2.00393E-07-3.67969E-19 2.00166E-18
 -1      2545 9.51406E-05-2.82540E-05-2.86652E-05-2.41057E-07-1.06767E-18 3.98725E-19
 -1      2546 9.52442E-05-2.84370E-05-2.86309E-05-1.61376E-07 7.76312E-19 2.23515E-19
 -1      2547 9.52218E-05-2.84006E-05-2.86385E-05-1.82320E-07 6.08311E-19 6.86020E-19
 -1      2548 9.52072E-05-2.83456E-05-2.86544E-05-2.34856E-07-4.19530E-19 2.05698E-18
 -1      2549 9.52609E-05-2.84270E-05-2.86422E-05-2.00368E-07 5.63709E-19 2.53124E-19
 -1      2550 9.51080E-05-2.00068E-05-3.22334E-05-1.14909E-05 5.19602E-20 5.14996E-19
 -1      2551 9.55314E-05-2.33364E-05-3.09646E-05-7.68214E-06 4.05186E-20 4.69470E-19
 -1      2552 9.51529E-05-2.25004E-05-3.11138E-05-7.31009E-06 8.83958E-20 5.37151E-19
 -1      2553 9.32764E-05-1.75938E-05-3.24532E-05-1.11213E-05 8.87532E-20 5.75069E-19
 -1      2554 1.45542E-04-4.57406E-05-4.31191E-05 8.25615E-06 1.35435E-18-1.35377E-18
 -1      2555 1.37019E-04-5.17116E-05-3.65905E-05 1.48245E-05 1.95559E-19-1.40671E-18
 -1      2556 1.79854E-05-1.83847E-05 3.42671E-07-5.08773E-06-6.20822E-19 5.36680E-18
 -1      2557 2.30219E-05-2.11370E-05-6.69276E-07-1.84444E-05-8.70432E-19 4.32876E-18
 -1      2558 3.50103E-05-2.79572E-05-2.86505E-06-2.91439E-05-8.00023E-19 1.54520E-18
 -1      2559 5.20216E-05-3.51581E-05-7.22326E-06-3.88391E-05-7.43271E-19 2.68721E-19
 -1      2560 1.49036E-04-1.28926E-05-5.86808E-05 4.62023E-07-2.93073E-18-1.10892E-18
 -1      2561 1.48218E-04-1.38503E-05-5.79299E-05-3.97603E-06-2.18450E-18-8.49998E-19
 -1      2562 1.26682E-04-5.58920E-05-3.03789E-05-2.45351E-05-6.99649E-19-2.53263E-19
 -1      2563 1.37667E-04-5.32469E-05-3.64655E-05-1.78499E-05-6.68097E-20 2.69356E-19
 -1      2564 8.77268E-05-1.04883E-05-3.31381E-05-1.44122E-06 2.30106E-19 5.79973E-19
 -1      2565 8.78452E-05-1.06224E-05-3.31291E-05-2.51513E-06 1.74629E-19 5.68491E-19
 -1      2566 8.92080E-05-1.27351E-05-3.27744E-05-2.76404E-06 1.52329E-19 5.87397E-19
 -1      2567 8.89271E-05-1.23661E-05-3.28133E-05-8.85184E-07 1.73751E-19 6.03418E-19
 -1      2568 3.74575E-05-2.72107E-05-4.22439E-06 3.17865E-05-7.39036E-20-2.86085E-19
 -1      2569 2.56318E-05-2.16334E-05-1.49818E-06 1.95072E-05 1.10114E-20-1.94818E-20
 -1      2570 1.48525E-04-2.76945E-05-5.22812E-05-3.14064E-06 3.19289E-18-1.91811E-18
 -1      2571 1.46873E-04-3.54409E-05-4.79397E-05 5.03738E-08 2.44178E-18-1.26060E-18
 -1      2572 1.39058E-04-1.03519E-05-5.57130E-05 3.51399E-06 1.43318E-18-2.04347E-20
 -1      2573 1.43478E-04-1.04192E-05-5.73415E-05-1.84897E-07 2.12351E-18-7.43391E-19
 -1      2574 1.44143E-04-2.76255E-05-5.02331E-05 6.05685E-06 6.11981E-19 9.55453E-19
 -1      2575 1.41963E-04-1.87490E-05-5.34784E-05 6.88172E-06 7.27390E-19 6.33687E-19
 -1      2576 1.42901E-04-4.64240E-05-4.14826E-05-7.56629E-06 5.03654E-19 5.95888E-19
 -1      2577 1.46862E-04-3.89131E-05-4.68071E-05-7.45854E-07 7.69635E-19 5.68571E-19
 -1      2578 9.93260E-05-5.31559E-05-1.96135E-05-3.87073E-05-3.17849E-19-2.67715E-19
 -1      2579 1.13896E-04-5.57957E-05-2.50592E-05-3.51676E-05-2.47334E-19-5.59783E-19
 -1      2580 5.69883E-05-3.73199E-05-8.21475E-06-4.07677E-05-1.08103E-18-1.94796E-18
 -1      2581 7.83130E-05-4.56255E-05-1.40237E-05-4.42771E-05-7.46660E-19-1.07414E-18
 -1      2582 9.27914E-05-5.01964E-05-1.79266E-05-4.01083E-05-8.20987E-19-3.95988E-19
 -1      2583 3.13894E-05-2.15644E-05-3.68405E-06-2.52736E-05-4.87256E-19-1.53228E-18
 -1      2584 4.22731E-05-2.73800E-05-6.03543E-06-3.55851E-05-7.24637E-19-2.29546E-18
 -1      2585 7.27786E-05-4.50106E-05-1.17313E-05-4.04254E-05-2.56651E-19 1.42090E-19
 -1      2586 9.01195E-05-5.10267E-05-1.69485E-05-4.14627E-05-1.11681E-18-2.96369E-19
 -1      2587 1.97530E-05-1.73787E-05-6.69156E-07 5.69464E-06 1.13132E-19-6.54756E-19
 -1      2588 2.06839E-05-1.71418E-05-1.26787E-06-1.14797E-05 9.52912E-21-9.52912E-19
 -1      2589 7.33653E-05-4.49789E-05-1.21686E-05 4.25412E-05 5.67300E-19-1.60216E-18
 -1      2590 5.60958E-05-3.73925E-05-7.79200E-06 3.85469E-05 4.82385E-19-8.71173E-19
 -1      2591 1.09662E-04-5.67017E-05-2.30026E-05 3.61773E-05 1.26822E-18-1.43117E-18
 -1      2592 9.07951E-05-5.18468E-05-1.66380E-05 3.90123E-05 7.28025E-19-1.50743E-18
 -1      2593 8.95149E-05-4.96395E-05-1.67175E-05 3.92149E-05 1.23243E-18-1.19003E-18
 -1      2594 1.42228E-04-5.64385E-05-3.70176E-05 1.45958E-05 7.09072E-19 4.15258E-19
 -1      2595 1.28280E-04-5.89106E-05-2.96534E-05 2.23801E-05 1.04598E-18-5.24525E-19
 -1      2596 1.52928E-04-4.15868E-05-4.81481E-05-3.18543E-07-4.38128E-19 6.44169E-19
 -1      2597 1.47699E-04-4.82100E-05-4.27633E-05 5.32199E-06 5.09133E-19 5.03985E-19
 -1      2598 1.50545E-04-2.18784E-05-5.56609E-05-7.35997E-06-8.01081E-19-2.20652E-19
 -1      2599 1.52092E-04-3.06986E-05-5.21552E-05-6.33001E-06-5.04832E-19 6.24475E-19
 -1      2600 1.49214E-04-2.00968E-05-5.57325E-05 7.50580E-06-2.58726E-18-1.61974E-18
 -1      2601 1.48693E-04-1.55464E-05-5.75913E-05 4.88063E-06-2.98749E-18-1.40650E-18
 -1      2602 1.48187E-04-4.05046E-05-4.64886E-05 5.03572E-06-1.33471E-18-9.89758E-19
 -1      2603 1.50637E-04-3.04121E-05-5.19944E-05 7.90310E-06-2.29440E-18-1.56722E-18
 -1      2604 1.40067E-04-5.63272E-05-3.60057E-05-1.07848E-05-5.65289E-19 6.10923E-19
 -1      2605 1.46988E-04-5.17155E-05-4.13830E-05-4.14226E-06-8.10597E-19 2.89262E-19
 -1      2606 1.10913E-04-5.73228E-05-2.28678E-05-3.23462E-05-8.59738E-19-3.90059E-19
 -1      2607 1.29590E-04-5.94278E-05-3.03626E-05-2.45567E-05-3.10649E-19 8.42374E-19
 -1      2608 5.78569E-05-3.59702E-05-9.17882E-06 4.22767E-05 2.43522E-19 1.94987E-18
 -1      2609 4.23299E-05-2.87196E-05-5.40427E-06 3.45750E-05-7.65294E-19 1.43339E-18
 -1      2610 9.52749E-05-2.84801E-05-2.86271E-05 1.51932E-07 7.42451E-19 1.38894E-18
 -1      2611 9.07837E-05-1.48306E-05-3.25414E-05-6.48438E-06 7.81996E-20 2.57309E-19
 -1      2612 8.97339E-05-1.30516E-05-3.29164E-05-7.66196E-06 1.26156E-19 2.70991E-19
 -1      2613 9.03845E-05-1.37995E-05-3.28828E-05-8.88005E-06 1.13320E-19 2.87879E-19
 -1      2614 1.42851E-04-4.17301E-05-4.33657E-05-2.03079E-06 1.49417E-18-8.54656E-19
 -1      2615 9.60144E-05-2.62319E-05-2.98741E-05 5.14438E-06-1.59242E-19 1.56747E-18
 -1      2616 9.59708E-05-2.51433E-05-3.03315E-05 6.20628E-06-1.40263E-19 1.45375E-18
 -1      2617 9.53974E-05-2.64707E-05-2.95101E-05 3.82000E-06-1.08764E-19 1.56188E-18
 -1      2618 1.08298E-04-5.54646E-05-2.23712E-05 3.51408E-05-1.25615E-18-1.28405E-19
 -1      2619 7.40504E-05-4.12415E-05-1.37053E-05 4.09704E-05-7.99599E-19 1.98005E-18
 -1      2620 2.55267E-05-1.49376E-05-3.95632E-06 2.03009E-06-1.17863E-18 4.28196E-18
 -1      2621 4.13075E-05-2.27927E-05-7.34100E-06 2.87437E-05-7.06849E-19 2.22389E-18
 -1      2622 1.07434E-04-5.58907E-05-2.17274E-05-3.36604E-05-4.05517E-19-1.08047E-18
 -1      2623 1.35225E-04-6.01509E-05-3.21314E-05-1.31027E-05-3.96729E-19 3.02920E-19
 -1      2624 9.21146E-05-1.61842E-05-3.25834E-05-1.00971E-05 1.19588E-19 4.79401E-19
 -1      2625 3.62523E-05-2.22241E-05-5.48229E-06-2.45297E-05-6.09228E-19 2.26475E-18
 -1      2626 2.97908E-05-1.67071E-05-4.97601E-06 1.22513E-05-6.15158E-20-3.93659E-19
 -1      2627 9.49023E-05-2.68247E-05-2.91444E-05 2.05652E-06-1.14062E-19 1.36564E-18
 -1      2628 9.51970E-05-2.66419E-05-2.93388E-05 2.98545E-06-8.25394E-20 1.46770E-18
 -1      2629 9.54466E-05-2.61016E-05-2.97304E-05 3.67879E-06-1.14032E-19 1.32418E-18
 -1      2630 9.52117E-05-2.65316E-05-2.94540E-05 2.03912E-06-8.62667E-20 1.21285E-18
 -1      2631 1.44372E-04-4.67187E-05-4.19166E-05 7.61060E-06-1.19749E-18-1.05477E-18
 -1      2632 1.41319E-04-2.59437E-05-4.96356E-05 1.26630E-05-2.21351E-18-2.25141E-18
 -1      2633 9.52782E-05-2.84423E-05-2.86430E-05 2.09889E-07 1.04125E-18 1.22109E-18
 -1      2634 1.41586E-04-1.76749E-05-5.34027E-05-7.84646E-06-6.62380E-19 2.48816E-19
 -1      2635 6.78348E-05-3.95141E-05-1.17034E-05-3.90473E-05-5.44430E-19 3.73330E-19
 -1      2636 1.47057E-04-3.65104E-05-4.74691E-05-9.15903E-06-1.27055E-19 1.46770E-18
 -1      2637 1.23911E-04-6.00073E-05-2.71831E-05 2.48247E-05 1.53122E-18-2.18746E-19
 -1      2638 1.39690E-04-5.18303E-05-3.76142E-05-6.77661E-06 2.23246E-19 7.98752E-19
 -1      2639 5.75956E-05-3.20628E-05-1.05181E-05-3.73766E-05-1.15832E-18-1.65891E-18
 -1      2640 1.39996E-04-3.38607E-05-4.56419E-05 7.25346E-06 5.26854E-19 1.56214E-18
 -1      2641 1.32442E-04-1.44711E-05-5.09493E-05 7.48057E-06 6.03299E-19 1.09310E-18
 -1      2642 1.24071E-04-5.82693E-05-2.80304E-05-2.54329E-05-6.78473E-19 1.35843E-19
 -1      2643 1.39530E-04-1.30353E-05-5.44778E-05 4.15748E-06-2.87081E-18-1.27044E-18
 -1      2644 1.44165E-04-2.23724E-05-5.23410E-05-6.23931E-06 3.37543E-18-1.66527E-18
 -1      2645 1.37048E-04-2.60595E-05-4.77680E-05-9.94430E-06 2.77012E-18-1.70296E-18
 -1      2646 1.35355E-04-1.67495E-05-5.16267E-05-9.19688E-06 3.63292E-18-1.91715E-18
 -1      2647 1.33589E-04-5.63726E-05-3.29800E-05 1.59483E-05-3.13243E-19-7.94411E-19
 -1      2648 1.35287E-04-9.52198E-06-5.43031E-05-1.85897E-06 2.51209E-18-8.49495E-19
 -1      2649 3.31923E-05-1.69888E-05-6.36630E-06-1.75370E-05-2.62686E-19-9.74935E-19
 -1      2650 5.36698E-05-3.16272E-05-8.96849E-06 3.50074E-05 4.41516E-19-5.96099E-19
 -1      2651 1.43695E-04-5.48348E-05-3.81611E-05 2.72301E-06 1.02123E-18 1.31735E-18
 -1      2652 9.03715E-05-1.47512E-05-3.24306E-05 2.97140E-06 1.29467E-19 7.57234E-19
 -1      2653 9.01546E-05-1.44539E-05-3.24644E-05 2.09037E-06 1.12405E-19 7.03362E-19
 -1      2654 8.99990E-05-1.42262E-05-3.24941E-05 1.32099E-06 1.16591E-19 5.45172E-19
 -1      2655 8.99242E-05-1.41241E-05-3.25057E-05 4.25058E-07 1.60497E-19 5.71350E-19
 -1      2656 9.11328E-05-1.60433E-05-3.21666E-05 1.48595E-06 6.57856E-20 6.63830E-19
 -1      2657 9.21133E-05-1.73130E-05-3.20948E-05 6.09864E-06 2.06977E-19 1.00480E-18
 -1      2658 9.15474E-05-1.64717E-05-3.21993E-05 5.28194E-06 2.47708E-19 1.01677E-18
 -1      2659 9.35514E-05-1.95879E-05-3.17554E-05 7.25532E-06 1.71250E-19 1.17264E-18
 -1      2660 9.27850E-05-1.83410E-05-3.19230E-05 6.62426E-06 2.06573E-19 1.08026E-18
 -1      2661 9.34011E-05-1.95890E-05-3.16059E-05 5.31322E-06 1.81218E-19 1.08453E-18
 -1      2662 9.59651E-05-2.43487E-05-3.06846E-05 6.84333E-06-6.85898E-20 1.36361E-18
 -1      2663 9.54066E-05-2.30194E-05-3.10483E-05 7.51794E-06 2.53051E-20 1.33263E-18
 -1      2664 9.56093E-05-2.49526E-05-3.02589E-05 5.22462E-06-1.59255E-19 1.34191E-18
 -1      2665 1.37766E-04-3.73442E-05-4.36189E-05-8.01968E-06 1.92075E-18-1.26102E-18
 -1      2666 1.38332E-04-4.62436E-05-3.95425E-05-2.75152E-06 8.94890E-19-1.08505E-18
 -1      2667 8.79390E-05-4.56964E-05-1.79397E-05 3.93693E-05-1.33471E-18 4.02288E-19
 -1      2668 7.12788E-05-3.59352E-05-1.47341E-05 3.80227E-05-1.04704E-18 9.77794E-19
 -1      2669 3.04229E-05-1.26194E-05-7.31434E-06 8.14355E-06-1.44011E-18 3.96729E-18
 -1      2670 3.02092E-05-1.29829E-05-6.82167E-06-6.50086E-06-1.26330E-18 4.80247E-18
 -1      2671 1.39271E-04-5.05170E-05-3.80243E-05 7.54483E-06-1.33069E-18-5.58195E-19
 -1      2672 1.37760E-04-4.11189E-05-4.20344E-05 1.35151E-05-1.55716E-18-7.84988E-19
 -1      2673 9.54921E-05-2.57131E-05-2.98757E-05-2.09927E-06 5.89436E-20 3.51565E-19
 -1      2674 9.53628E-05-2.62608E-05-2.96239E-05-1.01160E-06 8.76249E-20 3.36967E-19
 -1      2675 9.53971E-05-2.67285E-05-2.94071E-05-1.41255E-07-5.25142E-20 5.16751E-19
 -1      2676 9.53267E-05-2.70497E-05-2.92635E-05 6.01798E-07-4.36474E-20 5.13004E-19
 -1      2677 9.54886E-05-2.59689E-05-2.98006E-05-7.86730E-07 3.31919E-20 5.99510E-19
 -1      2678 9.53033E-05-2.72974E-05-2.91315E-05 1.23217E-06 4.28494E-20 3.69864E-19
 -1      2679 9.53088E-05-2.74809E-05-2.90667E-05 1.76561E-06-2.13135E-20 4.45891E-19
 -1      2680 9.55112E-05-2.68413E-05-2.94382E-05 7.86906E-07-1.02089E-19 5.85292E-19
 -1      2681 9.52774E-05-2.75953E-05-2.89990E-05 2.24892E-06-1.11552E-19 3.54206E-19
 -1      2682 9.53562E-05-2.76955E-05-2.89919E-05 2.66730E-06-1.53865E-19 3.58443E-19
 -1      2683 9.54688E-05-2.72975E-05-2.92237E-05 1.96519E-06-1.20945E-19 3.65243E-19
 -1      2684 9.53309E-05-2.77221E-05-2.89724E-05 3.07325E-06-7.36261E-20 4.14007E-19
 -1      2685 9.54737E-05-2.77676E-05-2.90090E-05 3.44499E-06-3.93841E-20 4.09799E-19
 -1      2686 9.54236E-05-2.74889E-05-2.91208E-05 2.90423E-06-1.15357E-19 3.02046E-19
 -1      2687 9.54562E-05-2.77327E-05-2.90253E-05 3.82920E-06 2.50690E-19 5.89007E-19
 -1      2688 9.56551E-05-2.77424E-05-2.90955E-05 4.20340E-06 2.86927E-19 5.03180E-19
 -1      2689 9.53898E-05-2.74972E-05-2.91011E-05 3.73301E-06 2.16691E-19 6.80581E-19
 -1      2690 9.56432E-05-2.76646E-05-2.91375E-05 4.60776E-06 1.67150E-19 5.24288E-19
 -1      2691 9.58948E-05-2.76555E-05-2.92338E-05 5.01851E-06 2.16502E-19 5.78188E-19
 -1      2692 9.53672E-05-2.73763E-05-2.91416E-05 4.55152E-06 2.89492E-19 1.06826E-18
 -1      2693 9.58868E-05-2.75526E-05-2.92921E-05 5.47293E-06 1.28580E-19 5.69752E-19
 -1      2694 9.61937E-05-2.75456E-05-2.94075E-05 5.94044E-06 1.15298E-19 3.95724E-19
 -1      2695 9.53523E-05-2.71707E-05-2.92219E-05 5.43332E-06 1.73000E-19 8.53848E-19
 -1      2696 9.61937E-05-2.74422E-05-2.94722E-05 6.46332E-06 1.25350E-19 4.22337E-19
 -1      2697 9.65671E-05-2.74691E-05-2.95991E-05 6.99210E-06 1.96568E-19 4.94911E-19
 -1      2698 9.53476E-05-2.69309E-05-2.93215E-05 6.42814E-06 1.08417E-19 5.93563E-19
 -1      2699 9.65926E-05-2.74059E-05-2.96588E-05 7.58905E-06 2.14603E-19 4.59169E-19
 -1      2700 9.70586E-05-2.75191E-05-2.97874E-05 8.16289E-06 1.72719E-19 5.12764E-19
 -1      2701 9.53733E-05-2.67315E-05-2.94177E-05 7.56195E-06 1.36818E-19 6.01401E-19
 -1      2702 9.71534E-05-2.75656E-05-2.98286E-05 8.82340E-06 1.18272E-19 4.61265E-19
 -1      2703 9.77637E-05-2.78510E-05-2.99469E-05 9.39653E-06-2.74541E-20 3.62410E-19
 -1      2704 9.54873E-05-2.66951E-05-2.94838E-05 8.83441E-06 1.57195E-19 7.49856E-19
 -1      2705 9.80199E-05-2.81227E-05-2.99553E-05 1.00868E-05-9.79310E-20 6.51658E-19
 -1      2706 9.88677E-05-2.87143E-05-3.00504E-05 1.05703E-05-6.63379E-20 8.16242E-19
 -1      2707 9.58184E-05-2.70244E-05-2.94902E-05 1.02123E-05 1.09118E-19 6.92577E-19
 -1      2708 9.94564E-05-2.93881E-05-3.00158E-05 1.12176E-05-1.14349E-19 1.15823E-18
 -1      2709 1.00692E-04-3.04727E-05-3.00810E-05 1.14599E-05-1.22875E-19 1.15133E-18
 -1      2710 9.66175E-05-2.80399E-05-2.94103E-05 1.16135E-05 8.60456E-20 8.90486E-19
 -1      2711 1.01898E-04-3.17865E-05-3.00107E-05 1.19175E-05-3.49525E-19 9.70100E-19
 -1      2712 1.03723E-04-3.35696E-05-3.00608E-05 1.16796E-05-1.59699E-19 7.74782E-19
 -1      2713 9.83245E-05-3.02041E-05-2.92390E-05 1.28670E-05-2.99726E-19 1.06201E-18
 -1      2714 1.05951E-04-3.57595E-05-3.00075E-05 1.16454E-05 3.06434E-19 4.17890E-19
 -1      2715 1.08523E-04-3.83094E-05-3.01068E-05 1.05769E-05 9.86429E-20 4.01543E-19
 -1      2716 1.01625E-04-3.40782E-05-2.90344E-05 1.36077E-05-7.38151E-20 8.02643E-19
 -1      2717 1.12177E-04-4.13814E-05-3.02175E-05 9.50056E-06-9.66445E-20 5.72101E-19
 -1      2718 1.15386E-04-4.42977E-05-3.05190E-05 7.19405E-06-1.90774E-19 9.35776E-19
 -1      2719 1.07361E-04-4.00209E-05-2.90000E-05 1.30763E-05 9.77694E-20 2.97858E-19
 -1      2720 1.20439E-04-4.75084E-05-3.11148E-05 4.21185E-06 1.11049E-19 1.30998E-18
 -1      2721 1.23474E-04-4.92346E-05-3.18943E-05 4.97865E-07 9.32252E-19 9.69165E-19
 -1      2722 1.16041E-04-4.73726E-05-2.96249E-05 9.83011E-06 3.60277E-19 1.00758E-18
 -1      2723 1.28737E-04-5.05979E-05-3.35170E-05-4.82952E-06 1.51654E-18 1.08744E-18
 -1      2724 1.29715E-04-4.81038E-05-3.50243E-05-9.20442E-06 1.39234E-18 1.27790E-18
 -1      2725 1.26692E-04-5.27428E-05-3.19076E-05 2.08340E-06 1.02410E-18 1.38114E-18
 -1      2726 1.26517E-04-2.72621E-05-4.31573E-05-1.54173E-05 9.10031E-19 9.34727E-19
 -1      2727 1.23801E-04-2.00779E-05-4.48327E-05-1.14392E-05-1.54160E-19 1.68096E-18
 -1      2728 1.21768E-04-1.57957E-05-4.59805E-05-3.71459E-06-7.98011E-19 9.40101E-19
 -1      2729 1.21188E-04-1.54778E-05-4.58406E-05 4.11145E-06-1.70169E-18 1.21665E-18
 -1      2730 1.27156E-04-1.75310E-05-4.74801E-05 9.65617E-06-2.43331E-18-5.64336E-20
 -1      2731 1.29341E-04-2.41986E-05-4.56623E-05 1.39633E-05-2.70373E-18 5.82335E-21
 -1      2732 1.29581E-04-3.82993E-05-3.92446E-05 1.54717E-05-2.01340E-18 1.07177E-18
 -1      2733 1.31186E-04-4.48486E-05-3.71373E-05 1.39122E-05-1.16729E-18 9.89229E-19
 -1      2734 1.28545E-04-4.81501E-05-3.46143E-05 8.41699E-06-6.94011E-19 7.95311E-19
 -1      2735 1.27221E-04-4.96156E-05-3.31646E-05 4.30094E-06-3.90529E-19 7.72481E-19
 -1      2736 1.32238E-04-4.98994E-05-3.55677E-05 7.78739E-06-1.12802E-18 1.01469E-18
 -1      2737 1.22366E-04-4.82444E-05-3.18621E-05-6.09810E-07-3.81893E-19 1.38297E-18
 -1      2738 1.19352E-04-4.63180E-05-3.11468E-05-4.27381E-06 8.15220E-20 7.12216E-19
 -1      2739 1.24427E-04-5.10241E-05-3.16128E-05-2.43087E-06 6.51686E-20 2.81283E-19
 -1      2740 1.14723E-04-4.32174E-05-3.06865E-05-6.94426E-06 3.35253E-19 1.29246E-18
 -1      2741 1.11605E-04-4.03780E-05-3.04171E-05-9.18544E-06 3.83253E-19 1.34839E-18
 -1      2742 1.14775E-04-4.53969E-05-2.98992E-05-9.24035E-06 2.43701E-19 9.10640E-19
 -1      2743 1.08298E-04-3.75229E-05-3.03410E-05-1.01255E-05 1.37669E-19 3.38448E-19
 -1      2744 1.05838E-04-3.51087E-05-3.02558E-05-1.11242E-05-2.88192E-19 4.03850E-19
 -1      2745 1.07023E-04-3.85983E-05-2.94471E-05-1.21378E-05-1.05241E-19 2.90016E-19
 -1      2746 1.03816E-04-3.31024E-05-3.02992E-05-1.10973E-05-5.13590E-19 6.21222E-19
 -1      2747 1.02091E-04-3.14428E-05-3.02546E-05-1.12732E-05-7.42290E-19 1.20103E-18
 -1      2748 1.01920E-04-3.32837E-05-2.94877E-05-1.26088E-05-5.02702E-19-4.99507E-19
 -1      2749 1.00973E-04-3.02458E-05-3.03001E-05-1.07782E-05-1.01171E-18 1.32206E-18
 -1      2750 9.98109E-05-2.92417E-05-3.02387E-05-1.04784E-05-1.12359E-19 7.88246E-19
 -1      2751 9.89387E-05-2.98713E-05-2.96354E-05-1.18710E-05-3.74334E-19 4.41720E-19
 -1      2752 9.92388E-05-2.86293E-05-3.02485E-05-9.78786E-06 1.60367E-19 1.04504E-18
 -1      2753 9.84452E-05-2.80827E-05-3.01591E-05-9.24894E-06-1.36435E-19 1.08454E-18
 -1      2754 9.73325E-05-2.79749E-05-2.97379E-05-1.06004E-05 1.53321E-19 8.16033E-19
 -1      2755 9.81686E-05-2.78349E-05-3.01307E-05-8.50760E-06-5.67420E-19 3.15507E-19
 -1      2756 9.76030E-05-2.75718E-05-3.00207E-05-7.87870E-06-6.51833E-19-5.32206E-19
 -1      2757 9.65133E-05-2.70851E-05-2.97571E-05-9.14579E-06-5.93351E-19 9.82996E-19
 -1      2758 9.74722E-05-2.75276E-05-2.99647E-05-7.16316E-06 1.19068E-19-1.73110E-18
 -1      2759 9.70477E-05-2.74262E-05-2.98461E-05-6.53286E-06 5.08318E-19-1.69238E-18
 -1      2760 9.61045E-05-2.67922E-05-2.97028E-05-7.68957E-06-5.21062E-19-1.47586E-18
 -1      2761 9.69823E-05-2.74828E-05-2.97749E-05-5.88203E-06 1.80818E-20-7.77762E-20
 -1      2762 9.66504E-05-2.74668E-05-2.96581E-05-5.29877E-06-8.26436E-20 9.34290E-19
 -1      2763 9.58923E-05-2.68188E-05-2.95992E-05-6.32836E-06 9.62204E-19-1.49164E-18
 -1      2764 9.66110E-05-2.75647E-05-2.95818E-05-4.72968E-06-4.99727E-19 4.13893E-19
 -1      2765 9.63454E-05-2.75900E-05-2.94736E-05-4.21623E-06 7.00448E-19-1.57407E-20
 -1      2766 9.57667E-05-2.69955E-05-2.94699E-05-5.11077E-06-1.04326E-19 1.19434E-18
 -1      2767 9.63152E-05-2.76973E-05-2.93993E-05-3.73295E-06 2.26412E-18-1.72468E-18
 -1      2768 9.61010E-05-2.77394E-05-2.93037E-05-3.29641E-06 2.30357E-18-8.72648E-19
 -1      2769 9.56766E-05-2.72264E-05-2.93332E-05-4.05626E-06 9.92384E-19-2.54415E-19
 -1      2770 9.60739E-05-2.78406E-05-2.92357E-05-2.89541E-06 1.12797E-18-1.11536E-18
 -1      2771 9.59018E-05-2.78869E-05-2.91540E-05-2.53382E-06 1.21267E-18-5.03909E-19
 -1      2772 9.56014E-05-2.74614E-05-2.92011E-05-3.16606E-06 1.83926E-18-2.33924E-18
 -1      2773 9.58764E-05-2.79756E-05-2.90943E-05-2.20749E-06 9.97972E-19-6.08728E-19
 -1      2774 9.57396E-05-2.80198E-05-2.90266E-05-1.91414E-06 6.23458E-19-1.53987E-18
 -1      2775 9.55342E-05-2.76766E-05-2.90807E-05-2.43041E-06 8.25527E-19-2.10796E-18
 -1      2776 9.57161E-05-2.80942E-05-2.89759E-05-1.65305E-06 1.07596E-18-1.31327E-18
 -1      2777 9.56089E-05-2.81336E-05-2.89209E-05-1.41919E-06 6.45077E-19-9.27093E-19
 -1      2778 9.54737E-05-2.78627E-05-2.89756E-05-1.83357E-06 8.66518E-19-2.64796E-18
 -1      2779 9.55877E-05-2.81941E-05-2.88790E-05-1.21347E-06-3.05637E-19-7.29601E-19
 -1      2780 9.55049E-05-2.82277E-05-2.88353E-05-1.02984E-06-9.21219E-19 1.07328E-19
 -1      2781 9.54203E-05-2.80177E-05-2.88866E-05-1.35725E-06 4.76638E-19-1.80316E-18
 -1      2782 9.54862E-05-2.82756E-05-2.88014E-05-8.69947E-07-1.90932E-18 1.17195E-19
 -1      2783 9.54233E-05-2.83035E-05-2.87673E-05-7.27656E-07-2.72868E-18-2.67146E-19
 -1      2784 9.53739E-05-2.81432E-05-2.88132E-05-9.82768E-07-1.16266E-18-7.36392E-19
 -1      2785 9.54069E-05-2.83404E-05-2.87403E-05-6.05452E-07-2.56898E-18 1.79484E-19
 -1      2786 9.53594E-05-2.83625E-05-2.87142E-05-4.96657E-07-1.43072E-18 7.77078E-19
 -1      2787 9.53343E-05-2.82426E-05-2.87537E-05-6.92633E-07-2.10950E-18 2.80760E-19
 -1      2788 9.53451E-05-2.83910E-05-2.86928E-05-4.03565E-07-9.01969E-19 1.50234E-18
 -1      2789 9.53110E-05-2.84082E-05-2.86729E-05-3.23076E-07-3.00375E-19 1.14745E-18
 -1      2790 9.52998E-05-2.83191E-05-2.87062E-05-4.71026E-07-7.11821E-19 1.80485E-18
 -1      2791 9.52970E-05-2.84131E-05-2.86634E-05-2.83478E-07 7.34207E-20 4.40710E-19
 -1      2792 9.52723E-05-2.84200E-05-2.86506E-05-2.34331E-07-1.17302E-19 1.12041E-18
 -1      2793 9.52453E-05-2.83806E-05-2.86573E-05-2.57151E-07-1.91806E-19 1.55742E-18
 -1      2794 9.52690E-05-2.83598E-05-2.86757E-05-3.34997E-07-1.15959E-18 1.36375E-18
 -1      2795 9.52211E-05-2.73829E-05-2.90729E-05-1.10484E-06 2.08375E-20 1.00661E-18
 -1      2796 9.52586E-05-2.71370E-05-2.91752E-05-4.98291E-07 2.05720E-20 1.01836E-18
 -1      2797 9.52537E-05-2.77247E-05-2.89373E-05-2.07177E-06-3.72839E-20 1.08164E-18
 -1      2798 9.52009E-05-2.75691E-05-2.89729E-05-1.63766E-06-1.16052E-20 1.04598E-18
 -1      2799 9.54608E-05-2.72302E-05-2.92508E-05-1.28995E-06 1.28525E-20 7.26878E-19
 -1      2800 9.52732E-05-2.67970E-05-2.93501E-05 2.40925E-07-1.84751E-20 1.03917E-18
 -1      2801 9.54050E-05-2.63995E-05-2.95464E-05 1.12990E-06-5.74990E-20 1.09235E-18
 -1      2802 9.54800E-05-2.65732E-05-2.95405E-05 5.76776E-08 3.87184E-20 8.16137E-19
 -1      2803 9.56209E-05-2.80563E-05-2.89491E-05-3.44385E-06 9.44127E-20 1.08667E-18
 -1      2804 9.54179E-05-2.79745E-05-2.89013E-05-3.15299E-06 1.15867E-19 1.18457E-18
 -1      2805 9.59580E-05-2.81619E-05-2.90475E-05-4.02708E-06-1.15186E-19 1.21066E-18
 -1      2806 9.56890E-05-2.80811E-05-2.89741E-05-3.75340E-06-1.14336E-19 1.23335E-18
 -1      2807 9.56031E-05-2.78783E-05-2.90306E-05-3.76651E-06-1.37262E-19 1.16368E-18
 -1      2808 9.64080E-05-2.82942E-05-2.91836E-05-4.59936E-06 8.75335E-20 1.65087E-18
 -1      2809 9.60713E-05-2.81904E-05-2.90922E-05-4.33166E-06-5.66935E-20 1.17884E-18
 -1      2810 9.57889E-05-2.79406E-05-2.90831E-05-4.41371E-06-7.91865E-20 1.21397E-18
 -1      2811 9.69941E-05-2.85119E-05-2.93421E-05-5.15956E-06 2.46666E-19 1.69017E-18
 -1      2812 9.65817E-05-2.83560E-05-2.92397E-05-4.90530E-06 3.64174E-19 1.57787E-18
 -1      2813 9.60778E-05-2.80379E-05-2.91654E-05-5.05495E-06 1.62880E-19 1.56631E-18
 -1      2814 9.77559E-05-2.88890E-05-2.95088E-05-5.66705E-06-1.58816E-19 2.06964E-18
 -1      2815 9.72537E-05-2.86445E-05-2.94024E-05-5.45470E-06-1.15105E-19 1.73377E-18
 -1      2816 9.65103E-05-2.82487E-05-2.92616E-05-5.68768E-06 6.61874E-21 1.54046E-18
 -1      2817 9.87526E-05-2.95165E-05-2.96705E-05-6.03481E-06-1.08014E-19 2.04894E-18
 -1      2818 9.81410E-05-2.91399E-05-2.95670E-05-5.91717E-06-6.12127E-20 2.48974E-18
 -1      2819 9.71513E-05-2.86716E-05-2.93576E-05-6.26951E-06-2.96867E-19 1.78780E-18
 -1      2820 1.00062E-04-3.04964E-05-2.98173E-05-6.12131E-06-2.85042E-19 1.71688E-18
 -1      2821 9.93193E-05-2.99428E-05-2.97223E-05-6.17834E-06-5.47050E-20 1.66375E-18
 -1      2822 9.80959E-05-2.94270E-05-2.94429E-05-6.71011E-06 8.74052E-20 1.43846E-18
 -1      2823 1.01766E-04-3.19150E-05-2.99484E-05-5.72554E-06-2.62283E-19 1.33096E-18
 -1      2824 1.00880E-04-3.11549E-05-2.98638E-05-6.06310E-06-3.75621E-19 1.34097E-18
 -1      2825 9.94705E-05-3.06468E-05-2.95155E-05-6.85976E-06-1.08576E-19 1.26243E-18
 -1      2826 1.03915E-04-3.37812E-05-3.00816E-05-4.59435E-06-2.82227E-19 1.63810E-18
 -1      2827 1.02903E-04-3.28373E-05-3.00006E-05-5.33226E-06-5.07725E-19 1.73121E-18
 -1      2828 1.01416E-04-3.24366E-05-2.95896E-05-6.49693E-06-5.04526E-19 8.31271E-19
 -1      2829 1.06440E-04-3.59099E-05-3.02651E-05-2.46371E-06-1.27976E-19 1.89807E-18
 -1      2830 1.05394E-04-3.49209E-05-3.01674E-05-3.70051E-06-9.50281E-20 1.70406E-18
 -1      2831 1.04032E-04-3.47890E-05-2.97090E-05-5.32328E-06-2.54686E-19 1.11746E-18
 -1      2832 1.09023E-04-3.77663E-05-3.05856E-05 8.12383E-07-3.29765E-19 2.09743E-18
 -1      2833 1.08153E-04-3.70569E-05-3.04346E-05-9.19859E-07-8.87199E-20 2.33724E-18
 -1      2834 1.07252E-04-3.74179E-05-2.99613E-05-2.99848E-06-4.22159E-19 1.77070E-18
 -1      2835 1.10991E-04-3.83808E-05-3.11564E-05 5.00047E-06-4.44153E-19 2.01056E-18
 -1      2836 1.10628E-04-3.84706E-05-3.09067E-05 3.00854E-06-4.06106E-19 2.29259E-18
 -1      2837 1.10643E-04-3.95578E-05-3.04797E-05 6.94913E-07-4.87812E-19 2.38694E-18
 -1      2838 1.11406E-04-3.65761E-05-3.20741E-05 9.10570E-06 1.20396E-20 1.71084E-18
 -1      2839 1.11877E-04-3.79852E-05-3.16938E-05 7.46467E-06-2.84181E-19 1.91969E-18
 -1      2840 1.13241E-04-3.98830E-05-3.14164E-05 5.49631E-06-2.87745E-19 2.36495E-18
 -1      2841 1.09618E-04-3.18367E-05-3.32984E-05 1.11872E-05 3.88345E-19 2.42676E-18
 -1      2842 1.10958E-04-3.45685E-05-3.28295E-05 1.08442E-05 3.55484E-19 2.04617E-18
 -1      2843 1.13768E-04-3.69840E-05-3.28652E-05 1.00948E-05-5.40364E-20 2.30595E-18
 -1      2844 1.06378E-04-2.56373E-05-3.45322E-05 9.16373E-06 3.41262E-19 2.89851E-18
 -1      2845 1.07940E-04-2.86586E-05-3.41071E-05 1.08179E-05 2.66798E-19 2.54785E-18
 -1      2846 1.11543E-04-3.05854E-05-3.46615E-05 1.19294E-05 2.35564E-19 2.68878E-18
 -1      2847 1.04016E-04-2.17388E-05-3.52566E-05 2.49148E-06 9.59530E-20 2.50655E-18
 -1      2848 1.04583E-04-2.30416E-05-3.50858E-05 5.79970E-06 6.74410E-19 2.77285E-18
 -1      2849 1.07645E-04-2.30293E-05-3.62600E-05 8.65094E-06 3.24692E-19 2.39054E-18
 -1      2850 1.04509E-04-2.27329E-05-3.51249E-05-5.45809E-06-3.14560E-20 1.10635E-18
 -1      2851 1.03860E-04-2.15536E-05-3.52752E-05-1.95762E-06 4.73611E-20 1.51627E-18
 -1      2852 1.06052E-04-2.01496E-05-3.69004E-05 3.78501E-07 6.85329E-19 1.61202E-18
 -1      2853 1.07659E-04-2.81409E-05-3.42046E-05-1.06576E-05 2.68657E-19 6.79370E-19
 -1      2854 1.06140E-04-2.52397E-05-3.46081E-05-8.79521E-06-3.88312E-20 5.72708E-19
 -1      2855 1.07590E-04-2.29519E-05-3.63246E-05-8.01384E-06 1.24547E-19 5.24869E-19
 -1      2856 1.10795E-04-3.41488E-05-3.29433E-05-1.10710E-05 2.06840E-19 1.17741E-18
 -1      2857 1.09434E-04-3.13669E-05-3.34078E-05-1.12729E-05 4.24228E-19 8.64809E-19
 -1      2858 1.11246E-04-3.00283E-05-3.47923E-05-1.19005E-05 3.80106E-20 4.34621E-19
 -1      2859 1.11919E-04-3.77939E-05-3.18079E-05-7.92621E-06 3.28263E-19 5.04961E-19
 -1      2860 1.11374E-04-3.62693E-05-3.21893E-05-9.49518E-06 5.29101E-19 1.33752E-18
 -1      2861 1.13679E-04-3.65547E-05-3.30155E-05-1.04476E-05 3.03714E-19 1.27038E-19
 -1      2862 1.10835E-04-3.84801E-05-3.09999E-05-3.52021E-06-7.90962E-19 1.13778E-18
 -1      2863 1.11145E-04-3.83050E-05-3.12547E-05-5.50263E-06-2.69624E-19 4.33222E-19
 -1      2864 1.13396E-04-3.97461E-05-3.15460E-05-6.02828E-06 5.17848E-20 7.45343E-19
 -1      2865 1.08433E-04-3.71463E-05-3.05187E-05 4.25863E-07 5.25663E-19 1.61839E-18
 -1      2866 1.09277E-04-3.78217E-05-3.06682E-05-1.31571E-06-1.60488E-19 1.15342E-18
 -1      2867 1.10914E-04-3.95990E-05-3.05741E-05-1.22507E-06-5.61833E-19 5.86327E-19
 -1      2868 1.05700E-04-3.50171E-05-3.02571E-05 3.21837E-06-5.46776E-19 9.06534E-19
 -1      2869 1.06729E-04-3.60008E-05-3.03478E-05 1.97668E-06 4.97453E-19 1.46790E-18
 -1      2870 1.07544E-04-3.74973E-05-3.00420E-05 2.50000E-06 4.83988E-19 1.04223E-18
 -1      2871 1.03218E-04-3.29064E-05-3.01051E-05 4.83973E-06-7.14664E-19 3.36109E-19
 -1      2872 1.04214E-04-3.38597E-05-3.01753E-05 4.10856E-06-1.05250E-18 4.12642E-19
 -1      2873 1.04305E-04-3.48529E-05-2.97916E-05 4.83260E-06-3.64158E-19 3.27696E-19
 -1      2874 1.01199E-04-3.11781E-05-2.99889E-05 5.52626E-06-4.45672E-19 4.54816E-19
 -1      2875 1.02065E-04-3.19543E-05-3.00601E-05 5.21407E-06-4.48232E-19-2.03494E-19
 -1      2876 1.01654E-04-3.24495E-05-2.96819E-05 5.98531E-06-7.68195E-19-1.63994E-18
 -1      2877 9.96526E-05-2.99236E-05-2.98714E-05 5.56094E-06-4.45410E-20 8.40942E-19
 -1      2878 1.00366E-04-3.04904E-05-2.99514E-05 5.54623E-06 1.31617E-19 7.66878E-19
 -1      2879 9.96736E-05-3.05941E-05-2.96224E-05 6.28704E-06-4.37232E-19-1.05785E-18
 -1      2880 9.85020E-05-2.90912E-05-2.97407E-05 5.19166E-06-6.96904E-19 2.41728E-18
 -1      2881 9.90759E-05-2.94737E-05-2.98287E-05 5.36455E-06-2.53123E-19 1.85300E-18
 -1      2882 9.82760E-05-2.93163E-05-2.95657E-05 6.04247E-06-6.03699E-19 1.65420E-19
 -1      2883 9.76536E-05-2.85835E-05-2.95984E-05 4.60494E-06 1.41255E-18 1.39008E-18
 -1      2884 9.81106E-05-2.88244E-05-2.96899E-05 4.87962E-06 5.31800E-19 2.07710E-18
 -1      2885 9.73194E-05-2.85185E-05-2.94938E-05 5.48463E-06 5.25949E-19 2.08396E-18
 -1      2886 9.70269E-05-2.83042E-05-2.94517E-05 3.93042E-06 3.65565E-19 2.18761E-18
 -1      2887 9.73893E-05-2.84447E-05-2.95417E-05 4.24602E-06 1.06126E-18 2.11455E-18
 -1      2888 9.66735E-05-2.80742E-05-2.94048E-05 4.77673E-06 8.87339E-19 3.03828E-18
 -1      2889 9.65610E-05-2.81751E-05-2.93086E-05 3.25209E-06-9.75543E-19 3.42742E-18
 -1      2890 9.68474E-05-2.82484E-05-2.93928E-05 3.56884E-06-3.35804E-19 2.15756E-18
 -1      2891 9.62379E-05-2.78693E-05-2.93044E-05 4.02722E-06-4.18136E-19 4.17711E-18
 -1      2892 9.62120E-05-2.81386E-05-2.91753E-05 2.61999E-06-1.64043E-18 4.08287E-18
 -1      2893 9.64373E-05-2.81692E-05-2.92510E-05 2.91424E-06-1.28549E-18 3.45163E-18
 -1      2894 9.59418E-05-2.78151E-05-2.91997E-05 3.30394E-06-1.64287E-18 4.57540E-18
 -1      2895 9.59495E-05-2.81548E-05-2.90560E-05 2.06013E-06-1.43802E-18 4.22725E-18
 -1      2896 9.61253E-05-2.81600E-05-2.91217E-05 2.31978E-06-1.21355E-18 4.82889E-18
 -1      2897 9.57376E-05-2.78481E-05-2.90975E-05 2.64569E-06-1.51466E-18 4.20531E-18
 -1      2898 9.57515E-05-2.81978E-05-2.89527E-05 1.58243E-06-6.98163E-19 3.09897E-18
 -1      2899 9.58874E-05-2.81889E-05-2.90080E-05 1.80306E-06-1.36059E-18 3.34960E-18
 -1      2900 9.55943E-05-2.79258E-05-2.90024E-05 2.07112E-06-1.01513E-18 3.97371E-18
 -1      2901 9.56024E-05-2.82512E-05-2.88658E-05 1.18662E-06 1.21957E-18 1.62516E-18
 -1      2902 9.57063E-05-2.82356E-05-2.89112E-05 1.36866E-06 1.23165E-18 2.90709E-18
 -1      2903 9.54919E-05-2.80209E-05-2.89175E-05 1.58551E-06 4.50140E-19 2.59779E-18
 -1      2904 9.54905E-05-2.83053E-05-2.87945E-05 8.66509E-07 8.46924E-19 6.32198E-19
 -1      2905 9.55689E-05-2.82875E-05-2.88308E-05 1.01314E-06 7.98524E-19 8.82518E-19
 -1      2906 9.54175E-05-2.81172E-05-2.88441E-05 1.18577E-06 1.38594E-18 2.39462E-18
 -1      2907 9.54066E-05-2.83545E-05-2.87373E-05 6.12990E-07 1.66366E-18 7.56624E-19
 -1      2908 9.54650E-05-2.83373E-05-2.87658E-05 7.28701E-07 8.01626E-19 6.18295E-19
 -1      2909 9.53623E-05-2.82055E-05-2.87824E-05 8.64121E-07 1.56471E-18 1.05592E-19
 -1      2910 9.53438E-05-2.83966E-05-2.86920E-05 4.15660E-07 5.39268E-19 7.47467E-19
 -1      2911 9.53866E-05-2.83811E-05-2.87141E-05 5.05304E-07 1.58525E-18 1.63547E-19
 -1      2912 9.53199E-05-2.82813E-05-2.87316E-05 6.10511E-07 2.16861E-18 9.36905E-19
 -1      2913 9.52938E-05-2.84269E-05-2.86574E-05 2.69350E-07 1.16820E-18 5.98845E-19
 -1      2914 9.53250E-05-2.84134E-05-2.86744E-05 3.37944E-07 3.97978E-19 7.15153E-19
 -1      2915 9.52836E-05-2.83401E-05-2.86913E-05 4.17916E-07 3.65052E-19 2.14376E-19
 -1      2916 9.52541E-05-2.83858E-05-2.86592E-05 2.74328E-07 4.76648E-19 1.44185E-19
 -1      2917 9.50990E-05-2.81880E-05-2.86776E-05 2.88087E-07 3.45796E-19-3.91462E-19
 -1      2918 9.51404E-05-2.82362E-05-2.86727E-05 2.94902E-07 5.11706E-19 6.13399E-19
 -1      2919 9.49567E-05-2.80185E-05-2.86893E-05 1.46554E-07 3.53619E-19-1.99525E-18
 -1      2920 9.49813E-05-2.80449E-05-2.86869E-05 1.90679E-07 5.37458E-19-1.98750E-18
 -1      2921 9.51778E-05-2.82850E-05-2.86697E-05 2.98880E-07 2.88056E-19 1.63930E-18
 -1      2922 9.52178E-05-2.83359E-05-2.86633E-05 2.85622E-07 4.53735E-19 1.91369E-18
 -1      2923 9.52308E-05-2.83110E-05-2.86780E-05 3.50729E-07 8.44234E-19 1.55827E-18
 -1      2924 9.51447E-05-2.82104E-05-2.86846E-05 3.56072E-07 6.22440E-19 8.59299E-19
 -1      2925 9.50162E-05-2.80891E-05-2.86847E-05 2.36534E-07 2.53263E-19-2.07457E-18
 -1      2926 9.50531E-05-2.81294E-05-2.86810E-05 2.64662E-07 4.59201E-19-2.00936E-18
 -1      2927 9.50478E-05-2.81009E-05-2.86904E-05 3.26025E-07 3.85934E-19-1.18779E-18
 -1      2928 9.49544E-05-2.79959E-05-2.86953E-05 2.50313E-07 1.25566E-18-2.26686E-18
 -1      2929 9.49367E-05-2.79920E-05-2.86911E-05-8.71265E-08-1.66447E-18 1.30334E-18
 -1      2930 9.49281E-05-2.79833E-05-2.86917E-05-3.38531E-08-1.80262E-18 1.16392E-18
 -1      2931 9.49795E-05-2.80396E-05-2.86885E-05-1.91472E-07-1.78801E-18-7.21307E-19
 -1      2932 9.49552E-05-2.80142E-05-2.86904E-05-1.47625E-07-2.18234E-18 1.22438E-18
 -1      2933 9.48909E-05-2.79213E-05-2.86995E-05-1.35461E-07-1.72357E-18 6.27856E-19
 -1      2934 9.50521E-05-2.81230E-05-2.86832E-05-2.66716E-07-9.99178E-19-1.53400E-18
 -1      2935 9.50148E-05-2.80832E-05-2.86867E-05-2.38307E-07-8.73880E-19-7.49315E-19
 -1      2936 9.49524E-05-2.79879E-05-2.86976E-05-2.50845E-07-1.59806E-18 1.69574E-19
 -1      2937 9.51416E-05-2.82315E-05-2.86751E-05-2.96811E-07-1.60886E-18 1.46942E-19
 -1      2938 9.50992E-05-2.81828E-05-2.86800E-05-2.90444E-07-7.02933E-19-1.51185E-18
 -1      2939 9.50466E-05-2.80931E-05-2.86933E-05-3.28095E-07-1.14746E-18-9.90917E-19
 -1      2940 1.15408E-04-5.70727E-05-2.53306E-05 2.90029E-05-1.59655E-18-1.06192E-18
 -1      2941 1.01537E-04-5.19405E-05-2.09008E-05 3.50013E-05-1.74298E-18-1.86797E-19
 -1      2942 9.83201E-05-4.80654E-05-2.11659E-05 3.30208E-05-1.44742E-18-7.01899E-19
 -1      2943 5.19449E-05-2.44719E-05-1.14880E-05 3.21324E-05-6.35063E-19 1.47913E-18
 -1      2944 3.87759E-05-1.66022E-05-8.79172E-06 2.10381E-05-1.30252E-18 2.45089E-18
 -1      2945 3.86720E-05-1.68500E-05-8.86595E-06 1.99905E-05-1.54531E-19 3.09167E-20
 -1      2946 3.27163E-05-1.25044E-05-8.21496E-06 5.46438E-06-7.89527E-20-6.41416E-19
 -1      2947 6.24176E-05-3.32125E-05-1.19511E-05-3.59720E-05-7.65718E-19-4.99855E-19
 -1      2948 8.04063E-05-4.33827E-05-1.58549E-05-3.92566E-05-9.73029E-20-4.28281E-19
 -1      2949 1.35172E-04-5.47000E-05-3.44351E-05-7.27674E-06-6.08143E-19 7.98540E-19
 -1      2950 1.38098E-04-4.90394E-05-3.87259E-05 3.10854E-07-2.81056E-19 9.65406E-19
 -1      2951 1.39541E-04-3.24213E-05-4.66244E-05-1.37314E-05 3.27061E-19 8.40680E-19
 -1      2952 1.42758E-04-4.23394E-05-4.32930E-05-1.09531E-05 6.24581E-19 1.40978E-18
 -1      2953 1.37595E-04-4.04970E-05-4.17979E-05 7.65048E-06 5.43478E-19 2.03966E-18
 -1      2954 1.32810E-04-2.99978E-05-4.46754E-05 1.19082E-05 9.46559E-19 2.74841E-18
 -1      2955 5.64471E-05-2.74507E-05-1.20473E-05-3.40315E-05-8.20775E-19-1.36192E-18
 -1      2956 7.09334E-05-3.74007E-05-1.40775E-05-4.01960E-05-1.23826E-18-1.09966E-18
 -1      2957 9.49284E-05-2.79843E-05-2.86914E-05 3.25903E-08-8.31958E-19 9.25793E-19
 -1      2958 9.49372E-05-2.79939E-05-2.86905E-05 8.57458E-08 1.36442E-19-2.73640E-19
 -1      2959 9.48700E-05-2.78998E-05-2.86997E-05 2.09788E-10-1.08263E-18 3.61304E-19
 -1      2960 9.52955E-05-2.38407E-05-3.06113E-05-4.85376E-06 7.99718E-21 4.00688E-19
 -1      2961 9.52726E-05-2.48421E-05-3.02024E-05-3.26428E-06-3.39409E-20 3.80409E-19
 -1      2962 9.52775E-05-2.44849E-05-3.03516E-05-2.91246E-06 5.26443E-20 3.46052E-19
 -1      2963 3.52988E-05-1.66465E-05-7.48995E-06-1.81601E-05-2.53051E-19 3.35362E-18
 -1      2964 4.62241E-05-2.35263E-05-9.43549E-06-2.98140E-05-8.71597E-19 1.26483E-18
 -1      2965 1.24607E-04-8.53119E-06-5.03465E-05-2.24209E-06 1.81964E-18 3.23805E-19
 -1      2966 1.31282E-04-1.13768E-05-5.18004E-05-6.12717E-06 3.08214E-18-3.82118E-19
 -1      2967 1.26959E-04-1.53509E-05-4.82804E-05-8.64495E-06 3.03640E-18 2.02706E-19
 -1      2968 1.35924E-04-5.48841E-05-3.53053E-05 7.25092E-06-2.46963E-19-3.87200E-19
 -1      2969 1.28153E-04-5.77062E-05-2.99487E-05 1.69832E-05-1.29930E-18-8.22045E-19
 -1      2970 3.32248E-05-1.24628E-05-8.20907E-06-7.26096E-06-2.65935E-19-7.73976E-19
 -1      2971 4.12456E-05-1.68625E-05-1.00854E-05-2.11154E-05-7.07325E-19-7.22096E-19
 -1      2972 4.09558E-05-1.27078E-05-1.15269E-05 2.90939E-07-4.96530E-19-6.99755E-19
 -1      2973 1.18645E-04-5.74648E-05-2.59049E-05-2.61767E-05-1.31227E-18 9.34489E-19
 -1      2974 1.28658E-04-5.84858E-05-3.04544E-05-1.79808E-05-1.23222E-18 4.99485E-19
 -1      2975 1.26440E-04-1.79179E-05-4.69946E-05 1.06879E-05 9.78323E-20 2.26772E-18
 -1      2976 1.23422E-04-1.08261E-05-4.88881E-05 5.86503E-06 8.40680E-20 1.19241E-18
 -1      2977 8.67248E-05-4.57254E-05-1.71464E-05-3.91292E-05-1.34085E-18 2.12076E-19
 -1      2978 1.04440E-04-5.38649E-05-2.18519E-05-3.55291E-05-1.15504E-18 9.82320E-19
 -1      2979 8.47824E-05-4.17899E-05-1.79902E-05-3.63889E-05-1.63668E-18 1.22396E-19
 -1      2980 1.28701E-04-5.95030E-05-2.95000E-05-1.51866E-05-5.27913E-19 5.42472E-19
 -1      2981 1.36911E-04-5.80638E-05-3.42587E-05-4.50017E-06-8.26095E-19-4.23516E-22
 -1      2982 9.10644E-05-1.57485E-05-3.23053E-05 4.59842E-06 2.66441E-19 1.05869E-18
 -1      2983 9.06839E-05-1.52118E-05-3.23682E-05 3.71645E-06 2.32789E-19 9.12847E-19
 -1      2984 9.15900E-05-1.67204E-05-3.20705E-05 2.91117E-06 1.44241E-19 9.46425E-19
 -1      2985 9.23508E-05-1.78826E-05-3.18947E-05 4.23474E-06 1.50166E-19 1.03912E-18
 -1      2986 6.68749E-05-3.56525E-05-1.31999E-05 3.78865E-05 7.37130E-19-6.19816E-19
 -1      2987 4.95207E-05-2.49911E-05-1.00387E-05 3.02387E-05 2.54110E-19-1.61148E-19
 -1      2988 9.92269E-05-5.23431E-05-2.02749E-05 3.61085E-05 1.66548E-18-5.77835E-19
 -1      2989 8.42431E-05-4.47647E-05-1.64366E-05 3.76928E-05 1.31375E-18-7.81864E-19
 -1      2990 1.29546E-04-6.03803E-05-3.00343E-05 1.60941E-05 1.72916E-18 1.26547E-18
 -1      2991 1.15574E-04-5.77555E-05-2.43387E-05 2.78030E-05 1.69216E-18-2.11970E-19
 -1      2992 9.29003E-05-1.79052E-05-3.21391E-05-8.47970E-06 5.40033E-20 4.08435E-19
 -1      2993 9.06490E-05-1.51592E-05-3.23759E-05-3.65443E-06 1.21305E-19 3.61772E-19
 -1      2994 9.10208E-05-1.56829E-05-3.23145E-05-4.53955E-06 1.17027E-19 2.66703E-19
 -1      2995 9.53867E-05-2.79274E-05-2.89053E-05-2.81528E-06 4.38397E-20 1.07723E-18
 -1      2996 9.52541E-05-2.78220E-05-2.88927E-05-2.47779E-06-3.66240E-20 1.11658E-18
 -1      2997 9.54545E-05-2.75951E-05-2.90906E-05-2.28930E-06-1.90768E-20 7.72702E-19
 -1      2998 9.54965E-05-2.77848E-05-2.90260E-05-3.08065E-06 1.02826E-19 9.55200E-19
 -1      2999 9.80147E-05-5.11645E-05-1.96025E-05-3.53928E-05-3.29072E-19-9.90367E-19
 -1      3000 1.14309E-04-5.69566E-05-2.46606E-05-2.75522E-05 2.01170E-21-1.21633E-18
 -1      3001 1.33846E-04-1.61186E-05-5.10559E-05-8.72079E-06-6.21299E-19 6.72650E-19
 -1      3002 1.36829E-04-2.42255E-05-4.87610E-05-1.40648E-05 2.13029E-19 7.52801E-19
 -1      3003 9.09765E-05-1.58138E-05-3.21985E-05 2.45449E-08 1.15125E-19 6.39725E-19
 -1      3004 8.99198E-05-1.41178E-05-3.25066E-05-3.49215E-07 1.52757E-19 6.10224E-19
 -1      3005 8.99860E-05-1.42066E-05-3.24967E-05-1.24536E-06 1.47310E-19 5.88600E-19
 -1      3006 9.45589E-05-2.13304E-05-3.13785E-05 7.51397E-06 9.94139E-20 1.24595E-18
 -1      3007 1.34950E-04-3.24502E-05-4.42893E-05-1.11795E-05 2.03584E-18-7.47930E-19
 -1      3008 1.31472E-04-3.68229E-05-4.06816E-05-1.11813E-05 1.82112E-18-1.34879E-18
 -1      3009 1.29213E-04-2.65678E-05-4.45617E-05-1.28676E-05 2.45068E-18-4.03823E-19
 -1      3010 5.11162E-05-2.10818E-05-1.22308E-05-2.71720E-05-6.32522E-19-1.63424E-18
 -1      3011 6.24802E-05-2.61750E-05-1.52290E-05-2.99900E-05-9.20884E-19-1.25096E-18
 -1      3012 4.86140E-05-1.63511E-05-1.35082E-05-1.86911E-05-6.36651E-19-8.79326E-19
 -1      3013 7.79279E-05-3.51442E-05-1.83632E-05 3.30705E-05-1.21253E-18-3.24890E-19
 -1      3014 6.56590E-05-3.01138E-05-1.47050E-05 3.41443E-05-7.18390E-19 1.16742E-18
 -1      3015 6.08095E-05-2.37127E-05-1.55751E-05 2.81968E-05-1.36663E-18 1.46198E-18
 -1      3016 4.03088E-05-1.44535E-05-1.03867E-05-1.19057E-05-4.80744E-19 2.79870E-18
 -1      3017 1.31639E-04-3.30044E-05-4.27272E-05 1.68424E-05-2.03764E-18 2.44898E-19
 -1      3018 1.35437E-04-4.77499E-05-3.78069E-05-9.99295E-06 1.49567E-18 1.01935E-18
 -1      3019 1.31832E-04-4.17531E-05-3.90052E-05-1.50414E-05 1.27555E-18 1.15546E-18
 -1      3020 1.29561E-04-3.35961E-05-4.13569E-05-1.64465E-05 1.14402E-18 9.45183E-19
 -1      3021 1.13716E-04-5.37908E-05-2.53270E-05-2.35926E-05-7.85623E-20 3.74442E-19
 -1      3022 1.22698E-04-5.86572E-05-2.73750E-05-2.05053E-05-8.23210E-20 9.80374E-19
 -1      3023 1.25696E-04-5.69103E-05-2.96540E-05-1.17497E-05-4.39345E-19 1.80283E-18
 -1      3024 9.16767E-05-4.57903E-05-1.92582E-05-3.42614E-05 5.17749E-20-6.31357E-19
 -1      3025 9.48927E-05-2.79260E-05-2.86983E-05 1.36319E-07 8.66945E-19-1.01456E-18
 -1      3026 9.14949E-05-1.63954E-05-3.22111E-05-5.22692E-06 6.54679E-20 2.78818E-19
 -1      3027 9.20160E-05-1.71988E-05-3.21133E-05-6.05987E-06 2.67301E-20 3.44661E-19
 -1      3028 9.23079E-05-1.78064E-05-3.19077E-05-4.18861E-06 8.35018E-20 3.11821E-19
 -1      3029 1.36041E-04-5.74807E-05-3.35558E-05 2.88983E-06 1.53930E-18 1.68771E-18
 -1      3030 1.28751E-04-5.68295E-05-3.07921E-05 8.57021E-06 1.49581E-18 1.27792E-18
 -1      3031 5.17540E-05-2.09948E-05-1.26056E-05 2.37048E-05 8.30622E-20-1.33408E-19
 -1      3032 1.27160E-04-2.46444E-05-4.43770E-05 1.27685E-05 4.84397E-19 2.47503E-18
 -1      3033 1.19229E-04-1.92959E-05-4.32076E-05 1.20016E-05-2.78462E-19 2.55338E-18
 -1      3034 1.25812E-04-3.06205E-05-4.10862E-05 1.26237E-05 5.68465E-19 2.76268E-18
 -1      3035 1.22190E-04-5.64704E-05-2.79861E-05 1.93633E-05-1.60470E-18-9.36501E-19
 -1      3036 9.52140E-05-2.83299E-05-2.86643E-05-2.79623E-07-2.89918E-19 2.95989E-18
 -1      3037 9.51798E-05-2.82870E-05-2.86696E-05-2.90073E-07-1.36486E-18 2.94533E-18
 -1      3038 9.51403E-05-2.82091E-05-2.86849E-05-3.45081E-07-1.11159E-18 2.22147E-18
 -1      3039 9.52226E-05-2.83183E-05-2.86730E-05-3.16481E-07-1.73584E-18 2.08749E-18
 -1      3040 9.54127E-05-2.54225E-05-3.00035E-05 1.92590E-06-1.56674E-19 9.96476E-19
 -1      3041 9.53572E-05-2.57413E-05-2.98282E-05 2.19658E-06-1.95289E-19 1.10819E-18
 -1      3042 1.20973E-04-1.07219E-05-4.77475E-05 2.70608E-06 4.86832E-19 1.72051E-18
 -1      3043 1.17231E-04-1.10137E-05-4.59519E-05-1.40773E-06 1.56426E-18 2.26258E-18
 -1      3044 1.16466E-04-1.32563E-05-4.44777E-05 6.25256E-06-3.88259E-19 4.10046E-18
 -1      3045 9.53608E-05-2.54359E-05-2.99445E-05 2.96094E-06-1.54424E-19 1.12956E-18
 -1      3046 1.34342E-04-4.48309E-05-3.85174E-05 6.18553E-06-3.38813E-21 2.16872E-18
 -1      3047 1.34487E-04-3.07293E-05-4.47881E-05-1.51834E-05 6.76991E-19 1.11681E-18
 -1      3048 1.30691E-04-5.59716E-05-3.19682E-05-9.44499E-06-1.24696E-18 7.66300E-19
 -1      3049 6.03172E-05-2.78405E-05-1.33090E-05-3.07892E-05-4.31140E-19 6.59627E-20
 -1      3050 1.32421E-04-1.37708E-05-5.13892E-05 4.79367E-06-2.29927E-18-7.76478E-19
 -1      3051 1.35046E-04-5.31884E-05-3.51933E-05 3.58332E-06-1.29275E-18 6.58780E-19
 -1      3052 9.48088E-05-2.22912E-05-3.10477E-05 5.93145E-06 2.59553E-20 1.14603E-18
 -1      3053 9.01320E-05-1.44203E-05-3.24691E-05-2.01144E-06 1.87236E-19 6.98265E-19
 -1      3054 9.03442E-05-1.47098E-05-3.24363E-05-2.90784E-06 8.60769E-20 5.75180E-19
 -1      3055 9.15593E-05-1.66693E-05-3.20786E-05-2.85713E-06 1.12930E-19 4.68672E-19
 -1      3056 9.11172E-05-1.60183E-05-3.21705E-05-1.43417E-06 1.33434E-19 6.32315E-19
 -1      3057 1.32446E-04-1.20469E-05-5.22395E-05-1.82410E-06-1.95898E-18 6.34163E-19
 -1      3058 4.17116E-05-1.44246E-05-1.10496E-05 1.33269E-05-1.48247E-18 3.39184E-18
 -1      3059 1.34532E-04-5.02894E-05-3.62034E-05-6.59985E-07 6.82325E-20-6.43110E-19
 -1      3060 1.12810E-04-5.49085E-05-2.45990E-05-2.76959E-05-1.66791E-18 1.39141E-18
 -1      3061 1.10082E-04-5.41838E-05-2.36201E-05 2.81463E-05 1.74955E-18 1.02458E-19
 -1      3062 7.94302E-05-3.89814E-05-1.68329E-05 3.49483E-05 1.05350E-18-3.12979E-19
 -1      3063 9.28888E-05-1.84578E-05-3.18964E-05-6.67709E-06-3.15305E-20 2.76083E-19
 -1      3064 9.43008E-05-2.08545E-05-3.15143E-05-7.34860E-06-3.17009E-20 4.36535E-19
 -1      3065 9.48226E-05-2.26463E-05-3.09354E-05-5.61614E-06 1.61850E-20 4.43787E-19
 -1      3066 9.35213E-05-1.97737E-05-3.15745E-05-5.31510E-06-2.59491E-20 3.85120E-19
 -1      3067 1.43316E-04-5.02965E-05-4.02383E-05-4.40541E-06 9.08350E-19 2.22992E-18
 -1      3068 1.39232E-04-5.67041E-05-3.54365E-05 2.48336E-06 1.51269E-18 1.64335E-18
 -1      3069 9.46381E-05-2.22649E-05-3.10116E-05-4.96956E-06-4.70153E-20 3.54678E-19
 -1      3070 9.42459E-05-2.15839E-05-3.11743E-05 4.49644E-06 1.07012E-19 1.07042E-18
 -1      3071 9.37344E-05-2.05769E-05-3.13601E-05 4.11961E-06 1.67248E-19 9.59837E-19
 -1      3072 9.55058E-05-2.52991E-05-3.00656E-05 4.28701E-06-1.32991E-19 1.27898E-18
 -1      3073 1.28401E-04-1.67531E-05-4.83527E-05-7.53250E-06-5.70053E-19 1.03497E-18
 -1      3074 9.56061E-05-2.62838E-05-2.96975E-05 3.05116E-07-1.11956E-19 5.07887E-19
 -1      3075 9.55877E-05-2.66452E-05-2.95513E-05 1.00185E-06-1.80660E-19 4.38034E-19
 -1      3076 9.55685E-05-2.69148E-05-2.94154E-05 1.57260E-06-3.07689E-19 4.51892E-19
 -1      3077 9.55405E-05-2.70997E-05-2.93322E-05 2.10870E-06-3.72749E-19 2.38048E-19
 -1      3078 9.55904E-05-2.64071E-05-2.96519E-05 1.15801E-06-2.69064E-19 3.77595E-19
 -1      3079 9.54460E-05-2.71960E-05-2.92468E-05 2.57067E-06-1.50095E-19 8.51283E-20
 -1      3080 9.54215E-05-2.72559E-05-2.92111E-05 3.01734E-06-3.51895E-20 2.02518E-19
 -1      3081 9.54832E-05-2.68443E-05-2.94186E-05 2.22291E-06-2.99928E-19 2.57314E-19
 -1      3082 9.52728E-05-2.72269E-05-2.91633E-05 3.42602E-06 2.58163E-19 1.87374E-19
 -1      3083 9.52544E-05-2.71970E-05-2.91625E-05 3.83981E-06 3.79069E-19 4.37364E-19
 -1      3084 9.52479E-05-2.69481E-05-2.92723E-05 3.11812E-06 9.28782E-20-2.10340E-20
 -1      3085 9.50586E-05-2.70747E-05-2.91402E-05 4.24009E-06 4.30366E-19 6.76249E-19
 -1      3086 9.50445E-05-2.69809E-05-2.91634E-05 4.66382E-06 2.64587E-19 6.58623E-19
 -1      3087 9.49119E-05-2.68056E-05-2.91879E-05 3.94223E-06 5.02238E-19 4.89166E-20
 -1      3088 9.48018E-05-2.67907E-05-2.91548E-05 5.09125E-06-3.05443E-20 8.98712E-19
 -1      3089 9.47907E-05-2.66580E-05-2.91916E-05 5.55549E-06 2.93055E-19 8.58290E-19
 -1      3090 9.44819E-05-2.64808E-05-2.91409E-05 4.77501E-06 2.36813E-19 7.06661E-19
 -1      3091 9.45001E-05-2.64264E-05-2.91842E-05 6.03743E-06 3.08846E-19 7.37067E-19
 -1      3092 9.44966E-05-2.62864E-05-2.92234E-05 6.56132E-06 5.00907E-20 8.37990E-19
 -1      3093 9.39567E-05-2.60315E-05-2.91064E-05 5.67897E-06 1.37688E-19 1.29098E-18
 -1      3094 9.41628E-05-2.60506E-05-2.92028E-05 7.11882E-06 2.87248E-20 1.03950E-18
 -1      3095 9.41849E-05-2.59515E-05-2.92315E-05 7.71021E-06 1.82754E-19 1.04515E-18
 -1      3096 9.33387E-05-2.55263E-05-2.90562E-05 6.70257E-06 2.06098E-19 1.11205E-18
 -1      3097 9.38283E-05-2.57704E-05-2.91806E-05 8.36096E-06 1.89680E-19 8.25306E-19
 -1      3098 9.39206E-05-2.57913E-05-2.91837E-05 9.01577E-06 1.13756E-19 8.35157E-19
 -1      3099 9.26498E-05-2.50653E-05-2.89577E-05 7.88637E-06 1.96522E-19 9.70573E-19
 -1      3100 9.35942E-05-2.57619E-05-2.90831E-05 9.77805E-06 1.05062E-19 8.30142E-19
 -1      3101 9.38500E-05-2.60315E-05-2.90448E-05 1.04782E-05 2.64453E-19 7.25592E-19
 -1      3102 9.19567E-05-2.48073E-05-2.87725E-05 9.27288E-06 1.62326E-19 3.95774E-19
 -1      3103 9.36678E-05-2.63107E-05-2.88748E-05 1.13738E-05 2.30876E-19 5.90947E-19
 -1      3104 9.42612E-05-2.70295E-05-2.87834E-05 1.20798E-05 3.57129E-20 6.05179E-19
 -1      3105 9.14127E-05-2.50093E-05-2.84589E-05 1.09194E-05 4.81160E-20 6.84264E-19
 -1      3106 9.44427E-05-2.78562E-05-2.85312E-05 1.31278E-05-4.10397E-19 5.92268E-19
 -1      3107 9.56681E-05-2.93118E-05-2.83924E-05 1.37557E-05-6.40489E-19 6.66155E-19
 -1      3108 9.13278E-05-2.60773E-05-2.79796E-05 1.29051E-05-1.93429E-19 4.15991E-19
 -1      3109 9.66053E-05-3.10183E-05-2.80703E-05 1.49364E-05-5.54055E-19 7.75656E-19
 -1      3110 9.88906E-05-3.35718E-05-2.79358E-05 1.53024E-05-3.01838E-19 3.63990E-19
 -1      3111 9.22710E-05-2.86173E-05-2.73247E-05 1.53056E-05-4.67688E-19 6.74410E-19
 -1      3112 1.01243E-04-3.65006E-05-2.76310E-05 1.63393E-05 1.01629E-19 1.89162E-19
 -1      3113 1.05031E-04-4.03295E-05-2.76531E-05 1.60513E-05 1.90113E-19 3.16618E-19
 -1      3114 9.52737E-05-3.35283E-05-2.65711E-05 1.80274E-05-2.44002E-19 2.81599E-19
 -1      3115 1.09720E-04-4.47335E-05-2.76187E-05 1.62324E-05 7.81596E-19 6.21239E-19
 -1      3116 1.15207E-04-4.93562E-05-2.81422E-05 1.43548E-05 1.09270E-18 8.71928E-19
 -1      3117 1.01844E-04-4.14984E-05-2.60879E-05 2.02371E-05 9.64294E-19 4.59224E-19
 -1      3118 1.22890E-04-5.48146E-05-2.89550E-05 1.28587E-05 1.09719E-18 1.27063E-18
 -1      3119 9.43847E-05-2.18362E-05-3.11156E-05-4.59652E-06-2.67808E-20 4.40691E-19
 -1      3120 9.48679E-05-2.29063E-05-3.08082E-05-3.90127E-06 7.80685E-20 3.55381E-19
 -1      3121 9.50973E-05-2.40546E-05-3.04686E-05-2.63544E-06 1.06937E-19 3.68728E-19
 -1      3122 9.37569E-05-2.05741E-05-3.13651E-05-4.27506E-06 3.11130E-20 4.44557E-19
 -1      3123 1.31737E-04-5.55929E-05-3.24208E-05-1.93819E-06-4.17389E-19 6.33792E-19
 -1      3124 1.31747E-04-4.80512E-05-3.58673E-05 4.63887E-06-6.40860E-19 2.29429E-18
 -1      3125 1.29675E-04-4.08969E-05-3.84090E-05 9.96937E-06 9.23266E-20 3.28066E-18
 -1      3126 1.13768E-04-4.71145E-05-2.85263E-05-1.31216E-05 5.57864E-19 1.64801E-19
 -1      3127 1.08955E-04-4.28900E-05-2.81413E-05-1.48121E-05 1.54974E-19 7.21826E-19
 -1      3128 1.04819E-04-3.88799E-05-2.81994E-05-1.46917E-05-5.78504E-19 1.11265E-19
 -1      3129 1.01440E-04-3.54464E-05-2.81994E-05-1.50321E-05-6.51302E-19-1.86579E-19
 -1      3130 1.01937E-04-3.99457E-05-2.67272E-05-1.84753E-05-5.95104E-19 9.55559E-20
 -1      3131 9.93031E-05-3.27650E-05-2.84655E-05-1.41299E-05-1.64179E-19-2.53731E-19
 -1      3132 9.72559E-05-3.05119E-05-2.85746E-05-1.38067E-05-3.01503E-19 5.60568E-20
 -1      3133 9.59912E-05-3.27208E-05-2.72095E-05-1.65617E-05-5.24892E-19-1.64175E-19
 -1      3134 9.63628E-05-2.89782E-05-2.88418E-05-1.27501E-05-7.28885E-19 3.34181E-20
 -1      3135 9.52352E-05-2.76897E-05-2.89431E-05-1.21393E-05-1.67369E-19-5.99706E-21
 -1      3136 9.31851E-05-2.83074E-05-2.78472E-05-1.41844E-05-2.95356E-19 1.28905E-19
 -1      3137 9.50155E-05-2.69503E-05-2.91457E-05-1.11361E-05 3.02682E-19 4.58571E-19
 -1      3138 9.44376E-05-2.63143E-05-2.92018E-05-1.04196E-05 1.81496E-19 1.37608E-19
 -1      3139 9.22043E-05-2.59946E-05-2.83897E-05-1.19701E-05 2.27578E-19 3.94655E-19
 -1      3140 9.45411E-05-2.60648E-05-2.93302E-05-9.51745E-06-8.95026E-19-1.64887E-19
 -1      3141 9.42598E-05-2.58246E-05-2.93395E-05-8.78681E-06-1.30713E-18-1.28485E-19
 -1      3142 9.21580E-05-2.50199E-05-2.87736E-05-1.00318E-05-5.63946E-19-8.12842E-19
 -1      3143 9.44892E-05-2.58484E-05-2.94055E-05-7.98851E-06-7.36256E-19-1.87022E-19
 -1      3144 9.43540E-05-2.58275E-05-2.93794E-05-7.29321E-06 2.81091E-19-2.47312E-19
 -1      3145 9.25258E-05-2.48282E-05-2.90075E-05-8.34816E-06-1.01608E-18-3.06517E-19
 -1      3146 9.46076E-05-2.59859E-05-2.94000E-05-6.59345E-06 6.71255E-19-5.39030E-19
 -1      3147 9.45380E-05-2.60740E-05-2.93519E-05-5.96056E-06 5.83614E-19-5.35890E-19
 -1      3148 9.30258E-05-2.50522E-05-2.91243E-05-6.88182E-06-4.60929E-20 1.47317E-19
 -1      3149 9.47694E-05-2.62848E-05-2.93428E-05-5.35416E-06 5.69371E-19-1.44373E-18
 -1      3150 9.47263E-05-2.64178E-05-2.92840E-05-4.79696E-06 3.71204E-19-1.01051E-18
 -1      3151 9.35194E-05-2.54667E-05-2.91588E-05-5.60696E-06 3.06753E-19-2.23463E-18
 -1      3152 9.49188E-05-2.66357E-05-2.92574E-05-4.27890E-06 1.26566E-19-6.44794E-19
 -1      3153 9.48853E-05-2.67786E-05-2.91961E-05-3.80137E-06 1.35847E-18-1.00568E-18
 -1      3154 9.39484E-05-2.59417E-05-2.91403E-05-4.50788E-06 3.58163E-19-2.18340E-18
 -1      3155 9.50368E-05-2.69809E-05-2.91609E-05-3.36567E-06 1.83494E-18-1.00794E-18
 -1      3156 9.50068E-05-2.71160E-05-2.91022E-05-2.96559E-06 1.13796E-18-1.64506E-18
 -1      3157 9.42962E-05-2.64069E-05-2.90914E-05-3.57257E-06 1.04914E-18-1.01956E-18
 -1      3158 9.51218E-05-2.72929E-05-2.90644E-05-2.60503E-06 9.98609E-19-1.67544E-18
 -1      3159 9.50939E-05-2.74125E-05-2.90112E-05-2.27636E-06 1.05331E-18-1.23722E-18
 -1      3160 9.45660E-05-2.68281E-05-2.90277E-05-2.78863E-06 1.00217E-18-8.79010E-19
 -1      3161 9.51786E-05-2.75613E-05-2.89744E-05-1.98269E-06 9.39764E-19-1.09537E-18
 -1      3162 9.51531E-05-2.76629E-05-2.89282E-05-1.71734E-06 1.15340E-18-9.30009E-19
 -1      3163 9.47687E-05-2.71918E-05-2.89596E-05-2.14195E-06 1.35827E-18-6.14661E-19
 -1      3164 9.52139E-05-2.77847E-05-2.88945E-05-1.48187E-06 3.96438E-19-1.59902E-18
 -1      3165 9.51910E-05-2.78685E-05-2.88555E-05-1.27107E-06-1.74220E-19-1.72987E-18
 -1      3166 9.49172E-05-2.74958E-05-2.88937E-05-1.61690E-06 3.22705E-19-1.21286E-18
 -1      3167 9.52335E-05-2.79660E-05-2.88259E-05-1.08524E-06-4.42741E-19-2.41253E-18
 -1      3168 9.52133E-05-2.80332E-05-2.87937E-05-9.20262E-07-1.61525E-18-1.73941E-18
 -1      3169 9.50233E-05-2.77437E-05-2.88334E-05-1.19738E-06-9.81662E-19-2.71544E-18
 -1      3170 9.52421E-05-2.81106E-05-2.87684E-05-7.75401E-07-1.32649E-18-8.01021E-19
 -1      3171 9.52239E-05-2.81632E-05-2.87424E-05-6.49769E-07-1.42559E-19 9.75637E-19
 -1      3172 9.50972E-05-2.79417E-05-2.87804E-05-8.67284E-07-1.79671E-19-3.19288E-18
 -1      3173 9.55937E-05-2.70612E-05-2.93735E-05-1.46911E-06 6.71865E-20 5.21640E-19
 -1      3174 9.56081E-05-2.67737E-05-2.94890E-05-8.71776E-07 3.89077E-20 5.36917E-19
 -1      3175 9.55645E-05-2.63753E-05-2.96597E-05-2.17272E-07 8.67051E-20 7.57403E-19
 -1      3176 9.55664E-05-2.58843E-05-2.98487E-05 5.98290E-07 3.55985E-20 7.25163E-19
 -1      3177 9.56134E-05-2.61522E-05-2.97718E-05-4.16033E-07 1.29911E-19 5.40027E-19
 -1      3178 9.55722E-05-2.76586E-05-2.90990E-05-4.60964E-06-1.41173E-19 1.25796E-18
 -1      3179 9.54588E-05-2.76267E-05-2.90720E-05-4.27782E-06-2.25022E-19 1.40952E-18
 -1      3180 9.55287E-05-2.76476E-05-2.90863E-05-3.92589E-06-2.52950E-19 1.41333E-18
 -1      3181 9.54604E-05-2.76102E-05-2.90780E-05-3.58375E-06-2.12261E-19 1.19330E-18
 -1      3182 9.52696E-05-2.73621E-05-2.91063E-05-4.11090E-06-3.39271E-19 1.51876E-18
 -1      3183 9.59798E-05-2.78946E-05-2.91713E-05-6.00259E-06-2.53265E-19 1.66620E-18
 -1      3184 9.57182E-05-2.77457E-05-2.91321E-05-5.68045E-06 1.52447E-19 1.74436E-18
 -1      3185 9.64878E-05-2.83355E-05-2.92000E-05-6.67527E-06 7.57269E-20 1.13911E-18
 -1      3186 9.60980E-05-2.80425E-05-2.91652E-05-6.39032E-06-1.16764E-19 1.22434E-18
 -1      3187 9.52523E-05-2.75418E-05-2.90259E-05-6.39983E-06 6.61257E-20 1.41046E-18
 -1      3188 9.73547E-05-2.91804E-05-2.92103E-05-7.23948E-06 2.19684E-19 8.06510E-19
 -1      3189 9.67793E-05-2.86693E-05-2.91834E-05-7.04462E-06 9.40132E-20 9.28156E-19
 -1      3190 9.56460E-05-2.80524E-05-2.89807E-05-7.19921E-06 1.66556E-19 8.31551E-19
 -1      3191 9.87512E-05-3.05951E-05-2.92050E-05-7.55593E-06-2.52135E-19 1.11291E-18
 -1      3192 9.79187E-05-2.97885E-05-2.91837E-05-7.53477E-06 3.16226E-20 1.16260E-18
 -1      3193 9.64748E-05-2.90613E-05-2.89117E-05-7.93411E-06-1.28882E-19 9.92401E-19
 -1      3194 1.00876E-04-3.27228E-05-2.92095E-05-7.40546E-06-6.20902E-19 9.35961E-19
 -1      3195 9.97163E-05-3.15663E-05-2.91796E-05-7.67893E-06-5.30753E-19 8.74629E-19
 -1      3196 9.79649E-05-3.07693E-05-2.88305E-05-8.46912E-06-3.02093E-19 1.41886E-18
 -1      3197 1.03891E-04-3.55842E-05-2.92881E-05-6.46478E-06-2.49592E-19 9.97873E-19
 -1      3198 1.02382E-04-3.41080E-05-2.92160E-05-7.19254E-06-4.97378E-19 7.12257E-19
 -1      3199 1.00389E-04-3.33489E-05-2.87797E-05-8.56443E-06-3.62478E-19 5.31923E-19
 -1      3200 1.07777E-04-3.88704E-05-2.95656E-05-4.30237E-06-7.48890E-19 1.79373E-18
 -1      3201 1.06032E-04-3.73122E-05-2.93903E-05-5.65835E-06-5.12468E-19 1.45237E-18
 -1      3202 1.03999E-04-3.68187E-05-2.88566E-05-7.81887E-06-6.91123E-19 9.05028E-19
 -1      3203 1.12059E-04-4.16417E-05-3.02333E-05-5.18059E-07-5.56284E-19 1.60270E-18
 -1      3204 1.10437E-04-4.05846E-05-2.98698E-05-2.58105E-06-6.92937E-19 2.07137E-18
 -1      3205 1.08830E-04-4.07669E-05-2.92439E-05-5.60557E-06-8.38047E-19 1.30774E-18
 -1      3206 1.15581E-04-4.21473E-05-3.15167E-05 4.77831E-06-6.29173E-19 1.92621E-18
 -1      3207 1.14681E-04-4.25439E-05-3.08783E-05 2.27161E-06-5.07139E-19 1.93184E-18
 -1      3208 1.14222E-04-4.38876E-05-3.02156E-05-1.29456E-06-7.24349E-19 1.26280E-18
 -1      3209 1.16515E-04-3.82719E-05-3.35871E-05 1.01443E-05 4.46730E-19 1.90816E-18
 -1      3210 1.17050E-04-4.10124E-05-3.26401E-05 8.18261E-06-2.12387E-19 1.90247E-18
 -1      3211 1.18632E-04-4.36966E-05-3.21080E-05 5.23128E-06-1.99582E-19 1.33633E-18
 -1      3212 1.12076E-04-2.11498E-05-3.91122E-05 9.56725E-06 4.36222E-19 2.14244E-18
 -1      3213 1.14319E-04-2.60070E-05-3.80987E-05 1.23946E-05-3.09154E-19 2.29055E-18
 -1      3214 1.07413E-04-1.73209E-05-3.87873E-05-1.82073E-06 6.61003E-19 2.28849E-18
 -1      3215 1.07313E-04-1.72450E-05-3.88412E-05 2.75168E-06 9.69429E-19 2.60257E-18
 -1      3216 1.10690E-04-2.36323E-05-3.75538E-05-1.05374E-05 6.57589E-19 2.57591E-19
 -1      3217 1.08877E-04-1.96266E-05-3.82598E-05-7.37954E-06 9.30069E-19 1.40279E-18
 -1      3218 1.10575E-04-1.67264E-05-4.03734E-05-5.26333E-06 1.03502E-18 2.88465E-18
 -1      3219 1.15042E-04-3.33875E-05-3.51871E-05-1.25998E-05 2.85897E-19-8.06124E-19
 -1      3220 1.13012E-04-2.84519E-05-3.62279E-05-1.23608E-05 3.42122E-19-2.51695E-19
 -1      3221 1.14839E-04-2.62440E-05-3.80916E-05-1.21206E-05 8.90046E-19 4.45116E-19
 -1      3222 1.16658E-04-4.02382E-05-3.28167E-05-8.94812E-06-1.26340E-19-6.12617E-19
 -1      3223 1.15943E-04-3.72104E-05-3.37545E-05-1.08068E-05 5.13117E-20-9.92508E-19
 -1      3224 1.18364E-04-3.64981E-05-3.51364E-05-1.18971E-05 4.24800E-19-1.41084E-18
 -1      3225 1.14727E-04-4.21887E-05-3.10608E-05-3.22009E-06-7.40651E-19 3.93877E-19
 -1      3226 1.15452E-04-4.15687E-05-3.17214E-05-5.69334E-06-1.52090E-19-2.40624E-19
 -1      3227 1.18142E-04-4.28333E-05-3.23210E-05-6.17286E-06-4.53692E-19-1.67277E-18
 -1      3228 1.10692E-04-4.04780E-05-3.00320E-05 1.70381E-06-5.65378E-21 2.02088E-19
 -1      3229 1.12282E-04-4.14615E-05-3.04068E-05-3.52193E-07-4.94614E-19 5.92394E-19
 -1      3230 1.14383E-04-4.34226E-05-3.04652E-05 4.20986E-08-5.33449E-19 3.97184E-19
 -1      3231 1.06416E-04-3.73473E-05-2.95400E-05 4.89097E-06 1.09904E-19 6.95852E-19
 -1      3232 1.08162E-04-3.88949E-05-2.97175E-05 3.51647E-06 1.81579E-19 2.39910E-19
 -1      3233 1.09291E-04-4.06007E-05-2.94802E-05 4.43404E-06-3.23556E-19 1.00807E-19
 -1      3234 1.02773E-04-3.41695E-05-2.93584E-05 6.51005E-06-6.45291E-19-2.04530E-19
 -1      3235 1.04287E-04-3.56598E-05-2.94290E-05 5.78151E-06 1.77678E-19 5.04619E-19
 -1      3236 1.04597E-04-3.68653E-05-2.90713E-05 6.84074E-06-3.52008E-19 5.79399E-19
 -1      3237 1.00055E-04-3.15857E-05-2.93173E-05 7.04025E-06-7.84461E-19-9.75163E-19
 -1      3238 1.01233E-04-3.27830E-05-2.93428E-05 6.78337E-06-8.63149E-19-1.02353E-18
 -1      3239 1.00951E-04-3.34318E-05-2.89699E-05 7.75244E-06-2.49155E-20-3.55971E-19
 -1      3240 9.81898E-05-2.97407E-05-2.93203E-05 6.87341E-06-4.60450E-19-1.12775E-18
 -1      3241 9.90379E-05-3.05873E-05-2.93361E-05 6.92913E-06-4.81444E-19-1.24301E-18
 -1      3242 9.84160E-05-3.07979E-05-2.90000E-05 7.73985E-06-3.29112E-19-6.14911E-19
 -1      3243 9.69801E-05-2.85540E-05-2.93185E-05 6.31500E-06-1.57020E-18 4.10827E-19
 -1      3244 9.75663E-05-2.90980E-05-2.93405E-05 6.55828E-06-1.29138E-18-5.68544E-19
 -1      3245 9.67960E-05-2.90111E-05-2.90629E-05 7.21023E-06-1.17817E-18 2.08730E-19
 -1      3246 9.62302E-05-2.78721E-05-2.92943E-05 5.56341E-06 1.06718E-18 1.89269E-18
 -1      3247 9.66269E-05-2.81872E-05-2.93267E-05 5.90451E-06-8.85173E-20 1.31827E-18
 -1      3248 9.58327E-05-2.79206E-05-2.91116E-05 6.42652E-06-1.42047E-18 1.22639E-19
 -1      3249 9.57830E-05-2.75429E-05-2.92467E-05 4.74616E-06-3.09800E-20 2.88713E-18
 -1      3250 9.60497E-05-2.76990E-05-2.92879E-05 5.12410E-06 7.61184E-19 2.12608E-18
 -1      3251 9.53060E-05-2.73420E-05-2.91303E-05 5.54627E-06 8.28969E-19 1.42327E-18
 -1      3252 9.55261E-05-2.74418E-05-2.91814E-05 3.94254E-06-1.15257E-18 3.84087E-18
 -1      3253 9.57061E-05-2.74951E-05-2.92279E-05 4.31784E-06-4.34377E-19 3.32820E-18
 -1      3254 9.50513E-05-2.71094E-05-2.91188E-05 4.66371E-06-6.54176E-19 1.63904E-18
 -1      3255 9.53842E-05-2.74770E-05-2.91062E-05 3.19917E-06-1.48144E-18 3.05880E-18
 -1      3256 9.55072E-05-2.74686E-05-2.91543E-05 3.54802E-06-8.65832E-19 3.39137E-18
 -1      3257 9.49559E-05-2.70936E-05-2.90836E-05 3.83397E-06-4.50732E-19 1.94367E-18
 -1      3258 9.53094E-05-2.75848E-05-2.90280E-05 2.54040E-06-1.03450E-18 2.20737E-18
 -1      3259 9.53947E-05-2.75430E-05-2.90746E-05 2.85011E-06-1.77897E-18 2.03793E-18
 -1      3260 9.49470E-05-2.72015E-05-2.90331E-05 3.08724E-06-9.64245E-19 1.10134E-18
 -1      3261 9.52720E-05-2.77238E-05-2.89522E-05 1.97549E-06-6.83310E-19 1.60196E-18
 -1      3262 9.53323E-05-2.76670E-05-2.89951E-05 2.24105E-06-3.76728E-19 2.01431E-18
 -1      3263 9.49796E-05-2.73701E-05-2.89747E-05 2.43720E-06-4.91059E-19-4.19516E-20
 -1      3264 9.52543E-05-2.78683E-05-2.88824E-05 1.50395E-06 1.00468E-18 4.44826E-19
 -1      3265 9.52977E-05-2.78081E-05-2.89204E-05 1.72535E-06 1.99474E-19 1.15331E-18
 -1      3266 9.50277E-05-2.75589E-05-2.89144E-05 1.88651E-06 6.65593E-20-4.36863E-21
 -1      3267 9.52461E-05-2.80037E-05-2.88204E-05 1.11934E-06 1.91133E-18-1.46700E-19
 -1      3268 9.52779E-05-2.79466E-05-2.88531E-05 1.29958E-06 2.00851E-18 9.68121E-19
 -1      3269 9.50768E-05-2.77435E-05-2.88565E-05 1.43081E-06 1.42788E-18-1.03867E-18
 -1      3270 9.52416E-05-2.81225E-05-2.87672E-05 8.12139E-07 1.59473E-18-5.93207E-20
 -1      3271 9.52655E-05-2.80721E-05-2.87946E-05 9.55739E-07 1.47488E-18-2.92491E-20
 -1      3272 9.51200E-05-2.79106E-05-2.88035E-05 1.06150E-06 2.09765E-18-6.55798E-19
 -1      3273 9.52378E-05-2.82211E-05-2.87225E-05 5.71876E-07 8.82769E-19 2.75900E-18
 -1      3274 9.52558E-05-2.81791E-05-2.87450E-05 6.83899E-07 1.32242E-18 1.11319E-18
 -1      3275 9.51540E-05-2.80542E-05-2.87567E-05 7.68598E-07 4.99452E-19 4.92304E-19
 -1      3276 9.52264E-05-2.82826E-05-2.86905E-05 4.11823E-07 1.27083E-18 1.95705E-18
 -1      3277 9.52431E-05-2.82529E-05-2.87081E-05 4.95662E-07 1.03189E-18 3.09558E-18
 -1      3278 9.51720E-05-2.81585E-05-2.87209E-05 5.62948E-07 9.33618E-19 3.20019E-18
 -1      3279 9.51807E-05-2.82315E-05-2.86942E-05 4.20823E-07 1.19600E-18 3.42207E-18
 -1      3280 9.49101E-05-2.79243E-05-2.87078E-05-3.22474E-07-9.65517E-19 8.93235E-20
 -1      3281 9.48631E-05-2.78804E-05-2.87089E-05-2.68608E-07-1.39276E-18 5.68840E-19
 -1      3282 6.17358E-05-2.50589E-05-1.54849E-05 2.81942E-05 3.58613E-19 5.60312E-19
 -1      3283 5.17074E-05-1.72547E-05-1.44120E-05 1.82731E-05-1.13820E-21 4.06364E-19
 -1      3284 7.97304E-05-3.66449E-05-1.81801E-05-3.38501E-05-1.43990E-18-5.23572E-20
 -1      3285 9.34044E-05-4.50596E-05-2.07704E-05-3.35886E-05-1.59290E-18 1.53477E-18
 -1      3286 9.50337E-05-2.80523E-05-2.87049E-05-4.05391E-07-4.33224E-19-1.73802E-18
 -1      3287 9.49721E-05-2.79931E-05-2.87073E-05-3.76054E-07-2.04192E-20-1.22809E-18
 -1      3288 9.48888E-05-2.78733E-05-2.87193E-05-4.03274E-07 4.70874E-19-7.50946E-20
 -1      3289 9.48237E-05-2.78373E-05-2.87086E-05-1.92854E-07-1.70416E-18 3.27142E-19
 -1      3290 9.47991E-05-2.78151E-05-2.87089E-05-1.24675E-07-1.15423E-18 6.95744E-19
 -1      3291 9.47760E-05-2.77607E-05-2.87188E-05-2.65857E-07-1.19559E-18 7.98906E-19
 -1      3292 1.04215E-04-4.95213E-05-2.36523E-05 2.85166E-05-1.10919E-18-5.55707E-19
 -1      3293 9.36589E-05-4.30409E-05-2.12253E-05 3.11718E-05-1.16184E-18-7.51265E-19
 -1      3294 4.53276E-05-1.25827E-05-1.36683E-05 6.43256E-06-2.84352E-19-5.54383E-19
 -1      3295 4.48346E-05-1.24560E-05-1.35854E-05-5.37704E-06-6.25628E-19-5.30666E-19
 -1      3296 4.20458E-05-1.21654E-05-1.25638E-05-5.86973E-06-9.72566E-19 2.70595E-18
 -1      3297 4.72139E-05-1.57788E-05-1.31605E-05-1.74904E-05 9.17707E-20 1.07764E-18
 -1      3298 9.47856E-05-2.78012E-05-2.87085E-05-3.54139E-08-1.00434E-18-1.57554E-20
 -1      3299 9.47861E-05-2.78023E-05-2.87082E-05 3.92084E-08-1.93151E-19-5.34089E-19
 -1      3300 9.47161E-05-2.77030E-05-2.87177E-05-9.08340E-08-5.04361E-19 1.11425E-19
 -1      3301 5.65701E-05-2.24645E-05-1.42075E-05-2.59500E-05 6.70003E-19-4.11446E-19
 -1      3302 7.05290E-05-3.19037E-05-1.64457E-05-3.25584E-05 7.57989E-19-1.28061E-18
 -1      3303 9.48013E-05-2.78202E-05-2.87077E-05 1.28013E-07 7.54481E-19-1.45702E-18
 -1      3304 9.48272E-05-2.78448E-05-2.87068E-05 1.96515E-07 1.66325E-18-2.19479E-18
 -1      3305 9.47179E-05-2.77071E-05-2.87167E-05 9.77181E-08 2.70690E-19-1.80084E-18
 -1      3306 9.57037E-05-2.77091E-05-2.91329E-05-5.30199E-06 1.38368E-19 1.56493E-18
 -1      3307 9.55293E-05-2.76431E-05-2.90959E-05-4.97097E-06-3.83651E-20 1.54434E-18
 -1      3308 9.51582E-05-2.73279E-05-2.90734E-05-4.84492E-06-2.57254E-19 1.49046E-18
 -1      3309 9.51275E-05-2.73491E-05-2.90524E-05-5.60611E-06 4.09358E-20 1.88556E-18
 -1      3310 1.38706E-04-4.56152E-05-4.00106E-05-1.08870E-05 1.26801E-18 1.64250E-18
 -1      3311 1.25621E-04-5.61090E-05-3.02474E-05 1.16023E-05-1.39218E-18 3.49216E-19
 -1      3312 1.15950E-04-5.38133E-05-2.63438E-05 2.09983E-05-1.26593E-18-2.64731E-19
 -1      3313 9.54905E-05-2.51368E-05-3.01239E-05-1.36973E-06 1.62043E-19 4.00304E-19
 -1      3314 9.55092E-05-2.57666E-05-2.98989E-05-4.27236E-07 7.02430E-20 4.06324E-19
 -1      3315 9.55074E-05-2.55159E-05-2.99984E-05-1.85101E-07 1.18180E-19 2.88720E-19
 -1      3316 9.53981E-05-2.44236E-05-3.04419E-05 4.37708E-06-1.49084E-19 1.03662E-18
 -1      3317 9.47920E-05-2.27711E-05-3.08554E-05 4.44900E-06-3.51552E-20 1.05003E-18
 -1      3318 1.20024E-04-1.38950E-05-4.60246E-05-8.71259E-06 2.85620E-18 8.60347E-19
 -1      3319 1.25694E-04-1.98601E-05-4.57982E-05-1.21126E-05 2.67917E-18 2.92862E-19
 -1      3320 1.31760E-04-4.63844E-05-3.71346E-05-6.32281E-06 8.12993E-19-1.00448E-18
 -1      3321 1.30750E-04-5.18919E-05-3.35933E-05 7.66064E-07-6.99067E-19-5.94564E-19
 -1      3322 1.06062E-04-5.03832E-05-2.34885E-05-2.80400E-05-1.44258E-18 1.61181E-18
 -1      3323 1.16980E-04-5.50976E-05-2.68707E-05-2.10783E-05-1.56820E-18 1.30727E-18
 -1      3324 1.13563E-04-5.23792E-05-2.64333E-05 2.09380E-05 1.28230E-18 5.59306E-19
 -1      3325 1.02134E-04-4.71051E-05-2.31868E-05 2.72245E-05 1.42778E-18-1.88452E-19
 -1      3326 4.89730E-05-1.55600E-05-1.41224E-05 1.72903E-05-1.03523E-18 3.42964E-18
 -1      3327 4.29522E-05-1.16930E-05-1.28615E-05 5.14808E-06-1.53931E-18 3.97364E-18
 -1      3328 8.50030E-05-3.96084E-05-1.89211E-05-3.27290E-05 4.02023E-19-2.41775E-19
 -1      3329 9.85374E-05-4.74318E-05-2.20539E-05-3.05745E-05-1.65489E-19-6.49992E-19
 -1      3330 1.25795E-04-5.44294E-05-3.05663E-05-7.11118E-06-9.22472E-20 5.27993E-19
 -1      3331 9.20115E-05-1.76986E-05-3.18636E-05 1.59177E-06 7.40481E-20 7.64958E-19
 -1      3332 9.18655E-05-1.74720E-05-3.18961E-05 9.14226E-07 2.67627E-20 6.22104E-19
 -1      3333 8.93473E-05-4.16707E-05-2.04698E-05 3.17543E-05 1.09130E-18-2.61574E-19
 -1      3334 7.49480E-05-3.25014E-05-1.77879E-05 3.08133E-05 7.86285E-19-6.43216E-20
 -1      3335 7.34527E-05-2.84709E-05-1.90077E-05 2.63075E-05 5.00120E-19 4.52580E-19
 -1      3336 9.72467E-05-4.14838E-05-2.36483E-05 2.51357E-05 9.22392E-19-1.41137E-19
 -1      3337 1.26133E-04-5.55589E-05-3.00075E-05-1.12059E-05-1.38616E-18 1.26907E-18
 -1      3338 1.30373E-04-5.34168E-05-3.33920E-05-2.88147E-06-1.13721E-18 1.82673E-18
 -1      3339 9.50056E-05-2.34775E-05-3.06365E-05 3.23883E-06-5.84410E-20 1.02556E-18
 -1      3340 1.24220E-04-2.55474E-05-4.25862E-05-1.26333E-05 2.20276E-18 2.17370E-19
 -1      3341 4.90465E-05-1.38147E-05-1.45867E-05-1.17759E-05-5.10357E-19-5.70212E-19
 -1      3342 5.54787E-05-1.72486E-05-1.62346E-05-1.77509E-05-3.94664E-19-1.05588E-18
 -1      3343 5.21161E-05-1.34722E-05-1.63088E-05-6.07423E-06-3.68585E-19-6.81173E-19
 -1      3344 8.65524E-05-3.73686E-05-2.08678E-05 2.92436E-05-1.36155E-18-4.39716E-19
 -1      3345 9.17891E-05-1.73531E-05-3.19148E-05 3.61283E-07 2.90371E-20 6.08037E-19
 -1      3346 9.17855E-05-1.73471E-05-3.19158E-05-3.24425E-07 6.49749E-20 6.13176E-19
 -1      3347 9.26673E-05-1.88333E-05-3.16234E-05 5.18228E-07 4.42259E-20 6.00851E-19
 -1      3348 9.55365E-05-2.75965E-05-2.91134E-05-3.21979E-06-5.22157E-20 1.03162E-18
 -1      3349 9.55042E-05-2.75177E-05-2.91336E-05-2.84131E-06-7.55358E-20 9.14998E-19
 -1      3350 9.54116E-05-2.73556E-05-2.91702E-05-3.37124E-06-1.91253E-19 1.23991E-18
 -1      3351 1.28225E-04-4.94246E-05-3.37493E-05 2.42902E-06-1.07589E-18 2.47339E-18
 -1      3352 1.20398E-04-5.17093E-05-2.91945E-05-1.10438E-05 5.07472E-19 4.72472E-19
 -1      3353 9.55648E-05-2.72712E-05-2.92616E-05-1.97313E-06-1.03962E-19 6.33592E-19
 -1      3354 9.56324E-05-2.68593E-05-2.94780E-05-1.61715E-06-6.98432E-20 4.93643E-19
 -1      3355 9.55681E-05-2.74295E-05-2.92010E-05-2.43080E-06-1.61840E-19 7.85885E-19
 -1      3356 9.52421E-05-2.82213E-05-2.87213E-05-5.36669E-07 1.17483E-19 1.38130E-18
 -1      3357 9.52281E-05-2.82626E-05-2.87003E-05-4.40841E-07 9.45638E-20 2.48058E-18
 -1      3358 9.52358E-05-2.83077E-05-2.86827E-05-3.59433E-07-1.63960E-18 2.27491E-18
 -1      3359 9.50589E-05-2.38198E-05-3.05480E-05-2.21199E-06 1.55719E-19 3.80880E-19
 -1      3360 1.19999E-04-3.01748E-05-3.86208E-05 1.37567E-05-2.70601E-19 2.87343E-18
 -1      3361 1.14626E-04-3.06121E-05-3.60920E-05 1.21359E-05-3.07936E-19 2.32927E-18
 -1      3362 1.16493E-04-3.51018E-05-3.50483E-05 1.23330E-05 4.92113E-19 2.16460E-18
 -1      3363 1.25856E-04-3.62514E-05-3.86474E-05 1.24985E-05 2.71051E-19 3.43932E-18
 -1      3364 1.20237E-04-3.89766E-05-3.48484E-05 1.09911E-05 3.30475E-19 2.24274E-18
 -1      3365 8.04885E-05-3.42206E-05-1.93881E-05-2.93949E-05 3.51519E-19-8.70565E-19
 -1      3366 5.99785E-05-1.81540E-05-1.78304E-05 1.72405E-05 7.03104E-20 7.99705E-19
 -1      3367 5.20302E-05-1.49796E-05-1.54793E-05 1.24989E-05-6.04702E-20-1.69830E-19
 -1      3368 5.41995E-05-1.40103E-05-1.70782E-05 6.97753E-06-1.17817E-19-2.22399E-19
 -1      3369 9.48695E-05-2.78922E-05-2.87063E-05 2.70760E-07 1.19140E-18-1.72304E-18
 -1      3370 9.49146E-05-2.79370E-05-2.87046E-05 3.21366E-07 9.90827E-19-2.21846E-18
 -1      3371 9.47821E-05-2.77733E-05-2.87161E-05 2.71309E-07 1.37854E-18-1.55399E-18
 -1      3372 9.28163E-05-1.89945E-05-3.16509E-05-3.19082E-06 1.33925E-19 3.35170E-19
 -1      3373 9.32223E-05-1.96953E-05-3.15408E-05-3.74409E-06 2.34868E-20 3.93818E-19
 -1      3374 1.35328E-04-5.40084E-05-3.53926E-05-4.46794E-06 1.55436E-18 1.85691E-18
 -1      3375 1.12573E-04-4.97981E-05-2.70964E-05-1.82589E-05 2.46195E-19 1.16730E-18
 -1      3376 1.00796E-04-4.60132E-05-2.32959E-05-2.73628E-05-1.42617E-18 1.25488E-18
 -1      3377 9.32828E-05-1.97848E-05-3.15218E-05 3.78803E-06 1.66451E-19 9.71999E-19
 -1      3378 9.28672E-05-1.90716E-05-3.16376E-05 3.22590E-06 1.75273E-19 1.07400E-18
 -1      3379 9.41730E-05-2.15254E-05-3.11202E-05 3.07588E-06 1.88440E-19 1.00414E-18
 -1      3380 1.11130E-04-4.99922E-05-2.60116E-05 2.04524E-05-8.10346E-19-1.34400E-19
 -1      3381 9.53846E-05-2.51854E-05-3.00948E-05 1.46064E-06-5.10987E-20 8.26676E-19
 -1      3382 9.52945E-05-2.43897E-05-3.03837E-05 2.57285E-06-1.09562E-19 9.14429E-19
 -1      3383 5.81053E-05-1.95759E-05-1.59936E-05-2.01138E-05 1.22073E-18-4.55439E-19
 -1      3384 9.50786E-05-2.81197E-05-2.86983E-05 4.07029E-07 9.80975E-19 2.23868E-19
 -1      3385 9.51251E-05-2.81687E-05-2.86959E-05 4.14244E-07 9.35751E-19 1.42495E-18
 -1      3386 9.51202E-05-2.81299E-05-2.87084E-05 4.80058E-07 6.18264E-19 1.07482E-18
 -1      3387 1.24091E-04-3.98539E-05-3.62345E-05 1.04167E-05-4.39663E-19 3.56626E-18
 -1      3388 1.25859E-04-5.20260E-05-3.15655E-05 4.02449E-06-8.36088E-19 1.71339E-19
 -1      3389 9.51760E-05-2.82157E-05-2.86967E-05-4.18429E-07-6.79423E-19 3.44224E-18
 -1      3390 9.51269E-05-2.81586E-05-2.87019E-05-4.26758E-07-2.52753E-19 6.57242E-19
 -1      3391 4.95910E-05-1.28244E-05-1.52683E-05-5.74422E-07-9.83061E-19 2.32495E-18
 -1      3392 9.50561E-05-2.80524E-05-2.87169E-05-4.84760E-07 6.49841E-19 9.81696E-20
 -1      3393 1.20214E-04-5.34426E-05-2.85188E-05-1.35458E-05-1.61677E-18 1.29509E-18
 -1      3394 6.69443E-05-2.39835E-05-1.85080E-05 2.44833E-05-1.35392E-18 1.41126E-18
 -1      3395 5.77760E-05-1.92107E-05-1.60160E-05 2.20399E-05-1.39625E-18 2.23373E-18
 -1      3396 5.69380E-05-1.60589E-05-1.73314E-05 1.49613E-05-9.43198E-19 2.94863E-18
 -1      3397 1.07065E-04-4.91226E-05-2.46622E-05-2.40706E-05-1.61677E-19 9.83532E-19
 -1      3398 9.21992E-05-1.79941E-05-3.18153E-05-2.07889E-06 1.59410E-19 5.87168E-19
 -1      3399 9.24828E-05-1.84438E-05-3.17494E-05-2.71840E-06 1.39887E-19 3.83594E-19
 -1      3400 9.34443E-05-2.01107E-05-3.13992E-05-2.38821E-06 8.92800E-20 3.84804E-19
 -1      3401 9.25162E-05-1.84999E-05-3.17391E-05 2.76301E-06 1.36662E-19 1.13202E-18
 -1      3402 9.22310E-05-1.80429E-05-3.18075E-05 2.11919E-06 5.48377E-20 9.83831E-19
 -1      3403 9.29458E-05-1.92915E-05-3.15469E-05 1.50047E-06 2.40596E-20 8.88370E-19
 -1      3404 9.34628E-05-2.01887E-05-3.13869E-05 2.38536E-06 1.20147E-19 1.12559E-18
 -1      3405 7.20430E-05-3.03293E-05-1.75578E-05-3.13832E-05-1.37368E-18-9.86317E-19
 -1      3406 8.13400E-05-3.37713E-05-2.01409E-05-2.87973E-05-1.42501E-18 1.54663E-19
 -1      3407 6.52069E-05-2.39783E-05-1.75238E-05-2.56185E-05-1.12446E-18-7.77153E-19
 -1      3408 9.49647E-05-2.79947E-05-2.87032E-05 3.62038E-07 3.03975E-19-1.47720E-18
 -1      3409 9.50230E-05-2.80549E-05-2.87006E-05 3.89584E-07 4.30354E-19-4.83920E-19
 -1      3410 9.50006E-05-2.80030E-05-2.87117E-05 4.50122E-07 8.78164E-19-7.25312E-19
 -1      3411 9.48796E-05-2.78789E-05-2.87145E-05 3.88707E-07 4.18009E-19-1.40430E-18
 -1      3412 9.48678E-05-2.32049E-05-3.07050E-05 2.72792E-06 5.50950E-20 8.35555E-19
 -1      3413 9.51432E-05-2.80917E-05-2.87350E-05-6.12867E-07 7.17178E-19 6.30157E-19
 -1      3414 9.53944E-05-2.49340E-05-3.01975E-05 1.14630E-06 6.68409E-20 6.25608E-19
 -1      3415 9.55613E-05-2.58947E-05-2.98515E-05 7.18551E-07-5.95411E-20 7.88789E-20
 -1      3416 9.55468E-05-2.62488E-05-2.97044E-05 1.31761E-06-2.75339E-19 2.34881E-19
 -1      3417 1.28757E-04-4.07381E-05-3.79377E-05-1.00388E-05 1.14900E-18-6.33316E-19
 -1      3418 9.54592E-05-2.86658E-05-2.86090E-05-8.43847E-06-1.01935E-19 1.21051E-18
 -1      3419 9.48889E-05-2.79998E-05-2.86621E-05-8.06351E-06 7.89899E-20 1.20537E-18
 -1      3420 9.54780E-05-2.64884E-05-2.95644E-05 1.78562E-06-4.03569E-19 3.98585E-19
 -1      3421 9.53855E-05-2.66349E-05-2.94665E-05 2.27230E-06-3.32826E-19 2.54603E-19
 -1      3422 9.54296E-05-2.60144E-05-2.97466E-05 1.38216E-06-2.45606E-19 2.19543E-19
 -1      3423 9.51962E-05-2.66785E-05-2.93652E-05 2.67051E-06-1.96371E-19 2.68538E-19
 -1      3424 9.50479E-05-2.66716E-05-2.93036E-05 3.09494E-06 1.84801E-19 2.79919E-19
 -1      3425 9.51749E-05-2.63449E-05-2.94959E-05 2.25699E-06-1.91333E-19 5.04280E-19
 -1      3426 9.47576E-05-2.65655E-05-2.92289E-05 3.46052E-06 4.76070E-19 2.64186E-19
 -1      3427 9.45609E-05-2.64427E-05-2.91913E-05 3.86559E-06 4.86658E-19 2.09233E-19
 -1      3428 9.47027E-05-2.63060E-05-2.93092E-05 3.02198E-06 2.72183E-19 6.43919E-19
 -1      3429 9.41761E-05-2.62210E-05-2.91304E-05 4.23188E-06 5.78908E-19 2.27687E-19
 -1      3430 9.39312E-05-2.60127E-05-2.91046E-05 4.65174E-06 4.04276E-19 7.57907E-19
 -1      3431 9.40372E-05-2.59812E-05-2.91614E-05 3.74493E-06 5.77843E-19 1.59951E-19
 -1      3432 9.34506E-05-2.57055E-05-2.90436E-05 5.04688E-06 4.72309E-20 8.78216E-19
 -1      3433 9.31567E-05-2.54428E-05-2.90160E-05 5.50775E-06 1.31046E-19 1.00381E-18
 -1      3434 9.31832E-05-2.54382E-05-2.90257E-05 4.48481E-06 4.15077E-19 3.04532E-19
 -1      3435 9.25755E-05-2.50826E-05-2.89388E-05 5.95649E-06 4.64547E-20 9.61263E-19
 -1      3436 9.22370E-05-2.48050E-05-2.88938E-05 6.47918E-06 6.77798E-20 8.28606E-19
 -1      3437 9.21339E-05-2.47423E-05-2.88713E-05 5.29195E-06-6.68822E-20 7.01449E-19
 -1      3438 9.15521E-05-2.44354E-05-2.87811E-05 7.00776E-06 1.13036E-20 5.66467E-19
 -1      3439 9.11885E-05-2.42019E-05-2.87004E-05 7.61213E-06 5.12021E-20 4.27808E-19
 -1      3440 9.08803E-05-2.39695E-05-2.86619E-05 6.21518E-06 1.55852E-20 2.06280E-19
 -1      3441 9.04063E-05-2.38883E-05-2.85285E-05 8.25729E-06 3.47040E-19 1.56064E-19
 -1      3442 9.00689E-05-2.37919E-05-2.83909E-05 8.96947E-06 2.19881E-19 2.46747E-19
 -1      3443 8.94220E-05-2.32241E-05-2.83533E-05 7.31661E-06 1.68877E-19 3.54282E-19
 -1      3444 8.92175E-05-2.36369E-05-2.81311E-05 9.79296E-06-3.70114E-20 3.60159E-19
 -1      3445 8.90175E-05-2.38275E-05-2.79140E-05 1.06546E-05-5.61269E-20 3.32996E-19
 -1      3446 8.77863E-05-2.26614E-05-2.78912E-05 8.69744E-06 4.00841E-19 1.51046E-19
 -1      3447 8.81716E-05-2.39937E-05-2.75332E-05 1.17625E-05 9.39987E-21 2.29808E-19
 -1      3448 8.83256E-05-2.47088E-05-2.72187E-05 1.28354E-05-2.56509E-19 3.34983E-19
 -1      3449 8.60594E-05-2.25250E-05-2.72098E-05 1.05380E-05-1.02431E-19 1.15053E-19
 -1      3450 8.76554E-05-2.54501E-05-2.66821E-05 1.43900E-05-6.12787E-19 6.57374E-19
 -1      3451 8.85530E-05-2.70532E-05-2.62724E-05 1.57377E-05-4.39955E-19 6.33280E-19
 -1      3452 8.44540E-05-2.32101E-05-2.62326E-05 1.31426E-05-1.31571E-19 1.54164E-19
 -1      3453 8.83961E-05-2.87103E-05-2.55534E-05 1.79694E-05-3.22968E-19 5.84602E-19
 -1      3454 9.08274E-05-3.18668E-05-2.51378E-05 1.95356E-05-2.12354E-20 4.76967E-19
 -1      3455 8.34299E-05-2.53560E-05-2.48835E-05 1.69441E-05-4.80483E-19 6.13223E-19
 -1      3456 9.23835E-05-3.61662E-05-2.38967E-05 2.34645E-05 6.97568E-19 2.17721E-19
 -1      3457 9.56033E-05-2.60180E-05-2.98295E-05-6.66327E-07 1.40269E-19 7.67628E-19
 -1      3458 9.55551E-05-2.55131E-05-3.00105E-05 2.50925E-08 1.22913E-19 8.76783E-19
 -1      3459 9.42488E-05-2.15638E-05-3.11181E-05-3.23419E-06 3.62171E-20 3.94777E-19
 -1      3460 9.75047E-05-3.88321E-05-2.49362E-05-2.16541E-05-1.51778E-19 9.69720E-19
 -1      3461 9.32424E-05-3.43009E-05-2.51595E-05-2.05054E-05-7.24393E-19 6.49390E-19
 -1      3462 9.53460E-05-2.48213E-05-3.02349E-05 7.04882E-07 1.22516E-19 7.76323E-19
 -1      3463 9.51473E-05-2.39958E-05-3.04897E-05 1.59430E-06 8.84992E-20 7.74502E-19
 -1      3464 9.53139E-05-2.46513E-05-3.02804E-05 4.17179E-07 7.25590E-20 9.26669E-19
 -1      3465 9.19287E-05-3.12584E-05-2.58800E-05-1.80368E-05-1.00693E-18 1.14605E-18
 -1      3466 8.97683E-05-2.84636E-05-2.62590E-05-1.66558E-05-7.62120E-19 6.11541E-19
 -1      3467 8.60085E-05-2.99074E-05-2.41220E-05-2.08297E-05-4.07529E-19 1.34394E-18
 -1      3468 8.97241E-05-2.68691E-05-2.68677E-05-1.46901E-05-6.60031E-19 1.46282E-19
 -1      3469 8.88409E-05-2.53837E-05-2.72131E-05-1.34741E-05-1.95593E-19-1.23379E-19
 -1      3470 8.50718E-05-2.53645E-05-2.55951E-05-1.59163E-05-9.10273E-19 1.44038E-18
 -1      3471 8.93347E-05-2.46742E-05-2.76721E-05-1.20242E-05-1.83259E-19-3.89662E-19
 -1      3472 8.91298E-05-2.40092E-05-2.79323E-05-1.09996E-05 2.31914E-19-8.45801E-19
 -1      3473 8.57141E-05-2.32714E-05-2.67522E-05-1.24225E-05-2.86504E-19-2.80118E-19
 -1      3474 8.98130E-05-2.38394E-05-2.82531E-05-9.91691E-06 4.41037E-19-1.46481E-18
 -1      3475 8.99308E-05-2.36563E-05-2.84251E-05-9.04894E-06-5.86303E-19-1.01134E-18
 -1      3476 8.69739E-05-2.25659E-05-2.75873E-05-9.93589E-06 5.71462E-20-1.22134E-18
 -1      3477 9.06308E-05-2.37855E-05-2.86362E-05-8.20435E-06-6.52120E-19-6.31425E-19
 -1      3478 9.08722E-05-2.38655E-05-2.87358E-05-7.45641E-06-2.58194E-20-6.99948E-20
 -1      3479 8.83863E-05-2.26452E-05-2.81572E-05-8.08716E-06-1.98888E-19-1.80651E-19
 -1      3480 9.15118E-05-2.41428E-05-2.88652E-05-6.76781E-06-3.62434E-19-1.88420E-19
 -1      3481 9.17756E-05-2.43514E-05-2.89118E-05-6.11665E-06-6.01752E-19-1.24406E-18
 -1      3482 8.97300E-05-2.31324E-05-2.85256E-05-6.63307E-06-2.34843E-19-3.49882E-19
 -1      3483 9.23249E-05-2.46856E-05-2.89832E-05-5.53914E-06-2.98804E-19-7.33691E-19
 -1      3484 9.25651E-05-2.49433E-05-2.89938E-05-4.97287E-06 7.65158E-20-1.22968E-18
 -1      3485 9.09133E-05-2.38035E-05-2.87475E-05-5.43465E-06-1.66534E-19-9.88877E-19
 -1      3486 9.30186E-05-2.52818E-05-2.90259E-05-4.48312E-06 9.82273E-19-9.36736E-19
 -1      3487 9.32187E-05-2.55441E-05-2.90142E-05-3.99531E-06 6.46924E-19-3.08107E-19
 -1      3488 9.19075E-05-2.45249E-05-2.88671E-05-4.42097E-06 8.91469E-19 2.24001E-20
 -1      3489 9.35827E-05-2.58587E-05-2.90209E-05-3.58058E-06 9.73469E-19 5.62654E-19
 -1      3490 9.37406E-05-2.61025E-05-2.89966E-05-3.16622E-06 1.63359E-18 6.26665E-19
 -1      3491 9.27166E-05-2.52209E-05-2.89180E-05-3.55681E-06 1.38387E-18 1.49155E-18
 -1      3492 9.40266E-05-2.63802E-05-2.89879E-05-2.81815E-06 1.12056E-18 8.51230E-19
 -1      3493 9.41468E-05-2.65950E-05-2.89579E-05-2.47175E-06 1.11091E-18 4.72077E-19
 -1      3494 9.33595E-05-2.58523E-05-2.89251E-05-2.82321E-06 8.74020E-19 1.38502E-18
 -1      3495 9.43675E-05-2.68317E-05-2.89408E-05-2.18342E-06 4.07056E-19 4.51543E-19
 -1      3496 9.44565E-05-2.70144E-05-2.89094E-05-1.89857E-06 8.40788E-19-5.78367E-19
 -1      3497 9.38605E-05-2.64021E-05-2.89058E-05-2.20727E-06 6.05139E-19 7.35341E-19
 -1      3498 9.46239E-05-2.72109E-05-2.88885E-05-1.66321E-06 8.44807E-19-1.86744E-18
 -1      3499 9.46881E-05-2.73622E-05-2.88585E-05-1.43273E-06-2.11359E-19-2.52774E-18
 -1      3500 9.42445E-05-2.68670E-05-2.88725E-05-1.69761E-06 1.00241E-19-1.54992E-18
 -1      3501 9.48133E-05-2.75219E-05-2.88367E-05-1.24361E-06-5.94257E-19-2.12518E-18
 -1      3502 9.48588E-05-2.76447E-05-2.88095E-05-1.06027E-06-8.05438E-19-2.22735E-18
 -1      3503 9.45339E-05-2.72511E-05-2.88330E-05-1.28202E-06-2.85927E-19-1.57706E-18
 -1      3504 9.49498E-05-2.77711E-05-2.87885E-05-9.10426E-07-6.40035E-20-2.20244E-18
 -1      3505 9.49781E-05-2.78677E-05-2.87644E-05-7.64519E-07 6.18027E-19-1.35802E-18
 -1      3506 9.47471E-05-2.75610E-05-2.87924E-05-9.50002E-07-1.36210E-19-5.62069E-19
 -1      3507 9.48646E-05-2.32852E-05-3.06769E-05 2.02418E-06 6.84484E-20 8.52177E-19
 -1      3508 9.45319E-05-2.24154E-05-3.09171E-05 2.63215E-06 1.47322E-19 9.15176E-19
 -1      3509 9.41690E-05-2.16523E-05-3.10778E-05 2.39040E-06 1.33996E-19 1.18392E-18
 -1      3510 9.48165E-05-2.31754E-05-3.06978E-05 1.55396E-06 5.22892E-20 1.05898E-18
 -1      3511 1.24474E-04-4.86941E-05-3.27322E-05-2.19373E-06-8.69364E-19-3.61951E-19
 -1      3512 1.21337E-04-5.09167E-05-2.99917E-05 6.12915E-06-1.32350E-18-2.50821E-19
 -1      3513 9.47281E-05-2.75871E-05-2.87611E-05-7.49722E-06 6.23574E-20 9.87810E-19
 -1      3514 9.44340E-05-2.72334E-05-2.88011E-05-7.08415E-06 1.04482E-19 1.18652E-18
 -1      3515 9.35775E-05-2.71701E-05-2.84735E-05-7.97048E-06 1.17361E-19 1.30935E-18
 -1      3516 9.44809E-05-2.70727E-05-2.88785E-05-6.56710E-06 3.45263E-19 1.31112E-18
 -1      3517 9.43620E-05-2.69246E-05-2.89051E-05-6.15482E-06 3.63686E-19 1.45528E-18
 -1      3518 9.34924E-05-2.66028E-05-2.86733E-05-6.84332E-06 3.16595E-19 1.25788E-18
 -1      3519 9.69465E-05-3.05479E-05-2.84375E-05-9.28408E-06-3.76983E-19 1.15449E-18
 -1      3520 9.59682E-05-2.94520E-05-2.84922E-05-9.02203E-06-3.91791E-19 1.13590E-18
 -1      3521 9.41981E-05-2.83906E-05-2.82284E-05-9.20961E-06-2.12019E-19 8.26814E-19
 -1      3522 9.95322E-05-3.34618E-05-2.82983E-05-9.81499E-06-3.60752E-19 7.66641E-19
 -1      3523 9.80003E-05-3.18381E-05-2.83230E-05-9.80064E-06-2.55417E-19 9.43173E-19
 -1      3524 9.56855E-05-3.05484E-05-2.79596E-05-1.04778E-05-2.83876E-19 5.21301E-19
 -1      3525 1.03579E-04-3.74971E-05-2.83110E-05-9.60475E-06-8.94212E-19 9.98833E-19
 -1      3526 1.01378E-04-3.53491E-05-2.82377E-05-1.00688E-05-6.20516E-19 6.99023E-19
 -1      3527 9.84878E-05-3.39355E-05-2.77353E-05-1.15442E-05-3.78966E-19 9.61793E-19
 -1      3528 1.09234E-04-4.22797E-05-2.87058E-05-7.98071E-06-7.62068E-19 6.11751E-19
 -1      3529 1.06437E-04-3.99202E-05-2.84141E-05-9.24141E-06-9.74480E-19 6.87925E-19
 -1      3530 1.03032E-04-3.86464E-05-2.77156E-05-1.18510E-05-6.84646E-19 8.51430E-19
 -1      3531 1.15960E-04-4.64634E-05-2.98187E-05-3.81011E-06-8.83905E-19 6.67374E-19
 -1      3532 1.13241E-04-4.48068E-05-2.91750E-05-6.20922E-06-9.60732E-19 5.36609E-19
 -1      3533 1.10060E-04-4.45587E-05-2.82586E-05-1.04346E-05-9.34109E-19 1.72384E-19
 -1      3534 1.14258E-04-1.82689E-05-4.13569E-05 7.66710E-06 9.97381E-20 2.90517E-18
 -1      3535 1.15576E-04-1.94070E-05-4.15516E-05-1.09849E-05 1.76818E-18 1.52437E-18
 -1      3536 1.13693E-04-1.50253E-05-4.25575E-05-5.70610E-06 1.88295E-18 2.52373E-18
 -1      3537 1.19070E-04-4.60149E-05-3.11927E-05-1.52355E-06-1.26135E-18-5.42544E-19
 -1      3538 1.20468E-04-4.50482E-05-3.23930E-05-4.75034E-06-3.77560E-19-6.75244E-19
 -1      3539 1.12902E-04-4.37843E-05-2.95193E-05 4.43336E-06-9.80206E-19 3.91098E-19
 -1      3540 1.15460E-04-4.51994E-05-3.01887E-05 1.87920E-06-1.30352E-18 1.67640E-19
 -1      3541 1.17053E-04-4.71635E-05-3.00970E-05 3.52189E-06-1.58589E-18-1.22290E-19
 -1      3542 1.06912E-04-3.95857E-05-2.87774E-05 7.58210E-06-2.41087E-19 7.66260E-19
 -1      3543 1.09453E-04-4.16436E-05-2.90801E-05 6.06790E-06-3.68780E-19 9.95668E-19
 -1      3544 1.09844E-04-4.28230E-05-2.87455E-05 7.79440E-06-1.01463E-18 6.55365E-19
 -1      3545 1.02006E-04-3.52011E-05-2.85770E-05 8.79730E-06 7.72752E-21 6.37891E-19
 -1      3546 1.04160E-04-3.72481E-05-2.86647E-05 8.22458E-06-6.99878E-20 5.38882E-19
 -1      3547 1.03860E-04-3.80871E-05-2.82702E-05 9.78933E-06 1.42986E-20 9.24877E-19
 -1      3548 9.86383E-05-3.18212E-05-2.86146E-05 8.78728E-06-7.04737E-20 2.37462E-19
 -1      3549 1.00188E-04-3.34196E-05-2.86050E-05 8.71543E-06 2.26929E-19 6.88733E-19
 -1      3550 9.93507E-05-3.37298E-05-2.81989E-05 9.98743E-06 3.18523E-19 1.38018E-18
 -1      3551 9.65141E-05-2.94431E-05-2.87377E-05 8.15367E-06-1.22185E-18 8.35407E-19
 -1      3552 9.75329E-05-3.05418E-05-2.86962E-05 8.38282E-06-8.58114E-19-9.35851E-21
 -1      3553 9.65453E-05-3.04932E-05-2.83440E-05 9.28519E-06-4.77493E-19 1.18521E-18
 -1      3554 9.52886E-05-2.79460E-05-2.88614E-05 7.24924E-06-1.37481E-18 1.36304E-18
 -1      3555 9.59129E-05-2.86332E-05-2.88218E-05 7.62860E-06-9.11610E-19 9.69633E-19
 -1      3556 9.49131E-05-2.83772E-05-2.85346E-05 8.23107E-06-1.08549E-18 1.30112E-18
 -1      3557 9.46619E-05-2.71158E-05-2.89522E-05 6.25625E-06-6.91853E-19-3.38906E-20
 -1      3558 9.50167E-05-2.74963E-05-2.89276E-05 6.69703E-06-1.48942E-18 1.84028E-19
 -1      3559 9.40849E-05-2.71314E-05-2.87032E-05 7.09001E-06-7.35238E-19 1.18138E-18
 -1      3560 9.44065E-05-2.67475E-05-2.90022E-05 5.27444E-06 1.70437E-19 2.52859E-18
 -1      3561 9.45895E-05-2.69173E-05-2.89950E-05 5.72471E-06 2.76960E-19 1.77370E-18
 -1      3562 9.37641E-05-2.65098E-05-2.88260E-05 5.98135E-06-9.10966E-19 1.41756E-18
 -1      3563 9.43657E-05-2.66766E-05-2.90154E-05 4.35712E-06-5.33945E-19 1.29053E-18
 -1      3564 9.44455E-05-2.67116E-05-2.90232E-05 4.78656E-06-1.05944E-19 1.97477E-18
 -1      3565 9.37398E-05-2.63040E-05-2.89006E-05 4.95815E-06-2.66985E-20 2.83981E-18
 -1      3566 9.44372E-05-2.67820E-05-2.90007E-05 3.53210E-06 4.42944E-19 5.87279E-19
 -1      3567 9.44592E-05-2.67375E-05-2.90192E-05 3.92352E-06 1.28313E-19 9.51728E-19
 -1      3568 9.38726E-05-2.63556E-05-2.89337E-05 4.04306E-06 4.59114E-19 6.99932E-19
 -1      3569 9.45580E-05-2.69795E-05-2.89673E-05 2.81166E-06-8.27485E-19-1.10309E-18
 -1      3570 9.45504E-05-2.68936E-05-2.89923E-05 3.15649E-06-2.00567E-19-9.76056E-20
 -1      3571 9.40747E-05-2.65519E-05-2.89356E-05 3.24414E-06 2.36998E-19 4.69874E-19
 -1      3572 9.46910E-05-2.72137E-05-2.89233E-05 2.19790E-06-5.01619E-19-1.17563E-18
 -1      3573 9.46707E-05-2.71113E-05-2.89512E-05 2.49337E-06-5.77334E-19-1.88766E-18
 -1      3574 9.42935E-05-2.68161E-05-2.89161E-05 2.56097E-06 1.31931E-19-2.46132E-18
 -1      3575 9.48163E-05-2.74501E-05-2.88750E-05 1.68632E-06 6.42253E-19-1.37741E-18
 -1      3576 9.47927E-05-2.73466E-05-2.89032E-05 1.93355E-06 1.09658E-19-6.91544E-19
 -1      3577 9.45001E-05-2.70989E-05-2.88837E-05 1.98783E-06-4.80320E-20-2.09124E-18
 -1      3578 9.49243E-05-2.76691E-05-2.88268E-05 1.26844E-06 1.55889E-18-1.77675E-18
 -1      3579 9.49025E-05-2.75733E-05-2.88535E-05 1.47090E-06 6.98364E-19-2.03274E-18
 -1      3580 9.46804E-05-2.73706E-05-2.88449E-05 1.51569E-06 1.11456E-18-2.40762E-18
 -1      3581 9.50119E-05-2.78608E-05-2.87816E-05 9.33387E-07 1.59242E-18-2.43707E-19
 -1      3582 9.49940E-05-2.77769E-05-2.88058E-05 1.09593E-06 2.31289E-18-3.77992E-19
 -1      3583 9.48292E-05-2.76149E-05-2.88044E-05 1.13356E-06 1.24475E-18-7.60983E-19
 -1      3584 9.50802E-05-2.80213E-05-2.87411E-05 6.71606E-07-1.71991E-19 8.41995E-19
 -1      3585 9.50659E-05-2.79516E-05-2.87621E-05 7.97543E-07 5.13596E-20-2.33169E-19
 -1      3586 9.49464E-05-2.78244E-05-2.87653E-05 8.29504E-07 7.49976E-19 9.38735E-19
 -1      3587 1.23957E-04-4.37561E-05-3.45977E-05 8.29164E-06-5.30984E-20 2.47197E-18
 -1      3588 7.79539E-05-2.98544E-05-2.04322E-05-2.58587E-05 5.73706E-19-2.05829E-19
 -1      3589 8.96031E-05-3.74110E-05-2.24998E-05-2.67563E-05 1.17102E-19 8.03225E-19
 -1      3590 9.48526E-05-2.78142E-05-2.87319E-05-4.98116E-07 1.12573E-18 2.92328E-19
 -1      3591 9.47773E-05-2.77433E-05-2.87316E-05-4.43852E-07-4.66986E-20 1.22917E-18
 -1      3592 9.47035E-05-2.76677E-05-2.87292E-05-3.50968E-07-4.60648E-19 2.02555E-18
 -1      3593 9.46536E-05-2.76255E-05-2.87284E-05-2.66838E-07-9.59513E-19 9.49150E-19
 -1      3594 9.46547E-05-2.75897E-05-2.87415E-05-4.54163E-07-7.48091E-20 2.08141E-18
 -1      3595 9.21825E-05-3.83763E-05-2.31171E-05 2.53575E-05-1.16659E-18-1.18905E-18
 -1      3596 7.99037E-05-3.06944E-05-2.06356E-05 2.68560E-05-1.08738E-18-4.68264E-19
 -1      3597 5.93780E-05-1.72244E-05-1.79679E-05-1.57208E-05 8.94837E-19-7.15637E-19
 -1      3598 6.83328E-05-2.37714E-05-1.90022E-05-2.35615E-05 1.23193E-18-1.13031E-18
 -1      3599 7.89065E-05-2.70433E-05-2.19695E-05-2.15534E-05 8.02908E-19 5.56990E-20
 -1      3600 9.46932E-05-2.29589E-05-3.07501E-05-1.94944E-06 9.36511E-20 2.92320E-19
 -1      3601 1.16230E-04-1.41460E-05-4.41195E-05-4.96681E-06 1.90053E-18 2.33761E-18
 -1      3602 9.49794E-05-2.70508E-05-2.91075E-05-4.13446E-06-2.66792E-19 1.28383E-18
 -1      3603 9.50493E-05-2.70685E-05-2.91365E-05-3.76479E-06-2.97583E-19 1.33920E-18
 -1      3604 9.45480E-05-4.09490E-05-2.27443E-05-2.69319E-05-1.13463E-18 1.29351E-18
 -1      3605 1.04596E-04-4.67052E-05-2.50382E-05-2.28273E-05-1.04469E-18 1.02179E-18
 -1      3606 9.53857E-05-2.48028E-05-3.02548E-05-6.39168E-07 5.61875E-20 1.15465E-19
 -1      3607 9.54712E-05-2.53966E-05-3.00415E-05 1.33088E-07-2.54854E-21 6.00309E-20
 -1      3608 9.54088E-05-2.51974E-05-3.00851E-05 3.23703E-07-5.06485E-20-3.94977E-20
 -1      3609 1.00344E-04-4.31360E-05-2.42777E-05-2.40433E-05-6.69156E-20 7.00787E-20
 -1      3610 9.18537E-05-1.74527E-05-3.18993E-05-8.76761E-07 3.36099E-20 5.66266E-19
 -1      3611 9.19916E-05-1.76659E-05-3.18690E-05-1.55144E-06 7.02041E-20 6.04289E-19
 -1      3612 9.29247E-05-1.92486E-05-3.15540E-05-1.48083E-06 3.60628E-20 5.44150E-19
 -1      3613 9.46157E-05-2.75881E-05-2.87267E-05-1.53110E-07-9.09748E-19-1.34786E-19
 -1      3614 9.45984E-05-2.75742E-05-2.87260E-05-5.40371E-08-4.58968E-20-8.67058E-19
 -1      3615 9.45401E-05-2.74802E-05-2.87370E-05-2.38071E-07-3.06384E-19 5.12249E-19
 -1      3616 5.39736E-05-1.30205E-05-1.74906E-05 3.40016E-06-4.24420E-19 2.53056E-18
 -1      3617 5.40356E-05-1.32530E-05-1.72442E-05-6.77457E-06 1.38966E-20 1.02343E-18
 -1      3618 1.15004E-04-5.07029E-05-2.78019E-05 1.46681E-05-1.08946E-18 8.10108E-20
 -1      3619 1.05581E-04-4.57913E-05-2.55314E-05 2.04302E-05-9.06663E-19-6.28975E-19
 -1      3620 1.13694E-04-4.91689E-05-2.73520E-05-1.48830E-05-1.38491E-18 7.53409E-19
 -1      3621 1.19800E-04-5.05789E-05-2.98355E-05-7.16962E-06-1.14982E-18 1.11017E-18
 -1      3622 9.50328E-05-2.79789E-05-2.87366E-05-5.90353E-07 8.43205E-19-8.44391E-19
 -1      3623 9.46006E-05-2.75783E-05-2.87253E-05 6.72528E-08 4.17053E-19-1.79664E-18
 -1      3624 9.46201E-05-2.75961E-05-2.87251E-05 1.65210E-07 8.58537E-19-2.28014E-18
 -1      3625 9.44993E-05-2.74464E-05-2.87343E-05 9.95337E-09 3.21432E-19-1.57119E-18
 -1      3626 1.17826E-04-2.54237E-05-3.98652E-05-1.31109E-05 1.58385E-18 2.62024E-19
 -1      3627 1.23675E-04-4.76082E-05-3.26448E-05 2.70018E-06-3.95829E-19 1.59705E-18
 -1      3628 9.41434E-05-2.16779E-05-3.10774E-05-2.05268E-06 2.83847E-20 3.01143E-19
 -1      3629 9.50021E-05-2.36628E-05-3.05563E-05-1.19880E-06 7.39971E-20 2.68077E-19
 -1      3630 9.49266E-05-2.35966E-05-3.05751E-05-8.24499E-07 5.93099E-21 1.54133E-19
 -1      3631 9.38361E-05-2.11085E-05-3.11797E-05-1.67107E-06 2.27571E-20 3.90698E-19
 -1      3632 9.48956E-05-2.78235E-05-2.87447E-05-6.22540E-07 9.23110E-19-4.05231E-19
 -1      3633 1.22461E-04-3.23395E-05-3.89073E-05-1.39377E-05 1.19061E-18-2.01091E-19
 -1      3634 1.21775E-04-4.89791E-05-3.11794E-05-9.36186E-07-7.78556E-19 1.45757E-18
 -1      3635 1.23164E-04-3.95454E-05-3.59357E-05-1.02624E-05 4.80109E-19-7.53998E-19
 -1      3636 1.23824E-04-4.43007E-05-3.41395E-05-7.91476E-06 2.05763E-19-1.25026E-18
 -1      3637 5.45867E-05-1.28268E-05-1.75083E-05-3.44680E-07-2.86681E-19-6.14522E-19
 -1      3638 5.69434E-05-1.41810E-05-1.82654E-05-6.31414E-06-4.00850E-19-4.58880E-19
 -1      3639 9.32854E-05-2.01406E-05-3.13594E-05 6.25135E-07 7.40189E-20 6.35893E-19
 -1      3640 9.32155E-05-2.00231E-05-3.13790E-05 1.70748E-07 1.17997E-19 4.44535E-19
 -1      3641 9.52473E-05-2.71056E-05-2.92009E-05-3.39938E-06-3.94201E-19 1.31609E-18
 -1      3642 9.53227E-05-2.70721E-05-2.92500E-05-3.01242E-06-3.14044E-19 1.07677E-18
 -1      3643 9.49352E-05-2.67912E-05-2.92045E-05-3.41814E-06-3.21153E-19 1.17630E-18
 -1      3644 8.38921E-05-3.09175E-05-2.26633E-05 2.36333E-05 1.19935E-19 4.35163E-19
 -1      3645 9.56394E-05-2.64136E-05-2.96625E-05-1.20761E-06 6.54761E-20 8.34346E-19
 -1      3646 9.55495E-05-2.58212E-05-2.98822E-05-8.16673E-07 2.73954E-20 1.02960E-18
 -1      3647 9.56137E-05-2.66974E-05-2.95386E-05-1.74643E-06-1.14889E-19 8.01050E-19
 -1      3648 9.47870E-05-2.76805E-05-2.87581E-05-6.71160E-07 1.45842E-19 4.08694E-19
 -1      3649 1.16550E-04-4.82815E-05-2.91960E-05 7.68414E-06-1.56922E-18-4.00951E-19
 -1      3650 9.55458E-05-2.72199E-05-2.92863E-05-2.56767E-06-2.17413E-19 8.31284E-19
 -1      3651 9.34110E-05-2.03548E-05-3.13191E-05 9.51368E-07 1.36062E-19 7.62952E-19
 -1      3652 9.39555E-05-2.13727E-05-3.10858E-05 5.55862E-07 1.66001E-19 7.66330E-19
 -1      3653 9.35986E-05-2.06846E-05-3.12601E-05 1.36787E-06 1.85738E-19 8.64629E-19
 -1      3654 5.90432E-05-1.45889E-05-1.89000E-05 5.16902E-06-2.78121E-19-3.45563E-19
 -1      3655 9.51049E-05-2.80989E-05-2.87173E-05 5.31215E-07 2.83158E-19 1.30075E-18
 -1      3656 9.50988E-05-2.80557E-05-2.87314E-05 6.10581E-07 1.15612E-19 5.41868E-19
 -1      3657 9.50101E-05-2.79558E-05-2.87369E-05 6.36540E-07-3.71176E-19 3.09313E-19
 -1      3658 9.50426E-05-2.80354E-05-2.87185E-05 5.21597E-07 3.11744E-19-3.45212E-19
 -1      3659 6.72120E-05-2.17733E-05-1.90691E-05 2.12045E-05-2.20533E-19 9.46242E-19
 -1      3660 6.54666E-05-1.93001E-05-1.97599E-05 1.65231E-05-2.28494E-19 9.17548E-19
 -1      3661 9.46608E-05-2.76392E-05-2.87256E-05 2.76546E-07 1.56773E-18-1.10925E-18
 -1      3662 9.47148E-05-2.76855E-05-2.87257E-05 3.60828E-07 1.10532E-18-1.06876E-18
 -1      3663 9.45464E-05-2.74946E-05-2.87343E-05 2.54022E-07 8.16542E-19-2.50267E-18
 -1      3664 7.51049E-05-2.62456E-05-2.08342E-05 2.24335E-05-9.72367E-19 5.69841E-19
 -1      3665 9.26601E-05-1.88199E-05-3.16258E-05-4.93320E-07 1.90933E-20 6.00162E-19
 -1      3666 6.33036E-05-1.65721E-05-1.98041E-05-1.09821E-05 4.33138E-19-6.80512E-19
 -1      3667 9.95950E-05-4.14976E-05-2.47923E-05 2.20055E-05-1.30775E-18-2.30949E-19
 -1      3668 9.21494E-05-3.54457E-05-2.43795E-05 2.09933E-05-1.58687E-18-2.44713E-19
 -1      3669 1.04202E-04-4.22451E-05-2.65081E-05 1.63417E-05-1.35928E-18-2.49248E-19
 -1      3670 8.75998E-05-3.60387E-05-2.20150E-05-2.70536E-05-1.26553E-18 7.15637E-19
 -1      3671 9.29954E-05-3.71661E-05-2.37709E-05-2.27757E-05-7.83455E-19 5.74136E-19
 -1      3672 8.04454E-05-3.02265E-05-2.14563E-05-2.46176E-05-1.28756E-18 1.05694E-19
 -1      3673 9.47605E-05-2.69738E-05-2.90549E-05-4.51130E-06-2.26180E-19 1.24475E-18
 -1      3674 9.45202E-05-2.66777E-05-2.90755E-05-4.16831E-06-2.46039E-19 1.00807E-18
 -1      3675 9.47174E-05-2.69521E-05-2.90357E-05-4.88759E-06-1.38650E-19 1.30809E-18
 -1      3676 9.45217E-05-2.69160E-05-2.89654E-05-5.69378E-06 5.30023E-20 1.41385E-18
 -1      3677 9.45073E-05-2.68869E-05-2.89842E-05-5.29895E-06-1.09082E-19 1.34927E-18
 -1      3678 9.40901E-05-2.65242E-05-2.89577E-05-4.96311E-06-2.38957E-19 1.03071E-18
 -1      3679 9.37141E-05-2.64502E-05-2.88300E-05-5.84510E-06 2.72125E-19 1.05550E-18
 -1      3680 1.07895E-04-4.53671E-05-2.67210E-05-1.62371E-05-8.97312E-19 8.04847E-19
 -1      3681 5.77929E-05-1.42140E-05-1.83505E-05 8.49774E-06-4.57666E-19 2.73020E-18
 -1      3682 6.09027E-05-1.41427E-05-1.99639E-05 2.99450E-06 6.77825E-20 2.26810E-18
 -1      3683 6.29233E-05-1.70937E-05-1.97559E-05 1.31990E-05-7.68259E-19 1.63260E-18
 -1      3684 6.12458E-05-1.76208E-05-1.86194E-05-1.54853E-05-2.59854E-19-5.39534E-19
 -1      3685 6.26722E-05-2.03061E-05-1.78219E-05-2.10961E-05-7.02309E-19-8.15799E-19
 -1      3686 7.04536E-05-2.39616E-05-1.98007E-05-2.22085E-05-9.20897E-19-1.79624E-19
 -1      3687 1.14194E-04-1.40226E-05-4.31866E-05 4.93555E-06-4.09964E-19 3.88947E-18
 -1      3688 9.49085E-05-2.78912E-05-2.87211E-05 4.77969E-07 3.49585E-19-1.58470E-18
 -1      3689 9.49709E-05-2.79582E-05-2.87196E-05 4.99392E-07 9.71224E-19-1.14068E-18
 -1      3690 9.49519E-05-2.79198E-05-2.87282E-05 5.52208E-07 7.06411E-19-1.50185E-18
 -1      3691 9.38268E-05-2.11481E-05-3.11276E-05-2.93619E-09 1.24912E-19 5.09552E-19
 -1      3692 9.32103E-05-2.00148E-05-3.13803E-05-1.61662E-07 1.15738E-19 5.75477E-19
 -1      3693 9.32732E-05-2.01215E-05-3.13632E-05-6.15508E-07 1.28628E-20 6.16895E-19
 -1      3694 9.41010E-05-2.99450E-05-2.74563E-05-1.13653E-05-4.94539E-19 1.11182E-18
 -1      3695 9.30416E-05-2.86033E-05-2.76103E-05-1.06617E-05-3.80565E-19 8.36393E-19
 -1      3696 9.51527E-05-2.60705E-05-2.96074E-05 1.77013E-06-8.91990E-20 4.64221E-19
 -1      3697 9.49640E-05-2.61473E-05-2.94960E-05 2.16937E-06-7.79665E-20 5.68778E-19
 -1      3698 9.46618E-05-2.61154E-05-2.93801E-05 2.47059E-06 1.50017E-19 8.48773E-19
 -1      3699 9.43715E-05-2.60230E-05-2.92939E-05 2.82841E-06 4.17981E-19 7.85433E-19
 -1      3700 9.46604E-05-2.58566E-05-2.94809E-05 1.99052E-06 2.18407E-19 8.24848E-19
 -1      3701 9.39338E-05-2.58287E-05-2.91937E-05 3.10926E-06 5.93659E-19 7.31469E-19
 -1      3702 9.35479E-05-2.56041E-05-2.91197E-05 3.45558E-06 6.30554E-19 6.64788E-19
 -1      3703 9.39289E-05-2.56460E-05-2.92564E-05 2.55314E-06 4.06946E-19 1.09544E-18
 -1      3704 9.29784E-05-2.52826E-05-2.90212E-05 3.73822E-06 4.98554E-19 5.68768E-19
 -1      3705 9.24956E-05-2.49586E-05-2.89451E-05 4.09780E-06 1.55380E-19 6.06292E-19
 -1      3706 9.29337E-05-2.51315E-05-2.90482E-05 3.08529E-06 5.43089E-19 7.10348E-19
 -1      3707 9.17879E-05-2.45416E-05-2.88318E-05 4.40140E-06-7.35951E-20 6.11731E-19
 -1      3708 9.12028E-05-2.41517E-05-2.87368E-05 4.79579E-06-1.26616E-19 5.79569E-19
 -1      3709 9.16723E-05-2.43818E-05-2.88256E-05 3.62375E-06 5.34857E-20 7.80412E-19
 -1      3710 9.03421E-05-2.36727E-05-2.85888E-05 5.14008E-06-1.05270E-19 3.63782E-19
 -1      3711 8.96504E-05-2.32572E-05-2.84545E-05 5.59269E-06 2.16512E-20 3.54296E-19
 -1      3712 9.01237E-05-2.34619E-05-2.85518E-05 4.20235E-06-2.23050E-19 6.34254E-19
 -1      3713 8.86137E-05-2.27560E-05-2.82468E-05 6.00553E-06 9.33800E-20 3.27257E-19
 -1      3714 8.78190E-05-2.23701E-05-2.80481E-05 6.55135E-06 1.67410E-19 4.36417E-19
 -1      3715 8.82504E-05-2.24400E-05-2.81811E-05 4.86237E-06-1.40207E-21 3.13837E-19
 -1      3716 8.65737E-05-2.18996E-05-2.77482E-05 7.08202E-06 3.84114E-19 3.72501E-19
 -1      3717 8.56987E-05-2.16245E-05-2.74542E-05 7.78364E-06 3.94316E-19 4.22886E-19
 -1      3718 8.59970E-05-2.13958E-05-2.76553E-05 5.67319E-06 3.05467E-19 3.97651E-19
 -1      3719 8.41985E-05-2.12571E-05-2.70186E-05 8.52650E-06 1.60093E-20 1.60077E-19
 -1      3720 8.33080E-05-2.12202E-05-2.65912E-05 9.49882E-06-1.95012E-19 1.08501E-19
 -1      3721 8.32836E-05-2.04277E-05-2.68967E-05 6.76781E-06 2.61116E-20 1.93573E-19
 -1      3722 8.14892E-05-2.10639E-05-2.59571E-05 1.06328E-05 1.02236E-19 3.51165E-19
 -1      3723 8.07457E-05-2.14767E-05-2.53507E-05 1.20662E-05-4.37765E-21 4.03767E-19
 -1      3724 7.99901E-05-1.96751E-05-2.57952E-05 8.39522E-06 1.52773E-19 1.98844E-19
 -1      3725 7.85608E-05-2.17249E-05-2.44224E-05 1.39258E-05-3.02116E-19 4.36212E-19
 -1      3726 7.82405E-05-2.29353E-05-2.35774E-05 1.60790E-05-3.32963E-19 5.38518E-19
 -1      3727 7.59502E-05-1.93598E-05-2.41829E-05 1.10045E-05 1.07704E-19 5.61234E-19
 -1      3728 9.52674E-05-2.46470E-05-3.02769E-05 6.38112E-08 1.05803E-19 8.08083E-19
 -1      3729 9.50687E-05-2.38763E-05-3.05072E-05 7.54756E-07 6.97478E-20 8.42706E-19
 -1      3730 7.77355E-05-2.42242E-05-2.29094E-05-1.85718E-05 3.70795E-19 3.93268E-19
 -1      3731 8.03962E-05-2.31867E-05-2.44279E-05-1.52936E-05-8.25981E-19 7.41496E-19
 -1      3732 8.04249E-05-2.19402E-05-2.51191E-05-1.33388E-05-1.21909E-18 6.24061E-19
 -1      3733 8.22049E-05-2.16266E-05-2.59239E-05-1.16195E-05-5.86038E-19 4.45049E-19
 -1      3734 8.27714E-05-2.11860E-05-2.64472E-05-1.02591E-05 6.89575E-20 4.33135E-19
 -1      3735 7.78151E-05-1.97226E-05-2.48467E-05-1.08698E-05-1.23295E-18 7.96479E-19
 -1      3736 8.43155E-05-2.12796E-05-2.69983E-05-9.13067E-06 6.42018E-19-1.11224E-19
 -1      3737 8.50347E-05-2.12791E-05-2.73622E-05-8.16583E-06 5.45634E-19 3.09671E-19
 -1      3738 8.11327E-05-1.97833E-05-2.62473E-05-8.29040E-06 4.22516E-19 7.46779E-20
 -1      3739 8.63193E-05-2.15885E-05-2.77358E-05-7.38970E-06 2.36441E-19 7.31591E-19
 -1      3740 8.70391E-05-2.18204E-05-2.79787E-05-6.65564E-06 4.21013E-19 1.03366E-18
 -1      3741 8.39533E-05-2.03946E-05-2.72024E-05-6.60653E-06 7.53412E-19 4.66768E-19
 -1      3742 8.81033E-05-2.22377E-05-2.82267E-05-6.07104E-06-8.21978E-20 7.21483E-19
 -1      3743 8.87535E-05-2.25816E-05-2.83801E-05-5.47627E-06-7.75261E-19 8.48555E-19
 -1      3744 8.62779E-05-2.12357E-05-2.78464E-05-5.40724E-06 1.76327E-19 1.75476E-18
 -1      3745 8.96277E-05-2.30371E-05-2.85390E-05-5.00522E-06-1.55409E-19 3.08344E-19
 -1      3746 9.01833E-05-2.34199E-05-2.86289E-05-4.50295E-06 2.17267E-19 1.56822E-18
 -1      3747 8.81939E-05-2.21772E-05-2.82702E-05-4.47627E-06-7.18798E-19 1.73771E-18
 -1      3748 9.08943E-05-2.38696E-05-2.87253E-05-4.10669E-06 3.04974E-19 8.75700E-19
 -1      3749 9.13519E-05-2.42480E-05-2.87715E-05-3.67496E-06 7.48373E-19 7.60560E-19
 -1      3750 8.97597E-05-2.31281E-05-2.85387E-05-3.70435E-06 1.23224E-19 2.49188E-18
 -1      3751 9.19240E-05-2.46659E-05-2.88250E-05-3.33568E-06 1.28581E-18 7.33833E-19
 -1      3752 9.22910E-05-2.50161E-05-2.88423E-05-2.96433E-06 1.41805E-18 8.23056E-19
 -1      3753 9.10267E-05-2.40305E-05-2.86989E-05-3.04096E-06 1.11742E-18 1.01880E-18
 -1      3754 9.27460E-05-2.53885E-05-2.88672E-05-2.67378E-06 1.17644E-18 8.59409E-19
 -1      3755 9.30342E-05-2.56987E-05-2.88663E-05-2.35729E-06 9.35413E-19 1.13539E-18
 -1      3756 9.20408E-05-2.48509E-05-2.87851E-05-2.46523E-06 9.85836E-19 3.47646E-19
 -1      3757 9.33916E-05-2.60205E-05-2.88726E-05-2.11082E-06 9.00987E-20 8.48230E-19
 -1      3758 9.36141E-05-2.62869E-05-2.88612E-05-1.84490E-06-8.49281E-20 2.22152E-19
 -1      3759 9.28430E-05-2.55724E-05-2.88221E-05-1.96831E-06 4.77810E-19 4.61336E-19
 -1      3760 9.38916E-05-2.65583E-05-2.88562E-05-1.63900E-06 1.68697E-19 3.62427E-19
 -1      3761 9.40602E-05-2.67813E-05-2.88392E-05-1.41921E-06 1.98805E-19 3.88272E-19
 -1      3762 9.34700E-05-2.61908E-05-2.88279E-05-1.54525E-06-6.20135E-20 4.76146E-19
 -1      3763 9.42728E-05-2.70045E-05-2.88279E-05-1.25101E-06 4.36488E-20 7.09947E-20
 -1      3764 9.43973E-05-2.71875E-05-2.88088E-05-1.07182E-06-2.60211E-20 3.15579E-19
 -1      3765 9.39551E-05-2.67102E-05-2.88147E-05-1.19173E-06 6.21712E-20 1.56083E-18
 -1      3766 9.45600E-05-2.73699E-05-2.87945E-05-9.35308E-07-4.05590E-19 2.12737E-19
 -1      3767 9.46530E-05-2.75187E-05-2.87754E-05-7.93490E-07-3.40734E-19 2.14620E-19
 -1      3768 9.43201E-05-2.71335E-05-2.87911E-05-9.03288E-07-3.11445E-19 1.64707E-18
 -1      3769 9.53732E-05-2.56038E-05-2.98999E-05 9.50559E-07-1.31571E-19 3.61689E-19
 -1      3770 9.53042E-05-2.58973E-05-2.97512E-05 1.42420E-06-1.96248E-19 4.09214E-19
 -1      3771 9.51099E-05-2.56839E-05-2.97477E-05 1.35593E-06-3.96930E-20 5.68066E-19
 -1      3772 9.23468E-05-2.65131E-05-2.81938E-05-8.12715E-06-2.30424E-20 9.55195E-19
 -1      3773 9.21887E-05-2.61307E-05-2.83177E-05-7.51708E-06 2.89442E-20 1.00128E-18
 -1      3774 9.27663E-05-2.77217E-05-2.78473E-05-9.64551E-06-1.93409E-19 8.78944E-19
 -1      3775 9.22583E-05-2.69442E-05-2.79952E-05-8.96515E-06-1.41241E-20 1.10369E-18
 -1      3776 9.07788E-05-2.58570E-05-2.78331E-05-8.50069E-06-1.03221E-19 9.08163E-19
 -1      3777 9.08937E-05-2.71046E-05-2.73625E-05-1.04386E-05-2.30886E-19 1.49149E-18
 -1      3778 9.24720E-05-2.59954E-05-2.84756E-05-6.83799E-06 3.34428E-19 1.05349E-18
 -1      3779 9.25215E-05-2.58694E-05-2.85733E-05-6.30458E-06 5.03435E-19 1.23443E-18
 -1      3780 9.11885E-05-2.53595E-05-2.82146E-05-6.95708E-06 2.25364E-19 1.06711E-18
 -1      3781 9.68672E-05-3.35496E-05-2.70895E-05-1.31141E-05-5.87629E-19 1.30417E-18
 -1      3782 9.50044E-05-3.14641E-05-2.72020E-05-1.25298E-05-5.68962E-19 1.18159E-18
 -1      3783 9.19506E-05-2.94840E-05-2.68203E-05-1.28044E-05-7.96427E-19 1.68137E-18
 -1      3784 1.02016E-04-3.88673E-05-2.69741E-05-1.42377E-05-3.36552E-19 7.11683E-19
 -1      3785 9.88763E-05-3.59467E-05-2.68880E-05-1.42520E-05-3.04395E-19 1.21874E-18
 -1      3786 9.46130E-05-3.34445E-05-2.62807E-05-1.55241E-05-2.73770E-19 1.50701E-18
 -1      3787 1.03592E-04-4.18276E-05-2.63431E-05-1.69634E-05-6.06198E-19 8.38482E-19
 -1      3788 1.12379E-04-4.61944E-05-2.82658E-05 1.05275E-05-1.44975E-18-2.56755E-19
 -1      3789 9.62307E-05-3.15519E-05-2.76820E-05 1.11799E-05-3.10570E-19 1.86577E-18
 -1      3790 9.81645E-05-3.35835E-05-2.76361E-05 1.14766E-05 3.84963E-19 1.37495E-18
 -1      3791 9.40334E-05-2.87182E-05-2.79827E-05 9.68493E-06-3.95557E-19 1.54038E-18
 -1      3792 9.51462E-05-3.00408E-05-2.78715E-05 1.02380E-05-2.01047E-19 1.88861E-18
 -1      3793 9.33450E-05-2.97781E-05-2.72884E-05 1.17015E-05-4.98901E-19 1.84939E-18
 -1      3794 9.29657E-05-2.69939E-05-2.82738E-05 8.18991E-06-6.74748E-19 9.15659E-19
 -1      3795 9.35701E-05-2.77920E-05-2.81665E-05 8.79005E-06-8.05752E-19 1.20300E-18
 -1      3796 9.18864E-05-2.72946E-05-2.77071E-05 9.67935E-06-3.05930E-19 1.39098E-18
 -1      3797 9.25978E-05-2.60864E-05-2.85096E-05 6.82076E-06-9.34936E-19 1.30260E-18
 -1      3798 9.28703E-05-2.65055E-05-2.84251E-05 7.40135E-06-2.50593E-19 1.41828E-18
 -1      3799 9.13895E-05-2.59088E-05-2.80739E-05 7.91474E-06-6.73906E-19 6.10730E-19
 -1      3800 9.26348E-05-2.57316E-05-2.86793E-05 5.61271E-06-1.20187E-18 1.24758E-18
 -1      3801 9.27073E-05-2.58954E-05-2.86221E-05 6.14676E-06-1.80732E-18 6.77682E-19
 -1      3802 9.14408E-05-2.52723E-05-2.83606E-05 6.42748E-06-8.63636E-19 2.93005E-19
 -1      3803 9.28845E-05-2.57282E-05-2.87883E-05 4.56501E-06 4.65999E-19 8.42276E-19
 -1      3804 9.28457E-05-2.57302E-05-2.87558E-05 5.04299E-06 9.68354E-20 1.25700E-18
 -1      3805 9.17832E-05-2.51256E-05-2.85663E-05 5.18823E-06-8.60470E-19-9.82882E-19
 -1      3806 9.32272E-05-2.59317E-05-2.88477E-05 3.66761E-06 3.03149E-19 7.34418E-19
 -1      3807 9.31341E-05-2.58393E-05-2.88350E-05 4.08638E-06 7.26682E-19 1.18841E-18
 -1      3808 9.22569E-05-2.52779E-05-2.87019E-05 4.15683E-06 4.37307E-19-2.42630E-19
 -1      3809 9.35903E-05-2.62411E-05-2.88701E-05 2.90822E-06 8.85608E-19-2.65825E-19
 -1      3810 9.34777E-05-2.61009E-05-2.88717E-05 3.26839E-06 8.59028E-19 3.43382E-19
 -1      3811 9.27652E-05-2.55980E-05-2.87819E-05 3.30074E-06 6.82132E-19-2.45508E-19
 -1      3812 9.39329E-05-2.65895E-05-2.88669E-05 2.27360E-06-9.53460E-21-1.13020E-18
 -1      3813 9.38208E-05-2.64322E-05-2.88778E-05 2.57797E-06 7.14468E-19-9.75174E-19
 -1      3814 9.32514E-05-2.59944E-05-2.88203E-05 2.59310E-06 1.26603E-18-8.17739E-19
 -1      3815 9.42345E-05-2.69349E-05-2.88473E-05 1.75041E-06 2.63401E-19-2.16932E-18
 -1      3816 9.41335E-05-2.67795E-05-2.88636E-05 2.00321E-06-4.84358E-19-1.29430E-18
 -1      3817 9.36861E-05-2.64080E-05-2.88297E-05 2.01219E-06 1.96291E-19 8.86868E-20
 -1      3818 9.44874E-05-2.72532E-05-2.88185E-05 1.32512E-06 9.82720E-19-1.14521E-18
 -1      3819 9.44019E-05-2.71104E-05-2.88373E-05 1.53159E-06 7.06823E-19-1.24480E-18
 -1      3820 9.40566E-05-2.68022E-05-2.88201E-05 1.53983E-06-5.67487E-19-3.40439E-19
 -1      3821 9.46912E-05-2.75317E-05-2.87858E-05 9.84529E-07 6.25523E-19 4.77195E-19
 -1      3822 9.46226E-05-2.74071E-05-2.88050E-05 1.15071E-06 4.60569E-19-8.64140E-19
 -1      3823 9.43612E-05-2.71575E-05-2.87990E-05 1.15983E-06 1.98277E-19 6.08645E-19
 -1      3824 9.48497E-05-2.77661E-05-2.87526E-05 7.18095E-07 6.78807E-19 3.87188E-19
 -1      3825 9.47977E-05-2.76626E-05-2.87708E-05 8.48078E-07 1.53594E-18 7.90174E-19
 -1      3826 9.46045E-05-2.74650E-05-2.87722E-05 8.59079E-07 5.59470E-19 4.31005E-20
 -1      3827 7.78810E-05-2.87127E-05-2.09399E-05 2.41202E-05 1.97068E-20 2.01382E-19
 -1      3828 6.29768E-05-1.55375E-05-2.00264E-05 9.71799E-06-1.25652E-19 3.47509E-19
 -1      3829 6.22798E-05-1.47981E-05-2.03880E-05 3.40085E-06-2.68873E-19-2.93801E-19
 -1      3830 6.23025E-05-1.51260E-05-2.01961E-05-5.59431E-06-3.88179E-19-7.06452E-19
 -1      3831 6.10601E-05-1.56590E-05-1.91934E-05-1.05566E-05-3.15202E-19-8.07143E-19
 -1      3832 6.63178E-05-1.83650E-05-2.05103E-05-1.36707E-05-3.15434E-19-3.60399E-19
 -1      3833 6.83957E-05-1.88722E-05-2.11227E-05 1.36056E-05-2.96217E-19 6.04702E-19
 -1      3834 9.52795E-05-2.45997E-05-3.02776E-05-5.25850E-08-7.94422E-20 3.36379E-19
 -1      3835 9.53456E-05-2.51726E-05-3.00828E-05 5.34927E-07-1.01729E-19 3.45040E-19
 -1      3836 9.52290E-05-2.50313E-05-3.00799E-05 6.03272E-07-7.40238E-20 5.89523E-19
 -1      3837 9.54746E-05-2.70209E-05-2.93371E-05-2.62792E-06-2.72142E-19 9.67056E-19
 -1      3838 9.55366E-05-2.68891E-05-2.94174E-05-2.18821E-06-3.17141E-19 8.66607E-19
 -1      3839 9.55084E-05-2.64751E-05-2.95852E-05-1.81613E-06-1.38808E-19 8.42645E-19
 -1      3840 9.52820E-05-2.67589E-05-2.93670E-05-2.65687E-06-4.38232E-19 1.12603E-18
 -1      3841 6.33172E-05-1.50348E-05-2.06400E-05-6.51244E-06-2.64109E-19-2.45428E-19
 -1      3842 6.86972E-05-1.86111E-05-2.13343E-05-1.41466E-05 3.66221E-19-1.70299E-18
 -1      3843 9.44247E-05-2.73506E-05-2.87463E-05-3.34277E-07 3.56631E-19 2.66309E-18
 -1      3844 9.43788E-05-2.73138E-05-2.87443E-05-2.10937E-07-2.77208E-19-4.43912E-19
 -1      3845 1.08628E-04-4.35624E-05-2.78291E-05 1.20034E-05-1.15512E-18 2.08960E-19
 -1      3846 9.49344E-05-2.78786E-05-2.87376E-05 6.11702E-07-6.34700E-20-1.17646E-18
 -1      3847 9.33885E-05-2.03183E-05-3.13256E-05-9.31872E-07-8.31210E-20 5.47305E-19
 -1      3848 9.35753E-05-2.06528E-05-3.12699E-05-1.35211E-06-1.58207E-20 5.22017E-19
 -1      3849 9.39310E-05-2.13275E-05-3.10914E-05-5.63993E-07-4.58700E-20 5.63355E-19
 -1      3850 9.43564E-05-2.72958E-05-2.87419E-05-5.04659E-08-9.31966E-20-2.14091E-18
 -1      3851 9.43594E-05-2.72986E-05-2.87412E-05 8.12129E-08 1.09411E-18-2.31943E-18
 -1      3852 9.42389E-05-2.71465E-05-2.87509E-05-1.45538E-07 4.04448E-19-1.19979E-18
 -1      3853 9.46136E-05-2.74991E-05-2.87611E-05-6.53332E-07 2.15117E-19 9.90012E-19
 -1      3854 9.40003E-05-2.13770E-05-3.11347E-05 2.06029E-06 2.05223E-19 1.13905E-18
 -1      3855 9.37128E-05-2.08394E-05-3.12379E-05 1.69303E-06 1.02129E-19 1.09016E-18
 -1      3856 9.41658E-05-2.17535E-05-3.10191E-05 1.11117E-06 2.86070E-19 9.19288E-19
 -1      3857 9.43900E-05-2.21825E-05-3.09395E-05 1.68716E-06 1.41039E-19 1.11577E-18
 -1      3858 9.48463E-05-2.78316E-05-2.87221E-05 4.39961E-07 3.66765E-19-7.97422E-19
 -1      3859 1.00204E-04-3.68417E-05-2.71197E-05 1.35646E-05 8.08321E-21 5.00123E-19
 -1      3860 1.03049E-04-3.96572E-05-2.71654E-05 1.36065E-05-6.47550E-19 2.21270E-19
 -1      3861 8.01849E-05-2.74144E-05-2.26962E-05 2.03772E-05-1.08204E-18 1.04675E-19
 -1      3862 7.04594E-05-2.09134E-05-2.08985E-05 1.81868E-05-1.35353E-18 1.91849E-18
 -1      3863 9.77483E-05-3.88725E-05-2.53090E-05-1.98356E-05-4.24026E-19 9.33410E-19
 -1      3864 7.19958E-05-1.83487E-05-2.30509E-05-1.12798E-05-1.26787E-18-1.05722E-18
 -1      3865 7.30645E-05-2.05389E-05-2.24538E-05-1.53963E-05-1.08367E-19-4.62986E-19
 -1      3866 6.34558E-05-1.42863E-05-2.08893E-05-2.06779E-06 3.04664E-19 2.63354E-18
 -1      3867 6.78739E-05-1.59038E-05-2.21949E-05-5.55445E-06 1.64847E-19 1.01254E-18
 -1      3868 6.49140E-05-1.50501E-05-2.14852E-05 2.77455E-06 1.20394E-19 2.52641E-18
 -1      3869 9.54486E-05-2.52791E-05-3.00674E-05-4.22473E-07 8.30562E-20 8.34077E-19
 -1      3870 9.52136E-05-2.45528E-05-3.02805E-05-1.23169E-07 1.34565E-19 7.09290E-19
 -1      3871 9.54756E-05-2.57419E-05-2.98925E-05-9.81454E-07 9.95664E-20 7.69305E-19
 -1      3872 7.73045E-05-2.46930E-05-2.25754E-05 1.95224E-05-3.36368E-19 4.90631E-19
 -1      3873 8.70042E-05-3.08268E-05-2.39216E-05 2.02855E-05-8.06157E-19-1.08315E-18
 -1      3874 8.14619E-05-2.60759E-05-2.38251E-05 1.72830E-05-1.12194E-18-2.01379E-19
 -1      3875 9.28975E-05-3.35943E-05-2.53524E-05 1.76241E-05-1.05701E-18 7.95872E-20
 -1      3876 7.26879E-05-2.08315E-05-2.21032E-05 1.61485E-05-3.04728E-19 4.21994E-19
 -1      3877 9.48766E-05-2.36025E-05-3.05557E-05-5.28967E-07-2.71064E-20 4.19234E-19
 -1      3878 9.43010E-05-2.20042E-05-3.09616E-05-1.08214E-06-2.39933E-20 3.79844E-19
 -1      3879 9.47931E-05-2.77207E-05-2.87435E-05 6.26176E-07 8.20261E-19-1.04933E-18
 -1      3880 9.42470E-05-2.71607E-05-2.87489E-05 1.84608E-07 9.64075E-19-2.51281E-18
 -1      3881 9.43919E-05-2.73334E-05-2.87416E-05 2.37787E-07 5.99857E-19-2.66638E-18
 -1      3882 9.44394E-05-2.73773E-05-2.87426E-05 3.54223E-07 9.46642E-19-2.55474E-18
 -1      3883 6.36207E-05-1.45802E-05-2.07971E-05-8.84461E-07-2.57493E-19-4.09038E-19
 -1      3884 6.61796E-05-1.58963E-05-2.15458E-05-4.72876E-06-2.12738E-19-6.35050E-19
 -1      3885 6.64345E-05-1.55855E-05-2.17677E-05 3.31752E-06-1.48095E-19-3.93645E-19
 -1      3886 9.61460E-05-3.44436E-05-2.64779E-05 1.52113E-05-5.53298E-19 4.02407E-19
 -1      3887 9.47302E-05-2.76913E-05-2.87321E-05 4.57334E-07 6.30457E-19-5.02458E-19
 -1      3888 7.69070E-05-2.67235E-05-2.13726E-05-2.24381E-05-8.67269E-19 6.35275E-20
 -1      3889 8.30823E-05-2.90668E-05-2.30417E-05-2.05081E-05-6.66731E-19 2.21354E-19
 -1      3890 7.33291E-05-2.31144E-05-2.15366E-05-1.86861E-05-2.68126E-19 3.17929E-19
 -1      3891 9.28968E-05-2.59126E-05-2.86977E-05-5.75337E-06 3.46926E-19 1.11790E-18
 -1      3892 9.30583E-05-2.59350E-05-2.87749E-05-5.28829E-06 2.24687E-20 1.04430E-18
 -1      3893 9.18651E-05-2.53268E-05-2.85154E-05-5.72459E-06 3.21134E-19 1.06586E-18
 -1      3894 6.95481E-05-1.89015E-05-2.16454E-05 1.28818E-05-9.08860E-19 1.45856E-18
 -1      3895 9.45142E-05-2.74178E-05-2.87569E-05-5.52935E-07 6.41781E-20 2.16142E-18
 -1      3896 9.43529E-05-2.72320E-05-2.87645E-05-5.46222E-07 3.59739E-19 2.30420E-18
 -1      3897 9.40569E-05-2.63035E-05-2.90328E-05-4.03542E-06-4.25527E-19 8.58633E-19
 -1      3898 9.42766E-05-2.63917E-05-2.90982E-05-3.65671E-06-4.33949E-19 8.60808E-19
 -1      3899 6.93785E-05-1.75687E-05-2.22810E-05 1.01824E-05-1.35866E-19 4.04114E-19
 -1      3900 9.19170E-05-3.43296E-05-2.46748E-05-1.97640E-05-4.04564E-19 6.56914E-19
 -1      3901 9.43660E-05-2.24112E-05-3.08445E-05 4.48989E-07 2.40482E-19 9.93323E-19
 -1      3902 9.42487E-05-2.22122E-05-3.08829E-05 2.28557E-07 1.08992E-19 7.64752E-19
 -1      3903 9.46134E-05-2.64983E-05-2.91900E-05-3.30992E-06-2.80542E-19 8.88705E-19
 -1      3904 9.48112E-05-2.65306E-05-2.92658E-05-2.93895E-06-3.65074E-19 9.86665E-19
 -1      3905 9.41578E-05-2.61297E-05-2.91515E-05-3.17437E-06-3.73712E-19 7.91277E-19
 -1      3906 9.41974E-05-2.21135E-05-3.09035E-05 1.05648E-07 7.17244E-20 5.00939E-19
 -1      3907 9.41910E-05-2.21028E-05-3.09049E-05-1.32481E-07 1.69409E-20 5.63054E-19
 -1      3908 9.46248E-05-2.30091E-05-3.06703E-05 4.42478E-08 4.50232E-20 7.51388E-19
 -1      3909 9.46771E-05-2.31698E-05-3.06502E-05-3.80116E-07 1.17746E-20 5.21074E-19
 -1      3910 9.46602E-05-2.29237E-05-3.07407E-05 8.93033E-07 1.82152E-19 9.57245E-19
 -1      3911 9.46723E-05-2.29143E-05-3.07593E-05 1.28009E-06 1.32748E-19 9.60572E-19
 -1      3912 9.39732E-05-2.55784E-05-2.93167E-05 1.91897E-06 2.68024E-19 8.54109E-19
 -1      3913 9.35353E-05-2.53941E-05-2.92075E-05 2.17175E-06 4.27606E-19 9.30080E-19
 -1      3914 9.29635E-05-2.51152E-05-2.90846E-05 2.33230E-06 5.19322E-19 6.38114E-19
 -1      3915 9.23932E-05-2.47936E-05-2.89758E-05 2.57239E-06 3.37399E-19 4.70129E-19
 -1      3916 9.30760E-05-2.50559E-05-2.91411E-05 1.68405E-06 2.96652E-19 7.17778E-19
 -1      3917 9.16663E-05-2.43879E-05-2.88428E-05 2.72420E-06 1.86758E-19 3.73924E-19
 -1      3918 9.09566E-05-2.39618E-05-2.87177E-05 2.96528E-06 1.77079E-21 3.87388E-19
 -1      3919 9.17930E-05-2.43771E-05-2.88791E-05 1.94595E-06 9.92256E-20 3.65104E-19
 -1      3920 9.00609E-05-2.34603E-05-2.85557E-05 3.11510E-06-9.77608E-20 1.99163E-19
 -1      3921 8.91961E-05-2.29614E-05-2.83937E-05 3.37079E-06-3.76030E-19 1.82867E-20
 -1      3922 9.01923E-05-2.34704E-05-2.85775E-05 2.17693E-06-8.78712E-20-1.73861E-19
 -1      3923 8.81033E-05-2.23934E-05-2.81789E-05 3.52664E-06-1.61070E-19 1.95010E-19
 -1      3924 8.70587E-05-2.18544E-05-2.79543E-05 3.81704E-06 2.78469E-19 3.33431E-19
 -1      3925 8.82328E-05-2.23937E-05-2.81933E-05 2.38366E-06-7.43232E-20 1.14498E-19
 -1      3926 8.57182E-05-2.12477E-05-2.76555E-05 3.99437E-06 2.91694E-19 1.97187E-19
 -1      3927 8.44570E-05-2.07047E-05-2.73346E-05 4.35792E-06 3.91670E-21 2.56252E-19
 -1      3928 8.58405E-05-2.11981E-05-2.76715E-05 2.57538E-06 2.02754E-19 4.86773E-19
 -1      3929 8.27837E-05-2.00843E-05-2.69091E-05 4.58951E-06 3.93614E-20 2.35856E-19
 -1      3930 8.12562E-05-1.95774E-05-2.64459E-05 5.10088E-06 1.60429E-19-7.29491E-21
 -1      3931 8.28883E-05-1.99258E-05-2.69383E-05 2.78739E-06 3.13816E-20 7.41923E-20
 -1      3932 7.90915E-05-1.89551E-05-2.58290E-05 5.47674E-06 2.57132E-19-1.13515E-19
 -1      3933 7.72334E-05-1.85466E-05-2.51509E-05 6.27881E-06 4.31219E-19 1.89380E-19
 -1      3934 7.91296E-05-1.85771E-05-2.58867E-05 3.07558E-06 3.37767E-19 1.87919E-19
 -1      3935 7.48362E-05-1.81067E-05-2.43936E-05 7.20977E-06 4.32227E-19 2.86600E-19
 -1      3936 7.25588E-05-1.79027E-05-2.34033E-05 8.59059E-06 1.12169E-19 4.29512E-19
 -1      3937 6.94258E-05-1.63210E-05-2.26104E-05 6.02706E-06 6.65169E-20-1.00519E-19
 -1      3938 7.46752E-05-1.73311E-05-2.44858E-05 3.95873E-06 3.12917E-19 1.29752E-19
 -1      3939 9.50984E-05-2.54135E-05-2.98659E-05 9.18093E-07-8.31865E-20 5.86787E-19
 -1      3940 9.49403E-05-2.56182E-05-2.97156E-05 1.24911E-06 1.23925E-20 5.09530E-19
 -1      3941 7.84815E-05-1.86384E-05-2.56319E-05-6.48816E-06-1.74528E-19 1.18171E-18
 -1      3942 8.00355E-05-1.89724E-05-2.62208E-05-5.67756E-06 4.63840E-19 1.01879E-18
 -1      3943 8.19313E-05-1.94997E-05-2.67654E-05-5.21835E-06 1.06819E-18 5.84465E-19
 -1      3944 8.32409E-05-1.99358E-05-2.71658E-05-4.65040E-06 1.21440E-18 8.87238E-19
 -1      3945 7.98076E-05-1.84686E-05-2.62226E-05-3.54803E-06 8.80977E-19 1.04280E-18
 -1      3946 8.47171E-05-2.04920E-05-2.75345E-05-4.33008E-06 5.01667E-19 1.30919E-18
 -1      3947 8.57943E-05-2.09786E-05-2.78022E-05-3.90219E-06-4.97429E-19 1.21542E-18
 -1      3948 8.31096E-05-1.96602E-05-2.71486E-05-3.02602E-06 1.23694E-18 2.99354E-19
 -1      3949 8.69639E-05-2.15355E-05-2.80489E-05-3.64864E-06-9.03671E-19 1.98244E-18
 -1      3950 8.78449E-05-2.20316E-05-2.82230E-05-3.29774E-06-5.84249E-19 2.16278E-18
 -1      3951 8.57049E-05-2.08267E-05-2.77733E-05-2.63942E-06 1.76233E-20 1.11448E-18
 -1      3952 8.87805E-05-2.25654E-05-2.83845E-05-3.07636E-06-3.38894E-19 2.26902E-18
 -1      3953 8.94954E-05-2.30432E-05-2.84928E-05-2.77141E-06-5.54800E-20 1.66770E-18
 -1      3954 8.77742E-05-2.19447E-05-2.81895E-05-2.30355E-06-3.63354E-19 9.85938E-19
 -1      3955 9.02476E-05-2.35394E-05-2.85941E-05-2.57068E-06 4.91414E-19 1.16220E-18
 -1      3956 9.08220E-05-2.39805E-05-2.86568E-05-2.30064E-06 7.66282E-19 7.61591E-20
 -1      3957 8.94364E-05-2.29909E-05-2.84589E-05-1.98394E-06-1.43183E-20 5.48095E-19
 -1      3958 9.14246E-05-2.44274E-05-2.87166E-05-2.11820E-06 5.43504E-19-1.91630E-19
 -1      3959 9.18812E-05-2.48212E-05-2.87484E-05-1.87969E-06 7.85649E-19-7.73518E-19
 -1      3960 9.07723E-05-2.39477E-05-2.86254E-05-1.67813E-06 3.38892E-19-1.35222E-18
 -1      3961 9.23607E-05-2.52133E-05-2.87798E-05-1.71627E-06 6.05507E-19-1.08474E-18
 -1      3962 9.27193E-05-2.55554E-05-2.87913E-05-1.50857E-06 3.60010E-19-8.90997E-19
 -1      3963 9.18402E-05-2.48002E-05-2.87208E-05-1.39048E-06 5.12070E-19-1.04671E-18
 -1      3964 9.30973E-05-2.58914E-05-2.88039E-05-1.36516E-06 4.08972E-19 2.21731E-19
 -1      3965 9.33757E-05-2.61825E-05-2.88027E-05-1.18758E-06 6.27083E-19 1.20235E-18
 -1      3966 9.26867E-05-2.55421E-05-2.87681E-05-1.12740E-06 1.20174E-18-9.61267E-19
 -1      3967 9.36697E-05-2.64626E-05-2.88034E-05-1.06553E-06-6.25142E-22 1.89013E-18
 -1      3968 9.38797E-05-2.67050E-05-2.87945E-05-9.15159E-07-5.26112E-19 1.71539E-18
 -1      3969 9.33506E-05-2.61753E-05-2.87838E-05-8.95451E-07 7.70258E-19 1.07502E-18
 -1      3970 9.40505E-05-2.68803E-05-2.87862E-05-7.74151E-07 6.48765E-20 2.31001E-18
 -1      3971 9.42114E-05-2.70801E-05-2.87740E-05-6.56487E-07 7.17701E-19 2.17441E-18
 -1      3972 9.41188E-05-2.70068E-05-2.87619E-05-4.09261E-07 7.76202E-19 1.91768E-18
 -1      3973 9.38007E-05-2.66472E-05-2.87774E-05-6.47174E-07 7.12849E-19 1.82678E-18
 -1      3974 8.99125E-05-2.45989E-05-2.79748E-05-6.70572E-06 9.55983E-20 9.61506E-19
 -1      3975 9.02035E-05-2.45499E-05-2.81532E-05-6.03466E-06 3.04333E-19 1.08268E-18
 -1      3976 8.97656E-05-2.46520E-05-2.79201E-05 7.21709E-06-9.72948E-19-7.79030E-20
 -1      3977 8.98546E-05-2.50640E-05-2.77436E-05 8.02990E-06-5.96317E-19-9.19961E-20
 -1      3978 8.95870E-05-2.55089E-05-2.74762E-05 9.10398E-06-4.63799E-19 2.47523E-19
 -1      3979 9.00416E-05-2.63575E-05-2.72577E-05 1.00831E-05-3.18710E-19 6.74108E-19
 -1      3980 8.79204E-05-2.41691E-05-2.73219E-05 8.36042E-06-5.66062E-19-8.08038E-19
 -1      3981 9.00716E-05-2.72841E-05-2.69211E-05 1.14707E-05-3.84186E-19 4.46783E-19
 -1      3982 9.11741E-05-2.87576E-05-2.66922E-05 1.25803E-05-1.24669E-19 7.31046E-19
 -1      3983 8.76125E-05-2.53804E-05-2.66794E-05 1.08751E-05-4.47142E-19-2.76525E-19
 -1      3984 9.02935E-05-2.44026E-05-2.82523E-05 5.72170E-06-6.18859E-20-7.04470E-19
 -1      3985 9.01766E-05-2.45250E-05-2.81212E-05 6.38620E-06-3.85793E-19 3.62261E-19
 -1      3986 8.86365E-05-2.37228E-05-2.78153E-05 6.45859E-06-5.63649E-19-1.57631E-19
 -1      3987 9.09646E-05-2.45233E-05-2.84866E-05 4.52905E-06-3.44584E-19-1.06159E-18
 -1      3988 9.07474E-05-2.44678E-05-2.83962E-05 5.07732E-06-5.17167E-19-3.15932E-19
 -1      3989 8.95208E-05-2.37603E-05-2.81770E-05 5.01646E-06-1.39798E-19-7.94649E-20
 -1      3990 9.16723E-05-2.48662E-05-2.86413E-05 3.57006E-06-1.11542E-19-7.61354E-20
 -1      3991 9.14173E-05-2.47067E-05-2.85842E-05 4.02185E-06-3.85030E-19-9.15165E-19
 -1      3992 9.04347E-05-2.40796E-05-2.84301E-05 3.89984E-06-3.30239E-19-3.65766E-19
 -1      3993 9.23464E-05-2.53184E-05-2.87349E-05 2.79639E-06 1.21505E-18-9.67177E-19
 -1      3994 9.20912E-05-2.51081E-05-2.87031E-05 3.16895E-06 1.26342E-18-6.42061E-20
 -1      3995 9.13078E-05-2.45622E-05-2.85976E-05 3.02953E-06 4.27696E-19-1.40075E-19
 -1      3996 9.29517E-05-2.58066E-05-2.87838E-05 2.17122E-06 2.22463E-19 1.46431E-18
 -1      3997 9.27171E-05-2.55802E-05-2.87703E-05 2.47743E-06 3.71522E-19 3.85399E-19
 -1      3998 9.20958E-05-2.51112E-05-2.87007E-05 2.34384E-06 2.36462E-19 7.77355E-19
 -1      3999 9.34726E-05-2.62836E-05-2.88013E-05 1.66766E-06 5.56196E-19 1.34125E-18
 -1      4000 9.32684E-05-2.60633E-05-2.88003E-05 1.91763E-06 9.11646E-19 2.07797E-18
 -1      4001 9.27802E-05-2.56665E-05-2.87569E-05 1.80106E-06 5.61676E-19 3.09150E-18
 -1      4002 9.39058E-05-2.67217E-05-2.87982E-05 1.26447E-06-4.54111E-19 3.73945E-19
 -1      4003 9.37354E-05-2.65202E-05-2.88051E-05 1.46667E-06 1.48798E-19 6.54504E-19
 -1      4004 9.33561E-05-2.61901E-05-2.87803E-05 1.37137E-06 5.61165E-19 2.01340E-18
 -1      4005 9.42551E-05-2.71060E-05-2.87824E-05 9.45247E-07-1.32091E-19 7.73665E-19
 -1      4006 9.41182E-05-2.69294E-05-2.87939E-05 1.10691E-06-5.91756E-19 4.10315E-20
 -1      4007 9.38290E-05-2.66613E-05-2.87820E-05 1.03241E-06-6.28189E-20 1.16350E-18
 -1      4008 9.46387E-05-2.75637E-05-2.87458E-05 5.49253E-07 5.67997E-19-3.27159E-19
 -1      4009 9.51205E-05-2.45971E-05-3.02320E-05 2.56301E-07 5.55227E-20 4.88277E-19
 -1      4010 9.51434E-05-2.50609E-05-3.00426E-05 6.78240E-07-1.71603E-20 5.87580E-19
 -1      4011 9.50239E-05-2.50060E-05-3.00049E-05 5.99987E-07 2.19952E-20 5.92686E-19
 -1      4012 7.01923E-05-1.86456E-05-2.21293E-05-1.13393E-05-4.13193E-19-3.28556E-19
 -1      4013 7.15714E-05-2.06605E-05-2.16885E-05-1.55892E-05-2.87609E-19 3.87994E-19
 -1      4014 7.67967E-05-2.31659E-05-2.30325E-05-1.59352E-05-3.13937E-19 6.10618E-19
 -1      4015 9.45613E-05-2.27845E-05-3.07702E-05 6.46927E-07 3.20119E-19 8.63201E-19
 -1      4016 9.46916E-05-2.57035E-05-2.95689E-05 1.45946E-06 2.61236E-19 5.80002E-19
 -1      4017 9.43895E-05-2.56946E-05-2.94452E-05 1.74186E-06 3.55987E-19 7.49755E-19
 -1      4018 9.47114E-05-2.54413E-05-2.96780E-05 1.02353E-06 1.74864E-19 4.73227E-19
 -1      4019 1.10883E-04-1.36140E-05-4.23388E-05 1.22841E-06 2.00853E-19 4.36911E-18
 -1      4020 9.34604E-05-2.60666E-05-2.88763E-05-4.83352E-06-2.47287E-19 1.02534E-18
 -1      4021 9.36718E-05-2.61549E-05-2.89423E-05-4.42171E-06-3.06575E-19 9.87123E-19
 -1      4022 9.34372E-05-2.58577E-05-2.89592E-05-3.89834E-06-4.24933E-19 7.32310E-19
 -1      4023 9.26487E-05-2.55462E-05-2.87556E-05-4.72746E-06-1.33756E-19 8.43551E-19
 -1      4024 7.45876E-05-1.82873E-05-2.40651E-05-9.18140E-06-9.83137E-19 2.18945E-19
 -1      4025 7.62899E-05-1.83313E-05-2.49258E-05-7.78278E-06-3.00345E-19 1.15963E-18
 -1      4026 7.57111E-05-1.73355E-05-2.49345E-05-4.86247E-06-4.98302E-20 1.54178E-18
 -1      4027 7.11403E-05-1.69200E-05-2.31653E-05-7.87226E-06-4.70939E-20-1.67832E-19
 -1      4028 9.48321E-05-2.34473E-05-3.05829E-05 2.88432E-07 1.63550E-19 9.42008E-19
 -1      4029 8.94051E-05-2.82269E-05-2.61606E-05-1.35476E-05-7.24483E-19 9.03756E-19
 -1      4030 8.85581E-05-2.68012E-05-2.64774E-05-1.21461E-05-7.13395E-19 8.88457E-19
 -1      4031 7.37169E-05-2.01496E-05-2.30606E-05 1.25620E-05-7.17536E-19 1.56004E-18
 -1      4032 6.85247E-05-1.63882E-05-2.21199E-05 8.23501E-06-8.39335E-19 1.04207E-18
 -1      4033 9.42410E-05-2.21953E-05-3.08870E-05-2.47554E-07 5.04828E-21 6.73174E-19
 -1      4034 9.43524E-05-2.24111E-05-3.08480E-05-4.89855E-07-1.31439E-21 6.34952E-19
 -1      4035 9.46048E-05-2.29876E-05-3.06732E-05-8.62125E-08-3.84055E-20 7.21784E-19
 -1      4036 9.40617E-05-2.69685E-05-2.87568E-05-2.04179E-07 1.01750E-18-1.02264E-18
 -1      4037 9.40427E-05-2.69501E-05-2.87541E-05-3.33239E-08 1.27997E-18-2.23103E-18
 -1      4038 9.39158E-05-2.67923E-05-2.87643E-05-3.01030E-07 1.98699E-18-1.10650E-19
 -1      4039 9.10663E-05-3.03628E-05-2.60540E-05 1.48413E-05-1.29978E-19 4.28037E-19
 -1      4040 9.50387E-05-2.42029E-05-3.03641E-05-1.77684E-07 1.38986E-19 9.12929E-19
 -1      4041 8.72268E-05-3.09032E-05-2.41289E-05-1.97079E-05-2.35495E-19-6.72200E-20
 -1      4042 9.21899E-05-3.24818E-05-2.55197E-05-1.69284E-05 1.93163E-19 6.94092E-19
 -1      4043 9.03043E-05-3.01066E-05-2.57898E-05-1.53571E-05-1.70674E-19 9.69625E-19
 -1      4044 8.35866E-05-2.74629E-05-2.39853E-05-1.78902E-05 1.42632E-19-3.87170E-20
 -1      4045 9.49280E-05-2.38088E-05-3.04667E-05-2.27265E-08 1.43569E-20 6.28993E-19
 -1      4046 9.44605E-05-2.73778E-05-2.87490E-05 5.15953E-07 8.19819E-19-1.02636E-18
 -1      4047 9.45132E-05-2.74120E-05-2.87608E-05 7.02189E-07 8.16727E-19 4.19124E-19
 -1      4048 9.44059E-05-2.72619E-05-2.87744E-05 8.32243E-07 7.85999E-19 6.31558E-19
 -1      4049 9.43002E-05-2.72017E-05-2.87561E-05 5.08000E-07 5.51744E-19-2.31089E-18
 -1      4050 9.40547E-05-2.54387E-05-2.93979E-05 1.38239E-06 3.34293E-19 6.49266E-19
 -1      4051 7.02322E-05-1.60985E-05-2.32838E-05-3.83540E-06 1.46565E-19 1.80636E-18
 -1      4052 9.54630E-05-2.60916E-05-2.97282E-05-1.39217E-06-1.23253E-19 7.43771E-19
 -1      4053 9.53530E-05-2.55777E-05-2.98996E-05-1.03128E-06-3.75806E-20 6.60293E-19
 -1      4054 9.53829E-05-2.63290E-05-2.95976E-05-1.84765E-06-2.60752E-19 6.87967E-19
 -1      4055 6.94697E-05-1.61325E-05-2.29162E-05 2.23349E-06 6.47881E-20-3.25413E-19
 -1      4056 7.86099E-05-2.26853E-05-2.38106E-05 1.45957E-05-9.72110E-19 1.08403E-18
 -1      4057 7.65157E-05-2.03581E-05-2.41312E-05 1.08013E-05-7.82473E-19 1.18901E-18
 -1      4058 8.38522E-05-2.58540E-05-2.48407E-05 1.49585E-05-9.34770E-19-8.50853E-19
 -1      4059 9.41805E-05-2.70420E-05-2.87708E-05 7.79161E-07 2.07868E-19 5.75280E-19
 -1      4060 9.52174E-05-2.49793E-05-3.01019E-05-5.11535E-07 5.70007E-20 9.11951E-19
 -1      4061 9.49154E-05-2.40369E-05-3.03788E-05-1.60191E-07 1.04980E-19 1.11378E-18
 -1      4062 8.75749E-05-2.77303E-05-2.56499E-05 1.46573E-05-6.59390E-19 1.17890E-19
 -1      4063 8.91694E-05-2.49538E-05-2.74952E-05-8.39961E-06-1.17590E-19 8.83963E-19
 -1      4064 8.92703E-05-2.46299E-05-2.77215E-05-7.54257E-06-7.09388E-20 7.52450E-19
 -1      4065 8.83194E-05-2.37519E-05-2.76636E-05-6.55570E-06 1.49203E-19 4.70879E-19
 -1      4066 9.40589E-05-2.69729E-05-2.87538E-05 1.73561E-07 1.14700E-18-2.52045E-18
 -1      4067 9.41059E-05-2.70064E-05-2.87549E-05 3.43661E-07 1.48742E-18-4.27085E-18
 -1      4068 9.38816E-05-2.67753E-05-2.87586E-05 1.26354E-07 1.68720E-18-2.18727E-18
 -1      4069 9.50260E-05-2.46453E-05-3.01474E-05-3.02020E-07-1.07740E-22 1.07965E-18
 -1      4070 9.48379E-05-2.39195E-05-3.04041E-05-6.25501E-08 3.87026E-20 8.89595E-19
 -1      4071 9.47819E-05-2.38202E-05-3.04224E-05-6.47203E-08-3.63351E-20 7.49498E-19
 -1      4072 9.48618E-05-2.38893E-05-3.04177E-05 6.75536E-08-1.17093E-20 7.31504E-19
 -1      4073 6.94355E-05-1.70365E-05-2.23349E-05-7.80384E-06-3.15695E-19-5.66897E-19
 -1      4074 7.35775E-05-1.90718E-05-2.33474E-05-9.50697E-06-2.71914E-19-2.33768E-19
 -1      4075 6.97685E-05-1.65198E-05-2.28379E-05-3.56463E-06-2.52413E-19-5.43583E-19
 -1      4076 8.61376E-05-2.48829E-05-2.62765E-05-1.11846E-05-3.22011E-19 1.46467E-19
 -1      4077 8.88778E-05-2.60366E-05-2.68913E-05-1.06299E-05-3.54239E-19 1.10904E-18
 -1      4078 8.86187E-05-2.52687E-05-2.71678E-05-9.52594E-06-6.59193E-20 9.92710E-19
 -1      4079 9.08612E-05-2.46892E-05-2.83482E-05-5.41197E-06 3.90143E-19 8.11813E-19
 -1      4080 9.12343E-05-2.47961E-05-2.84884E-05-4.87721E-06 2.37975E-19 6.44058E-19
 -1      4081 8.96350E-05-2.39791E-05-2.81291E-05-5.13449E-06 1.19566E-19 5.98876E-19
 -1      4082 9.50739E-05-2.65427E-05-2.93707E-05-2.60121E-06-4.73292E-19 8.05956E-19
 -1      4083 9.52254E-05-2.64675E-05-2.94683E-05-2.20744E-06-4.14540E-19 7.41624E-19
 -1      4084 9.51726E-05-2.60978E-05-2.95989E-05-1.80250E-06-3.74461E-19 5.29868E-19
 -1      4085 9.47545E-05-2.62474E-05-2.93568E-05-2.49499E-06-4.40530E-19 7.98681E-19
 -1      4086 6.98168E-05-1.63039E-05-2.28775E-05 3.77025E-06-4.18699E-19 1.57731E-18
 -1      4087 9.37213E-05-2.58107E-05-2.91031E-05-2.90709E-06-2.07603E-19 6.91113E-19
 -1      4088 9.40590E-05-2.59296E-05-2.92041E-05-2.57186E-06-1.80617E-19 7.96634E-19
 -1      4089 8.65581E-05-2.73860E-05-2.54224E-05-1.48989E-05-1.38824E-19-2.28075E-19
 -1      4090 9.28454E-05-2.54402E-05-2.88842E-05-3.58344E-06-4.72845E-19 4.10472E-19
 -1      4091 9.32327E-05-2.56176E-05-2.89853E-05-3.21525E-06-3.96289E-19 4.87311E-19
 -1      4092 9.31717E-05-2.54069E-05-2.90338E-05-2.59961E-06-2.64195E-19 4.03880E-19
 -1      4093 9.20252E-05-2.45327E-05-2.89321E-05 1.13708E-06 2.26574E-20 3.45758E-19
 -1      4094 9.13009E-05-2.41374E-05-2.87925E-05 1.22648E-06-3.08741E-19 8.43045E-20
 -1      4095 9.04722E-05-2.36838E-05-2.86316E-05 1.20673E-06-3.78796E-19 2.61271E-19
 -1      4096 8.95752E-05-2.31915E-05-2.84621E-05 1.27100E-06-3.25580E-19 8.04286E-20
 -1      4097 9.08338E-05-2.38531E-05-2.86894E-05 3.64098E-07-2.56657E-19 1.64615E-19
 -1      4098 8.85750E-05-2.26565E-05-2.82602E-05 1.20510E-06-3.21143E-20 2.92947E-19
 -1      4099 8.74714E-05-2.20933E-05-2.80369E-05 1.24108E-06 4.58395E-20 4.64965E-19
 -1      4100 8.90343E-05-2.28930E-05-2.83249E-05 2.03519E-07-8.99689E-20 5.65828E-19
 -1      4101 8.62628E-05-2.15069E-05-2.77669E-05 1.12671E-06 2.25119E-20 4.19453E-19
 -1      4102 8.49094E-05-2.08975E-05-2.74587E-05 1.13204E-06 6.31676E-20 2.81608E-19
 -1      4103 8.68375E-05-2.17830E-05-2.78497E-05-1.05812E-07 1.89193E-20 5.43691E-19
 -1      4104 8.34199E-05-2.02719E-05-2.70848E-05 9.39016E-07-7.46617E-20 2.21314E-19
 -1      4105 8.17314E-05-1.96313E-05-2.66480E-05 9.24493E-07-1.05941E-19 3.07705E-19
 -1      4106 8.41913E-05-2.06006E-05-2.72062E-05-6.15035E-07-8.49568E-20 2.06747E-19
 -1      4107 7.98544E-05-1.89905E-05-2.61184E-05 6.55642E-07 7.52445E-20-2.84749E-20
 -1      4108 7.77410E-05-1.83092E-05-2.54910E-05 6.15356E-07 3.31734E-19-2.23630E-19
 -1      4109 8.08563E-05-1.93436E-05-2.63062E-05-1.38468E-06-2.32592E-19-2.46069E-19
 -1      4110 7.51938E-05-1.75642E-05-2.47620E-05 9.57746E-07 3.21193E-19 6.96197E-20
 -1      4111 7.29426E-05-1.69761E-05-2.39847E-05 1.45629E-06 2.41080E-19 7.29648E-20
 -1      4112 7.08511E-05-1.63556E-05-2.32622E-05-1.07123E-06-6.52410E-20-3.73627E-19
 -1      4113 7.66540E-05-1.80139E-05-2.50612E-05-1.74489E-06 2.79030E-19-5.22383E-19
 -1      4114 9.52074E-05-2.53926E-05-2.99286E-05-9.40968E-07-6.61021E-20 8.43106E-19
 -1      4115 8.40780E-05-2.45671E-05-2.55743E-05 1.25190E-05-5.75505E-19-3.23426E-19
 -1      4116 8.63087E-05-2.28259E-05-2.72397E-05 7.04416E-06-4.67676E-19-1.41357E-18
 -1      4117 8.60134E-05-2.30948E-05-2.69436E-05 8.07047E-06-8.91383E-19-1.27920E-18
 -1      4118 8.18894E-05-1.92761E-05-2.68621E-05-1.41621E-06 1.47964E-18-1.46030E-19
 -1      4119 8.33801E-05-1.98668E-05-2.72428E-05-1.32755E-06 1.10780E-18-1.89266E-19
 -1      4120 8.47273E-05-2.04486E-05-2.75668E-05-1.42031E-06 3.03860E-19-1.43661E-19
 -1      4121 8.59025E-05-2.10197E-05-2.78228E-05-1.32816E-06 6.14934E-20 5.06550E-19
 -1      4122 8.39200E-05-2.00743E-05-2.73215E-05 6.46781E-08 8.15637E-19-1.16102E-18
 -1      4123 8.69785E-05-2.15769E-05-2.80426E-05-1.37634E-06-6.50213E-19 1.08198E-18
 -1      4124 8.79144E-05-2.21128E-05-2.82120E-05-1.26959E-06-5.74508E-19 1.09793E-18
 -1      4125 8.62900E-05-2.12229E-05-2.78672E-05-2.15694E-07-2.25551E-21-2.67645E-19
 -1      4126 8.87846E-05-2.26420E-05-2.83569E-05-1.27549E-06-7.03819E-19 7.20728E-19
 -1      4127 8.95368E-05-2.31401E-05-2.84646E-05-1.16167E-06-1.09686E-20 3.72615E-19
 -1      4128 8.81991E-05-2.22883E-05-2.82326E-05-3.87589E-07-6.75887E-19 1.92684E-19
 -1      4129 9.02403E-05-2.36253E-05-2.85567E-05-1.13952E-06 4.02747E-19-8.92336E-19
 -1      4130 9.08434E-05-2.40761E-05-2.86215E-05-1.02273E-06 2.74478E-19-8.94249E-19
 -1      4131 8.97458E-05-2.32869E-05-2.84708E-05-4.59818E-07-3.81438E-19-3.84805E-19
 -1      4132 9.14106E-05-2.45110E-05-2.86767E-05-9.83891E-07 1.05532E-19-1.35075E-18
 -1      4133 9.18908E-05-2.49096E-05-2.87120E-05-8.69782E-07 1.50439E-19-1.21855E-18
 -1      4134 9.09982E-05-2.41982E-05-2.86196E-05-4.65727E-07 5.26997E-20-8.36304E-19
 -1      4135 9.23454E-05-2.52897E-05-2.87417E-05-8.24817E-07 8.82815E-19-1.79155E-18
 -1      4136 9.27231E-05-2.56338E-05-2.87573E-05-7.17866E-07 1.82059E-18-1.52711E-18
 -1      4137 9.20081E-05-2.50151E-05-2.87057E-05-4.31838E-07 1.89379E-19-1.11538E-18
 -1      4138 9.30838E-05-2.59592E-05-2.87698E-05-6.70629E-07 1.68940E-18-2.03267E-18
 -1      4139 9.33751E-05-2.62505E-05-2.87725E-05-5.77602E-07 8.40572E-19-1.63206E-18
 -1      4140 9.28108E-05-2.57191E-05-2.87490E-05-3.90864E-07 1.07749E-18-2.90887E-18
 -1      4141 9.35706E-05-2.64313E-05-2.87726E-05-4.94575E-07 1.91293E-18-1.47514E-18
 -1      4142 9.37435E-05-2.66300E-05-2.87666E-05-3.63694E-07 2.79569E-18-4.86586E-19
 -1      4143 9.37022E-05-2.65878E-05-2.87612E-05-1.43676E-07 2.84306E-18-2.72410E-18
 -1      4144 9.33440E-05-2.62250E-05-2.87618E-05-2.75809E-07 2.91168E-18-2.96337E-18
 -1      4145 8.88335E-05-2.31919E-05-2.81489E-05 4.04466E-06-3.69436E-19-1.05267E-18
 -1      4146 8.83698E-05-2.30416E-05-2.79911E-05 4.64823E-06-2.90669E-19-1.03527E-18
 -1      4147 8.75983E-05-2.28536E-05-2.77695E-05 5.30641E-06-8.22127E-20-1.12290E-18
 -1      4148 8.71641E-05-2.28427E-05-2.75497E-05 6.09225E-06-4.34156E-19-1.05017E-18
 -1      4149 8.53846E-05-2.18505E-05-2.72075E-05 5.75259E-06-5.24377E-19-1.79712E-18
 -1      4150 9.41130E-05-2.70094E-05-2.87609E-05 5.19792E-07 1.53244E-18-1.73602E-18
 -1      4151 8.50873E-05-2.33014E-05-2.65233E-05 9.37344E-06-8.89374E-19-8.57881E-19
 -1      4152 8.50545E-05-2.39892E-05-2.61399E-05 1.07721E-05-2.17225E-19-4.65018E-19
 -1      4153 8.17409E-05-2.23167E-05-2.54231E-05 1.08254E-05-4.67490E-19-2.14327E-19
 -1      4154 8.35863E-05-2.17814E-05-2.64534E-05 7.84848E-06-7.52038E-19-1.57094E-18
 -1      4155 8.99910E-05-2.37344E-05-2.84094E-05 3.08639E-06-1.81357E-19-6.90825E-19
 -1      4156 8.95330E-05-2.34835E-05-2.83025E-05 3.54468E-06-8.52513E-21-6.29874E-19
 -1      4157 8.84995E-05-2.28102E-05-2.81375E-05 3.16455E-06-2.07537E-19-1.65918E-18
 -1      4158 9.10193E-05-2.43566E-05-2.85807E-05 2.35682E-06 1.02874E-19-1.11792E-19
 -1      4159 9.05968E-05-2.40636E-05-2.85120E-05 2.71445E-06-3.07876E-19-4.48303E-19
 -1      4160 8.97966E-05-2.35022E-05-2.83997E-05 2.36293E-06-3.88635E-19-8.49575E-19
 -1      4161 9.19104E-05-2.49973E-05-2.86858E-05 1.79462E-06-6.00383E-20 8.17598E-19
 -1      4162 9.15373E-05-2.46956E-05-2.86455E-05 2.07617E-06-1.17442E-19 1.12365E-19
 -1      4163 9.09135E-05-2.42233E-05-2.85713E-05 1.76665E-06-7.67822E-20-1.14223E-19
 -1      4164 9.26629E-05-2.56113E-05-2.87434E-05 1.35920E-06 3.36146E-19 2.24380E-18
 -1      4165 9.23445E-05-2.53228E-05-2.87233E-05 1.58171E-06 3.60503E-19 1.57555E-18
 -1      4166 9.18588E-05-2.49275E-05-2.86763E-05 1.32003E-06-7.30618E-19 5.87768E-19
 -1      4167 9.32842E-05-2.61708E-05-2.87682E-05 1.02063E-06 5.17449E-19 1.60788E-18
 -1      4168 9.30192E-05-2.59085E-05-2.87618E-05 1.19708E-06 6.47883E-19 1.76876E-18
 -1      4169 9.26426E-05-2.55806E-05-2.87340E-05 9.84180E-07 8.83209E-19 1.74118E-18
 -1      4170 9.37823E-05-2.66602E-05-2.87710E-05 7.58359E-07 2.40438E-19 1.74713E-19
 -1      4171 9.35699E-05-2.64318E-05-2.87737E-05 8.97649E-07 7.49952E-19 1.16521E-18
 -1      4172 9.32814E-05-2.61663E-05-2.87593E-05 7.30507E-07 1.14320E-18 3.00052E-19
 -1      4173 9.39565E-05-2.68325E-05-2.87673E-05 6.15172E-07 1.10714E-18-1.61000E-18
 -1      4174 9.41935E-05-2.54336E-05-2.94718E-05 8.20255E-07 4.14563E-19 6.06330E-19
 -1      4175 9.37740E-05-2.53337E-05-2.93382E-05 9.66348E-07 2.62201E-19 5.13447E-19
 -1      4176 9.47993E-05-2.53335E-05-2.97691E-05 5.80205E-07 1.49857E-19 5.85528E-19
 -1      4177 9.45368E-05-2.54391E-05-2.96195E-05 7.66675E-07 3.06006E-19 5.17144E-19
 -1      4178 9.43255E-05-2.53318E-05-2.95584E-05 3.73469E-07 4.19323E-19 4.68390E-19
 -1      4179 9.18714E-05-2.50219E-05-2.86421E-05-4.39753E-06-7.78042E-20 3.86798E-19
 -1      4180 9.22701E-05-2.51987E-05-2.87561E-05-3.96227E-06-4.41589E-19 2.69951E-19
 -1      4181 9.09112E-05-2.44152E-05-2.84887E-05-4.07584E-06-1.83521E-19 1.73189E-19
 -1      4182 9.47810E-05-2.37829E-05-3.04405E-05 2.33083E-08-7.85253E-21 6.37556E-19
 -1      4183 9.48146E-05-2.38469E-05-3.04236E-05 7.81150E-09-6.50524E-20 6.92887E-19
 -1      4184 9.50170E-05-2.45190E-05-3.01970E-05 2.22380E-07-7.33932E-21 6.53881E-19
 -1      4185 9.49981E-05-2.45050E-05-3.01874E-05-1.09255E-08 1.29183E-20 7.14288E-19
 -1      4186 7.81916E-05-1.80330E-05-2.58240E-05-1.39156E-06 3.85323E-19 1.12505E-18
 -1      4187 8.01500E-05-1.86636E-05-2.63864E-05-1.26218E-06 9.30184E-19 8.61596E-19
 -1      4188 8.09143E-05-1.88785E-05-2.65233E-05 5.44809E-07 6.45554E-19 6.28876E-19
 -1      4189 9.32659E-05-2.51396E-05-2.92015E-05 1.00312E-06 1.75640E-19 6.70572E-19
 -1      4190 9.26918E-05-2.48718E-05-2.90727E-05 1.12076E-06 2.48265E-19 6.00825E-19
 -1      4191 9.34696E-05-2.51405E-05-2.92725E-05 4.32069E-07 3.02899E-19 3.95850E-19
 -1      4192 8.12009E-05-2.49824E-05-2.40503E-05-1.54520E-05 5.87563E-20 1.06639E-19
 -1      4193 8.06484E-05-2.32963E-05-2.45736E-05-1.31270E-05-2.64073E-19-6.70852E-20
 -1      4194 7.32187E-05-1.74667E-05-2.39817E-05 5.58777E-06-5.71731E-19 1.25445E-18
 -1      4195 7.08735E-05-1.59229E-05-2.34541E-05 7.56318E-07-1.98490E-19 1.90312E-18
 -1      4196 7.35880E-05-1.68303E-05-2.42955E-05-1.47468E-06-4.66378E-19 1.70526E-18
 -1      4197 9.40458E-05-2.57145E-05-2.92787E-05-2.03765E-06-3.60218E-19 4.13679E-19
 -1      4198 9.44480E-05-2.60226E-05-2.93249E-05-2.30065E-06-3.82816E-19 6.75638E-19
 -1      4199 9.47063E-05-2.60300E-05-2.94375E-05-1.96520E-06-5.60902E-19 5.83703E-19
 -1      4200 9.49619E-05-2.49554E-05-3.00133E-05 4.49273E-07 1.25951E-20 5.92887E-19
 -1      4201 7.78764E-05-2.10855E-05-2.43191E-05-1.11918E-05-8.08453E-20-1.15360E-19
 -1      4202 8.32284E-05-2.34235E-05-2.55829E-05-1.10345E-05-3.83617E-19 1.00531E-19
 -1      4203 8.35300E-05-2.28327E-05-2.60362E-05-9.51281E-06-9.76090E-20 1.71683E-19
 -1      4204 7.65567E-05-1.95772E-05-2.44638E-05-7.98978E-06 1.05687E-19-3.88741E-19
 -1      4205 7.56907E-05-1.73664E-05-2.50436E-05-7.65242E-07 1.33659E-19 1.52047E-18
 -1      4206 9.51379E-05-2.57546E-05-2.97361E-05-1.25058E-06-2.29021E-19 7.61020E-19
 -1      4207 9.50476E-05-2.52241E-05-2.99220E-05-7.72060E-07-1.91948E-20 1.12347E-18
 -1      4208 9.22997E-05-2.46166E-05-2.89930E-05 4.30000E-07-8.13631E-20-5.20545E-20
 -1      4209 9.49581E-05-2.50970E-05-2.99498E-05-5.64371E-07-8.01244E-20 9.93222E-19
 -1      4210 8.70995E-05-2.39578E-05-2.70567E-05-8.49765E-06-1.52683E-19 2.79582E-19
 -1      4211 8.70325E-05-2.22726E-05-2.77546E-05 4.29213E-06-2.15459E-19-1.74835E-18
 -1      4212 8.68257E-05-2.28679E-05-2.73954E-05-5.93254E-06-5.46775E-20 2.79588E-19
 -1      4213 8.74746E-05-2.29807E-05-2.76684E-05-5.16162E-06 1.42635E-19 3.53904E-19
 -1      4214 7.90838E-05-2.08787E-05-2.49712E-05 9.75998E-06-4.30543E-19 1.11226E-18
 -1      4215 7.56846E-05-1.85585E-05-2.43684E-05 7.55819E-06-1.70318E-19 1.47404E-18
 -1      4216 7.59573E-05-1.81275E-05-2.48364E-05 4.94943E-06-1.85987E-19 1.28264E-18
 -1      4217 8.00962E-05-2.05617E-05-2.55892E-05 8.08068E-06-2.62866E-19 9.55698E-19
 -1      4218 9.37365E-05-2.66209E-05-2.87621E-05 4.77313E-07 1.78678E-18-2.50605E-18
 -1      4219 9.48407E-05-2.49681E-05-2.99489E-05 2.19745E-07 4.89881E-20 6.03654E-19
 -1      4220 9.21059E-05-2.49286E-05-2.87800E-05-3.26197E-06-2.94612E-19 2.05999E-19
 -1      4221 7.31461E-05-1.74244E-05-2.39265E-05-3.83983E-06-2.39915E-20-2.29979E-19
 -1      4222 8.84883E-05-2.32711E-05-2.79412E-05-4.51375E-06 9.14814E-20 2.12185E-19
 -1      4223 8.91358E-05-2.35067E-05-2.81482E-05-3.94688E-06-1.01847E-19-3.23920E-20
 -1      4224 8.71278E-05-2.24351E-05-2.76966E-05-3.91794E-06-1.37475E-19-1.48871E-19
 -1      4225 7.68298E-05-1.76161E-05-2.52911E-05 1.71028E-06-3.74713E-21 1.33209E-18
 -1      4226 9.36789E-05-2.54950E-05-2.92225E-05-1.67620E-06-2.09612E-19 2.34255E-19
 -1      4227 9.40675E-05-2.56048E-05-2.93497E-05-1.42610E-06-3.94325E-19 1.96453E-19
 -1      4228 9.26506E-05-2.50778E-05-2.89639E-05-2.16038E-06-5.51287E-19 3.48499E-19
 -1      4229 9.31494E-05-2.52982E-05-2.90885E-05-1.86857E-06-3.89352E-19 2.21779E-19
 -1      4230 9.32341E-05-2.51762E-05-2.91562E-05-1.24380E-06-2.67093E-19 1.63677E-19
 -1      4231 9.12977E-05-2.41874E-05-2.87700E-05-4.32201E-07-1.00399E-19-2.56683E-19
 -1      4232 9.04769E-05-2.37612E-05-2.86066E-05-5.10013E-07-3.43913E-20 4.55425E-20
 -1      4233 8.83114E-05-2.26141E-05-2.81738E-05 2.11948E-06-7.46246E-19-1.03401E-18
 -1      4234 8.76341E-05-2.22446E-05-2.80191E-05 2.52946E-06 6.09955E-20-1.00680E-18
 -1      4235 9.27772E-05-2.49455E-05-2.90756E-05-4.87101E-07-1.33523E-19 2.87976E-20
 -1      4236 9.21233E-05-2.46318E-05-2.89337E-05-5.38742E-07-3.24733E-19-1.96774E-19
 -1      4237 8.96421E-05-2.33194E-05-2.84281E-05-7.22979E-07 7.18592E-21 1.94195E-19
 -1      4238 8.86197E-05-2.28191E-05-2.82209E-05-8.75503E-07 1.89970E-20 5.13024E-19
 -1      4239 9.02579E-05-2.36799E-05-2.85180E-05-1.55054E-06 9.84200E-21-7.60696E-20
 -1      4240 8.79194E-05-2.25267E-05-2.80287E-05-1.62127E-06-5.97564E-20 2.39494E-19
 -1      4241 8.67056E-05-2.20038E-05-2.77585E-05-1.90387E-06-8.60462E-20 4.55777E-20
 -1      4242 8.56481E-05-2.15758E-05-2.74706E-05-2.41696E-06-9.29267E-20-1.66067E-19
 -1      4243 8.41681E-05-2.10394E-05-2.70996E-05-2.83317E-06-1.55999E-19-3.81238E-19
 -1      4244 9.35631E-05-2.64531E-05-2.87608E-05 4.66947E-08 3.43210E-18-1.82345E-18
 -1      4245 9.37272E-05-2.66304E-05-2.87592E-05 9.75887E-08 2.61859E-18-2.05022E-18
 -1      4246 8.56691E-05-2.26890E-05-2.70290E-05-6.84436E-06-8.23669E-20 1.99015E-19
 -1      4247 8.50059E-05-2.18119E-05-2.70431E-05-5.35291E-06-9.75990E-21-1.32058E-19
 -1      4248 8.51114E-05-2.28182E-05-2.66767E-05-7.90707E-06 2.46558E-20 1.38445E-19
 -1      4249 8.63301E-05-2.13712E-05-2.78581E-05 7.27983E-07 4.48951E-19-7.36333E-19
 -1      4250 8.74037E-05-2.19087E-05-2.80691E-05 5.62607E-07-2.84468E-19-7.11409E-19
 -1      4251 8.81998E-05-2.23785E-05-2.82195E-05 3.67350E-07-5.62766E-19-6.17292E-19
 -1      4252 8.90608E-05-2.28881E-05-2.83611E-05 2.66156E-07-1.71940E-19-7.87810E-19
 -1      4253 8.83784E-05-2.25164E-05-2.82126E-05 1.24392E-06-8.20736E-19-1.46304E-18
 -1      4254 8.97214E-05-2.33357E-05-2.84591E-05 1.38499E-07-4.32003E-19-5.48961E-19
 -1      4255 9.04191E-05-2.38059E-05-2.85496E-05 8.66619E-08 9.48249E-20-1.88838E-19
 -1      4256 8.98279E-05-2.34147E-05-2.84510E-05 8.32377E-07-2.09622E-19-1.10759E-18
 -1      4257 9.09635E-05-2.42215E-05-2.86101E-05 6.08794E-09-2.67410E-19-4.78385E-19
 -1      4258 9.15266E-05-2.46444E-05-2.86645E-05-1.33298E-08-4.44193E-19-1.01660E-18
 -1      4259 9.10235E-05-2.42618E-05-2.86026E-05 5.54077E-07-3.21503E-19-7.88256E-20
 -1      4260 9.19684E-05-2.50137E-05-2.86985E-05-6.21406E-08-2.24517E-19-1.40645E-18
 -1      4261 9.24187E-05-2.53885E-05-2.87281E-05-6.47699E-08-4.92302E-19-1.51386E-18
 -1      4262 9.19999E-05-2.50339E-05-2.86923E-05 3.66116E-07-4.29785E-19-1.49264E-18
 -1      4263 9.27762E-05-2.57143E-05-2.87429E-05-5.78930E-08 6.28544E-19-2.57812E-18
 -1      4264 9.31051E-05-2.60076E-05-2.87552E-05-3.29923E-08 1.80136E-18-1.71145E-18
 -1      4265 9.32957E-05-2.62039E-05-2.87570E-05 3.54147E-08 2.92970E-18-1.29576E-18
 -1      4266 9.33569E-05-2.62519E-05-2.87567E-05 2.89487E-07 2.99538E-18-1.16130E-18
 -1      4267 9.27621E-05-2.56963E-05-2.87384E-05 2.85426E-07 8.67637E-19-7.78784E-19
 -1      4268 7.83600E-05-1.86542E-05-2.55994E-05 3.71861E-06 9.85933E-20 8.21858E-19
 -1      4269 8.34397E-05-2.01372E-05-2.71654E-05 1.58692E-06 7.04617E-19-1.31484E-18
 -1      4270 8.48182E-05-2.06757E-05-2.74938E-05 1.28471E-06 8.30172E-19-1.05933E-18
 -1      4271 8.53396E-05-2.13655E-05-2.74306E-05 3.86246E-06-1.90462E-19-3.91334E-19
 -1      4272 8.43945E-05-2.11481E-05-2.71107E-05 4.65189E-06-2.59602E-19-3.75705E-19
 -1      4273 9.37635E-05-2.66577E-05-2.87598E-05 3.12064E-07 2.96923E-18-3.30302E-18
 -1      4274 9.18851E-05-2.49711E-05-2.86847E-05 7.94637E-07-5.85796E-19 9.99047E-20
 -1      4275 9.14498E-05-2.46153E-05-2.86448E-05 9.66279E-07-1.22822E-18-2.83485E-19
 -1      4276 9.26908E-05-2.56483E-05-2.87368E-05 5.73524E-07 7.69499E-19 2.35939E-19
 -1      4277 9.23295E-05-2.53273E-05-2.87168E-05 6.99899E-07 4.48217E-19 1.05929E-19
 -1      4278 9.33166E-05-2.62194E-05-2.87583E-05 4.65821E-07 2.04533E-18-6.07968E-19
 -1      4279 9.30215E-05-2.59392E-05-2.87512E-05 5.65217E-07 1.82144E-18 9.12915E-19
 -1      4280 9.48353E-05-2.49947E-05-2.99367E-05 3.59142E-08 9.09739E-20 7.38240E-19
 -1      4281 9.44876E-05-2.53539E-05-2.96359E-05-6.18035E-08 2.66682E-19 5.90254E-19
 -1      4282 9.41446E-05-2.53750E-05-2.94826E-05-3.43044E-08 4.20804E-19 4.41425E-19
 -1      4283 8.61847E-05-2.16249E-05-2.76790E-05 3.23768E-06 5.16211E-19-1.06545E-18
 -1      4284 9.12428E-05-2.43628E-05-2.86628E-05-2.47213E-06-1.63954E-19-7.45176E-20
 -1      4285 9.18400E-05-2.46568E-05-2.88017E-05-2.14052E-06-3.23485E-19 4.48328E-20
 -1      4286 8.97704E-05-2.36719E-05-2.83218E-05-3.19146E-06-1.75868E-19 1.99992E-21
 -1      4287 9.04189E-05-2.39794E-05-2.84889E-05-2.77535E-06-1.71057E-19-2.49612E-19
 -1      4288 9.35847E-05-2.64711E-05-2.87624E-05 4.51779E-07 2.74191E-18-1.32937E-18
 -1      4289 9.38176E-05-2.53326E-05-2.93519E-05-3.23474E-07 3.33172E-19 2.68005E-19
 -1      4290 9.33083E-05-2.51670E-05-2.92127E-05-3.39542E-07 1.03212E-19 2.53265E-19
 -1      4291 9.09045E-05-2.42229E-05-2.85873E-05 1.10158E-06-3.77224E-19-2.38358E-20
 -1      4292 9.03839E-05-2.38426E-05-2.85190E-05 1.33126E-06 1.73782E-19-6.92011E-19
 -1      4293 7.63839E-05-1.83705E-05-2.48862E-05-3.71276E-06 4.13435E-19-1.96818E-19
 -1      4294 7.60433E-05-1.86522E-05-2.45461E-05-5.95280E-06 3.07721E-19-4.75119E-19
 -1      4295 7.96606E-05-2.03952E-05-2.53946E-05-7.37445E-06 3.97944E-19-2.21427E-19
 -1      4296 7.87286E-05-1.91096E-05-2.56006E-05-3.73773E-06 2.39854E-19-3.18028E-19
 -1      4297 8.97206E-05-2.34234E-05-2.84253E-05 1.52683E-06-1.44749E-19-5.43643E-19
 -1      4298 8.91099E-05-2.30368E-05-2.83175E-05 1.83690E-06-7.40116E-19-1.18560E-18
 -1      4299 9.49765E-05-2.59213E-05-2.95982E-05-1.60838E-06-4.27526E-19 7.87393E-19
 -1      4300 9.47506E-05-2.53594E-05-2.97316E-05-4.00329E-07 6.31362E-20 8.24965E-19
 -1      4301 9.40568E-05-2.53865E-05-2.94231E-05-7.51683E-07 1.30632E-19 3.52285E-19
 -1      4302 9.43955E-05-2.55986E-05-2.94811E-05-1.11830E-06-2.03742E-19 5.10483E-19
 -1      4303 9.46884E-05-2.56946E-05-2.95645E-05-1.42558E-06-4.18761E-19 7.05110E-19
 -1      4304 8.02156E-05-1.90905E-05-2.62492E-05 2.70831E-06-2.06674E-19 2.04569E-19
 -1      4305 8.19542E-05-1.96272E-05-2.67265E-05 2.24577E-06-4.85605E-20-3.23091E-19
 -1      4306 8.32275E-05-2.02678E-05-2.69366E-05 3.49547E-06-1.82329E-19-6.43853E-19
 -1      4307 7.99817E-05-1.94846E-05-2.58627E-05 5.49946E-06 3.99611E-20 8.78731E-19
 -1      4308 8.29687E-05-2.06720E-05-2.67106E-05-3.58186E-06-1.74179E-19-1.73500E-19
 -1      4309 8.61572E-05-2.14080E-05-2.77347E-05 2.10842E-06 4.99451E-19-7.96980E-19
 -1      4310 9.19238E-05-2.45489E-05-2.88597E-05-1.37011E-06-3.04510E-19-8.62541E-20
 -1      4311 8.87348E-05-2.30060E-05-2.81525E-05-2.56185E-06-7.35124E-20-2.53910E-19
 -1      4312 8.12091E-05-2.01692E-05-2.61992E-05-4.21001E-06-1.25761E-19-1.21793E-19
 -1      4313 8.22420E-05-2.14711E-05-2.60303E-05-7.72446E-06 1.66789E-19-7.52519E-20
 -1      4314 8.29304E-05-2.08089E-05-2.66737E-05 5.57391E-06-5.00386E-19-9.31682E-20
 -1      4315 8.19697E-05-2.07665E-05-2.62349E-05 6.67643E-06-4.11739E-19 3.13902E-19
 -1      4316 9.46557E-05-2.54753E-05-2.96486E-05-8.16062E-07 2.79124E-20 8.81252E-19
 -1      4317 8.14542E-05-2.05739E-05-2.60769E-05-5.89646E-06 1.72241E-19 1.27386E-20
 -3
    1PSTEP                         4           1           1          
  100CL  101 1.000000000        4317                     0    1           1
 -4  ERROR       1    1
 -5  STR(%)      1    1    0    0
 -1         1 3.79611E+01
 -1         2 2.45574E+01
 -1         3 4.23027E-03
 -1         4 4.83834E-03
 -1         5 1.40267E+01
 -1         6 1.31311E+01
 -1         7 1.31311E+01
 -1         8 3.62355E+00
 -1         9 1.79460E+00
 -1        10 1.27938E+00
 -1        11 1.03401E+00
 -1        12 8.85357E-01
 -1        13 7.92076E-01
 -1        14 7.34661E-01
 -1        15 7.36362E-01
 -1        16 7.96293E-01
 -1        17 8.86851E-01
 -1        18 1.04101E+00
 -1        19 1.29458E+00
 -1        20 1.80310E+00
 -1        21 3.46965E+00
 -1        22 8.60380E+00
 -1        23 1.31311E+01
 -1        24 4.34586E+00
 -1        25 3.36541E+00
 -1        26 2.13742E+00
 -1        27 1.42210E+00
 -1        28 1.09993E+00
 -1        29 8.79882E-01
 -1        30 7.20548E-01
 -1        31 6.00875E-01
 -1        32 5.08732E-01
 -1        33 5.55861E-01
 -1        34 6.40932E-01
 -1        35 7.35278E-01
 -1        36 8.25679E-01
 -1        37 1.05424E+00
 -1        38 1.33142E+00
 -1        39 1.64968E+00
 -1        40 1.87311E+00
 -1        41 1.87311E+00
 -1        42 1.88227E+00
 -1        43 1.88227E+00
 -1        44 2.42003E+00
 -1        45 4.49245E+00
 -1        46 5.37189E+00
 -1        47 5.37189E+00
 -1        48 5.35165E+00
 -1        49 4.39223E+00
 -1        50 2.39171E+00
 -1        51 1.88370E+00
 -1        52 1.88370E+00
 -1        53 1.84835E+00
 -1        54 1.84835E+00
 -1        55 1.61324E+00
 -1        56 1.29194E+00
 -1        57 1.03082E+00
 -1        58 7.91910E-01
 -1        59 6.41916E-01
 -1        60 5.25799E-01
 -1        61 4.17361E-01
 -1        62 3.22761E-01
 -1        63 2.43855E-01
 -1        64 1.80119E-01
 -1        65 1.29870E-01
 -1        66 1.05121E-01
 -1        67 8.52190E-02
 -1        68 6.68260E-02
 -1        69 4.93734E-02
 -1        70 3.15807E-02
 -1        71 1.78063E-02
 -1        72 1.40267E+01
 -1        73 3.42457E+00
 -1        74 2.44634E+00
 -1        75 1.69903E+00
 -1        76 1.20254E+00
 -1        77 1.00543E+00
 -1        78 8.54576E-01
 -1        79 7.37819E-01
 -1        80 6.46210E-01
 -1        81 5.72999E-01
 -1        82 5.11210E-01
 -1        83 4.98008E-01
 -1        84 5.19406E-01
 -1        85 5.24270E-01
 -1        86 5.24270E-01
 -1        87 6.53246E-01
 -1        88 7.67465E-01
 -1        89 8.34814E-01
 -1        90 1.06935E+00
 -1        91 1.11880E+00
 -1        92 1.32963E+00
 -1        93 1.51246E+00
 -1        94 2.22220E+00
 -1        95 2.65456E+00
 -1        96 2.97219E+00
 -1        97 2.97219E+00
 -1        98 2.92186E+00
 -1        99 2.21049E+00
 -1       100 1.32290E+00
 -1       101 9.36222E-01
 -1       102 7.80665E-01
 -1       103 9.07435E-01
 -1       104 9.08052E-01
 -1       105 9.08052E-01
 -1       106 8.19423E-01
 -1       107 6.91602E-01
 -1       108 5.78361E-01
 -1       109 4.61081E-01
 -1       110 3.52241E-01
 -1       111 2.67064E-01
 -1       112 2.11210E-01
 -1       113 1.61903E-01
 -1       114 1.20327E-01
 -1       115 8.64419E-02
 -1       116 5.94800E-02
 -1       117 4.48082E-02
 -1       118 3.57691E-02
 -1       119 2.46640E-02
 -1       120 1.51436E-02
 -1       121 4.79526E-03
 -1       122 5.47098E-03
 -1       123 5.47098E-03
 -1       124 4.31731E-03
 -1       125 1.90122E-03
 -1       126 3.38381E-03
 -1       127 4.78750E-03
 -1       128 5.25311E-03
 -1       129 5.25311E-03
 -1       130 4.74647E-03
 -1       131 3.29801E-03
 -1       132 2.14908E-03
 -1       133 4.52982E-03
 -1       134 5.45810E-03
 -1       135 5.45810E-03
 -1       136 3.33137E-03
 -1       137 2.45574E+01
 -1       138 4.70876E+01
 -1       139 4.70876E+01
 -1       140 1.96641E+01
 -1       141 1.24027E+01
 -1       142 1.30520E+01
 -1       143 1.30520E+01
 -1       144 1.27453E+01
 -1       145 1.27453E+01
 -1       146 1.31686E+01
 -1       147 3.06036E+01
 -1       148 3.06036E+01
 -1       149 2.79272E+01
 -1       150 2.56518E+01
 -1       151 2.56518E+01
 -1       152 2.57075E+01
 -1       153 3.79611E+01
 -1       154 1.46906E+01
 -1       155 1.29176E+01
 -1       156 1.29176E+01
 -1       157 1.21406E+01
 -1       158 1.25141E+01
 -1       159 1.25141E+01
 -1       160 2.29398E+01
 -1       161 4.93672E+01
 -1       162 4.93672E+01
 -1       163 2.52528E+01
 -1       164 6.02354E+00
 -1       165 2.26786E+00
 -1       166 1.49803E+00
 -1       167 1.14812E+00
 -1       168 9.62155E-01
 -1       169 8.50039E-01
 -1       170 7.78864E-01
 -1       171 7.36362E-01
 -1       172 7.82055E-01
 -1       173 8.53003E-01
 -1       174 9.69920E-01
 -1       175 1.16238E+00
 -1       176 1.51726E+00
 -1       177 2.24546E+00
 -1       178 3.90197E+00
 -1       179 1.40267E+01
 -1       180 4.34586E+00
 -1       181 3.36541E+00
 -1       182 2.13742E+00
 -1       183 1.46267E+00
 -1       184 1.09993E+00
 -1       185 8.79882E-01
 -1       186 7.20548E-01
 -1       187 6.00875E-01
 -1       188 5.08732E-01
 -1       189 4.85655E-01
 -1       190 5.55861E-01
 -1       191 6.40932E-01
 -1       192 7.55345E-01
 -1       193 9.61169E-01
 -1       194 1.14723E+00
 -1       195 1.35476E+00
 -1       196 1.64968E+00
 -1       197 1.87311E+00
 -1       198 1.83252E+00
 -1       199 1.88227E+00
 -1       200 1.75416E+00
 -1       201 2.65864E+00
 -1       202 4.49245E+00
 -1       203 5.37189E+00
 -1       204 5.35165E+00
 -1       205 4.39223E+00
 -1       206 2.58180E+00
 -1       207 1.70865E+00
 -1       208 1.88370E+00
 -1       209 1.83276E+00
 -1       210 1.84835E+00
 -1       211 1.61324E+00
 -1       212 1.33436E+00
 -1       213 1.14856E+00
 -1       214 9.69383E-01
 -1       215 7.77151E-01
 -1       216 5.98062E-01
 -1       217 4.44351E-01
 -1       218 3.22761E-01
 -1       219 2.50763E-01
 -1       220 1.91210E-01
 -1       221 1.42785E-01
 -1       222 1.05121E-01
 -1       223 8.52190E-02
 -1       224 6.68260E-02
 -1       225 4.93734E-02
 -1       226 3.21719E-02
 -1       227 1.87788E-02
 -1       228 6.69647E-03
 -1       229 3.42457E+00
 -1       230 2.44634E+00
 -1       231 1.69903E+00
 -1       232 1.20254E+00
 -1       233 1.00543E+00
 -1       234 8.54576E-01
 -1       235 7.37819E-01
 -1       236 6.46210E-01
 -1       237 5.72999E-01
 -1       238 5.11210E-01
 -1       239 4.65640E-01
 -1       240 4.98008E-01
 -1       241 5.43348E-01
 -1       242 6.54461E-01
 -1       243 7.26100E-01
 -1       244 7.26100E-01
 -1       245 7.67465E-01
 -1       246 8.34814E-01
 -1       247 1.06935E+00
 -1       248 1.11880E+00
 -1       249 1.55954E+00
 -1       250 2.03049E+00
 -1       251 2.22220E+00
 -1       252 2.65456E+00
 -1       253 2.97219E+00
 -1       254 2.92186E+00
 -1       255 2.21049E+00
 -1       256 1.32290E+00
 -1       257 9.36222E-01
 -1       258 7.59258E-01
 -1       259 7.80665E-01
 -1       260 9.07435E-01
 -1       261 9.08052E-01
 -1       262 8.19423E-01
 -1       263 6.91602E-01
 -1       264 5.79396E-01
 -1       265 4.76816E-01
 -1       266 3.75938E-01
 -1       267 2.84986E-01
 -1       268 2.11210E-01
 -1       269 1.61903E-01
 -1       270 1.20327E-01
 -1       271 8.64419E-02
 -1       272 6.15285E-02
 -1       273 4.48082E-02
 -1       274 3.57691E-02
 -1       275 2.46640E-02
 -1       276 1.51436E-02
 -1       277 7.67369E-03
 -1       278 9.91622E-03
 -1       279 9.91622E-03
 -1       280 6.58362E-03
 -1       281 6.87998E-03
 -1       282 9.87237E-03
 -1       283 1.11312E-02
 -1       284 1.11490E-02
 -1       285 1.11490E-02
 -1       286 9.83598E-03
 -1       287 6.89777E-03
 -1       288 7.01579E-03
 -1       289 9.69985E-03
 -1       290 1.26099E-02
 -1       291 1.26099E-02
 -1       292 2.97151E+01
 -1       293 2.90224E+01
 -1       294 4.70876E+01
 -1       295 2.08167E+01
 -1       296 1.13189E+01
 -1       297 1.24027E+01
 -1       298 1.30520E+01
 -1       299 1.22675E+01
 -1       300 1.27453E+01
 -1       301 1.16750E+01
 -1       302 1.31686E+01
 -1       303 3.06036E+01
 -1       304 3.03868E+01
 -1       305 2.60856E+01
 -1       306 2.75517E+01
 -1       307 2.75517E+01
 -1       308 3.55732E+01
 -1       309 3.79611E+01
 -1       310 1.46906E+01
 -1       311 1.15472E+01
 -1       312 1.29176E+01
 -1       313 1.21406E+01
 -1       314 1.21004E+01
 -1       315 1.25141E+01
 -1       316 1.18142E+01
 -1       317 2.53159E+01
 -1       318 4.93672E+01
 -1       319 3.00095E+01
 -1       320 2.97151E+01
 -1       321 1.02558E+00
 -1       322 2.44124E+00
 -1       323 7.83435E-01
 -1       324 6.83831E-01
 -1       325 6.19057E-01
 -1       326 5.72636E-01
 -1       327 5.75729E-01
 -1       328 6.21822E-01
 -1       329 6.91047E-01
 -1       330 7.88295E-01
 -1       331 9.23431E-01
 -1       332 1.12395E+00
 -1       333 1.30307E+00
 -1       334 2.18273E+00
 -1       335 1.89114E+00
 -1       336 1.73931E+00
 -1       337 1.27240E+00
 -1       338 9.04599E-01
 -1       339 7.02217E-01
 -1       340 6.00745E-01
 -1       341 5.07254E-01
 -1       342 4.20598E-01
 -1       343 3.66837E-01
 -1       344 4.27926E-01
 -1       345 4.96661E-01
 -1       346 6.55559E-01
 -1       347 8.48172E-01
 -1       348 1.03260E+00
 -1       349 1.17746E+00
 -1       350 1.32978E+00
 -1       351 1.45329E+00
 -1       352 1.44930E+00
 -1       353 1.33419E+00
 -1       354 1.55789E+00
 -1       355 1.73574E+00
 -1       356 2.38119E+00
 -1       357 3.05065E+00
 -1       358 3.18049E+00
 -1       359 3.13190E+00
 -1       360 2.32111E+00
 -1       361 1.76616E+00
 -1       362 1.51789E+00
 -1       363 1.34739E+00
 -1       364 1.45651E+00
 -1       365 1.44613E+00
 -1       366 1.31772E+00
 -1       367 1.19403E+00
 -1       368 1.05553E+00
 -1       369 8.83532E-01
 -1       370 7.09561E-01
 -1       371 5.51242E-01
 -1       372 4.16263E-01
 -1       373 3.06222E-01
 -1       374 2.19473E-01
 -1       375 1.52943E-01
 -1       376 1.04284E-01
 -1       377 7.42100E-02
 -1       378 5.39267E-02
 -1       379 3.83552E-02
 -1       380 2.76956E-02
 -1       381 1.73180E-02
 -1       382 1.13714E+00
 -1       383 8.11505E-01
 -1       384 6.88007E-01
 -1       385 5.77527E-01
 -1       386 4.77540E-01
 -1       387 3.85336E-01
 -1       388 3.53917E-01
 -1       389 3.88196E-01
 -1       390 4.17435E-01
 -1       391 4.56304E-01
 -1       392 5.48626E-01
 -1       393 6.54461E-01
 -1       394 7.26100E-01
 -1       395 7.21865E-01
 -1       396 5.93770E-01
 -1       397 5.11475E-01
 -1       398 6.18110E-01
 -1       399 1.15497E+00
 -1       400 1.55954E+00
 -1       401 2.03049E+00
 -1       402 2.12610E+00
 -1       403 2.10714E+00
 -1       404 2.05769E+00
 -1       405 1.62324E+00
 -1       406 1.18856E+00
 -1       407 6.61630E-01
 -1       408 5.12079E-01
 -1       409 5.82166E-01
 -1       410 7.06484E-01
 -1       411 7.24594E-01
 -1       412 6.65092E-01
 -1       413 5.82118E-01
 -1       414 5.15236E-01
 -1       415 4.43722E-01
 -1       416 3.64507E-01
 -1       417 2.87600E-01
 -1       418 2.18719E-01
 -1       419 1.60450E-01
 -1       420 1.17104E-01
 -1       421 8.63617E-02
 -1       422 6.25118E-02
 -1       423 4.55219E-02
 -1       424 3.43442E-02
 -1       425 2.31624E-02
 -1       426 1.26657E-02
 -1       427 1.17120E-02
 -1       428 1.97092E-02
 -1       429 9.80790E-03
 -1       430 1.45987E-02
 -1       431 1.69715E-02
 -1       432 1.69715E-02
 -1       433 1.70589E-02
 -1       434 1.70589E-02
 -1       435 1.48342E-02
 -1       436 9.97906E-03
 -1       437 1.04152E-02
 -1       438 1.19181E-02
 -1       439 1.37028E+00
 -1       440 2.90224E+01
 -1       441 9.13056E+00
 -1       442 3.17285E+01
 -1       443 1.66826E+01
 -1       444 9.10891E-01
 -1       445 7.35186E+00
 -1       446 8.70730E+00
 -1       447 1.00198E+01
 -1       448 1.10458E+01
 -1       449 8.82246E+00
 -1       450 7.02396E+00
 -1       451 1.22582E+01
 -1       452 2.13696E+01
 -1       453 2.29380E+01
 -1       454 3.83589E+01
 -1       455 3.83589E+01
 -1       456 2.62245E+01
 -1       457 2.39376E+01
 -1       458 1.34712E+01
 -1       459 7.94400E+00
 -1       460 8.43165E+00
 -1       461 1.08437E+01
 -1       462 1.08296E+01
 -1       463 1.00054E+01
 -1       464 7.07563E+00
 -1       465 1.06331E+01
 -1       466 1.81192E+01
 -1       467 3.00095E+01
 -1       468 3.17285E+01
 -1       469 3.02101E+01
 -1       470 9.37920E+00
 -1       471 4.76425E-01
 -1       472 5.04708E-01
 -1       473 4.15578E-01
 -1       474 4.44446E-01
 -1       475 4.77640E-01
 -1       476 5.05039E-01
 -1       477 5.05039E-01
 -1       478 5.00928E-01
 -1       479 6.20606E-01
 -1       480 1.29706E+00
 -1       481 7.76548E-01
 -1       482 1.28279E+01
 -1       483 8.42299E+00
 -1       484 6.86873E-01
 -1       485 5.56817E-01
 -1       486 4.25386E-01
 -1       487 3.77985E-01
 -1       488 3.13614E-01
 -1       489 2.37709E-01
 -1       490 2.77782E-01
 -1       491 3.71062E-01
 -1       492 5.36410E-01
 -1       493 7.20479E-01
 -1       494 9.17922E-01
 -1       495 1.11601E+00
 -1       496 1.29116E+00
 -1       497 1.45296E+00
 -1       498 1.75807E+00
 -1       499 2.05164E+00
 -1       500 2.21562E+00
 -1       501 2.86101E+00
 -1       502 2.75185E+00
 -1       503 3.23620E+00
 -1       504 4.25550E+00
 -1       505 6.12876E+00
 -1       506 5.35522E+00
 -1       507 2.44391E+00
 -1       508 2.57133E+00
 -1       509 2.11814E+00
 -1       510 1.85382E+00
 -1       511 1.54392E+00
 -1       512 1.40462E+00
 -1       513 1.26776E+00
 -1       514 1.09626E+00
 -1       515 9.04859E-01
 -1       516 7.24978E-01
 -1       517 5.68730E-01
 -1       518 4.36199E-01
 -1       519 3.27455E-01
 -1       520 2.44402E-01
 -1       521 1.80074E-01
 -1       522 1.30073E-01
 -1       523 9.19684E-02
 -1       524 6.35384E-02
 -1       525 4.28533E-02
 -1       526 2.79994E-02
 -1       527 1.73180E-02
 -1       528 4.33635E-01
 -1       529 5.24767E-01
 -1       530 6.70578E-01
 -1       531 3.73346E-01
 -1       532 3.02760E-01
 -1       533 2.35025E-01
 -1       534 2.68627E-01
 -1       535 2.97762E-01
 -1       536 3.95712E-01
 -1       537 4.79099E-01
 -1       538 5.51410E-01
 -1       539 6.10707E-01
 -1       540 6.63980E-01
 -1       541 6.60243E-01
 -1       542 7.54738E-01
 -1       543 8.51544E-01
 -1       544 1.04458E+00
 -1       545 1.27717E+00
 -1       546 1.49616E+00
 -1       547 1.87797E+00
 -1       548 1.70620E+00
 -1       549 1.81919E+00
 -1       550 1.49427E+00
 -1       551 1.28687E+00
 -1       552 1.05427E+00
 -1       553 8.34623E-01
 -1       554 7.48690E-01
 -1       555 6.77672E-01
 -1       556 6.97460E-01
 -1       557 6.59868E-01
 -1       558 5.96696E-01
 -1       559 5.42362E-01
 -1       560 4.78824E-01
 -1       561 4.04260E-01
 -1       562 3.28900E-01
 -1       563 2.59065E-01
 -1       564 1.98056E-01
 -1       565 1.47083E-01
 -1       566 1.06038E-01
 -1       567 7.40752E-02
 -1       568 5.00150E-02
 -1       569 3.24533E-02
 -1       570 2.25222E-02
 -1       571 1.95521E-02
 -1       572 1.59488E-02
 -1       573 1.73636E-02
 -1       574 3.02101E+01
 -1       575 2.33715E-02
 -1       576 2.39892E-02
 -1       577 2.40763E-02
 -1       578 2.40763E-02
 -1       579 2.39452E-02
 -1       580 2.00428E-02
 -1       581 1.65359E-02
 -1       582 1.31127E-02
 -1       583 8.57898E-01
 -1       584 5.61559E+00
 -1       585 3.17285E+01
 -1       586 2.30985E+01
 -1       587 7.47183E+00
 -1       588 6.44056E+00
 -1       589 4.44333E-01
 -1       590 2.62245E+01
 -1       591 5.30399E+00
 -1       592 8.52235E+00
 -1       593 6.11626E+00
 -1       594 3.72902E+00
 -1       595 1.07785E+01
 -1       596 1.64863E+01
 -1       597 2.29380E+01
 -1       598 1.38172E+01
 -1       599 3.83589E+01
 -1       600 1.70425E+01
 -1       601 1.09561E+01
 -1       602 8.54646E+00
 -1       603 3.78642E+00
 -1       604 5.79940E+00
 -1       605 7.13199E+00
 -1       606 5.59842E+00
 -1       607 5.69152E+00
 -1       608 1.00030E+01
 -1       609 1.91939E+01
 -1       610 7.15607E-01
 -1       611 7.24717E-01
 -1       612 6.30709E-01
 -1       613 6.86917E+00
 -1       614 3.49096E-01
 -1       615 3.27604E-01
 -1       616 3.58684E-01
 -1       617 3.49551E-01
 -1       618 5.75126E-01
 -1       619 2.95934E+00
 -1       620 1.05994E+01
 -1       621 1.38507E+01
 -1       622 3.12863E+00
 -1       623 3.63802E-01
 -1       624 3.28029E-01
 -1       625 2.57544E-01
 -1       626 2.04203E-01
 -1       627 1.45501E-01
 -1       628 1.46379E-01
 -1       629 2.61494E-01
 -1       630 3.98920E-01
 -1       631 5.62181E-01
 -1       632 7.56465E-01
 -1       633 9.88394E-01
 -1       634 1.26441E+00
 -1       635 1.58490E+00
 -1       636 1.92475E+00
 -1       637 2.41959E+00
 -1       638 3.25356E+00
 -1       639 4.11480E+00
 -1       640 4.35828E+00
 -1       641 4.54782E+00
 -1       642 6.12876E+00
 -1       643 3.74779E+00
 -1       644 3.50751E+00
 -1       645 2.88454E+00
 -1       646 2.21533E+00
 -1       647 1.79236E+00
 -1       648 1.50882E+00
 -1       649 1.23448E+00
 -1       650 9.92632E-01
 -1       651 7.87700E-01
 -1       652 6.17552E-01
 -1       653 4.78164E-01
 -1       654 3.65351E-01
 -1       655 2.75181E-01
 -1       656 2.04057E-01
 -1       657 1.48743E-01
 -1       658 1.06367E-01
 -1       659 7.44716E-02
 -1       660 5.10672E-02
 -1       661 3.36820E-02
 -1       662 2.15277E-02
 -1       663 3.24402E-01
 -1       664 2.52633E-01
 -1       665 3.89019E-01
 -1       666 1.51015E-01
 -1       667 1.56331E-01
 -1       668 2.37149E-01
 -1       669 3.38347E-01
 -1       670 4.40437E-01
 -1       671 5.35599E-01
 -1       672 6.13059E-01
 -1       673 7.48149E-01
 -1       674 8.72119E-01
 -1       675 9.52453E-01
 -1       676 1.18342E+00
 -1       677 1.38888E+00
 -1       678 1.57139E+00
 -1       679 1.82556E+00
 -1       680 2.61186E+00
 -1       681 3.90474E+00
 -1       682 2.31979E+00
 -1       683 1.89708E+00
 -1       684 1.44954E+00
 -1       685 1.34215E+00
 -1       686 1.34500E+00
 -1       687 1.12722E+00
 -1       688 8.66129E-01
 -1       689 7.97932E-01
 -1       690 6.97460E-01
 -1       691 6.59868E-01
 -1       692 5.93804E-01
 -1       693 5.14388E-01
 -1       694 4.27678E-01
 -1       695 3.43783E-01
 -1       696 2.68234E-01
 -1       697 2.05741E-01
 -1       698 1.54288E-01
 -1       699 1.12863E-01
 -1       700 8.03978E-02
 -1       701 5.66451E-02
 -1       702 3.90738E-02
 -1       703 2.55979E-02
 -1       704 2.89272E-02
 -1       705 3.34465E-02
 -1       706 2.31710E-02
 -1       707 2.94049E-02
 -1       708 3.34556E-02
 -1       709 3.34556E-02
 -1       710 3.21555E-02
 -1       711 3.12617E-02
 -1       712 6.44097E+00
 -1       713 1.49349E+01
 -1       714 1.55638E+01
 -1       715 1.21172E+01
 -1       716 3.96728E+00
 -1       717 3.23620E+00
 -1       718 2.83481E+00
 -1       719 1.22634E+01
 -1       720 3.34465E-02
 -1       721 3.86054E-01
 -1       722 1.66683E+01
 -1       723 5.97660E+00
 -1       724 5.82404E+00
 -1       725 1.36455E+01
 -1       726 6.50777E+00
 -1       727 4.67467E+00
 -1       728 8.74543E+00
 -1       729 3.74779E+00
 -1       730 3.58684E-01
 -1       731 1.45267E+01
 -1       732 9.30881E+00
 -1       733 7.38138E+00
 -1       734 3.59029E-01
 -1       735 2.10118E-01
 -1       736 8.73660E+00
 -1       737 3.27206E-01
 -1       738 3.80136E+00
 -1       739 9.52575E+00
 -1       740 9.56628E+00
 -1       741 6.49271E+00
 -1       742 4.25234E-01
 -1       743 3.90474E+00
 -1       744 2.31223E-02
 -1       745 3.91111E-01
 -1       746 4.85389E+00
 -1       747 3.48485E-01
 -1       748 4.37072E-01
 -1       749 3.13275E+00
 -1       750 2.46196E-01
 -1       751 1.83174E-01
 -1       752 1.43597E-01
 -1       753 1.17300E-01
 -1       754 1.45234E-01
 -1       755 2.30267E-01
 -1       756 3.42278E-01
 -1       757 4.99994E-01
 -1       758 6.87460E-01
 -1       759 9.04976E-01
 -1       760 1.15481E+00
 -1       761 1.53091E+00
 -1       762 2.10586E+00
 -1       763 2.96825E+00
 -1       764 3.63564E+00
 -1       765 5.85449E+00
 -1       766 2.77049E-01
 -1       767 2.42280E+00
 -1       768 4.65565E+00
 -1       769 3.47248E+00
 -1       770 2.64152E+00
 -1       771 1.93723E+00
 -1       772 1.43817E+00
 -1       773 1.10999E+00
 -1       774 8.90733E-01
 -1       775 7.01405E-01
 -1       776 5.41117E-01
 -1       777 4.09958E-01
 -1       778 3.05195E-01
 -1       779 2.23096E-01
 -1       780 1.59847E-01
 -1       781 1.13679E-01
 -1       782 7.95451E-02
 -1       783 5.56562E-02
 -1       784 1.88767E-01
 -1       785 2.13952E-01
 -1       786 1.90082E-01
 -1       787 1.27616E-01
 -1       788 3.81161E-01
 -1       789 5.07194E-01
 -1       790 6.44916E-01
 -1       791 7.85383E-01
 -1       792 9.71639E-01
 -1       793 1.23182E+00
 -1       794 1.50484E+00
 -1       795 1.79816E+00
 -1       796 2.67967E+00
 -1       797 2.16433E+00
 -1       798 3.97911E+00
 -1       799 2.35813E+00
 -1       800 3.01576E+00
 -1       801 1.98561E+00
 -1       802 1.94423E+00
 -1       803 1.54272E+00
 -1       804 1.33293E+00
 -1       805 1.09154E+00
 -1       806 8.86080E-01
 -1       807 7.48836E-01
 -1       808 6.11598E-01
 -1       809 4.98450E-01
 -1       810 4.07845E-01
 -1       811 3.25095E-01
 -1       812 2.53214E-01
 -1       813 1.93159E-01
 -1       814 1.47043E-01
 -1       815 1.09508E-01
 -1       816 7.97257E-02
 -1       817 5.66451E-02
 -1       818 3.90738E-02
 -1       819 2.92061E-02
 -1       820 4.60494E-02
 -1       821 1.02580E+01
 -1       822 7.01404E+00
 -1       823 4.95372E-02
 -1       824 4.60494E-02
 -1       825 7.95377E+00
 -1       826 8.38783E+00
 -1       827 1.01077E+01
 -1       828 4.52196E-02
 -1       829 1.02075E+01
 -1       830 4.55082E-02
 -1       831 2.69864E-01
 -1       832 4.81154E+00
 -1       833 1.98644E-01
 -1       834 4.00739E+00
 -1       835 3.38441E+00
 -1       836 5.58663E+00
 -1       837 1.01077E+01
 -1       838 7.42345E+00
 -1       839 2.73348E-01
 -1       840 7.76099E+00
 -1       841 4.37030E+00
 -1       842 7.33891E+00
 -1       843 2.58877E-01
 -1       844 9.76373E-02
 -1       845 1.35923E-01
 -1       846 4.75161E-02
 -1       847 2.63597E+00
 -1       848 8.38783E+00
 -1       849 4.55082E-02
 -1       850 2.77049E-01
 -1       851 2.73696E-01
 -1       852 1.93601E-01
 -1       853 3.16194E-02
 -1       854 7.31230E+00
 -1       855 2.74698E-01
 -1       856 2.73696E-01
 -1       857 6.85238E+00
 -1       858 3.16194E-02
 -1       859 1.08706E-01
 -1       860 8.13648E-01
 -1       861 1.26905E-01
 -1       862 1.60930E-01
 -1       863 2.14861E-01
 -1       864 3.16377E-01
 -1       865 4.58422E-01
 -1       866 6.36797E-01
 -1       867 8.62890E-01
 -1       868 1.15362E+00
 -1       869 1.53091E+00
 -1       870 2.03040E+00
 -1       871 2.85324E+00
 -1       872 3.95106E+00
 -1       873 1.12230E-01
 -1       874 5.89692E+00
 -1       875 1.11953E-01
 -1       876 4.31220E+00
 -1       877 2.54060E+00
 -1       878 1.85569E+00
 -1       879 1.43817E+00
 -1       880 1.10999E+00
 -1       881 8.54022E-01
 -1       882 6.54383E-01
 -1       883 4.98335E-01
 -1       884 3.76322E-01
 -1       885 2.81105E-01
 -1       886 2.07199E-01
 -1       887 1.50262E-01
 -1       888 1.07029E-01
 -1       889 7.48264E-02
 -1       890 1.22522E-01
 -1       891 2.99331E+00
 -1       892 6.21674E-01
 -1       893 4.88190E-01
 -1       894 1.07739E+00
 -1       895 1.36679E+00
 -1       896 1.75265E+00
 -1       897 2.26495E+00
 -1       898 4.14885E+00
 -1       899 1.94423E+00
 -1       900 2.53615E+00
 -1       901 1.61356E+00
 -1       902 1.19775E+00
 -1       903 1.00716E+00
 -1       904 8.05342E-01
 -1       905 6.36060E-01
 -1       906 5.00547E-01
 -1       907 4.02343E-01
 -1       908 3.19434E-01
 -1       909 2.52094E-01
 -1       910 1.94170E-01
 -1       911 1.46034E-01
 -1       912 1.08620E-01
 -1       913 7.90517E-02
 -1       914 5.58190E-02
 -1       915 6.22905E-02
 -1       916 6.48026E-02
 -1       917 7.31230E+00
 -1       918 8.05625E+00
 -1       919 1.97094E-01
 -1       920 4.14885E+00
 -1       921 9.97278E-02
 -1       922 2.72604E-01
 -1       923 6.48026E-02
 -1       924 8.05625E+00
 -1       925 3.74381E+00
 -1       926 5.99416E-02
 -1       927 2.01417E-01
 -1       928 5.03667E+00
 -1       929 1.91694E-01
 -1       930 1.42833E-01
 -1       931 1.02542E-01
 -1       932 1.91694E-01
 -1       933 3.20147E-02
 -1       934 5.53891E+00
 -1       935 6.73794E-02
 -1       936 3.65987E+00
 -1       937 4.23453E+00
 -1       938 2.69115E-01
 -1       939 3.70732E-01
 -1       940 5.80340E+00
 -1       941 5.17563E+00
 -1       942 5.99226E-02
 -1       943 1.92055E-01
 -1       944 1.48551E+00
 -1       945 1.68011E-01
 -1       946 2.05274E-01
 -1       947 2.62700E-01
 -1       948 3.76015E-01
 -1       949 5.21135E-01
 -1       950 7.12385E-01
 -1       951 9.74893E-01
 -1       952 1.35557E+00
 -1       953 1.94139E+00
 -1       954 2.85324E+00
 -1       955 3.24574E+00
 -1       956 1.12931E-01
 -1       957 4.13691E+00
 -1       958 2.54060E+00
 -1       959 1.81491E+00
 -1       960 1.29324E+00
 -1       961 9.54260E-01
 -1       962 7.16025E-01
 -1       963 5.42135E-01
 -1       964 4.11492E-01
 -1       965 3.11133E-01
 -1       966 2.33453E-01
 -1       967 1.73126E-01
 -1       968 1.26226E-01
 -1       969 1.05905E-01
 -1       970 1.32413E-01
 -1       971 8.08573E-01
 -1       972 1.05836E+00
 -1       973 6.21674E-01
 -1       974 1.90001E+00
 -1       975 2.82021E+00
 -1       976 2.35962E+00
 -1       977 1.40068E+00
 -1       978 1.00109E+00
 -1       979 7.72539E-01
 -1       980 6.06885E-01
 -1       981 4.99407E-01
 -1       982 4.02343E-01
 -1       983 3.17755E-01
 -1       984 2.46555E-01
 -1       985 1.87843E-01
 -1       986 1.40351E-01
 -1       987 1.02762E-01
 -1       988 7.35775E-02
 -1       989 4.04178E+00
 -1       990 4.29081E+00
 -1       991 1.33872E-01
 -1       992 1.16549E-01
 -1       993 4.13393E+00
 -1       994 9.38435E-02
 -1       995 2.01417E-01
 -1       996 7.89301E-02
 -1       997 1.65852E-01
 -1       998 5.35616E+00
 -1       999 3.88523E+00
 -1      1000 9.58834E-02
 -1      1001 3.48837E+00
 -1      1002 7.40312E-02
 -1      1003 3.20170E+00
 -1      1004 3.77965E+00
 -1      1005 4.88190E-01
 -1      1006 2.69115E-01
 -1      1007 1.14450E-01
 -1      1008 1.96092E-01
 -1      1009 1.15234E-01
 -1      1010 2.59743E-01
 -1      1011 3.34629E-01
 -1      1012 4.28392E-01
 -1      1013 5.51166E-01
 -1      1014 7.17570E-01
 -1      1015 9.58233E-01
 -1      1016 1.34730E+00
 -1      1017 1.79848E+00
 -1      1018 2.57352E+00
 -1      1019 1.62794E-01
 -1      1020 1.89026E+00
 -1      1021 1.29620E+00
 -1      1022 9.22680E-01
 -1      1023 6.81074E-01
 -1      1024 5.13580E-01
 -1      1025 3.93269E-01
 -1      1026 3.01333E-01
 -1      1027 2.29976E-01
 -1      1028 1.74074E-01
 -1      1029 1.30618E-01
 -1      1030 1.05905E-01
 -1      1031 8.08573E-01
 -1      1032 9.77455E-01
 -1      1033 1.29694E+00
 -1      1034 1.83297E+00
 -1      1035 7.72539E-01
 -1      1036 6.02322E-01
 -1      1037 4.70586E-01
 -1      1038 3.63236E-01
 -1      1039 2.78612E-01
 -1      1040 2.11441E-01
 -1      1041 1.58485E-01
 -1      1042 1.16686E-01
 -1      1043 1.10238E-01
 -1      1044 3.68406E+00
 -1      1045 2.10684E-01
 -1      1046 3.70732E-01
 -1      1047 2.78614E+00
 -1      1048 2.97555E+00
 -1      1049 3.88523E+00
 -1      1050 1.33872E-01
 -1      1051 8.67521E-02
 -1      1052 3.68406E+00
 -1      1053 8.97558E-02
 -1      1054 1.26088E-01
 -1      1055 2.82478E+00
 -1      1056 1.22064E-01
 -1      1057 1.05836E+00
 -1      1058 8.97558E-02
 -1      1059 1.85019E-01
 -1      1060 2.88334E+00
 -1      1061 1.58651E+00
 -1      1062 6.08568E-01
 -1      1063 1.71544E-01
 -1      1064 2.50761E-01
 -1      1065 4.04434E-01
 -1      1066 4.01280E-01
 -1      1067 5.02241E-01
 -1      1068 6.37936E-01
 -1      1069 8.38579E-01
 -1      1070 1.20741E+00
 -1      1071 1.72844E+00
 -1      1072 2.57352E+00
 -1      1073 1.29694E+00
 -1      1074 1.04031E+00
 -1      1075 7.67183E-01
 -1      1076 5.86422E-01
 -1      1077 4.41690E-01
 -1      1078 3.38823E-01
 -1      1079 2.59545E-01
 -1      1080 1.96783E-01
 -1      1081 1.66158E-01
 -1      1082 1.09476E-01
 -1      1083 8.17087E-01
 -1      1084 9.41363E-01
 -1      1085 1.75464E+00
 -1      1086 5.17575E-01
 -1      1087 3.85067E-01
 -1      1088 2.88930E-01
 -1      1089 2.16127E-01
 -1      1090 1.60892E-01
 -1      1091 1.18126E-01
 -1      1092 2.42062E-01
 -1      1093 1.94075E-01
 -1      1094 5.47903E-01
 -1      1095 1.85019E-01
 -1      1096 1.64554E+00
 -1      1097 3.14013E-01
 -1      1098 2.78614E+00
 -1      1099 1.96092E-01
 -1      1100 2.97555E+00
 -1      1101 1.71544E-01
 -1      1102 1.12982E+00
 -1      1103 1.93707E+00
 -1      1104 7.81861E-01
 -1      1105 2.50761E-01
 -1      1106 3.97942E-01
 -1      1107 4.65348E-01
 -1      1108 7.94526E-01
 -1      1109 5.47903E-01
 -1      1110 1.09476E-01
 -1      1111 1.71108E+00
 -1      1112 4.85010E-01
 -1      1113 3.64468E-01
 -1      1114 2.74832E-01
 -1      1115 2.06361E-01
 -1      1116 1.45745E-01
 -1      1117 8.56449E-01
 -1      1118 1.94075E-01
 -1      1119 2.15022E+00
 -1      1120 1.18090E+00
 -1      1121 1.31311E+01
 -1      1122 8.37733E+00
 -1      1123 2.70908E+00
 -1      1124 1.53699E+00
 -1      1125 1.15669E+00
 -1      1126 9.59682E-01
 -1      1127 8.38717E-01
 -1      1128 7.63369E-01
 -1      1129 7.35511E-01
 -1      1130 7.66327E-01
 -1      1131 8.41572E-01
 -1      1132 9.63933E-01
 -1      1133 1.16780E+00
 -1      1134 1.54884E+00
 -1      1135 2.63638E+00
 -1      1136 6.03673E+00
 -1      1137 1.13153E+01
 -1      1138 1.31311E+01
 -1      1139 8.73848E+00
 -1      1140 3.85564E+00
 -1      1141 2.75142E+00
 -1      1142 1.77976E+00
 -1      1143 1.26102E+00
 -1      1144 9.89907E-01
 -1      1145 8.00215E-01
 -1      1146 6.60712E-01
 -1      1147 5.54804E-01
 -1      1148 5.32297E-01
 -1      1149 5.98396E-01
 -1      1150 6.88105E-01
 -1      1151 7.80479E-01
 -1      1152 9.39961E-01
 -1      1153 1.19283E+00
 -1      1154 1.49055E+00
 -1      1155 1.76140E+00
 -1      1156 1.87311E+00
 -1      1157 1.87769E+00
 -1      1158 1.88227E+00
 -1      1159 2.15115E+00
 -1      1160 3.45624E+00
 -1      1161 4.93217E+00
 -1      1162 5.37189E+00
 -1      1163 5.36177E+00
 -1      1164 4.87194E+00
 -1      1165 3.39197E+00
 -1      1166 2.13771E+00
 -1      1167 1.88370E+00
 -1      1168 1.86603E+00
 -1      1169 1.84835E+00
 -1      1170 1.73080E+00
 -1      1171 1.45259E+00
 -1      1172 1.16138E+00
 -1      1173 9.11368E-01
 -1      1174 7.16913E-01
 -1      1175 5.83858E-01
 -1      1176 4.71580E-01
 -1      1177 3.70061E-01
 -1      1178 2.83308E-01
 -1      1179 2.11987E-01
 -1      1180 1.54994E-01
 -1      1181 1.17496E-01
 -1      1182 9.51702E-02
 -1      1183 7.60225E-02
 -1      1184 5.80997E-02
 -1      1185 4.04770E-02
 -1      1186 2.46935E-02
 -1      1187 1.13223E-02
 -1      1188 1.40267E+01
 -1      1189 8.72566E+00
 -1      1190 2.93546E+00
 -1      1191 2.07268E+00
 -1      1192 1.45078E+00
 -1      1193 1.10398E+00
 -1      1194 9.30003E-01
 -1      1195 7.96197E-01
 -1      1196 6.92014E-01
 -1      1197 6.09604E-01
 -1      1198 5.42105E-01
 -1      1199 5.04609E-01
 -1      1200 5.08707E-01
 -1      1201 5.21838E-01
 -1      1202 5.24270E-01
 -1      1203 5.88758E-01
 -1      1204 7.10355E-01
 -1      1205 8.01139E-01
 -1      1206 9.52080E-01
 -1      1207 1.09408E+00
 -1      1208 1.22422E+00
 -1      1209 1.42104E+00
 -1      1210 1.86733E+00
 -1      1211 2.43838E+00
 -1      1212 2.81337E+00
 -1      1213 2.97219E+00
 -1      1214 2.94702E+00
 -1      1215 2.56617E+00
 -1      1216 1.76670E+00
 -1      1217 1.12956E+00
 -1      1218 8.58444E-01
 -1      1219 8.44050E-01
 -1      1220 9.07743E-01
 -1      1221 9.08052E-01
 -1      1222 8.63738E-01
 -1      1223 7.55513E-01
 -1      1224 6.34982E-01
 -1      1225 5.19721E-01
 -1      1226 4.06661E-01
 -1      1227 3.09652E-01
 -1      1228 2.39137E-01
 -1      1229 1.86556E-01
 -1      1230 1.41115E-01
 -1      1231 1.03385E-01
 -1      1232 7.29610E-02
 -1      1233 5.21441E-02
 -1      1234 4.02886E-02
 -1      1235 3.02165E-02
 -1      1236 1.99038E-02
 -1      1237 9.68694E-03
 -1      1238 4.51277E-03
 -1      1239 5.13312E-03
 -1      1240 5.47098E-03
 -1      1241 4.89414E-03
 -1      1242 3.10927E-03
 -1      1243 2.64252E-03
 -1      1244 4.08565E-03
 -1      1245 5.02030E-03
 -1      1246 5.25311E-03
 -1      1247 4.99979E-03
 -1      1248 4.02224E-03
 -1      1249 2.72354E-03
 -1      1250 3.33945E-03
 -1      1251 4.99396E-03
 -1      1252 5.45810E-03
 -1      1253 4.39474E-03
 -1      1254 4.08485E-03
 -1      1255 2.45574E+01
 -1      1256 3.58225E+01
 -1      1257 4.70876E+01
 -1      1258 3.33759E+01
 -1      1259 1.60334E+01
 -1      1260 1.27274E+01
 -1      1261 1.30520E+01
 -1      1262 1.28987E+01
 -1      1263 1.27453E+01
 -1      1264 1.29570E+01
 -1      1265 2.18861E+01
 -1      1266 3.06036E+01
 -1      1267 2.92654E+01
 -1      1268 2.67895E+01
 -1      1269 2.56518E+01
 -1      1270 2.56796E+01
 -1      1271 3.18343E+01
 -1      1272 3.79611E+01
 -1      1273 2.63259E+01
 -1      1274 1.38041E+01
 -1      1275 1.29176E+01
 -1      1276 1.25291E+01
 -1      1277 1.23273E+01
 -1      1278 1.25141E+01
 -1      1279 1.77270E+01
 -1      1280 3.61535E+01
 -1      1281 4.93672E+01
 -1      1282 3.73100E+01
 -1      1283 2.49051E+01
 -1      1284 1.31311E+01
 -1      1285 4.82354E+00
 -1      1286 9.57732E+00
 -1      1287 2.03123E+00
 -1      1288 2.94570E+00
 -1      1289 4.14570E+00
 -1      1290 1.38870E+00
 -1      1291 1.64631E+00
 -1      1292 1.88294E+00
 -1      1293 1.09106E+00
 -1      1294 1.21375E+00
 -1      1295 1.32307E+00
 -1      1296 9.23756E-01
 -1      1297 9.98081E-01
 -1      1298 1.05514E+00
 -1      1299 8.21058E-01
 -1      1300 8.67698E-01
 -1      1301 9.06097E-01
 -1      1302 7.56762E-01
 -1      1303 7.85470E-01
 -1      1304 8.14451E-01
 -1      1305 7.36362E-01
 -1      1306 7.35511E-01
 -1      1307 7.57613E-01
 -1      1308 7.89174E-01
 -1      1309 7.59208E-01
 -1      1310 7.59208E-01
 -1      1311 8.69927E-01
 -1      1312 8.24648E-01
 -1      1313 8.17529E-01
 -1      1314 1.00547E+00
 -1      1315 9.28385E-01
 -1      1316 9.11461E-01
 -1      1317 1.22848E+00
 -1      1318 1.10170E+00
 -1      1319 1.06615E+00
 -1      1320 1.66018E+00
 -1      1321 1.40592E+00
 -1      1322 1.33982E+00
 -1      1323 2.85756E+00
 -1      1324 2.02428E+00
 -1      1325 1.88136E+00
 -1      1326 6.25289E+00
 -1      1327 3.68581E+00
 -1      1328 3.07372E+00
 -1      1329 1.40267E+01
 -1      1330 1.13153E+01
 -1      1331 8.96436E+00
 -1      1332 1.40267E+01
 -1      1333 8.73848E+00
 -1      1334 4.34586E+00
 -1      1335 3.85564E+00
 -1      1336 3.36541E+00
 -1      1337 3.85564E+00
 -1      1338 2.75142E+00
 -1      1339 2.13742E+00
 -1      1340 2.75142E+00
 -1      1341 1.80004E+00
 -1      1342 1.44238E+00
 -1      1343 1.80004E+00
 -1      1344 1.26102E+00
 -1      1345 1.09993E+00
 -1      1346 1.28130E+00
 -1      1347 9.89907E-01
 -1      1348 8.79882E-01
 -1      1349 9.89907E-01
 -1      1350 8.00215E-01
 -1      1351 7.20548E-01
 -1      1352 8.00215E-01
 -1      1353 6.60712E-01
 -1      1354 6.00875E-01
 -1      1355 6.60712E-01
 -1      1356 5.54804E-01
 -1      1357 5.08732E-01
 -1      1358 5.54804E-01
 -1      1359 4.97193E-01
 -1      1360 5.20758E-01
 -1      1361 4.97193E-01
 -1      1362 5.55861E-01
 -1      1363 5.98396E-01
 -1      1364 5.20758E-01
 -1      1365 6.40932E-01
 -1      1366 6.88105E-01
 -1      1367 5.98396E-01
 -1      1368 7.45312E-01
 -1      1369 7.90512E-01
 -1      1370 6.98139E-01
 -1      1371 8.93424E-01
 -1      1372 1.00771E+00
 -1      1373 8.58257E-01
 -1      1374 1.10074E+00
 -1      1375 1.23932E+00
 -1      1376 1.05420E+00
 -1      1377 1.34309E+00
 -1      1378 1.50222E+00
 -1      1379 1.25099E+00
 -1      1380 1.64968E+00
 -1      1381 1.76140E+00
 -1      1382 1.50222E+00
 -1      1383 1.87311E+00
 -1      1384 1.87311E+00
 -1      1385 1.76140E+00
 -1      1386 1.85282E+00
 -1      1387 1.85739E+00
 -1      1388 1.85282E+00
 -1      1389 1.88227E+00
 -1      1390 1.88227E+00
 -1      1391 1.85739E+00
 -1      1392 1.81821E+00
 -1      1393 2.08709E+00
 -1      1394 1.81821E+00
 -1      1395 2.53933E+00
 -1      1396 3.57554E+00
 -1      1397 2.20640E+00
 -1      1398 4.49245E+00
 -1      1399 4.93217E+00
 -1      1400 3.57554E+00
 -1      1401 5.37189E+00
 -1      1402 5.37189E+00
 -1      1403 4.93217E+00
 -1      1404 5.36177E+00
 -1      1405 5.35165E+00
 -1      1406 5.36177E+00
 -1      1407 4.87194E+00
 -1      1408 4.39223E+00
 -1      1409 4.87194E+00
 -1      1410 3.48701E+00
 -1      1411 2.48676E+00
 -1      1412 3.48701E+00
 -1      1413 2.05018E+00
 -1      1414 1.79617E+00
 -1      1415 2.14523E+00
 -1      1416 1.88370E+00
 -1      1417 1.88370E+00
 -1      1418 1.79617E+00
 -1      1419 1.85823E+00
 -1      1420 1.84056E+00
 -1      1421 1.85823E+00
 -1      1422 1.84835E+00
 -1      1423 1.84835E+00
 -1      1424 1.84056E+00
 -1      1425 1.73080E+00
 -1      1426 1.61324E+00
 -1      1427 1.73080E+00
 -1      1428 1.47380E+00
 -1      1429 1.31315E+00
 -1      1430 1.47380E+00
 -1      1431 1.22025E+00
 -1      1432 1.08969E+00
 -1      1433 1.24146E+00
 -1      1434 1.00010E+00
 -1      1435 8.80647E-01
 -1      1436 1.05897E+00
 -1      1437 7.84530E-01
 -1      1438 7.09533E-01
 -1      1439 8.73267E-01
 -1      1440 6.19989E-01
 -1      1441 5.61931E-01
 -1      1442 6.87607E-01
 -1      1443 4.85075E-01
 -1      1444 4.30856E-01
 -1      1445 5.21207E-01
 -1      1446 3.70061E-01
 -1      1447 3.22761E-01
 -1      1448 3.83556E-01
 -1      1449 2.86762E-01
 -1      1450 2.47309E-01
 -1      1451 2.86762E-01
 -1      1452 2.17533E-01
 -1      1453 1.85665E-01
 -1      1454 2.20986E-01
 -1      1455 1.61452E-01
 -1      1456 1.36327E-01
 -1      1457 1.66997E-01
 -1      1458 1.17496E-01
 -1      1459 1.05121E-01
 -1      1460 1.23953E-01
 -1      1461 9.51702E-02
 -1      1462 8.52190E-02
 -1      1463 9.51702E-02
 -1      1464 7.60225E-02
 -1      1465 6.68260E-02
 -1      1466 7.60225E-02
 -1      1467 5.80997E-02
 -1      1468 4.93734E-02
 -1      1469 5.80997E-02
 -1      1470 4.07727E-02
 -1      1471 3.18763E-02
 -1      1472 4.07727E-02
 -1      1473 2.51798E-02
 -1      1474 1.82925E-02
 -1      1475 2.54754E-02
 -1      1476 1.22514E-02
 -1      1477 5.76740E-03
 -1      1478 5.01392E-03
 -1      1479 1.27377E-02
 -1      1480 3.42457E+00
 -1      1481 8.72566E+00
 -1      1482 8.72566E+00
 -1      1483 2.44634E+00
 -1      1484 2.93546E+00
 -1      1485 2.93546E+00
 -1      1486 1.69903E+00
 -1      1487 2.07268E+00
 -1      1488 2.07268E+00
 -1      1489 1.20254E+00
 -1      1490 1.45078E+00
 -1      1491 1.45078E+00
 -1      1492 1.00543E+00
 -1      1493 1.10398E+00
 -1      1494 1.10398E+00
 -1      1495 8.54576E-01
 -1      1496 9.30003E-01
 -1      1497 9.30003E-01
 -1      1498 7.37819E-01
 -1      1499 7.96197E-01
 -1      1500 7.96197E-01
 -1      1501 6.46210E-01
 -1      1502 6.92014E-01
 -1      1503 6.92014E-01
 -1      1504 5.72999E-01
 -1      1505 6.09604E-01
 -1      1506 6.09604E-01
 -1      1507 5.11210E-01
 -1      1508 5.42105E-01
 -1      1509 5.42105E-01
 -1      1510 4.81824E-01
 -1      1511 4.88425E-01
 -1      1512 4.88425E-01
 -1      1513 5.08707E-01
 -1      1514 4.98008E-01
 -1      1515 4.81824E-01
 -1      1516 5.33809E-01
 -1      1517 5.31377E-01
 -1      1518 5.20678E-01
 -1      1519 5.89365E-01
 -1      1520 5.89365E-01
 -1      1521 5.98904E-01
 -1      1522 6.89673E-01
 -1      1523 6.25185E-01
 -1      1524 6.90280E-01
 -1      1525 7.46782E-01
 -1      1526 6.89673E-01
 -1      1527 7.26100E-01
 -1      1528 8.01139E-01
 -1      1529 7.67465E-01
 -1      1530 7.46782E-01
 -1      1531 9.52080E-01
 -1      1532 8.34814E-01
 -1      1533 8.01139E-01
 -1      1534 1.09408E+00
 -1      1535 1.06935E+00
 -1      1536 9.52080E-01
 -1      1537 1.22422E+00
 -1      1538 1.11880E+00
 -1      1539 1.09408E+00
 -1      1540 1.53600E+00
 -1      1541 1.44458E+00
 -1      1542 1.33917E+00
 -1      1543 2.12634E+00
 -1      1544 1.77147E+00
 -1      1545 1.79502E+00
 -1      1546 2.43838E+00
 -1      1547 2.22220E+00
 -1      1548 2.12634E+00
 -1      1549 2.81337E+00
 -1      1550 2.65456E+00
 -1      1551 2.43838E+00
 -1      1552 2.97219E+00
 -1      1553 2.97219E+00
 -1      1554 2.81337E+00
 -1      1555 2.92186E+00
 -1      1556 2.94702E+00
 -1      1557 2.94702E+00
 -1      1558 2.21049E+00
 -1      1559 2.56617E+00
 -1      1560 2.56617E+00
 -1      1561 1.32290E+00
 -1      1562 1.76670E+00
 -1      1563 1.76670E+00
 -1      1564 9.36222E-01
 -1      1565 1.12956E+00
 -1      1566 1.12956E+00
 -1      1567 7.69962E-01
 -1      1568 8.47740E-01
 -1      1569 8.47740E-01
 -1      1570 8.44050E-01
 -1      1571 7.80665E-01
 -1      1572 7.69962E-01
 -1      1573 9.07743E-01
 -1      1574 9.07435E-01
 -1      1575 8.44050E-01
 -1      1576 9.08052E-01
 -1      1577 9.08052E-01
 -1      1578 9.07743E-01
 -1      1579 8.19423E-01
 -1      1580 8.63738E-01
 -1      1581 8.63738E-01
 -1      1582 6.91602E-01
 -1      1583 7.55513E-01
 -1      1584 7.55513E-01
 -1      1585 5.78878E-01
 -1      1586 6.35499E-01
 -1      1587 6.35499E-01
 -1      1588 4.68949E-01
 -1      1589 5.27588E-01
 -1      1590 5.28106E-01
 -1      1591 3.64089E-01
 -1      1592 4.18510E-01
 -1      1593 4.26377E-01
 -1      1594 2.76025E-01
 -1      1595 3.18613E-01
 -1      1596 3.30462E-01
 -1      1597 2.11210E-01
 -1      1598 2.39137E-01
 -1      1599 2.48098E-01
 -1      1600 1.61903E-01
 -1      1601 1.86556E-01
 -1      1602 1.86556E-01
 -1      1603 1.20327E-01
 -1      1604 1.41115E-01
 -1      1605 1.41115E-01
 -1      1606 8.64419E-02
 -1      1607 1.03385E-01
 -1      1608 1.03385E-01
 -1      1609 6.05043E-02
 -1      1610 7.39852E-02
 -1      1611 7.39852E-02
 -1      1612 4.48082E-02
 -1      1613 5.21441E-02
 -1      1614 5.31683E-02
 -1      1615 3.57691E-02
 -1      1616 4.02886E-02
 -1      1617 4.02886E-02
 -1      1618 2.46640E-02
 -1      1619 3.02165E-02
 -1      1620 3.02165E-02
 -1      1621 1.51436E-02
 -1      1622 1.99038E-02
 -1      1623 1.99038E-02
 -1      1624 9.96944E-03
 -1      1625 6.57233E-03
 -1      1626 6.23447E-03
 -1      1627 7.69360E-03
 -1      1628 7.69360E-03
 -1      1629 8.79495E-03
 -1      1630 7.11676E-03
 -1      1631 7.69360E-03
 -1      1632 9.91622E-03
 -1      1633 4.24242E-03
 -1      1634 5.45046E-03
 -1      1635 8.24992E-03
 -1      1636 5.13189E-03
 -1      1637 4.39060E-03
 -1      1638 6.73180E-03
 -1      1639 7.32993E-03
 -1      1640 6.62809E-03
 -1      1641 8.37618E-03
 -1      1642 8.19218E-03
 -1      1643 7.95937E-03
 -1      1644 1.05018E-02
 -1      1645 8.20106E-03
 -1      1646 8.20106E-03
 -1      1647 1.11401E-02
 -1      1648 7.94774E-03
 -1      1649 8.20106E-03
 -1      1650 1.11490E-02
 -1      1651 6.56699E-03
 -1      1652 7.29122E-03
 -1      1653 1.04925E-02
 -1      1654 4.52342E-03
 -1      1655 5.09789E-03
 -1      1656 8.36687E-03
 -1      1657 5.77281E-03
 -1      1658 4.58244E-03
 -1      1659 6.95678E-03
 -1      1660 7.57897E-03
 -1      1661 7.11483E-03
 -1      1662 8.35782E-03
 -1      1663 9.03398E-03
 -1      1664 9.03398E-03
 -1      1665 1.11548E-02
 -1      1666 7.97061E-03
 -1      1667 9.03398E-03
 -1      1668 1.26099E-02
 -1      1669 9.65316E-03
 -1      1670 2.71362E+01
 -1      1671 2.71362E+01
 -1      1672 3.80550E+01
 -1      1673 2.67899E+01
 -1      1674 4.70876E+01
 -1      1675 4.70876E+01
 -1      1676 2.02404E+01
 -1      1677 3.39522E+01
 -1      1678 1.18608E+01
 -1      1679 1.54915E+01
 -1      1680 1.27274E+01
 -1      1681 1.24027E+01
 -1      1682 1.30520E+01
 -1      1683 1.30520E+01
 -1      1684 1.25064E+01
 -1      1685 1.26598E+01
 -1      1686 1.27453E+01
 -1      1687 1.27453E+01
 -1      1688 1.24218E+01
 -1      1689 1.22101E+01
 -1      1690 2.18861E+01
 -1      1691 1.31686E+01
 -1      1692 3.06036E+01
 -1      1693 3.06036E+01
 -1      1694 2.91570E+01
 -1      1695 3.04952E+01
 -1      1696 2.58687E+01
 -1      1697 2.70064E+01
 -1      1698 2.66017E+01
 -1      1699 2.66017E+01
 -1      1700 2.66296E+01
 -1      1701 2.66017E+01
 -1      1702 3.67672E+01
 -1      1703 3.06403E+01
 -1      1704 3.79611E+01
 -1      1705 3.79611E+01
 -1      1706 1.46906E+01
 -1      1707 2.63259E+01
 -1      1708 1.22324E+01
 -1      1709 1.31189E+01
 -1      1710 1.29176E+01
 -1      1711 1.29176E+01
 -1      1712 1.21406E+01
 -1      1713 1.25291E+01
 -1      1714 1.23072E+01
 -1      1715 1.21205E+01
 -1      1716 1.25141E+01
 -1      1717 1.25141E+01
 -1      1718 1.73770E+01
 -1      1719 1.21641E+01
 -1      1720 3.73416E+01
 -1      1721 2.41279E+01
 -1      1722 4.93672E+01
 -1      1723 4.93672E+01
 -1      1724 2.76311E+01
 -1      1725 3.96883E+01
 -1      1726 2.71362E+01
 -1      1727 2.74839E+01
 -1      1728 3.39522E+01
 -1      1729 2.97151E+01
 -1      1730 9.96944E-03
 -1      1731 1.14086E-02
 -1      1732 2.93687E+01
 -1      1733 3.80550E+01
 -1      1734 1.60678E+01
 -1      1735 1.18608E+01
 -1      1736 1.27274E+01
 -1      1737 1.26598E+01
 -1      1738 1.25064E+01
 -1      1739 1.22101E+01
 -1      1740 1.24218E+01
 -1      1741 2.18861E+01
 -1      1742 3.04952E+01
 -1      1743 2.82362E+01
 -1      1744 2.68187E+01
 -1      1745 2.75517E+01
 -1      1746 3.15624E+01
 -1      1747 3.67672E+01
 -1      1748 2.63259E+01
 -1      1749 1.31189E+01
 -1      1750 1.22324E+01
 -1      1751 1.25291E+01
 -1      1752 1.21205E+01
 -1      1753 1.23072E+01
 -1      1754 1.21641E+01
 -1      1755 1.85651E+01
 -1      1756 3.73416E+01
 -1      1757 3.96883E+01
 -1      1758 2.98623E+01
 -1      1759 9.57732E+00
 -1      1760 1.26181E+00
 -1      1761 1.64672E+00
 -1      1762 2.35455E+00
 -1      1763 4.23239E+00
 -1      1764 1.73341E+00
 -1      1765 8.72795E-01
 -1      1766 9.65778E-01
 -1      1767 7.66935E-01
 -1      1768 8.22993E-01
 -1      1769 7.33633E-01
 -1      1770 6.98960E-01
 -1      1771 7.34548E-01
 -1      1772 6.51444E-01
 -1      1773 6.54499E-01
 -1      1774 6.75750E-01
 -1      1775 5.95846E-01
 -1      1776 6.78892E-01
 -1      1777 6.56045E-01
 -1      1778 5.74182E-01
 -1      1779 7.37412E-01
 -1      1780 7.01938E-01
 -1      1781 5.98775E-01
 -1      1782 8.30483E-01
 -1      1783 7.72025E-01
 -1      1784 6.56435E-01
 -1      1785 9.75337E-01
 -1      1786 8.79107E-01
 -1      1787 7.39671E-01
 -1      1788 1.22034E+00
 -1      1789 1.04290E+00
 -1      1790 8.55863E-01
 -1      1791 1.68471E+00
 -1      1792 1.32060E+00
 -1      1793 1.02369E+00
 -1      1794 2.60252E+00
 -1      1795 1.77426E+00
 -1      1796 1.21351E+00
 -1      1797 8.10474E+00
 -1      1798 3.04235E+00
 -1      1799 1.74290E+00
 -1      1800 2.80365E+00
 -1      1801 5.18470E+00
 -1      1802 2.16874E+00
 -1      1803 2.65786E+00
 -1      1804 2.03693E+00
 -1      1805 3.39355E+00
 -1      1806 2.55236E+00
 -1      1807 1.93836E+00
 -1      1808 1.70491E+00
 -1      1809 1.36753E+00
 -1      1810 1.50586E+00
 -1      1811 1.18363E+00
 -1      1812 1.00227E+00
 -1      1813 1.08850E+00
 -1      1814 9.01075E-01
 -1      1815 7.91050E-01
 -1      1816 8.03408E-01
 -1      1817 7.40314E-01
 -1      1818 6.60646E-01
 -1      1819 6.51481E-01
 -1      1820 6.13901E-01
 -1      1821 5.54064E-01
 -1      1822 5.53999E-01
 -1      1823 5.10737E-01
 -1      1824 4.64665E-01
 -1      1825 4.63926E-01
 -1      1826 4.37785E-01
 -1      1827 4.26246E-01
 -1      1828 3.93718E-01
 -1      1829 4.56791E-01
 -1      1830 4.91894E-01
 -1      1831 3.97382E-01
 -1      1832 5.26261E-01
 -1      1833 5.68797E-01
 -1      1834 4.62294E-01
 -1      1835 6.48245E-01
 -1      1836 7.05452E-01
 -1      1837 5.76110E-01
 -1      1838 8.01759E-01
 -1      1839 9.04671E-01
 -1      1840 7.51866E-01
 -1      1841 9.96884E-01
 -1      1842 1.08992E+00
 -1      1843 9.40386E-01
 -1      1844 1.16235E+00
 -1      1845 1.26611E+00
 -1      1846 1.10503E+00
 -1      1847 1.34227E+00
 -1      1848 1.48973E+00
 -1      1849 1.25362E+00
 -1      1850 1.55149E+00
 -1      1851 1.66320E+00
 -1      1852 1.39154E+00
 -1      1853 1.66121E+00
 -1      1854 1.64091E+00
 -1      1855 1.45130E+00
 -1      1856 1.58335E+00
 -1      1857 1.60823E+00
 -1      1858 1.39175E+00
 -1      1859 1.72008E+00
 -1      1860 1.65602E+00
 -1      1861 1.44604E+00
 -1      1862 1.74495E+00
 -1      1863 2.19719E+00
 -1      1864 1.64682E+00
 -1      1865 2.51991E+00
 -1      1866 3.43682E+00
 -1      1867 2.05846E+00
 -1      1868 3.77155E+00
 -1      1869 4.21127E+00
 -1      1870 2.71592E+00
 -1      1871 4.27619E+00
 -1      1872 4.26607E+00
 -1      1873 3.11557E+00
 -1      1874 4.24178E+00
 -1      1875 3.76207E+00
 -1      1876 3.15619E+00
 -1      1877 3.35667E+00
 -1      1878 2.45146E+00
 -1      1879 2.72651E+00
 -1      1880 2.17398E+00
 -1      1881 1.73741E+00
 -1      1882 2.04364E+00
 -1      1883 1.61327E+00
 -1      1884 1.70079E+00
 -1      1885 1.64202E+00
 -1      1886 1.61555E+00
 -1      1887 1.59008E+00
 -1      1888 1.43264E+00
 -1      1889 1.64463E+00
 -1      1890 1.65243E+00
 -1      1891 1.40195E+00
 -1      1892 1.64724E+00
 -1      1893 1.52969E+00
 -1      1894 1.45132E+00
 -1      1895 1.46548E+00
 -1      1896 1.32604E+00
 -1      1897 1.38193E+00
 -1      1898 1.26419E+00
 -1      1899 1.17130E+00
 -1      1900 1.25587E+00
 -1      1901 1.10205E+00
 -1      1902 1.01246E+00
 -1      1903 1.12478E+00
 -1      1904 9.26457E-01
 -1      1905 8.30341E-01
 -1      1906 9.69530E-01
 -1      1907 7.43356E-01
 -1      1908 6.53812E-01
 -1      1909 7.96546E-01
 -1      1910 5.74652E-01
 -1      1911 4.97797E-01
 -1      1912 6.30401E-01
 -1      1913 4.30307E-01
 -1      1914 3.69512E-01
 -1      1915 4.83752E-01
 -1      1916 3.14491E-01
 -1      1917 2.78492E-01
 -1      1918 3.61243E-01
 -1      1919 2.35118E-01
 -1      1920 2.05342E-01
 -1      1921 2.62848E-01
 -1      1922 1.72076E-01
 -1      1923 1.47864E-01
 -1      1924 1.86208E-01
 -1      1925 1.23534E-01
 -1      1926 1.04702E-01
 -1      1927 1.28613E-01
 -1      1928 8.96657E-02
 -1      1929 7.97145E-02
 -1      1930 8.92468E-02
 -1      1931 6.95728E-02
 -1      1932 6.03763E-02
 -1      1933 6.40683E-02
 -1      1934 5.25906E-02
 -1      1935 4.38643E-02
 -1      1936 4.61410E-02
 -1      1937 3.85345E-02
 -1      1938 2.99338E-02
 -1      1939 3.30254E-02
 -1      1940 2.47450E-02
 -1      1941 1.80484E-02
 -1      1942 2.25068E-02
 -1      1943 1.56943E-02
 -1      1944 1.16984E+00
 -1      1945 1.41808E+00
 -1      1946 9.08468E-01
 -1      1947 1.00702E+00
 -1      1948 9.74322E-01
 -1      1949 7.71291E-01
 -1      1950 8.46719E-01
 -1      1951 7.49756E-01
 -1      1952 6.57673E-01
 -1      1953 7.16051E-01
 -1      1954 6.32767E-01
 -1      1955 5.61875E-01
 -1      1956 6.07679E-01
 -1      1957 5.27533E-01
 -1      1958 4.79167E-01
 -1      1959 5.15773E-01
 -1      1960 4.31438E-01
 -1      1961 4.32563E-01
 -1      1962 4.63458E-01
 -1      1963 3.69626E-01
 -1      1964 4.26918E-01
 -1      1965 4.49703E-01
 -1      1966 3.71056E-01
 -1      1967 4.57721E-01
 -1      1968 4.41538E-01
 -1      1969 4.02816E-01
 -1      1970 4.99826E-01
 -1      1971 4.77156E-01
 -1      1972 4.36869E-01
 -1      1973 6.01544E-01
 -1      1974 5.45987E-01
 -1      1975 5.02465E-01
 -1      1976 6.90280E-01
 -1      1977 6.54461E-01
 -1      1978 6.01544E-01
 -1      1979 7.26100E-01
 -1      1980 7.26100E-01
 -1      1981 6.90280E-01
 -1      1982 7.44665E-01
 -1      1983 7.23983E-01
 -1      1984 7.23983E-01
 -1      1985 7.14292E-01
 -1      1986 6.80617E-01
 -1      1987 6.57818E-01
 -1      1988 7.90411E-01
 -1      1989 6.73144E-01
 -1      1990 5.52623E-01
 -1      1991 8.68457E-01
 -1      1992 8.43728E-01
 -1      1993 5.64793E-01
 -1      1994 1.35725E+00
 -1      1995 1.13689E+00
 -1      1996 8.86538E-01
 -1      1997 1.79502E+00
 -1      1998 1.55954E+00
 -1      1999 1.35725E+00
 -1      2000 2.12634E+00
 -1      2001 2.03049E+00
 -1      2002 1.79502E+00
 -1      2003 2.39033E+00
 -1      2004 2.17415E+00
 -1      2005 2.07830E+00
 -1      2006 2.53966E+00
 -1      2007 2.38085E+00
 -1      2008 2.11662E+00
 -1      2009 2.48977E+00
 -1      2010 2.51494E+00
 -1      2011 2.08241E+00
 -1      2012 1.91686E+00
 -1      2013 2.27255E+00
 -1      2014 1.84046E+00
 -1      2015 1.25573E+00
 -1      2016 1.69952E+00
 -1      2017 1.40590E+00
 -1      2018 7.98926E-01
 -1      2019 9.92266E-01
 -1      2020 9.25094E-01
 -1      2021 6.35669E-01
 -1      2022 7.24151E-01
 -1      2023 5.86855E-01
 -1      2024 6.81416E-01
 -1      2025 6.70712E-01
 -1      2026 5.47123E-01
 -1      2027 8.06959E-01
 -1      2028 7.43575E-01
 -1      2029 6.44325E-01
 -1      2030 8.16323E-01
 -1      2031 8.16015E-01
 -1      2032 7.15539E-01
 -1      2033 7.42258E-01
 -1      2034 7.86572E-01
 -1      2035 6.94843E-01
 -1      2036 6.36860E-01
 -1      2037 7.00771E-01
 -1      2038 6.23605E-01
 -1      2039 5.47316E-01
 -1      2040 6.03419E-01
 -1      2041 5.48677E-01
 -1      2042 4.60269E-01
 -1      2043 5.11559E-01
 -1      2044 4.79479E-01
 -1      2045 3.70223E-01
 -1      2046 4.20661E-01
 -1      2047 4.04115E-01
 -1      2048 2.86293E-01
 -1      2049 3.31769E-01
 -1      2050 3.26054E-01
 -1      2051 2.14964E-01
 -1      2052 2.51853E-01
 -1      2053 2.53160E-01
 -1      2054 1.61176E-01
 -1      2055 1.85830E-01
 -1      2056 1.89585E-01
 -1      2057 1.18716E-01
 -1      2058 1.39504E-01
 -1      2059 1.38777E-01
 -1      2060 8.64018E-02
 -1      2061 1.03344E-01
 -1      2062 1.01733E-01
 -1      2063 6.20202E-02
 -1      2064 7.44769E-02
 -1      2065 7.44368E-02
 -1      2066 4.51650E-02
 -1      2067 5.35252E-02
 -1      2068 5.40169E-02
 -1      2069 3.50567E-02
 -1      2070 3.95762E-02
 -1      2071 3.99331E-02
 -1      2072 2.39132E-02
 -1      2073 2.94657E-02
 -1      2074 2.87533E-02
 -1      2075 1.39047E-02
 -1      2076 1.86648E-02
 -1      2077 1.79140E-02
 -1      2078 1.01697E-02
 -1      2079 9.14781E-03
 -1      2080 1.08141E-02
 -1      2081 1.48127E-02
 -1      2082 1.48127E-02
 -1      2083 1.57106E-02
 -1      2084 1.12910E-02
 -1      2085 8.34394E-03
 -1      2086 8.19576E-03
 -1      2087 1.07600E-02
 -1      2088 1.22355E-02
 -1      2089 1.07393E-02
 -1      2090 1.22033E-02
 -1      2091 1.40514E-02
 -1      2092 1.34220E-02
 -1      2093 1.57851E-02
 -1      2094 1.40603E-02
 -1      2095 1.40514E-02
 -1      2096 1.69715E-02
 -1      2097 1.41040E-02
 -1      2098 1.41040E-02
 -1      2099 1.70152E-02
 -1      2100 1.34475E-02
 -1      2101 1.41040E-02
 -1      2102 1.70589E-02
 -1      2103 1.08660E-02
 -1      2104 1.23351E-02
 -1      2105 1.59465E-02
 -1      2106 8.49742E-03
 -1      2107 8.43841E-03
 -1      2108 1.24066E-02
 -1      2109 1.00575E-02
 -1      2110 8.71552E-03
 -1      2111 1.01972E-02
 -1      2112 1.22640E-02
 -1      2113 1.08089E-02
 -1      2114 1.11666E-02
 -1      2115 1.53466E+00
 -1      2116 1.90831E+00
 -1      2117 1.63071E+00
 -1      2118 1.25371E+00
 -1      2119 3.80550E+01
 -1      2120 2.90224E+01
 -1      2121 1.02247E+01
 -1      2122 1.49736E+01
 -1      2123 3.07218E+01
 -1      2124 3.07218E+01
 -1      2125 1.87497E+01
 -1      2126 3.18851E+01
 -1      2127 1.02951E+00
 -1      2128 1.20446E+00
 -1      2129 9.68238E-01
 -1      2130 8.47163E-01
 -1      2131 9.87726E+00
 -1      2132 9.33536E+00
 -1      2133 1.08797E+01
 -1      2134 1.05550E+01
 -1      2135 1.11436E+01
 -1      2136 1.15359E+01
 -1      2137 1.18956E+01
 -1      2138 1.16567E+01
 -1      2139 1.02487E+01
 -1      2140 1.07839E+01
 -1      2141 1.00963E+01
 -1      2142 9.34945E+00
 -1      2143 2.14309E+01
 -1      2144 1.27134E+01
 -1      2145 2.58782E+01
 -1      2146 2.59866E+01
 -1      2147 1.68139E+01
 -1      2148 2.45118E+01
 -1      2149 2.66624E+01
 -1      2150 3.29553E+01
 -1      2151 3.22223E+01
 -1      2152 3.06484E+01
 -1      2153 3.29553E+01
 -1      2154 3.29553E+01
 -1      2155 3.08989E+01
 -1      2156 2.68881E+01
 -1      2157 3.09494E+01
 -1      2158 2.97554E+01
 -1      2159 1.40809E+01
 -1      2160 2.57162E+01
 -1      2161 9.74562E+00
 -1      2162 1.13173E+01
 -1      2163 1.06746E+01
 -1      2164 9.98944E+00
 -1      2165 1.14922E+01
 -1      2166 1.18807E+01
 -1      2167 1.14650E+01
 -1      2168 1.14851E+01
 -1      2169 1.12597E+01
 -1      2170 1.10529E+01
 -1      2171 1.04175E+01
 -1      2172 9.44491E+00
 -1      2173 9.79486E+00
 -1      2174 1.79745E+01
 -1      2175 1.12236E+01
 -1      2176 8.85435E+00
 -1      2177 3.37432E+01
 -1      2178 2.17176E+01
 -1      2179 3.00095E+01
 -1      2180 3.96883E+01
 -1      2181 3.07218E+01
 -1      2182 3.08690E+01
 -1      2183 2.96163E+01
 -1      2184 2.99626E+01
 -1      2185 1.49639E-02
 -1      2186 1.29066E+01
 -1      2187 2.90333E+00
 -1      2188 2.28525E+01
 -1      2189 8.24121E+00
 -1      2190 2.09028E+00
 -1      2191 1.61875E-02
 -1      2192 3.09693E+01
 -1      2193 1.49639E-02
 -1      2194 2.96163E+01
 -1      2195 3.17285E+01
 -1      2196 3.08690E+01
 -1      2197 1.43761E+01
 -1      2198 8.54051E+00
 -1      2199 1.08367E+01
 -1      2200 9.63769E+00
 -1      2201 8.18782E+00
 -1      2202 1.07076E+01
 -1      2203 1.87044E+01
 -1      2204 2.50811E+01
 -1      2205 3.83589E+01
 -1      2206 2.21538E+01
 -1      2207 9.64106E+00
 -1      2208 7.92321E+00
 -1      2209 9.93416E+00
 -1      2210 1.05328E+01
 -1      2211 8.02958E+00
 -1      2212 1.12156E+01
 -1      2213 9.04325E+00
 -1      2214 9.69949E+00
 -1      2215 3.22917E+01
 -1      2216 2.40644E+01
 -1      2217 1.46180E-02
 -1      2218 5.47741E-01
 -1      2219 5.80128E-01
 -1      2220 5.94269E-01
 -1      2221 6.44071E-01
 -1      2222 4.90566E-01
 -1      2223 4.95653E-01
 -1      2224 4.94107E-01
 -1      2225 5.33134E-01
 -1      2226 5.10087E-01
 -1      2227 4.30012E-01
 -1      2228 5.84344E-01
 -1      2229 5.49731E-01
 -1      2230 4.61043E-01
 -1      2231 6.46667E-01
 -1      2232 5.98043E-01
 -1      2233 4.91340E-01
 -1      2234 7.14235E-01
 -1      2235 6.46667E-01
 -1      2236 5.05039E-01
 -1      2237 8.12440E-01
 -1      2238 7.12179E-01
 -1      2239 5.02984E-01
 -1      2240 9.61836E-01
 -1      2241 8.72279E-01
 -1      2242 5.60767E-01
 -1      2243 1.73989E+00
 -1      2244 1.30006E+00
 -1      2245 9.58831E-01
 -1      2246 1.59410E+00
 -1      2247 1.25793E+00
 -1      2248 1.02448E+00
 -1      2249 1.47553E+01
 -1      2250 2.09251E+01
 -1      2251 8.77677E+00
 -1      2252 1.25528E+01
 -1      2253 9.79639E-01
 -1      2254 7.95736E-01
 -1      2255 7.31711E-01
 -1      2256 7.30708E-01
 -1      2257 6.29517E-01
 -1      2258 6.21845E-01
 -1      2259 5.63802E-01
 -1      2260 5.13066E-01
 -1      2261 4.91102E-01
 -1      2262 4.89365E-01
 -1      2263 4.42619E-01
 -1      2264 4.01685E-01
 -1      2265 4.10434E-01
 -1      2266 3.67106E-01
 -1      2267 3.45799E-01
 -1      2268 3.29153E-01
 -1      2269 3.02273E-01
 -1      2270 2.75661E-01
 -1      2271 3.22309E-01
 -1      2272 3.52854E-01
 -1      2273 2.57745E-01
 -1      2274 3.99494E-01
 -1      2275 4.33862E-01
 -1      2276 3.24422E-01
 -1      2277 5.16536E-01
 -1      2278 5.95985E-01
 -1      2279 4.53736E-01
 -1      2280 6.88019E-01
 -1      2281 7.84326E-01
 -1      2282 6.28444E-01
 -1      2283 8.83047E-01
 -1      2284 9.75260E-01
 -1      2285 8.19201E-01
 -1      2286 1.07431E+00
 -1      2287 1.14674E+00
 -1      2288 1.01697E+00
 -1      2289 1.23431E+00
 -1      2290 1.31047E+00
 -1      2291 1.20359E+00
 -1      2292 1.39137E+00
 -1      2293 1.45313E+00
 -1      2294 1.37206E+00
 -1      2295 1.60568E+00
 -1      2296 1.60369E+00
 -1      2297 1.60552E+00
 -1      2298 1.75047E+00
 -1      2299 1.69291E+00
 -1      2300 1.90485E+00
 -1      2301 1.77490E+00
 -1      2302 1.88676E+00
 -1      2303 2.13363E+00
 -1      2304 2.20945E+00
 -1      2305 2.29837E+00
 -1      2306 2.53831E+00
 -1      2307 2.24380E+00
 -1      2308 2.56652E+00
 -1      2309 2.80643E+00
 -1      2310 2.80870E+00
 -1      2311 3.14343E+00
 -1      2312 2.99403E+00
 -1      2313 3.65308E+00
 -1      2314 3.71799E+00
 -1      2315 3.74585E+00
 -1      2316 4.65462E+00
 -1      2317 4.63033E+00
 -1      2318 5.19213E+00
 -1      2319 4.24356E+00
 -1      2320 3.83817E+00
 -1      2321 5.74199E+00
 -1      2322 2.38251E+00
 -1      2323 2.10504E+00
 -1      2324 3.89957E+00
 -1      2325 2.16875E+00
 -1      2326 2.04461E+00
 -1      2327 2.50762E+00
 -1      2328 1.81801E+00
 -1      2329 1.73276E+00
 -1      2330 2.34473E+00
 -1      2331 1.60060E+00
 -1      2332 1.65516E+00
 -1      2333 1.98598E+00
 -1      2334 1.50021E+00
 -1      2335 1.49502E+00
 -1      2336 1.69887E+00
 -1      2337 1.42537E+00
 -1      2338 1.36117E+00
 -1      2339 1.47427E+00
 -1      2340 1.29274E+00
 -1      2341 1.23090E+00
 -1      2342 1.33619E+00
 -1      2343 1.14514E+00
 -1      2344 1.07589E+00
 -1      2345 1.18201E+00
 -1      2346 9.80194E-01
 -1      2347 8.94196E-01
 -1      2348 1.00056E+00
 -1      2349 8.04255E-01
 -1      2350 7.17269E-01
 -1      2351 8.14918E-01
 -1      2352 6.39145E-01
 -1      2353 5.59986E-01
 -1      2354 6.46854E-01
 -1      2355 4.93720E-01
 -1      2356 4.26231E-01
 -1      2357 5.02464E-01
 -1      2358 3.71859E-01
 -1      2359 3.16839E-01
 -1      2360 3.81827E-01
 -1      2361 2.75312E-01
 -1      2362 2.31937E-01
 -1      2363 2.85928E-01
 -1      2364 1.99773E-01
 -1      2365 1.66508E-01
 -1      2366 2.12238E-01
 -1      2367 1.41508E-01
 -1      2368 1.17178E-01
 -1      2369 1.55074E-01
 -1      2370 9.81260E-02
 -1      2371 8.30892E-02
 -1      2372 1.11021E-01
 -1      2373 6.88742E-02
 -1      2374 5.87325E-02
 -1      2375 7.77534E-02
 -1      2376 4.83900E-02
 -1      2377 4.06043E-02
 -1      2378 5.31958E-02
 -1      2379 3.31773E-02
 -1      2380 2.78475E-02
 -1      2381 3.54264E-02
 -1      2382 2.25068E-02
 -1      2383 1.73180E-02
 -1      2384 1.46180E-02
 -1      2385 2.26587E-02
 -1      2386 5.05581E-01
 -1      2387 5.60821E-01
 -1      2388 6.06387E-01
 -1      2389 6.68136E-01
 -1      2390 4.79201E-01
 -1      2391 7.41042E-01
 -1      2392 9.03858E-01
 -1      2393 5.97672E-01
 -1      2394 4.25443E-01
 -1      2395 4.75437E-01
 -1      2396 4.03490E-01
 -1      2397 3.44048E-01
 -1      2398 3.90150E-01
 -1      2399 3.38053E-01
 -1      2400 2.94471E-01
 -1      2401 3.10181E-01
 -1      2402 2.68893E-01
 -1      2403 3.28411E-01
 -1      2404 3.11272E-01
 -1      2405 2.51826E-01
 -1      2406 3.57599E-01
 -1      2407 3.42979E-01
 -1      2408 2.83194E-01
 -1      2409 4.26008E-01
 -1      2410 4.06574E-01
 -1      2411 3.46737E-01
 -1      2412 5.13863E-01
 -1      2413 4.67702E-01
 -1      2414 4.37406E-01
 -1      2415 6.02935E-01
 -1      2416 5.50018E-01
 -1      2417 5.15255E-01
 -1      2418 6.68403E-01
 -1      2419 6.32584E-01
 -1      2420 5.81058E-01
 -1      2421 6.92923E-01
 -1      2422 6.95040E-01
 -1      2423 6.37343E-01
 -1      2424 6.27007E-01
 -1      2425 6.91054E-01
 -1      2426 6.62112E-01
 -1      2427 6.33106E-01
 -1      2428 6.74254E-01
 -1      2429 7.07491E-01
 -1      2430 7.34827E-01
 -1      2431 6.81510E-01
 -1      2432 8.03141E-01
 -1      2433 1.09978E+00
 -1      2434 8.31347E-01
 -1      2435 9.48064E-01
 -1      2436 1.41835E+00
 -1      2437 1.21607E+00
 -1      2438 1.16088E+00
 -1      2439 1.76332E+00
 -1      2440 1.52785E+00
 -1      2441 1.38666E+00
 -1      2442 2.00203E+00
 -1      2443 1.95423E+00
 -1      2444 1.68706E+00
 -1      2445 1.90667E+00
 -1      2446 1.91615E+00
 -1      2447 1.79208E+00
 -1      2448 1.93844E+00
 -1      2449 1.96316E+00
 -1      2450 1.76269E+00
 -1      2451 1.55875E+00
 -1      2452 1.77598E+00
 -1      2453 1.65673E+00
 -1      2454 1.23771E+00
 -1      2455 1.45505E+00
 -1      2456 1.39057E+00
 -1      2457 8.57952E-01
 -1      2458 1.12142E+00
 -1      2459 1.17057E+00
 -1      2460 6.73351E-01
 -1      2461 7.48127E-01
 -1      2462 9.44449E-01
 -1      2463 6.65428E-01
 -1      2464 6.30384E-01
 -1      2465 7.91656E-01
 -1      2466 6.92078E-01
 -1      2467 6.29919E-01
 -1      2468 7.13181E-01
 -1      2469 7.11027E-01
 -1      2470 7.01972E-01
 -1      2471 6.87566E-01
 -1      2472 6.62480E-01
 -1      2473 6.92231E-01
 -1      2474 6.78664E-01
 -1      2475 5.89407E-01
 -1      2476 6.30894E-01
 -1      2477 6.28282E-01
 -1      2478 5.28799E-01
 -1      2479 5.62240E-01
 -1      2480 5.69529E-01
 -1      2481 4.61273E-01
 -1      2482 4.97030E-01
 -1      2483 5.10593E-01
 -1      2484 3.84383E-01
 -1      2485 4.23991E-01
 -1      2486 4.41542E-01
 -1      2487 3.08250E-01
 -1      2488 3.46704E-01
 -1      2489 3.66580E-01
 -1      2490 2.38892E-01
 -1      2491 2.73333E-01
 -1      2492 2.93983E-01
 -1      2493 1.79253E-01
 -1      2494 2.08388E-01
 -1      2495 2.28560E-01
 -1      2496 1.32094E-01
 -1      2497 1.53766E-01
 -1      2498 1.72570E-01
 -1      2499 9.62001E-02
 -1      2500 1.11571E-01
 -1      2501 1.26561E-01
 -1      2502 6.82935E-02
 -1      2503 8.02185E-02
 -1      2504 9.00569E-02
 -1      2505 4.77684E-02
 -1      2506 5.62634E-02
 -1      2507 6.20451E-02
 -1      2508 3.33988E-02
 -1      2509 3.89876E-02
 -1      2510 4.12341E-02
 -1      2511 2.28423E-02
 -1      2512 2.84332E-02
 -1      2513 2.74877E-02
 -1      2514 2.14358E-02
 -1      2515 1.70754E-02
 -1      2516 1.46800E-02
 -1      2517 1.28784E-02
 -1      2518 1.38304E-02
 -1      2519 1.77505E-02
 -1      2520 1.45378E-02
 -1      2521 1.85364E-02
 -1      2522 1.66562E-02
 -1      2523 3.02101E+01
 -1      2524 3.09693E+01
 -1      2525 2.01715E-02
 -1      2526 1.89851E-02
 -1      2527 2.14618E-02
 -1      2528 2.04804E-02
 -1      2529 2.04804E-02
 -1      2530 2.36803E-02
 -1      2531 2.05676E-02
 -1      2532 2.05239E-02
 -1      2533 2.40328E-02
 -1      2534 2.05676E-02
 -1      2535 2.05676E-02
 -1      2536 2.40763E-02
 -1      2537 1.93897E-02
 -1      2538 2.05021E-02
 -1      2539 2.40107E-02
 -1      2540 1.50109E-02
 -1      2541 1.74385E-02
 -1      2542 2.19940E-02
 -1      2543 1.34756E-02
 -1      2544 1.32575E-02
 -1      2545 1.82894E-02
 -1      2546 1.25154E-02
 -1      2547 1.17640E-02
 -1      2548 1.48243E-02
 -1      2549 1.52154E-02
 -1      2550 1.64957E+00
 -1      2551 1.29860E+00
 -1      2552 8.17223E-01
 -1      2553 9.41742E-01
 -1      2554 6.48372E+00
 -1      2555 7.37307E+00
 -1      2556 3.17285E+01
 -1      2557 3.17285E+01
 -1      2558 2.74135E+01
 -1      2559 2.65540E+01
 -1      2560 9.15071E+00
 -1      2561 9.15778E+00
 -1      2562 9.34936E+00
 -1      2563 6.73226E+00
 -1      2564 5.08484E-01
 -1      2565 5.31695E-01
 -1      2566 4.60379E-01
 -1      2567 4.29955E-01
 -1      2568 2.62245E+01
 -1      2569 3.22917E+01
 -1      2570 7.00565E+00
 -1      2571 6.32792E+00
 -1      2572 9.78410E+00
 -1      2573 9.27106E+00
 -1      2574 7.46936E+00
 -1      2575 8.58105E+00
 -1      2576 5.37649E+00
 -1      2577 6.27574E+00
 -1      2578 1.60740E+01
 -1      2579 1.15183E+01
 -1      2580 1.97121E+01
 -1      2581 1.89279E+01
 -1      2582 1.36324E+01
 -1      2583 3.06484E+01
 -1      2584 2.29380E+01
 -1      2585 2.19134E+01
 -1      2586 1.59682E+01
 -1      2587 3.83589E+01
 -1      2588 3.83589E+01
 -1      2589 2.04900E+01
 -1      2590 2.16335E+01
 -1      2591 1.22137E+01
 -1      2592 1.74469E+01
 -1      2593 1.39993E+01
 -1      2594 8.24523E+00
 -1      2595 1.10089E+01
 -1      2596 6.10903E+00
 -1      2597 5.86521E+00
 -1      2598 8.32157E+00
 -1      2599 7.11552E+00
 -1      2600 8.56868E+00
 -1      2601 8.98079E+00
 -1      2602 6.33703E+00
 -1      2603 7.80190E+00
 -1      2604 8.16229E+00
 -1      2605 6.38358E+00
 -1      2606 1.40611E+01
 -1      2607 1.03180E+01
 -1      2608 2.41081E+01
 -1      2609 2.47020E+01
 -1      2610 2.11157E-02
 -1      2611 6.10157E-01
 -1      2612 7.49521E-01
 -1      2613 8.13249E-01
 -1      2614 5.45979E+00
 -1      2615 1.30793E+00
 -1      2616 1.01089E+00
 -1      2617 1.04750E+00
 -1      2618 1.06254E+01
 -1      2619 1.60109E+01
 -1      2620 3.09693E+01
 -1      2621 2.47020E+01
 -1      2622 1.19101E+01
 -1      2623 7.84725E+00
 -1      2624 8.84395E-01
 -1      2625 2.74135E+01
 -1      2626 3.22917E+01
 -1      2627 8.83923E-01
 -1      2628 1.00050E+00
 -1      2629 6.77713E-01
 -1      2630 6.50643E-01
 -1      2631 5.64497E+00
 -1      2632 6.36521E+00
 -1      2633 1.99429E-02
 -1      2634 6.63561E+00
 -1      2635 1.84579E+01
 -1      2636 4.79291E+00
 -1      2637 9.75129E+00
 -1      2638 5.08479E+00
 -1      2639 1.97121E+01
 -1      2640 4.92264E+00
 -1      2641 7.31931E+00
 -1      2642 8.60951E+00
 -1      2643 7.30191E+00
 -1      2644 7.78824E+00
 -1      2645 6.08658E+00
 -1      2646 8.12418E+00
 -1      2647 7.01929E+00
 -1      2648 8.95078E+00
 -1      2649 3.06484E+01
 -1      2650 2.16335E+01
 -1      2651 6.16644E+00
 -1      2652 4.13368E-01
 -1      2653 3.96771E-01
 -1      2654 3.86025E-01
 -1      2655 3.71591E-01
 -1      2656 3.38350E-01
 -1      2657 4.31861E-01
 -1      2658 4.31861E-01
 -1      2659 4.25240E-01
 -1      2660 4.27295E-01
 -1      2661 3.54117E-01
 -1      2662 9.36091E-01
 -1      2663 5.97866E-01
 -1      2664 6.49921E-01
 -1      2665 4.13166E+00
 -1      2666 4.28746E+00
 -1      2667 1.17136E+01
 -1      2668 1.48966E+01
 -1      2669 2.20304E+01
 -1      2670 2.27896E+01
 -1      2671 4.41007E+00
 -1      2672 4.36353E+00
 -1      2673 5.25338E-01
 -1      2674 4.60309E-01
 -1      2675 4.42423E-01
 -1      2676 3.76708E-01
 -1      2677 3.45915E-01
 -1      2678 3.41465E-01
 -1      2679 3.17764E-01
 -1      2680 2.92786E-01
 -1      2681 2.91094E-01
 -1      2682 2.58908E-01
 -1      2683 2.30873E-01
 -1      2684 2.29557E-01
 -1      2685 1.91605E-01
 -1      2686 1.74852E-01
 -1      2687 1.92044E-01
 -1      2688 2.12080E-01
 -1      2689 1.45940E-01
 -1      2690 2.69638E-01
 -1      2691 3.16278E-01
 -1      2692 2.03936E-01
 -1      2693 3.84991E-01
 -1      2694 4.67665E-01
 -1      2695 3.30207E-01
 -1      2696 5.49295E-01
 -1      2697 6.41330E-01
 -1      2698 4.80551E-01
 -1      2699 7.38472E-01
 -1      2700 8.37194E-01
 -1      2701 6.59323E-01
 -1      2702 9.53158E-01
 -1      2703 1.05220E+00
 -1      2704 8.72430E-01
 -1      2705 1.19021E+00
 -1      2706 1.27778E+00
 -1      2707 1.12640E+00
 -1      2708 1.43803E+00
 -1      2709 1.51893E+00
 -1      2710 1.42465E+00
 -1      2711 1.68885E+00
 -1      2712 1.84141E+00
 -1      2713 1.75482E+00
 -1      2714 2.08883E+00
 -1      2715 2.23561E+00
 -1      2716 2.17217E+00
 -1      2717 2.65260E+00
 -1      2718 2.73459E+00
 -1      2719 2.83658E+00
 -1      2720 3.16521E+00
 -1      2721 3.48790E+00
 -1      2722 3.68418E+00
 -1      2723 3.60964E+00
 -1      2724 3.55506E+00
 -1      2725 4.23654E+00
 -1      2726 3.89201E+00
 -1      2727 4.40166E+00
 -1      2728 5.19213E+00
 -1      2729 6.12876E+00
 -1      2730 6.63037E+00
 -1      2731 6.24360E+00
 -1      2732 4.24192E+00
 -1      2733 2.78627E+00
 -1      2734 3.09585E+00
 -1      2735 3.15956E+00
 -1      2736 3.43821E+00
 -1      2737 3.03942E+00
 -1      2738 2.81282E+00
 -1      2739 3.62765E+00
 -1      2740 2.50134E+00
 -1      2741 2.36918E+00
 -1      2742 3.19603E+00
 -1      2743 2.03457E+00
 -1      2744 1.87962E+00
 -1      2745 2.54994E+00
 -1      2746 1.66814E+00
 -1      2747 1.59849E+00
 -1      2748 2.00384E+00
 -1      2749 1.45672E+00
 -1      2750 1.38829E+00
 -1      2751 1.65059E+00
 -1      2752 1.25112E+00
 -1      2753 1.16537E+00
 -1      2754 1.37165E+00
 -1      2755 1.04445E+00
 -1      2756 9.48746E-01
 -1      2757 1.11356E+00
 -1      2758 8.46280E-01
 -1      2759 7.56339E-01
 -1      2760 8.90166E-01
 -1      2761 6.71265E-01
 -1      2762 5.93141E-01
 -1      2763 7.02626E-01
 -1      2764 5.23447E-01
 -1      2765 4.57182E-01
 -1      2766 5.47858E-01
 -1      2767 4.00775E-01
 -1      2768 3.46403E-01
 -1      2769 4.21758E-01
 -1      2770 3.01318E-01
 -1      2771 2.59792E-01
 -1      2772 3.20266E-01
 -1      2773 2.24230E-01
 -1      2774 1.92066E-01
 -1      2775 2.39619E-01
 -1      2776 1.64409E-01
 -1      2777 1.39408E-01
 -1      2778 1.76400E-01
 -1      2779 1.18220E-01
 -1      2780 9.91679E-02
 -1      2781 1.27555E-01
 -1      2782 8.32200E-02
 -1      2783 6.90050E-02
 -1      2784 9.04195E-02
 -1      2785 5.73028E-02
 -1      2786 4.69603E-02
 -1      2787 6.27694E-02
 -1      2788 3.82676E-02
 -1      2789 3.08407E-02
 -1      2790 4.23746E-02
 -1      2791 2.47636E-02
 -1      2792 1.94228E-02
 -1      2793 1.73202E-02
 -1      2794 2.76048E-02
 -1      2795 3.79019E-01
 -1      2796 4.24585E-01
 -1      2797 3.12990E-01
 -1      2798 3.43134E-01
 -1      2799 2.88518E-01
 -1      2800 4.56893E-01
 -1      2801 5.29799E-01
 -1      2802 3.56711E-01
 -1      2803 1.93020E-01
 -1      2804 2.26887E-01
 -1      2805 2.12479E-01
 -1      2806 1.95678E-01
 -1      2807 1.53673E-01
 -1      2808 2.67455E-01
 -1      2809 2.52888E-01
 -1      2810 1.96740E-01
 -1      2811 3.67030E-01
 -1      2812 3.18055E-01
 -1      2813 2.87748E-01
 -1      2814 4.59768E-01
 -1      2815 4.18075E-01
 -1      2816 3.89392E-01
 -1      2817 5.43504E-01
 -1      2818 5.07349E-01
 -1      2819 4.88018E-01
 -1      2820 6.11883E-01
 -1      2821 5.82234E-01
 -1      2822 5.74329E-01
 -1      2823 7.06064E-01
 -1      2824 6.79428E-01
 -1      2825 6.80604E-01
 -1      2826 7.66181E-01
 -1      2827 7.68050E-01
 -1      2828 8.10134E-01
 -1      2829 8.53595E-01
 -1      2830 8.06348E-01
 -1      2831 9.12286E-01
 -1      2832 1.01748E+00
 -1      2833 9.69079E-01
 -1      2834 1.06794E+00
 -1      2835 1.21673E+00
 -1      2836 1.12021E+00
 -1      2837 1.28615E+00
 -1      2838 1.42428E+00
 -1      2839 1.30799E+00
 -1      2840 1.48013E+00
 -1      2841 1.66086E+00
 -1      2842 1.55137E+00
 -1      2843 1.69848E+00
 -1      2844 2.24491E+00
 -1      2845 2.05401E+00
 -1      2846 2.21871E+00
 -1      2847 2.80547E+00
 -1      2848 2.89135E+00
 -1      2849 3.25830E+00
 -1      2850 2.06949E+00
 -1      2851 2.01299E+00
 -1      2852 3.11226E+00
 -1      2853 1.69568E+00
 -1      2854 1.85814E+00
 -1      2855 2.10844E+00
 -1      2856 1.36820E+00
 -1      2857 1.47190E+00
 -1      2858 1.67331E+00
 -1      2859 1.19821E+00
 -1      2860 1.31451E+00
 -1      2861 1.39585E+00
 -1      2862 1.08981E+00
 -1      2863 1.19964E+00
 -1      2864 1.34358E+00
 -1      2865 9.37957E-01
 -1      2866 9.80924E-01
 -1      2867 1.23611E+00
 -1      2868 7.71900E-01
 -1      2869 8.07409E-01
 -1      2870 9.96677E-01
 -1      2871 7.47696E-01
 -1      2872 7.37802E-01
 -1      2873 8.32030E-01
 -1      2874 6.78664E-01
 -1      2875 6.97460E-01
 -1      2876 7.47696E-01
 -1      2877 6.28282E-01
 -1      2878 6.59868E-01
 -1      2879 6.78664E-01
 -1      2880 5.68083E-01
 -1      2881 5.95250E-01
 -1      2882 6.26836E-01
 -1      2883 4.96606E-01
 -1      2884 5.28375E-01
 -1      2885 5.54096E-01
 -1      2886 4.15969E-01
 -1      2887 4.53251E-01
 -1      2888 4.71033E-01
 -1      2889 3.36342E-01
 -1      2890 3.74021E-01
 -1      2891 3.85731E-01
 -1      2892 2.63650E-01
 -1      2893 2.98567E-01
 -1      2894 3.06009E-01
 -1      2895 2.01898E-01
 -1      2896 2.32403E-01
 -1      2897 2.36988E-01
 -1      2898 1.50685E-01
 -1      2899 1.76172E-01
 -1      2900 1.80014E-01
 -1      2901 1.09451E-01
 -1      2902 1.29973E-01
 -1      2903 1.33575E-01
 -1      2904 7.72365E-02
 -1      2905 9.32181E-02
 -1      2906 9.66302E-02
 -1      2907 5.33300E-02
 -1      2908 6.53602E-02
 -1      2909 6.85215E-02
 -1      2910 3.57636E-02
 -1      2911 4.45444E-02
 -1      2912 4.78595E-02
 -1      2913 2.40600E-02
 -1      2914 2.90256E-02
 -1      2915 3.23359E-02
 -1      2916 2.14808E-02
 -1      2917 2.42397E-02
 -1      2918 2.24380E-02
 -1      2919 2.87179E-02
 -1      2920 2.84090E-02
 -1      2921 1.95599E-02
 -1      2922 2.02673E-02
 -1      2923 2.43845E-02
 -1      2924 2.60491E-02
 -1      2925 2.63882E-02
 -1      2926 2.44785E-02
 -1      2927 2.91661E-02
 -1      2928 3.14257E-02
 -1      2929 2.87659E-02
 -1      2930 2.87659E-02
 -1      2931 2.87004E-02
 -1      2932 2.87659E-02
 -1      2933 3.34556E-02
 -1      2934 2.60991E-02
 -1      2935 2.80503E-02
 -1      2936 3.28055E-02
 -1      2937 2.38988E-02
 -1      2938 2.56523E-02
 -1      2939 3.17086E-02
 -1      2940 7.43198E+00
 -1      2941 9.63444E+00
 -1      2942 8.52016E+00
 -1      2943 1.70644E+01
 -1      2944 2.25725E+01
 -1      2945 2.08942E+01
 -1      2946 2.69614E+01
 -1      2947 1.76078E+01
 -1      2948 1.29672E+01
 -1      2949 5.20392E+00
 -1      2950 3.84815E+00
 -1      2951 4.51780E+00
 -1      2952 3.51131E+00
 -1      2953 3.28191E+00
 -1      2954 4.47553E+00
 -1      2955 1.76007E+01
 -1      2956 1.43748E+01
 -1      2957 2.87614E-02
 -1      2958 2.87179E-02
 -1      2959 3.34510E-02
 -1      2960 5.81301E-01
 -1      2961 5.36464E-01
 -1      2962 3.74928E-01
 -1      2963 2.41984E+01
 -1      2964 1.98834E+01
 -1      2965 7.24948E+00
 -1      2966 7.67790E+00
 -1      2967 6.42288E+00
 -1      2968 5.71982E+00
 -1      2969 7.12351E+00
 -1      2970 2.60022E+01
 -1      2971 1.82917E+01
 -1      2972 1.46047E+01
 -1      2973 8.64311E+00
 -1      2974 6.47416E+00
 -1      2975 5.39547E+00
 -1      2976 6.59851E+00
 -1      2977 1.26159E+01
 -1      2978 9.76194E+00
 -1      2979 1.05044E+01
 -1      2980 6.87538E+00
 -1      2981 4.71966E+00
 -1      2982 4.31861E-01
 -1      2983 4.18162E-01
 -1      2984 3.53890E-01
 -1      2985 3.58684E-01
 -1      2986 1.57846E+01
 -1      2987 2.03756E+01
 -1      2988 1.01325E+01
 -1      2989 1.31756E+01
 -1      2990 7.96392E+00
 -1      2991 9.16875E+00
 -1      2992 7.86753E-01
 -1      2993 4.17727E-01
 -1      2994 4.31868E-01
 -1      2995 2.56439E-01
 -1      2996 2.91732E-01
 -1      2997 2.31376E-01
 -1      2998 1.80566E-01
 -1      2999 1.12769E+01
 -1      3000 9.36979E+00
 -1      3001 6.00982E+00
 -1      3002 5.17361E+00
 -1      3003 3.27405E-01
 -1      3004 3.71392E-01
 -1      3005 3.85769E-01
 -1      3006 5.38027E-01
 -1      3007 4.55267E+00
 -1      3008 3.38035E+00
 -1      3009 5.33526E+00
 -1      3010 1.62319E+01
 -1      3011 1.08946E+01
 -1      3012 1.15856E+01
 -1      3013 1.00828E+01
 -1      3014 1.43801E+01
 -1      3015 1.22506E+01
 -1      3016 1.52595E+01
 -1      3017 5.47682E+00
 -1      3018 3.79724E+00
 -1      3019 2.99403E+00
 -1      3020 3.23620E+00
 -1      3021 7.61466E+00
 -1      3022 8.24784E+00
 -1      3023 5.12025E+00
 -1      3024 1.04269E+01
 -1      3025 3.34465E-02
 -1      3026 4.64971E-01
 -1      3027 5.70420E-01
 -1      3028 3.92131E-01
 -1      3029 6.45237E+00
 -1      3030 5.86983E+00
 -1      3031 1.50453E+01
 -1      3032 5.01050E+00
 -1      3033 4.28970E+00
 -1      3034 3.36977E+00
 -1      3035 6.13250E+00
 -1      3036 1.81175E-02
 -1      3037 1.98291E-02
 -1      3038 2.71920E-02
 -1      3039 2.23250E-02
 -1      3040 3.90065E-01
 -1      3041 5.30845E-01
 -1      3042 6.68812E+00
 -1      3043 5.41525E+00
 -1      3044 4.76428E+00
 -1      3045 5.10910E-01
 -1      3046 3.40104E+00
 -1      3047 3.89201E+00
 -1      3048 5.23752E+00
 -1      3049 1.43928E+01
 -1      3050 6.63037E+00
 -1      3051 3.43821E+00
 -1      3052 4.62339E-01
 -1      3053 3.96409E-01
 -1      3054 4.12455E-01
 -1      3055 3.53757E-01
 -1      3056 3.37846E-01
 -1      3057 6.80029E+00
 -1      3058 1.43928E+01
 -1      3059 4.39169E+00
 -1      3060 7.62660E+00
 -1      3061 8.34509E+00
 -1      3062 1.19178E+01
 -1      3063 5.76340E-01
 -1      3064 6.47485E-01
 -1      3065 6.06810E-01
 -1      3066 4.31153E-01
 -1      3067 3.45958E+00
 -1      3068 5.83960E+00
 -1      3069 4.11563E-01
 -1      3070 2.97874E-01
 -1      3071 3.02440E-01
 -1      3072 6.02917E-01
 -1      3073 5.33829E+00
 -1      3074 2.55601E-01
 -1      3075 2.20359E-01
 -1      3076 2.00570E-01
 -1      3077 1.73900E-01
 -1      3078 1.63385E-01
 -1      3079 1.60752E-01
 -1      3080 1.31401E-01
 -1      3081 1.30448E-01
 -1      3082 1.45368E-01
 -1      3083 1.45806E-01
 -1      3084 1.31267E-01
 -1      3085 1.88323E-01
 -1      3086 2.45880E-01
 -1      3087 1.87750E-01
 -1      3088 3.01886E-01
 -1      3089 3.70599E-01
 -1      3090 2.86272E-01
 -1      3091 4.49457E-01
 -1      3092 5.31088E-01
 -1      3093 4.21136E-01
 -1      3094 6.24820E-01
 -1      3095 7.21963E-01
 -1      3096 5.93727E-01
 -1      3097 8.30720E-01
 -1      3098 9.46685E-01
 -1      3099 7.96218E-01
 -1      3100 1.07160E+00
 -1      3101 1.20961E+00
 -1      3102 1.02989E+00
 -1      3103 1.39766E+00
 -1      3104 1.55790E+00
 -1      3105 1.34286E+00
 -1      3106 1.84538E+00
 -1      3107 2.01530E+00
 -1      3108 1.81839E+00
 -1      3109 2.44650E+00
 -1      3110 2.69392E+00
 -1      3111 2.53706E+00
 -1      3112 3.02762E+00
 -1      3113 3.44460E+00
 -1      3114 3.30195E+00
 -1      3115 4.55403E+00
 -1      3116 4.98464E+00
 -1      3117 4.74507E+00
 -1      3118 5.74809E+00
 -1      3119 3.57061E-01
 -1      3120 3.31552E-01
 -1      3121 3.20426E-01
 -1      3122 3.51142E-01
 -1      3123 3.74779E+00
 -1      3124 3.19504E+00
 -1      3125 2.62880E+00
 -1      3126 4.08158E+00
 -1      3127 3.77010E+00
 -1      3128 3.17851E+00
 -1      3129 2.84391E+00
 -1      3130 4.06407E+00
 -1      3131 2.42843E+00
 -1      3132 2.21694E+00
 -1      3133 3.05700E+00
 -1      3134 1.86479E+00
 -1      3135 1.72302E+00
 -1      3136 2.28937E+00
 -1      3137 1.47350E+00
 -1      3138 1.33633E+00
 -1      3139 1.68770E+00
 -1      3140 1.17224E+00
 -1      3141 1.05131E+00
 -1      3142 1.27408E+00
 -1      3143 9.41683E-01
 -1      3144 8.39217E-01
 -1      3145 1.00036E+00
 -1      3146 7.44552E-01
 -1      3147 6.59478E-01
 -1      3148 7.96069E-01
 -1      3149 5.79334E-01
 -1      3150 5.09641E-01
 -1      3151 6.21261E-01
 -1      3152 4.44061E-01
 -1      3153 3.87654E-01
 -1      3154 4.75537E-01
 -1      3155 3.35273E-01
 -1      3156 2.90188E-01
 -1      3157 3.57576E-01
 -1      3158 2.49139E-01
 -1      3159 2.13577E-01
 -1      3160 2.64146E-01
 -1      3161 1.81952E-01
 -1      3162 1.54295E-01
 -1      3163 1.91472E-01
 -1      3164 1.31211E-01
 -1      3165 1.10023E-01
 -1      3166 1.36763E-01
 -1      3167 9.29562E-02
 -1      3168 7.70084E-02
 -1      3169 9.66120E-02
 -1      3170 6.50639E-02
 -1      3171 5.33617E-02
 -1      3172 6.76007E-02
 -1      3173 2.20700E-01
 -1      3174 2.56585E-01
 -1      3175 2.69177E-01
 -1      3176 3.01486E-01
 -1      3177 2.01360E-01
 -1      3178 2.13615E-01
 -1      3179 1.73207E-01
 -1      3180 1.41974E-01
 -1      3181 1.39315E-01
 -1      3182 1.58849E-01
 -1      3183 4.10799E-01
 -1      3184 3.59754E-01
 -1      3185 5.21397E-01
 -1      3186 4.73816E-01
 -1      3187 4.44177E-01
 -1      3188 6.28987E-01
 -1      3189 5.90258E-01
 -1      3190 5.76055E-01
 -1      3191 7.66766E-01
 -1      3192 6.99221E-01
 -1      3193 7.15149E-01
 -1      3194 9.21879E-01
 -1      3195 8.59894E-01
 -1      3196 8.78511E-01
 -1      3197 1.09214E+00
 -1      3198 1.05197E+00
 -1      3199 1.10173E+00
 -1      3200 1.34413E+00
 -1      3201 1.22864E+00
 -1      3202 1.36833E+00
 -1      3203 1.59352E+00
 -1      3204 1.49079E+00
 -1      3205 1.65150E+00
 -1      3206 2.12553E+00
 -1      3207 2.03428E+00
 -1      3208 2.23891E+00
 -1      3209 1.99495E+00
 -1      3210 1.86786E+00
 -1      3211 2.42200E+00
 -1      3212 3.90474E+00
 -1      3213 3.25830E+00
 -1      3214 3.14945E+00
 -1      3215 3.94193E+00
 -1      3216 2.12761E+00
 -1      3217 2.33896E+00
 -1      3218 3.16862E+00
 -1      3219 2.23265E+00
 -1      3220 2.45642E+00
 -1      3221 2.68695E+00
 -1      3222 1.66388E+00
 -1      3223 1.71757E+00
 -1      3224 2.50069E+00
 -1      3225 1.64462E+00
 -1      3226 1.64319E+00
 -1      3227 1.96492E+00
 -1      3228 1.33497E+00
 -1      3229 1.44386E+00
 -1      3230 1.74347E+00
 -1      3231 1.09953E+00
 -1      3232 1.23007E+00
 -1      3233 1.43782E+00
 -1      3234 9.44737E-01
 -1      3235 9.78836E-01
 -1      3236 1.21223E+00
 -1      3237 7.91770E-01
 -1      3238 8.42006E-01
 -1      3239 9.88811E-01
 -1      3240 7.04352E-01
 -1      3241 7.23148E-01
 -1      3242 8.17458E-01
 -1      3243 6.02701E-01
 -1      3244 6.35733E-01
 -1      3245 6.80217E-01
 -1      3246 5.06419E-01
 -1      3247 5.46127E-01
 -1      3248 5.55024E-01
 -1      3249 4.17762E-01
 -1      3250 4.61117E-01
 -1      3251 4.53148E-01
 -1      3252 3.34439E-01
 -1      3253 3.76387E-01
 -1      3254 3.66470E-01
 -1      3255 2.60724E-01
 -1      3256 2.98499E-01
 -1      3257 2.89155E-01
 -1      3258 1.99450E-01
 -1      3259 2.30697E-01
 -1      3260 2.23187E-01
 -1      3261 1.50665E-01
 -1      3262 1.76392E-01
 -1      3263 1.70101E-01
 -1      3264 1.11185E-01
 -1      3265 1.31898E-01
 -1      3266 1.28275E-01
 -1      3267 8.00617E-02
 -1      3268 9.62941E-02
 -1      3269 9.46167E-02
 -1      3270 5.66451E-02
 -1      3271 6.85215E-02
 -1      3272 6.81854E-02
 -1      3273 3.90738E-02
 -1      3274 4.78595E-02
 -1      3275 4.78595E-02
 -1      3276 2.74020E-02
 -1      3277 3.41400E-02
 -1      3278 3.41400E-02
 -1      3279 2.61886E-02
 -1      3280 3.91024E-02
 -1      3281 3.97525E-02
 -1      3282 1.23924E+01
 -1      3283 1.29109E+01
 -1      3284 9.63873E+00
 -1      3285 7.87973E+00
 -1      3286 4.03994E-02
 -1      3287 4.08463E-02
 -1      3288 4.77933E-02
 -1      3289 3.97525E-02
 -1      3290 3.97525E-02
 -1      3291 4.60494E-02
 -1      3292 7.19737E+00
 -1      3293 9.27657E+00
 -1      3294 1.19758E+01
 -1      3295 1.10167E+01
 -1      3296 1.19792E+01
 -1      3297 1.33880E+01
 -1      3298 3.93376E-02
 -1      3299 3.93330E-02
 -1      3300 4.56345E-02
 -1      3301 1.34379E+01
 -1      3302 1.11623E+01
 -1      3303 3.94773E-02
 -1      3304 3.94773E-02
 -1      3305 4.53639E-02
 -1      3306 3.04105E-01
 -1      3307 2.53506E-01
 -1      3308 2.29973E-01
 -1      3309 3.25512E-01
 -1      3310 3.18447E+00
 -1      3311 5.31779E+00
 -1      3312 5.62625E+00
 -1      3313 2.81223E-01
 -1      3314 2.63336E-01
 -1      3315 1.90909E-01
 -1      3316 4.83119E-01
 -1      3317 3.70331E-01
 -1      3318 4.99199E+00
 -1      3319 5.43828E+00
 -1      3320 3.17187E+00
 -1      3321 4.60423E+00
 -1      3322 7.16603E+00
 -1      3323 6.04720E+00
 -1      3324 6.61794E+00
 -1      3325 7.58165E+00
 -1      3326 1.25213E+01
 -1      3327 1.19792E+01
 -1      3328 9.77032E+00
 -1      3329 8.08003E+00
 -1      3330 5.12025E+00
 -1      3331 3.11222E-01
 -1      3332 3.00476E-01
 -1      3333 8.53490E+00
 -1      3334 1.11439E+01
 -1      3335 9.00950E+00
 -1      3336 6.80774E+00
 -1      3337 5.43903E+00
 -1      3338 4.16879E+00
 -1      3339 3.18654E-01
 -1      3340 3.90437E+00
 -1      3341 1.04922E+01
 -1      3342 8.43233E+00
 -1      3343 7.86337E+00
 -1      3344 8.76003E+00
 -1      3345 2.93241E-01
 -1      3346 2.93042E-01
 -1      3347 2.66113E-01
 -1      3348 1.24326E-01
 -1      3349 1.53878E-01
 -1      3350 1.12627E-01
 -1      3351 3.39655E+00
 -1      3352 5.00011E+00
 -1      3353 1.94278E-01
 -1      3354 1.62345E-01
 -1      3355 1.73021E-01
 -1      3356 4.92917E-02
 -1      3357 4.05990E-02
 -1      3358 2.84021E-02
 -1      3359 2.37846E-01
 -1      3360 3.27035E+00
 -1      3361 2.62392E+00
 -1      3362 2.23077E+00
 -1      3363 2.73539E+00
 -1      3364 2.40015E+00
 -1      3365 8.81548E+00
 -1      3366 9.32292E+00
 -1      3367 1.19758E+01
 -1      3368 8.38783E+00
 -1      3369 3.94773E-02
 -1      3370 3.74565E-02
 -1      3371 4.55082E-02
 -1      3372 3.18039E-01
 -1      3373 3.51142E-01
 -1      3374 3.74551E+00
 -1      3375 5.57418E+00
 -1      3376 6.30034E+00
 -1      3377 3.16190E-01
 -1      3378 3.16190E-01
 -1      3379 2.59946E-01
 -1      3380 6.38266E+00
 -1      3381 2.91310E-01
 -1      3382 2.92356E-01
 -1      3383 1.01576E+01
 -1      3384 3.02733E-02
 -1      3385 2.73952E-02
 -1      3386 3.04127E-02
 -1      3387 2.52938E+00
 -1      3388 4.09798E+00
 -1      3389 3.53192E-02
 -1      3390 3.93889E-02
 -1      3391 1.01077E+01
 -1      3392 4.85266E-02
 -1      3393 4.97847E+00
 -1      3394 8.43929E+00
 -1      3395 1.11236E+01
 -1      3396 8.71000E+00
 -1      3397 6.95808E+00
 -1      3398 3.11592E-01
 -1      3399 3.16864E-01
 -1      3400 2.75874E-01
 -1      3401 3.16190E-01
 -1      3402 3.11396E-01
 -1      3403 2.73522E-01
 -1      3404 2.73696E-01
 -1      3405 9.55790E+00
 -1      3406 6.93321E+00
 -1      3407 8.18907E+00
 -1      3408 3.05121E-02
 -1      3409 3.02733E-02
 -1      3410 3.16194E-02
 -1      3411 3.85638E-02
 -1      3412 2.19898E-01
 -1      3413 5.15862E-02
 -1      3414 2.03777E-01
 -1      3415 1.45940E-01
 -1      3416 1.26151E-01
 -1      3417 3.59288E+00
 -1      3418 7.99515E-01
 -1      3419 7.29282E-01
 -1      3420 1.35251E-01
 -1      3421 1.22102E-01
 -1      3422 1.17805E-01
 -1      3423 1.39115E-01
 -1      3424 1.53082E-01
 -1      3425 1.43918E-01
 -1      3426 1.80047E-01
 -1      3427 2.22564E-01
 -1      3428 1.87896E-01
 -1      3429 2.73322E-01
 -1      3430 3.29328E-01
 -1      3431 2.65619E-01
 -1      3432 4.00350E-01
 -1      3433 4.79208E-01
 -1      3434 3.87399E-01
 -1      3435 5.68396E-01
 -1      3436 6.62129E-01
 -1      3437 5.47609E-01
 -1      3438 7.75175E-01
 -1      3439 8.83933E-01
 -1      3440 7.49844E-01
 -1      3441 1.02930E+00
 -1      3442 1.15422E+00
 -1      3443 1.00826E+00
 -1      3444 1.34286E+00
 -1      3445 1.53091E+00
 -1      3446 1.34227E+00
 -1      3447 1.78065E+00
 -1      3448 2.06813E+00
 -1      3449 1.78065E+00
 -1      3450 2.47955E+00
 -1      3451 2.91074E+00
 -1      3452 2.44182E+00
 -1      3453 3.45966E+00
 -1      3454 3.79335E+00
 -1      3455 3.40215E+00
 -1      3456 5.69832E+00
 -1      3457 1.50498E-01
 -1      3458 1.63091E-01
 -1      3459 2.77049E-01
 -1      3460 5.27628E+00
 -1      3461 4.68470E+00
 -1      3462 1.62953E-01
 -1      3463 1.52777E-01
 -1      3464 1.12091E-01
 -1      3465 3.89234E+00
 -1      3466 3.47686E+00
 -1      3467 5.10456E+00
 -1      3468 2.59106E+00
 -1      3469 2.23891E+00
 -1      3470 3.42640E+00
 -1      3471 1.89646E+00
 -1      3472 1.64693E+00
 -1      3473 2.19814E+00
 -1      3474 1.43817E+00
 -1      3475 1.27408E+00
 -1      3476 1.64693E+00
 -1      3477 1.10999E+00
 -1      3478 1.00036E+00
 -1      3479 1.27408E+00
 -1      3480 8.72378E-01
 -1      3481 7.77713E-01
 -1      3482 9.82008E-01
 -1      3483 6.77894E-01
 -1      3484 5.97750E-01
 -1      3485 7.54202E-01
 -1      3486 5.19726E-01
 -1      3487 4.54146E-01
 -1      3488 5.76359E-01
 -1      3489 3.93140E-01
 -1      3490 3.40758E-01
 -1      3491 4.37328E-01
 -1      3492 2.93150E-01
 -1      3493 2.52101E-01
 -1      3494 3.28714E-01
 -1      3495 2.15148E-01
 -1      3496 1.83523E-01
 -1      3497 2.44152E-01
 -1      3498 1.55054E-01
 -1      3499 1.31970E-01
 -1      3500 1.78730E-01
 -1      3501 1.10354E-01
 -1      3502 9.32871E-02
 -1      3503 1.28645E-01
 -1      3504 7.71858E-02
 -1      3505 6.52413E-02
 -1      3506 9.09278E-02
 -1      3507 1.58062E-01
 -1      3508 1.84359E-01
 -1      3509 1.98109E-01
 -1      3510 1.17238E-01
 -1      3511 3.18886E+00
 -1      3512 3.90243E+00
 -1      3513 6.33295E-01
 -1      3514 5.64434E-01
 -1      3515 7.17661E-01
 -1      3516 4.97692E-01
 -1      3517 4.34675E-01
 -1      3518 5.54932E-01
 -1      3519 1.02451E+00
 -1      3520 9.31385E-01
 -1      3521 9.45517E-01
 -1      3522 1.29931E+00
 -1      3523 1.16922E+00
 -1      3524 1.22209E+00
 -1      3525 1.62874E+00
 -1      3526 1.49224E+00
 -1      3527 1.55972E+00
 -1      3528 2.03155E+00
 -1      3529 1.88489E+00
 -1      3530 2.00880E+00
 -1      3531 3.41426E+00
 -1      3532 2.97351E+00
 -1      3533 3.20690E+00
 -1      3534 3.94193E+00
 -1      3535 3.18276E+00
 -1      3536 3.99325E+00
 -1      3537 2.46877E+00
 -1      3538 2.48946E+00
 -1      3539 1.74347E+00
 -1      3540 1.94423E+00
 -1      3541 2.46877E+00
 -1      3542 1.93454E+00
 -1      3543 2.03943E+00
 -1      3544 2.24019E+00
 -1      3545 1.35255E+00
 -1      3546 1.47324E+00
 -1      3547 2.07485E+00
 -1      3548 1.04192E+00
 -1      3549 1.14465E+00
 -1      3550 1.40566E+00
 -1      3551 8.77999E-01
 -1      3552 9.46621E-01
 -1      3553 1.10246E+00
 -1      3554 7.08470E-01
 -1      3555 7.77089E-01
 -1      3556 9.06252E-01
 -1      3557 5.67255E-01
 -1      3558 6.23829E-01
 -1      3559 7.20701E-01
 -1      3560 4.54196E-01
 -1      3561 4.99498E-01
 -1      3562 5.68304E-01
 -1      3563 3.63719E-01
 -1      3564 4.05094E-01
 -1      3565 4.51445E-01
 -1      3566 2.86324E-01
 -1      3567 3.22265E-01
 -1      3568 3.60889E-01
 -1      3569 2.22627E-01
 -1      3570 2.52654E-01
 -1      3571 2.85764E-01
 -1      3572 1.70606E-01
 -1      3573 1.93664E-01
 -1      3574 2.23132E-01
 -1      3575 1.27771E-01
 -1      3576 1.46538E-01
 -1      3577 1.70102E-01
 -1      3578 9.41731E-02
 -1      3579 1.09064E-01
 -1      3580 1.27327E-01
 -1      3581 6.78484E-02
 -1      3582 7.93887E-02
 -1      3583 9.38360E-02
 -1      3584 4.74464E-02
 -1      3585 5.62321E-02
 -1      3586 6.74353E-02
 -1      3587 2.29356E+00
 -1      3588 8.05221E+00
 -1      3589 6.66018E+00
 -1      3590 5.59138E-02
 -1      3591 5.41700E-02
 -1      3592 5.54260E-02
 -1      3593 5.54260E-02
 -1      3594 6.35466E-02
 -1      3595 7.63304E+00
 -1      3596 8.43929E+00
 -1      3597 9.08197E+00
 -1      3598 9.13188E+00
 -1      3599 6.97658E+00
 -1      3600 2.37846E-01
 -1      3601 4.43064E+00
 -1      3602 1.93588E-01
 -1      3603 1.62355E-01
 -1      3604 5.58145E+00
 -1      3605 4.86774E+00
 -1      3606 1.49186E-01
 -1      3607 1.41451E-01
 -1      3608 1.04217E-01
 -1      3609 6.03955E+00
 -1      3610 2.99905E-01
 -1      3611 3.10545E-01
 -1      3612 2.73651E-01
 -1      3613 5.54260E-02
 -1      3614 5.50111E-02
 -1      3615 6.48026E-02
 -1      3616 9.08197E+00
 -1      3617 9.08197E+00
 -1      3618 4.27767E+00
 -1      3619 5.84879E+00
 -1      3620 4.86774E+00
 -1      3621 4.25958E+00
 -1      3622 5.25967E-02
 -1      3623 5.25806E-02
 -1      3624 5.27249E-02
 -1      3625 6.23721E-02
 -1      3626 3.51157E+00
 -1      3627 3.26732E+00
 -1      3628 2.39233E-01
 -1      3629 2.00030E-01
 -1      3630 1.50572E-01
 -1      3631 2.38057E-01
 -1      3632 6.21818E-02
 -1      3633 3.40856E+00
 -1      3634 3.52499E+00
 -1      3635 3.20009E+00
 -1      3636 2.68501E+00
 -1      3637 6.71225E+00
 -1      3638 6.18779E+00
 -1      3639 2.32521E-01
 -1      3640 2.25286E-01
 -1      3641 1.35225E-01
 -1      3642 1.20235E-01
 -1      3643 1.69964E-01
 -1      3644 5.85603E+00
 -1      3645 1.45654E-01
 -1      3646 1.07386E-01
 -1      3647 1.19233E-01
 -1      3648 6.85585E-02
 -1      3649 3.36856E+00
 -1      3650 1.16780E-01
 -1      3651 2.32521E-01
 -1      3652 1.91694E-01
 -1      3653 2.32695E-01
 -1      3654 6.71225E+00
 -1      3655 3.06104E-02
 -1      3656 3.55443E-02
 -1      3657 4.39168E-02
 -1      3658 3.18170E-02
 -1      3659 7.89846E+00
 -1      3660 6.96337E+00
 -1      3661 5.64438E-02
 -1      3662 5.64438E-02
 -1      3663 6.36605E-02
 -1      3664 7.31230E+00
 -1      3665 2.65741E-01
 -1      3666 8.05625E+00
 -1      3667 5.80682E+00
 -1      3668 5.48609E+00
 -1      3669 3.70184E+00
 -1      3670 5.62429E+00
 -1      3671 4.19169E+00
 -1      3672 5.54346E+00
 -1      3673 2.29599E-01
 -1      3674 2.33105E-01
 -1      3675 2.69489E-01
 -1      3676 3.75946E-01
 -1      3677 3.20298E-01
 -1      3678 3.19923E-01
 -1      3679 4.29461E-01
 -1      3680 4.14885E+00
 -1      3681 7.95554E+00
 -1      3682 6.92982E+00
 -1      3683 6.55785E+00
 -1      3684 6.25727E+00
 -1      3685 7.35069E+00
 -1      3686 6.01401E+00
 -1      3687 4.32689E+00
 -1      3688 4.57710E-02
 -1      3689 4.57710E-02
 -1      3690 4.59686E-02
 -1      3691 1.91874E-01
 -1      3692 2.25466E-01
 -1      3693 2.32330E-01
 -1      3694 1.42615E+00
 -1      3695 1.28145E+00
 -1      3696 1.47458E-01
 -1      3697 1.64471E-01
 -1      3698 1.83102E-01
 -1      3699 2.10067E-01
 -1      3700 1.86642E-01
 -1      3701 2.38780E-01
 -1      3702 2.89539E-01
 -1      3703 2.33987E-01
 -1      3704 3.46196E-01
 -1      3705 4.17218E-01
 -1      3706 3.19358E-01
 -1      3707 4.89778E-01
 -1      3708 5.78966E-01
 -1      3709 4.48575E-01
 -1      3710 6.74591E-01
 -1      3711 7.87638E-01
 -1      3712 6.16760E-01
 -1      3713 9.18892E-01
 -1      3714 1.06426E+00
 -1      3715 8.43639E-01
 -1      3716 1.25460E+00
 -1      3717 1.44324E+00
 -1      3718 1.16523E+00
 -1      3719 1.73615E+00
 -1      3720 1.98589E+00
 -1      3721 1.64848E+00
 -1      3722 2.44182E+00
 -1      3723 2.85324E+00
 -1      3724 2.39731E+00
 -1      3725 3.04949E+00
 -1      3726 3.59840E+00
 -1      3727 3.04949E+00
 -1      3728 1.12580E-01
 -1      3729 1.12442E-01
 -1      3730 6.18423E+00
 -1      3731 4.22455E+00
 -1      3732 3.33875E+00
 -1      3733 2.54060E+00
 -1      3734 2.19814E+00
 -1      3735 3.33875E+00
 -1      3736 1.83530E+00
 -1      3737 1.62654E+00
 -1      3738 2.17776E+00
 -1      3739 1.36571E+00
 -1      3740 1.20162E+00
 -1      3741 1.55408E+00
 -1      3742 1.03213E+00
 -1      3743 9.04141E-01
 -1      3744 1.12375E+00
 -1      3745 7.85023E-01
 -1      3746 6.85204E-01
 -1      3747 8.35143E-01
 -1      3748 5.98259E-01
 -1      3749 5.20235E-01
 -1      3750 6.29080E-01
 -1      3751 4.54913E-01
 -1      3752 3.93907E-01
 -1      3753 4.76814E-01
 -1      3754 3.43727E-01
 -1      3755 2.96119E-01
 -1      3756 3.61312E-01
 -1      3757 2.57279E-01
 -1      3758 2.20326E-01
 -1      3759 2.72293E-01
 -1      3760 1.90162E-01
 -1      3761 1.61694E-01
 -1      3762 2.03289E-01
 -1      3763 1.38244E-01
 -1      3764 1.16627E-01
 -1      3765 1.49676E-01
 -1      3766 1.06467E-01
 -1      3767 9.03656E-02
 -1      3768 1.16065E-01
 -1      3769 1.20559E-01
 -1      3770 1.29659E-01
 -1      3771 1.50212E-01
 -1      3772 8.11110E-01
 -1      3773 7.15123E-01
 -1      3774 1.06787E+00
 -1      3775 9.36004E-01
 -1      3776 9.33466E-01
 -1      3777 1.27193E+00
 -1      3778 6.21674E-01
 -1      3779 5.54932E-01
 -1      3780 7.15123E-01
 -1      3781 1.82633E+00
 -1      3782 1.63340E+00
 -1      3783 1.69276E+00
 -1      3784 2.54258E+00
 -1      3785 2.28643E+00
 -1      3786 2.36011E+00
 -1      3787 3.20690E+00
 -1      3788 2.84402E+00
 -1      3789 1.77868E+00
 -1      3790 1.98659E+00
 -1      3791 1.20392E+00
 -1      3792 1.29922E+00
 -1      3793 1.88015E+00
 -1      3794 9.03215E-01
 -1      3795 1.00413E+00
 -1      3796 1.20089E+00
 -1      3797 7.04300E-01
 -1      3798 7.88941E-01
 -1      3799 8.86814E-01
 -1      3800 5.53716E-01
 -1      3801 6.21473E-01
 -1      3802 6.89712E-01
 -1      3803 4.50875E-01
 -1      3804 4.99977E-01
 -1      3805 5.53146E-01
 -1      3806 3.60889E-01
 -1      3807 4.02343E-01
 -1      3808 4.50875E-01
 -1      3809 2.84925E-01
 -1      3810 3.18595E-01
 -1      3811 3.60049E-01
 -1      3812 2.20362E-01
 -1      3813 2.49325E-01
 -1      3814 2.82155E-01
 -1      3815 1.66938E-01
 -1      3816 1.91006E-01
 -1      3817 2.17199E-01
 -1      3818 1.24485E-01
 -1      3819 1.43192E-01
 -1      3820 1.64097E-01
 -1      3821 9.09068E-02
 -1      3822 1.05691E-01
 -1      3823 1.21556E-01
 -1      3824 6.46983E-02
 -1      3825 7.63146E-02
 -1      3826 8.81697E-02
 -1      3827 6.64995E+00
 -1      3828 6.21481E+00
 -1      3829 4.53923E+00
 -1      3830 4.66374E+00
 -1      3831 5.81486E+00
 -1      3832 4.73322E+00
 -1      3833 4.79034E+00
 -1      3834 1.16800E-01
 -1      3835 1.21289E-01
 -1      3836 1.33142E-01
 -1      3837 1.07093E-01
 -1      3838 1.26236E-01
 -1      3839 1.09545E-01
 -1      3840 1.29691E-01
 -1      3841 6.09509E+00
 -1      3842 6.09509E+00
 -1      3843 7.93230E-02
 -1      3844 7.93230E-02
 -1      3845 3.13998E+00
 -1      3846 5.78708E-02
 -1      3847 2.37010E-01
 -1      3848 2.38057E-01
 -1      3849 1.96736E-01
 -1      3850 7.18664E-02
 -1      3851 6.94359E-02
 -1      3852 8.63868E-02
 -1      3853 8.40977E-02
 -1      3854 2.19774E-01
 -1      3855 2.19774E-01
 -1      3856 1.78773E-01
 -1      3857 1.44187E-01
 -1      3858 5.27154E-02
 -1      3859 2.63672E+00
 -1      3860 3.09801E+00
 -1      3861 6.33423E+00
 -1      3862 6.33423E+00
 -1      3863 3.48453E+00
 -1      3864 4.13542E+00
 -1      3865 6.09658E+00
 -1      3866 5.97074E+00
 -1      3867 4.00958E+00
 -1      3868 4.84431E+00
 -1      3869 1.04057E-01
 -1      3870 1.04407E-01
 -1      3871 9.92127E-02
 -1      3872 4.74499E+00
 -1      3873 5.40034E+00
 -1      3874 4.42226E+00
 -1      3875 3.57412E+00
 -1      3876 4.39232E+00
 -1      3877 1.67644E-01
 -1      3878 2.01417E-01
 -1      3879 6.67501E-02
 -1      3880 7.64807E-02
 -1      3881 6.69864E-02
 -1      3882 7.07053E-02
 -1      3883 4.11919E+00
 -1      3884 3.74626E+00
 -1      3885 3.62174E+00
 -1      3886 3.00974E+00
 -1      3887 6.36510E-02
 -1      3888 5.31602E+00
 -1      3889 4.00709E+00
 -1      3890 4.47764E+00
 -1      3891 4.88190E-01
 -1      3892 4.29461E-01
 -1      3893 5.54932E-01
 -1      3894 5.57978E+00
 -1      3895 8.53537E-02
 -1      3896 9.98741E-02
 -1      3897 2.69115E-01
 -1      3898 2.33105E-01
 -1      3899 3.64376E+00
 -1      3900 3.52737E+00
 -1      3901 1.53072E-01
 -1      3902 1.53072E-01
 -1      3903 1.96593E-01
 -1      3904 1.69462E-01
 -1      3905 2.32603E-01
 -1      3906 1.53464E-01
 -1      3907 1.53645E-01
 -1      3908 1.14842E-01
 -1      3909 1.67644E-01
 -1      3910 1.39391E-01
 -1      3911 1.38903E-01
 -1      3912 2.32508E-01
 -1      3913 2.61222E-01
 -1      3914 2.98665E-01
 -1      3915 3.55322E-01
 -1      3916 2.97186E-01
 -1      3917 4.02204E-01
 -1      3918 4.74764E-01
 -1      3919 3.81511E-01
 -1      3920 5.36151E-01
 -1      3921 6.31776E-01
 -1      3922 4.89779E-01
 -1      3923 7.14978E-01
 -1      3924 8.46231E-01
 -1      3925 6.34368E-01
 -1      3926 9.66563E-01
 -1      3927 1.15690E+00
 -1      3928 8.37902E-01
 -1      3929 1.35144E+00
 -1      3930 1.64434E+00
 -1      3931 1.15277E+00
 -1      3932 1.86993E+00
 -1      3933 2.32586E+00
 -1      3934 1.57289E+00
 -1      3935 2.71338E+00
 -1      3936 2.90963E+00
 -1      3937 3.30765E+00
 -1      3938 2.18600E+00
 -1      3939 1.47603E-01
 -1      3940 1.65402E-01
 -1      3941 2.21543E+00
 -1      3942 1.85259E+00
 -1      3943 1.55555E+00
 -1      3944 1.29472E+00
 -1      3945 1.59323E+00
 -1      3946 1.10796E+00
 -1      3947 9.38470E-01
 -1      3948 1.10944E+00
 -1      3949 8.17667E-01
 -1      3950 6.98549E-01
 -1      3951 8.01877E-01
 -1      3952 6.14803E-01
 -1      3953 5.27858E-01
 -1      3954 5.97327E-01
 -1      3955 4.67702E-01
 -1      3956 4.02380E-01
 -1      3957 4.53424E-01
 -1      3958 3.56412E-01
 -1      3959 3.06233E-01
 -1      3960 3.47301E-01
 -1      3961 2.70554E-01
 -1      3962 2.31714E-01
 -1      3963 2.65654E-01
 -1      3964 2.03764E-01
 -1      3965 1.73600E-01
 -1      3966 2.02025E-01
 -1      3967 1.51872E-01
 -1      3968 1.28422E-01
 -1      3969 1.52346E-01
 -1      3970 1.16065E-01
 -1      3971 1.05905E-01
 -1      3972 9.98741E-02
 -1      3973 1.18261E-01
 -1      3974 8.08573E-01
 -1      3975 7.15123E-01
 -1      3976 8.74997E-01
 -1      3977 9.89272E-01
 -1      3978 1.14901E+00
 -1      3979 1.34881E+00
 -1      3980 1.13720E+00
 -1      3981 1.61683E+00
 -1      3982 2.09629E+00
 -1      3983 1.56496E+00
 -1      3984 6.89712E-01
 -1      3985 7.72539E-01
 -1      3986 8.74997E-01
 -1      3987 5.50865E-01
 -1      3988 6.04604E-01
 -1      3989 6.87431E-01
 -1      3990 4.36465E-01
 -1      3991 4.84997E-01
 -1      3992 5.36454E-01
 -1      3993 3.40496E-01
 -1      3994 3.82790E-01
 -1      3995 4.16911E-01
 -1      3996 2.62583E-01
 -1      3997 2.98183E-01
 -1      3998 3.20924E-01
 -1      3999 1.99642E-01
 -1      4000 2.28998E-01
 -1      4001 2.45026E-01
 -1      4002 1.49418E-01
 -1      4003 1.73164E-01
 -1      4004 1.84963E-01
 -1      4005 1.09724E-01
 -1      4006 1.28518E-01
 -1      4007 1.37585E-01
 -1      4008 7.04785E-02
 -1      4009 1.22055E-01
 -1      4010 1.21325E-01
 -1      4011 1.36516E-01
 -1      4012 3.98743E+00
 -1      4013 4.42984E+00
 -1      4014 3.73185E+00
 -1      4015 1.52312E-01
 -1      4016 1.89348E-01
 -1      4017 2.07979E-01
 -1      4018 1.86739E-01
 -1      4019 4.41650E+00
 -1      4020 3.70732E-01
 -1      4021 3.19923E-01
 -1      4022 3.19923E-01
 -1      4023 4.29461E-01
 -1      4024 3.46153E+00
 -1      4025 2.66337E+00
 -1      4026 2.33820E+00
 -1      4027 3.46004E+00
 -1      4028 1.13690E-01
 -1      4029 2.43778E+00
 -1      4030 2.23053E+00
 -1      4031 4.62069E+00
 -1      4032 4.84431E+00
 -1      4033 1.62964E-01
 -1      4034 1.67644E-01
 -1      4035 1.24553E-01
 -1      4036 9.02978E-02
 -1      4037 8.28411E-02
 -1      4038 9.63285E-02
 -1      4039 2.92399E+00
 -1      4040 1.05167E-01
 -1      4041 3.95929E+00
 -1      4042 3.25213E+00
 -1      4043 2.79204E+00
 -1      4044 3.73185E+00
 -1      4045 1.33872E-01
 -1      4046 7.85676E-02
 -1      4047 8.16667E-02
 -1      4048 9.62589E-02
 -1      4049 8.18935E-02
 -1      4050 2.35214E-01
 -1      4051 3.33569E+00
 -1      4052 1.14315E-01
 -1      4053 1.10985E-01
 -1      4054 1.21318E-01
 -1      4055 2.88761E+00
 -1      4056 4.09047E+00
 -1      4057 3.35500E+00
 -1      4058 3.15657E+00
 -1      4059 1.03221E-01
 -1      4060 1.08974E-01
 -1      4061 1.18257E-01
 -1      4062 2.66067E+00
 -1      4063 1.05836E+00
 -1      4064 9.33466E-01
 -1      4065 9.33466E-01
 -1      4066 8.43430E-02
 -1      4067 8.18935E-02
 -1      4068 8.82540E-02
 -1      4069 1.53542E-01
 -1      4070 1.49734E-01
 -1      4071 1.50127E-01
 -1      4072 1.22055E-01
 -1      4073 3.58707E+00
 -1      4074 3.28370E+00
 -1      4075 3.04252E+00
 -1      4076 2.28103E+00
 -1      4077 1.53601E+00
 -1      4078 1.32244E+00
 -1      4079 6.15121E-01
 -1      4080 5.48379E-01
 -1      4081 7.08570E-01
 -1      4082 1.57189E-01
 -1      4083 1.44046E-01
 -1      4084 1.48816E-01
 -1      4085 1.83818E-01
 -1      4086 3.88523E+00
 -1      4087 2.59938E-01
 -1      4088 2.23426E-01
 -1      4089 3.32980E+00
 -1      4090 3.87583E-01
 -1      4091 3.36774E-01
 -1      4092 3.27597E-01
 -1      4093 3.67955E-01
 -1      4094 4.14836E-01
 -1      4095 4.65317E-01
 -1      4096 5.26704E-01
 -1      4097 4.51761E-01
 -1      4098 5.94551E-01
 -1      4099 6.77753E-01
 -1      4100 5.70089E-01
 -1      4101 7.78075E-01
 -1      4102 8.98406E-01
 -1      4103 7.38258E-01
 -1      4104 1.08282E+00
 -1      4105 1.27735E+00
 -1      4106 1.02299E+00
 -1      4107 1.53787E+00
 -1      4108 1.76346E+00
 -1      4109 1.46792E+00
 -1      4110 2.18600E+00
 -1      4111 2.57352E+00
 -1      4112 2.88761E+00
 -1      4113 2.15098E+00
 -1      4114 1.24076E-01
 -1      4115 2.32888E+00
 -1      4116 1.13720E+00
 -1      4117 1.29694E+00
 -1      4118 1.16825E+00
 -1      4119 9.81495E-01
 -1      4120 8.44931E-01
 -1      4121 7.24128E-01
 -1      4122 9.03747E-01
 -1      4123 6.33748E-01
 -1      4124 5.50001E-01
 -1      4125 6.76803E-01
 -1      4126 4.77635E-01
 -1      4127 4.17479E-01
 -1      4128 5.14056E-01
 -1      4129 3.66046E-01
 -1      4130 3.20078E-01
 -1      4131 3.90256E-01
 -1      4132 2.80439E-01
 -1      4133 2.44760E-01
 -1      4134 2.99184E-01
 -1      4135 2.13379E-01
 -1      4136 1.85429E-01
 -1      4137 2.28164E-01
 -1      4138 1.70116E-01
 -1      4139 1.48388E-01
 -1      4140 1.81470E-01
 -1      4141 1.20047E-01
 -1      4142 1.07690E-01
 -1      4143 9.81138E-02
 -1      4144 1.37817E-01
 -1      4145 7.09705E-01
 -1      4146 7.94813E-01
 -1      4147 8.56951E-01
 -1      4148 9.59409E-01
 -1      4149 1.11915E+00
 -1      4150 8.97558E-02
 -1      4151 1.52579E+00
 -1      4152 1.79381E+00
 -1      4153 2.28971E+00
 -1      4154 1.52579E+00
 -1      4155 4.94081E-01
 -1      4156 5.59949E-01
 -1      4157 6.67331E-01
 -1      4158 3.74152E-01
 -1      4159 4.27827E-01
 -1      4160 4.51321E-01
 -1      4161 2.83771E-01
 -1      4162 3.26083E-01
 -1      4163 3.36998E-01
 -1      4164 2.13784E-01
 -1      4165 2.47369E-01
 -1      4166 2.52528E-01
 -1      4167 1.59688E-01
 -1      4168 1.86166E-01
 -1      4169 1.88509E-01
 -1      4170 1.17406E-01
 -1      4171 1.38306E-01
 -1      4172 1.39509E-01
 -1      4173 1.03221E-01
 -1      4174 2.26373E-01
 -1      4175 2.50903E-01
 -1      4176 1.78434E-01
 -1      4177 2.02379E-01
 -1      4178 2.18069E-01
 -1      4179 5.18046E-01
 -1      4180 4.59317E-01
 -1      4181 5.78235E-01
 -1      4182 1.50127E-01
 -1      4183 1.59446E-01
 -1      4184 1.47628E-01
 -1      4185 1.85019E-01
 -1      4186 1.76790E+00
 -1      4187 1.47087E+00
 -1      4188 1.34293E+00
 -1      4189 2.86878E-01
 -1      4190 3.24321E-01
 -1      4191 2.78038E-01
 -1      4192 3.68406E+00
 -1      4193 3.32980E+00
 -1      4194 3.33569E+00
 -1      4195 3.33569E+00
 -1      4196 2.78614E+00
 -1      4197 2.23426E-01
 -1      4198 1.96092E-01
 -1      4199 1.83818E-01
 -1      4200 1.73907E-01
 -1      4201 3.32980E+00
 -1      4202 2.97555E+00
 -1      4203 2.28103E+00
 -1      4204 2.92944E+00
 -1      4205 2.33820E+00
 -1      4206 1.48816E-01
 -1      4207 1.46804E-01
 -1      4208 3.57647E-01
 -1      4209 1.78282E-01
 -1      4210 1.32244E+00
 -1      4211 8.79225E-01
 -1      4212 1.09409E+00
 -1      4213 9.69196E-01
 -1      4214 2.38092E+00
 -1      4215 2.91115E+00
 -1      4216 2.36161E+00
 -1      4217 1.84586E+00
 -1      4218 1.03941E-01
 -1      4219 1.89547E-01
 -1      4220 4.76168E-01
 -1      4221 2.72843E+00
 -1      4222 7.95217E-01
 -1      4223 6.95214E-01
 -1      4224 9.55841E-01
 -1      4225 2.21584E+00
 -1      4226 2.50761E-01
 -1      4227 2.23426E-01
 -1      4228 4.01188E-01
 -1      4229 3.24351E-01
 -1      4230 3.24351E-01
 -1      4231 4.33314E-01
 -1      4232 4.83795E-01
 -1      4233 6.56051E-01
 -1      4234 8.05807E-01
 -1      4235 3.55978E-01
 -1      4236 3.99611E-01
 -1      4237 5.25072E-01
 -1      4238 5.92919E-01
 -1      4239 5.06625E-01
 -1      4240 7.09898E-01
 -1      4241 8.10220E-01
 -1      4242 9.84200E-01
 -1      4243 1.16861E+00
 -1      4244 1.09476E-01
 -1      4245 9.81138E-02
 -1      4246 1.38472E+00
 -1      4247 1.42045E+00
 -1      4248 1.64880E+00
 -1      4249 7.80854E-01
 -1      4250 6.90474E-01
 -1      4251 5.35716E-01
 -1      4252 4.63350E-01
 -1      4253 6.39768E-01
 -1      4254 4.03079E-01
 -1      4255 3.51646E-01
 -1      4256 4.24739E-01
 -1      4257 3.06827E-01
 -1      4258 2.67189E-01
 -1      4259 3.19650E-01
 -1      4260 2.32953E-01
 -1      4261 2.01572E-01
 -1      4262 2.40596E-01
 -1      4263 1.86259E-01
 -1      4264 1.55952E-01
 -1      4265 1.27610E-01
 -1      4266 1.27610E-01
 -1      4267 1.76053E-01
 -1      4268 1.79131E+00
 -1      4269 9.48380E-01
 -1      4270 8.11816E-01
 -1      4271 8.98906E-01
 -1      4272 1.07669E+00
 -1      4273 9.96157E-02
 -1      4274 2.45480E-01
 -1      4275 2.81881E-01
 -1      4276 1.83626E-01
 -1      4277 2.11244E-01
 -1      4278 1.31936E-01
 -1      4279 1.53318E-01
 -1      4280 1.89547E-01
 -1      4281 1.94075E-01
 -1      4282 2.18069E-01
 -1      4283 8.36768E-01
 -1      4284 5.06625E-01
 -1      4285 4.34891E-01
 -1      4286 5.78235E-01
 -1      4287 5.47903E-01
 -1      4288 1.13801E-01
 -1      4289 2.46412E-01
 -1      4290 2.82387E-01
 -1      4291 3.26699E-01
 -1      4292 3.74768E-01
 -1      4293 2.36187E+00
 -1      4294 2.51678E+00
 -1      4295 2.56288E+00
 -1      4296 1.93933E+00
 -1      4297 4.35039E-01
 -1      4298 5.01293E-01
 -1      4299 1.71544E-01
 -1      4300 1.82809E-01
 -1      4301 2.22418E-01
 -1      4302 1.95083E-01
 -1      4303 1.83818E-01
 -1      4304 1.41322E+00
 -1      4305 1.11060E+00
 -1      4306 1.01867E+00
 -1      4307 1.55898E+00
 -1      4308 1.45924E+00
 -1      4309 8.25487E-01
 -1      4310 4.31645E-01
 -1      4311 6.64882E-01
 -1      4312 1.71976E+00
 -1      4313 2.34331E+00
 -1      4314 1.23892E+00
 -1      4315 1.46777E+00
 -1      4316 1.82809E-01
 -1      4317 1.93065E+00
 -3
 9999
