    1C
    1UUSER                                                              
    1UDATE              27.october.2022                                 
    1UTIME              00:41:18                                        
    1UHOST                                                              
    1UPGM               CalculiX                                        
    1UVERSION           Version 2.17                             
    1UCOMPILETIME       Thu Jul 23 21:43:50 CEST 2020                    
    1UDIR                                                               
    1UDBN                                                               
    1UMAT    1SOLIDMATERIAL                                             
    2C                          4300                                     1
 -1         1 1.99232E+01 3.82125E+01 0.00000E+00
 -1         2 2.69467E+01 3.12126E+01 0.00000E+00
 -1         3 1.50000E+02 0.00000E+00 0.00000E+00
 -1         4 1.50000E+02 5.00000E+01 0.00000E+00
 -1         5 0.00000E+00 0.00000E+00 0.00000E+00
 -1         6 0.00000E+00 5.00000E+01 0.00000E+00
 -1         7 0.00000E+00 4.70500E+01 0.00000E+00
 -1         8 0.00000E+00 4.41000E+01 0.00000E+00
 -1         9 0.00000E+00 4.11500E+01 0.00000E+00
 -1        10 0.00000E+00 3.82000E+01 0.00000E+00
 -1        11 0.00000E+00 3.52500E+01 0.00000E+00
 -1        12 0.00000E+00 3.23000E+01 0.00000E+00
 -1        13 0.00000E+00 2.93500E+01 0.00000E+00
 -1        14 0.00000E+00 2.64500E+01 0.00000E+00
 -1        15 0.00000E+00 2.35500E+01 0.00000E+00
 -1        16 0.00000E+00 2.06000E+01 0.00000E+00
 -1        17 0.00000E+00 1.76500E+01 0.00000E+00
 -1        18 0.00000E+00 1.47000E+01 0.00000E+00
 -1        19 0.00000E+00 1.17500E+01 0.00000E+00
 -1        20 0.00000E+00 8.80000E+00 0.00000E+00
 -1        21 0.00000E+00 5.85000E+00 0.00000E+00
 -1        22 0.00000E+00 2.90000E+00 0.00000E+00
 -1        23 3.15000E+00 5.00000E+01 0.00000E+00
 -1        24 6.15000E+00 5.00000E+01 0.00000E+00
 -1        25 9.15000E+00 5.00000E+01 0.00000E+00
 -1        26 1.21500E+01 5.00000E+01 0.00000E+00
 -1        27 1.51500E+01 5.00000E+01 0.00000E+00
 -1        28 1.81500E+01 5.00000E+01 0.00000E+00
 -1        29 2.11500E+01 5.00000E+01 0.00000E+00
 -1        30 2.41500E+01 5.00000E+01 0.00000E+00
 -1        31 2.71500E+01 5.00000E+01 0.00000E+00
 -1        32 3.01500E+01 5.00000E+01 0.00000E+00
 -1        33 3.31500E+01 5.00000E+01 0.00000E+00
 -1        34 3.61500E+01 5.00000E+01 0.00000E+00
 -1        35 3.91500E+01 5.00000E+01 0.00000E+00
 -1        36 4.21500E+01 5.00000E+01 0.00000E+00
 -1        37 4.51500E+01 5.00000E+01 0.00000E+00
 -1        38 4.81500E+01 5.00000E+01 0.00000E+00
 -1        39 5.11500E+01 5.00000E+01 0.00000E+00
 -1        40 5.41500E+01 5.00000E+01 0.00000E+00
 -1        41 5.71500E+01 5.00000E+01 0.00000E+00
 -1        42 6.01500E+01 5.00000E+01 0.00000E+00
 -1        43 6.31500E+01 5.00000E+01 0.00000E+00
 -1        44 6.61500E+01 5.00000E+01 0.00000E+00
 -1        45 6.91500E+01 5.00000E+01 0.00000E+00
 -1        46 7.21500E+01 5.00000E+01 0.00000E+00
 -1        47 7.51500E+01 5.00000E+01 0.00000E+00
 -1        48 7.81500E+01 5.00000E+01 0.00000E+00
 -1        49 8.11500E+01 5.00000E+01 0.00000E+00
 -1        50 8.41500E+01 5.00000E+01 0.00000E+00
 -1        51 8.71500E+01 5.00000E+01 0.00000E+00
 -1        52 9.01500E+01 5.00000E+01 0.00000E+00
 -1        53 9.31500E+01 5.00000E+01 0.00000E+00
 -1        54 9.61500E+01 5.00000E+01 0.00000E+00
 -1        55 9.91500E+01 5.00000E+01 0.00000E+00
 -1        56 1.02150E+02 5.00000E+01 0.00000E+00
 -1        57 1.05150E+02 5.00000E+01 0.00000E+00
 -1        58 1.08150E+02 5.00000E+01 0.00000E+00
 -1        59 1.11150E+02 5.00000E+01 0.00000E+00
 -1        60 1.14150E+02 5.00000E+01 0.00000E+00
 -1        61 1.17150E+02 5.00000E+01 0.00000E+00
 -1        62 1.20150E+02 5.00000E+01 0.00000E+00
 -1        63 1.23150E+02 5.00000E+01 0.00000E+00
 -1        64 1.26150E+02 5.00000E+01 0.00000E+00
 -1        65 1.29150E+02 5.00000E+01 0.00000E+00
 -1        66 1.32150E+02 5.00000E+01 0.00000E+00
 -1        67 1.35150E+02 5.00000E+01 0.00000E+00
 -1        68 1.38150E+02 5.00000E+01 0.00000E+00
 -1        69 1.41150E+02 5.00000E+01 0.00000E+00
 -1        70 1.44150E+02 5.00000E+01 0.00000E+00
 -1        71 1.47150E+02 5.00000E+01 0.00000E+00
 -1        72 3.15000E+00 0.00000E+00 0.00000E+00
 -1        73 6.15000E+00 0.00000E+00 0.00000E+00
 -1        74 9.15000E+00 0.00000E+00 0.00000E+00
 -1        75 1.21500E+01 0.00000E+00 0.00000E+00
 -1        76 1.51500E+01 0.00000E+00 0.00000E+00
 -1        77 1.81500E+01 0.00000E+00 0.00000E+00
 -1        78 2.11500E+01 0.00000E+00 0.00000E+00
 -1        79 2.41500E+01 0.00000E+00 0.00000E+00
 -1        80 2.71500E+01 0.00000E+00 0.00000E+00
 -1        81 3.01500E+01 0.00000E+00 0.00000E+00
 -1        82 3.31500E+01 0.00000E+00 0.00000E+00
 -1        83 3.61500E+01 0.00000E+00 0.00000E+00
 -1        84 3.91500E+01 0.00000E+00 0.00000E+00
 -1        85 4.21500E+01 0.00000E+00 0.00000E+00
 -1        86 4.51500E+01 0.00000E+00 0.00000E+00
 -1        87 4.81500E+01 0.00000E+00 0.00000E+00
 -1        88 5.11500E+01 0.00000E+00 0.00000E+00
 -1        89 5.41500E+01 0.00000E+00 0.00000E+00
 -1        90 5.71500E+01 0.00000E+00 0.00000E+00
 -1        91 6.01500E+01 0.00000E+00 0.00000E+00
 -1        92 6.31500E+01 0.00000E+00 0.00000E+00
 -1        93 6.61500E+01 0.00000E+00 0.00000E+00
 -1        94 6.91500E+01 0.00000E+00 0.00000E+00
 -1        95 7.21500E+01 0.00000E+00 0.00000E+00
 -1        96 7.51500E+01 0.00000E+00 0.00000E+00
 -1        97 7.81500E+01 0.00000E+00 0.00000E+00
 -1        98 8.11500E+01 0.00000E+00 0.00000E+00
 -1        99 8.41500E+01 0.00000E+00 0.00000E+00
 -1       100 8.71500E+01 0.00000E+00 0.00000E+00
 -1       101 9.01500E+01 0.00000E+00 0.00000E+00
 -1       102 9.31500E+01 0.00000E+00 0.00000E+00
 -1       103 9.61500E+01 0.00000E+00 0.00000E+00
 -1       104 9.91500E+01 0.00000E+00 0.00000E+00
 -1       105 1.02150E+02 0.00000E+00 0.00000E+00
 -1       106 1.05150E+02 0.00000E+00 0.00000E+00
 -1       107 1.08150E+02 0.00000E+00 0.00000E+00
 -1       108 1.11150E+02 0.00000E+00 0.00000E+00
 -1       109 1.14150E+02 0.00000E+00 0.00000E+00
 -1       110 1.17150E+02 0.00000E+00 0.00000E+00
 -1       111 1.20150E+02 0.00000E+00 0.00000E+00
 -1       112 1.23150E+02 0.00000E+00 0.00000E+00
 -1       113 1.26150E+02 0.00000E+00 0.00000E+00
 -1       114 1.29150E+02 0.00000E+00 0.00000E+00
 -1       115 1.32150E+02 0.00000E+00 0.00000E+00
 -1       116 1.35150E+02 0.00000E+00 0.00000E+00
 -1       117 1.38150E+02 0.00000E+00 0.00000E+00
 -1       118 1.41150E+02 0.00000E+00 0.00000E+00
 -1       119 1.44150E+02 0.00000E+00 0.00000E+00
 -1       120 1.47150E+02 0.00000E+00 0.00000E+00
 -1       121 1.50000E+02 2.95000E+00 0.00000E+00
 -1       122 1.50000E+02 5.90000E+00 0.00000E+00
 -1       123 1.50000E+02 8.85000E+00 0.00000E+00
 -1       124 1.50000E+02 1.18000E+01 0.00000E+00
 -1       125 1.50000E+02 1.47500E+01 0.00000E+00
 -1       126 1.50000E+02 1.76500E+01 0.00000E+00
 -1       127 1.50000E+02 2.06000E+01 0.00000E+00
 -1       128 1.50000E+02 2.35500E+01 0.00000E+00
 -1       129 1.50000E+02 2.65000E+01 0.00000E+00
 -1       130 1.50000E+02 2.94500E+01 0.00000E+00
 -1       131 1.50000E+02 3.24000E+01 0.00000E+00
 -1       132 1.50000E+02 3.53000E+01 0.00000E+00
 -1       133 1.50000E+02 3.82500E+01 0.00000E+00
 -1       134 1.50000E+02 4.12000E+01 0.00000E+00
 -1       135 1.50000E+02 4.41500E+01 0.00000E+00
 -1       136 1.50000E+02 4.71000E+01 0.00000E+00
 -1       137 2.67781E+01 2.96858E+01 0.00000E+00
 -1       138 2.63393E+01 2.83606E+01 0.00000E+00
 -1       139 2.55754E+01 2.70512E+01 0.00000E+00
 -1       140 2.44457E+01 2.58498E+01 0.00000E+00
 -1       141 2.32309E+01 2.50308E+01 0.00000E+00
 -1       142 2.18057E+01 2.44639E+01 0.00000E+00
 -1       143 2.03704E+01 2.42254E+01 0.00000E+00
 -1       144 1.88602E+01 2.42974E+01 0.00000E+00
 -1       145 1.74077E+01 2.46892E+01 0.00000E+00
 -1       146 1.61752E+01 2.53154E+01 0.00000E+00
 -1       147 1.49881E+01 2.62716E+01 0.00000E+00
 -1       148 1.40742E+01 2.74027E+01 0.00000E+00
 -1       149 1.33990E+01 2.87371E+01 0.00000E+00
 -1       150 1.30307E+01 3.01311E+01 0.00000E+00
 -1       151 1.29671E+01 3.17471E+01 0.00000E+00
 -1       152 1.32213E+01 3.31540E+01 0.00000E+00
 -1       153 1.38480E+01 3.46487E+01 0.00000E+00
 -1       154 1.46719E+01 3.58144E+01 0.00000E+00
 -1       155 1.58203E+01 3.68670E+01 0.00000E+00
 -1       156 1.70542E+01 3.75870E+01 0.00000E+00
 -1       157 1.84265E+01 3.80455E+01 0.00000E+00
 -1       158 2.12833E+01 3.80837E+01 0.00000E+00
 -1       159 2.26209E+01 3.76816E+01 0.00000E+00
 -1       160 2.37860E+01 3.70657E+01 0.00000E+00
 -1       161 2.48990E+01 3.61596E+01 0.00000E+00
 -1       162 2.57711E+01 3.50952E+01 0.00000E+00
 -1       163 2.64143E+01 3.38901E+01 0.00000E+00
 -1       164 2.68148E+01 3.25649E+01 0.00000E+00
 -1       165 2.59800E+00 4.55750E+01 0.00000E+00
 -1       166 2.59800E+00 4.26250E+01 0.00000E+00
 -1       167 2.59800E+00 3.96750E+01 0.00000E+00
 -1       168 2.59800E+00 3.67250E+01 0.00000E+00
 -1       169 2.59800E+00 3.37750E+01 0.00000E+00
 -1       170 2.59800E+00 3.08250E+01 0.00000E+00
 -1       171 2.59800E+00 2.79250E+01 0.00000E+00
 -1       172 2.59800E+00 2.50250E+01 0.00000E+00
 -1       173 2.59800E+00 2.20750E+01 0.00000E+00
 -1       174 2.59800E+00 1.91250E+01 0.00000E+00
 -1       175 2.59800E+00 1.61750E+01 0.00000E+00
 -1       176 2.59800E+00 1.32250E+01 0.00000E+00
 -1       177 2.59800E+00 1.02750E+01 0.00000E+00
 -1       178 2.59800E+00 7.32500E+00 0.00000E+00
 -1       179 2.59800E+00 4.37500E+00 0.00000E+00
 -1       180 2.87400E+00 2.18750E+00 0.00000E+00
 -1       181 4.65000E+00 4.74020E+01 0.00000E+00
 -1       182 7.65000E+00 4.74020E+01 0.00000E+00
 -1       183 1.06500E+01 4.74020E+01 0.00000E+00
 -1       184 1.36500E+01 4.74020E+01 0.00000E+00
 -1       185 1.66500E+01 4.74020E+01 0.00000E+00
 -1       186 1.96500E+01 4.74020E+01 0.00000E+00
 -1       187 2.26500E+01 4.74020E+01 0.00000E+00
 -1       188 2.56500E+01 4.74020E+01 0.00000E+00
 -1       189 2.86500E+01 4.74020E+01 0.00000E+00
 -1       190 3.16500E+01 4.74020E+01 0.00000E+00
 -1       191 3.46500E+01 4.74020E+01 0.00000E+00
 -1       192 3.76500E+01 4.74020E+01 0.00000E+00
 -1       193 4.06500E+01 4.74020E+01 0.00000E+00
 -1       194 4.36500E+01 4.74020E+01 0.00000E+00
 -1       195 4.66500E+01 4.74020E+01 0.00000E+00
 -1       196 4.96500E+01 4.74020E+01 0.00000E+00
 -1       197 5.26500E+01 4.74020E+01 0.00000E+00
 -1       198 5.56500E+01 4.74020E+01 0.00000E+00
 -1       199 5.86500E+01 4.74020E+01 0.00000E+00
 -1       200 6.16500E+01 4.74020E+01 0.00000E+00
 -1       201 6.46500E+01 4.74020E+01 0.00000E+00
 -1       202 6.76500E+01 4.74020E+01 0.00000E+00
 -1       203 7.06500E+01 4.74020E+01 0.00000E+00
 -1       204 7.36500E+01 4.74020E+01 0.00000E+00
 -1       205 7.66500E+01 4.74020E+01 0.00000E+00
 -1       206 7.96500E+01 4.74020E+01 0.00000E+00
 -1       207 8.26500E+01 4.74020E+01 0.00000E+00
 -1       208 8.56500E+01 4.74020E+01 0.00000E+00
 -1       209 8.86500E+01 4.74020E+01 0.00000E+00
 -1       210 9.16500E+01 4.74020E+01 0.00000E+00
 -1       211 9.46500E+01 4.74020E+01 0.00000E+00
 -1       212 9.76500E+01 4.74020E+01 0.00000E+00
 -1       213 1.00650E+02 4.74020E+01 0.00000E+00
 -1       214 1.03650E+02 4.74020E+01 0.00000E+00
 -1       215 1.06650E+02 4.74020E+01 0.00000E+00
 -1       216 1.09650E+02 4.74020E+01 0.00000E+00
 -1       217 1.12650E+02 4.74020E+01 0.00000E+00
 -1       218 1.15650E+02 4.74020E+01 0.00000E+00
 -1       219 1.18650E+02 4.74020E+01 0.00000E+00
 -1       220 1.21650E+02 4.74020E+01 0.00000E+00
 -1       221 1.24650E+02 4.74020E+01 0.00000E+00
 -1       222 1.27650E+02 4.74020E+01 0.00000E+00
 -1       223 1.30650E+02 4.74020E+01 0.00000E+00
 -1       224 1.33650E+02 4.74020E+01 0.00000E+00
 -1       225 1.36650E+02 4.74020E+01 0.00000E+00
 -1       226 1.39650E+02 4.74020E+01 0.00000E+00
 -1       227 1.42650E+02 4.74020E+01 0.00000E+00
 -1       228 1.45650E+02 4.74020E+01 0.00000E+00
 -1       229 5.87400E+00 2.18750E+00 0.00000E+00
 -1       230 8.87400E+00 2.18750E+00 0.00000E+00
 -1       231 1.18740E+01 2.18750E+00 0.00000E+00
 -1       232 1.48740E+01 2.18750E+00 0.00000E+00
 -1       233 1.78740E+01 2.18750E+00 0.00000E+00
 -1       234 2.08740E+01 2.18750E+00 0.00000E+00
 -1       235 2.38740E+01 2.18750E+00 0.00000E+00
 -1       236 2.68740E+01 2.18750E+00 0.00000E+00
 -1       237 2.98740E+01 2.18750E+00 0.00000E+00
 -1       238 3.28740E+01 2.18750E+00 0.00000E+00
 -1       239 3.58740E+01 2.18750E+00 0.00000E+00
 -1       240 3.88740E+01 2.18750E+00 0.00000E+00
 -1       241 4.18740E+01 2.18750E+00 0.00000E+00
 -1       242 4.48740E+01 2.18750E+00 0.00000E+00
 -1       243 4.78740E+01 2.18750E+00 0.00000E+00
 -1       244 5.08740E+01 2.18750E+00 0.00000E+00
 -1       245 5.38740E+01 2.18750E+00 0.00000E+00
 -1       246 5.68740E+01 2.18750E+00 0.00000E+00
 -1       247 5.98740E+01 2.18750E+00 0.00000E+00
 -1       248 6.28740E+01 2.18750E+00 0.00000E+00
 -1       249 6.58740E+01 2.18750E+00 0.00000E+00
 -1       250 6.88740E+01 2.18750E+00 0.00000E+00
 -1       251 7.18740E+01 2.18750E+00 0.00000E+00
 -1       252 7.48740E+01 2.18750E+00 0.00000E+00
 -1       253 7.78740E+01 2.18750E+00 0.00000E+00
 -1       254 8.08740E+01 2.18750E+00 0.00000E+00
 -1       255 8.38740E+01 2.18750E+00 0.00000E+00
 -1       256 8.68740E+01 2.18750E+00 0.00000E+00
 -1       257 8.98740E+01 2.18750E+00 0.00000E+00
 -1       258 9.28740E+01 2.18750E+00 0.00000E+00
 -1       259 9.58740E+01 2.18750E+00 0.00000E+00
 -1       260 9.88740E+01 2.18750E+00 0.00000E+00
 -1       261 1.01874E+02 2.18750E+00 0.00000E+00
 -1       262 1.04874E+02 2.18750E+00 0.00000E+00
 -1       263 1.07874E+02 2.18750E+00 0.00000E+00
 -1       264 1.10874E+02 2.18750E+00 0.00000E+00
 -1       265 1.13874E+02 2.18750E+00 0.00000E+00
 -1       266 1.16874E+02 2.18750E+00 0.00000E+00
 -1       267 1.19874E+02 2.18750E+00 0.00000E+00
 -1       268 1.22874E+02 2.18750E+00 0.00000E+00
 -1       269 1.25874E+02 2.18750E+00 0.00000E+00
 -1       270 1.28874E+02 2.18750E+00 0.00000E+00
 -1       271 1.31874E+02 2.18750E+00 0.00000E+00
 -1       272 1.34874E+02 2.18750E+00 0.00000E+00
 -1       273 1.37874E+02 2.18750E+00 0.00000E+00
 -1       274 1.40874E+02 2.18750E+00 0.00000E+00
 -1       275 1.43874E+02 2.18750E+00 0.00000E+00
 -1       276 1.46874E+02 2.18750E+00 0.00000E+00
 -1       277 1.47402E+02 4.42500E+00 0.00000E+00
 -1       278 1.47402E+02 7.37500E+00 0.00000E+00
 -1       279 1.47402E+02 1.03250E+01 0.00000E+00
 -1       280 1.47402E+02 1.32750E+01 0.00000E+00
 -1       281 1.47402E+02 1.61750E+01 0.00000E+00
 -1       282 1.47402E+02 1.91250E+01 0.00000E+00
 -1       283 1.47402E+02 2.20750E+01 0.00000E+00
 -1       284 1.47402E+02 2.50250E+01 0.00000E+00
 -1       285 1.47402E+02 2.79750E+01 0.00000E+00
 -1       286 1.47402E+02 3.09250E+01 0.00000E+00
 -1       287 1.47402E+02 3.38250E+01 0.00000E+00
 -1       288 1.47402E+02 3.67750E+01 0.00000E+00
 -1       289 1.47402E+02 3.97250E+01 0.00000E+00
 -1       290 1.47402E+02 4.26750E+01 0.00000E+00
 -1       291 1.46526E+02 4.50385E+01 0.00000E+00
 -1       292 2.82340E+01 3.02978E+01 0.00000E+00
 -1       293 2.77097E+01 2.86421E+01 0.00000E+00
 -1       294 2.71493E+01 2.70105E+01 0.00000E+00
 -1       295 2.61379E+01 2.53903E+01 0.00000E+00
 -1       296 2.45629E+01 2.43656E+01 0.00000E+00
 -1       297 2.29664E+01 2.36208E+01 0.00000E+00
 -1       298 2.12868E+01 2.31487E+01 0.00000E+00
 -1       299 1.95535E+01 2.29667E+01 0.00000E+00
 -1       300 1.77963E+01 2.32419E+01 0.00000E+00
 -1       301 1.62423E+01 2.39214E+01 0.00000E+00
 -1       302 1.46635E+01 2.46536E+01 0.00000E+00
 -1       303 1.35881E+01 2.60752E+01 0.00000E+00
 -1       304 1.23558E+01 2.73712E+01 0.00000E+00
 -1       305 1.20426E+01 2.91244E+01 0.00000E+00
 -1       306 1.14525E+01 3.08783E+01 0.00000E+00
 -1       307 1.19011E+01 3.26661E+01 0.00000E+00
 -1       308 1.21075E+01 3.44998E+01 0.00000E+00
 -1       309 1.32699E+01 3.59313E+01 0.00000E+00
 -1       310 1.43136E+01 3.73580E+01 0.00000E+00
 -1       311 1.58262E+01 3.82742E+01 0.00000E+00
 -1       312 1.73561E+01 3.89662E+01 0.00000E+00
 -1       313 1.90218E+01 3.95005E+01 0.00000E+00
 -1       314 2.07175E+01 3.93551E+01 0.00000E+00
 -1       315 2.23253E+01 3.91240E+01 0.00000E+00
 -1       316 2.37700E+01 3.84455E+01 0.00000E+00
 -1       317 2.52137E+01 3.76829E+01 0.00000E+00
 -1       318 2.62729E+01 3.63958E+01 0.00000E+00
 -1       319 2.72362E+01 3.51030E+01 0.00000E+00
 -1       320 2.78553E+01 3.36025E+01 0.00000E+00
 -1       321 2.81708E+01 3.20145E+01 0.00000E+00
 -1       322 5.19600E+00 4.11500E+01 0.00000E+00
 -1       323 5.19600E+00 4.41000E+01 0.00000E+00
 -1       324 5.19600E+00 3.52500E+01 0.00000E+00
 -1       325 5.19600E+00 3.23000E+01 0.00000E+00
 -1       326 5.19600E+00 2.94000E+01 0.00000E+00
 -1       327 5.19600E+00 2.65000E+01 0.00000E+00
 -1       328 5.19600E+00 2.35500E+01 0.00000E+00
 -1       329 5.19600E+00 2.06000E+01 0.00000E+00
 -1       330 5.19600E+00 1.76500E+01 0.00000E+00
 -1       331 5.19600E+00 1.47000E+01 0.00000E+00
 -1       332 5.19600E+00 1.17500E+01 0.00000E+00
 -1       333 5.19600E+00 8.80000E+00 0.00000E+00
 -1       334 5.19600E+00 5.85000E+00 0.00000E+00
 -1       335 5.53500E+00 4.01875E+00 0.00000E+00
 -1       336 8.53500E+00 4.01875E+00 0.00000E+00
 -1       337 9.15000E+00 4.48040E+01 0.00000E+00
 -1       338 1.21500E+01 4.48040E+01 0.00000E+00
 -1       339 1.51500E+01 4.48040E+01 0.00000E+00
 -1       340 1.81500E+01 4.48040E+01 0.00000E+00
 -1       341 2.11500E+01 4.48040E+01 0.00000E+00
 -1       342 2.41500E+01 4.48040E+01 0.00000E+00
 -1       343 2.71500E+01 4.48040E+01 0.00000E+00
 -1       344 3.01500E+01 4.48040E+01 0.00000E+00
 -1       345 3.31500E+01 4.48040E+01 0.00000E+00
 -1       346 3.61500E+01 4.48040E+01 0.00000E+00
 -1       347 3.91500E+01 4.48040E+01 0.00000E+00
 -1       348 4.21500E+01 4.48040E+01 0.00000E+00
 -1       349 4.51500E+01 4.48040E+01 0.00000E+00
 -1       350 4.81500E+01 4.48040E+01 0.00000E+00
 -1       351 5.11500E+01 4.48040E+01 0.00000E+00
 -1       352 5.41500E+01 4.48040E+01 0.00000E+00
 -1       353 5.71500E+01 4.48040E+01 0.00000E+00
 -1       354 6.01500E+01 4.48040E+01 0.00000E+00
 -1       355 6.31500E+01 4.48040E+01 0.00000E+00
 -1       356 6.61500E+01 4.48040E+01 0.00000E+00
 -1       357 6.91500E+01 4.48040E+01 0.00000E+00
 -1       358 7.21500E+01 4.48040E+01 0.00000E+00
 -1       359 7.51500E+01 4.48040E+01 0.00000E+00
 -1       360 7.81500E+01 4.48040E+01 0.00000E+00
 -1       361 8.11500E+01 4.48040E+01 0.00000E+00
 -1       362 8.41500E+01 4.48040E+01 0.00000E+00
 -1       363 8.71500E+01 4.48040E+01 0.00000E+00
 -1       364 9.01500E+01 4.48040E+01 0.00000E+00
 -1       365 9.31500E+01 4.48040E+01 0.00000E+00
 -1       366 9.61500E+01 4.48040E+01 0.00000E+00
 -1       367 9.91500E+01 4.48040E+01 0.00000E+00
 -1       368 1.02150E+02 4.48040E+01 0.00000E+00
 -1       369 1.05150E+02 4.48040E+01 0.00000E+00
 -1       370 1.08150E+02 4.48040E+01 0.00000E+00
 -1       371 1.11150E+02 4.48040E+01 0.00000E+00
 -1       372 1.14150E+02 4.48040E+01 0.00000E+00
 -1       373 1.17150E+02 4.48040E+01 0.00000E+00
 -1       374 1.20150E+02 4.48040E+01 0.00000E+00
 -1       375 1.23150E+02 4.48040E+01 0.00000E+00
 -1       376 1.26150E+02 4.48040E+01 0.00000E+00
 -1       377 1.29150E+02 4.48040E+01 0.00000E+00
 -1       378 1.32150E+02 4.48040E+01 0.00000E+00
 -1       379 1.35150E+02 4.48040E+01 0.00000E+00
 -1       380 1.38150E+02 4.48040E+01 0.00000E+00
 -1       381 1.41150E+02 4.48040E+01 0.00000E+00
 -1       382 1.43838E+02 4.49212E+01 0.00000E+00
 -1       383 1.15350E+01 4.01875E+00 0.00000E+00
 -1       384 1.45350E+01 4.01875E+00 0.00000E+00
 -1       385 1.75350E+01 4.01875E+00 0.00000E+00
 -1       386 2.05350E+01 4.01875E+00 0.00000E+00
 -1       387 2.35350E+01 4.01875E+00 0.00000E+00
 -1       388 2.65350E+01 4.01875E+00 0.00000E+00
 -1       389 2.95350E+01 4.01875E+00 0.00000E+00
 -1       390 3.25350E+01 4.01875E+00 0.00000E+00
 -1       391 3.55350E+01 4.01875E+00 0.00000E+00
 -1       392 3.85350E+01 4.01875E+00 0.00000E+00
 -1       393 4.15350E+01 4.01875E+00 0.00000E+00
 -1       394 4.45350E+01 4.01875E+00 0.00000E+00
 -1       395 4.75350E+01 4.01875E+00 0.00000E+00
 -1       396 5.05350E+01 4.01875E+00 0.00000E+00
 -1       397 5.35350E+01 4.01875E+00 0.00000E+00
 -1       398 5.65350E+01 4.01875E+00 0.00000E+00
 -1       399 5.95350E+01 4.01875E+00 0.00000E+00
 -1       400 6.25350E+01 4.01875E+00 0.00000E+00
 -1       401 6.55350E+01 4.01875E+00 0.00000E+00
 -1       402 6.85350E+01 4.01875E+00 0.00000E+00
 -1       403 7.15350E+01 4.01875E+00 0.00000E+00
 -1       404 7.45350E+01 4.01875E+00 0.00000E+00
 -1       405 7.75350E+01 4.01875E+00 0.00000E+00
 -1       406 8.05350E+01 4.01875E+00 0.00000E+00
 -1       407 8.35350E+01 4.01875E+00 0.00000E+00
 -1       408 8.65350E+01 4.01875E+00 0.00000E+00
 -1       409 8.95350E+01 4.01875E+00 0.00000E+00
 -1       410 9.25350E+01 4.01875E+00 0.00000E+00
 -1       411 9.55350E+01 4.01875E+00 0.00000E+00
 -1       412 9.85350E+01 4.01875E+00 0.00000E+00
 -1       413 1.01535E+02 4.01875E+00 0.00000E+00
 -1       414 1.04535E+02 4.01875E+00 0.00000E+00
 -1       415 1.07535E+02 4.01875E+00 0.00000E+00
 -1       416 1.10535E+02 4.01875E+00 0.00000E+00
 -1       417 1.13535E+02 4.01875E+00 0.00000E+00
 -1       418 1.16535E+02 4.01875E+00 0.00000E+00
 -1       419 1.19535E+02 4.01875E+00 0.00000E+00
 -1       420 1.22535E+02 4.01875E+00 0.00000E+00
 -1       421 1.25535E+02 4.01875E+00 0.00000E+00
 -1       422 1.28535E+02 4.01875E+00 0.00000E+00
 -1       423 1.31535E+02 4.01875E+00 0.00000E+00
 -1       424 1.34535E+02 4.01875E+00 0.00000E+00
 -1       425 1.37535E+02 4.01875E+00 0.00000E+00
 -1       426 1.40535E+02 4.01875E+00 0.00000E+00
 -1       427 1.43535E+02 4.01875E+00 0.00000E+00
 -1       428 1.45469E+02 4.22188E+00 0.00000E+00
 -1       429 1.44804E+02 1.18000E+01 0.00000E+00
 -1       430 1.44804E+02 8.85000E+00 0.00000E+00
 -1       431 1.45136E+02 6.53594E+00 0.00000E+00
 -1       432 1.44804E+02 1.47000E+01 0.00000E+00
 -1       433 1.44804E+02 1.76500E+01 0.00000E+00
 -1       434 1.44804E+02 2.06000E+01 0.00000E+00
 -1       435 1.44804E+02 2.35500E+01 0.00000E+00
 -1       436 1.44804E+02 2.65000E+01 0.00000E+00
 -1       437 1.44804E+02 2.94500E+01 0.00000E+00
 -1       438 1.44804E+02 3.23500E+01 0.00000E+00
 -1       439 1.44804E+02 3.53000E+01 0.00000E+00
 -1       440 1.44804E+02 3.82500E+01 0.00000E+00
 -1       441 1.44804E+02 4.12000E+01 0.00000E+00
 -1       442 2.88931E+01 2.73236E+01 0.00000E+00
 -1       443 2.95814E+01 3.12069E+01 0.00000E+00
 -1       444 2.94175E+01 2.89793E+01 0.00000E+00
 -1       445 2.79563E+01 2.53809E+01 0.00000E+00
 -1       446 2.61943E+01 2.35808E+01 0.00000E+00
 -1       447 5.19600E+00 3.82000E+01 0.00000E+00
 -1       448 2.25681E+01 2.18143E+01 0.00000E+00
 -1       449 2.08348E+01 2.16323E+01 0.00000E+00
 -1       450 1.84096E+01 2.14098E+01 0.00000E+00
 -1       451 1.64329E+01 2.22405E+01 0.00000E+00
 -1       452 1.48540E+01 2.29727E+01 0.00000E+00
 -1       453 1.28916E+01 2.44308E+01 0.00000E+00
 -1       454 1.16592E+01 2.57268E+01 0.00000E+00
 -1       455 1.08407E+01 2.80052E+01 0.00000E+00
 -1       456 1.02507E+01 2.97590E+01 0.00000E+00
 -1       457 1.00133E+01 3.21895E+01 0.00000E+00
 -1       458 1.02197E+01 3.40232E+01 0.00000E+00
 -1       459 1.16174E+01 3.60854E+01 0.00000E+00
 -1       460 1.26612E+01 3.75121E+01 0.00000E+00
 -1       461 1.42682E+01 3.91397E+01 0.00000E+00
 -1       462 1.60570E+01 3.98012E+01 0.00000E+00
 -1       463 1.77163E+01 4.07069E+01 0.00000E+00
 -1       464 1.99875E+01 4.08027E+01 0.00000E+00
 -1       465 2.15952E+01 4.05716E+01 0.00000E+00
 -1       466 2.36698E+01 4.01097E+01 0.00000E+00
 -1       467 2.51135E+01 3.93471E+01 0.00000E+00
 -1       468 2.68088E+01 3.79163E+01 0.00000E+00
 -1       469 2.77940E+01 3.65239E+01 0.00000E+00
 -1       470 2.88989E+01 3.49110E+01 0.00000E+00
 -1       471 2.92844E+01 3.30611E+01 0.00000E+00
 -1       472 2.43835E+01 2.26667E+01 0.00000E+00
 -1       473 1.00350E+01 6.61675E+00 0.00000E+00
 -1       474 7.41382E+00 3.08500E+01 0.00000E+00
 -1       475 7.41382E+00 3.37750E+01 0.00000E+00
 -1       476 7.41382E+00 2.50250E+01 0.00000E+00
 -1       477 7.41382E+00 2.20750E+01 0.00000E+00
 -1       478 7.41382E+00 1.91250E+01 0.00000E+00
 -1       479 7.41382E+00 1.61750E+01 0.00000E+00
 -1       480 7.41382E+00 1.32250E+01 0.00000E+00
 -1       481 7.41382E+00 1.02750E+01 0.00000E+00
 -1       482 1.30350E+01 6.61675E+00 0.00000E+00
 -1       483 1.06500E+01 4.22510E+01 0.00000E+00
 -1       484 2.41335E+01 2.08397E+01 0.00000E+00
 -1       485 1.36500E+01 4.22510E+01 0.00000E+00
 -1       486 1.96500E+01 4.27537E+01 0.00000E+00
 -1       487 2.26500E+01 4.25862E+01 0.00000E+00
 -1       488 2.56500E+01 4.25862E+01 0.00000E+00
 -1       489 2.86500E+01 4.24186E+01 0.00000E+00
 -1       490 3.16500E+01 4.24186E+01 0.00000E+00
 -1       491 3.46500E+01 4.24186E+01 0.00000E+00
 -1       492 3.76500E+01 4.24186E+01 0.00000E+00
 -1       493 4.06500E+01 4.24186E+01 0.00000E+00
 -1       494 4.36500E+01 4.24186E+01 0.00000E+00
 -1       495 4.66500E+01 4.24186E+01 0.00000E+00
 -1       496 4.96500E+01 4.24186E+01 0.00000E+00
 -1       497 5.26500E+01 4.24186E+01 0.00000E+00
 -1       498 5.56500E+01 4.24186E+01 0.00000E+00
 -1       499 5.86500E+01 4.24186E+01 0.00000E+00
 -1       500 6.16500E+01 4.24186E+01 0.00000E+00
 -1       501 6.46500E+01 4.24186E+01 0.00000E+00
 -1       502 6.76500E+01 4.24186E+01 0.00000E+00
 -1       503 7.06500E+01 4.24186E+01 0.00000E+00
 -1       504 7.36500E+01 4.24186E+01 0.00000E+00
 -1       505 7.66500E+01 4.24186E+01 0.00000E+00
 -1       506 7.96500E+01 4.24186E+01 0.00000E+00
 -1       507 8.26500E+01 4.24186E+01 0.00000E+00
 -1       508 8.56500E+01 4.24186E+01 0.00000E+00
 -1       509 8.86500E+01 4.24186E+01 0.00000E+00
 -1       510 9.16500E+01 4.24186E+01 0.00000E+00
 -1       511 9.46500E+01 4.24186E+01 0.00000E+00
 -1       512 9.76500E+01 4.24186E+01 0.00000E+00
 -1       513 1.00650E+02 4.24186E+01 0.00000E+00
 -1       514 1.03650E+02 4.24186E+01 0.00000E+00
 -1       515 1.06650E+02 4.24186E+01 0.00000E+00
 -1       516 1.09650E+02 4.24186E+01 0.00000E+00
 -1       517 1.12650E+02 4.24186E+01 0.00000E+00
 -1       518 1.15650E+02 4.24186E+01 0.00000E+00
 -1       519 1.18650E+02 4.24186E+01 0.00000E+00
 -1       520 1.21650E+02 4.24186E+01 0.00000E+00
 -1       521 1.24650E+02 4.24186E+01 0.00000E+00
 -1       522 1.27650E+02 4.24186E+01 0.00000E+00
 -1       523 1.30650E+02 4.24186E+01 0.00000E+00
 -1       524 1.33650E+02 4.24186E+01 0.00000E+00
 -1       525 1.36650E+02 4.24186E+01 0.00000E+00
 -1       526 1.39650E+02 4.24186E+01 0.00000E+00
 -1       527 3.04709E+01 2.77348E+01 0.00000E+00
 -1       528 1.90350E+01 6.61675E+00 0.00000E+00
 -1       529 2.20350E+01 6.61675E+00 0.00000E+00
 -1       530 2.50350E+01 6.61675E+00 0.00000E+00
 -1       531 2.80350E+01 6.61675E+00 0.00000E+00
 -1       532 3.10350E+01 6.61675E+00 0.00000E+00
 -1       533 3.40350E+01 6.61675E+00 0.00000E+00
 -1       534 3.70350E+01 6.61675E+00 0.00000E+00
 -1       535 4.00350E+01 6.61675E+00 0.00000E+00
 -1       536 4.30350E+01 6.61675E+00 0.00000E+00
 -1       537 4.60350E+01 6.61675E+00 0.00000E+00
 -1       538 4.90350E+01 6.61675E+00 0.00000E+00
 -1       539 5.20350E+01 6.61675E+00 0.00000E+00
 -1       540 5.50350E+01 6.61675E+00 0.00000E+00
 -1       541 5.80350E+01 6.61675E+00 0.00000E+00
 -1       542 6.10350E+01 6.61675E+00 0.00000E+00
 -1       543 6.40350E+01 6.61675E+00 0.00000E+00
 -1       544 6.70350E+01 6.61675E+00 0.00000E+00
 -1       545 7.00350E+01 6.61675E+00 0.00000E+00
 -1       546 7.30350E+01 6.61675E+00 0.00000E+00
 -1       547 7.60350E+01 6.61675E+00 0.00000E+00
 -1       548 7.90350E+01 6.61675E+00 0.00000E+00
 -1       549 8.20350E+01 6.61675E+00 0.00000E+00
 -1       550 8.50350E+01 6.61675E+00 0.00000E+00
 -1       551 8.80350E+01 6.61675E+00 0.00000E+00
 -1       552 9.10350E+01 6.61675E+00 0.00000E+00
 -1       553 9.40350E+01 6.61675E+00 0.00000E+00
 -1       554 9.70350E+01 6.61675E+00 0.00000E+00
 -1       555 1.00035E+02 6.61675E+00 0.00000E+00
 -1       556 1.03035E+02 6.61675E+00 0.00000E+00
 -1       557 1.06035E+02 6.61675E+00 0.00000E+00
 -1       558 1.09035E+02 6.61675E+00 0.00000E+00
 -1       559 1.12035E+02 6.61675E+00 0.00000E+00
 -1       560 1.15035E+02 6.61675E+00 0.00000E+00
 -1       561 1.18035E+02 6.61675E+00 0.00000E+00
 -1       562 1.21035E+02 6.61675E+00 0.00000E+00
 -1       563 1.24035E+02 6.61675E+00 0.00000E+00
 -1       564 1.27035E+02 6.61675E+00 0.00000E+00
 -1       565 1.30035E+02 6.61675E+00 0.00000E+00
 -1       566 1.33035E+02 6.61675E+00 0.00000E+00
 -1       567 1.36035E+02 6.61675E+00 0.00000E+00
 -1       568 1.39035E+02 6.61675E+00 0.00000E+00
 -1       569 1.42035E+02 6.61675E+00 0.00000E+00
 -1       570 1.42206E+02 1.61750E+01 0.00000E+00
 -1       571 1.42206E+02 1.91250E+01 0.00000E+00
 -1       572 1.42206E+02 1.03250E+01 0.00000E+00
 -1       573 1.42206E+02 1.32500E+01 0.00000E+00
 -1       574 1.42206E+02 2.20750E+01 0.00000E+00
 -1       575 1.42206E+02 2.50250E+01 0.00000E+00
 -1       576 1.42206E+02 2.79750E+01 0.00000E+00
 -1       577 1.42206E+02 3.08750E+01 0.00000E+00
 -1       578 1.42206E+02 3.38250E+01 0.00000E+00
 -1       579 1.42206E+02 3.67750E+01 0.00000E+00
 -1       580 1.42206E+02 3.97250E+01 0.00000E+00
 -1       581 3.08782E+01 3.23656E+01 0.00000E+00
 -1       582 1.60350E+01 6.61675E+00 0.00000E+00
 -1       583 2.98187E+01 2.56801E+01 0.00000E+00
 -1       584 3.04928E+01 3.42155E+01 0.00000E+00
 -1       585 7.92300E+00 4.17005E+01 0.00000E+00
 -1       586 2.83010E+01 2.32811E+01 0.00000E+00
 -1       587 1.97789E+01 1.98131E+01 0.00000E+00
 -1       588 7.41382E+00 2.79250E+01 0.00000E+00
 -1       589 1.67892E+01 2.03212E+01 0.00000E+00
 -1       590 2.15122E+01 1.99951E+01 0.00000E+00
 -1       591 1.45968E+01 4.10005E+01 0.00000E+00
 -1       592 1.52103E+01 2.10534E+01 0.00000E+00
 -1       593 1.28498E+01 2.23251E+01 0.00000E+00
 -1       594 1.10932E+01 2.39547E+01 0.00000E+00
 -1       595 9.87243E+00 2.63711E+01 0.00000E+00
 -1       596 9.07896E+00 2.83886E+01 0.00000E+00
 -1       597 8.57865E+00 3.32795E+01 0.00000E+00
 -1       598 9.56818E+00 3.59696E+01 0.00000E+00
 -1       599 1.08903E+01 3.77125E+01 0.00000E+00
 -1       600 2.85647E+01 3.81139E+01 0.00000E+00
 -1       601 1.22442E+01 3.95309E+01 0.00000E+00
 -1       602 1.62561E+01 4.19063E+01 0.00000E+00
 -1       603 2.51928E+01 4.12449E+01 0.00000E+00
 -1       604 2.70420E+01 3.99122E+01 0.00000E+00
 -1       605 2.96697E+01 3.65010E+01 0.00000E+00
 -1       606 3.11264E+01 2.99734E+01 0.00000E+00
 -1       607 7.61550E+00 6.23338E+00 0.00000E+00
 -1       608 2.59444E+01 2.17538E+01 0.00000E+00
 -1       609 7.44029E+00 3.62197E+01 0.00000E+00
 -1       610 1.81585E+01 1.87245E+01 0.00000E+00
 -1       611 8.48858E+00 3.00794E+01 0.00000E+00
 -1       612 1.41678E+02 4.22645E+01 0.00000E+00
 -1       613 7.68165E+00 3.89601E+01 0.00000E+00
 -1       614 9.63164E+00 2.35500E+01 0.00000E+00
 -1       615 1.00118E+01 1.47000E+01 0.00000E+00
 -1       616 1.00118E+01 1.17500E+01 0.00000E+00
 -1       617 1.15350E+01 9.21475E+00 0.00000E+00
 -1       618 3.06509E+01 2.34741E+01 0.00000E+00
 -1       619 2.58118E+01 1.97656E+01 0.00000E+00
 -1       620 3.24446E+01 2.83721E+01 0.00000E+00
 -1       621 3.17795E+01 2.61886E+01 0.00000E+00
 -1       622 1.39206E+02 1.03250E+01 0.00000E+00
 -1       623 3.31500E+01 4.00332E+01 0.00000E+00
 -1       624 3.61500E+01 4.00332E+01 0.00000E+00
 -1       625 3.91500E+01 4.00332E+01 0.00000E+00
 -1       626 4.21500E+01 4.00332E+01 0.00000E+00
 -1       627 4.51500E+01 4.00332E+01 0.00000E+00
 -1       628 4.81500E+01 4.00332E+01 0.00000E+00
 -1       629 5.11500E+01 4.00332E+01 0.00000E+00
 -1       630 5.41500E+01 4.00332E+01 0.00000E+00
 -1       631 5.71500E+01 4.00332E+01 0.00000E+00
 -1       632 6.01500E+01 4.00332E+01 0.00000E+00
 -1       633 6.31500E+01 4.00332E+01 0.00000E+00
 -1       634 6.61500E+01 4.00332E+01 0.00000E+00
 -1       635 6.91500E+01 4.00332E+01 0.00000E+00
 -1       636 7.21500E+01 4.00332E+01 0.00000E+00
 -1       637 7.51500E+01 4.00332E+01 0.00000E+00
 -1       638 7.81500E+01 4.00332E+01 0.00000E+00
 -1       639 8.11500E+01 4.00332E+01 0.00000E+00
 -1       640 8.41500E+01 4.00332E+01 0.00000E+00
 -1       641 8.71500E+01 4.00332E+01 0.00000E+00
 -1       642 9.01500E+01 4.00332E+01 0.00000E+00
 -1       643 9.31500E+01 4.00332E+01 0.00000E+00
 -1       644 9.61500E+01 4.00332E+01 0.00000E+00
 -1       645 9.91500E+01 4.00332E+01 0.00000E+00
 -1       646 1.02150E+02 4.00332E+01 0.00000E+00
 -1       647 1.05150E+02 4.00332E+01 0.00000E+00
 -1       648 1.08150E+02 4.00332E+01 0.00000E+00
 -1       649 1.11150E+02 4.00332E+01 0.00000E+00
 -1       650 1.14150E+02 4.00332E+01 0.00000E+00
 -1       651 1.17150E+02 4.00332E+01 0.00000E+00
 -1       652 1.20150E+02 4.00332E+01 0.00000E+00
 -1       653 1.23150E+02 4.00332E+01 0.00000E+00
 -1       654 1.26150E+02 4.00332E+01 0.00000E+00
 -1       655 1.29150E+02 4.00332E+01 0.00000E+00
 -1       656 1.32150E+02 4.00332E+01 0.00000E+00
 -1       657 1.35150E+02 4.00332E+01 0.00000E+00
 -1       658 1.38150E+02 4.00332E+01 0.00000E+00
 -1       659 2.05350E+01 9.21475E+00 0.00000E+00
 -1       660 2.95350E+01 9.21475E+00 0.00000E+00
 -1       661 3.25350E+01 9.21475E+00 0.00000E+00
 -1       662 3.55350E+01 9.21475E+00 0.00000E+00
 -1       663 3.85350E+01 9.21475E+00 0.00000E+00
 -1       664 4.15350E+01 9.21475E+00 0.00000E+00
 -1       665 4.45350E+01 9.21475E+00 0.00000E+00
 -1       666 4.75350E+01 9.21475E+00 0.00000E+00
 -1       667 5.05350E+01 9.21475E+00 0.00000E+00
 -1       668 5.35350E+01 9.21475E+00 0.00000E+00
 -1       669 5.65350E+01 9.21475E+00 0.00000E+00
 -1       670 5.95350E+01 9.21475E+00 0.00000E+00
 -1       671 6.25350E+01 9.21475E+00 0.00000E+00
 -1       672 6.55350E+01 9.21475E+00 0.00000E+00
 -1       673 6.85350E+01 9.21475E+00 0.00000E+00
 -1       674 7.15350E+01 9.21475E+00 0.00000E+00
 -1       675 7.45350E+01 9.21475E+00 0.00000E+00
 -1       676 7.75350E+01 9.21475E+00 0.00000E+00
 -1       677 8.05350E+01 9.21475E+00 0.00000E+00
 -1       678 8.35350E+01 9.21475E+00 0.00000E+00
 -1       679 8.65350E+01 9.21475E+00 0.00000E+00
 -1       680 8.95350E+01 9.21475E+00 0.00000E+00
 -1       681 9.25350E+01 9.21475E+00 0.00000E+00
 -1       682 9.55350E+01 9.21475E+00 0.00000E+00
 -1       683 9.85350E+01 9.21475E+00 0.00000E+00
 -1       684 1.01535E+02 9.21475E+00 0.00000E+00
 -1       685 1.04535E+02 9.21475E+00 0.00000E+00
 -1       686 1.07535E+02 9.21475E+00 0.00000E+00
 -1       687 1.10535E+02 9.21475E+00 0.00000E+00
 -1       688 1.13535E+02 9.21475E+00 0.00000E+00
 -1       689 1.16535E+02 9.21475E+00 0.00000E+00
 -1       690 1.19535E+02 9.21475E+00 0.00000E+00
 -1       691 1.22535E+02 9.21475E+00 0.00000E+00
 -1       692 1.25535E+02 9.21475E+00 0.00000E+00
 -1       693 1.28535E+02 9.21475E+00 0.00000E+00
 -1       694 1.31535E+02 9.21475E+00 0.00000E+00
 -1       695 1.34535E+02 9.21475E+00 0.00000E+00
 -1       696 1.36870E+02 9.76987E+00 0.00000E+00
 -1       697 1.39608E+02 2.35500E+01 0.00000E+00
 -1       698 1.39608E+02 1.76500E+01 0.00000E+00
 -1       699 1.39608E+02 2.65000E+01 0.00000E+00
 -1       700 1.39608E+02 2.06000E+01 0.00000E+00
 -1       701 3.25286E+01 3.36746E+01 0.00000E+00
 -1       702 1.40178E+02 3.98791E+01 0.00000E+00
 -1       703 1.39608E+02 2.94000E+01 0.00000E+00
 -1       704 1.39608E+02 3.23500E+01 0.00000E+00
 -1       705 1.39608E+02 3.53000E+01 0.00000E+00
 -1       706 1.39893E+02 3.75896E+01 0.00000E+00
 -1       707 1.75350E+01 9.21475E+00 0.00000E+00
 -1       708 1.00572E+01 3.97460E+01 0.00000E+00
 -1       709 2.08421E+01 1.80317E+01 0.00000E+00
 -1       710 2.93680E+01 4.03379E+01 0.00000E+00
 -1       711 1.45350E+01 9.21475E+00 0.00000E+00
 -1       712 2.65350E+01 9.21475E+00 0.00000E+00
 -1       713 2.35350E+01 9.21475E+00 0.00000E+00
 -1       714 1.00118E+01 1.76500E+01 0.00000E+00
 -1       715 3.17055E+01 3.59601E+01 0.00000E+00
 -1       716 1.31372E+01 2.00318E+01 0.00000E+00
 -1       717 1.00118E+01 2.06000E+01 0.00000E+00
 -1       718 2.80555E+01 2.10782E+01 0.00000E+00
 -1       719 1.52782E+01 1.91313E+01 0.00000E+00
 -1       720 1.13805E+01 2.16614E+01 0.00000E+00
 -1       721 1.18536E+01 4.09985E+01 0.00000E+00
 -1       722 2.34516E+01 1.84659E+01 0.00000E+00
 -1       723 3.04630E+01 3.82294E+01 0.00000E+00
 -1       724 3.27767E+01 3.12824E+01 0.00000E+00
 -1       725 3.04054E+01 2.12711E+01 0.00000E+00
 -1       726 1.39608E+02 1.47250E+01 0.00000E+00
 -1       727 1.66476E+01 1.75347E+01 0.00000E+00
 -1       728 1.89878E+01 1.63930E+01 0.00000E+00
 -1       729 1.26098E+01 1.32250E+01 0.00000E+00
 -1       730 2.80350E+01 1.18127E+01 0.00000E+00
 -1       731 3.39131E+01 2.67318E+01 0.00000E+00
 -1       732 3.48142E+01 2.95758E+01 0.00000E+00
 -1       733 3.76500E+01 3.74803E+01 0.00000E+00
 -1       734 4.06500E+01 3.74803E+01 0.00000E+00
 -1       735 4.36500E+01 3.74803E+01 0.00000E+00
 -1       736 4.66500E+01 3.74803E+01 0.00000E+00
 -1       737 4.96500E+01 3.74803E+01 0.00000E+00
 -1       738 5.26500E+01 3.74803E+01 0.00000E+00
 -1       739 5.56500E+01 3.74803E+01 0.00000E+00
 -1       740 5.86500E+01 3.74803E+01 0.00000E+00
 -1       741 6.16500E+01 3.74803E+01 0.00000E+00
 -1       742 6.46500E+01 3.74803E+01 0.00000E+00
 -1       743 6.76500E+01 3.74803E+01 0.00000E+00
 -1       744 7.06500E+01 3.74803E+01 0.00000E+00
 -1       745 7.36500E+01 3.74803E+01 0.00000E+00
 -1       746 7.66500E+01 3.74803E+01 0.00000E+00
 -1       747 7.96500E+01 3.74803E+01 0.00000E+00
 -1       748 8.26500E+01 3.74803E+01 0.00000E+00
 -1       749 8.56500E+01 3.74803E+01 0.00000E+00
 -1       750 8.86500E+01 3.74803E+01 0.00000E+00
 -1       751 9.16500E+01 3.74803E+01 0.00000E+00
 -1       752 9.46500E+01 3.74803E+01 0.00000E+00
 -1       753 9.76500E+01 3.74803E+01 0.00000E+00
 -1       754 1.00650E+02 3.74803E+01 0.00000E+00
 -1       755 1.03650E+02 3.74803E+01 0.00000E+00
 -1       756 1.06650E+02 3.74803E+01 0.00000E+00
 -1       757 1.09650E+02 3.74803E+01 0.00000E+00
 -1       758 1.12650E+02 3.74803E+01 0.00000E+00
 -1       759 1.15650E+02 3.74803E+01 0.00000E+00
 -1       760 1.18650E+02 3.74803E+01 0.00000E+00
 -1       761 1.21650E+02 3.74803E+01 0.00000E+00
 -1       762 1.24650E+02 3.74803E+01 0.00000E+00
 -1       763 1.27650E+02 3.74803E+01 0.00000E+00
 -1       764 1.30650E+02 3.74803E+01 0.00000E+00
 -1       765 1.33650E+02 3.74803E+01 0.00000E+00
 -1       766 1.36650E+02 3.74803E+01 0.00000E+00
 -1       767 3.10350E+01 1.18127E+01 0.00000E+00
 -1       768 4.00350E+01 1.18127E+01 0.00000E+00
 -1       769 4.30350E+01 1.18127E+01 0.00000E+00
 -1       770 4.60350E+01 1.18127E+01 0.00000E+00
 -1       771 4.90350E+01 1.18127E+01 0.00000E+00
 -1       772 5.20350E+01 1.18127E+01 0.00000E+00
 -1       773 5.50350E+01 1.18127E+01 0.00000E+00
 -1       774 5.80350E+01 1.18127E+01 0.00000E+00
 -1       775 6.10350E+01 1.18127E+01 0.00000E+00
 -1       776 6.40350E+01 1.18127E+01 0.00000E+00
 -1       777 6.70350E+01 1.18127E+01 0.00000E+00
 -1       778 7.00350E+01 1.18127E+01 0.00000E+00
 -1       779 7.30350E+01 1.18127E+01 0.00000E+00
 -1       780 7.60350E+01 1.18127E+01 0.00000E+00
 -1       781 7.90350E+01 1.18127E+01 0.00000E+00
 -1       782 8.20350E+01 1.18127E+01 0.00000E+00
 -1       783 8.50350E+01 1.18127E+01 0.00000E+00
 -1       784 8.80350E+01 1.18127E+01 0.00000E+00
 -1       785 9.10350E+01 1.18127E+01 0.00000E+00
 -1       786 9.40350E+01 1.18127E+01 0.00000E+00
 -1       787 9.70350E+01 1.18127E+01 0.00000E+00
 -1       788 1.00035E+02 1.18127E+01 0.00000E+00
 -1       789 1.03035E+02 1.18127E+01 0.00000E+00
 -1       790 1.06035E+02 1.18127E+01 0.00000E+00
 -1       791 1.09035E+02 1.18127E+01 0.00000E+00
 -1       792 1.12035E+02 1.18127E+01 0.00000E+00
 -1       793 1.15035E+02 1.18127E+01 0.00000E+00
 -1       794 1.18035E+02 1.18127E+01 0.00000E+00
 -1       795 1.21035E+02 1.18127E+01 0.00000E+00
 -1       796 1.24035E+02 1.18127E+01 0.00000E+00
 -1       797 1.27035E+02 1.18127E+01 0.00000E+00
 -1       798 1.30035E+02 1.18127E+01 0.00000E+00
 -1       799 1.33035E+02 1.18127E+01 0.00000E+00
 -1       800 1.37010E+02 2.50250E+01 0.00000E+00
 -1       801 2.20350E+01 1.18127E+01 0.00000E+00
 -1       802 1.37010E+02 3.38250E+01 0.00000E+00
 -1       803 1.90350E+01 1.18127E+01 0.00000E+00
 -1       804 3.25886E+01 3.79184E+01 0.00000E+00
 -1       805 2.25384E+01 1.58958E+01 0.00000E+00
 -1       806 3.40350E+01 1.18127E+01 0.00000E+00
 -1       807 1.37010E+02 2.79250E+01 0.00000E+00
 -1       808 1.26098E+01 1.61750E+01 0.00000E+00
 -1       809 2.50350E+01 1.18127E+01 0.00000E+00
 -1       810 1.37010E+02 3.08750E+01 0.00000E+00
 -1       811 3.38884E+01 3.54552E+01 0.00000E+00
 -1       812 3.70350E+01 1.18127E+01 0.00000E+00
 -1       813 2.57015E+01 1.71730E+01 0.00000E+00
 -1       814 1.34129E+01 1.76916E+01 0.00000E+00
 -1       815 2.79452E+01 1.84856E+01 0.00000E+00
 -1       816 3.29536E+01 2.41085E+01 0.00000E+00
 -1       817 3.50253E+01 3.27246E+01 0.00000E+00
 -1       818 1.37273E+02 1.41699E+01 0.00000E+00
 -1       819 1.34937E+02 1.36147E+01 0.00000E+00
 -1       820 1.37010E+02 1.91250E+01 0.00000E+00
 -1       821 3.02950E+01 1.86785E+01 0.00000E+00
 -1       822 1.37141E+02 1.66474E+01 0.00000E+00
 -1       823 1.37010E+02 2.20750E+01 0.00000E+00
 -1       824 1.58224E+01 1.25189E+01 0.00000E+00
 -1       825 3.27081E+01 2.19056E+01 0.00000E+00
 -1       826 1.47822E+01 1.60949E+01 0.00000E+00
 -1       827 3.67974E+01 2.73826E+01 0.00000E+00
 -1       828 2.95350E+01 1.44108E+01 0.00000E+00
 -1       829 4.21500E+01 3.48823E+01 0.00000E+00
 -1       830 4.51500E+01 3.48823E+01 0.00000E+00
 -1       831 4.81500E+01 3.48823E+01 0.00000E+00
 -1       832 5.11500E+01 3.48823E+01 0.00000E+00
 -1       833 5.41500E+01 3.48823E+01 0.00000E+00
 -1       834 5.71500E+01 3.48823E+01 0.00000E+00
 -1       835 6.01500E+01 3.48823E+01 0.00000E+00
 -1       836 6.31500E+01 3.48823E+01 0.00000E+00
 -1       837 6.61500E+01 3.48823E+01 0.00000E+00
 -1       838 6.91500E+01 3.48823E+01 0.00000E+00
 -1       839 7.21500E+01 3.48823E+01 0.00000E+00
 -1       840 7.51500E+01 3.48823E+01 0.00000E+00
 -1       841 7.81500E+01 3.48823E+01 0.00000E+00
 -1       842 8.11500E+01 3.48823E+01 0.00000E+00
 -1       843 8.41500E+01 3.48823E+01 0.00000E+00
 -1       844 8.71500E+01 3.48823E+01 0.00000E+00
 -1       845 9.01500E+01 3.48823E+01 0.00000E+00
 -1       846 9.31500E+01 3.48823E+01 0.00000E+00
 -1       847 9.61500E+01 3.48823E+01 0.00000E+00
 -1       848 9.91500E+01 3.48823E+01 0.00000E+00
 -1       849 1.02150E+02 3.48823E+01 0.00000E+00
 -1       850 1.05150E+02 3.48823E+01 0.00000E+00
 -1       851 1.08150E+02 3.48823E+01 0.00000E+00
 -1       852 1.11150E+02 3.48823E+01 0.00000E+00
 -1       853 1.14150E+02 3.48823E+01 0.00000E+00
 -1       854 1.17150E+02 3.48823E+01 0.00000E+00
 -1       855 1.20150E+02 3.48823E+01 0.00000E+00
 -1       856 1.23150E+02 3.48823E+01 0.00000E+00
 -1       857 1.26150E+02 3.48823E+01 0.00000E+00
 -1       858 1.29150E+02 3.48823E+01 0.00000E+00
 -1       859 1.32150E+02 3.48823E+01 0.00000E+00
 -1       860 1.34580E+02 3.43536E+01 0.00000E+00
 -1       861 4.45350E+01 1.44108E+01 0.00000E+00
 -1       862 4.15350E+01 1.44108E+01 0.00000E+00
 -1       863 5.05350E+01 1.44108E+01 0.00000E+00
 -1       864 5.35350E+01 1.44108E+01 0.00000E+00
 -1       865 5.65350E+01 1.44108E+01 0.00000E+00
 -1       866 5.95350E+01 1.44108E+01 0.00000E+00
 -1       867 6.25350E+01 1.44108E+01 0.00000E+00
 -1       868 6.55350E+01 1.44108E+01 0.00000E+00
 -1       869 6.85350E+01 1.44108E+01 0.00000E+00
 -1       870 7.15350E+01 1.44108E+01 0.00000E+00
 -1       871 7.45350E+01 1.44108E+01 0.00000E+00
 -1       872 7.75350E+01 1.44108E+01 0.00000E+00
 -1       873 8.05350E+01 1.44108E+01 0.00000E+00
 -1       874 8.35350E+01 1.44108E+01 0.00000E+00
 -1       875 8.65350E+01 1.44108E+01 0.00000E+00
 -1       876 8.95350E+01 1.44108E+01 0.00000E+00
 -1       877 9.25350E+01 1.44108E+01 0.00000E+00
 -1       878 9.55350E+01 1.44108E+01 0.00000E+00
 -1       879 9.85350E+01 1.44108E+01 0.00000E+00
 -1       880 1.01535E+02 1.44108E+01 0.00000E+00
 -1       881 1.04535E+02 1.44108E+01 0.00000E+00
 -1       882 1.07535E+02 1.44108E+01 0.00000E+00
 -1       883 1.10535E+02 1.44108E+01 0.00000E+00
 -1       884 1.13535E+02 1.44108E+01 0.00000E+00
 -1       885 1.16535E+02 1.44108E+01 0.00000E+00
 -1       886 1.19535E+02 1.44108E+01 0.00000E+00
 -1       887 1.22535E+02 1.44108E+01 0.00000E+00
 -1       888 1.25535E+02 1.44108E+01 0.00000E+00
 -1       889 1.28535E+02 1.44108E+01 0.00000E+00
 -1       890 1.31535E+02 1.44108E+01 0.00000E+00
 -1       891 1.90114E+01 1.41029E+01 0.00000E+00
 -1       892 1.34412E+02 2.64750E+01 0.00000E+00
 -1       893 3.25350E+01 1.44108E+01 0.00000E+00
 -1       894 1.68968E+01 1.50989E+01 0.00000E+00
 -1       895 4.75350E+01 1.44108E+01 0.00000E+00
 -1       896 3.91500E+01 3.48823E+01 0.00000E+00
 -1       897 3.72998E+01 3.09906E+01 0.00000E+00
 -1       898 3.70877E+01 3.38034E+01 0.00000E+00
 -1       899 3.58379E+01 2.47594E+01 0.00000E+00
 -1       900 2.79432E+01 1.59150E+01 0.00000E+00
 -1       901 1.34412E+02 2.35250E+01 0.00000E+00
 -1       902 1.34580E+02 3.14036E+01 0.00000E+00
 -1       903 3.85350E+01 1.44108E+01 0.00000E+00
 -1       904 2.79464E+01 1.41723E+01 0.00000E+00
 -1       905 1.34806E+02 1.60923E+01 0.00000E+00
 -1       906 3.25978E+01 1.93130E+01 0.00000E+00
 -1       907 1.34674E+02 1.85699E+01 0.00000E+00
 -1       908 3.55350E+01 1.44108E+01 0.00000E+00
 -1       909 3.55924E+01 2.25565E+01 0.00000E+00
 -1       910 1.34543E+02 2.10474E+01 0.00000E+00
 -1       911 1.34496E+02 2.89393E+01 0.00000E+00
 -1       912 4.06500E+01 3.23293E+01 0.00000E+00
 -1       913 4.66500E+01 3.22843E+01 0.00000E+00
 -1       914 4.96500E+01 3.22843E+01 0.00000E+00
 -1       915 5.26500E+01 3.22843E+01 0.00000E+00
 -1       916 5.56500E+01 3.22843E+01 0.00000E+00
 -1       917 5.86500E+01 3.22843E+01 0.00000E+00
 -1       918 6.16500E+01 3.22843E+01 0.00000E+00
 -1       919 6.46500E+01 3.22843E+01 0.00000E+00
 -1       920 6.76500E+01 3.22843E+01 0.00000E+00
 -1       921 7.06500E+01 3.22843E+01 0.00000E+00
 -1       922 7.36500E+01 3.22843E+01 0.00000E+00
 -1       923 7.66500E+01 3.22843E+01 0.00000E+00
 -1       924 7.96500E+01 3.22843E+01 0.00000E+00
 -1       925 8.26500E+01 3.22843E+01 0.00000E+00
 -1       926 8.56500E+01 3.22843E+01 0.00000E+00
 -1       927 8.86500E+01 3.22843E+01 0.00000E+00
 -1       928 9.16500E+01 3.22843E+01 0.00000E+00
 -1       929 9.46500E+01 3.22843E+01 0.00000E+00
 -1       930 9.76500E+01 3.22843E+01 0.00000E+00
 -1       931 1.00650E+02 3.22843E+01 0.00000E+00
 -1       932 1.03650E+02 3.22843E+01 0.00000E+00
 -1       933 1.06650E+02 3.22843E+01 0.00000E+00
 -1       934 1.09650E+02 3.22843E+01 0.00000E+00
 -1       935 1.12650E+02 3.22843E+01 0.00000E+00
 -1       936 1.15650E+02 3.22843E+01 0.00000E+00
 -1       937 1.18650E+02 3.22843E+01 0.00000E+00
 -1       938 1.21650E+02 3.22843E+01 0.00000E+00
 -1       939 1.24650E+02 3.22843E+01 0.00000E+00
 -1       940 1.27650E+02 3.22843E+01 0.00000E+00
 -1       941 1.30650E+02 3.22843E+01 0.00000E+00
 -1       942 1.32615E+02 3.18439E+01 0.00000E+00
 -1       943 4.30350E+01 1.70088E+01 0.00000E+00
 -1       944 5.50350E+01 1.70088E+01 0.00000E+00
 -1       945 5.20350E+01 1.70088E+01 0.00000E+00
 -1       946 6.10350E+01 1.70088E+01 0.00000E+00
 -1       947 6.40350E+01 1.70088E+01 0.00000E+00
 -1       948 6.70350E+01 1.70088E+01 0.00000E+00
 -1       949 7.00350E+01 1.70088E+01 0.00000E+00
 -1       950 7.30350E+01 1.70088E+01 0.00000E+00
 -1       951 7.60350E+01 1.70088E+01 0.00000E+00
 -1       952 7.90350E+01 1.70088E+01 0.00000E+00
 -1       953 8.20350E+01 1.70088E+01 0.00000E+00
 -1       954 8.50350E+01 1.70088E+01 0.00000E+00
 -1       955 8.80350E+01 1.70088E+01 0.00000E+00
 -1       956 9.10350E+01 1.70088E+01 0.00000E+00
 -1       957 9.40350E+01 1.70088E+01 0.00000E+00
 -1       958 9.70350E+01 1.70088E+01 0.00000E+00
 -1       959 1.00035E+02 1.70088E+01 0.00000E+00
 -1       960 1.03035E+02 1.70088E+01 0.00000E+00
 -1       961 1.06035E+02 1.70088E+01 0.00000E+00
 -1       962 1.09035E+02 1.70088E+01 0.00000E+00
 -1       963 1.12035E+02 1.70088E+01 0.00000E+00
 -1       964 1.15035E+02 1.70088E+01 0.00000E+00
 -1       965 1.18035E+02 1.70088E+01 0.00000E+00
 -1       966 1.21035E+02 1.70088E+01 0.00000E+00
 -1       967 1.24035E+02 1.70088E+01 0.00000E+00
 -1       968 1.27035E+02 1.70088E+01 0.00000E+00
 -1       969 1.30035E+02 1.70088E+01 0.00000E+00
 -1       970 3.96217E+01 2.88283E+01 0.00000E+00
 -1       971 1.32355E+02 1.77893E+01 0.00000E+00
 -1       972 3.87575E+01 2.51786E+01 0.00000E+00
 -1       973 4.36500E+01 3.22843E+01 0.00000E+00
 -1       974 5.80350E+01 1.70088E+01 0.00000E+00
 -1       975 4.00350E+01 1.70088E+01 0.00000E+00
 -1       976 4.60350E+01 1.70088E+01 0.00000E+00
 -1       977 3.85120E+01 2.29757E+01 0.00000E+00
 -1       978 3.10977E+01 1.56130E+01 0.00000E+00
 -1       979 3.40350E+01 1.70088E+01 0.00000E+00
 -1       980 1.31814E+02 2.50000E+01 0.00000E+00
 -1       981 4.90350E+01 1.70088E+01 0.00000E+00
 -1       982 3.54821E+01 1.99639E+01 0.00000E+00
 -1       983 1.31898E+02 2.74643E+01 0.00000E+00
 -1       984 1.32223E+02 2.02669E+01 0.00000E+00
 -1       985 1.29904E+02 1.94863E+01 0.00000E+00
 -1       986 5.11500E+01 2.96863E+01 0.00000E+00
 -1       987 5.41500E+01 2.96863E+01 0.00000E+00
 -1       988 5.71500E+01 2.96863E+01 0.00000E+00
 -1       989 6.01500E+01 2.96863E+01 0.00000E+00
 -1       990 6.31500E+01 2.96863E+01 0.00000E+00
 -1       991 6.61500E+01 2.96863E+01 0.00000E+00
 -1       992 6.91500E+01 2.96863E+01 0.00000E+00
 -1       993 7.21500E+01 2.96863E+01 0.00000E+00
 -1       994 7.51500E+01 2.96863E+01 0.00000E+00
 -1       995 7.81500E+01 2.96863E+01 0.00000E+00
 -1       996 8.11500E+01 2.96863E+01 0.00000E+00
 -1       997 8.41500E+01 2.96863E+01 0.00000E+00
 -1       998 8.71500E+01 2.96863E+01 0.00000E+00
 -1       999 9.01500E+01 2.96863E+01 0.00000E+00
 -1      1000 9.31500E+01 2.96863E+01 0.00000E+00
 -1      1001 9.61500E+01 2.96863E+01 0.00000E+00
 -1      1002 9.91500E+01 2.96863E+01 0.00000E+00
 -1      1003 1.02150E+02 2.96863E+01 0.00000E+00
 -1      1004 1.05150E+02 2.96863E+01 0.00000E+00
 -1      1005 1.08150E+02 2.96863E+01 0.00000E+00
 -1      1006 1.11150E+02 2.96863E+01 0.00000E+00
 -1      1007 1.14150E+02 2.96863E+01 0.00000E+00
 -1      1008 1.17150E+02 2.96863E+01 0.00000E+00
 -1      1009 1.20150E+02 2.96863E+01 0.00000E+00
 -1      1010 1.23150E+02 2.96863E+01 0.00000E+00
 -1      1011 1.26150E+02 2.96863E+01 0.00000E+00
 -1      1012 1.29150E+02 2.96863E+01 0.00000E+00
 -1      1013 6.55350E+01 1.96068E+01 0.00000E+00
 -1      1014 6.25350E+01 1.96068E+01 0.00000E+00
 -1      1015 7.15350E+01 1.96068E+01 0.00000E+00
 -1      1016 7.45350E+01 1.96068E+01 0.00000E+00
 -1      1017 7.75350E+01 1.96068E+01 0.00000E+00
 -1      1018 8.05350E+01 1.96068E+01 0.00000E+00
 -1      1019 8.35350E+01 1.96068E+01 0.00000E+00
 -1      1020 8.65350E+01 1.96068E+01 0.00000E+00
 -1      1021 8.95350E+01 1.96068E+01 0.00000E+00
 -1      1022 9.25350E+01 1.96068E+01 0.00000E+00
 -1      1023 9.55350E+01 1.96068E+01 0.00000E+00
 -1      1024 9.85350E+01 1.96068E+01 0.00000E+00
 -1      1025 1.01535E+02 1.96068E+01 0.00000E+00
 -1      1026 1.04535E+02 1.96068E+01 0.00000E+00
 -1      1027 1.07535E+02 1.96068E+01 0.00000E+00
 -1      1028 1.10535E+02 1.96068E+01 0.00000E+00
 -1      1029 1.13535E+02 1.96068E+01 0.00000E+00
 -1      1030 1.16535E+02 1.96068E+01 0.00000E+00
 -1      1031 1.19535E+02 1.96068E+01 0.00000E+00
 -1      1032 1.22535E+02 1.96068E+01 0.00000E+00
 -1      1033 1.25535E+02 1.96068E+01 0.00000E+00
 -1      1034 5.05350E+01 1.96068E+01 0.00000E+00
 -1      1035 1.32257E+02 2.96541E+01 0.00000E+00
 -1      1036 3.70350E+01 1.70088E+01 0.00000E+00
 -1      1037 4.15109E+01 2.64538E+01 0.00000E+00
 -1      1038 4.25804E+01 2.93690E+01 0.00000E+00
 -1      1039 6.85350E+01 1.96068E+01 0.00000E+00
 -1      1040 1.32019E+02 2.26334E+01 0.00000E+00
 -1      1041 5.35350E+01 1.96068E+01 0.00000E+00
 -1      1042 4.55804E+01 2.93690E+01 0.00000E+00
 -1      1043 5.95350E+01 1.96068E+01 0.00000E+00
 -1      1044 5.65350E+01 1.96068E+01 0.00000E+00
 -1      1045 4.83652E+01 2.95276E+01 0.00000E+00
 -1      1046 3.84017E+01 2.03831E+01 0.00000E+00
 -1      1047 4.45350E+01 1.96068E+01 0.00000E+00
 -1      1048 4.15350E+01 1.96068E+01 0.00000E+00
 -1      1049 4.12653E+01 2.42509E+01 0.00000E+00
 -1      1050 1.29328E+02 2.35928E+01 0.00000E+00
 -1      1051 4.75350E+01 1.96068E+01 0.00000E+00
 -1      1052 1.29412E+02 2.60571E+01 0.00000E+00
 -1      1053 5.56500E+01 2.70883E+01 0.00000E+00
 -1      1054 5.86500E+01 2.70883E+01 0.00000E+00
 -1      1055 6.16500E+01 2.70883E+01 0.00000E+00
 -1      1056 6.46500E+01 2.70883E+01 0.00000E+00
 -1      1057 6.76500E+01 2.70883E+01 0.00000E+00
 -1      1058 7.06500E+01 2.70883E+01 0.00000E+00
 -1      1059 7.36500E+01 2.70883E+01 0.00000E+00
 -1      1060 7.66500E+01 2.70883E+01 0.00000E+00
 -1      1061 7.96500E+01 2.70883E+01 0.00000E+00
 -1      1062 8.26500E+01 2.70883E+01 0.00000E+00
 -1      1063 8.56500E+01 2.70883E+01 0.00000E+00
 -1      1064 8.86500E+01 2.70883E+01 0.00000E+00
 -1      1065 9.16500E+01 2.70883E+01 0.00000E+00
 -1      1066 9.46500E+01 2.70883E+01 0.00000E+00
 -1      1067 9.76500E+01 2.70883E+01 0.00000E+00
 -1      1068 1.00650E+02 2.70883E+01 0.00000E+00
 -1      1069 1.03650E+02 2.70883E+01 0.00000E+00
 -1      1070 1.06650E+02 2.70883E+01 0.00000E+00
 -1      1071 1.09650E+02 2.70883E+01 0.00000E+00
 -1      1072 1.12650E+02 2.70883E+01 0.00000E+00
 -1      1073 1.15650E+02 2.70883E+01 0.00000E+00
 -1      1074 1.18650E+02 2.70883E+01 0.00000E+00
 -1      1075 1.21650E+02 2.70883E+01 0.00000E+00
 -1      1076 1.24650E+02 2.70883E+01 0.00000E+00
 -1      1077 1.29616E+02 2.15395E+01 0.00000E+00
 -1      1078 5.26500E+01 2.70883E+01 0.00000E+00
 -1      1079 5.50350E+01 2.22048E+01 0.00000E+00
 -1      1080 7.60350E+01 2.22048E+01 0.00000E+00
 -1      1081 7.30350E+01 2.22048E+01 0.00000E+00
 -1      1082 8.20350E+01 2.22048E+01 0.00000E+00
 -1      1083 8.50350E+01 2.22048E+01 0.00000E+00
 -1      1084 8.80350E+01 2.22048E+01 0.00000E+00
 -1      1085 9.10350E+01 2.22048E+01 0.00000E+00
 -1      1086 9.40350E+01 2.22048E+01 0.00000E+00
 -1      1087 9.70350E+01 2.22048E+01 0.00000E+00
 -1      1088 1.00035E+02 2.22048E+01 0.00000E+00
 -1      1089 1.03035E+02 2.22048E+01 0.00000E+00
 -1      1090 1.06035E+02 2.22048E+01 0.00000E+00
 -1      1091 1.09035E+02 2.22048E+01 0.00000E+00
 -1      1092 1.12035E+02 2.22048E+01 0.00000E+00
 -1      1093 1.15035E+02 2.22048E+01 0.00000E+00
 -1      1094 1.18035E+02 2.22048E+01 0.00000E+00
 -1      1095 1.21035E+02 2.22048E+01 0.00000E+00
 -1      1096 1.24035E+02 2.22048E+01 0.00000E+00
 -1      1097 6.70350E+01 2.22048E+01 0.00000E+00
 -1      1098 7.00350E+01 2.22048E+01 0.00000E+00
 -1      1099 4.45109E+01 2.64538E+01 0.00000E+00
 -1      1100 7.90350E+01 2.22048E+01 0.00000E+00
 -1      1101 6.40350E+01 2.22048E+01 0.00000E+00
 -1      1102 5.20350E+01 2.22048E+01 0.00000E+00
 -1      1103 5.80350E+01 2.22048E+01 0.00000E+00
 -1      1104 4.90350E+01 2.22048E+01 0.00000E+00
 -1      1105 4.60350E+01 2.22048E+01 0.00000E+00
 -1      1106 6.10350E+01 2.22048E+01 0.00000E+00
 -1      1107 1.26774E+02 2.49134E+01 0.00000E+00
 -1      1108 1.27061E+02 2.28602E+01 0.00000E+00
 -1      1109 1.27650E+02 2.70883E+01 0.00000E+00
 -1      1110 4.98652E+01 2.69296E+01 0.00000E+00
 -1      1111 4.14002E+01 2.19288E+01 0.00000E+00
 -1      1112 4.71880E+01 2.66917E+01 0.00000E+00
 -1      1113 5.65350E+01 2.48027E+01 0.00000E+00
 -1      1114 6.01500E+01 2.44903E+01 0.00000E+00
 -1      1115 4.43472E+01 2.32028E+01 0.00000E+00
 -1      1116 4.30350E+01 2.22048E+01 0.00000E+00
 -1      1117 0.00000E+00 4.85250E+01 0.00000E+00
 -1      1118 0.00000E+00 4.55750E+01 0.00000E+00
 -1      1119 0.00000E+00 4.26250E+01 0.00000E+00
 -1      1120 0.00000E+00 3.96750E+01 0.00000E+00
 -1      1121 0.00000E+00 3.67250E+01 0.00000E+00
 -1      1122 0.00000E+00 3.37750E+01 0.00000E+00
 -1      1123 0.00000E+00 3.08250E+01 0.00000E+00
 -1      1124 0.00000E+00 2.79000E+01 0.00000E+00
 -1      1125 0.00000E+00 2.50000E+01 0.00000E+00
 -1      1126 0.00000E+00 2.20750E+01 0.00000E+00
 -1      1127 0.00000E+00 1.91250E+01 0.00000E+00
 -1      1128 0.00000E+00 1.61750E+01 0.00000E+00
 -1      1129 0.00000E+00 1.32250E+01 0.00000E+00
 -1      1130 0.00000E+00 1.02750E+01 0.00000E+00
 -1      1131 0.00000E+00 7.32500E+00 0.00000E+00
 -1      1132 0.00000E+00 4.37500E+00 0.00000E+00
 -1      1133 0.00000E+00 1.45000E+00 0.00000E+00
 -1      1134 1.57500E+00 5.00000E+01 0.00000E+00
 -1      1135 4.65000E+00 5.00000E+01 0.00000E+00
 -1      1136 7.65000E+00 5.00000E+01 0.00000E+00
 -1      1137 1.06500E+01 5.00000E+01 0.00000E+00
 -1      1138 1.36500E+01 5.00000E+01 0.00000E+00
 -1      1139 1.66500E+01 5.00000E+01 0.00000E+00
 -1      1140 1.96500E+01 5.00000E+01 0.00000E+00
 -1      1141 2.26500E+01 5.00000E+01 0.00000E+00
 -1      1142 2.56500E+01 5.00000E+01 0.00000E+00
 -1      1143 2.86500E+01 5.00000E+01 0.00000E+00
 -1      1144 3.16500E+01 5.00000E+01 0.00000E+00
 -1      1145 3.46500E+01 5.00000E+01 0.00000E+00
 -1      1146 3.76500E+01 5.00000E+01 0.00000E+00
 -1      1147 4.06500E+01 5.00000E+01 0.00000E+00
 -1      1148 4.36500E+01 5.00000E+01 0.00000E+00
 -1      1149 4.66500E+01 5.00000E+01 0.00000E+00
 -1      1150 4.96500E+01 5.00000E+01 0.00000E+00
 -1      1151 5.26500E+01 5.00000E+01 0.00000E+00
 -1      1152 5.56500E+01 5.00000E+01 0.00000E+00
 -1      1153 5.86500E+01 5.00000E+01 0.00000E+00
 -1      1154 6.16500E+01 5.00000E+01 0.00000E+00
 -1      1155 6.46500E+01 5.00000E+01 0.00000E+00
 -1      1156 6.76500E+01 5.00000E+01 0.00000E+00
 -1      1157 7.06500E+01 5.00000E+01 0.00000E+00
 -1      1158 7.36500E+01 5.00000E+01 0.00000E+00
 -1      1159 7.66500E+01 5.00000E+01 0.00000E+00
 -1      1160 7.96500E+01 5.00000E+01 0.00000E+00
 -1      1161 8.26500E+01 5.00000E+01 0.00000E+00
 -1      1162 8.56500E+01 5.00000E+01 0.00000E+00
 -1      1163 8.86500E+01 5.00000E+01 0.00000E+00
 -1      1164 9.16500E+01 5.00000E+01 0.00000E+00
 -1      1165 9.46500E+01 5.00000E+01 0.00000E+00
 -1      1166 9.76500E+01 5.00000E+01 0.00000E+00
 -1      1167 1.00650E+02 5.00000E+01 0.00000E+00
 -1      1168 1.03650E+02 5.00000E+01 0.00000E+00
 -1      1169 1.06650E+02 5.00000E+01 0.00000E+00
 -1      1170 1.09650E+02 5.00000E+01 0.00000E+00
 -1      1171 1.12650E+02 5.00000E+01 0.00000E+00
 -1      1172 1.15650E+02 5.00000E+01 0.00000E+00
 -1      1173 1.18650E+02 5.00000E+01 0.00000E+00
 -1      1174 1.21650E+02 5.00000E+01 0.00000E+00
 -1      1175 1.24650E+02 5.00000E+01 0.00000E+00
 -1      1176 1.27650E+02 5.00000E+01 0.00000E+00
 -1      1177 1.30650E+02 5.00000E+01 0.00000E+00
 -1      1178 1.33650E+02 5.00000E+01 0.00000E+00
 -1      1179 1.36650E+02 5.00000E+01 0.00000E+00
 -1      1180 1.39650E+02 5.00000E+01 0.00000E+00
 -1      1181 1.42650E+02 5.00000E+01 0.00000E+00
 -1      1182 1.45650E+02 5.00000E+01 0.00000E+00
 -1      1183 1.48575E+02 5.00000E+01 0.00000E+00
 -1      1184 1.57500E+00 0.00000E+00 0.00000E+00
 -1      1185 4.65000E+00 0.00000E+00 0.00000E+00
 -1      1186 7.65000E+00 0.00000E+00 0.00000E+00
 -1      1187 1.06500E+01 0.00000E+00 0.00000E+00
 -1      1188 1.36500E+01 0.00000E+00 0.00000E+00
 -1      1189 1.66500E+01 0.00000E+00 0.00000E+00
 -1      1190 1.96500E+01 0.00000E+00 0.00000E+00
 -1      1191 2.26500E+01 0.00000E+00 0.00000E+00
 -1      1192 2.56500E+01 0.00000E+00 0.00000E+00
 -1      1193 2.86500E+01 0.00000E+00 0.00000E+00
 -1      1194 3.16500E+01 0.00000E+00 0.00000E+00
 -1      1195 3.46500E+01 0.00000E+00 0.00000E+00
 -1      1196 3.76500E+01 0.00000E+00 0.00000E+00
 -1      1197 4.06500E+01 0.00000E+00 0.00000E+00
 -1      1198 4.36500E+01 0.00000E+00 0.00000E+00
 -1      1199 4.66500E+01 0.00000E+00 0.00000E+00
 -1      1200 4.96500E+01 0.00000E+00 0.00000E+00
 -1      1201 5.26500E+01 0.00000E+00 0.00000E+00
 -1      1202 5.56500E+01 0.00000E+00 0.00000E+00
 -1      1203 5.86500E+01 0.00000E+00 0.00000E+00
 -1      1204 6.16500E+01 0.00000E+00 0.00000E+00
 -1      1205 6.46500E+01 0.00000E+00 0.00000E+00
 -1      1206 6.76500E+01 0.00000E+00 0.00000E+00
 -1      1207 7.06500E+01 0.00000E+00 0.00000E+00
 -1      1208 7.36500E+01 0.00000E+00 0.00000E+00
 -1      1209 7.66500E+01 0.00000E+00 0.00000E+00
 -1      1210 7.96500E+01 0.00000E+00 0.00000E+00
 -1      1211 8.26500E+01 0.00000E+00 0.00000E+00
 -1      1212 8.56500E+01 0.00000E+00 0.00000E+00
 -1      1213 8.86500E+01 0.00000E+00 0.00000E+00
 -1      1214 9.16500E+01 0.00000E+00 0.00000E+00
 -1      1215 9.46500E+01 0.00000E+00 0.00000E+00
 -1      1216 9.76500E+01 0.00000E+00 0.00000E+00
 -1      1217 1.00650E+02 0.00000E+00 0.00000E+00
 -1      1218 1.03650E+02 0.00000E+00 0.00000E+00
 -1      1219 1.06650E+02 0.00000E+00 0.00000E+00
 -1      1220 1.09650E+02 0.00000E+00 0.00000E+00
 -1      1221 1.12650E+02 0.00000E+00 0.00000E+00
 -1      1222 1.15650E+02 0.00000E+00 0.00000E+00
 -1      1223 1.18650E+02 0.00000E+00 0.00000E+00
 -1      1224 1.21650E+02 0.00000E+00 0.00000E+00
 -1      1225 1.24650E+02 0.00000E+00 0.00000E+00
 -1      1226 1.27650E+02 0.00000E+00 0.00000E+00
 -1      1227 1.30650E+02 0.00000E+00 0.00000E+00
 -1      1228 1.33650E+02 0.00000E+00 0.00000E+00
 -1      1229 1.36650E+02 0.00000E+00 0.00000E+00
 -1      1230 1.39650E+02 0.00000E+00 0.00000E+00
 -1      1231 1.42650E+02 0.00000E+00 0.00000E+00
 -1      1232 1.45650E+02 0.00000E+00 0.00000E+00
 -1      1233 1.48575E+02 0.00000E+00 0.00000E+00
 -1      1234 1.50000E+02 1.47500E+00 0.00000E+00
 -1      1235 1.50000E+02 4.42500E+00 0.00000E+00
 -1      1236 1.50000E+02 7.37500E+00 0.00000E+00
 -1      1237 1.50000E+02 1.03250E+01 0.00000E+00
 -1      1238 1.50000E+02 1.32750E+01 0.00000E+00
 -1      1239 1.50000E+02 1.62000E+01 0.00000E+00
 -1      1240 1.50000E+02 1.91250E+01 0.00000E+00
 -1      1241 1.50000E+02 2.20750E+01 0.00000E+00
 -1      1242 1.50000E+02 2.50250E+01 0.00000E+00
 -1      1243 1.50000E+02 2.79750E+01 0.00000E+00
 -1      1244 1.50000E+02 3.09250E+01 0.00000E+00
 -1      1245 1.50000E+02 3.38500E+01 0.00000E+00
 -1      1246 1.50000E+02 3.67750E+01 0.00000E+00
 -1      1247 1.50000E+02 3.97250E+01 0.00000E+00
 -1      1248 1.50000E+02 4.26750E+01 0.00000E+00
 -1      1249 1.50000E+02 4.56250E+01 0.00000E+00
 -1      1250 1.50000E+02 4.85500E+01 0.00000E+00
 -1      1251 2.69044E+01 3.04445E+01 0.00000E+00
 -1      1252 2.65918E+01 2.90122E+01 0.00000E+00
 -1      1253 2.59929E+01 2.76851E+01 0.00000E+00
 -1      1254 2.50460E+01 2.64171E+01 0.00000E+00
 -1      1255 2.38598E+01 2.54085E+01 0.00000E+00
 -1      1256 2.25339E+01 2.47082E+01 0.00000E+00
 -1      1257 2.10942E+01 2.43073E+01 0.00000E+00
 -1      1258 1.96133E+01 2.42205E+01 0.00000E+00
 -1      1259 1.81234E+01 2.44542E+01 0.00000E+00
 -1      1260 1.67760E+01 2.49718E+01 0.00000E+00
 -1      1261 1.55556E+01 2.57611E+01 0.00000E+00
 -1      1262 1.45017E+01 2.68134E+01 0.00000E+00
 -1      1263 1.37009E+01 2.80518E+01 0.00000E+00
 -1      1264 1.31788E+01 2.94246E+01 0.00000E+00
 -1      1265 1.29521E+01 3.09373E+01 0.00000E+00
 -1      1266 1.30582E+01 3.24570E+01 0.00000E+00
 -1      1267 1.34912E+01 3.39195E+01 0.00000E+00
 -1      1268 1.42302E+01 3.52526E+01 0.00000E+00
 -1      1269 1.52167E+01 3.63728E+01 0.00000E+00
 -1      1270 1.64188E+01 3.72586E+01 0.00000E+00
 -1      1271 1.77285E+01 3.78518E+01 0.00000E+00
 -1      1272 1.91703E+01 3.81694E+01 0.00000E+00
 -1      1273 2.06064E+01 3.81814E+01 0.00000E+00
 -1      1274 2.19621E+01 3.79161E+01 0.00000E+00
 -1      1275 2.32179E+01 3.74011E+01 0.00000E+00
 -1      1276 2.43658E+01 3.66413E+01 0.00000E+00
 -1      1277 2.53613E+01 3.56489E+01 0.00000E+00
 -1      1278 2.61222E+01 3.45084E+01 0.00000E+00
 -1      1279 2.66474E+01 3.32374E+01 0.00000E+00
 -1      1280 2.69136E+01 3.18919E+01 0.00000E+00
 -1      1281 1.57500E+00 4.85250E+01 0.00000E+00
 -1      1282 1.29900E+00 4.48375E+01 0.00000E+00
 -1      1283 1.29900E+00 4.63125E+01 0.00000E+00
 -1      1284 1.29900E+00 4.18875E+01 0.00000E+00
 -1      1285 1.29900E+00 4.33625E+01 0.00000E+00
 -1      1286 2.59800E+00 4.41000E+01 0.00000E+00
 -1      1287 1.29900E+00 3.89375E+01 0.00000E+00
 -1      1288 1.29900E+00 4.04125E+01 0.00000E+00
 -1      1289 2.59800E+00 4.11500E+01 0.00000E+00
 -1      1290 1.29900E+00 3.59875E+01 0.00000E+00
 -1      1291 1.29900E+00 3.74625E+01 0.00000E+00
 -1      1292 2.59800E+00 3.82000E+01 0.00000E+00
 -1      1293 1.29900E+00 3.30375E+01 0.00000E+00
 -1      1294 1.29900E+00 3.45125E+01 0.00000E+00
 -1      1295 2.59800E+00 3.52500E+01 0.00000E+00
 -1      1296 1.29900E+00 3.00875E+01 0.00000E+00
 -1      1297 1.29900E+00 3.15625E+01 0.00000E+00
 -1      1298 2.59800E+00 3.23000E+01 0.00000E+00
 -1      1299 1.29900E+00 2.71875E+01 0.00000E+00
 -1      1300 1.29900E+00 2.86375E+01 0.00000E+00
 -1      1301 2.59800E+00 2.93750E+01 0.00000E+00
 -1      1302 1.29900E+00 2.42875E+01 0.00000E+00
 -1      1303 1.29900E+00 2.57375E+01 0.00000E+00
 -1      1304 2.59800E+00 2.64750E+01 0.00000E+00
 -1      1305 1.29900E+00 2.13375E+01 0.00000E+00
 -1      1306 1.29900E+00 2.28125E+01 0.00000E+00
 -1      1307 2.59800E+00 2.35500E+01 0.00000E+00
 -1      1308 1.29900E+00 1.83875E+01 0.00000E+00
 -1      1309 1.29900E+00 1.98625E+01 0.00000E+00
 -1      1310 2.59800E+00 2.06000E+01 0.00000E+00
 -1      1311 1.29900E+00 1.54375E+01 0.00000E+00
 -1      1312 1.29900E+00 1.69125E+01 0.00000E+00
 -1      1313 2.59800E+00 1.76500E+01 0.00000E+00
 -1      1314 1.29900E+00 1.24875E+01 0.00000E+00
 -1      1315 1.29900E+00 1.39625E+01 0.00000E+00
 -1      1316 2.59800E+00 1.47000E+01 0.00000E+00
 -1      1317 1.29900E+00 9.53750E+00 0.00000E+00
 -1      1318 1.29900E+00 1.10125E+01 0.00000E+00
 -1      1319 2.59800E+00 1.17500E+01 0.00000E+00
 -1      1320 1.29900E+00 6.58750E+00 0.00000E+00
 -1      1321 1.29900E+00 8.06250E+00 0.00000E+00
 -1      1322 2.59800E+00 8.80000E+00 0.00000E+00
 -1      1323 1.29900E+00 3.63750E+00 0.00000E+00
 -1      1324 1.29900E+00 5.11250E+00 0.00000E+00
 -1      1325 2.59800E+00 5.85000E+00 0.00000E+00
 -1      1326 1.43700E+00 1.09375E+00 0.00000E+00
 -1      1327 1.43700E+00 2.54375E+00 0.00000E+00
 -1      1328 2.73600E+00 3.28125E+00 0.00000E+00
 -1      1329 3.01200E+00 1.09375E+00 0.00000E+00
 -1      1330 3.90000E+00 4.87010E+01 0.00000E+00
 -1      1331 5.40000E+00 4.87010E+01 0.00000E+00
 -1      1332 6.90000E+00 4.87010E+01 0.00000E+00
 -1      1333 8.40000E+00 4.87010E+01 0.00000E+00
 -1      1334 6.15000E+00 4.74020E+01 0.00000E+00
 -1      1335 9.90000E+00 4.87010E+01 0.00000E+00
 -1      1336 1.14000E+01 4.87010E+01 0.00000E+00
 -1      1337 9.15000E+00 4.74020E+01 0.00000E+00
 -1      1338 1.29000E+01 4.87010E+01 0.00000E+00
 -1      1339 1.44000E+01 4.87010E+01 0.00000E+00
 -1      1340 1.21500E+01 4.74020E+01 0.00000E+00
 -1      1341 1.59000E+01 4.87010E+01 0.00000E+00
 -1      1342 1.74000E+01 4.87010E+01 0.00000E+00
 -1      1343 1.51500E+01 4.74020E+01 0.00000E+00
 -1      1344 1.89000E+01 4.87010E+01 0.00000E+00
 -1      1345 2.04000E+01 4.87010E+01 0.00000E+00
 -1      1346 1.81500E+01 4.74020E+01 0.00000E+00
 -1      1347 2.19000E+01 4.87010E+01 0.00000E+00
 -1      1348 2.34000E+01 4.87010E+01 0.00000E+00
 -1      1349 2.11500E+01 4.74020E+01 0.00000E+00
 -1      1350 2.49000E+01 4.87010E+01 0.00000E+00
 -1      1351 2.64000E+01 4.87010E+01 0.00000E+00
 -1      1352 2.41500E+01 4.74020E+01 0.00000E+00
 -1      1353 2.79000E+01 4.87010E+01 0.00000E+00
 -1      1354 2.94000E+01 4.87010E+01 0.00000E+00
 -1      1355 2.71500E+01 4.74020E+01 0.00000E+00
 -1      1356 3.09000E+01 4.87010E+01 0.00000E+00
 -1      1357 3.24000E+01 4.87010E+01 0.00000E+00
 -1      1358 3.01500E+01 4.74020E+01 0.00000E+00
 -1      1359 3.39000E+01 4.87010E+01 0.00000E+00
 -1      1360 3.54000E+01 4.87010E+01 0.00000E+00
 -1      1361 3.31500E+01 4.74020E+01 0.00000E+00
 -1      1362 3.69000E+01 4.87010E+01 0.00000E+00
 -1      1363 3.84000E+01 4.87010E+01 0.00000E+00
 -1      1364 3.61500E+01 4.74020E+01 0.00000E+00
 -1      1365 3.99000E+01 4.87010E+01 0.00000E+00
 -1      1366 4.14000E+01 4.87010E+01 0.00000E+00
 -1      1367 3.91500E+01 4.74020E+01 0.00000E+00
 -1      1368 4.29000E+01 4.87010E+01 0.00000E+00
 -1      1369 4.44000E+01 4.87010E+01 0.00000E+00
 -1      1370 4.21500E+01 4.74020E+01 0.00000E+00
 -1      1371 4.59000E+01 4.87010E+01 0.00000E+00
 -1      1372 4.74000E+01 4.87010E+01 0.00000E+00
 -1      1373 4.51500E+01 4.74020E+01 0.00000E+00
 -1      1374 4.89000E+01 4.87010E+01 0.00000E+00
 -1      1375 5.04000E+01 4.87010E+01 0.00000E+00
 -1      1376 4.81500E+01 4.74020E+01 0.00000E+00
 -1      1377 5.19000E+01 4.87010E+01 0.00000E+00
 -1      1378 5.34000E+01 4.87010E+01 0.00000E+00
 -1      1379 5.11500E+01 4.74020E+01 0.00000E+00
 -1      1380 5.49000E+01 4.87010E+01 0.00000E+00
 -1      1381 5.64000E+01 4.87010E+01 0.00000E+00
 -1      1382 5.41500E+01 4.74020E+01 0.00000E+00
 -1      1383 5.79000E+01 4.87010E+01 0.00000E+00
 -1      1384 5.94000E+01 4.87010E+01 0.00000E+00
 -1      1385 5.71500E+01 4.74020E+01 0.00000E+00
 -1      1386 6.09000E+01 4.87010E+01 0.00000E+00
 -1      1387 6.24000E+01 4.87010E+01 0.00000E+00
 -1      1388 6.01500E+01 4.74020E+01 0.00000E+00
 -1      1389 6.39000E+01 4.87010E+01 0.00000E+00
 -1      1390 6.54000E+01 4.87010E+01 0.00000E+00
 -1      1391 6.31500E+01 4.74020E+01 0.00000E+00
 -1      1392 6.69000E+01 4.87010E+01 0.00000E+00
 -1      1393 6.84000E+01 4.87010E+01 0.00000E+00
 -1      1394 6.61500E+01 4.74020E+01 0.00000E+00
 -1      1395 6.99000E+01 4.87010E+01 0.00000E+00
 -1      1396 7.14000E+01 4.87010E+01 0.00000E+00
 -1      1397 6.91500E+01 4.74020E+01 0.00000E+00
 -1      1398 7.29000E+01 4.87010E+01 0.00000E+00
 -1      1399 7.44000E+01 4.87010E+01 0.00000E+00
 -1      1400 7.21500E+01 4.74020E+01 0.00000E+00
 -1      1401 7.59000E+01 4.87010E+01 0.00000E+00
 -1      1402 7.74000E+01 4.87010E+01 0.00000E+00
 -1      1403 7.51500E+01 4.74020E+01 0.00000E+00
 -1      1404 7.89000E+01 4.87010E+01 0.00000E+00
 -1      1405 8.04000E+01 4.87010E+01 0.00000E+00
 -1      1406 7.81500E+01 4.74020E+01 0.00000E+00
 -1      1407 8.19000E+01 4.87010E+01 0.00000E+00
 -1      1408 8.34000E+01 4.87010E+01 0.00000E+00
 -1      1409 8.11500E+01 4.74020E+01 0.00000E+00
 -1      1410 8.49000E+01 4.87010E+01 0.00000E+00
 -1      1411 8.64000E+01 4.87010E+01 0.00000E+00
 -1      1412 8.41500E+01 4.74020E+01 0.00000E+00
 -1      1413 8.79000E+01 4.87010E+01 0.00000E+00
 -1      1414 8.94000E+01 4.87010E+01 0.00000E+00
 -1      1415 8.71500E+01 4.74020E+01 0.00000E+00
 -1      1416 9.09000E+01 4.87010E+01 0.00000E+00
 -1      1417 9.24000E+01 4.87010E+01 0.00000E+00
 -1      1418 9.01500E+01 4.74020E+01 0.00000E+00
 -1      1419 9.39000E+01 4.87010E+01 0.00000E+00
 -1      1420 9.54000E+01 4.87010E+01 0.00000E+00
 -1      1421 9.31500E+01 4.74020E+01 0.00000E+00
 -1      1422 9.69000E+01 4.87010E+01 0.00000E+00
 -1      1423 9.84000E+01 4.87010E+01 0.00000E+00
 -1      1424 9.61500E+01 4.74020E+01 0.00000E+00
 -1      1425 9.99000E+01 4.87010E+01 0.00000E+00
 -1      1426 1.01400E+02 4.87010E+01 0.00000E+00
 -1      1427 9.91500E+01 4.74020E+01 0.00000E+00
 -1      1428 1.02900E+02 4.87010E+01 0.00000E+00
 -1      1429 1.04400E+02 4.87010E+01 0.00000E+00
 -1      1430 1.02150E+02 4.74020E+01 0.00000E+00
 -1      1431 1.05900E+02 4.87010E+01 0.00000E+00
 -1      1432 1.07400E+02 4.87010E+01 0.00000E+00
 -1      1433 1.05150E+02 4.74020E+01 0.00000E+00
 -1      1434 1.08900E+02 4.87010E+01 0.00000E+00
 -1      1435 1.10400E+02 4.87010E+01 0.00000E+00
 -1      1436 1.08150E+02 4.74020E+01 0.00000E+00
 -1      1437 1.11900E+02 4.87010E+01 0.00000E+00
 -1      1438 1.13400E+02 4.87010E+01 0.00000E+00
 -1      1439 1.11150E+02 4.74020E+01 0.00000E+00
 -1      1440 1.14900E+02 4.87010E+01 0.00000E+00
 -1      1441 1.16400E+02 4.87010E+01 0.00000E+00
 -1      1442 1.14150E+02 4.74020E+01 0.00000E+00
 -1      1443 1.17900E+02 4.87010E+01 0.00000E+00
 -1      1444 1.19400E+02 4.87010E+01 0.00000E+00
 -1      1445 1.17150E+02 4.74020E+01 0.00000E+00
 -1      1446 1.20900E+02 4.87010E+01 0.00000E+00
 -1      1447 1.22400E+02 4.87010E+01 0.00000E+00
 -1      1448 1.20150E+02 4.74020E+01 0.00000E+00
 -1      1449 1.23900E+02 4.87010E+01 0.00000E+00
 -1      1450 1.25400E+02 4.87010E+01 0.00000E+00
 -1      1451 1.23150E+02 4.74020E+01 0.00000E+00
 -1      1452 1.26900E+02 4.87010E+01 0.00000E+00
 -1      1453 1.28400E+02 4.87010E+01 0.00000E+00
 -1      1454 1.26150E+02 4.74020E+01 0.00000E+00
 -1      1455 1.29900E+02 4.87010E+01 0.00000E+00
 -1      1456 1.31400E+02 4.87010E+01 0.00000E+00
 -1      1457 1.29150E+02 4.74020E+01 0.00000E+00
 -1      1458 1.32900E+02 4.87010E+01 0.00000E+00
 -1      1459 1.34400E+02 4.87010E+01 0.00000E+00
 -1      1460 1.32150E+02 4.74020E+01 0.00000E+00
 -1      1461 1.35900E+02 4.87010E+01 0.00000E+00
 -1      1462 1.37400E+02 4.87010E+01 0.00000E+00
 -1      1463 1.35150E+02 4.74020E+01 0.00000E+00
 -1      1464 1.38900E+02 4.87010E+01 0.00000E+00
 -1      1465 1.40400E+02 4.87010E+01 0.00000E+00
 -1      1466 1.38150E+02 4.74020E+01 0.00000E+00
 -1      1467 1.41900E+02 4.87010E+01 0.00000E+00
 -1      1468 1.43400E+02 4.87010E+01 0.00000E+00
 -1      1469 1.41150E+02 4.74020E+01 0.00000E+00
 -1      1470 1.44900E+02 4.87010E+01 0.00000E+00
 -1      1471 1.46400E+02 4.87010E+01 0.00000E+00
 -1      1472 1.44150E+02 4.74020E+01 0.00000E+00
 -1      1473 1.48575E+02 4.85500E+01 0.00000E+00
 -1      1474 1.47825E+02 4.72510E+01 0.00000E+00
 -1      1475 6.01200E+00 1.09375E+00 0.00000E+00
 -1      1476 4.51200E+00 1.09375E+00 0.00000E+00
 -1      1477 4.37400E+00 2.18750E+00 0.00000E+00
 -1      1478 9.01200E+00 1.09375E+00 0.00000E+00
 -1      1479 7.51200E+00 1.09375E+00 0.00000E+00
 -1      1480 7.37400E+00 2.18750E+00 0.00000E+00
 -1      1481 1.20120E+01 1.09375E+00 0.00000E+00
 -1      1482 1.05120E+01 1.09375E+00 0.00000E+00
 -1      1483 1.03740E+01 2.18750E+00 0.00000E+00
 -1      1484 1.50120E+01 1.09375E+00 0.00000E+00
 -1      1485 1.35120E+01 1.09375E+00 0.00000E+00
 -1      1486 1.33740E+01 2.18750E+00 0.00000E+00
 -1      1487 1.80120E+01 1.09375E+00 0.00000E+00
 -1      1488 1.65120E+01 1.09375E+00 0.00000E+00
 -1      1489 1.63740E+01 2.18750E+00 0.00000E+00
 -1      1490 2.10120E+01 1.09375E+00 0.00000E+00
 -1      1491 1.95120E+01 1.09375E+00 0.00000E+00
 -1      1492 1.93740E+01 2.18750E+00 0.00000E+00
 -1      1493 2.40120E+01 1.09375E+00 0.00000E+00
 -1      1494 2.25120E+01 1.09375E+00 0.00000E+00
 -1      1495 2.23740E+01 2.18750E+00 0.00000E+00
 -1      1496 2.70120E+01 1.09375E+00 0.00000E+00
 -1      1497 2.55120E+01 1.09375E+00 0.00000E+00
 -1      1498 2.53740E+01 2.18750E+00 0.00000E+00
 -1      1499 3.00120E+01 1.09375E+00 0.00000E+00
 -1      1500 2.85120E+01 1.09375E+00 0.00000E+00
 -1      1501 2.83740E+01 2.18750E+00 0.00000E+00
 -1      1502 3.30120E+01 1.09375E+00 0.00000E+00
 -1      1503 3.15120E+01 1.09375E+00 0.00000E+00
 -1      1504 3.13740E+01 2.18750E+00 0.00000E+00
 -1      1505 3.60120E+01 1.09375E+00 0.00000E+00
 -1      1506 3.45120E+01 1.09375E+00 0.00000E+00
 -1      1507 3.43740E+01 2.18750E+00 0.00000E+00
 -1      1508 3.90120E+01 1.09375E+00 0.00000E+00
 -1      1509 3.75120E+01 1.09375E+00 0.00000E+00
 -1      1510 3.73740E+01 2.18750E+00 0.00000E+00
 -1      1511 4.20120E+01 1.09375E+00 0.00000E+00
 -1      1512 4.05120E+01 1.09375E+00 0.00000E+00
 -1      1513 4.03740E+01 2.18750E+00 0.00000E+00
 -1      1514 4.50120E+01 1.09375E+00 0.00000E+00
 -1      1515 4.35120E+01 1.09375E+00 0.00000E+00
 -1      1516 4.33740E+01 2.18750E+00 0.00000E+00
 -1      1517 4.80120E+01 1.09375E+00 0.00000E+00
 -1      1518 4.65120E+01 1.09375E+00 0.00000E+00
 -1      1519 4.63740E+01 2.18750E+00 0.00000E+00
 -1      1520 5.10120E+01 1.09375E+00 0.00000E+00
 -1      1521 4.95120E+01 1.09375E+00 0.00000E+00
 -1      1522 4.93740E+01 2.18750E+00 0.00000E+00
 -1      1523 5.40120E+01 1.09375E+00 0.00000E+00
 -1      1524 5.25120E+01 1.09375E+00 0.00000E+00
 -1      1525 5.23740E+01 2.18750E+00 0.00000E+00
 -1      1526 5.70120E+01 1.09375E+00 0.00000E+00
 -1      1527 5.55120E+01 1.09375E+00 0.00000E+00
 -1      1528 5.53740E+01 2.18750E+00 0.00000E+00
 -1      1529 6.00120E+01 1.09375E+00 0.00000E+00
 -1      1530 5.85120E+01 1.09375E+00 0.00000E+00
 -1      1531 5.83740E+01 2.18750E+00 0.00000E+00
 -1      1532 6.30120E+01 1.09375E+00 0.00000E+00
 -1      1533 6.15120E+01 1.09375E+00 0.00000E+00
 -1      1534 6.13740E+01 2.18750E+00 0.00000E+00
 -1      1535 6.60120E+01 1.09375E+00 0.00000E+00
 -1      1536 6.45120E+01 1.09375E+00 0.00000E+00
 -1      1537 6.43740E+01 2.18750E+00 0.00000E+00
 -1      1538 6.90120E+01 1.09375E+00 0.00000E+00
 -1      1539 6.75120E+01 1.09375E+00 0.00000E+00
 -1      1540 6.73740E+01 2.18750E+00 0.00000E+00
 -1      1541 7.20120E+01 1.09375E+00 0.00000E+00
 -1      1542 7.05120E+01 1.09375E+00 0.00000E+00
 -1      1543 7.03740E+01 2.18750E+00 0.00000E+00
 -1      1544 7.50120E+01 1.09375E+00 0.00000E+00
 -1      1545 7.35120E+01 1.09375E+00 0.00000E+00
 -1      1546 7.33740E+01 2.18750E+00 0.00000E+00
 -1      1547 7.80120E+01 1.09375E+00 0.00000E+00
 -1      1548 7.65120E+01 1.09375E+00 0.00000E+00
 -1      1549 7.63740E+01 2.18750E+00 0.00000E+00
 -1      1550 8.10120E+01 1.09375E+00 0.00000E+00
 -1      1551 7.95120E+01 1.09375E+00 0.00000E+00
 -1      1552 7.93740E+01 2.18750E+00 0.00000E+00
 -1      1553 8.40120E+01 1.09375E+00 0.00000E+00
 -1      1554 8.25120E+01 1.09375E+00 0.00000E+00
 -1      1555 8.23740E+01 2.18750E+00 0.00000E+00
 -1      1556 8.70120E+01 1.09375E+00 0.00000E+00
 -1      1557 8.55120E+01 1.09375E+00 0.00000E+00
 -1      1558 8.53740E+01 2.18750E+00 0.00000E+00
 -1      1559 9.00120E+01 1.09375E+00 0.00000E+00
 -1      1560 8.85120E+01 1.09375E+00 0.00000E+00
 -1      1561 8.83740E+01 2.18750E+00 0.00000E+00
 -1      1562 9.30120E+01 1.09375E+00 0.00000E+00
 -1      1563 9.15120E+01 1.09375E+00 0.00000E+00
 -1      1564 9.13740E+01 2.18750E+00 0.00000E+00
 -1      1565 9.60120E+01 1.09375E+00 0.00000E+00
 -1      1566 9.45120E+01 1.09375E+00 0.00000E+00
 -1      1567 9.43740E+01 2.18750E+00 0.00000E+00
 -1      1568 9.90120E+01 1.09375E+00 0.00000E+00
 -1      1569 9.75120E+01 1.09375E+00 0.00000E+00
 -1      1570 9.73740E+01 2.18750E+00 0.00000E+00
 -1      1571 1.02012E+02 1.09375E+00 0.00000E+00
 -1      1572 1.00512E+02 1.09375E+00 0.00000E+00
 -1      1573 1.00374E+02 2.18750E+00 0.00000E+00
 -1      1574 1.05012E+02 1.09375E+00 0.00000E+00
 -1      1575 1.03512E+02 1.09375E+00 0.00000E+00
 -1      1576 1.03374E+02 2.18750E+00 0.00000E+00
 -1      1577 1.08012E+02 1.09375E+00 0.00000E+00
 -1      1578 1.06512E+02 1.09375E+00 0.00000E+00
 -1      1579 1.06374E+02 2.18750E+00 0.00000E+00
 -1      1580 1.11012E+02 1.09375E+00 0.00000E+00
 -1      1581 1.09512E+02 1.09375E+00 0.00000E+00
 -1      1582 1.09374E+02 2.18750E+00 0.00000E+00
 -1      1583 1.14012E+02 1.09375E+00 0.00000E+00
 -1      1584 1.12512E+02 1.09375E+00 0.00000E+00
 -1      1585 1.12374E+02 2.18750E+00 0.00000E+00
 -1      1586 1.17012E+02 1.09375E+00 0.00000E+00
 -1      1587 1.15512E+02 1.09375E+00 0.00000E+00
 -1      1588 1.15374E+02 2.18750E+00 0.00000E+00
 -1      1589 1.20012E+02 1.09375E+00 0.00000E+00
 -1      1590 1.18512E+02 1.09375E+00 0.00000E+00
 -1      1591 1.18374E+02 2.18750E+00 0.00000E+00
 -1      1592 1.23012E+02 1.09375E+00 0.00000E+00
 -1      1593 1.21512E+02 1.09375E+00 0.00000E+00
 -1      1594 1.21374E+02 2.18750E+00 0.00000E+00
 -1      1595 1.26012E+02 1.09375E+00 0.00000E+00
 -1      1596 1.24512E+02 1.09375E+00 0.00000E+00
 -1      1597 1.24374E+02 2.18750E+00 0.00000E+00
 -1      1598 1.29012E+02 1.09375E+00 0.00000E+00
 -1      1599 1.27512E+02 1.09375E+00 0.00000E+00
 -1      1600 1.27374E+02 2.18750E+00 0.00000E+00
 -1      1601 1.32012E+02 1.09375E+00 0.00000E+00
 -1      1602 1.30512E+02 1.09375E+00 0.00000E+00
 -1      1603 1.30374E+02 2.18750E+00 0.00000E+00
 -1      1604 1.35012E+02 1.09375E+00 0.00000E+00
 -1      1605 1.33512E+02 1.09375E+00 0.00000E+00
 -1      1606 1.33374E+02 2.18750E+00 0.00000E+00
 -1      1607 1.38012E+02 1.09375E+00 0.00000E+00
 -1      1608 1.36512E+02 1.09375E+00 0.00000E+00
 -1      1609 1.36374E+02 2.18750E+00 0.00000E+00
 -1      1610 1.41012E+02 1.09375E+00 0.00000E+00
 -1      1611 1.39512E+02 1.09375E+00 0.00000E+00
 -1      1612 1.39374E+02 2.18750E+00 0.00000E+00
 -1      1613 1.44012E+02 1.09375E+00 0.00000E+00
 -1      1614 1.42512E+02 1.09375E+00 0.00000E+00
 -1      1615 1.42374E+02 2.18750E+00 0.00000E+00
 -1      1616 1.47012E+02 1.09375E+00 0.00000E+00
 -1      1617 1.45512E+02 1.09375E+00 0.00000E+00
 -1      1618 1.45374E+02 2.18750E+00 0.00000E+00
 -1      1619 1.48575E+02 1.47500E+00 0.00000E+00
 -1      1620 1.48701E+02 5.16250E+00 0.00000E+00
 -1      1621 1.48701E+02 3.68750E+00 0.00000E+00
 -1      1622 1.48701E+02 8.11250E+00 0.00000E+00
 -1      1623 1.48701E+02 6.63750E+00 0.00000E+00
 -1      1624 1.47402E+02 5.90000E+00 0.00000E+00
 -1      1625 1.48701E+02 1.10625E+01 0.00000E+00
 -1      1626 1.48701E+02 9.58750E+00 0.00000E+00
 -1      1627 1.47402E+02 8.85000E+00 0.00000E+00
 -1      1628 1.48701E+02 1.40125E+01 0.00000E+00
 -1      1629 1.48701E+02 1.25375E+01 0.00000E+00
 -1      1630 1.47402E+02 1.18000E+01 0.00000E+00
 -1      1631 1.48701E+02 1.69125E+01 0.00000E+00
 -1      1632 1.48701E+02 1.54625E+01 0.00000E+00
 -1      1633 1.47402E+02 1.47250E+01 0.00000E+00
 -1      1634 1.48701E+02 1.98625E+01 0.00000E+00
 -1      1635 1.48701E+02 1.83875E+01 0.00000E+00
 -1      1636 1.47402E+02 1.76500E+01 0.00000E+00
 -1      1637 1.48701E+02 2.28125E+01 0.00000E+00
 -1      1638 1.48701E+02 2.13375E+01 0.00000E+00
 -1      1639 1.47402E+02 2.06000E+01 0.00000E+00
 -1      1640 1.48701E+02 2.57625E+01 0.00000E+00
 -1      1641 1.48701E+02 2.42875E+01 0.00000E+00
 -1      1642 1.47402E+02 2.35500E+01 0.00000E+00
 -1      1643 1.48701E+02 2.87125E+01 0.00000E+00
 -1      1644 1.48701E+02 2.72375E+01 0.00000E+00
 -1      1645 1.47402E+02 2.65000E+01 0.00000E+00
 -1      1646 1.48701E+02 3.16625E+01 0.00000E+00
 -1      1647 1.48701E+02 3.01875E+01 0.00000E+00
 -1      1648 1.47402E+02 2.94500E+01 0.00000E+00
 -1      1649 1.48701E+02 3.45625E+01 0.00000E+00
 -1      1650 1.48701E+02 3.31125E+01 0.00000E+00
 -1      1651 1.47402E+02 3.23750E+01 0.00000E+00
 -1      1652 1.48701E+02 3.75125E+01 0.00000E+00
 -1      1653 1.48701E+02 3.60375E+01 0.00000E+00
 -1      1654 1.47402E+02 3.53000E+01 0.00000E+00
 -1      1655 1.48701E+02 4.04625E+01 0.00000E+00
 -1      1656 1.48701E+02 3.89875E+01 0.00000E+00
 -1      1657 1.47402E+02 3.82500E+01 0.00000E+00
 -1      1658 1.48701E+02 4.34125E+01 0.00000E+00
 -1      1659 1.48701E+02 4.19375E+01 0.00000E+00
 -1      1660 1.47402E+02 4.12000E+01 0.00000E+00
 -1      1661 1.48263E+02 4.60692E+01 0.00000E+00
 -1      1662 1.48263E+02 4.45942E+01 0.00000E+00
 -1      1663 1.46964E+02 4.38568E+01 0.00000E+00
 -1      1664 1.46088E+02 4.62202E+01 0.00000E+00
 -1      1665 2.75061E+01 2.99918E+01 0.00000E+00
 -1      1666 2.75903E+01 3.07552E+01 0.00000E+00
 -1      1667 2.70245E+01 2.85014E+01 0.00000E+00
 -1      1668 2.72439E+01 2.91639E+01 0.00000E+00
 -1      1669 2.63624E+01 2.70308E+01 0.00000E+00
 -1      1670 2.67443E+01 2.76856E+01 0.00000E+00
 -1      1671 2.52918E+01 2.56201E+01 0.00000E+00
 -1      1672 2.58566E+01 2.62207E+01 0.00000E+00
 -1      1673 2.38969E+01 2.46982E+01 0.00000E+00
 -1      1674 2.45043E+01 2.51077E+01 0.00000E+00
 -1      1675 2.23861E+01 2.40424E+01 0.00000E+00
 -1      1676 2.30987E+01 2.43258E+01 0.00000E+00
 -1      1677 2.08286E+01 2.36870E+01 0.00000E+00
 -1      1678 2.15462E+01 2.38063E+01 0.00000E+00
 -1      1679 1.92068E+01 2.36320E+01 0.00000E+00
 -1      1680 1.99619E+01 2.35960E+01 0.00000E+00
 -1      1681 1.76020E+01 2.39655E+01 0.00000E+00
 -1      1682 1.83282E+01 2.37696E+01 0.00000E+00
 -1      1683 1.62088E+01 2.46184E+01 0.00000E+00
 -1      1684 1.68250E+01 2.43053E+01 0.00000E+00
 -1      1685 1.48258E+01 2.54626E+01 0.00000E+00
 -1      1686 1.54193E+01 2.49845E+01 0.00000E+00
 -1      1687 1.38312E+01 2.67390E+01 0.00000E+00
 -1      1688 1.42881E+01 2.61734E+01 0.00000E+00
 -1      1689 1.28774E+01 2.80541E+01 0.00000E+00
 -1      1690 1.32150E+01 2.73869E+01 0.00000E+00
 -1      1691 1.25367E+01 2.96278E+01 0.00000E+00
 -1      1692 1.27208E+01 2.89308E+01 0.00000E+00
 -1      1693 1.22098E+01 3.13127E+01 0.00000E+00
 -1      1694 1.22416E+01 3.05047E+01 0.00000E+00
 -1      1695 1.25612E+01 3.29100E+01 0.00000E+00
 -1      1696 1.24341E+01 3.22066E+01 0.00000E+00
 -1      1697 1.29778E+01 3.45742E+01 0.00000E+00
 -1      1698 1.26644E+01 3.38269E+01 0.00000E+00
 -1      1699 1.39709E+01 3.58728E+01 0.00000E+00
 -1      1700 1.35590E+01 3.52900E+01 0.00000E+00
 -1      1701 1.50670E+01 3.71125E+01 0.00000E+00
 -1      1702 1.44928E+01 3.65862E+01 0.00000E+00
 -1      1703 1.64402E+01 3.79306E+01 0.00000E+00
 -1      1704 1.58233E+01 3.75706E+01 0.00000E+00
 -1      1705 1.78913E+01 3.85058E+01 0.00000E+00
 -1      1706 1.72052E+01 3.82766E+01 0.00000E+00
 -1      1707 1.94725E+01 3.88565E+01 0.00000E+00
 -1      1708 1.87241E+01 3.87730E+01 0.00000E+00
 -1      1709 2.10004E+01 3.87194E+01 0.00000E+00
 -1      1710 2.03204E+01 3.87838E+01 0.00000E+00
 -1      1711 2.24731E+01 3.84028E+01 0.00000E+00
 -1      1712 2.18043E+01 3.86039E+01 0.00000E+00
 -1      1713 2.37780E+01 3.77556E+01 0.00000E+00
 -1      1714 2.31954E+01 3.80636E+01 0.00000E+00
 -1      1715 2.50564E+01 3.69213E+01 0.00000E+00
 -1      1716 2.44998E+01 3.73743E+01 0.00000E+00
 -1      1717 2.60220E+01 3.57455E+01 0.00000E+00
 -1      1718 2.55860E+01 3.62777E+01 0.00000E+00
 -1      1719 2.68253E+01 3.44966E+01 0.00000E+00
 -1      1720 2.65037E+01 3.50991E+01 0.00000E+00
 -1      1721 2.73350E+01 3.30837E+01 0.00000E+00
 -1      1722 2.71348E+01 3.37463E+01 0.00000E+00
 -1      1723 2.75587E+01 3.16135E+01 0.00000E+00
 -1      1724 2.74928E+01 3.22897E+01 0.00000E+00
 -1      1725 2.53504E+01 2.48780E+01 0.00000E+00
 -1      1726 2.66436E+01 2.62004E+01 0.00000E+00
 -1      1727 1.48437E+02 2.56875E+00 0.00000E+00
 -1      1728 1.47138E+02 3.30625E+00 0.00000E+00
 -1      1729 2.79719E+01 2.94699E+01 0.00000E+00
 -1      1730 2.74295E+01 2.78263E+01 0.00000E+00
 -1      1731 2.82024E+01 3.11561E+01 0.00000E+00
 -1      1732 2.37646E+01 2.39932E+01 0.00000E+00
 -1      1733 2.21266E+01 2.33847E+01 0.00000E+00
 -1      1734 2.04202E+01 2.30577E+01 0.00000E+00
 -1      1735 1.86749E+01 2.31043E+01 0.00000E+00
 -1      1736 1.70193E+01 2.35816E+01 0.00000E+00
 -1      1737 1.54529E+01 2.42875E+01 0.00000E+00
 -1      1738 1.41258E+01 2.53644E+01 0.00000E+00
 -1      1739 1.29720E+01 2.67232E+01 0.00000E+00
 -1      1740 1.21992E+01 2.82478E+01 0.00000E+00
 -1      1741 1.17476E+01 3.00013E+01 0.00000E+00
 -1      1742 1.16768E+01 3.17722E+01 0.00000E+00
 -1      1743 1.20043E+01 3.35829E+01 0.00000E+00
 -1      1744 1.26887E+01 3.52155E+01 0.00000E+00
 -1      1745 1.37918E+01 3.66446E+01 0.00000E+00
 -1      1746 1.50699E+01 3.78161E+01 0.00000E+00
 -1      1747 1.65912E+01 3.86202E+01 0.00000E+00
 -1      1748 1.81890E+01 3.92333E+01 0.00000E+00
 -1      1749 1.98697E+01 3.94278E+01 0.00000E+00
 -1      1750 2.15214E+01 3.92396E+01 0.00000E+00
 -1      1751 2.30476E+01 3.87847E+01 0.00000E+00
 -1      1752 2.44918E+01 3.80642E+01 0.00000E+00
 -1      1753 2.57433E+01 3.70394E+01 0.00000E+00
 -1      1754 2.67546E+01 3.57494E+01 0.00000E+00
 -1      1755 2.75458E+01 3.43527E+01 0.00000E+00
 -1      1756 2.80130E+01 3.28085E+01 0.00000E+00
 -1      1757 2.87400E+00 4.77875E+01 0.00000E+00
 -1      1758 3.89700E+00 4.04125E+01 0.00000E+00
 -1      1759 3.89700E+00 4.18875E+01 0.00000E+00
 -1      1760 3.89700E+00 4.33625E+01 0.00000E+00
 -1      1761 3.89700E+00 4.48375E+01 0.00000E+00
 -1      1762 5.19600E+00 4.26250E+01 0.00000E+00
 -1      1763 3.89700E+00 3.45125E+01 0.00000E+00
 -1      1764 3.89700E+00 3.59875E+01 0.00000E+00
 -1      1765 3.89700E+00 3.15625E+01 0.00000E+00
 -1      1766 3.89700E+00 3.30375E+01 0.00000E+00
 -1      1767 5.19600E+00 3.37750E+01 0.00000E+00
 -1      1768 3.89700E+00 2.86625E+01 0.00000E+00
 -1      1769 3.89700E+00 3.01125E+01 0.00000E+00
 -1      1770 5.19600E+00 3.08500E+01 0.00000E+00
 -1      1771 3.89700E+00 2.57625E+01 0.00000E+00
 -1      1772 3.89700E+00 2.72125E+01 0.00000E+00
 -1      1773 5.19600E+00 2.79500E+01 0.00000E+00
 -1      1774 3.89700E+00 2.28125E+01 0.00000E+00
 -1      1775 3.89700E+00 2.42875E+01 0.00000E+00
 -1      1776 5.19600E+00 2.50250E+01 0.00000E+00
 -1      1777 3.89700E+00 1.98625E+01 0.00000E+00
 -1      1778 3.89700E+00 2.13375E+01 0.00000E+00
 -1      1779 5.19600E+00 2.20750E+01 0.00000E+00
 -1      1780 3.89700E+00 1.69125E+01 0.00000E+00
 -1      1781 3.89700E+00 1.83875E+01 0.00000E+00
 -1      1782 5.19600E+00 1.91250E+01 0.00000E+00
 -1      1783 3.89700E+00 1.39625E+01 0.00000E+00
 -1      1784 3.89700E+00 1.54375E+01 0.00000E+00
 -1      1785 5.19600E+00 1.61750E+01 0.00000E+00
 -1      1786 3.89700E+00 1.10125E+01 0.00000E+00
 -1      1787 3.89700E+00 1.24875E+01 0.00000E+00
 -1      1788 5.19600E+00 1.32250E+01 0.00000E+00
 -1      1789 3.89700E+00 8.06250E+00 0.00000E+00
 -1      1790 3.89700E+00 9.53750E+00 0.00000E+00
 -1      1791 5.19600E+00 1.02750E+01 0.00000E+00
 -1      1792 3.89700E+00 5.11250E+00 0.00000E+00
 -1      1793 3.89700E+00 6.58750E+00 0.00000E+00
 -1      1794 5.19600E+00 7.32500E+00 0.00000E+00
 -1      1795 4.20450E+00 3.10313E+00 0.00000E+00
 -1      1796 4.06650E+00 4.19688E+00 0.00000E+00
 -1      1797 5.36550E+00 4.93437E+00 0.00000E+00
 -1      1798 5.70450E+00 3.10313E+00 0.00000E+00
 -1      1799 3.62400E+00 4.64885E+01 0.00000E+00
 -1      1800 8.70450E+00 3.10313E+00 0.00000E+00
 -1      1801 7.20450E+00 3.10313E+00 0.00000E+00
 -1      1802 7.03500E+00 4.01875E+00 0.00000E+00
 -1      1803 4.92300E+00 4.57510E+01 0.00000E+00
 -1      1804 8.40000E+00 4.61030E+01 0.00000E+00
 -1      1805 9.90000E+00 4.61030E+01 0.00000E+00
 -1      1806 1.14000E+01 4.61030E+01 0.00000E+00
 -1      1807 1.29000E+01 4.61030E+01 0.00000E+00
 -1      1808 1.06500E+01 4.48040E+01 0.00000E+00
 -1      1809 1.44000E+01 4.61030E+01 0.00000E+00
 -1      1810 1.59000E+01 4.61030E+01 0.00000E+00
 -1      1811 1.36500E+01 4.48040E+01 0.00000E+00
 -1      1812 1.74000E+01 4.61030E+01 0.00000E+00
 -1      1813 1.89000E+01 4.61030E+01 0.00000E+00
 -1      1814 1.66500E+01 4.48040E+01 0.00000E+00
 -1      1815 2.04000E+01 4.61030E+01 0.00000E+00
 -1      1816 2.19000E+01 4.61030E+01 0.00000E+00
 -1      1817 1.96500E+01 4.48040E+01 0.00000E+00
 -1      1818 2.34000E+01 4.61030E+01 0.00000E+00
 -1      1819 2.49000E+01 4.61030E+01 0.00000E+00
 -1      1820 2.26500E+01 4.48040E+01 0.00000E+00
 -1      1821 2.64000E+01 4.61030E+01 0.00000E+00
 -1      1822 2.79000E+01 4.61030E+01 0.00000E+00
 -1      1823 2.56500E+01 4.48040E+01 0.00000E+00
 -1      1824 2.94000E+01 4.61030E+01 0.00000E+00
 -1      1825 3.09000E+01 4.61030E+01 0.00000E+00
 -1      1826 2.86500E+01 4.48040E+01 0.00000E+00
 -1      1827 3.24000E+01 4.61030E+01 0.00000E+00
 -1      1828 3.39000E+01 4.61030E+01 0.00000E+00
 -1      1829 3.16500E+01 4.48040E+01 0.00000E+00
 -1      1830 3.54000E+01 4.61030E+01 0.00000E+00
 -1      1831 3.69000E+01 4.61030E+01 0.00000E+00
 -1      1832 3.46500E+01 4.48040E+01 0.00000E+00
 -1      1833 3.84000E+01 4.61030E+01 0.00000E+00
 -1      1834 3.99000E+01 4.61030E+01 0.00000E+00
 -1      1835 3.76500E+01 4.48040E+01 0.00000E+00
 -1      1836 4.14000E+01 4.61030E+01 0.00000E+00
 -1      1837 4.29000E+01 4.61030E+01 0.00000E+00
 -1      1838 4.06500E+01 4.48040E+01 0.00000E+00
 -1      1839 4.44000E+01 4.61030E+01 0.00000E+00
 -1      1840 4.59000E+01 4.61030E+01 0.00000E+00
 -1      1841 4.36500E+01 4.48040E+01 0.00000E+00
 -1      1842 4.74000E+01 4.61030E+01 0.00000E+00
 -1      1843 4.89000E+01 4.61030E+01 0.00000E+00
 -1      1844 4.66500E+01 4.48040E+01 0.00000E+00
 -1      1845 5.04000E+01 4.61030E+01 0.00000E+00
 -1      1846 5.19000E+01 4.61030E+01 0.00000E+00
 -1      1847 4.96500E+01 4.48040E+01 0.00000E+00
 -1      1848 5.34000E+01 4.61030E+01 0.00000E+00
 -1      1849 5.49000E+01 4.61030E+01 0.00000E+00
 -1      1850 5.26500E+01 4.48040E+01 0.00000E+00
 -1      1851 5.64000E+01 4.61030E+01 0.00000E+00
 -1      1852 5.79000E+01 4.61030E+01 0.00000E+00
 -1      1853 5.56500E+01 4.48040E+01 0.00000E+00
 -1      1854 5.94000E+01 4.61030E+01 0.00000E+00
 -1      1855 6.09000E+01 4.61030E+01 0.00000E+00
 -1      1856 5.86500E+01 4.48040E+01 0.00000E+00
 -1      1857 6.24000E+01 4.61030E+01 0.00000E+00
 -1      1858 6.39000E+01 4.61030E+01 0.00000E+00
 -1      1859 6.16500E+01 4.48040E+01 0.00000E+00
 -1      1860 6.54000E+01 4.61030E+01 0.00000E+00
 -1      1861 6.69000E+01 4.61030E+01 0.00000E+00
 -1      1862 6.46500E+01 4.48040E+01 0.00000E+00
 -1      1863 6.84000E+01 4.61030E+01 0.00000E+00
 -1      1864 6.99000E+01 4.61030E+01 0.00000E+00
 -1      1865 6.76500E+01 4.48040E+01 0.00000E+00
 -1      1866 7.14000E+01 4.61030E+01 0.00000E+00
 -1      1867 7.29000E+01 4.61030E+01 0.00000E+00
 -1      1868 7.06500E+01 4.48040E+01 0.00000E+00
 -1      1869 7.44000E+01 4.61030E+01 0.00000E+00
 -1      1870 7.59000E+01 4.61030E+01 0.00000E+00
 -1      1871 7.36500E+01 4.48040E+01 0.00000E+00
 -1      1872 7.74000E+01 4.61030E+01 0.00000E+00
 -1      1873 7.89000E+01 4.61030E+01 0.00000E+00
 -1      1874 7.66500E+01 4.48040E+01 0.00000E+00
 -1      1875 8.04000E+01 4.61030E+01 0.00000E+00
 -1      1876 8.19000E+01 4.61030E+01 0.00000E+00
 -1      1877 7.96500E+01 4.48040E+01 0.00000E+00
 -1      1878 8.34000E+01 4.61030E+01 0.00000E+00
 -1      1879 8.49000E+01 4.61030E+01 0.00000E+00
 -1      1880 8.26500E+01 4.48040E+01 0.00000E+00
 -1      1881 8.64000E+01 4.61030E+01 0.00000E+00
 -1      1882 8.79000E+01 4.61030E+01 0.00000E+00
 -1      1883 8.56500E+01 4.48040E+01 0.00000E+00
 -1      1884 8.94000E+01 4.61030E+01 0.00000E+00
 -1      1885 9.09000E+01 4.61030E+01 0.00000E+00
 -1      1886 8.86500E+01 4.48040E+01 0.00000E+00
 -1      1887 9.24000E+01 4.61030E+01 0.00000E+00
 -1      1888 9.39000E+01 4.61030E+01 0.00000E+00
 -1      1889 9.16500E+01 4.48040E+01 0.00000E+00
 -1      1890 9.54000E+01 4.61030E+01 0.00000E+00
 -1      1891 9.69000E+01 4.61030E+01 0.00000E+00
 -1      1892 9.46500E+01 4.48040E+01 0.00000E+00
 -1      1893 9.84000E+01 4.61030E+01 0.00000E+00
 -1      1894 9.99000E+01 4.61030E+01 0.00000E+00
 -1      1895 9.76500E+01 4.48040E+01 0.00000E+00
 -1      1896 1.01400E+02 4.61030E+01 0.00000E+00
 -1      1897 1.02900E+02 4.61030E+01 0.00000E+00
 -1      1898 1.00650E+02 4.48040E+01 0.00000E+00
 -1      1899 1.04400E+02 4.61030E+01 0.00000E+00
 -1      1900 1.05900E+02 4.61030E+01 0.00000E+00
 -1      1901 1.03650E+02 4.48040E+01 0.00000E+00
 -1      1902 1.07400E+02 4.61030E+01 0.00000E+00
 -1      1903 1.08900E+02 4.61030E+01 0.00000E+00
 -1      1904 1.06650E+02 4.48040E+01 0.00000E+00
 -1      1905 1.10400E+02 4.61030E+01 0.00000E+00
 -1      1906 1.11900E+02 4.61030E+01 0.00000E+00
 -1      1907 1.09650E+02 4.48040E+01 0.00000E+00
 -1      1908 1.13400E+02 4.61030E+01 0.00000E+00
 -1      1909 1.14900E+02 4.61030E+01 0.00000E+00
 -1      1910 1.12650E+02 4.48040E+01 0.00000E+00
 -1      1911 1.16400E+02 4.61030E+01 0.00000E+00
 -1      1912 1.17900E+02 4.61030E+01 0.00000E+00
 -1      1913 1.15650E+02 4.48040E+01 0.00000E+00
 -1      1914 1.19400E+02 4.61030E+01 0.00000E+00
 -1      1915 1.20900E+02 4.61030E+01 0.00000E+00
 -1      1916 1.18650E+02 4.48040E+01 0.00000E+00
 -1      1917 1.22400E+02 4.61030E+01 0.00000E+00
 -1      1918 1.23900E+02 4.61030E+01 0.00000E+00
 -1      1919 1.21650E+02 4.48040E+01 0.00000E+00
 -1      1920 1.25400E+02 4.61030E+01 0.00000E+00
 -1      1921 1.26900E+02 4.61030E+01 0.00000E+00
 -1      1922 1.24650E+02 4.48040E+01 0.00000E+00
 -1      1923 1.28400E+02 4.61030E+01 0.00000E+00
 -1      1924 1.29900E+02 4.61030E+01 0.00000E+00
 -1      1925 1.27650E+02 4.48040E+01 0.00000E+00
 -1      1926 1.31400E+02 4.61030E+01 0.00000E+00
 -1      1927 1.32900E+02 4.61030E+01 0.00000E+00
 -1      1928 1.30650E+02 4.48040E+01 0.00000E+00
 -1      1929 1.34400E+02 4.61030E+01 0.00000E+00
 -1      1930 1.35900E+02 4.61030E+01 0.00000E+00
 -1      1931 1.33650E+02 4.48040E+01 0.00000E+00
 -1      1932 1.37400E+02 4.61030E+01 0.00000E+00
 -1      1933 1.38900E+02 4.61030E+01 0.00000E+00
 -1      1934 1.36650E+02 4.48040E+01 0.00000E+00
 -1      1935 1.40400E+02 4.61030E+01 0.00000E+00
 -1      1936 1.41900E+02 4.61030E+01 0.00000E+00
 -1      1937 1.39650E+02 4.48040E+01 0.00000E+00
 -1      1938 1.43244E+02 4.61616E+01 0.00000E+00
 -1      1939 1.44744E+02 4.61616E+01 0.00000E+00
 -1      1940 1.45182E+02 4.49799E+01 0.00000E+00
 -1      1941 1.42494E+02 4.48626E+01 0.00000E+00
 -1      1942 1.17045E+01 3.10313E+00 0.00000E+00
 -1      1943 1.02045E+01 3.10313E+00 0.00000E+00
 -1      1944 1.00350E+01 4.01875E+00 0.00000E+00
 -1      1945 1.47045E+01 3.10313E+00 0.00000E+00
 -1      1946 1.32045E+01 3.10313E+00 0.00000E+00
 -1      1947 1.30350E+01 4.01875E+00 0.00000E+00
 -1      1948 1.77045E+01 3.10313E+00 0.00000E+00
 -1      1949 1.62045E+01 3.10313E+00 0.00000E+00
 -1      1950 1.60350E+01 4.01875E+00 0.00000E+00
 -1      1951 2.07045E+01 3.10313E+00 0.00000E+00
 -1      1952 1.92045E+01 3.10313E+00 0.00000E+00
 -1      1953 1.90350E+01 4.01875E+00 0.00000E+00
 -1      1954 2.37045E+01 3.10313E+00 0.00000E+00
 -1      1955 2.22045E+01 3.10313E+00 0.00000E+00
 -1      1956 2.20350E+01 4.01875E+00 0.00000E+00
 -1      1957 2.67045E+01 3.10313E+00 0.00000E+00
 -1      1958 2.52045E+01 3.10313E+00 0.00000E+00
 -1      1959 2.50350E+01 4.01875E+00 0.00000E+00
 -1      1960 2.97045E+01 3.10313E+00 0.00000E+00
 -1      1961 2.82045E+01 3.10313E+00 0.00000E+00
 -1      1962 2.80350E+01 4.01875E+00 0.00000E+00
 -1      1963 3.27045E+01 3.10313E+00 0.00000E+00
 -1      1964 3.12045E+01 3.10313E+00 0.00000E+00
 -1      1965 3.10350E+01 4.01875E+00 0.00000E+00
 -1      1966 3.57045E+01 3.10313E+00 0.00000E+00
 -1      1967 3.42045E+01 3.10313E+00 0.00000E+00
 -1      1968 3.40350E+01 4.01875E+00 0.00000E+00
 -1      1969 3.87045E+01 3.10313E+00 0.00000E+00
 -1      1970 3.72045E+01 3.10313E+00 0.00000E+00
 -1      1971 3.70350E+01 4.01875E+00 0.00000E+00
 -1      1972 4.17045E+01 3.10313E+00 0.00000E+00
 -1      1973 4.02045E+01 3.10313E+00 0.00000E+00
 -1      1974 4.00350E+01 4.01875E+00 0.00000E+00
 -1      1975 4.47045E+01 3.10313E+00 0.00000E+00
 -1      1976 4.32045E+01 3.10313E+00 0.00000E+00
 -1      1977 4.30350E+01 4.01875E+00 0.00000E+00
 -1      1978 4.77045E+01 3.10313E+00 0.00000E+00
 -1      1979 4.62045E+01 3.10313E+00 0.00000E+00
 -1      1980 4.60350E+01 4.01875E+00 0.00000E+00
 -1      1981 5.07045E+01 3.10313E+00 0.00000E+00
 -1      1982 4.92045E+01 3.10313E+00 0.00000E+00
 -1      1983 4.90350E+01 4.01875E+00 0.00000E+00
 -1      1984 5.37045E+01 3.10313E+00 0.00000E+00
 -1      1985 5.22045E+01 3.10313E+00 0.00000E+00
 -1      1986 5.20350E+01 4.01875E+00 0.00000E+00
 -1      1987 5.67045E+01 3.10313E+00 0.00000E+00
 -1      1988 5.52045E+01 3.10313E+00 0.00000E+00
 -1      1989 5.50350E+01 4.01875E+00 0.00000E+00
 -1      1990 5.97045E+01 3.10313E+00 0.00000E+00
 -1      1991 5.82045E+01 3.10313E+00 0.00000E+00
 -1      1992 5.80350E+01 4.01875E+00 0.00000E+00
 -1      1993 6.27045E+01 3.10313E+00 0.00000E+00
 -1      1994 6.12045E+01 3.10313E+00 0.00000E+00
 -1      1995 6.10350E+01 4.01875E+00 0.00000E+00
 -1      1996 6.57045E+01 3.10313E+00 0.00000E+00
 -1      1997 6.42045E+01 3.10313E+00 0.00000E+00
 -1      1998 6.40350E+01 4.01875E+00 0.00000E+00
 -1      1999 6.87045E+01 3.10313E+00 0.00000E+00
 -1      2000 6.72045E+01 3.10313E+00 0.00000E+00
 -1      2001 6.70350E+01 4.01875E+00 0.00000E+00
 -1      2002 7.17045E+01 3.10313E+00 0.00000E+00
 -1      2003 7.02045E+01 3.10313E+00 0.00000E+00
 -1      2004 7.00350E+01 4.01875E+00 0.00000E+00
 -1      2005 7.47045E+01 3.10313E+00 0.00000E+00
 -1      2006 7.32045E+01 3.10313E+00 0.00000E+00
 -1      2007 7.30350E+01 4.01875E+00 0.00000E+00
 -1      2008 7.77045E+01 3.10313E+00 0.00000E+00
 -1      2009 7.62045E+01 3.10313E+00 0.00000E+00
 -1      2010 7.60350E+01 4.01875E+00 0.00000E+00
 -1      2011 8.07045E+01 3.10313E+00 0.00000E+00
 -1      2012 7.92045E+01 3.10313E+00 0.00000E+00
 -1      2013 7.90350E+01 4.01875E+00 0.00000E+00
 -1      2014 8.37045E+01 3.10313E+00 0.00000E+00
 -1      2015 8.22045E+01 3.10313E+00 0.00000E+00
 -1      2016 8.20350E+01 4.01875E+00 0.00000E+00
 -1      2017 8.67045E+01 3.10313E+00 0.00000E+00
 -1      2018 8.52045E+01 3.10313E+00 0.00000E+00
 -1      2019 8.50350E+01 4.01875E+00 0.00000E+00
 -1      2020 8.97045E+01 3.10313E+00 0.00000E+00
 -1      2021 8.82045E+01 3.10313E+00 0.00000E+00
 -1      2022 8.80350E+01 4.01875E+00 0.00000E+00
 -1      2023 9.27045E+01 3.10313E+00 0.00000E+00
 -1      2024 9.12045E+01 3.10313E+00 0.00000E+00
 -1      2025 9.10350E+01 4.01875E+00 0.00000E+00
 -1      2026 9.57045E+01 3.10313E+00 0.00000E+00
 -1      2027 9.42045E+01 3.10313E+00 0.00000E+00
 -1      2028 9.40350E+01 4.01875E+00 0.00000E+00
 -1      2029 9.87045E+01 3.10313E+00 0.00000E+00
 -1      2030 9.72045E+01 3.10313E+00 0.00000E+00
 -1      2031 9.70350E+01 4.01875E+00 0.00000E+00
 -1      2032 1.01704E+02 3.10313E+00 0.00000E+00
 -1      2033 1.00204E+02 3.10313E+00 0.00000E+00
 -1      2034 1.00035E+02 4.01875E+00 0.00000E+00
 -1      2035 1.04704E+02 3.10313E+00 0.00000E+00
 -1      2036 1.03204E+02 3.10313E+00 0.00000E+00
 -1      2037 1.03035E+02 4.01875E+00 0.00000E+00
 -1      2038 1.07704E+02 3.10313E+00 0.00000E+00
 -1      2039 1.06204E+02 3.10313E+00 0.00000E+00
 -1      2040 1.06035E+02 4.01875E+00 0.00000E+00
 -1      2041 1.10704E+02 3.10313E+00 0.00000E+00
 -1      2042 1.09204E+02 3.10313E+00 0.00000E+00
 -1      2043 1.09035E+02 4.01875E+00 0.00000E+00
 -1      2044 1.13704E+02 3.10313E+00 0.00000E+00
 -1      2045 1.12204E+02 3.10313E+00 0.00000E+00
 -1      2046 1.12035E+02 4.01875E+00 0.00000E+00
 -1      2047 1.16704E+02 3.10313E+00 0.00000E+00
 -1      2048 1.15204E+02 3.10313E+00 0.00000E+00
 -1      2049 1.15035E+02 4.01875E+00 0.00000E+00
 -1      2050 1.19704E+02 3.10313E+00 0.00000E+00
 -1      2051 1.18204E+02 3.10313E+00 0.00000E+00
 -1      2052 1.18035E+02 4.01875E+00 0.00000E+00
 -1      2053 1.22704E+02 3.10313E+00 0.00000E+00
 -1      2054 1.21204E+02 3.10313E+00 0.00000E+00
 -1      2055 1.21035E+02 4.01875E+00 0.00000E+00
 -1      2056 1.25704E+02 3.10313E+00 0.00000E+00
 -1      2057 1.24204E+02 3.10313E+00 0.00000E+00
 -1      2058 1.24035E+02 4.01875E+00 0.00000E+00
 -1      2059 1.28704E+02 3.10313E+00 0.00000E+00
 -1      2060 1.27204E+02 3.10313E+00 0.00000E+00
 -1      2061 1.27035E+02 4.01875E+00 0.00000E+00
 -1      2062 1.31704E+02 3.10313E+00 0.00000E+00
 -1      2063 1.30204E+02 3.10313E+00 0.00000E+00
 -1      2064 1.30035E+02 4.01875E+00 0.00000E+00
 -1      2065 1.34704E+02 3.10313E+00 0.00000E+00
 -1      2066 1.33204E+02 3.10313E+00 0.00000E+00
 -1      2067 1.33035E+02 4.01875E+00 0.00000E+00
 -1      2068 1.37704E+02 3.10313E+00 0.00000E+00
 -1      2069 1.36204E+02 3.10313E+00 0.00000E+00
 -1      2070 1.36035E+02 4.01875E+00 0.00000E+00
 -1      2071 1.40704E+02 3.10313E+00 0.00000E+00
 -1      2072 1.39204E+02 3.10313E+00 0.00000E+00
 -1      2073 1.39035E+02 4.01875E+00 0.00000E+00
 -1      2074 1.43704E+02 3.10313E+00 0.00000E+00
 -1      2075 1.42204E+02 3.10313E+00 0.00000E+00
 -1      2076 1.42035E+02 4.01875E+00 0.00000E+00
 -1      2077 1.46171E+02 3.20469E+00 0.00000E+00
 -1      2078 1.44671E+02 3.20469E+00 0.00000E+00
 -1      2079 1.44502E+02 4.12031E+00 0.00000E+00
 -1      2080 1.46435E+02 4.32344E+00 0.00000E+00
 -1      2081 1.46103E+02 1.25375E+01 0.00000E+00
 -1      2082 1.46103E+02 1.10625E+01 0.00000E+00
 -1      2083 1.46103E+02 9.58750E+00 0.00000E+00
 -1      2084 1.46103E+02 8.11250E+00 0.00000E+00
 -1      2085 1.44804E+02 1.03250E+01 0.00000E+00
 -1      2086 1.46269E+02 6.95547E+00 0.00000E+00
 -1      2087 1.46269E+02 5.48047E+00 0.00000E+00
 -1      2088 1.45302E+02 5.37891E+00 0.00000E+00
 -1      2089 1.44970E+02 7.69297E+00 0.00000E+00
 -1      2090 1.46103E+02 1.54375E+01 0.00000E+00
 -1      2091 1.46103E+02 1.39875E+01 0.00000E+00
 -1      2092 1.44804E+02 1.32500E+01 0.00000E+00
 -1      2093 1.46103E+02 1.83875E+01 0.00000E+00
 -1      2094 1.46103E+02 1.69125E+01 0.00000E+00
 -1      2095 1.44804E+02 1.61750E+01 0.00000E+00
 -1      2096 1.46103E+02 2.13375E+01 0.00000E+00
 -1      2097 1.46103E+02 1.98625E+01 0.00000E+00
 -1      2098 1.44804E+02 1.91250E+01 0.00000E+00
 -1      2099 1.46103E+02 2.42875E+01 0.00000E+00
 -1      2100 1.46103E+02 2.28125E+01 0.00000E+00
 -1      2101 1.44804E+02 2.20750E+01 0.00000E+00
 -1      2102 1.46103E+02 2.72375E+01 0.00000E+00
 -1      2103 1.46103E+02 2.57625E+01 0.00000E+00
 -1      2104 1.44804E+02 2.50250E+01 0.00000E+00
 -1      2105 1.46103E+02 3.01875E+01 0.00000E+00
 -1      2106 1.46103E+02 2.87125E+01 0.00000E+00
 -1      2107 1.44804E+02 2.79750E+01 0.00000E+00
 -1      2108 1.46103E+02 3.30875E+01 0.00000E+00
 -1      2109 1.46103E+02 3.16375E+01 0.00000E+00
 -1      2110 1.44804E+02 3.09000E+01 0.00000E+00
 -1      2111 1.46103E+02 3.60375E+01 0.00000E+00
 -1      2112 1.46103E+02 3.45625E+01 0.00000E+00
 -1      2113 1.44804E+02 3.38250E+01 0.00000E+00
 -1      2114 1.46103E+02 3.89875E+01 0.00000E+00
 -1      2115 1.46103E+02 3.75125E+01 0.00000E+00
 -1      2116 1.44804E+02 3.67750E+01 0.00000E+00
 -1      2117 1.46103E+02 4.19375E+01 0.00000E+00
 -1      2118 1.46103E+02 4.04625E+01 0.00000E+00
 -1      2119 1.44804E+02 3.97250E+01 0.00000E+00
 -1      2120 2.80212E+01 2.71671E+01 0.00000E+00
 -1      2121 2.83014E+01 2.79829E+01 0.00000E+00
 -1      2122 2.89077E+01 3.07524E+01 0.00000E+00
 -1      2123 2.88761E+01 3.16107E+01 0.00000E+00
 -1      2124 2.85636E+01 2.88107E+01 0.00000E+00
 -1      2125 2.88258E+01 2.96385E+01 0.00000E+00
 -1      2126 2.91553E+01 2.81515E+01 0.00000E+00
 -1      2127 2.70471E+01 2.53856E+01 0.00000E+00
 -1      2128 2.75528E+01 2.61957E+01 0.00000E+00
 -1      2129 2.53786E+01 2.39732E+01 0.00000E+00
 -1      2130 2.61661E+01 2.44856E+01 0.00000E+00
 -1      2131 3.89700E+00 3.74625E+01 0.00000E+00
 -1      2132 3.89700E+00 3.89375E+01 0.00000E+00
 -1      2133 5.19600E+00 3.96750E+01 0.00000E+00
 -1      2134 5.19600E+00 3.67250E+01 0.00000E+00
 -1      2135 2.19274E+01 2.24815E+01 0.00000E+00
 -1      2136 2.27673E+01 2.27176E+01 0.00000E+00
 -1      2137 2.01942E+01 2.22995E+01 0.00000E+00
 -1      2138 2.10608E+01 2.23905E+01 0.00000E+00
 -1      2139 2.17015E+01 2.17233E+01 0.00000E+00
 -1      2140 1.81030E+01 2.23258E+01 0.00000E+00
 -1      2141 1.89816E+01 2.21882E+01 0.00000E+00
 -1      2142 1.63376E+01 2.30810E+01 0.00000E+00
 -1      2143 1.71146E+01 2.27412E+01 0.00000E+00
 -1      2144 1.47587E+01 2.38131E+01 0.00000E+00
 -1      2145 1.55482E+01 2.34470E+01 0.00000E+00
 -1      2146 1.56434E+01 2.26066E+01 0.00000E+00
 -1      2147 1.32398E+01 2.52530E+01 0.00000E+00
 -1      2148 1.37775E+01 2.45422E+01 0.00000E+00
 -1      2149 1.20075E+01 2.65490E+01 0.00000E+00
 -1      2150 1.26237E+01 2.59010E+01 0.00000E+00
 -1      2151 1.22754E+01 2.50788E+01 0.00000E+00
 -1      2152 1.14417E+01 2.85648E+01 0.00000E+00
 -1      2153 1.15983E+01 2.76882E+01 0.00000E+00
 -1      2154 1.08516E+01 3.03186E+01 0.00000E+00
 -1      2155 1.11466E+01 2.94417E+01 0.00000E+00
 -1      2156 1.05457E+01 2.88821E+01 0.00000E+00
 -1      2157 1.09572E+01 3.24278E+01 0.00000E+00
 -1      2158 1.07329E+01 3.15339E+01 0.00000E+00
 -1      2159 1.11636E+01 3.42615E+01 0.00000E+00
 -1      2160 1.10604E+01 3.33447E+01 0.00000E+00
 -1      2161 1.01165E+01 3.31064E+01 0.00000E+00
 -1      2162 1.24436E+01 3.60083E+01 0.00000E+00
 -1      2163 1.18625E+01 3.52926E+01 0.00000E+00
 -1      2164 1.34874E+01 3.74351E+01 0.00000E+00
 -1      2165 1.29655E+01 3.67217E+01 0.00000E+00
 -1      2166 1.21393E+01 3.67987E+01 0.00000E+00
 -1      2167 1.50472E+01 3.87070E+01 0.00000E+00
 -1      2168 1.42909E+01 3.82489E+01 0.00000E+00
 -1      2169 1.67066E+01 3.93837E+01 0.00000E+00
 -1      2170 1.59416E+01 3.90377E+01 0.00000E+00
 -1      2171 1.83690E+01 4.01037E+01 0.00000E+00
 -1      2172 1.75362E+01 3.98365E+01 0.00000E+00
 -1      2173 2.03525E+01 4.00789E+01 0.00000E+00
 -1      2174 1.95046E+01 4.01516E+01 0.00000E+00
 -1      2175 2.19603E+01 3.98478E+01 0.00000E+00
 -1      2176 2.11564E+01 3.99633E+01 0.00000E+00
 -1      2177 2.07914E+01 4.06871E+01 0.00000E+00
 -1      2178 2.37199E+01 3.92776E+01 0.00000E+00
 -1      2179 2.29976E+01 3.96168E+01 0.00000E+00
 -1      2180 2.51636E+01 3.85150E+01 0.00000E+00
 -1      2181 2.44418E+01 3.88963E+01 0.00000E+00
 -1      2182 2.43917E+01 3.97284E+01 0.00000E+00
 -1      2183 2.65409E+01 3.71560E+01 0.00000E+00
 -1      2184 2.60113E+01 3.77996E+01 0.00000E+00
 -1      2185 2.75151E+01 3.58134E+01 0.00000E+00
 -1      2186 2.70334E+01 3.64598E+01 0.00000E+00
 -1      2187 2.83771E+01 3.42567E+01 0.00000E+00
 -1      2188 2.80676E+01 3.50070E+01 0.00000E+00
 -1      2189 2.87276E+01 3.25378E+01 0.00000E+00
 -1      2190 2.85699E+01 3.33318E+01 0.00000E+00
 -1      2191 2.36749E+01 2.31438E+01 0.00000E+00
 -1      2192 2.44732E+01 2.35161E+01 0.00000E+00
 -1      2193 2.52889E+01 2.31237E+01 0.00000E+00
 -1      2194 6.42300E+00 4.57510E+01 0.00000E+00
 -1      2195 2.34758E+01 2.22405E+01 0.00000E+00
 -1      2196 7.17300E+00 4.44520E+01 0.00000E+00
 -1      2197 2.94995E+01 3.00931E+01 0.00000E+00
 -1      2198 2.84247E+01 2.63523E+01 0.00000E+00
 -1      2199 1.45665E+02 4.31193E+01 0.00000E+00
 -1      2200 2.94329E+01 3.21340E+01 0.00000E+00
 -1      2201 2.70753E+01 2.44808E+01 0.00000E+00
 -1      2202 2.90916E+01 3.39860E+01 0.00000E+00
 -1      2203 2.83464E+01 3.57174E+01 0.00000E+00
 -1      2204 2.59612E+01 3.86317E+01 0.00000E+00
 -1      2205 2.26325E+01 4.03406E+01 0.00000E+00
 -1      2206 1.88519E+01 4.07548E+01 0.00000E+00
 -1      2207 1.68866E+01 4.02540E+01 0.00000E+00
 -1      2208 1.34647E+01 3.83259E+01 0.00000E+00
 -1      2209 1.09185E+01 3.50543E+01 0.00000E+00
 -1      2210 1.01320E+01 3.09743E+01 0.00000E+00
 -1      2211 1.12500E+01 2.68660E+01 0.00000E+00
 -1      2212 1.38728E+01 2.37017E+01 0.00000E+00
 -1      2213 1.96222E+01 2.15211E+01 0.00000E+00
 -1      2214 1.74212E+01 2.18252E+01 0.00000E+00
 -1      2215 1.51626E+01 3.94705E+01 0.00000E+00
 -1      2216 2.73014E+01 3.72201E+01 0.00000E+00
 -1      2217 1.07850E+01 5.31775E+00 0.00000E+00
 -1      2218 9.28500E+00 5.31775E+00 0.00000E+00
 -1      2219 6.30491E+00 3.01250E+01 0.00000E+00
 -1      2220 6.30491E+00 3.15750E+01 0.00000E+00
 -1      2221 6.30491E+00 3.30375E+01 0.00000E+00
 -1      2222 6.30491E+00 3.45125E+01 0.00000E+00
 -1      2223 6.30491E+00 2.42875E+01 0.00000E+00
 -1      2224 6.30491E+00 2.57625E+01 0.00000E+00
 -1      2225 6.30491E+00 2.13375E+01 0.00000E+00
 -1      2226 6.30491E+00 2.28125E+01 0.00000E+00
 -1      2227 7.41382E+00 2.35500E+01 0.00000E+00
 -1      2228 6.30491E+00 1.83875E+01 0.00000E+00
 -1      2229 6.30491E+00 1.98625E+01 0.00000E+00
 -1      2230 7.41382E+00 2.06000E+01 0.00000E+00
 -1      2231 6.30491E+00 1.54375E+01 0.00000E+00
 -1      2232 6.30491E+00 1.69125E+01 0.00000E+00
 -1      2233 7.41382E+00 1.76500E+01 0.00000E+00
 -1      2234 6.30491E+00 1.24875E+01 0.00000E+00
 -1      2235 6.30491E+00 1.39625E+01 0.00000E+00
 -1      2236 7.41382E+00 1.47000E+01 0.00000E+00
 -1      2237 6.30491E+00 9.53750E+00 0.00000E+00
 -1      2238 6.30491E+00 1.10125E+01 0.00000E+00
 -1      2239 7.41382E+00 1.17500E+01 0.00000E+00
 -1      2240 1.37850E+01 5.31775E+00 0.00000E+00
 -1      2241 1.22850E+01 5.31775E+00 0.00000E+00
 -1      2242 1.15350E+01 6.61675E+00 0.00000E+00
 -1      2243 9.90000E+00 4.35275E+01 0.00000E+00
 -1      2244 1.14000E+01 4.35275E+01 0.00000E+00
 -1      2245 2.33508E+01 2.13270E+01 0.00000E+00
 -1      2246 2.42585E+01 2.17532E+01 0.00000E+00
 -1      2247 1.29000E+01 4.35275E+01 0.00000E+00
 -1      2248 1.44000E+01 4.35275E+01 0.00000E+00
 -1      2249 1.21500E+01 4.22510E+01 0.00000E+00
 -1      2250 1.89000E+01 4.37789E+01 0.00000E+00
 -1      2251 2.04000E+01 4.37789E+01 0.00000E+00
 -1      2252 2.19000E+01 4.36951E+01 0.00000E+00
 -1      2253 2.34000E+01 4.36951E+01 0.00000E+00
 -1      2254 2.49000E+01 4.36951E+01 0.00000E+00
 -1      2255 2.64000E+01 4.36951E+01 0.00000E+00
 -1      2256 2.41500E+01 4.25862E+01 0.00000E+00
 -1      2257 2.79000E+01 4.36113E+01 0.00000E+00
 -1      2258 2.94000E+01 4.36113E+01 0.00000E+00
 -1      2259 3.09000E+01 4.36113E+01 0.00000E+00
 -1      2260 3.24000E+01 4.36113E+01 0.00000E+00
 -1      2261 3.01500E+01 4.24186E+01 0.00000E+00
 -1      2262 3.39000E+01 4.36113E+01 0.00000E+00
 -1      2263 3.54000E+01 4.36113E+01 0.00000E+00
 -1      2264 3.31500E+01 4.24186E+01 0.00000E+00
 -1      2265 3.69000E+01 4.36113E+01 0.00000E+00
 -1      2266 3.84000E+01 4.36113E+01 0.00000E+00
 -1      2267 3.61500E+01 4.24186E+01 0.00000E+00
 -1      2268 3.99000E+01 4.36113E+01 0.00000E+00
 -1      2269 4.14000E+01 4.36113E+01 0.00000E+00
 -1      2270 3.91500E+01 4.24186E+01 0.00000E+00
 -1      2271 4.29000E+01 4.36113E+01 0.00000E+00
 -1      2272 4.44000E+01 4.36113E+01 0.00000E+00
 -1      2273 4.21500E+01 4.24186E+01 0.00000E+00
 -1      2274 4.59000E+01 4.36113E+01 0.00000E+00
 -1      2275 4.74000E+01 4.36113E+01 0.00000E+00
 -1      2276 4.51500E+01 4.24186E+01 0.00000E+00
 -1      2277 4.89000E+01 4.36113E+01 0.00000E+00
 -1      2278 5.04000E+01 4.36113E+01 0.00000E+00
 -1      2279 4.81500E+01 4.24186E+01 0.00000E+00
 -1      2280 5.19000E+01 4.36113E+01 0.00000E+00
 -1      2281 5.34000E+01 4.36113E+01 0.00000E+00
 -1      2282 5.11500E+01 4.24186E+01 0.00000E+00
 -1      2283 5.49000E+01 4.36113E+01 0.00000E+00
 -1      2284 5.64000E+01 4.36113E+01 0.00000E+00
 -1      2285 5.41500E+01 4.24186E+01 0.00000E+00
 -1      2286 5.79000E+01 4.36113E+01 0.00000E+00
 -1      2287 5.94000E+01 4.36113E+01 0.00000E+00
 -1      2288 5.71500E+01 4.24186E+01 0.00000E+00
 -1      2289 6.09000E+01 4.36113E+01 0.00000E+00
 -1      2290 6.24000E+01 4.36113E+01 0.00000E+00
 -1      2291 6.01500E+01 4.24186E+01 0.00000E+00
 -1      2292 6.39000E+01 4.36113E+01 0.00000E+00
 -1      2293 6.54000E+01 4.36113E+01 0.00000E+00
 -1      2294 6.31500E+01 4.24186E+01 0.00000E+00
 -1      2295 6.69000E+01 4.36113E+01 0.00000E+00
 -1      2296 6.84000E+01 4.36113E+01 0.00000E+00
 -1      2297 6.61500E+01 4.24186E+01 0.00000E+00
 -1      2298 6.99000E+01 4.36113E+01 0.00000E+00
 -1      2299 7.14000E+01 4.36113E+01 0.00000E+00
 -1      2300 6.91500E+01 4.24186E+01 0.00000E+00
 -1      2301 7.29000E+01 4.36113E+01 0.00000E+00
 -1      2302 7.44000E+01 4.36113E+01 0.00000E+00
 -1      2303 7.21500E+01 4.24186E+01 0.00000E+00
 -1      2304 7.59000E+01 4.36113E+01 0.00000E+00
 -1      2305 7.74000E+01 4.36113E+01 0.00000E+00
 -1      2306 7.51500E+01 4.24186E+01 0.00000E+00
 -1      2307 7.89000E+01 4.36113E+01 0.00000E+00
 -1      2308 8.04000E+01 4.36113E+01 0.00000E+00
 -1      2309 7.81500E+01 4.24186E+01 0.00000E+00
 -1      2310 8.19000E+01 4.36113E+01 0.00000E+00
 -1      2311 8.34000E+01 4.36113E+01 0.00000E+00
 -1      2312 8.11500E+01 4.24186E+01 0.00000E+00
 -1      2313 8.49000E+01 4.36113E+01 0.00000E+00
 -1      2314 8.64000E+01 4.36113E+01 0.00000E+00
 -1      2315 8.41500E+01 4.24186E+01 0.00000E+00
 -1      2316 8.79000E+01 4.36113E+01 0.00000E+00
 -1      2317 8.94000E+01 4.36113E+01 0.00000E+00
 -1      2318 8.71500E+01 4.24186E+01 0.00000E+00
 -1      2319 9.09000E+01 4.36113E+01 0.00000E+00
 -1      2320 9.24000E+01 4.36113E+01 0.00000E+00
 -1      2321 9.01500E+01 4.24186E+01 0.00000E+00
 -1      2322 9.39000E+01 4.36113E+01 0.00000E+00
 -1      2323 9.54000E+01 4.36113E+01 0.00000E+00
 -1      2324 9.31500E+01 4.24186E+01 0.00000E+00
 -1      2325 9.69000E+01 4.36113E+01 0.00000E+00
 -1      2326 9.84000E+01 4.36113E+01 0.00000E+00
 -1      2327 9.61500E+01 4.24186E+01 0.00000E+00
 -1      2328 9.99000E+01 4.36113E+01 0.00000E+00
 -1      2329 1.01400E+02 4.36113E+01 0.00000E+00
 -1      2330 9.91500E+01 4.24186E+01 0.00000E+00
 -1      2331 1.02900E+02 4.36113E+01 0.00000E+00
 -1      2332 1.04400E+02 4.36113E+01 0.00000E+00
 -1      2333 1.02150E+02 4.24186E+01 0.00000E+00
 -1      2334 1.05900E+02 4.36113E+01 0.00000E+00
 -1      2335 1.07400E+02 4.36113E+01 0.00000E+00
 -1      2336 1.05150E+02 4.24186E+01 0.00000E+00
 -1      2337 1.08900E+02 4.36113E+01 0.00000E+00
 -1      2338 1.10400E+02 4.36113E+01 0.00000E+00
 -1      2339 1.08150E+02 4.24186E+01 0.00000E+00
 -1      2340 1.11900E+02 4.36113E+01 0.00000E+00
 -1      2341 1.13400E+02 4.36113E+01 0.00000E+00
 -1      2342 1.11150E+02 4.24186E+01 0.00000E+00
 -1      2343 1.14900E+02 4.36113E+01 0.00000E+00
 -1      2344 1.16400E+02 4.36113E+01 0.00000E+00
 -1      2345 1.14150E+02 4.24186E+01 0.00000E+00
 -1      2346 1.17900E+02 4.36113E+01 0.00000E+00
 -1      2347 1.19400E+02 4.36113E+01 0.00000E+00
 -1      2348 1.17150E+02 4.24186E+01 0.00000E+00
 -1      2349 1.20900E+02 4.36113E+01 0.00000E+00
 -1      2350 1.22400E+02 4.36113E+01 0.00000E+00
 -1      2351 1.20150E+02 4.24186E+01 0.00000E+00
 -1      2352 1.23900E+02 4.36113E+01 0.00000E+00
 -1      2353 1.25400E+02 4.36113E+01 0.00000E+00
 -1      2354 1.23150E+02 4.24186E+01 0.00000E+00
 -1      2355 1.26900E+02 4.36113E+01 0.00000E+00
 -1      2356 1.28400E+02 4.36113E+01 0.00000E+00
 -1      2357 1.26150E+02 4.24186E+01 0.00000E+00
 -1      2358 1.29900E+02 4.36113E+01 0.00000E+00
 -1      2359 1.31400E+02 4.36113E+01 0.00000E+00
 -1      2360 1.29150E+02 4.24186E+01 0.00000E+00
 -1      2361 1.32900E+02 4.36113E+01 0.00000E+00
 -1      2362 1.34400E+02 4.36113E+01 0.00000E+00
 -1      2363 1.32150E+02 4.24186E+01 0.00000E+00
 -1      2364 1.35900E+02 4.36113E+01 0.00000E+00
 -1      2365 1.37400E+02 4.36113E+01 0.00000E+00
 -1      2366 1.35150E+02 4.24186E+01 0.00000E+00
 -1      2367 1.38900E+02 4.36113E+01 0.00000E+00
 -1      2368 1.40400E+02 4.36113E+01 0.00000E+00
 -1      2369 1.38150E+02 4.24186E+01 0.00000E+00
 -1      2370 2.96820E+01 2.75292E+01 0.00000E+00
 -1      2371 2.99442E+01 2.83571E+01 0.00000E+00
 -1      2372 1.97850E+01 5.31775E+00 0.00000E+00
 -1      2373 1.82850E+01 5.31775E+00 0.00000E+00
 -1      2374 2.27850E+01 5.31775E+00 0.00000E+00
 -1      2375 2.12850E+01 5.31775E+00 0.00000E+00
 -1      2376 2.05350E+01 6.61675E+00 0.00000E+00
 -1      2377 2.57850E+01 5.31775E+00 0.00000E+00
 -1      2378 2.42850E+01 5.31775E+00 0.00000E+00
 -1      2379 2.35350E+01 6.61675E+00 0.00000E+00
 -1      2380 2.87850E+01 5.31775E+00 0.00000E+00
 -1      2381 2.72850E+01 5.31775E+00 0.00000E+00
 -1      2382 2.65350E+01 6.61675E+00 0.00000E+00
 -1      2383 3.17850E+01 5.31775E+00 0.00000E+00
 -1      2384 3.02850E+01 5.31775E+00 0.00000E+00
 -1      2385 2.95350E+01 6.61675E+00 0.00000E+00
 -1      2386 3.47850E+01 5.31775E+00 0.00000E+00
 -1      2387 3.32850E+01 5.31775E+00 0.00000E+00
 -1      2388 3.25350E+01 6.61675E+00 0.00000E+00
 -1      2389 3.77850E+01 5.31775E+00 0.00000E+00
 -1      2390 3.62850E+01 5.31775E+00 0.00000E+00
 -1      2391 3.55350E+01 6.61675E+00 0.00000E+00
 -1      2392 4.07850E+01 5.31775E+00 0.00000E+00
 -1      2393 3.92850E+01 5.31775E+00 0.00000E+00
 -1      2394 3.85350E+01 6.61675E+00 0.00000E+00
 -1      2395 4.37850E+01 5.31775E+00 0.00000E+00
 -1      2396 4.22850E+01 5.31775E+00 0.00000E+00
 -1      2397 4.15350E+01 6.61675E+00 0.00000E+00
 -1      2398 4.67850E+01 5.31775E+00 0.00000E+00
 -1      2399 4.52850E+01 5.31775E+00 0.00000E+00
 -1      2400 4.45350E+01 6.61675E+00 0.00000E+00
 -1      2401 4.97850E+01 5.31775E+00 0.00000E+00
 -1      2402 4.82850E+01 5.31775E+00 0.00000E+00
 -1      2403 4.75350E+01 6.61675E+00 0.00000E+00
 -1      2404 5.27850E+01 5.31775E+00 0.00000E+00
 -1      2405 5.12850E+01 5.31775E+00 0.00000E+00
 -1      2406 5.05350E+01 6.61675E+00 0.00000E+00
 -1      2407 5.57850E+01 5.31775E+00 0.00000E+00
 -1      2408 5.42850E+01 5.31775E+00 0.00000E+00
 -1      2409 5.35350E+01 6.61675E+00 0.00000E+00
 -1      2410 5.87850E+01 5.31775E+00 0.00000E+00
 -1      2411 5.72850E+01 5.31775E+00 0.00000E+00
 -1      2412 5.65350E+01 6.61675E+00 0.00000E+00
 -1      2413 6.17850E+01 5.31775E+00 0.00000E+00
 -1      2414 6.02850E+01 5.31775E+00 0.00000E+00
 -1      2415 5.95350E+01 6.61675E+00 0.00000E+00
 -1      2416 6.47850E+01 5.31775E+00 0.00000E+00
 -1      2417 6.32850E+01 5.31775E+00 0.00000E+00
 -1      2418 6.25350E+01 6.61675E+00 0.00000E+00
 -1      2419 6.77850E+01 5.31775E+00 0.00000E+00
 -1      2420 6.62850E+01 5.31775E+00 0.00000E+00
 -1      2421 6.55350E+01 6.61675E+00 0.00000E+00
 -1      2422 7.07850E+01 5.31775E+00 0.00000E+00
 -1      2423 6.92850E+01 5.31775E+00 0.00000E+00
 -1      2424 6.85350E+01 6.61675E+00 0.00000E+00
 -1      2425 7.37850E+01 5.31775E+00 0.00000E+00
 -1      2426 7.22850E+01 5.31775E+00 0.00000E+00
 -1      2427 7.15350E+01 6.61675E+00 0.00000E+00
 -1      2428 7.67850E+01 5.31775E+00 0.00000E+00
 -1      2429 7.52850E+01 5.31775E+00 0.00000E+00
 -1      2430 7.45350E+01 6.61675E+00 0.00000E+00
 -1      2431 7.97850E+01 5.31775E+00 0.00000E+00
 -1      2432 7.82850E+01 5.31775E+00 0.00000E+00
 -1      2433 7.75350E+01 6.61675E+00 0.00000E+00
 -1      2434 8.27850E+01 5.31775E+00 0.00000E+00
 -1      2435 8.12850E+01 5.31775E+00 0.00000E+00
 -1      2436 8.05350E+01 6.61675E+00 0.00000E+00
 -1      2437 8.57850E+01 5.31775E+00 0.00000E+00
 -1      2438 8.42850E+01 5.31775E+00 0.00000E+00
 -1      2439 8.35350E+01 6.61675E+00 0.00000E+00
 -1      2440 8.87850E+01 5.31775E+00 0.00000E+00
 -1      2441 8.72850E+01 5.31775E+00 0.00000E+00
 -1      2442 8.65350E+01 6.61675E+00 0.00000E+00
 -1      2443 9.17850E+01 5.31775E+00 0.00000E+00
 -1      2444 9.02850E+01 5.31775E+00 0.00000E+00
 -1      2445 8.95350E+01 6.61675E+00 0.00000E+00
 -1      2446 9.47850E+01 5.31775E+00 0.00000E+00
 -1      2447 9.32850E+01 5.31775E+00 0.00000E+00
 -1      2448 9.25350E+01 6.61675E+00 0.00000E+00
 -1      2449 9.77850E+01 5.31775E+00 0.00000E+00
 -1      2450 9.62850E+01 5.31775E+00 0.00000E+00
 -1      2451 9.55350E+01 6.61675E+00 0.00000E+00
 -1      2452 1.00785E+02 5.31775E+00 0.00000E+00
 -1      2453 9.92850E+01 5.31775E+00 0.00000E+00
 -1      2454 9.85350E+01 6.61675E+00 0.00000E+00
 -1      2455 1.03785E+02 5.31775E+00 0.00000E+00
 -1      2456 1.02285E+02 5.31775E+00 0.00000E+00
 -1      2457 1.01535E+02 6.61675E+00 0.00000E+00
 -1      2458 1.06785E+02 5.31775E+00 0.00000E+00
 -1      2459 1.05285E+02 5.31775E+00 0.00000E+00
 -1      2460 1.04535E+02 6.61675E+00 0.00000E+00
 -1      2461 1.09785E+02 5.31775E+00 0.00000E+00
 -1      2462 1.08285E+02 5.31775E+00 0.00000E+00
 -1      2463 1.07535E+02 6.61675E+00 0.00000E+00
 -1      2464 1.12785E+02 5.31775E+00 0.00000E+00
 -1      2465 1.11285E+02 5.31775E+00 0.00000E+00
 -1      2466 1.10535E+02 6.61675E+00 0.00000E+00
 -1      2467 1.15785E+02 5.31775E+00 0.00000E+00
 -1      2468 1.14285E+02 5.31775E+00 0.00000E+00
 -1      2469 1.13535E+02 6.61675E+00 0.00000E+00
 -1      2470 1.18785E+02 5.31775E+00 0.00000E+00
 -1      2471 1.17285E+02 5.31775E+00 0.00000E+00
 -1      2472 1.16535E+02 6.61675E+00 0.00000E+00
 -1      2473 1.21785E+02 5.31775E+00 0.00000E+00
 -1      2474 1.20285E+02 5.31775E+00 0.00000E+00
 -1      2475 1.19535E+02 6.61675E+00 0.00000E+00
 -1      2476 1.24785E+02 5.31775E+00 0.00000E+00
 -1      2477 1.23285E+02 5.31775E+00 0.00000E+00
 -1      2478 1.22535E+02 6.61675E+00 0.00000E+00
 -1      2479 1.27785E+02 5.31775E+00 0.00000E+00
 -1      2480 1.26285E+02 5.31775E+00 0.00000E+00
 -1      2481 1.25535E+02 6.61675E+00 0.00000E+00
 -1      2482 1.30785E+02 5.31775E+00 0.00000E+00
 -1      2483 1.29285E+02 5.31775E+00 0.00000E+00
 -1      2484 1.28535E+02 6.61675E+00 0.00000E+00
 -1      2485 1.33785E+02 5.31775E+00 0.00000E+00
 -1      2486 1.32285E+02 5.31775E+00 0.00000E+00
 -1      2487 1.31535E+02 6.61675E+00 0.00000E+00
 -1      2488 1.36785E+02 5.31775E+00 0.00000E+00
 -1      2489 1.35285E+02 5.31775E+00 0.00000E+00
 -1      2490 1.34535E+02 6.61675E+00 0.00000E+00
 -1      2491 1.39785E+02 5.31775E+00 0.00000E+00
 -1      2492 1.38285E+02 5.31775E+00 0.00000E+00
 -1      2493 1.37535E+02 6.61675E+00 0.00000E+00
 -1      2494 1.42785E+02 5.31775E+00 0.00000E+00
 -1      2495 1.41285E+02 5.31775E+00 0.00000E+00
 -1      2496 1.40535E+02 6.61675E+00 0.00000E+00
 -1      2497 1.44336E+02 5.27734E+00 0.00000E+00
 -1      2498 1.43505E+02 1.69125E+01 0.00000E+00
 -1      2499 1.43505E+02 1.54375E+01 0.00000E+00
 -1      2500 1.43505E+02 1.98625E+01 0.00000E+00
 -1      2501 1.43505E+02 1.83875E+01 0.00000E+00
 -1      2502 1.42206E+02 1.76500E+01 0.00000E+00
 -1      2503 1.43505E+02 1.10625E+01 0.00000E+00
 -1      2504 1.43505E+02 9.58750E+00 0.00000E+00
 -1      2505 1.43505E+02 1.39750E+01 0.00000E+00
 -1      2506 1.43505E+02 1.25250E+01 0.00000E+00
 -1      2507 1.42206E+02 1.17875E+01 0.00000E+00
 -1      2508 1.42206E+02 1.47125E+01 0.00000E+00
 -1      2509 1.43505E+02 2.28125E+01 0.00000E+00
 -1      2510 1.43505E+02 2.13375E+01 0.00000E+00
 -1      2511 1.42206E+02 2.06000E+01 0.00000E+00
 -1      2512 1.43505E+02 2.57625E+01 0.00000E+00
 -1      2513 1.43505E+02 2.42875E+01 0.00000E+00
 -1      2514 1.42206E+02 2.35500E+01 0.00000E+00
 -1      2515 1.43505E+02 2.87125E+01 0.00000E+00
 -1      2516 1.43505E+02 2.72375E+01 0.00000E+00
 -1      2517 1.42206E+02 2.65000E+01 0.00000E+00
 -1      2518 1.43505E+02 3.16125E+01 0.00000E+00
 -1      2519 1.43505E+02 3.01625E+01 0.00000E+00
 -1      2520 1.42206E+02 2.94250E+01 0.00000E+00
 -1      2521 1.43505E+02 3.45625E+01 0.00000E+00
 -1      2522 1.43505E+02 3.30875E+01 0.00000E+00
 -1      2523 1.42206E+02 3.23500E+01 0.00000E+00
 -1      2524 1.43505E+02 3.75125E+01 0.00000E+00
 -1      2525 1.43505E+02 3.60375E+01 0.00000E+00
 -1      2526 1.42206E+02 3.53000E+01 0.00000E+00
 -1      2527 1.43505E+02 4.04625E+01 0.00000E+00
 -1      2528 1.43505E+02 3.89875E+01 0.00000E+00
 -1      2529 1.42206E+02 3.82500E+01 0.00000E+00
 -1      2530 1.44321E+02 4.30606E+01 0.00000E+00
 -1      2531 3.02298E+01 3.17863E+01 0.00000E+00
 -1      2532 3.00813E+01 3.27133E+01 0.00000E+00
 -1      2533 1.67850E+01 5.31775E+00 0.00000E+00
 -1      2534 1.52850E+01 5.31775E+00 0.00000E+00
 -1      2535 1.75350E+01 6.61675E+00 0.00000E+00
 -1      2536 2.88875E+01 2.55305E+01 0.00000E+00
 -1      2537 2.93559E+01 2.65019E+01 0.00000E+00
 -1      2538 2.98886E+01 3.36383E+01 0.00000E+00
 -1      2539 2.96958E+01 3.45632E+01 0.00000E+00
 -1      2540 3.06855E+01 3.32905E+01 0.00000E+00
 -1      2541 6.55950E+00 4.29003E+01 0.00000E+00
 -1      2542 8.53650E+00 4.32523E+01 0.00000E+00
 -1      2543 9.28650E+00 4.19758E+01 0.00000E+00
 -1      2544 6.55950E+00 4.14253E+01 0.00000E+00
 -1      2545 2.72477E+01 2.34310E+01 0.00000E+00
 -1      2546 2.81287E+01 2.43310E+01 0.00000E+00
 -1      2547 1.98187E+01 4.17782E+01 0.00000E+00
 -1      2548 1.86831E+01 4.17303E+01 0.00000E+00
 -1      2549 1.90942E+01 2.06115E+01 0.00000E+00
 -1      2550 2.03069E+01 2.07227E+01 0.00000E+00
 -1      2551 6.30491E+00 2.72125E+01 0.00000E+00
 -1      2552 6.30491E+00 2.86625E+01 0.00000E+00
 -1      2553 7.41382E+00 2.64750E+01 0.00000E+00
 -1      2554 1.66110E+01 2.12809E+01 0.00000E+00
 -1      2555 1.75994E+01 2.08655E+01 0.00000E+00
 -1      2556 2.11735E+01 2.08137E+01 0.00000E+00
 -1      2557 2.20401E+01 2.09047E+01 0.00000E+00
 -1      2558 2.06455E+01 1.99041E+01 0.00000E+00
 -1      2559 1.53269E+01 4.04009E+01 0.00000E+00
 -1      2560 1.44325E+01 4.00701E+01 0.00000E+00
 -1      2561 1.50322E+01 2.20130E+01 0.00000E+00
 -1      2562 1.58216E+01 2.16469E+01 0.00000E+00
 -1      2563 1.59998E+01 2.06873E+01 0.00000E+00
 -1      2564 1.28707E+01 2.33780E+01 0.00000E+00
 -1      2565 1.38519E+01 2.26489E+01 0.00000E+00
 -1      2566 1.13762E+01 2.48407E+01 0.00000E+00
 -1      2567 1.19924E+01 2.41927E+01 0.00000E+00
 -1      2568 1.03566E+01 2.71881E+01 0.00000E+00
 -1      2569 1.07658E+01 2.60489E+01 0.00000E+00
 -1      2570 9.66481E+00 2.90738E+01 0.00000E+00
 -1      2571 9.95985E+00 2.81969E+01 0.00000E+00
 -1      2572 9.39917E+00 3.36513E+01 0.00000E+00
 -1      2573 9.29596E+00 3.27345E+01 0.00000E+00
 -1      2574 1.05928E+01 3.60275E+01 0.00000E+00
 -1      2575 9.89393E+00 3.49964E+01 0.00000E+00
 -1      2576 1.17758E+01 3.76123E+01 0.00000E+00
 -1      2577 1.12539E+01 3.68989E+01 0.00000E+00
 -1      2578 2.81793E+01 3.73189E+01 0.00000E+00
 -1      2579 2.76868E+01 3.80151E+01 0.00000E+00
 -1      2580 1.32562E+01 3.93353E+01 0.00000E+00
 -1      2581 1.24527E+01 3.85215E+01 0.00000E+00
 -1      2582 1.69862E+01 4.13066E+01 0.00000E+00
 -1      2583 1.61566E+01 4.08537E+01 0.00000E+00
 -1      2584 1.54265E+01 4.14534E+01 0.00000E+00
 -1      2585 2.31599E+01 4.13479E+01 0.00000E+00
 -1      2586 2.21226E+01 4.15789E+01 0.00000E+00
 -1      2587 2.51532E+01 4.02960E+01 0.00000E+00
 -1      2588 2.44313E+01 4.06773E+01 0.00000E+00
 -1      2589 2.69254E+01 3.89143E+01 0.00000E+00
 -1      2590 2.60777E+01 3.96297E+01 0.00000E+00
 -1      2591 2.92843E+01 3.57060E+01 0.00000E+00
 -1      2592 2.87318E+01 3.65124E+01 0.00000E+00
 -1      2593 2.91172E+01 3.73074E+01 0.00000E+00
 -1      2594 3.02719E+01 2.94763E+01 0.00000E+00
 -1      2595 3.03539E+01 3.05902E+01 0.00000E+00
 -1      2596 8.07525E+00 5.12606E+00 0.00000E+00
 -1      2597 6.57525E+00 5.12606E+00 0.00000E+00
 -1      2598 6.40575E+00 6.04169E+00 0.00000E+00
 -1      2599 8.82525E+00 6.42506E+00 0.00000E+00
 -1      2600 2.51639E+01 2.22102E+01 0.00000E+00
 -1      2601 2.60694E+01 2.26673E+01 0.00000E+00
 -1      2602 2.50390E+01 2.12967E+01 0.00000E+00
 -1      2603 7.41382E+00 3.23125E+01 0.00000E+00
 -1      2604 7.42706E+00 3.49973E+01 0.00000E+00
 -1      2605 6.31815E+00 3.57348E+01 0.00000E+00
 -1      2606 1.74739E+01 1.95229E+01 0.00000E+00
 -1      2607 1.82840E+01 2.00672E+01 0.00000E+00
 -1      2608 1.89687E+01 1.92688E+01 0.00000E+00
 -1      2609 1.45350E+01 6.61675E+00 0.00000E+00
 -1      2610 6.40575E+00 7.51669E+00 0.00000E+00
 -1      2611 3.10023E+01 3.11695E+01 0.00000E+00
 -1      2612 1.15673E+01 3.86217E+01 0.00000E+00
 -1      2613 6.31815E+00 3.72098E+01 0.00000E+00
 -1      2614 2.71227E+01 2.25175E+01 0.00000E+00
 -1      2615 1.02292E+01 3.68410E+01 0.00000E+00
 -1      2616 9.07342E+00 3.46245E+01 0.00000E+00
 -1      2617 1.72031E+01 4.33551E+01 0.00000E+00
 -1      2618 1.79531E+01 4.23300E+01 0.00000E+00
 -1      2619 1.57031E+01 4.33551E+01 0.00000E+00
 -1      2620 3.07986E+01 2.88541E+01 0.00000E+00
 -1      2621 2.71500E+01 4.25024E+01 0.00000E+00
 -1      2622 3.01448E+01 2.67075E+01 0.00000E+00
 -1      2623 1.43586E+02 6.57634E+00 0.00000E+00
 -1      2624 1.43419E+02 7.73338E+00 0.00000E+00
 -1      2625 9.36962E+00 2.99192E+01 0.00000E+00
 -1      2626 8.78377E+00 2.92340E+01 0.00000E+00
 -1      2627 1.42758E+02 4.35929E+01 0.00000E+00
 -1      2628 1.43241E+02 4.17323E+01 0.00000E+00
 -1      2629 1.41942E+02 4.09948E+01 0.00000E+00
 -1      2630 1.41414E+02 4.35342E+01 0.00000E+00
 -1      2631 9.47569E+00 2.73798E+01 0.00000E+00
 -1      2632 1.04828E+01 2.51629E+01 0.00000E+00
 -1      2633 7.51466E+00 8.25419E+00 0.00000E+00
 -1      2634 2.90599E+01 2.44806E+01 0.00000E+00
 -1      2635 1.40301E+01 2.16892E+01 0.00000E+00
 -1      2636 3.00812E+01 3.53582E+01 0.00000E+00
 -1      2637 2.78033E+01 3.90131E+01 0.00000E+00
 -1      2638 2.61174E+01 4.05786E+01 0.00000E+00
 -1      2639 1.34205E+01 4.02657E+01 0.00000E+00
 -1      2640 2.11500E+01 4.26700E+01 0.00000E+00
 -1      2641 2.28228E+01 2.04174E+01 0.00000E+00
 -1      2642 7.41382E+00 2.93875E+01 0.00000E+00
 -1      2643 6.43882E+00 3.85800E+01 0.00000E+00
 -1      2644 6.43882E+00 4.00550E+01 0.00000E+00
 -1      2645 7.80232E+00 4.03303E+01 0.00000E+00
 -1      2646 7.56097E+00 3.75899E+01 0.00000E+00
 -1      2647 1.19715E+01 2.31399E+01 0.00000E+00
 -1      2648 9.25093E+00 3.11345E+01 0.00000E+00
 -1      2649 2.06226E+01 4.16627E+01 0.00000E+00
 -1      2650 1.40664E+02 4.23416E+01 0.00000E+00
 -1      2651 1.42120E+02 8.47087E+00 0.00000E+00
 -1      2652 8.52273E+00 2.28125E+01 0.00000E+00
 -1      2653 8.52273E+00 2.42875E+01 0.00000E+00
 -1      2654 8.71282E+00 1.39625E+01 0.00000E+00
 -1      2655 8.71282E+00 1.54375E+01 0.00000E+00
 -1      2656 8.71282E+00 1.10125E+01 0.00000E+00
 -1      2657 8.71282E+00 1.24875E+01 0.00000E+00
 -1      2658 1.00118E+01 1.32250E+01 0.00000E+00
 -1      2659 1.22850E+01 7.91575E+00 0.00000E+00
 -1      2660 1.07850E+01 7.91575E+00 0.00000E+00
 -1      2661 2.94759E+01 2.33776E+01 0.00000E+00
 -1      2662 3.02348E+01 2.45771E+01 0.00000E+00
 -1      2663 2.49727E+01 2.03027E+01 0.00000E+00
 -1      2664 2.58781E+01 2.07597E+01 0.00000E+00
 -1      2665 1.49531E+01 4.20786E+01 0.00000E+00
 -1      2666 3.14578E+01 2.80535E+01 0.00000E+00
 -1      2667 3.17855E+01 2.91727E+01 0.00000E+00
 -1      2668 3.07991E+01 2.59343E+01 0.00000E+00
 -1      2669 3.11252E+01 2.69617E+01 0.00000E+00
 -1      2670 1.40706E+02 1.03250E+01 0.00000E+00
 -1      2671 1.40620E+02 8.47087E+00 0.00000E+00
 -1      2672 1.39120E+02 8.47087E+00 0.00000E+00
 -1      2673 3.24000E+01 4.12259E+01 0.00000E+00
 -1      2674 3.39000E+01 4.12259E+01 0.00000E+00
 -1      2675 3.54000E+01 4.12259E+01 0.00000E+00
 -1      2676 3.69000E+01 4.12259E+01 0.00000E+00
 -1      2677 3.46500E+01 4.00332E+01 0.00000E+00
 -1      2678 3.84000E+01 4.12259E+01 0.00000E+00
 -1      2679 3.99000E+01 4.12259E+01 0.00000E+00
 -1      2680 3.76500E+01 4.00332E+01 0.00000E+00
 -1      2681 4.14000E+01 4.12259E+01 0.00000E+00
 -1      2682 4.29000E+01 4.12259E+01 0.00000E+00
 -1      2683 4.06500E+01 4.00332E+01 0.00000E+00
 -1      2684 4.44000E+01 4.12259E+01 0.00000E+00
 -1      2685 4.59000E+01 4.12259E+01 0.00000E+00
 -1      2686 4.36500E+01 4.00332E+01 0.00000E+00
 -1      2687 4.74000E+01 4.12259E+01 0.00000E+00
 -1      2688 4.89000E+01 4.12259E+01 0.00000E+00
 -1      2689 4.66500E+01 4.00332E+01 0.00000E+00
 -1      2690 5.04000E+01 4.12259E+01 0.00000E+00
 -1      2691 5.19000E+01 4.12259E+01 0.00000E+00
 -1      2692 4.96500E+01 4.00332E+01 0.00000E+00
 -1      2693 5.34000E+01 4.12259E+01 0.00000E+00
 -1      2694 5.49000E+01 4.12259E+01 0.00000E+00
 -1      2695 5.26500E+01 4.00332E+01 0.00000E+00
 -1      2696 5.64000E+01 4.12259E+01 0.00000E+00
 -1      2697 5.79000E+01 4.12259E+01 0.00000E+00
 -1      2698 5.56500E+01 4.00332E+01 0.00000E+00
 -1      2699 5.94000E+01 4.12259E+01 0.00000E+00
 -1      2700 6.09000E+01 4.12259E+01 0.00000E+00
 -1      2701 5.86500E+01 4.00332E+01 0.00000E+00
 -1      2702 6.24000E+01 4.12259E+01 0.00000E+00
 -1      2703 6.39000E+01 4.12259E+01 0.00000E+00
 -1      2704 6.16500E+01 4.00332E+01 0.00000E+00
 -1      2705 6.54000E+01 4.12259E+01 0.00000E+00
 -1      2706 6.69000E+01 4.12259E+01 0.00000E+00
 -1      2707 6.46500E+01 4.00332E+01 0.00000E+00
 -1      2708 6.84000E+01 4.12259E+01 0.00000E+00
 -1      2709 6.99000E+01 4.12259E+01 0.00000E+00
 -1      2710 6.76500E+01 4.00332E+01 0.00000E+00
 -1      2711 7.14000E+01 4.12259E+01 0.00000E+00
 -1      2712 7.29000E+01 4.12259E+01 0.00000E+00
 -1      2713 7.06500E+01 4.00332E+01 0.00000E+00
 -1      2714 7.44000E+01 4.12259E+01 0.00000E+00
 -1      2715 7.59000E+01 4.12259E+01 0.00000E+00
 -1      2716 7.36500E+01 4.00332E+01 0.00000E+00
 -1      2717 7.74000E+01 4.12259E+01 0.00000E+00
 -1      2718 7.89000E+01 4.12259E+01 0.00000E+00
 -1      2719 7.66500E+01 4.00332E+01 0.00000E+00
 -1      2720 8.04000E+01 4.12259E+01 0.00000E+00
 -1      2721 8.19000E+01 4.12259E+01 0.00000E+00
 -1      2722 7.96500E+01 4.00332E+01 0.00000E+00
 -1      2723 8.34000E+01 4.12259E+01 0.00000E+00
 -1      2724 8.49000E+01 4.12259E+01 0.00000E+00
 -1      2725 8.26500E+01 4.00332E+01 0.00000E+00
 -1      2726 8.64000E+01 4.12259E+01 0.00000E+00
 -1      2727 8.79000E+01 4.12259E+01 0.00000E+00
 -1      2728 8.56500E+01 4.00332E+01 0.00000E+00
 -1      2729 8.94000E+01 4.12259E+01 0.00000E+00
 -1      2730 9.09000E+01 4.12259E+01 0.00000E+00
 -1      2731 8.86500E+01 4.00332E+01 0.00000E+00
 -1      2732 9.24000E+01 4.12259E+01 0.00000E+00
 -1      2733 9.39000E+01 4.12259E+01 0.00000E+00
 -1      2734 9.16500E+01 4.00332E+01 0.00000E+00
 -1      2735 9.54000E+01 4.12259E+01 0.00000E+00
 -1      2736 9.69000E+01 4.12259E+01 0.00000E+00
 -1      2737 9.46500E+01 4.00332E+01 0.00000E+00
 -1      2738 9.84000E+01 4.12259E+01 0.00000E+00
 -1      2739 9.99000E+01 4.12259E+01 0.00000E+00
 -1      2740 9.76500E+01 4.00332E+01 0.00000E+00
 -1      2741 1.01400E+02 4.12259E+01 0.00000E+00
 -1      2742 1.02900E+02 4.12259E+01 0.00000E+00
 -1      2743 1.00650E+02 4.00332E+01 0.00000E+00
 -1      2744 1.04400E+02 4.12259E+01 0.00000E+00
 -1      2745 1.05900E+02 4.12259E+01 0.00000E+00
 -1      2746 1.03650E+02 4.00332E+01 0.00000E+00
 -1      2747 1.07400E+02 4.12259E+01 0.00000E+00
 -1      2748 1.08900E+02 4.12259E+01 0.00000E+00
 -1      2749 1.06650E+02 4.00332E+01 0.00000E+00
 -1      2750 1.10400E+02 4.12259E+01 0.00000E+00
 -1      2751 1.11900E+02 4.12259E+01 0.00000E+00
 -1      2752 1.09650E+02 4.00332E+01 0.00000E+00
 -1      2753 1.13400E+02 4.12259E+01 0.00000E+00
 -1      2754 1.14900E+02 4.12259E+01 0.00000E+00
 -1      2755 1.12650E+02 4.00332E+01 0.00000E+00
 -1      2756 1.16400E+02 4.12259E+01 0.00000E+00
 -1      2757 1.17900E+02 4.12259E+01 0.00000E+00
 -1      2758 1.15650E+02 4.00332E+01 0.00000E+00
 -1      2759 1.19400E+02 4.12259E+01 0.00000E+00
 -1      2760 1.20900E+02 4.12259E+01 0.00000E+00
 -1      2761 1.18650E+02 4.00332E+01 0.00000E+00
 -1      2762 1.22400E+02 4.12259E+01 0.00000E+00
 -1      2763 1.23900E+02 4.12259E+01 0.00000E+00
 -1      2764 1.21650E+02 4.00332E+01 0.00000E+00
 -1      2765 1.25400E+02 4.12259E+01 0.00000E+00
 -1      2766 1.26900E+02 4.12259E+01 0.00000E+00
 -1      2767 1.24650E+02 4.00332E+01 0.00000E+00
 -1      2768 1.28400E+02 4.12259E+01 0.00000E+00
 -1      2769 1.29900E+02 4.12259E+01 0.00000E+00
 -1      2770 1.27650E+02 4.00332E+01 0.00000E+00
 -1      2771 1.31400E+02 4.12259E+01 0.00000E+00
 -1      2772 1.32900E+02 4.12259E+01 0.00000E+00
 -1      2773 1.30650E+02 4.00332E+01 0.00000E+00
 -1      2774 1.34400E+02 4.12259E+01 0.00000E+00
 -1      2775 1.35900E+02 4.12259E+01 0.00000E+00
 -1      2776 1.33650E+02 4.00332E+01 0.00000E+00
 -1      2777 1.37400E+02 4.12259E+01 0.00000E+00
 -1      2778 1.38900E+02 4.12259E+01 0.00000E+00
 -1      2779 1.36650E+02 4.00332E+01 0.00000E+00
 -1      2780 2.12850E+01 7.91575E+00 0.00000E+00
 -1      2781 1.97850E+01 7.91575E+00 0.00000E+00
 -1      2782 3.02850E+01 7.91575E+00 0.00000E+00
 -1      2783 2.87850E+01 7.91575E+00 0.00000E+00
 -1      2784 3.32850E+01 7.91575E+00 0.00000E+00
 -1      2785 3.17850E+01 7.91575E+00 0.00000E+00
 -1      2786 3.10350E+01 9.21475E+00 0.00000E+00
 -1      2787 3.62850E+01 7.91575E+00 0.00000E+00
 -1      2788 3.47850E+01 7.91575E+00 0.00000E+00
 -1      2789 3.40350E+01 9.21475E+00 0.00000E+00
 -1      2790 3.92850E+01 7.91575E+00 0.00000E+00
 -1      2791 3.77850E+01 7.91575E+00 0.00000E+00
 -1      2792 3.70350E+01 9.21475E+00 0.00000E+00
 -1      2793 4.22850E+01 7.91575E+00 0.00000E+00
 -1      2794 4.07850E+01 7.91575E+00 0.00000E+00
 -1      2795 4.00350E+01 9.21475E+00 0.00000E+00
 -1      2796 4.52850E+01 7.91575E+00 0.00000E+00
 -1      2797 4.37850E+01 7.91575E+00 0.00000E+00
 -1      2798 4.30350E+01 9.21475E+00 0.00000E+00
 -1      2799 4.82850E+01 7.91575E+00 0.00000E+00
 -1      2800 4.67850E+01 7.91575E+00 0.00000E+00
 -1      2801 4.60350E+01 9.21475E+00 0.00000E+00
 -1      2802 5.12850E+01 7.91575E+00 0.00000E+00
 -1      2803 4.97850E+01 7.91575E+00 0.00000E+00
 -1      2804 4.90350E+01 9.21475E+00 0.00000E+00
 -1      2805 5.42850E+01 7.91575E+00 0.00000E+00
 -1      2806 5.27850E+01 7.91575E+00 0.00000E+00
 -1      2807 5.20350E+01 9.21475E+00 0.00000E+00
 -1      2808 5.72850E+01 7.91575E+00 0.00000E+00
 -1      2809 5.57850E+01 7.91575E+00 0.00000E+00
 -1      2810 5.50350E+01 9.21475E+00 0.00000E+00
 -1      2811 6.02850E+01 7.91575E+00 0.00000E+00
 -1      2812 5.87850E+01 7.91575E+00 0.00000E+00
 -1      2813 5.80350E+01 9.21475E+00 0.00000E+00
 -1      2814 6.32850E+01 7.91575E+00 0.00000E+00
 -1      2815 6.17850E+01 7.91575E+00 0.00000E+00
 -1      2816 6.10350E+01 9.21475E+00 0.00000E+00
 -1      2817 6.62850E+01 7.91575E+00 0.00000E+00
 -1      2818 6.47850E+01 7.91575E+00 0.00000E+00
 -1      2819 6.40350E+01 9.21475E+00 0.00000E+00
 -1      2820 6.92850E+01 7.91575E+00 0.00000E+00
 -1      2821 6.77850E+01 7.91575E+00 0.00000E+00
 -1      2822 6.70350E+01 9.21475E+00 0.00000E+00
 -1      2823 7.22850E+01 7.91575E+00 0.00000E+00
 -1      2824 7.07850E+01 7.91575E+00 0.00000E+00
 -1      2825 7.00350E+01 9.21475E+00 0.00000E+00
 -1      2826 7.52850E+01 7.91575E+00 0.00000E+00
 -1      2827 7.37850E+01 7.91575E+00 0.00000E+00
 -1      2828 7.30350E+01 9.21475E+00 0.00000E+00
 -1      2829 7.82850E+01 7.91575E+00 0.00000E+00
 -1      2830 7.67850E+01 7.91575E+00 0.00000E+00
 -1      2831 7.60350E+01 9.21475E+00 0.00000E+00
 -1      2832 8.12850E+01 7.91575E+00 0.00000E+00
 -1      2833 7.97850E+01 7.91575E+00 0.00000E+00
 -1      2834 7.90350E+01 9.21475E+00 0.00000E+00
 -1      2835 8.42850E+01 7.91575E+00 0.00000E+00
 -1      2836 8.27850E+01 7.91575E+00 0.00000E+00
 -1      2837 8.20350E+01 9.21475E+00 0.00000E+00
 -1      2838 8.72850E+01 7.91575E+00 0.00000E+00
 -1      2839 8.57850E+01 7.91575E+00 0.00000E+00
 -1      2840 8.50350E+01 9.21475E+00 0.00000E+00
 -1      2841 9.02850E+01 7.91575E+00 0.00000E+00
 -1      2842 8.87850E+01 7.91575E+00 0.00000E+00
 -1      2843 8.80350E+01 9.21475E+00 0.00000E+00
 -1      2844 9.32850E+01 7.91575E+00 0.00000E+00
 -1      2845 9.17850E+01 7.91575E+00 0.00000E+00
 -1      2846 9.10350E+01 9.21475E+00 0.00000E+00
 -1      2847 9.62850E+01 7.91575E+00 0.00000E+00
 -1      2848 9.47850E+01 7.91575E+00 0.00000E+00
 -1      2849 9.40350E+01 9.21475E+00 0.00000E+00
 -1      2850 9.92850E+01 7.91575E+00 0.00000E+00
 -1      2851 9.77850E+01 7.91575E+00 0.00000E+00
 -1      2852 9.70350E+01 9.21475E+00 0.00000E+00
 -1      2853 1.02285E+02 7.91575E+00 0.00000E+00
 -1      2854 1.00785E+02 7.91575E+00 0.00000E+00
 -1      2855 1.00035E+02 9.21475E+00 0.00000E+00
 -1      2856 1.05285E+02 7.91575E+00 0.00000E+00
 -1      2857 1.03785E+02 7.91575E+00 0.00000E+00
 -1      2858 1.03035E+02 9.21475E+00 0.00000E+00
 -1      2859 1.08285E+02 7.91575E+00 0.00000E+00
 -1      2860 1.06785E+02 7.91575E+00 0.00000E+00
 -1      2861 1.06035E+02 9.21475E+00 0.00000E+00
 -1      2862 1.11285E+02 7.91575E+00 0.00000E+00
 -1      2863 1.09785E+02 7.91575E+00 0.00000E+00
 -1      2864 1.09035E+02 9.21475E+00 0.00000E+00
 -1      2865 1.14285E+02 7.91575E+00 0.00000E+00
 -1      2866 1.12785E+02 7.91575E+00 0.00000E+00
 -1      2867 1.12035E+02 9.21475E+00 0.00000E+00
 -1      2868 1.17285E+02 7.91575E+00 0.00000E+00
 -1      2869 1.15785E+02 7.91575E+00 0.00000E+00
 -1      2870 1.15035E+02 9.21475E+00 0.00000E+00
 -1      2871 1.20285E+02 7.91575E+00 0.00000E+00
 -1      2872 1.18785E+02 7.91575E+00 0.00000E+00
 -1      2873 1.18035E+02 9.21475E+00 0.00000E+00
 -1      2874 1.23285E+02 7.91575E+00 0.00000E+00
 -1      2875 1.21785E+02 7.91575E+00 0.00000E+00
 -1      2876 1.21035E+02 9.21475E+00 0.00000E+00
 -1      2877 1.26285E+02 7.91575E+00 0.00000E+00
 -1      2878 1.24785E+02 7.91575E+00 0.00000E+00
 -1      2879 1.24035E+02 9.21475E+00 0.00000E+00
 -1      2880 1.29285E+02 7.91575E+00 0.00000E+00
 -1      2881 1.27785E+02 7.91575E+00 0.00000E+00
 -1      2882 1.27035E+02 9.21475E+00 0.00000E+00
 -1      2883 1.32285E+02 7.91575E+00 0.00000E+00
 -1      2884 1.30785E+02 7.91575E+00 0.00000E+00
 -1      2885 1.30035E+02 9.21475E+00 0.00000E+00
 -1      2886 1.35285E+02 7.91575E+00 0.00000E+00
 -1      2887 1.33785E+02 7.91575E+00 0.00000E+00
 -1      2888 1.33035E+02 9.21475E+00 0.00000E+00
 -1      2889 1.37953E+02 8.19331E+00 0.00000E+00
 -1      2890 1.36453E+02 8.19331E+00 0.00000E+00
 -1      2891 1.35703E+02 9.49231E+00 0.00000E+00
 -1      2892 1.38038E+02 1.00474E+01 0.00000E+00
 -1      2893 1.40907E+02 2.42875E+01 0.00000E+00
 -1      2894 1.40907E+02 2.28125E+01 0.00000E+00
 -1      2895 1.40907E+02 1.83875E+01 0.00000E+00
 -1      2896 1.40907E+02 1.69125E+01 0.00000E+00
 -1      2897 1.40907E+02 2.72375E+01 0.00000E+00
 -1      2898 1.40907E+02 2.57625E+01 0.00000E+00
 -1      2899 1.39608E+02 2.50250E+01 0.00000E+00
 -1      2900 1.40907E+02 2.13375E+01 0.00000E+00
 -1      2901 1.40907E+02 1.98625E+01 0.00000E+00
 -1      2902 1.39608E+02 1.91250E+01 0.00000E+00
 -1      2903 1.39608E+02 2.20750E+01 0.00000E+00
 -1      2904 3.17034E+01 3.30201E+01 0.00000E+00
 -1      2905 3.15107E+01 3.39450E+01 0.00000E+00
 -1      2906 1.40928E+02 4.10718E+01 0.00000E+00
 -1      2907 1.41192E+02 3.98021E+01 0.00000E+00
 -1      2908 1.39914E+02 4.11489E+01 0.00000E+00
 -1      2909 1.40907E+02 3.01375E+01 0.00000E+00
 -1      2910 1.40907E+02 2.86875E+01 0.00000E+00
 -1      2911 1.39608E+02 2.79500E+01 0.00000E+00
 -1      2912 1.40907E+02 3.30875E+01 0.00000E+00
 -1      2913 1.40907E+02 3.16125E+01 0.00000E+00
 -1      2914 1.39608E+02 3.08750E+01 0.00000E+00
 -1      2915 1.40907E+02 3.60375E+01 0.00000E+00
 -1      2916 1.40907E+02 3.45625E+01 0.00000E+00
 -1      2917 1.39608E+02 3.38250E+01 0.00000E+00
 -1      2918 1.41049E+02 3.86573E+01 0.00000E+00
 -1      2919 1.41049E+02 3.71823E+01 0.00000E+00
 -1      2920 1.39751E+02 3.64448E+01 0.00000E+00
 -1      2921 1.40036E+02 3.87343E+01 0.00000E+00
 -1      2922 1.82850E+01 7.91575E+00 0.00000E+00
 -1      2923 1.67850E+01 7.91575E+00 0.00000E+00
 -1      2924 1.90350E+01 9.21475E+00 0.00000E+00
 -1      2925 1.11507E+01 3.96385E+01 0.00000E+00
 -1      2926 1.04737E+01 3.87293E+01 0.00000E+00
 -1      2927 2.03105E+01 1.89224E+01 0.00000E+00
 -1      2928 2.11771E+01 1.90134E+01 0.00000E+00
 -1      2929 8.72441E+00 8.44588E+00 0.00000E+00
 -1      2930 2.89664E+01 3.92259E+01 0.00000E+00
 -1      2931 2.82050E+01 4.01251E+01 0.00000E+00
 -1      2932 1.52850E+01 7.91575E+00 0.00000E+00
 -1      2933 1.37850E+01 7.91575E+00 0.00000E+00
 -1      2934 1.30350E+01 9.21475E+00 0.00000E+00
 -1      2935 1.60350E+01 9.21475E+00 0.00000E+00
 -1      2936 2.72850E+01 7.91575E+00 0.00000E+00
 -1      2937 2.57850E+01 7.91575E+00 0.00000E+00
 -1      2938 2.80350E+01 9.21475E+00 0.00000E+00
 -1      2939 2.42850E+01 7.91575E+00 0.00000E+00
 -1      2940 2.27850E+01 7.91575E+00 0.00000E+00
 -1      2941 2.50350E+01 9.21475E+00 0.00000E+00
 -1      2942 2.90090E+01 4.13783E+01 0.00000E+00
 -1      2943 3.05090E+01 4.13783E+01 0.00000E+00
 -1      2944 8.71282E+00 1.69125E+01 0.00000E+00
 -1      2945 8.71282E+00 1.83875E+01 0.00000E+00
 -1      2946 1.00118E+01 1.61750E+01 0.00000E+00
 -1      2947 3.10991E+01 3.50878E+01 0.00000E+00
 -1      2948 3.06876E+01 3.62305E+01 0.00000E+00
 -1      2949 3.21170E+01 3.48173E+01 0.00000E+00
 -1      2950 1.29935E+01 2.11784E+01 0.00000E+00
 -1      2951 1.41738E+01 2.05426E+01 0.00000E+00
 -1      2952 8.71282E+00 1.98625E+01 0.00000E+00
 -1      2953 8.71282E+00 2.13375E+01 0.00000E+00
 -1      2954 1.00118E+01 1.91250E+01 0.00000E+00
 -1      2955 2.69999E+01 2.14160E+01 0.00000E+00
 -1      2956 2.81783E+01 2.21797E+01 0.00000E+00
 -1      2957 1.52443E+01 2.00924E+01 0.00000E+00
 -1      2958 1.60337E+01 1.97263E+01 0.00000E+00
 -1      2959 8.53362E+00 3.16795E+01 0.00000E+00
 -1      2960 9.75204E+00 2.49605E+01 0.00000E+00
 -1      2961 1.03624E+01 2.37523E+01 0.00000E+00
 -1      2962 1.12369E+01 2.28080E+01 0.00000E+00
 -1      2963 1.21152E+01 2.19932E+01 0.00000E+00
 -1      2964 1.22588E+01 2.08466E+01 0.00000E+00
 -1      2965 1.41234E+01 4.16258E+01 0.00000E+00
 -1      2966 2.39214E+01 4.19155E+01 0.00000E+00
 -1      2967 1.32252E+01 4.09995E+01 0.00000E+00
 -1      2968 1.20489E+01 4.02647E+01 0.00000E+00
 -1      2969 1.09554E+01 4.03723E+01 0.00000E+00
 -1      2970 1.27518E+01 4.16248E+01 0.00000E+00
 -1      2971 2.24819E+01 1.92305E+01 0.00000E+00
 -1      2972 2.37925E+01 1.96528E+01 0.00000E+00
 -1      2973 3.00663E+01 3.73652E+01 0.00000E+00
 -1      2974 2.95139E+01 3.81716E+01 0.00000E+00
 -1      2975 3.19516E+01 3.06279E+01 0.00000E+00
 -1      2976 3.18275E+01 3.18240E+01 0.00000E+00
 -1      2977 3.26527E+01 3.24785E+01 0.00000E+00
 -1      2978 8.49100E+00 3.48723E+01 0.00000E+00
 -1      2979 8.50424E+00 3.60946E+01 0.00000E+00
 -1      2980 1.95003E+01 1.83781E+01 0.00000E+00
 -1      2981 3.10843E+01 3.70947E+01 0.00000E+00
 -1      2982 3.12152E+01 2.48313E+01 0.00000E+00
 -1      2983 2.69337E+01 2.04219E+01 0.00000E+00
 -1      2984 2.54214E+01 4.19155E+01 0.00000E+00
 -1      2985 7.99624E+00 3.20647E+01 0.00000E+00
 -1      2986 7.99624E+00 3.35272E+01 0.00000E+00
 -1      2987 3.21121E+01 2.72803E+01 0.00000E+00
 -1      2988 8.99008E+00 4.07233E+01 0.00000E+00
 -1      2989 1.03536E+01 4.09985E+01 0.00000E+00
 -1      2990 3.26107E+01 2.98273E+01 0.00000E+00
 -1      2991 1.42077E+01 1.95816E+01 0.00000E+00
 -1      2992 3.12590E+01 4.01856E+01 0.00000E+00
 -1      2993 1.39164E+02 3.99562E+01 0.00000E+00
 -1      2994 2.20350E+01 9.21475E+00 0.00000E+00
 -1      2995 8.24639E+00 2.81568E+01 0.00000E+00
 -1      2996 8.64313E+00 2.71480E+01 0.00000E+00
 -1      2997 7.95120E+00 2.90022E+01 0.00000E+00
 -1      2998 8.64313E+00 2.56980E+01 0.00000E+00
 -1      2999 8.62492E+00 3.74648E+01 0.00000E+00
 -1      3000 8.86940E+00 3.93531E+01 0.00000E+00
 -1      3001 7.95120E+00 3.04647E+01 0.00000E+00
 -1      3002 9.28598E+00 3.83363E+01 0.00000E+00
 -1      3003 2.46317E+01 1.91158E+01 0.00000E+00
 -1      3004 2.93532E+01 2.22761E+01 0.00000E+00
 -1      3005 3.05281E+01 2.23726E+01 0.00000E+00
 -1      3006 2.92304E+01 2.11747E+01 0.00000E+00
 -1      3007 1.39608E+02 1.61875E+01 0.00000E+00
 -1      3008 1.40907E+02 1.54500E+01 0.00000E+00
 -1      3009 1.40907E+02 1.39875E+01 0.00000E+00
 -1      3010 9.47441E+00 9.74487E+00 0.00000E+00
 -1      3011 1.07734E+01 1.04824E+01 0.00000E+00
 -1      3012 1.40706E+02 1.17875E+01 0.00000E+00
 -1      3013 2.21469E+01 1.82488E+01 0.00000E+00
 -1      3014 2.99155E+01 3.92837E+01 0.00000E+00
 -1      3015 2.78460E+01 4.11654E+01 0.00000E+00
 -1      3016 1.05061E+01 2.26057E+01 0.00000E+00
 -1      3017 1.12518E+01 4.16248E+01 0.00000E+00
 -1      3018 2.63460E+01 4.12492E+01 0.00000E+00
 -1      3019 9.39718E+00 2.18682E+01 0.00000E+00
 -1      3020 1.59629E+01 1.83330E+01 0.00000E+00
 -1      3021 1.67184E+01 1.89279E+01 0.00000E+00
 -1      3022 1.74030E+01 1.81296E+01 0.00000E+00
 -1      3023 1.85732E+01 1.75588E+01 0.00000E+00
 -1      3024 1.99150E+01 1.72123E+01 0.00000E+00
 -1      3025 1.13108E+01 1.24875E+01 0.00000E+00
 -1      3026 1.13108E+01 1.39625E+01 0.00000E+00
 -1      3027 2.87850E+01 1.05138E+01 0.00000E+00
 -1      3028 2.72850E+01 1.05138E+01 0.00000E+00
 -1      3029 3.28463E+01 2.64602E+01 0.00000E+00
 -1      3030 3.31788E+01 2.75519E+01 0.00000E+00
 -1      3031 3.36294E+01 2.89740E+01 0.00000E+00
 -1      3032 3.37955E+01 3.04291E+01 0.00000E+00
 -1      3033 3.69000E+01 3.87567E+01 0.00000E+00
 -1      3034 3.84000E+01 3.87567E+01 0.00000E+00
 -1      3035 3.99000E+01 3.87567E+01 0.00000E+00
 -1      3036 4.14000E+01 3.87567E+01 0.00000E+00
 -1      3037 3.91500E+01 3.74803E+01 0.00000E+00
 -1      3038 4.29000E+01 3.87567E+01 0.00000E+00
 -1      3039 4.44000E+01 3.87567E+01 0.00000E+00
 -1      3040 4.21500E+01 3.74803E+01 0.00000E+00
 -1      3041 4.59000E+01 3.87567E+01 0.00000E+00
 -1      3042 4.74000E+01 3.87567E+01 0.00000E+00
 -1      3043 4.51500E+01 3.74803E+01 0.00000E+00
 -1      3044 4.89000E+01 3.87567E+01 0.00000E+00
 -1      3045 5.04000E+01 3.87567E+01 0.00000E+00
 -1      3046 4.81500E+01 3.74803E+01 0.00000E+00
 -1      3047 5.19000E+01 3.87567E+01 0.00000E+00
 -1      3048 5.34000E+01 3.87567E+01 0.00000E+00
 -1      3049 5.11500E+01 3.74803E+01 0.00000E+00
 -1      3050 5.49000E+01 3.87567E+01 0.00000E+00
 -1      3051 5.64000E+01 3.87567E+01 0.00000E+00
 -1      3052 5.41500E+01 3.74803E+01 0.00000E+00
 -1      3053 5.79000E+01 3.87567E+01 0.00000E+00
 -1      3054 5.94000E+01 3.87567E+01 0.00000E+00
 -1      3055 5.71500E+01 3.74803E+01 0.00000E+00
 -1      3056 6.09000E+01 3.87567E+01 0.00000E+00
 -1      3057 6.24000E+01 3.87567E+01 0.00000E+00
 -1      3058 6.01500E+01 3.74803E+01 0.00000E+00
 -1      3059 6.39000E+01 3.87567E+01 0.00000E+00
 -1      3060 6.54000E+01 3.87567E+01 0.00000E+00
 -1      3061 6.31500E+01 3.74803E+01 0.00000E+00
 -1      3062 6.69000E+01 3.87567E+01 0.00000E+00
 -1      3063 6.84000E+01 3.87567E+01 0.00000E+00
 -1      3064 6.61500E+01 3.74803E+01 0.00000E+00
 -1      3065 6.99000E+01 3.87567E+01 0.00000E+00
 -1      3066 7.14000E+01 3.87567E+01 0.00000E+00
 -1      3067 6.91500E+01 3.74803E+01 0.00000E+00
 -1      3068 7.29000E+01 3.87567E+01 0.00000E+00
 -1      3069 7.44000E+01 3.87567E+01 0.00000E+00
 -1      3070 7.21500E+01 3.74803E+01 0.00000E+00
 -1      3071 7.59000E+01 3.87567E+01 0.00000E+00
 -1      3072 7.74000E+01 3.87567E+01 0.00000E+00
 -1      3073 7.51500E+01 3.74803E+01 0.00000E+00
 -1      3074 7.89000E+01 3.87567E+01 0.00000E+00
 -1      3075 8.04000E+01 3.87567E+01 0.00000E+00
 -1      3076 7.81500E+01 3.74803E+01 0.00000E+00
 -1      3077 8.19000E+01 3.87567E+01 0.00000E+00
 -1      3078 8.34000E+01 3.87567E+01 0.00000E+00
 -1      3079 8.11500E+01 3.74803E+01 0.00000E+00
 -1      3080 8.49000E+01 3.87567E+01 0.00000E+00
 -1      3081 8.64000E+01 3.87567E+01 0.00000E+00
 -1      3082 8.41500E+01 3.74803E+01 0.00000E+00
 -1      3083 8.79000E+01 3.87567E+01 0.00000E+00
 -1      3084 8.94000E+01 3.87567E+01 0.00000E+00
 -1      3085 8.71500E+01 3.74803E+01 0.00000E+00
 -1      3086 9.09000E+01 3.87567E+01 0.00000E+00
 -1      3087 9.24000E+01 3.87567E+01 0.00000E+00
 -1      3088 9.01500E+01 3.74803E+01 0.00000E+00
 -1      3089 9.39000E+01 3.87567E+01 0.00000E+00
 -1      3090 9.54000E+01 3.87567E+01 0.00000E+00
 -1      3091 9.31500E+01 3.74803E+01 0.00000E+00
 -1      3092 9.69000E+01 3.87567E+01 0.00000E+00
 -1      3093 9.84000E+01 3.87567E+01 0.00000E+00
 -1      3094 9.61500E+01 3.74803E+01 0.00000E+00
 -1      3095 9.99000E+01 3.87567E+01 0.00000E+00
 -1      3096 1.01400E+02 3.87567E+01 0.00000E+00
 -1      3097 9.91500E+01 3.74803E+01 0.00000E+00
 -1      3098 1.02900E+02 3.87567E+01 0.00000E+00
 -1      3099 1.04400E+02 3.87567E+01 0.00000E+00
 -1      3100 1.02150E+02 3.74803E+01 0.00000E+00
 -1      3101 1.05900E+02 3.87567E+01 0.00000E+00
 -1      3102 1.07400E+02 3.87567E+01 0.00000E+00
 -1      3103 1.05150E+02 3.74803E+01 0.00000E+00
 -1      3104 1.08900E+02 3.87567E+01 0.00000E+00
 -1      3105 1.10400E+02 3.87567E+01 0.00000E+00
 -1      3106 1.08150E+02 3.74803E+01 0.00000E+00
 -1      3107 1.11900E+02 3.87567E+01 0.00000E+00
 -1      3108 1.13400E+02 3.87567E+01 0.00000E+00
 -1      3109 1.11150E+02 3.74803E+01 0.00000E+00
 -1      3110 1.14900E+02 3.87567E+01 0.00000E+00
 -1      3111 1.16400E+02 3.87567E+01 0.00000E+00
 -1      3112 1.14150E+02 3.74803E+01 0.00000E+00
 -1      3113 1.17900E+02 3.87567E+01 0.00000E+00
 -1      3114 1.19400E+02 3.87567E+01 0.00000E+00
 -1      3115 1.17150E+02 3.74803E+01 0.00000E+00
 -1      3116 1.20900E+02 3.87567E+01 0.00000E+00
 -1      3117 1.22400E+02 3.87567E+01 0.00000E+00
 -1      3118 1.20150E+02 3.74803E+01 0.00000E+00
 -1      3119 1.23900E+02 3.87567E+01 0.00000E+00
 -1      3120 1.25400E+02 3.87567E+01 0.00000E+00
 -1      3121 1.23150E+02 3.74803E+01 0.00000E+00
 -1      3122 1.26900E+02 3.87567E+01 0.00000E+00
 -1      3123 1.28400E+02 3.87567E+01 0.00000E+00
 -1      3124 1.26150E+02 3.74803E+01 0.00000E+00
 -1      3125 1.29900E+02 3.87567E+01 0.00000E+00
 -1      3126 1.31400E+02 3.87567E+01 0.00000E+00
 -1      3127 1.29150E+02 3.74803E+01 0.00000E+00
 -1      3128 1.32900E+02 3.87567E+01 0.00000E+00
 -1      3129 1.34400E+02 3.87567E+01 0.00000E+00
 -1      3130 1.32150E+02 3.74803E+01 0.00000E+00
 -1      3131 1.35900E+02 3.87567E+01 0.00000E+00
 -1      3132 1.37400E+02 3.87567E+01 0.00000E+00
 -1      3133 1.35150E+02 3.74803E+01 0.00000E+00
 -1      3134 3.17850E+01 1.05138E+01 0.00000E+00
 -1      3135 3.02850E+01 1.05138E+01 0.00000E+00
 -1      3136 2.95350E+01 1.18127E+01 0.00000E+00
 -1      3137 4.07850E+01 1.05138E+01 0.00000E+00
 -1      3138 3.92850E+01 1.05138E+01 0.00000E+00
 -1      3139 4.37850E+01 1.05138E+01 0.00000E+00
 -1      3140 4.22850E+01 1.05138E+01 0.00000E+00
 -1      3141 4.15350E+01 1.18127E+01 0.00000E+00
 -1      3142 4.67850E+01 1.05138E+01 0.00000E+00
 -1      3143 4.52850E+01 1.05138E+01 0.00000E+00
 -1      3144 4.45350E+01 1.18127E+01 0.00000E+00
 -1      3145 4.97850E+01 1.05138E+01 0.00000E+00
 -1      3146 4.82850E+01 1.05138E+01 0.00000E+00
 -1      3147 4.75350E+01 1.18127E+01 0.00000E+00
 -1      3148 5.27850E+01 1.05138E+01 0.00000E+00
 -1      3149 5.12850E+01 1.05138E+01 0.00000E+00
 -1      3150 5.05350E+01 1.18127E+01 0.00000E+00
 -1      3151 5.57850E+01 1.05138E+01 0.00000E+00
 -1      3152 5.42850E+01 1.05138E+01 0.00000E+00
 -1      3153 5.35350E+01 1.18127E+01 0.00000E+00
 -1      3154 5.87850E+01 1.05138E+01 0.00000E+00
 -1      3155 5.72850E+01 1.05138E+01 0.00000E+00
 -1      3156 5.65350E+01 1.18127E+01 0.00000E+00
 -1      3157 6.17850E+01 1.05138E+01 0.00000E+00
 -1      3158 6.02850E+01 1.05138E+01 0.00000E+00
 -1      3159 5.95350E+01 1.18127E+01 0.00000E+00
 -1      3160 6.47850E+01 1.05138E+01 0.00000E+00
 -1      3161 6.32850E+01 1.05138E+01 0.00000E+00
 -1      3162 6.25350E+01 1.18127E+01 0.00000E+00
 -1      3163 6.77850E+01 1.05138E+01 0.00000E+00
 -1      3164 6.62850E+01 1.05138E+01 0.00000E+00
 -1      3165 6.55350E+01 1.18127E+01 0.00000E+00
 -1      3166 7.07850E+01 1.05138E+01 0.00000E+00
 -1      3167 6.92850E+01 1.05138E+01 0.00000E+00
 -1      3168 6.85350E+01 1.18127E+01 0.00000E+00
 -1      3169 7.37850E+01 1.05138E+01 0.00000E+00
 -1      3170 7.22850E+01 1.05138E+01 0.00000E+00
 -1      3171 7.15350E+01 1.18127E+01 0.00000E+00
 -1      3172 7.67850E+01 1.05138E+01 0.00000E+00
 -1      3173 7.52850E+01 1.05138E+01 0.00000E+00
 -1      3174 7.45350E+01 1.18127E+01 0.00000E+00
 -1      3175 7.97850E+01 1.05138E+01 0.00000E+00
 -1      3176 7.82850E+01 1.05138E+01 0.00000E+00
 -1      3177 7.75350E+01 1.18127E+01 0.00000E+00
 -1      3178 8.27850E+01 1.05138E+01 0.00000E+00
 -1      3179 8.12850E+01 1.05138E+01 0.00000E+00
 -1      3180 8.05350E+01 1.18127E+01 0.00000E+00
 -1      3181 8.57850E+01 1.05138E+01 0.00000E+00
 -1      3182 8.42850E+01 1.05138E+01 0.00000E+00
 -1      3183 8.35350E+01 1.18127E+01 0.00000E+00
 -1      3184 8.87850E+01 1.05138E+01 0.00000E+00
 -1      3185 8.72850E+01 1.05138E+01 0.00000E+00
 -1      3186 8.65350E+01 1.18127E+01 0.00000E+00
 -1      3187 9.17850E+01 1.05138E+01 0.00000E+00
 -1      3188 9.02850E+01 1.05138E+01 0.00000E+00
 -1      3189 8.95350E+01 1.18127E+01 0.00000E+00
 -1      3190 9.47850E+01 1.05138E+01 0.00000E+00
 -1      3191 9.32850E+01 1.05138E+01 0.00000E+00
 -1      3192 9.25350E+01 1.18127E+01 0.00000E+00
 -1      3193 9.77850E+01 1.05138E+01 0.00000E+00
 -1      3194 9.62850E+01 1.05138E+01 0.00000E+00
 -1      3195 9.55350E+01 1.18127E+01 0.00000E+00
 -1      3196 1.00785E+02 1.05138E+01 0.00000E+00
 -1      3197 9.92850E+01 1.05138E+01 0.00000E+00
 -1      3198 9.85350E+01 1.18127E+01 0.00000E+00
 -1      3199 1.03785E+02 1.05138E+01 0.00000E+00
 -1      3200 1.02285E+02 1.05138E+01 0.00000E+00
 -1      3201 1.01535E+02 1.18127E+01 0.00000E+00
 -1      3202 1.06785E+02 1.05138E+01 0.00000E+00
 -1      3203 1.05285E+02 1.05138E+01 0.00000E+00
 -1      3204 1.04535E+02 1.18127E+01 0.00000E+00
 -1      3205 1.09785E+02 1.05138E+01 0.00000E+00
 -1      3206 1.08285E+02 1.05138E+01 0.00000E+00
 -1      3207 1.07535E+02 1.18127E+01 0.00000E+00
 -1      3208 1.12785E+02 1.05138E+01 0.00000E+00
 -1      3209 1.11285E+02 1.05138E+01 0.00000E+00
 -1      3210 1.10535E+02 1.18127E+01 0.00000E+00
 -1      3211 1.15785E+02 1.05138E+01 0.00000E+00
 -1      3212 1.14285E+02 1.05138E+01 0.00000E+00
 -1      3213 1.13535E+02 1.18127E+01 0.00000E+00
 -1      3214 1.18785E+02 1.05138E+01 0.00000E+00
 -1      3215 1.17285E+02 1.05138E+01 0.00000E+00
 -1      3216 1.16535E+02 1.18127E+01 0.00000E+00
 -1      3217 1.21785E+02 1.05138E+01 0.00000E+00
 -1      3218 1.20285E+02 1.05138E+01 0.00000E+00
 -1      3219 1.19535E+02 1.18127E+01 0.00000E+00
 -1      3220 1.24785E+02 1.05138E+01 0.00000E+00
 -1      3221 1.23285E+02 1.05138E+01 0.00000E+00
 -1      3222 1.22535E+02 1.18127E+01 0.00000E+00
 -1      3223 1.27785E+02 1.05138E+01 0.00000E+00
 -1      3224 1.26285E+02 1.05138E+01 0.00000E+00
 -1      3225 1.25535E+02 1.18127E+01 0.00000E+00
 -1      3226 1.30785E+02 1.05138E+01 0.00000E+00
 -1      3227 1.29285E+02 1.05138E+01 0.00000E+00
 -1      3228 1.28535E+02 1.18127E+01 0.00000E+00
 -1      3229 1.33785E+02 1.05138E+01 0.00000E+00
 -1      3230 1.32285E+02 1.05138E+01 0.00000E+00
 -1      3231 1.31535E+02 1.18127E+01 0.00000E+00
 -1      3232 1.39407E+02 1.25250E+01 0.00000E+00
 -1      3233 1.38309E+02 2.57625E+01 0.00000E+00
 -1      3234 1.38309E+02 2.42875E+01 0.00000E+00
 -1      3235 2.27850E+01 1.05138E+01 0.00000E+00
 -1      3236 2.12850E+01 1.05138E+01 0.00000E+00
 -1      3237 1.39021E+02 3.88114E+01 0.00000E+00
 -1      3238 1.38309E+02 3.45625E+01 0.00000E+00
 -1      3239 1.38309E+02 3.30875E+01 0.00000E+00
 -1      3240 1.97850E+01 1.05138E+01 0.00000E+00
 -1      3241 1.82850E+01 1.05138E+01 0.00000E+00
 -1      3242 2.05350E+01 1.18127E+01 0.00000E+00
 -1      3243 3.21471E+01 3.69393E+01 0.00000E+00
 -1      3244 3.15258E+01 3.80739E+01 0.00000E+00
 -1      3245 2.16903E+01 1.69638E+01 0.00000E+00
 -1      3246 2.29950E+01 1.71809E+01 0.00000E+00
 -1      3247 3.47850E+01 1.05138E+01 0.00000E+00
 -1      3248 3.32850E+01 1.05138E+01 0.00000E+00
 -1      3249 3.25350E+01 1.18127E+01 0.00000E+00
 -1      3250 3.18065E+01 3.91313E+01 0.00000E+00
 -1      3251 1.38309E+02 2.86625E+01 0.00000E+00
 -1      3252 1.38309E+02 2.72125E+01 0.00000E+00
 -1      3253 1.37010E+02 2.64750E+01 0.00000E+00
 -1      3254 1.13108E+01 1.54375E+01 0.00000E+00
 -1      3255 1.13108E+01 1.69125E+01 0.00000E+00
 -1      3256 1.26098E+01 1.47000E+01 0.00000E+00
 -1      3257 1.20724E+01 1.12199E+01 0.00000E+00
 -1      3258 2.57850E+01 1.05138E+01 0.00000E+00
 -1      3259 2.42850E+01 1.05138E+01 0.00000E+00
 -1      3260 2.65350E+01 1.18127E+01 0.00000E+00
 -1      3261 1.38309E+02 3.16125E+01 0.00000E+00
 -1      3262 1.38309E+02 3.01375E+01 0.00000E+00
 -1      3263 1.37010E+02 2.94000E+01 0.00000E+00
 -1      3264 1.37010E+02 3.23500E+01 0.00000E+00
 -1      3265 3.32085E+01 3.45649E+01 0.00000E+00
 -1      3266 3.27969E+01 3.57077E+01 0.00000E+00
 -1      3267 3.77850E+01 1.05138E+01 0.00000E+00
 -1      3268 3.62850E+01 1.05138E+01 0.00000E+00
 -1      3269 3.55350E+01 1.18127E+01 0.00000E+00
 -1      3270 3.85350E+01 1.18127E+01 0.00000E+00
 -1      3271 2.45765E+01 1.78195E+01 0.00000E+00
 -1      3272 2.57567E+01 1.84693E+01 0.00000E+00
 -1      3273 1.32750E+01 1.88617E+01 0.00000E+00
 -1      3274 1.43456E+01 1.84115E+01 0.00000E+00
 -1      3275 2.68785E+01 1.91256E+01 0.00000E+00
 -1      3276 2.80003E+01 1.97819E+01 0.00000E+00
 -1      3277 2.68233E+01 1.78293E+01 0.00000E+00
 -1      3278 3.18022E+01 2.37913E+01 0.00000E+00
 -1      3279 3.23666E+01 2.51486E+01 0.00000E+00
 -1      3280 3.39010E+01 3.20035E+01 0.00000E+00
 -1      3281 3.37770E+01 3.31996E+01 0.00000E+00
 -1      3282 3.28693E+01 3.89758E+01 0.00000E+00
 -1      3283 1.35724E+01 1.12199E+01 0.00000E+00
 -1      3284 3.50192E+01 3.77442E+01 0.00000E+00
 -1      3285 3.57692E+01 3.64678E+01 0.00000E+00
 -1      3286 3.43636E+01 2.81538E+01 0.00000E+00
 -1      3287 3.49198E+01 3.11502E+01 0.00000E+00
 -1      3288 1.78177E+01 1.69638E+01 0.00000E+00
 -1      3289 1.38271E+02 3.75349E+01 0.00000E+00
 -1      3290 1.38440E+02 1.44474E+01 0.00000E+00
 -1      3291 1.38239E+02 1.22474E+01 0.00000E+00
 -1      3292 1.37072E+02 1.19699E+01 0.00000E+00
 -1      3293 2.35350E+01 1.18127E+01 0.00000E+00
 -1      3294 1.35904E+02 1.16923E+01 0.00000E+00
 -1      3295 1.34736E+02 1.14148E+01 0.00000E+00
 -1      3296 1.36105E+02 1.38923E+01 0.00000E+00
 -1      3297 1.38309E+02 1.98625E+01 0.00000E+00
 -1      3298 1.38309E+02 1.83875E+01 0.00000E+00
 -1      3299 2.91753E+01 1.98784E+01 0.00000E+00
 -1      3300 3.03502E+01 1.99748E+01 0.00000E+00
 -1      3301 2.91201E+01 1.85821E+01 0.00000E+00
 -1      3302 1.38375E+02 1.71487E+01 0.00000E+00
 -1      3303 1.38375E+02 1.56862E+01 0.00000E+00
 -1      3304 1.37207E+02 1.54087E+01 0.00000E+00
 -1      3305 1.37076E+02 1.78862E+01 0.00000E+00
 -1      3306 1.38309E+02 2.28125E+01 0.00000E+00
 -1      3307 1.38309E+02 2.13375E+01 0.00000E+00
 -1      3308 1.37010E+02 2.35500E+01 0.00000E+00
 -1      3309 1.38129E+02 3.63901E+01 0.00000E+00
 -1      3310 3.32385E+01 3.66868E+01 0.00000E+00
 -1      3311 2.41199E+01 1.65344E+01 0.00000E+00
 -1      3312 3.44568E+01 3.40899E+01 0.00000E+00
 -1      3313 1.17124E+01 1.76708E+01 0.00000E+00
 -1      3314 1.17124E+01 1.91458E+01 0.00000E+00
 -1      3315 1.66787E+01 1.08668E+01 0.00000E+00
 -1      3316 1.51787E+01 1.08668E+01 0.00000E+00
 -1      3317 1.42161E+01 1.28719E+01 0.00000E+00
 -1      3318 1.74287E+01 1.21658E+01 0.00000E+00
 -1      3319 1.36830E+02 3.56526E+01 0.00000E+00
 -1      3320 2.07631E+01 1.61444E+01 0.00000E+00
 -1      3321 3.15567E+01 2.15884E+01 0.00000E+00
 -1      3322 3.16795E+01 2.26898E+01 0.00000E+00
 -1      3323 3.28309E+01 2.30071E+01 0.00000E+00
 -1      3324 1.06962E+01 2.11307E+01 0.00000E+00
 -1      3325 1.50302E+01 1.76131E+01 0.00000E+00
 -1      3326 1.57149E+01 1.68148E+01 0.00000E+00
 -1      3327 1.40976E+01 1.68933E+01 0.00000E+00
 -1      3328 3.43693E+01 3.89758E+01 0.00000E+00
 -1      3329 1.15745E+01 2.03159E+01 0.00000E+00
 -1      3330 3.34333E+01 2.54201E+01 0.00000E+00
 -1      3331 3.53552E+01 2.70572E+01 0.00000E+00
 -1      3332 3.58058E+01 2.84792E+01 0.00000E+00
 -1      3333 3.02850E+01 1.31117E+01 0.00000E+00
 -1      3334 2.87850E+01 1.31117E+01 0.00000E+00
 -1      3335 4.14000E+01 3.61813E+01 0.00000E+00
 -1      3336 4.29000E+01 3.61813E+01 0.00000E+00
 -1      3337 4.44000E+01 3.61813E+01 0.00000E+00
 -1      3338 4.59000E+01 3.61813E+01 0.00000E+00
 -1      3339 4.36500E+01 3.48823E+01 0.00000E+00
 -1      3340 4.74000E+01 3.61813E+01 0.00000E+00
 -1      3341 4.89000E+01 3.61813E+01 0.00000E+00
 -1      3342 4.66500E+01 3.48823E+01 0.00000E+00
 -1      3343 5.04000E+01 3.61813E+01 0.00000E+00
 -1      3344 5.19000E+01 3.61813E+01 0.00000E+00
 -1      3345 4.96500E+01 3.48823E+01 0.00000E+00
 -1      3346 5.34000E+01 3.61813E+01 0.00000E+00
 -1      3347 5.49000E+01 3.61813E+01 0.00000E+00
 -1      3348 5.26500E+01 3.48823E+01 0.00000E+00
 -1      3349 5.64000E+01 3.61813E+01 0.00000E+00
 -1      3350 5.79000E+01 3.61813E+01 0.00000E+00
 -1      3351 5.56500E+01 3.48823E+01 0.00000E+00
 -1      3352 5.94000E+01 3.61813E+01 0.00000E+00
 -1      3353 6.09000E+01 3.61813E+01 0.00000E+00
 -1      3354 5.86500E+01 3.48823E+01 0.00000E+00
 -1      3355 6.24000E+01 3.61813E+01 0.00000E+00
 -1      3356 6.39000E+01 3.61813E+01 0.00000E+00
 -1      3357 6.16500E+01 3.48823E+01 0.00000E+00
 -1      3358 6.54000E+01 3.61813E+01 0.00000E+00
 -1      3359 6.69000E+01 3.61813E+01 0.00000E+00
 -1      3360 6.46500E+01 3.48823E+01 0.00000E+00
 -1      3361 6.84000E+01 3.61813E+01 0.00000E+00
 -1      3362 6.99000E+01 3.61813E+01 0.00000E+00
 -1      3363 6.76500E+01 3.48823E+01 0.00000E+00
 -1      3364 7.14000E+01 3.61813E+01 0.00000E+00
 -1      3365 7.29000E+01 3.61813E+01 0.00000E+00
 -1      3366 7.06500E+01 3.48823E+01 0.00000E+00
 -1      3367 7.44000E+01 3.61813E+01 0.00000E+00
 -1      3368 7.59000E+01 3.61813E+01 0.00000E+00
 -1      3369 7.36500E+01 3.48823E+01 0.00000E+00
 -1      3370 7.74000E+01 3.61813E+01 0.00000E+00
 -1      3371 7.89000E+01 3.61813E+01 0.00000E+00
 -1      3372 7.66500E+01 3.48823E+01 0.00000E+00
 -1      3373 8.04000E+01 3.61813E+01 0.00000E+00
 -1      3374 8.19000E+01 3.61813E+01 0.00000E+00
 -1      3375 7.96500E+01 3.48823E+01 0.00000E+00
 -1      3376 8.34000E+01 3.61813E+01 0.00000E+00
 -1      3377 8.49000E+01 3.61813E+01 0.00000E+00
 -1      3378 8.26500E+01 3.48823E+01 0.00000E+00
 -1      3379 8.64000E+01 3.61813E+01 0.00000E+00
 -1      3380 8.79000E+01 3.61813E+01 0.00000E+00
 -1      3381 8.56500E+01 3.48823E+01 0.00000E+00
 -1      3382 8.94000E+01 3.61813E+01 0.00000E+00
 -1      3383 9.09000E+01 3.61813E+01 0.00000E+00
 -1      3384 8.86500E+01 3.48823E+01 0.00000E+00
 -1      3385 9.24000E+01 3.61813E+01 0.00000E+00
 -1      3386 9.39000E+01 3.61813E+01 0.00000E+00
 -1      3387 9.16500E+01 3.48823E+01 0.00000E+00
 -1      3388 9.54000E+01 3.61813E+01 0.00000E+00
 -1      3389 9.69000E+01 3.61813E+01 0.00000E+00
 -1      3390 9.46500E+01 3.48823E+01 0.00000E+00
 -1      3391 9.84000E+01 3.61813E+01 0.00000E+00
 -1      3392 9.99000E+01 3.61813E+01 0.00000E+00
 -1      3393 9.76500E+01 3.48823E+01 0.00000E+00
 -1      3394 1.01400E+02 3.61813E+01 0.00000E+00
 -1      3395 1.02900E+02 3.61813E+01 0.00000E+00
 -1      3396 1.00650E+02 3.48823E+01 0.00000E+00
 -1      3397 1.04400E+02 3.61813E+01 0.00000E+00
 -1      3398 1.05900E+02 3.61813E+01 0.00000E+00
 -1      3399 1.03650E+02 3.48823E+01 0.00000E+00
 -1      3400 1.07400E+02 3.61813E+01 0.00000E+00
 -1      3401 1.08900E+02 3.61813E+01 0.00000E+00
 -1      3402 1.06650E+02 3.48823E+01 0.00000E+00
 -1      3403 1.10400E+02 3.61813E+01 0.00000E+00
 -1      3404 1.11900E+02 3.61813E+01 0.00000E+00
 -1      3405 1.09650E+02 3.48823E+01 0.00000E+00
 -1      3406 1.13400E+02 3.61813E+01 0.00000E+00
 -1      3407 1.14900E+02 3.61813E+01 0.00000E+00
 -1      3408 1.12650E+02 3.48823E+01 0.00000E+00
 -1      3409 1.16400E+02 3.61813E+01 0.00000E+00
 -1      3410 1.17900E+02 3.61813E+01 0.00000E+00
 -1      3411 1.15650E+02 3.48823E+01 0.00000E+00
 -1      3412 1.19400E+02 3.61813E+01 0.00000E+00
 -1      3413 1.20900E+02 3.61813E+01 0.00000E+00
 -1      3414 1.18650E+02 3.48823E+01 0.00000E+00
 -1      3415 1.22400E+02 3.61813E+01 0.00000E+00
 -1      3416 1.23900E+02 3.61813E+01 0.00000E+00
 -1      3417 1.21650E+02 3.48823E+01 0.00000E+00
 -1      3418 1.25400E+02 3.61813E+01 0.00000E+00
 -1      3419 1.26900E+02 3.61813E+01 0.00000E+00
 -1      3420 1.24650E+02 3.48823E+01 0.00000E+00
 -1      3421 1.28400E+02 3.61813E+01 0.00000E+00
 -1      3422 1.29900E+02 3.61813E+01 0.00000E+00
 -1      3423 1.27650E+02 3.48823E+01 0.00000E+00
 -1      3424 1.31400E+02 3.61813E+01 0.00000E+00
 -1      3425 1.32900E+02 3.61813E+01 0.00000E+00
 -1      3426 1.30650E+02 3.48823E+01 0.00000E+00
 -1      3427 1.34115E+02 3.59169E+01 0.00000E+00
 -1      3428 1.35615E+02 3.59169E+01 0.00000E+00
 -1      3429 1.35795E+02 3.40893E+01 0.00000E+00
 -1      3430 1.33365E+02 3.46179E+01 0.00000E+00
 -1      3431 4.52850E+01 1.31117E+01 0.00000E+00
 -1      3432 4.37850E+01 1.31117E+01 0.00000E+00
 -1      3433 4.22850E+01 1.31117E+01 0.00000E+00
 -1      3434 4.07850E+01 1.31117E+01 0.00000E+00
 -1      3435 4.30350E+01 1.44108E+01 0.00000E+00
 -1      3436 5.12850E+01 1.31117E+01 0.00000E+00
 -1      3437 4.97850E+01 1.31117E+01 0.00000E+00
 -1      3438 5.42850E+01 1.31117E+01 0.00000E+00
 -1      3439 5.27850E+01 1.31117E+01 0.00000E+00
 -1      3440 5.20350E+01 1.44108E+01 0.00000E+00
 -1      3441 5.72850E+01 1.31117E+01 0.00000E+00
 -1      3442 5.57850E+01 1.31117E+01 0.00000E+00
 -1      3443 5.50350E+01 1.44108E+01 0.00000E+00
 -1      3444 6.02850E+01 1.31117E+01 0.00000E+00
 -1      3445 5.87850E+01 1.31117E+01 0.00000E+00
 -1      3446 5.80350E+01 1.44108E+01 0.00000E+00
 -1      3447 6.32850E+01 1.31117E+01 0.00000E+00
 -1      3448 6.17850E+01 1.31117E+01 0.00000E+00
 -1      3449 6.10350E+01 1.44108E+01 0.00000E+00
 -1      3450 6.62850E+01 1.31117E+01 0.00000E+00
 -1      3451 6.47850E+01 1.31117E+01 0.00000E+00
 -1      3452 6.40350E+01 1.44108E+01 0.00000E+00
 -1      3453 6.92850E+01 1.31117E+01 0.00000E+00
 -1      3454 6.77850E+01 1.31117E+01 0.00000E+00
 -1      3455 6.70350E+01 1.44108E+01 0.00000E+00
 -1      3456 7.22850E+01 1.31117E+01 0.00000E+00
 -1      3457 7.07850E+01 1.31117E+01 0.00000E+00
 -1      3458 7.00350E+01 1.44108E+01 0.00000E+00
 -1      3459 7.52850E+01 1.31117E+01 0.00000E+00
 -1      3460 7.37850E+01 1.31117E+01 0.00000E+00
 -1      3461 7.30350E+01 1.44108E+01 0.00000E+00
 -1      3462 7.82850E+01 1.31117E+01 0.00000E+00
 -1      3463 7.67850E+01 1.31117E+01 0.00000E+00
 -1      3464 7.60350E+01 1.44108E+01 0.00000E+00
 -1      3465 8.12850E+01 1.31117E+01 0.00000E+00
 -1      3466 7.97850E+01 1.31117E+01 0.00000E+00
 -1      3467 7.90350E+01 1.44108E+01 0.00000E+00
 -1      3468 8.42850E+01 1.31117E+01 0.00000E+00
 -1      3469 8.27850E+01 1.31117E+01 0.00000E+00
 -1      3470 8.20350E+01 1.44108E+01 0.00000E+00
 -1      3471 8.72850E+01 1.31117E+01 0.00000E+00
 -1      3472 8.57850E+01 1.31117E+01 0.00000E+00
 -1      3473 8.50350E+01 1.44108E+01 0.00000E+00
 -1      3474 9.02850E+01 1.31117E+01 0.00000E+00
 -1      3475 8.87850E+01 1.31117E+01 0.00000E+00
 -1      3476 8.80350E+01 1.44108E+01 0.00000E+00
 -1      3477 9.32850E+01 1.31117E+01 0.00000E+00
 -1      3478 9.17850E+01 1.31117E+01 0.00000E+00
 -1      3479 9.10350E+01 1.44108E+01 0.00000E+00
 -1      3480 9.62850E+01 1.31117E+01 0.00000E+00
 -1      3481 9.47850E+01 1.31117E+01 0.00000E+00
 -1      3482 9.40350E+01 1.44108E+01 0.00000E+00
 -1      3483 9.92850E+01 1.31117E+01 0.00000E+00
 -1      3484 9.77850E+01 1.31117E+01 0.00000E+00
 -1      3485 9.70350E+01 1.44108E+01 0.00000E+00
 -1      3486 1.02285E+02 1.31117E+01 0.00000E+00
 -1      3487 1.00785E+02 1.31117E+01 0.00000E+00
 -1      3488 1.00035E+02 1.44108E+01 0.00000E+00
 -1      3489 1.05285E+02 1.31117E+01 0.00000E+00
 -1      3490 1.03785E+02 1.31117E+01 0.00000E+00
 -1      3491 1.03035E+02 1.44108E+01 0.00000E+00
 -1      3492 1.08285E+02 1.31117E+01 0.00000E+00
 -1      3493 1.06785E+02 1.31117E+01 0.00000E+00
 -1      3494 1.06035E+02 1.44108E+01 0.00000E+00
 -1      3495 1.11285E+02 1.31117E+01 0.00000E+00
 -1      3496 1.09785E+02 1.31117E+01 0.00000E+00
 -1      3497 1.09035E+02 1.44108E+01 0.00000E+00
 -1      3498 1.14285E+02 1.31117E+01 0.00000E+00
 -1      3499 1.12785E+02 1.31117E+01 0.00000E+00
 -1      3500 1.12035E+02 1.44108E+01 0.00000E+00
 -1      3501 1.17285E+02 1.31117E+01 0.00000E+00
 -1      3502 1.15785E+02 1.31117E+01 0.00000E+00
 -1      3503 1.15035E+02 1.44108E+01 0.00000E+00
 -1      3504 1.20285E+02 1.31117E+01 0.00000E+00
 -1      3505 1.18785E+02 1.31117E+01 0.00000E+00
 -1      3506 1.18035E+02 1.44108E+01 0.00000E+00
 -1      3507 1.23285E+02 1.31117E+01 0.00000E+00
 -1      3508 1.21785E+02 1.31117E+01 0.00000E+00
 -1      3509 1.21035E+02 1.44108E+01 0.00000E+00
 -1      3510 1.26285E+02 1.31117E+01 0.00000E+00
 -1      3511 1.24785E+02 1.31117E+01 0.00000E+00
 -1      3512 1.24035E+02 1.44108E+01 0.00000E+00
 -1      3513 1.29285E+02 1.31117E+01 0.00000E+00
 -1      3514 1.27785E+02 1.31117E+01 0.00000E+00
 -1      3515 1.27035E+02 1.44108E+01 0.00000E+00
 -1      3516 1.32285E+02 1.31117E+01 0.00000E+00
 -1      3517 1.30785E+02 1.31117E+01 0.00000E+00
 -1      3518 1.30035E+02 1.44108E+01 0.00000E+00
 -1      3519 1.33986E+02 1.27137E+01 0.00000E+00
 -1      3520 1.37010E+02 2.06000E+01 0.00000E+00
 -1      3521 2.37867E+01 1.38543E+01 0.00000E+00
 -1      3522 2.22867E+01 1.38543E+01 0.00000E+00
 -1      3523 1.30114E+01 1.69333E+01 0.00000E+00
 -1      3524 2.07749E+01 1.49993E+01 0.00000E+00
 -1      3525 2.05232E+01 1.29578E+01 0.00000E+00
 -1      3526 1.90232E+01 1.29578E+01 0.00000E+00
 -1      3527 1.89996E+01 1.52479E+01 0.00000E+00
 -1      3528 1.35711E+02 2.72000E+01 0.00000E+00
 -1      3529 1.35711E+02 2.57500E+01 0.00000E+00
 -1      3530 3.32850E+01 1.31117E+01 0.00000E+00
 -1      3531 3.17850E+01 1.31117E+01 0.00000E+00
 -1      3532 3.10350E+01 1.44108E+01 0.00000E+00
 -1      3533 1.67722E+01 1.63168E+01 0.00000E+00
 -1      3534 1.79423E+01 1.57459E+01 0.00000E+00
 -1      3535 1.79541E+01 1.46009E+01 0.00000E+00
 -1      3536 1.58395E+01 1.55969E+01 0.00000E+00
 -1      3537 4.82850E+01 1.31117E+01 0.00000E+00
 -1      3538 4.67850E+01 1.31117E+01 0.00000E+00
 -1      3539 4.60350E+01 1.44108E+01 0.00000E+00
 -1      3540 4.90350E+01 1.44108E+01 0.00000E+00
 -1      3541 3.84000E+01 3.61813E+01 0.00000E+00
 -1      3542 3.99000E+01 3.61813E+01 0.00000E+00
 -1      3543 4.06500E+01 3.48823E+01 0.00000E+00
 -1      3544 3.60570E+01 3.02832E+01 0.00000E+00
 -1      3545 3.61626E+01 3.18576E+01 0.00000E+00
 -1      3546 3.54880E+01 3.46293E+01 0.00000E+00
 -1      3547 3.73688E+01 3.56418E+01 0.00000E+00
 -1      3548 3.81188E+01 3.43428E+01 0.00000E+00
 -1      3549 3.60565E+01 3.32640E+01 0.00000E+00
 -1      3550 3.43958E+01 2.44340E+01 0.00000E+00
 -1      3551 3.48755E+01 2.57456E+01 0.00000E+00
 -1      3552 3.63176E+01 2.60710E+01 0.00000E+00
 -1      3553 2.68224E+01 1.65440E+01 0.00000E+00
 -1      3554 2.79442E+01 1.72003E+01 0.00000E+00
 -1      3555 1.33236E+02 1.40127E+01 0.00000E+00
 -1      3556 2.53683E+01 1.44929E+01 0.00000E+00
 -1      3557 1.36960E+01 1.61350E+01 0.00000E+00
 -1      3558 1.35711E+02 2.42750E+01 0.00000E+00
 -1      3559 1.35711E+02 2.28000E+01 0.00000E+00
 -1      3560 1.34412E+02 2.50000E+01 0.00000E+00
 -1      3561 1.34580E+02 3.28786E+01 0.00000E+00
 -1      3562 1.35795E+02 3.26143E+01 0.00000E+00
 -1      3563 1.35795E+02 3.11393E+01 0.00000E+00
 -1      3564 4.00350E+01 1.44108E+01 0.00000E+00
 -1      3565 3.92850E+01 1.31117E+01 0.00000E+00
 -1      3566 3.77850E+01 1.31117E+01 0.00000E+00
 -1      3567 2.64907E+01 1.29925E+01 0.00000E+00
 -1      3568 2.68240E+01 1.56727E+01 0.00000E+00
 -1      3569 2.91191E+01 1.72968E+01 0.00000E+00
 -1      3570 1.36039E+02 1.51311E+01 0.00000E+00
 -1      3571 1.34871E+02 1.48535E+01 0.00000E+00
 -1      3572 1.35973E+02 1.63699E+01 0.00000E+00
 -1      3573 3.14464E+01 1.89958E+01 0.00000E+00
 -1      3574 3.15016E+01 2.02921E+01 0.00000E+00
 -1      3575 3.26529E+01 2.06093E+01 0.00000E+00
 -1      3576 1.35842E+02 1.88474E+01 0.00000E+00
 -1      3577 1.35908E+02 1.76087E+01 0.00000E+00
 -1      3578 1.34740E+02 1.73311E+01 0.00000E+00
 -1      3579 3.47850E+01 1.31117E+01 0.00000E+00
 -1      3580 3.40350E+01 1.44108E+01 0.00000E+00
 -1      3581 3.62850E+01 1.31117E+01 0.00000E+00
 -1      3582 3.42730E+01 2.33325E+01 0.00000E+00
 -1      3583 3.57151E+01 2.36579E+01 0.00000E+00
 -1      3584 3.41502E+01 2.22310E+01 0.00000E+00
 -1      3585 1.36960E+01 1.46600E+01 0.00000E+00
 -1      3586 1.74169E+01 1.33109E+01 0.00000E+00
 -1      3587 1.53023E+01 1.43069E+01 0.00000E+00
 -1      3588 2.79907E+01 1.29925E+01 0.00000E+00
 -1      3589 3.71937E+01 3.23970E+01 0.00000E+00
 -1      3590 3.70486E+01 2.91866E+01 0.00000E+00
 -1      3591 1.33170E+02 1.52515E+01 0.00000E+00
 -1      3592 1.35777E+02 2.15612E+01 0.00000E+00
 -1      3593 1.35777E+02 2.00862E+01 0.00000E+00
 -1      3594 1.34609E+02 1.98087E+01 0.00000E+00
 -1      3595 1.34478E+02 2.22862E+01 0.00000E+00
 -1      3596 1.35753E+02 2.99072E+01 0.00000E+00
 -1      3597 1.35753E+02 2.84322E+01 0.00000E+00
 -1      3598 1.34454E+02 2.77072E+01 0.00000E+00
 -1      3599 1.34538E+02 3.01715E+01 0.00000E+00
 -1      3600 2.87407E+01 1.42915E+01 0.00000E+00
 -1      3601 3.99000E+01 3.36058E+01 0.00000E+00
 -1      3602 4.14000E+01 3.36058E+01 0.00000E+00
 -1      3603 4.59000E+01 3.35833E+01 0.00000E+00
 -1      3604 4.74000E+01 3.35833E+01 0.00000E+00
 -1      3605 4.89000E+01 3.35833E+01 0.00000E+00
 -1      3606 5.04000E+01 3.35833E+01 0.00000E+00
 -1      3607 4.81500E+01 3.22843E+01 0.00000E+00
 -1      3608 5.19000E+01 3.35833E+01 0.00000E+00
 -1      3609 5.34000E+01 3.35833E+01 0.00000E+00
 -1      3610 5.11500E+01 3.22843E+01 0.00000E+00
 -1      3611 5.49000E+01 3.35833E+01 0.00000E+00
 -1      3612 5.64000E+01 3.35833E+01 0.00000E+00
 -1      3613 5.41500E+01 3.22843E+01 0.00000E+00
 -1      3614 5.79000E+01 3.35833E+01 0.00000E+00
 -1      3615 5.94000E+01 3.35833E+01 0.00000E+00
 -1      3616 5.71500E+01 3.22843E+01 0.00000E+00
 -1      3617 6.09000E+01 3.35833E+01 0.00000E+00
 -1      3618 6.24000E+01 3.35833E+01 0.00000E+00
 -1      3619 6.01500E+01 3.22843E+01 0.00000E+00
 -1      3620 6.39000E+01 3.35833E+01 0.00000E+00
 -1      3621 6.54000E+01 3.35833E+01 0.00000E+00
 -1      3622 6.31500E+01 3.22843E+01 0.00000E+00
 -1      3623 6.69000E+01 3.35833E+01 0.00000E+00
 -1      3624 6.84000E+01 3.35833E+01 0.00000E+00
 -1      3625 6.61500E+01 3.22843E+01 0.00000E+00
 -1      3626 6.99000E+01 3.35833E+01 0.00000E+00
 -1      3627 7.14000E+01 3.35833E+01 0.00000E+00
 -1      3628 6.91500E+01 3.22843E+01 0.00000E+00
 -1      3629 7.29000E+01 3.35833E+01 0.00000E+00
 -1      3630 7.44000E+01 3.35833E+01 0.00000E+00
 -1      3631 7.21500E+01 3.22843E+01 0.00000E+00
 -1      3632 7.59000E+01 3.35833E+01 0.00000E+00
 -1      3633 7.74000E+01 3.35833E+01 0.00000E+00
 -1      3634 7.51500E+01 3.22843E+01 0.00000E+00
 -1      3635 7.89000E+01 3.35833E+01 0.00000E+00
 -1      3636 8.04000E+01 3.35833E+01 0.00000E+00
 -1      3637 7.81500E+01 3.22843E+01 0.00000E+00
 -1      3638 8.19000E+01 3.35833E+01 0.00000E+00
 -1      3639 8.34000E+01 3.35833E+01 0.00000E+00
 -1      3640 8.11500E+01 3.22843E+01 0.00000E+00
 -1      3641 8.49000E+01 3.35833E+01 0.00000E+00
 -1      3642 8.64000E+01 3.35833E+01 0.00000E+00
 -1      3643 8.41500E+01 3.22843E+01 0.00000E+00
 -1      3644 8.79000E+01 3.35833E+01 0.00000E+00
 -1      3645 8.94000E+01 3.35833E+01 0.00000E+00
 -1      3646 8.71500E+01 3.22843E+01 0.00000E+00
 -1      3647 9.09000E+01 3.35833E+01 0.00000E+00
 -1      3648 9.24000E+01 3.35833E+01 0.00000E+00
 -1      3649 9.01500E+01 3.22843E+01 0.00000E+00
 -1      3650 9.39000E+01 3.35833E+01 0.00000E+00
 -1      3651 9.54000E+01 3.35833E+01 0.00000E+00
 -1      3652 9.31500E+01 3.22843E+01 0.00000E+00
 -1      3653 9.69000E+01 3.35833E+01 0.00000E+00
 -1      3654 9.84000E+01 3.35833E+01 0.00000E+00
 -1      3655 9.61500E+01 3.22843E+01 0.00000E+00
 -1      3656 9.99000E+01 3.35833E+01 0.00000E+00
 -1      3657 1.01400E+02 3.35833E+01 0.00000E+00
 -1      3658 9.91500E+01 3.22843E+01 0.00000E+00
 -1      3659 1.02900E+02 3.35833E+01 0.00000E+00
 -1      3660 1.04400E+02 3.35833E+01 0.00000E+00
 -1      3661 1.02150E+02 3.22843E+01 0.00000E+00
 -1      3662 1.05900E+02 3.35833E+01 0.00000E+00
 -1      3663 1.07400E+02 3.35833E+01 0.00000E+00
 -1      3664 1.05150E+02 3.22843E+01 0.00000E+00
 -1      3665 1.08900E+02 3.35833E+01 0.00000E+00
 -1      3666 1.10400E+02 3.35833E+01 0.00000E+00
 -1      3667 1.08150E+02 3.22843E+01 0.00000E+00
 -1      3668 1.11900E+02 3.35833E+01 0.00000E+00
 -1      3669 1.13400E+02 3.35833E+01 0.00000E+00
 -1      3670 1.11150E+02 3.22843E+01 0.00000E+00
 -1      3671 1.14900E+02 3.35833E+01 0.00000E+00
 -1      3672 1.16400E+02 3.35833E+01 0.00000E+00
 -1      3673 1.14150E+02 3.22843E+01 0.00000E+00
 -1      3674 1.17900E+02 3.35833E+01 0.00000E+00
 -1      3675 1.19400E+02 3.35833E+01 0.00000E+00
 -1      3676 1.17150E+02 3.22843E+01 0.00000E+00
 -1      3677 1.20900E+02 3.35833E+01 0.00000E+00
 -1      3678 1.22400E+02 3.35833E+01 0.00000E+00
 -1      3679 1.20150E+02 3.22843E+01 0.00000E+00
 -1      3680 1.23900E+02 3.35833E+01 0.00000E+00
 -1      3681 1.25400E+02 3.35833E+01 0.00000E+00
 -1      3682 1.23150E+02 3.22843E+01 0.00000E+00
 -1      3683 1.26900E+02 3.35833E+01 0.00000E+00
 -1      3684 1.28400E+02 3.35833E+01 0.00000E+00
 -1      3685 1.26150E+02 3.22843E+01 0.00000E+00
 -1      3686 1.29900E+02 3.35833E+01 0.00000E+00
 -1      3687 1.31400E+02 3.35833E+01 0.00000E+00
 -1      3688 1.29150E+02 3.22843E+01 0.00000E+00
 -1      3689 1.32383E+02 3.33631E+01 0.00000E+00
 -1      3690 1.33598E+02 3.30988E+01 0.00000E+00
 -1      3691 1.33598E+02 3.16238E+01 0.00000E+00
 -1      3692 1.31633E+02 3.20641E+01 0.00000E+00
 -1      3693 4.37850E+01 1.57098E+01 0.00000E+00
 -1      3694 4.22850E+01 1.57098E+01 0.00000E+00
 -1      3695 5.57850E+01 1.57098E+01 0.00000E+00
 -1      3696 5.42850E+01 1.57098E+01 0.00000E+00
 -1      3697 5.27850E+01 1.57098E+01 0.00000E+00
 -1      3698 5.12850E+01 1.57098E+01 0.00000E+00
 -1      3699 5.35350E+01 1.70088E+01 0.00000E+00
 -1      3700 6.17850E+01 1.57098E+01 0.00000E+00
 -1      3701 6.02850E+01 1.57098E+01 0.00000E+00
 -1      3702 6.47850E+01 1.57098E+01 0.00000E+00
 -1      3703 6.32850E+01 1.57098E+01 0.00000E+00
 -1      3704 6.25350E+01 1.70088E+01 0.00000E+00
 -1      3705 6.77850E+01 1.57098E+01 0.00000E+00
 -1      3706 6.62850E+01 1.57098E+01 0.00000E+00
 -1      3707 6.55350E+01 1.70088E+01 0.00000E+00
 -1      3708 7.07850E+01 1.57098E+01 0.00000E+00
 -1      3709 6.92850E+01 1.57098E+01 0.00000E+00
 -1      3710 6.85350E+01 1.70088E+01 0.00000E+00
 -1      3711 7.37850E+01 1.57098E+01 0.00000E+00
 -1      3712 7.22850E+01 1.57098E+01 0.00000E+00
 -1      3713 7.15350E+01 1.70088E+01 0.00000E+00
 -1      3714 7.67850E+01 1.57098E+01 0.00000E+00
 -1      3715 7.52850E+01 1.57098E+01 0.00000E+00
 -1      3716 7.45350E+01 1.70088E+01 0.00000E+00
 -1      3717 7.97850E+01 1.57098E+01 0.00000E+00
 -1      3718 7.82850E+01 1.57098E+01 0.00000E+00
 -1      3719 7.75350E+01 1.70088E+01 0.00000E+00
 -1      3720 8.27850E+01 1.57098E+01 0.00000E+00
 -1      3721 8.12850E+01 1.57098E+01 0.00000E+00
 -1      3722 8.05350E+01 1.70088E+01 0.00000E+00
 -1      3723 8.57850E+01 1.57098E+01 0.00000E+00
 -1      3724 8.42850E+01 1.57098E+01 0.00000E+00
 -1      3725 8.35350E+01 1.70088E+01 0.00000E+00
 -1      3726 8.87850E+01 1.57098E+01 0.00000E+00
 -1      3727 8.72850E+01 1.57098E+01 0.00000E+00
 -1      3728 8.65350E+01 1.70088E+01 0.00000E+00
 -1      3729 9.17850E+01 1.57098E+01 0.00000E+00
 -1      3730 9.02850E+01 1.57098E+01 0.00000E+00
 -1      3731 8.95350E+01 1.70088E+01 0.00000E+00
 -1      3732 9.47850E+01 1.57098E+01 0.00000E+00
 -1      3733 9.32850E+01 1.57098E+01 0.00000E+00
 -1      3734 9.25350E+01 1.70088E+01 0.00000E+00
 -1      3735 9.77850E+01 1.57098E+01 0.00000E+00
 -1      3736 9.62850E+01 1.57098E+01 0.00000E+00
 -1      3737 9.55350E+01 1.70088E+01 0.00000E+00
 -1      3738 1.00785E+02 1.57098E+01 0.00000E+00
 -1      3739 9.92850E+01 1.57098E+01 0.00000E+00
 -1      3740 9.85350E+01 1.70088E+01 0.00000E+00
 -1      3741 1.03785E+02 1.57098E+01 0.00000E+00
 -1      3742 1.02285E+02 1.57098E+01 0.00000E+00
 -1      3743 1.01535E+02 1.70088E+01 0.00000E+00
 -1      3744 1.06785E+02 1.57098E+01 0.00000E+00
 -1      3745 1.05285E+02 1.57098E+01 0.00000E+00
 -1      3746 1.04535E+02 1.70088E+01 0.00000E+00
 -1      3747 1.09785E+02 1.57098E+01 0.00000E+00
 -1      3748 1.08285E+02 1.57098E+01 0.00000E+00
 -1      3749 1.07535E+02 1.70088E+01 0.00000E+00
 -1      3750 1.12785E+02 1.57098E+01 0.00000E+00
 -1      3751 1.11285E+02 1.57098E+01 0.00000E+00
 -1      3752 1.10535E+02 1.70088E+01 0.00000E+00
 -1      3753 1.15785E+02 1.57098E+01 0.00000E+00
 -1      3754 1.14285E+02 1.57098E+01 0.00000E+00
 -1      3755 1.13535E+02 1.70088E+01 0.00000E+00
 -1      3756 1.18785E+02 1.57098E+01 0.00000E+00
 -1      3757 1.17285E+02 1.57098E+01 0.00000E+00
 -1      3758 1.16535E+02 1.70088E+01 0.00000E+00
 -1      3759 1.21785E+02 1.57098E+01 0.00000E+00
 -1      3760 1.20285E+02 1.57098E+01 0.00000E+00
 -1      3761 1.19535E+02 1.70088E+01 0.00000E+00
 -1      3762 1.24785E+02 1.57098E+01 0.00000E+00
 -1      3763 1.23285E+02 1.57098E+01 0.00000E+00
 -1      3764 1.22535E+02 1.70088E+01 0.00000E+00
 -1      3765 1.27785E+02 1.57098E+01 0.00000E+00
 -1      3766 1.26285E+02 1.57098E+01 0.00000E+00
 -1      3767 1.25535E+02 1.70088E+01 0.00000E+00
 -1      3768 1.30785E+02 1.57098E+01 0.00000E+00
 -1      3769 1.29285E+02 1.57098E+01 0.00000E+00
 -1      3770 1.28535E+02 1.70088E+01 0.00000E+00
 -1      3771 3.82095E+01 2.81055E+01 0.00000E+00
 -1      3772 3.84608E+01 2.99095E+01 0.00000E+00
 -1      3773 3.88688E+01 3.30664E+01 0.00000E+00
 -1      3774 1.33580E+02 1.69408E+01 0.00000E+00
 -1      3775 1.31945E+02 1.61000E+01 0.00000E+00
 -1      3776 1.31195E+02 1.73990E+01 0.00000E+00
 -1      3777 1.33515E+02 1.81796E+01 0.00000E+00
 -1      3778 3.72977E+01 2.49690E+01 0.00000E+00
 -1      3779 3.77774E+01 2.62806E+01 0.00000E+00
 -1      3780 4.29000E+01 3.35833E+01 0.00000E+00
 -1      3781 4.44000E+01 3.35833E+01 0.00000E+00
 -1      3782 4.51500E+01 3.22843E+01 0.00000E+00
 -1      3783 5.87850E+01 1.57098E+01 0.00000E+00
 -1      3784 5.72850E+01 1.57098E+01 0.00000E+00
 -1      3785 5.95350E+01 1.70088E+01 0.00000E+00
 -1      3786 4.15350E+01 1.70088E+01 0.00000E+00
 -1      3787 4.07850E+01 1.57098E+01 0.00000E+00
 -1      3788 3.92850E+01 1.57098E+01 0.00000E+00
 -1      3789 4.52850E+01 1.57098E+01 0.00000E+00
 -1      3790 4.45350E+01 1.70088E+01 0.00000E+00
 -1      3791 4.67850E+01 1.57098E+01 0.00000E+00
 -1      3792 5.65350E+01 1.70088E+01 0.00000E+00
 -1      3793 3.89749E+01 3.16600E+01 0.00000E+00
 -1      3794 4.01359E+01 3.05788E+01 0.00000E+00
 -1      3795 3.71750E+01 2.38676E+01 0.00000E+00
 -1      3796 3.86348E+01 2.40772E+01 0.00000E+00
 -1      3797 3.70522E+01 2.27661E+01 0.00000E+00
 -1      3798 3.91896E+01 2.70035E+01 0.00000E+00
 -1      3799 2.95204E+01 1.57640E+01 0.00000E+00
 -1      3800 3.06964E+01 1.71458E+01 0.00000E+00
 -1      3801 3.47850E+01 1.57098E+01 0.00000E+00
 -1      3802 3.32850E+01 1.57098E+01 0.00000E+00
 -1      3803 3.18477E+01 1.74630E+01 0.00000E+00
 -1      3804 1.33113E+02 2.57375E+01 0.00000E+00
 -1      3805 1.33113E+02 2.42625E+01 0.00000E+00
 -1      3806 3.70350E+01 1.44108E+01 0.00000E+00
 -1      3807 4.97850E+01 1.57098E+01 0.00000E+00
 -1      3808 4.82850E+01 1.57098E+01 0.00000E+00
 -1      3809 4.75350E+01 1.70088E+01 0.00000E+00
 -1      3810 3.40951E+01 2.09347E+01 0.00000E+00
 -1      3811 3.55372E+01 2.12602E+01 0.00000E+00
 -1      3812 3.40399E+01 1.96384E+01 0.00000E+00
 -1      3813 2.87391E+01 1.51629E+01 0.00000E+00
 -1      3814 2.79448E+01 1.50437E+01 0.00000E+00
 -1      3815 3.18163E+01 1.50119E+01 0.00000E+00
 -1      3816 3.03163E+01 1.50119E+01 0.00000E+00
 -1      3817 1.63596E+01 1.38089E+01 0.00000E+00
 -1      3818 1.33197E+02 2.82018E+01 0.00000E+00
 -1      3819 1.33155E+02 2.69697E+01 0.00000E+00
 -1      3820 1.31856E+02 2.62322E+01 0.00000E+00
 -1      3821 1.33449E+02 1.94184E+01 0.00000E+00
 -1      3822 1.32289E+02 1.90281E+01 0.00000E+00
 -1      3823 1.33383E+02 2.06572E+01 0.00000E+00
 -1      3824 4.21500E+01 3.23068E+01 0.00000E+00
 -1      3825 3.25663E+01 1.63109E+01 0.00000E+00
 -1      3826 5.05350E+01 1.70088E+01 0.00000E+00
 -1      3827 1.31129E+02 1.86378E+01 0.00000E+00
 -1      3828 1.29969E+02 1.82475E+01 0.00000E+00
 -1      3829 1.31064E+02 1.98766E+01 0.00000E+00
 -1      3830 5.04000E+01 3.09853E+01 0.00000E+00
 -1      3831 5.19000E+01 3.09853E+01 0.00000E+00
 -1      3832 5.34000E+01 3.09853E+01 0.00000E+00
 -1      3833 5.49000E+01 3.09853E+01 0.00000E+00
 -1      3834 5.26500E+01 2.96863E+01 0.00000E+00
 -1      3835 5.64000E+01 3.09853E+01 0.00000E+00
 -1      3836 5.79000E+01 3.09853E+01 0.00000E+00
 -1      3837 5.56500E+01 2.96863E+01 0.00000E+00
 -1      3838 5.94000E+01 3.09853E+01 0.00000E+00
 -1      3839 6.09000E+01 3.09853E+01 0.00000E+00
 -1      3840 5.86500E+01 2.96863E+01 0.00000E+00
 -1      3841 6.24000E+01 3.09853E+01 0.00000E+00
 -1      3842 6.39000E+01 3.09853E+01 0.00000E+00
 -1      3843 6.16500E+01 2.96863E+01 0.00000E+00
 -1      3844 6.54000E+01 3.09853E+01 0.00000E+00
 -1      3845 6.69000E+01 3.09853E+01 0.00000E+00
 -1      3846 6.46500E+01 2.96863E+01 0.00000E+00
 -1      3847 6.84000E+01 3.09853E+01 0.00000E+00
 -1      3848 6.99000E+01 3.09853E+01 0.00000E+00
 -1      3849 6.76500E+01 2.96863E+01 0.00000E+00
 -1      3850 7.14000E+01 3.09853E+01 0.00000E+00
 -1      3851 7.29000E+01 3.09853E+01 0.00000E+00
 -1      3852 7.06500E+01 2.96863E+01 0.00000E+00
 -1      3853 7.44000E+01 3.09853E+01 0.00000E+00
 -1      3854 7.59000E+01 3.09853E+01 0.00000E+00
 -1      3855 7.36500E+01 2.96863E+01 0.00000E+00
 -1      3856 7.74000E+01 3.09853E+01 0.00000E+00
 -1      3857 7.89000E+01 3.09853E+01 0.00000E+00
 -1      3858 7.66500E+01 2.96863E+01 0.00000E+00
 -1      3859 8.04000E+01 3.09853E+01 0.00000E+00
 -1      3860 8.19000E+01 3.09853E+01 0.00000E+00
 -1      3861 7.96500E+01 2.96863E+01 0.00000E+00
 -1      3862 8.34000E+01 3.09853E+01 0.00000E+00
 -1      3863 8.49000E+01 3.09853E+01 0.00000E+00
 -1      3864 8.26500E+01 2.96863E+01 0.00000E+00
 -1      3865 8.64000E+01 3.09853E+01 0.00000E+00
 -1      3866 8.79000E+01 3.09853E+01 0.00000E+00
 -1      3867 8.56500E+01 2.96863E+01 0.00000E+00
 -1      3868 8.94000E+01 3.09853E+01 0.00000E+00
 -1      3869 9.09000E+01 3.09853E+01 0.00000E+00
 -1      3870 8.86500E+01 2.96863E+01 0.00000E+00
 -1      3871 9.24000E+01 3.09853E+01 0.00000E+00
 -1      3872 9.39000E+01 3.09853E+01 0.00000E+00
 -1      3873 9.16500E+01 2.96863E+01 0.00000E+00
 -1      3874 9.54000E+01 3.09853E+01 0.00000E+00
 -1      3875 9.69000E+01 3.09853E+01 0.00000E+00
 -1      3876 9.46500E+01 2.96863E+01 0.00000E+00
 -1      3877 9.84000E+01 3.09853E+01 0.00000E+00
 -1      3878 9.99000E+01 3.09853E+01 0.00000E+00
 -1      3879 9.76500E+01 2.96863E+01 0.00000E+00
 -1      3880 1.01400E+02 3.09853E+01 0.00000E+00
 -1      3881 1.02900E+02 3.09853E+01 0.00000E+00
 -1      3882 1.00650E+02 2.96863E+01 0.00000E+00
 -1      3883 1.04400E+02 3.09853E+01 0.00000E+00
 -1      3884 1.05900E+02 3.09853E+01 0.00000E+00
 -1      3885 1.03650E+02 2.96863E+01 0.00000E+00
 -1      3886 1.07400E+02 3.09853E+01 0.00000E+00
 -1      3887 1.08900E+02 3.09853E+01 0.00000E+00
 -1      3888 1.06650E+02 2.96863E+01 0.00000E+00
 -1      3889 1.10400E+02 3.09853E+01 0.00000E+00
 -1      3890 1.11900E+02 3.09853E+01 0.00000E+00
 -1      3891 1.09650E+02 2.96863E+01 0.00000E+00
 -1      3892 1.13400E+02 3.09853E+01 0.00000E+00
 -1      3893 1.14900E+02 3.09853E+01 0.00000E+00
 -1      3894 1.12650E+02 2.96863E+01 0.00000E+00
 -1      3895 1.16400E+02 3.09853E+01 0.00000E+00
 -1      3896 1.17900E+02 3.09853E+01 0.00000E+00
 -1      3897 1.15650E+02 2.96863E+01 0.00000E+00
 -1      3898 1.19400E+02 3.09853E+01 0.00000E+00
 -1      3899 1.20900E+02 3.09853E+01 0.00000E+00
 -1      3900 1.18650E+02 2.96863E+01 0.00000E+00
 -1      3901 1.22400E+02 3.09853E+01 0.00000E+00
 -1      3902 1.23900E+02 3.09853E+01 0.00000E+00
 -1      3903 1.21650E+02 2.96863E+01 0.00000E+00
 -1      3904 1.25400E+02 3.09853E+01 0.00000E+00
 -1      3905 1.26900E+02 3.09853E+01 0.00000E+00
 -1      3906 1.24650E+02 2.96863E+01 0.00000E+00
 -1      3907 1.28400E+02 3.09853E+01 0.00000E+00
 -1      3908 1.29900E+02 3.09853E+01 0.00000E+00
 -1      3909 1.27650E+02 2.96863E+01 0.00000E+00
 -1      3910 6.62850E+01 1.83078E+01 0.00000E+00
 -1      3911 6.47850E+01 1.83078E+01 0.00000E+00
 -1      3912 6.32850E+01 1.83078E+01 0.00000E+00
 -1      3913 6.17850E+01 1.83078E+01 0.00000E+00
 -1      3914 6.40350E+01 1.96068E+01 0.00000E+00
 -1      3915 7.22850E+01 1.83078E+01 0.00000E+00
 -1      3916 7.07850E+01 1.83078E+01 0.00000E+00
 -1      3917 7.52850E+01 1.83078E+01 0.00000E+00
 -1      3918 7.37850E+01 1.83078E+01 0.00000E+00
 -1      3919 7.30350E+01 1.96068E+01 0.00000E+00
 -1      3920 7.82850E+01 1.83078E+01 0.00000E+00
 -1      3921 7.67850E+01 1.83078E+01 0.00000E+00
 -1      3922 7.60350E+01 1.96068E+01 0.00000E+00
 -1      3923 8.12850E+01 1.83078E+01 0.00000E+00
 -1      3924 7.97850E+01 1.83078E+01 0.00000E+00
 -1      3925 7.90350E+01 1.96068E+01 0.00000E+00
 -1      3926 8.42850E+01 1.83078E+01 0.00000E+00
 -1      3927 8.27850E+01 1.83078E+01 0.00000E+00
 -1      3928 8.20350E+01 1.96068E+01 0.00000E+00
 -1      3929 8.72850E+01 1.83078E+01 0.00000E+00
 -1      3930 8.57850E+01 1.83078E+01 0.00000E+00
 -1      3931 8.50350E+01 1.96068E+01 0.00000E+00
 -1      3932 9.02850E+01 1.83078E+01 0.00000E+00
 -1      3933 8.87850E+01 1.83078E+01 0.00000E+00
 -1      3934 8.80350E+01 1.96068E+01 0.00000E+00
 -1      3935 9.32850E+01 1.83078E+01 0.00000E+00
 -1      3936 9.17850E+01 1.83078E+01 0.00000E+00
 -1      3937 9.10350E+01 1.96068E+01 0.00000E+00
 -1      3938 9.62850E+01 1.83078E+01 0.00000E+00
 -1      3939 9.47850E+01 1.83078E+01 0.00000E+00
 -1      3940 9.40350E+01 1.96068E+01 0.00000E+00
 -1      3941 9.92850E+01 1.83078E+01 0.00000E+00
 -1      3942 9.77850E+01 1.83078E+01 0.00000E+00
 -1      3943 9.70350E+01 1.96068E+01 0.00000E+00
 -1      3944 1.02285E+02 1.83078E+01 0.00000E+00
 -1      3945 1.00785E+02 1.83078E+01 0.00000E+00
 -1      3946 1.00035E+02 1.96068E+01 0.00000E+00
 -1      3947 1.05285E+02 1.83078E+01 0.00000E+00
 -1      3948 1.03785E+02 1.83078E+01 0.00000E+00
 -1      3949 1.03035E+02 1.96068E+01 0.00000E+00
 -1      3950 1.08285E+02 1.83078E+01 0.00000E+00
 -1      3951 1.06785E+02 1.83078E+01 0.00000E+00
 -1      3952 1.06035E+02 1.96068E+01 0.00000E+00
 -1      3953 1.11285E+02 1.83078E+01 0.00000E+00
 -1      3954 1.09785E+02 1.83078E+01 0.00000E+00
 -1      3955 1.09035E+02 1.96068E+01 0.00000E+00
 -1      3956 1.14285E+02 1.83078E+01 0.00000E+00
 -1      3957 1.12785E+02 1.83078E+01 0.00000E+00
 -1      3958 1.12035E+02 1.96068E+01 0.00000E+00
 -1      3959 1.17285E+02 1.83078E+01 0.00000E+00
 -1      3960 1.15785E+02 1.83078E+01 0.00000E+00
 -1      3961 1.15035E+02 1.96068E+01 0.00000E+00
 -1      3962 1.20285E+02 1.83078E+01 0.00000E+00
 -1      3963 1.18785E+02 1.83078E+01 0.00000E+00
 -1      3964 1.18035E+02 1.96068E+01 0.00000E+00
 -1      3965 1.23285E+02 1.83078E+01 0.00000E+00
 -1      3966 1.21785E+02 1.83078E+01 0.00000E+00
 -1      3967 1.21035E+02 1.96068E+01 0.00000E+00
 -1      3968 1.26285E+02 1.83078E+01 0.00000E+00
 -1      3969 1.24785E+02 1.83078E+01 0.00000E+00
 -1      3970 1.24035E+02 1.96068E+01 0.00000E+00
 -1      3971 1.28469E+02 1.82475E+01 0.00000E+00
 -1      3972 3.33164E+01 1.81609E+01 0.00000E+00
 -1      3973 5.12850E+01 1.83078E+01 0.00000E+00
 -1      3974 4.97850E+01 1.83078E+01 0.00000E+00
 -1      3975 1.33418E+02 3.05289E+01 0.00000E+00
 -1      3976 1.33376E+02 2.92967E+01 0.00000E+00
 -1      3977 1.32077E+02 2.85592E+01 0.00000E+00
 -1      3978 1.32436E+02 3.07490E+01 0.00000E+00
 -1      3979 3.77850E+01 1.57098E+01 0.00000E+00
 -1      3980 3.62850E+01 1.57098E+01 0.00000E+00
 -1      3981 3.55350E+01 1.70088E+01 0.00000E+00
 -1      3982 4.01342E+01 2.58162E+01 0.00000E+00
 -1      3983 4.05663E+01 2.76411E+01 0.00000E+00
 -1      3984 4.11011E+01 2.90987E+01 0.00000E+00
 -1      3985 4.16152E+01 3.08492E+01 0.00000E+00
 -1      3986 4.31152E+01 3.08266E+01 0.00000E+00
 -1      3987 4.20456E+01 2.79114E+01 0.00000E+00
 -1      3988 6.92850E+01 1.83078E+01 0.00000E+00
 -1      3989 6.77850E+01 1.83078E+01 0.00000E+00
 -1      3990 6.70350E+01 1.96068E+01 0.00000E+00
 -1      3991 1.33215E+02 2.30792E+01 0.00000E+00
 -1      3992 1.33281E+02 2.18404E+01 0.00000E+00
 -1      3993 1.32121E+02 2.14502E+01 0.00000E+00
 -1      3994 1.31916E+02 2.38167E+01 0.00000E+00
 -1      3995 5.42850E+01 1.83078E+01 0.00000E+00
 -1      3996 5.27850E+01 1.83078E+01 0.00000E+00
 -1      3997 5.20350E+01 1.96068E+01 0.00000E+00
 -1      3998 4.46152E+01 3.08266E+01 0.00000E+00
 -1      3999 4.61152E+01 3.08266E+01 0.00000E+00
 -1      4000 4.40804E+01 2.93690E+01 0.00000E+00
 -1      4001 6.02850E+01 1.83078E+01 0.00000E+00
 -1      4002 5.87850E+01 1.83078E+01 0.00000E+00
 -1      4003 6.10350E+01 1.96068E+01 0.00000E+00
 -1      4004 5.72850E+01 1.83078E+01 0.00000E+00
 -1      4005 5.57850E+01 1.83078E+01 0.00000E+00
 -1      4006 5.50350E+01 1.96068E+01 0.00000E+00
 -1      4007 4.75076E+01 3.09060E+01 0.00000E+00
 -1      4008 4.90076E+01 3.09060E+01 0.00000E+00
 -1      4009 4.97576E+01 2.96070E+01 0.00000E+00
 -1      4010 4.69728E+01 2.94483E+01 0.00000E+00
 -1      4011 3.47585E+01 1.84863E+01 0.00000E+00
 -1      4012 3.69419E+01 2.01735E+01 0.00000E+00
 -1      4013 3.69970E+01 2.14698E+01 0.00000E+00
 -1      4014 3.84569E+01 2.16794E+01 0.00000E+00
 -1      4015 4.52850E+01 1.83078E+01 0.00000E+00
 -1      4016 4.37850E+01 1.83078E+01 0.00000E+00
 -1      4017 3.62585E+01 1.84863E+01 0.00000E+00
 -1      4018 7.00350E+01 1.96068E+01 0.00000E+00
 -1      4019 1.31453E+02 3.09692E+01 0.00000E+00
 -1      4020 3.85350E+01 1.70088E+01 0.00000E+00
 -1      4021 1.27719E+02 1.95465E+01 0.00000E+00
 -1      4022 4.30350E+01 1.96068E+01 0.00000E+00
 -1      4023 4.22850E+01 1.83078E+01 0.00000E+00
 -1      4024 4.07850E+01 1.83078E+01 0.00000E+00
 -1      4025 1.30703E+02 2.96702E+01 0.00000E+00
 -1      4026 4.00114E+01 2.47148E+01 0.00000E+00
 -1      4027 4.13881E+01 2.53523E+01 0.00000E+00
 -1      4028 3.98887E+01 2.36133E+01 0.00000E+00
 -1      4029 5.80350E+01 1.96068E+01 0.00000E+00
 -1      4030 1.30571E+02 2.42964E+01 0.00000E+00
 -1      4031 1.30673E+02 2.31131E+01 0.00000E+00
 -1      4032 4.82850E+01 1.83078E+01 0.00000E+00
 -1      4033 4.67850E+01 1.83078E+01 0.00000E+00
 -1      4034 4.60350E+01 1.96068E+01 0.00000E+00
 -1      4035 1.30655E+02 2.67607E+01 0.00000E+00
 -1      4036 1.30613E+02 2.55285E+01 0.00000E+00
 -1      4037 1.29370E+02 2.48249E+01 0.00000E+00
 -1      4038 4.90350E+01 1.96068E+01 0.00000E+00
 -1      4039 3.77184E+01 1.86959E+01 0.00000E+00
 -1      4040 5.49000E+01 2.83873E+01 0.00000E+00
 -1      4041 5.64000E+01 2.83873E+01 0.00000E+00
 -1      4042 5.79000E+01 2.83873E+01 0.00000E+00
 -1      4043 5.94000E+01 2.83873E+01 0.00000E+00
 -1      4044 5.71500E+01 2.70883E+01 0.00000E+00
 -1      4045 6.09000E+01 2.83873E+01 0.00000E+00
 -1      4046 6.24000E+01 2.83873E+01 0.00000E+00
 -1      4047 6.01500E+01 2.70883E+01 0.00000E+00
 -1      4048 6.39000E+01 2.83873E+01 0.00000E+00
 -1      4049 6.54000E+01 2.83873E+01 0.00000E+00
 -1      4050 6.31500E+01 2.70883E+01 0.00000E+00
 -1      4051 6.69000E+01 2.83873E+01 0.00000E+00
 -1      4052 6.84000E+01 2.83873E+01 0.00000E+00
 -1      4053 6.61500E+01 2.70883E+01 0.00000E+00
 -1      4054 6.99000E+01 2.83873E+01 0.00000E+00
 -1      4055 7.14000E+01 2.83873E+01 0.00000E+00
 -1      4056 6.91500E+01 2.70883E+01 0.00000E+00
 -1      4057 7.29000E+01 2.83873E+01 0.00000E+00
 -1      4058 7.44000E+01 2.83873E+01 0.00000E+00
 -1      4059 7.21500E+01 2.70883E+01 0.00000E+00
 -1      4060 7.59000E+01 2.83873E+01 0.00000E+00
 -1      4061 7.74000E+01 2.83873E+01 0.00000E+00
 -1      4062 7.51500E+01 2.70883E+01 0.00000E+00
 -1      4063 7.89000E+01 2.83873E+01 0.00000E+00
 -1      4064 8.04000E+01 2.83873E+01 0.00000E+00
 -1      4065 7.81500E+01 2.70883E+01 0.00000E+00
 -1      4066 8.19000E+01 2.83873E+01 0.00000E+00
 -1      4067 8.34000E+01 2.83873E+01 0.00000E+00
 -1      4068 8.11500E+01 2.70883E+01 0.00000E+00
 -1      4069 8.49000E+01 2.83873E+01 0.00000E+00
 -1      4070 8.64000E+01 2.83873E+01 0.00000E+00
 -1      4071 8.41500E+01 2.70883E+01 0.00000E+00
 -1      4072 8.79000E+01 2.83873E+01 0.00000E+00
 -1      4073 8.94000E+01 2.83873E+01 0.00000E+00
 -1      4074 8.71500E+01 2.70883E+01 0.00000E+00
 -1      4075 9.09000E+01 2.83873E+01 0.00000E+00
 -1      4076 9.24000E+01 2.83873E+01 0.00000E+00
 -1      4077 9.01500E+01 2.70883E+01 0.00000E+00
 -1      4078 9.39000E+01 2.83873E+01 0.00000E+00
 -1      4079 9.54000E+01 2.83873E+01 0.00000E+00
 -1      4080 9.31500E+01 2.70883E+01 0.00000E+00
 -1      4081 9.69000E+01 2.83873E+01 0.00000E+00
 -1      4082 9.84000E+01 2.83873E+01 0.00000E+00
 -1      4083 9.61500E+01 2.70883E+01 0.00000E+00
 -1      4084 9.99000E+01 2.83873E+01 0.00000E+00
 -1      4085 1.01400E+02 2.83873E+01 0.00000E+00
 -1      4086 9.91500E+01 2.70883E+01 0.00000E+00
 -1      4087 1.02900E+02 2.83873E+01 0.00000E+00
 -1      4088 1.04400E+02 2.83873E+01 0.00000E+00
 -1      4089 1.02150E+02 2.70883E+01 0.00000E+00
 -1      4090 1.05900E+02 2.83873E+01 0.00000E+00
 -1      4091 1.07400E+02 2.83873E+01 0.00000E+00
 -1      4092 1.05150E+02 2.70883E+01 0.00000E+00
 -1      4093 1.08900E+02 2.83873E+01 0.00000E+00
 -1      4094 1.10400E+02 2.83873E+01 0.00000E+00
 -1      4095 1.08150E+02 2.70883E+01 0.00000E+00
 -1      4096 1.11900E+02 2.83873E+01 0.00000E+00
 -1      4097 1.13400E+02 2.83873E+01 0.00000E+00
 -1      4098 1.11150E+02 2.70883E+01 0.00000E+00
 -1      4099 1.14900E+02 2.83873E+01 0.00000E+00
 -1      4100 1.16400E+02 2.83873E+01 0.00000E+00
 -1      4101 1.14150E+02 2.70883E+01 0.00000E+00
 -1      4102 1.17900E+02 2.83873E+01 0.00000E+00
 -1      4103 1.19400E+02 2.83873E+01 0.00000E+00
 -1      4104 1.17150E+02 2.70883E+01 0.00000E+00
 -1      4105 1.20900E+02 2.83873E+01 0.00000E+00
 -1      4106 1.22400E+02 2.83873E+01 0.00000E+00
 -1      4107 1.20150E+02 2.70883E+01 0.00000E+00
 -1      4108 1.23900E+02 2.83873E+01 0.00000E+00
 -1      4109 1.25400E+02 2.83873E+01 0.00000E+00
 -1      4110 1.23150E+02 2.70883E+01 0.00000E+00
 -1      4111 1.30817E+02 2.20865E+01 0.00000E+00
 -1      4112 1.30920E+02 2.09032E+01 0.00000E+00
 -1      4113 1.29760E+02 2.05129E+01 0.00000E+00
 -1      4114 1.29472E+02 2.25662E+01 0.00000E+00
 -1      4115 5.19000E+01 2.83873E+01 0.00000E+00
 -1      4116 5.34000E+01 2.83873E+01 0.00000E+00
 -1      4117 5.41500E+01 2.70883E+01 0.00000E+00
 -1      4118 5.57850E+01 2.09058E+01 0.00000E+00
 -1      4119 5.42850E+01 2.09058E+01 0.00000E+00
 -1      4120 7.67850E+01 2.09058E+01 0.00000E+00
 -1      4121 7.52850E+01 2.09058E+01 0.00000E+00
 -1      4122 7.37850E+01 2.09058E+01 0.00000E+00
 -1      4123 7.22850E+01 2.09058E+01 0.00000E+00
 -1      4124 7.45350E+01 2.22048E+01 0.00000E+00
 -1      4125 8.27850E+01 2.09058E+01 0.00000E+00
 -1      4126 8.12850E+01 2.09058E+01 0.00000E+00
 -1      4127 8.57850E+01 2.09058E+01 0.00000E+00
 -1      4128 8.42850E+01 2.09058E+01 0.00000E+00
 -1      4129 8.35350E+01 2.22048E+01 0.00000E+00
 -1      4130 8.87850E+01 2.09058E+01 0.00000E+00
 -1      4131 8.72850E+01 2.09058E+01 0.00000E+00
 -1      4132 8.65350E+01 2.22048E+01 0.00000E+00
 -1      4133 9.17850E+01 2.09058E+01 0.00000E+00
 -1      4134 9.02850E+01 2.09058E+01 0.00000E+00
 -1      4135 8.95350E+01 2.22048E+01 0.00000E+00
 -1      4136 9.47850E+01 2.09058E+01 0.00000E+00
 -1      4137 9.32850E+01 2.09058E+01 0.00000E+00
 -1      4138 9.25350E+01 2.22048E+01 0.00000E+00
 -1      4139 9.77850E+01 2.09058E+01 0.00000E+00
 -1      4140 9.62850E+01 2.09058E+01 0.00000E+00
 -1      4141 9.55350E+01 2.22048E+01 0.00000E+00
 -1      4142 1.00785E+02 2.09058E+01 0.00000E+00
 -1      4143 9.92850E+01 2.09058E+01 0.00000E+00
 -1      4144 9.85350E+01 2.22048E+01 0.00000E+00
 -1      4145 1.03785E+02 2.09058E+01 0.00000E+00
 -1      4146 1.02285E+02 2.09058E+01 0.00000E+00
 -1      4147 1.01535E+02 2.22048E+01 0.00000E+00
 -1      4148 1.06785E+02 2.09058E+01 0.00000E+00
 -1      4149 1.05285E+02 2.09058E+01 0.00000E+00
 -1      4150 1.04535E+02 2.22048E+01 0.00000E+00
 -1      4151 1.09785E+02 2.09058E+01 0.00000E+00
 -1      4152 1.08285E+02 2.09058E+01 0.00000E+00
 -1      4153 1.07535E+02 2.22048E+01 0.00000E+00
 -1      4154 1.12785E+02 2.09058E+01 0.00000E+00
 -1      4155 1.11285E+02 2.09058E+01 0.00000E+00
 -1      4156 1.10535E+02 2.22048E+01 0.00000E+00
 -1      4157 1.15785E+02 2.09058E+01 0.00000E+00
 -1      4158 1.14285E+02 2.09058E+01 0.00000E+00
 -1      4159 1.13535E+02 2.22048E+01 0.00000E+00
 -1      4160 1.18785E+02 2.09058E+01 0.00000E+00
 -1      4161 1.17285E+02 2.09058E+01 0.00000E+00
 -1      4162 1.16535E+02 2.22048E+01 0.00000E+00
 -1      4163 1.21785E+02 2.09058E+01 0.00000E+00
 -1      4164 1.20285E+02 2.09058E+01 0.00000E+00
 -1      4165 1.19535E+02 2.22048E+01 0.00000E+00
 -1      4166 1.24785E+02 2.09058E+01 0.00000E+00
 -1      4167 1.23285E+02 2.09058E+01 0.00000E+00
 -1      4168 1.22535E+02 2.22048E+01 0.00000E+00
 -1      4169 3.92184E+01 1.86959E+01 0.00000E+00
 -1      4170 6.77850E+01 2.09058E+01 0.00000E+00
 -1      4171 6.62850E+01 2.09058E+01 0.00000E+00
 -1      4172 7.07850E+01 2.09058E+01 0.00000E+00
 -1      4173 6.92850E+01 2.09058E+01 0.00000E+00
 -1      4174 6.85350E+01 2.22048E+01 0.00000E+00
 -1      4175 1.30524E+02 2.85753E+01 0.00000E+00
 -1      4176 4.30109E+01 2.64538E+01 0.00000E+00
 -1      4177 4.35456E+01 2.79114E+01 0.00000E+00
 -1      4178 4.50456E+01 2.79114E+01 0.00000E+00
 -1      4179 7.97850E+01 2.09058E+01 0.00000E+00
 -1      4180 7.82850E+01 2.09058E+01 0.00000E+00
 -1      4181 8.05350E+01 2.22048E+01 0.00000E+00
 -1      4182 6.47850E+01 2.09058E+01 0.00000E+00
 -1      4183 6.32850E+01 2.09058E+01 0.00000E+00
 -1      4184 6.55350E+01 2.22048E+01 0.00000E+00
 -1      4185 5.27850E+01 2.09058E+01 0.00000E+00
 -1      4186 5.12850E+01 2.09058E+01 0.00000E+00
 -1      4187 5.35350E+01 2.22048E+01 0.00000E+00
 -1      4188 5.87850E+01 2.09058E+01 0.00000E+00
 -1      4189 5.72850E+01 2.09058E+01 0.00000E+00
 -1      4190 5.65350E+01 2.22048E+01 0.00000E+00
 -1      4191 4.97850E+01 2.09058E+01 0.00000E+00
 -1      4192 4.82850E+01 2.09058E+01 0.00000E+00
 -1      4193 5.05350E+01 2.22048E+01 0.00000E+00
 -1      4194 4.67850E+01 2.09058E+01 0.00000E+00
 -1      4195 4.52850E+01 2.09058E+01 0.00000E+00
 -1      4196 4.75350E+01 2.22048E+01 0.00000E+00
 -1      4197 6.17850E+01 2.09058E+01 0.00000E+00
 -1      4198 6.02850E+01 2.09058E+01 0.00000E+00
 -1      4199 6.25350E+01 2.22048E+01 0.00000E+00
 -1      4200 1.29281E+02 2.78717E+01 0.00000E+00
 -1      4201 1.28093E+02 2.54853E+01 0.00000E+00
 -1      4202 1.28051E+02 2.42531E+01 0.00000E+00
 -1      4203 1.28195E+02 2.32265E+01 0.00000E+00
 -1      4204 1.28339E+02 2.21999E+01 0.00000E+00
 -1      4205 1.26917E+02 2.38868E+01 0.00000E+00
 -1      4206 1.26900E+02 2.83873E+01 0.00000E+00
 -1      4207 1.28400E+02 2.83873E+01 0.00000E+00
 -1      4208 7.75350E+01 2.22048E+01 0.00000E+00
 -1      4209 5.95350E+01 2.22048E+01 0.00000E+00
 -1      4210 7.15350E+01 2.22048E+01 0.00000E+00
 -1      4211 3.99684E+01 1.99949E+01 0.00000E+00
 -1      4212 1.26298E+02 2.12335E+01 0.00000E+00
 -1      4213 1.25548E+02 2.25325E+01 0.00000E+00
 -1      4214 4.28881E+01 2.53523E+01 0.00000E+00
 -1      4215 5.05076E+01 2.83080E+01 0.00000E+00
 -1      4216 5.12576E+01 2.70090E+01 0.00000E+00
 -1      4217 4.91152E+01 2.82286E+01 0.00000E+00
 -1      4218 3.99009E+01 2.11560E+01 0.00000E+00
 -1      4219 3.99561E+01 2.24523E+01 0.00000E+00
 -1      4220 4.13328E+01 2.30898E+01 0.00000E+00
 -1      4221 4.14676E+01 2.07678E+01 0.00000E+00
 -1      4222 1.28483E+02 2.11733E+01 0.00000E+00
 -1      4223 4.63842E+01 2.80304E+01 0.00000E+00
 -1      4224 4.77766E+01 2.81097E+01 0.00000E+00
 -1      4225 4.85266E+01 2.68107E+01 0.00000E+00
 -1      4226 4.58494E+01 2.65728E+01 0.00000E+00
 -1      4227 1.26150E+02 2.70883E+01 0.00000E+00
 -1      4228 5.72850E+01 2.35037E+01 0.00000E+00
 -1      4229 5.57850E+01 2.35037E+01 0.00000E+00
 -1      4230 5.94000E+01 2.57893E+01 0.00000E+00
 -1      4231 6.09000E+01 2.57893E+01 0.00000E+00
 -1      4232 6.28425E+01 2.46465E+01 0.00000E+00
 -1      4233 6.43425E+01 2.46465E+01 0.00000E+00
 -1      4234 6.58425E+01 2.46465E+01 0.00000E+00
 -1      4235 6.73425E+01 2.46465E+01 0.00000E+00
 -1      4236 6.88425E+01 2.46465E+01 0.00000E+00
 -1      4237 7.03425E+01 2.46465E+01 0.00000E+00
 -1      4238 7.18425E+01 2.46465E+01 0.00000E+00
 -1      4239 7.33425E+01 2.46465E+01 0.00000E+00
 -1      4240 7.48425E+01 2.46465E+01 0.00000E+00
 -1      4241 7.63425E+01 2.46465E+01 0.00000E+00
 -1      4242 7.78425E+01 2.46465E+01 0.00000E+00
 -1      4243 7.93425E+01 2.46465E+01 0.00000E+00
 -1      4244 8.08425E+01 2.46465E+01 0.00000E+00
 -1      4245 8.23425E+01 2.46465E+01 0.00000E+00
 -1      4246 8.38425E+01 2.46465E+01 0.00000E+00
 -1      4247 8.53425E+01 2.46465E+01 0.00000E+00
 -1      4248 8.68425E+01 2.46465E+01 0.00000E+00
 -1      4249 8.83425E+01 2.46465E+01 0.00000E+00
 -1      4250 8.98425E+01 2.46465E+01 0.00000E+00
 -1      4251 9.13425E+01 2.46465E+01 0.00000E+00
 -1      4252 9.28425E+01 2.46465E+01 0.00000E+00
 -1      4253 9.43425E+01 2.46465E+01 0.00000E+00
 -1      4254 9.58425E+01 2.46465E+01 0.00000E+00
 -1      4255 9.73425E+01 2.46465E+01 0.00000E+00
 -1      4256 9.88425E+01 2.46465E+01 0.00000E+00
 -1      4257 1.00342E+02 2.46465E+01 0.00000E+00
 -1      4258 1.01842E+02 2.46465E+01 0.00000E+00
 -1      4259 1.03342E+02 2.46465E+01 0.00000E+00
 -1      4260 1.04842E+02 2.46465E+01 0.00000E+00
 -1      4261 1.06342E+02 2.46465E+01 0.00000E+00
 -1      4262 1.07842E+02 2.46465E+01 0.00000E+00
 -1      4263 1.09342E+02 2.46465E+01 0.00000E+00
 -1      4264 1.10842E+02 2.46465E+01 0.00000E+00
 -1      4265 1.12342E+02 2.46465E+01 0.00000E+00
 -1      4266 1.13842E+02 2.46465E+01 0.00000E+00
 -1      4267 1.15342E+02 2.46465E+01 0.00000E+00
 -1      4268 1.16842E+02 2.46465E+01 0.00000E+00
 -1      4269 1.18342E+02 2.46465E+01 0.00000E+00
 -1      4270 1.19842E+02 2.46465E+01 0.00000E+00
 -1      4271 1.21342E+02 2.46465E+01 0.00000E+00
 -1      4272 1.22842E+02 2.46465E+01 0.00000E+00
 -1      4273 1.24342E+02 2.46465E+01 0.00000E+00
 -1      4274 1.28531E+02 2.65727E+01 0.00000E+00
 -1      4275 4.28063E+01 2.37268E+01 0.00000E+00
 -1      4276 4.44290E+01 2.48283E+01 0.00000E+00
 -1      4277 4.37850E+01 2.09058E+01 0.00000E+00
 -1      4278 4.22850E+01 2.09058E+01 0.00000E+00
 -1      4279 1.25404E+02 2.35591E+01 0.00000E+00
 -1      4280 1.27212E+02 2.60009E+01 0.00000E+00
 -1      4281 4.45350E+01 2.22048E+01 0.00000E+00
 -1      4282 5.60925E+01 2.59455E+01 0.00000E+00
 -1      4283 5.75925E+01 2.59455E+01 0.00000E+00
 -1      4284 5.38425E+01 2.46465E+01 0.00000E+00
 -1      4285 5.23425E+01 2.46465E+01 0.00000E+00
 -1      4286 5.09501E+01 2.45672E+01 0.00000E+00
 -1      4287 4.94501E+01 2.45672E+01 0.00000E+00
 -1      4288 4.81115E+01 2.44482E+01 0.00000E+00
 -1      4289 4.66115E+01 2.44482E+01 0.00000E+00
 -1      4290 6.05925E+01 2.33475E+01 0.00000E+00
 -1      4291 5.90925E+01 2.33475E+01 0.00000E+00
 -1      4292 1.25712E+02 2.60009E+01 0.00000E+00
 -1      4293 4.57676E+01 2.49472E+01 0.00000E+00
 -1      4294 5.83425E+01 2.46465E+01 0.00000E+00
 -1      4295 4.22176E+01 2.20668E+01 0.00000E+00
 -1      4296 5.53425E+01 2.46465E+01 0.00000E+00
 -1      4297 6.13425E+01 2.46465E+01 0.00000E+00
 -1      4298 4.51911E+01 2.27038E+01 0.00000E+00
 -1      4299 4.36911E+01 2.27038E+01 0.00000E+00
 -1      4300 4.21502E+01 2.32278E+01 0.00000E+00
 -3
    3C                          2068                                     1
 -1       165    8    0    1
 -2         6         7        23      1117      1281      1134
 -1       166    8    0    1
 -2         7         8       165      1118      1282      1283
 -1       167    8    0    1
 -2         8         9       166      1119      1284      1285
 -1       168    8    0    1
 -2         8       166       165      1285      1286      1282
 -1       169    8    0    1
 -2         9        10       167      1120      1287      1288
 -1       170    8    0    1
 -2         9       167       166      1288      1289      1284
 -1       171    8    0    1
 -2        10        11       168      1121      1290      1291
 -1       172    8    0    1
 -2        10       168       167      1291      1292      1287
 -1       173    8    0    1
 -2        11        12       169      1122      1293      1294
 -1       174    8    0    1
 -2        11       169       168      1294      1295      1290
 -1       175    8    0    1
 -2        12        13       170      1123      1296      1297
 -1       176    8    0    1
 -2        12       170       169      1297      1298      1293
 -1       177    8    0    1
 -2        13        14       171      1124      1299      1300
 -1       178    8    0    1
 -2        13       171       170      1300      1301      1296
 -1       179    8    0    1
 -2        14        15       172      1125      1302      1303
 -1       180    8    0    1
 -2        14       172       171      1303      1304      1299
 -1       181    8    0    1
 -2        15        16       173      1126      1305      1306
 -1       182    8    0    1
 -2        15       173       172      1306      1307      1302
 -1       183    8    0    1
 -2        16        17       174      1127      1308      1309
 -1       184    8    0    1
 -2        16       174       173      1309      1310      1305
 -1       185    8    0    1
 -2        17        18       175      1128      1311      1312
 -1       186    8    0    1
 -2        17       175       174      1312      1313      1308
 -1       187    8    0    1
 -2        18        19       176      1129      1314      1315
 -1       188    8    0    1
 -2        18       176       175      1315      1316      1311
 -1       189    8    0    1
 -2        19        20       177      1130      1317      1318
 -1       190    8    0    1
 -2        19       177       176      1318      1319      1314
 -1       191    8    0    1
 -2        20        21       178      1131      1320      1321
 -1       192    8    0    1
 -2        20       178       177      1321      1322      1317
 -1       193    8    0    1
 -2        21        22       179      1132      1323      1324
 -1       194    8    0    1
 -2        21       179       178      1324      1325      1320
 -1       195    8    0    1
 -2        22         5       180      1133      1326      1327
 -1       196    8    0    1
 -2       179        22       180      1323      1327      1328
 -1       197    8    0    1
 -2         5        72       180      1184      1329      1326
 -1       198    8    0    1
 -2        24        23       181      1135      1330      1331
 -1       199    8    0    1
 -2        25        24       182      1136      1332      1333
 -1       200    8    0    1
 -2        24       181       182      1331      1334      1332
 -1       201    8    0    1
 -2        26        25       183      1137      1335      1336
 -1       202    8    0    1
 -2        25       182       183      1333      1337      1335
 -1       203    8    0    1
 -2        27        26       184      1138      1338      1339
 -1       204    8    0    1
 -2        26       183       184      1336      1340      1338
 -1       205    8    0    1
 -2        28        27       185      1139      1341      1342
 -1       206    8    0    1
 -2        27       184       185      1339      1343      1341
 -1       207    8    0    1
 -2        29        28       186      1140      1344      1345
 -1       208    8    0    1
 -2        28       185       186      1342      1346      1344
 -1       209    8    0    1
 -2        30        29       187      1141      1347      1348
 -1       210    8    0    1
 -2        29       186       187      1345      1349      1347
 -1       211    8    0    1
 -2        31        30       188      1142      1350      1351
 -1       212    8    0    1
 -2        30       187       188      1348      1352      1350
 -1       213    8    0    1
 -2        32        31       189      1143      1353      1354
 -1       214    8    0    1
 -2        31       188       189      1351      1355      1353
 -1       215    8    0    1
 -2        33        32       190      1144      1356      1357
 -1       216    8    0    1
 -2        32       189       190      1354      1358      1356
 -1       217    8    0    1
 -2        34        33       191      1145      1359      1360
 -1       218    8    0    1
 -2        33       190       191      1357      1361      1359
 -1       219    8    0    1
 -2        35        34       192      1146      1362      1363
 -1       220    8    0    1
 -2        34       191       192      1360      1364      1362
 -1       221    8    0    1
 -2        36        35       193      1147      1365      1366
 -1       222    8    0    1
 -2        35       192       193      1363      1367      1365
 -1       223    8    0    1
 -2        37        36       194      1148      1368      1369
 -1       224    8    0    1
 -2        36       193       194      1366      1370      1368
 -1       225    8    0    1
 -2        38        37       195      1149      1371      1372
 -1       226    8    0    1
 -2        37       194       195      1369      1373      1371
 -1       227    8    0    1
 -2        39        38       196      1150      1374      1375
 -1       228    8    0    1
 -2        38       195       196      1372      1376      1374
 -1       229    8    0    1
 -2        40        39       197      1151      1377      1378
 -1       230    8    0    1
 -2        39       196       197      1375      1379      1377
 -1       231    8    0    1
 -2        41        40       198      1152      1380      1381
 -1       232    8    0    1
 -2        40       197       198      1378      1382      1380
 -1       233    8    0    1
 -2        42        41       199      1153      1383      1384
 -1       234    8    0    1
 -2        41       198       199      1381      1385      1383
 -1       235    8    0    1
 -2        43        42       200      1154      1386      1387
 -1       236    8    0    1
 -2        42       199       200      1384      1388      1386
 -1       237    8    0    1
 -2        44        43       201      1155      1389      1390
 -1       238    8    0    1
 -2        43       200       201      1387      1391      1389
 -1       239    8    0    1
 -2        45        44       202      1156      1392      1393
 -1       240    8    0    1
 -2        44       201       202      1390      1394      1392
 -1       241    8    0    1
 -2        46        45       203      1157      1395      1396
 -1       242    8    0    1
 -2        45       202       203      1393      1397      1395
 -1       243    8    0    1
 -2        47        46       204      1158      1398      1399
 -1       244    8    0    1
 -2        46       203       204      1396      1400      1398
 -1       245    8    0    1
 -2        48        47       205      1159      1401      1402
 -1       246    8    0    1
 -2        47       204       205      1399      1403      1401
 -1       247    8    0    1
 -2        49        48       206      1160      1404      1405
 -1       248    8    0    1
 -2        48       205       206      1402      1406      1404
 -1       249    8    0    1
 -2        50        49       207      1161      1407      1408
 -1       250    8    0    1
 -2        49       206       207      1405      1409      1407
 -1       251    8    0    1
 -2        51        50       208      1162      1410      1411
 -1       252    8    0    1
 -2        50       207       208      1408      1412      1410
 -1       253    8    0    1
 -2        52        51       209      1163      1413      1414
 -1       254    8    0    1
 -2        51       208       209      1411      1415      1413
 -1       255    8    0    1
 -2        53        52       210      1164      1416      1417
 -1       256    8    0    1
 -2        52       209       210      1414      1418      1416
 -1       257    8    0    1
 -2        54        53       211      1165      1419      1420
 -1       258    8    0    1
 -2        53       210       211      1417      1421      1419
 -1       259    8    0    1
 -2        55        54       212      1166      1422      1423
 -1       260    8    0    1
 -2        54       211       212      1420      1424      1422
 -1       261    8    0    1
 -2        56        55       213      1167      1425      1426
 -1       262    8    0    1
 -2        55       212       213      1423      1427      1425
 -1       263    8    0    1
 -2        57        56       214      1168      1428      1429
 -1       264    8    0    1
 -2        56       213       214      1426      1430      1428
 -1       265    8    0    1
 -2        58        57       215      1169      1431      1432
 -1       266    8    0    1
 -2        57       214       215      1429      1433      1431
 -1       267    8    0    1
 -2        59        58       216      1170      1434      1435
 -1       268    8    0    1
 -2        58       215       216      1432      1436      1434
 -1       269    8    0    1
 -2        60        59       217      1171      1437      1438
 -1       270    8    0    1
 -2        59       216       217      1435      1439      1437
 -1       271    8    0    1
 -2        61        60       218      1172      1440      1441
 -1       272    8    0    1
 -2        60       217       218      1438      1442      1440
 -1       273    8    0    1
 -2        62        61       219      1173      1443      1444
 -1       274    8    0    1
 -2        61       218       219      1441      1445      1443
 -1       275    8    0    1
 -2        63        62       220      1174      1446      1447
 -1       276    8    0    1
 -2        62       219       220      1444      1448      1446
 -1       277    8    0    1
 -2        64        63       221      1175      1449      1450
 -1       278    8    0    1
 -2        63       220       221      1447      1451      1449
 -1       279    8    0    1
 -2        65        64       222      1176      1452      1453
 -1       280    8    0    1
 -2        64       221       222      1450      1454      1452
 -1       281    8    0    1
 -2        66        65       223      1177      1455      1456
 -1       282    8    0    1
 -2        65       222       223      1453      1457      1455
 -1       283    8    0    1
 -2        67        66       224      1178      1458      1459
 -1       284    8    0    1
 -2        66       223       224      1456      1460      1458
 -1       285    8    0    1
 -2        68        67       225      1179      1461      1462
 -1       286    8    0    1
 -2        67       224       225      1459      1463      1461
 -1       287    8    0    1
 -2        69        68       226      1180      1464      1465
 -1       288    8    0    1
 -2        68       225       226      1462      1466      1464
 -1       289    8    0    1
 -2        70        69       227      1181      1467      1468
 -1       290    8    0    1
 -2        69       226       227      1465      1469      1467
 -1       291    8    0    1
 -2        71        70       228      1182      1470      1471
 -1       292    8    0    1
 -2        70       227       228      1468      1472      1470
 -1       293    8    0    1
 -2         4        71       136      1183      1473      1250
 -1       294    8    0    1
 -2       136        71       228      1473      1471      1474
 -1       295    8    0    1
 -2        72        73       229      1185      1475      1476
 -1       296    8    0    1
 -2        72       229       180      1476      1477      1329
 -1       297    8    0    1
 -2        73        74       230      1186      1478      1479
 -1       298    8    0    1
 -2        73       230       229      1479      1480      1475
 -1       299    8    0    1
 -2        74        75       231      1187      1481      1482
 -1       300    8    0    1
 -2        74       231       230      1482      1483      1478
 -1       301    8    0    1
 -2        75        76       232      1188      1484      1485
 -1       302    8    0    1
 -2        75       232       231      1485      1486      1481
 -1       303    8    0    1
 -2        76        77       233      1189      1487      1488
 -1       304    8    0    1
 -2        76       233       232      1488      1489      1484
 -1       305    8    0    1
 -2        77        78       234      1190      1490      1491
 -1       306    8    0    1
 -2        77       234       233      1491      1492      1487
 -1       307    8    0    1
 -2        78        79       235      1191      1493      1494
 -1       308    8    0    1
 -2        78       235       234      1494      1495      1490
 -1       309    8    0    1
 -2        79        80       236      1192      1496      1497
 -1       310    8    0    1
 -2        79       236       235      1497      1498      1493
 -1       311    8    0    1
 -2        80        81       237      1193      1499      1500
 -1       312    8    0    1
 -2        80       237       236      1500      1501      1496
 -1       313    8    0    1
 -2        81        82       238      1194      1502      1503
 -1       314    8    0    1
 -2        81       238       237      1503      1504      1499
 -1       315    8    0    1
 -2        82        83       239      1195      1505      1506
 -1       316    8    0    1
 -2        82       239       238      1506      1507      1502
 -1       317    8    0    1
 -2        83        84       240      1196      1508      1509
 -1       318    8    0    1
 -2        83       240       239      1509      1510      1505
 -1       319    8    0    1
 -2        84        85       241      1197      1511      1512
 -1       320    8    0    1
 -2        84       241       240      1512      1513      1508
 -1       321    8    0    1
 -2        85        86       242      1198      1514      1515
 -1       322    8    0    1
 -2        85       242       241      1515      1516      1511
 -1       323    8    0    1
 -2        86        87       243      1199      1517      1518
 -1       324    8    0    1
 -2        86       243       242      1518      1519      1514
 -1       325    8    0    1
 -2        87        88       244      1200      1520      1521
 -1       326    8    0    1
 -2        87       244       243      1521      1522      1517
 -1       327    8    0    1
 -2        88        89       245      1201      1523      1524
 -1       328    8    0    1
 -2        88       245       244      1524      1525      1520
 -1       329    8    0    1
 -2        89        90       246      1202      1526      1527
 -1       330    8    0    1
 -2        89       246       245      1527      1528      1523
 -1       331    8    0    1
 -2        90        91       247      1203      1529      1530
 -1       332    8    0    1
 -2        90       247       246      1530      1531      1526
 -1       333    8    0    1
 -2        91        92       248      1204      1532      1533
 -1       334    8    0    1
 -2        91       248       247      1533      1534      1529
 -1       335    8    0    1
 -2        92        93       249      1205      1535      1536
 -1       336    8    0    1
 -2        92       249       248      1536      1537      1532
 -1       337    8    0    1
 -2        93        94       250      1206      1538      1539
 -1       338    8    0    1
 -2        93       250       249      1539      1540      1535
 -1       339    8    0    1
 -2        94        95       251      1207      1541      1542
 -1       340    8    0    1
 -2        94       251       250      1542      1543      1538
 -1       341    8    0    1
 -2        95        96       252      1208      1544      1545
 -1       342    8    0    1
 -2        95       252       251      1545      1546      1541
 -1       343    8    0    1
 -2        96        97       253      1209      1547      1548
 -1       344    8    0    1
 -2        96       253       252      1548      1549      1544
 -1       345    8    0    1
 -2        97        98       254      1210      1550      1551
 -1       346    8    0    1
 -2        97       254       253      1551      1552      1547
 -1       347    8    0    1
 -2        98        99       255      1211      1553      1554
 -1       348    8    0    1
 -2        98       255       254      1554      1555      1550
 -1       349    8    0    1
 -2        99       100       256      1212      1556      1557
 -1       350    8    0    1
 -2        99       256       255      1557      1558      1553
 -1       351    8    0    1
 -2       100       101       257      1213      1559      1560
 -1       352    8    0    1
 -2       100       257       256      1560      1561      1556
 -1       353    8    0    1
 -2       101       102       258      1214      1562      1563
 -1       354    8    0    1
 -2       101       258       257      1563      1564      1559
 -1       355    8    0    1
 -2       102       103       259      1215      1565      1566
 -1       356    8    0    1
 -2       102       259       258      1566      1567      1562
 -1       357    8    0    1
 -2       103       104       260      1216      1568      1569
 -1       358    8    0    1
 -2       103       260       259      1569      1570      1565
 -1       359    8    0    1
 -2       104       105       261      1217      1571      1572
 -1       360    8    0    1
 -2       104       261       260      1572      1573      1568
 -1       361    8    0    1
 -2       105       106       262      1218      1574      1575
 -1       362    8    0    1
 -2       105       262       261      1575      1576      1571
 -1       363    8    0    1
 -2       106       107       263      1219      1577      1578
 -1       364    8    0    1
 -2       106       263       262      1578      1579      1574
 -1       365    8    0    1
 -2       107       108       264      1220      1580      1581
 -1       366    8    0    1
 -2       107       264       263      1581      1582      1577
 -1       367    8    0    1
 -2       108       109       265      1221      1583      1584
 -1       368    8    0    1
 -2       108       265       264      1584      1585      1580
 -1       369    8    0    1
 -2       109       110       266      1222      1586      1587
 -1       370    8    0    1
 -2       109       266       265      1587      1588      1583
 -1       371    8    0    1
 -2       110       111       267      1223      1589      1590
 -1       372    8    0    1
 -2       110       267       266      1590      1591      1586
 -1       373    8    0    1
 -2       111       112       268      1224      1592      1593
 -1       374    8    0    1
 -2       111       268       267      1593      1594      1589
 -1       375    8    0    1
 -2       112       113       269      1225      1595      1596
 -1       376    8    0    1
 -2       112       269       268      1596      1597      1592
 -1       377    8    0    1
 -2       113       114       270      1226      1598      1599
 -1       378    8    0    1
 -2       113       270       269      1599      1600      1595
 -1       379    8    0    1
 -2       114       115       271      1227      1601      1602
 -1       380    8    0    1
 -2       114       271       270      1602      1603      1598
 -1       381    8    0    1
 -2       115       116       272      1228      1604      1605
 -1       382    8    0    1
 -2       115       272       271      1605      1606      1601
 -1       383    8    0    1
 -2       116       117       273      1229      1607      1608
 -1       384    8    0    1
 -2       116       273       272      1608      1609      1604
 -1       385    8    0    1
 -2       117       118       274      1230      1610      1611
 -1       386    8    0    1
 -2       117       274       273      1611      1612      1607
 -1       387    8    0    1
 -2       118       119       275      1231      1613      1614
 -1       388    8    0    1
 -2       118       275       274      1614      1615      1610
 -1       389    8    0    1
 -2       119       120       276      1232      1616      1617
 -1       390    8    0    1
 -2       119       276       275      1617      1618      1613
 -1       391    8    0    1
 -2       120         3       121      1233      1234      1619
 -1       392    8    0    1
 -2       121       122       277      1235      1620      1621
 -1       393    8    0    1
 -2       122       123       278      1236      1622      1623
 -1       394    8    0    1
 -2       122       278       277      1623      1624      1620
 -1       395    8    0    1
 -2       123       124       279      1237      1625      1626
 -1       396    8    0    1
 -2       123       279       278      1626      1627      1622
 -1       397    8    0    1
 -2       124       125       280      1238      1628      1629
 -1       398    8    0    1
 -2       124       280       279      1629      1630      1625
 -1       399    8    0    1
 -2       125       126       281      1239      1631      1632
 -1       400    8    0    1
 -2       125       281       280      1632      1633      1628
 -1       401    8    0    1
 -2       126       127       282      1240      1634      1635
 -1       402    8    0    1
 -2       126       282       281      1635      1636      1631
 -1       403    8    0    1
 -2       127       128       283      1241      1637      1638
 -1       404    8    0    1
 -2       127       283       282      1638      1639      1634
 -1       405    8    0    1
 -2       128       129       284      1242      1640      1641
 -1       406    8    0    1
 -2       128       284       283      1641      1642      1637
 -1       407    8    0    1
 -2       129       130       285      1243      1643      1644
 -1       408    8    0    1
 -2       129       285       284      1644      1645      1640
 -1       409    8    0    1
 -2       130       131       286      1244      1646      1647
 -1       410    8    0    1
 -2       130       286       285      1647      1648      1643
 -1       411    8    0    1
 -2       131       132       287      1245      1649      1650
 -1       412    8    0    1
 -2       131       287       286      1650      1651      1646
 -1       413    8    0    1
 -2       132       133       288      1246      1652      1653
 -1       414    8    0    1
 -2       132       288       287      1653      1654      1649
 -1       415    8    0    1
 -2       133       134       289      1247      1655      1656
 -1       416    8    0    1
 -2       133       289       288      1656      1657      1652
 -1       417    8    0    1
 -2       134       135       290      1248      1658      1659
 -1       418    8    0    1
 -2       134       290       289      1659      1660      1655
 -1       419    8    0    1
 -2       135       136       291      1249      1661      1662
 -1       420    8    0    1
 -2       290       135       291      1658      1662      1663
 -1       421    8    0    1
 -2       136       228       291      1474      1664      1661
 -1       422    8    0    1
 -2         2       137       292      1251      1665      1666
 -1       423    8    0    1
 -2       137       138       293      1252      1667      1668
 -1       424    8    0    1
 -2       138       139       294      1253      1669      1670
 -1       425    8    0    1
 -2       139       140       295      1254      1671      1672
 -1       426    8    0    1
 -2       140       141       296      1255      1673      1674
 -1       427    8    0    1
 -2       141       142       297      1256      1675      1676
 -1       428    8    0    1
 -2       142       143       298      1257      1677      1678
 -1       429    8    0    1
 -2       143       144       299      1258      1679      1680
 -1       430    8    0    1
 -2       144       145       300      1259      1681      1682
 -1       431    8    0    1
 -2       145       146       301      1260      1683      1684
 -1       432    8    0    1
 -2       146       147       302      1261      1685      1686
 -1       433    8    0    1
 -2       147       148       303      1262      1687      1688
 -1       434    8    0    1
 -2       148       149       304      1263      1689      1690
 -1       435    8    0    1
 -2       149       150       305      1264      1691      1692
 -1       436    8    0    1
 -2       150       151       306      1265      1693      1694
 -1       437    8    0    1
 -2       151       152       307      1266      1695      1696
 -1       438    8    0    1
 -2       152       153       308      1267      1697      1698
 -1       439    8    0    1
 -2       153       154       309      1268      1699      1700
 -1       440    8    0    1
 -2       154       155       310      1269      1701      1702
 -1       441    8    0    1
 -2       155       156       311      1270      1703      1704
 -1       442    8    0    1
 -2       156       157       312      1271      1705      1706
 -1       443    8    0    1
 -2       157         1       313      1272      1707      1708
 -1       444    8    0    1
 -2         1       158       314      1273      1709      1710
 -1       445    8    0    1
 -2       158       159       315      1274      1711      1712
 -1       446    8    0    1
 -2       159       160       316      1275      1713      1714
 -1       447    8    0    1
 -2       160       161       317      1276      1715      1716
 -1       448    8    0    1
 -2       161       162       318      1277      1717      1718
 -1       449    8    0    1
 -2       162       163       319      1278      1719      1720
 -1       450    8    0    1
 -2       163       164       320      1279      1721      1722
 -1       451    8    0    1
 -2       164         2       321      1280      1723      1724
 -1       452    8    0    1
 -2       295       140       296      1671      1674      1725
 -1       453    8    0    1
 -2       294       139       295      1669      1672      1726
 -1       454    8    0    1
 -2       120       121       276      1619      1727      1616
 -1       455    8    0    1
 -2       121       277       276      1621      1728      1727
 -1       456    8    0    1
 -2       292       137       293      1665      1668      1729
 -1       457    8    0    1
 -2       293       138       294      1667      1670      1730
 -1       458    8    0    1
 -2         2       292       321      1666      1731      1723
 -1       459    8    0    1
 -2       141       297       296      1676      1732      1673
 -1       460    8    0    1
 -2       142       298       297      1678      1733      1675
 -1       461    8    0    1
 -2       143       299       298      1680      1734      1677
 -1       462    8    0    1
 -2       144       300       299      1682      1735      1679
 -1       463    8    0    1
 -2       145       301       300      1684      1736      1681
 -1       464    8    0    1
 -2       146       302       301      1686      1737      1683
 -1       465    8    0    1
 -2       147       303       302      1688      1738      1685
 -1       466    8    0    1
 -2       148       304       303      1690      1739      1687
 -1       467    8    0    1
 -2       149       305       304      1692      1740      1689
 -1       468    8    0    1
 -2       150       306       305      1694      1741      1691
 -1       469    8    0    1
 -2       151       307       306      1696      1742      1693
 -1       470    8    0    1
 -2       152       308       307      1698      1743      1695
 -1       471    8    0    1
 -2       153       309       308      1700      1744      1697
 -1       472    8    0    1
 -2       154       310       309      1702      1745      1699
 -1       473    8    0    1
 -2       155       311       310      1704      1746      1701
 -1       474    8    0    1
 -2       156       312       311      1706      1747      1703
 -1       475    8    0    1
 -2       157       313       312      1708      1748      1705
 -1       476    8    0    1
 -2         1       314       313      1710      1749      1707
 -1       477    8    0    1
 -2       158       315       314      1712      1750      1709
 -1       478    8    0    1
 -2       159       316       315      1714      1751      1711
 -1       479    8    0    1
 -2       160       317       316      1716      1752      1713
 -1       480    8    0    1
 -2       161       318       317      1718      1753      1715
 -1       481    8    0    1
 -2       162       319       318      1720      1754      1717
 -1       482    8    0    1
 -2       163       320       319      1722      1755      1719
 -1       483    8    0    1
 -2       164       321       320      1724      1756      1721
 -1       484    8    0    1
 -2        23         7       165      1281      1283      1757
 -1       485    8    0    1
 -2       166       167       322      1289      1758      1759
 -1       486    8    0    1
 -2       165       166       323      1286      1760      1761
 -1       487    8    0    1
 -2       166       322       323      1759      1762      1760
 -1       488    8    0    1
 -2       168       169       324      1295      1763      1764
 -1       489    8    0    1
 -2       169       170       325      1298      1765      1766
 -1       490    8    0    1
 -2       169       325       324      1766      1767      1763
 -1       491    8    0    1
 -2       170       171       326      1301      1768      1769
 -1       492    8    0    1
 -2       170       326       325      1769      1770      1765
 -1       493    8    0    1
 -2       171       172       327      1304      1771      1772
 -1       494    8    0    1
 -2       171       327       326      1772      1773      1768
 -1       495    8    0    1
 -2       172       173       328      1307      1774      1775
 -1       496    8    0    1
 -2       172       328       327      1775      1776      1771
 -1       497    8    0    1
 -2       173       174       329      1310      1777      1778
 -1       498    8    0    1
 -2       173       329       328      1778      1779      1774
 -1       499    8    0    1
 -2       174       175       330      1313      1780      1781
 -1       500    8    0    1
 -2       174       330       329      1781      1782      1777
 -1       501    8    0    1
 -2       175       176       331      1316      1783      1784
 -1       502    8    0    1
 -2       175       331       330      1784      1785      1780
 -1       503    8    0    1
 -2       176       177       332      1319      1786      1787
 -1       504    8    0    1
 -2       176       332       331      1787      1788      1783
 -1       505    8    0    1
 -2       177       178       333      1322      1789      1790
 -1       506    8    0    1
 -2       177       333       332      1790      1791      1786
 -1       507    8    0    1
 -2       178       179       334      1325      1792      1793
 -1       508    8    0    1
 -2       178       334       333      1793      1794      1789
 -1       509    8    0    1
 -2       179       180       335      1328      1795      1796
 -1       510    8    0    1
 -2       334       179       335      1792      1796      1797
 -1       511    8    0    1
 -2       180       229       335      1477      1798      1795
 -1       512    8    0    1
 -2       181        23       165      1330      1757      1799
 -1       513    8    0    1
 -2       229       230       336      1480      1800      1801
 -1       514    8    0    1
 -2       229       336       335      1801      1802      1798
 -1       515    8    0    1
 -2       181       165       323      1799      1761      1803
 -1       516    8    0    1
 -2       183       182       337      1337      1804      1805
 -1       517    8    0    1
 -2       184       183       338      1340      1806      1807
 -1       518    8    0    1
 -2       183       337       338      1805      1808      1806
 -1       519    8    0    1
 -2       185       184       339      1343      1809      1810
 -1       520    8    0    1
 -2       184       338       339      1807      1811      1809
 -1       521    8    0    1
 -2       186       185       340      1346      1812      1813
 -1       522    8    0    1
 -2       185       339       340      1810      1814      1812
 -1       523    8    0    1
 -2       187       186       341      1349      1815      1816
 -1       524    8    0    1
 -2       186       340       341      1813      1817      1815
 -1       525    8    0    1
 -2       188       187       342      1352      1818      1819
 -1       526    8    0    1
 -2       187       341       342      1816      1820      1818
 -1       527    8    0    1
 -2       189       188       343      1355      1821      1822
 -1       528    8    0    1
 -2       188       342       343      1819      1823      1821
 -1       529    8    0    1
 -2       190       189       344      1358      1824      1825
 -1       530    8    0    1
 -2       189       343       344      1822      1826      1824
 -1       531    8    0    1
 -2       191       190       345      1361      1827      1828
 -1       532    8    0    1
 -2       190       344       345      1825      1829      1827
 -1       533    8    0    1
 -2       192       191       346      1364      1830      1831
 -1       534    8    0    1
 -2       191       345       346      1828      1832      1830
 -1       535    8    0    1
 -2       193       192       347      1367      1833      1834
 -1       536    8    0    1
 -2       192       346       347      1831      1835      1833
 -1       537    8    0    1
 -2       194       193       348      1370      1836      1837
 -1       538    8    0    1
 -2       193       347       348      1834      1838      1836
 -1       539    8    0    1
 -2       195       194       349      1373      1839      1840
 -1       540    8    0    1
 -2       194       348       349      1837      1841      1839
 -1       541    8    0    1
 -2       196       195       350      1376      1842      1843
 -1       542    8    0    1
 -2       195       349       350      1840      1844      1842
 -1       543    8    0    1
 -2       197       196       351      1379      1845      1846
 -1       544    8    0    1
 -2       196       350       351      1843      1847      1845
 -1       545    8    0    1
 -2       198       197       352      1382      1848      1849
 -1       546    8    0    1
 -2       197       351       352      1846      1850      1848
 -1       547    8    0    1
 -2       199       198       353      1385      1851      1852
 -1       548    8    0    1
 -2       198       352       353      1849      1853      1851
 -1       549    8    0    1
 -2       200       199       354      1388      1854      1855
 -1       550    8    0    1
 -2       199       353       354      1852      1856      1854
 -1       551    8    0    1
 -2       201       200       355      1391      1857      1858
 -1       552    8    0    1
 -2       200       354       355      1855      1859      1857
 -1       553    8    0    1
 -2       202       201       356      1394      1860      1861
 -1       554    8    0    1
 -2       201       355       356      1858      1862      1860
 -1       555    8    0    1
 -2       203       202       357      1397      1863      1864
 -1       556    8    0    1
 -2       202       356       357      1861      1865      1863
 -1       557    8    0    1
 -2       204       203       358      1400      1866      1867
 -1       558    8    0    1
 -2       203       357       358      1864      1868      1866
 -1       559    8    0    1
 -2       205       204       359      1403      1869      1870
 -1       560    8    0    1
 -2       204       358       359      1867      1871      1869
 -1       561    8    0    1
 -2       206       205       360      1406      1872      1873
 -1       562    8    0    1
 -2       205       359       360      1870      1874      1872
 -1       563    8    0    1
 -2       207       206       361      1409      1875      1876
 -1       564    8    0    1
 -2       206       360       361      1873      1877      1875
 -1       565    8    0    1
 -2       208       207       362      1412      1878      1879
 -1       566    8    0    1
 -2       207       361       362      1876      1880      1878
 -1       567    8    0    1
 -2       209       208       363      1415      1881      1882
 -1       568    8    0    1
 -2       208       362       363      1879      1883      1881
 -1       569    8    0    1
 -2       210       209       364      1418      1884      1885
 -1       570    8    0    1
 -2       209       363       364      1882      1886      1884
 -1       571    8    0    1
 -2       211       210       365      1421      1887      1888
 -1       572    8    0    1
 -2       210       364       365      1885      1889      1887
 -1       573    8    0    1
 -2       212       211       366      1424      1890      1891
 -1       574    8    0    1
 -2       211       365       366      1888      1892      1890
 -1       575    8    0    1
 -2       213       212       367      1427      1893      1894
 -1       576    8    0    1
 -2       212       366       367      1891      1895      1893
 -1       577    8    0    1
 -2       214       213       368      1430      1896      1897
 -1       578    8    0    1
 -2       213       367       368      1894      1898      1896
 -1       579    8    0    1
 -2       215       214       369      1433      1899      1900
 -1       580    8    0    1
 -2       214       368       369      1897      1901      1899
 -1       581    8    0    1
 -2       216       215       370      1436      1902      1903
 -1       582    8    0    1
 -2       215       369       370      1900      1904      1902
 -1       583    8    0    1
 -2       217       216       371      1439      1905      1906
 -1       584    8    0    1
 -2       216       370       371      1903      1907      1905
 -1       585    8    0    1
 -2       218       217       372      1442      1908      1909
 -1       586    8    0    1
 -2       217       371       372      1906      1910      1908
 -1       587    8    0    1
 -2       219       218       373      1445      1911      1912
 -1       588    8    0    1
 -2       218       372       373      1909      1913      1911
 -1       589    8    0    1
 -2       220       219       374      1448      1914      1915
 -1       590    8    0    1
 -2       219       373       374      1912      1916      1914
 -1       591    8    0    1
 -2       221       220       375      1451      1917      1918
 -1       592    8    0    1
 -2       220       374       375      1915      1919      1917
 -1       593    8    0    1
 -2       222       221       376      1454      1920      1921
 -1       594    8    0    1
 -2       221       375       376      1918      1922      1920
 -1       595    8    0    1
 -2       223       222       377      1457      1923      1924
 -1       596    8    0    1
 -2       222       376       377      1921      1925      1923
 -1       597    8    0    1
 -2       224       223       378      1460      1926      1927
 -1       598    8    0    1
 -2       223       377       378      1924      1928      1926
 -1       599    8    0    1
 -2       225       224       379      1463      1929      1930
 -1       600    8    0    1
 -2       224       378       379      1927      1931      1929
 -1       601    8    0    1
 -2       226       225       380      1466      1932      1933
 -1       602    8    0    1
 -2       225       379       380      1930      1934      1932
 -1       603    8    0    1
 -2       227       226       381      1469      1935      1936
 -1       604    8    0    1
 -2       226       380       381      1933      1937      1935
 -1       605    8    0    1
 -2       228       227       382      1472      1938      1939
 -1       606    8    0    1
 -2       291       228       382      1664      1939      1940
 -1       607    8    0    1
 -2       227       381       382      1936      1941      1938
 -1       608    8    0    1
 -2       230       231       383      1483      1942      1943
 -1       609    8    0    1
 -2       230       383       336      1943      1944      1800
 -1       610    8    0    1
 -2       231       232       384      1486      1945      1946
 -1       611    8    0    1
 -2       231       384       383      1946      1947      1942
 -1       612    8    0    1
 -2       232       233       385      1489      1948      1949
 -1       613    8    0    1
 -2       232       385       384      1949      1950      1945
 -1       614    8    0    1
 -2       233       234       386      1492      1951      1952
 -1       615    8    0    1
 -2       233       386       385      1952      1953      1948
 -1       616    8    0    1
 -2       234       235       387      1495      1954      1955
 -1       617    8    0    1
 -2       234       387       386      1955      1956      1951
 -1       618    8    0    1
 -2       235       236       388      1498      1957      1958
 -1       619    8    0    1
 -2       235       388       387      1958      1959      1954
 -1       620    8    0    1
 -2       236       237       389      1501      1960      1961
 -1       621    8    0    1
 -2       236       389       388      1961      1962      1957
 -1       622    8    0    1
 -2       237       238       390      1504      1963      1964
 -1       623    8    0    1
 -2       237       390       389      1964      1965      1960
 -1       624    8    0    1
 -2       238       239       391      1507      1966      1967
 -1       625    8    0    1
 -2       238       391       390      1967      1968      1963
 -1       626    8    0    1
 -2       239       240       392      1510      1969      1970
 -1       627    8    0    1
 -2       239       392       391      1970      1971      1966
 -1       628    8    0    1
 -2       240       241       393      1513      1972      1973
 -1       629    8    0    1
 -2       240       393       392      1973      1974      1969
 -1       630    8    0    1
 -2       241       242       394      1516      1975      1976
 -1       631    8    0    1
 -2       241       394       393      1976      1977      1972
 -1       632    8    0    1
 -2       242       243       395      1519      1978      1979
 -1       633    8    0    1
 -2       242       395       394      1979      1980      1975
 -1       634    8    0    1
 -2       243       244       396      1522      1981      1982
 -1       635    8    0    1
 -2       243       396       395      1982      1983      1978
 -1       636    8    0    1
 -2       244       245       397      1525      1984      1985
 -1       637    8    0    1
 -2       244       397       396      1985      1986      1981
 -1       638    8    0    1
 -2       245       246       398      1528      1987      1988
 -1       639    8    0    1
 -2       245       398       397      1988      1989      1984
 -1       640    8    0    1
 -2       246       247       399      1531      1990      1991
 -1       641    8    0    1
 -2       246       399       398      1991      1992      1987
 -1       642    8    0    1
 -2       247       248       400      1534      1993      1994
 -1       643    8    0    1
 -2       247       400       399      1994      1995      1990
 -1       644    8    0    1
 -2       248       249       401      1537      1996      1997
 -1       645    8    0    1
 -2       248       401       400      1997      1998      1993
 -1       646    8    0    1
 -2       249       250       402      1540      1999      2000
 -1       647    8    0    1
 -2       249       402       401      2000      2001      1996
 -1       648    8    0    1
 -2       250       251       403      1543      2002      2003
 -1       649    8    0    1
 -2       250       403       402      2003      2004      1999
 -1       650    8    0    1
 -2       251       252       404      1546      2005      2006
 -1       651    8    0    1
 -2       251       404       403      2006      2007      2002
 -1       652    8    0    1
 -2       252       253       405      1549      2008      2009
 -1       653    8    0    1
 -2       252       405       404      2009      2010      2005
 -1       654    8    0    1
 -2       253       254       406      1552      2011      2012
 -1       655    8    0    1
 -2       253       406       405      2012      2013      2008
 -1       656    8    0    1
 -2       254       255       407      1555      2014      2015
 -1       657    8    0    1
 -2       254       407       406      2015      2016      2011
 -1       658    8    0    1
 -2       255       256       408      1558      2017      2018
 -1       659    8    0    1
 -2       255       408       407      2018      2019      2014
 -1       660    8    0    1
 -2       256       257       409      1561      2020      2021
 -1       661    8    0    1
 -2       256       409       408      2021      2022      2017
 -1       662    8    0    1
 -2       257       258       410      1564      2023      2024
 -1       663    8    0    1
 -2       257       410       409      2024      2025      2020
 -1       664    8    0    1
 -2       258       259       411      1567      2026      2027
 -1       665    8    0    1
 -2       258       411       410      2027      2028      2023
 -1       666    8    0    1
 -2       259       260       412      1570      2029      2030
 -1       667    8    0    1
 -2       259       412       411      2030      2031      2026
 -1       668    8    0    1
 -2       260       261       413      1573      2032      2033
 -1       669    8    0    1
 -2       260       413       412      2033      2034      2029
 -1       670    8    0    1
 -2       261       262       414      1576      2035      2036
 -1       671    8    0    1
 -2       261       414       413      2036      2037      2032
 -1       672    8    0    1
 -2       262       263       415      1579      2038      2039
 -1       673    8    0    1
 -2       262       415       414      2039      2040      2035
 -1       674    8    0    1
 -2       263       264       416      1582      2041      2042
 -1       675    8    0    1
 -2       263       416       415      2042      2043      2038
 -1       676    8    0    1
 -2       264       265       417      1585      2044      2045
 -1       677    8    0    1
 -2       264       417       416      2045      2046      2041
 -1       678    8    0    1
 -2       265       266       418      1588      2047      2048
 -1       679    8    0    1
 -2       265       418       417      2048      2049      2044
 -1       680    8    0    1
 -2       266       267       419      1591      2050      2051
 -1       681    8    0    1
 -2       266       419       418      2051      2052      2047
 -1       682    8    0    1
 -2       267       268       420      1594      2053      2054
 -1       683    8    0    1
 -2       267       420       419      2054      2055      2050
 -1       684    8    0    1
 -2       268       269       421      1597      2056      2057
 -1       685    8    0    1
 -2       268       421       420      2057      2058      2053
 -1       686    8    0    1
 -2       269       270       422      1600      2059      2060
 -1       687    8    0    1
 -2       269       422       421      2060      2061      2056
 -1       688    8    0    1
 -2       270       271       423      1603      2062      2063
 -1       689    8    0    1
 -2       270       423       422      2063      2064      2059
 -1       690    8    0    1
 -2       271       272       424      1606      2065      2066
 -1       691    8    0    1
 -2       271       424       423      2066      2067      2062
 -1       692    8    0    1
 -2       272       273       425      1609      2068      2069
 -1       693    8    0    1
 -2       272       425       424      2069      2070      2065
 -1       694    8    0    1
 -2       273       274       426      1612      2071      2072
 -1       695    8    0    1
 -2       273       426       425      2072      2073      2068
 -1       696    8    0    1
 -2       274       275       427      1615      2074      2075
 -1       697    8    0    1
 -2       274       427       426      2075      2076      2071
 -1       698    8    0    1
 -2       275       276       428      1618      2077      2078
 -1       699    8    0    1
 -2       427       275       428      2074      2078      2079
 -1       700    8    0    1
 -2       276       277       428      1728      2080      2077
 -1       701    8    0    1
 -2       279       280       429      1630      2081      2082
 -1       702    8    0    1
 -2       278       279       430      1627      2083      2084
 -1       703    8    0    1
 -2       279       429       430      2082      2085      2083
 -1       704    8    0    1
 -2       277       278       431      1624      2086      2087
 -1       705    8    0    1
 -2       428       277       431      2080      2087      2088
 -1       706    8    0    1
 -2       278       430       431      2084      2089      2086
 -1       707    8    0    1
 -2       280       281       432      1633      2090      2091
 -1       708    8    0    1
 -2       280       432       429      2091      2092      2081
 -1       709    8    0    1
 -2       281       282       433      1636      2093      2094
 -1       710    8    0    1
 -2       281       433       432      2094      2095      2090
 -1       711    8    0    1
 -2       282       283       434      1639      2096      2097
 -1       712    8    0    1
 -2       282       434       433      2097      2098      2093
 -1       713    8    0    1
 -2       283       284       435      1642      2099      2100
 -1       714    8    0    1
 -2       283       435       434      2100      2101      2096
 -1       715    8    0    1
 -2       284       285       436      1645      2102      2103
 -1       716    8    0    1
 -2       284       436       435      2103      2104      2099
 -1       717    8    0    1
 -2       285       286       437      1648      2105      2106
 -1       718    8    0    1
 -2       285       437       436      2106      2107      2102
 -1       719    8    0    1
 -2       286       287       438      1651      2108      2109
 -1       720    8    0    1
 -2       286       438       437      2109      2110      2105
 -1       721    8    0    1
 -2       287       288       439      1654      2111      2112
 -1       722    8    0    1
 -2       287       439       438      2112      2113      2108
 -1       723    8    0    1
 -2       288       289       440      1657      2114      2115
 -1       724    8    0    1
 -2       288       440       439      2115      2116      2111
 -1       725    8    0    1
 -2       289       290       441      1660      2117      2118
 -1       726    8    0    1
 -2       289       441       440      2118      2119      2114
 -1       727    8    0    1
 -2       293       294       442      1730      2120      2121
 -1       728    8    0    1
 -2       321       292       443      1731      2122      2123
 -1       729    8    0    1
 -2       292       293       444      1729      2124      2125
 -1       730    8    0    1
 -2       293       442       444      2121      2126      2124
 -1       731    8    0    1
 -2       294       295       445      1726      2127      2128
 -1       732    8    0    1
 -2       295       296       446      1725      2129      2130
 -1       733    8    0    1
 -2       167       168       447      1292      2131      2132
 -1       734    8    0    1
 -2       322       167       447      1758      2132      2133
 -1       735    8    0    1
 -2       168       324       447      1764      2134      2131
 -1       736    8    0    1
 -2       297       298       448      1733      2135      2136
 -1       737    8    0    1
 -2       298       299       449      1734      2137      2138
 -1       738    8    0    1
 -2       298       449       448      2138      2139      2135
 -1       739    8    0    1
 -2       299       300       450      1735      2140      2141
 -1       740    8    0    1
 -2       300       301       451      1736      2142      2143
 -1       741    8    0    1
 -2       301       302       452      1737      2144      2145
 -1       742    8    0    1
 -2       301       452       451      2145      2146      2142
 -1       743    8    0    1
 -2       302       303       453      1738      2147      2148
 -1       744    8    0    1
 -2       303       304       454      1739      2149      2150
 -1       745    8    0    1
 -2       303       454       453      2150      2151      2147
 -1       746    8    0    1
 -2       304       305       455      1740      2152      2153
 -1       747    8    0    1
 -2       305       306       456      1741      2154      2155
 -1       748    8    0    1
 -2       305       456       455      2155      2156      2152
 -1       749    8    0    1
 -2       306       307       457      1742      2157      2158
 -1       750    8    0    1
 -2       307       308       458      1743      2159      2160
 -1       751    8    0    1
 -2       307       458       457      2160      2161      2157
 -1       752    8    0    1
 -2       308       309       459      1744      2162      2163
 -1       753    8    0    1
 -2       309       310       460      1745      2164      2165
 -1       754    8    0    1
 -2       309       460       459      2165      2166      2162
 -1       755    8    0    1
 -2       310       311       461      1746      2167      2168
 -1       756    8    0    1
 -2       311       312       462      1747      2169      2170
 -1       757    8    0    1
 -2       312       313       463      1748      2171      2172
 -1       758    8    0    1
 -2       313       314       464      1749      2173      2174
 -1       759    8    0    1
 -2       314       315       465      1750      2175      2176
 -1       760    8    0    1
 -2       314       465       464      2176      2177      2173
 -1       761    8    0    1
 -2       315       316       466      1751      2178      2179
 -1       762    8    0    1
 -2       316       317       467      1752      2180      2181
 -1       763    8    0    1
 -2       316       467       466      2181      2182      2178
 -1       764    8    0    1
 -2       317       318       468      1753      2183      2184
 -1       765    8    0    1
 -2       318       319       469      1754      2185      2186
 -1       766    8    0    1
 -2       319       320       470      1755      2187      2188
 -1       767    8    0    1
 -2       320       321       471      1756      2189      2190
 -1       768    8    0    1
 -2       296       297       472      1732      2191      2192
 -1       769    8    0    1
 -2       446       296       472      2129      2192      2193
 -1       770    8    0    1
 -2       181       323       182      1803      2194      1334
 -1       771    8    0    1
 -2       297       448       472      2136      2195      2191
 -1       772    8    0    1
 -2       337       182       323      1804      2194      2196
 -1       773    8    0    1
 -2       443       292       444      2122      2125      2197
 -1       774    8    0    1
 -2       294       445       442      2128      2198      2120
 -1       775    8    0    1
 -2       441       290       291      2117      1663      2199
 -1       776    8    0    1
 -2       321       443       471      2123      2200      2189
 -1       777    8    0    1
 -2       445       295       446      2127      2130      2201
 -1       778    8    0    1
 -2       470       320       471      2187      2190      2202
 -1       779    8    0    1
 -2       469       319       470      2185      2188      2203
 -1       780    8    0    1
 -2       467       317       468      2180      2184      2204
 -1       781    8    0    1
 -2       465       315       466      2175      2179      2205
 -1       782    8    0    1
 -2       463       313       464      2171      2174      2206
 -1       783    8    0    1
 -2       462       312       463      2169      2172      2207
 -1       784    8    0    1
 -2       460       310       461      2164      2168      2208
 -1       785    8    0    1
 -2       458       308       459      2159      2163      2209
 -1       786    8    0    1
 -2       456       306       457      2154      2158      2210
 -1       787    8    0    1
 -2       454       304       455      2149      2153      2211
 -1       788    8    0    1
 -2       452       302       453      2144      2148      2212
 -1       789    8    0    1
 -2       299       450       449      2141      2213      2137
 -1       790    8    0    1
 -2       450       300       451      2140      2143      2214
 -1       791    8    0    1
 -2       461       311       462      2167      2170      2215
 -1       792    8    0    1
 -2       468       318       469      2183      2186      2216
 -1       793    8    0    1
 -2       336       383       473      1944      2217      2218
 -1       794    8    0    1
 -2       325       326       474      1770      2219      2220
 -1       795    8    0    1
 -2       324       325       475      1767      2221      2222
 -1       796    8    0    1
 -2       327       328       476      1776      2223      2224
 -1       797    8    0    1
 -2       328       329       477      1779      2225      2226
 -1       798    8    0    1
 -2       328       477       476      2226      2227      2223
 -1       799    8    0    1
 -2       329       330       478      1782      2228      2229
 -1       800    8    0    1
 -2       329       478       477      2229      2230      2225
 -1       801    8    0    1
 -2       330       331       479      1785      2231      2232
 -1       802    8    0    1
 -2       330       479       478      2232      2233      2228
 -1       803    8    0    1
 -2       331       332       480      1788      2234      2235
 -1       804    8    0    1
 -2       331       480       479      2235      2236      2231
 -1       805    8    0    1
 -2       332       333       481      1791      2237      2238
 -1       806    8    0    1
 -2       332       481       480      2238      2239      2234
 -1       807    8    0    1
 -2       383       384       482      1947      2240      2241
 -1       808    8    0    1
 -2       383       482       473      2241      2242      2217
 -1       809    8    0    1
 -2       338       337       483      1808      2243      2244
 -1       810    8    0    1
 -2       472       448       484      2195      2245      2246
 -1       811    8    0    1
 -2       339       338       485      1811      2247      2248
 -1       812    8    0    1
 -2       338       483       485      2244      2249      2247
 -1       813    8    0    1
 -2       341       340       486      1817      2250      2251
 -1       814    8    0    1
 -2       342       341       487      1820      2252      2253
 -1       815    8    0    1
 -2       343       342       488      1823      2254      2255
 -1       816    8    0    1
 -2       342       487       488      2253      2256      2254
 -1       817    8    0    1
 -2       344       343       489      1826      2257      2258
 -1       818    8    0    1
 -2       345       344       490      1829      2259      2260
 -1       819    8    0    1
 -2       344       489       490      2258      2261      2259
 -1       820    8    0    1
 -2       346       345       491      1832      2262      2263
 -1       821    8    0    1
 -2       345       490       491      2260      2264      2262
 -1       822    8    0    1
 -2       347       346       492      1835      2265      2266
 -1       823    8    0    1
 -2       346       491       492      2263      2267      2265
 -1       824    8    0    1
 -2       348       347       493      1838      2268      2269
 -1       825    8    0    1
 -2       347       492       493      2266      2270      2268
 -1       826    8    0    1
 -2       349       348       494      1841      2271      2272
 -1       827    8    0    1
 -2       348       493       494      2269      2273      2271
 -1       828    8    0    1
 -2       350       349       495      1844      2274      2275
 -1       829    8    0    1
 -2       349       494       495      2272      2276      2274
 -1       830    8    0    1
 -2       351       350       496      1847      2277      2278
 -1       831    8    0    1
 -2       350       495       496      2275      2279      2277
 -1       832    8    0    1
 -2       352       351       497      1850      2280      2281
 -1       833    8    0    1
 -2       351       496       497      2278      2282      2280
 -1       834    8    0    1
 -2       353       352       498      1853      2283      2284
 -1       835    8    0    1
 -2       352       497       498      2281      2285      2283
 -1       836    8    0    1
 -2       354       353       499      1856      2286      2287
 -1       837    8    0    1
 -2       353       498       499      2284      2288      2286
 -1       838    8    0    1
 -2       355       354       500      1859      2289      2290
 -1       839    8    0    1
 -2       354       499       500      2287      2291      2289
 -1       840    8    0    1
 -2       356       355       501      1862      2292      2293
 -1       841    8    0    1
 -2       355       500       501      2290      2294      2292
 -1       842    8    0    1
 -2       357       356       502      1865      2295      2296
 -1       843    8    0    1
 -2       356       501       502      2293      2297      2295
 -1       844    8    0    1
 -2       358       357       503      1868      2298      2299
 -1       845    8    0    1
 -2       357       502       503      2296      2300      2298
 -1       846    8    0    1
 -2       359       358       504      1871      2301      2302
 -1       847    8    0    1
 -2       358       503       504      2299      2303      2301
 -1       848    8    0    1
 -2       360       359       505      1874      2304      2305
 -1       849    8    0    1
 -2       359       504       505      2302      2306      2304
 -1       850    8    0    1
 -2       361       360       506      1877      2307      2308
 -1       851    8    0    1
 -2       360       505       506      2305      2309      2307
 -1       852    8    0    1
 -2       362       361       507      1880      2310      2311
 -1       853    8    0    1
 -2       361       506       507      2308      2312      2310
 -1       854    8    0    1
 -2       363       362       508      1883      2313      2314
 -1       855    8    0    1
 -2       362       507       508      2311      2315      2313
 -1       856    8    0    1
 -2       364       363       509      1886      2316      2317
 -1       857    8    0    1
 -2       363       508       509      2314      2318      2316
 -1       858    8    0    1
 -2       365       364       510      1889      2319      2320
 -1       859    8    0    1
 -2       364       509       510      2317      2321      2319
 -1       860    8    0    1
 -2       366       365       511      1892      2322      2323
 -1       861    8    0    1
 -2       365       510       511      2320      2324      2322
 -1       862    8    0    1
 -2       367       366       512      1895      2325      2326
 -1       863    8    0    1
 -2       366       511       512      2323      2327      2325
 -1       864    8    0    1
 -2       368       367       513      1898      2328      2329
 -1       865    8    0    1
 -2       367       512       513      2326      2330      2328
 -1       866    8    0    1
 -2       369       368       514      1901      2331      2332
 -1       867    8    0    1
 -2       368       513       514      2329      2333      2331
 -1       868    8    0    1
 -2       370       369       515      1904      2334      2335
 -1       869    8    0    1
 -2       369       514       515      2332      2336      2334
 -1       870    8    0    1
 -2       371       370       516      1907      2337      2338
 -1       871    8    0    1
 -2       370       515       516      2335      2339      2337
 -1       872    8    0    1
 -2       372       371       517      1910      2340      2341
 -1       873    8    0    1
 -2       371       516       517      2338      2342      2340
 -1       874    8    0    1
 -2       373       372       518      1913      2343      2344
 -1       875    8    0    1
 -2       372       517       518      2341      2345      2343
 -1       876    8    0    1
 -2       374       373       519      1916      2346      2347
 -1       877    8    0    1
 -2       373       518       519      2344      2348      2346
 -1       878    8    0    1
 -2       375       374       520      1919      2349      2350
 -1       879    8    0    1
 -2       374       519       520      2347      2351      2349
 -1       880    8    0    1
 -2       376       375       521      1922      2352      2353
 -1       881    8    0    1
 -2       375       520       521      2350      2354      2352
 -1       882    8    0    1
 -2       377       376       522      1925      2355      2356
 -1       883    8    0    1
 -2       376       521       522      2353      2357      2355
 -1       884    8    0    1
 -2       378       377       523      1928      2358      2359
 -1       885    8    0    1
 -2       377       522       523      2356      2360      2358
 -1       886    8    0    1
 -2       379       378       524      1931      2361      2362
 -1       887    8    0    1
 -2       378       523       524      2359      2363      2361
 -1       888    8    0    1
 -2       380       379       525      1934      2364      2365
 -1       889    8    0    1
 -2       379       524       525      2362      2366      2364
 -1       890    8    0    1
 -2       381       380       526      1937      2367      2368
 -1       891    8    0    1
 -2       380       525       526      2365      2369      2367
 -1       892    8    0    1
 -2       444       442       527      2126      2370      2371
 -1       893    8    0    1
 -2       385       386       528      1953      2372      2373
 -1       894    8    0    1
 -2       386       387       529      1956      2374      2375
 -1       895    8    0    1
 -2       386       529       528      2375      2376      2372
 -1       896    8    0    1
 -2       387       388       530      1959      2377      2378
 -1       897    8    0    1
 -2       387       530       529      2378      2379      2374
 -1       898    8    0    1
 -2       388       389       531      1962      2380      2381
 -1       899    8    0    1
 -2       388       531       530      2381      2382      2377
 -1       900    8    0    1
 -2       389       390       532      1965      2383      2384
 -1       901    8    0    1
 -2       389       532       531      2384      2385      2380
 -1       902    8    0    1
 -2       390       391       533      1968      2386      2387
 -1       903    8    0    1
 -2       390       533       532      2387      2388      2383
 -1       904    8    0    1
 -2       391       392       534      1971      2389      2390
 -1       905    8    0    1
 -2       391       534       533      2390      2391      2386
 -1       906    8    0    1
 -2       392       393       535      1974      2392      2393
 -1       907    8    0    1
 -2       392       535       534      2393      2394      2389
 -1       908    8    0    1
 -2       393       394       536      1977      2395      2396
 -1       909    8    0    1
 -2       393       536       535      2396      2397      2392
 -1       910    8    0    1
 -2       394       395       537      1980      2398      2399
 -1       911    8    0    1
 -2       394       537       536      2399      2400      2395
 -1       912    8    0    1
 -2       395       396       538      1983      2401      2402
 -1       913    8    0    1
 -2       395       538       537      2402      2403      2398
 -1       914    8    0    1
 -2       396       397       539      1986      2404      2405
 -1       915    8    0    1
 -2       396       539       538      2405      2406      2401
 -1       916    8    0    1
 -2       397       398       540      1989      2407      2408
 -1       917    8    0    1
 -2       397       540       539      2408      2409      2404
 -1       918    8    0    1
 -2       398       399       541      1992      2410      2411
 -1       919    8    0    1
 -2       398       541       540      2411      2412      2407
 -1       920    8    0    1
 -2       399       400       542      1995      2413      2414
 -1       921    8    0    1
 -2       399       542       541      2414      2415      2410
 -1       922    8    0    1
 -2       400       401       543      1998      2416      2417
 -1       923    8    0    1
 -2       400       543       542      2417      2418      2413
 -1       924    8    0    1
 -2       401       402       544      2001      2419      2420
 -1       925    8    0    1
 -2       401       544       543      2420      2421      2416
 -1       926    8    0    1
 -2       402       403       545      2004      2422      2423
 -1       927    8    0    1
 -2       402       545       544      2423      2424      2419
 -1       928    8    0    1
 -2       403       404       546      2007      2425      2426
 -1       929    8    0    1
 -2       403       546       545      2426      2427      2422
 -1       930    8    0    1
 -2       404       405       547      2010      2428      2429
 -1       931    8    0    1
 -2       404       547       546      2429      2430      2425
 -1       932    8    0    1
 -2       405       406       548      2013      2431      2432
 -1       933    8    0    1
 -2       405       548       547      2432      2433      2428
 -1       934    8    0    1
 -2       406       407       549      2016      2434      2435
 -1       935    8    0    1
 -2       406       549       548      2435      2436      2431
 -1       936    8    0    1
 -2       407       408       550      2019      2437      2438
 -1       937    8    0    1
 -2       407       550       549      2438      2439      2434
 -1       938    8    0    1
 -2       408       409       551      2022      2440      2441
 -1       939    8    0    1
 -2       408       551       550      2441      2442      2437
 -1       940    8    0    1
 -2       409       410       552      2025      2443      2444
 -1       941    8    0    1
 -2       409       552       551      2444      2445      2440
 -1       942    8    0    1
 -2       410       411       553      2028      2446      2447
 -1       943    8    0    1
 -2       410       553       552      2447      2448      2443
 -1       944    8    0    1
 -2       411       412       554      2031      2449      2450
 -1       945    8    0    1
 -2       411       554       553      2450      2451      2446
 -1       946    8    0    1
 -2       412       413       555      2034      2452      2453
 -1       947    8    0    1
 -2       412       555       554      2453      2454      2449
 -1       948    8    0    1
 -2       413       414       556      2037      2455      2456
 -1       949    8    0    1
 -2       413       556       555      2456      2457      2452
 -1       950    8    0    1
 -2       414       415       557      2040      2458      2459
 -1       951    8    0    1
 -2       414       557       556      2459      2460      2455
 -1       952    8    0    1
 -2       415       416       558      2043      2461      2462
 -1       953    8    0    1
 -2       415       558       557      2462      2463      2458
 -1       954    8    0    1
 -2       416       417       559      2046      2464      2465
 -1       955    8    0    1
 -2       416       559       558      2465      2466      2461
 -1       956    8    0    1
 -2       417       418       560      2049      2467      2468
 -1       957    8    0    1
 -2       417       560       559      2468      2469      2464
 -1       958    8    0    1
 -2       418       419       561      2052      2470      2471
 -1       959    8    0    1
 -2       418       561       560      2471      2472      2467
 -1       960    8    0    1
 -2       419       420       562      2055      2473      2474
 -1       961    8    0    1
 -2       419       562       561      2474      2475      2470
 -1       962    8    0    1
 -2       420       421       563      2058      2476      2477
 -1       963    8    0    1
 -2       420       563       562      2477      2478      2473
 -1       964    8    0    1
 -2       421       422       564      2061      2479      2480
 -1       965    8    0    1
 -2       421       564       563      2480      2481      2476
 -1       966    8    0    1
 -2       422       423       565      2064      2482      2483
 -1       967    8    0    1
 -2       422       565       564      2483      2484      2479
 -1       968    8    0    1
 -2       423       424       566      2067      2485      2486
 -1       969    8    0    1
 -2       423       566       565      2486      2487      2482
 -1       970    8    0    1
 -2       424       425       567      2070      2488      2489
 -1       971    8    0    1
 -2       424       567       566      2489      2490      2485
 -1       972    8    0    1
 -2       425       426       568      2073      2491      2492
 -1       973    8    0    1
 -2       425       568       567      2492      2493      2488
 -1       974    8    0    1
 -2       426       427       569      2076      2494      2495
 -1       975    8    0    1
 -2       426       569       568      2495      2496      2491
 -1       976    8    0    1
 -2       427       428       431      2079      2088      2497
 -1       977    8    0    1
 -2       432       433       570      2095      2498      2499
 -1       978    8    0    1
 -2       433       434       571      2098      2500      2501
 -1       979    8    0    1
 -2       433       571       570      2501      2502      2498
 -1       980    8    0    1
 -2       430       429       572      2085      2503      2504
 -1       981    8    0    1
 -2       429       432       573      2092      2505      2506
 -1       982    8    0    1
 -2       572       429       573      2503      2506      2507
 -1       983    8    0    1
 -2       432       570       573      2499      2508      2505
 -1       984    8    0    1
 -2       434       435       574      2101      2509      2510
 -1       985    8    0    1
 -2       434       574       571      2510      2511      2500
 -1       986    8    0    1
 -2       435       436       575      2104      2512      2513
 -1       987    8    0    1
 -2       435       575       574      2513      2514      2509
 -1       988    8    0    1
 -2       436       437       576      2107      2515      2516
 -1       989    8    0    1
 -2       436       576       575      2516      2517      2512
 -1       990    8    0    1
 -2       437       438       577      2110      2518      2519
 -1       991    8    0    1
 -2       437       577       576      2519      2520      2515
 -1       992    8    0    1
 -2       438       439       578      2113      2521      2522
 -1       993    8    0    1
 -2       438       578       577      2522      2523      2518
 -1       994    8    0    1
 -2       439       440       579      2116      2524      2525
 -1       995    8    0    1
 -2       439       579       578      2525      2526      2521
 -1       996    8    0    1
 -2       440       441       580      2119      2527      2528
 -1       997    8    0    1
 -2       440       580       579      2528      2529      2524
 -1       998    8    0    1
 -2       441       291       382      2199      1940      2530
 -1       999    8    0    1
 -2       471       443       581      2200      2531      2532
 -1      1000    8    0    1
 -2       384       385       582      1950      2533      2534
 -1      1001    8    0    1
 -2       385       528       582      2373      2535      2533
 -1      1002    8    0    1
 -2       442       445       583      2198      2536      2537
 -1      1003    8    0    1
 -2       470       471       584      2202      2538      2539
 -1      1004    8    0    1
 -2       471       581       584      2532      2540      2538
 -1      1005    8    0    1
 -2       337       323       585      2196      2541      2542
 -1      1006    8    0    1
 -2       483       337       585      2243      2542      2543
 -1      1007    8    0    1
 -2       323       322       585      1762      2544      2541
 -1      1008    8    0    1
 -2       445       446       586      2201      2545      2546
 -1      1009    8    0    1
 -2       463       464       486      2206      2547      2548
 -1      1010    8    0    1
 -2       449       450       587      2213      2549      2550
 -1      1011    8    0    1
 -2       326       327       588      1773      2551      2552
 -1      1012    8    0    1
 -2       327       476       588      2224      2553      2551
 -1      1013    8    0    1
 -2       450       451       589      2214      2554      2555
 -1      1014    8    0    1
 -2       448       449       590      2139      2556      2557
 -1      1015    8    0    1
 -2       449       587       590      2550      2558      2556
 -1      1016    8    0    1
 -2       461       462       591      2215      2559      2560
 -1      1017    8    0    1
 -2       451       452       592      2146      2561      2562
 -1      1018    8    0    1
 -2       451       592       589      2562      2563      2554
 -1      1019    8    0    1
 -2       452       453       593      2212      2564      2565
 -1      1020    8    0    1
 -2       453       454       594      2151      2566      2567
 -1      1021    8    0    1
 -2       454       455       595      2211      2568      2569
 -1      1022    8    0    1
 -2       455       456       596      2156      2570      2571
 -1      1023    8    0    1
 -2       457       458       597      2161      2572      2573
 -1      1024    8    0    1
 -2       458       459       598      2209      2574      2575
 -1      1025    8    0    1
 -2       459       460       599      2166      2576      2577
 -1      1026    8    0    1
 -2       468       469       600      2216      2578      2579
 -1      1027    8    0    1
 -2       460       461       601      2208      2580      2581
 -1      1028    8    0    1
 -2       462       463       602      2207      2582      2583
 -1      1029    8    0    1
 -2       462       602       591      2583      2584      2559
 -1      1030    8    0    1
 -2       465       466       487      2205      2585      2586
 -1      1031    8    0    1
 -2       466       467       603      2182      2587      2588
 -1      1032    8    0    1
 -2       467       468       604      2204      2589      2590
 -1      1033    8    0    1
 -2       469       470       605      2203      2591      2592
 -1      1034    8    0    1
 -2       469       605       600      2592      2593      2578
 -1      1035    8    0    1
 -2       443       444       606      2197      2594      2595
 -1      1036    8    0    1
 -2       335       336       607      1802      2596      2597
 -1      1037    8    0    1
 -2       334       335       607      1797      2597      2598
 -1      1038    8    0    1
 -2       336       473       607      2218      2599      2596
 -1      1039    8    0    1
 -2       446       472       608      2193      2600      2601
 -1      1040    8    0    1
 -2       472       484       608      2246      2602      2600
 -1      1041    8    0    1
 -2       325       474       475      2220      2603      2221
 -1      1042    8    0    1
 -2       324       475       609      2222      2604      2605
 -1      1043    8    0    1
 -2       450       589       610      2555      2606      2607
 -1      1044    8    0    1
 -2       450       610       587      2607      2608      2549
 -1      1045    8    0    1
 -2       482       384       582      2240      2534      2609
 -1      1046    8    0    1
 -2       333       334       607      1794      2598      2610
 -1      1047    8    0    1
 -2       443       606       581      2595      2611      2531
 -1      1048    8    0    1
 -2       599       460       601      2576      2581      2612
 -1      1049    8    0    1
 -2       447       324       609      2134      2605      2613
 -1      1050    8    0    1
 -2       586       446       608      2545      2601      2614
 -1      1051    8    0    1
 -2       598       459       599      2574      2577      2615
 -1      1052    8    0    1
 -2       597       458       598      2572      2575      2616
 -1      1053    8    0    1
 -2       486       340       602      2250      2617      2618
 -1      1054    8    0    1
 -2       340       339       602      1814      2619      2617
 -1      1055    8    0    1
 -2       444       527       606      2371      2620      2594
 -1      1056    8    0    1
 -2       343       488       489      2255      2621      2257
 -1      1057    8    0    1
 -2       527       442       583      2370      2537      2622
 -1      1058    8    0    1
 -2       427       431       569      2497      2623      2494
 -1      1059    8    0    1
 -2       431       430       569      2089      2624      2623
 -1      1060    8    0    1
 -2       596       456       611      2570      2625      2626
 -1      1061    8    0    1
 -2       441       382       612      2530      2627      2628
 -1      1062    8    0    1
 -2       580       441       612      2527      2628      2629
 -1      1063    8    0    1
 -2       382       381       612      1941      2630      2627
 -1      1064    8    0    1
 -2       595       455       596      2568      2571      2631
 -1      1065    8    0    1
 -2       594       454       595      2566      2569      2632
 -1      1066    8    0    1
 -2       333       607       481      2610      2633      2237
 -1      1067    8    0    1
 -2       583       445       586      2536      2546      2634
 -1      1068    8    0    1
 -2       592       452       593      2561      2565      2635
 -1      1069    8    0    1
 -2       470       584       605      2539      2636      2591
 -1      1070    8    0    1
 -2       604       468       600      2589      2579      2637
 -1      1071    8    0    1
 -2       603       467       604      2587      2590      2638
 -1      1072    8    0    1
 -2       601       461       591      2580      2560      2639
 -1      1073    8    0    1
 -2       487       341       486      2252      2251      2640
 -1      1074    8    0    1
 -2       484       448       590      2245      2557      2641
 -1      1075    8    0    1
 -2       326       588       474      2552      2642      2219
 -1      1076    8    0    1
 -2       322       447       613      2133      2643      2644
 -1      1077    8    0    1
 -2       585       322       613      2544      2644      2645
 -1      1078    8    0    1
 -2       447       609       613      2613      2646      2643
 -1      1079    8    0    1
 -2       593       453       594      2564      2567      2647
 -1      1080    8    0    1
 -2       456       457       611      2210      2648      2625
 -1      1081    8    0    1
 -2       464       465       486      2177      2649      2547
 -1      1082    8    0    1
 -2       612       381       526      2630      2368      2650
 -1      1083    8    0    1
 -2       569       430       572      2624      2504      2651
 -1      1084    8    0    1
 -2       486       465       487      2649      2586      2640
 -1      1085    8    0    1
 -2       476       477       614      2227      2652      2653
 -1      1086    8    0    1
 -2       479       480       615      2236      2654      2655
 -1      1087    8    0    1
 -2       480       481       616      2239      2656      2657
 -1      1088    8    0    1
 -2       480       616       615      2657      2658      2654
 -1      1089    8    0    1
 -2       473       482       617      2242      2659      2660
 -1      1090    8    0    1
 -2       583       586       618      2634      2661      2662
 -1      1091    8    0    1
 -2       608       484       619      2602      2663      2664
 -1      1092    8    0    1
 -2       339       485       602      2248      2665      2619
 -1      1093    8    0    1
 -2       606       527       620      2620      2666      2667
 -1      1094    8    0    1
 -2       527       583       621      2622      2668      2669
 -1      1095    8    0    1
 -2       569       572       622      2651      2670      2671
 -1      1096    8    0    1
 -2       569       622       568      2671      2672      2496
 -1      1097    8    0    1
 -2       491       490       623      2264      2673      2674
 -1      1098    8    0    1
 -2       492       491       624      2267      2675      2676
 -1      1099    8    0    1
 -2       491       623       624      2674      2677      2675
 -1      1100    8    0    1
 -2       493       492       625      2270      2678      2679
 -1      1101    8    0    1
 -2       492       624       625      2676      2680      2678
 -1      1102    8    0    1
 -2       494       493       626      2273      2681      2682
 -1      1103    8    0    1
 -2       493       625       626      2679      2683      2681
 -1      1104    8    0    1
 -2       495       494       627      2276      2684      2685
 -1      1105    8    0    1
 -2       494       626       627      2682      2686      2684
 -1      1106    8    0    1
 -2       496       495       628      2279      2687      2688
 -1      1107    8    0    1
 -2       495       627       628      2685      2689      2687
 -1      1108    8    0    1
 -2       497       496       629      2282      2690      2691
 -1      1109    8    0    1
 -2       496       628       629      2688      2692      2690
 -1      1110    8    0    1
 -2       498       497       630      2285      2693      2694
 -1      1111    8    0    1
 -2       497       629       630      2691      2695      2693
 -1      1112    8    0    1
 -2       499       498       631      2288      2696      2697
 -1      1113    8    0    1
 -2       498       630       631      2694      2698      2696
 -1      1114    8    0    1
 -2       500       499       632      2291      2699      2700
 -1      1115    8    0    1
 -2       499       631       632      2697      2701      2699
 -1      1116    8    0    1
 -2       501       500       633      2294      2702      2703
 -1      1117    8    0    1
 -2       500       632       633      2700      2704      2702
 -1      1118    8    0    1
 -2       502       501       634      2297      2705      2706
 -1      1119    8    0    1
 -2       501       633       634      2703      2707      2705
 -1      1120    8    0    1
 -2       503       502       635      2300      2708      2709
 -1      1121    8    0    1
 -2       502       634       635      2706      2710      2708
 -1      1122    8    0    1
 -2       504       503       636      2303      2711      2712
 -1      1123    8    0    1
 -2       503       635       636      2709      2713      2711
 -1      1124    8    0    1
 -2       505       504       637      2306      2714      2715
 -1      1125    8    0    1
 -2       504       636       637      2712      2716      2714
 -1      1126    8    0    1
 -2       506       505       638      2309      2717      2718
 -1      1127    8    0    1
 -2       505       637       638      2715      2719      2717
 -1      1128    8    0    1
 -2       507       506       639      2312      2720      2721
 -1      1129    8    0    1
 -2       506       638       639      2718      2722      2720
 -1      1130    8    0    1
 -2       508       507       640      2315      2723      2724
 -1      1131    8    0    1
 -2       507       639       640      2721      2725      2723
 -1      1132    8    0    1
 -2       509       508       641      2318      2726      2727
 -1      1133    8    0    1
 -2       508       640       641      2724      2728      2726
 -1      1134    8    0    1
 -2       510       509       642      2321      2729      2730
 -1      1135    8    0    1
 -2       509       641       642      2727      2731      2729
 -1      1136    8    0    1
 -2       511       510       643      2324      2732      2733
 -1      1137    8    0    1
 -2       510       642       643      2730      2734      2732
 -1      1138    8    0    1
 -2       512       511       644      2327      2735      2736
 -1      1139    8    0    1
 -2       511       643       644      2733      2737      2735
 -1      1140    8    0    1
 -2       513       512       645      2330      2738      2739
 -1      1141    8    0    1
 -2       512       644       645      2736      2740      2738
 -1      1142    8    0    1
 -2       514       513       646      2333      2741      2742
 -1      1143    8    0    1
 -2       513       645       646      2739      2743      2741
 -1      1144    8    0    1
 -2       515       514       647      2336      2744      2745
 -1      1145    8    0    1
 -2       514       646       647      2742      2746      2744
 -1      1146    8    0    1
 -2       516       515       648      2339      2747      2748
 -1      1147    8    0    1
 -2       515       647       648      2745      2749      2747
 -1      1148    8    0    1
 -2       517       516       649      2342      2750      2751
 -1      1149    8    0    1
 -2       516       648       649      2748      2752      2750
 -1      1150    8    0    1
 -2       518       517       650      2345      2753      2754
 -1      1151    8    0    1
 -2       517       649       650      2751      2755      2753
 -1      1152    8    0    1
 -2       519       518       651      2348      2756      2757
 -1      1153    8    0    1
 -2       518       650       651      2754      2758      2756
 -1      1154    8    0    1
 -2       520       519       652      2351      2759      2760
 -1      1155    8    0    1
 -2       519       651       652      2757      2761      2759
 -1      1156    8    0    1
 -2       521       520       653      2354      2762      2763
 -1      1157    8    0    1
 -2       520       652       653      2760      2764      2762
 -1      1158    8    0    1
 -2       522       521       654      2357      2765      2766
 -1      1159    8    0    1
 -2       521       653       654      2763      2767      2765
 -1      1160    8    0    1
 -2       523       522       655      2360      2768      2769
 -1      1161    8    0    1
 -2       522       654       655      2766      2770      2768
 -1      1162    8    0    1
 -2       524       523       656      2363      2771      2772
 -1      1163    8    0    1
 -2       523       655       656      2769      2773      2771
 -1      1164    8    0    1
 -2       525       524       657      2366      2774      2775
 -1      1165    8    0    1
 -2       524       656       657      2772      2776      2774
 -1      1166    8    0    1
 -2       526       525       658      2369      2777      2778
 -1      1167    8    0    1
 -2       525       657       658      2775      2779      2777
 -1      1168    8    0    1
 -2       528       529       659      2376      2780      2781
 -1      1169    8    0    1
 -2       531       532       660      2385      2782      2783
 -1      1170    8    0    1
 -2       532       533       661      2388      2784      2785
 -1      1171    8    0    1
 -2       532       661       660      2785      2786      2782
 -1      1172    8    0    1
 -2       533       534       662      2391      2787      2788
 -1      1173    8    0    1
 -2       533       662       661      2788      2789      2784
 -1      1174    8    0    1
 -2       534       535       663      2394      2790      2791
 -1      1175    8    0    1
 -2       534       663       662      2791      2792      2787
 -1      1176    8    0    1
 -2       535       536       664      2397      2793      2794
 -1      1177    8    0    1
 -2       535       664       663      2794      2795      2790
 -1      1178    8    0    1
 -2       536       537       665      2400      2796      2797
 -1      1179    8    0    1
 -2       536       665       664      2797      2798      2793
 -1      1180    8    0    1
 -2       537       538       666      2403      2799      2800
 -1      1181    8    0    1
 -2       537       666       665      2800      2801      2796
 -1      1182    8    0    1
 -2       538       539       667      2406      2802      2803
 -1      1183    8    0    1
 -2       538       667       666      2803      2804      2799
 -1      1184    8    0    1
 -2       539       540       668      2409      2805      2806
 -1      1185    8    0    1
 -2       539       668       667      2806      2807      2802
 -1      1186    8    0    1
 -2       540       541       669      2412      2808      2809
 -1      1187    8    0    1
 -2       540       669       668      2809      2810      2805
 -1      1188    8    0    1
 -2       541       542       670      2415      2811      2812
 -1      1189    8    0    1
 -2       541       670       669      2812      2813      2808
 -1      1190    8    0    1
 -2       542       543       671      2418      2814      2815
 -1      1191    8    0    1
 -2       542       671       670      2815      2816      2811
 -1      1192    8    0    1
 -2       543       544       672      2421      2817      2818
 -1      1193    8    0    1
 -2       543       672       671      2818      2819      2814
 -1      1194    8    0    1
 -2       544       545       673      2424      2820      2821
 -1      1195    8    0    1
 -2       544       673       672      2821      2822      2817
 -1      1196    8    0    1
 -2       545       546       674      2427      2823      2824
 -1      1197    8    0    1
 -2       545       674       673      2824      2825      2820
 -1      1198    8    0    1
 -2       546       547       675      2430      2826      2827
 -1      1199    8    0    1
 -2       546       675       674      2827      2828      2823
 -1      1200    8    0    1
 -2       547       548       676      2433      2829      2830
 -1      1201    8    0    1
 -2       547       676       675      2830      2831      2826
 -1      1202    8    0    1
 -2       548       549       677      2436      2832      2833
 -1      1203    8    0    1
 -2       548       677       676      2833      2834      2829
 -1      1204    8    0    1
 -2       549       550       678      2439      2835      2836
 -1      1205    8    0    1
 -2       549       678       677      2836      2837      2832
 -1      1206    8    0    1
 -2       550       551       679      2442      2838      2839
 -1      1207    8    0    1
 -2       550       679       678      2839      2840      2835
 -1      1208    8    0    1
 -2       551       552       680      2445      2841      2842
 -1      1209    8    0    1
 -2       551       680       679      2842      2843      2838
 -1      1210    8    0    1
 -2       552       553       681      2448      2844      2845
 -1      1211    8    0    1
 -2       552       681       680      2845      2846      2841
 -1      1212    8    0    1
 -2       553       554       682      2451      2847      2848
 -1      1213    8    0    1
 -2       553       682       681      2848      2849      2844
 -1      1214    8    0    1
 -2       554       555       683      2454      2850      2851
 -1      1215    8    0    1
 -2       554       683       682      2851      2852      2847
 -1      1216    8    0    1
 -2       555       556       684      2457      2853      2854
 -1      1217    8    0    1
 -2       555       684       683      2854      2855      2850
 -1      1218    8    0    1
 -2       556       557       685      2460      2856      2857
 -1      1219    8    0    1
 -2       556       685       684      2857      2858      2853
 -1      1220    8    0    1
 -2       557       558       686      2463      2859      2860
 -1      1221    8    0    1
 -2       557       686       685      2860      2861      2856
 -1      1222    8    0    1
 -2       558       559       687      2466      2862      2863
 -1      1223    8    0    1
 -2       558       687       686      2863      2864      2859
 -1      1224    8    0    1
 -2       559       560       688      2469      2865      2866
 -1      1225    8    0    1
 -2       559       688       687      2866      2867      2862
 -1      1226    8    0    1
 -2       560       561       689      2472      2868      2869
 -1      1227    8    0    1
 -2       560       689       688      2869      2870      2865
 -1      1228    8    0    1
 -2       561       562       690      2475      2871      2872
 -1      1229    8    0    1
 -2       561       690       689      2872      2873      2868
 -1      1230    8    0    1
 -2       562       563       691      2478      2874      2875
 -1      1231    8    0    1
 -2       562       691       690      2875      2876      2871
 -1      1232    8    0    1
 -2       563       564       692      2481      2877      2878
 -1      1233    8    0    1
 -2       563       692       691      2878      2879      2874
 -1      1234    8    0    1
 -2       564       565       693      2484      2880      2881
 -1      1235    8    0    1
 -2       564       693       692      2881      2882      2877
 -1      1236    8    0    1
 -2       565       566       694      2487      2883      2884
 -1      1237    8    0    1
 -2       565       694       693      2884      2885      2880
 -1      1238    8    0    1
 -2       566       567       695      2490      2886      2887
 -1      1239    8    0    1
 -2       566       695       694      2887      2888      2883
 -1      1240    8    0    1
 -2       567       568       696      2493      2889      2890
 -1      1241    8    0    1
 -2       695       567       696      2886      2890      2891
 -1      1242    8    0    1
 -2       568       622       696      2672      2892      2889
 -1      1243    8    0    1
 -2       574       575       697      2514      2893      2894
 -1      1244    8    0    1
 -2       570       571       698      2502      2895      2896
 -1      1245    8    0    1
 -2       575       576       699      2517      2897      2898
 -1      1246    8    0    1
 -2       575       699       697      2898      2899      2893
 -1      1247    8    0    1
 -2       571       574       700      2511      2900      2901
 -1      1248    8    0    1
 -2       698       571       700      2895      2901      2902
 -1      1249    8    0    1
 -2       574       697       700      2894      2903      2900
 -1      1250    8    0    1
 -2       584       581       701      2540      2904      2905
 -1      1251    8    0    1
 -2       580       612       702      2629      2906      2907
 -1      1252    8    0    1
 -2       612       526       702      2650      2908      2906
 -1      1253    8    0    1
 -2       576       577       703      2520      2909      2910
 -1      1254    8    0    1
 -2       576       703       699      2910      2911      2897
 -1      1255    8    0    1
 -2       577       578       704      2523      2912      2913
 -1      1256    8    0    1
 -2       577       704       703      2913      2914      2909
 -1      1257    8    0    1
 -2       578       579       705      2526      2915      2916
 -1      1258    8    0    1
 -2       578       705       704      2916      2917      2912
 -1      1259    8    0    1
 -2       579       580       706      2529      2918      2919
 -1      1260    8    0    1
 -2       705       579       706      2915      2919      2920
 -1      1261    8    0    1
 -2       580       702       706      2907      2921      2918
 -1      1262    8    0    1
 -2       582       528       707      2535      2922      2923
 -1      1263    8    0    1
 -2       528       659       707      2781      2924      2922
 -1      1264    8    0    1
 -2       599       601       708      2612      2925      2926
 -1      1265    8    0    1
 -2       590       587       709      2558      2927      2928
 -1      1266    8    0    1
 -2       607       473       481      2599      2929      2633
 -1      1267    8    0    1
 -2       604       600       710      2637      2930      2931
 -1      1268    8    0    1
 -2       602       463       486      2582      2548      2618
 -1      1269    8    0    1
 -2       482       582       711      2609      2932      2933
 -1      1270    8    0    1
 -2       617       482       711      2659      2933      2934
 -1      1271    8    0    1
 -2       582       707       711      2923      2935      2932
 -1      1272    8    0    1
 -2       530       531       712      2382      2936      2937
 -1      1273    8    0    1
 -2       531       660       712      2783      2938      2936
 -1      1274    8    0    1
 -2       529       530       713      2379      2939      2940
 -1      1275    8    0    1
 -2       530       712       713      2937      2941      2939
 -1      1276    8    0    1
 -2       490       489       710      2261      2942      2943
 -1      1277    8    0    1
 -2       478       479       714      2233      2944      2945
 -1      1278    8    0    1
 -2       479       615       714      2655      2946      2944
 -1      1279    8    0    1
 -2       605       584       715      2636      2947      2948
 -1      1280    8    0    1
 -2       584       701       715      2905      2949      2947
 -1      1281    8    0    1
 -2       592       593       716      2635      2950      2951
 -1      1282    8    0    1
 -2       477       478       717      2230      2952      2953
 -1      1283    8    0    1
 -2       478       714       717      2945      2954      2952
 -1      1284    8    0    1
 -2       586       608       718      2614      2955      2956
 -1      1285    8    0    1
 -2       589       592       719      2563      2957      2958
 -1      1286    8    0    1
 -2       611       457       597      2648      2573      2959
 -1      1287    8    0    1
 -2       594       595       614      2632      2960      2961
 -1      1288    8    0    1
 -2       593       594       720      2647      2962      2963
 -1      1289    8    0    1
 -2       593       720       716      2963      2964      2950
 -1      1290    8    0    1
 -2       591       602       485      2584      2665      2965
 -1      1291    8    0    1
 -2       487       466       603      2585      2588      2966
 -1      1292    8    0    1
 -2       601       591       721      2639      2967      2968
 -1      1293    8    0    1
 -2       708       601       721      2925      2968      2969
 -1      1294    8    0    1
 -2       591       485       721      2965      2970      2967
 -1      1295    8    0    1
 -2       484       590       722      2641      2971      2972
 -1      1296    8    0    1
 -2       600       605       723      2593      2973      2974
 -1      1297    8    0    1
 -2       581       606       724      2611      2975      2976
 -1      1298    8    0    1
 -2       581       724       701      2976      2977      2904
 -1      1299    8    0    1
 -2       609       475       598      2604      2978      2979
 -1      1300    8    0    1
 -2       587       610       709      2608      2980      2927
 -1      1301    8    0    1
 -2       605       715       723      2948      2981      2973
 -1      1302    8    0    1
 -2       583       618       621      2662      2982      2668
 -1      1303    8    0    1
 -2       608       619       718      2664      2983      2955
 -1      1304    8    0    1
 -2       487       603       488      2966      2984      2256
 -1      1305    8    0    1
 -2       475       474       597      2603      2985      2986
 -1      1306    8    0    1
 -2       620       527       621      2666      2669      2987
 -1      1307    8    0    1
 -2       483       585       708      2543      2988      2989
 -1      1308    8    0    1
 -2       606       620       724      2667      2990      2975
 -1      1309    8    0    1
 -2       592       716       719      2951      2991      2957
 -1      1310    8    0    1
 -2       623       490       710      2673      2943      2992
 -1      1311    8    0    1
 -2       526       658       702      2778      2993      2908
 -1      1312    8    0    1
 -2       659       529       713      2780      2940      2994
 -1      1313    8    0    1
 -2       595       596       588      2631      2995      2996
 -1      1314    8    0    1
 -2       596       611       588      2626      2997      2995
 -1      1315    8    0    1
 -2       595       588       476      2996      2553      2998
 -1      1316    8    0    1
 -2       609       598       613      2979      2999      2646
 -1      1317    8    0    1
 -2       595       476       614      2998      2653      2960
 -1      1318    8    0    1
 -2       708       585       613      2988      2645      3000
 -1      1319    8    0    1
 -2       588       611       474      2997      3001      2642
 -1      1320    8    0    1
 -2       599       708       613      2926      3000      3002
 -1      1321    8    0    1
 -2       619       484       722      2663      2972      3003
 -1      1322    8    0    1
 -2       618       586       725      2661      3004      3005
 -1      1323    8    0    1
 -2       586       718       725      2956      3006      3004
 -1      1324    8    0    1
 -2       570       698       726      2896      3007      3008
 -1      1325    8    0    1
 -2       570       726       573      3008      3009      2508
 -1      1326    8    0    1
 -2       616       481       617      2656      3010      3011
 -1      1327    8    0    1
 -2       572       573       622      2507      3012      2670
 -1      1328    8    0    1
 -2       473       617       481      2660      3010      2929
 -1      1329    8    0    1
 -2       722       590       709      2971      2928      3013
 -1      1330    8    0    1
 -2       710       600       723      2930      2974      3014
 -1      1331    8    0    1
 -2       613       598       599      2999      2615      3002
 -1      1332    8    0    1
 -2       710       489       604      2942      3015      2931
 -1      1333    8    0    1
 -2       720       594       614      2962      2961      3016
 -1      1334    8    0    1
 -2       485       483       721      2249      3017      2970
 -1      1335    8    0    1
 -2       604       489       488      3015      2621      3018
 -1      1336    8    0    1
 -2       614       477       720      2652      3019      3016
 -1      1337    8    0    1
 -2       589       719       727      2958      3020      3021
 -1      1338    8    0    1
 -2       589       727       610      3021      3022      2606
 -1      1339    8    0    1
 -2       721       483       708      3017      2989      2969
 -1      1340    8    0    1
 -2       709       610       728      2980      3023      3024
 -1      1341    8    0    1
 -2       615       616       729      2658      3025      3026
 -1      1342    8    0    1
 -2       712       660       730      2938      3027      3028
 -1      1343    8    0    1
 -2       597       474       611      2985      3001      2959
 -1      1344    8    0    1
 -2       620       621       731      2987      3029      3030
 -1      1345    8    0    1
 -2       724       620       732      2990      3031      3032
 -1      1346    8    0    1
 -2       625       624       733      2680      3033      3034
 -1      1347    8    0    1
 -2       626       625       734      2683      3035      3036
 -1      1348    8    0    1
 -2       625       733       734      3034      3037      3035
 -1      1349    8    0    1
 -2       627       626       735      2686      3038      3039
 -1      1350    8    0    1
 -2       626       734       735      3036      3040      3038
 -1      1351    8    0    1
 -2       628       627       736      2689      3041      3042
 -1      1352    8    0    1
 -2       627       735       736      3039      3043      3041
 -1      1353    8    0    1
 -2       629       628       737      2692      3044      3045
 -1      1354    8    0    1
 -2       628       736       737      3042      3046      3044
 -1      1355    8    0    1
 -2       630       629       738      2695      3047      3048
 -1      1356    8    0    1
 -2       629       737       738      3045      3049      3047
 -1      1357    8    0    1
 -2       631       630       739      2698      3050      3051
 -1      1358    8    0    1
 -2       630       738       739      3048      3052      3050
 -1      1359    8    0    1
 -2       632       631       740      2701      3053      3054
 -1      1360    8    0    1
 -2       631       739       740      3051      3055      3053
 -1      1361    8    0    1
 -2       633       632       741      2704      3056      3057
 -1      1362    8    0    1
 -2       632       740       741      3054      3058      3056
 -1      1363    8    0    1
 -2       634       633       742      2707      3059      3060
 -1      1364    8    0    1
 -2       633       741       742      3057      3061      3059
 -1      1365    8    0    1
 -2       635       634       743      2710      3062      3063
 -1      1366    8    0    1
 -2       634       742       743      3060      3064      3062
 -1      1367    8    0    1
 -2       636       635       744      2713      3065      3066
 -1      1368    8    0    1
 -2       635       743       744      3063      3067      3065
 -1      1369    8    0    1
 -2       637       636       745      2716      3068      3069
 -1      1370    8    0    1
 -2       636       744       745      3066      3070      3068
 -1      1371    8    0    1
 -2       638       637       746      2719      3071      3072
 -1      1372    8    0    1
 -2       637       745       746      3069      3073      3071
 -1      1373    8    0    1
 -2       639       638       747      2722      3074      3075
 -1      1374    8    0    1
 -2       638       746       747      3072      3076      3074
 -1      1375    8    0    1
 -2       640       639       748      2725      3077      3078
 -1      1376    8    0    1
 -2       639       747       748      3075      3079      3077
 -1      1377    8    0    1
 -2       641       640       749      2728      3080      3081
 -1      1378    8    0    1
 -2       640       748       749      3078      3082      3080
 -1      1379    8    0    1
 -2       642       641       750      2731      3083      3084
 -1      1380    8    0    1
 -2       641       749       750      3081      3085      3083
 -1      1381    8    0    1
 -2       643       642       751      2734      3086      3087
 -1      1382    8    0    1
 -2       642       750       751      3084      3088      3086
 -1      1383    8    0    1
 -2       644       643       752      2737      3089      3090
 -1      1384    8    0    1
 -2       643       751       752      3087      3091      3089
 -1      1385    8    0    1
 -2       645       644       753      2740      3092      3093
 -1      1386    8    0    1
 -2       644       752       753      3090      3094      3092
 -1      1387    8    0    1
 -2       646       645       754      2743      3095      3096
 -1      1388    8    0    1
 -2       645       753       754      3093      3097      3095
 -1      1389    8    0    1
 -2       647       646       755      2746      3098      3099
 -1      1390    8    0    1
 -2       646       754       755      3096      3100      3098
 -1      1391    8    0    1
 -2       648       647       756      2749      3101      3102
 -1      1392    8    0    1
 -2       647       755       756      3099      3103      3101
 -1      1393    8    0    1
 -2       649       648       757      2752      3104      3105
 -1      1394    8    0    1
 -2       648       756       757      3102      3106      3104
 -1      1395    8    0    1
 -2       650       649       758      2755      3107      3108
 -1      1396    8    0    1
 -2       649       757       758      3105      3109      3107
 -1      1397    8    0    1
 -2       651       650       759      2758      3110      3111
 -1      1398    8    0    1
 -2       650       758       759      3108      3112      3110
 -1      1399    8    0    1
 -2       652       651       760      2761      3113      3114
 -1      1400    8    0    1
 -2       651       759       760      3111      3115      3113
 -1      1401    8    0    1
 -2       653       652       761      2764      3116      3117
 -1      1402    8    0    1
 -2       652       760       761      3114      3118      3116
 -1      1403    8    0    1
 -2       654       653       762      2767      3119      3120
 -1      1404    8    0    1
 -2       653       761       762      3117      3121      3119
 -1      1405    8    0    1
 -2       655       654       763      2770      3122      3123
 -1      1406    8    0    1
 -2       654       762       763      3120      3124      3122
 -1      1407    8    0    1
 -2       656       655       764      2773      3125      3126
 -1      1408    8    0    1
 -2       655       763       764      3123      3127      3125
 -1      1409    8    0    1
 -2       657       656       765      2776      3128      3129
 -1      1410    8    0    1
 -2       656       764       765      3126      3130      3128
 -1      1411    8    0    1
 -2       658       657       766      2779      3131      3132
 -1      1412    8    0    1
 -2       657       765       766      3129      3133      3131
 -1      1413    8    0    1
 -2       660       661       767      2786      3134      3135
 -1      1414    8    0    1
 -2       660       767       730      3135      3136      3027
 -1      1415    8    0    1
 -2       663       664       768      2795      3137      3138
 -1      1416    8    0    1
 -2       664       665       769      2798      3139      3140
 -1      1417    8    0    1
 -2       664       769       768      3140      3141      3137
 -1      1418    8    0    1
 -2       665       666       770      2801      3142      3143
 -1      1419    8    0    1
 -2       665       770       769      3143      3144      3139
 -1      1420    8    0    1
 -2       666       667       771      2804      3145      3146
 -1      1421    8    0    1
 -2       666       771       770      3146      3147      3142
 -1      1422    8    0    1
 -2       667       668       772      2807      3148      3149
 -1      1423    8    0    1
 -2       667       772       771      3149      3150      3145
 -1      1424    8    0    1
 -2       668       669       773      2810      3151      3152
 -1      1425    8    0    1
 -2       668       773       772      3152      3153      3148
 -1      1426    8    0    1
 -2       669       670       774      2813      3154      3155
 -1      1427    8    0    1
 -2       669       774       773      3155      3156      3151
 -1      1428    8    0    1
 -2       670       671       775      2816      3157      3158
 -1      1429    8    0    1
 -2       670       775       774      3158      3159      3154
 -1      1430    8    0    1
 -2       671       672       776      2819      3160      3161
 -1      1431    8    0    1
 -2       671       776       775      3161      3162      3157
 -1      1432    8    0    1
 -2       672       673       777      2822      3163      3164
 -1      1433    8    0    1
 -2       672       777       776      3164      3165      3160
 -1      1434    8    0    1
 -2       673       674       778      2825      3166      3167
 -1      1435    8    0    1
 -2       673       778       777      3167      3168      3163
 -1      1436    8    0    1
 -2       674       675       779      2828      3169      3170
 -1      1437    8    0    1
 -2       674       779       778      3170      3171      3166
 -1      1438    8    0    1
 -2       675       676       780      2831      3172      3173
 -1      1439    8    0    1
 -2       675       780       779      3173      3174      3169
 -1      1440    8    0    1
 -2       676       677       781      2834      3175      3176
 -1      1441    8    0    1
 -2       676       781       780      3176      3177      3172
 -1      1442    8    0    1
 -2       677       678       782      2837      3178      3179
 -1      1443    8    0    1
 -2       677       782       781      3179      3180      3175
 -1      1444    8    0    1
 -2       678       679       783      2840      3181      3182
 -1      1445    8    0    1
 -2       678       783       782      3182      3183      3178
 -1      1446    8    0    1
 -2       679       680       784      2843      3184      3185
 -1      1447    8    0    1
 -2       679       784       783      3185      3186      3181
 -1      1448    8    0    1
 -2       680       681       785      2846      3187      3188
 -1      1449    8    0    1
 -2       680       785       784      3188      3189      3184
 -1      1450    8    0    1
 -2       681       682       786      2849      3190      3191
 -1      1451    8    0    1
 -2       681       786       785      3191      3192      3187
 -1      1452    8    0    1
 -2       682       683       787      2852      3193      3194
 -1      1453    8    0    1
 -2       682       787       786      3194      3195      3190
 -1      1454    8    0    1
 -2       683       684       788      2855      3196      3197
 -1      1455    8    0    1
 -2       683       788       787      3197      3198      3193
 -1      1456    8    0    1
 -2       684       685       789      2858      3199      3200
 -1      1457    8    0    1
 -2       684       789       788      3200      3201      3196
 -1      1458    8    0    1
 -2       685       686       790      2861      3202      3203
 -1      1459    8    0    1
 -2       685       790       789      3203      3204      3199
 -1      1460    8    0    1
 -2       686       687       791      2864      3205      3206
 -1      1461    8    0    1
 -2       686       791       790      3206      3207      3202
 -1      1462    8    0    1
 -2       687       688       792      2867      3208      3209
 -1      1463    8    0    1
 -2       687       792       791      3209      3210      3205
 -1      1464    8    0    1
 -2       688       689       793      2870      3211      3212
 -1      1465    8    0    1
 -2       688       793       792      3212      3213      3208
 -1      1466    8    0    1
 -2       689       690       794      2873      3214      3215
 -1      1467    8    0    1
 -2       689       794       793      3215      3216      3211
 -1      1468    8    0    1
 -2       690       691       795      2876      3217      3218
 -1      1469    8    0    1
 -2       690       795       794      3218      3219      3214
 -1      1470    8    0    1
 -2       691       692       796      2879      3220      3221
 -1      1471    8    0    1
 -2       691       796       795      3221      3222      3217
 -1      1472    8    0    1
 -2       692       693       797      2882      3223      3224
 -1      1473    8    0    1
 -2       692       797       796      3224      3225      3220
 -1      1474    8    0    1
 -2       693       694       798      2885      3226      3227
 -1      1475    8    0    1
 -2       693       798       797      3227      3228      3223
 -1      1476    8    0    1
 -2       694       695       799      2888      3229      3230
 -1      1477    8    0    1
 -2       694       799       798      3230      3231      3226
 -1      1478    8    0    1
 -2       622       573       726      3012      3009      3232
 -1      1479    8    0    1
 -2       697       699       800      2899      3233      3234
 -1      1480    8    0    1
 -2       659       713       801      2994      3235      3236
 -1      1481    8    0    1
 -2       702       658       706      2993      3237      2921
 -1      1482    8    0    1
 -2       704       705       802      2917      3238      3239
 -1      1483    8    0    1
 -2       707       659       803      2924      3240      3241
 -1      1484    8    0    1
 -2       659       801       803      3236      3242      3240
 -1      1485    8    0    1
 -2       723       715       804      2981      3243      3244
 -1      1486    8    0    1
 -2       722       709       805      3013      3245      3246
 -1      1487    8    0    1
 -2       661       662       806      2789      3247      3248
 -1      1488    8    0    1
 -2       661       806       767      3248      3249      3134
 -1      1489    8    0    1
 -2       623       710       723      2992      3014      3250
 -1      1490    8    0    1
 -2       699       703       807      2911      3251      3252
 -1      1491    8    0    1
 -2       699       807       800      3252      3253      3233
 -1      1492    8    0    1
 -2       714       615       808      2946      3254      3255
 -1      1493    8    0    1
 -2       615       729       808      3026      3256      3254
 -1      1494    8    0    1
 -2       616       617       729      3011      3257      3025
 -1      1495    8    0    1
 -2       713       712       809      2941      3258      3259
 -1      1496    8    0    1
 -2       712       730       809      3028      3260      3258
 -1      1497    8    0    1
 -2       475       597       598      2986      2616      2978
 -1      1498    8    0    1
 -2       703       704       810      2914      3261      3262
 -1      1499    8    0    1
 -2       807       703       810      3251      3262      3263
 -1      1500    8    0    1
 -2       704       802       810      3239      3264      3261
 -1      1501    8    0    1
 -2       715       701       811      2949      3265      3266
 -1      1502    8    0    1
 -2       662       663       812      2792      3267      3268
 -1      1503    8    0    1
 -2       806       662       812      3247      3268      3269
 -1      1504    8    0    1
 -2       663       768       812      3138      3270      3267
 -1      1505    8    0    1
 -2       488       603       604      2984      2638      3018
 -1      1506    8    0    1
 -2       619       722       813      3003      3271      3272
 -1      1507    8    0    1
 -2       719       716       814      2991      3273      3274
 -1      1508    8    0    1
 -2       718       619       815      2983      3275      3276
 -1      1509    8    0    1
 -2       619       813       815      3272      3277      3275
 -1      1510    8    0    1
 -2       621       618       816      2982      3278      3279
 -1      1511    8    0    1
 -2       701       724       817      2977      3280      3281
 -1      1512    8    0    1
 -2       623       723       804      3250      3244      3282
 -1      1513    8    0    1
 -2       729       617       711      3257      2934      3283
 -1      1514    8    0    1
 -2       733       624       811      3033      3284      3285
 -1      1515    8    0    1
 -2       732       620       731      3031      3030      3286
 -1      1516    8    0    1
 -2       724       732       817      3032      3287      3280
 -1      1517    8    0    1
 -2       728       610       727      3023      3022      3288
 -1      1518    8    0    1
 -2       658       766       706      3132      3289      3237
 -1      1519    8    0    1
 -2       622       726       818      3232      3290      3291
 -1      1520    8    0    1
 -2       622       818       696      3291      3292      2892
 -1      1521    8    0    1
 -2       801       713       809      3235      3259      3293
 -1      1522    8    0    1
 -2       695       696       819      2891      3294      3295
 -1      1523    8    0    1
 -2       696       818       819      3292      3296      3294
 -1      1524    8    0    1
 -2       698       700       820      2902      3297      3298
 -1      1525    8    0    1
 -2       725       718       821      3006      3299      3300
 -1      1526    8    0    1
 -2       718       815       821      3276      3301      3299
 -1      1527    8    0    1
 -2       726       698       822      3007      3302      3303
 -1      1528    8    0    1
 -2       818       726       822      3290      3303      3304
 -1      1529    8    0    1
 -2       698       820       822      3298      3305      3302
 -1      1530    8    0    1
 -2       700       697       823      2903      3306      3307
 -1      1531    8    0    1
 -2       697       800       823      3234      3308      3306
 -1      1532    8    0    1
 -2       705       706       766      2920      3289      3309
 -1      1533    8    0    1
 -2       804       715       811      3243      3266      3310
 -1      1534    8    0    1
 -2       722       805       813      3246      3311      3271
 -1      1535    8    0    1
 -2       811       701       817      3265      3281      3312
 -1      1536    8    0    1
 -2       717       714       814      2954      3313      3314
 -1      1537    8    0    1
 -2       711       707       824      2935      3315      3316
 -1      1538    8    0    1
 -2       729       711       824      3283      3316      3317
 -1      1539    8    0    1
 -2       707       803       824      3241      3318      3315
 -1      1540    8    0    1
 -2       705       766       802      3309      3319      3238
 -1      1541    8    0    1
 -2       805       709       728      3245      3024      3320
 -1      1542    8    0    1
 -2       618       725       825      3005      3321      3322
 -1      1543    8    0    1
 -2       618       825       816      3322      3323      3278
 -1      1544    8    0    1
 -2       477       717       720      2953      3324      3019
 -1      1545    8    0    1
 -2       727       719       826      3020      3325      3326
 -1      1546    8    0    1
 -2       719       814       826      3274      3327      3325
 -1      1547    8    0    1
 -2       624       623       804      2677      3282      3328
 -1      1548    8    0    1
 -2       716       720       717      2964      3324      3329
 -1      1549    8    0    1
 -2       731       621       816      3029      3279      3330
 -1      1550    8    0    1
 -2       716       717       814      3329      3314      3273
 -1      1551    8    0    1
 -2       811       624       804      3284      3328      3310
 -1      1552    8    0    1
 -2       732       731       827      3286      3331      3332
 -1      1553    8    0    1
 -2       730       767       828      3136      3333      3334
 -1      1554    8    0    1
 -2       735       734       829      3040      3335      3336
 -1      1555    8    0    1
 -2       736       735       830      3043      3337      3338
 -1      1556    8    0    1
 -2       735       829       830      3336      3339      3337
 -1      1557    8    0    1
 -2       737       736       831      3046      3340      3341
 -1      1558    8    0    1
 -2       736       830       831      3338      3342      3340
 -1      1559    8    0    1
 -2       738       737       832      3049      3343      3344
 -1      1560    8    0    1
 -2       737       831       832      3341      3345      3343
 -1      1561    8    0    1
 -2       739       738       833      3052      3346      3347
 -1      1562    8    0    1
 -2       738       832       833      3344      3348      3346
 -1      1563    8    0    1
 -2       740       739       834      3055      3349      3350
 -1      1564    8    0    1
 -2       739       833       834      3347      3351      3349
 -1      1565    8    0    1
 -2       741       740       835      3058      3352      3353
 -1      1566    8    0    1
 -2       740       834       835      3350      3354      3352
 -1      1567    8    0    1
 -2       742       741       836      3061      3355      3356
 -1      1568    8    0    1
 -2       741       835       836      3353      3357      3355
 -1      1569    8    0    1
 -2       743       742       837      3064      3358      3359
 -1      1570    8    0    1
 -2       742       836       837      3356      3360      3358
 -1      1571    8    0    1
 -2       744       743       838      3067      3361      3362
 -1      1572    8    0    1
 -2       743       837       838      3359      3363      3361
 -1      1573    8    0    1
 -2       745       744       839      3070      3364      3365
 -1      1574    8    0    1
 -2       744       838       839      3362      3366      3364
 -1      1575    8    0    1
 -2       746       745       840      3073      3367      3368
 -1      1576    8    0    1
 -2       745       839       840      3365      3369      3367
 -1      1577    8    0    1
 -2       747       746       841      3076      3370      3371
 -1      1578    8    0    1
 -2       746       840       841      3368      3372      3370
 -1      1579    8    0    1
 -2       748       747       842      3079      3373      3374
 -1      1580    8    0    1
 -2       747       841       842      3371      3375      3373
 -1      1581    8    0    1
 -2       749       748       843      3082      3376      3377
 -1      1582    8    0    1
 -2       748       842       843      3374      3378      3376
 -1      1583    8    0    1
 -2       750       749       844      3085      3379      3380
 -1      1584    8    0    1
 -2       749       843       844      3377      3381      3379
 -1      1585    8    0    1
 -2       751       750       845      3088      3382      3383
 -1      1586    8    0    1
 -2       750       844       845      3380      3384      3382
 -1      1587    8    0    1
 -2       752       751       846      3091      3385      3386
 -1      1588    8    0    1
 -2       751       845       846      3383      3387      3385
 -1      1589    8    0    1
 -2       753       752       847      3094      3388      3389
 -1      1590    8    0    1
 -2       752       846       847      3386      3390      3388
 -1      1591    8    0    1
 -2       754       753       848      3097      3391      3392
 -1      1592    8    0    1
 -2       753       847       848      3389      3393      3391
 -1      1593    8    0    1
 -2       755       754       849      3100      3394      3395
 -1      1594    8    0    1
 -2       754       848       849      3392      3396      3394
 -1      1595    8    0    1
 -2       756       755       850      3103      3397      3398
 -1      1596    8    0    1
 -2       755       849       850      3395      3399      3397
 -1      1597    8    0    1
 -2       757       756       851      3106      3400      3401
 -1      1598    8    0    1
 -2       756       850       851      3398      3402      3400
 -1      1599    8    0    1
 -2       758       757       852      3109      3403      3404
 -1      1600    8    0    1
 -2       757       851       852      3401      3405      3403
 -1      1601    8    0    1
 -2       759       758       853      3112      3406      3407
 -1      1602    8    0    1
 -2       758       852       853      3404      3408      3406
 -1      1603    8    0    1
 -2       760       759       854      3115      3409      3410
 -1      1604    8    0    1
 -2       759       853       854      3407      3411      3409
 -1      1605    8    0    1
 -2       761       760       855      3118      3412      3413
 -1      1606    8    0    1
 -2       760       854       855      3410      3414      3412
 -1      1607    8    0    1
 -2       762       761       856      3121      3415      3416
 -1      1608    8    0    1
 -2       761       855       856      3413      3417      3415
 -1      1609    8    0    1
 -2       763       762       857      3124      3418      3419
 -1      1610    8    0    1
 -2       762       856       857      3416      3420      3418
 -1      1611    8    0    1
 -2       764       763       858      3127      3421      3422
 -1      1612    8    0    1
 -2       763       857       858      3419      3423      3421
 -1      1613    8    0    1
 -2       765       764       859      3130      3424      3425
 -1      1614    8    0    1
 -2       764       858       859      3422      3426      3424
 -1      1615    8    0    1
 -2       766       765       860      3133      3427      3428
 -1      1616    8    0    1
 -2       802       766       860      3319      3428      3429
 -1      1617    8    0    1
 -2       765       859       860      3425      3430      3427
 -1      1618    8    0    1
 -2       769       770       861      3144      3431      3432
 -1      1619    8    0    1
 -2       768       769       862      3141      3433      3434
 -1      1620    8    0    1
 -2       769       861       862      3432      3435      3433
 -1      1621    8    0    1
 -2       771       772       863      3150      3436      3437
 -1      1622    8    0    1
 -2       772       773       864      3153      3438      3439
 -1      1623    8    0    1
 -2       772       864       863      3439      3440      3436
 -1      1624    8    0    1
 -2       773       774       865      3156      3441      3442
 -1      1625    8    0    1
 -2       773       865       864      3442      3443      3438
 -1      1626    8    0    1
 -2       774       775       866      3159      3444      3445
 -1      1627    8    0    1
 -2       774       866       865      3445      3446      3441
 -1      1628    8    0    1
 -2       775       776       867      3162      3447      3448
 -1      1629    8    0    1
 -2       775       867       866      3448      3449      3444
 -1      1630    8    0    1
 -2       776       777       868      3165      3450      3451
 -1      1631    8    0    1
 -2       776       868       867      3451      3452      3447
 -1      1632    8    0    1
 -2       777       778       869      3168      3453      3454
 -1      1633    8    0    1
 -2       777       869       868      3454      3455      3450
 -1      1634    8    0    1
 -2       778       779       870      3171      3456      3457
 -1      1635    8    0    1
 -2       778       870       869      3457      3458      3453
 -1      1636    8    0    1
 -2       779       780       871      3174      3459      3460
 -1      1637    8    0    1
 -2       779       871       870      3460      3461      3456
 -1      1638    8    0    1
 -2       780       781       872      3177      3462      3463
 -1      1639    8    0    1
 -2       780       872       871      3463      3464      3459
 -1      1640    8    0    1
 -2       781       782       873      3180      3465      3466
 -1      1641    8    0    1
 -2       781       873       872      3466      3467      3462
 -1      1642    8    0    1
 -2       782       783       874      3183      3468      3469
 -1      1643    8    0    1
 -2       782       874       873      3469      3470      3465
 -1      1644    8    0    1
 -2       783       784       875      3186      3471      3472
 -1      1645    8    0    1
 -2       783       875       874      3472      3473      3468
 -1      1646    8    0    1
 -2       784       785       876      3189      3474      3475
 -1      1647    8    0    1
 -2       784       876       875      3475      3476      3471
 -1      1648    8    0    1
 -2       785       786       877      3192      3477      3478
 -1      1649    8    0    1
 -2       785       877       876      3478      3479      3474
 -1      1650    8    0    1
 -2       786       787       878      3195      3480      3481
 -1      1651    8    0    1
 -2       786       878       877      3481      3482      3477
 -1      1652    8    0    1
 -2       787       788       879      3198      3483      3484
 -1      1653    8    0    1
 -2       787       879       878      3484      3485      3480
 -1      1654    8    0    1
 -2       788       789       880      3201      3486      3487
 -1      1655    8    0    1
 -2       788       880       879      3487      3488      3483
 -1      1656    8    0    1
 -2       789       790       881      3204      3489      3490
 -1      1657    8    0    1
 -2       789       881       880      3490      3491      3486
 -1      1658    8    0    1
 -2       790       791       882      3207      3492      3493
 -1      1659    8    0    1
 -2       790       882       881      3493      3494      3489
 -1      1660    8    0    1
 -2       791       792       883      3210      3495      3496
 -1      1661    8    0    1
 -2       791       883       882      3496      3497      3492
 -1      1662    8    0    1
 -2       792       793       884      3213      3498      3499
 -1      1663    8    0    1
 -2       792       884       883      3499      3500      3495
 -1      1664    8    0    1
 -2       793       794       885      3216      3501      3502
 -1      1665    8    0    1
 -2       793       885       884      3502      3503      3498
 -1      1666    8    0    1
 -2       794       795       886      3219      3504      3505
 -1      1667    8    0    1
 -2       794       886       885      3505      3506      3501
 -1      1668    8    0    1
 -2       795       796       887      3222      3507      3508
 -1      1669    8    0    1
 -2       795       887       886      3508      3509      3504
 -1      1670    8    0    1
 -2       796       797       888      3225      3510      3511
 -1      1671    8    0    1
 -2       796       888       887      3511      3512      3507
 -1      1672    8    0    1
 -2       797       798       889      3228      3513      3514
 -1      1673    8    0    1
 -2       797       889       888      3514      3515      3510
 -1      1674    8    0    1
 -2       798       799       890      3231      3516      3517
 -1      1675    8    0    1
 -2       798       890       889      3517      3518      3513
 -1      1676    8    0    1
 -2       799       695       819      3229      3295      3519
 -1      1677    8    0    1
 -2       820       700       823      3297      3307      3520
 -1      1678    8    0    1
 -2       801       809       805      3293      3521      3522
 -1      1679    8    0    1
 -2       714       808       814      3255      3523      3313
 -1      1680    8    0    1
 -2       801       805       891      3522      3524      3525
 -1      1681    8    0    1
 -2       803       801       891      3242      3525      3526
 -1      1682    8    0    1
 -2       805       728       891      3320      3527      3524
 -1      1683    8    0    1
 -2       800       807       892      3253      3528      3529
 -1      1684    8    0    1
 -2       767       806       893      3249      3530      3531
 -1      1685    8    0    1
 -2       767       893       828      3531      3532      3333
 -1      1686    8    0    1
 -2       728       727       894      3288      3533      3534
 -1      1687    8    0    1
 -2       891       728       894      3527      3534      3535
 -1      1688    8    0    1
 -2       727       826       894      3326      3536      3533
 -1      1689    8    0    1
 -2       770       771       895      3147      3537      3538
 -1      1690    8    0    1
 -2       861       770       895      3431      3538      3539
 -1      1691    8    0    1
 -2       771       863       895      3437      3540      3537
 -1      1692    8    0    1
 -2       734       733       896      3037      3541      3542
 -1      1693    8    0    1
 -2       734       896       829      3542      3543      3335
 -1      1694    8    0    1
 -2       817       732       897      3287      3544      3545
 -1      1695    8    0    1
 -2       733       811       898      3285      3546      3547
 -1      1696    8    0    1
 -2       896       733       898      3541      3547      3548
 -1      1697    8    0    1
 -2       811       817       898      3312      3549      3546
 -1      1698    8    0    1
 -2       731       816       899      3330      3550      3551
 -1      1699    8    0    1
 -2       731       899       827      3551      3552      3331
 -1      1700    8    0    1
 -2       815       813       900      3277      3553      3554
 -1      1701    8    0    1
 -2       799       819       890      3519      3555      3516
 -1      1702    8    0    1
 -2       805       809       813      3521      3556      3311
 -1      1703    8    0    1
 -2       814       808       826      3523      3557      3327
 -1      1704    8    0    1
 -2       823       800       901      3308      3558      3559
 -1      1705    8    0    1
 -2       800       892       901      3529      3560      3558
 -1      1706    8    0    1
 -2       802       860       902      3429      3561      3562
 -1      1707    8    0    1
 -2       802       902       810      3562      3563      3264
 -1      1708    8    0    1
 -2       768       862       903      3434      3564      3565
 -1      1709    8    0    1
 -2       768       903       812      3565      3566      3270
 -1      1710    8    0    1
 -2       813       809       904      3556      3567      3568
 -1      1711    8    0    1
 -2       821       815       900      3301      3554      3569
 -1      1712    8    0    1
 -2       819       818       905      3296      3570      3571
 -1      1713    8    0    1
 -2       818       822       905      3304      3572      3570
 -1      1714    8    0    1
 -2       725       821       906      3300      3573      3574
 -1      1715    8    0    1
 -2       725       906       825      3574      3575      3321
 -1      1716    8    0    1
 -2       822       820       907      3305      3576      3577
 -1      1717    8    0    1
 -2       822       907       905      3577      3578      3572
 -1      1718    8    0    1
 -2       893       806       908      3530      3579      3580
 -1      1719    8    0    1
 -2       806       812       908      3269      3581      3579
 -1      1720    8    0    1
 -2       899       816       909      3550      3582      3583
 -1      1721    8    0    1
 -2       816       825       909      3323      3584      3582
 -1      1722    8    0    1
 -2       826       808       729      3557      3256      3585
 -1      1723    8    0    1
 -2       824       803       891      3318      3526      3586
 -1      1724    8    0    1
 -2       729       824       826      3317      3587      3585
 -1      1725    8    0    1
 -2       809       730       904      3260      3588      3567
 -1      1726    8    0    1
 -2       817       897       898      3545      3589      3549
 -1      1727    8    0    1
 -2       897       732       827      3544      3332      3590
 -1      1728    8    0    1
 -2       819       905       890      3571      3591      3555
 -1      1729    8    0    1
 -2       820       823       910      3520      3592      3593
 -1      1730    8    0    1
 -2       907       820       910      3576      3593      3594
 -1      1731    8    0    1
 -2       823       901       910      3559      3595      3592
 -1      1732    8    0    1
 -2       807       810       911      3263      3596      3597
 -1      1733    8    0    1
 -2       892       807       911      3528      3597      3598
 -1      1734    8    0    1
 -2       810       902       911      3563      3599      3596
 -1      1735    8    0    1
 -2       730       828       904      3334      3600      3588
 -1      1736    8    0    1
 -2       829       896       912      3543      3601      3602
 -1      1737    8    0    1
 -2       831       830       913      3342      3603      3604
 -1      1738    8    0    1
 -2       832       831       914      3345      3605      3606
 -1      1739    8    0    1
 -2       831       913       914      3604      3607      3605
 -1      1740    8    0    1
 -2       833       832       915      3348      3608      3609
 -1      1741    8    0    1
 -2       832       914       915      3606      3610      3608
 -1      1742    8    0    1
 -2       834       833       916      3351      3611      3612
 -1      1743    8    0    1
 -2       833       915       916      3609      3613      3611
 -1      1744    8    0    1
 -2       835       834       917      3354      3614      3615
 -1      1745    8    0    1
 -2       834       916       917      3612      3616      3614
 -1      1746    8    0    1
 -2       836       835       918      3357      3617      3618
 -1      1747    8    0    1
 -2       835       917       918      3615      3619      3617
 -1      1748    8    0    1
 -2       837       836       919      3360      3620      3621
 -1      1749    8    0    1
 -2       836       918       919      3618      3622      3620
 -1      1750    8    0    1
 -2       838       837       920      3363      3623      3624
 -1      1751    8    0    1
 -2       837       919       920      3621      3625      3623
 -1      1752    8    0    1
 -2       839       838       921      3366      3626      3627
 -1      1753    8    0    1
 -2       838       920       921      3624      3628      3626
 -1      1754    8    0    1
 -2       840       839       922      3369      3629      3630
 -1      1755    8    0    1
 -2       839       921       922      3627      3631      3629
 -1      1756    8    0    1
 -2       841       840       923      3372      3632      3633
 -1      1757    8    0    1
 -2       840       922       923      3630      3634      3632
 -1      1758    8    0    1
 -2       842       841       924      3375      3635      3636
 -1      1759    8    0    1
 -2       841       923       924      3633      3637      3635
 -1      1760    8    0    1
 -2       843       842       925      3378      3638      3639
 -1      1761    8    0    1
 -2       842       924       925      3636      3640      3638
 -1      1762    8    0    1
 -2       844       843       926      3381      3641      3642
 -1      1763    8    0    1
 -2       843       925       926      3639      3643      3641
 -1      1764    8    0    1
 -2       845       844       927      3384      3644      3645
 -1      1765    8    0    1
 -2       844       926       927      3642      3646      3644
 -1      1766    8    0    1
 -2       846       845       928      3387      3647      3648
 -1      1767    8    0    1
 -2       845       927       928      3645      3649      3647
 -1      1768    8    0    1
 -2       847       846       929      3390      3650      3651
 -1      1769    8    0    1
 -2       846       928       929      3648      3652      3650
 -1      1770    8    0    1
 -2       848       847       930      3393      3653      3654
 -1      1771    8    0    1
 -2       847       929       930      3651      3655      3653
 -1      1772    8    0    1
 -2       849       848       931      3396      3656      3657
 -1      1773    8    0    1
 -2       848       930       931      3654      3658      3656
 -1      1774    8    0    1
 -2       850       849       932      3399      3659      3660
 -1      1775    8    0    1
 -2       849       931       932      3657      3661      3659
 -1      1776    8    0    1
 -2       851       850       933      3402      3662      3663
 -1      1777    8    0    1
 -2       850       932       933      3660      3664      3662
 -1      1778    8    0    1
 -2       852       851       934      3405      3665      3666
 -1      1779    8    0    1
 -2       851       933       934      3663      3667      3665
 -1      1780    8    0    1
 -2       853       852       935      3408      3668      3669
 -1      1781    8    0    1
 -2       852       934       935      3666      3670      3668
 -1      1782    8    0    1
 -2       854       853       936      3411      3671      3672
 -1      1783    8    0    1
 -2       853       935       936      3669      3673      3671
 -1      1784    8    0    1
 -2       855       854       937      3414      3674      3675
 -1      1785    8    0    1
 -2       854       936       937      3672      3676      3674
 -1      1786    8    0    1
 -2       856       855       938      3417      3677      3678
 -1      1787    8    0    1
 -2       855       937       938      3675      3679      3677
 -1      1788    8    0    1
 -2       857       856       939      3420      3680      3681
 -1      1789    8    0    1
 -2       856       938       939      3678      3682      3680
 -1      1790    8    0    1
 -2       858       857       940      3423      3683      3684
 -1      1791    8    0    1
 -2       857       939       940      3681      3685      3683
 -1      1792    8    0    1
 -2       859       858       941      3426      3686      3687
 -1      1793    8    0    1
 -2       858       940       941      3684      3688      3686
 -1      1794    8    0    1
 -2       860       859       942      3430      3689      3690
 -1      1795    8    0    1
 -2       902       860       942      3561      3690      3691
 -1      1796    8    0    1
 -2       859       941       942      3687      3692      3689
 -1      1797    8    0    1
 -2       862       861       943      3435      3693      3694
 -1      1798    8    0    1
 -2       864       865       944      3443      3695      3696
 -1      1799    8    0    1
 -2       863       864       945      3440      3697      3698
 -1      1800    8    0    1
 -2       864       944       945      3696      3699      3697
 -1      1801    8    0    1
 -2       866       867       946      3449      3700      3701
 -1      1802    8    0    1
 -2       867       868       947      3452      3702      3703
 -1      1803    8    0    1
 -2       867       947       946      3703      3704      3700
 -1      1804    8    0    1
 -2       868       869       948      3455      3705      3706
 -1      1805    8    0    1
 -2       868       948       947      3706      3707      3702
 -1      1806    8    0    1
 -2       869       870       949      3458      3708      3709
 -1      1807    8    0    1
 -2       869       949       948      3709      3710      3705
 -1      1808    8    0    1
 -2       870       871       950      3461      3711      3712
 -1      1809    8    0    1
 -2       870       950       949      3712      3713      3708
 -1      1810    8    0    1
 -2       871       872       951      3464      3714      3715
 -1      1811    8    0    1
 -2       871       951       950      3715      3716      3711
 -1      1812    8    0    1
 -2       872       873       952      3467      3717      3718
 -1      1813    8    0    1
 -2       872       952       951      3718      3719      3714
 -1      1814    8    0    1
 -2       873       874       953      3470      3720      3721
 -1      1815    8    0    1
 -2       873       953       952      3721      3722      3717
 -1      1816    8    0    1
 -2       874       875       954      3473      3723      3724
 -1      1817    8    0    1
 -2       874       954       953      3724      3725      3720
 -1      1818    8    0    1
 -2       875       876       955      3476      3726      3727
 -1      1819    8    0    1
 -2       875       955       954      3727      3728      3723
 -1      1820    8    0    1
 -2       876       877       956      3479      3729      3730
 -1      1821    8    0    1
 -2       876       956       955      3730      3731      3726
 -1      1822    8    0    1
 -2       877       878       957      3482      3732      3733
 -1      1823    8    0    1
 -2       877       957       956      3733      3734      3729
 -1      1824    8    0    1
 -2       878       879       958      3485      3735      3736
 -1      1825    8    0    1
 -2       878       958       957      3736      3737      3732
 -1      1826    8    0    1
 -2       879       880       959      3488      3738      3739
 -1      1827    8    0    1
 -2       879       959       958      3739      3740      3735
 -1      1828    8    0    1
 -2       880       881       960      3491      3741      3742
 -1      1829    8    0    1
 -2       880       960       959      3742      3743      3738
 -1      1830    8    0    1
 -2       881       882       961      3494      3744      3745
 -1      1831    8    0    1
 -2       881       961       960      3745      3746      3741
 -1      1832    8    0    1
 -2       882       883       962      3497      3747      3748
 -1      1833    8    0    1
 -2       882       962       961      3748      3749      3744
 -1      1834    8    0    1
 -2       883       884       963      3500      3750      3751
 -1      1835    8    0    1
 -2       883       963       962      3751      3752      3747
 -1      1836    8    0    1
 -2       884       885       964      3503      3753      3754
 -1      1837    8    0    1
 -2       884       964       963      3754      3755      3750
 -1      1838    8    0    1
 -2       885       886       965      3506      3756      3757
 -1      1839    8    0    1
 -2       885       965       964      3757      3758      3753
 -1      1840    8    0    1
 -2       886       887       966      3509      3759      3760
 -1      1841    8    0    1
 -2       886       966       965      3760      3761      3756
 -1      1842    8    0    1
 -2       887       888       967      3512      3762      3763
 -1      1843    8    0    1
 -2       887       967       966      3763      3764      3759
 -1      1844    8    0    1
 -2       888       889       968      3515      3765      3766
 -1      1845    8    0    1
 -2       888       968       967      3766      3767      3762
 -1      1846    8    0    1
 -2       889       890       969      3518      3768      3769
 -1      1847    8    0    1
 -2       889       969       968      3769      3770      3765
 -1      1848    8    0    1
 -2       897       827       970      3590      3771      3772
 -1      1849    8    0    1
 -2       896       898       912      3548      3773      3601
 -1      1850    8    0    1
 -2       890       905       971      3591      3774      3775
 -1      1851    8    0    1
 -2       969       890       971      3768      3775      3776
 -1      1852    8    0    1
 -2       905       907       971      3578      3777      3774
 -1      1853    8    0    1
 -2       827       899       972      3552      3778      3779
 -1      1854    8    0    1
 -2       830       829       973      3339      3780      3781
 -1      1855    8    0    1
 -2       830       973       913      3781      3782      3603
 -1      1856    8    0    1
 -2       865       866       974      3446      3783      3784
 -1      1857    8    0    1
 -2       866       946       974      3701      3785      3783
 -1      1858    8    0    1
 -2       862       943       975      3694      3786      3787
 -1      1859    8    0    1
 -2       862       975       903      3787      3788      3564
 -1      1860    8    0    1
 -2       943       861       976      3693      3789      3790
 -1      1861    8    0    1
 -2       861       895       976      3539      3791      3789
 -1      1862    8    0    1
 -2       944       865       974      3695      3784      3792
 -1      1863    8    0    1
 -2       898       897       912      3589      3793      3773
 -1      1864    8    0    1
 -2       897       970       912      3772      3794      3793
 -1      1865    8    0    1
 -2       972       899       977      3778      3795      3796
 -1      1866    8    0    1
 -2       899       909       977      3583      3797      3795
 -1      1867    8    0    1
 -2       970       827       972      3771      3779      3798
 -1      1868    8    0    1
 -2       821       900       978      3569      3799      3800
 -1      1869    8    0    1
 -2       893       908       979      3580      3801      3802
 -1      1870    8    0    1
 -2       906       821       978      3573      3800      3803
 -1      1871    8    0    1
 -2       901       892       980      3560      3804      3805
 -1      1872    8    0    1
 -2       908       812       903      3581      3566      3806
 -1      1873    8    0    1
 -2       895       863       981      3540      3807      3808
 -1      1874    8    0    1
 -2       895       981       976      3808      3809      3791
 -1      1875    8    0    1
 -2       909       825       982      3584      3810      3811
 -1      1876    8    0    1
 -2       825       906       982      3575      3812      3810
 -1      1877    8    0    1
 -2       904       828       900      3600      3813      3814
 -1      1878    8    0    1
 -2       828       893       978      3532      3815      3816
 -1      1879    8    0    1
 -2       826       824       894      3587      3817      3536
 -1      1880    8    0    1
 -2       824       891       894      3586      3535      3817
 -1      1881    8    0    1
 -2       813       904       900      3568      3814      3553
 -1      1882    8    0    1
 -2       892       911       983      3598      3818      3819
 -1      1883    8    0    1
 -2       892       983       980      3819      3820      3804
 -1      1884    8    0    1
 -2       971       907       984      3777      3821      3822
 -1      1885    8    0    1
 -2       907       910       984      3594      3823      3821
 -1      1886    8    0    1
 -2       973       829       912      3780      3602      3824
 -1      1887    8    0    1
 -2       900       828       978      3813      3816      3799
 -1      1888    8    0    1
 -2       978       893       979      3815      3802      3825
 -1      1889    8    0    1
 -2       981       863       945      3807      3698      3826
 -1      1890    8    0    1
 -2       969       971       985      3776      3827      3828
 -1      1891    8    0    1
 -2       971       984       985      3822      3829      3827
 -1      1892    8    0    1
 -2       915       914       986      3610      3830      3831
 -1      1893    8    0    1
 -2       916       915       987      3613      3832      3833
 -1      1894    8    0    1
 -2       915       986       987      3831      3834      3832
 -1      1895    8    0    1
 -2       917       916       988      3616      3835      3836
 -1      1896    8    0    1
 -2       916       987       988      3833      3837      3835
 -1      1897    8    0    1
 -2       918       917       989      3619      3838      3839
 -1      1898    8    0    1
 -2       917       988       989      3836      3840      3838
 -1      1899    8    0    1
 -2       919       918       990      3622      3841      3842
 -1      1900    8    0    1
 -2       918       989       990      3839      3843      3841
 -1      1901    8    0    1
 -2       920       919       991      3625      3844      3845
 -1      1902    8    0    1
 -2       919       990       991      3842      3846      3844
 -1      1903    8    0    1
 -2       921       920       992      3628      3847      3848
 -1      1904    8    0    1
 -2       920       991       992      3845      3849      3847
 -1      1905    8    0    1
 -2       922       921       993      3631      3850      3851
 -1      1906    8    0    1
 -2       921       992       993      3848      3852      3850
 -1      1907    8    0    1
 -2       923       922       994      3634      3853      3854
 -1      1908    8    0    1
 -2       922       993       994      3851      3855      3853
 -1      1909    8    0    1
 -2       924       923       995      3637      3856      3857
 -1      1910    8    0    1
 -2       923       994       995      3854      3858      3856
 -1      1911    8    0    1
 -2       925       924       996      3640      3859      3860
 -1      1912    8    0    1
 -2       924       995       996      3857      3861      3859
 -1      1913    8    0    1
 -2       926       925       997      3643      3862      3863
 -1      1914    8    0    1
 -2       925       996       997      3860      3864      3862
 -1      1915    8    0    1
 -2       927       926       998      3646      3865      3866
 -1      1916    8    0    1
 -2       926       997       998      3863      3867      3865
 -1      1917    8    0    1
 -2       928       927       999      3649      3868      3869
 -1      1918    8    0    1
 -2       927       998       999      3866      3870      3868
 -1      1919    8    0    1
 -2       929       928      1000      3652      3871      3872
 -1      1920    8    0    1
 -2       928       999      1000      3869      3873      3871
 -1      1921    8    0    1
 -2       930       929      1001      3655      3874      3875
 -1      1922    8    0    1
 -2       929      1000      1001      3872      3876      3874
 -1      1923    8    0    1
 -2       931       930      1002      3658      3877      3878
 -1      1924    8    0    1
 -2       930      1001      1002      3875      3879      3877
 -1      1925    8    0    1
 -2       932       931      1003      3661      3880      3881
 -1      1926    8    0    1
 -2       931      1002      1003      3878      3882      3880
 -1      1927    8    0    1
 -2       933       932      1004      3664      3883      3884
 -1      1928    8    0    1
 -2       932      1003      1004      3881      3885      3883
 -1      1929    8    0    1
 -2       934       933      1005      3667      3886      3887
 -1      1930    8    0    1
 -2       933      1004      1005      3884      3888      3886
 -1      1931    8    0    1
 -2       935       934      1006      3670      3889      3890
 -1      1932    8    0    1
 -2       934      1005      1006      3887      3891      3889
 -1      1933    8    0    1
 -2       936       935      1007      3673      3892      3893
 -1      1934    8    0    1
 -2       935      1006      1007      3890      3894      3892
 -1      1935    8    0    1
 -2       937       936      1008      3676      3895      3896
 -1      1936    8    0    1
 -2       936      1007      1008      3893      3897      3895
 -1      1937    8    0    1
 -2       938       937      1009      3679      3898      3899
 -1      1938    8    0    1
 -2       937      1008      1009      3896      3900      3898
 -1      1939    8    0    1
 -2       939       938      1010      3682      3901      3902
 -1      1940    8    0    1
 -2       938      1009      1010      3899      3903      3901
 -1      1941    8    0    1
 -2       940       939      1011      3685      3904      3905
 -1      1942    8    0    1
 -2       939      1010      1011      3902      3906      3904
 -1      1943    8    0    1
 -2       941       940      1012      3688      3907      3908
 -1      1944    8    0    1
 -2       940      1011      1012      3905      3909      3907
 -1      1945    8    0    1
 -2       947       948      1013      3707      3910      3911
 -1      1946    8    0    1
 -2       946       947      1014      3704      3912      3913
 -1      1947    8    0    1
 -2       947      1013      1014      3911      3914      3912
 -1      1948    8    0    1
 -2       949       950      1015      3713      3915      3916
 -1      1949    8    0    1
 -2       950       951      1016      3716      3917      3918
 -1      1950    8    0    1
 -2       950      1016      1015      3918      3919      3915
 -1      1951    8    0    1
 -2       951       952      1017      3719      3920      3921
 -1      1952    8    0    1
 -2       951      1017      1016      3921      3922      3917
 -1      1953    8    0    1
 -2       952       953      1018      3722      3923      3924
 -1      1954    8    0    1
 -2       952      1018      1017      3924      3925      3920
 -1      1955    8    0    1
 -2       953       954      1019      3725      3926      3927
 -1      1956    8    0    1
 -2       953      1019      1018      3927      3928      3923
 -1      1957    8    0    1
 -2       954       955      1020      3728      3929      3930
 -1      1958    8    0    1
 -2       954      1020      1019      3930      3931      3926
 -1      1959    8    0    1
 -2       955       956      1021      3731      3932      3933
 -1      1960    8    0    1
 -2       955      1021      1020      3933      3934      3929
 -1      1961    8    0    1
 -2       956       957      1022      3734      3935      3936
 -1      1962    8    0    1
 -2       956      1022      1021      3936      3937      3932
 -1      1963    8    0    1
 -2       957       958      1023      3737      3938      3939
 -1      1964    8    0    1
 -2       957      1023      1022      3939      3940      3935
 -1      1965    8    0    1
 -2       958       959      1024      3740      3941      3942
 -1      1966    8    0    1
 -2       958      1024      1023      3942      3943      3938
 -1      1967    8    0    1
 -2       959       960      1025      3743      3944      3945
 -1      1968    8    0    1
 -2       959      1025      1024      3945      3946      3941
 -1      1969    8    0    1
 -2       960       961      1026      3746      3947      3948
 -1      1970    8    0    1
 -2       960      1026      1025      3948      3949      3944
 -1      1971    8    0    1
 -2       961       962      1027      3749      3950      3951
 -1      1972    8    0    1
 -2       961      1027      1026      3951      3952      3947
 -1      1973    8    0    1
 -2       962       963      1028      3752      3953      3954
 -1      1974    8    0    1
 -2       962      1028      1027      3954      3955      3950
 -1      1975    8    0    1
 -2       963       964      1029      3755      3956      3957
 -1      1976    8    0    1
 -2       963      1029      1028      3957      3958      3953
 -1      1977    8    0    1
 -2       964       965      1030      3758      3959      3960
 -1      1978    8    0    1
 -2       964      1030      1029      3960      3961      3956
 -1      1979    8    0    1
 -2       965       966      1031      3761      3962      3963
 -1      1980    8    0    1
 -2       965      1031      1030      3963      3964      3959
 -1      1981    8    0    1
 -2       966       967      1032      3764      3965      3966
 -1      1982    8    0    1
 -2       966      1032      1031      3966      3967      3962
 -1      1983    8    0    1
 -2       967       968      1033      3767      3968      3969
 -1      1984    8    0    1
 -2       967      1033      1032      3969      3970      3965
 -1      1985    8    0    1
 -2       968       969       985      3770      3828      3971
 -1      1986    8    0    1
 -2       978       979       906      3825      3972      3803
 -1      1987    8    0    1
 -2       981       945      1034      3826      3973      3974
 -1      1988    8    0    1
 -2       911       902      1035      3599      3975      3976
 -1      1989    8    0    1
 -2       983       911      1035      3818      3976      3977
 -1      1990    8    0    1
 -2       902       942      1035      3691      3978      3975
 -1      1991    8    0    1
 -2       908       903      1036      3806      3979      3980
 -1      1992    8    0    1
 -2       908      1036       979      3980      3981      3801
 -1      1993    8    0    1
 -2       970       972      1037      3798      3982      3983
 -1      1994    8    0    1
 -2       912       970      1038      3794      3984      3985
 -1      1995    8    0    1
 -2       973       912      1038      3824      3985      3986
 -1      1996    8    0    1
 -2       970      1037      1038      3983      3987      3984
 -1      1997    8    0    1
 -2       948       949      1039      3710      3988      3989
 -1      1998    8    0    1
 -2       948      1039      1013      3989      3990      3910
 -1      1999    8    0    1
 -2       910       901      1040      3595      3991      3992
 -1      2000    8    0    1
 -2       984       910      1040      3823      3992      3993
 -1      2001    8    0    1
 -2       901       980      1040      3805      3994      3991
 -1      2002    8    0    1
 -2       945       944      1041      3699      3995      3996
 -1      2003    8    0    1
 -2       945      1041      1034      3996      3997      3973
 -1      2004    8    0    1
 -2       913       973      1042      3782      3998      3999
 -1      2005    8    0    1
 -2       973      1038      1042      3986      4000      3998
 -1      2006    8    0    1
 -2       974       946      1043      3785      4001      4002
 -1      2007    8    0    1
 -2       946      1014      1043      3913      4003      4001
 -1      2008    8    0    1
 -2       944       974      1044      3792      4004      4005
 -1      2009    8    0    1
 -2       944      1044      1041      4005      4006      3995
 -1      2010    8    0    1
 -2       914       913      1045      3607      4007      4008
 -1      2011    8    0    1
 -2       986       914      1045      3830      4008      4009
 -1      2012    8    0    1
 -2       913      1042      1045      3999      4010      4007
 -1      2013    8    0    1
 -2       906       979       982      3972      4011      3812
 -1      2014    8    0    1
 -2       909       982      1046      3811      4012      4013
 -1      2015    8    0    1
 -2       909      1046       977      4013      4014      3797
 -1      2016    8    0    1
 -2       943       976      1047      3790      4015      4016
 -1      2017    8    0    1
 -2       979      1036       982      3981      4017      4011
 -1      2018    8    0    1
 -2       949      1015      1039      3916      4018      3988
 -1      2019    8    0    1
 -2       942       941      1035      3692      4019      3978
 -1      2020    8    0    1
 -2       903       975      1036      3788      4020      3979
 -1      2021    8    0    1
 -2       968       985      1033      3971      4021      3968
 -1      2022    8    0    1
 -2       943      1047      1048      4016      4022      4023
 -1      2023    8    0    1
 -2       943      1048       975      4023      4024      3786
 -1      2024    8    0    1
 -2       941      1012      1035      3908      4025      4019
 -1      2025    8    0    1
 -2      1037       972      1049      3982      4026      4027
 -1      2026    8    0    1
 -2       972       977      1049      3796      4028      4026
 -1      2027    8    0    1
 -2       974      1043      1044      4002      4029      4004
 -1      2028    8    0    1
 -2      1040       980      1050      3994      4030      4031
 -1      2029    8    0    1
 -2       976       981      1051      3809      4032      4033
 -1      2030    8    0    1
 -2       976      1051      1047      4033      4034      4015
 -1      2031    8    0    1
 -2       980       983      1052      3820      4035      4036
 -1      2032    8    0    1
 -2       980      1052      1050      4036      4037      4030
 -1      2033    8    0    1
 -2      1051       981      1034      4032      3974      4038
 -1      2034    8    0    1
 -2       982      1036      1046      4017      4039      4012
 -1      2035    8    0    1
 -2       988       987      1053      3837      4040      4041
 -1      2036    8    0    1
 -2       989       988      1054      3840      4042      4043
 -1      2037    8    0    1
 -2       988      1053      1054      4041      4044      4042
 -1      2038    8    0    1
 -2       990       989      1055      3843      4045      4046
 -1      2039    8    0    1
 -2       989      1054      1055      4043      4047      4045
 -1      2040    8    0    1
 -2       991       990      1056      3846      4048      4049
 -1      2041    8    0    1
 -2       990      1055      1056      4046      4050      4048
 -1      2042    8    0    1
 -2       992       991      1057      3849      4051      4052
 -1      2043    8    0    1
 -2       991      1056      1057      4049      4053      4051
 -1      2044    8    0    1
 -2       993       992      1058      3852      4054      4055
 -1      2045    8    0    1
 -2       992      1057      1058      4052      4056      4054
 -1      2046    8    0    1
 -2       994       993      1059      3855      4057      4058
 -1      2047    8    0    1
 -2       993      1058      1059      4055      4059      4057
 -1      2048    8    0    1
 -2       995       994      1060      3858      4060      4061
 -1      2049    8    0    1
 -2       994      1059      1060      4058      4062      4060
 -1      2050    8    0    1
 -2       996       995      1061      3861      4063      4064
 -1      2051    8    0    1
 -2       995      1060      1061      4061      4065      4063
 -1      2052    8    0    1
 -2       997       996      1062      3864      4066      4067
 -1      2053    8    0    1
 -2       996      1061      1062      4064      4068      4066
 -1      2054    8    0    1
 -2       998       997      1063      3867      4069      4070
 -1      2055    8    0    1
 -2       997      1062      1063      4067      4071      4069
 -1      2056    8    0    1
 -2       999       998      1064      3870      4072      4073
 -1      2057    8    0    1
 -2       998      1063      1064      4070      4074      4072
 -1      2058    8    0    1
 -2      1000       999      1065      3873      4075      4076
 -1      2059    8    0    1
 -2       999      1064      1065      4073      4077      4075
 -1      2060    8    0    1
 -2      1001      1000      1066      3876      4078      4079
 -1      2061    8    0    1
 -2      1000      1065      1066      4076      4080      4078
 -1      2062    8    0    1
 -2      1002      1001      1067      3879      4081      4082
 -1      2063    8    0    1
 -2      1001      1066      1067      4079      4083      4081
 -1      2064    8    0    1
 -2      1003      1002      1068      3882      4084      4085
 -1      2065    8    0    1
 -2      1002      1067      1068      4082      4086      4084
 -1      2066    8    0    1
 -2      1004      1003      1069      3885      4087      4088
 -1      2067    8    0    1
 -2      1003      1068      1069      4085      4089      4087
 -1      2068    8    0    1
 -2      1005      1004      1070      3888      4090      4091
 -1      2069    8    0    1
 -2      1004      1069      1070      4088      4092      4090
 -1      2070    8    0    1
 -2      1006      1005      1071      3891      4093      4094
 -1      2071    8    0    1
 -2      1005      1070      1071      4091      4095      4093
 -1      2072    8    0    1
 -2      1007      1006      1072      3894      4096      4097
 -1      2073    8    0    1
 -2      1006      1071      1072      4094      4098      4096
 -1      2074    8    0    1
 -2      1008      1007      1073      3897      4099      4100
 -1      2075    8    0    1
 -2      1007      1072      1073      4097      4101      4099
 -1      2076    8    0    1
 -2      1009      1008      1074      3900      4102      4103
 -1      2077    8    0    1
 -2      1008      1073      1074      4100      4104      4102
 -1      2078    8    0    1
 -2      1010      1009      1075      3903      4105      4106
 -1      2079    8    0    1
 -2      1009      1074      1075      4103      4107      4105
 -1      2080    8    0    1
 -2      1011      1010      1076      3906      4108      4109
 -1      2081    8    0    1
 -2      1010      1075      1076      4106      4110      4108
 -1      2082    8    0    1
 -2       984      1040      1077      3993      4111      4112
 -1      2083    8    0    1
 -2       985       984      1077      3829      4112      4113
 -1      2084    8    0    1
 -2      1040      1050      1077      4031      4114      4111
 -1      2085    8    0    1
 -2       987       986      1078      3834      4115      4116
 -1      2086    8    0    1
 -2       987      1078      1053      4116      4117      4040
 -1      2087    8    0    1
 -2      1041      1044      1079      4006      4118      4119
 -1      2088    8    0    1
 -2      1016      1017      1080      3922      4120      4121
 -1      2089    8    0    1
 -2      1015      1016      1081      3919      4122      4123
 -1      2090    8    0    1
 -2      1016      1080      1081      4121      4124      4122
 -1      2091    8    0    1
 -2      1018      1019      1082      3928      4125      4126
 -1      2092    8    0    1
 -2      1019      1020      1083      3931      4127      4128
 -1      2093    8    0    1
 -2      1019      1083      1082      4128      4129      4125
 -1      2094    8    0    1
 -2      1020      1021      1084      3934      4130      4131
 -1      2095    8    0    1
 -2      1020      1084      1083      4131      4132      4127
 -1      2096    8    0    1
 -2      1021      1022      1085      3937      4133      4134
 -1      2097    8    0    1
 -2      1021      1085      1084      4134      4135      4130
 -1      2098    8    0    1
 -2      1022      1023      1086      3940      4136      4137
 -1      2099    8    0    1
 -2      1022      1086      1085      4137      4138      4133
 -1      2100    8    0    1
 -2      1023      1024      1087      3943      4139      4140
 -1      2101    8    0    1
 -2      1023      1087      1086      4140      4141      4136
 -1      2102    8    0    1
 -2      1024      1025      1088      3946      4142      4143
 -1      2103    8    0    1
 -2      1024      1088      1087      4143      4144      4139
 -1      2104    8    0    1
 -2      1025      1026      1089      3949      4145      4146
 -1      2105    8    0    1
 -2      1025      1089      1088      4146      4147      4142
 -1      2106    8    0    1
 -2      1026      1027      1090      3952      4148      4149
 -1      2107    8    0    1
 -2      1026      1090      1089      4149      4150      4145
 -1      2108    8    0    1
 -2      1027      1028      1091      3955      4151      4152
 -1      2109    8    0    1
 -2      1027      1091      1090      4152      4153      4148
 -1      2110    8    0    1
 -2      1028      1029      1092      3958      4154      4155
 -1      2111    8    0    1
 -2      1028      1092      1091      4155      4156      4151
 -1      2112    8    0    1
 -2      1029      1030      1093      3961      4157      4158
 -1      2113    8    0    1
 -2      1029      1093      1092      4158      4159      4154
 -1      2114    8    0    1
 -2      1030      1031      1094      3964      4160      4161
 -1      2115    8    0    1
 -2      1030      1094      1093      4161      4162      4157
 -1      2116    8    0    1
 -2      1031      1032      1095      3967      4163      4164
 -1      2117    8    0    1
 -2      1031      1095      1094      4164      4165      4160
 -1      2118    8    0    1
 -2      1032      1033      1096      3970      4166      4167
 -1      2119    8    0    1
 -2      1032      1096      1095      4167      4168      4163
 -1      2120    8    0    1
 -2      1036       975      1046      4020      4169      4039
 -1      2121    8    0    1
 -2      1013      1039      1097      3990      4170      4171
 -1      2122    8    0    1
 -2      1039      1015      1098      4018      4172      4173
 -1      2123    8    0    1
 -2      1039      1098      1097      4173      4174      4170
 -1      2124    8    0    1
 -2       983      1035      1012      3977      4025      4175
 -1      2125    8    0    1
 -2      1038      1037      1099      3987      4176      4177
 -1      2126    8    0    1
 -2      1038      1099      1042      4177      4178      4000
 -1      2127    8    0    1
 -2      1017      1018      1100      3925      4179      4180
 -1      2128    8    0    1
 -2      1018      1082      1100      4126      4181      4179
 -1      2129    8    0    1
 -2      1014      1013      1101      3914      4182      4183
 -1      2130    8    0    1
 -2      1013      1097      1101      4171      4184      4182
 -1      2131    8    0    1
 -2      1034      1041      1102      3997      4185      4186
 -1      2132    8    0    1
 -2      1041      1079      1102      4119      4187      4185
 -1      2133    8    0    1
 -2      1044      1043      1103      4029      4188      4189
 -1      2134    8    0    1
 -2      1044      1103      1079      4189      4190      4118
 -1      2135    8    0    1
 -2      1051      1034      1104      4038      4191      4192
 -1      2136    8    0    1
 -2      1034      1102      1104      4186      4193      4191
 -1      2137    8    0    1
 -2      1047      1051      1105      4034      4194      4195
 -1      2138    8    0    1
 -2      1051      1104      1105      4192      4196      4194
 -1      2139    8    0    1
 -2      1043      1014      1106      4003      4197      4198
 -1      2140    8    0    1
 -2      1014      1101      1106      4183      4199      4197
 -1      2141    8    0    1
 -2       983      1012      1052      4175      4200      4035
 -1      2142    8    0    1
 -2      1050      1052      1107      4037      4201      4202
 -1      2143    8    0    1
 -2      1077      1050      1108      4114      4203      4204
 -1      2144    8    0    1
 -2      1050      1107      1108      4202      4205      4203
 -1      2145    8    0    1
 -2      1012      1011      1109      3909      4206      4207
 -1      2146    8    0    1
 -2      1080      1017      1100      4120      4180      4208
 -1      2147    8    0    1
 -2      1043      1106      1103      4198      4209      4188
 -1      2148    8    0    1
 -2      1015      1081      1098      4123      4210      4172
 -1      2149    8    0    1
 -2      1046       975      1048      4169      4024      4211
 -1      2150    8    0    1
 -2      1096      1033      1108      4166      4212      4213
 -1      2151    8    0    1
 -2      1099      1037      1049      4176      4027      4214
 -1      2152    8    0    1
 -2      1078       986      1110      4115      4215      4216
 -1      2153    8    0    1
 -2       986      1045      1110      4009      4217      4215
 -1      2154    8    0    1
 -2       977      1046      1111      4014      4218      4219
 -1      2155    8    0    1
 -2      1049       977      1111      4028      4219      4220
 -1      2156    8    0    1
 -2      1046      1048      1111      4211      4221      4218
 -1      2157    8    0    1
 -2      1033       985      1108      4021      4222      4212
 -1      2158    8    0    1
 -2      1045      1042      1112      4010      4223      4224
 -1      2159    8    0    1
 -2      1110      1045      1112      4217      4224      4225
 -1      2160    8    0    1
 -2      1042      1099      1112      4178      4226      4223
 -1      2161    8    0    1
 -2      1109      1011      1076      4206      4109      4227
 -1      2162    8    0    1
 -2      1079      1103      1113      4190      4228      4229
 -1      2163    8    0    1
 -2      1055      1054      1114      4047      4230      4231
 -1      2164    8    0    1
 -2      1056      1055      1101      4050      4232      4233
 -1      2165    8    0    1
 -2      1057      1056      1097      4053      4234      4235
 -1      2166    8    0    1
 -2      1058      1057      1098      4056      4236      4237
 -1      2167    8    0    1
 -2      1059      1058      1081      4059      4238      4239
 -1      2168    8    0    1
 -2      1060      1059      1080      4062      4240      4241
 -1      2169    8    0    1
 -2      1061      1060      1100      4065      4242      4243
 -1      2170    8    0    1
 -2      1062      1061      1082      4068      4244      4245
 -1      2171    8    0    1
 -2      1063      1062      1083      4071      4246      4247
 -1      2172    8    0    1
 -2      1064      1063      1084      4074      4248      4249
 -1      2173    8    0    1
 -2      1065      1064      1085      4077      4250      4251
 -1      2174    8    0    1
 -2      1066      1065      1086      4080      4252      4253
 -1      2175    8    0    1
 -2      1067      1066      1087      4083      4254      4255
 -1      2176    8    0    1
 -2      1068      1067      1088      4086      4256      4257
 -1      2177    8    0    1
 -2      1069      1068      1089      4089      4258      4259
 -1      2178    8    0    1
 -2      1070      1069      1090      4092      4260      4261
 -1      2179    8    0    1
 -2      1071      1070      1091      4095      4262      4263
 -1      2180    8    0    1
 -2      1072      1071      1092      4098      4264      4265
 -1      2181    8    0    1
 -2      1073      1072      1093      4101      4266      4267
 -1      2182    8    0    1
 -2      1074      1073      1094      4104      4268      4269
 -1      2183    8    0    1
 -2      1075      1074      1095      4107      4270      4271
 -1      2184    8    0    1
 -2      1076      1075      1096      4110      4272      4273
 -1      2185    8    0    1
 -2      1080      1100      1060      4208      4242      4241
 -1      2186    8    0    1
 -2      1084      1063      1083      4248      4247      4132
 -1      2187    8    0    1
 -2      1083      1062      1082      4246      4245      4129
 -1      2188    8    0    1
 -2      1080      1059      1081      4240      4239      4124
 -1      2189    8    0    1
 -2      1052      1012      1109      4200      4207      4274
 -1      2190    8    0    1
 -2      1081      1058      1098      4238      4237      4210
 -1      2191    8    0    1
 -2      1085      1086      1065      4138      4252      4251
 -1      2192    8    0    1
 -2      1086      1087      1066      4141      4254      4253
 -1      2193    8    0    1
 -2      1087      1088      1067      4144      4256      4255
 -1      2194    8    0    1
 -2      1088      1089      1068      4147      4258      4257
 -1      2195    8    0    1
 -2      1089      1090      1069      4150      4260      4259
 -1      2196    8    0    1
 -2      1090      1091      1070      4153      4262      4261
 -1      2197    8    0    1
 -2      1091      1092      1071      4156      4264      4263
 -1      2198    8    0    1
 -2      1092      1093      1072      4159      4266      4265
 -1      2199    8    0    1
 -2      1093      1094      1073      4162      4268      4267
 -1      2200    8    0    1
 -2      1094      1095      1074      4165      4270      4269
 -1      2201    8    0    1
 -2      1095      1096      1075      4168      4272      4271
 -1      2202    8    0    1
 -2      1099      1049      1115      4214      4275      4276
 -1      2203    8    0    1
 -2      1048      1047      1116      4022      4277      4278
 -1      2204    8    0    1
 -2      1096      1108      1107      4213      4205      4279
 -1      2205    8    0    1
 -2      1107      1052      1109      4201      4274      4280
 -1      2206    8    0    1
 -2      1084      1085      1064      4135      4250      4249
 -1      2207    8    0    1
 -2      1097      1098      1057      4174      4236      4235
 -1      2208    8    0    1
 -2      1082      1061      1100      4244      4243      4181
 -1      2209    8    0    1
 -2      1047      1105      1116      4195      4281      4277
 -1      2210    8    0    1
 -2      1097      1056      1101      4234      4233      4184
 -1      2211    8    0    1
 -2      1054      1053      1113      4044      4282      4283
 -1      2212    8    0    1
 -2      1102      1079      1078      4187      4284      4285
 -1      2213    8    0    1
 -2      1104      1102      1110      4193      4286      4287
 -1      2214    8    0    1
 -2      1105      1104      1112      4196      4288      4289
 -1      2215    8    0    1
 -2      1103      1106      1114      4209      4290      4291
 -1      2216    8    0    1
 -2      1107      1109      1076      4280      4227      4292
 -1      2217    8    0    1
 -2      1076      1096      1107      4273      4279      4292
 -1      2218    8    0    1
 -2      1099      1115      1112      4276      4293      4226
 -1      2219    8    0    1
 -2      1113      1103      1114      4228      4291      4294
 -1      2220    8    0    1
 -2      1110      1102      1078      4286      4285      4216
 -1      2221    8    0    1
 -2      1048      1116      1111      4278      4295      4221
 -1      2222    8    0    1
 -2      1114      1054      1113      4230      4283      4294
 -1      2223    8    0    1
 -2      1112      1104      1110      4288      4287      4225
 -1      2224    8    0    1
 -2      1078      1079      1053      4284      4296      4117
 -1      2225    8    0    1
 -2      1106      1101      1055      4199      4232      4297
 -1      2226    8    0    1
 -2       985      1077      1108      4113      4204      4222
 -1      2227    8    0    1
 -2      1116      1105      1115      4281      4298      4299
 -1      2228    8    0    1
 -2      1115      1049      1116      4275      4300      4299
 -1      2229    8    0    1
 -2      1049      1111      1116      4220      4295      4300
 -1      2230    8    0    1
 -2      1115      1105      1112      4298      4289      4293
 -1      2231    8    0    1
 -2      1053      1079      1113      4296      4229      4282
 -1      2232    8    0    1
 -2      1106      1055      1114      4297      4231      4290
 -3
    1PSTEP                         1           1           1          
  100CL  101 1.000000000        4300                     0    1           1
 -4  DISP        4    1
 -5  D1          1    2    1    0
 -5  D2          1    2    2    0
 -5  D3          1    2    3    0
 -5  ALL         1    2    0    0    1ALL
 -1         1 2.45475E-03-1.21815E-03-4.28853E-15
 -1         2 4.60372E-03-5.59282E-04-8.68290E-15
 -1         3 1.44528E-02-3.08406E-03-2.19257E-13
 -1         4 1.59104E-02-4.51274E-03-2.15965E-13
 -1         5 0.00000E+00 0.00000E+00 0.00000E+00
 -1         6 0.00000E+00 0.00000E+00 0.00000E+00
 -1         7 0.00000E+00 0.00000E+00 0.00000E+00
 -1         8 0.00000E+00 0.00000E+00 0.00000E+00
 -1         9 0.00000E+00 0.00000E+00 0.00000E+00
 -1        10 0.00000E+00 0.00000E+00 0.00000E+00
 -1        11 0.00000E+00 0.00000E+00 0.00000E+00
 -1        12 0.00000E+00 0.00000E+00 0.00000E+00
 -1        13 0.00000E+00 0.00000E+00 0.00000E+00
 -1        14 0.00000E+00 0.00000E+00 0.00000E+00
 -1        15 0.00000E+00 0.00000E+00 0.00000E+00
 -1        16 0.00000E+00 0.00000E+00 0.00000E+00
 -1        17 0.00000E+00 0.00000E+00 0.00000E+00
 -1        18 0.00000E+00 0.00000E+00 0.00000E+00
 -1        19 0.00000E+00 0.00000E+00 0.00000E+00
 -1        20 0.00000E+00 0.00000E+00 0.00000E+00
 -1        21 0.00000E+00 0.00000E+00 0.00000E+00
 -1        22 0.00000E+00 0.00000E+00 0.00000E+00
 -1        23 5.91469E-04-3.16619E-04 7.78322E-17
 -1        24 1.06265E-03-5.26467E-04-5.45354E-17
 -1        25 1.51217E-03-7.55194E-04-4.00653E-16
 -1        26 1.92961E-03-1.01236E-03-9.74481E-16
 -1        27 2.29283E-03-1.27283E-03-1.79509E-15
 -1        28 2.59454E-03-1.48156E-03-2.88234E-15
 -1        29 2.85941E-03-1.58504E-03-4.24959E-15
 -1        30 3.13433E-03-1.57228E-03-5.90081E-15
 -1        31 3.45529E-03-1.48450E-03-7.82768E-15
 -1        32 3.82587E-03-1.38202E-03-1.00044E-14
 -1        33 4.22563E-03-1.30807E-03-1.24072E-14
 -1        34 4.63021E-03-1.27865E-03-1.50119E-14
 -1        35 5.02322E-03-1.29113E-03-1.78075E-14
 -1        36 5.39765E-03-1.33569E-03-2.07843E-14
 -1        37 5.75275E-03-1.40206E-03-2.39422E-14
 -1        38 6.09079E-03-1.48210E-03-2.72779E-14
 -1        39 6.41495E-03-1.57012E-03-3.07863E-14
 -1        40 6.72837E-03-1.66238E-03-3.44613E-14
 -1        41 7.03369E-03-1.75660E-03-3.82981E-14
 -1        42 7.33303E-03-1.85139E-03-4.22952E-14
 -1        43 7.62801E-03-1.94597E-03-4.64500E-14
 -1        44 7.91987E-03-2.03993E-03-5.07671E-14
 -1        45 8.20950E-03-2.13310E-03-5.52427E-14
 -1        46 8.49758E-03-2.22542E-03-5.98781E-14
 -1        47 8.78460E-03-2.31692E-03-6.46510E-14
 -1        48 9.07090E-03-2.40768E-03-6.95575E-14
 -1        49 9.35675E-03-2.49778E-03-7.45922E-14
 -1        50 9.64231E-03-2.58733E-03-7.97524E-14
 -1        51 9.92772E-03-2.67640E-03-8.50407E-14
 -1        52 1.02130E-02-2.76510E-03-9.04601E-14
 -1        53 1.04984E-02-2.85348E-03-9.59980E-14
 -1        54 1.07837E-02-2.94162E-03-1.01655E-13
 -1        55 1.10690E-02-3.02956E-03-1.07426E-13
 -1        56 1.13544E-02-3.11736E-03-1.13299E-13
 -1        57 1.16399E-02-3.20506E-03-1.19268E-13
 -1        58 1.19254E-02-3.29266E-03-1.25319E-13
 -1        59 1.22109E-02-3.38021E-03-1.31443E-13
 -1        60 1.24965E-02-3.46772E-03-1.37640E-13
 -1        61 1.27821E-02-3.55520E-03-1.43899E-13
 -1        62 1.30677E-02-3.64266E-03-1.50224E-13
 -1        63 1.33534E-02-3.73011E-03-1.56620E-13
 -1        64 1.36390E-02-3.81755E-03-1.63072E-13
 -1        65 1.39247E-02-3.90499E-03-1.69595E-13
 -1        66 1.42104E-02-3.99243E-03-1.76163E-13
 -1        67 1.44961E-02-4.07987E-03-1.82775E-13
 -1        68 1.47818E-02-4.16732E-03-1.89430E-13
 -1        69 1.50675E-02-4.25476E-03-1.96116E-13
 -1        70 1.53532E-02-4.34221E-03-2.02818E-13
 -1        71 1.56389E-02-4.42966E-03-2.09545E-13
 -1        72 4.71505E-04 3.09380E-04 6.37511E-17
 -1        73 7.91701E-04 4.87524E-04-1.30240E-16
 -1        74 1.08072E-03 6.13673E-04-5.72208E-16
 -1        75 1.35051E-03 7.03022E-04-1.26494E-15
 -1        76 1.60582E-03 7.57674E-04-2.20707E-15
 -1        77 1.85139E-03 7.76020E-04-3.39393E-15
 -1        78 2.09361E-03 7.56951E-04-4.82357E-15
 -1        79 2.33970E-03 7.02535E-04-6.49176E-15
 -1        80 2.59588E-03 6.18764E-04-8.39655E-15
 -1        81 2.86573E-03 5.14409E-04-1.05346E-14
 -1        82 3.14961E-03 3.98883E-04-1.29004E-14
 -1        83 3.44530E-03 2.80269E-04-1.54786E-14
 -1        84 3.74916E-03 1.64212E-04-1.82600E-14
 -1        85 4.05736E-03 5.37889E-05-2.12402E-14
 -1        86 4.36666E-03-5.00012E-05-2.44196E-14
 -1        87 4.67475E-03-1.47518E-04-2.77949E-14
 -1        88 4.98025E-03-2.39828E-04-3.13489E-14
 -1        89 5.28255E-03-3.28227E-04-3.50795E-14
 -1        90 5.58155E-03-4.13954E-04-3.89813E-14
 -1        91 5.87749E-03-4.98056E-04-4.30509E-14
 -1        92 6.17079E-03-5.81336E-04-4.72839E-14
 -1        93 6.46191E-03-6.64370E-04-5.16780E-14
 -1        94 6.75130E-03-7.47537E-04-5.62307E-14
 -1        95 7.03938E-03-8.31067E-04-6.09337E-14
 -1        96 7.32649E-03-9.15075E-04-6.57855E-14
 -1        97 7.61292E-03-9.99600E-04-7.07873E-14
 -1        98 7.89887E-03-1.08463E-03-7.59372E-14
 -1        99 8.18453E-03-1.17013E-03-8.12209E-14
 -1       100 8.47001E-03-1.25603E-03-8.66298E-14
 -1       101 8.75539E-03-1.34229E-03-9.21759E-14
 -1       102 9.04074E-03-1.42883E-03-9.78507E-14
 -1       103 9.32609E-03-1.51561E-03-1.03656E-13
 -1       104 9.61146E-03-1.60257E-03-1.09576E-13
 -1       105 9.89687E-03-1.68968E-03-1.15593E-13
 -1       106 1.01823E-02-1.77689E-03-1.21710E-13
 -1       107 1.04678E-02-1.86419E-03-1.27912E-13
 -1       108 1.07534E-02-1.95155E-03-1.34196E-13
 -1       109 1.10389E-02-2.03894E-03-1.40561E-13
 -1       110 1.13245E-02-2.12637E-03-1.46998E-13
 -1       111 1.16102E-02-2.21382E-03-1.53492E-13
 -1       112 1.18958E-02-2.30127E-03-1.60028E-13
 -1       113 1.21815E-02-2.38874E-03-1.66597E-13
 -1       114 1.24671E-02-2.47620E-03-1.73186E-13
 -1       115 1.27528E-02-2.56367E-03-1.79791E-13
 -1       116 1.30385E-02-2.65114E-03-1.86408E-13
 -1       117 1.33242E-02-2.73860E-03-1.93022E-13
 -1       118 1.36100E-02-2.82606E-03-1.99661E-13
 -1       119 1.38957E-02-2.91352E-03-2.06311E-13
 -1       120 1.41814E-02-3.00098E-03-2.12953E-13
 -1       121 1.45388E-02-3.16834E-03-2.19154E-13
 -1       122 1.46248E-02-3.25263E-03-2.19073E-13
 -1       123 1.47108E-02-3.33691E-03-2.18973E-13
 -1       124 1.47968E-02-3.42120E-03-2.18858E-13
 -1       125 1.48828E-02-3.50550E-03-2.18726E-13
 -1       126 1.49673E-02-3.58836E-03-2.18618E-13
 -1       127 1.50533E-02-3.67266E-03-2.18511E-13
 -1       128 1.51393E-02-3.75696E-03-2.18360E-13
 -1       129 1.52253E-02-3.84127E-03-2.18186E-13
 -1       130 1.53113E-02-3.92557E-03-2.17968E-13
 -1       131 1.53973E-02-4.00987E-03-2.17719E-13
 -1       132 1.54818E-02-4.09273E-03-2.17463E-13
 -1       133 1.55678E-02-4.17703E-03-2.17193E-13
 -1       134 1.56538E-02-4.26132E-03-2.16904E-13
 -1       135 1.57398E-02-4.34560E-03-2.16603E-13
 -1       136 1.58258E-02-4.42989E-03-2.16290E-13
 -1       137 4.51698E-03-3.95909E-04-8.61482E-15
 -1       138 4.35164E-03-2.49972E-04-8.35727E-15
 -1       139 4.08689E-03-1.03334E-04-7.88883E-15
 -1       140 3.71413E-03 3.61543E-05-7.20069E-15
 -1       141 3.32423E-03 1.35944E-04-6.48077E-15
 -1       142 2.87643E-03 2.10013E-04-5.66744E-15
 -1       143 2.43485E-03 2.48626E-04-4.88540E-15
 -1       144 1.98095E-03 2.55735E-04-4.10551E-15
 -1       145 1.55505E-03 2.31877E-04-3.39849E-15
 -1       146 1.20257E-03 1.87897E-04-2.83132E-15
 -1       147 8.74079E-04 1.20997E-04-2.31285E-15
 -1       148 6.27509E-04 4.44682E-05-1.93041E-15
 -1       149 4.48476E-04-4.20711E-05-1.65423E-15
 -1       150 3.49766E-04-1.36794E-04-1.49926E-15
 -1       151 3.26951E-04-2.53918E-04-1.45384E-15
 -1       152 3.86847E-04-3.77228E-04-1.52446E-15
 -1       153 5.52033E-04-5.34077E-04-1.72917E-15
 -1       154 7.84279E-04-6.89654E-04-2.02049E-15
 -1       155 1.12857E-03-8.63033E-04-2.45635E-15
 -1       156 1.51676E-03-1.01177E-03-2.96108E-15
 -1       157 1.96306E-03-1.13476E-03-3.56837E-15
 -1       158 2.90513E-03-1.24731E-03-4.99739E-15
 -1       159 3.34151E-03-1.23036E-03-5.74818E-15
 -1       160 3.71466E-03-1.17667E-03-6.44933E-15
 -1       161 4.05900E-03-1.08464E-03-7.16585E-15
 -1       162 4.31768E-03-9.72058E-04-7.76462E-15
 -1       163 4.49616E-03-8.44091E-04-8.23375E-15
 -1       164 4.59290E-03-7.03416E-04-8.54962E-15
 -1       165 3.23907E-04-1.14210E-04-2.03085E-17
 -1       166 2.65911E-04-5.93461E-05-5.09304E-17
 -1       167 2.12484E-04-2.46227E-05-6.87316E-17
 -1       168 1.60326E-04-1.17307E-05-7.90688E-17
 -1       169 1.20678E-04-2.22546E-05-8.50692E-17
 -1       170 1.07828E-04-4.68510E-05-8.86166E-17
 -1       171 1.24480E-04-6.70166E-05-9.12119E-17
 -1       172 1.58967E-04-6.90579E-05-9.35768E-17
 -1       173 1.95723E-04-5.01708E-05-9.60332E-17
 -1       174 2.23245E-04-1.75259E-05-9.83473E-17
 -1       175 2.39194E-04 1.95752E-05-9.95365E-17
 -1       176 2.46432E-04 5.52491E-05-9.80932E-17
 -1       177 2.49453E-04 8.78988E-05-9.16964E-17
 -1       178 2.53444E-04 1.19466E-04-7.59280E-17
 -1       179 2.67117E-04 1.56733E-04-4.40728E-17
 -1       180 3.33619E-04 2.22996E-04-1.07607E-17
 -1       181 6.72143E-04-3.04567E-04-7.00259E-17
 -1       182 1.11210E-03-5.22146E-04-3.49039E-16
 -1       183 1.53358E-03-7.71466E-04-8.38264E-16
 -1       184 1.93374E-03-1.04695E-03-1.55906E-15
 -1       185 2.30496E-03-1.30374E-03-2.53406E-15
 -1       186 2.64938E-03-1.47392E-03-3.78210E-15
 -1       187 2.98475E-03-1.51444E-03-5.31393E-15
 -1       188 3.33228E-03-1.44581E-03-7.12478E-15
 -1       189 3.69947E-03-1.33335E-03-9.19587E-15
 -1       190 4.07890E-03-1.23691E-03-1.15011E-14
 -1       191 4.45874E-03-1.18531E-03-1.40174E-14
 -1       192 4.83013E-03-1.18139E-03-1.67243E-14
 -1       193 5.18879E-03-1.21578E-03-1.96168E-14
 -1       194 5.53380E-03-1.27680E-03-2.26871E-14
 -1       195 5.86614E-03-1.35464E-03-2.59375E-14
 -1       196 6.18762E-03-1.44230E-03-2.93618E-14
 -1       197 6.50023E-03-1.53520E-03-3.29551E-14
 -1       198 6.80583E-03-1.63048E-03-3.67134E-14
 -1       199 7.10601E-03-1.72647E-03-4.06319E-14
 -1       200 7.40208E-03-1.82223E-03-4.47077E-14
 -1       201 7.69507E-03-1.91727E-03-4.89460E-14
 -1       202 7.98579E-03-2.01138E-03-5.33426E-14
 -1       203 8.27485E-03-2.10450E-03-5.78978E-14
 -1       204 8.56271E-03-2.19667E-03-6.25974E-14
 -1       205 8.84973E-03-2.28797E-03-6.74311E-14
 -1       206 9.13617E-03-2.37850E-03-7.24006E-14
 -1       207 9.42221E-03-2.46839E-03-7.74968E-14
 -1       208 9.70800E-03-2.55774E-03-8.27215E-14
 -1       209 9.99364E-03-2.64663E-03-8.80735E-14
 -1       210 1.02792E-02-2.73517E-03-9.35545E-14
 -1       211 1.05647E-02-2.82343E-03-9.91545E-14
 -1       212 1.08502E-02-2.91146E-03-1.04867E-13
 -1       213 1.11357E-02-2.99932E-03-1.10687E-13
 -1       214 1.14212E-02-3.08705E-03-1.16602E-13
 -1       215 1.17067E-02-3.17469E-03-1.22608E-13
 -1       216 1.19923E-02-3.26226E-03-1.28696E-13
 -1       217 1.22779E-02-3.34978E-03-1.34853E-13
 -1       218 1.25635E-02-3.43726E-03-1.41083E-13
 -1       219 1.28491E-02-3.52473E-03-1.47380E-13
 -1       220 1.31348E-02-3.61218E-03-1.53745E-13
 -1       221 1.34204E-02-3.69962E-03-1.60170E-13
 -1       222 1.37061E-02-3.78705E-03-1.66660E-13
 -1       223 1.39918E-02-3.87449E-03-1.73201E-13
 -1       224 1.42775E-02-3.96193E-03-1.79787E-13
 -1       225 1.45632E-02-4.04937E-03-1.86413E-13
 -1       226 1.48489E-02-4.13681E-03-1.93077E-13
 -1       227 1.51346E-02-4.22426E-03-1.99768E-13
 -1       228 1.54203E-02-4.31171E-03-2.06483E-13
 -1       229 6.73621E-04 4.05953E-04-2.28706E-16
 -1       230 9.87019E-04 5.40200E-04-6.79317E-16
 -1       231 1.28041E-03 6.36333E-04-1.37057E-15
 -1       232 1.55958E-03 6.97002E-04-2.30580E-15
 -1       233 1.82928E-03 7.20420E-04-3.48338E-15
 -1       234 2.09465E-03 7.04977E-04-4.90293E-15
 -1       235 2.36105E-03 6.52388E-04-6.56102E-15
 -1       236 2.63304E-03 5.68707E-04-8.45457E-15
 -1       237 2.91336E-03 4.63164E-04-1.05786E-14
 -1       238 3.20258E-03 3.45820E-04-1.29267E-14
 -1       239 3.49945E-03 2.25340E-04-1.54891E-14
 -1       240 3.80170E-03 1.07753E-04-1.82552E-14
 -1       241 4.10681E-03-3.70009E-06-2.12200E-14
 -1       242 4.41256E-03-1.08017E-04-2.43791E-14
 -1       243 4.71732E-03-2.05646E-04-2.77309E-14
 -1       244 5.02005E-03-2.97774E-04-3.12648E-14
 -1       245 5.32027E-03-3.85811E-04-3.49758E-14
 -1       246 5.61784E-03-4.71092E-04-3.88568E-14
 -1       247 5.91291E-03-5.54727E-04-4.29019E-14
 -1       248 6.20578E-03-6.37565E-04-4.71128E-14
 -1       249 6.49677E-03-7.20204E-04-5.14863E-14
 -1       250 6.78626E-03-8.03035E-04-5.60174E-14
 -1       251 7.07455E-03-8.86288E-04-6.06991E-14
 -1       252 7.36194E-03-9.70076E-04-6.55312E-14
 -1       253 7.64867E-03-1.05443E-03-7.05115E-14
 -1       254 7.93492E-03-1.13933E-03-7.56381E-14
 -1       255 8.22085E-03-1.22473E-03-8.08984E-14
 -1       256 8.50657E-03-1.31057E-03-8.62867E-14
 -1       257 8.79216E-03-1.39678E-03-9.18081E-14
 -1       258 9.07767E-03-1.48330E-03-9.74581E-14
 -1       259 9.36316E-03-1.57005E-03-1.03233E-13
 -1       260 9.64865E-03-1.65701E-03-1.09127E-13
 -1       261 9.93414E-03-1.74411E-03-1.15120E-13
 -1       262 1.02197E-02-1.83132E-03-1.21211E-13
 -1       263 1.05052E-02-1.91862E-03-1.27387E-13
 -1       264 1.07908E-02-2.00598E-03-1.33643E-13
 -1       265 1.10764E-02-2.09338E-03-1.39980E-13
 -1       266 1.13620E-02-2.18081E-03-1.46391E-13
 -1       267 1.16476E-02-2.26825E-03-1.52864E-13
 -1       268 1.19333E-02-2.35572E-03-1.59382E-13
 -1       269 1.22190E-02-2.44318E-03-1.65933E-13
 -1       270 1.25046E-02-2.53065E-03-1.72511E-13
 -1       271 1.27903E-02-2.61812E-03-1.79105E-13
 -1       272 1.30760E-02-2.70559E-03-1.85710E-13
 -1       273 1.33617E-02-2.79306E-03-1.92323E-13
 -1       274 1.36474E-02-2.88052E-03-1.98958E-13
 -1       275 1.39332E-02-2.96798E-03-2.05608E-13
 -1       276 1.42189E-02-3.05543E-03-2.12258E-13
 -1       277 1.43344E-02-3.13475E-03-2.13345E-13
 -1       278 1.44204E-02-3.21904E-03-2.13240E-13
 -1       279 1.45064E-02-3.30333E-03-2.13128E-13
 -1       280 1.45923E-02-3.38762E-03-2.13011E-13
 -1       281 1.46769E-02-3.47049E-03-2.12891E-13
 -1       282 1.47629E-02-3.55478E-03-2.12762E-13
 -1       283 1.48488E-02-3.63908E-03-2.12619E-13
 -1       284 1.49348E-02-3.72338E-03-2.12455E-13
 -1       285 1.50208E-02-3.80768E-03-2.12263E-13
 -1       286 1.51068E-02-3.89198E-03-2.12039E-13
 -1       287 1.51914E-02-3.97485E-03-2.11788E-13
 -1       288 1.52774E-02-4.05914E-03-2.11516E-13
 -1       289 1.53634E-02-4.14343E-03-2.11227E-13
 -1       290 1.54494E-02-4.22772E-03-2.10926E-13
 -1       291 1.54349E-02-4.26971E-03-2.08712E-13
 -1       292 4.59057E-03-5.46689E-04-9.79336E-15
 -1       293 4.41815E-03-4.45118E-04-9.44244E-15
 -1       294 4.13491E-03-3.34079E-04-9.09203E-15
 -1       295 3.74040E-03-1.73621E-04-8.42813E-15
 -1       296 3.34831E-03 2.49226E-05-7.38599E-15
 -1       297 2.96000E-03 1.84691E-04-6.40257E-15
 -1       298 2.57748E-03 2.91156E-04-5.44049E-15
 -1       299 2.20953E-03 3.30785E-04-4.52324E-15
 -1       300 1.84667E-03 2.94002E-04-3.66599E-15
 -1       301 1.49587E-03 2.06213E-04-2.96695E-15
 -1       302 1.17041E-03 9.07934E-05-2.34528E-15
 -1       303 8.38064E-04-9.85555E-06-1.91665E-15
 -1       304 5.85906E-04-1.08590E-04-1.52697E-15
 -1       305 3.97633E-04-1.53611E-04-1.37329E-15
 -1       306 3.09033E-04-1.99613E-04-1.21858E-15
 -1       307 3.40983E-04-2.54091E-04-1.28772E-15
 -1       308 4.99321E-04-3.15360E-04-1.35936E-15
 -1       309 7.57365E-04-4.72265E-04-1.65938E-15
 -1       310 1.11755E-03-6.48587E-04-1.99061E-15
 -1       311 1.49989E-03-8.81670E-04-2.50671E-15
 -1       312 1.89562E-03-1.09052E-03-3.10326E-15
 -1       313 2.30303E-03-1.25568E-03-3.83313E-15
 -1       314 2.67416E-03-1.31677E-03-4.67356E-15
 -1       315 3.03417E-03-1.29369E-03-5.55795E-15
 -1       316 3.39517E-03-1.19643E-03-6.43616E-15
 -1       317 3.74166E-03-1.05727E-03-7.39133E-15
 -1       318 4.08927E-03-9.19359E-04-8.15038E-15
 -1       319 4.36000E-03-7.92194E-04-8.88524E-15
 -1       320 4.55074E-03-6.95791E-04-9.39225E-15
 -1       321 4.63280E-03-6.19534E-04-9.68303E-15
 -1       322 5.00072E-04-1.33457E-04-2.44796E-16
 -1       323 6.12050E-04-2.18178E-04-1.97311E-16
 -1       324 2.68958E-04-5.96956E-05-2.87212E-16
 -1       325 2.02753E-04-7.96050E-05-2.96816E-16
 -1       326 2.11038E-04-1.09784E-04-3.06697E-16
 -1       327 2.79916E-04-1.19132E-04-3.18952E-16
 -1       328 3.69861E-04-9.29469E-05-3.32616E-16
 -1       329 4.43185E-04-3.89355E-05-3.45068E-16
 -1       330 4.87421E-04 2.64615E-05-3.53758E-16
 -1       331 5.07524E-04 9.14983E-05-3.56184E-16
 -1       332 5.14227E-04 1.52125E-04-3.48015E-16
 -1       333 5.18296E-04 2.10139E-04-3.24000E-16
 -1       334 5.32773E-04 2.72340E-04-2.75367E-16
 -1       335 5.92378E-04 3.35248E-04-2.64007E-16
 -1       336 9.13900E-04 4.72880E-04-7.14076E-16
 -1       337 1.17044E-03-5.25406E-04-6.82078E-16
 -1       338 1.58454E-03-7.92999E-04-1.30526E-15
 -1       339 1.99684E-03-1.08388E-03-2.16658E-15
 -1       340 2.39242E-03-1.32859E-03-3.29310E-15
 -1       341 2.77284E-03-1.44205E-03-4.70366E-15
 -1       342 3.15499E-03-1.40402E-03-6.40250E-15
 -1       343 3.54805E-03-1.28494E-03-8.37319E-15
 -1       344 3.94055E-03-1.16864E-03-1.05879E-14
 -1       345 4.31884E-03-1.09769E-03-1.30173E-14
 -1       346 4.67833E-03-1.07892E-03-1.56414E-14
 -1       347 5.02103E-03-1.10297E-03-1.84493E-14
 -1       348 5.35067E-03-1.15741E-03-2.14355E-14
 -1       349 5.67041E-03-1.23152E-03-2.46003E-14
 -1       350 5.98252E-03-1.31743E-03-2.79399E-14
 -1       351 6.28865E-03-1.40984E-03-3.14506E-14
 -1       352 6.59002E-03-1.50540E-03-3.51290E-14
 -1       353 6.88760E-03-1.60206E-03-3.89683E-14
 -1       354 7.18219E-03-1.69866E-03-4.29681E-14
 -1       355 7.47444E-03-1.79458E-03-4.71280E-14
 -1       356 7.76489E-03-1.88951E-03-5.14474E-14
 -1       357 8.05395E-03-1.98338E-03-5.59244E-14
 -1       358 8.34198E-03-2.07619E-03-6.05516E-14
 -1       359 8.62925E-03-2.16804E-03-6.53134E-14
 -1       360 8.91596E-03-2.25903E-03-7.02130E-14
 -1       361 9.20227E-03-2.34929E-03-7.52441E-14
 -1       362 9.48831E-03-2.43892E-03-8.04037E-14
 -1       363 9.77416E-03-2.52805E-03-8.56963E-14
 -1       364 1.00599E-02-2.61677E-03-9.11142E-14
 -1       365 1.03456E-02-2.70516E-03-9.66548E-14
 -1       366 1.06312E-02-2.79329E-03-1.02311E-13
 -1       367 1.09168E-02-2.88123E-03-1.08077E-13
 -1       368 1.12024E-02-2.96901E-03-1.13946E-13
 -1       369 1.14880E-02-3.05669E-03-1.19904E-13
 -1       370 1.17736E-02-3.14428E-03-1.25945E-13
 -1       371 1.20592E-02-3.23182E-03-1.32064E-13
 -1       372 1.23449E-02-3.31931E-03-1.38263E-13
 -1       373 1.26305E-02-3.40678E-03-1.44536E-13
 -1       374 1.29162E-02-3.49424E-03-1.50871E-13
 -1       375 1.32019E-02-3.58168E-03-1.57269E-13
 -1       376 1.34875E-02-3.66911E-03-1.63727E-13
 -1       377 1.37732E-02-3.75655E-03-1.70245E-13
 -1       378 1.40589E-02-3.84398E-03-1.76802E-13
 -1       379 1.43446E-02-3.93142E-03-1.83403E-13
 -1       380 1.46303E-02-4.01886E-03-1.90043E-13
 -1       381 1.49160E-02-4.10631E-03-1.96716E-13
 -1       382 1.51755E-02-4.18801E-03-2.02707E-13
 -1       383 1.22142E-03 5.74765E-04-1.39712E-15
 -1       384 1.51628E-03 6.41771E-04-2.31900E-15
 -1       385 1.80163E-03 6.71274E-04-3.48088E-15
 -1       386 2.08168E-03 6.60764E-04-4.88379E-15
 -1       387 2.36115E-03 6.11295E-04-6.52467E-15
 -1       388 2.64412E-03 5.28822E-04-8.40076E-15
 -1       389 2.93298E-03 4.23010E-04-1.05066E-14
 -1       390 3.22814E-03 3.04588E-04-1.28349E-14
 -1       391 3.52844E-03 1.82819E-04-1.53780E-14
 -1       392 3.83199E-03 6.41080E-05-1.81253E-14
 -1       393 4.13681E-03-4.81452E-05-2.10687E-14
 -1       394 4.44130E-03-1.52920E-04-2.42060E-14
 -1       395 4.74435E-03-2.50717E-04-2.75343E-14
 -1       396 5.04530E-03-3.42797E-04-3.10455E-14
 -1       397 5.34391E-03-4.30644E-04-3.47329E-14
 -1       398 5.64018E-03-5.15653E-04-3.85911E-14
 -1       399 5.93427E-03-5.98983E-04-4.26124E-14
 -1       400 6.22645E-03-6.81513E-04-4.68000E-14
 -1       401 6.51702E-03-7.63865E-04-5.11499E-14
 -1       402 6.80628E-03-8.46440E-04-5.56573E-14
 -1       403 7.09449E-03-9.29474E-04-6.03175E-14
 -1       404 7.38190E-03-1.01308E-03-6.51271E-14
 -1       405 7.66871E-03-1.09728E-03-7.00847E-14
 -1       406 7.95508E-03-1.18207E-03-7.51855E-14
 -1       407 8.24114E-03-1.26738E-03-8.04229E-14
 -1       408 8.52699E-03-1.35315E-03-8.57868E-14
 -1       409 8.81270E-03-1.43931E-03-9.12857E-14
 -1       410 9.09833E-03-1.52579E-03-9.69111E-14
 -1       411 9.38391E-03-1.61252E-03-1.02658E-13
 -1       412 9.66947E-03-1.69946E-03-1.08526E-13
 -1       413 9.95504E-03-1.78655E-03-1.14496E-13
 -1       414 1.02406E-02-1.87375E-03-1.20564E-13
 -1       415 1.05262E-02-1.96105E-03-1.26715E-13
 -1       416 1.08118E-02-2.04840E-03-1.32949E-13
 -1       417 1.10974E-02-2.13580E-03-1.39264E-13
 -1       418 1.13831E-02-2.22323E-03-1.45649E-13
 -1       419 1.16687E-02-2.31068E-03-1.52102E-13
 -1       420 1.19544E-02-2.39815E-03-1.58605E-13
 -1       421 1.22400E-02-2.48561E-03-1.65143E-13
 -1       422 1.25257E-02-2.57309E-03-1.71709E-13
 -1       423 1.28114E-02-2.66056E-03-1.78293E-13
 -1       424 1.30971E-02-2.74803E-03-1.84891E-13
 -1       425 1.33828E-02-2.83549E-03-1.91502E-13
 -1       426 1.36685E-02-2.92296E-03-1.98132E-13
 -1       427 1.39542E-02-3.01042E-03-2.04782E-13
 -1       428 1.41443E-02-3.07258E-03-2.09064E-13
 -1       429 1.43019E-02-3.26974E-03-2.07291E-13
 -1       430 1.42159E-02-3.18545E-03-2.07407E-13
 -1       431 1.41801E-02-3.12902E-03-2.08236E-13
 -1       432 1.43864E-02-3.35260E-03-2.07168E-13
 -1       433 1.44724E-02-3.43690E-03-2.07036E-13
 -1       434 1.45584E-02-3.52120E-03-2.06888E-13
 -1       435 1.46444E-02-3.60550E-03-2.06728E-13
 -1       436 1.47304E-02-3.68980E-03-2.06552E-13
 -1       437 1.48164E-02-3.77409E-03-2.06348E-13
 -1       438 1.49010E-02-3.85696E-03-2.06114E-13
 -1       439 1.49870E-02-3.94126E-03-2.05850E-13
 -1       440 1.50730E-02-4.02555E-03-2.05565E-13
 -1       441 1.51590E-02-4.10984E-03-2.05264E-13
 -1       442 4.28367E-03-4.82406E-04-1.04609E-14
 -1       443 4.64636E-03-6.08146E-04-1.08776E-14
 -1       444 4.50541E-03-5.55693E-04-1.08233E-14
 -1       445 3.91546E-03-3.41969E-04-9.79937E-15
 -1       446 3.43178E-03-1.07055E-04-8.56028E-15
 -1       447 3.80971E-04-7.69272E-05-2.72158E-16
 -1       448 2.69281E-03 2.59058E-04-6.24843E-15
 -1       449 2.41073E-03 3.42274E-04-5.26303E-15
 -1       450 2.02891E-03 3.53422E-04-4.04403E-15
 -1       451 1.69384E-03 2.62876E-04-3.14244E-15
 -1       452 1.40640E-03 1.52398E-04-2.51227E-15
 -1       453 1.00565E-03-9.88550E-06-1.82293E-15
 -1       454 7.42454E-04-1.02153E-04-1.44813E-15
 -1       455 4.61309E-04-1.67581E-04-1.18596E-15
 -1       456 3.31743E-04-1.84212E-04-1.03265E-15
 -1       457 3.06815E-04-1.84762E-04-9.65826E-16
 -1       458 4.03490E-04-2.00214E-04-1.00211E-15
 -1       459 6.81521E-04-3.19861E-04-1.28931E-15
 -1       460 9.75268E-04-4.64318E-04-1.54860E-15
 -1       461 1.42057E-03-7.23308E-04-2.00690E-15
 -1       462 1.78457E-03-9.74089E-04-2.60282E-15
 -1       463 2.15111E-03-1.18904E-03-3.24338E-15
 -1       464 2.54259E-03-1.34081E-03-4.27535E-15
 -1       465 2.81933E-03-1.35482E-03-5.11724E-15
 -1       466 3.19330E-03-1.26392E-03-6.33888E-15
 -1       467 3.49190E-03-1.13587E-03-7.29106E-15
 -1       468 3.90450E-03-9.41676E-04-8.51758E-15
 -1       469 4.19857E-03-8.13749E-04-9.29195E-15
 -1       470 4.46712E-03-7.06131E-04-1.02044E-14
 -1       471 4.61924E-03-6.46301E-04-1.05722E-14
 -1       472 3.05385E-03 9.60622E-05-7.35382E-15
 -1       473 1.04460E-03 4.53049E-04-1.13787E-15
 -1       474 2.57137E-04-1.38856E-04-5.73721E-16
 -1       475 3.07508E-04-1.15266E-04-5.60548E-16
 -1       476 4.77681E-04-1.28596E-04-6.30182E-16
 -1       477 6.11570E-04-6.14188E-05-6.61577E-16
 -1       478 6.97010E-04 2.36564E-05-6.85995E-16
 -1       479 7.37300E-04 1.09078E-04-6.99686E-16
 -1       480 7.50136E-04 1.87883E-04-6.98158E-16
 -1       481 7.52898E-04 2.61521E-04-6.75895E-16
 -1       482 1.35821E-03 5.39580E-04-1.96079E-15
 -1       483 1.21720E-03-5.28847E-04-1.04664E-15
 -1       484 2.85077E-03 1.74389E-04-7.26148E-15
 -1       485 1.63877E-03-8.18264E-04-1.79208E-15
 -1       486 2.53575E-03-1.36363E-03-4.05599E-15
 -1       487 2.95807E-03-1.38078E-03-5.64039E-15
 -1       488 3.38632E-03-1.25623E-03-7.50668E-15
 -1       489 3.81180E-03-1.10453E-03-9.64384E-15
 -1       490 4.20132E-03-1.01445E-03-1.19923E-14
 -1       491 4.55649E-03-9.85172E-04-1.45359E-14
 -1       492 4.88558E-03-1.00230E-03-1.72631E-14
 -1       493 5.19865E-03-1.05139E-03-2.01662E-14
 -1       494 5.50269E-03-1.12139E-03-2.32450E-14
 -1       495 5.80170E-03-1.20439E-03-2.65006E-14
 -1       496 6.09767E-03-1.29499E-03-2.99281E-14
 -1       497 6.39158E-03-1.38962E-03-3.35238E-14
 -1       498 6.68387E-03-1.48598E-03-3.72840E-14
 -1       499 6.97484E-03-1.58269E-03-4.12084E-14
 -1       500 7.26468E-03-1.67894E-03-4.52915E-14
 -1       501 7.55357E-03-1.77433E-03-4.95334E-14
 -1       502 7.84168E-03-1.86869E-03-5.39352E-14
 -1       503 8.12916E-03-1.96198E-03-5.84858E-14
 -1       504 8.41614E-03-2.05427E-03-6.31785E-14
 -1       505 8.70273E-03-2.14565E-03-6.80081E-14
 -1       506 8.98904E-03-2.23623E-03-7.29737E-14
 -1       507 9.27513E-03-2.32614E-03-7.80698E-14
 -1       508 9.56106E-03-2.41549E-03-8.32985E-14
 -1       509 9.84689E-03-2.50438E-03-8.86563E-14
 -1       510 1.01326E-02-2.59291E-03-9.41371E-14
 -1       511 1.04184E-02-2.68115E-03-9.97364E-14
 -1       512 1.07040E-02-2.76917E-03-1.05446E-13
 -1       513 1.09897E-02-2.85701E-03-1.11266E-13
 -1       514 1.12754E-02-2.94473E-03-1.17180E-13
 -1       515 1.15610E-02-3.03236E-03-1.23178E-13
 -1       516 1.18467E-02-3.11992E-03-1.29257E-13
 -1       517 1.21324E-02-3.20743E-03-1.35419E-13
 -1       518 1.24181E-02-3.29490E-03-1.41660E-13
 -1       519 1.27037E-02-3.38236E-03-1.47972E-13
 -1       520 1.29894E-02-3.46981E-03-1.54343E-13
 -1       521 1.32751E-02-3.55724E-03-1.60771E-13
 -1       522 1.35608E-02-3.64468E-03-1.67258E-13
 -1       523 1.38465E-02-3.73211E-03-1.73792E-13
 -1       524 1.41322E-02-3.81955E-03-1.80367E-13
 -1       525 1.44179E-02-3.90699E-03-1.86986E-13
 -1       526 1.47036E-02-3.99443E-03-1.93640E-13
 -1       527 4.41964E-03-5.59549E-04-1.17369E-14
 -1       528 1.96028E-03 6.03636E-04-4.31682E-15
 -1       529 2.25415E-03 5.72636E-04-5.85323E-15
 -1       530 2.54911E-03 5.02374E-04-7.62570E-15
 -1       531 2.84826E-03 4.02413E-04-9.63029E-15
 -1       532 3.15218E-03 2.85003E-04-1.18596E-14
 -1       533 3.45946E-03 1.61445E-04-1.43058E-14
 -1       534 3.76789E-03 3.98121E-05-1.69588E-14
 -1       535 4.07547E-03-7.54497E-05-1.98088E-14
 -1       536 4.38093E-03-1.82799E-04-2.28526E-14
 -1       537 4.68366E-03-2.82546E-04-2.60864E-14
 -1       538 4.98356E-03-3.75945E-04-2.95054E-14
 -1       539 5.28080E-03-4.64558E-04-3.31016E-14
 -1       540 5.57569E-03-5.49892E-04-3.68691E-14
 -1       541 5.86858E-03-6.33224E-04-4.08033E-14
 -1       542 6.15980E-03-7.15539E-04-4.49039E-14
 -1       543 6.44967E-03-7.97544E-04-4.91670E-14
 -1       544 6.73847E-03-8.79709E-04-5.35877E-14
 -1       545 7.02641E-03-9.62317E-04-5.81639E-14
 -1       546 7.31370E-03-1.04551E-03-6.28937E-14
 -1       547 7.60050E-03-1.12935E-03-6.77698E-14
 -1       548 7.88692E-03-1.21380E-03-7.27885E-14
 -1       549 8.17308E-03-1.29884E-03-7.79439E-14
 -1       550 8.45904E-03-1.38438E-03-8.32319E-14
 -1       551 8.74488E-03-1.47035E-03-8.86556E-14
 -1       552 9.03063E-03-1.55668E-03-9.42048E-14
 -1       553 9.31632E-03-1.64330E-03-9.98763E-14
 -1       554 9.60198E-03-1.73015E-03-1.05666E-13
 -1       555 9.88762E-03-1.81717E-03-1.11569E-13
 -1       556 1.01733E-02-1.90433E-03-1.17572E-13
 -1       557 1.04589E-02-1.99159E-03-1.23668E-13
 -1       558 1.07445E-02-2.07893E-03-1.29843E-13
 -1       559 1.10302E-02-2.16631E-03-1.36104E-13
 -1       560 1.13159E-02-2.25373E-03-1.42432E-13
 -1       561 1.16015E-02-2.34118E-03-1.48834E-13
 -1       562 1.18872E-02-2.42864E-03-1.55296E-13
 -1       563 1.21729E-02-2.51610E-03-1.61803E-13
 -1       564 1.24586E-02-2.60358E-03-1.68343E-13
 -1       565 1.27443E-02-2.69105E-03-1.74906E-13
 -1       566 1.30300E-02-2.77852E-03-1.81492E-13
 -1       567 1.33157E-02-2.86599E-03-1.88093E-13
 -1       568 1.36014E-02-2.95345E-03-1.94711E-13
 -1       569 1.38871E-02-3.04092E-03-2.01350E-13
 -1       570 1.41820E-02-3.31901E-03-2.01320E-13
 -1       571 1.42680E-02-3.40331E-03-2.01175E-13
 -1       572 1.40115E-02-3.15186E-03-2.01580E-13
 -1       573 1.40968E-02-3.23543E-03-2.01455E-13
 -1       574 1.43540E-02-3.48761E-03-2.01021E-13
 -1       575 1.44400E-02-3.57191E-03-2.00848E-13
 -1       576 1.45260E-02-3.65621E-03-2.00656E-13
 -1       577 1.46105E-02-3.73908E-03-2.00436E-13
 -1       578 1.46965E-02-3.82338E-03-2.00186E-13
 -1       579 1.47825E-02-3.90767E-03-1.99909E-13
 -1       580 1.48685E-02-3.99197E-03-1.99612E-13
 -1       581 4.67773E-03-6.43324E-04-1.19206E-14
 -1       582 1.66295E-03 5.91746E-04-3.01957E-15
 -1       583 4.12736E-03-4.63708E-04-1.12638E-14
 -1       584 4.59847E-03-6.73107E-04-1.15298E-14
 -1       585 8.33670E-04-2.99538E-04-5.69101E-16
 -1       586 3.65941E-03-2.59331E-04-1.01339E-14
 -1       587 2.21559E-03 3.78655E-04-4.78076E-15
 -1       588 3.34691E-04-1.54463E-04-5.98449E-16
 -1       589 1.81548E-03 3.22045E-04-3.37623E-15
 -1       590 2.44887E-03 3.39345E-04-5.70517E-15
 -1       591 1.68070E-03-8.58921E-04-2.10089E-15
 -1       592 1.57940E-03 2.33839E-04-2.72863E-15
 -1       593 1.19485E-03 6.90228E-05-1.90105E-15
 -1       594 8.65534E-04-6.14491E-05-1.37860E-15
 -1       595 5.54648E-04-1.51974E-04-1.04414E-15
 -1       596 3.73743E-04-1.73707E-04-8.56701E-16
 -1       597 3.19793E-04-1.45643E-04-7.32228E-16
 -1       598 5.42644E-04-1.99894E-04-8.93147E-16
 -1       599 8.27859E-04-3.27500E-04-1.14819E-15
 -1       600 4.09118E-03-8.63113E-04-9.82879E-15
 -1       601 1.19302E-03-5.27541E-04-1.45316E-15
 -1       602 2.00178E-03-1.08173E-03-2.65121E-15
 -1       603 3.36822E-03-1.22055E-03-7.27309E-15
 -1       604 3.72587E-03-1.04030E-03-8.61275E-15
 -1       605 4.36299E-03-7.53657E-04-1.07662E-14
 -1       606 4.62971E-03-6.18699E-04-1.22134E-14
 -1       607 7.89075E-04 3.72688E-04-6.30931E-16
 -1       608 3.17942E-03-1.78899E-06-8.44943E-15
 -1       609 4.35612E-04-1.23455E-04-5.55430E-16
 -1       610 1.99888E-03 3.80617E-04-4.03249E-15
 -1       611 2.90999E-04-1.63934E-04-7.38237E-16
 -1       612 1.48923E-02-4.04914E-03-1.98167E-13
 -1       613 6.34868E-04-1.89642E-04-5.71585E-16
 -1       614 7.50484E-04-7.98666E-05-1.06089E-15
 -1       615 1.03691E-03 2.27947E-04-1.25410E-15
 -1       616 1.03728E-03 3.11151E-04-1.24158E-15
 -1       617 1.19984E-03 4.28068E-04-1.59974E-15
 -1       618 3.95001E-03-3.96870E-04-1.19867E-14
 -1       619 3.00802E-03 8.91289E-05-8.40677E-15
 -1       620 4.57731E-03-6.19434E-04-1.33841E-14
 -1       621 4.34140E-03-5.49668E-04-1.28718E-14
 -1       622 1.37258E-02-3.06439E-03-1.94939E-13
 -1       623 4.47329E-03-8.87427E-04-1.34323E-14
 -1       624 4.78256E-03-9.03765E-04-1.60822E-14
 -1       625 5.07372E-03-9.51323E-04-1.89053E-14
 -1       626 5.35729E-03-1.01855E-03-2.19015E-14
 -1       627 5.63904E-03-1.09838E-03-2.50721E-14
 -1       628 5.92125E-03-1.18616E-03-2.84166E-14
 -1       629 6.20458E-03-1.27863E-03-3.19293E-14
 -1       630 6.48900E-03-1.37355E-03-3.56084E-14
 -1       631 6.77423E-03-1.46940E-03-3.94542E-14
 -1       632 7.05997E-03-1.56523E-03-4.34615E-14
 -1       633 7.34600E-03-1.66051E-03-4.76286E-14
 -1       634 7.63213E-03-1.75494E-03-5.19535E-14
 -1       635 7.91829E-03-1.84840E-03-5.64296E-14
 -1       636 8.20440E-03-1.94091E-03-6.10491E-14
 -1       637 8.49045E-03-2.03252E-03-6.58132E-14
 -1       638 8.77643E-03-2.12333E-03-7.07122E-14
 -1       639 9.06235E-03-2.21344E-03-7.57442E-14
 -1       640 9.34821E-03-2.30296E-03-8.09067E-14
 -1       641 9.63402E-03-2.39201E-03-8.62028E-14
 -1       642 9.91980E-03-2.48065E-03-9.16254E-14
 -1       643 1.02056E-02-2.56899E-03-9.71661E-14
 -1       644 1.04913E-02-2.65708E-03-1.02824E-13
 -1       645 1.07770E-02-2.74499E-03-1.08588E-13
 -1       646 1.10627E-02-2.83275E-03-1.14457E-13
 -1       647 1.13484E-02-2.92041E-03-1.20417E-13
 -1       648 1.16341E-02-3.00799E-03-1.26457E-13
 -1       649 1.19199E-02-3.09552E-03-1.32582E-13
 -1       650 1.22056E-02-3.18301E-03-1.38786E-13
 -1       651 1.24913E-02-3.27048E-03-1.45068E-13
 -1       652 1.27770E-02-3.35793E-03-1.51416E-13
 -1       653 1.30627E-02-3.44537E-03-1.57818E-13
 -1       654 1.33484E-02-3.53280E-03-1.64278E-13
 -1       655 1.36341E-02-3.62024E-03-1.70785E-13
 -1       656 1.39198E-02-3.70767E-03-1.77336E-13
 -1       657 1.42055E-02-3.79511E-03-1.83933E-13
 -1       658 1.44912E-02-3.88255E-03-1.90565E-13
 -1       659 2.13676E-03 5.30320E-04-5.17522E-15
 -1       660 3.06503E-03 2.63332E-04-1.08814E-14
 -1       661 3.38248E-03 1.36882E-04-1.32327E-14
 -1       662 3.69960E-03 1.20105E-05-1.57934E-14
 -1       663 4.01350E-03-1.05793E-04-1.85525E-14
 -1       664 4.32268E-03-2.14823E-04-2.15048E-14
 -1       665 4.62691E-03-3.15563E-04-2.46472E-14
 -1       666 4.92668E-03-4.09482E-04-2.79746E-14
 -1       667 5.22280E-03-4.98307E-04-3.14816E-14
 -1       668 5.51609E-03-5.83648E-04-3.51608E-14
 -1       669 5.80727E-03-6.66846E-04-3.90067E-14
 -1       670 6.09689E-03-7.48933E-04-4.30187E-14
 -1       671 6.38540E-03-8.30652E-04-4.71962E-14
 -1       672 6.67309E-03-9.12502E-04-5.15331E-14
 -1       673 6.96020E-03-9.94787E-04-5.60238E-14
 -1       674 7.24689E-03-1.07767E-03-6.06708E-14
 -1       675 7.53328E-03-1.16122E-03-6.54669E-14
 -1       676 7.81946E-03-1.24542E-03-7.04057E-14
 -1       677 8.10548E-03-1.33022E-03-7.54824E-14
 -1       678 8.39139E-03-1.41557E-03-8.06941E-14
 -1       679 8.67722E-03-1.50138E-03-8.60389E-14
 -1       680 8.96300E-03-1.58758E-03-9.15132E-14
 -1       681 9.24874E-03-1.67410E-03-9.71119E-14
 -1       682 9.53446E-03-1.76086E-03-1.02826E-13
 -1       683 9.82017E-03-1.84782E-03-1.08657E-13
 -1       684 1.01059E-02-1.93494E-03-1.14597E-13
 -1       685 1.03916E-02-2.02216E-03-1.20634E-13
 -1       686 1.06772E-02-2.10947E-03-1.26758E-13
 -1       687 1.09629E-02-2.19684E-03-1.32960E-13
 -1       688 1.12486E-02-2.28424E-03-1.39240E-13
 -1       689 1.15343E-02-2.37168E-03-1.45589E-13
 -1       690 1.18200E-02-2.45913E-03-1.52008E-13
 -1       691 1.21057E-02-2.54660E-03-1.58476E-13
 -1       692 1.23914E-02-2.63407E-03-1.64990E-13
 -1       693 1.26771E-02-2.72154E-03-1.71528E-13
 -1       694 1.29629E-02-2.80901E-03-1.78093E-13
 -1       695 1.32486E-02-2.89649E-03-1.84685E-13
 -1       696 1.34872E-02-2.98044E-03-1.89808E-13
 -1       697 1.41495E-02-3.45403E-03-1.95165E-13
 -1       698 1.39776E-02-3.28542E-03-1.95485E-13
 -1       699 1.42355E-02-3.53833E-03-1.94975E-13
 -1       700 1.40636E-02-3.36972E-03-1.95334E-13
 -1       701 4.71386E-03-6.84191E-04-1.32699E-14
 -1       702 1.46799E-02-3.93726E-03-1.95083E-13
 -1       703 1.43201E-02-3.62120E-03-1.94766E-13
 -1       704 1.44061E-02-3.70550E-03-1.94529E-13
 -1       705 1.44921E-02-3.78980E-03-1.94265E-13
 -1       706 1.45860E-02-3.86353E-03-1.94682E-13
 -1       707 1.83101E-03 5.38822E-04-3.74533E-15
 -1       708 9.45760E-04-3.59056E-04-9.68809E-16
 -1       709 2.31253E-03 3.77453E-04-5.39284E-15
 -1       710 4.01172E-03-9.62241E-04-1.03306E-14
 -1       711 1.51931E-03 5.01589E-04-2.55470E-15
 -1       712 2.75077E-03 3.80853E-04-8.74941E-15
 -1       713 2.44178E-03 4.74771E-04-6.84469E-15
 -1       714 1.01519E-03 1.36921E-04-1.23911E-15
 -1       715 4.56247E-03-7.26799E-04-1.24635E-14
 -1       716 1.34250E-03 1.68101E-04-2.06087E-15
 -1       717 9.42687E-04 3.31183E-05-1.20080E-15
 -1       718 3.40183E-03-1.26749E-04-9.99442E-15
 -1       719 1.63623E-03 2.88472E-04-2.82038E-15
 -1       720 1.05541E-03 3.58182E-05-1.51536E-15
 -1       721 1.28453E-03-5.71432E-04-1.34275E-15
 -1       722 2.64153E-03 2.73466E-04-6.89358E-15
 -1       723 4.29056E-03-8.22973E-04-1.13205E-14
 -1       724 4.73216E-03-6.60848E-04-1.35785E-14
 -1       725 3.71244E-03-2.73508E-04-1.18129E-14
 -1       726 1.38923E-02-3.20184E-03-1.95627E-13
 -1       727 1.81077E-03 3.65914E-04-3.40246E-15
 -1       728 2.07078E-03 4.12512E-04-4.47630E-15
 -1       729 1.33025E-03 3.51103E-04-1.97201E-15
 -1       730 2.97090E-03 2.42466E-04-9.90027E-15
 -1       731 4.54151E-03-6.11449E-04-1.47003E-14
 -1       732 4.76842E-03-6.77189E-04-1.54313E-14
 -1       733 4.97741E-03-8.54190E-04-1.76641E-14
 -1       734 5.23205E-03-9.20420E-04-2.05800E-14
 -1       735 5.49075E-03-9.97153E-04-2.36681E-14
 -1       736 5.75511E-03-1.08114E-03-2.69296E-14
 -1       737 6.02474E-03-1.17007E-03-3.03606E-14
 -1       738 6.29875E-03-1.26211E-03-3.39588E-14
 -1       739 6.57616E-03-1.35581E-03-3.77233E-14
 -1       740 6.85611E-03-1.45015E-03-4.16525E-14
 -1       741 7.13789E-03-1.54445E-03-4.57447E-14
 -1       742 7.42097E-03-1.63827E-03-4.99934E-14
 -1       743 7.70494E-03-1.73140E-03-5.43934E-14
 -1       744 7.98953E-03-1.82374E-03-5.89421E-14
 -1       745 8.27453E-03-1.91530E-03-6.36343E-14
 -1       746 8.55980E-03-2.00612E-03-6.84674E-14
 -1       747 8.84526E-03-2.09628E-03-7.34365E-14
 -1       748 9.13084E-03-2.18587E-03-7.85363E-14
 -1       749 9.41650E-03-2.27498E-03-8.37674E-14
 -1       750 9.70220E-03-2.36370E-03-8.91326E-14
 -1       751 9.98793E-03-2.45209E-03-9.46189E-14
 -1       752 1.02737E-02-2.54023E-03-1.00218E-13
 -1       753 1.05594E-02-2.62818E-03-1.05932E-13
 -1       754 1.08452E-02-2.71598E-03-1.11751E-13
 -1       755 1.11309E-02-2.80367E-03-1.17667E-13
 -1       756 1.14167E-02-2.89127E-03-1.23672E-13
 -1       757 1.17024E-02-2.97881E-03-1.29762E-13
 -1       758 1.19882E-02-3.06632E-03-1.35934E-13
 -1       759 1.22739E-02-3.15379E-03-1.42179E-13
 -1       760 1.25596E-02-3.24125E-03-1.48499E-13
 -1       761 1.28453E-02-3.32869E-03-1.54878E-13
 -1       762 1.31311E-02-3.41613E-03-1.61315E-13
 -1       763 1.34168E-02-3.50357E-03-1.67795E-13
 -1       764 1.37025E-02-3.59100E-03-1.74321E-13
 -1       765 1.39882E-02-3.67844E-03-1.80892E-13
 -1       766 1.42739E-02-3.76588E-03-1.87504E-13
 -1       767 3.30092E-03 1.09660E-04-1.21584E-14
 -1       768 4.26757E-03-2.50926E-04-2.01632E-14
 -1       769 4.57454E-03-3.51338E-04-2.32161E-14
 -1       770 4.87476E-03-4.44484E-04-2.64541E-14
 -1       771 5.16983E-03-5.32492E-04-2.98711E-14
 -1       772 5.46126E-03-6.17137E-04-3.34624E-14
 -1       773 5.75025E-03-6.99794E-04-3.72219E-14
 -1       774 6.03770E-03-7.81472E-04-4.11469E-14
 -1       775 6.32424E-03-8.62877E-04-4.52365E-14
 -1       776 6.61025E-03-9.44475E-04-4.94902E-14
 -1       777 6.89600E-03-1.02655E-03-5.38974E-14
 -1       778 7.18164E-03-1.10925E-03-5.84586E-14
 -1       779 7.46724E-03-1.19263E-03-6.31752E-14
 -1       780 7.75285E-03-1.27668E-03-6.80357E-14
 -1       781 8.03849E-03-1.36136E-03-7.30354E-14
 -1       782 8.32415E-03-1.44659E-03-7.81689E-14
 -1       783 8.60983E-03-1.53230E-03-8.34374E-14
 -1       784 8.89554E-03-1.61841E-03-8.88352E-14
 -1       785 9.18126E-03-1.70486E-03-9.43597E-14
 -1       786 9.46698E-03-1.79156E-03-1.00005E-13
 -1       787 9.75272E-03-1.87847E-03-1.05764E-13
 -1       788 1.00385E-02-1.96555E-03-1.11637E-13
 -1       789 1.03242E-02-2.05274E-03-1.17615E-13
 -1       790 1.06099E-02-2.14003E-03-1.23684E-13
 -1       791 1.08956E-02-2.22738E-03-1.29834E-13
 -1       792 1.11814E-02-2.31477E-03-1.36067E-13
 -1       793 1.14671E-02-2.40220E-03-1.42368E-13
 -1       794 1.17528E-02-2.48965E-03-1.48738E-13
 -1       795 1.20386E-02-2.57711E-03-1.55167E-13
 -1       796 1.23243E-02-2.66457E-03-1.61644E-13
 -1       797 1.26100E-02-2.75204E-03-1.68157E-13
 -1       798 1.28957E-02-2.83952E-03-1.74701E-13
 -1       799 1.31814E-02-2.92699E-03-1.81275E-13
 -1       800 1.39451E-02-3.42044E-03-1.89322E-13
 -1       801 2.32791E-03 4.49442E-04-6.05906E-15
 -1       802 1.42017E-02-3.67192E-03-1.88642E-13
 -1       803 2.01416E-03 4.84802E-04-4.49579E-15
 -1       804 4.52182E-03-7.99873E-04-1.30989E-14
 -1       805 2.45993E-03 3.58846E-04-6.37877E-15
 -1       806 3.62968E-03-2.04425E-05-1.46285E-14
 -1       807 1.40296E-02-3.50332E-03-1.89118E-13
 -1       808 1.33342E-03 2.70153E-04-1.96516E-15
 -1       809 2.64621E-03 3.62498E-04-7.86341E-15
 -1       810 1.41156E-02-3.58762E-03-1.88892E-13
 -1       811 4.73835E-03-7.38592E-04-1.43639E-14
 -1       812 3.95263E-03-1.41077E-04-1.72991E-14
 -1       813 2.86816E-03 1.84098E-04-8.36183E-15
 -1       814 1.42090E-03 2.55234E-04-2.20040E-15
 -1       815 3.20853E-03 2.05042E-06-9.93787E-15
 -1       816 4.24141E-03-5.05098E-04-1.39049E-14
 -1       817 4.85048E-03-7.15237E-04-1.55073E-14
 -1       818 1.36537E-02-3.11789E-03-1.90494E-13
 -1       819 1.34151E-02-3.03393E-03-1.85372E-13
 -1       820 1.37731E-02-3.25183E-03-1.89670E-13
 -1       821 3.51165E-03-1.39105E-04-1.17286E-14
 -1       822 1.37134E-02-3.18486E-03-1.90086E-13
 -1       823 1.38591E-02-3.33614E-03-1.89503E-13
 -1       824 1.67996E-03 4.45716E-04-3.09847E-15
 -1       825 4.02712E-03-4.02483E-04-1.37095E-14
 -1       826 1.58745E-03 3.42909E-04-2.69736E-15
 -1       827 4.78218E-03-6.76111E-04-1.73020E-14
 -1       828 3.21980E-03 8.19647E-05-1.10822E-14
 -1       829 5.35104E-03-9.06096E-04-2.22722E-14
 -1       830 5.59554E-03-9.84843E-04-2.54521E-14
 -1       831 5.85029E-03-1.06871E-03-2.88005E-14
 -1       832 6.11298E-03-1.15636E-03-3.23172E-14
 -1       833 6.38174E-03-1.24655E-03-3.60019E-14
 -1       834 6.65510E-03-1.33820E-03-3.98532E-14
 -1       835 6.93190E-03-1.43052E-03-4.38666E-14
 -1       836 7.21125E-03-1.52293E-03-4.80393E-14
 -1       837 7.49245E-03-1.61508E-03-5.23628E-14
 -1       838 7.77502E-03-1.70676E-03-5.68364E-14
 -1       839 8.05857E-03-1.79788E-03-6.14590E-14
 -1       840 8.34281E-03-1.88842E-03-6.62268E-14
 -1       841 8.62756E-03-1.97840E-03-7.11323E-14
 -1       842 8.91266E-03-2.06789E-03-7.61692E-14
 -1       843 9.19801E-03-2.15694E-03-8.13378E-14
 -1       844 9.48351E-03-2.24563E-03-8.66391E-14
 -1       845 9.76914E-03-2.33402E-03-9.20712E-14
 -1       846 1.00548E-02-2.42217E-03-9.76198E-14
 -1       847 1.03406E-02-2.51013E-03-1.03280E-13
 -1       848 1.06263E-02-2.59794E-03-1.09049E-13
 -1       849 1.09121E-02-2.68564E-03-1.14918E-13
 -1       850 1.11979E-02-2.77326E-03-1.20884E-13
 -1       851 1.14836E-02-2.86081E-03-1.26940E-13
 -1       852 1.17694E-02-2.94832E-03-1.33078E-13
 -1       853 1.20552E-02-3.03581E-03-1.39294E-13
 -1       854 1.23409E-02-3.12327E-03-1.45579E-13
 -1       855 1.26267E-02-3.21072E-03-1.51931E-13
 -1       856 1.29124E-02-3.29816E-03-1.58338E-13
 -1       857 1.31982E-02-3.38560E-03-1.64802E-13
 -1       858 1.34839E-02-3.47304E-03-1.71307E-13
 -1       859 1.37696E-02-3.56048E-03-1.77848E-13
 -1       860 1.39856E-02-3.61620E-03-1.83235E-13
 -1       861 4.82907E-03-4.81920E-04-2.49397E-14
 -1       862 4.52875E-03-3.91241E-04-2.17906E-14
 -1       863 5.41140E-03-6.50601E-04-3.17725E-14
 -1       864 5.69752E-03-7.32063E-04-3.54463E-14
 -1       865 5.98215E-03-8.12983E-04-3.92869E-14
 -1       866 6.26610E-03-8.93947E-04-4.32898E-14
 -1       867 6.54989E-03-9.75313E-04-4.74555E-14
 -1       868 6.83379E-03-1.05728E-03-5.17824E-14
 -1       869 7.11795E-03-1.13994E-03-5.62624E-14
 -1       870 7.40241E-03-1.22331E-03-6.08936E-14
 -1       871 7.68717E-03-1.30737E-03-6.56763E-14
 -1       872 7.97218E-03-1.39205E-03-7.05987E-14
 -1       873 8.25740E-03-1.47728E-03-7.56553E-14
 -1       874 8.54280E-03-1.56298E-03-8.08488E-14
 -1       875 8.82832E-03-1.64908E-03-8.61708E-14
 -1       876 9.11393E-03-1.73550E-03-9.16207E-14
 -1       877 9.39960E-03-1.82219E-03-9.71962E-14
 -1       878 9.68532E-03-1.90909E-03-1.02890E-13
 -1       879 9.97106E-03-1.99614E-03-1.08697E-13
 -1       880 1.02568E-02-2.08332E-03-1.14608E-13
 -1       881 1.05426E-02-2.17059E-03-1.20623E-13
 -1       882 1.08283E-02-2.25792E-03-1.26722E-13
 -1       883 1.11141E-02-2.34531E-03-1.32902E-13
 -1       884 1.13999E-02-2.43273E-03-1.39161E-13
 -1       885 1.16856E-02-2.52017E-03-1.45484E-13
 -1       886 1.19713E-02-2.60762E-03-1.51872E-13
 -1       887 1.22571E-02-2.69509E-03-1.58313E-13
 -1       888 1.25428E-02-2.78255E-03-1.64794E-13
 -1       889 1.28286E-02-2.87002E-03-1.71313E-13
 -1       890 1.31143E-02-2.95749E-03-1.77869E-13
 -1       891 2.04177E-03 4.44077E-04-4.50379E-15
 -1       892 1.37399E-02-3.38615E-03-1.83492E-13
 -1       893 3.56303E-03-5.77845E-05-1.34642E-14
 -1       894 1.82194E-03 4.12342E-04-3.54164E-15
 -1       895 5.12251E-03-5.67684E-04-2.82681E-14
 -1       896 5.11949E-03-8.33819E-04-1.92649E-14
 -1       897 4.95721E-03-7.38684E-04-1.76716E-14
 -1       898 4.97556E-03-7.71320E-04-1.73520E-14
 -1       899 4.54549E-03-5.94696E-04-1.64549E-14
 -1       900 3.08963E-03 1.05476E-04-9.92668E-15
 -1       901 1.36539E-02-3.30184E-03-1.83689E-13
 -1       902 1.38996E-02-3.53190E-03-1.83489E-13
 -1       903 4.21886E-03-2.92717E-04-1.88258E-14
 -1       904 3.02930E-03 1.67484E-04-9.90235E-15
 -1       905 1.34748E-02-3.10091E-03-1.84968E-13
 -1       906 3.82509E-03-2.76924E-04-1.36096E-14
 -1       907 1.35345E-02-3.16788E-03-1.84554E-13
 -1       908 3.89710E-03-1.82674E-04-1.60489E-14
 -1       909 4.36864E-03-5.15601E-04-1.62411E-14
 -1       910 1.35942E-02-3.23486E-03-1.84127E-13
 -1       911 1.38198E-02-3.45902E-03-1.83497E-13
 -1       912 5.20830E-03-8.27769E-04-2.08774E-14
 -1       913 5.67529E-03-9.75724E-04-2.72434E-14
 -1       914 5.92779E-03-1.05764E-03-3.06786E-14
 -1       915 6.18860E-03-1.14310E-03-3.42835E-14
 -1       916 6.45570E-03-1.23100E-03-3.80569E-14
 -1       917 6.72759E-03-1.32041E-03-4.19921E-14
 -1       918 7.00312E-03-1.41062E-03-4.60889E-14
 -1       919 7.28139E-03-1.50112E-03-5.03375E-14
 -1       920 7.56173E-03-1.59160E-03-5.47369E-14
 -1       921 7.84361E-03-1.68185E-03-5.92870E-14
 -1       922 8.12663E-03-1.77176E-03-6.39852E-14
 -1       923 8.41049E-03-1.86130E-03-6.88283E-14
 -1       924 8.69496E-03-1.95048E-03-7.38036E-14
 -1       925 8.97987E-03-2.03932E-03-7.89080E-14
 -1       926 9.26509E-03-2.12786E-03-8.41471E-14
 -1       927 9.55053E-03-2.21616E-03-8.95169E-14
 -1       928 9.83611E-03-2.30424E-03-9.50143E-14
 -1       929 1.01218E-02-2.39216E-03-1.00627E-13
 -1       930 1.04075E-02-2.47995E-03-1.06345E-13
 -1       931 1.06933E-02-2.56764E-03-1.12165E-13
 -1       932 1.09791E-02-2.65525E-03-1.18090E-13
 -1       933 1.12649E-02-2.74281E-03-1.24112E-13
 -1       934 1.15507E-02-2.83033E-03-1.30219E-13
 -1       935 1.18365E-02-2.91781E-03-1.36400E-13
 -1       936 1.21222E-02-3.00528E-03-1.42654E-13
 -1       937 1.24080E-02-3.09274E-03-1.48973E-13
 -1       938 1.26938E-02-3.18019E-03-1.55353E-13
 -1       939 1.29795E-02-3.26763E-03-1.61796E-13
 -1       940 1.32653E-02-3.35507E-03-1.68282E-13
 -1       941 1.35510E-02-3.44251E-03-1.74803E-13
 -1       942 1.37253E-02-3.48720E-03-1.79137E-13
 -1       943 4.79217E-03-5.22307E-04-2.34347E-14
 -1       944 5.93011E-03-8.43252E-04-3.74356E-14
 -1       945 5.64921E-03-7.63535E-04-3.36796E-14
 -1       946 6.49176E-03-1.00471E-03-4.54329E-14
 -1       947 6.77337E-03-1.08668E-03-4.96755E-14
 -1       948 7.05568E-03-1.16946E-03-5.40738E-14
 -1       949 7.33870E-03-1.25300E-03-5.86258E-14
 -1       950 7.62235E-03-1.33724E-03-6.33285E-14
 -1       951 7.90653E-03-1.42209E-03-6.81727E-14
 -1       952 8.19116E-03-1.50747E-03-7.31518E-14
 -1       953 8.47613E-03-1.59329E-03-7.82676E-14
 -1       954 8.76136E-03-1.67947E-03-8.35171E-14
 -1       955 9.04679E-03-1.76596E-03-8.88949E-14
 -1       956 9.33235E-03-1.85269E-03-9.44013E-14
 -1       957 9.61801E-03-1.93961E-03-1.00027E-13
 -1       958 9.90373E-03-2.02668E-03-1.05769E-13
 -1       959 1.01895E-02-2.11387E-03-1.11617E-13
 -1       960 1.04753E-02-2.20114E-03-1.17569E-13
 -1       961 1.07610E-02-2.28847E-03-1.23616E-13
 -1       962 1.10468E-02-2.37585E-03-1.29749E-13
 -1       963 1.13326E-02-2.46326E-03-1.35959E-13
 -1       964 1.16184E-02-2.55070E-03-1.42238E-13
 -1       965 1.19041E-02-2.63815E-03-1.48585E-13
 -1       966 1.21899E-02-2.72561E-03-1.54991E-13
 -1       967 1.24756E-02-2.81307E-03-1.61439E-13
 -1       968 1.27614E-02-2.90054E-03-1.67930E-13
 -1       969 1.30471E-02-2.98800E-03-1.74463E-13
 -1       970 5.04457E-03-7.52951E-04-1.99795E-14
 -1       971 1.32908E-02-3.07794E-03-1.79499E-13
 -1       972 4.81076E-03-6.63554E-04-1.91987E-14
 -1       973 5.43387E-03-8.98505E-04-2.39760E-14
 -1       974 6.21077E-03-9.23589E-04-4.13542E-14
 -1       975 4.49372E-03-4.36108E-04-2.03737E-14
 -1       976 5.08222E-03-6.04120E-04-2.66744E-14
 -1       977 4.66524E-03-5.97980E-04-1.89709E-14
 -1       978 3.44902E-03-4.14519E-05-1.23267E-14
 -1       979 3.85419E-03-2.31482E-04-1.48019E-14
 -1       980 1.34495E-02-3.26826E-03-1.77894E-13
 -1       981 5.36711E-03-6.84068E-04-3.00912E-14
 -1       982 4.18437E-03-4.10425E-04-1.61264E-14
 -1       983 1.35293E-02-3.34114E-03-1.77908E-13
 -1       984 1.33505E-02-3.14492E-03-1.79079E-13
 -1       985 1.31068E-02-3.05498E-03-1.74048E-13
 -1       986 5.99234E-03-1.04480E-03-3.25680E-14
 -1       987 6.25476E-03-1.12822E-03-3.62618E-14
 -1       988 6.52273E-03-1.21403E-03-4.01192E-14
 -1       989 6.79503E-03-1.30140E-03-4.41370E-14
 -1       990 7.07067E-03-1.38969E-03-4.83126E-14
 -1       991 7.34892E-03-1.47847E-03-5.26402E-14
 -1       992 7.62916E-03-1.56742E-03-5.71186E-14
 -1       993 7.91093E-03-1.65636E-03-6.17482E-14
 -1       994 8.19385E-03-1.74516E-03-6.65231E-14
 -1       995 8.47763E-03-1.83380E-03-7.14347E-14
 -1       996 8.76204E-03-1.92224E-03-7.64777E-14
 -1       997 9.04691E-03-2.01049E-03-8.16542E-14
 -1       998 9.33211E-03-2.09857E-03-8.69663E-14
 -1       999 9.61754E-03-2.18651E-03-9.24069E-14
 -1      1000 9.90313E-03-2.27433E-03-9.79673E-14
 -1      1001 1.01888E-02-2.36205E-03-1.03637E-13
 -1      1002 1.04746E-02-2.44970E-03-1.09411E-13
 -1      1003 1.07603E-02-2.53728E-03-1.15289E-13
 -1      1004 1.10461E-02-2.62482E-03-1.21272E-13
 -1      1005 1.13319E-02-2.71233E-03-1.27345E-13
 -1      1006 1.16177E-02-2.79982E-03-1.33495E-13
 -1      1007 1.19035E-02-2.88729E-03-1.39718E-13
 -1      1008 1.21893E-02-2.97475E-03-1.46009E-13
 -1      1009 1.24751E-02-3.06220E-03-1.52362E-13
 -1      1010 1.27609E-02-3.14965E-03-1.58772E-13
 -1      1011 1.30466E-02-3.23709E-03-1.65241E-13
 -1      1012 1.33324E-02-3.32454E-03-1.71748E-13
 -1      1013 6.99452E-03-1.19752E-03-5.18967E-14
 -1      1014 6.71437E-03-1.11443E-03-4.75796E-14
 -1      1015 7.55821E-03-1.36609E-03-6.09897E-14
 -1      1016 7.84143E-03-1.45131E-03-6.57572E-14
 -1      1017 8.12534E-03-1.53700E-03-7.06638E-14
 -1      1018 8.40979E-03-1.62309E-03-7.57003E-14
 -1      1019 8.69466E-03-1.70949E-03-8.08723E-14
 -1      1020 8.97984E-03-1.79614E-03-8.61797E-14
 -1      1021 9.26525E-03-1.88299E-03-9.16157E-14
 -1      1022 9.55081E-03-1.97000E-03-9.71781E-14
 -1      1023 9.83647E-03-2.05713E-03-1.02854E-13
 -1      1024 1.01222E-02-2.14436E-03-1.08638E-13
 -1      1025 1.04080E-02-2.23165E-03-1.14526E-13
 -1      1026 1.06938E-02-2.31900E-03-1.20518E-13
 -1      1027 1.09796E-02-2.40639E-03-1.26599E-13
 -1      1028 1.12654E-02-2.49381E-03-1.32763E-13
 -1      1029 1.15511E-02-2.58124E-03-1.39000E-13
 -1      1030 1.18369E-02-2.66868E-03-1.45304E-13
 -1      1031 1.21227E-02-2.75614E-03-1.51671E-13
 -1      1032 1.24085E-02-2.84360E-03-1.58091E-13
 -1      1033 1.26942E-02-2.93106E-03-1.64553E-13
 -1      1034 5.60544E-03-7.93798E-04-3.19234E-14
 -1      1035 1.36273E-02-3.41417E-03-1.78530E-13
 -1      1036 4.18239E-03-3.41325E-04-1.74946E-14
 -1      1037 5.09221E-03-7.46726E-04-2.19230E-14
 -1      1038 5.28068E-03-8.24081E-04-2.29611E-14
 -1      1039 7.27585E-03-1.28145E-03-5.63661E-14
 -1      1040 1.34000E-02-3.20659E-03-1.78492E-13
 -1      1041 5.88136E-03-8.71901E-04-3.55937E-14
 -1      1042 5.51677E-03-8.94000E-04-2.61704E-14
 -1      1043 6.43549E-03-1.03235E-03-4.34220E-14
 -1      1044 6.15788E-03-9.51453E-04-3.94270E-14
 -1      1045 5.75076E-03-9.67229E-04-2.92967E-14
 -1      1046 4.50551E-03-5.10042E-04-1.88484E-14
 -1      1047 5.05086E-03-6.41370E-04-2.50931E-14
 -1      1048 4.76770E-03-5.65421E-04-2.19402E-14
 -1      1049 4.97199E-03-6.91818E-04-2.16930E-14
 -1      1050 1.31717E-02-3.15557E-03-1.72557E-13
 -1      1051 5.32917E-03-7.17093E-04-2.84210E-14
 -1      1052 1.32515E-02-3.22845E-03-1.72582E-13
 -1      1053 6.31474E-03-1.11066E-03-3.82471E-14
 -1      1054 6.58510E-03-1.19486E-03-4.21875E-14
 -1      1055 6.85897E-03-1.28059E-03-4.62863E-14
 -1      1056 7.13562E-03-1.36732E-03-5.05440E-14
 -1      1057 7.41454E-03-1.45463E-03-5.49535E-14
 -1      1058 7.69524E-03-1.54227E-03-5.95123E-14
 -1      1059 7.97732E-03-1.63008E-03-6.42210E-14
 -1      1060 8.26045E-03-1.71793E-03-6.90662E-14
 -1      1061 8.54438E-03-1.80578E-03-7.40492E-14
 -1      1062 8.82890E-03-1.89359E-03-7.91637E-14
 -1      1063 9.11384E-03-1.98134E-03-8.44136E-14
 -1      1064 9.39910E-03-2.06904E-03-8.97972E-14
 -1      1065 9.68457E-03-2.15668E-03-9.53040E-14
 -1      1066 9.97018E-03-2.24428E-03-1.00925E-13
 -1      1067 1.02559E-02-2.33183E-03-1.06654E-13
 -1      1068 1.05417E-02-2.41936E-03-1.12487E-13
 -1      1069 1.08274E-02-2.50687E-03-1.18424E-13
 -1      1070 1.11133E-02-2.59435E-03-1.24459E-13
 -1      1071 1.13991E-02-2.68183E-03-1.30582E-13
 -1      1072 1.16849E-02-2.76929E-03-1.36774E-13
 -1      1073 1.19707E-02-2.85675E-03-1.43036E-13
 -1      1074 1.22565E-02-2.94421E-03-1.49364E-13
 -1      1075 1.25422E-02-3.03166E-03-1.55748E-13
 -1      1076 1.28280E-02-3.11911E-03-1.62191E-13
 -1      1077 1.31392E-02-3.10528E-03-1.73308E-13
 -1      1078 6.04878E-03-1.02865E-03-3.44687E-14
 -1      1079 6.10674E-03-9.77077E-04-3.75116E-14
 -1      1080 8.05979E-03-1.56575E-03-6.81800E-14
 -1      1081 7.77664E-03-1.47953E-03-6.33491E-14
 -1      1082 8.62815E-03-1.73903E-03-7.82394E-14
 -1      1083 8.91305E-03-1.82596E-03-8.34739E-14
 -1      1084 9.19827E-03-1.91303E-03-8.88409E-14
 -1      1085 9.48370E-03-2.00020E-03-9.43347E-14
 -1      1086 9.76929E-03-2.08745E-03-9.99457E-14
 -1      1087 1.00550E-02-2.17476E-03-1.05668E-13
 -1      1088 1.03407E-02-2.26212E-03-1.11492E-13
 -1      1089 1.06265E-02-2.34950E-03-1.17424E-13
 -1      1090 1.09123E-02-2.43691E-03-1.23454E-13
 -1      1091 1.11981E-02-2.52434E-03-1.29573E-13
 -1      1092 1.14839E-02-2.61178E-03-1.35767E-13
 -1      1093 1.17697E-02-2.69922E-03-1.42026E-13
 -1      1094 1.20555E-02-2.78668E-03-1.48352E-13
 -1      1095 1.23413E-02-2.87413E-03-1.54740E-13
 -1      1096 1.26271E-02-2.96159E-03-1.61174E-13
 -1      1097 7.21349E-03-1.30845E-03-5.41171E-14
 -1      1098 7.49446E-03-1.39372E-03-5.86588E-14
 -1      1099 5.33469E-03-8.11691E-04-2.50736E-14
 -1      1100 8.34368E-03-1.65227E-03-7.31439E-14
 -1      1101 6.93398E-03-1.22388E-03-4.97274E-14
 -1      1102 5.83539E-03-8.98289E-04-3.37616E-14
 -1      1103 6.38040E-03-1.05787E-03-4.14224E-14
 -1      1104 5.56604E-03-8.22019E-04-3.01771E-14
 -1      1105 5.29799E-03-7.48450E-04-2.67634E-14
 -1      1106 6.65622E-03-1.14025E-03-4.54943E-14
 -1      1107 1.29669E-02-3.11885E-03-1.66926E-13
 -1      1108 1.29344E-02-3.06855E-03-1.67676E-13
 -1      1109 1.31137E-02-3.20656E-03-1.68680E-13
 -1      1110 5.80168E-03-9.51830E-04-3.11141E-14
 -1      1111 4.86974E-03-6.32407E-04-2.18289E-14
 -1      1112 5.56590E-03-8.79625E-04-2.80269E-14
 -1      1113 6.32548E-03-1.08080E-03-3.94327E-14
 -1      1114 6.64475E-03-1.17327E-03-4.42629E-14
 -1      1115 5.19055E-03-7.34027E-04-2.49214E-14
 -1      1116 5.03026E-03-6.77894E-04-2.35233E-14
 -1      1117 0.00000E+00 0.00000E+00 0.00000E+00
 -1      1118 0.00000E+00 0.00000E+00 0.00000E+00
 -1      1119 0.00000E+00 0.00000E+00 0.00000E+00
 -1      1120 0.00000E+00 0.00000E+00 0.00000E+00
 -1      1121 0.00000E+00 0.00000E+00 0.00000E+00
 -1      1122 0.00000E+00 0.00000E+00 0.00000E+00
 -1      1123 0.00000E+00 0.00000E+00 0.00000E+00
 -1      1124 0.00000E+00 0.00000E+00 0.00000E+00
 -1      1125 0.00000E+00 0.00000E+00 0.00000E+00
 -1      1126 0.00000E+00 0.00000E+00 0.00000E+00
 -1      1127 0.00000E+00 0.00000E+00 0.00000E+00
 -1      1128 0.00000E+00 0.00000E+00 0.00000E+00
 -1      1129 0.00000E+00 0.00000E+00 0.00000E+00
 -1      1130 0.00000E+00 0.00000E+00 0.00000E+00
 -1      1131 0.00000E+00 0.00000E+00 0.00000E+00
 -1      1132 0.00000E+00 0.00000E+00 0.00000E+00
 -1      1133 0.00000E+00 0.00000E+00 0.00000E+00
 -1      1134 2.97245E-04-1.73816E-04 3.39897E-17
 -1      1135 8.18009E-04-4.07789E-04-1.91904E-17
 -1      1136 1.28119E-03-6.30396E-04-2.56590E-16
 -1      1137 1.71887E-03-8.80024E-04-7.20208E-16
 -1      1138 2.11258E-03-1.15286E-03-1.42035E-15
 -1      1139 2.44594E-03-1.40401E-03-2.37614E-15
 -1      1140 2.72689E-03-1.56953E-03-3.60444E-15
 -1      1141 2.99364E-03-1.61056E-03-5.11230E-15
 -1      1142 3.29080E-03-1.54525E-03-6.89908E-15
 -1      1143 3.63812E-03-1.43364E-03-8.95001E-15
 -1      1144 4.02500E-03-1.33462E-03-1.12378E-14
 -1      1145 4.42779E-03-1.27912E-03-1.37396E-14
 -1      1146 4.82635E-03-1.27150E-03-1.64383E-14
 -1      1147 5.20960E-03-1.30284E-03-1.93240E-14
 -1      1148 5.57406E-03-1.36135E-03-2.23904E-14
 -1      1149 5.92054E-03-1.43710E-03-2.56364E-14
 -1      1150 6.25171E-03-1.52301E-03-2.90561E-14
 -1      1151 6.57066E-03-1.61444E-03-3.26460E-14
 -1      1152 6.88020E-03-1.70853E-03-3.64012E-14
 -1      1153 7.18270E-03-1.80357E-03-4.03202E-14
 -1      1154 7.48002E-03-1.89857E-03-4.43978E-14
 -1      1155 7.77356E-03-1.99303E-03-4.86351E-14
 -1      1156 8.06440E-03-2.08669E-03-5.30280E-14
 -1      1157 8.35333E-03-2.17948E-03-5.75811E-14
 -1      1158 8.64094E-03-2.27140E-03-6.22841E-14
 -1      1159 8.92764E-03-2.36252E-03-6.71255E-14
 -1      1160 9.21375E-03-2.45293E-03-7.20966E-14
 -1      1161 9.49948E-03-2.54273E-03-7.71906E-14
 -1      1162 9.78498E-03-2.63202E-03-8.24183E-14
 -1      1163 1.00704E-02-2.72088E-03-8.77733E-14
 -1      1164 1.03557E-02-2.80939E-03-9.32483E-14
 -1      1165 1.06410E-02-2.89763E-03-9.88438E-14
 -1      1166 1.09264E-02-2.98566E-03-1.04557E-13
 -1      1167 1.12117E-02-3.07351E-03-1.10373E-13
 -1      1168 1.14972E-02-3.16125E-03-1.16294E-13
 -1      1169 1.17826E-02-3.24889E-03-1.22305E-13
 -1      1170 1.20681E-02-3.33646E-03-1.28388E-13
 -1      1171 1.23537E-02-3.42398E-03-1.34551E-13
 -1      1172 1.26393E-02-3.51147E-03-1.40784E-13
 -1      1173 1.29249E-02-3.59894E-03-1.47072E-13
 -1      1174 1.32105E-02-3.68639E-03-1.53432E-13
 -1      1175 1.34962E-02-3.77384E-03-1.59855E-13
 -1      1176 1.37819E-02-3.86128E-03-1.66344E-13
 -1      1177 1.40675E-02-3.94871E-03-1.72888E-13
 -1      1178 1.43532E-02-4.03615E-03-1.79476E-13
 -1      1179 1.46389E-02-4.12359E-03-1.86105E-13
 -1      1180 1.49247E-02-4.21104E-03-1.92778E-13
 -1      1181 1.52104E-02-4.29848E-03-1.99472E-13
 -1      1182 1.54961E-02-4.38594E-03-2.06185E-13
 -1      1183 1.57747E-02-4.47120E-03-2.12758E-13
 -1      1184 2.60866E-04 1.87623E-04 3.35561E-17
 -1      1185 6.25827E-04 4.09077E-04-6.32225E-17
 -1      1186 9.30857E-04 5.62533E-04-3.81477E-16
 -1      1187 1.21234E-03 6.71033E-04-9.51293E-16
 -1      1188 1.47638E-03 7.43576E-04-1.77057E-15
 -1      1189 1.72770E-03 7.80495E-04-2.83532E-15
 -1      1190 1.97208E-03 7.79829E-04-4.14390E-15
 -1      1191 2.21652E-03 7.41625E-04-5.69198E-15
 -1      1192 2.46787E-03 6.69981E-04-7.47807E-15
 -1      1193 2.73105E-03 5.72784E-04-9.49757E-15
 -1      1194 3.00803E-03 4.59777E-04-1.17487E-14
 -1      1195 3.29784E-03 3.40221E-04-1.42202E-14
 -1      1196 3.59756E-03 2.21212E-04-1.68993E-14
 -1      1197 3.90347E-03 1.07090E-04-1.97788E-14
 -1      1198 4.21207E-03-2.81581E-07-2.28568E-14
 -1      1199 4.52063E-03-1.00800E-04-2.61362E-14
 -1      1200 4.82732E-03-1.95370E-04-2.96012E-14
 -1      1201 5.13116E-03-2.85313E-04-3.32405E-14
 -1      1202 5.43178E-03-3.71981E-04-3.70548E-14
 -1      1203 5.72925E-03-4.56560E-04-4.10406E-14
 -1      1204 6.02389E-03-5.39989E-04-4.51935E-14
 -1      1205 6.31613E-03-6.22956E-04-4.95063E-14
 -1      1206 6.60642E-03-7.05928E-04-5.39764E-14
 -1      1207 6.89519E-03-7.89198E-04-5.86046E-14
 -1      1208 7.18282E-03-8.72924E-04-6.33849E-14
 -1      1209 7.46961E-03-9.57174E-04-6.83078E-14
 -1      1210 7.75583E-03-1.04195E-03-7.33807E-14
 -1      1211 8.04165E-03-1.12723E-03-7.85967E-14
 -1      1212 8.32724E-03-1.21295E-03-8.39429E-14
 -1      1213 8.61268E-03-1.29905E-03-8.94212E-14
 -1      1214 8.89805E-03-1.38546E-03-9.50322E-14
 -1      1215 9.18340E-03-1.47214E-03-1.00771E-13
 -1      1216 9.46877E-03-1.55903E-03-1.06633E-13
 -1      1217 9.75417E-03-1.64608E-03-1.12600E-13
 -1      1218 1.00396E-02-1.73325E-03-1.18663E-13
 -1      1219 1.03251E-02-1.82051E-03-1.24821E-13
 -1      1220 1.06106E-02-1.90785E-03-1.31065E-13
 -1      1221 1.08961E-02-1.99523E-03-1.37392E-13
 -1      1222 1.11817E-02-2.08265E-03-1.43791E-13
 -1      1223 1.14673E-02-2.17009E-03-1.50255E-13
 -1      1224 1.17530E-02-2.25754E-03-1.56766E-13
 -1      1225 1.20386E-02-2.34500E-03-1.63320E-13
 -1      1226 1.23243E-02-2.43247E-03-1.69895E-13
 -1      1227 1.26100E-02-2.51994E-03-1.76488E-13
 -1      1228 1.28957E-02-2.60741E-03-1.83102E-13
 -1      1229 1.31814E-02-2.69487E-03-1.89717E-13
 -1      1230 1.34671E-02-2.78234E-03-1.96348E-13
 -1      1231 1.37528E-02-2.86979E-03-2.02990E-13
 -1      1232 1.40385E-02-2.95725E-03-2.09630E-13
 -1      1233 1.43171E-02-3.04252E-03-2.16107E-13
 -1      1234 1.44958E-02-3.12620E-03-2.19203E-13
 -1      1235 1.45818E-02-3.21049E-03-2.19111E-13
 -1      1236 1.46678E-02-3.29477E-03-2.19026E-13
 -1      1237 1.47538E-02-3.37906E-03-2.18922E-13
 -1      1238 1.48398E-02-3.46335E-03-2.18791E-13
 -1      1239 1.49250E-02-3.54693E-03-2.18663E-13
 -1      1240 1.50103E-02-3.63051E-03-2.18563E-13
 -1      1241 1.50963E-02-3.71481E-03-2.18437E-13
 -1      1242 1.51823E-02-3.79912E-03-2.18275E-13
 -1      1243 1.52683E-02-3.88342E-03-2.18073E-13
 -1      1244 1.53543E-02-3.96772E-03-2.17835E-13
 -1      1245 1.54395E-02-4.05130E-03-2.17585E-13
 -1      1246 1.55248E-02-4.13488E-03-2.17328E-13
 -1      1247 1.56108E-02-4.21917E-03-2.17048E-13
 -1      1248 1.56968E-02-4.30346E-03-2.16747E-13
 -1      1249 1.57828E-02-4.38774E-03-2.16448E-13
 -1      1250 1.58681E-02-4.47132E-03-2.16138E-13
 -1      1251 4.60993E-03-4.90965E-04-8.69044E-15
 -1      1252 4.46598E-03-3.55754E-04-8.52985E-15
 -1      1253 4.22696E-03-2.15427E-04-8.18345E-15
 -1      1254 3.88297E-03-6.16154E-05-7.62488E-15
 -1      1255 3.48490E-03 8.07845E-05-6.93265E-15
 -1      1256 3.06791E-03 1.93473E-04-6.17754E-15
 -1      1257 2.63802E-03 2.67046E-04-5.38371E-15
 -1      1258 2.21151E-03 2.92739E-04-4.59989E-15
 -1      1259 1.79019E-03 2.72211E-04-3.84859E-15
 -1      1260 1.40980E-03 2.17015E-04-3.19991E-15
 -1      1261 1.06277E-03 1.38645E-04-2.63732E-15
 -1      1262 7.58961E-04 5.09516E-05-2.17001E-15
 -1      1263 5.24353E-04-3.43571E-05-1.82367E-15
 -1      1264 3.66029E-04-1.15118E-04-1.59633E-15
 -1      1265 2.92114E-04-2.00247E-04-1.48580E-15
 -1      1266 3.13353E-04-2.96974E-04-1.50134E-15
 -1      1267 4.38234E-04-4.18073E-04-1.64242E-15
 -1      1268 6.61655E-04-5.69827E-04-1.90680E-15
 -1      1269 9.71919E-04-7.46350E-04-2.28639E-15
 -1      1270 1.35402E-03-9.33324E-04-2.77951E-15
 -1      1271 1.76964E-03-1.09777E-03-3.35387E-15
 -1      1272 2.22270E-03-1.22165E-03-4.03079E-15
 -1      1273 2.67115E-03-1.28176E-03-4.75366E-15
 -1      1274 3.09531E-03-1.27415E-03-5.48164E-15
 -1      1275 3.49117E-03-1.21386E-03-6.19706E-15
 -1      1276 3.85753E-03-1.11466E-03-6.88894E-15
 -1      1277 4.17809E-03-9.92963E-04-7.52912E-15
 -1      1278 4.42141E-03-8.67418E-04-8.04984E-15
 -1      1279 4.58188E-03-7.42574E-04-8.43373E-15
 -1      1280 4.64771E-03-6.20139E-04-8.65131E-15
 -1      1281 2.38985E-04-1.15910E-04 5.06865E-18
 -1      1282 1.46596E-04-3.42268E-05-3.16045E-17
 -1      1283 1.61782E-04-5.31957E-05-2.14130E-17
 -1      1284 1.21217E-04-8.12330E-06-4.76371E-17
 -1      1285 1.33913E-04-1.93241E-05-4.21077E-17
 -1      1286 2.87809E-04-6.84424E-05-1.01536E-16
 -1      1287 9.65967E-05 6.24438E-06-5.65140E-17
 -1      1288 1.09119E-04 4.94108E-07-5.33156E-17
 -1      1289 2.35508E-04-2.30373E-05-1.29494E-16
 -1      1290 7.34692E-05 6.63937E-06-6.14201E-17
 -1      1291 8.44453E-05 7.51081E-06-5.94956E-17
 -1      1292 1.82526E-04 2.49206E-07-1.45107E-16
 -1      1293 5.78886E-05-7.14343E-06-6.42729E-17
 -1      1294 6.41930E-05-4.62394E-07-6.32429E-17
 -1      1295 1.34692E-04-3.16552E-06-1.53997E-16
 -1      1296 5.54537E-05-2.73434E-05-6.65090E-17
 -1      1297 5.49548E-05-1.91960E-05-6.60144E-17
 -1      1298 1.07108E-04-2.98321E-05-1.60021E-16
 -1      1299 6.55855E-05-4.17002E-05-6.88265E-17
 -1      1300 5.94726E-05-3.73776E-05-6.86842E-17
 -1      1301 1.10084E-04-6.21062E-05-1.65910E-16
 -1      1302 8.22250E-05-4.29464E-05-7.15031E-17
 -1      1303 7.38073E-05-4.47481E-05-7.13270E-17
 -1      1304 1.38248E-04-7.94741E-05-1.72564E-16
 -1      1305 9.86847E-05-3.10507E-05-7.42001E-17
 -1      1306 9.10012E-05-3.81560E-05-7.40510E-17
 -1      1307 1.76324E-04-7.22498E-05-1.79801E-16
 -1      1308 1.10506E-04-1.15698E-05-7.63007E-17
 -1      1309 1.05264E-04-2.12185E-05-7.60839E-17
 -1      1310 2.09565E-04-4.39695E-05-1.86252E-16
 -1      1311 1.17170E-04 9.64188E-06-7.70732E-17
 -1      1312 1.14323E-04-2.17299E-07-7.70597E-17
 -1      1313 2.31092E-04-5.51518E-06-1.90427E-16
 -1      1314 1.20122E-04 2.92190E-05-7.55282E-17
 -1      1315 1.18845E-04 2.02572E-05-7.62872E-17
 -1      1316 2.41822E-04 3.38709E-05-1.90820E-16
 -1      1317 1.21379E-04 4.63910E-05-7.05274E-17
 -1      1318 1.20615E-04 3.83640E-05-7.27771E-17
 -1      1319 2.45788E-04 6.98292E-05-1.85426E-16
 -1      1320 1.23293E-04 6.24270E-05-5.91161E-17
 -1      1321 1.21674E-04 5.44500E-05-6.43338E-17
 -1      1322 2.47550E-04 1.02392E-04-1.70802E-16
 -1      1323 1.30323E-04 8.19865E-05-3.76760E-17
 -1      1324 1.24982E-04 7.11416E-05-4.85045E-17
 -1      1325 2.52764E-04 1.35702E-04-1.42234E-16
 -1      1326 1.77760E-04 1.29277E-04-1.01644E-18
 -1      1327 1.51467E-04 1.02974E-04-2.50586E-17
 -1      1328 2.85038E-04 1.84595E-04-1.05208E-16
 -1      1329 3.76895E-04 2.62464E-04-4.66071E-17
 -1      1330 6.16016E-04-2.94093E-04-4.65394E-17
 -1      1331 8.49107E-04-4.02895E-04-1.21932E-16
 -1      1332 1.07607E-03-5.14012E-04-2.53188E-16
 -1      1333 1.29719E-03-6.31127E-04-4.38045E-16
 -1      1334 8.84583E-04-3.98999E-04-2.41655E-16
 -1      1335 1.51197E-03-7.57829E-04-6.77193E-16
 -1      1336 1.71899E-03-8.92795E-04-9.74237E-16
 -1      1337 1.31811E-03-6.36383E-04-6.27563E-16
 -1      1338 1.91725E-03-1.03359E-03-1.33049E-15
 -1      1339 2.10512E-03-1.17350E-03-1.74947E-15
 -1      1340 1.73209E-03-9.09624E-04-1.23481E-15
 -1      1341 2.28219E-03-1.30472E-03-2.23342E-15
 -1      1342 2.44921E-03-1.41762E-03-2.78456E-15
 -1      1343 2.12026E-03-1.19388E-03-2.08453E-15
 -1      1344 2.60772E-03-1.50392E-03-3.40422E-15
 -1      1345 2.76191E-03-1.55759E-03-4.09376E-15
 -1      1346 2.47800E-03-1.42401E-03-3.19720E-15
 -1      1347 2.91480E-03-1.57693E-03-4.85350E-15
 -1      1348 3.07140E-03-1.56471E-03-5.68266E-15
 -1      1349 2.81551E-03-1.53278E-03-4.58715E-15
 -1      1350 3.23392E-03-1.52756E-03-6.58116E-15
 -1      1351 3.40431E-03-1.47432E-03-7.54607E-15
 -1      1352 3.15561E-03-1.50615E-03-6.25758E-15
 -1      1353 3.58266E-03-1.41428E-03-8.57464E-15
 -1      1354 3.76762E-03-1.35550E-03-9.66467E-15
 -1      1355 3.51411E-03-1.39667E-03-8.19687E-15
 -1      1356 3.95778E-03-1.30400E-03-1.08110E-14
 -1      1357 4.15073E-03-1.26362E-03-1.20119E-14
 -1      1358 3.88906E-03-1.27764E-03-1.03823E-14
 -1      1359 4.34484E-03-1.23589E-03-1.32648E-14
 -1      1360 4.53817E-03-1.22121E-03-1.45678E-14
 -1      1361 4.26916E-03-1.19708E-03-1.27900E-14
 -1      1362 4.72964E-03-1.21843E-03-1.59191E-14
 -1      1363 4.91814E-03-1.22650E-03-1.73175E-14
 -1      1364 4.64426E-03-1.16888E-03-1.53999E-14
 -1      1365 5.10321E-03-1.24352E-03-1.87617E-14
 -1      1366 5.28446E-03-1.26814E-03-2.02505E-14
 -1      1367 5.00857E-03-1.18655E-03-1.81994E-14
 -1      1368 5.46185E-03-1.29870E-03-2.17853E-14
 -1      1369 5.63543E-03-1.33404E-03-2.33649E-14
 -1      1370 5.35992E-03-1.23741E-03-2.11804E-14
 -1      1371 5.80540E-03-1.37304E-03-2.49885E-14
 -1      1372 5.97198E-03-1.41480E-03-2.66560E-14
 -1      1373 5.69845E-03-1.30964E-03-2.43410E-14
 -1      1374 6.13548E-03-1.45866E-03-2.83658E-14
 -1      1375 6.29619E-03-1.50399E-03-3.01195E-14
 -1      1376 6.02544E-03-1.39456E-03-2.76760E-14
 -1      1377 6.45441E-03-1.55041E-03-3.19147E-14
 -1      1378 6.61042E-03-1.59749E-03-3.37516E-14
 -1      1379 6.34268E-03-1.48637E-03-3.11833E-14
 -1      1380 6.76450E-03-1.64507E-03-3.56292E-14
 -1      1381 6.91688E-03-1.69285E-03-3.75484E-14
 -1      1382 6.65202E-03-1.58148E-03-3.48578E-14
 -1      1383 7.06779E-03-1.74077E-03-3.95072E-14
 -1      1384 7.21742E-03-1.78863E-03-4.15063E-14
 -1      1385 6.95512E-03-1.67779E-03-3.86950E-14
 -1      1386 7.36595E-03-1.83643E-03-4.35453E-14
 -1      1387 7.51354E-03-1.88404E-03-4.56249E-14
 -1      1388 7.25344E-03-1.77408E-03-4.26938E-14
 -1      1389 7.66032E-03-1.93148E-03-4.77440E-14
 -1      1390 7.80640E-03-1.97867E-03-4.99021E-14
 -1      1391 7.54812E-03-1.86973E-03-4.68525E-14
 -1      1392 7.95191E-03-2.02566E-03-5.21004E-14
 -1      1393 8.09690E-03-2.07238E-03-5.43359E-14
 -1      1394 7.84009E-03-1.96444E-03-5.11710E-14
 -1      1395 8.24148E-03-2.11888E-03-5.66108E-14
 -1      1396 8.38571E-03-2.16513E-03-5.89252E-14
 -1      1397 8.13007E-03-2.05813E-03-5.56440E-14
 -1      1398 8.52964E-03-2.21117E-03-6.12746E-14
 -1      1399 8.67332E-03-2.25697E-03-6.36600E-14
 -1      1400 8.41860E-03-2.15080E-03-6.02688E-14
 -1      1401 8.81680E-03-2.30258E-03-6.60797E-14
 -1      1402 8.96010E-03-2.34799E-03-6.85313E-14
 -1      1403 8.70609E-03-2.24253E-03-6.50347E-14
 -1      1404 9.10327E-03-2.39323E-03-7.10157E-14
 -1      1405 9.24633E-03-2.43830E-03-7.35313E-14
 -1      1406 8.99286E-03-2.33344E-03-6.99367E-14
 -1      1407 9.38930E-03-2.48322E-03-7.60796E-14
 -1      1408 9.53219E-03-2.52799E-03-7.86591E-14
 -1      1409 9.27913E-03-2.42363E-03-7.49688E-14
 -1      1410 9.67503E-03-2.57265E-03-8.12723E-14
 -1      1411 9.81783E-03-2.61718E-03-8.39194E-14
 -1      1412 9.56507E-03-2.51322E-03-8.01291E-14
 -1      1413 9.96060E-03-2.66162E-03-8.65965E-14
 -1      1414 1.01033E-02-2.70596E-03-8.93031E-14
 -1      1415 9.85080E-03-2.60232E-03-8.54190E-14
 -1      1416 1.02461E-02-2.75022E-03-9.20410E-14
 -1      1417 1.03888E-02-2.79440E-03-9.48101E-14
 -1      1418 1.01364E-02-2.69101E-03-9.08343E-14
 -1      1419 1.05315E-02-2.83852E-03-9.76090E-14
 -1      1420 1.06742E-02-2.88258E-03-1.00436E-13
 -1      1421 1.04219E-02-2.77939E-03-9.63731E-14
 -1      1422 1.08169E-02-2.92659E-03-1.03291E-13
 -1      1423 1.09596E-02-2.97056E-03-1.06173E-13
 -1      1424 1.07074E-02-2.86751E-03-1.02027E-13
 -1      1425 1.11024E-02-3.01449E-03-1.09083E-13
 -1      1426 1.12451E-02-3.05838E-03-1.12016E-13
 -1      1427 1.09929E-02-2.95544E-03-1.07791E-13
 -1      1428 1.13878E-02-3.10224E-03-1.14975E-13
 -1      1429 1.15306E-02-3.14608E-03-1.17957E-13
 -1      1430 1.12784E-02-3.04323E-03-1.13659E-13
 -1      1431 1.16733E-02-3.18990E-03-1.20961E-13
 -1      1432 1.18161E-02-3.23370E-03-1.23983E-13
 -1      1433 1.15640E-02-3.13090E-03-1.19618E-13
 -1      1434 1.19588E-02-3.27748E-03-1.27026E-13
 -1      1435 1.21016E-02-3.32125E-03-1.30085E-13
 -1      1436 1.18495E-02-3.21850E-03-1.25662E-13
 -1      1437 1.22444E-02-3.36501E-03-1.33166E-13
 -1      1438 1.23872E-02-3.40876E-03-1.36269E-13
 -1      1439 1.21351E-02-3.30604E-03-1.31784E-13
 -1      1440 1.25300E-02-3.45250E-03-1.39381E-13
 -1      1441 1.26728E-02-3.49624E-03-1.42509E-13
 -1      1442 1.24207E-02-3.39353E-03-1.37978E-13
 -1      1443 1.28156E-02-3.53997E-03-1.45657E-13
 -1      1444 1.29584E-02-3.58370E-03-1.48822E-13
 -1      1445 1.27063E-02-3.48100E-03-1.44242E-13
 -1      1446 1.31013E-02-3.62742E-03-1.52002E-13
 -1      1447 1.32441E-02-3.67115E-03-1.55198E-13
 -1      1448 1.29920E-02-3.56846E-03-1.50571E-13
 -1      1449 1.33869E-02-3.71487E-03-1.58412E-13
 -1      1450 1.35297E-02-3.75859E-03-1.61640E-13
 -1      1451 1.32776E-02-3.65590E-03-1.56967E-13
 -1      1452 1.36726E-02-3.80231E-03-1.64884E-13
 -1      1453 1.38154E-02-3.84602E-03-1.68142E-13
 -1      1454 1.35633E-02-3.74334E-03-1.63424E-13
 -1      1455 1.39583E-02-3.88974E-03-1.71412E-13
 -1      1456 1.41011E-02-3.93346E-03-1.74693E-13
 -1      1457 1.38490E-02-3.83077E-03-1.69938E-13
 -1      1458 1.42440E-02-3.97718E-03-1.77986E-13
 -1      1459 1.43868E-02-4.02090E-03-1.81290E-13
 -1      1460 1.41347E-02-3.91821E-03-1.76499E-13
 -1      1461 1.45297E-02-4.06462E-03-1.84606E-13
 -1      1462 1.46725E-02-4.10834E-03-1.87927E-13
 -1      1463 1.44204E-02-4.00565E-03-1.83103E-13
 -1      1464 1.48154E-02-4.15206E-03-1.91259E-13
 -1      1465 1.49582E-02-4.19579E-03-1.94602E-13
 -1      1466 1.47061E-02-4.09309E-03-1.89749E-13
 -1      1467 1.51011E-02-4.23951E-03-1.97950E-13
 -1      1468 1.52439E-02-4.28323E-03-2.01300E-13
 -1      1469 1.49918E-02-4.18053E-03-1.96425E-13
 -1      1470 1.53868E-02-4.32696E-03-2.04655E-13
 -1      1471 1.55296E-02-4.37068E-03-2.08017E-13
 -1      1472 1.52775E-02-4.26798E-03-2.03127E-13
 -1      1473 1.57324E-02-4.42977E-03-2.12925E-13
 -1      1474 1.56231E-02-4.37080E-03-2.11384E-13
 -1      1475 7.17413E-04 4.52507E-04-2.46832E-16
 -1      1476 5.52401E-04 3.65499E-04-1.15007E-16
 -1      1477 4.95847E-04 3.22706E-04-1.58280E-16
 -1      1478 1.02452E-03 5.85191E-04-6.95597E-16
 -1      1479 8.74318E-04 5.24150E-04-4.40742E-16
 -1      1480 8.24489E-04 4.84274E-04-4.87850E-16
 -1      1481 1.30960E-03 6.78653E-04-1.38920E-15
 -1      1482 1.16929E-03 6.36389E-04-1.01132E-15
 -1      1483 1.13025E-03 6.00260E-04-1.06020E-15
 -1      1484 1.57934E-03 7.36717E-04-2.32759E-15
 -1      1485 1.44599E-03 7.12180E-04-1.82778E-15
 -1      1486 1.41814E-03 6.79398E-04-1.87417E-15
 -1      1487 1.83924E-03 7.57669E-04-3.50940E-15
 -1      1488 1.71013E-03 7.51944E-04-2.88795E-15
 -1      1489 1.69353E-03 7.22096E-04-2.93049E-15
 -1      1490 2.09515E-03 7.39852E-04-4.93323E-15
 -1      1491 1.96728E-03 7.53522E-04-4.19131E-15
 -1      1492 1.96166E-03 7.26022E-04-4.22869E-15
 -1      1493 2.35311E-03 6.85047E-04-6.59519E-15
 -1      1494 2.22349E-03 7.16711E-04-5.73445E-15
 -1      1495 2.22798E-03 6.90755E-04-5.76671E-15
 -1      1496 2.61818E-03 5.99439E-04-8.49294E-15
 -1      1497 2.48448E-03 6.45512E-04-7.51465E-15
 -1      1498 2.49749E-03 6.20206E-04-7.54164E-15
 -1      1499 2.89342E-03 4.92394E-04-1.06213E-14
 -1      1500 2.75441E-03 5.47944E-04-9.52873E-15
 -1      1501 2.77386E-03 5.22507E-04-9.54944E-15
 -1      1502 3.17943E-03 3.74029E-04-1.29762E-14
 -1      1503 3.03511E-03 4.34050E-04-1.17714E-14
 -1      1504 3.05872E-03 4.07972E-04-1.17850E-14
 -1      1505 3.47474E-03 2.52981E-04-1.55434E-14
 -1      1506 3.32607E-03 3.13430E-04-1.42333E-14
 -1      1507 3.35171E-03 2.86504E-04-1.42390E-14
 -1      1508 3.77672E-03 1.35186E-04-1.83158E-14
 -1      1509 3.62509E-03 1.93450E-04-1.69044E-14
 -1      1510 3.65111E-03 1.65714E-04-1.69018E-14
 -1      1511 4.08241E-03 2.37580E-05-2.12868E-14
 -1      1512 3.92929E-03 7.85992E-05-1.97771E-14
 -1      1513 3.95457E-03 5.02337E-05-1.97665E-14
 -1      1514 4.38921E-03-8.04191E-05-2.44558E-14
 -1      1515 4.23582E-03-2.92149E-05-2.28468E-14
 -1      1516 4.25978E-03-5.79796E-05-2.28281E-14
 -1      1517 4.69517E-03-1.77884E-04-2.78174E-14
 -1      1518 4.54240E-03-1.29917E-04-2.61125E-14
 -1      1519 4.56484E-03-1.58864E-04-2.60835E-14
 -1      1520 4.99905E-03-2.69877E-04-3.13609E-14
 -1      1521 4.84743E-03-2.24474E-04-2.95673E-14
 -1      1522 4.86846E-03-2.53429E-04-2.95264E-14
 -1      1523 5.30025E-03-3.57832E-04-3.50770E-14
 -1      1524 5.15001E-03-3.14273E-04-3.31972E-14
 -1      1525 5.16986E-03-3.43116E-04-3.31471E-14
 -1      1526 5.59859E-03-4.43088E-04-3.89663E-14
 -1      1527 5.44978E-03-4.00725E-04-3.70006E-14
 -1      1528 5.46873E-03-4.29386E-04-3.69410E-14
 -1      1529 5.89423E-03-5.26745E-04-4.30262E-14
 -1      1530 5.74673E-03-4.85060E-04-4.09751E-14
 -1      1531 5.76506E-03-5.13508E-04-4.09039E-14
 -1      1532 6.18746E-03-6.09639E-04-4.72471E-14
 -1      1533 6.04112E-03-5.68248E-04-4.51164E-14
 -1      1534 6.05906E-03-5.96478E-04-4.50336E-14
 -1      1535 6.47868E-03-6.92355E-04-5.16289E-14
 -1      1536 6.33330E-03-6.50993E-04-4.94180E-14
 -1      1537 6.35103E-03-6.79020E-04-4.93251E-14
 -1      1538 6.76826E-03-7.75274E-04-5.61670E-14
 -1      1539 6.62365E-03-7.33773E-04-5.38790E-14
 -1      1540 6.64131E-03-7.61620E-04-5.37753E-14
 -1      1541 7.05657E-03-8.58614E-04-6.08617E-14
 -1      1542 6.91255E-03-8.16883E-04-5.84952E-14
 -1      1543 6.93024E-03-8.44578E-04-5.83812E-14
 -1      1544 7.34393E-03-9.42485E-04-6.57044E-14
 -1      1545 7.20035E-03-9.00480E-04-6.32643E-14
 -1      1546 7.21812E-03-9.28050E-04-6.31388E-14
 -1      1547 7.63059E-03-1.02691E-03-7.06905E-14
 -1      1548 7.48733E-03-9.84629E-04-6.81791E-14
 -1      1549 7.50521E-03-1.01210E-03-6.80440E-14
 -1      1550 7.91676E-03-1.11188E-03-7.58253E-14
 -1      1551 7.77372E-03-1.06933E-03-7.32407E-14
 -1      1552 7.79173E-03-1.09673E-03-7.30949E-14
 -1      1553 8.20260E-03-1.19734E-03-8.10954E-14
 -1      1554 8.05971E-03-1.15455E-03-7.84438E-14
 -1      1555 8.07784E-03-1.18189E-03-7.82865E-14
 -1      1556 8.48824E-03-1.28322E-03-8.64957E-14
 -1      1557 8.34544E-03-1.24023E-03-8.37795E-14
 -1      1558 8.36368E-03-1.26752E-03-8.36101E-14
 -1      1559 8.77375E-03-1.36946E-03-9.20286E-14
 -1      1560 8.63100E-03-1.32630E-03-8.92458E-14
 -1      1561 8.64934E-03-1.35356E-03-8.90663E-14
 -1      1562 9.05920E-03-1.45600E-03-9.76924E-14
 -1      1563 8.91648E-03-1.41270E-03-9.48442E-14
 -1      1564 8.93490E-03-1.43994E-03-9.46526E-14
 -1      1565 9.34463E-03-1.54278E-03-1.03478E-13
 -1      1566 9.20191E-03-1.49937E-03-1.00569E-13
 -1      1567 9.22041E-03-1.52660E-03-1.00363E-13
 -1      1568 9.63006E-03-1.62975E-03-1.09380E-13
 -1      1569 9.48734E-03-1.58625E-03-1.06415E-13
 -1      1570 9.50590E-03-1.61347E-03-1.06195E-13
 -1      1571 9.91552E-03-1.71686E-03-1.15385E-13
 -1      1572 9.77279E-03-1.67329E-03-1.12370E-13
 -1      1573 9.79139E-03-1.70051E-03-1.12136E-13
 -1      1574 1.02010E-02-1.80408E-03-1.21482E-13
 -1      1575 1.00583E-02-1.76046E-03-1.18422E-13
 -1      1576 1.00769E-02-1.78768E-03-1.18177E-13
 -1      1577 1.04865E-02-1.89139E-03-1.27669E-13
 -1      1578 1.03438E-02-1.84773E-03-1.24566E-13
 -1      1579 1.03624E-02-1.87494E-03-1.24309E-13
 -1      1580 1.07721E-02-1.97875E-03-1.33946E-13
 -1      1581 1.06293E-02-1.93506E-03-1.30798E-13
 -1      1582 1.06480E-02-1.96228E-03-1.30527E-13
 -1      1583 1.10577E-02-2.06615E-03-1.40295E-13
 -1      1584 1.09149E-02-2.02244E-03-1.37110E-13
 -1      1585 1.09336E-02-2.04966E-03-1.36827E-13
 -1      1586 1.13433E-02-2.15358E-03-1.46714E-13
 -1      1587 1.12005E-02-2.10986E-03-1.43495E-13
 -1      1588 1.12192E-02-2.13708E-03-1.43198E-13
 -1      1589 1.16289E-02-2.24103E-03-1.53191E-13
 -1      1590 1.14861E-02-2.19730E-03-1.49947E-13
 -1      1591 1.15048E-02-2.22452E-03-1.49638E-13
 -1      1592 1.19145E-02-2.32849E-03-1.59715E-13
 -1      1593 1.17717E-02-2.28476E-03-1.56449E-13
 -1      1594 1.17905E-02-2.31198E-03-1.56130E-13
 -1      1595 1.22002E-02-2.41596E-03-1.66274E-13
 -1      1596 1.20574E-02-2.37222E-03-1.62991E-13
 -1      1597 1.20761E-02-2.39945E-03-1.62664E-13
 -1      1598 1.24859E-02-2.50343E-03-1.72850E-13
 -1      1599 1.23431E-02-2.45969E-03-1.69561E-13
 -1      1600 1.23618E-02-2.48692E-03-1.69226E-13
 -1      1601 1.27716E-02-2.59090E-03-1.79452E-13
 -1      1602 1.26287E-02-2.54716E-03-1.76150E-13
 -1      1603 1.26475E-02-2.57439E-03-1.75810E-13
 -1      1604 1.30573E-02-2.67836E-03-1.86062E-13
 -1      1605 1.29144E-02-2.63463E-03-1.82756E-13
 -1      1606 1.29332E-02-2.66186E-03-1.82411E-13
 -1      1607 1.33430E-02-2.76583E-03-1.92681E-13
 -1      1608 1.32001E-02-2.72210E-03-1.89370E-13
 -1      1609 1.32189E-02-2.74932E-03-1.89021E-13
 -1      1610 1.36287E-02-2.85329E-03-1.99318E-13
 -1      1611 1.34858E-02-2.80956E-03-1.95996E-13
 -1      1612 1.35046E-02-2.83679E-03-1.95647E-13
 -1      1613 1.39144E-02-2.94075E-03-2.05957E-13
 -1      1614 1.37716E-02-2.89702E-03-2.02638E-13
 -1      1615 1.37903E-02-2.92425E-03-2.02285E-13
 -1      1616 1.42001E-02-3.02820E-03-2.12601E-13
 -1      1617 1.40573E-02-2.98448E-03-2.09281E-13
 -1      1618 1.40760E-02-3.01170E-03-2.08932E-13
 -1      1619 1.43601E-02-3.08466E-03-2.16050E-13
 -1      1620 1.44796E-02-3.19369E-03-2.16205E-13
 -1      1621 1.44366E-02-3.15155E-03-2.16254E-13
 -1      1622 1.45656E-02-3.27798E-03-2.16108E-13
 -1      1623 1.45226E-02-3.23583E-03-2.16158E-13
 -1      1624 1.43774E-02-3.17690E-03-2.13296E-13
 -1      1625 1.46516E-02-3.36227E-03-2.15995E-13
 -1      1626 1.46086E-02-3.32012E-03-2.16050E-13
 -1      1627 1.44634E-02-3.26118E-03-2.13186E-13
 -1      1628 1.47376E-02-3.44656E-03-2.15867E-13
 -1      1629 1.46946E-02-3.40441E-03-2.15937E-13
 -1      1630 1.45493E-02-3.34547E-03-2.13070E-13
 -1      1631 1.48221E-02-3.52943E-03-2.15749E-13
 -1      1632 1.47798E-02-3.48799E-03-2.15804E-13
 -1      1633 1.46346E-02-3.42905E-03-2.12948E-13
 -1      1634 1.49081E-02-3.61372E-03-2.15629E-13
 -1      1635 1.48651E-02-3.57157E-03-2.15689E-13
 -1      1636 1.47199E-02-3.51263E-03-2.12824E-13
 -1      1637 1.49941E-02-3.69802E-03-2.15486E-13
 -1      1638 1.49511E-02-3.65587E-03-2.15562E-13
 -1      1639 1.48059E-02-3.59693E-03-2.12688E-13
 -1      1640 1.50801E-02-3.78232E-03-2.15315E-13
 -1      1641 1.50371E-02-3.74017E-03-2.15404E-13
 -1      1642 1.48918E-02-3.68123E-03-2.12535E-13
 -1      1643 1.51661E-02-3.86662E-03-2.15105E-13
 -1      1644 1.51231E-02-3.82447E-03-2.15216E-13
 -1      1645 1.49778E-02-3.76553E-03-2.12356E-13
 -1      1646 1.52521E-02-3.95092E-03-2.14869E-13
 -1      1647 1.52091E-02-3.90877E-03-2.14989E-13
 -1      1648 1.50638E-02-3.84983E-03-2.12143E-13
 -1      1649 1.53366E-02-4.03379E-03-2.14620E-13
 -1      1650 1.52943E-02-3.99236E-03-2.14748E-13
 -1      1651 1.51491E-02-3.93341E-03-2.11908E-13
 -1      1652 1.54226E-02-4.11808E-03-2.14351E-13
 -1      1653 1.53796E-02-4.07594E-03-2.14486E-13
 -1      1654 1.52344E-02-4.01699E-03-2.11650E-13
 -1      1655 1.55086E-02-4.20237E-03-2.14062E-13
 -1      1656 1.54656E-02-4.16023E-03-2.14211E-13
 -1      1657 1.53204E-02-4.10129E-03-2.11373E-13
 -1      1658 1.55946E-02-4.28666E-03-2.13760E-13
 -1      1659 1.55516E-02-4.24452E-03-2.13912E-13
 -1      1660 1.54064E-02-4.18558E-03-2.11078E-13
 -1      1661 1.56304E-02-4.34980E-03-2.12498E-13
 -1      1662 1.55874E-02-4.30766E-03-2.12653E-13
 -1      1663 1.54421E-02-4.24872E-03-2.09820E-13
 -1      1664 1.54276E-02-4.29071E-03-2.07599E-13
 -1      1665 4.59087E-03-5.10664E-04-9.21911E-15
 -1      1666 4.64330E-03-5.50808E-04-9.25325E-15
 -1      1667 4.39829E-03-4.02886E-04-8.92237E-15
 -1      1668 4.49899E-03-4.51831E-04-9.05149E-15
 -1      1669 4.09151E-03-2.76293E-04-8.52785E-15
 -1      1670 4.24482E-03-3.43820E-04-8.76484E-15
 -1      1671 3.68022E-03-1.04145E-04-7.87063E-15
 -1      1672 3.87480E-03-1.91924E-04-8.22069E-15
 -1      1673 3.28840E-03 8.13434E-05-7.01170E-15
 -1      1674 3.46967E-03 4.43684E-06-7.37440E-15
 -1      1675 2.88943E-03 2.29316E-04-6.12940E-15
 -1      1676 3.07741E-03 1.66010E-04-6.53766E-15
 -1      1677 2.50666E-03 3.17041E-04-5.26724E-15
 -1      1678 2.67899E-03 2.85177E-04-5.65861E-15
 -1      1679 2.13076E-03 3.35358E-04-4.42216E-15
 -1      1680 2.30336E-03 3.37054E-04-4.80952E-15
 -1      1681 1.75837E-03 2.82752E-04-3.63753E-15
 -1      1682 1.92863E-03 3.14892E-04-3.98677E-15
 -1      1683 1.40843E-03 1.89109E-04-2.99397E-15
 -1      1684 1.56377E-03 2.35098E-04-3.27394E-15
 -1      1685 1.07279E-03 6.85431E-05-2.41133E-15
 -1      1686 1.23312E-03 1.24644E-04-2.66268E-15
 -1      1687 7.51216E-04-2.82473E-05-1.98774E-15
 -1      1688 8.86097E-04 1.70156E-05-2.17469E-15
 -1      1689 5.09792E-04-1.21128E-04-1.64237E-15
 -1      1690 6.17263E-04-8.78884E-05-1.77394E-15
 -1      1691 3.41523E-04-1.67277E-04-1.47237E-15
 -1      1692 4.04402E-04-1.43309E-04-1.54822E-15
 -1      1693 2.76550E-04-2.18275E-04-1.36623E-15
 -1      1694 2.92720E-04-1.98121E-04-1.38853E-15
 -1      1695 3.30295E-04-2.79827E-04-1.43278E-15
 -1      1696 2.92222E-04-2.50775E-04-1.39962E-15
 -1      1697 5.17852E-04-3.64442E-04-1.57571E-15
 -1      1698 4.14510E-04-3.14074E-04-1.48036E-15
 -1      1699 7.89236E-04-5.26198E-04-1.88345E-15
 -1      1700 6.53226E-04-4.54347E-04-1.74274E-15
 -1      1701 1.16849E-03-7.21421E-04-2.28237E-15
 -1      1702 9.86036E-04-6.19312E-04-2.07205E-15
 -1      1703 1.55623E-03-9.49199E-04-2.81256E-15
 -1      1704 1.37377E-03-8.48514E-04-2.56452E-15
 -1      1705 1.95848E-03-1.14870E-03-3.43082E-15
 -1      1706 1.77224E-03-1.06086E-03-3.13001E-15
 -1      1707 2.37217E-03-1.29220E-03-4.16607E-15
 -1      1708 2.18647E-03-1.23691E-03-3.80859E-15
 -1      1709 2.74901E-03-1.33102E-03-4.94591E-15
 -1      1710 2.57898E-03-1.32374E-03-4.59149E-15
 -1      1711 3.12047E-03-1.28450E-03-5.75955E-15
 -1      1712 2.94813E-03-1.31720E-03-5.38212E-15
 -1      1713 3.48569E-03-1.17731E-03-6.53500E-15
 -1      1714 3.32195E-03-1.23194E-03-6.18415E-15
 -1      1715 3.84330E-03-1.02875E-03-7.35055E-15
 -1      1716 3.67363E-03-1.09976E-03-6.99022E-15
 -1      1717 4.18149E-03-8.92036E-04-8.00864E-15
 -1      1718 4.03748E-03-9.55836E-04-7.70685E-15
 -1      1719 4.43814E-03-7.67976E-04-8.59515E-15
 -1      1720 4.32787E-03-8.20099E-04-8.35749E-15
 -1      1721 4.60847E-03-6.71925E-04-8.99502E-15
 -1      1722 4.54260E-03-7.13228E-04-8.83451E-15
 -1      1723 4.66478E-03-5.93542E-04-9.19859E-15
 -1      1724 4.65365E-03-6.27844E-04-9.13140E-15
 -1      1725 3.51396E-03-9.52362E-05-7.96565E-15
 -1      1726 3.92791E-03-2.93758E-04-8.80455E-15
 -1      1727 1.43788E-02-3.11189E-03-2.15706E-13
 -1      1728 1.42766E-02-3.09509E-03-2.12799E-13
 -1      1729 4.54545E-03-5.24393E-04-9.63427E-15
 -1      1730 4.29497E-03-4.30167E-04-9.29581E-15
 -1      1731 4.66243E-03-5.83377E-04-9.75232E-15
 -1      1732 3.11657E-03 1.11133E-04-6.97123E-15
 -1      1733 2.74008E-03 2.67652E-04-6.01003E-15
 -1      1734 2.38495E-03 3.51714E-04-5.07501E-15
 -1      1735 2.04491E-03 3.47476E-04-4.18673E-15
 -1      1736 1.70465E-03 2.66072E-04-3.40426E-15
 -1      1737 1.36477E-03 1.40739E-04-2.72963E-15
 -1      1738 1.02739E-03 1.00270E-05-2.19522E-15
 -1      1739 7.12021E-04-1.00524E-04-1.76774E-15
 -1      1740 4.69738E-04-1.65116E-04-1.48963E-15
 -1      1741 3.13242E-04-1.98766E-04-1.32371E-15
 -1      1742 2.79124E-04-2.17416E-04-1.27888E-15
 -1      1743 3.81263E-04-2.57570E-04-1.35350E-15
 -1      1744 6.09932E-04-3.46446E-04-1.54308E-15
 -1      1745 9.45552E-04-5.17641E-04-1.87560E-15
 -1      1746 1.33746E-03-7.42400E-04-2.31103E-15
 -1      1747 1.73521E-03-9.93840E-04-2.88438E-15
 -1      1748 2.12975E-03-1.20845E-03-3.55811E-15
 -1      1749 2.48801E-03-1.33605E-03-4.34844E-15
 -1      1750 2.83345E-03-1.34869E-03-5.21138E-15
 -1      1751 3.17388E-03-1.26503E-03-6.08563E-15
 -1      1752 3.52924E-03-1.11940E-03-6.98469E-15
 -1      1753 3.88811E-03-9.54832E-04-7.82565E-15
 -1      1754 4.22283E-03-8.09893E-04-8.55444E-15
 -1      1755 4.47949E-03-7.01785E-04-9.16467E-15
 -1      1756 4.63543E-03-6.32947E-04-9.55552E-15
 -1      1757 4.10835E-04-1.78782E-04-4.76236E-17
 -1      1758 3.42160E-04-5.12254E-05-2.08479E-16
 -1      1759 3.83404E-04-7.81083E-05-1.93462E-16
 -1      1760 4.23821E-04-1.12125E-04-1.74855E-16
 -1      1761 4.65699E-04-1.51598E-04-1.48766E-16
 -1      1762 5.51351E-04-1.56579E-04-2.83980E-16
 -1      1763 1.82761E-04-2.62118E-05-2.37386E-16
 -1      1764 2.15773E-04-1.85601E-05-2.32466E-16
 -1      1765 1.48481E-04-6.10981E-05-2.45131E-16
 -1      1766 1.58903E-04-4.19648E-05-2.40950E-16
 -1      1767 2.18341E-04-5.69495E-05-3.51851E-16
 -1      1768 1.66729E-04-9.66522E-05-2.54293E-16
 -1      1769 1.51938E-04-8.11490E-05-2.49414E-16
 -1      1770 1.88250E-04-9.62801E-05-3.62469E-16
 -1      1771 2.21604E-04-1.07090E-04-2.65460E-16
 -1      1772 1.92129E-04-1.06124E-04-2.59843E-16
 -1      1773 2.33347E-04-1.27713E-04-3.77302E-16
 -1      1774 2.85164E-04-8.39327E-05-2.77420E-16
 -1      1775 2.54901E-04-9.91816E-05-2.71633E-16
 -1      1776 3.21866E-04-1.23142E-04-3.95605E-16
 -1      1777 3.33840E-04-3.71316E-05-2.87137E-16
 -1      1778 3.12305E-04-6.22090E-05-2.82638E-16
 -1      1779 4.09279E-04-7.99441E-05-4.13718E-16
 -1      1780 3.61876E-04 1.82250E-05-2.92680E-16
 -1      1781 3.50249E-04-9.54709E-06-2.90417E-16
 -1      1782 4.68972E-04-1.49793E-05-4.27528E-16
 -1      1783 3.73850E-04 7.21404E-05-2.92084E-16
 -1      1784 3.69219E-04 4.58061E-05-2.93453E-16
 -1      1785 4.99339E-04 5.46482E-05-4.34765E-16
 -1      1786 3.77434E-04 1.21495E-04-2.81730E-16
 -1      1787 3.76019E-04 9.74733E-05-2.88371E-16
 -1      1788 5.10093E-04 1.20265E-04-4.31865E-16
 -1      1789 3.80280E-04 1.68377E-04-2.56332E-16
 -1      1790 3.78221E-04 1.45130E-04-2.71660E-16
 -1      1791 5.12519E-04 1.80985E-04-4.14206E-16
 -1      1792 3.92836E-04 2.20316E-04-2.08844E-16
 -1      1793 3.84356E-04 1.93380E-04-2.36166E-16
 -1      1794 5.17738E-04 2.41361E-04-3.75053E-16
 -1      1795 4.53499E-04 2.85510E-04-1.79164E-16
 -1      1796 4.20697E-04 2.49965E-04-2.00726E-16
 -1      1797 5.52298E-04 3.04858E-04-3.39626E-16
 -1      1798 6.20030E-04 3.73386E-04-3.13782E-16
 -1      1799 4.76558E-04-1.85838E-04-9.97737E-17
 -1      1800 9.41985E-04 5.12926E-04-7.66301E-16
 -1      1801 7.83077E-04 4.48330E-04-5.10727E-16
 -1      1802 7.47052E-04 4.12936E-04-5.27085E-16
 -1      1803 6.31327E-04-2.44098E-04-1.93991E-16
 -1      1804 1.13600E-03-5.14651E-04-5.71903E-16
 -1      1805 1.34566E-03-6.41826E-04-8.25457E-16
 -1      1806 1.55502E-03-7.79869E-04-1.13435E-15
 -1      1807 1.75996E-03-9.25451E-04-1.50173E-15
 -1      1808 1.37728E-03-6.48465E-04-1.03094E-15
 -1      1809 1.96157E-03-1.07354E-03-1.93133E-15
 -1      1810 2.15678E-03-1.21335E-03-2.42502E-15
 -1      1811 1.79651E-03-9.43156E-04-1.77465E-15
 -1      1812 2.34361E-03-1.33594E-03-2.98657E-15
 -1      1813 2.52690E-03-1.42844E-03-3.61651E-15
 -1      1814 2.20260E-03-1.23460E-03-2.77035E-15
 -1      1815 2.70224E-03-1.48484E-03-4.31681E-15
 -1      1816 2.88100E-03-1.50202E-03-5.08796E-15
 -1      1817 2.58390E-03-1.42877E-03-4.04031E-15
 -1      1818 3.05863E-03-1.48299E-03-5.92957E-15
 -1      1819 3.24316E-03-1.43839E-03-6.83943E-15
 -1      1820 2.95595E-03-1.45931E-03-5.59492E-15
 -1      1821 3.43143E-03-1.37719E-03-7.81435E-15
 -1      1822 3.62234E-03-1.31170E-03-8.85336E-15
 -1      1823 3.34194E-03-1.35871E-03-7.42780E-15
 -1      1824 3.81592E-03-1.24998E-03-9.95115E-15
 -1      1825 4.00698E-03-1.19756E-03-1.11059E-14
 -1      1826 3.73933E-03-1.22199E-03-9.51699E-15
 -1      1827 4.19776E-03-1.15843E-03-1.23141E-14
 -1      1828 4.38402E-03-1.13264E-03-1.35721E-14
 -1      1829 4.12879E-03-1.11940E-03-1.18358E-14
 -1      1830 4.56823E-03-1.12065E-03-1.48799E-14
 -1      1831 4.74792E-03-1.12065E-03-1.62357E-14
 -1      1832 4.49914E-03-1.07308E-03-1.43600E-14
 -1      1833 4.92481E-03-1.13142E-03-1.76365E-14
 -1      1834 5.09797E-03-1.15103E-03-1.90836E-14
 -1      1835 4.85009E-03-1.07777E-03-1.70746E-14
 -1      1836 5.26825E-03-1.17786E-03-2.05759E-14
 -1      1837 5.43555E-03-1.21052E-03-2.21130E-14
 -1      1838 5.18566E-03-1.12009E-03-1.99717E-14
 -1      1839 5.60015E-03-1.24764E-03-2.36935E-14
 -1      1840 5.76237E-03-1.28827E-03-2.53184E-14
 -1      1841 5.50989E-03-1.18725E-03-2.30467E-14
 -1      1842 5.92222E-03-1.33143E-03-2.69871E-14
 -1      1843 6.08016E-03-1.37653E-03-2.86975E-14
 -1      1844 5.82559E-03-1.26959E-03-2.62979E-14
 -1      1845 6.23611E-03-1.42296E-03-3.04521E-14
 -1      1846 6.39052E-03-1.47032E-03-3.22482E-14
 -1      1847 6.13468E-03-1.36048E-03-2.97215E-14
 -1      1848 6.54332E-03-1.51826E-03-3.40859E-14
 -1      1849 6.69489E-03-1.56655E-03-3.59643E-14
 -1      1850 6.43850E-03-1.45568E-03-3.33138E-14
 -1      1851 6.84518E-03-1.61499E-03-3.78839E-14
 -1      1852 6.99450E-03-1.66344E-03-3.98431E-14
 -1      1853 6.73809E-03-1.55261E-03-3.70721E-14
 -1      1854 7.14284E-03-1.71181E-03-4.18427E-14
 -1      1855 7.29042E-03-1.76000E-03-4.38831E-14
 -1      1856 7.03431E-03-1.64978E-03-4.09934E-14
 -1      1857 7.43725E-03-1.80799E-03-4.59619E-14
 -1      1858 7.58350E-03-1.85572E-03-4.80823E-14
 -1      1859 7.32785E-03-1.74638E-03-4.50729E-14
 -1      1860 7.72918E-03-1.90320E-03-5.02418E-14
 -1      1861 7.87443E-03-1.95039E-03-5.24410E-14
 -1      1862 7.61930E-03-1.84201E-03-4.93128E-14
 -1      1863 8.01925E-03-1.99732E-03-5.46778E-14
 -1      1864 8.16375E-03-2.04397E-03-5.69510E-14
 -1      1865 7.90914E-03-1.93653E-03-5.37106E-14
 -1      1866 8.30794E-03-2.09037E-03-5.92630E-14
 -1      1867 8.45189E-03-2.13651E-03-6.16102E-14
 -1      1868 8.19776E-03-2.02994E-03-5.82599E-14
 -1      1869 8.59562E-03-2.18242E-03-6.39915E-14
 -1      1870 8.73918E-03-2.22811E-03-6.64087E-14
 -1      1871 8.48546E-03-2.12229E-03-6.29515E-14
 -1      1872 8.88258E-03-2.27359E-03-6.88601E-14
 -1      1873 9.02586E-03-2.31888E-03-7.13425E-14
 -1      1874 8.77249E-03-2.21372E-03-6.77830E-14
 -1      1875 9.16903E-03-2.36400E-03-7.38594E-14
 -1      1876 9.31211E-03-2.40895E-03-7.64070E-14
 -1      1877 9.05903E-03-2.30433E-03-7.27495E-14
 -1      1878 9.45512E-03-2.45375E-03-7.89861E-14
 -1      1879 9.59808E-03-2.49843E-03-8.15996E-14
 -1      1880 9.34523E-03-2.39426E-03-7.78450E-14
 -1      1881 9.74099E-03-2.54298E-03-8.42450E-14
 -1      1882 9.88386E-03-2.58743E-03-8.69221E-14
 -1      1883 9.63120E-03-2.48362E-03-8.30715E-14
 -1      1884 1.00267E-02-2.63178E-03-8.96296E-14
 -1      1885 1.01695E-02-2.67604E-03-9.23678E-14
 -1      1886 9.91700E-03-2.57252E-03-8.84255E-14
 -1      1887 1.03123E-02-2.72023E-03-9.51370E-14
 -1      1888 1.04551E-02-2.76435E-03-9.79363E-14
 -1      1889 1.02027E-02-2.66106E-03-9.39030E-14
 -1      1890 1.05979E-02-2.80842E-03-1.00765E-13
 -1      1891 1.07407E-02-2.85242E-03-1.03619E-13
 -1      1892 1.04884E-02-2.74930E-03-9.95013E-14
 -1      1893 1.08835E-02-2.89639E-03-1.06499E-13
 -1      1894 1.10262E-02-2.94031E-03-1.09408E-13
 -1      1895 1.07740E-02-2.83732E-03-1.05211E-13
 -1      1896 1.11690E-02-2.98420E-03-1.12341E-13
 -1      1897 1.13118E-02-3.02806E-03-1.15297E-13
 -1      1898 1.10596E-02-2.92517E-03-1.11024E-13
 -1      1899 1.14546E-02-3.07190E-03-1.18277E-13
 -1      1900 1.15974E-02-3.11571E-03-1.21278E-13
 -1      1901 1.13452E-02-3.01289E-03-1.16936E-13
 -1      1902 1.17402E-02-3.15951E-03-1.24299E-13
 -1      1903 1.18830E-02-3.20329E-03-1.27339E-13
 -1      1904 1.16308E-02-3.10051E-03-1.22937E-13
 -1      1905 1.20258E-02-3.24706E-03-1.30400E-13
 -1      1906 1.21686E-02-3.29081E-03-1.33481E-13
 -1      1907 1.19164E-02-3.18807E-03-1.29018E-13
 -1      1908 1.23114E-02-3.33456E-03-1.36579E-13
 -1      1909 1.24542E-02-3.37830E-03-1.39694E-13
 -1      1910 1.22020E-02-3.27558E-03-1.35177E-13
 -1      1911 1.25970E-02-3.42203E-03-1.42825E-13
 -1      1912 1.27398E-02-3.46576E-03-1.45976E-13
 -1      1913 1.24877E-02-3.36306E-03-1.41410E-13
 -1      1914 1.28827E-02-3.50949E-03-1.49144E-13
 -1      1915 1.30255E-02-3.55321E-03-1.52325E-13
 -1      1916 1.27733E-02-3.45052E-03-1.47713E-13
 -1      1917 1.31683E-02-3.59693E-03-1.55522E-13
 -1      1918 1.33112E-02-3.64065E-03-1.58736E-13
 -1      1919 1.30590E-02-3.53796E-03-1.54080E-13
 -1      1920 1.34540E-02-3.68437E-03-1.61967E-13
 -1      1921 1.35968E-02-3.72809E-03-1.65210E-13
 -1      1922 1.33447E-02-3.62540E-03-1.60508E-13
 -1      1923 1.37397E-02-3.77180E-03-1.68465E-13
 -1      1924 1.38825E-02-3.81552E-03-1.71734E-13
 -1      1925 1.36304E-02-3.71283E-03-1.66993E-13
 -1      1926 1.40254E-02-3.85924E-03-1.75015E-13
 -1      1927 1.41682E-02-3.90296E-03-1.78305E-13
 -1      1928 1.39161E-02-3.80027E-03-1.73528E-13
 -1      1929 1.43111E-02-3.94667E-03-1.81604E-13
 -1      1930 1.44539E-02-3.99039E-03-1.84917E-13
 -1      1931 1.42018E-02-3.88770E-03-1.80107E-13
 -1      1932 1.45968E-02-4.03411E-03-1.88237E-13
 -1      1933 1.47396E-02-4.07784E-03-1.91564E-13
 -1      1934 1.44875E-02-3.97514E-03-1.86725E-13
 -1      1935 1.48825E-02-4.12156E-03-1.94902E-13
 -1      1936 1.50253E-02-4.16528E-03-1.98249E-13
 -1      1937 1.47732E-02-4.06258E-03-1.93382E-13
 -1      1938 1.51550E-02-4.20613E-03-2.01242E-13
 -1      1939 1.52979E-02-4.24986E-03-2.04595E-13
 -1      1940 1.53052E-02-4.22886E-03-2.05707E-13
 -1      1941 1.50457E-02-4.14716E-03-1.99711E-13
 -1      1942 1.24575E-03 6.13304E-04-1.45432E-15
 -1      1943 1.09574E-03 5.67624E-04-1.08008E-15
 -1      1944 1.06416E-03 5.34433E-04-1.09353E-15
 -1      1945 1.53498E-03 6.77831E-04-2.38263E-15
 -1      1946 1.39180E-03 6.50127E-04-1.88822E-15
 -1      1947 1.36711E-03 6.20197E-04-1.89563E-15
 -1      1948 1.81422E-03 7.04501E-04-3.55216E-15
 -1      1949 1.67546E-03 6.96047E-04-2.93735E-15
 -1      1950 1.65814E-03 6.69468E-04-2.93729E-15
 -1      1951 2.08839E-03 6.91118E-04-4.96200E-15
 -1      1952 1.95151E-03 7.02781E-04-4.22701E-15
 -1      1953 1.94123E-03 6.79157E-04-4.21908E-15
 -1      1954 2.36248E-03 6.39012E-04-6.61076E-15
 -1      1955 2.22504E-03 6.69584E-04-5.75679E-15
 -1      1956 2.22112E-03 6.48105E-04-5.73996E-15
 -1      1957 2.64070E-03 5.54326E-04-8.49382E-15
 -1      1958 2.50078E-03 6.00188E-04-7.52309E-15
 -1      1959 2.50244E-03 5.79855E-04-7.49780E-15
 -1      1960 2.92551E-03 4.46808E-04-1.06062E-14
 -1      1961 2.78215E-03 5.02789E-04-9.52138E-15
 -1      1962 2.78852E-03 4.82714E-04-9.48743E-15
 -1      1963 3.21747E-03 3.27174E-04-1.29428E-14
 -1      1964 3.07063E-03 3.87950E-04-1.17472E-14
 -1      1965 3.08072E-03 3.67552E-04-1.17035E-14
 -1      1966 3.51551E-03 2.04629E-04-1.54921E-14
 -1      1967 3.36587E-03 2.65879E-04-1.41915E-14
 -1      1968 3.37859E-03 2.44910E-04-1.41383E-14
 -1      1969 3.81773E-03 8.54969E-05-1.82470E-14
 -1      1970 3.66628E-03 1.44432E-04-1.68445E-14
 -1      1971 3.68055E-03 1.22889E-04-1.67820E-14
 -1      1972 4.12205E-03-2.69114E-05-2.12002E-14
 -1      1973 3.96980E-03 2.83946E-05-1.96990E-14
 -1      1974 3.98467E-03 6.39512E-06-1.96265E-14
 -1      1975 4.42665E-03-1.31670E-04-2.43485E-14
 -1      1976 4.27445E-03-8.02121E-05-2.27504E-14
 -1      1977 4.28920E-03-1.02511E-04-2.26675E-14
 -1      1978 4.73019E-03-2.29361E-04-2.76859E-14
 -1      1979 4.57865E-03-1.81319E-04-2.59938E-14
 -1      1980 4.59282E-03-2.03770E-04-2.58999E-14
 -1      1981 5.03185E-03-3.21311E-04-3.12079E-14
 -1      1982 4.88131E-03-2.75963E-04-2.94239E-14
 -1      1983 4.89470E-03-2.98448E-04-2.93188E-14
 -1      1984 5.33119E-03-4.09042E-04-3.49035E-14
 -1      1985 5.18183E-03-3.65620E-04-3.30345E-14
 -1      1986 5.19440E-03-3.88054E-04-3.29164E-14
 -1      1987 5.62814E-03-4.93970E-04-3.87706E-14
 -1      1988 5.47996E-03-4.51788E-04-3.68168E-14
 -1      1989 5.49179E-03-4.74117E-04-3.66882E-14
 -1      1990 5.92280E-03-5.77259E-04-4.28062E-14
 -1      1991 5.77574E-03-5.35768E-04-4.07674E-14
 -1      1992 5.78696E-03-5.57962E-04-4.06275E-14
 -1      1993 6.21544E-03-6.59784E-04-4.70049E-14
 -1      1994 6.06935E-03-6.18581E-04-4.48849E-14
 -1      1995 6.08011E-03-6.40630E-04-4.47331E-14
 -1      1996 6.50634E-03-7.42158E-04-5.13642E-14
 -1      1997 6.36108E-03-7.00968E-04-4.91649E-14
 -1      1998 6.37151E-03-7.22872E-04-4.90009E-14
 -1      1999 6.79582E-03-8.24775E-04-5.58806E-14
 -1      2000 6.65123E-03-7.83424E-04-5.36034E-14
 -1      2001 6.66146E-03-8.05196E-04-5.34281E-14
 -1      2002 7.08418E-03-9.07861E-04-6.05520E-14
 -1      2003 6.94012E-03-8.66253E-04-5.81974E-14
 -1      2004 6.95022E-03-8.87908E-04-5.80111E-14
 -1      2005 7.37166E-03-9.91522E-04-6.53733E-14
 -1      2006 7.22801E-03-9.49618E-04-6.29432E-14
 -1      2007 7.23807E-03-9.71173E-04-6.27456E-14
 -1      2008 7.65850E-03-1.07578E-03-7.03390E-14
 -1      2009 7.51515E-03-1.03358E-03-6.78391E-14
 -1      2010 7.52521E-03-1.05505E-03-6.76294E-14
 -1      2011 7.94487E-03-1.16062E-03-7.54501E-14
 -1      2012 7.80173E-03-1.11813E-03-7.28771E-14
 -1      2013 7.81182E-03-1.13954E-03-7.26564E-14
 -1      2014 8.23091E-03-1.24598E-03-8.06960E-14
 -1      2015 8.08792E-03-1.20324E-03-7.80566E-14
 -1      2016 8.09806E-03-1.22459E-03-7.78239E-14
 -1      2017 8.51672E-03-1.33179E-03-8.60746E-14
 -1      2018 8.37384E-03-1.28883E-03-8.33688E-14
 -1      2019 8.38403E-03-1.31014E-03-8.31240E-14
 -1      2020 8.80240E-03-1.41798E-03-9.15837E-14
 -1      2021 8.65957E-03-1.37484E-03-8.88127E-14
 -1      2022 8.66982E-03-1.39612E-03-8.85570E-14
 -1      2023 9.08798E-03-1.50449E-03-9.72210E-14
 -1      2024 8.94520E-03-1.46120E-03-9.43864E-14
 -1      2025 8.95550E-03-1.48246E-03-9.41186E-14
 -1      2026 9.37353E-03-1.59124E-03-1.02979E-13
 -1      2027 9.23076E-03-1.54783E-03-1.00085E-13
 -1      2028 9.24111E-03-1.56908E-03-9.98035E-14
 -1      2029 9.65906E-03-1.67819E-03-1.08853E-13
 -1      2030 9.51630E-03-1.63469E-03-1.05903E-13
 -1      2031 9.52669E-03-1.65593E-03-1.05608E-13
 -1      2032 9.94459E-03-1.76530E-03-1.14835E-13
 -1      2033 9.80183E-03-1.72173E-03-1.11832E-13
 -1      2034 9.81225E-03-1.74295E-03-1.11525E-13
 -1      2035 1.02301E-02-1.85251E-03-1.20909E-13
 -1      2036 1.00874E-02-1.80889E-03-1.17862E-13
 -1      2037 1.00978E-02-1.83011E-03-1.17543E-13
 -1      2038 1.05157E-02-1.93981E-03-1.27073E-13
 -1      2039 1.03729E-02-1.89615E-03-1.23982E-13
 -1      2040 1.03834E-02-1.91737E-03-1.23653E-13
 -1      2041 1.08013E-02-2.02718E-03-1.33321E-13
 -1      2042 1.06585E-02-1.98349E-03-1.30185E-13
 -1      2043 1.06690E-02-2.00470E-03-1.29846E-13
 -1      2044 1.10869E-02-2.11458E-03-1.39645E-13
 -1      2045 1.09441E-02-2.07087E-03-1.36475E-13
 -1      2046 1.09546E-02-2.09209E-03-1.36121E-13
 -1      2047 1.13725E-02-2.20201E-03-1.46041E-13
 -1      2048 1.12297E-02-2.15829E-03-1.42834E-13
 -1      2049 1.12402E-02-2.17951E-03-1.42470E-13
 -1      2050 1.16582E-02-2.28946E-03-1.52497E-13
 -1      2051 1.15153E-02-2.24574E-03-1.49262E-13
 -1      2052 1.15259E-02-2.26695E-03-1.48887E-13
 -1      2053 1.19438E-02-2.37693E-03-1.59004E-13
 -1      2054 1.18010E-02-2.33319E-03-1.55745E-13
 -1      2055 1.18115E-02-2.35441E-03-1.55361E-13
 -1      2056 1.22295E-02-2.46440E-03-1.65546E-13
 -1      2057 1.20867E-02-2.42066E-03-1.62271E-13
 -1      2058 1.20972E-02-2.44188E-03-1.61878E-13
 -1      2059 1.25152E-02-2.55187E-03-1.72114E-13
 -1      2060 1.23723E-02-2.50813E-03-1.68829E-13
 -1      2061 1.23829E-02-2.52935E-03-1.68429E-13
 -1      2062 1.28009E-02-2.63934E-03-1.78703E-13
 -1      2063 1.26580E-02-2.59560E-03-1.75405E-13
 -1      2064 1.26686E-02-2.61682E-03-1.75004E-13
 -1      2065 1.30866E-02-2.72681E-03-1.85305E-13
 -1      2066 1.29437E-02-2.68307E-03-1.82003E-13
 -1      2067 1.29543E-02-2.70429E-03-1.81595E-13
 -1      2068 1.33723E-02-2.81427E-03-1.91922E-13
 -1      2069 1.32294E-02-2.77054E-03-1.88611E-13
 -1      2070 1.32400E-02-2.79176E-03-1.88202E-13
 -1      2071 1.36580E-02-2.90174E-03-1.98553E-13
 -1      2072 1.35151E-02-2.85801E-03-1.95236E-13
 -1      2073 1.35257E-02-2.87923E-03-1.94824E-13
 -1      2074 1.39437E-02-2.98920E-03-2.05196E-13
 -1      2075 1.38008E-02-2.94547E-03-2.01874E-13
 -1      2076 1.38114E-02-2.96669E-03-2.01462E-13
 -1      2077 1.41816E-02-3.06401E-03-2.10660E-13
 -1      2078 1.40387E-02-3.02028E-03-2.07335E-13
 -1      2079 1.40493E-02-3.04150E-03-2.06924E-13
 -1      2080 1.42393E-02-3.10367E-03-2.11204E-13
 -1      2081 1.44471E-02-3.32868E-03-2.10153E-13
 -1      2082 1.44041E-02-3.28653E-03-2.10212E-13
 -1      2083 1.43611E-02-3.24439E-03-2.10269E-13
 -1      2084 1.43181E-02-3.20224E-03-2.10328E-13
 -1      2085 1.42589E-02-3.22759E-03-2.07354E-13
 -1      2086 1.43002E-02-3.17403E-03-2.10741E-13
 -1      2087 1.42572E-02-3.13188E-03-2.10794E-13
 -1      2088 1.41622E-02-3.10080E-03-2.08652E-13
 -1      2089 1.41980E-02-3.15723E-03-2.07826E-13
 -1      2090 1.45317E-02-3.41155E-03-2.10027E-13
 -1      2091 1.44894E-02-3.37011E-03-2.10090E-13
 -1      2092 1.43442E-02-3.31117E-03-2.07233E-13
 -1      2093 1.46176E-02-3.49584E-03-2.09895E-13
 -1      2094 1.45747E-02-3.45369E-03-2.09962E-13
 -1      2095 1.44294E-02-3.39475E-03-2.07103E-13
 -1      2096 1.47036E-02-3.58014E-03-2.09751E-13
 -1      2097 1.46606E-02-3.53799E-03-2.09825E-13
 -1      2098 1.45154E-02-3.47905E-03-2.06963E-13
 -1      2099 1.47896E-02-3.66444E-03-2.09589E-13
 -1      2100 1.47466E-02-3.62229E-03-2.09673E-13
 -1      2101 1.46014E-02-3.56335E-03-2.06812E-13
 -1      2102 1.48756E-02-3.74874E-03-2.09401E-13
 -1      2103 1.48326E-02-3.70659E-03-2.09498E-13
 -1      2104 1.46874E-02-3.64765E-03-2.06642E-13
 -1      2105 1.49616E-02-3.83304E-03-2.09185E-13
 -1      2106 1.49186E-02-3.79089E-03-2.09298E-13
 -1      2107 1.47734E-02-3.73194E-03-2.06449E-13
 -1      2108 1.50462E-02-3.91590E-03-2.08948E-13
 -1      2109 1.50039E-02-3.87447E-03-2.09066E-13
 -1      2110 1.48587E-02-3.81553E-03-2.06229E-13
 -1      2111 1.51322E-02-4.00020E-03-2.08679E-13
 -1      2112 1.50892E-02-3.95805E-03-2.08815E-13
 -1      2113 1.49440E-02-3.89911E-03-2.05979E-13
 -1      2114 1.52182E-02-4.08449E-03-2.08395E-13
 -1      2115 1.51752E-02-4.04235E-03-2.08538E-13
 -1      2116 1.50300E-02-3.98341E-03-2.05705E-13
 -1      2117 1.53042E-02-4.16878E-03-2.08094E-13
 -1      2118 1.52612E-02-4.12664E-03-2.08247E-13
 -1      2119 1.51160E-02-4.06770E-03-2.05415E-13
 -1      2120 4.20999E-03-4.59291E-04-9.80732E-15
 -1      2121 4.35990E-03-5.04359E-04-9.98423E-15
 -1      2122 4.65453E-03-5.91764E-04-1.03555E-14
 -1      2123 4.67601E-03-6.01787E-04-1.03002E-14
 -1      2124 4.48260E-03-5.42074E-04-1.01553E-14
 -1      2125 4.57867E-03-5.69024E-04-1.03318E-14
 -1      2126 4.41889E-03-5.51535E-04-1.06721E-14
 -1      2127 3.80384E-03-3.01018E-04-9.15931E-15
 -1      2128 4.00465E-03-3.84201E-04-9.49535E-15
 -1      2129 3.34608E-03-6.07663E-05-8.03974E-15
 -1      2130 3.54034E-03-1.71569E-04-8.56258E-15
 -1      2131 2.56785E-04-2.01781E-05-2.27032E-16
 -1      2132 2.99033E-04-3.10196E-05-2.18684E-16
 -1      2133 4.36878E-04-8.30116E-05-3.21046E-16
 -1      2134 3.15453E-04-4.69789E-05-3.40805E-16
 -1      2135 2.61772E-03 3.07052E-04-5.93614E-15
 -1      2136 2.77343E-03 2.40322E-04-6.41953E-15
 -1      2137 2.32274E-03 3.75978E-04-4.98920E-15
 -1      2138 2.46767E-03 3.51838E-04-5.45186E-15
 -1      2139 2.53408E-03 3.32169E-04-5.83686E-15
 -1      2140 1.97838E-03 3.52263E-04-3.95531E-15
 -1      2141 2.12131E-03 3.78531E-04-4.37931E-15
 -1      2142 1.64825E-03 2.40518E-04-3.14963E-15
 -1      2143 1.79709E-03 2.98675E-04-3.49390E-15
 -1      2144 1.33693E-03 1.04090E-04-2.51295E-15
 -1      2145 1.49174E-03 1.76146E-04-2.82168E-15
 -1      2146 1.58283E-03 2.11207E-04-2.90382E-15
 -1      2147 9.57712E-04-4.84707E-05-1.94198E-15
 -1      2148 1.11853E-03 1.14221E-05-2.14802E-15
 -1      2149 6.74441E-04-1.46458E-04-1.54753E-15
 -1      2150 8.10063E-04-1.01828E-04-1.73664E-15
 -1      2151 8.85662E-04-8.99000E-05-1.69373E-15
 -1      2152 4.15161E-04-1.92712E-04-1.32570E-15
 -1      2153 5.14472E-04-1.80526E-04-1.39908E-15
 -1      2154 2.91389E-04-2.02053E-04-1.16416E-15
 -1      2155 3.39647E-04-2.02623E-04-1.23901E-15
 -1      2156 3.68716E-04-2.02455E-04-1.15157E-15
 -1      2157 2.94099E-04-2.00402E-04-1.16075E-15
 -1      2158 2.73774E-04-1.98937E-04-1.12719E-15
 -1      2159 4.31775E-04-2.17291E-04-1.21511E-15
 -1      2160 3.46248E-04-2.07773E-04-1.18362E-15
 -1      2161 3.20150E-04-1.75227E-04-1.02499E-15
 -1      2162 7.25164E-04-3.44415E-04-1.51666E-15
 -1      2163 5.81436E-04-2.78403E-04-1.37045E-15
 -1      2164 1.07129E-03-5.13286E-04-1.82150E-15
 -1      2165 8.86959E-04-4.21898E-04-1.66220E-15
 -1      2166 8.27236E-04-3.49207E-04-1.46811E-15
 -1      2167 1.50495E-03-7.83577E-04-2.32496E-15
 -1      2168 1.31566E-03-6.54152E-04-2.07260E-15
 -1      2169 1.87755E-03-1.04463E-03-2.93540E-15
 -1      2170 1.69894E-03-9.22974E-04-2.64122E-15
 -1      2171 2.24189E-03-1.25735E-03-3.62826E-15
 -1      2172 2.07541E-03-1.16222E-03-3.27004E-15
 -1      2173 2.59203E-03-1.37375E-03-4.57555E-15
 -1      2174 2.44548E-03-1.34088E-03-4.15377E-15
 -1      2175 2.88347E-03-1.35668E-03-5.43703E-15
 -1      2176 2.73818E-03-1.37802E-03-4.99668E-15
 -1      2177 2.67125E-03-1.39076E-03-4.78263E-15
 -1      2178 3.23341E-03-1.23659E-03-6.48041E-15
 -1      2179 3.08048E-03-1.30135E-03-6.03841E-15
 -1      2180 3.56006E-03-1.07698E-03-7.41879E-15
 -1      2181 3.39596E-03-1.16237E-03-6.94258E-15
 -1      2182 3.30400E-03-1.20534E-03-6.88842E-15
 -1      2183 3.95782E-03-8.87003E-04-8.39270E-15
 -1      2184 3.78600E-03-9.66437E-04-8.01028E-15
 -1      2185 4.26914E-03-7.55273E-04-9.13257E-15
 -1      2186 4.12317E-03-8.15927E-04-8.76263E-15
 -1      2187 4.52403E-03-6.62758E-04-9.83116E-15
 -1      2188 4.41804E-03-6.96409E-04-9.57394E-15
 -1      2189 4.65977E-03-6.18247E-04-1.01505E-14
 -1      2190 4.61193E-03-6.34011E-04-1.00044E-14
 -1      2191 2.96839E-03 1.49978E-04-6.96031E-15
 -1      2192 3.14309E-03 5.35224E-05-7.45397E-15
 -1      2193 3.20842E-03-1.23249E-05-8.01875E-15
 -1      2194 8.39699E-04-3.48175E-04-3.31102E-16
 -1      2195 2.83802E-03 1.94896E-04-6.87379E-15
 -1      2196 8.80851E-04-3.47727E-04-4.60569E-16
 -1      2197 4.62330E-03-5.95770E-04-1.08758E-14
 -1      2198 4.10390E-03-4.51919E-04-1.01688E-14
 -1      2199 1.52969E-02-4.18978E-03-2.06989E-13
 -1      2200 4.67725E-03-6.14720E-04-1.07494E-14
 -1      2201 3.65399E-03-2.55184E-04-9.22584E-15
 -1      2202 4.57478E-03-6.44382E-04-1.04176E-14
 -1      2203 4.34394E-03-7.15381E-04-9.78245E-15
 -1      2204 3.66549E-03-1.01884E-03-7.95910E-15
 -1      2205 2.97862E-03-1.34289E-03-5.80211E-15
 -1      2206 2.35889E-03-1.31057E-03-3.83179E-15
 -1      2207 2.00398E-03-1.10137E-03-3.00069E-15
 -1      2208 1.21647E-03-5.60213E-04-1.83374E-15
 -1      2209 5.10060E-04-2.17510E-04-1.18346E-15
 -1      2210 2.74411E-04-1.91072E-04-1.03741E-15
 -1      2211 5.89502E-04-1.72537E-04-1.36572E-15
 -1      2212 1.23141E-03 5.16459E-05-2.22688E-15
 -1      2213 2.21873E-03 3.90035E-04-4.72539E-15
 -1      2214 1.88952E-03 3.34441E-04-3.67035E-15
 -1      2215 1.63435E-03-8.40915E-04-2.37019E-15
 -1      2216 4.03527E-03-8.39045E-04-8.95200E-15
 -1      2217 1.12826E-03 5.20869E-04-1.33762E-15
 -1      2218 9.70319E-04 4.69098E-04-9.89687E-16
 -1      2219 2.23430E-04-1.28779E-04-4.90249E-16
 -1      2220 2.16363E-04-1.08220E-04-4.81914E-16
 -1      2221 2.36514E-04-8.60387E-05-4.75931E-16
 -1      2222 2.81685E-04-7.28729E-05-4.70639E-16
 -1      2223 4.27570E-04-1.26391E-04-5.41667E-16
 -1      2224 3.66339E-04-1.44699E-04-5.28040E-16
 -1      2225 5.31724E-04-6.21398E-05-5.67078E-16
 -1      2226 4.84707E-04-9.72325E-05-5.55247E-16
 -1      2227 5.50012E-04-1.14445E-04-7.16996E-16
 -1      2228 5.94473E-04 1.82426E-05-5.85090E-16
 -1      2229 5.68174E-04-2.21478E-05-5.77338E-16
 -1      2230 6.63932E-04-3.04612E-05-7.50200E-16
 -1      2231 6.22076E-04 9.76185E-05-5.92720E-16
 -1      2232 6.11560E-04 5.87620E-05-5.90294E-16
 -1      2233 7.24433E-04 6.14048E-05-7.71993E-16
 -1      2234 6.29673E-04 1.70613E-04-5.85618E-16
 -1      2235 6.27292E-04 1.34968E-04-5.91175E-16
 -1      2236 7.46652E-04 1.47208E-04-7.78660E-16
 -1      2237 6.31080E-04 2.39113E-04-5.58920E-16
 -1      2238 6.30298E-04 2.05149E-04-5.75305E-16
 -1      2239 7.50318E-04 2.25399E-04-7.66029E-16
 -1      2240 1.43523E-03 5.99361E-04-2.20925E-15
 -1      2241 1.28305E-03 5.64595E-04-1.74365E-15
 -1      2242 1.19952E-03 5.06149E-04-1.58993E-15
 -1      2243 1.20029E-03-5.16631E-04-9.24770E-16
 -1      2244 1.40873E-03-6.52971E-04-1.24167E-15
 -1      2245 2.74797E-03 2.31894E-04-6.83226E-15
 -1      2246 2.90884E-03 1.42305E-04-7.39080E-15
 -1      2247 1.62401E-03-8.02783E-04-1.61632E-15
 -1      2248 1.83846E-03-9.60626E-04-2.05138E-15
 -1      2249 1.43559E-03-6.58310E-04-1.45847E-15
 -1      2250 2.46387E-03-1.37384E-03-3.75088E-15
 -1      2251 2.65866E-03-1.43413E-03-4.46083E-15
 -1      2252 2.84678E-03-1.44252E-03-5.24704E-15
 -1      2253 3.04509E-03-1.41117E-03-6.10162E-15
 -1      2254 3.24663E-03-1.34748E-03-7.02284E-15
 -1      2255 3.45239E-03-1.27381E-03-8.01189E-15
 -1      2256 3.15444E-03-1.34273E-03-6.61786E-15
 -1      2257 3.66242E-03-1.19528E-03-9.06829E-15
 -1      2258 3.86493E-03-1.13086E-03-1.01792E-14
 -1      2259 4.06345E-03-1.08198E-03-1.13446E-14
 -1      2260 4.25275E-03-1.04721E-03-1.25612E-14
 -1      2261 4.00248E-03-1.04242E-03-1.08524E-14
 -1      2262 4.43625E-03-1.02841E-03-1.38276E-14
 -1      2263 4.61202E-03-1.02229E-03-1.51415E-14
 -1      2264 4.37981E-03-9.82114E-04-1.32956E-14
 -1      2265 4.78278E-03-1.02852E-03-1.65009E-14
 -1      2266 4.94856E-03-1.04385E-03-1.79055E-14
 -1      2267 4.72290E-03-9.79037E-04-1.59289E-14
 -1      2268 5.11089E-03-1.06736E-03-1.93556E-14
 -1      2269 5.27023E-03-1.09711E-03-2.08509E-14
 -1      2270 5.04337E-03-1.01573E-03-1.87430E-14
 -1      2271 5.42726E-03-1.13198E-03-2.23898E-14
 -1      2272 5.58249E-03-1.17079E-03-2.39719E-14
 -1      2273 5.35113E-03-1.07832E-03-2.17341E-14
 -1      2274 5.73608E-03-1.21260E-03-2.55990E-14
 -1      2275 5.88852E-03-1.25673E-03-2.72689E-14
 -1      2276 5.65206E-03-1.15724E-03-2.49019E-14
 -1      2277 6.03973E-03-1.30248E-03-2.89814E-14
 -1      2278 6.19012E-03-1.34946E-03-3.07357E-14
 -1      2279 5.94923E-03-1.24588E-03-2.82427E-14
 -1      2280 6.33953E-03-1.39720E-03-3.25321E-14
 -1      2281 6.48830E-03-1.44548E-03-3.43702E-14
 -1      2282 6.24405E-03-1.33982E-03-3.17533E-14
 -1      2283 6.63628E-03-1.49402E-03-3.62497E-14
 -1      2284 6.78374E-03-1.54268E-03-3.81706E-14
 -1      2285 6.53714E-03-1.43625E-03-3.54299E-14
 -1      2286 6.93057E-03-1.59131E-03-4.01316E-14
 -1      2287 7.07695E-03-1.63982E-03-4.21329E-14
 -1      2288 6.82882E-03-1.53342E-03-3.92719E-14
 -1      2289 7.22284E-03-1.68815E-03-4.41735E-14
 -1      2290 7.36836E-03-1.73625E-03-4.62536E-14
 -1      2291 7.11930E-03-1.63033E-03-4.32755E-14
 -1      2292 7.51349E-03-1.78408E-03-4.83739E-14
 -1      2293 7.65832E-03-1.83164E-03-5.05348E-14
 -1      2294 7.40875E-03-1.72642E-03-4.74379E-14
 -1      2295 7.80284E-03-1.87891E-03-5.27325E-14
 -1      2296 7.94714E-03-1.92590E-03-5.49693E-14
 -1      2297 7.69732E-03-1.82147E-03-5.17570E-14
 -1      2298 8.09120E-03-1.97261E-03-5.72460E-14
 -1      2299 8.23508E-03-2.01905E-03-5.95559E-14
 -1      2300 7.98518E-03-1.91540E-03-5.62318E-14
 -1      2301 8.37877E-03-2.06523E-03-6.19023E-14
 -1      2302 8.52234E-03-2.11117E-03-6.42825E-14
 -1      2303 8.27246E-03-2.00824E-03-6.08544E-14
 -1      2304 8.66576E-03-2.15689E-03-6.66972E-14
 -1      2305 8.80909E-03-2.20239E-03-6.91474E-14
 -1      2306 8.55929E-03-2.10010E-03-6.56152E-14
 -1      2307 8.95232E-03-2.24770E-03-7.16293E-14
 -1      2308 9.09548E-03-2.29282E-03-7.41446E-14
 -1      2309 8.84578E-03-2.19108E-03-7.05127E-14
 -1      2310 9.23856E-03-2.33779E-03-7.66938E-14
 -1      2311 9.38160E-03-2.38260E-03-7.92741E-14
 -1      2312 9.13200E-03-2.28132E-03-7.55436E-14
 -1      2313 9.52459E-03-2.42728E-03-8.18871E-14
 -1      2314 9.66754E-03-2.47184E-03-8.45341E-14
 -1      2315 9.41803E-03-2.37094E-03-8.07057E-14
 -1      2316 9.81045E-03-2.51629E-03-8.72105E-14
 -1      2317 9.95335E-03-2.56064E-03-8.99184E-14
 -1      2318 9.70393E-03-2.46004E-03-8.59968E-14
 -1      2319 1.00962E-02-2.60490E-03-9.26582E-14
 -1      2320 1.02391E-02-2.64909E-03-9.54268E-14
 -1      2321 9.98974E-03-2.54874E-03-9.14146E-14
 -1      2322 1.03819E-02-2.69321E-03-9.82262E-14
 -1      2323 1.05248E-02-2.73727E-03-1.01055E-13
 -1      2324 1.02755E-02-2.63711E-03-9.69539E-14
 -1      2325 1.06676E-02-2.78127E-03-1.03909E-13
 -1      2326 1.08104E-02-2.82524E-03-1.06789E-13
 -1      2327 1.05612E-02-2.72522E-03-1.02608E-13
 -1      2328 1.09532E-02-2.86916E-03-1.09695E-13
 -1      2329 1.10960E-02-2.91304E-03-1.12629E-13
 -1      2330 1.08469E-02-2.81314E-03-1.08370E-13
 -1      2331 1.12389E-02-2.95690E-03-1.15583E-13
 -1      2332 1.13817E-02-3.00074E-03-1.18563E-13
 -1      2333 1.11325E-02-2.90091E-03-1.14234E-13
 -1      2334 1.15245E-02-3.04455E-03-1.21565E-13
 -1      2335 1.16673E-02-3.08834E-03-1.24584E-13
 -1      2336 1.14182E-02-2.98857E-03-1.20191E-13
 -1      2337 1.18101E-02-3.13212E-03-1.27625E-13
 -1      2338 1.19530E-02-3.17588E-03-1.30685E-13
 -1      2339 1.17039E-02-3.07616E-03-1.26233E-13
 -1      2340 1.20958E-02-3.21964E-03-1.33764E-13
 -1      2341 1.22386E-02-3.26338E-03-1.36864E-13
 -1      2342 1.19895E-02-3.16369E-03-1.32353E-13
 -1      2343 1.23815E-02-3.30712E-03-1.39982E-13
 -1      2344 1.25243E-02-3.35085E-03-1.43116E-13
 -1      2345 1.22752E-02-3.25118E-03-1.38552E-13
 -1      2346 1.26671E-02-3.39458E-03-1.46269E-13
 -1      2347 1.28100E-02-3.43830E-03-1.49441E-13
 -1      2348 1.25609E-02-3.33864E-03-1.44827E-13
 -1      2349 1.29528E-02-3.48203E-03-1.52624E-13
 -1      2350 1.30956E-02-3.52575E-03-1.55820E-13
 -1      2351 1.28466E-02-3.42609E-03-1.51166E-13
 -1      2352 1.32385E-02-3.56946E-03-1.59037E-13
 -1      2353 1.33813E-02-3.61318E-03-1.62267E-13
 -1      2354 1.31323E-02-3.51353E-03-1.57565E-13
 -1      2355 1.35242E-02-3.65690E-03-1.65509E-13
 -1      2356 1.36670E-02-3.70061E-03-1.68762E-13
 -1      2357 1.34180E-02-3.60096E-03-1.64024E-13
 -1      2358 1.38099E-02-3.74433E-03-1.72028E-13
 -1      2359 1.39527E-02-3.78805E-03-1.75307E-13
 -1      2360 1.37037E-02-3.68840E-03-1.70531E-13
 -1      2361 1.40956E-02-3.83177E-03-1.78596E-13
 -1      2362 1.42384E-02-3.87548E-03-1.81894E-13
 -1      2363 1.39894E-02-3.77583E-03-1.77084E-13
 -1      2364 1.43813E-02-3.91920E-03-1.85205E-13
 -1      2365 1.45241E-02-3.96292E-03-1.88522E-13
 -1      2366 1.42751E-02-3.86327E-03-1.83682E-13
 -1      2367 1.46670E-02-4.00664E-03-1.91848E-13
 -1      2368 1.48098E-02-4.05037E-03-1.95183E-13
 -1      2369 1.45608E-02-3.95071E-03-1.90316E-13
 -1      2370 4.36348E-03-5.55511E-04-1.11306E-14
 -1      2371 4.47825E-03-5.82600E-04-1.13134E-14
 -1      2372 2.02171E-03 6.41176E-04-4.66801E-15
 -1      2373 1.87728E-03 6.46354E-04-3.96383E-15
 -1      2374 2.30909E-03 5.99793E-04-6.25535E-15
 -1      2375 2.16524E-03 6.25552E-04-5.43153E-15
 -1      2376 2.10645E-03 6.01137E-04-5.12220E-15
 -1      2377 2.59853E-03 5.21765E-04-8.07863E-15
 -1      2378 2.45323E-03 5.64842E-04-7.13822E-15
 -1      2379 2.40038E-03 5.48735E-04-6.77613E-15
 -1      2380 2.89268E-03 4.17053E-04-1.01314E-14
 -1      2381 2.74490E-03 4.72038E-04-9.07674E-15
 -1      2382 2.69729E-03 4.60670E-04-8.66421E-15
 -1      2383 3.19203E-03 2.97410E-04-1.24081E-14
 -1      2384 3.04178E-03 3.58409E-04-1.12420E-14
 -1      2385 2.99908E-03 3.48678E-04-1.07802E-14
 -1      2386 3.49534E-03 1.73303E-04-1.48994E-14
 -1      2387 3.34337E-03 2.35396E-04-1.36274E-14
 -1      2388 3.30515E-03 2.25281E-04-1.31159E-14
 -1      2389 3.80069E-03 5.20544E-05-1.75967E-14
 -1      2390 3.64796E-03 1.12014E-04-1.62228E-14
 -1      2391 3.61345E-03 1.00572E-04-1.56640E-14
 -1      2392 4.10625E-03-6.23995E-05-2.04928E-14
 -1      2393 3.95361E-03-6.14777E-06-1.90206E-14
 -1      2394 3.92174E-03-1.91381E-05-1.84150E-14
 -1      2395 4.41068E-03-1.68827E-04-2.35828E-14
 -1      2396 4.25872E-03-1.16621E-04-2.20137E-14
 -1      2397 4.22837E-03-1.31009E-04-2.13615E-14
 -1      2398 4.71318E-03-2.67714E-04-2.68621E-14
 -1      2399 4.56224E-03-2.19152E-04-2.51995E-14
 -1      2400 4.53244E-03-2.34645E-04-2.45003E-14
 -1      2401 5.01340E-03-3.60400E-04-3.03249E-14
 -1      2402 4.86361E-03-3.14745E-04-2.85705E-14
 -1      2403 4.83368E-03-3.31026E-04-2.78257E-14
 -1      2404 5.31124E-03-4.48484E-04-3.39642E-14
 -1      2405 5.16262E-03-4.04929E-04-3.21226E-14
 -1      2406 5.13216E-03-4.21709E-04-3.13318E-14
 -1      2407 5.60685E-03-5.33473E-04-3.77745E-14
 -1      2408 5.45931E-03-4.91289E-04-3.58487E-14
 -1      2409 5.42815E-03-5.08329E-04-3.50120E-14
 -1      2410 5.90043E-03-6.16620E-04-4.17544E-14
 -1      2411 5.75387E-03-5.75216E-04-3.97439E-14
 -1      2412 5.72199E-03-5.92333E-04-3.88634E-14
 -1      2413 6.19226E-03-6.98879E-04-4.58970E-14
 -1      2414 6.04654E-03-6.57815E-04-4.38050E-14
 -1      2415 6.01402E-03-6.74880E-04-4.28803E-14
 -1      2416 6.48263E-03-7.80923E-04-5.02010E-14
 -1      2417 6.33761E-03-7.39896E-04-4.80288E-14
 -1      2418 6.30456E-03-7.56823E-04-4.70606E-14
 -1      2419 6.77179E-03-8.63189E-04-5.46638E-14
 -1      2420 6.62734E-03-8.22008E-04-5.24136E-14
 -1      2421 6.59390E-03-8.38748E-04-5.14019E-14
 -1      2422 7.06000E-03-9.45935E-04-5.92818E-14
 -1      2423 6.91600E-03-9.04491E-04-5.69527E-14
 -1      2424 6.88228E-03-9.21025E-04-5.58996E-14
 -1      2425 7.34746E-03-1.02929E-03-6.40495E-14
 -1      2426 7.20381E-03-9.87529E-04-6.16472E-14
 -1      2427 7.16992E-03-1.00386E-03-6.05519E-14
 -1      2428 7.63435E-03-1.11327E-03-6.89651E-14
 -1      2429 7.49096E-03-1.07120E-03-6.64893E-14
 -1      2430 7.45699E-03-1.08733E-03-6.53528E-14
 -1      2431 7.92082E-03-1.19788E-03-7.40223E-14
 -1      2432 7.77763E-03-1.15550E-03-7.14772E-14
 -1      2433 7.74362E-03-1.17146E-03-7.03001E-14
 -1      2434 8.20699E-03-1.28304E-03-7.92165E-14
 -1      2435 8.06394E-03-1.24039E-03-7.66031E-14
 -1      2436 8.02993E-03-1.25620E-03-7.53870E-14
 -1      2437 8.49294E-03-1.36870E-03-8.45455E-14
 -1      2438 8.34998E-03-1.32581E-03-8.18641E-14
 -1      2439 8.31601E-03-1.34149E-03-8.06085E-14
 -1      2440 8.77874E-03-1.45477E-03-9.00039E-14
 -1      2441 8.63585E-03-1.41169E-03-8.72586E-14
 -1      2442 8.60192E-03-1.42726E-03-8.59639E-14
 -1      2443 9.06445E-03-1.54118E-03-9.55894E-14
 -1      2444 8.92160E-03-1.49793E-03-9.27805E-14
 -1      2445 8.88772E-03-1.51342E-03-9.14475E-14
 -1      2446 9.35010E-03-1.62786E-03-1.01297E-13
 -1      2447 9.20728E-03-1.58449E-03-9.84282E-14
 -1      2448 9.17345E-03-1.59991E-03-9.70571E-14
 -1      2449 9.63572E-03-1.71476E-03-1.07123E-13
 -1      2450 9.49292E-03-1.67129E-03-1.04197E-13
 -1      2451 9.45913E-03-1.68666E-03-1.02787E-13
 -1      2452 9.92133E-03-1.80183E-03-1.13056E-13
 -1      2453 9.77853E-03-1.75827E-03-1.10076E-13
 -1      2454 9.74479E-03-1.77361E-03-1.08633E-13
 -1      2455 1.02069E-02-1.88902E-03-1.19089E-13
 -1      2456 1.00641E-02-1.84541E-03-1.16061E-13
 -1      2457 1.00304E-02-1.86071E-03-1.14583E-13
 -1      2458 1.04926E-02-1.97630E-03-1.25212E-13
 -1      2459 1.03497E-02-1.93265E-03-1.22141E-13
 -1      2460 1.03161E-02-1.94793E-03-1.20633E-13
 -1      2461 1.07782E-02-2.06365E-03-1.31418E-13
 -1      2462 1.06354E-02-2.01997E-03-1.28305E-13
 -1      2463 1.06017E-02-2.03523E-03-1.26769E-13
 -1      2464 1.10638E-02-2.15104E-03-1.37702E-13
 -1      2465 1.09210E-02-2.10734E-03-1.34549E-13
 -1      2466 1.08874E-02-2.12260E-03-1.32985E-13
 -1      2467 1.13495E-02-2.23847E-03-1.44059E-13
 -1      2468 1.12066E-02-2.19476E-03-1.40873E-13
 -1      2469 1.11730E-02-2.21001E-03-1.39279E-13
 -1      2470 1.16351E-02-2.32592E-03-1.50482E-13
 -1      2471 1.14923E-02-2.28220E-03-1.47263E-13
 -1      2472 1.14587E-02-2.29744E-03-1.45645E-13
 -1      2473 1.19208E-02-2.41339E-03-1.56959E-13
 -1      2474 1.17780E-02-2.36965E-03-1.53713E-13
 -1      2475 1.17444E-02-2.38490E-03-1.52073E-13
 -1      2476 1.22065E-02-2.50086E-03-1.63478E-13
 -1      2477 1.20636E-02-2.45712E-03-1.60214E-13
 -1      2478 1.20301E-02-2.47237E-03-1.58554E-13
 -1      2479 1.24922E-02-2.58833E-03-1.70028E-13
 -1      2480 1.23493E-02-2.54459E-03-1.66750E-13
 -1      2481 1.23158E-02-2.55984E-03-1.65075E-13
 -1      2482 1.27779E-02-2.67580E-03-1.76603E-13
 -1      2483 1.26350E-02-2.63206E-03-1.73315E-13
 -1      2484 1.26014E-02-2.64731E-03-1.71626E-13
 -1      2485 1.30636E-02-2.76327E-03-1.83194E-13
 -1      2486 1.29207E-02-2.71954E-03-1.79895E-13
 -1      2487 1.28871E-02-2.73478E-03-1.78200E-13
 -1      2488 1.33493E-02-2.85074E-03-1.89803E-13
 -1      2489 1.32064E-02-2.80701E-03-1.86497E-13
 -1      2490 1.31728E-02-2.82225E-03-1.84794E-13
 -1      2491 1.36350E-02-2.93821E-03-1.96429E-13
 -1      2492 1.34921E-02-2.89447E-03-1.93115E-13
 -1      2493 1.34586E-02-2.90972E-03-1.91406E-13
 -1      2494 1.39207E-02-3.02567E-03-2.03072E-13
 -1      2495 1.37778E-02-2.98194E-03-1.99751E-13
 -1      2496 1.37443E-02-2.99719E-03-1.98037E-13
 -1      2497 1.40672E-02-3.06972E-03-2.06511E-13
 -1      2498 1.43272E-02-3.37796E-03-2.04178E-13
 -1      2499 1.42842E-02-3.33581E-03-2.04248E-13
 -1      2500 1.44132E-02-3.46225E-03-2.04034E-13
 -1      2501 1.43702E-02-3.42011E-03-2.04106E-13
 -1      2502 1.42250E-02-3.36116E-03-2.01256E-13
 -1      2503 1.41567E-02-3.21080E-03-2.04438E-13
 -1      2504 1.41137E-02-3.16865E-03-2.04497E-13
 -1      2505 1.42416E-02-3.29402E-03-2.04314E-13
 -1      2506 1.41993E-02-3.25259E-03-2.04377E-13
 -1      2507 1.40541E-02-3.19364E-03-2.01525E-13
 -1      2508 1.41394E-02-3.27722E-03-2.01395E-13
 -1      2509 1.44992E-02-3.54655E-03-2.03873E-13
 -1      2510 1.44562E-02-3.50440E-03-2.03954E-13
 -1      2511 1.43110E-02-3.44546E-03-2.01104E-13
 -1      2512 1.45852E-02-3.63085E-03-2.03697E-13
 -1      2513 1.45422E-02-3.58870E-03-2.03789E-13
 -1      2514 1.43970E-02-3.52976E-03-2.00939E-13
 -1      2515 1.46712E-02-3.71515E-03-2.03496E-13
 -1      2516 1.46282E-02-3.67300E-03-2.03598E-13
 -1      2517 1.44830E-02-3.61406E-03-2.00753E-13
 -1      2518 1.47557E-02-3.79802E-03-2.03269E-13
 -1      2519 1.47135E-02-3.75659E-03-2.03386E-13
 -1      2520 1.45682E-02-3.69765E-03-2.00544E-13
 -1      2521 1.48417E-02-3.88232E-03-2.03014E-13
 -1      2522 1.47987E-02-3.84017E-03-2.03145E-13
 -1      2523 1.46535E-02-3.78123E-03-2.00310E-13
 -1      2524 1.49277E-02-3.96661E-03-2.02735E-13
 -1      2525 1.48847E-02-3.92447E-03-2.02877E-13
 -1      2526 1.47395E-02-3.86553E-03-2.00051E-13
 -1      2527 1.50138E-02-4.05090E-03-2.02439E-13
 -1      2528 1.49708E-02-4.00876E-03-2.02588E-13
 -1      2529 1.48255E-02-3.94982E-03-1.99767E-13
 -1      2530 1.51672E-02-4.14893E-03-2.03988E-13
 -1      2531 4.69217E-03-6.22583E-04-1.14274E-14
 -1      2532 4.67590E-03-6.25174E-04-1.12727E-14
 -1      2533 1.73195E-03 6.40820E-04-3.31934E-15
 -1      2534 1.58460E-03 6.25093E-04-2.73433E-15
 -1      2535 1.81124E-03 6.10813E-04-3.70672E-15
 -1      2536 4.01570E-03-4.40963E-04-1.05708E-14
 -1      2537 4.20153E-03-5.07316E-04-1.09051E-14
 -1      2538 4.62882E-03-6.36479E-04-1.10825E-14
 -1      2539 4.55089E-03-6.53941E-04-1.08964E-14
 -1      2540 4.67075E-03-6.39023E-04-1.17599E-14
 -1      2541 7.27612E-04-2.43442E-04-4.22636E-16
 -1      2542 9.98913E-04-3.94668E-04-6.91585E-16
 -1      2543 1.02258E-03-3.91304E-04-8.50760E-16
 -1      2544 6.57774E-04-1.91652E-04-4.50215E-16
 -1      2545 3.52066E-03-2.09648E-04-9.39816E-15
 -1      2546 3.75922E-03-3.30594E-04-1.00252E-14
 -1      2547 2.53907E-03-1.38708E-03-4.26048E-15
 -1      2548 2.37530E-03-1.31715E-03-3.72990E-15
 -1      2549 2.13876E-03 3.96079E-04-4.49920E-15
 -1      2550 2.29988E-03 3.90830E-04-5.11172E-15
 -1      2551 3.05595E-04-1.51446E-04-5.13620E-16
 -1      2552 2.56638E-04-1.45810E-04-5.01504E-16
 -1      2553 3.97080E-04-1.63639E-04-6.77816E-16
 -1      2554 1.79144E-03 3.07115E-04-3.35092E-15
 -1      2555 1.93527E-03 3.60079E-04-3.79197E-15
 -1      2556 2.42050E-03 3.67756E-04-5.57638E-15
 -1      2557 2.54046E-03 3.25016E-04-6.06234E-15
 -1      2558 2.32577E-03 3.87920E-04-5.31893E-15
 -1      2559 1.76662E-03-9.13885E-04-2.42487E-15
 -1      2560 1.59121E-03-7.80243E-04-2.13149E-15
 -1      2561 1.53478E-03 1.92399E-04-2.70606E-15
 -1      2562 1.66571E-03 2.54854E-04-3.01923E-15
 -1      2563 1.72172E-03 2.90520E-04-3.12821E-15
 -1      2564 1.13643E-03 8.00207E-06-1.93901E-15
 -1      2565 1.32810E-03 9.64162E-05-2.27432E-15
 -1      2566 8.22644E-04-1.12352E-04-1.48145E-15
 -1      2567 9.54770E-04-6.57333E-05-1.66311E-15
 -1      2568 5.06108E-04-1.90286E-04-1.17168E-15
 -1      2569 6.46711E-04-1.63295E-04-1.29698E-15
 -1      2570 3.35178E-04-1.97108E-04-9.93665E-16
 -1      2571 4.03535E-04-2.00190E-04-1.06710E-15
 -1      2572 3.38391E-04-1.50988E-04-9.09056E-16
 -1      2573 2.90334E-04-1.56361E-04-8.92281E-16
 -1      2574 6.05226E-04-2.19786E-04-1.13277E-15
 -1      2575 4.57731E-04-1.72173E-04-9.96761E-16
 -1      2576 9.11130E-04-3.56475E-04-1.39783E-15
 -1      2577 7.62268E-04-2.87215E-04-1.27410E-15
 -1      2578 4.12277E-03-8.00494E-04-9.61227E-15
 -1      2579 3.97706E-03-8.66000E-04-9.21989E-15
 -1      2580 1.33016E-03-5.98319E-04-1.78517E-15
 -1      2581 1.11323E-03-4.63937E-04-1.56738E-15
 -1      2582 2.09821E-03-1.15396E-03-3.02509E-15
 -1      2583 1.93849E-03-1.03814E-03-2.71473E-15
 -1      2584 1.86841E-03-9.78450E-04-2.44437E-15
 -1      2585 3.02816E-03-1.34757E-03-6.07544E-15
 -1      2586 2.87164E-03-1.39617E-03-5.47107E-15
 -1      2587 3.38343E-03-1.17646E-03-7.36324E-15
 -1      2588 3.24914E-03-1.24888E-03-6.88300E-15
 -1      2589 3.77359E-03-9.66531E-04-8.63151E-15
 -1      2590 3.57710E-03-1.07224E-03-8.01168E-15
 -1      2591 4.41628E-03-6.93933E-04-1.05271E-14
 -1      2592 4.27618E-03-7.39623E-04-1.00655E-14
 -1      2593 4.22582E-03-7.72895E-04-1.03410E-14
 -1      2594 4.59480E-03-6.08746E-04-1.15451E-14
 -1      2595 4.66640E-03-6.16782E-04-1.15734E-14
 -1      2596 8.43432E-04 4.26842E-04-7.44495E-16
 -1      2597 6.81405E-04 3.59737E-04-5.00779E-16
 -1      2598 6.54585E-04 3.27468E-04-5.04317E-16
 -1      2599 9.12332E-04 4.19405E-04-9.35694E-16
 -1      2600 3.08286E-03 4.28813E-05-7.97279E-15
 -1      2601 3.26366E-03-6.59524E-05-8.57718E-15
 -1      2602 2.98475E-03 9.21961E-05-7.91892E-15
 -1      2603 2.48913E-04-1.19555E-04-6.20218E-16
 -1      2604 3.51322E-04-9.86533E-05-6.13496E-16
 -1      2605 3.37014E-04-7.05318E-05-4.68619E-16
 -1      2606 1.92696E-03 3.72843E-04-3.78468E-15
 -1      2607 2.03035E-03 3.89422E-04-4.13347E-15
 -1      2608 2.10832E-03 4.03914E-04-4.48393E-15
 -1      2609 1.50995E-03 5.77503E-04-2.52988E-15
 -1      2610 6.46510E-04 2.90912E-04-5.40109E-16
 -1      2611 4.69681E-03-6.30501E-04-1.21018E-14
 -1      2612 1.01620E-03-3.93806E-04-1.35640E-15
 -1      2613 4.11454E-04-8.06033E-05-4.61464E-16
 -1      2614 3.39563E-03-1.45979E-04-9.33688E-15
 -1      2615 6.71933E-04-2.26130E-04-1.06987E-15
 -1      2616 3.95830E-04-1.43205E-04-8.59671E-16
 -1      2617 2.22664E-03-1.23669E-03-3.04912E-15
 -1      2618 2.28961E-03-1.27331E-03-3.39247E-15
 -1      2619 2.01647E-03-1.09243E-03-2.48982E-15
 -1      2620 4.55905E-03-6.10442E-04-1.20109E-14
 -1      2621 3.58552E-03-1.17512E-03-8.61298E-15
 -1      2622 4.28682E-03-5.42606E-04-1.15413E-14
 -1      2623 1.40336E-02-3.08497E-03-2.04799E-13
 -1      2624 1.40515E-02-3.11318E-03-2.04383E-13
 -1      2625 2.91032E-04-1.89282E-04-9.29012E-16
 -1      2626 3.08330E-04-1.85351E-04-8.47731E-16
 -1      2627 1.50339E-02-4.11857E-03-2.00439E-13
 -1      2628 1.50256E-02-4.07949E-03-2.01717E-13
 -1      2629 1.48804E-02-4.02055E-03-1.98896E-13
 -1      2630 1.49042E-02-4.07772E-03-1.97450E-13
 -1      2631 4.47361E-04-1.90721E-04-1.00300E-15
 -1      2632 7.09258E-04-1.40265E-04-1.26751E-15
 -1      2633 7.63330E-04 3.18245E-04-7.35197E-16
 -1      2634 3.88723E-03-3.93284E-04-1.07435E-14
 -1      2635 1.41227E-03 1.47081E-04-2.37270E-15
 -1      2636 4.50378E-03-6.78746E-04-1.11858E-14
 -1      2637 3.88852E-03-9.25650E-04-9.27051E-15
 -1      2638 3.51658E-03-1.12645E-03-7.99977E-15
 -1      2639 1.45628E-03-6.75240E-04-1.82860E-15
 -1      2640 2.73915E-03-1.42397E-03-4.89618E-15
 -1      2641 2.62537E-03 2.86336E-04-6.53996E-15
 -1      2642 2.69073E-04-1.58908E-04-6.42071E-16
 -1      2643 4.96502E-04-1.06966E-04-4.68091E-16
 -1      2644 5.74783E-04-1.42553E-04-4.53332E-16
 -1      2645 7.34478E-04-2.22035E-04-6.34258E-16
 -1      2646 5.26737E-04-1.30077E-04-6.23599E-16
 -1      2647 1.04581E-03-1.94722E-05-1.69951E-15
 -1      2648 2.65792E-04-1.72019E-04-8.95009E-16
 -1      2649 2.65068E-03-1.40380E-03-4.66445E-15
 -1      2650 1.47980E-02-4.02178E-03-1.95907E-13
 -1      2651 1.39493E-02-3.09639E-03-2.01473E-13
 -1      2652 6.90892E-04-8.85910E-05-9.23700E-16
 -1      2653 6.07195E-04-1.31092E-04-8.98478E-16
 -1      2654 8.93514E-04 2.08073E-04-1.03316E-15
 -1      2655 8.89231E-04 1.64579E-04-1.03364E-15
 -1      2656 8.92600E-04 2.89897E-04-1.01266E-15
 -1      2657 8.93639E-04 2.49541E-04-1.02647E-15
 -1      2658 1.03985E-03 2.71514E-04-1.32704E-15
 -1      2659 1.27725E-03 4.90530E-04-1.85090E-15
 -1      2660 1.11725E-03 4.46105E-04-1.43539E-15
 -1      2661 3.79631E-03-3.54904E-04-1.11022E-14
 -1      2662 4.02493E-03-4.55389E-04-1.16783E-14
 -1      2663 2.90653E-03 1.36299E-04-7.90343E-15
 -1      2664 3.06028E-03 4.45548E-05-8.50338E-15
 -1      2665 1.83748E-03-9.54977E-04-2.27253E-15
 -1      2666 4.51521E-03-6.11188E-04-1.25933E-14
 -1      2667 4.62282E-03-6.31045E-04-1.28362E-14
 -1      2668 4.24029E-03-5.35107E-04-1.21051E-14
 -1      2669 4.38492E-03-5.78055E-04-1.23459E-14
 -1      2670 1.38686E-02-3.10813E-03-1.98262E-13
 -1      2671 1.38065E-02-3.05265E-03-1.98150E-13
 -1      2672 1.36636E-02-3.00892E-03-1.94833E-13
 -1      2673 4.33511E-03-9.33053E-04-1.27626E-14
 -1      2674 4.50790E-03-9.24089E-04-1.40369E-14
 -1      2675 4.67231E-03-9.29320E-04-1.53575E-14
 -1      2676 4.83016E-03-9.43120E-04-1.67220E-14
 -1      2677 4.63119E-03-8.78065E-04-1.47869E-14
 -1      2678 4.98343E-03-9.65301E-04-1.81318E-14
 -1      2679 5.13344E-03-9.93303E-04-1.95849E-14
 -1      2680 4.93094E-03-9.15392E-04-1.75223E-14
 -1      2681 5.28115E-03-1.02654E-03-2.10821E-14
 -1      2682 5.42761E-03-1.06362E-03-2.26230E-14
 -1      2683 5.21722E-03-9.76374E-04-2.04323E-14
 -1      2684 5.57305E-03-1.10386E-03-2.42076E-14
 -1      2685 5.71813E-03-1.14654E-03-2.58358E-14
 -1      2686 5.49895E-03-1.05240E-03-2.35165E-14
 -1      2687 5.86277E-03-1.19104E-03-2.75063E-14
 -1      2688 6.00739E-03-1.23698E-03-2.92196E-14
 -1      2689 5.78029E-03-1.13804E-03-2.67729E-14
 -1      2690 6.15178E-03-1.28389E-03-3.09758E-14
 -1      2691 6.29622E-03-1.33153E-03-3.27726E-14
 -1      2692 6.06270E-03-1.22952E-03-3.02007E-14
 -1      2693 6.44052E-03-1.37960E-03-3.46122E-14
 -1      2694 6.58484E-03-1.42794E-03-3.64926E-14
 -1      2695 6.34641E-03-1.32418E-03-3.37970E-14
 -1      2696 6.72902E-03-1.47637E-03-3.84130E-14
 -1      2697 6.87320E-03-1.52479E-03-4.03755E-14
 -1      2698 6.63119E-03-1.42026E-03-3.75585E-14
 -1      2699 7.01724E-03-1.57311E-03-4.23786E-14
 -1      2700 7.16124E-03-1.62126E-03-4.44213E-14
 -1      2701 6.91669E-03-1.51659E-03-4.14837E-14
 -1      2702 7.30511E-03-1.66919E-03-4.65027E-14
 -1      2703 7.44892E-03-1.71689E-03-4.86249E-14
 -1      2704 7.20261E-03-1.61248E-03-4.55702E-14
 -1      2705 7.59261E-03-1.76432E-03-5.07853E-14
 -1      2706 7.73623E-03-1.81149E-03-5.29836E-14
 -1      2707 7.48875E-03-1.70754E-03-4.98147E-14
 -1      2708 7.87975E-03-1.85838E-03-5.52205E-14
 -1      2709 8.02321E-03-1.90501E-03-5.74952E-14
 -1      2710 7.77495E-03-1.80163E-03-5.42136E-14
 -1      2711 8.16657E-03-1.95138E-03-5.98064E-14
 -1      2712 8.30988E-03-1.99750E-03-6.21525E-14
 -1      2713 8.06113E-03-1.89470E-03-5.87601E-14
 -1      2714 8.45311E-03-2.04339E-03-6.45322E-14
 -1      2715 8.59630E-03-2.08905E-03-6.69472E-14
 -1      2716 8.34726E-03-1.98680E-03-6.34518E-14
 -1      2717 8.73943E-03-2.13452E-03-6.93966E-14
 -1      2718 8.88252E-03-2.17979E-03-7.18789E-14
 -1      2719 8.63331E-03-2.07803E-03-6.82813E-14
 -1      2720 9.02557E-03-2.22488E-03-7.43945E-14
 -1      2721 9.16858E-03-2.26982E-03-7.69437E-14
 -1      2722 8.91929E-03-2.16850E-03-7.32487E-14
 -1      2723 9.31157E-03-2.31461E-03-7.95246E-14
 -1      2724 9.45453E-03-2.35926E-03-8.21388E-14
 -1      2725 9.20520E-03-2.25831E-03-7.83453E-14
 -1      2726 9.59746E-03-2.40380E-03-8.47854E-14
 -1      2727 9.74038E-03-2.44824E-03-8.74636E-14
 -1      2728 9.49105E-03-2.34758E-03-8.35745E-14
 -1      2729 9.88329E-03-2.49257E-03-9.01723E-14
 -1      2730 1.00262E-02-2.53682E-03-9.29124E-14
 -1      2731 9.77687E-03-2.43642E-03-8.89329E-14
 -1      2732 1.01691E-02-2.58100E-03-9.56820E-14
 -1      2733 1.03119E-02-2.62511E-03-9.84814E-14
 -1      2734 1.00626E-02-2.52490E-03-9.44123E-14
 -1      2735 1.04548E-02-2.66916E-03-1.01310E-13
 -1      2736 1.05976E-02-2.71316E-03-1.04163E-13
 -1      2737 1.03484E-02-2.61310E-03-1.00011E-13
 -1      2738 1.07405E-02-2.75711E-03-1.07045E-13
 -1      2739 1.08834E-02-2.80103E-03-1.09952E-13
 -1      2740 1.06341E-02-2.70109E-03-1.05720E-13
 -1      2741 1.10262E-02-2.84491E-03-1.12885E-13
 -1      2742 1.11690E-02-2.88877E-03-1.15841E-13
 -1      2743 1.09199E-02-2.78891E-03-1.11536E-13
 -1      2744 1.13119E-02-2.93260E-03-1.18820E-13
 -1      2745 1.14547E-02-2.97640E-03-1.21821E-13
 -1      2746 1.12056E-02-2.87661E-03-1.17450E-13
 -1      2747 1.15976E-02-3.02020E-03-1.24839E-13
 -1      2748 1.17404E-02-3.06397E-03-1.27880E-13
 -1      2749 1.14913E-02-2.96423E-03-1.23448E-13
 -1      2750 1.18833E-02-3.10773E-03-1.30943E-13
 -1      2751 1.20261E-02-3.15149E-03-1.34023E-13
 -1      2752 1.17770E-02-3.05178E-03-1.29531E-13
 -1      2753 1.21690E-02-3.19523E-03-1.37125E-13
 -1      2754 1.23118E-02-3.23897E-03-1.40245E-13
 -1      2755 1.20627E-02-3.13928E-03-1.35697E-13
 -1      2756 1.24547E-02-3.28270E-03-1.43383E-13
 -1      2757 1.25975E-02-3.32643E-03-1.46538E-13
 -1      2758 1.23484E-02-3.22675E-03-1.41939E-13
 -1      2759 1.27404E-02-3.37015E-03-1.49708E-13
 -1      2760 1.28832E-02-3.41387E-03-1.52893E-13
 -1      2761 1.26341E-02-3.31421E-03-1.48250E-13
 -1      2762 1.30261E-02-3.45759E-03-1.56094E-13
 -1      2763 1.31689E-02-3.50131E-03-1.59311E-13
 -1      2764 1.29198E-02-3.40165E-03-1.54623E-13
 -1      2765 1.33118E-02-3.54503E-03-1.62538E-13
 -1      2766 1.34546E-02-3.58874E-03-1.65778E-13
 -1      2767 1.32055E-02-3.48909E-03-1.61053E-13
 -1      2768 1.35975E-02-3.63246E-03-1.69033E-13
 -1      2769 1.37403E-02-3.67618E-03-1.72297E-13
 -1      2770 1.34912E-02-3.57652E-03-1.67534E-13
 -1      2771 1.38832E-02-3.71989E-03-1.75574E-13
 -1      2772 1.40260E-02-3.76361E-03-1.78861E-13
 -1      2773 1.37770E-02-3.66395E-03-1.74063E-13
 -1      2774 1.41689E-02-3.80733E-03-1.82157E-13
 -1      2775 1.43117E-02-3.85105E-03-1.85466E-13
 -1      2776 1.40627E-02-3.75139E-03-1.80636E-13
 -1      2777 1.44546E-02-3.89477E-03-1.88783E-13
 -1      2778 1.45974E-02-3.93849E-03-1.92108E-13
 -1      2779 1.43484E-02-3.83883E-03-1.87248E-13
 -1      2780 2.19522E-03 5.59659E-04-5.58253E-15
 -1      2781 2.04550E-03 5.75780E-04-4.81210E-15
 -1      2782 3.10840E-03 2.77278E-04-1.14335E-14
 -1      2783 2.95324E-03 3.38469E-04-1.03167E-14
 -1      2784 3.42081E-03 1.50879E-04-1.38292E-14
 -1      2785 3.26446E-03 2.14286E-04-1.26047E-14
 -1      2786 3.22162E-03 2.02859E-04-1.20925E-14
 -1      2787 3.73352E-03 2.65333E-05-1.64323E-14
 -1      2788 3.57741E-03 8.80519E-05-1.51054E-14
 -1      2789 3.53989E-03 7.46530E-05-1.45471E-14
 -1      2790 4.04411E-03-9.07726E-05-1.92364E-14
 -1      2791 3.88929E-03-3.31408E-05-1.78101E-14
 -1      2792 3.85618E-03-4.81669E-05-1.72056E-14
 -1      2793 4.35124E-03-1.99445E-04-2.22330E-14
 -1      2794 4.19822E-03-1.46173E-04-2.07102E-14
 -1      2795 4.16818E-03-1.62232E-04-2.00606E-14
 -1      2796 4.65455E-03-2.99934E-04-2.54198E-14
 -1      2797 4.50342E-03-2.50623E-04-2.38025E-14
 -1      2798 4.47507E-03-2.67232E-04-2.31072E-14
 -1      2799 4.95427E-03-3.93660E-04-2.87909E-14
 -1      2800 4.80486E-03-3.47530E-04-2.70828E-14
 -1      2801 4.77707E-03-3.64382E-04-2.63411E-14
 -1      2802 5.25090E-03-4.82327E-04-3.23390E-14
 -1      2803 5.10295E-03-4.38519E-04-3.05430E-14
 -1      2804 5.07494E-03-4.55443E-04-2.97570E-14
 -1      2805 5.54500E-03-5.67546E-04-3.60604E-14
 -1      2806 5.39823E-03-5.25278E-04-3.41787E-14
 -1      2807 5.36954E-03-5.42179E-04-3.33480E-14
 -1      2808 5.83708E-03-6.50663E-04-3.99517E-14
 -1      2809 5.69126E-03-6.09298E-04-3.79849E-14
 -1      2810 5.66168E-03-6.26122E-04-3.71101E-14
 -1      2811 6.12759E-03-7.32716E-04-4.40070E-14
 -1      2812 5.98250E-03-6.91772E-04-4.19590E-14
 -1      2813 5.95201E-03-7.08484E-04-4.10395E-14
 -1      2814 6.41688E-03-8.14443E-04-4.82244E-14
 -1      2815 6.27236E-03-7.73586E-04-4.60950E-14
 -1      2816 6.24103E-03-7.90162E-04-4.51326E-14
 -1      2817 6.70522E-03-8.96337E-04-5.26025E-14
 -1      2818 6.56115E-03-8.55347E-04-5.03937E-14
 -1      2819 6.52911E-03-8.71776E-04-4.93890E-14
 -1      2820 6.99285E-03-9.78694E-04-5.71360E-14
 -1      2821 6.84911E-03-9.37445E-04-5.48509E-14
 -1      2822 6.81651E-03-9.53721E-04-5.38033E-14
 -1      2823 7.27994E-03-1.06167E-03-6.18221E-14
 -1      2824 7.13645E-03-1.02010E-03-5.94596E-14
 -1      2825 7.10342E-03-1.03622E-03-5.83715E-14
 -1      2826 7.56661E-03-1.14531E-03-6.66566E-14
 -1      2827 7.42332E-03-1.10340E-03-6.42210E-14
 -1      2828 7.38997E-03-1.11939E-03-6.30916E-14
 -1      2829 7.85298E-03-1.22960E-03-7.16345E-14
 -1      2830 7.70983E-03-1.18738E-03-6.91273E-14
 -1      2831 7.67627E-03-1.20323E-03-6.79582E-14
 -1      2832 8.13912E-03-1.31450E-03-7.67495E-14
 -1      2833 7.99607E-03-1.27198E-03-7.41753E-14
 -1      2834 7.96238E-03-1.28772E-03-7.29657E-14
 -1      2835 8.42511E-03-1.39994E-03-8.19978E-14
 -1      2836 8.28213E-03-1.35716E-03-7.93566E-14
 -1      2837 8.24836E-03-1.37280E-03-7.81091E-14
 -1      2838 8.71097E-03-1.48583E-03-8.73813E-14
 -1      2839 8.56805E-03-1.44283E-03-8.46740E-14
 -1      2840 8.53425E-03-1.45838E-03-8.33866E-14
 -1      2841 8.99676E-03-1.57209E-03-9.28908E-14
 -1      2842 8.85387E-03-1.52891E-03-9.01206E-14
 -1      2843 8.82007E-03-1.54440E-03-8.87961E-14
 -1      2844 9.28250E-03-1.65866E-03-9.85240E-14
 -1      2845 9.13963E-03-1.61534E-03-9.56923E-14
 -1      2846 9.10584E-03-1.63076E-03-9.43313E-14
 -1      2847 9.56820E-03-1.74547E-03-1.04275E-13
 -1      2848 9.42535E-03-1.70204E-03-1.01384E-13
 -1      2849 9.39158E-03-1.71742E-03-9.99862E-14
 -1      2850 9.85388E-03-1.83247E-03-1.10140E-13
 -1      2851 9.71104E-03-1.78895E-03-1.07196E-13
 -1      2852 9.67730E-03-1.80429E-03-1.05759E-13
 -1      2853 1.01396E-02-1.91961E-03-1.16108E-13
 -1      2854 9.99672E-03-1.87602E-03-1.13111E-13
 -1      2855 9.96300E-03-1.89134E-03-1.11644E-13
 -1      2856 1.04252E-02-2.00686E-03-1.22172E-13
 -1      2857 1.02824E-02-1.96322E-03-1.19129E-13
 -1      2858 1.02487E-02-1.97852E-03-1.17630E-13
 -1      2859 1.07109E-02-2.09418E-03-1.28323E-13
 -1      2860 1.05681E-02-2.05051E-03-1.25237E-13
 -1      2861 1.05344E-02-2.06579E-03-1.23710E-13
 -1      2862 1.09966E-02-2.18156E-03-1.34550E-13
 -1      2863 1.08537E-02-2.13786E-03-1.31427E-13
 -1      2864 1.08201E-02-2.15313E-03-1.29871E-13
 -1      2865 1.12823E-02-2.26898E-03-1.40855E-13
 -1      2866 1.11394E-02-2.22526E-03-1.37693E-13
 -1      2867 1.11058E-02-2.24053E-03-1.36113E-13
 -1      2868 1.15679E-02-2.35642E-03-1.47228E-13
 -1      2869 1.14251E-02-2.31270E-03-1.44033E-13
 -1      2870 1.13915E-02-2.32795E-03-1.42427E-13
 -1      2871 1.18536E-02-2.44388E-03-1.53662E-13
 -1      2872 1.17108E-02-2.40015E-03-1.50438E-13
 -1      2873 1.16772E-02-2.41540E-03-1.48808E-13
 -1      2874 1.21393E-02-2.53135E-03-1.60149E-13
 -1      2875 1.19965E-02-2.48761E-03-1.56901E-13
 -1      2876 1.19629E-02-2.50286E-03-1.55250E-13
 -1      2877 1.24250E-02-2.61882E-03-1.66669E-13
 -1      2878 1.22822E-02-2.57508E-03-1.63404E-13
 -1      2879 1.22486E-02-2.59033E-03-1.61738E-13
 -1      2880 1.27107E-02-2.70629E-03-1.73222E-13
 -1      2881 1.25679E-02-2.66256E-03-1.69942E-13
 -1      2882 1.25343E-02-2.67780E-03-1.68261E-13
 -1      2883 1.29964E-02-2.79377E-03-1.79796E-13
 -1      2884 1.28536E-02-2.75003E-03-1.76506E-13
 -1      2885 1.28200E-02-2.76528E-03-1.74814E-13
 -1      2886 1.32821E-02-2.88124E-03-1.86394E-13
 -1      2887 1.31393E-02-2.83750E-03-1.83092E-13
 -1      2888 1.31057E-02-2.85275E-03-1.81392E-13
 -1      2889 1.35443E-02-2.96695E-03-1.92265E-13
 -1      2890 1.34014E-02-2.92321E-03-1.88954E-13
 -1      2891 1.33679E-02-2.93846E-03-1.87247E-13
 -1      2892 1.36065E-02-3.02242E-03-1.92374E-13
 -1      2893 1.42948E-02-3.51297E-03-1.98006E-13
 -1      2894 1.42518E-02-3.47082E-03-1.98094E-13
 -1      2895 1.41228E-02-3.34437E-03-1.98337E-13
 -1      2896 1.40798E-02-3.30222E-03-1.98410E-13
 -1      2897 1.43808E-02-3.59727E-03-1.97811E-13
 -1      2898 1.43378E-02-3.55512E-03-1.97914E-13
 -1      2899 1.41925E-02-3.49618E-03-1.95076E-13
 -1      2900 1.42088E-02-3.42867E-03-1.98176E-13
 -1      2901 1.41658E-02-3.38652E-03-1.98257E-13
 -1      2902 1.40206E-02-3.32757E-03-1.95417E-13
 -1      2903 1.41065E-02-3.41187E-03-1.95254E-13
 -1      2904 4.71485E-03-6.51805E-04-1.26298E-14
 -1      2905 4.67474E-03-6.57439E-04-1.24302E-14
 -1      2906 1.47861E-02-3.99320E-03-1.96627E-13
 -1      2907 1.47742E-02-3.96461E-03-1.97347E-13
 -1      2908 1.46918E-02-3.96584E-03-1.94365E-13
 -1      2909 1.44653E-02-3.68014E-03-1.97596E-13
 -1      2910 1.44230E-02-3.63871E-03-1.97706E-13
 -1      2911 1.42778E-02-3.57976E-03-1.94876E-13
 -1      2912 1.45513E-02-3.76444E-03-1.97356E-13
 -1      2913 1.45083E-02-3.72229E-03-1.97479E-13
 -1      2914 1.43631E-02-3.66335E-03-1.94652E-13
 -1      2915 1.46373E-02-3.84874E-03-1.97089E-13
 -1      2916 1.45943E-02-3.80659E-03-1.97224E-13
 -1      2917 1.44491E-02-3.74765E-03-1.94404E-13
 -1      2918 1.47273E-02-3.92775E-03-1.97151E-13
 -1      2919 1.46843E-02-3.88560E-03-1.97297E-13
 -1      2920 1.45390E-02-3.82666E-03-1.94478E-13
 -1      2921 1.46329E-02-3.90039E-03-1.94885E-13
 -1      2922 1.89555E-03 5.80188E-04-4.10043E-15
 -1      2923 1.74388E-03 5.73281E-04-3.44900E-15
 -1      2924 1.98341E-03 5.48705E-04-4.50017E-15
 -1      2925 1.07751E-03-4.14651E-04-1.26056E-15
 -1      2926 9.01023E-04-3.16089E-04-1.11934E-15
 -1      2927 2.26492E-03 4.00092E-04-5.17145E-15
 -1      2928 2.36858E-03 3.80202E-04-5.63444E-15
 -1      2929 8.93942E-04 3.59661E-04-9.71255E-16
 -1      2930 4.02570E-03-8.89122E-04-1.01388E-14
 -1      2931 3.85229E-03-9.78644E-04-9.51795E-15
 -1      2932 1.59071E-03 5.55196E-04-2.85714E-15
 -1      2933 1.43498E-03 5.27397E-04-2.32450E-15
 -1      2934 1.35957E-03 4.74444E-04-2.11976E-15
 -1      2935 1.67561E-03 5.32866E-04-3.19082E-15
 -1      2936 2.79918E-03 3.96414E-04-9.25551E-15
 -1      2937 2.64638E-03 4.49168E-04-8.25049E-15
 -1      2938 2.90500E-03 3.28405E-04-9.85247E-15
 -1      2939 2.49508E-03 4.95127E-04-7.30275E-15
 -1      2940 2.34464E-03 5.32385E-04-6.41269E-15
 -1      2941 2.59334E-03 4.37982E-04-7.83485E-15
 -1      2942 3.89323E-03-1.02129E-03-1.00474E-14
 -1      2943 4.09236E-03-9.73169E-04-1.12118E-14
 -1      2944 8.79319E-04 1.18467E-04-1.02879E-15
 -1      2945 8.59217E-04 6.97906E-05-1.01838E-15
 -1      2946 1.03481E-03 1.82026E-04-1.32635E-15
 -1      2947 4.58930E-03-6.75574E-04-1.20375E-14
 -1      2948 4.47207E-03-7.07740E-04-1.16489E-14
 -1      2949 4.66364E-03-6.83044E-04-1.29091E-14
 -1      2950 1.30000E-03 1.12087E-04-2.06031E-15
 -1      2951 1.48074E-03 1.98873E-04-2.46333E-15
 -1      2952 8.27088E-04 1.79618E-05-1.00333E-15
 -1      2953 7.77622E-04-3.42343E-05-9.83615E-16
 -1      2954 9.96001E-04 7.99646E-05-1.29882E-15
 -1      2955 3.26788E-03-7.58201E-05-9.27916E-15
 -1      2956 3.50173E-03-2.06439E-04-1.01284E-14
 -1      2957 1.63473E-03 2.68280E-04-2.85953E-15
 -1      2958 1.74229E-03 3.15889E-04-3.17603E-15
 -1      2959 2.59809E-04-1.51568E-04-7.82482E-16
 -1      2960 6.63032E-04-1.42962E-04-1.11972E-15
 -1      2961 8.18123E-04-9.39209E-05-1.28478E-15
 -1      2962 9.83088E-04-3.19768E-05-1.51983E-15
 -1      2963 1.14446E-03 3.74955E-05-1.77858E-15
 -1      2964 1.21883E-03 9.36628E-05-1.85286E-15
 -1      2965 1.68306E-03-8.34546E-04-2.01869E-15
 -1      2966 3.13131E-03-1.32864E-03-6.50966E-15
 -1      2967 1.49661E-03-6.98116E-04-1.76686E-15
 -1      2968 1.25884E-03-5.30391E-04-1.46538E-15
 -1      2969 1.11993E-03-4.39667E-04-1.21069E-15
 -1      2970 1.47662E-03-6.83387E-04-1.62690E-15
 -1      2971 2.53493E-03 3.25588E-04-6.37169E-15
 -1      2972 2.71553E-03 2.39390E-04-7.15779E-15
 -1      2973 4.31891E-03-7.59861E-04-1.10929E-14
 -1      2974 4.18382E-03-8.11939E-04-1.06171E-14
 -1      2975 4.70600E-03-6.45100E-04-1.29297E-14
 -1      2976 4.72846E-03-6.45584E-04-1.27808E-14
 -1      2977 4.75556E-03-6.64126E-04-1.34674E-14
 -1      2978 3.90986E-04-1.25475E-04-7.68625E-16
 -1      2979 4.81437E-04-1.36096E-04-7.69418E-16
 -1      2980 2.16019E-03 4.09713E-04-4.76997E-15
 -1      2981 4.43817E-03-7.44256E-04-1.19357E-14
 -1      2982 4.15070E-03-5.00255E-04-1.24773E-14
 -1      2983 3.18140E-03-2.03411E-05-9.25188E-15
 -1      2984 3.35065E-03-1.24266E-03-7.46700E-15
 -1      2985 2.55609E-04-1.34168E-04-7.01794E-16
 -1      2986 2.97023E-04-1.17472E-04-6.95861E-16
 -1      2987 4.47901E-03-6.05233E-04-1.31729E-14
 -1      2988 8.99870E-04-3.09635E-04-8.20118E-16
 -1      2989 1.09190E-03-4.23772E-04-1.07383E-15
 -1      2990 4.69229E-03-6.49409E-04-1.35259E-14
 -1      2991 1.50801E-03 2.32865E-04-2.50331E-15
 -1      2992 4.24637E-03-8.94066E-04-1.18983E-14
 -1      2993 1.45856E-02-3.90990E-03-1.92825E-13
 -1      2994 2.28732E-03 5.15757E-04-6.04885E-15
 -1      2995 3.44454E-04-1.82388E-04-7.80409E-16
 -1      2996 4.24634E-04-1.83788E-04-8.63709E-16
 -1      2997 2.95661E-04-1.72650E-04-7.23163E-16
 -1      2998 5.22418E-04-1.65067E-04-8.92007E-16
 -1      2999 6.01282E-04-1.68109E-04-7.85620E-16
 -1      3000 7.83257E-04-2.44183E-04-8.16608E-16
 -1      3001 2.55207E-04-1.57568E-04-7.06629E-16
 -1      3002 7.39589E-04-2.26846E-04-8.95565E-16
 -1      3003 2.80069E-03 1.97725E-04-7.70500E-15
 -1      3004 3.66255E-03-2.86050E-04-1.10281E-14
 -1      3005 3.81688E-03-3.50940E-04-1.19582E-14
 -1      3006 3.54516E-03-2.14883E-04-1.09506E-14
 -1      3007 1.39349E-02-3.24363E-03-1.95567E-13
 -1      3008 1.40372E-02-3.26043E-03-1.98479E-13
 -1      3009 1.39945E-02-3.21864E-03-1.98547E-13
 -1      3010 9.75000E-04 3.50770E-04-1.16115E-15
 -1      3011 1.11836E-03 3.73422E-04-1.49174E-15
 -1      3012 1.39113E-02-3.14991E-03-1.98199E-13
 -1      3013 2.46536E-03 3.51897E-04-6.19805E-15
 -1      3014 4.14209E-03-8.68437E-04-1.08765E-14
 -1      3015 3.73858E-03-1.05959E-03-9.19492E-15
 -1      3016 9.12503E-04-4.35393E-05-1.34873E-15
 -1      3017 1.26276E-03-5.35110E-04-1.25727E-15
 -1      3018 3.51580E-03-1.14898E-03-8.12379E-15
 -1      3019 8.30315E-04-4.02442E-05-1.11681E-15
 -1      3020 1.74085E-03 3.41509E-04-3.18613E-15
 -1      3021 1.83375E-03 3.57577E-04-3.47906E-15
 -1      3022 1.91201E-03 3.89561E-04-3.79272E-15
 -1      3023 2.04258E-03 4.14162E-04-4.33810E-15
 -1      3024 2.18739E-03 4.16148E-04-5.00422E-15
 -1      3025 1.18402E-03 3.35193E-04-1.66113E-15
 -1      3026 1.18794E-03 2.93101E-04-1.66811E-15
 -1      3027 3.01530E-03 2.56196E-04-1.04558E-14
 -1      3028 2.85468E-03 3.18763E-04-9.38698E-15
 -1      3029 4.45164E-03-5.98510E-04-1.38233E-14
 -1      3030 4.56834E-03-6.28898E-04-1.40856E-14
 -1      3031 4.69061E-03-6.57979E-04-1.44412E-14
 -1      3032 4.76749E-03-6.71489E-04-1.45417E-14
 -1      3033 4.88956E-03-8.64933E-04-1.69198E-14
 -1      3034 5.02563E-03-8.93599E-04-1.83334E-14
 -1      3035 5.15992E-03-9.26384E-04-1.97905E-14
 -1      3036 5.29459E-03-9.62474E-04-2.12908E-14
 -1      3037 5.10848E-03-8.78739E-04-1.91498E-14
 -1      3038 5.42908E-03-1.00133E-03-2.28342E-14
 -1      3039 5.56451E-03-1.04243E-03-2.44206E-14
 -1      3040 5.36336E-03-9.52833E-04-2.21525E-14
 -1      3041 5.70048E-03-1.08525E-03-2.60489E-14
 -1      3042 5.83749E-03-1.12959E-03-2.77210E-14
 -1      3043 5.62384E-03-1.03491E-03-2.53271E-14
 -1      3044 5.97518E-03-1.17498E-03-2.94352E-14
 -1      3045 6.11379E-03-1.22131E-03-3.11919E-14
 -1      3046 5.89021E-03-1.12260E-03-2.86719E-14
 -1      3047 6.25300E-03-1.26820E-03-3.29911E-14
 -1      3048 6.39294E-03-1.31559E-03-3.48312E-14
 -1      3049 6.16168E-03-1.21400E-03-3.21869E-14
 -1      3050 6.53335E-03-1.36320E-03-3.67128E-14
 -1      3051 6.67429E-03-1.41099E-03-3.86346E-14
 -1      3052 6.43721E-03-1.30755E-03-3.58675E-14
 -1      3053 6.81556E-03-1.45878E-03-4.05990E-14
 -1      3054 6.95722E-03-1.50655E-03-4.26036E-14
 -1      3055 6.71583E-03-1.40207E-03-3.97154E-14
 -1      3056 7.09909E-03-1.55419E-03-4.46476E-14
 -1      3057 7.24123E-03-1.60169E-03-4.67312E-14
 -1      3058 6.99668E-03-1.49674E-03-4.37255E-14
 -1      3059 7.38350E-03-1.64898E-03-4.88526E-14
 -1      3060 7.52595E-03-1.69607E-03-5.10142E-14
 -1      3061 7.27913E-03-1.59104E-03-4.78930E-14
 -1      3062 7.66848E-03-1.74292E-03-5.32147E-14
 -1      3063 7.81112E-03-1.78955E-03-5.54509E-14
 -1      3064 7.56269E-03-1.68469E-03-5.22149E-14
 -1      3065 7.95381E-03-1.83594E-03-5.77246E-14
 -1      3066 8.09657E-03-1.88211E-03-6.00348E-14
 -1      3067 7.84700E-03-1.77753E-03-5.66893E-14
 -1      3068 8.23935E-03-1.92805E-03-6.23803E-14
 -1      3069 8.38218E-03-1.97378E-03-6.47604E-14
 -1      3070 8.13184E-03-1.86955E-03-6.13089E-14
 -1      3071 8.52502E-03-2.01931E-03-6.71750E-14
 -1      3072 8.66788E-03-2.06466E-03-6.96258E-14
 -1      3073 8.41701E-03-1.96077E-03-6.60706E-14
 -1      3074 8.81075E-03-2.10983E-03-7.21097E-14
 -1      3075 8.95363E-03-2.15483E-03-7.46270E-14
 -1      3076 8.70241E-03-2.05128E-03-7.09707E-14
 -1      3077 9.09651E-03-2.19969E-03-7.71762E-14
 -1      3078 9.23939E-03-2.24442E-03-7.97581E-14
 -1      3079 8.98795E-03-2.14116E-03-7.60064E-14
 -1      3080 9.38227E-03-2.28902E-03-8.23731E-14
 -1      3081 9.52516E-03-2.33351E-03-8.50207E-14
 -1      3082 9.27359E-03-2.23051E-03-8.11711E-14
 -1      3083 9.66805E-03-2.37790E-03-8.77006E-14
 -1      3084 9.81093E-03-2.42220E-03-9.04114E-14
 -1      3085 9.55929E-03-2.31941E-03-8.64678E-14
 -1      3086 9.95381E-03-2.46642E-03-9.31531E-14
 -1      3087 1.00967E-02-2.51057E-03-9.59226E-14
 -1      3088 9.84502E-03-2.40796E-03-9.18927E-14
 -1      3089 1.02396E-02-2.55465E-03-9.87225E-14
 -1      3090 1.03824E-02-2.59868E-03-1.01551E-13
 -1      3091 1.01308E-02-2.49622E-03-9.74347E-14
 -1      3092 1.05253E-02-2.64267E-03-1.04405E-13
 -1      3093 1.06682E-02-2.68661E-03-1.07287E-13
 -1      3094 1.04165E-02-2.58426E-03-1.03091E-13
 -1      3095 1.08111E-02-2.73051E-03-1.10196E-13
 -1      3096 1.09539E-02-2.77439E-03-1.13128E-13
 -1      3097 1.07023E-02-2.67212E-03-1.08856E-13
 -1      3098 1.10968E-02-2.81823E-03-1.16085E-13
 -1      3099 1.12397E-02-2.86206E-03-1.19065E-13
 -1      3100 1.09880E-02-2.75985E-03-1.14721E-13
 -1      3101 1.13825E-02-2.90586E-03-1.22066E-13
 -1      3102 1.15254E-02-2.94965E-03-1.25086E-13
 -1      3103 1.12738E-02-2.84749E-03-1.20682E-13
 -1      3104 1.16683E-02-2.99342E-03-1.28129E-13
 -1      3105 1.18111E-02-3.03718E-03-1.31195E-13
 -1      3106 1.15595E-02-2.93506E-03-1.26728E-13
 -1      3107 1.19540E-02-3.08093E-03-1.34277E-13
 -1      3108 1.20969E-02-3.12467E-03-1.37380E-13
 -1      3109 1.18453E-02-3.02258E-03-1.32858E-13
 -1      3110 1.22397E-02-3.16841E-03-1.40504E-13
 -1      3111 1.23826E-02-3.21214E-03-1.43643E-13
 -1      3112 1.21310E-02-3.11006E-03-1.39066E-13
 -1      3113 1.25254E-02-3.25587E-03-1.46798E-13
 -1      3114 1.26683E-02-3.29959E-03-1.49969E-13
 -1      3115 1.24168E-02-3.19753E-03-1.45346E-13
 -1      3116 1.28112E-02-3.34331E-03-1.53158E-13
 -1      3117 1.29540E-02-3.38703E-03-1.56361E-13
 -1      3118 1.27025E-02-3.28497E-03-1.51692E-13
 -1      3119 1.30969E-02-3.43075E-03-1.59578E-13
 -1      3120 1.32397E-02-3.47447E-03-1.62805E-13
 -1      3121 1.29882E-02-3.37241E-03-1.58097E-13
 -1      3122 1.33826E-02-3.51819E-03-1.66045E-13
 -1      3123 1.35254E-02-3.56190E-03-1.69299E-13
 -1      3124 1.32739E-02-3.45985E-03-1.64556E-13
 -1      3125 1.36683E-02-3.60562E-03-1.72564E-13
 -1      3126 1.38112E-02-3.64934E-03-1.75839E-13
 -1      3127 1.35597E-02-3.54729E-03-1.71060E-13
 -1      3128 1.39540E-02-3.69306E-03-1.79124E-13
 -1      3129 1.40969E-02-3.73678E-03-1.82418E-13
 -1      3130 1.38454E-02-3.63472E-03-1.77609E-13
 -1      3131 1.42397E-02-3.78049E-03-1.85725E-13
 -1      3132 1.43826E-02-3.82421E-03-1.89041E-13
 -1      3133 1.41311E-02-3.72216E-03-1.84200E-13
 -1      3134 3.33935E-03 1.25129E-04-1.27577E-14
 -1      3135 3.17719E-03 1.90890E-04-1.15796E-14
 -1      3136 3.13173E-03 1.79274E-04-1.10665E-14
 -1      3137 4.29400E-03-2.33381E-04-2.08891E-14
 -1      3138 4.13876E-03-1.79602E-04-1.94116E-14
 -1      3139 4.59977E-03-3.34234E-04-2.39849E-14
 -1      3140 4.44772E-03-2.84795E-04-2.24139E-14
 -1      3141 4.42143E-03-3.03466E-04-2.17216E-14
 -1      3142 4.89987E-03-4.27882E-04-2.72652E-14
 -1      3143 4.75048E-03-3.81805E-04-2.56021E-14
 -1      3144 4.72514E-03-3.99946E-04-2.48654E-14
 -1      3145 5.19553E-03-5.16298E-04-3.07243E-14
 -1      3146 5.04819E-03-4.72613E-04-2.89733E-14
 -1      3147 5.02273E-03-4.90140E-04-2.81907E-14
 -1      3148 5.48793E-03-6.01217E-04-3.43579E-14
 -1      3149 5.34208E-03-5.59092E-04-3.25198E-14
 -1      3150 5.31585E-03-5.76086E-04-3.16938E-14
 -1      3151 5.77807E-03-6.84029E-04-3.81602E-14
 -1      3152 5.63324E-03-6.42811E-04-3.62379E-14
 -1      3153 5.60593E-03-6.59398E-04-3.53689E-14
 -1      3154 6.06667E-03-7.65781E-04-4.21287E-14
 -1      3155 5.92252E-03-7.24985E-04-4.01239E-14
 -1      3156 5.89404E-03-7.41281E-04-3.92112E-14
 -1      3157 6.35426E-03-8.47214E-04-4.62594E-14
 -1      3158 6.21056E-03-8.06503E-04-4.41742E-14
 -1      3159 6.18095E-03-8.22596E-04-4.32176E-14
 -1      3160 6.64119E-03-9.28823E-04-5.05535E-14
 -1      3161 6.49778E-03-8.87976E-04-4.83863E-14
 -1      3162 6.46717E-03-9.03925E-04-4.73875E-14
 -1      3163 6.92769E-03-1.01090E-03-5.50028E-14
 -1      3164 6.78447E-03-9.69793E-04-5.27579E-14
 -1      3165 6.75302E-03-9.85635E-04-5.17172E-14
 -1      3166 7.21393E-03-1.09362E-03-5.96067E-14
 -1      3167 7.07083E-03-1.05218E-03-5.72871E-14
 -1      3168 7.03870E-03-1.06793E-03-5.62027E-14
 -1      3169 7.49999E-03-1.17702E-03-6.43599E-14
 -1      3170 7.35697E-03-1.13523E-03-6.19639E-14
 -1      3171 7.32432E-03-1.15092E-03-6.08409E-14
 -1      3172 7.78594E-03-1.26110E-03-6.92579E-14
 -1      3173 7.64297E-03-1.21898E-03-6.67914E-14
 -1      3174 7.60994E-03-1.23460E-03-6.56272E-14
 -1      3175 8.07181E-03-1.34581E-03-7.42945E-14
 -1      3176 7.92888E-03-1.30338E-03-7.17592E-14
 -1      3177 7.89557E-03-1.31894E-03-7.05556E-14
 -1      3178 8.35764E-03-1.43108E-03-7.94663E-14
 -1      3179 8.21473E-03-1.38838E-03-7.68646E-14
 -1      3180 8.18123E-03-1.40389E-03-7.56217E-14
 -1      3181 8.64343E-03-1.51683E-03-8.47723E-14
 -1      3182 8.50054E-03-1.47390E-03-8.21018E-14
 -1      3183 8.46692E-03-1.48936E-03-8.08222E-14
 -1      3184 8.92920E-03-1.60298E-03-9.02075E-14
 -1      3185 8.78632E-03-1.55986E-03-8.74745E-14
 -1      3186 8.75263E-03-1.57528E-03-8.61549E-14
 -1      3187 9.21495E-03-1.68945E-03-9.57672E-14
 -1      3188 9.07207E-03-1.64618E-03-9.29719E-14
 -1      3189 9.03835E-03-1.66157E-03-9.16161E-14
 -1      3190 9.50069E-03-1.77619E-03-1.01445E-13
 -1      3191 9.35782E-03-1.73279E-03-9.85913E-14
 -1      3192 9.32409E-03-1.74815E-03-9.71997E-14
 -1      3193 9.78642E-03-1.86312E-03-1.07241E-13
 -1      3194 9.64355E-03-1.81963E-03-1.04329E-13
 -1      3195 9.60983E-03-1.83497E-03-1.02903E-13
 -1      3196 1.00721E-02-1.95022E-03-1.13142E-13
 -1      3197 9.92928E-03-1.90666E-03-1.10179E-13
 -1      3198 9.89557E-03-1.92197E-03-1.08718E-13
 -1      3199 1.03579E-02-2.03743E-03-1.19148E-13
 -1      3200 1.02150E-02-1.99381E-03-1.16133E-13
 -1      3201 1.01813E-02-2.00911E-03-1.14640E-13
 -1      3202 1.06436E-02-2.12473E-03-1.25242E-13
 -1      3203 1.05007E-02-2.08107E-03-1.22183E-13
 -1      3204 1.04670E-02-2.09636E-03-1.20663E-13
 -1      3205 1.09293E-02-2.21209E-03-1.31416E-13
 -1      3206 1.07864E-02-2.16841E-03-1.28320E-13
 -1      3207 1.07528E-02-2.18368E-03-1.26771E-13
 -1      3208 1.12150E-02-2.29950E-03-1.37671E-13
 -1      3209 1.10722E-02-2.25579E-03-1.34534E-13
 -1      3210 1.10385E-02-2.27106E-03-1.32961E-13
 -1      3211 1.15007E-02-2.38693E-03-1.43996E-13
 -1      3212 1.13579E-02-2.34321E-03-1.40825E-13
 -1      3213 1.13242E-02-2.35847E-03-1.39226E-13
 -1      3214 1.17864E-02-2.47438E-03-1.50385E-13
 -1      3215 1.16436E-02-2.43066E-03-1.47184E-13
 -1      3216 1.16100E-02-2.44591E-03-1.45561E-13
 -1      3217 1.20721E-02-2.56185E-03-1.56833E-13
 -1      3218 1.19293E-02-2.51811E-03-1.53602E-13
 -1      3219 1.18957E-02-2.53337E-03-1.51961E-13
 -1      3220 1.23579E-02-2.64932E-03-1.63321E-13
 -1      3221 1.22150E-02-2.60558E-03-1.60073E-13
 -1      3222 1.21814E-02-2.62084E-03-1.58410E-13
 -1      3223 1.26436E-02-2.73679E-03-1.69849E-13
 -1      3224 1.25007E-02-2.69305E-03-1.66581E-13
 -1      3225 1.24671E-02-2.70831E-03-1.64904E-13
 -1      3226 1.29293E-02-2.82426E-03-1.76401E-13
 -1      3227 1.27864E-02-2.78053E-03-1.73121E-13
 -1      3228 1.27529E-02-2.79578E-03-1.71431E-13
 -1      3229 1.32150E-02-2.91173E-03-1.82984E-13
 -1      3230 1.30721E-02-2.86800E-03-1.79691E-13
 -1      3231 1.30386E-02-2.88325E-03-1.77990E-13
 -1      3232 1.38090E-02-3.13312E-03-1.95293E-13
 -1      3233 1.40903E-02-3.47939E-03-1.92150E-13
 -1      3234 1.40473E-02-3.43723E-03-1.92246E-13
 -1      3235 2.38324E-03 4.69708E-04-6.52150E-15
 -1      3236 2.22870E-03 4.99738E-04-5.68394E-15
 -1      3237 1.45386E-02-3.87304E-03-1.92629E-13
 -1      3238 1.43469E-02-3.73086E-03-1.91456E-13
 -1      3239 1.43039E-02-3.68871E-03-1.91586E-13
 -1      3240 2.07516E-03 5.17045E-04-4.90645E-15
 -1      3241 1.92044E-03 5.20794E-04-4.18868E-15
 -1      3242 2.16977E-03 4.83766E-04-5.31868E-15
 -1      3243 4.54311E-03-7.41942E-04-1.28302E-14
 -1      3244 4.40969E-03-7.85892E-04-1.22486E-14
 -1      3245 2.38218E-03 3.84244E-04-5.96010E-15
 -1      3246 2.53483E-03 3.31878E-04-6.71350E-15
 -1      3247 3.66281E-03-3.46779E-06-1.52693E-14
 -1      3248 3.50159E-03 5.99883E-05-1.39883E-14
 -1      3249 3.46274E-03 4.45928E-05-1.34289E-14
 -1      3250 4.37182E-03-8.33698E-04-1.24164E-14
 -1      3251 1.41749E-02-3.56226E-03-1.91943E-13
 -1      3252 1.41326E-02-3.52082E-03-1.92050E-13
 -1      3253 1.39874E-02-3.46188E-03-1.89229E-13
 -1      3254 1.18892E-03 2.49781E-04-1.66693E-15
 -1      3255 1.18219E-03 2.02586E-04-1.65718E-15
 -1      3256 1.33876E-03 3.15148E-04-2.04920E-15
 -1      3257 1.26366E-03 3.93654E-04-1.86498E-15
 -1      3258 2.69577E-03 3.76985E-04-8.37401E-15
 -1      3259 2.53840E-03 4.27914E-04-7.41796E-15
 -1      3260 2.80345E-03 3.10749E-04-8.92023E-15
 -1      3261 1.42609E-02-3.64656E-03-1.91713E-13
 -1      3262 1.42179E-02-3.60441E-03-1.91831E-13
 -1      3263 1.40726E-02-3.54547E-03-1.89014E-13
 -1      3264 1.41586E-02-3.62977E-03-1.88777E-13
 -1      3265 4.73765E-03-6.96575E-04-1.38595E-14
 -1      3266 4.66200E-03-7.11993E-04-1.34481E-14
 -1      3267 3.98165E-03-1.23454E-04-1.79825E-14
 -1      3268 3.82309E-03-6.46763E-05-1.66011E-14
 -1      3269 3.79011E-03-8.25226E-05-1.59978E-14
 -1      3270 4.11001E-03-1.98362E-04-1.87636E-14
 -1      3271 2.74264E-03 2.37967E-04-7.68912E-15
 -1      3272 2.91405E-03 1.43798E-04-8.46126E-15
 -1      3273 1.40230E-03 2.13270E-04-2.21096E-15
 -1      3274 1.54184E-03 2.75605E-04-2.58101E-15
 -1      3275 3.09136E-03 4.32086E-05-9.23220E-15
 -1      3276 3.27861E-03-6.43588E-05-1.00365E-14
 -1      3277 3.02108E-03 9.92419E-05-9.20202E-15
 -1      3278 4.09778E-03-4.72726E-04-1.29857E-14
 -1      3279 4.28845E-03-5.45611E-04-1.34384E-14
 -1      3280 4.80688E-03-6.83973E-04-1.45777E-14
 -1      3281 4.79875E-03-6.89356E-04-1.44192E-14
 -1      3282 4.49439E-03-8.26552E-04-1.33197E-14
 -1      3283 1.42793E-03 4.34952E-04-2.33682E-15
 -1      3284 4.75236E-03-8.03982E-04-1.52765E-14
 -1      3285 4.85370E-03-7.83045E-04-1.60336E-14
 -1      3286 4.67959E-03-6.56710E-04-1.51151E-14
 -1      3287 4.83914E-03-6.95933E-04-1.55206E-14
 -1      3288 1.94933E-03 4.10597E-04-3.99984E-15
 -1      3289 1.44300E-02-3.81470E-03-1.91092E-13
 -1      3290 1.37730E-02-3.15986E-03-1.93067E-13
 -1      3291 1.36897E-02-3.09114E-03-1.92723E-13
 -1      3292 1.35704E-02-3.04916E-03-1.90157E-13
 -1      3293 2.48301E-03 4.19407E-04-7.00063E-15
 -1      3294 1.34511E-02-3.00719E-03-1.87594E-13
 -1      3295 1.33318E-02-2.96521E-03-1.85036E-13
 -1      3296 1.35344E-02-3.07591E-03-1.87938E-13
 -1      3297 1.39183E-02-3.31078E-03-1.92500E-13
 -1      3298 1.38753E-02-3.26863E-03-1.92582E-13
 -1      3299 3.43725E-03-1.42313E-04-1.09201E-14
 -1      3300 3.59396E-03-2.12589E-04-1.18349E-14
 -1      3301 3.34888E-03-7.31339E-05-1.08818E-14
 -1      3302 1.38455E-02-3.23514E-03-1.92790E-13
 -1      3303 1.38029E-02-3.19335E-03-1.92861E-13
 -1      3304 1.36836E-02-3.15137E-03-1.90296E-13
 -1      3305 1.37433E-02-3.21835E-03-1.89882E-13
 -1      3306 1.40043E-02-3.39508E-03-1.92335E-13
 -1      3307 1.39613E-02-3.35293E-03-1.92420E-13
 -1      3308 1.39021E-02-3.37829E-03-1.89420E-13
 -1      3309 1.43830E-02-3.77784E-03-1.90887E-13
 -1      3310 4.64583E-03-7.46273E-04-1.37774E-14
 -1      3311 2.64912E-03 2.91941E-04-7.40826E-15
 -1      3312 4.82013E-03-7.13712E-04-1.49817E-14
 -1      3313 1.22422E-03 1.91961E-04-1.76096E-15
 -1      3314 1.20037E-03 1.39403E-04-1.73692E-15
 -1      3315 1.75716E-03 5.02080E-04-3.49457E-15
 -1      3316 1.59824E-03 4.79717E-04-2.90114E-15
 -1      3317 1.50921E-03 4.09961E-04-2.57623E-15
 -1      3318 1.84927E-03 4.82225E-04-3.83646E-15
 -1      3319 1.42378E-02-3.71890E-03-1.88083E-13
 -1      3320 2.26330E-03 4.13740E-04-5.46050E-15
 -1      3321 3.86625E-03-3.53544E-04-1.28050E-14
 -1      3322 3.97823E-03-4.15709E-04-1.28968E-14
 -1      3323 4.13070E-03-4.68284E-04-1.38638E-14
 -1      3324 1.01315E-03 2.26643E-05-1.42948E-15
 -1      3325 1.62879E-03 3.23086E-04-2.84434E-15
 -1      3326 1.70651E-03 3.64045E-04-3.11864E-15
 -1      3327 1.51685E-03 3.06470E-04-2.52116E-15
 -1      3328 4.64389E-03-8.35421E-04-1.46168E-14
 -1      3329 1.15267E-03 8.91474E-05-1.67555E-15
 -1      3330 4.40297E-03-5.77074E-04-1.43531E-14
 -1      3331 4.67156E-03-6.52903E-04-1.60319E-14
 -1      3332 4.78484E-03-6.82908E-04-1.64094E-14
 -1      3333 3.25479E-03 9.74648E-05-1.16847E-14
 -1      3334 3.08560E-03 1.67874E-04-1.05526E-14
 -1      3335 5.30012E-03-9.07119E-04-2.14736E-14
 -1      3336 5.42342E-03-9.46351E-04-2.30194E-14
 -1      3337 5.54887E-03-9.86875E-04-2.46083E-14
 -1      3338 5.67675E-03-1.02897E-03-2.62386E-14
 -1      3339 5.47503E-03-9.41725E-04-2.38888E-14
 -1      3340 5.80649E-03-1.07207E-03-2.79121E-14
 -1      3341 5.93816E-03-1.11630E-03-2.96272E-14
 -1      3342 5.72375E-03-1.02398E-03-2.71527E-14
 -1      3343 6.07134E-03-1.16122E-03-3.13858E-14
 -1      3344 6.20601E-03-1.20688E-03-3.31857E-14
 -1      3345 5.98194E-03-1.11048E-03-3.05855E-14
 -1      3346 6.34184E-03-1.25294E-03-3.50272E-14
 -1      3347 6.47880E-03-1.29941E-03-3.69103E-14
 -1      3348 6.24736E-03-1.19999E-03-3.41872E-14
 -1      3349 6.61663E-03-1.34605E-03-3.88340E-14
 -1      3350 6.75530E-03-1.39287E-03-4.07996E-14
 -1      3351 6.51826E-03-1.29136E-03-3.79546E-14
 -1      3352 6.89460E-03-1.43969E-03-4.28049E-14
 -1      3353 7.03452E-03-1.48653E-03-4.48511E-14
 -1      3354 6.79327E-03-1.38369E-03-4.18857E-14
 -1      3355 7.17490E-03-1.53327E-03-4.69346E-14
 -1      3356 7.31573E-03-1.57992E-03-4.90565E-14
 -1      3357 7.07131E-03-1.47631E-03-4.59771E-14
 -1      3358 7.45688E-03-1.62641E-03-5.12193E-14
 -1      3359 7.59834E-03-1.67276E-03-5.34190E-14
 -1      3360 7.35160E-03-1.56877E-03-5.02242E-14
 -1      3361 7.74004E-03-1.71893E-03-5.56568E-14
 -1      3362 7.88196E-03-1.76492E-03-5.79306E-14
 -1      3363 7.63351E-03-1.66080E-03-5.46240E-14
 -1      3364 8.02404E-03-1.81073E-03-6.02403E-14
 -1      3365 8.16628E-03-1.85637E-03-6.25872E-14
 -1      3366 7.91659E-03-1.75228E-03-5.91718E-14
 -1      3367 8.30863E-03-1.90183E-03-6.49671E-14
 -1      3368 8.45109E-03-1.94713E-03-6.73833E-14
 -1      3369 8.20052E-03-1.84316E-03-6.38645E-14
 -1      3370 8.59362E-03-1.99227E-03-6.98345E-14
 -1      3371 8.73624E-03-2.03726E-03-7.23195E-14
 -1      3372 8.48504E-03-1.93345E-03-6.86983E-14
 -1      3373 8.87890E-03-2.08211E-03-7.48375E-14
 -1      3374 9.02161E-03-2.12683E-03-7.73891E-14
 -1      3375 8.76999E-03-2.02320E-03-7.36699E-14
 -1      3376 9.16436E-03-2.17144E-03-7.99734E-14
 -1      3377 9.30714E-03-2.21594E-03-8.25891E-14
 -1      3378 9.05524E-03-2.11248E-03-7.87734E-14
 -1      3379 9.44995E-03-2.26035E-03-8.52378E-14
 -1      3380 9.59277E-03-2.30466E-03-8.79201E-14
 -1      3381 9.34068E-03-2.20135E-03-8.40079E-14
 -1      3382 9.73561E-03-2.34890E-03-9.06334E-14
 -1      3383 9.87847E-03-2.39306E-03-9.33775E-14
 -1      3384 9.62627E-03-2.28988E-03-8.93732E-14
 -1      3385 1.00213E-02-2.43717E-03-9.61489E-14
 -1      3386 1.01642E-02-2.48121E-03-9.89503E-14
 -1      3387 9.91194E-03-2.37815E-03-9.48621E-14
 -1      3388 1.03071E-02-2.52521E-03-1.01780E-13
 -1      3389 1.04500E-02-2.56917E-03-1.04636E-13
 -1      3390 1.01977E-02-2.46619E-03-1.00466E-13
 -1      3391 1.05928E-02-2.61309E-03-1.07517E-13
 -1      3392 1.07357E-02-2.65698E-03-1.10426E-13
 -1      3393 1.04834E-02-2.55407E-03-1.06179E-13
 -1      3394 1.08786E-02-2.70083E-03-1.13362E-13
 -1      3395 1.10215E-02-2.74467E-03-1.16318E-13
 -1      3396 1.07692E-02-2.64182E-03-1.11997E-13
 -1      3397 1.11644E-02-2.78848E-03-1.19298E-13
 -1      3398 1.13073E-02-2.83228E-03-1.22302E-13
 -1      3399 1.10550E-02-2.72947E-03-1.17914E-13
 -1      3400 1.14501E-02-2.87606E-03-1.25326E-13
 -1      3401 1.15930E-02-2.91982E-03-1.28373E-13
 -1      3402 1.13407E-02-2.81705E-03-1.23924E-13
 -1      3403 1.17359E-02-2.96358E-03-1.31440E-13
 -1      3404 1.18788E-02-3.00733E-03-1.34526E-13
 -1      3405 1.16265E-02-2.90458E-03-1.30020E-13
 -1      3406 1.20217E-02-3.05107E-03-1.37630E-13
 -1      3407 1.21645E-02-3.09481E-03-1.40757E-13
 -1      3408 1.19123E-02-2.99208E-03-1.36196E-13
 -1      3409 1.23074E-02-3.13854E-03-1.43899E-13
 -1      3410 1.24503E-02-3.18226E-03-1.47053E-13
 -1      3411 1.21980E-02-3.07955E-03-1.42444E-13
 -1      3412 1.25931E-02-3.22599E-03-1.50226E-13
 -1      3413 1.27360E-02-3.26971E-03-1.53417E-13
 -1      3414 1.24838E-02-3.16700E-03-1.48761E-13
 -1      3415 1.28789E-02-3.31343E-03-1.56619E-13
 -1      3416 1.30217E-02-3.35715E-03-1.59836E-13
 -1      3417 1.27695E-02-3.25445E-03-1.55138E-13
 -1      3418 1.31646E-02-3.40087E-03-1.63065E-13
 -1      3419 1.33075E-02-3.44459E-03-1.66307E-13
 -1      3420 1.30553E-02-3.34189E-03-1.61573E-13
 -1      3421 1.34503E-02-3.48831E-03-1.69558E-13
 -1      3422 1.35932E-02-3.53202E-03-1.72821E-13
 -1      3423 1.33410E-02-3.42932E-03-1.68055E-13
 -1      3424 1.37361E-02-3.57574E-03-1.76096E-13
 -1      3425 1.38789E-02-3.61946E-03-1.79379E-13
 -1      3426 1.36267E-02-3.51676E-03-1.74578E-13
 -1      3427 1.39869E-02-3.64732E-03-1.82071E-13
 -1      3428 1.41298E-02-3.69104E-03-1.85374E-13
 -1      3429 1.40936E-02-3.64406E-03-1.85941E-13
 -1      3430 1.38776E-02-3.58834E-03-1.80545E-13
 -1      3431 4.85088E-03-4.64202E-04-2.57486E-14
 -1      3432 4.70147E-03-4.18950E-04-2.41307E-14
 -1      3433 4.55018E-03-3.72236E-04-2.25575E-14
 -1      3434 4.39687E-03-3.23479E-04-2.10303E-14
 -1      3435 4.67965E-03-4.38982E-04-2.33970E-14
 -1      3436 5.43571E-03-6.34762E-04-3.26644E-14
 -1      3437 5.29097E-03-5.93189E-04-3.08702E-14
 -1      3438 5.72336E-03-7.16710E-04-3.63813E-14
 -1      3439 5.57978E-03-6.75877E-04-3.45018E-14
 -1      3440 5.55483E-03-6.92284E-04-3.36369E-14
 -1      3441 6.00946E-03-7.97884E-04-4.02621E-14
 -1      3442 5.86654E-03-7.57343E-04-3.83006E-14
 -1      3443 5.84004E-03-7.73180E-04-3.73930E-14
 -1      3444 6.29475E-03-8.78943E-04-4.43071E-14
 -1      3445 6.15216E-03-8.38397E-04-4.22646E-14
 -1      3446 6.12420E-03-8.53897E-04-4.13139E-14
 -1      3447 6.57969E-03-9.60310E-04-4.85156E-14
 -1      3448 6.43723E-03-9.19571E-04-4.63917E-14
 -1      3449 6.40798E-03-9.34894E-04-4.53977E-14
 -1      3450 6.86456E-03-1.04223E-03-5.28808E-14
 -1      3451 6.72212E-03-1.00119E-03-5.06783E-14
 -1      3452 6.69177E-03-1.01644E-03-4.96430E-14
 -1      3453 7.14951E-03-1.12482E-03-5.74036E-14
 -1      3454 7.00702E-03-1.08344E-03-5.51224E-14
 -1      3455 6.97577E-03-1.09867E-03-5.40456E-14
 -1      3456 7.43458E-03-1.20813E-03-6.20742E-14
 -1      3457 7.29202E-03-1.16639E-03-5.97209E-14
 -1      3458 7.26007E-03-1.18163E-03-5.86022E-14
 -1      3459 7.71980E-03-1.29213E-03-6.68930E-14
 -1      3460 7.57717E-03-1.25005E-03-6.44652E-14
 -1      3461 7.54467E-03-1.26530E-03-6.33077E-14
 -1      3462 8.00516E-03-1.37677E-03-7.18526E-14
 -1      3463 7.86247E-03-1.33437E-03-6.93564E-14
 -1      3464 7.82956E-03-1.34965E-03-6.81588E-14
 -1      3465 8.29064E-03-1.46197E-03-7.69473E-14
 -1      3466 8.14789E-03-1.41930E-03-7.43828E-14
 -1      3467 8.11469E-03-1.43460E-03-7.31477E-14
 -1      3468 8.57621E-03-1.54765E-03-8.21754E-14
 -1      3469 8.43341E-03-1.50476E-03-7.95448E-14
 -1      3470 8.40002E-03-1.52006E-03-7.82705E-14
 -1      3471 8.86185E-03-1.63375E-03-8.75363E-14
 -1      3472 8.71902E-03-1.59065E-03-8.48399E-14
 -1      3473 8.68549E-03-1.60596E-03-8.35281E-14
 -1      3474 9.14753E-03-1.72017E-03-9.30229E-14
 -1      3475 9.00468E-03-1.67692E-03-9.02643E-14
 -1      3476 8.97107E-03-1.69223E-03-8.89147E-14
 -1      3477 9.43325E-03-1.80686E-03-9.86310E-14
 -1      3478 9.29039E-03-1.76349E-03-9.58125E-14
 -1      3479 9.25672E-03-1.77880E-03-9.44280E-14
 -1      3480 9.71899E-03-1.89376E-03-1.04358E-13
 -1      3481 9.57612E-03-1.85029E-03-1.01479E-13
 -1      3482 9.54243E-03-1.86559E-03-1.00061E-13
 -1      3483 1.00047E-02-1.98083E-03-1.10193E-13
 -1      3484 9.86186E-03-1.93728E-03-1.07262E-13
 -1      3485 9.82817E-03-1.95258E-03-1.05810E-13
 -1      3486 1.02905E-02-2.06802E-03-1.16136E-13
 -1      3487 1.01476E-02-2.02441E-03-1.13153E-13
 -1      3488 1.01139E-02-2.03970E-03-1.11668E-13
 -1      3489 1.05762E-02-2.15529E-03-1.22175E-13
 -1      3490 1.04334E-02-2.11164E-03-1.19145E-13
 -1      3491 1.03997E-02-2.12693E-03-1.17630E-13
 -1      3492 1.08620E-02-2.24264E-03-1.28298E-13
 -1      3493 1.07191E-02-2.19896E-03-1.25225E-13
 -1      3494 1.06855E-02-2.21424E-03-1.23683E-13
 -1      3495 1.11477E-02-2.33003E-03-1.34502E-13
 -1      3496 1.10049E-02-2.28633E-03-1.31390E-13
 -1      3497 1.09712E-02-2.30160E-03-1.29822E-13
 -1      3498 1.14335E-02-2.41745E-03-1.40780E-13
 -1      3499 1.12906E-02-2.37374E-03-1.37632E-13
 -1      3500 1.12570E-02-2.38901E-03-1.36040E-13
 -1      3501 1.17192E-02-2.50490E-03-1.47124E-13
 -1      3502 1.15763E-02-2.46117E-03-1.43943E-13
 -1      3503 1.15427E-02-2.47644E-03-1.42329E-13
 -1      3504 1.20050E-02-2.59236E-03-1.53532E-13
 -1      3505 1.18621E-02-2.54863E-03-1.50322E-13
 -1      3506 1.18285E-02-2.56389E-03-1.48684E-13
 -1      3507 1.22907E-02-2.67983E-03-1.59984E-13
 -1      3508 1.21478E-02-2.63609E-03-1.56752E-13
 -1      3509 1.21142E-02-2.65135E-03-1.55098E-13
 -1      3510 1.25764E-02-2.76730E-03-1.66483E-13
 -1      3511 1.24335E-02-2.72356E-03-1.63230E-13
 -1      3512 1.24000E-02-2.73882E-03-1.61556E-13
 -1      3513 1.28621E-02-2.85477E-03-1.73014E-13
 -1      3514 1.27193E-02-2.81103E-03-1.69745E-13
 -1      3515 1.26857E-02-2.82629E-03-1.68059E-13
 -1      3516 1.31479E-02-2.94224E-03-1.79579E-13
 -1      3517 1.30050E-02-2.89850E-03-1.76293E-13
 -1      3518 1.29714E-02-2.91376E-03-1.74597E-13
 -1      3519 1.32983E-02-2.98046E-03-1.83329E-13
 -1      3520 1.38161E-02-3.29398E-03-1.89591E-13
 -1      3521 2.54787E-03 3.66307E-04-7.19212E-15
 -1      3522 2.38562E-03 4.13428E-04-6.30446E-15
 -1      3523 1.38709E-03 2.65471E-04-2.15997E-15
 -1      3524 2.24321E-03 4.27775E-04-5.47320E-15
 -1      3525 2.18546E-03 4.63063E-04-5.33057E-15
 -1      3526 2.02736E-03 4.73903E-04-4.57812E-15
 -1      3527 2.05683E-03 4.40351E-04-4.57152E-15
 -1      3528 1.38848E-02-3.44473E-03-1.86310E-13
 -1      3529 1.38425E-02-3.40329E-03-1.86412E-13
 -1      3530 3.59202E-03-3.87770E-05-1.41071E-14
 -1      3531 3.42422E-03 2.79810E-05-1.28699E-14
 -1      3532 3.38648E-03 1.12928E-05-1.23111E-14
 -1      3533 1.82474E-03 4.00624E-04-3.55464E-15
 -1      3534 1.94809E-03 4.28122E-04-4.07258E-15
 -1      3535 1.93528E-03 4.43877E-04-4.08424E-15
 -1      3536 1.71216E-03 3.90775E-04-3.18167E-15
 -1      3537 5.14540E-03-5.51062E-04-2.91189E-14
 -1      3538 4.99879E-03-5.08101E-04-2.74112E-14
 -1      3539 4.97650E-03-5.26618E-04-2.66341E-14
 -1      3540 5.26751E-03-6.10477E-04-3.00486E-14
 -1      3541 5.06177E-03-8.34222E-04-1.85112E-14
 -1      3542 5.17982E-03-8.69818E-04-1.99717E-14
 -1      3543 5.23852E-03-8.64662E-04-2.07962E-14
 -1      3544 4.87523E-03-7.08768E-04-1.65872E-14
 -1      3545 4.91792E-03-7.24145E-04-1.66269E-14
 -1      3546 4.87349E-03-7.41872E-04-1.58820E-14
 -1      3547 4.98958E-03-8.01107E-04-1.75641E-14
 -1      3548 5.05260E-03-7.96044E-04-1.83484E-14
 -1      3549 4.92176E-03-7.36885E-04-1.64677E-14
 -1      3550 4.40068E-03-5.64803E-04-1.52109E-14
 -1      3551 4.54447E-03-6.14015E-04-1.56213E-14
 -1      3552 4.67650E-03-6.45989E-04-1.69299E-14
 -1      3553 2.96901E-03 1.47504E-04-9.20107E-15
 -1      3554 3.13186E-03 5.65478E-05-1.00036E-14
 -1      3555 1.32647E-02-2.99571E-03-1.81624E-13
 -1      3556 2.73667E-03 2.84634E-04-8.20116E-15
 -1      3557 1.46780E-03 3.12974E-04-2.39283E-15
 -1      3558 1.37995E-02-3.36114E-03-1.86508E-13
 -1      3559 1.37565E-02-3.31899E-03-1.86599E-13
 -1      3560 1.36969E-02-3.34399E-03-1.83601E-13
 -1      3561 1.39426E-02-3.57405E-03-1.83371E-13
 -1      3562 1.40506E-02-3.60191E-03-1.86071E-13
 -1      3563 1.40076E-02-3.55976E-03-1.86195E-13
 -1      3564 4.37428E-03-3.45007E-04-2.03412E-14
 -1      3565 4.24109E-03-2.72589E-04-1.95503E-14
 -1      3566 4.08290E-03-2.18863E-04-1.81168E-14
 -1      3567 2.82544E-03 2.77449E-04-8.92281E-15
 -1      3568 2.93895E-03 1.77493E-04-9.19665E-15
 -1      3569 3.28203E-03-1.41649E-05-1.08756E-14
 -1      3570 1.35642E-02-3.10940E-03-1.87735E-13
 -1      3571 1.34449E-02-3.06742E-03-1.85176E-13
 -1      3572 1.35941E-02-3.14288E-03-1.87529E-13
 -1      3573 3.66179E-03-2.15814E-04-1.27150E-14
 -1      3574 3.75696E-03-2.84922E-04-1.27633E-14
 -1      3575 3.91593E-03-3.48517E-04-1.37207E-14
 -1      3576 1.36538E-02-3.20986E-03-1.87113E-13
 -1      3577 1.36240E-02-3.17637E-03-1.87323E-13
 -1      3578 1.35046E-02-3.13439E-03-1.84767E-13
 -1      3579 3.75833E-03-1.02182E-04-1.53948E-14
 -1      3580 3.72791E-03-1.23318E-04-1.47924E-14
 -1      3581 3.92179E-03-1.62266E-04-1.67316E-14
 -1      3582 4.30091E-03-5.21700E-04-1.51122E-14
 -1      3583 4.45998E-03-5.65482E-04-1.64019E-14
 -1      3584 4.20142E-03-4.72827E-04-1.50093E-14
 -1      3585 1.46281E-03 3.51545E-04-2.40139E-15
 -1      3586 1.86095E-03 4.60654E-04-3.84228E-15
 -1      3587 1.64173E-03 4.03924E-04-2.97894E-15
 -1      3588 2.99260E-03 2.09368E-04-9.97123E-15
 -1      3589 4.98447E-03-7.51158E-04-1.75650E-14
 -1      3590 4.89258E-03-7.12570E-04-1.75442E-14
 -1      3591 1.32945E-02-3.02920E-03-1.81420E-13
 -1      3592 1.37267E-02-3.28550E-03-1.86818E-13
 -1      3593 1.36837E-02-3.24335E-03-1.86901E-13
 -1      3594 1.35644E-02-3.20137E-03-1.84347E-13
 -1      3595 1.36241E-02-3.26835E-03-1.83917E-13
 -1      3596 1.39677E-02-3.52332E-03-1.86202E-13
 -1      3597 1.39247E-02-3.48117E-03-1.86313E-13
 -1      3598 1.37798E-02-3.42259E-03-1.83506E-13
 -1      3599 1.38597E-02-3.49546E-03-1.83505E-13
 -1      3600 3.11727E-03 1.27636E-04-1.05501E-14
 -1      3601 5.17563E-03-8.26260E-04-2.01187E-14
 -1      3602 5.28591E-03-8.62690E-04-2.16232E-14
 -1      3603 5.64056E-03-9.78285E-04-2.63944E-14
 -1      3604 5.76530E-03-1.01959E-03-2.80694E-14
 -1      3605 5.89246E-03-1.06173E-03-2.97866E-14
 -1      3606 6.02185E-03-1.10491E-03-3.15464E-14
 -1      3607 5.80227E-03-1.01494E-03-2.89882E-14
 -1      3608 6.15307E-03-1.14869E-03-3.33474E-14
 -1      3609 6.28595E-03-1.19317E-03-3.51908E-14
 -1      3610 6.05849E-03-1.09903E-03-3.25087E-14
 -1      3611 6.42022E-03-1.23804E-03-3.70754E-14
 -1      3612 6.55575E-03-1.28332E-03-3.90010E-14
 -1      3613 6.32218E-03-1.18606E-03-3.61966E-14
 -1      3614 6.69232E-03-1.32879E-03-4.09670E-14
 -1      3615 6.82984E-03-1.37448E-03-4.29741E-14
 -1      3616 6.59153E-03-1.27501E-03-4.00494E-14
 -1      3617 6.96813E-03-1.42023E-03-4.50206E-14
 -1      3618 7.10712E-03-1.46604E-03-4.71050E-14
 -1      3619 6.86517E-03-1.36504E-03-4.40638E-14
 -1      3620 7.24669E-03-1.51181E-03-4.92296E-14
 -1      3621 7.38678E-03-1.55756E-03-5.13920E-14
 -1      3622 7.14204E-03-1.45557E-03-4.82359E-14
 -1      3623 7.52730E-03-1.60321E-03-5.35920E-14
 -1      3624 7.66820E-03-1.64879E-03-5.58297E-14
 -1      3625 7.42134E-03-1.54619E-03-5.25613E-14
 -1      3626 7.80941E-03-1.69424E-03-5.81053E-14
 -1      3627 7.95091E-03-1.73959E-03-6.04165E-14
 -1      3628 7.70246E-03-1.63664E-03-5.70383E-14
 -1      3629 8.09263E-03-1.78480E-03-6.27640E-14
 -1      3630 8.23455E-03-1.82990E-03-6.51462E-14
 -1      3631 7.98493E-03-1.72678E-03-6.16628E-14
 -1      3632 8.37664E-03-1.87487E-03-6.75628E-14
 -1      3633 8.51888E-03-1.91972E-03-7.00166E-14
 -1      3634 8.26840E-03-1.81654E-03-6.64299E-14
 -1      3635 8.66123E-03-1.96447E-03-7.25034E-14
 -1      3636 8.80368E-03-2.00910E-03-7.50224E-14
 -1      3637 8.55259E-03-1.90592E-03-7.13356E-14
 -1      3638 8.94622E-03-2.05364E-03-7.75753E-14
 -1      3639 9.08883E-03-2.09808E-03-8.01610E-14
 -1      3640 8.83731E-03-1.99494E-03-7.63769E-14
 -1      3641 9.23150E-03-2.14244E-03-8.27792E-14
 -1      3642 9.37422E-03-2.18672E-03-8.54292E-14
 -1      3643 9.12239E-03-2.08363E-03-8.15494E-14
 -1      3644 9.51697E-03-2.23093E-03-8.81146E-14
 -1      3645 9.65976E-03-2.27508E-03-9.08303E-14
 -1      3646 9.40774E-03-2.17205E-03-8.68546E-14
 -1      3647 9.80258E-03-2.31917E-03-9.35730E-14
 -1      3648 9.94542E-03-2.36320E-03-9.63476E-14
 -1      3649 9.69327E-03-2.26024E-03-9.22859E-14
 -1      3650 1.00883E-02-2.40720E-03-9.91521E-14
 -1      3651 1.02311E-02-2.45115E-03-1.01983E-13
 -1      3652 9.97891E-03-2.34823E-03-9.78364E-14
 -1      3653 1.03740E-02-2.49507E-03-1.04841E-13
 -1      3654 1.05169E-02-2.53895E-03-1.07724E-13
 -1      3655 1.02646E-02-2.43608E-03-1.03501E-13
 -1      3656 1.06598E-02-2.58281E-03-1.10635E-13
 -1      3657 1.08027E-02-2.62665E-03-1.13571E-13
 -1      3658 1.05504E-02-2.52382E-03-1.09272E-13
 -1      3659 1.09456E-02-2.67046E-03-1.16530E-13
 -1      3660 1.10885E-02-2.71426E-03-1.19513E-13
 -1      3661 1.08362E-02-2.61147E-03-1.15144E-13
 -1      3662 1.12314E-02-2.75805E-03-1.22518E-13
 -1      3663 1.13743E-02-2.80182E-03-1.25548E-13
 -1      3664 1.11220E-02-2.69905E-03-1.21114E-13
 -1      3665 1.15171E-02-2.84558E-03-1.28598E-13
 -1      3666 1.16600E-02-2.88933E-03-1.31668E-13
 -1      3667 1.14078E-02-2.78658E-03-1.27175E-13
 -1      3668 1.18029E-02-2.93308E-03-1.34758E-13
 -1      3669 1.19458E-02-2.97682E-03-1.37865E-13
 -1      3670 1.16936E-02-2.87408E-03-1.33317E-13
 -1      3671 1.20887E-02-3.02055E-03-1.40990E-13
 -1      3672 1.22316E-02-3.06428E-03-1.44132E-13
 -1      3673 1.19793E-02-2.96155E-03-1.39534E-13
 -1      3674 1.23745E-02-3.10801E-03-1.47292E-13
 -1      3675 1.25173E-02-3.15173E-03-1.50465E-13
 -1      3676 1.22651E-02-3.04902E-03-1.45819E-13
 -1      3677 1.26602E-02-3.19546E-03-1.53654E-13
 -1      3678 1.28031E-02-3.23918E-03-1.56859E-13
 -1      3679 1.25509E-02-3.13647E-03-1.52170E-13
 -1      3680 1.29460E-02-3.28290E-03-1.60078E-13
 -1      3681 1.30888E-02-3.32662E-03-1.63308E-13
 -1      3682 1.28366E-02-3.22391E-03-1.58578E-13
 -1      3683 1.32317E-02-3.37034E-03-1.66547E-13
 -1      3684 1.33746E-02-3.41406E-03-1.69799E-13
 -1      3685 1.31224E-02-3.31135E-03-1.65038E-13
 -1      3686 1.35174E-02-3.45778E-03-1.73061E-13
 -1      3687 1.36603E-02-3.50150E-03-1.76335E-13
 -1      3688 1.34081E-02-3.39879E-03-1.71542E-13
 -1      3689 1.37475E-02-3.52384E-03-1.78505E-13
 -1      3690 1.38555E-02-3.55170E-03-1.81192E-13
 -1      3691 1.38125E-02-3.50955E-03-1.81319E-13
 -1      3692 1.36381E-02-3.46486E-03-1.76975E-13
 -1      3693 4.80931E-03-5.03471E-04-2.42396E-14
 -1      3694 4.66038E-03-4.60020E-04-2.26651E-14
 -1      3695 5.95584E-03-8.28845E-04-3.84066E-14
 -1      3696 5.81453E-03-7.88734E-04-3.64883E-14
 -1      3697 5.67302E-03-7.48673E-04-3.46096E-14
 -1      3698 5.53113E-03-7.08563E-04-3.27734E-14
 -1      3699 5.79002E-03-8.04009E-04-3.55845E-14
 -1      3700 6.52059E-03-9.90488E-04-4.64889E-14
 -1      3701 6.37935E-03-9.49841E-04-4.44077E-14
 -1      3702 6.80336E-03-1.07235E-03-5.07708E-14
 -1      3703 6.66191E-03-1.03133E-03-4.86099E-14
 -1      3704 6.63254E-03-1.04582E-03-4.75790E-14
 -1      3705 7.08661E-03-1.15498E-03-5.52094E-14
 -1      3706 6.94492E-03-1.11357E-03-5.29699E-14
 -1      3707 6.91445E-03-1.12812E-03-5.18994E-14
 -1      3708 7.37037E-03-1.23837E-03-5.98018E-14
 -1      3709 7.22843E-03-1.19658E-03-5.74872E-14
 -1      3710 7.19708E-03-1.21124E-03-5.63730E-14
 -1      3711 7.65459E-03-1.32246E-03-6.45400E-14
 -1      3712 7.51242E-03-1.28033E-03-6.21527E-14
 -1      3713 7.48040E-03-1.29510E-03-6.09999E-14
 -1      3714 7.93921E-03-1.40717E-03-6.94211E-14
 -1      3715 7.79685E-03-1.36474E-03-6.69625E-14
 -1      3716 7.76432E-03-1.37962E-03-6.57717E-14
 -1      3717 8.22416E-03-1.49244E-03-7.44392E-14
 -1      3718 8.08165E-03-1.44974E-03-7.19136E-14
 -1      3719 8.04874E-03-1.46473E-03-7.06821E-14
 -1      3720 8.50936E-03-1.57817E-03-7.95922E-14
 -1      3721 8.36673E-03-1.53525E-03-7.70000E-14
 -1      3722 8.33355E-03-1.55032E-03-7.57300E-14
 -1      3723 8.79476E-03-1.66430E-03-8.48775E-14
 -1      3724 8.65204E-03-1.62119E-03-8.22177E-14
 -1      3725 8.61866E-03-1.63633E-03-8.09116E-14
 -1      3726 9.08029E-03-1.75074E-03-9.02919E-14
 -1      3727 8.93751E-03-1.70748E-03-8.75687E-14
 -1      3728 8.90401E-03-1.72267E-03-8.62253E-14
 -1      3729 9.36593E-03-1.83744E-03-9.58301E-14
 -1      3730 9.22310E-03-1.79406E-03-9.30452E-14
 -1      3731 9.18952E-03-1.80928E-03-9.16664E-14
 -1      3732 9.65162E-03-1.92434E-03-1.01488E-13
 -1      3733 9.50877E-03-1.88087E-03-9.86445E-14
 -1      3734 9.47514E-03-1.89611E-03-9.72317E-14
 -1      3735 9.93737E-03-2.01140E-03-1.07260E-13
 -1      3736 9.79449E-03-1.96786E-03-1.04360E-13
 -1      3737 9.76084E-03-1.98312E-03-1.02914E-13
 -1      3738 1.02231E-02-2.09858E-03-1.13139E-13
 -1      3739 1.00802E-02-2.05498E-03-1.10187E-13
 -1      3740 1.00466E-02-2.07025E-03-1.08708E-13
 -1      3741 1.05089E-02-2.18585E-03-1.19120E-13
 -1      3742 1.03660E-02-2.14221E-03-1.16117E-13
 -1      3743 1.03324E-02-2.15748E-03-1.14608E-13
 -1      3744 1.07947E-02-2.27319E-03-1.25188E-13
 -1      3745 1.06518E-02-2.22951E-03-1.22143E-13
 -1      3746 1.06181E-02-2.24479E-03-1.20606E-13
 -1      3747 1.10805E-02-2.36057E-03-1.31344E-13
 -1      3748 1.09376E-02-2.31688E-03-1.28256E-13
 -1      3749 1.09039E-02-2.33215E-03-1.26693E-13
 -1      3750 1.13662E-02-2.44799E-03-1.37575E-13
 -1      3751 1.12233E-02-2.40428E-03-1.34449E-13
 -1      3752 1.11897E-02-2.41955E-03-1.32862E-13
 -1      3753 1.16520E-02-2.53543E-03-1.43875E-13
 -1      3754 1.15091E-02-2.49171E-03-1.40717E-13
 -1      3755 1.14755E-02-2.50697E-03-1.39106E-13
 -1      3756 1.19377E-02-2.62288E-03-1.50241E-13
 -1      3757 1.17949E-02-2.57915E-03-1.47049E-13
 -1      3758 1.17613E-02-2.59442E-03-1.45417E-13
 -1      3759 1.22235E-02-2.71034E-03-1.56657E-13
 -1      3760 1.20806E-02-2.66661E-03-1.53442E-13
 -1      3761 1.20470E-02-2.68187E-03-1.51790E-13
 -1      3762 1.25092E-02-2.79781E-03-1.63124E-13
 -1      3763 1.23664E-02-2.75407E-03-1.59885E-13
 -1      3764 1.23328E-02-2.76934E-03-1.58217E-13
 -1      3765 1.27950E-02-2.88528E-03-1.69631E-13
 -1      3766 1.26521E-02-2.84154E-03-1.66373E-13
 -1      3767 1.26185E-02-2.85680E-03-1.64689E-13
 -1      3768 1.30807E-02-2.97275E-03-1.76174E-13
 -1      3769 1.29378E-02-2.92901E-03-1.72897E-13
 -1      3770 1.29043E-02-2.94427E-03-1.71200E-13
 -1      3771 4.92278E-03-7.17445E-04-1.86728E-14
 -1      3772 5.00920E-03-7.47243E-04-1.88647E-14
 -1      3773 5.09945E-03-7.94860E-04-1.91345E-14
 -1      3774 1.33828E-02-3.08942E-03-1.82235E-13
 -1      3775 1.32025E-02-3.01772E-03-1.78692E-13
 -1      3776 1.31690E-02-3.03297E-03-1.76984E-13
 -1      3777 1.34127E-02-3.12291E-03-1.82029E-13
 -1      3778 4.68375E-03-6.36174E-04-1.78570E-14
 -1      3779 4.79981E-03-6.75570E-04-1.82957E-14
 -1      3780 5.40022E-03-8.99477E-04-2.31720E-14
 -1      3781 5.51878E-03-9.38387E-04-2.47622E-14
 -1      3782 5.55602E-03-9.34945E-04-2.56376E-14
 -1      3783 6.23818E-03-9.09362E-04-4.23661E-14
 -1      3784 6.09702E-03-8.69040E-04-4.03656E-14
 -1      3785 6.35133E-03-9.64388E-04-4.34188E-14
 -1      3786 4.64400E-03-4.82262E-04-2.19364E-14
 -1      3787 4.50901E-03-4.15213E-04-2.11364E-14
 -1      3788 4.35479E-03-3.68117E-04-1.96535E-14
 -1      3789 4.95624E-03-5.45642E-04-2.58592E-14
 -1      3790 4.93822E-03-5.65292E-04-2.50859E-14
 -1      3791 5.10158E-03-5.87097E-04-2.75221E-14
 -1      3792 6.07062E-03-8.83812E-04-3.94204E-14
 -1      3793 5.08741E-03-7.79894E-04-1.92997E-14
 -1      3794 5.14095E-03-7.90063E-04-2.04824E-14
 -1      3795 4.60379E-03-6.02684E-04-1.77495E-14
 -1      3796 4.74232E-03-6.37135E-04-1.91387E-14
 -1      3797 4.52112E-03-5.64800E-04-1.76382E-14
 -1      3798 4.94196E-03-7.14942E-04-1.96451E-14
 -1      3799 3.26262E-03 3.03991E-05-1.11633E-14
 -1      3800 3.46611E-03-9.09886E-05-1.20960E-14
 -1      3801 3.87023E-03-2.08593E-04-1.54844E-14
 -1      3802 3.70093E-03-1.46485E-04-1.41903E-14
 -1      3803 3.62106E-03-1.61486E-04-1.30278E-14
 -1      3804 1.35947E-02-3.32720E-03-1.80698E-13
 -1      3805 1.35517E-02-3.28505E-03-1.80795E-13
 -1      3806 4.05762E-03-2.41160E-04-1.74716E-14
 -1      3807 5.38875E-03-6.68365E-04-3.09799E-14
 -1      3808 5.24563E-03-6.27891E-04-2.92292E-14
 -1      3809 5.22549E-03-6.45497E-04-2.84127E-14
 -1      3810 4.09929E-03-4.14908E-04-1.49608E-14
 -1      3811 4.27370E-03-4.71310E-04-1.62431E-14
 -1      3812 4.00436E-03-3.53528E-04-1.49052E-14
 -1      3813 3.14684E-03 9.48547E-05-1.05665E-14
 -1      3814 3.04956E-03 1.40122E-04-9.98281E-15
 -1      3815 3.50063E-03-5.06408E-05-1.29539E-14
 -1      3816 3.32649E-03 2.12193E-05-1.17615E-14
 -1      3817 1.75311E-03 4.37182E-04-3.39632E-15
 -1      3818 1.36745E-02-3.40008E-03-1.80708E-13
 -1      3819 1.36346E-02-3.36364E-03-1.80704E-13
 -1      3820 1.34894E-02-3.30470E-03-1.77911E-13
 -1      3821 1.34425E-02-3.15640E-03-1.81818E-13
 -1      3822 1.33207E-02-3.11143E-03-1.79294E-13
 -1      3823 1.34724E-02-3.18989E-03-1.81606E-13
 -1      3824 5.32366E-03-8.60486E-04-2.24547E-14
 -1      3825 3.64658E-03-1.41210E-04-1.36012E-14
 -1      3826 5.50874E-03-7.24738E-04-3.19132E-14
 -1      3827 1.31988E-02-3.06646E-03-1.76777E-13
 -1      3828 1.30770E-02-3.02149E-03-1.74264E-13
 -1      3829 1.32287E-02-3.09995E-03-1.76568E-13
 -1      3830 5.96277E-03-1.05078E-03-3.16706E-14
 -1      3831 6.09226E-03-1.09274E-03-3.34738E-14
 -1      3832 6.22352E-03-1.13531E-03-3.53184E-14
 -1      3833 6.35632E-03-1.17858E-03-3.72046E-14
 -1      3834 6.12382E-03-1.08570E-03-3.44413E-14
 -1      3835 6.49046E-03-1.22226E-03-3.91320E-14
 -1      3836 6.62578E-03-1.26637E-03-4.10999E-14
 -1      3837 6.38880E-03-1.17050E-03-3.82146E-14
 -1      3838 6.76213E-03-1.31073E-03-4.31082E-14
 -1      3839 6.89939E-03-1.35533E-03-4.51553E-14
 -1      3840 6.65880E-03-1.25726E-03-4.21520E-14
 -1      3841 7.03743E-03-1.40005E-03-4.72413E-14
 -1      3842 7.17616E-03-1.44489E-03-4.93665E-14
 -1      3843 6.93270E-03-1.34524E-03-4.62479E-14
 -1      3844 7.31548E-03-1.48974E-03-5.15300E-14
 -1      3845 7.45534E-03-1.53464E-03-5.37315E-14
 -1      3846 7.20961E-03-1.43388E-03-5.04995E-14
 -1      3847 7.59564E-03-1.57950E-03-5.59705E-14
 -1      3848 7.73633E-03-1.62434E-03-5.82475E-14
 -1      3849 7.48885E-03-1.52283E-03-5.49038E-14
 -1      3850 7.87736E-03-1.66911E-03-6.05605E-14
 -1      3851 8.01869E-03-1.71384E-03-6.29102E-14
 -1      3852 7.76986E-03-1.61182E-03-5.94584E-14
 -1      3853 8.16027E-03-1.75849E-03-6.52944E-14
 -1      3854 8.30207E-03-1.80308E-03-6.77130E-14
 -1      3855 8.05223E-03-1.70073E-03-6.41586E-14
 -1      3856 8.44405E-03-1.84759E-03-7.01674E-14
 -1      3857 8.58620E-03-1.89203E-03-7.26550E-14
 -1      3858 8.33560E-03-1.78948E-03-6.89999E-14
 -1      3859 8.72847E-03-1.93640E-03-7.51769E-14
 -1      3860 8.87087E-03-1.98070E-03-7.77316E-14
 -1      3861 8.61971E-03-1.87803E-03-7.39773E-14
 -1      3862 9.01335E-03-2.02494E-03-8.03186E-14
 -1      3863 9.15592E-03-2.06913E-03-8.29393E-14
 -1      3864 8.90438E-03-1.96638E-03-7.90876E-14
 -1      3865 9.29856E-03-2.11325E-03-8.55928E-14
 -1      3866 9.44125E-03-2.15733E-03-8.82798E-14
 -1      3867 9.18943E-03-2.05455E-03-8.43321E-14
 -1      3868 9.58399E-03-2.20137E-03-9.09976E-14
 -1      3869 9.72677E-03-2.24536E-03-9.37432E-14
 -1      3870 9.47476E-03-2.14256E-03-8.97067E-14
 -1      3871 9.86958E-03-2.28931E-03-9.65204E-14
 -1      3872 1.00124E-02-2.33324E-03-9.93276E-14
 -1      3873 9.76028E-03-2.23044E-03-9.52060E-14
 -1      3874 1.01553E-02-2.37713E-03-1.02160E-13
 -1      3875 1.02981E-02-2.42100E-03-1.05018E-13
 -1      3876 1.00459E-02-2.31821E-03-1.00819E-13
 -1      3877 1.04410E-02-2.46484E-03-1.07906E-13
 -1      3878 1.05839E-02-2.50867E-03-1.10819E-13
 -1      3879 1.03317E-02-2.40589E-03-1.06540E-13
 -1      3880 1.07268E-02-2.55248E-03-1.13756E-13
 -1      3881 1.08697E-02-2.59627E-03-1.16720E-13
 -1      3882 1.06174E-02-2.49350E-03-1.12367E-13
 -1      3883 1.10126E-02-2.64005E-03-1.19706E-13
 -1      3884 1.11555E-02-2.68382E-03-1.22716E-13
 -1      3885 1.09032E-02-2.58106E-03-1.18296E-13
 -1      3886 1.12984E-02-2.72758E-03-1.25748E-13
 -1      3887 1.14413E-02-2.77133E-03-1.28802E-13
 -1      3888 1.11890E-02-2.66859E-03-1.24319E-13
 -1      3889 1.15842E-02-2.81508E-03-1.31873E-13
 -1      3890 1.17271E-02-2.85882E-03-1.34965E-13
 -1      3891 1.14748E-02-2.75608E-03-1.30428E-13
 -1      3892 1.18700E-02-2.90256E-03-1.38075E-13
 -1      3893 1.20129E-02-2.94629E-03-1.41201E-13
 -1      3894 1.17606E-02-2.84356E-03-1.36612E-13
 -1      3895 1.21558E-02-2.99002E-03-1.44347E-13
 -1      3896 1.22987E-02-3.03375E-03-1.47507E-13
 -1      3897 1.20464E-02-2.93102E-03-1.42871E-13
 -1      3898 1.24415E-02-3.07747E-03-1.50682E-13
 -1      3899 1.25844E-02-3.12120E-03-1.53871E-13
 -1      3900 1.23322E-02-3.01848E-03-1.49193E-13
 -1      3901 1.27273E-02-3.16492E-03-1.57077E-13
 -1      3902 1.28702E-02-3.20864E-03-1.60295E-13
 -1      3903 1.26180E-02-3.10593E-03-1.55574E-13
 -1      3904 1.30131E-02-3.25236E-03-1.63526E-13
 -1      3905 1.31559E-02-3.29609E-03-1.66766E-13
 -1      3906 1.29037E-02-3.19337E-03-1.62010E-13
 -1      3907 1.32988E-02-3.33981E-03-1.70019E-13
 -1      3908 1.34417E-02-3.38353E-03-1.73283E-13
 -1      3909 1.31895E-02-3.28082E-03-1.68496E-13
 -1      3910 7.02501E-03-1.18380E-03-5.30263E-14
 -1      3911 6.88428E-03-1.14227E-03-5.08294E-14
 -1      3912 6.74380E-03-1.10096E-03-4.86716E-14
 -1      3913 6.60356E-03-1.05988E-03-4.65529E-14
 -1      3914 6.85438E-03-1.15600E-03-4.97630E-14
 -1      3915 7.59017E-03-1.35185E-03-6.21979E-14
 -1      3916 7.44857E-03-1.30958E-03-5.98498E-14
 -1      3917 7.87388E-03-1.43683E-03-6.70006E-14
 -1      3918 7.73194E-03-1.39427E-03-6.45822E-14
 -1      3919 7.69969E-03-1.40866E-03-6.33946E-14
 -1      3920 8.15815E-03-1.52233E-03-7.19416E-14
 -1      3921 8.01595E-03-1.47952E-03-6.94529E-14
 -1      3922 7.98326E-03-1.49411E-03-6.82283E-14
 -1      3923 8.44287E-03-1.60825E-03-7.70193E-14
 -1      3924 8.30046E-03-1.56524E-03-7.44646E-14
 -1      3925 8.26746E-03-1.58000E-03-7.32009E-14
 -1      3926 8.72793E-03-1.69452E-03-8.22296E-14
 -1      3927 8.58537E-03-1.65135E-03-7.96086E-14
 -1      3928 8.55213E-03-1.66625E-03-7.83066E-14
 -1      3929 9.01325E-03-1.78108E-03-8.75718E-14
 -1      3930 8.87056E-03-1.73777E-03-8.48837E-14
 -1      3931 8.83717E-03-1.75278E-03-8.35470E-14
 -1      3932 9.29874E-03-1.86786E-03-9.30415E-14
 -1      3933 9.15598E-03-1.82444E-03-9.02912E-14
 -1      3934 9.12248E-03-1.83953E-03-8.89174E-14
 -1      3935 9.58436E-03-1.95481E-03-9.86329E-14
 -1      3936 9.44154E-03-1.91131E-03-9.58211E-14
 -1      3937 9.40797E-03-1.92647E-03-9.44150E-14
 -1      3938 9.87006E-03-2.04191E-03-1.04337E-13
 -1      3939 9.72720E-03-1.99835E-03-1.01471E-13
 -1      3940 9.69359E-03-2.01354E-03-1.00030E-13
 -1      3941 1.01558E-02-2.12911E-03-1.10153E-13
 -1      3942 1.00129E-02-2.08550E-03-1.07232E-13
 -1      3943 9.97930E-03-2.10073E-03-1.05759E-13
 -1      3944 1.04416E-02-2.21639E-03-1.16075E-13
 -1      3945 1.02987E-02-2.17274E-03-1.13102E-13
 -1      3946 1.02651E-02-2.18799E-03-1.11597E-13
 -1      3947 1.07274E-02-2.30373E-03-1.22089E-13
 -1      3948 1.05845E-02-2.26006E-03-1.19071E-13
 -1      3949 1.05508E-02-2.27532E-03-1.17537E-13
 -1      3950 1.10132E-02-2.39112E-03-1.28194E-13
 -1      3951 1.08703E-02-2.34742E-03-1.25131E-13
 -1      3952 1.08366E-02-2.36269E-03-1.23571E-13
 -1      3953 1.12990E-02-2.47853E-03-1.34378E-13
 -1      3954 1.11561E-02-2.43482E-03-1.31276E-13
 -1      3955 1.11224E-02-2.45009E-03-1.29692E-13
 -1      3956 1.15848E-02-2.56596E-03-1.40633E-13
 -1      3957 1.14419E-02-2.52225E-03-1.37497E-13
 -1      3958 1.14082E-02-2.53752E-03-1.35889E-13
 -1      3959 1.18705E-02-2.65341E-03-1.46956E-13
 -1      3960 1.17276E-02-2.60969E-03-1.43787E-13
 -1      3961 1.16940E-02-2.62496E-03-1.42157E-13
 -1      3962 1.21563E-02-2.74087E-03-1.53338E-13
 -1      3963 1.20134E-02-2.69714E-03-1.50141E-13
 -1      3964 1.19798E-02-2.71241E-03-1.48490E-13
 -1      3965 1.24421E-02-2.82833E-03-1.59773E-13
 -1      3966 1.22992E-02-2.78460E-03-1.56549E-13
 -1      3967 1.22656E-02-2.79987E-03-1.54883E-13
 -1      3968 1.27278E-02-2.91580E-03-1.66251E-13
 -1      3969 1.25849E-02-2.87206E-03-1.63007E-13
 -1      3970 1.25513E-02-2.88733E-03-1.61324E-13
 -1      3971 1.29341E-02-2.97776E-03-1.70997E-13
 -1      3972 3.83163E-03-2.58174E-04-1.42649E-14
 -1      3973 5.62723E-03-7.79675E-04-3.28485E-14
 -1      3974 5.48771E-03-7.40658E-04-3.10560E-14
 -1      3975 1.37635E-02-3.47304E-03-1.81013E-13
 -1      3976 1.37235E-02-3.43660E-03-1.81019E-13
 -1      3977 1.35783E-02-3.37766E-03-1.78227E-13
 -1      3978 1.36763E-02-3.45069E-03-1.78842E-13
 -1      3979 4.19708E-03-3.18642E-04-1.82166E-14
 -1      3980 4.03581E-03-2.65528E-04-1.68268E-14
 -1      3981 4.01782E-03-2.92061E-04-1.61836E-14
 -1      3982 4.95783E-03-7.08664E-04-2.05949E-14
 -1      3983 5.07286E-03-7.52665E-04-2.09961E-14
 -1      3984 5.16626E-03-7.88046E-04-2.14984E-14
 -1      3985 5.25364E-03-8.25687E-04-2.19646E-14
 -1      3986 5.36510E-03-8.60105E-04-2.35210E-14
 -1      3987 5.19514E-03-7.87433E-04-2.24948E-14
 -1      3988 7.30717E-03-1.26747E-03-5.75381E-14
 -1      3989 7.16598E-03-1.22554E-03-5.52628E-14
 -1      3990 7.13508E-03-1.23948E-03-5.41552E-14
 -1      3991 1.35270E-02-3.25421E-03-1.81094E-13
 -1      3992 1.34971E-02-3.22072E-03-1.81313E-13
 -1      3993 1.33753E-02-3.17576E-03-1.78792E-13
 -1      3994 1.34247E-02-3.23742E-03-1.78201E-13
 -1      3995 5.90570E-03-8.58381E-04-3.65608E-14
 -1      3996 5.76648E-03-8.18894E-04-3.46837E-14
 -1      3997 5.74392E-03-8.33367E-04-3.37859E-14
 -1      3998 5.48142E-03-8.95958E-04-2.51188E-14
 -1      3999 5.60119E-03-9.33633E-04-2.67586E-14
 -1      4000 5.40057E-03-8.58037E-04-2.45934E-14
 -1      4001 6.46358E-03-1.01904E-03-4.44723E-14
 -1      4002 6.32383E-03-9.78471E-04-4.24327E-14
 -1      4003 6.57494E-03-1.07347E-03-4.55270E-14
 -1      4004 6.18430E-03-9.38163E-04-4.04346E-14
 -1      4005 6.04493E-03-8.98133E-04-3.84779E-14
 -1      4006 6.01991E-03-9.11973E-04-3.75375E-14
 -1      4007 5.71711E-03-9.71058E-04-2.83166E-14
 -1      4008 5.84240E-03-1.01116E-03-3.00386E-14
 -1      4009 5.87230E-03-1.00506E-03-3.09637E-14
 -1      4010 5.63507E-03-9.29601E-04-2.77650E-14
 -1      4011 4.01398E-03-3.27735E-04-1.55211E-14
 -1      4012 4.34702E-03-4.67357E-04-1.75225E-14
 -1      4013 4.43305E-03-5.18149E-04-1.75832E-14
 -1      4014 4.58596E-03-5.60333E-04-1.89669E-14
 -1      4015 5.06584E-03-6.24366E-04-2.59350E-14
 -1      4016 4.92298E-03-5.85300E-04-2.43153E-14
 -1      4017 4.17703E-03-3.79272E-04-1.68685E-14
 -1      4018 7.41691E-03-1.32374E-03-5.87010E-14
 -1      4019 1.35891E-02-3.42834E-03-1.76673E-13
 -1      4020 4.33878E-03-3.93083E-04-1.89680E-14
 -1      4021 1.29005E-02-2.99302E-03-1.69299E-13
 -1      4022 4.91080E-03-6.05761E-04-2.35478E-14
 -1      4023 4.77844E-03-5.45895E-04-2.27399E-14
 -1      4024 4.63143E-03-5.05364E-04-2.12092E-14
 -1      4025 1.34798E-02-3.36936E-03-1.75138E-13
 -1      4026 4.89299E-03-6.80901E-04-2.04833E-14
 -1      4027 5.03698E-03-7.22837E-04-2.18627E-14
 -1      4028 4.82433E-03-6.50014E-04-2.03669E-14
 -1      4029 6.29681E-03-9.92062E-04-4.14503E-14
 -1      4030 1.33106E-02-3.21191E-03-1.75232E-13
 -1      4031 1.32858E-02-3.18108E-03-1.75528E-13
 -1      4032 5.34785E-03-7.01853E-04-2.93061E-14
 -1      4033 5.20728E-03-6.63086E-04-2.75990E-14
 -1      4034 5.19118E-03-6.80694E-04-2.67874E-14
 -1      4035 1.33904E-02-3.28480E-03-1.75250E-13
 -1      4036 1.33505E-02-3.24835E-03-1.75241E-13
 -1      4037 1.32116E-02-3.19201E-03-1.72579E-13
 -1      4038 5.46811E-03-7.56321E-04-3.02018E-14
 -1      4039 4.34221E-03-4.32537E-04-1.82279E-14
 -1      4040 6.28610E-03-1.11952E-03-3.72988E-14
 -1      4041 6.41989E-03-1.16181E-03-3.92272E-14
 -1      4042 6.55483E-03-1.20452E-03-4.11972E-14
 -1      4043 6.69077E-03-1.24765E-03-4.32060E-14
 -1      4044 6.44998E-03-1.15241E-03-4.02421E-14
 -1      4045 6.82761E-03-1.29106E-03-4.52561E-14
 -1      4046 6.96523E-03-1.33473E-03-4.73431E-14
 -1      4047 6.72197E-03-1.23747E-03-4.42623E-14
 -1      4048 7.10355E-03-1.37857E-03-4.94691E-14
 -1      4049 7.24249E-03-1.42256E-03-5.16346E-14
 -1      4050 6.99717E-03-1.32377E-03-4.84393E-14
 -1      4051 7.38198E-03-1.46661E-03-5.38372E-14
 -1      4052 7.52195E-03-1.51075E-03-5.60783E-14
 -1      4053 7.27493E-03-1.41085E-03-5.27710E-14
 -1      4054 7.66234E-03-1.55491E-03-5.83576E-14
 -1      4055 7.80311E-03-1.59910E-03-6.06728E-14
 -1      4056 7.55473E-03-1.49837E-03-5.72560E-14
 -1      4057 7.94419E-03-1.64328E-03-6.30244E-14
 -1      4058 8.08556E-03-1.68746E-03-6.54101E-14
 -1      4059 7.83613E-03-1.58612E-03-6.18893E-14
 -1      4060 8.22717E-03-1.73161E-03-6.78326E-14
 -1      4061 8.36899E-03-1.77574E-03-7.02881E-14
 -1      4062 8.11874E-03-1.67398E-03-6.66657E-14
 -1      4063 8.51099E-03-1.81984E-03-7.27774E-14
 -1      4064 8.65315E-03-1.86392E-03-7.53013E-14
 -1      4065 8.40229E-03-1.76185E-03-7.15793E-14
 -1      4066 8.79544E-03-1.90796E-03-7.78585E-14
 -1      4067 8.93784E-03-1.95197E-03-8.04478E-14
 -1      4068 8.68653E-03-1.84968E-03-7.66283E-14
 -1      4069 9.08034E-03-1.99596E-03-8.30699E-14
 -1      4070 9.22292E-03-2.03991E-03-8.57271E-14
 -1      4071 8.97128E-03-1.93747E-03-8.18092E-14
 -1      4072 9.36556E-03-2.08384E-03-8.84155E-14
 -1      4073 9.50827E-03-2.12774E-03-9.11363E-14
 -1      4074 9.25639E-03-2.02520E-03-8.71242E-14
 -1      4075 9.65101E-03-2.17162E-03-9.38886E-14
 -1      4076 9.79380E-03-2.21548E-03-9.66677E-14
 -1      4077 9.54177E-03-2.11287E-03-9.25680E-14
 -1      4078 9.93662E-03-2.25933E-03-9.94749E-14
 -1      4079 1.00795E-02-2.30315E-03-1.02310E-13
 -1      4080 9.82733E-03-2.20049E-03-9.81312E-14
 -1      4081 1.02223E-02-2.34696E-03-1.05172E-13
 -1      4082 1.03652E-02-2.39076E-03-1.08062E-13
 -1      4083 1.01130E-02-2.28806E-03-1.03804E-13
 -1      4084 1.05081E-02-2.43454E-03-1.10978E-13
 -1      4085 1.06510E-02-2.47832E-03-1.13919E-13
 -1      4086 1.03987E-02-2.37560E-03-1.09586E-13
 -1      4087 1.07939E-02-2.52209E-03-1.16884E-13
 -1      4088 1.09368E-02-2.56584E-03-1.19874E-13
 -1      4089 1.06845E-02-2.46312E-03-1.15471E-13
 -1      4090 1.10797E-02-2.60960E-03-1.22889E-13
 -1      4091 1.12226E-02-2.65334E-03-1.25925E-13
 -1      4092 1.09703E-02-2.55062E-03-1.21455E-13
 -1      4093 1.13655E-02-2.69709E-03-1.28981E-13
 -1      4094 1.15084E-02-2.74083E-03-1.32056E-13
 -1      4095 1.12561E-02-2.63810E-03-1.27531E-13
 -1      4096 1.16513E-02-2.78456E-03-1.35149E-13
 -1      4097 1.17942E-02-2.82829E-03-1.38262E-13
 -1      4098 1.15420E-02-2.72556E-03-1.33685E-13
 -1      4099 1.19371E-02-2.87202E-03-1.41392E-13
 -1      4100 1.20800E-02-2.91575E-03-1.44539E-13
 -1      4101 1.18278E-02-2.81303E-03-1.39911E-13
 -1      4102 1.22229E-02-2.95948E-03-1.47700E-13
 -1      4103 1.23658E-02-3.00321E-03-1.50877E-13
 -1      4104 1.21136E-02-2.90048E-03-1.46205E-13
 -1      4105 1.25087E-02-3.04693E-03-1.54069E-13
 -1      4106 1.26515E-02-3.09066E-03-1.57274E-13
 -1      4107 1.23993E-02-2.98793E-03-1.52561E-13
 -1      4108 1.27944E-02-3.13438E-03-1.60495E-13
 -1      4109 1.29373E-02-3.17810E-03-1.63724E-13
 -1      4110 1.26851E-02-3.07539E-03-1.58975E-13
 -1      4111 1.32696E-02-3.15593E-03-1.75903E-13
 -1      4112 1.32449E-02-3.12510E-03-1.76196E-13
 -1      4113 1.31230E-02-3.08013E-03-1.73687E-13
 -1      4114 1.31555E-02-3.13042E-03-1.72941E-13
 -1      4115 6.02246E-03-1.03689E-03-3.35657E-14
 -1      4116 6.15355E-03-1.07791E-03-3.54118E-14
 -1      4117 6.18204E-03-1.06922E-03-3.63847E-14
 -1      4118 6.13260E-03-9.64932E-04-3.85144E-14
 -1      4119 5.99543E-03-9.25223E-04-3.65988E-14
 -1      4120 8.09250E-03-1.55149E-03-6.94556E-14
 -1      4121 7.95065E-03-1.50848E-03-6.70056E-14
 -1      4122 7.80898E-03-1.46557E-03-6.45891E-14
 -1      4123 7.66753E-03-1.42277E-03-6.22088E-14
 -1      4124 7.91808E-03-1.52260E-03-6.57834E-14
 -1      4125 8.66134E-03-1.72432E-03-7.95930E-14
 -1      4126 8.51895E-03-1.68101E-03-7.70084E-14
 -1      4127 8.94639E-03-1.81109E-03-8.48625E-14
 -1      4128 8.80382E-03-1.76768E-03-8.22113E-14
 -1      4129 8.77051E-03-1.78247E-03-8.08774E-14
 -1      4130 9.23170E-03-1.89804E-03-9.02626E-14
 -1      4131 9.08902E-03-1.85455E-03-8.75459E-14
 -1      4132 9.05558E-03-1.86948E-03-8.61781E-14
 -1      4133 9.51721E-03-1.98512E-03-9.57864E-14
 -1      4134 9.37443E-03-1.94156E-03-9.30093E-14
 -1      4135 9.34092E-03-1.95660E-03-9.16053E-14
 -1      4136 9.80284E-03-2.07230E-03-1.01427E-13
 -1      4137 9.66001E-03-2.02870E-03-9.85928E-14
 -1      4138 9.62645E-03-2.04381E-03-9.71565E-14
 -1      4139 1.00886E-02-2.15957E-03-1.07178E-13
 -1      4140 9.94569E-03-2.11593E-03-1.04289E-13
 -1      4141 9.91210E-03-2.13110E-03-1.02822E-13
 -1      4142 1.03743E-02-2.24689E-03-1.13037E-13
 -1      4143 1.02314E-02-2.20322E-03-1.10093E-13
 -1      4144 1.01978E-02-2.21843E-03-1.08595E-13
 -1      4145 1.06601E-02-2.33425E-03-1.18995E-13
 -1      4146 1.05172E-02-2.29057E-03-1.16004E-13
 -1      4147 1.04836E-02-2.30580E-03-1.14472E-13
 -1      4148 1.09459E-02-2.42165E-03-1.25048E-13
 -1      4149 1.08030E-02-2.37795E-03-1.22010E-13
 -1      4150 1.07694E-02-2.39320E-03-1.20451E-13
 -1      4151 1.12317E-02-2.50907E-03-1.31184E-13
 -1      4152 1.10888E-02-2.46536E-03-1.28105E-13
 -1      4153 1.10552E-02-2.48062E-03-1.26521E-13
 -1      4154 1.15175E-02-2.59651E-03-1.37397E-13
 -1      4155 1.13746E-02-2.55279E-03-1.34282E-13
 -1      4156 1.13410E-02-2.56805E-03-1.32676E-13
 -1      4157 1.18033E-02-2.68395E-03-1.43677E-13
 -1      4158 1.16604E-02-2.64023E-03-1.40529E-13
 -1      4159 1.16268E-02-2.65550E-03-1.38901E-13
 -1      4160 1.20891E-02-2.77141E-03-1.50022E-13
 -1      4161 1.19462E-02-2.72768E-03-1.46844E-13
 -1      4162 1.19126E-02-2.74295E-03-1.45195E-13
 -1      4163 1.23749E-02-2.85886E-03-1.56423E-13
 -1      4164 1.22320E-02-2.81513E-03-1.53216E-13
 -1      4165 1.21984E-02-2.83040E-03-1.51551E-13
 -1      4166 1.26606E-02-2.94632E-03-1.62874E-13
 -1      4167 1.25178E-02-2.90259E-03-1.59642E-13
 -1      4168 1.24842E-02-2.91786E-03-1.57961E-13
 -1      4169 4.49499E-03-4.75928E-04-1.96669E-14
 -1      4170 7.24468E-03-1.29520E-03-5.52842E-14
 -1      4171 7.10432E-03-1.25301E-03-5.30498E-14
 -1      4172 7.52631E-03-1.38010E-03-5.98632E-14
 -1      4173 7.38535E-03-1.33757E-03-5.75543E-14
 -1      4174 7.35384E-03-1.35104E-03-5.64116E-14
 -1      4175 1.34308E-02-3.33284E-03-1.74832E-13
 -1      4176 5.21554E-03-7.80032E-04-2.35274E-14
 -1      4177 5.31209E-03-8.19567E-04-2.40634E-14
 -1      4178 5.43178E-03-8.53671E-04-2.56749E-14
 -1      4179 8.37667E-03-1.63776E-03-7.44575E-14
 -1      4180 8.23451E-03-1.59459E-03-7.19393E-14
 -1      4181 8.48581E-03-1.69562E-03-7.57127E-14
 -1      4182 6.96431E-03-1.21102E-03-5.08543E-14
 -1      4183 6.82466E-03-1.16926E-03-4.86999E-14
 -1      4184 7.07362E-03-1.26612E-03-5.19477E-14
 -1      4185 5.85870E-03-8.85982E-04-3.47236E-14
 -1      4186 5.72223E-03-8.47240E-04-3.28904E-14
 -1      4187 5.97142E-03-9.37813E-04-3.56632E-14
 -1      4188 6.40815E-03-1.04562E-03-4.24667E-14
 -1      4189 6.27015E-03-1.00508E-03-4.04704E-14
 -1      4190 6.24376E-03-1.01749E-03-3.94926E-14
 -1      4191 5.58607E-03-8.09086E-04-3.10987E-14
 -1      4192 5.44991E-03-7.71440E-04-2.93494E-14
 -1      4193 5.70136E-03-8.60484E-04-3.19974E-14
 -1      4194 5.31382E-03-7.34394E-04-2.76428E-14
 -1      4195 5.17733E-03-6.97895E-04-2.59786E-14
 -1      4196 5.43310E-03-7.85992E-04-2.84996E-14
 -1      4197 6.68541E-03-1.12775E-03-4.65823E-14
 -1      4198 6.54656E-03-1.08653E-03-4.45041E-14
 -1      4199 6.79504E-03-1.18202E-03-4.76374E-14
 -1      4200 1.32919E-02-3.27650E-03-1.72175E-13
 -1      4201 1.31092E-02-3.17365E-03-1.69759E-13
 -1      4202 1.30693E-02-3.13721E-03-1.69748E-13
 -1      4203 1.30531E-02-3.11206E-03-1.70123E-13
 -1      4204 1.30368E-02-3.08691E-03-1.70497E-13
 -1      4205 1.29506E-02-3.09370E-03-1.67311E-13
 -1      4206 1.30802E-02-3.22183E-03-1.66968E-13
 -1      4207 1.32231E-02-3.26555E-03-1.70222E-13
 -1      4208 8.20161E-03-1.60898E-03-7.06813E-14
 -1      4209 6.51835E-03-1.09903E-03-4.34847E-14
 -1      4210 7.63541E-03-1.43659E-03-6.10245E-14
 -1      4211 4.63722E-03-5.40996E-04-2.04253E-14
 -1      4212 1.28143E-02-2.99981E-03-1.66126E-13
 -1      4213 1.27807E-02-3.01507E-03-1.64428E-13
 -1      4214 5.16005E-03-7.54131E-04-2.34130E-14
 -1      4215 5.89986E-03-9.97994E-04-3.18904E-14
 -1      4216 5.92593E-03-9.89818E-04-3.28211E-14
 -1      4217 5.77879E-03-9.59897E-04-3.02528E-14
 -1      4218 4.69257E-03-5.77296E-04-2.03722E-14
 -1      4219 4.76784E-03-6.18630E-04-2.04333E-14
 -1      4220 4.92350E-03-6.66190E-04-2.18172E-14
 -1      4221 4.81954E-03-6.02537E-04-2.19414E-14
 -1      4222 1.30206E-02-3.06177E-03-1.70869E-13
 -1      4223 5.54473E-03-8.87636E-04-2.71455E-14
 -1      4224 5.66253E-03-9.23524E-04-2.87136E-14
 -1      4225 5.68500E-03-9.15488E-04-2.96022E-14
 -1      4226 5.45207E-03-8.45880E-04-2.65831E-14
 -1      4227 1.29709E-02-3.16284E-03-1.65438E-13
 -1      4228 6.35346E-03-1.06981E-03-4.04722E-14
 -1      4229 6.21748E-03-1.02919E-03-3.85171E-14
 -1      4230 6.61552E-03-1.18432E-03-4.32694E-14
 -1      4231 6.75252E-03-1.22673E-03-4.53198E-14
 -1      4232 6.89720E-03-1.25305E-03-4.80525E-14
 -1      4233 7.03588E-03-1.29570E-03-5.01932E-14
 -1      4234 7.17509E-03-1.33853E-03-5.23735E-14
 -1      4235 7.31476E-03-1.38156E-03-5.45928E-14
 -1      4236 7.45486E-03-1.42470E-03-5.68475E-14
 -1      4237 7.59534E-03-1.46798E-03-5.91416E-14
 -1      4238 7.73617E-03-1.51133E-03-6.14718E-14
 -1      4239 7.87729E-03-1.55476E-03-6.38375E-14
 -1      4240 8.01868E-03-1.59825E-03-6.62383E-14
 -1      4241 8.16029E-03-1.64180E-03-6.86744E-14
 -1      4242 8.30212E-03-1.68537E-03-7.11444E-14
 -1      4243 8.44412E-03-1.72898E-03-7.36466E-14
 -1      4244 8.58627E-03-1.77261E-03-7.61838E-14
 -1      4245 8.72855E-03-1.81627E-03-7.87542E-14
 -1      4246 8.87095E-03-1.85994E-03-8.13568E-14
 -1      4247 9.01344E-03-1.90362E-03-8.39943E-14
 -1      4248 9.15601E-03-1.94731E-03-8.66655E-14
 -1      4249 9.29865E-03-1.99101E-03-8.93667E-14
 -1      4250 9.44135E-03-2.03471E-03-9.20993E-14
 -1      4251 9.58409E-03-2.07842E-03-9.48639E-14
 -1      4252 9.72687E-03-2.12213E-03-9.76563E-14
 -1      4253 9.86969E-03-2.16585E-03-1.00477E-13
 -1      4254 1.00125E-02-2.20957E-03-1.03326E-13
 -1      4255 1.01554E-02-2.25329E-03-1.06200E-13
 -1      4256 1.02983E-02-2.29701E-03-1.09101E-13
 -1      4257 1.04411E-02-2.34073E-03-1.12030E-13
 -1      4258 1.05840E-02-2.38445E-03-1.14984E-13
 -1      4259 1.07269E-02-2.42818E-03-1.17961E-13
 -1      4260 1.08698E-02-2.47190E-03-1.20964E-13
 -1      4261 1.10128E-02-2.51563E-03-1.23990E-13
 -1      4262 1.11557E-02-2.55936E-03-1.27038E-13
 -1      4263 1.12986E-02-2.60308E-03-1.30104E-13
 -1      4264 1.14415E-02-2.64681E-03-1.33192E-13
 -1      4265 1.15844E-02-2.69053E-03-1.36295E-13
 -1      4266 1.17273E-02-2.73426E-03-1.39417E-13
 -1      4267 1.18702E-02-2.77799E-03-1.42555E-13
 -1      4268 1.20131E-02-2.82171E-03-1.45711E-13
 -1      4269 1.21560E-02-2.86544E-03-1.48882E-13
 -1      4270 1.22989E-02-2.90917E-03-1.52064E-13
 -1      4271 1.24417E-02-2.95290E-03-1.55262E-13
 -1      4272 1.25846E-02-2.99662E-03-1.58475E-13
 -1      4273 1.27275E-02-3.04035E-03-1.61700E-13
 -1      4274 1.31826E-02-3.21751E-03-1.70636E-13
 -1      4275 5.08183E-03-7.14453E-04-2.33374E-14
 -1      4276 5.26717E-03-7.75894E-04-2.50555E-14
 -1      4277 5.04034E-03-6.61935E-04-2.43592E-14
 -1      4278 4.90219E-03-6.26110E-04-2.27830E-14
 -1      4279 1.27970E-02-3.04022E-03-1.64058E-13
 -1      4280 1.30403E-02-3.16271E-03-1.67812E-13
 -1      4281 5.16583E-03-7.14715E-04-2.51736E-14
 -1      4282 6.32102E-03-1.09595E-03-3.88866E-14
 -1      4283 6.45614E-03-1.13751E-03-4.08488E-14
 -1      4284 6.07949E-03-1.00443E-03-3.60383E-14
 -1      4285 5.94607E-03-9.64906E-04-3.41774E-14
 -1      4286 5.82056E-03-9.27029E-04-3.24874E-14
 -1      4287 5.68899E-03-8.89118E-04-3.07074E-14
 -1      4288 5.56834E-03-8.53366E-04-2.91554E-14
 -1      4289 5.43858E-03-8.17499E-04-2.74554E-14
 -1      4290 6.65090E-03-1.15703E-03-4.49260E-14
 -1      4291 6.51338E-03-1.11551E-03-4.28825E-14
 -1      4292 1.28974E-02-3.11898E-03-1.64567E-13
 -1      4293 5.38524E-03-8.09074E-04-2.65137E-14
 -1      4294 6.48493E-03-1.12685E-03-4.18648E-14
 -1      4295 4.95200E-03-6.57881E-04-2.27226E-14
 -1      4296 6.21377E-03-1.04469E-03-3.79388E-14
 -1      4297 6.75909E-03-1.21068E-03-4.59500E-14
 -1      4298 5.24537E-03-7.42615E-04-2.58881E-14
 -1      4299 5.11287E-03-7.08234E-04-2.42712E-14
 -1      4300 5.00177E-03-6.87555E-04-2.26555E-14
 -3
    1PSTEP                         2           1           1          
  100CL  101 1.000000000        4300                     0    1           1
 -4  STRESS      6    1
 -5  SXX         1    4    1    1
 -5  SYY         1    4    2    2
 -5  SZZ         1    4    3    3
 -5  SXY         1    4    1    2
 -5  SYZ         1    4    2    3
 -5  SZX         1    4    3    1
 -1         1 6.94394E+01 9.92564E-01 4.07850E+00 3.71771E-01-1.45609E-13-1.20917E-12
 -1         2-7.52186E-01-2.23611E+01-3.32172E+00-5.29363E-02-3.15921E-13 8.30100E-14
 -1         3 1.99998E+01 4.63349E-06-2.34389E-05 4.77078E-06-5.61886E-13-5.16803E-13
 -1         4 1.99998E+01 4.45740E-06-2.37275E-05-4.67431E-06 1.48412E-13 1.66990E-13
 -1         5 3.75411E+01 7.02494E+00 3.24583E+00 7.19401E+00-4.83641E-14 4.39149E-12
 -1         6 4.85063E+01 1.64790E+01 6.42331E+00-1.04804E+01-2.33424E-13 4.43243E-12
 -1         7 2.92075E+01 8.45092E+00 1.06756E-01-4.30414E+00-2.35922E-14 1.26658E-12
 -1         8 2.45981E+01 7.39702E+00 1.92200E-01-1.58996E+00-3.69982E-14 1.91332E-13
 -1         9 2.03476E+01 6.15156E+00 1.14903E-01-1.76204E-01-2.57849E-14-4.48662E-13
 -1        10 1.61547E+01 4.91407E+00-1.93558E-02 4.75740E-01-1.36835E-14-8.16135E-13
 -1        11 1.25128E+01 3.84398E+00-1.96570E-01 2.25079E-01-6.93889E-15-1.03124E-12
 -1        12 1.04262E+01 3.22884E+00-3.05605E-01-8.07849E-01-1.35031E-14-1.13673E-12
 -1        13 1.05688E+01 3.25880E+00-2.59020E-01-2.02870E+00-2.60347E-14-1.17324E-12
 -1        14 1.25522E+01 3.82416E+00-9.29047E-02-2.71525E+00-3.31540E-14-1.16022E-12
 -1        15 1.53217E+01 4.62458E+00 8.65528E-02-2.55350E+00-3.14332E-14-1.15068E-12
 -1        16 1.79006E+01 5.37584E+00 1.97027E-01-1.64993E+00-2.47857E-14-1.14017E-12
 -1        17 1.97083E+01 5.90973E+00 2.21692E-01-3.80589E-01-1.00406E-14-1.14767E-12
 -1        18 2.07276E+01 6.21912E+00 1.93199E-01 9.23619E-01 2.24820E-15-1.13949E-12
 -1        19 2.12044E+01 6.37366E+00 1.44534E-01 2.09646E+00 2.00916E-14-1.05946E-12
 -1        20 2.14708E+01 6.47183E+00 9.12970E-02 3.11816E+00 3.93470E-14-8.22223E-13
 -1        21 2.19534E+01 6.64745E+00 4.29384E-02 4.09015E+00 5.36723E-14-2.35579E-13
 -1        22 2.37257E+01 7.16464E+00 1.27340E-01 5.40445E+00 1.27121E-14 1.09954E-12
 -1        23 3.54003E+01-1.99348E+00-1.15863E+00-5.17439E-01-1.39909E-13 3.70261E-12
 -1        24 3.21777E+01-5.46568E-02-1.78676E-01 1.07750E-01-2.99801E-14 3.20426E-12
 -1        25 3.06149E+01 1.21668E-02 1.36906E-01-3.57871E-02-7.16181E-15 2.73605E-12
 -1        26 2.75654E+01 2.48162E-02 1.43827E-01-2.26663E-01-1.52482E-15 2.39105E-12
 -1        27 2.32167E+01-3.19486E-02-6.71712E-02-3.23334E-01-3.02660E-14 2.01833E-12
 -1        28 1.93823E+01-9.77815E-02-3.29672E-01-1.99785E-01 1.72267E-14 1.59810E-12
 -1        29 1.83549E+01-1.09816E-01-3.88696E-01 9.41114E-02 7.14012E-15 1.11940E-12
 -1        30 2.06367E+01-5.57132E-02-1.80395E-01 3.05892E-01-2.58049E-14 5.16795E-13
 -1        31 2.43501E+01 1.91811E-02 7.39364E-02 2.91843E-01 1.91036E-15 2.78527E-14
 -1        32 2.72370E+01 6.08555E-02 1.81218E-01 1.51130E-01-1.63324E-14-1.20667E-13
 -1        33 2.83634E+01 5.94470E-02 1.51871E-01 2.40603E-02 1.07405E-14-2.12004E-13
 -1        34 2.80167E+01 3.66989E-02 7.86947E-02-3.99205E-02-1.14275E-16-2.04995E-13
 -1        35 2.68818E+01 1.33021E-02 2.01648E-02-5.54736E-02 3.70546E-14-1.34968E-13
 -1        36 2.55162E+01-2.12750E-03-1.02516E-02-4.86514E-02-4.53419E-14-4.26360E-14
 -1        37 2.42300E+01-9.68559E-03-2.07965E-02-3.59461E-02-1.61568E-14-8.09040E-14
 -1        38 2.31474E+01-1.20021E-02-2.12788E-02-2.42850E-02-4.98084E-14-2.06035E-13
 -1        39 2.22905E+01-1.15713E-02-1.80079E-02-1.55198E-02-2.11409E-14-4.63222E-13
 -1        40 2.16364E+01-1.00024E-02-1.40337E-02-9.51004E-03 4.66161E-14-5.37748E-13
 -1        41 2.11486E+01-8.15725E-03-1.05046E-02-5.58633E-03 4.49781E-15-6.94259E-13
 -1        42 2.07907E+01-6.42912E-03-7.70298E-03-3.09810E-03 3.62574E-14-5.93376E-13
 -1        43 2.05316E+01-4.95920E-03-5.58604E-03-1.55313E-03-4.59629E-15-5.46071E-13
 -1        44 2.03464E+01-3.76939E-03-4.02193E-03-6.13962E-04 1.13244E-14-2.48962E-13
 -1        45 2.02159E+01-2.83276E-03-2.87738E-03-5.95075E-05-5.83335E-14-2.19926E-13
 -1        46 2.01254E+01-2.10757E-03-2.04298E-03 2.52156E-04-4.48441E-14-5.01007E-13
 -1        47 2.00640E+01-1.55211E-03-1.43567E-03 4.11516E-04 1.93773E-14-3.73021E-13
 -1        48 2.00237E+01-1.13005E-03-9.94471E-04 4.76351E-04 1.60494E-14-3.01170E-13
 -1        49 1.99982E+01-8.11665E-04-6.75105E-04 4.83767E-04 2.40597E-14-4.01113E-14
 -1        50 1.99831E+01-5.73304E-04-4.45404E-04 4.57741E-04-1.58384E-14-1.09092E-13
 -1        51 1.99752E+01-3.96434E-04-2.81836E-04 4.13796E-04 6.01070E-14-6.56856E-14
 -1        52 1.99720E+01-2.66602E-04-1.67028E-04 3.61926E-04-4.87623E-15 1.18088E-13
 -1        53 1.99719E+01-1.72559E-04-8.80509E-05 3.08452E-04-5.43909E-15 2.55324E-13
 -1        54 1.99736E+01-1.05560E-04-3.52245E-05 2.57227E-04 1.81863E-14 2.08889E-13
 -1        55 1.99763E+01-5.88227E-05-1.28092E-06 2.10440E-04-9.20381E-14 3.13432E-13
 -1        56 1.99795E+01-2.70983E-05 1.92310E-05 1.69161E-04 6.59837E-15-6.93368E-14
 -1        57 1.99826E+01-6.34869E-06 3.03817E-05 1.33726E-04 5.40213E-14-1.86822E-13
 -1        58 1.99857E+01 6.51197E-06 3.51850E-05 1.03999E-04 8.72564E-14 7.64070E-14
 -1        59 1.99884E+01 1.38203E-05 3.58465E-05 7.95660E-05-1.40838E-13-5.06777E-13
 -1        60 1.99908E+01 1.73257E-05 3.39550E-05 5.98633E-05-5.48446E-14-6.71568E-13
 -1        61 1.99928E+01 1.83215E-05 3.06330E-05 4.42675E-05 1.85110E-13-1.76537E-13
 -1        62 1.99945E+01 1.77494E-05 2.66551E-05 3.21545E-05-2.81893E-14 5.10968E-14
 -1        63 1.99958E+01 1.62850E-05 2.25422E-05 2.29358E-05-3.63350E-14 3.99976E-14
 -1        64 1.99969E+01 1.44056E-05 1.86387E-05 1.60754E-05-3.43836E-14-8.64722E-14
 -1        65 1.99978E+01 1.24458E-05 1.51787E-05 1.10927E-05 4.98028E-15-7.03555E-15
 -1        66 1.99985E+01 1.06386E-05 1.23516E-05 7.54850E-06 5.99679E-14 1.74618E-13
 -1        67 1.99990E+01 9.14188E-06 1.03676E-05 5.00251E-06-5.64279E-14 3.92702E-13
 -1        68 1.99994E+01 8.03315E-06 9.46433E-06 2.91919E-06 8.71954E-14 3.09719E-13
 -1        69 1.99997E+01 7.20218E-06 9.60073E-06 5.07144E-07 4.94177E-14 3.97855E-13
 -1        70 1.99998E+01 5.55691E-06 8.79040E-06-3.94807E-06 9.39178E-15 8.09702E-13
 -1        71 1.99998E+01-9.99479E-07-1.71881E-06-9.51605E-06-3.07856E-14 6.96141E-13
 -1        72 2.35987E+01-4.54598E-01-1.09481E+00-3.39918E-01 8.56155E-14 3.82706E-12
 -1        73 2.10205E+01-7.07560E-02-3.18157E-01-5.17376E-02 4.54849E-14 2.70875E-12
 -1        74 1.94965E+01-2.35499E-02-6.17531E-02 9.27185E-04 2.17909E-14 1.88714E-12
 -1        75 1.83378E+01-1.85354E-02-1.50747E-02 2.00559E-02 1.62964E-14 1.33165E-12
 -1        76 1.74700E+01-1.94705E-02-2.55600E-02 2.72409E-02-8.27214E-15 9.98272E-13
 -1        77 1.69962E+01-1.90805E-02-4.06645E-02 1.99929E-02 5.64761E-15 7.81165E-13
 -1        78 1.70227E+01-1.51247E-02-4.30644E-02 1.31445E-03 6.98226E-15 6.44197E-13
 -1        79 1.75436E+01-8.27676E-03-3.07301E-02-2.03550E-02 1.36251E-14 3.91819E-13
 -1        80 1.84170E+01-7.76408E-04-1.01829E-02-3.61803E-02-4.93990E-15 2.39019E-13
 -1        81 1.94216E+01 5.18037E-03 9.62405E-03-4.16128E-02 2.01718E-14-7.43936E-14
 -1        82 2.03441E+01 8.45068E-03 2.22902E-02-3.74552E-02 5.96859E-15-3.26000E-13
 -1        83 2.10440E+01 9.09529E-03 2.62381E-02-2.77518E-02 8.91084E-15-3.54577E-13
 -1        84 2.14711E+01 7.90050E-03 2.35232E-02-1.68243E-02-2.85422E-15-3.80395E-13
 -1        85 2.16461E+01 5.82354E-03 1.74757E-02-7.51747E-03 2.15266E-14-4.77413E-13
 -1        86 2.16275E+01 3.62210E-03 1.08725E-02-9.50910E-04 2.20844E-14-9.72154E-13
 -1        87 2.14829E+01 1.73956E-03 5.30238E-03 2.93746E-03-2.85755E-14-9.61360E-13
 -1        88 2.12722E+01 3.47597E-04 1.31989E-03 4.74702E-03 8.24160E-15-5.81822E-13
 -1        89 2.10401E+01-5.55762E-04-1.14439E-03 5.17648E-03 2.46180E-14-7.80600E-13
 -1        90 2.08158E+01-1.05605E-03-2.42241E-03 4.81392E-03-2.81015E-14-1.09113E-12
 -1        91 2.06159E+01-1.26230E-03-2.88825E-03 4.07825E-03 2.71101E-14-1.11211E-12
 -1        92 2.04474E+01-1.27523E-03-2.85805E-03 3.23393E-03-1.64241E-14-9.27810E-13
 -1        93 2.03117E+01-1.17473E-03-2.56301E-03 2.42919E-03-5.71816E-14-7.44174E-13
 -1        94 2.02065E+01-1.01818E-03-2.15604E-03 1.73450E-03 1.93507E-14-8.53470E-13
 -1        95 2.01277E+01-8.43502E-04-1.72972E-03 1.17295E-03-1.40205E-14-9.18827E-13
 -1        96 2.00708E+01-6.73675E-04-1.33458E-03 7.41425E-04-2.43685E-14-3.74440E-13
 -1        97 2.00312E+01-5.21102E-04-9.93961E-04 4.24192E-04 5.09250E-14-6.98934E-13
 -1        98 2.00049E+01-3.91161E-04-7.14783E-04 2.00956E-04-3.41444E-14-9.26004E-13
 -1        99 1.99886E+01-2.84868E-04-4.94777E-04 5.13410E-05 2.89549E-15-1.13746E-12
 -1       100 1.99793E+01-2.00755E-04-3.27137E-04-4.29118E-05 1.89756E-14-1.28281E-12
 -1       101 1.99750E+01-1.36119E-04-2.03353E-04-9.70705E-05 7.47598E-15-1.41297E-12
 -1       102 1.99740E+01-8.78164E-05-1.14827E-04-1.23299E-04 1.34221E-14-1.61044E-12
 -1       103 1.99751E+01-5.27318E-05-5.37222E-05-1.30921E-04 1.02952E-14-1.65817E-12
 -1       104 1.99773E+01-2.80279E-05-1.33240E-05-1.26843E-04-1.56014E-14-1.53521E-12
 -1       105 1.99801E+01-1.12602E-05 1.18743E-05-1.16020E-04 3.97713E-14-1.25134E-12
 -1       106 1.99831E+01-4.04396E-07 2.62378E-05-1.01878E-04-1.36677E-13-1.33386E-12
 -1       107 1.99859E+01 6.16350E-06 3.31285E-05-8.66956E-05-7.54718E-15-1.42709E-12
 -1       108 1.99886E+01 9.71214E-06 3.50696E-05-7.19058E-05 1.64556E-14-1.41404E-12
 -1       109 1.99909E+01 1.12091E-05 3.39066E-05-5.83433E-05 1.70217E-14-9.06703E-13
 -1       110 1.99929E+01 1.13759E-05 3.09552E-05-4.64302E-05-4.73450E-14-1.02387E-12
 -1       111 1.99945E+01 1.07400E-05 2.71281E-05-3.63169E-05 7.13849E-14-6.73432E-13
 -1       112 1.99959E+01 9.67942E-06 2.30410E-05-2.79838E-05 3.49197E-14-7.47033E-13
 -1       113 1.99970E+01 8.46092E-06 1.91004E-05-2.13124E-05-3.61761E-14-5.50151E-13
 -1       114 1.99978E+01 7.27349E-06 1.55788E-05-1.61319E-05-1.65901E-15-5.44629E-13
 -1       115 1.99985E+01 6.24233E-06 1.26897E-05-1.22379E-05 2.79248E-15-1.09953E-12
 -1       116 1.99990E+01 5.44941E-06 1.06576E-05-9.38154E-06 5.77190E-14-7.80696E-13
 -1       117 1.99994E+01 4.92675E-06 9.77701E-06-7.24251E-06-1.15368E-14-1.05594E-12
 -1       118 1.99997E+01 4.52774E-06 9.98772E-06-5.15065E-06-6.19019E-14-8.83561E-13
 -1       119 1.99998E+01 3.25183E-06 8.97359E-06-1.09383E-06 3.67332E-14-5.12978E-13
 -1       120 1.99998E+01-3.80687E-06-2.42090E-06 7.46669E-06 2.80432E-13-9.72442E-13
 -1       121 1.99998E+01 2.47058E-05-1.15260E-06 1.05596E-05-1.14195E-12 6.59262E-14
 -1       122 1.99998E+01-5.33974E-06 9.37428E-06 1.21227E-06-1.08140E-12-2.52375E-13
 -1       123 1.99998E+01-1.50750E-04 7.75360E-06-4.94364E-06-2.42416E-13 3.89221E-13
 -1       124 1.99998E+01-3.72259E-04 3.29695E-06-7.90996E-06 1.72971E-13 1.11447E-13
 -1       125 1.99998E+01-6.22960E-04-1.17306E-06-8.40047E-06 2.56851E-13-2.80857E-13
 -1       126 1.99998E+01-8.53715E-04-4.78035E-06-7.25389E-06-1.05069E-12-2.52880E-13
 -1       127 1.99998E+01-1.03345E-03-7.29026E-06-4.82274E-06-1.01757E-12 2.66261E-13
 -1       128 1.99998E+01-1.13010E-03-8.57932E-06-1.66248E-06-4.18587E-13-1.39482E-13
 -1       129 1.99998E+01-1.12913E-03-8.56610E-06 1.73512E-06 1.01425E-13 2.53070E-14
 -1       130 1.99998E+01-1.03068E-03-7.25301E-06 4.87783E-06 5.54726E-13-1.68830E-13
 -1       131 1.99998E+01-8.49634E-04-4.68674E-06 7.34428E-06 2.14249E-13-1.01508E-13
 -1       132 1.99998E+01-6.18261E-04-1.12130E-06 8.41589E-06-2.65040E-13 1.96233E-13
 -1       133 1.99998E+01-3.67620E-04 3.32825E-06 7.84920E-06-4.45212E-13-6.82107E-14
 -1       134 1.99998E+01-1.46211E-04 8.23065E-06 5.50104E-06-3.06626E-13 1.11616E-13
 -1       135 1.99998E+01-5.40777E-06 8.35013E-06-1.70135E-06-7.30733E-13-2.65377E-13
 -1       136 1.99998E+01 2.34258E-05-1.41750E-06-1.70822E-05-8.02024E-13 8.03796E-14
 -1       137-1.21239E+00-1.70607E+01-2.93631E+00-3.14436E+00 2.11686E-12 4.98865E-13
 -1       138-1.03036E+00-6.22776E+00-2.09397E+00-1.97995E+00 3.82466E-12 1.84000E-12
 -1       139 4.30260E+00 5.23483E+00-8.29924E-01 5.01803E+00 4.44744E-12 3.31718E-12
 -1       140 1.83624E+01 1.14658E+01 6.86324E-01 1.43027E+01 3.69338E-12 4.34175E-12
 -1       141 3.67303E+01 1.00112E+01 1.98804E+00 1.86589E+01 2.17293E-12 3.94390E-12
 -1       142 5.47335E+01 4.57406E+00 2.92978E+00 1.46033E+01 6.47565E-13 2.10310E-12
 -1       143 6.33305E+01 9.73693E-01 3.26158E+00 3.64401E+00 2.47406E-14-4.13516E-13
 -1       144 5.93929E+01 2.08355E+00 2.95295E+00-8.88643E+00 5.69103E-13-2.94273E-12
 -1       145 4.47773E+01 6.66180E+00 2.05862E+00-1.65514E+01 1.94758E-12-4.89597E-12
 -1       146 2.73074E+01 1.04515E+01 9.41882E-01-1.66048E+01 3.58291E-12-5.48861E-12
 -1       147 1.14719E+01 9.91775E+00-2.31201E-01-1.06825E+01 4.90025E-12-4.95187E-12
 -1       148 2.49044E+00 4.00656E+00-1.18329E+00-3.51314E+00 5.22909E-12-3.39292E-12
 -1       149-6.84945E-01-4.69000E+00-1.80948E+00 1.23287E+00 4.19537E-12-1.68832E-12
 -1       150-6.59109E-01-1.26057E+01-2.25121E+00 1.43470E+00 2.07981E-12-4.08978E-13
 -1       151-6.53450E-01-1.61569E+01-2.57700E+00-1.08089E+00-9.02894E-13-1.56118E-13
 -1       152-1.69182E+00-1.31662E+01-2.71287E+00-3.62547E+00-3.38585E-12-1.09148E-12
 -1       153-1.08402E+00-4.81017E+00-2.40363E+00-1.68070E+00-5.17936E-12-2.97229E-12
 -1       154 4.41360E+00 4.12741E+00-1.47400E+00 4.63174E+00-5.50887E-12-4.87732E-12
 -1       155 1.95073E+01 9.05638E+00 1.11798E-01 1.32659E+01-4.47792E-12-6.03234E-12
 -1       156 4.00668E+01 7.81457E+00 1.88301E+00 1.71470E+01-2.71708E-12-5.79603E-12
 -1       157 5.98636E+01 3.41722E+00 3.39105E+00 1.23441E+01-9.47444E-13-4.02683E-12
 -1       158 6.45291E+01 3.16715E+00 3.81761E+00-1.21021E+01-4.45619E-13 1.66533E-12
 -1       159 4.84234E+01 8.10248E+00 2.77748E+00-1.88929E+01-1.80370E-12 4.06652E-12
 -1       160 2.89534E+01 1.14789E+01 1.34543E+00-1.78581E+01-3.40034E-12 5.08460E-12
 -1       161 1.14466E+01 9.43679E+00-2.35527E-01-1.04215E+01-4.50129E-12 4.61264E-12
 -1       162 1.50371E+00 1.28225E+00-1.60936E+00-1.89020E+00-4.73405E-12 3.18190E-12
 -1       163-1.62236E+00-9.85793E+00-2.59984E+00 3.24641E+00-3.99536E-12 1.70661E-12
 -1       164-1.27634E+00-1.92656E+01-3.18759E+00 3.37231E+00-2.47244E-12 5.36689E-13
 -1       165 2.84569E+01 3.86393E+00-6.75626E-02-2.89571E+00-3.86059E-13 7.44509E-13
 -1       166 2.36936E+01 3.90330E+00-5.62114E-02-1.38647E+00-2.66866E-13 2.90670E-14
 -1       167 1.89118E+01 3.92922E+00-3.09982E-02-2.05234E-01-1.27995E-13-4.51222E-13
 -1       168 1.41010E+01 4.29370E+00-1.74096E-02 2.50613E-01-5.03868E-14-8.01441E-13
 -1       169 1.03791E+01 4.77992E+00-1.02069E-02-3.18188E-01-1.20468E-13-1.02539E-12
 -1       170 9.19411E+00 4.84146E+00-5.36447E-03-1.56705E+00-2.81308E-13-1.11466E-12
 -1       171 1.08288E+01 4.31949E+00-6.52437E-03-2.57456E+00-4.31072E-13-1.08295E-12
 -1       172 1.41154E+01 3.62682E+00-9.69345E-03-2.70183E+00-4.69604E-13-9.89317E-13
 -1       173 1.75386E+01 3.24824E+00-1.21205E-02-1.92724E+00-3.86349E-13-9.15797E-13
 -1       174 2.00303E+01 3.33589E+00-1.66191E-02-6.79197E-01-2.18683E-13-8.78539E-13
 -1       175 2.14200E+01 3.70578E+00-2.26810E-02 6.24793E-01-1.91392E-14-8.81295E-13
 -1       176 2.20094E+01 4.11107E+00-3.06076E-02 1.78597E+00 1.78498E-13-8.48353E-13
 -1       177 2.22197E+01 4.38707E+00-4.23997E-02 2.78222E+00 3.69529E-13-7.13646E-13
 -1       178 2.25038E+01 4.41662E+00-6.09912E-02 3.66819E+00 5.34436E-13-3.57159E-13
 -1       179 2.35524E+01 3.84804E+00-7.79259E-02 4.45872E+00 6.05342E-13 4.03927E-13
 -1       180 2.49896E+01 1.31223E+00-3.91256E-01 3.75889E+00 5.30507E-13 1.49175E-12
 -1       181 3.17878E+01 5.78171E-01-5.03496E-03-1.74304E+00-3.26007E-13 1.62291E-12
 -1       182 3.01521E+01-3.33040E-01-8.42398E-03-1.34764E+00-2.40781E-13 1.53576E-12
 -1       183 2.87393E+01-4.78628E-01 1.16569E-02-2.11011E+00-1.81351E-13 1.46075E-12
 -1       184 2.70385E+01-2.16935E-01-3.61286E-03-2.90139E+00-2.85451E-13 1.32138E-12
 -1       185 2.51068E+01 5.01200E-01-3.73336E-02-2.57372E+00-3.79368E-13 1.02370E-12
 -1       186 2.38295E+01 1.03992E+00-6.14483E-02-7.42106E-01-4.41366E-13 5.60240E-13
 -1       187 2.39517E+01 7.67736E-01-5.20695E-02 1.42810E+00-4.70870E-13 3.93453E-14
 -1       188 2.50654E+01 1.48826E-02-2.15060E-02 2.33260E+00-3.02105E-13-2.88814E-13
 -1       189 2.61222E+01-4.74937E-01-2.78194E-03 1.76008E+00-9.90718E-14-3.56113E-13
 -1       190 2.65124E+01-5.08878E-01-1.44379E-03 6.04016E-01-2.27977E-14-3.32689E-13
 -1       191 2.62284E+01-3.21449E-01-4.66077E-03-3.57455E-01-1.07987E-15-3.74009E-13
 -1       192 2.55114E+01-1.28563E-01-5.90357E-03-8.74818E-01 7.30887E-14-3.23957E-13
 -1       193 2.46131E+01-6.60718E-03-3.90655E-03-1.02728E+00 1.54736E-14-3.10502E-13
 -1       194 2.37076E+01 5.01255E-02-1.26334E-03-9.70645E-01-1.44601E-14-2.83618E-13
 -1       195 2.28911E+01 6.70294E-02 7.71939E-04-8.25727E-01-7.83705E-15-2.10886E-13
 -1       196 2.22023E+01 6.45923E-02 1.86329E-03-6.62138E-01-1.35202E-13-2.24783E-13
 -1       197 2.16459E+01 5.48866E-02 2.20494E-03-5.12182E-01-2.16166E-14-2.08168E-13
 -1       198 2.12095E+01 4.38192E-02 2.11288E-03-3.86980E-01-1.04654E-13-3.20433E-13
 -1       199 2.08744E+01 3.38024E-02 1.82900E-03-2.87513E-01-5.73841E-14-4.50849E-13
 -1       200 2.06213E+01 2.55525E-02 1.49558E-03-2.10729E-01 2.46716E-14-5.84758E-13
 -1       201 2.04328E+01 1.90663E-02 1.18145E-03-1.52505E-01 1.58070E-13-4.89623E-13
 -1       202 2.02942E+01 1.40903E-02 9.12686E-04-1.08891E-01 1.07051E-14-3.00793E-13
 -1       203 2.01937E+01 1.03239E-02 6.94059E-04-7.65365E-02-6.40132E-14-1.34680E-13
 -1       204 2.01220E+01 7.49513E-03 5.21280E-04-5.27531E-02 5.08586E-14-8.42706E-14
 -1       205 2.00717E+01 5.38217E-03 3.87137E-04-3.54433E-02 7.04989E-15-9.49844E-14
 -1       206 2.00373E+01 3.81190E-03 2.84232E-04-2.29932E-02 6.09032E-14-2.26979E-13
 -1       207 2.00144E+01 2.65198E-03 2.06020E-04-1.41694E-02 1.99337E-14-2.28073E-13
 -1       208 1.99999E+01 1.80193E-03 1.47082E-04-8.03217E-03 3.09001E-14-2.99687E-13
 -1       209 1.99912E+01 1.18542E-03 1.03062E-04-3.86780E-03 1.56690E-13-1.40313E-13
 -1       210 1.99865E+01 7.44345E-04 7.05192E-05-1.13561E-03 2.28391E-14 1.55299E-14
 -1       211 1.99846E+01 4.34339E-04 4.67518E-05 5.71886E-04-8.33584E-14 3.00665E-14
 -1       212 1.99844E+01 2.21485E-04 2.96493E-05 1.55985E-03-4.16597E-14 6.54291E-14
 -1       213 1.99853E+01 7.98734E-05 1.75677E-05 2.05472E-03-1.96953E-13-7.55016E-14
 -1       214 1.99868E+01-1.02243E-05 9.23065E-06 2.22259E-03 1.54732E-13 1.29834E-13
 -1       215 1.99885E+01-6.37361E-05 3.65228E-06 2.18345E-03 8.14902E-14-2.87656E-14
 -1       216 1.99902E+01-9.18609E-05 7.57955E-08 2.02242E-03-4.62684E-13-2.66227E-13
 -1       217 1.99919E+01-1.02904E-04-2.07511E-06 1.79840E-03-1.38166E-13-3.88787E-13
 -1       218 1.99934E+01-1.02940E-04-3.23507E-06 1.55087E-03 1.79665E-13-2.33611E-13
 -1       219 1.99948E+01-9.63375E-05-3.72833E-06 1.30510E-03 1.41806E-13-4.40821E-13
 -1       220 1.99959E+01-8.61832E-05-3.79397E-06 1.07617E-03-3.56791E-14-3.59614E-13
 -1       221 1.99969E+01-7.46177E-05-3.60625E-06 8.71933E-04 6.42750E-15-3.53179E-13
 -1       222 1.99976E+01-6.31099E-05-3.28987E-06 6.95219E-04 7.33050E-14-2.12222E-13
 -1       223 1.99983E+01-5.26786E-05-2.92835E-06 5.45374E-04 2.86907E-13-5.08192E-14
 -1       224 1.99988E+01-4.40801E-05-2.56449E-06 4.19299E-04 2.64099E-13 1.74920E-13
 -1       225 1.99991E+01-3.79517E-05-2.19074E-06 3.12084E-04 8.59712E-14 3.02227E-13
 -1       226 1.99994E+01-3.47433E-05-1.74907E-06 2.17528E-04-5.77308E-14 1.72378E-13
 -1       227 1.99996E+01-3.43396E-05-1.38353E-06 1.29581E-04 2.22856E-13 1.07526E-13
 -1       228 1.99997E+01-3.36949E-05-1.03375E-06 4.64732E-05 2.81502E-14 2.85856E-13
 -1       229 2.29900E+01 2.73603E-01-6.11364E-02 1.75068E+00 5.09374E-13 1.29747E-12
 -1       230 2.12177E+01 1.07469E-01 1.00272E-02 1.04657E+00 3.72819E-13 9.39444E-13
 -1       231 2.00233E+01 6.57120E-02 1.50856E-02 7.64289E-01 2.61707E-13 6.97593E-13
 -1       232 1.91921E+01 8.16308E-02 7.95458E-03 5.25676E-01 1.85427E-13 5.05219E-13
 -1       233 1.87099E+01 1.06914E-01 2.63483E-03 2.30023E-01 1.24894E-13 3.10980E-13
 -1       234 1.86015E+01 1.11183E-01 5.79076E-04-1.03511E-01 1.19900E-13 1.16845E-13
 -1       235 1.88453E+01 8.49461E-02 7.12450E-04-3.98027E-01 1.33841E-13 4.80735E-15
 -1       236 1.93449E+01 3.82293E-02 1.58538E-03-5.78861E-01 9.66869E-14-1.19348E-13
 -1       237 1.99560E+01-9.78069E-03 2.11841E-03-6.16166E-01 1.72571E-13-2.25799E-13
 -1       238 2.05371E+01-4.35195E-02 1.84424E-03-5.31812E-01 1.06499E-13-3.11081E-13
 -1       239 2.09898E+01-5.75621E-02 9.85757E-04-3.77868E-01 2.72083E-14-3.87302E-13
 -1       240 2.12721E+01-5.52910E-02 2.48405E-05-2.08150E-01 1.86446E-14-4.75293E-13
 -1       241 2.13885E+01-4.37326E-02-6.60274E-04-6.02752E-02 1.40373E-13-6.34516E-13
 -1       242 2.13713E+01-2.93280E-02-9.52624E-04 4.82685E-02 1.39941E-13-5.60600E-13
 -1       243 2.12622E+01-1.61682E-02-9.24408E-04 1.15466E-01-5.03365E-14-5.57982E-13
 -1       244 2.11010E+01-6.05348E-03-7.13817E-04 1.47868E-01-1.18574E-13-5.74086E-13
 -1       245 2.09193E+01 7.42597E-04-4.44809E-04 1.55006E-01 1.58826E-13-4.83534E-13
 -1       246 2.07393E+01 4.70889E-03-1.96631E-04 1.46057E-01 1.06158E-13-5.86049E-13
 -1       247 2.05747E+01 6.57678E-03-5.68832E-06 1.28385E-01-4.49703E-14-6.55253E-13
 -1       248 2.04323E+01 7.04654E-03 1.20889E-04 1.07231E-01-1.91581E-13-5.21414E-13
 -1       249 2.03143E+01 6.67941E-03 1.91304E-04 8.59564E-02-6.96737E-14-4.78888E-13
 -1       250 2.02202E+01 5.87901E-03 2.19315E-04 6.64834E-02 3.06090E-14-4.62086E-13
 -1       251 2.01475E+01 4.91212E-03 2.18749E-04 4.97253E-02-5.58550E-14-4.05841E-13
 -1       252 2.00930E+01 3.94105E-03 2.01085E-04 3.59468E-02-1.64226E-13-4.89078E-13
 -1       253 2.00535E+01 3.05471E-03 1.74818E-04 2.50299E-02 1.94806E-13-3.36010E-13
 -1       254 2.00258E+01 2.29368E-03 1.45708E-04 1.66577E-02 4.14020E-14-4.64790E-13
 -1       255 2.00072E+01 1.66865E-03 1.17333E-04 1.04323E-02 1.20301E-13-4.66750E-13
 -1       256 1.99953E+01 1.17328E-03 9.16807E-05 5.94745E-03 1.01265E-13-7.36287E-13
 -1       257 1.99884E+01 7.92647E-04 6.96556E-05 2.82784E-03-2.15415E-14-8.43012E-13
 -1       258 1.99850E+01 5.08540E-04 5.14692E-05 7.47843E-04 5.25865E-14-7.48806E-13
 -1       259 1.99838E+01 3.02616E-04 3.69265E-05-5.62797E-04-2.02702E-14-6.17535E-13
 -1       260 1.99841E+01 1.58060E-04 2.56208E-05-1.32068E-03-4.90792E-14-6.81230E-13
 -1       261 1.99853E+01 6.03495E-05 1.70608E-05-1.69434E-03-4.51094E-15-6.29576E-13
 -1       262 1.99870E+01-2.54185E-06 1.07485E-05-1.81145E-03-3.56315E-14-6.24424E-13
 -1       263 1.99888E+01-4.02492E-05 6.22207E-06-1.76619E-03 1.90485E-13-9.50924E-13
 -1       264 1.99906E+01-6.02811E-05 3.07769E-06-1.62613E-03-1.20012E-13-9.92563E-13
 -1       265 1.99923E+01-6.83442E-05 9.75914E-07-1.43825E-03-2.13382E-13-7.32859E-13
 -1       266 1.99938E+01-6.86749E-05-3.59617E-07-1.23401E-03 6.76692E-14-3.87430E-13
 -1       267 1.99951E+01-6.43458E-05-1.14826E-06-1.03337E-03-7.03385E-14-4.81662E-13
 -1       268 1.99962E+01-5.75374E-05-1.56029E-06-8.48029E-04-6.67245E-14-3.64082E-13
 -1       269 1.99972E+01-4.97681E-05-1.72474E-06-6.83812E-04-1.18314E-13-1.49744E-13
 -1       270 1.99979E+01-4.20838E-05-1.73614E-06-5.42467E-04 1.10938E-13-3.50080E-13
 -1       271 1.99985E+01-3.52351E-05-1.65446E-06-4.22917E-04 2.13696E-13-4.13388E-13
 -1       272 1.99989E+01-2.97606E-05-1.47718E-06-3.22022E-04-1.39291E-13-4.65729E-13
 -1       273 1.99993E+01-2.61166E-05-1.14073E-06-2.35287E-04 2.69046E-15-2.65863E-13
 -1       274 1.99995E+01-2.47878E-05-6.02362E-07-1.57120E-04-9.17546E-14-1.47739E-13
 -1       275 1.99997E+01-2.58791E-05-6.29924E-07-8.20803E-05-9.74946E-14-3.00125E-13
 -1       276 1.99998E+01-1.97790E-05-1.84606E-06-1.40799E-05 1.42691E-13-4.18839E-13
 -1       277 1.99998E+01-6.88580E-05-9.33038E-07-5.16416E-05-1.14567E-13 1.20837E-13
 -1       278 1.99998E+01-1.80632E-04-2.90769E-07-1.24282E-04-2.02087E-13 2.42988E-13
 -1       279 1.99998E+01-3.37337E-04-1.04504E-07-1.77457E-04-4.87289E-13 3.47149E-13
 -1       280 1.99998E+01-5.18394E-04 8.59315E-08-1.97116E-04-2.81190E-13 1.97699E-13
 -1       281 1.99998E+01-6.94501E-04 4.61813E-07-1.83355E-04-2.92546E-13-8.09746E-13
 -1       282 1.99998E+01-8.45362E-04 8.07132E-07-1.40040E-04 6.44337E-14-1.62566E-13
 -1       283 1.99998E+01-9.45253E-04 1.05908E-06-7.52390E-05-1.80394E-13 1.45668E-13
 -1       284 1.99998E+01-9.79787E-04 1.14796E-06 7.38579E-07 5.19503E-14 3.46079E-13
 -1       285 1.99998E+01-9.43985E-04 1.05864E-06 7.66044E-05 1.06952E-13 1.45764E-13
 -1       286 1.99998E+01-8.42974E-04 8.05975E-07 1.41094E-04 9.95497E-14 2.16242E-14
 -1       287 1.99998E+01-6.94381E-04 4.35917E-07 1.83462E-04 8.03715E-14-3.93177E-13
 -1       288 1.99998E+01-5.14975E-04 8.93808E-08 1.97154E-04 9.82979E-16-1.55595E-13
 -1       289 1.99998E+01-3.33934E-04-1.08877E-07 1.76562E-04 4.17423E-14-1.25502E-14
 -1       290 1.99998E+01-1.80401E-04-8.22507E-07 1.23194E-04-1.48730E-13-2.63403E-13
 -1       291 1.99997E+01-1.01586E-04-8.65937E-07 9.36813E-05-1.42050E-13-4.01382E-13
 -1       292-3.04647E-01-8.15062E+00-8.01381E-01 1.85426E+00 1.19474E-13 1.16196E-12
 -1       293 3.13907E+00-6.80755E+00-7.47971E-01 3.96462E+00 7.85649E-13 1.33853E-12
 -1       294 1.05184E+01-3.58680E+00-3.60431E-01 6.57248E+00 1.04333E-12 1.36600E-12
 -1       295 2.07184E+01-7.29792E-01-1.85705E-02 7.46664E+00 1.13265E-12 1.13121E-12
 -1       296 2.98736E+01 3.38824E+00 3.56589E-01 7.76800E+00 1.50127E-12 1.05108E-12
 -1       297 3.88104E+01 5.69859E+00 7.69849E-01 6.77076E+00 1.38750E-12 6.10401E-13
 -1       298 4.44221E+01 6.44250E+00 9.40733E-01 3.65079E+00 1.18164E-12-1.20445E-13
 -1       299 4.47066E+01 6.65749E+00 8.71738E-01-3.23188E-01 1.28175E-12-9.14206E-13
 -1       300 4.11057E+01 5.83794E+00 6.87018E-01-3.99991E+00 1.54443E-12-1.55626E-12
 -1       301 3.40751E+01 4.73608E+00 4.21292E-01-7.05156E+00 1.85849E-12-2.16199E-12
 -1       302 2.51537E+01 2.51928E+00 5.82395E-02-7.26574E+00 1.82356E-12-1.91022E-12
 -1       303 1.48328E+01 1.45815E+00-2.23302E-01-7.37607E+00 2.09963E-12-2.18173E-12
 -1       304 8.27717E+00-9.95368E-01-2.94518E-01-6.14464E+00 1.19754E-12-1.69642E-12
 -1       305 1.91630E+00-3.38043E+00-5.82205E-01-3.45743E+00 1.02213E-12-1.51865E-12
 -1       306-3.66818E-01-3.56525E+00-4.69542E-01-1.84054E+00-6.60583E-14-1.54667E-12
 -1       307-3.99395E-01-5.39271E+00-7.50978E-01 3.64499E-01-9.49782E-13-1.53130E-12
 -1       308 4.24057E+00-3.81614E+00-5.40337E-01 3.42341E+00-1.29285E-12-1.82415E-12
 -1       309 1.05496E+01-2.73397E+00-6.11932E-01 4.95340E+00-2.16119E-12-2.29886E-12
 -1       310 2.17562E+01-1.15633E+00-2.12493E-01 5.97609E+00-1.98849E-12-2.22053E-12
 -1       311 3.24401E+01 1.90704E+00 2.79179E-01 5.89099E+00-2.08143E-12-2.37604E-12
 -1       312 4.20380E+01 4.34976E+00 8.15286E-01 3.96359E+00-1.77483E-12-1.82226E-12
 -1       313 4.62599E+01 6.52374E+00 9.85973E-01 4.51450E-01-1.53982E-12-8.40619E-13
 -1       314 4.85650E+01 6.73717E+00 1.20896E+00-2.41571E+00-1.48506E-12-5.13339E-14
 -1       315 4.39873E+01 5.98944E+00 9.42748E-01-4.81476E+00-1.66055E-12 6.43569E-13
 -1       316 3.68596E+01 4.08284E+00 6.10466E-01-7.23385E+00-1.74760E-12 1.43474E-12
 -1       317 2.73934E+01 7.67136E-01 1.25073E-01-7.35178E+00-1.55040E-12 1.60993E-12
 -1       318 1.64502E+01-1.64099E+00-2.97409E-01-7.14622E+00-1.68593E-12 1.90192E-12
 -1       319 8.34831E+00-5.02622E+00-6.02141E-01-5.48606E+00-1.40449E-12 1.54642E-12
 -1       320 2.31026E+00-7.47792E+00-8.05621E-01-3.24928E+00-1.05949E-12 1.31702E-12
 -1       321-6.35938E-01-8.81959E+00-8.90261E-01-7.98129E-01-4.44818E-13 1.21333E-12
 -1       322 2.25226E+01 1.53678E+00-1.58573E-02-4.64055E-01-9.74125E-14 2.46608E-14
 -1       323 2.70621E+01 1.10056E+00-3.61661E-02-1.78567E+00-2.68197E-13 5.56166E-13
 -1       324 1.14018E+01 3.88597E+00 4.85502E-02 9.42604E-01 1.52291E-14-9.03359E-13
 -1       325 7.89896E+00 4.91687E+00 7.41341E-02-7.11820E-01-2.16323E-13-1.17087E-12
 -1       326 8.49007E+00 4.56764E+00 7.13148E-02-2.83268E+00-5.08641E-13-1.16565E-12
 -1       327 1.22759E+01 3.21174E+00 3.80809E-02-3.74498E+00-6.68737E-13-9.51986E-13
 -1       328 1.68655E+01 1.96315E+00 8.04449E-03-2.97511E+00-6.11741E-13-7.00973E-13
 -1       329 2.02680E+01 1.53689E+00-1.43737E-02-1.31281E+00-4.04405E-13-5.58869E-13
 -1       330 2.20958E+01 1.79321E+00-2.45098E-02 3.42631E-01-1.36353E-13-5.24633E-13
 -1       331 2.27929E+01 2.28200E+00-2.88825E-02 1.62369E+00 1.15551E-13-5.13102E-13
 -1       332 2.29271E+01 2.64875E+00-3.09253E-02 2.53299E+00 3.40467E-13-4.67167E-13
 -1       333 2.29460E+01 2.67953E+00-3.49942E-02 3.15352E+00 5.23660E-13-2.78241E-13
 -1       334 2.31574E+01 2.14071E+00-4.04764E-02 3.35796E+00 6.61647E-13 1.31855E-13
 -1       335 2.33204E+01 1.21785E+00-3.40910E-02 2.81393E+00 6.26752E-13 5.94066E-13
 -1       336 2.21887E+01 4.37126E-01 8.10331E-03 1.88895E+00 5.14261E-13 4.84633E-13
 -1       337 2.85668E+01-1.17432E+00-6.09280E-04-2.12848E+00-1.80497E-13 8.89943E-13
 -1       338 2.88117E+01-1.33817E+00-2.42507E-02-3.28799E+00-2.70372E-13 9.71083E-13
 -1       339 2.85774E+01 2.79284E-01-5.95308E-02-4.10108E+00-5.62968E-13 9.25700E-13
 -1       340 2.76476E+01 2.82308E+00-1.27088E-01-2.74485E+00-8.42618E-13 5.40428E-13
 -1       341 2.72175E+01 3.37070E+00-1.17764E-01 4.69486E-01-9.76268E-13-1.56607E-13
 -1       342 2.74884E+01 1.20679E+00-8.78266E-02 2.68514E+00-6.42150E-13-6.53308E-13
 -1       343 2.74524E+01-1.07579E+00-4.48277E-02 2.44378E+00-1.52474E-13-6.64602E-13
 -1       344 2.66221E+01-1.78671E+00-1.87988E-02 8.87819E-01 8.65601E-14-4.88681E-13
 -1       345 2.54345E+01-1.37948E+00-1.09044E-02-5.70672E-01 2.99804E-14-3.20813E-13
 -1       346 2.43214E+01-6.93721E-01-8.69116E-03-1.41756E+00 9.79880E-14-1.95903E-13
 -1       347 2.34288E+01-1.73641E-01-4.28555E-03-1.71621E+00-9.59400E-15-2.42643E-13
 -1       348 2.27261E+01 1.13146E-01-1.00980E-03-1.67747E+00 1.60819E-14-1.95756E-13
 -1       349 2.21625E+01 2.30019E-01 1.08693E-03-1.47573E+00 3.75977E-14-7.13822E-14
 -1       350 2.17021E+01 2.51244E-01 2.08720E-03-1.22150E+00-1.10779E-13-7.84275E-15
 -1       351 2.13245E+01 2.28542E-01 2.30187E-03-9.72982E-01-1.15154E-13-3.53337E-14
 -1       352 2.10169E+01 1.90910E-01 2.11349E-03-7.55249E-01-9.37079E-14-1.29687E-13
 -1       353 2.07695E+01 1.52252E-01 1.77363E-03-5.75395E-01-1.17344E-13-1.31622E-13
 -1       354 2.05733E+01 1.18142E-01 1.41522E-03-4.31946E-01 8.04646E-15-1.24770E-13
 -1       355 2.04201E+01 9.00906E-02 1.09556E-03-3.20069E-01 1.04211E-13-6.59828E-15
 -1       356 2.03021E+01 6.78656E-02 8.31793E-04-2.34156E-01 1.54370E-13-3.74911E-14
 -1       357 2.02127E+01 5.06224E-02 6.22960E-04-1.68957E-01 9.71580E-14 7.61294E-14
 -1       358 2.01458E+01 3.74103E-02 4.61432E-04-1.19982E-01 1.29177E-14 1.57257E-13
 -1       359 2.00967E+01 2.73700E-02 3.38246E-04-8.35624E-02 6.39928E-14 7.50804E-14
 -1       360 2.00612E+01 1.97898E-02 2.45179E-04-5.67751E-02-7.46276E-14 1.21877E-14
 -1       361 2.00361E+01 1.41038E-02 1.75392E-04-3.73201E-02-3.32258E-14 5.92270E-14
 -1       362 2.00188E+01 9.87024E-03 1.23443E-04-2.34037E-02-2.33769E-14 6.12216E-14
 -1       363 2.00072E+01 6.74660E-03 8.50915E-05-1.36349E-02 1.10672E-13-6.29603E-14
 -1       364 1.99998E+01 4.46800E-03 5.70640E-05-6.94016E-03 2.58401E-13-4.18399E-14
 -1       365 1.99954E+01 2.82944E-03 3.68381E-05-2.49597E-03-1.36809E-13-1.06790E-13
 -1       366 1.99930E+01 1.67228E-03 2.24740E-05 3.25303E-04 1.41495E-14-3.29537E-15
 -1       367 1.99920E+01 8.73909E-04 1.24801E-05 1.99795E-03-1.80979E-13 6.58249E-14
 -1       368 1.99919E+01 3.39830E-04 5.71184E-06 2.87670E-03 8.47087E-14-6.39595E-14
 -1       369 1.99924E+01-2.38264E-06 1.29430E-06 3.22353E-03-6.83715E-14-2.61865E-13
 -1       370 1.99931E+01-2.07832E-04-1.43777E-06 3.22900E-03-1.67545E-13-3.27968E-13
 -1       371 1.99940E+01-3.18030E-04-2.98601E-06 3.02909E-03-2.39819E-13-2.84298E-14
 -1       372 1.99949E+01-3.63878E-04-3.72494E-06 2.71861E-03 1.04479E-13 2.38640E-13
 -1       373 1.99958E+01-3.68056E-04-3.93079E-06 2.36162E-03 1.24517E-13 1.79461E-13
 -1       374 1.99966E+01-3.46949E-04-3.80458E-06 1.99957E-03 1.66457E-13 1.41975E-13
 -1       375 1.99973E+01-3.12192E-04-3.49060E-06 1.65758E-03 1.81443E-13 2.91365E-13
 -1       376 1.99979E+01-2.71920E-04-3.09172E-06 1.34909E-03 3.06942E-14 5.22228E-13
 -1       377 1.99983E+01-2.31778E-04-2.67949E-06 1.07937E-03 1.79319E-13 5.64441E-13
 -1       378 1.99987E+01-1.95691E-04-2.29678E-06 8.48039E-04 2.27215E-13 4.68798E-13
 -1       379 1.99991E+01-1.66473E-04-1.96287E-06 6.50845E-04 1.40009E-13 1.76402E-13
 -1       380 1.99993E+01-1.45952E-04-1.71417E-06 4.81191E-04-1.26336E-13 2.23891E-13
 -1       381 1.99995E+01-1.34455E-04-1.73464E-06 3.31699E-04 5.22281E-14 7.86526E-14
 -1       382 1.99996E+01-1.20010E-04-1.14733E-06 2.05353E-04-1.80711E-14 5.78279E-15
 -1       383 2.11689E+01 2.56246E-01 1.30473E-02 1.38590E+00 3.75650E-13 3.41738E-13
 -1       384 2.03739E+01 2.88761E-01 9.07633E-03 9.63455E-01 2.84643E-13 2.08005E-13
 -1       385 1.98566E+01 3.61581E-01 6.55547E-03 4.73527E-01 2.32099E-13 8.68930E-14
 -1       386 1.96497E+01 3.73952E-01 5.38494E-03-6.85402E-02 2.48939E-13-7.77719E-14
 -1       387 1.97410E+01 2.89474E-01 4.31356E-03-5.50625E-01 1.64549E-13-1.71814E-13
 -1       388 2.00491E+01 1.36627E-01 2.78244E-03-8.55591E-01 2.01839E-13-2.44386E-13
 -1       389 2.04506E+01-2.32636E-02 9.77093E-04-9.33507E-01 1.98046E-13-3.69473E-13
 -1       390 2.08284E+01-1.38333E-01-8.17605E-04-8.15928E-01 1.22103E-13-3.68477E-13
 -1       391 2.11073E+01-1.88917E-01-2.12872E-03-5.83656E-01 4.50822E-14-4.06027E-13
 -1       392 2.12604E+01-1.84704E-01-2.72706E-03-3.21456E-01 8.37182E-14-4.43265E-13
 -1       393 2.12960E+01-1.48255E-01-2.64215E-03-8.94552E-02 1.85638E-13-5.12490E-13
 -1       394 2.12406E+01-1.00947E-01-2.12252E-03 8.33777E-02 4.41218E-14-4.34886E-13
 -1       395 2.11249E+01-5.67760E-02-1.44228E-03 1.92314E-01-1.84829E-15-3.56601E-13
 -1       396 2.09768E+01-2.22208E-02-7.94849E-04 2.46396E-01-1.10616E-13-3.61785E-13
 -1       397 2.08179E+01 1.41191E-03-2.79117E-04 2.59845E-01 7.44247E-14-3.91073E-13
 -1       398 2.06633E+01 1.55061E-02 7.84761E-05 2.46806E-01 1.54192E-13-2.98008E-13
 -1       399 2.05225E+01 2.23890E-02 2.92724E-04 2.18912E-01-1.94472E-14-1.74482E-13
 -1       400 2.04002E+01 2.43761E-02 3.95766E-04 1.84644E-01-1.85938E-13-2.67284E-13
 -1       401 2.02979E+01 2.33684E-02 4.21968E-04 1.49592E-01-1.26892E-13-2.27057E-13
 -1       402 2.02152E+01 2.07608E-02 4.00705E-04 1.17059E-01-1.46370E-14-2.28537E-13
 -1       403 2.01501E+01 1.74929E-02 3.54086E-04 8.87082E-02-1.69793E-13-1.96737E-13
 -1       404 2.01003E+01 1.41483E-02 2.97256E-04 6.51162E-02-3.63357E-14-2.62653E-13
 -1       405 2.00633E+01 1.10558E-02 2.39700E-04 4.61979E-02-2.22425E-14-3.77286E-13
 -1       406 2.00366E+01 8.37285E-03 1.86771E-04 3.15062E-02 1.72562E-13-2.14177E-13
 -1       407 2.00179E+01 6.14945E-03 1.41018E-04 2.04324E-02 1.62481E-13-3.82260E-13
 -1       408 2.00053E+01 4.37238E-03 1.03206E-04 1.23305E-02 6.32576E-14-2.28985E-13
 -1       409 1.99973E+01 2.99549E-03 7.30606E-05 6.58972E-03 4.39934E-14-2.01971E-14
 -1       410 1.99926E+01 1.95886E-03 4.97643E-05 2.67020E-03 5.92611E-14-1.70786E-14
 -1       411 1.99902E+01 1.20034E-03 3.22754E-05 1.17239E-04-5.86165E-14-1.25088E-13
 -1       412 1.99894E+01 6.61994E-04 1.95221E-05-1.43863E-03 2.85776E-14-3.39846E-13
 -1       413 1.99895E+01 2.93106E-04 1.05090E-05-2.28867E-03-1.20844E-13-4.81230E-13
 -1       414 1.99903E+01 5.12579E-05 4.36761E-06-2.65640E-03 7.02097E-14-4.74147E-13
 -1       415 1.99914E+01-9.78470E-05 3.72982E-07-2.70897E-03 1.07298E-13-5.30746E-13
 -1       416 1.99926E+01-1.81162E-04-2.05996E-06-2.56817E-03-1.51281E-13-5.01489E-13
 -1       417 1.99937E+01-2.19342E-04-3.39031E-06-2.32019E-03-2.47989E-13-4.94274E-13
 -1       418 1.99949E+01-2.27848E-04-3.96954E-06-2.02402E-03-1.42911E-13-4.38178E-13
 -1       419 1.99959E+01-2.17996E-04-4.06074E-06-1.71829E-03-1.86855E-14-4.01076E-13
 -1       420 1.99967E+01-1.97888E-04-3.85711E-06-1.42673E-03-2.17957E-14-3.41091E-13
 -1       421 1.99975E+01-1.73217E-04-3.49750E-06-1.16237E-03-1.62453E-13-4.18094E-13
 -1       422 1.99981E+01-1.47935E-04-3.07999E-06-9.30693E-04 1.68147E-13-4.16059E-13
 -1       423 1.99985E+01-1.24777E-04-2.67617E-06-7.31982E-04 2.38277E-14-3.96586E-13
 -1       424 1.99989E+01-1.05757E-04-2.30173E-06-5.62809E-04-2.26196E-13-9.22190E-14
 -1       425 1.99992E+01-9.19547E-05-1.90324E-06-4.17399E-04-1.15763E-13 1.26075E-13
 -1       426 1.99995E+01-8.43929E-05-1.51115E-06-2.88980E-04 2.66243E-14 1.43545E-13
 -1       427 1.99996E+01-8.06150E-05-1.18602E-06-1.71821E-04-7.47143E-14-2.07343E-13
 -1       428 1.99997E+01-8.04787E-05-7.53952E-07-1.09563E-04 1.73827E-13-9.77553E-14
 -1       429 1.99998E+01-4.59509E-04-2.51848E-07-3.42533E-04-4.14163E-13 1.20650E-13
 -1       430 1.99997E+01-2.97017E-04-9.26346E-07-2.91496E-04-1.07112E-13 1.98656E-13
 -1       431 1.99997E+01-1.78277E-04-1.10958E-06-2.05054E-04 5.94084E-14-3.94556E-14
 -1       432 1.99998E+01-6.18251E-04 2.15582E-07-3.40458E-04-5.47662E-13-5.47194E-13
 -1       433 1.99999E+01-7.61015E-04 6.29448E-07-2.86128E-04-1.41879E-13-1.24606E-14
 -1       434 1.99999E+01-8.67005E-04 9.52131E-07-1.89419E-04 1.36787E-13 1.10868E-14
 -1       435 1.99999E+01-9.23262E-04 1.12759E-06-6.54469E-05-3.03648E-13 6.22094E-14
 -1       436 1.99999E+01-9.22801E-04 1.12963E-06 6.78393E-05-3.40955E-13 2.94406E-13
 -1       437 1.99999E+01-8.65624E-04 9.52003E-07 1.91499E-04-2.20291E-13-4.60969E-14
 -1       438 1.99999E+01-7.61059E-04 6.17129E-07 2.86236E-04-1.89448E-13-1.90366E-13
 -1       439 1.99998E+01-6.18381E-04 2.01095E-07 3.40469E-04 7.76384E-14 4.83950E-14
 -1       440 1.99998E+01-4.56412E-04-2.89920E-07 3.42503E-04 2.67597E-13-1.46594E-13
 -1       441 1.99997E+01-2.93106E-04-8.17428E-07 2.90892E-04-2.57172E-13-4.59407E-13
 -1       442 1.06692E+01-4.14804E+00-1.21100E-02 7.29166E+00-3.68997E-13 9.69877E-13
 -1       443 1.60504E+00-3.03121E+00-6.13852E-02 5.16838E-01-1.37106E-13 1.24553E-12
 -1       444 4.94217E+00-3.31390E+00-3.43557E-03 5.23592E+00-3.14318E-13 1.12399E-12
 -1       445 1.92994E+01-4.34148E+00-8.20985E-03 7.06790E+00-2.29372E-13 4.49533E-13
 -1       446 2.75996E+01-1.85926E+00 1.78468E-02 4.23362E+00 3.89244E-13-3.14707E-13
 -1       447 1.70645E+01 2.43627E+00 1.98840E-02 8.64623E-01 4.93659E-14-4.43194E-13
 -1       448 3.38860E+01 6.03533E+00 3.08544E-02 5.82040E-01 1.23578E-12-5.53099E-13
 -1       449 3.51408E+01 7.88635E+00 4.24080E-02 6.38214E-01 1.42068E-12-4.80536E-13
 -1       450 3.36183E+01 7.27742E+00-4.86233E-02 8.81709E-01 1.48140E-12-3.74027E-13
 -1       451 3.30381E+01 4.28949E+00-2.11845E-03-6.27816E-01 1.33978E-12-4.76522E-13
 -1       452 2.97869E+01 1.54484E+00 1.50907E-02-2.52124E+00 1.00506E-12-5.56971E-13
 -1       453 2.25286E+01-1.01139E+00-3.68757E-02-5.37043E+00 4.55136E-13-7.72875E-13
 -1       454 1.62263E+01-1.16472E+00 2.69909E-02-6.71073E+00 5.21527E-14-1.00565E-12
 -1       455 7.17553E+00-4.02322E-01-2.10549E-02-6.17686E+00-7.30388E-14-1.48032E-12
 -1       456 3.01935E+00 5.23408E-01 5.32182E-02-4.06607E+00-2.67363E-13-1.68217E-12
 -1       457 1.86896E+00 9.23279E-01 6.21544E-02 2.71616E-02-2.64245E-13-1.74039E-12
 -1       458 5.14276E+00 1.51371E-02 6.70224E-02 3.18197E+00-1.36009E-13-1.58154E-12
 -1       459 1.25865E+01-2.87315E+00-6.12093E-02 5.23386E+00-3.90257E-13-1.34211E-12
 -1       460 2.05645E+01-3.82480E+00-8.32075E-02 4.71399E+00-5.24317E-13-9.92595E-13
 -1       461 2.97655E+01-2.60101E+00-2.44839E-02 1.60258E+00-8.51805E-13-4.01026E-13
 -1       462 3.48980E+01 1.13433E+00 5.06512E-02-3.42753E-01-1.35478E-12-3.28071E-13
 -1       463 3.63154E+01 5.01663E+00 4.62698E-02-2.14134E+00-1.58504E-12 3.68733E-14
 -1       464 3.79735E+01 7.46891E+00 1.71188E-01-1.13689E+00-1.72759E-12-1.55717E-13
 -1       465 3.78120E+01 6.92728E+00 1.71322E-01-3.15934E-01-1.72629E-12-1.96378E-13
 -1       466 3.55379E+01 2.97542E+00 5.28705E-02-4.11565E-01-1.37237E-12-1.99951E-13
 -1       467 3.25899E+01-6.49527E-01 3.79794E-02-2.27319E+00-8.81340E-13 1.49047E-14
 -1       468 2.51751E+01-4.03709E+00-4.55462E-02-5.45752E+00-3.25531E-13 5.27731E-13
 -1       469 1.74375E+01-4.85980E+00-6.47570E-02-6.99802E+00-1.72917E-13 8.81590E-13
 -1       470 9.58744E+00-4.36928E+00-5.22993E-02-6.54914E+00 2.09971E-14 9.43093E-13
 -1       471 3.41683E+00-3.74419E+00-9.52282E-02-3.64294E+00-3.35981E-14 1.29691E-12
 -1       472 3.20688E+01 2.23497E+00 3.19005E-02 2.17875E+00 9.89396E-13-4.98435E-13
 -1       473 2.25397E+01 7.57609E-01 3.22563E-04 2.34529E+00 4.93564E-13 8.86500E-14
 -1       474 5.49195E+00 4.03756E+00 1.38617E-01-2.12672E+00-3.77578E-13-1.48330E-12
 -1       475 7.57265E+00 3.42154E+00 1.48738E-01 1.29333E+00 1.83360E-15-1.29875E-12
 -1       476 1.55126E+01 1.07138E+00 5.81620E-02-4.59371E+00-7.60373E-13-7.71461E-13
 -1       477 2.02824E+01 1.89660E-01 1.10562E-02-2.48458E+00-5.53382E-13-4.36208E-13
 -1       478 2.27487E+01 4.60236E-01-9.26887E-03-1.63889E-01-2.49493E-13-3.33010E-13
 -1       479 2.35075E+01 1.10010E+00-1.57939E-02 1.46169E+00 2.74930E-14-3.43549E-13
 -1       480 2.35049E+01 1.60812E+00-1.46412E-02 2.39810E+00 2.52099E-13-3.52450E-13
 -1       481 2.33033E+01 1.75150E+00-1.18721E-02 2.90544E+00 4.45301E-13-2.66868E-13
 -1       482 2.18869E+01 6.94273E-01 6.27651E-03 1.79633E+00 4.06625E-13 6.56127E-14
 -1       483 2.77835E+01-2.48904E+00-4.34289E-03-1.46892E+00-2.55666E-14 6.57882E-13
 -1       484 3.00892E+01 2.99238E+00-1.25912E-01-6.47240E-01 8.39183E-13-8.55843E-13
 -1       485 3.01117E+01-1.84765E+00-5.86057E-02-3.03769E+00-4.10295E-13 8.74707E-13
 -1       486 3.07447E+01 5.92194E+00-2.31103E-01-1.45851E+00-1.43349E-12 5.82364E-14
 -1       487 3.09268E+01 4.13121E+00-1.70417E-01 1.92297E+00-1.27647E-12-5.26384E-13
 -1       488 2.98734E+01-5.62176E-01-1.17545E-01 2.29512E+00-4.29892E-13-8.81059E-13
 -1       489 2.77974E+01-3.09755E+00-3.53427E-02 3.94290E-01 2.00997E-13-7.97267E-13
 -1       490 2.52866E+01-2.80450E+00-3.77803E-03-1.31321E+00 2.76400E-13-4.58647E-13
 -1       491 2.33848E+01-1.56570E+00-3.48230E-03-2.14787E+00 1.36625E-13-2.40872E-13
 -1       492 2.22164E+01-5.23619E-01-1.18753E-04-2.33975E+00 1.07974E-13-1.78776E-13
 -1       493 2.15583E+01 1.01594E-01-9.21761E-05-2.20528E+00 3.32927E-14-1.30376E-13
 -1       494 2.11841E+01 3.92948E-01 4.10862E-04-1.92772E+00 5.43504E-14-9.96949E-14
 -1       495 2.09483E+01 4.78860E-01 9.95011E-04-1.61023E+00-6.09286E-15-1.17758E-13
 -1       496 2.07755E+01 4.60403E-01 1.17269E-03-1.30407E+00-5.17486E-14 1.78626E-13
 -1       497 2.06338E+01 3.99088E-01 1.10616E-03-1.03246E+00-1.30768E-13 2.29353E-13
 -1       498 2.05118E+01 3.27235E-01 9.38974E-04-8.03114E-01-8.12954E-14 1.94613E-13
 -1       499 2.04063E+01 2.59625E-01 7.52510E-04-6.15603E-01-1.96735E-13 2.47445E-13
 -1       500 2.03165E+01 2.01702E-01 5.83254E-04-4.65713E-01 1.37578E-14-6.12226E-14
 -1       501 2.02417E+01 1.54441E-01 4.42803E-04-3.47880E-01 1.46634E-13-1.86961E-13
 -1       502 2.01808E+01 1.16936E-01 3.31499E-04-2.56467E-01 1.70175E-13-1.15410E-13
 -1       503 2.01323E+01 8.76683E-02 2.45437E-04-1.86359E-01-7.76769E-14-2.43004E-13
 -1       504 2.00945E+01 6.50775E-02 1.79902E-04-1.33171E-01-3.49480E-15-2.39027E-13
 -1       505 2.00656E+01 4.77825E-02 1.30478E-04-9.32675E-02-6.07202E-14-2.28747E-13
 -1       506 2.00440E+01 3.46381E-02 9.34660E-05-6.36913E-02 7.07786E-15-2.10548E-13
 -1       507 2.00282E+01 2.47235E-02 6.59372E-05-4.20706E-02 6.32426E-14-8.08535E-14
 -1       508 2.00168E+01 1.73098E-02 4.56174E-05-2.65195E-02-5.03522E-14 5.19022E-14
 -1       509 2.00089E+01 1.18230E-02 3.07581E-05-1.55514E-02 1.67641E-13 1.87409E-13
 -1       510 2.00036E+01 7.81302E-03 2.00187E-05-8.00328E-03 1.05355E-13 2.41895E-14
 -1       511 2.00001E+01 4.92716E-03 1.23722E-05-2.97255E-03 1.35314E-13 2.72431E-13
 -1       512 1.99980E+01 2.88974E-03 7.03166E-06 2.34802E-04-1.91270E-13 2.63805E-13
 -1       513 1.99969E+01 1.48603E-03 3.39481E-06 2.14695E-03-1.48062E-13-7.91122E-14
 -1       514 1.99964E+01 5.49572E-04 1.00176E-06 3.16108E-03-9.43972E-14-2.48683E-13
 -1       515 1.99963E+01-4.76951E-05-4.96862E-07 3.57175E-03-1.59851E-14-1.97523E-13
 -1       516 1.99965E+01-4.03452E-04-1.36462E-06 3.59389E-03-1.31228E-13-1.68816E-13
 -1       517 1.99968E+01-5.91375E-04-1.79847E-06 3.38126E-03 5.52323E-14 2.57111E-13
 -1       518 1.99972E+01-6.66333E-04-1.94387E-06 3.04126E-03 1.93807E-13 3.49273E-13
 -1       519 1.99976E+01-6.68598E-04-1.90674E-06 2.64657E-03 2.18154E-14 2.97660E-13
 -1       520 1.99980E+01-6.27253E-04-1.76319E-06 2.24424E-03 1.19401E-13 2.06771E-13
 -1       521 1.99984E+01-5.62957E-04-1.56727E-06 1.86281E-03 3.29301E-13-3.01659E-14
 -1       522 1.99987E+01-4.90173E-04-1.35896E-06 1.51753E-03 2.91900E-14 3.48253E-13
 -1       523 1.99989E+01-4.18941E-04-1.16397E-06 1.21438E-03-1.02946E-13 2.55465E-14
 -1       524 1.99992E+01-3.56104E-04-9.84064E-07 9.53033E-04 1.13627E-13-3.32478E-13
 -1       525 1.99994E+01-3.06321E-04-8.53367E-07 7.29162E-04-1.56098E-13-5.31834E-13
 -1       526 1.99995E+01-2.71561E-04-8.94039E-07 5.36004E-04-3.34985E-14-2.30185E-13
 -1       527 1.01981E+01-2.43378E+00 1.29433E-01 6.49816E+00-6.58279E-13 7.93123E-13
 -1       528 2.09282E+01 9.59435E-01 4.52390E-03 3.95848E-01 3.26611E-13-1.47907E-13
 -1       529 2.08152E+01 8.51870E-01 3.28388E-03-3.74557E-01 2.91271E-13-2.29301E-13
 -1       530 2.09323E+01 5.27103E-01 1.63592E-03-9.46631E-01 2.25968E-13-3.99708E-13
 -1       531 2.11558E+01 1.18345E-01 6.58285E-04-1.19380E+00 2.37209E-13-3.41743E-13
 -1       532 2.13558E+01-2.25065E-01-3.50884E-04-1.12478E+00 1.40357E-13-3.72211E-13
 -1       533 2.14556E+01-4.17875E-01-1.20963E-03-8.47492E-01 1.06767E-13-4.41235E-13
 -1       534 2.14436E+01-4.60044E-01-1.80619E-03-4.93310E-01 1.03963E-13-4.87058E-13
 -1       535 2.13465E+01-3.99715E-01-1.88630E-03-1.61387E-01 1.48953E-13-5.54178E-13
 -1       536 2.12003E+01-2.92904E-01-1.57819E-03 9.65600E-02 4.86307E-14-4.78322E-13
 -1       537 2.10345E+01-1.81136E-01-1.11189E-03 2.66919E-01-3.97667E-14-3.38802E-13
 -1       538 2.08687E+01-8.69680E-02-6.48996E-04 3.58420E-01-6.05770E-14-2.90837E-13
 -1       539 2.07139E+01-1.82026E-02-2.71852E-04 3.89137E-01-3.43933E-14-3.14175E-13
 -1       540 2.05754E+01 2.60244E-02-3.85170E-06 3.78406E-01 1.16966E-14-2.09634E-13
 -1       541 2.04553E+01 5.03926E-02 1.62062E-04 3.42880E-01-4.66293E-14-2.50138E-14
 -1       542 2.03537E+01 6.04485E-02 2.47191E-04 2.95222E-01-1.12522E-13 5.82401E-14
 -1       543 2.02696E+01 6.11628E-02 2.75395E-04 2.44177E-01-1.89042E-13-4.91823E-14
 -1       544 2.02013E+01 5.64168E-02 2.67575E-04 1.95227E-01-1.03706E-13-1.07632E-13
 -1       545 2.01469E+01 4.89715E-02 2.39778E-04 1.51408E-01-5.18007E-15-1.48784E-13
 -1       546 2.01045E+01 4.06426E-02 2.03215E-04 1.14055E-01-6.57311E-14-3.15094E-13
 -1       547 2.00720E+01 3.25296E-02 1.65002E-04 8.34076E-02-6.49439E-14-2.71839E-13
 -1       548 2.00476E+01 2.52270E-02 1.29248E-04 5.90553E-02-1.31009E-14-3.17891E-13
 -1       549 2.00297E+01 1.89952E-02 9.80022E-05 4.02549E-02 6.09187E-14-1.02555E-13
 -1       550 2.00169E+01 1.38861E-02 7.19874E-05 2.61355E-02-5.49595E-14 2.00484E-13
 -1       551 2.00081E+01 9.83307E-03 5.11340E-05 1.58257E-02-4.57455E-14 8.63076E-14
 -1       552 2.00022E+01 6.70976E-03 3.49499E-05 8.52466E-03 4.72541E-14 1.15445E-13
 -1       553 1.99984E+01 4.36806E-03 2.27580E-05 3.53676E-03 7.31213E-14 1.22618E-14
 -1       554 1.99963E+01 2.66048E-03 1.38401E-05 2.81334E-04 1.51708E-13 1.80083E-14
 -1       555 1.99952E+01 1.45229E-03 7.51920E-06-1.71071E-03 1.05402E-13-1.35587E-13
 -1       556 1.99948E+01 6.27024E-04 3.19896E-06-2.80800E-03-4.62233E-14-2.48124E-13
 -1       557 1.99949E+01 8.79973E-05 3.78558E-07-3.29299E-03 2.53992E-14-6.88704E-15
 -1       558 1.99953E+01-2.42593E-04-1.34790E-06-3.37682E-03 4.79846E-15 3.03410E-13
 -1       559 1.99958E+01-4.25683E-04-2.29985E-06-3.21339E-03-1.49318E-13 5.11908E-14
 -1       560 1.99964E+01-5.07871E-04-2.72231E-06-2.91176E-03-1.70275E-13-1.10988E-13
 -1       561 1.99969E+01-5.24000E-04-2.79890E-06-2.54666E-03-2.63669E-13-8.15290E-14
 -1       562 1.99975E+01-4.99562E-04-2.66390E-06-2.16712E-03-1.48551E-13 6.84304E-14
 -1       563 1.99979E+01-4.52829E-04-2.41430E-06-1.80331E-03-1.88781E-13 3.96545E-14
 -1       564 1.99984E+01-3.96683E-04-2.11717E-06-1.47186E-03 5.34189E-14-2.32556E-13
 -1       565 1.99987E+01-3.40121E-04-1.80140E-06-1.17973E-03 2.82096E-13-1.51967E-13
 -1       566 1.99990E+01-2.88751E-04-1.62407E-06-9.27508E-04-2.16871E-13-3.94528E-13
 -1       567 1.99992E+01-2.48984E-04-1.66913E-06-7.12649E-04-3.41072E-13-7.21571E-13
 -1       568 1.99994E+01-2.18951E-04-1.43909E-06-5.25567E-04-2.43839E-13-5.04183E-13
 -1       569 1.99996E+01-1.99877E-04-1.09185E-06-3.60642E-04 1.74770E-13-2.01477E-13
 -1       570 1.99999E+01-7.28732E-04 2.13023E-07-4.43527E-04-1.53164E-13-1.05836E-13
 -1       571 2.00000E+01-8.52014E-04 3.79375E-07-3.33603E-04-5.28301E-14 3.71110E-13
 -1       572 1.99997E+01-4.08434E-04-1.86213E-07-4.72449E-04-2.89800E-13-2.56764E-13
 -1       573 1.99998E+01-5.74819E-04-3.74590E-07-4.90937E-04-4.49736E-13-1.76220E-13
 -1       574 2.00000E+01-9.31399E-04 4.75786E-07-1.78048E-04-2.91011E-13-4.78978E-13
 -1       575 2.00001E+01-9.58582E-04 5.20863E-07 1.55583E-06-2.02957E-13 3.31518E-13
 -1       576 2.00000E+01-9.30686E-04 4.84849E-07 1.81007E-04-1.68184E-13 3.25155E-13
 -1       577 2.00000E+01-8.52413E-04 3.69665E-07 3.33784E-04-7.88471E-14-1.15953E-13
 -1       578 1.99999E+01-7.29078E-04 1.98148E-07 4.43779E-04-6.41684E-14 1.10794E-14
 -1       579 1.99998E+01-5.73757E-04 1.78645E-07 4.91778E-04-1.02579E-14 6.03628E-14
 -1       580 1.99997E+01-4.03926E-04-2.39190E-07 4.69771E-04-1.06464E-13-7.92646E-13
 -1       581 5.19339E+00-7.61743E-01 1.53179E-01-1.96503E+00 7.42184E-14 9.87210E-13
 -1       582 2.13078E+01 8.51248E-01 5.00628E-03 1.16398E+00 3.73105E-13-4.77842E-14
 -1       583 1.69427E+01-4.05819E+00 7.39546E-02 7.11177E+00-7.71175E-13 3.57752E-13
 -1       584 8.68445E+00-2.10541E+00 1.23403E-01-5.29952E+00 4.11567E-13 9.16420E-13
 -1       585 2.50838E+01-1.00674E+00 2.80281E-03-4.72448E-01 2.27396E-14 3.10934E-13
 -1       586 2.47814E+01-4.28365E+00 9.25011E-03 4.41796E+00-4.61638E-13-5.59778E-13
 -1       587 2.93116E+01 7.50977E+00-1.78261E-01 7.10882E-01 1.32666E-12-3.84203E-13
 -1       588 9.30836E+00 2.88672E+00 1.30283E-01-4.79019E+00-7.04799E-13-1.22358E-12
 -1       589 2.96478E+01 5.04938E+00-1.40514E-01 1.91501E+00 1.14390E-12-3.98015E-14
 -1       590 2.97008E+01 6.84529E+00-1.49347E-01-4.07703E-01 1.16404E-12-6.09766E-13
 -1       591 3.16280E+01-1.55560E+00-7.38068E-02-2.14902E+00-6.61879E-13 5.79092E-13
 -1       592 2.95648E+01 2.48334E+00-8.83469E-02 1.06758E+00 8.38902E-13 6.23598E-14
 -1       593 2.64879E+01-7.96627E-01-4.50598E-02-1.72584E+00 1.81046E-13-3.99056E-14
 -1       594 2.12836E+01-1.49713E+00 3.88612E-02-4.66732E+00-3.01384E-13-4.18377E-13
 -1       595 1.30756E+01-1.20238E-01 6.56173E-02-6.39477E+00-5.81729E-13-1.02727E-12
 -1       596 7.50643E+00 1.68908E+00 1.45133E-01-5.33842E+00-5.80536E-13-1.43454E-12
 -1       597 5.39628E+00 2.68443E+00 1.76324E-01 1.31347E+00-6.73402E-14-1.52277E-12
 -1       598 1.21055E+01-3.79893E-01 1.12567E-01 4.13381E+00 2.02997E-13-1.06450E-12
 -1       599 1.93718E+01-3.02072E+00 6.49645E-02 3.99778E+00 1.50442E-13-5.74037E-13
 -1       600 2.31331E+01-5.12696E+00 2.27343E-02-5.32631E+00 3.11758E-13 1.18270E-13
 -1       601 2.65735E+01-3.93340E+00-8.90485E-03 1.39385E+00-3.38132E-14 7.55333E-14
 -1       602 3.21299E+01 1.86417E+00-1.28025E-01-3.80423E+00-1.06919E-12 6.58799E-13
 -1       603 3.16700E+01-4.41105E-01-1.29638E-01 1.28592E+00-6.47583E-13-7.23768E-13
 -1       604 2.92295E+01-3.82375E+00-3.28306E-02-1.66039E+00 6.20268E-14-4.58709E-13
 -1       605 1.64729E+01-4.20025E+00 9.59546E-02-6.73876E+00 4.03802E-13 6.13249E-13
 -1       606 5.75824E+00-5.75401E-01 1.61378E-01 3.00287E+00-3.36956E-13 9.23900E-13
 -1       607 2.29104E+01 1.18873E+00-2.59300E-03 2.76780E+00 5.78431E-13 9.91681E-14
 -1       608 2.91146E+01-8.14528E-01-5.84675E-02 9.68099E-01 3.41817E-13-9.17925E-13
 -1       609 1.31106E+01 1.66970E+00 9.74212E-02 2.52593E+00 1.79221E-13-8.56155E-13
 -1       610 2.73877E+01 6.10634E+00-1.48168E-01 1.81137E+00 1.13912E-12-2.11836E-13
 -1       611 4.70734E+00 3.08080E+00 1.49840E-01-3.32166E+00-4.56302E-13-1.57833E-12
 -1       612 1.99996E+01-2.63750E-04-8.67474E-07 4.24516E-04-3.09519E-13-2.80929E-13
 -1       613 2.00001E+01-2.04831E-01 6.12673E-02 1.60345E+00 2.36155E-13-2.21136E-13
 -1       614 2.02263E+01-9.42202E-01 1.77776E-02-4.07681E+00-5.77920E-13-4.07801E-13
 -1       615 2.42417E+01 1.04635E+00-1.21269E-02 2.43369E+00 2.39193E-13-1.76605E-13
 -1       616 2.36246E+01 1.29144E+00-9.26989E-03 2.73731E+00 3.90246E-13-2.02691E-13
 -1       617 2.30105E+01 1.09401E+00 9.29079E-03 2.54088E+00 4.37189E-13-5.99626E-14
 -1       618 2.15411E+01-4.01909E+00 5.54922E-02 5.12938E+00-7.30889E-13-2.07191E-13
 -1       619 2.79146E+01 3.78544E-01-9.04396E-02-8.88791E-01 3.71370E-13-9.37583E-13
 -1       620 1.03497E+01-4.25522E-01 1.41636E-01 4.67319E+00-4.70159E-13 6.50847E-13
 -1       621 1.49909E+01-2.41672E+00 9.64707E-02 6.28887E+00-7.65905E-13 3.60770E-13
 -1       622 1.99996E+01-4.50022E-04-2.26784E-07-6.61157E-04-3.15567E-13-3.72672E-13
 -1       623 2.19619E+01-2.49536E+00 2.30244E-02-3.45569E+00 3.68962E-13-2.85475E-13
 -1       624 2.06604E+01-9.24581E-01 3.37968E-03-3.17144E+00 2.37391E-13-9.76346E-14
 -1       625 2.00220E+01 8.66563E-02 2.28926E-03-2.70093E+00 8.12338E-14 1.40860E-15
 -1       626 1.98994E+01 5.65009E-01 6.90599E-04-2.24083E+00 8.48198E-14 6.44553E-14
 -1       627 1.99304E+01 7.32088E-01 4.68154E-04-1.84061E+00 4.60456E-14-1.83973E-14
 -1       628 2.00022E+01 7.29971E-01 5.15693E-04-1.49462E+00 1.36654E-13 9.12386E-14
 -1       629 2.00644E+01 6.51007E-01 4.85943E-04-1.19917E+00-8.47406E-14 1.13930E-13
 -1       630 2.01031E+01 5.46741E-01 4.12191E-04-9.50148E-01-9.57472E-14 1.42374E-13
 -1       631 2.01196E+01 4.42872E-01 3.28570E-04-7.43413E-01-1.07331E-13 1.33785E-13
 -1       632 2.01197E+01 3.50412E-01 2.53283E-04-5.74404E-01-2.78619E-13 1.11182E-13
 -1       633 2.01098E+01 2.72742E-01 1.91727E-04-4.38237E-01-1.53073E-15 1.64274E-14
 -1       634 2.00950E+01 2.09644E-01 1.43598E-04-3.29995E-01 1.90738E-13-1.68780E-13
 -1       635 2.00786E+01 1.59431E-01 1.06391E-04-2.45022E-01-2.83577E-14-2.75908E-13
 -1       636 2.00627E+01 1.20016E-01 7.80736E-05-1.79117E-01-5.41618E-14-3.28487E-13
 -1       637 2.00486E+01 8.93832E-02 5.67509E-05-1.28617E-01-8.67971E-14-2.71514E-13
 -1       638 2.00366E+01 6.57782E-02 4.07819E-05-9.04117E-02-2.57621E-14-2.31944E-13
 -1       639 2.00268E+01 4.77374E-02 2.88917E-05-6.19002E-02 1.88193E-13-7.69508E-14
 -1       640 2.00190E+01 3.40701E-02 2.00994E-05-4.09454E-02 7.14187E-14-1.54087E-14
 -1       641 2.00131E+01 2.38187E-02 1.36538E-05-2.58123E-02 2.49759E-14-1.13387E-13
 -1       642 2.00086E+01 1.62183E-02 8.98033E-06-1.51086E-02 1.47579E-13-1.68655E-13
 -1       643 2.00053E+01 1.06609E-02 5.63904E-06-7.72942E-03 1.45135E-13-1.86472E-13
 -1       644 2.00030E+01 6.66443E-03 3.29280E-06-2.80787E-03-6.93507E-14-2.56746E-13
 -1       645 2.00014E+01 3.84885E-03 1.68348E-06 3.28414E-04-2.51591E-13-1.52759E-13
 -1       646 2.00003E+01 1.91607E-03 6.13846E-07 2.19430E-03-2.46706E-13-1.09217E-13
 -1       647 1.99997E+01 6.34006E-04-6.61211E-08 3.17868E-03-1.88126E-13-1.26786E-13
 -1       648 1.99993E+01-1.76443E-04-4.69787E-07 3.57083E-03-1.04924E-13-2.12277E-13
 -1       649 1.99991E+01-6.52035E-04-6.82043E-07 3.58215E-03 3.36788E-13-3.28034E-13
 -1       650 1.99990E+01-8.95946E-04-7.65702E-07 3.36398E-03 2.82250E-13-2.53701E-13
 -1       651 1.99990E+01-9.84955E-04-7.66514E-07 3.02198E-03-1.27381E-14-2.71827E-13
 -1       652 1.99991E+01-9.75343E-04-7.17105E-07 2.62751E-03 4.57385E-14-1.65118E-13
 -1       653 1.99992E+01-9.07682E-04-6.41158E-07 2.22666E-03 9.54641E-14 5.85901E-14
 -1       654 1.99992E+01-8.10724E-04-5.55812E-07 1.84719E-03 3.07601E-13-2.17803E-13
 -1       655 1.99993E+01-7.04575E-04-4.82611E-07 1.50387E-03-1.22608E-13-2.19202E-13
 -1       656 1.99994E+01-6.03170E-04-4.07668E-07 1.20227E-03-2.79286E-13-2.33681E-13
 -1       657 1.99995E+01-5.15044E-04-3.15339E-07 9.41956E-04-1.29140E-13-5.58682E-13
 -1       658 1.99996E+01-4.47484E-04-3.64611E-07 7.18948E-04-4.64964E-14-5.34898E-13
 -1       659 2.17979E+01 1.71659E+00 2.76837E-03 9.92283E-02 4.29883E-13-3.11656E-13
 -1       660 2.21079E+01-1.72623E-01-1.06576E-03-1.30551E+00 1.92969E-13-4.25163E-13
 -1       661 2.20769E+01-6.35919E-01 1.85071E-05-9.96378E-01 1.17310E-13-3.78418E-13
 -1       662 2.18852E+01-8.01819E-01-3.91819E-04-5.60515E-01 7.14628E-14-3.64168E-13
 -1       663 2.16022E+01-7.46251E-01-6.98885E-04-1.47406E-01 1.77358E-13-3.36716E-13
 -1       664 2.12984E+01-5.76606E-01-6.73942E-04 1.70113E-01-7.91115E-15-2.66175E-13
 -1       665 2.10197E+01-3.78385E-01-5.02653E-04 3.76137E-01-9.99147E-14-1.68799E-13
 -1       666 2.07860E+01-2.01396E-01-3.12598E-04 4.84209E-01-1.04379E-13-1.50477E-13
 -1       667 2.05999E+01-6.60674E-02-1.57585E-04 5.18232E-01-4.34756E-14-1.11735E-13
 -1       668 2.04559E+01 2.53668E-02-4.34882E-05 5.02265E-01-2.25535E-14-1.81468E-13
 -1       669 2.03457E+01 7.93965E-02 3.00963E-05 4.56365E-01-1.22746E-13-1.26756E-13
 -1       670 2.02617E+01 1.05280E-01 7.13674E-05 3.95599E-01-9.54197E-14-8.51610E-14
 -1       671 2.01975E+01 1.11946E-01 8.92962E-05 3.30405E-01-5.24206E-14-2.24488E-13
 -1       672 2.01483E+01 1.06721E-01 9.17641E-05 2.67436E-01-1.07653E-13-2.63570E-13
 -1       673 2.01105E+01 9.50370E-02 8.50514E-05 2.10490E-01-1.41482E-13-2.36269E-13
 -1       674 2.00815E+01 8.06200E-02 7.38788E-05 1.61353E-01 3.60903E-15-1.28576E-13
 -1       675 2.00592E+01 6.58391E-02 6.12059E-05 1.20481E-01-1.43835E-13-6.29232E-15
 -1       676 2.00422E+01 5.20707E-02 4.87972E-05 8.75098E-02-1.39457E-14 7.60880E-14
 -1       677 2.00294E+01 4.00059E-02 3.76252E-05 6.16258E-02-5.45582E-14 2.46978E-13
 -1       678 2.00199E+01 2.98904E-02 2.81142E-05 4.18178E-02-1.40660E-13 1.27987E-13
 -1       679 2.00129E+01 2.17003E-02 2.03489E-05 2.70380E-02-8.84909E-16 3.91846E-14
 -1       680 2.00078E+01 1.52634E-02 1.42224E-05 1.62990E-02 1.20071E-13 3.07568E-14
 -1       681 2.00042E+01 1.03395E-02 9.53351E-06 8.72333E-03 4.76910E-14-1.63881E-14
 -1       682 2.00018E+01 6.67071E-03 6.04742E-06 3.56434E-03 5.30262E-14 6.85908E-16
 -1       683 2.00002E+01 4.01065E-03 3.53169E-06 2.07115E-04 2.33179E-13 1.39632E-13
 -1       684 1.99992E+01 2.13928E-03 1.77512E-06-1.84066E-03-2.39430E-14 2.91568E-13
 -1       685 1.99986E+01 8.69179E-04 5.96269E-07-2.96350E-03-1.38339E-13 2.21437E-13
 -1       686 1.99984E+01 4.62754E-05-1.54602E-07-3.45473E-03-5.22168E-14 1.84999E-13
 -1       687 1.99983E+01-4.52530E-04-5.97159E-07-3.53301E-03 6.64235E-14 3.94247E-13
 -1       688 1.99984E+01-7.23147E-04-8.24448E-07-3.35732E-03-2.01529E-14 2.79232E-13
 -1       689 1.99985E+01-8.38616E-04-9.07099E-07-3.04012E-03-2.90121E-13 5.99114E-14
 -1       690 1.99986E+01-8.53384E-04-8.97732E-07-2.65835E-03-1.37443E-13-8.07017E-14
 -1       691 1.99988E+01-8.07192E-04-8.33279E-07-2.26233E-03-7.17350E-14-2.21885E-13
 -1       692 1.99990E+01-7.28461E-04-7.42089E-07-1.88292E-03-4.47555E-14-9.15692E-14
 -1       693 1.99991E+01-6.37163E-04-6.35601E-07-1.53705E-03 3.67548E-14-5.00394E-14
 -1       694 1.99993E+01-5.47544E-04-7.91192E-07-1.23276E-03 1.20138E-13 4.22157E-14
 -1       695 1.99994E+01-4.69613E-04-8.89725E-07-9.72915E-04 8.90880E-14-7.43945E-14
 -1       696 1.99995E+01-4.56484E-04-7.79429E-08-8.11884E-04-2.86971E-13-1.92276E-13
 -1       697 2.00002E+01-1.03700E-03 1.77687E-07-1.14520E-04 1.87655E-14 2.14853E-13
 -1       698 2.00001E+01-8.68588E-04 2.13706E-07-5.08555E-04-2.23050E-13-9.01655E-15
 -1       699 2.00002E+01-1.03671E-03 1.86447E-07 1.18100E-04-9.18257E-14 2.54310E-13
 -1       700 2.00002E+01-9.79257E-04 1.68325E-07-3.32478E-04-2.95026E-13-1.45343E-13
 -1       701 9.85113E+00 3.67025E-02 1.46786E-01-3.45458E+00 2.49335E-13 6.86048E-13
 -1       702 1.99996E+01-4.23294E-04-1.77894E-07 5.88640E-04-9.40736E-14-8.94648E-13
 -1       703 2.00002E+01-9.79956E-04 1.92406E-07 3.32359E-04-2.85063E-13 2.06046E-13
 -1       704 2.00001E+01-8.69922E-04 1.14886E-07 5.08255E-04-3.03169E-13-1.33155E-13
 -1       705 1.99999E+01-7.17334E-04-2.62292E-07 6.17094E-04-2.18313E-13 1.30230E-13
 -1       706 1.99998E+01-5.71530E-04-1.70994E-07 6.29893E-04-1.54645E-13-5.08650E-14
 -1       707 2.20465E+01 1.68931E+00 1.50881E-03 1.12446E+00 4.48722E-13-1.65310E-13
 -1       708 2.38255E+01-2.70998E+00 2.10614E-02 1.35426E+00 2.34326E-13 9.12890E-14
 -1       709 2.64968E+01 6.11943E+00-1.35970E-01-2.41890E-02 1.06738E-12-5.26386E-13
 -1       710 2.60505E+01-4.31001E+00 1.52427E-02-2.43895E+00 3.92155E-13-5.36419E-13
 -1       711 2.25048E+01 1.34895E+00-2.04581E-03 1.97386E+00 4.61313E-13-9.10383E-14
 -1       712 2.19848E+01 5.36095E-01-1.97248E-03-1.28188E+00 2.20306E-13-4.29623E-13
 -1       713 2.18114E+01 1.27789E+00-1.12519E-03-7.96764E-01 3.51365E-13-3.92572E-13
 -1       714 2.46251E+01 3.64548E-01-1.85518E-02 1.46480E+00 2.76957E-14-8.92368E-14
 -1       715 1.44684E+01-2.10692E+00 1.03025E-01-5.70178E+00 4.69704E-13 6.74259E-13
 -1       716 2.70035E+01 6.28641E-01-3.64108E-02 1.22410E+00 2.82599E-13 1.73452E-13
 -1       717 2.41895E+01-7.67380E-01-1.05666E-02-6.79936E-01-2.62829E-13-7.52514E-14
 -1       718 2.66238E+01-2.89800E+00-5.06183E-02 1.42946E+00-1.98916E-13-8.37523E-13
 -1       719 2.75195E+01 3.04494E+00-1.01257E-01 2.36003E+00 7.29646E-13 7.77781E-14
 -1       720 2.48922E+01-1.16100E+00-4.09406E-02-1.49244E+00-1.74005E-13-3.38011E-15
 -1       721 2.79968E+01-3.25072E+00 5.27161E-03-6.85679E-01-1.24501E-14 5.11022E-13
 -1       722 2.70632E+01 4.00994E+00-1.15631E-01-1.42945E+00 7.96696E-13-7.83564E-13
 -1       723 2.11540E+01-4.21167E+00 6.15278E-02-5.18370E+00 4.92037E-13 5.80382E-14
 -1       724 7.96882E+00 8.25342E-01 1.54231E-01 3.17657E-01-1.38230E-13 7.42816E-13
 -1       725 2.42571E+01-3.71712E+00 1.98384E-03 2.78439E+00-4.78204E-13-5.96868E-13
 -1       726 1.99999E+01-7.17958E-04 5.03164E-07-6.20867E-04 7.77234E-14-4.46465E-14
 -1       727 2.61032E+01 4.37820E+00-9.40208E-02 2.44565E+00 8.34534E-13-6.43322E-14
 -1       728 2.50254E+01 5.14544E+00-8.18708E-02 1.21361E+00 9.13818E-13-3.26698E-13
 -1       729 2.40270E+01 1.60160E+00-4.81171E-03 2.75610E+00 4.13065E-13-1.36750E-13
 -1       730 2.30452E+01 1.24073E-01-6.37780E-04-1.43999E+00 1.72258E-13-6.08007E-13
 -1       731 1.42549E+01-7.79823E-01 6.97253E-02 4.81864E+00-6.05661E-13 3.22195E-13
 -1       732 1.13545E+01 1.03162E+00 7.86733E-02 2.21039E+00-3.49178E-13 4.50445E-13
 -1       733 1.77947E+01 2.42140E-01 1.05282E-02-3.08288E+00 1.45917E-13 2.55660E-13
 -1       734 1.81337E+01 8.27859E-01-2.03545E-03-2.34052E+00 7.37906E-14 1.22168E-13
 -1       735 1.85890E+01 1.03312E+00-2.96712E-04-1.83817E+00-1.46599E-14 6.02672E-14
 -1       736 1.89890E+01 1.03127E+00-2.49426E-05-1.47713E+00 1.33024E-13 1.06162E-13
 -1       737 1.93063E+01 9.32595E-01 7.98721E-05-1.19625E+00-2.29535E-14-1.29516E-13
 -1       738 1.95423E+01 7.97508E-01 1.03289E-04-9.66732E-01-8.64997E-14-2.04035E-13
 -1       739 1.97100E+01 6.58364E-01 9.04149E-05-7.74989E-01-1.16508E-13-2.90863E-13
 -1       740 1.98246E+01 5.30626E-01 6.94939E-05-6.14329E-01-1.91160E-13-2.57203E-13
 -1       741 1.99004E+01 4.20282E-01 5.20968E-05-4.80748E-01-1.01045E-13-9.22375E-15
 -1       742 1.99487E+01 3.28383E-01 3.99706E-05-3.71046E-01-2.44393E-14-5.59471E-14
 -1       743 1.99785E+01 2.53630E-01 2.98502E-05-2.82194E-01-1.35251E-13-2.77430E-13
 -1       744 1.99959E+01 1.93790E-01 2.18071E-05-2.11253E-01-9.05247E-14-3.97842E-13
 -1       745 2.00053E+01 1.46459E-01 1.58273E-05-1.55430E-01 5.55056E-14-2.51633E-13
 -1       746 2.00099E+01 1.09395E-01 1.13944E-05-1.12144E-01-7.06141E-15-1.18600E-13
 -1       747 2.00115E+01 8.06427E-02 8.10347E-06-7.90835E-02 8.87371E-15-1.86939E-13
 -1       748 2.00114E+01 5.85493E-02 5.66258E-06-5.42291E-02 1.26470E-13-1.77886E-13
 -1       749 2.00105E+01 4.17451E-02 3.86312E-06-3.58625E-02-7.50930E-14-2.33850E-13
 -1       750 2.00091E+01 2.91089E-02 2.55060E-06-2.25492E-02-1.99883E-15-3.79876E-13
 -1       751 2.00076E+01 1.97300E-02 1.60721E-06-1.31124E-02 9.76381E-14-3.92994E-13
 -1       752 2.00062E+01 1.28740E-02 9.41848E-07-6.60255E-03 1.41749E-13-5.48587E-13
 -1       753 2.00050E+01 7.95189E-03 4.83850E-07-2.26504E-03 5.28309E-14-3.46806E-13
 -1       754 2.00039E+01 4.49528E-03 1.78574E-07 4.90644E-04-7.74415E-14-2.88060E-13
 -1       755 2.00029E+01 2.13446E-03-1.59719E-08 2.11965E-03-1.49756E-13-9.78348E-14
 -1       756 2.00022E+01 5.80434E-04-1.31777E-07 2.96724E-03-7.91679E-14-5.72458E-14
 -1       757 2.00016E+01-3.90294E-04-1.92955E-07 3.29082E-03 1.80549E-13 4.34379E-13
 -1       758 2.00011E+01-9.48501E-04-2.17409E-07 3.27872E-03 2.56297E-13 3.04757E-13
 -1       759 2.00007E+01-1.22296E-03-2.17953E-07 3.06571E-03 8.95376E-14 1.60683E-13
 -1       760 2.00005E+01-1.30935E-03-2.02967E-07 2.74568E-03-5.00453E-15 4.94299E-14
 -1       761 2.00002E+01-1.27769E-03-1.77556E-07 2.38190E-03 1.28553E-13-5.87180E-14
 -1       762 2.00001E+01-1.17827E-03-1.49209E-07 2.01496E-03 1.60218E-13-7.56419E-14
 -1       763 2.00000E+01-1.04656E-03-1.20435E-07 1.66915E-03 1.36722E-13 1.68633E-13
 -1       764 1.99999E+01-9.07219E-04-1.30756E-07 1.35733E-03-4.75963E-13 1.00140E-14
 -1       765 1.99998E+01-7.77722E-04-2.62134E-07 1.08547E-03-1.85468E-13 1.74122E-13
 -1       766 1.99998E+01-6.68280E-04-2.96019E-07 8.50137E-04-3.34699E-13 9.96844E-14
 -1       767 2.29107E+01-7.96856E-01 5.88430E-05-1.05164E+00 6.98409E-14-5.15975E-13
 -1       768 2.14915E+01-9.33269E-01-2.85773E-04 3.68514E-01-2.97151E-14-8.77519E-14
 -1       769 2.10515E+01-6.32096E-01-2.23770E-04 5.78022E-01-5.79707E-14-3.84119E-15
 -1       770 2.07135E+01-3.53539E-01-1.23207E-04 6.68501E-01-9.75033E-14 6.50827E-15
 -1       771 2.04716E+01-1.35274E-01-6.50823E-05 6.77389E-01-5.17661E-14-1.60960E-13
 -1       772 2.03069E+01 1.62132E-02-2.08652E-05 6.36041E-01-4.67202E-14-1.10486E-13
 -1       773 2.01989E+01 1.09246E-01 6.13119E-06 5.67398E-01-1.04898E-13-1.00931E-13
 -1       774 2.01301E+01 1.57210E-01 2.06346E-05 4.87170E-01-1.35593E-13-2.37157E-13
 -1       775 2.00870E+01 1.73540E-01 2.71358E-05 4.05567E-01-5.82119E-14-6.67135E-14
 -1       776 2.00602E+01 1.69586E-01 2.81448E-05 3.28790E-01-6.54950E-14-1.18355E-13
 -1       777 2.00434E+01 1.54004E-01 2.56737E-05 2.60208E-01-1.31656E-13-1.94739E-13
 -1       778 2.00326E+01 1.32899E-01 2.21095E-05 2.01267E-01-2.05809E-13-1.20217E-13
 -1       779 2.00254E+01 1.10285E-01 1.82965E-05 1.52168E-01-7.64652E-14 9.07832E-14
 -1       780 2.00202E+01 8.86055E-02 1.45905E-05 1.12347E-01-8.03961E-14-1.39692E-14
 -1       781 2.00163E+01 6.91843E-02 1.12653E-05 8.08192E-02 7.75711E-15 1.58622E-14
 -1       782 2.00131E+01 5.25932E-02 8.43898E-06 5.64186E-02 6.55648E-15-1.78029E-13
 -1       783 2.00106E+01 3.89290E-02 6.13078E-06 3.79530E-02 1.70574E-14-2.34578E-13
 -1       784 2.00084E+01 2.80120E-02 4.30648E-06 2.42993E-02 5.02718E-14-3.27972E-13
 -1       785 2.00066E+01 1.95217E-02 2.90634E-06 1.44551E-02 9.96048E-14-1.89846E-13
 -1       786 2.00051E+01 1.30843E-02 1.86165E-06 7.55989E-03 3.23846E-14-1.48118E-14
 -1       787 2.00039E+01 8.32587E-03 1.10444E-06 2.89784E-03-7.99171E-14 2.92370E-14
 -1       788 2.00028E+01 4.90225E-03 5.72858E-07-1.11059E-04-1.58914E-13 4.58235E-13
 -1       789 2.00020E+01 2.51338E-03 2.13597E-07-1.92589E-03 1.40393E-13 3.16885E-13
 -1       790 2.00014E+01 9.07592E-04-1.74930E-08-2.90210E-03-9.18760E-15 2.79799E-13
 -1       791 2.00009E+01-1.19722E-04-1.55831E-07-3.30905E-03-2.43356E-13 2.06911E-13
 -1       792 2.00006E+01-7.30643E-04-2.29071E-07-3.34643E-03 8.48788E-14 1.98267E-13
 -1       793 2.00003E+01-1.05060E-03-2.58204E-07-3.15869E-03-4.61606E-14 2.02295E-13
 -1       794 2.00001E+01-1.17458E-03-2.58739E-07-2.84757E-03-9.15220E-14 1.05049E-13
 -1       795 1.99999E+01-1.17306E-03-2.42683E-07-2.48226E-03-2.14152E-13 2.53115E-13
 -1       796 1.99999E+01-1.09726E-03-2.13905E-07-2.10770E-03-1.01688E-13 1.75711E-13
 -1       797 1.99998E+01-9.83624E-04-1.73695E-07-1.75119E-03 1.74694E-13 6.93493E-14
 -1       798 1.99998E+01-8.57953E-04-1.85246E-07-1.42719E-03 3.34820E-14-7.22297E-14
 -1       799 1.99997E+01-7.36342E-04 5.35850E-07-1.13878E-03-2.52040E-14-9.80151E-14
 -1       800 2.00005E+01-1.17364E-03 5.35836E-08 2.00033E-06-3.67890E-14 7.46043E-14
 -1       801 2.26927E+01 2.43680E+00-4.88065E-03-4.60226E-01 4.71078E-13-4.15021E-13
 -1       802 2.00001E+01-8.97578E-04 9.13618E-08 7.18407E-04-4.32625E-13-4.35600E-14
 -1       803 2.28002E+01 2.72478E+00-1.22312E-02 8.29704E-01 5.40039E-13-2.58030E-13
 -1       804 1.90207E+01-2.41500E+00 8.86391E-02-4.78188E+00 5.08267E-13 1.67691E-13
 -1       805 2.46980E+01 3.95087E+00-5.84600E-02-8.98543E-01 7.69114E-13-6.77645E-13
 -1       806 2.25269E+01-1.18638E+00 5.85802E-04-4.97875E-01 3.65349E-14-3.74126E-13
 -1       807 2.00004E+01-1.14152E-03 1.51619E-07 2.80484E-04 6.57413E-14 2.78408E-13
 -1       808 2.51507E+01 1.39986E+00-1.48847E-02 2.61778E+00 3.29140E-13-4.25614E-15
 -1       809 2.28488E+01 1.37502E+00-6.46744E-03-1.30203E+00 3.19401E-13-5.80874E-13
 -1       810 2.00003E+01-1.04662E-03 1.89733E-07 5.31429E-04-2.76788E-13-9.02709E-14
 -1       811 1.41726E+01-3.25601E-01 6.78360E-02-4.18083E+00 3.64525E-13 6.09988E-13
 -1       812 2.20086E+01-1.16869E+00-1.24623E-04 8.32938E-03 7.19482E-14-2.65166E-13
 -1       813 2.57943E+01 1.21528E+00-6.25694E-02-1.59045E+00 3.33450E-13-7.97461E-13
 -1       814 2.61180E+01 1.50814E+00-4.04824E-02 2.45361E+00 3.86222E-13 8.95135E-14
 -1       815 2.60999E+01-1.31920E+00-3.74904E-02-5.23129E-01-4.62633E-14-8.67354E-13
 -1       816 1.87854E+01-2.67156E+00 4.94368E-02 5.08687E+00-6.96491E-13 8.87502E-14
 -1       817 1.15994E+01 1.27953E+00 8.63640E-02-1.37880E+00-8.41737E-15 3.47101E-13
 -1       818 1.99999E+01-7.59080E-04 2.34949E-07-7.82693E-04-1.75358E-14-1.57973E-13
 -1       819 1.99999E+01-8.08583E-04 1.52450E-07-9.62931E-04-2.56253E-13 3.04023E-14
 -1       820 2.00003E+01-1.04500E-03 4.40584E-08-5.31094E-04-1.48356E-13-2.82141E-14
 -1       821 2.49661E+01-2.64814E+00-9.49998E-03 6.64393E-01-2.86331E-13-7.88359E-13
 -1       822 2.00001E+01-9.16182E-04-1.65573E-07-6.84470E-04-1.34175E-13-3.57490E-13
 -1       823 2.00004E+01-1.14076E-03 1.44238E-07-2.81278E-04-2.20475E-14 2.41210E-13
 -1       824 2.34127E+01 2.47364E+00-1.39154E-02 2.16686E+00 5.24020E-13-1.57072E-13
 -1       825 2.17518E+01-3.22318E+00 1.40445E-02 3.72474E+00-5.60451E-13-2.53440E-13
 -1       826 2.51651E+01 2.69985E+00-3.80270E-02 2.73980E+00 5.28523E-13 3.46459E-14
 -1       827 1.46595E+01 4.91899E-01 2.87089E-02 3.03189E+00-3.56604E-13 2.25137E-13
 -1       828 2.39592E+01-8.79655E-01-5.24601E-03-1.01685E+00-4.77898E-14-6.75185E-13
 -1       829 1.70526E+01 1.35183E+00-5.81061E-06-1.45322E+00-3.14363E-14 1.33159E-13
 -1       830 1.78660E+01 1.31404E+00-3.35925E-04-1.16237E+00-5.59580E-14-3.95352E-14
 -1       831 1.84704E+01 1.18997E+00-2.21540E-04-9.62612E-01-7.11903E-14-1.67673E-13
 -1       832 1.89158E+01 1.03102E+00-6.45924E-05-8.05967E-01-1.68944E-13-2.54509E-13
 -1       833 1.92408E+01 8.66249E-01-1.22339E-05-6.72194E-01-1.39961E-13-1.87767E-13
 -1       834 1.94754E+01 7.11545E-01-4.51091E-06-5.53982E-01-1.04125E-13-1.74445E-13
 -1       835 1.96429E+01 5.74235E-01-1.84632E-06-4.49542E-01 3.77197E-14-1.22427E-13
 -1       836 1.97612E+01 4.56750E-01 4.88236E-06-3.58681E-01-7.10962E-14 3.13577E-14
 -1       837 1.98438E+01 3.58780E-01 5.19914E-06-2.81206E-01-2.09046E-13-8.05121E-14
 -1       838 1.99007E+01 2.78556E-01 2.94526E-06-2.16507E-01-1.93553E-13-2.56544E-14
 -1       839 1.99395E+01 2.13772E-01 1.46487E-06-1.63593E-01 8.00948E-14 1.15025E-13
 -1       840 1.99655E+01 1.62087E-01 7.20706E-07-1.21175E-01 1.21475E-13 1.18621E-13
 -1       841 1.99826E+01 1.21306E-01 3.47404E-07-8.78121E-02 1.26118E-14 3.76728E-15
 -1       842 1.99935E+01 8.94757E-02 1.37838E-07-6.20564E-02 5.88001E-14-1.00776E-13
 -1       843 2.00002E+01 6.49044E-02 8.69415E-09-4.25445E-02-6.36778E-14-2.81075E-13
 -1       844 2.00041E+01 4.61599E-02-7.18443E-08-2.80518E-02-1.19367E-13-2.49668E-13
 -1       845 2.00060E+01 3.20446E-02-1.18889E-07-1.75162E-02 2.57154E-14-3.14749E-13
 -1       846 2.00067E+01 2.15690E-02-1.42094E-07-1.00421E-02 6.47535E-14-3.56242E-13
 -1       847 2.00067E+01 1.39235E-02-1.48669E-07-4.89284E-03 1.62532E-13-2.23582E-13
 -1       848 2.00062E+01 8.45200E-03-1.44191E-07-1.47470E-03-8.85582E-14-1.70809E-13
 -1       849 2.00055E+01 4.62874E-03-1.32923E-07 6.81317E-04-8.13628E-14-1.53263E-13
 -1       850 2.00047E+01 2.03664E-03-1.18044E-07 1.93892E-03-2.27635E-14-1.03611E-13
 -1       851 2.00039E+01 3.48797E-04-1.01893E-07 2.57494E-03 2.56689E-13-2.56677E-13
 -1       852 2.00032E+01-6.87863E-04-8.62096E-08 2.79610E-03 2.89524E-13-3.77267E-13
 -1       853 2.00025E+01-1.26661E-03-7.21089E-08 2.75354E-03 1.01756E-13-4.01852E-13
 -1       854 2.00020E+01-1.53293E-03-5.89916E-08 2.55525E-03 2.96038E-14-2.40504E-13
 -1       855 2.00015E+01-1.59467E-03-4.23649E-08 2.27620E-03 7.84452E-14 1.00831E-14
 -1       856 2.00011E+01-1.53050E-03-1.86394E-08 1.96654E-03 2.24771E-13 6.52997E-14
 -1       857 2.00007E+01-1.39653E-03 1.78408E-09 1.65815E-03 1.03634E-13-2.10376E-14
 -1       858 2.00005E+01-1.23222E-03 9.81899E-09 1.37006E-03-2.66390E-13-1.72208E-13
 -1       859 2.00003E+01-1.06598E-03 6.69093E-08 1.11354E-03-1.22997E-13 2.63688E-13
 -1       860 2.00002E+01-9.78265E-04 5.86803E-08 9.03219E-04-1.85131E-13 1.59799E-13
 -1       861 2.06031E+01-5.17582E-01-1.77970E-05 9.49693E-01-6.39763E-14-5.08440E-14
 -1       862 2.10663E+01-9.17148E-01-6.83705E-05 9.24044E-01-6.86653E-14-1.07227E-13
 -1       863 2.01112E+01 1.24632E-02-1.87542E-05 7.95085E-01-9.14866E-15 9.58907E-14
 -1       864 2.00074E+01 1.47932E-01-6.92356E-06 6.83505E-01-3.32124E-14 7.22952E-14
 -1       865 1.99570E+01 2.19912E-01 3.66471E-06 5.71958E-01-7.99867E-14 1.10598E-13
 -1       866 1.99391E+01 2.46850E-01 8.14152E-06 4.68078E-01-2.11329E-13 2.96299E-14
 -1       867 1.99392E+01 2.44376E-01 7.85339E-06 3.75590E-01-8.82908E-14 3.71198E-14
 -1       868 1.99480E+01 2.24559E-01 4.49648E-06 2.95850E-01-6.71722E-14 9.34342E-14
 -1       869 1.99599E+01 1.96023E-01 2.56656E-06 2.28824E-01-1.30731E-13 2.09972E-14
 -1       870 1.99719E+01 1.64556E-01 1.79602E-06 1.73713E-01-2.78895E-13-1.20192E-14
 -1       871 1.99823E+01 1.33790E-01 1.28074E-06 1.29302E-01-1.33889E-13 1.57533E-13
 -1       872 1.99905E+01 1.05787E-01 9.08422E-07 9.41861E-02 2.34226E-14 1.50940E-13
 -1       873 1.99966E+01 8.15225E-02 6.38660E-07 6.69295E-02 5.74891E-14 2.30566E-13
 -1       874 2.00008E+01 6.12696E-02 4.41088E-07 4.61671E-02 9.99665E-14 9.29759E-14
 -1       875 2.00035E+01 4.48742E-02 2.96011E-07 3.06598E-02 3.45222E-14-4.26111E-14
 -1       876 2.00050E+01 3.19507E-02 1.90620E-07 1.93227E-02-1.79045E-14 1.15213E-13
 -1       877 2.00056E+01 2.20118E-02 1.15617E-07 1.12328E-02 4.44067E-14 2.30855E-13
 -1       878 2.00056E+01 1.45499E-02 6.36645E-08 5.62382E-03-3.50706E-14 2.23369E-13
 -1       879 2.00052E+01 9.08498E-03 2.88675E-08 1.87330E-03-3.44382E-13 1.42385E-13
 -1       880 2.00047E+01 5.19003E-03 6.54356E-09-5.14270E-04 4.40443E-14 9.92874E-14
 -1       881 2.00040E+01 2.50056E-03-6.93598E-09-1.92583E-03 6.47730E-14 2.50631E-13
 -1       882 2.00034E+01 7.15683E-04-1.43416E-08-2.65785E-03-6.56065E-14 4.03409E-13
 -1       883 2.00027E+01-4.06430E-04-1.77974E-08-2.93301E-03-3.12796E-14 1.52843E-13
 -1       884 2.00022E+01-1.05555E-03-1.89839E-08-2.91514E-03-8.68773E-15 1.67522E-13
 -1       885 2.00017E+01-1.37738E-03-1.91733E-08-2.72191E-03-5.37286E-14 1.35715E-13
 -1       886 2.00012E+01-1.48154E-03-1.91995E-08-2.43558E-03-1.16605E-13 1.50478E-14
 -1       887 2.00009E+01-1.44894E-03-2.05093E-08-2.11166E-03-1.32353E-13 8.16225E-14
 -1       888 2.00006E+01-1.33798E-03-2.44248E-08-1.78549E-03 1.51434E-13-2.59686E-14
 -1       889 2.00004E+01-1.19038E-03-1.19195E-07-1.47953E-03 2.29204E-13-6.56435E-14
 -1       890 2.00002E+01-1.03327E-03-7.00251E-08-1.20315E-03-1.22894E-14-8.57376E-14
 -1       891 2.36674E+01 3.87488E+00-3.48007E-02 1.03182E+00 6.91530E-13-2.86255E-13
 -1       892 2.00007E+01-1.32670E-03-9.58298E-08 1.73734E-04 6.12421E-14 1.53684E-13
 -1       893 2.33406E+01-1.62891E+00-8.83001E-04-2.77691E-01-8.16742E-14-4.33438E-13
 -1       894 2.44592E+01 3.67958E+00-3.75389E-02 2.11102E+00 6.46052E-13-1.42447E-13
 -1       895 2.02977E+01-2.05274E-01-2.88527E-05 8.92338E-01-5.44540E-14 4.46256E-14
 -1       896 1.59901E+01 1.21108E+00 1.20777E-02-1.90751E+00-1.07869E-14 3.00730E-13
 -1       897 1.32612E+01 1.53825E+00 2.82325E-02 3.91262E-01-1.45701E-13 2.55804E-13
 -1       898 1.41049E+01 1.29990E+00 3.57112E-02-1.82592E+00-2.53738E-14 2.76140E-13
 -1       899 1.72415E+01-1.01016E+00 2.65447E-02 4.02015E+00-5.15315E-13 1.08840E-13
 -1       900 2.48647E+01-4.19477E-01-1.29729E-02-1.22702E+00 4.01554E-14-6.89537E-13
 -1       901 2.00007E+01-1.32565E-03 4.65278E-08-1.75788E-04 1.25475E-13-4.62763E-14
 -1       902 2.00005E+01-1.15546E-03 2.36690E-07 6.89015E-04-4.74245E-13-4.08587E-13
 -1       903 2.17092E+01-1.34672E+00 8.33434E-05 7.51831E-01-1.18575E-13-1.79659E-13
 -1       904 2.40158E+01-8.07406E-02-3.08682E-03-1.34479E+00 1.51082E-13-7.93658E-13
 -1       905 2.00002E+01-9.93576E-04-4.25617E-07-8.57242E-04-3.08068E-13-1.33940E-13
 -1       906 2.34194E+01-2.94666E+00-1.68656E-03 1.87616E+00-3.51694E-13-6.83503E-13
 -1       907 2.00005E+01-1.14564E-03-1.81481E-08-6.85577E-04 1.22032E-13 5.81014E-14
 -1       908 2.25086E+01-1.66868E+00 6.45061E-04 3.58676E-01-7.07542E-14-3.54669E-13
 -1       909 1.95905E+01-1.89578E+00 1.10182E-02 3.63695E+00-5.11265E-13 4.25456E-14
 -1       910 2.00006E+01-1.25932E-03 1.36676E-08-4.51693E-04 1.69039E-13 1.00584E-13
 -1       911 2.00006E+01-1.26434E-03 3.51331E-08 4.50390E-04-2.71545E-13-2.55694E-13
 -1       912 1.55811E+01 1.59506E+00 5.46915E-03-5.34956E-01-1.63545E-13 6.88106E-14
 -1       913 1.76991E+01 1.35269E+00-4.81175E-04-4.64912E-01-1.15346E-13-2.56525E-14
 -1       914 1.83296E+01 1.19073E+00-3.40221E-04-4.50659E-01-2.16237E-13-5.87337E-14
 -1       915 1.87905E+01 1.02212E+00-8.57627E-05-4.22161E-01-8.94257E-14-9.57351E-14
 -1       916 1.91292E+01 8.58415E-01-5.45278E-05-3.81684E-01-1.54416E-13-1.33740E-13
 -1       917 1.93783E+01 7.08057E-01-4.33605E-05-3.33551E-01-3.96426E-14-1.18484E-13
 -1       918 1.95610E+01 5.74852E-01-5.98256E-06-2.82550E-01-7.71416E-14-3.07186E-13
 -1       919 1.96942E+01 4.60246E-01 3.32735E-07-2.32737E-01-1.86648E-13-4.46329E-13
 -1       920 1.97906E+01 3.63750E-01-5.39782E-06-1.86745E-01-1.02702E-13-2.83326E-13
 -1       921 1.98599E+01 2.83807E-01-7.11236E-06-1.46213E-01 2.01201E-14-1.10245E-13
 -1       922 1.99091E+01 2.18580E-01-6.63626E-06-1.11814E-01 1.15620E-13-1.57947E-14
 -1       923 1.99436E+01 1.66088E-01-5.45435E-06-8.34924E-02-2.90656E-14 1.50614E-14
 -1       924 1.99674E+01 1.24382E-01-4.23316E-06-6.07870E-02-1.73647E-13-6.61186E-14
 -1       925 1.99834E+01 9.16627E-02-3.18243E-06-4.30220E-02-1.07206E-13-3.12340E-13
 -1       926 1.99939E+01 6.63213E-02-2.33371E-06-2.94423E-02 3.36600E-14-2.15231E-13
 -1       927 2.00005E+01 4.69587E-02-1.66938E-06-1.93010E-02-1.50042E-14 1.31215E-13
 -1       928 2.00043E+01 3.23788E-02-1.16123E-06-1.19108E-02-3.43565E-14 1.48379E-13
 -1       929 2.00063E+01 2.15762E-02-7.80649E-07-6.66990E-03 1.12361E-13-1.66662E-14
 -1       930 2.00071E+01 1.37176E-02-5.01666E-07-3.07070E-03 1.39680E-14-1.92258E-13
 -1       931 2.00071E+01 8.12195E-03-3.01894E-07-6.97429E-04-1.23734E-13-2.34644E-13
 -1       932 2.00066E+01 4.24016E-03-1.62694E-07 7.81825E-04 4.50497E-14-9.93595E-14
 -1       933 2.00059E+01 1.63529E-03-6.90325E-08 1.62604E-03 9.67426E-15 9.51670E-14
 -1       934 2.00050E+01-3.55418E-05-9.25526E-09 2.03294E-03 1.23582E-13-9.85109E-14
 -1       935 2.00042E+01-1.03760E-03 2.51184E-08 2.15020E-03 1.23521E-13-2.87319E-13
 -1       936 2.00034E+01-1.57307E-03 4.04269E-08 2.08563E-03 2.29553E-13-1.98851E-13
 -1       937 2.00027E+01-1.79368E-03 4.54025E-08 1.91593E-03 7.30100E-14 8.97589E-14
 -1       938 2.00021E+01-1.81145E-03 5.75349E-08 1.69419E-03 1.36561E-13-1.18697E-13
 -1       939 2.00016E+01-1.70805E-03 6.62542E-08 1.45532E-03-1.52392E-13-2.32047E-13
 -1       940 2.00011E+01-1.54026E-03 4.31753E-08 1.22171E-03-1.18706E-13-3.69146E-13
 -1       941 2.00008E+01-1.35022E-03-9.28738E-08 1.00624E-03 1.09495E-13-2.54921E-13
 -1       942 2.00006E+01-1.25107E-03-2.61341E-07 8.37560E-04-7.16823E-14-3.13768E-13
 -1       943 2.03694E+01-6.53509E-01 2.67146E-04 1.35426E+00-1.60147E-13-1.32200E-13
 -1       944 1.97342E+01 3.02512E-01-3.16075E-05 6.48223E-01-1.49112E-13 2.40328E-13
 -1       945 1.97518E+01 2.11360E-01-6.60288E-05 8.05693E-01-1.76463E-14 1.20839E-13
 -1       946 1.97868E+01 3.32474E-01 2.08295E-06 4.03492E-01-1.03329E-13 3.43492E-13
 -1       947 1.98272E+01 3.06297E-01-1.17046E-05 3.12679E-01-5.03041E-14 2.99697E-13
 -1       948 1.98666E+01 2.68723E-01-1.57204E-05 2.39285E-01-6.92987E-14 2.00936E-13
 -1       949 1.99015E+01 2.27080E-01-1.35689E-05 1.80646E-01-2.23931E-13 1.36918E-13
 -1       950 1.99307E+01 1.86079E-01-1.08911E-05 1.34349E-01-2.44432E-13 1.84178E-13
 -1       951 1.99539E+01 1.48465E-01-8.42865E-06 9.82283E-02-7.73069E-14 1.76062E-13
 -1       952 1.99715E+01 1.15594E-01-6.31122E-06 7.04042E-02-3.27464E-14 2.72630E-13
 -1       953 1.99844E+01 8.79064E-02-4.57285E-06 4.92656E-02 2.10276E-13 3.08322E-13
 -1       954 1.99934E+01 6.52746E-02-3.19546E-06 3.34498E-02 2.02666E-13 2.79456E-13
 -1       955 1.99994E+01 4.72500E-02-2.13618E-06 2.18186E-02-1.10348E-13 2.82963E-13
 -1       956 2.00031E+01 3.32316E-02-1.34417E-06 1.34329E-02-6.54547E-14 9.07933E-14
 -1       957 2.00052E+01 2.25752E-02-7.69218E-07 7.52813E-03-1.68514E-13 4.05251E-13
 -1       958 2.00061E+01 1.46598E-02-3.65629E-07 3.49008E-03-8.20180E-14 3.68007E-13
 -1       959 2.00063E+01 8.92354E-03-9.38159E-08 8.32239E-04-9.78503E-14 1.55280E-13
 -1       960 2.00060E+01 4.88070E-03 7.93155E-08-8.25245E-04 3.24262E-14 1.86367E-13
 -1       961 2.00054E+01 2.12504E-03 1.80615E-07-1.77447E-03-7.12566E-14 2.63274E-13
 -1       962 2.00047E+01 3.26117E-04 2.31245E-07-2.23643E-03 2.81849E-14 1.14928E-13
 -1       963 2.00039E+01-7.78477E-04 2.47296E-07-2.37532E-03 2.14904E-14 1.94390E-13
 -1       964 2.00032E+01-1.39270E-03 2.40449E-07-2.31075E-03 3.44952E-14 1.41244E-13
 -1       965 2.00025E+01-1.67178E-03 2.18602E-07-2.12772E-03 2.53729E-14 2.11840E-13
 -1       966 2.00020E+01-1.73143E-03 1.75822E-07-1.88526E-03-1.72652E-13 5.25333E-14
 -1       967 2.00015E+01-1.65712E-03 6.61646E-08-1.62319E-03-1.44058E-14-1.66583E-13
 -1       968 2.00011E+01-1.51093E-03 5.65244E-08-1.36279E-03 1.71785E-13-1.01081E-13
 -1       969 2.00007E+01-1.32855E-03 2.50869E-07-1.12465E-03 1.28583E-13 1.60506E-13
 -1       970 1.52197E+01 1.24160E+00 6.56389E-03 1.39950E+00-2.31676E-13 2.50190E-13
 -1       971 2.00006E+01-1.24074E-03 2.78046E-08-8.88318E-04 1.63589E-13 2.33232E-13
 -1       972 1.70094E+01 1.06378E-02 8.16935E-03 2.85653E+00-3.48497E-13 5.30834E-14
 -1       973 1.68263E+01 1.48949E+00 6.36062E-04-4.76043E-01-1.45125E-13-4.53780E-14
 -1       974 1.97520E+01 3.36295E-01 4.23341E-07 5.14539E-01-8.75241E-14 3.69225E-13
 -1       975 2.09531E+01-1.19575E+00-1.38119E-03 1.45854E+00-1.92085E-13-2.80453E-13
 -1       976 2.00199E+01-2.42593E-01-8.35504E-05 1.17678E+00-1.32404E-13 6.17368E-14
 -1       977 1.86063E+01-7.69111E-01 8.09919E-04 2.93144E+00-2.69600E-13 5.47143E-14
 -1       978 2.40589E+01-1.71910E+00-1.11211E-03-3.55142E-01-1.79371E-13-5.51902E-13
 -1       979 2.30455E+01-2.27760E+00 3.15683E-03 9.88434E-01-1.63550E-13-4.87037E-13
 -1       980 2.00011E+01-1.51879E-03-3.61290E-09-1.47563E-06 3.96547E-14-1.22169E-13
 -1       981 1.98331E+01 3.86542E-02-9.11540E-05 9.85107E-01-7.33367E-14 7.67996E-14
 -1       982 2.14965E+01-2.29729E+00 5.03222E-04 2.54208E+00-3.50044E-13-3.90365E-13
 -1       983 2.00010E+01-1.48505E-03 2.23624E-08 3.42561E-04-1.54262E-13-2.59582E-13
 -1       984 2.00008E+01-1.38243E-03-3.50992E-08-6.28961E-04 2.45072E-13-2.85571E-14
 -1       985 2.00011E+01-1.50311E-03 6.05552E-07-8.44099E-04-1.68962E-13 3.38488E-13
 -1       986 1.84481E+01 1.07882E+00 8.29692E-05-3.39156E-02-1.54563E-13 8.99343E-14
 -1       987 1.88499E+01 9.35365E-01-1.38318E-04-1.02976E-01-1.35625E-13 1.56297E-13
 -1       988 1.91524E+01 7.94685E-01-1.63677E-04-1.34448E-01-1.38120E-13 1.07281E-13
 -1       989 1.93815E+01 6.62077E-01 5.80877E-06-1.41751E-01-2.02857E-13-7.56442E-14
 -1       990 1.95537E+01 5.42159E-01-2.56036E-05-1.34295E-01-1.71023E-13-7.17935E-14
 -1       991 1.96823E+01 4.37702E-01-6.51429E-05-1.18548E-01-9.93222E-14-1.03152E-13
 -1       992 1.97783E+01 3.47899E-01-5.42789E-05-9.96132E-02 3.41552E-14-5.56426E-14
 -1       993 1.98488E+01 2.72524E-01-4.59688E-05-8.05447E-02 1.00278E-14 9.59486E-14
 -1       994 1.99001E+01 2.10388E-01-3.69329E-05-6.29619E-02 4.53132E-14 9.31628E-14
 -1       995 1.99367E+01 1.59977E-01-2.88484E-05-4.76965E-02-1.48446E-13 2.86087E-14
 -1       996 1.99625E+01 1.19692E-01-2.21036E-05-3.50237E-02-2.32225E-13 6.10920E-14
 -1       997 1.99802E+01 8.79715E-02-1.66391E-05-2.48766E-02 2.65314E-14 2.19248E-13
 -1       998 1.99920E+01 6.33627E-02-1.22964E-05-1.70031E-02 9.02557E-14 1.43241E-13
 -1       999 1.99995E+01 4.45619E-02-8.90331E-06-1.10698E-02 7.12853E-14 2.40738E-13
 -1      1000 2.00041E+01 3.04304E-02-6.29613E-06-6.72710E-03-3.79178E-14 2.51192E-13
 -1      1001 2.00065E+01 1.99961E-02-4.32694E-06-3.64651E-03-4.32867E-15 2.11014E-13
 -1      1002 2.00075E+01 1.24448E-02-2.86659E-06-1.53875E-03-9.70350E-14 1.44876E-13
 -1      1003 2.00076E+01 7.10705E-03-1.80529E-06-1.60733E-04-6.20276E-14 2.68259E-13
 -1      1004 2.00072E+01 3.44097E-03-1.05184E-06 6.84707E-04 6.71889E-14 1.02835E-13
 -1      1005 2.00065E+01 1.01505E-03-5.32136E-07 1.15282E-03 5.30955E-14 1.55837E-13
 -1      1006 2.00056E+01-5.09097E-04-1.87511E-07 1.36264E-03 1.06690E-14 2.57232E-13
 -1      1007 2.00047E+01-1.39268E-03 2.67403E-08 1.40316E-03 6.42312E-14 1.09762E-13
 -1      1008 2.00038E+01-1.83411E-03 1.45964E-07 1.33913E-03 2.71880E-13-1.77082E-13
 -1      1009 2.00030E+01-1.98145E-03 2.21885E-07 1.21626E-03 1.13592E-13-2.39560E-13
 -1      1010 2.00023E+01-1.94298E-03 1.96634E-07 1.06674E-03-2.22424E-14-5.54875E-14
 -1      1011 2.00018E+01-1.79832E-03 2.05966E-07 9.09747E-04-3.31864E-13-2.77068E-13
 -1      1012 2.00013E+01-1.60325E-03 5.07085E-08 7.59697E-04-4.88983E-15-2.53064E-13
 -1      1013 1.97567E+01 3.49762E-01-7.62341E-05 2.27582E-01 2.81048E-14 2.75535E-13
 -1      1014 1.96843E+01 3.99278E-01-5.72056E-05 3.04821E-01-7.57108E-14 2.67508E-13
 -1      1015 1.98692E+01 2.43431E-01-5.13477E-05 1.23727E-01-2.43598E-13 2.34347E-13
 -1      1016 1.99093E+01 1.95286E-01-4.17183E-05 8.97488E-02-1.21603E-13 1.77220E-13
 -1      1017 1.99400E+01 1.53122E-01-3.32055E-05 6.41583E-02-1.00169E-13 1.46384E-13
 -1      1018 1.99628E+01 1.17453E-01-2.58305E-05 4.50290E-02 4.58412E-14 8.09820E-14
 -1      1019 1.99792E+01 8.81264E-02-1.96184E-05 3.08651E-02 2.44733E-13 1.74444E-13
 -1      1020 1.99906E+01 6.46028E-02-1.45296E-05 2.05016E-02 8.21160E-14 1.24206E-13
 -1      1021 1.99982E+01 4.61557E-02-1.04682E-05 1.30296E-02-1.03776E-13-5.31001E-15
 -1      1022 2.00029E+01 3.19983E-02-7.30570E-06 7.74031E-03-1.57928E-13 7.80315E-14
 -1      1023 2.00056E+01 2.13655E-02-4.90200E-06 4.08217E-03-8.13508E-14-4.21977E-14
 -1      1024 2.00068E+01 1.35589E-02-3.11995E-06 1.62801E-03-2.62211E-14-2.20753E-13
 -1      1025 2.00071E+01 7.96896E-03-1.83382E-06 4.91633E-05 1.20573E-13-2.74368E-13
 -1      1026 2.00068E+01 4.08132E-03-9.33744E-07-9.05047E-04-3.06181E-14-1.98660E-13
 -1      1027 2.00062E+01 1.47373E-03-3.27031E-07-1.42375E-03-2.13342E-14 4.21740E-14
 -1      1028 2.00054E+01-1.92410E-04 6.22611E-08-1.64777E-03-8.95127E-14 2.68159E-13
 -1      1029 2.00046E+01-1.18286E-03 2.94762E-07-1.68031E-03-4.16799E-14 3.52493E-13
 -1      1030 2.00038E+01-1.70215E-03 4.17871E-07-1.59555E-03-9.88585E-14 4.22673E-13
 -1      1031 2.00030E+01-1.90451E-03 4.98712E-07-1.44520E-03 1.05658E-13 4.37875E-13
 -1      1032 2.00023E+01-1.90234E-03 4.44609E-07-1.26448E-03 9.17096E-14 1.04286E-13
 -1      1033 2.00018E+01-1.78241E-03 5.17104E-07-1.07935E-03 1.07706E-13 7.20075E-14
 -1      1034 1.94045E+01 3.20856E-01-1.87948E-04 9.21656E-01-1.75340E-13 1.83197E-14
 -1      1035 2.00008E+01-1.38571E-03 4.00266E-08 6.13066E-04-1.06990E-13-3.47810E-13
 -1      1036 2.18465E+01-1.81029E+00 5.40340E-04 1.39464E+00-1.85086E-13-3.73804E-13
 -1      1037 1.68482E+01 7.53904E-01-9.24538E-04 1.77960E+00-3.29077E-13 5.30609E-14
 -1      1038 1.63859E+01 1.35877E+00 2.87519E-03 6.60712E-01-2.62741E-13 1.68186E-13
 -1      1039 1.98186E+01 2.95982E-01-6.24357E-05 1.68589E-01-5.89685E-14 3.53202E-13
 -1      1040 2.00010E+01-1.47483E-03 2.62728E-08-3.30803E-04 1.70196E-13 1.59736E-13
 -1      1041 1.94489E+01 4.17252E-01-1.46607E-04 7.05395E-01-1.37520E-13 1.38989E-13
 -1      1042 1.73223E+01 1.28910E+00 9.53742E-04 3.41078E-01-2.32911E-13 2.31617E-14
 -1      1043 1.96040E+01 4.36654E-01 6.15002E-05 4.05661E-01-1.76064E-13 2.06238E-13
 -1      1044 1.95218E+01 4.48524E-01 2.82701E-05 5.36409E-01-1.68739E-13 9.96945E-14
 -1      1045 1.79580E+01 1.19677E+00 4.92194E-04 1.10623E-01-1.43350E-13-2.79883E-14
 -1      1046 2.02118E+01-1.36446E+00-5.20356E-04 2.45124E+00-3.13399E-13-1.73984E-13
 -1      1047 1.95516E+01-2.02222E-01-6.80183E-04 1.52053E+00-2.77508E-13-3.12251E-13
 -1      1048 1.98780E+01-7.05707E-01 4.21814E-04 1.89417E+00-2.07412E-13-2.31109E-13
 -1      1049 1.78350E+01 1.76437E-01 1.96518E-03 2.17846E+00-2.90330E-13 1.65865E-13
 -1      1050 2.00015E+01-1.69086E-03-5.05680E-07-2.40679E-04-1.79850E-13-1.40956E-13
 -1      1051 1.94195E+01 1.28788E-01-4.62203E-04 1.19220E+00-2.04709E-13-2.23009E-13
 -1      1052 2.00015E+01-1.69188E-03-5.65385E-07 1.74908E-04-1.09986E-13-4.47576E-14
 -1      1053 1.90144E+01 8.09537E-01 6.20123E-04 1.32992E-01-1.25289E-13 1.02151E-14
 -1      1054 1.92601E+01 6.97432E-01 8.40752E-05 5.26306E-02-2.66135E-13-4.16305E-14
 -1      1055 1.94437E+01 5.92567E-01 1.81990E-04 1.14054E-02-3.18522E-13-9.42218E-14
 -1      1056 1.95927E+01 4.89817E-01-3.25457E-05-1.15138E-02-2.02040E-13-1.27163E-13
 -1      1057 1.97068E+01 3.97855E-01-6.03263E-05-2.27616E-02 4.94903E-14-1.53526E-13
 -1      1058 1.97933E+01 3.17856E-01-4.01925E-05-2.57952E-02 1.25278E-13-1.95056E-13
 -1      1059 1.98580E+01 2.49766E-01-2.29198E-05-2.44247E-02 3.44664E-14-2.09633E-13
 -1      1060 1.99058E+01 1.93037E-01-1.13241E-05-2.09986E-02 4.19686E-14-2.55408E-13
 -1      1061 1.99404E+01 1.46679E-01-3.97240E-06-1.69082E-02-6.02022E-14 2.54904E-14
 -1      1062 1.99649E+01 1.09471E-01 4.97930E-07-1.29226E-02 1.91415E-14 1.18918E-13
 -1      1063 1.99818E+01 8.01114E-02 3.04295E-06-9.41879E-03 4.59611E-14 4.24652E-14
 -1      1064 1.99932E+01 5.73328E-02 4.31914E-06-6.53657E-03 1.87721E-13 3.13755E-14
 -1      1065 2.00004E+01 3.99599E-02 4.77939E-06-4.28182E-03 2.36975E-14 8.19118E-14
 -1      1066 2.00047E+01 2.69457E-02 4.73549E-06-2.59204E-03-1.84621E-14 1.45115E-13
 -1      1067 2.00070E+01 1.73853E-02 4.39985E-06-1.37656E-03-9.15292E-14 2.14844E-13
 -1      1068 2.00079E+01 1.05148E-02 3.91464E-06-5.39701E-04-8.33218E-14 2.57237E-13
 -1      1069 2.00079E+01 5.70389E-03 3.37255E-06 7.02655E-06-2.44959E-14 2.01054E-13
 -1      1070 2.00074E+01 2.44159E-03 2.83175E-06 3.39467E-04 1.46655E-13 1.81740E-13
 -1      1071 2.00066E+01 3.21437E-04 2.32677E-06 5.19344E-04 7.47954E-14 2.44121E-13
 -1      1072 2.00057E+01-9.74561E-04 1.87695E-06 5.94919E-04 1.26493E-14 7.58919E-15
 -1      1073 2.00047E+01-1.69093E-03 1.49512E-06 6.02716E-04-1.24893E-13-1.39101E-13
 -1      1074 2.00039E+01-2.01250E-03 1.20240E-06 5.69669E-04-7.96968E-14-3.47983E-13
 -1      1075 2.00030E+01-2.07571E-03 1.14193E-06 5.15068E-04 4.60996E-14-4.61067E-13
 -1      1076 2.00023E+01-1.97823E-03-2.54006E-06 4.51027E-04-7.48114E-14-3.87744E-13
 -1      1077 2.00013E+01-1.61123E-03-6.22410E-07-5.57616E-04-8.86032E-14 1.51495E-13
 -1      1078 1.87004E+01 9.10080E-01-3.22701E-04 2.63084E-01-6.78099E-14-7.10456E-15
 -1      1079 1.92398E+01 5.92184E-01 5.55012E-04 5.24528E-01-1.32423E-13-7.55594E-14
 -1      1080 1.99045E+01 1.92818E-01 2.58159E-05 4.68956E-02-2.47333E-15-8.73754E-14
 -1      1081 1.98597E+01 2.44851E-01 3.54430E-05 6.72359E-02-8.32384E-14 2.35411E-14
 -1      1082 1.99623E+01 1.12520E-01 1.27404E-05 2.19452E-02 9.62481E-14-1.49319E-13
 -1      1083 1.99796E+01 8.32960E-02 8.82145E-06 1.45570E-02 1.21715E-13-1.84059E-15
 -1      1084 1.99913E+01 6.02469E-02 6.03607E-06 9.34199E-03 5.62825E-14 1.08005E-13
 -1      1085 1.99990E+01 4.24307E-02 4.05170E-06 5.70039E-03-1.84547E-14-3.41366E-14
 -1      1086 2.00037E+01 2.89337E-02 2.63792E-06 3.19672E-03 4.50502E-14-2.69665E-13
 -1      1087 2.00063E+01 1.89206E-02 1.63568E-06 1.51303E-03 7.83771E-14-1.84057E-13
 -1      1088 2.00075E+01 1.16593E-02 9.33248E-07 4.16146E-04 1.43607E-13-2.89076E-13
 -1      1089 2.00077E+01 6.52850E-03 4.50320E-07-2.65379E-04 1.21939E-15-9.53329E-14
 -1      1090 2.00073E+01 3.01485E-03 1.27977E-07-6.57502E-04-1.55818E-13-1.32467E-13
 -1      1091 2.00066E+01 7.03700E-04-7.73290E-08-8.52408E-04-5.03724E-14-3.69366E-13
 -1      1092 2.00057E+01-7.33044E-04-1.96939E-07-9.17068E-04-1.71876E-13-4.41058E-13
 -1      1093 2.00048E+01-1.55001E-03-2.51315E-07-8.99619E-04-2.13652E-13-2.13052E-13
 -1      1094 2.00039E+01-1.94123E-03-2.60558E-07-8.34257E-04-4.01443E-14-3.58402E-13
 -1      1095 2.00031E+01-2.05300E-03-4.17315E-07-7.45313E-04 1.20496E-13-7.47695E-14
 -1      1096 2.00024E+01-1.99095E-03-9.91177E-07-6.40225E-04 6.94203E-14-4.23294E-14
 -1      1097 1.97266E+01 3.70120E-01 4.34401E-05 1.35171E-01-1.00109E-13 2.76537E-13
 -1      1098 1.98012E+01 3.04468E-01 4.46714E-05 9.56182E-02-6.29383E-14 2.12342E-13
 -1      1099 1.75099E+01 9.28684E-01 3.56559E-03 1.17045E+00-2.59095E-13 8.17324E-14
 -1      1100 1.99380E+01 1.48800E-01 1.82447E-05 3.23385E-02 8.58887E-14-7.05647E-14
 -1      1101 1.96339E+01 4.38452E-01 8.28430E-06 1.90209E-01-2.23294E-14 1.42181E-13
 -1      1102 1.90844E+01 5.78552E-01 4.31118E-04 7.31669E-01-1.32944E-13-4.85915E-14
 -1      1103 1.93951E+01 5.57798E-01 2.05549E-04 3.70147E-01-2.44559E-13-9.29608E-14
 -1      1104 1.89314E+01 4.95466E-01-4.92240E-04 1.01380E+00-1.94392E-13 8.87300E-14
 -1      1105 1.88133E+01 3.23774E-01 2.33658E-03 1.37595E+00-3.19894E-13 4.68601E-14
 -1      1106 1.95245E+01 5.04820E-01 6.09168E-04 2.65386E-01-2.19795E-13-2.27730E-14
 -1      1107 2.00020E+01-1.88124E-03 2.28391E-06-2.10856E-05-1.27961E-13-2.27301E-13
 -1      1108 2.00018E+01-1.83148E-03-1.20083E-06-4.20505E-04-1.84507E-13 2.30245E-14
 -1      1109 2.00017E+01-1.79314E-03 1.06008E-06 3.84519E-04-2.21045E-13-2.77080E-13
 -1      1110 1.83503E+01 9.74540E-01-8.32856E-05 4.66758E-01-1.10619E-13 6.07375E-14
 -1      1111 1.89476E+01-3.59112E-01-2.87991E-03 2.16651E+00-2.04966E-13-8.03582E-14
 -1      1112 1.79373E+01 9.92768E-01-9.33012E-04 7.67489E-01-2.04171E-13 9.34441E-14
 -1      1113 1.91627E+01 6.93835E-01-1.75704E-03 2.78621E-01-1.71227E-13-3.42056E-14
 -1      1114 1.93992E+01 5.88569E-01-1.47449E-03 1.80048E-01-2.86247E-13-6.86683E-14
 -1      1115 1.84495E+01 3.21568E-01-1.11804E-03 1.59690E+00-2.59787E-13 1.30240E-13
 -1      1116 1.87855E+01-2.42315E-02-1.25278E-03 1.85611E+00-2.38455E-13 4.48337E-14
 -1      1117 3.85545E+01 1.25026E+01 3.12046E+00-7.51086E+00-5.59552E-14 2.81142E-12
 -1      1118 2.72911E+01 8.33406E+00 4.89039E-01-2.76583E+00-3.39728E-14 8.36095E-13
 -1      1119 2.24999E+01 6.80669E+00 1.89050E-01-8.37401E-01-2.32037E-14-1.02043E-13
 -1      1120 1.82145E+01 5.47425E+00 3.29831E-02 1.99815E-01-1.40998E-14-6.11419E-13
 -1      1121 1.42895E+01 4.24316E+00-1.45611E-01 4.06927E-01-1.00475E-14-9.04411E-13
 -1      1122 1.14478E+01 3.34611E+00-2.94046E-01-2.58036E-01-7.66054E-15-1.06607E-12
 -1      1123 1.04833E+01 3.04780E+00-3.23906E-01-1.43247E+00-8.54872E-15-1.13928E-12
 -1      1124 1.15358E+01 3.39725E+00-2.11570E-01-2.42147E+00-9.60343E-15-1.14980E-12
 -1      1125 1.39012E+01 4.16298E+00-2.45987E-02-2.68947E+00-9.49241E-15-1.13557E-12
 -1      1126 1.65863E+01 5.01839E+00 1.41653E-01-2.13841E+00-9.54792E-15-1.12514E-12
 -1      1127 1.88071E+01 5.71121E+00 2.30260E-01-1.02663E+00-5.49560E-15-1.12005E-12
 -1      1128 2.02411E+01 6.14409E+00 2.39168E-01 2.77114E-01 1.27676E-15-1.11709E-12
 -1      1129 2.09958E+01 6.35899E+00 2.00817E-01 1.52223E+00 8.43769E-15-1.06906E-12
 -1      1130 2.13669E+01 6.45385E+00 1.45836E-01 2.61920E+00 1.71044E-14-9.09026E-13
 -1      1131 2.17509E+01 6.55493E+00 9.87868E-02 3.61011E+00 2.72837E-14-4.98209E-13
 -1      1132 2.28549E+01 6.90154E+00 1.50184E-01 4.71682E+00 4.03289E-14 4.39874E-13
 -1      1133 2.85427E+01 9.05741E+00 1.64856E+00 6.86141E+00 1.06748E-13 2.59062E-12
 -1      1134 4.11525E+01 4.55228E+00 1.50226E+00-4.88754E+00-2.54408E-13 4.07774E-12
 -1      1135 3.27878E+01-1.64602E-01-5.78709E-01 3.37294E-02-8.45990E-14 3.61206E-12
 -1      1136 3.14975E+01 2.96890E-02 1.46195E-02 3.24654E-02-2.49761E-14 2.98264E-12
 -1      1137 2.93237E+01 1.05018E-01 2.13553E-01-1.40408E-01-9.52797E-15 2.58249E-12
 -1      1138 2.54677E+01 4.52354E-02 6.72235E-02-2.81535E-01-1.30460E-14 2.24518E-12
 -1      1139 2.10065E+01-1.39868E-01-2.85896E-01-2.69525E-01 2.46678E-15 1.82365E-12
 -1      1140 1.83149E+01-2.79332E-01-5.33469E-01-5.52242E-02 1.58172E-14 1.37225E-12
 -1      1141 1.90731E+01-2.07455E-01-4.14588E-01 2.06240E-01-1.11838E-14 8.37636E-13
 -1      1142 2.24536E+01-7.14870E-03-5.85795E-02 3.05026E-01-2.32887E-16 2.52909E-13
 -1      1143 2.60342E+01 1.25070E-01 2.05100E-01 2.23928E-01-2.14759E-14-4.61298E-14
 -1      1144 2.80873E+01 1.38020E-01 2.51698E-01 8.88221E-02-5.68989E-15-1.75152E-13
 -1      1145 2.83858E+01 9.06932E-02 1.70452E-01-6.55671E-03-4.83814E-15-2.09938E-13
 -1      1146 2.75352E+01 3.79776E-02 7.21738E-02-4.65531E-02 1.20060E-14-2.12698E-13
 -1      1147 2.62096E+01 2.57094E-03 6.45622E-03-5.16351E-02-2.15352E-14-3.45279E-14
 -1      1148 2.48458E+01-1.54506E-02-2.44915E-02-4.25192E-02-9.20141E-15-6.25680E-14
 -1      1149 2.36485E+01-2.17449E-02-3.35154E-02-3.06968E-02-3.54643E-14-1.47191E-13
 -1      1150 2.26787E+01-2.17908E-02-3.20231E-02-2.05876E-02-2.15845E-14-3.29681E-13
 -1      1151 2.19284E+01-1.91484E-02-2.68046E-02-1.31571E-02 3.30764E-14-5.02138E-13
 -1      1152 2.13641E+01-1.57387E-02-2.10644E-02-8.08643E-03-9.70122E-15-6.15198E-13
 -1      1153 2.09475E+01-1.24526E-02-1.60146E-02-4.76517E-03 3.64148E-14-6.70923E-13
 -1      1154 2.06443E+01-9.62482E-03-1.19528E-02-2.64485E-03 1.87061E-14-5.50836E-13
 -1      1155 2.04264E+01-7.32453E-03-8.82092E-03-1.31804E-03 2.04360E-14-4.21263E-13
 -1      1156 2.02717E+01-5.51028E-03-6.45599E-03-5.05573E-04-1.30863E-14-1.36729E-13
 -1      1157 2.01637E+01-4.10488E-03-4.68888E-03-2.32450E-05-5.94124E-14-4.20896E-13
 -1      1158 2.00897E+01-3.02832E-03-3.37581E-03 2.48486E-04 3.57527E-15-4.60002E-13
 -1      1159 2.00402E+01-2.21019E-03-2.40381E-03 3.86826E-04-9.08795E-15-3.22902E-13
 -1      1160 2.00083E+01-1.59266E-03-1.68715E-03 4.41747E-04 4.30666E-14-1.56876E-13
 -1      1161 1.99888E+01-1.12983E-03-1.16161E-03 4.45760E-04-1.42392E-14-3.11656E-14
 -1      1162 1.99779E+01-7.85783E-04-7.79171E-04 4.20097E-04 2.72819E-14-1.11571E-13
 -1      1163 1.99728E+01-5.32580E-04-5.03828E-04 3.78623E-04 6.22953E-14-1.66863E-14
 -1      1164 1.99715E+01-3.48538E-04-3.08422E-04 3.30305E-04-2.82083E-14 1.63487E-13
 -1      1165 1.99725E+01-2.16830E-04-1.72379E-04 2.80826E-04 4.85530E-15 2.98462E-13
 -1      1166 1.99748E+01-1.24409E-04-8.00711E-05 2.33643E-04 2.27806E-14 2.39950E-13
 -1      1167 1.99778E+01-6.11844E-05-1.96260E-05 1.90702E-04-7.86554E-14 1.20374E-13
 -1      1168 1.99810E+01-1.93821E-05 1.79472E-05 1.52937E-04 2.86801E-14-1.47272E-13
 -1      1169 1.99842E+01 6.94819E-06 3.94174E-05 1.20614E-04 7.47961E-14-5.85834E-14
 -1      1170 1.99871E+01 2.23225E-05 4.98349E-05 9.35786E-05-3.26764E-14-1.18463E-13
 -1      1171 1.99896E+01 3.01322E-05 5.29226E-05 7.14242E-05-2.10755E-14-7.48159E-13
 -1      1172 1.99918E+01 3.28920E-05 5.13847E-05 5.36155E-05 7.09650E-14-3.83573E-13
 -1      1173 1.99937E+01 3.24398E-05 4.71510E-05 3.95680E-05 1.27456E-14-6.15700E-14
 -1      1174 1.99952E+01 3.00970E-05 4.15713E-05 2.87004E-05-1.05098E-14 9.25708E-14
 -1      1175 1.99964E+01 2.67990E-05 3.55724E-05 2.04655E-05 1.75657E-14 8.59326E-14
 -1      1176 1.99974E+01 2.31988E-05 2.97867E-05 1.43628E-05 1.01655E-14-1.67688E-13
 -1      1177 1.99982E+01 1.97505E-05 2.46642E-05 9.93492E-06-3.19214E-15 1.64113E-13
 -1      1178 1.99988E+01 1.67711E-05 2.05724E-05 6.74194E-06-9.31686E-15 3.13999E-13
 -1      1179 1.99992E+01 1.44754E-05 1.78560E-05 4.29756E-06 2.93659E-14 4.04385E-13
 -1      1180 1.99995E+01 1.29384E-05 1.66675E-05 1.95670E-06 6.22907E-14 7.22203E-14
 -1      1181 1.99998E+01 1.17341E-05 1.60104E-05-1.29520E-06 1.75343E-14 8.26048E-13
 -1      1182 1.99998E+01 1.13433E-05 1.02240E-05-7.39234E-06-1.34948E-14 6.95522E-13
 -1      1183 1.99998E+01-6.14977E-06-1.38596E-05-5.86299E-06 8.26770E-14 4.29444E-13
 -1      1184 3.16943E+01 6.21324E-01 5.31959E-01 2.27087E+00-4.06272E-14 4.43257E-12
 -1      1185 2.22296E+01-5.52751E-02-6.24185E-01 1.52706E-01 4.33750E-14 3.30636E-12
 -1      1186 2.01864E+01-3.33327E-02-1.95234E-01 3.11353E-02 2.42462E-14 2.32597E-12
 -1      1187 1.88798E+01-2.53252E-02-4.77059E-02 2.43981E-02 2.19612E-14 1.61065E-12
 -1      1188 1.78636E+01-3.13532E-02-3.40539E-02 3.03404E-02 1.09201E-14 1.17248E-12
 -1      1189 1.71729E+01-3.77882E-02-5.29230E-02 3.18983E-02 2.57346E-15 8.97907E-13
 -1      1190 1.69331E+01-3.70456E-02-6.50490E-02 2.28678E-02-3.98466E-15 7.12713E-13
 -1      1191 1.72070E+01-2.78363E-02-5.82690E-02 5.18455E-03 1.41324E-14 5.53339E-13
 -1      1192 1.79219E+01-1.38933E-02-3.55255E-02-1.43682E-02 9.67954E-15 3.12375E-13
 -1      1193 1.88880E+01-4.72449E-04-7.29272E-03-2.87843E-02 6.63152E-15 1.20792E-13
 -1      1194 1.98777E+01 8.75299E-03 1.59484E-02-3.45268E-02 2.55211E-14-2.19498E-13
 -1      1195 2.07071E+01 1.28562E-02 2.86901E-02-3.22038E-02 1.00935E-14-3.54539E-13
 -1      1196 2.12793E+01 1.28832E-02 3.10866E-02-2.49410E-02 1.25030E-14-3.76491E-13
 -1      1197 2.15812E+01 1.05627E-02 2.65644E-02-1.61621E-02-2.82044E-14-3.89271E-13
 -1      1198 2.16558E+01 7.40201E-03 1.90757E-02-8.26264E-03 2.96721E-14-7.28713E-13
 -1      1199 2.15689E+01 4.36786E-03 1.15037E-02-2.34188E-03 3.03995E-14-1.05048E-12
 -1      1200 2.13861E+01 1.92202E-03 5.33767E-03 1.45841E-03-1.76644E-14-7.72895E-13
 -1      1201 2.11604E+01 1.83537E-04 1.00642E-03 3.49285E-03 1.87318E-14-6.61198E-13
 -1      1202 2.09291E+01-9.12035E-04-1.65100E-03 4.26726E-03 1.17893E-14-9.18579E-13
 -1      1203 2.07150E+01-1.50153E-03-3.02218E-03 4.25052E-03 2.26931E-14-1.13113E-12
 -1      1204 2.05297E+01-1.73112E-03-3.51445E-03 3.80359E-03-5.59576E-15-1.01871E-12
 -1      1205 2.03771E+01-1.72719E-03-3.46586E-03 3.17280E-03-2.73000E-14-8.43192E-13
 -1      1206 2.02565E+01-1.58705E-03-3.12369E-03 2.50991E-03-2.68801E-14-7.80068E-13
 -1      1207 2.01647E+01-1.37974E-03-2.65325E-03 1.89822E-03 1.74320E-14-8.92151E-13
 -1      1208 2.00971E+01-1.15087E-03-2.15651E-03 1.37586E-03-1.06239E-14-7.01568E-13
 -1      1209 2.00491E+01-9.28275E-04-1.69080E-03 9.53479E-04 2.81240E-14-4.82527E-13
 -1      1210 2.00166E+01-7.27233E-04-1.28394E-03 6.26470E-04 3.86674E-15-8.30627E-13
 -1      1211 1.99956E+01-5.54586E-04-9.45471E-04 3.82851E-04 1.51718E-14-1.05524E-12
 -1      1212 1.99830E+01-4.11864E-04-6.74311E-04 2.08065E-04-8.55818E-15-1.13250E-12
 -1      1213 1.99765E+01-2.97498E-04-4.63858E-04 8.76732E-05 1.86787E-14-1.37247E-12
 -1      1214 1.99740E+01-2.08318E-04-3.05167E-04 8.72971E-06 1.93989E-15-1.55567E-12
 -1      1215 1.99742E+01-1.40525E-04-1.88845E-04-3.96741E-05 2.98149E-14-1.64724E-12
 -1      1216 1.99759E+01-9.02709E-05-1.06093E-04-6.63255E-05 3.36462E-14-1.63484E-12
 -1      1217 1.99785E+01-5.39968E-05-4.91998E-05-7.80549E-05-5.23528E-14-1.38668E-12
 -1      1218 1.99815E+01-2.85854E-05-1.17116E-05-8.00079E-05 8.29041E-15-1.26508E-12
 -1      1219 1.99844E+01-1.14161E-05 1.15895E-05-7.59475E-05-8.79057E-14-1.29684E-12
 -1      1220 1.99872E+01-3.52911E-07 2.48035E-05-6.85427E-05 3.50877E-14-1.58483E-12
 -1      1221 1.99897E+01 6.30032E-06 3.10724E-05-5.96230E-05 1.74447E-14-1.18393E-12
 -1      1222 1.99919E+01 9.86121E-06 3.27488E-05-5.03916E-05 1.74756E-14-9.88587E-13
 -1      1223 1.99937E+01 1.13338E-05 3.15562E-05-4.15978E-05-4.00918E-14-9.43998E-13
 -1      1224 1.99952E+01 1.14722E-05 2.87327E-05-3.36724E-05 1.02857E-13-6.55261E-13
 -1      1225 1.99964E+01 1.08385E-05 2.51550E-05-2.68297E-05 1.01238E-14-6.48166E-13
 -1      1226 1.99974E+01 9.85314E-06 2.14454E-05-2.11443E-05-9.39936E-14-5.00346E-13
 -1      1227 1.99982E+01 8.84439E-06 1.80747E-05-1.66006E-05 4.83396E-14-8.25857E-13
 -1      1228 1.99988E+01 8.06122E-06 1.54471E-05-1.31143E-05-4.46587E-14-1.02114E-12
 -1      1229 1.99992E+01 7.71506E-06 1.39871E-05-1.05273E-05 1.04046E-13-8.19925E-13
 -1      1230 1.99995E+01 7.92335E-06 1.39843E-05-8.49560E-06-1.08456E-14-1.12086E-12
 -1      1231 1.99997E+01 8.05300E-06 1.42900E-05-5.92783E-06-1.42452E-14-6.07551E-13
 -1      1232 1.99998E+01 4.61445E-06 8.47478E-06-2.47371E-07 9.06789E-14-7.32781E-13
 -1      1233 1.99998E+01-5.24644E-06-1.40678E-05 5.34695E-06 1.80129E-14-8.27734E-13
 -1      1234 1.99998E+01 1.57796E-05-1.29063E-05 5.41785E-06-9.16274E-13-8.00052E-14
 -1      1235 1.99998E+01 3.00382E-05 1.02470E-05 6.11614E-06-1.29059E-12-1.13769E-13
 -1      1236 1.99998E+01-6.13253E-05 1.36541E-05-1.95808E-06-6.81884E-13 1.09913E-13
 -1      1237 1.99998E+01-2.51912E-04 8.39163E-06-6.38721E-06-2.54144E-14 8.27624E-14
 -1      1238 1.99998E+01-4.96870E-04 1.17220E-06-8.07088E-06 5.19013E-13-4.98619E-14
 -1      1239 1.99998E+01-7.45714E-04-5.42842E-06-7.69326E-06-6.18160E-13-2.03937E-13
 -1      1240 1.99998E+01-9.57452E-04-1.04973E-05-5.99138E-06-1.36222E-12-2.86694E-15
 -1      1241 1.99998E+01-1.09987E-03-1.37368E-05-3.21514E-06-4.30141E-13-2.75698E-14
 -1      1242 1.99998E+01-1.14913E-03-1.48235E-05 3.60537E-08-2.60805E-13 1.51585E-14
 -1      1243 1.99998E+01-1.09795E-03-1.36915E-05 3.28377E-06 4.90218E-13-6.89820E-14
 -1      1244 1.99998E+01-9.53922E-04-1.03998E-05 6.03346E-06 4.72725E-13-2.19026E-13
 -1      1245 1.99998E+01-7.41068E-04-5.30136E-06 7.81069E-06-1.01191E-13 6.19359E-14
 -1      1246 1.99998E+01-4.92020E-04 1.26680E-06 8.06613E-06-3.34564E-13-1.13864E-13
 -1      1247 1.99998E+01-2.47463E-04 8.55523E-06 6.44030E-06-4.53958E-13 1.29123E-13
 -1      1248 1.99998E+01-5.53793E-05 1.43893E-05 2.38518E-06-5.07901E-13-4.20441E-14
 -1      1249 1.99998E+01 2.54213E-05 8.63643E-06-1.06937E-05-7.01239E-13-1.71820E-13
 -1      1250 1.99998E+01 1.80746E-05-1.27884E-05-6.44376E-06-3.84148E-13 1.65161E-13
 -1      1251-1.08018E+00-2.13785E+01-3.59590E+00-1.88846E+00 9.33864E-13 2.89352E-13
 -1      1252-1.41135E+00-1.27369E+01-2.89629E+00-3.23863E+00 3.10529E-12 1.24256E-12
 -1      1253 1.10809E+00-5.80611E-01-1.60531E+00 9.64701E-01 4.33853E-12 2.68408E-12
 -1      1254 1.09066E+01 9.04620E+00 7.02481E-03 9.70537E+00 4.21996E-12 4.06053E-12
 -1      1255 2.78688E+01 1.15403E+01 1.64372E+00 1.71454E+01 3.03924E-12 4.36473E-12
 -1      1256 4.70708E+01 7.75732E+00 2.95135E+00 1.74958E+01 1.39633E-12 3.18945E-12
 -1      1257 6.11306E+01 2.92660E+00 3.72237E+00 9.58283E+00 2.86209E-13 8.99947E-13
 -1      1258 6.36174E+01 1.66263E+00 3.76745E+00-2.79758E+00 2.18846E-13-1.71879E-12
 -1      1259 5.37024E+01 4.75269E+00 3.06249E+00-1.33951E+01 1.23623E-12-4.04976E-12
 -1      1260 3.67530E+01 9.16070E+00 1.87225E+00-1.72890E+01 2.79610E-12-5.43610E-12
 -1      1261 1.93081E+01 1.08417E+01 5.20479E-01-1.39065E+01 4.35074E-12-5.41434E-12
 -1      1262 6.47613E+00 7.20478E+00-7.73254E-01-6.86289E+00 5.26934E-12-4.35652E-12
 -1      1263 4.90053E-01-5.95393E-01-1.66963E+00-7.17933E-01 4.84945E-12-2.66120E-12
 -1      1264-7.89254E-01-9.68331E+00-2.34837E+00 1.86085E+00 3.30491E-12-1.07245E-12
 -1      1265-7.46656E-01-1.55099E+01-2.72757E+00 3.10308E-01 6.09346E-13-3.11015E-13
 -1      1266-1.13631E+00-1.63005E+01-3.09116E+00-2.72939E+00-2.22855E-12-6.22426E-13
 -1      1267-1.84563E+00-9.90945E+00-2.91328E+00-3.25340E+00-4.39759E-12-2.10443E-12
 -1      1268 9.23808E-01-7.40769E-01-2.25310E+00 7.75934E-01-5.55045E-12-4.08718E-12
 -1      1269 1.13715E+01 7.03754E+00-7.07450E-01 8.87955E+00-5.13589E-12-5.67013E-12
 -1      1270 2.99949E+01 9.09371E+00 1.23614E+00 1.58161E+01-3.65663E-12-6.17484E-12
 -1      1271 5.15853E+01 6.11418E+00 3.23499E+00 1.56500E+01-1.82576E-12-5.12479E-12
 -1      1272 6.71239E+01 2.52629E+00 4.50025E+00 6.76303E+00-5.09683E-13-2.67719E-12
 -1      1273 6.98173E+01 2.23818E+00 4.79001E+00-6.20931E+00-1.99802E-13 2.30704E-13
 -1      1274 5.83051E+01 6.18224E+00 3.96027E+00-1.62618E+01-1.12993E-12 3.01426E-12
 -1      1275 3.95683E+01 1.05528E+01 2.52719E+00-1.92086E+01-2.66276E-12 4.80749E-12
 -1      1276 2.01071E+01 1.12212E+01 7.45479E-01-1.44648E+01-4.07097E-12 5.07105E-12
 -1      1277 5.91687E+00 5.65766E+00-9.82074E-01-5.89033E+00-4.78906E-12 4.05853E-12
 -1      1278-6.30434E-01-4.79448E+00-2.39970E+00 1.28147E+00-4.47353E-12 2.52365E-12
 -1      1279-1.76475E+00-1.58499E+01-3.33080E+00 3.91709E+00-3.33722E-12 1.17839E-12
 -1      1280-1.13457E+00-2.26095E+01-3.78834E+00 1.90787E+00-1.49974E-12 3.53252E-13
 -1      1281 3.26066E+01 2.35809E+00-8.34672E-01-2.54245E+00-7.77711E-14 2.44377E-12
 -1      1282 2.65020E+01 5.39528E+00-3.04614E-02-2.10968E+00-1.88127E-13 4.37567E-13
 -1      1283 2.87602E+01 5.93936E+00-4.43641E-02-3.50503E+00-2.72449E-13 9.22054E-13
 -1      1284 2.19300E+01 4.99869E+00-2.28928E-02-7.57529E-01-1.44107E-13-2.86222E-13
 -1      1285 2.41632E+01 5.64761E+00 6.26025E-02-1.47635E+00-1.93290E-13 2.90809E-14
 -1      1286 2.61178E+01 3.91134E+00-2.35001E-02-2.00463E+00-3.01315E-13 4.40800E-13
 -1      1287 1.74292E+01 4.41546E+00-6.80473E-02 1.53782E-01-7.05547E-14-7.13676E-13
 -1      1288 1.97116E+01 5.08448E+00 7.16706E-02-2.11880E-01-1.04361E-13-5.24115E-13
 -1      1289 2.12875E+01 3.89951E+00-4.61981E-02-7.68704E-01-1.84741E-13-1.94192E-13
 -1      1290 1.32174E+01 4.10631E+00-1.29219E-01 2.56014E-01-3.25850E-14-9.92026E-13
 -1      1291 1.52591E+01 4.69573E+00 4.07578E-02 3.15389E-01-4.89608E-14-8.76438E-13
 -1      1292 1.64699E+01 4.02665E+00-4.77716E-02 6.96738E-02-8.11573E-14-6.15903E-13
 -1      1293 1.03906E+01 4.09592E+00-1.40441E-01-5.36345E-01-7.74103E-14-1.15523E-12
 -1      1294 1.15713E+01 4.43854E+00-3.53625E-02-9.77001E-02-7.16371E-14-1.09628E-12
 -1      1295 1.21963E+01 4.44120E+00-3.42696E-02 1.77187E-02-7.86038E-14-9.09849E-13
 -1      1296 9.96509E+00 4.16692E+00-7.90830E-02-1.75361E+00-1.68698E-13-1.21702E-12
 -1      1297 9.85302E+00 4.15000E+00-1.13651E-01-1.21951E+00-1.53204E-13-1.19528E-12
 -1      1298 9.74928E+00 4.72884E+00-1.63317E-02-9.28810E-01-1.90375E-13-1.07287E-12
 -1      1299 1.18172E+01 4.16724E+00 1.02728E-02-2.59563E+00-2.49217E-13-1.20078E-12
 -1      1300 1.06471E+01 3.84965E+00-1.34171E-01-2.31390E+00-2.39475E-13-1.20265E-12
 -1      1301 9.98049E+00 4.49922E+00-1.69769E-02-2.10440E+00-3.38608E-13-1.09870E-12
 -1      1302 1.48185E+01 4.16634E+00 7.49711E-02-2.59561E+00-2.60486E-13-1.15613E-12
 -1      1303 1.32357E+01 3.72496E+00-8.43718E-02-2.71032E+00-2.68480E-13-1.15671E-12
 -1      1304 1.24385E+01 3.89586E+00-2.85263E-02-2.68840E+00-4.32480E-13-1.03396E-12
 -1      1305 1.77577E+01 4.29921E+00 9.49156E-02-1.78717E+00-2.09804E-13-1.12061E-12
 -1      1306 1.63456E+01 3.89806E+00-4.29835E-03-2.23954E+00-2.30815E-13-1.11748E-12
 -1      1307 1.58061E+01 3.38703E+00-2.98816E-02-2.34857E+00-4.10318E-13-9.44387E-13
 -1      1308 1.98561E+01 4.58027E+00 8.04851E-02-5.49926E-01-1.10995E-13-1.11199E-12
 -1      1309 1.89201E+01 4.30614E+00 5.54252E-02-1.15914E+00-1.39833E-13-1.10280E-12
 -1      1310 1.87911E+01 3.29178E+00-1.70231E-02-1.31139E+00-2.83683E-13-8.89462E-13
 -1      1311 2.10380E+01 4.91720E+00 5.49862E-02 7.48633E-01 3.69843E-15-1.10685E-12
 -1      1312 2.05492E+01 4.76465E+00 7.48197E-02 1.30193E-01-2.77417E-14-1.10896E-12
 -1      1313 2.07498E+01 3.56198E+00-5.63382E-03-2.15276E-02-1.11695E-13-8.69187E-13
 -1      1314 2.15714E+01 5.21206E+00 3.04897E-02 1.92101E+00 1.24165E-13-1.04993E-12
 -1      1315 2.13668E+01 5.13650E+00 6.39819E-02 1.36170E+00 8.17887E-14-1.08867E-12
 -1      1316 2.17433E+01 3.96585E+00-4.21604E-03 1.21391E+00 7.68474E-14-8.48870E-13
 -1      1317 2.18217E+01 5.42552E+00 8.43180E-03 2.93933E+00 2.41744E-13-8.63531E-13
 -1      1318 2.17093E+01 5.36938E+00 3.67245E-02 2.44009E+00 1.94490E-13-9.84282E-13
 -1      1319 2.21387E+01 4.30396E+00-1.21423E-02 2.28954E+00 2.68212E-13-7.65908E-13
 -1      1320 2.22209E+01 5.56372E+00-1.12176E-02 3.88147E+00 3.45030E-13-3.93401E-13
 -1      1321 2.19685E+01 5.45363E+00-2.88079E-03 3.38227E+00 2.85473E-13-6.83398E-13
 -1      1322 2.23792E+01 4.45635E+00-2.40670E-02 3.22369E+00 4.30477E-13-5.17163E-13
 -1      1323 2.35471E+01 5.50201E+00-1.24607E-02 4.96227E+00 3.47056E-13 6.30024E-13
 -1      1324 2.26948E+01 5.29859E+00-5.40327E-02 4.26227E+00 3.23935E-13-4.39926E-15
 -1      1325 2.30151E+01 4.24378E+00-3.08712E-02 4.05515E+00 5.54855E-13 4.48808E-14
 -1      1326 3.07857E+01 3.67135E+00 1.10272E+00 5.43158E+00 2.13940E-13 2.77861E-12
 -1      1327 2.46254E+01 3.99277E+00-2.14496E-01 4.70267E+00 1.97842E-13 1.26454E-12
 -1      1328 2.46484E+01 2.86193E+00-4.86833E-02 4.32867E+00 5.98565E-13 9.89292E-13
 -1      1329 2.39220E+01 4.13665E-01-8.72479E-01 1.53476E+00 3.67220E-13 2.61058E-12
 -1      1330 3.30500E+01-7.23683E-02-4.59253E-01-1.07146E+00-2.14079E-13 2.63042E-12
 -1      1331 3.18944E+01 1.48701E-01-1.38005E-01-6.62986E-01-2.02040E-13 2.38610E-12
 -1      1332 3.12358E+01-5.52559E-02-2.53360E-02-6.46555E-01-1.18272E-13 2.32640E-12
 -1      1333 3.02865E+01-1.41175E-01 3.13450E-02-7.08824E-01-1.37262E-13 2.11886E-12
 -1      1334 3.07716E+01-5.29206E-02-9.61364E-02-1.40222E+00-3.18127E-13 1.59842E-12
 -1      1335 2.95844E+01-2.08217E-01 6.44616E-02-1.04351E+00-8.47517E-14 2.05974E-12
 -1      1336 2.81099E+01-1.84675E-01 4.90476E-02-1.19047E+00-1.12087E-13 1.90992E-12
 -1      1337 2.94247E+01-3.34540E-01 2.09033E-02-1.69591E+00-2.16526E-13 1.52590E-12
 -1      1338 2.71841E+01-1.50414E-01 4.56210E-02-1.52027E+00-1.19596E-13 1.82816E-12
 -1      1339 2.52287E+01-9.56480E-03-7.00425E-03-1.59291E+00-1.76171E-13 1.63955E-12
 -1      1340 2.79450E+01-2.96769E-01 3.49336E-02-2.53892E+00-2.29416E-13 1.43653E-12
 -1      1341 2.41681E+01 1.35954E-01-4.45221E-02-1.44422E+00-1.82014E-13 1.47996E-12
 -1      1342 2.24927E+01 3.07972E-01-9.85456E-02-1.30814E+00-1.87898E-13 1.28877E-12
 -1      1343 2.60289E+01 1.42760E-01-3.26138E-02-2.83396E+00-3.36658E-13 1.19275E-12
 -1      1344 2.17993E+01 4.23915E-01-1.30230E-01-5.35033E-01-2.04538E-13 1.06276E-12
 -1      1345 2.13355E+01 4.61908E-01-1.42933E-01-2.39920E-01-2.15043E-13 8.28414E-13
 -1      1346 2.42756E+01 6.65764E-01-1.33582E-01-1.73284E+00-4.05412E-13 8.17259E-13
 -1      1347 2.14214E+01 4.02138E-01-1.27656E-01 6.70977E-01-2.23356E-13 5.75144E-13
 -1      1348 2.23700E+01 2.61111E-01-8.89394E-02 8.86291E-01-2.22086E-13 2.86882E-13
 -1      1349 2.36636E+01 7.71162E-01-1.58820E-01 3.80729E-01-4.49321E-13 3.02472E-13
 -1      1350 2.30141E+01 1.02697E-01-4.82841E-02 1.27633E+00-1.98102E-13 1.07025E-13
 -1      1351 2.46090E+01-7.16798E-02 3.50451E-03 1.27251E+00-1.34340E-13-1.19710E-13
 -1      1352 2.44176E+01 3.52008E-01-7.41638E-02 1.98173E+00-4.06231E-13-1.31326E-13
 -1      1353 2.52286E+01-1.58029E-01 2.07655E-02 1.04133E+00-8.06629E-14-1.54571E-13
 -1      1354 2.65155E+01-2.41135E-01 5.06905E-02 9.03370E-01-4.88342E-14-2.32619E-13
 -1      1355 2.56591E+01-1.80372E-01 1.97154E-02 2.11044E+00-1.96590E-13-3.35069E-13
 -1      1356 2.67677E+01-2.25626E-01 3.81679E-02 4.16222E-01-4.62234E-14-2.32508E-13
 -1      1357 2.73059E+01-2.19515E-01 4.48058E-02 2.77425E-01-7.30492E-15-2.89851E-13
 -1      1358 2.64455E+01-4.22450E-01 5.27743E-02 1.18690E+00-7.41820E-14-3.50019E-13
 -1      1359 2.71826E+01-1.65481E-01 2.47130E-02-1.33081E-01 8.13412E-15-3.07171E-13
 -1      1360 2.70541E+01-1.24156E-01 2.09346E-02-2.15009E-01 2.25896E-14-3.03785E-13
 -1      1361 2.64815E+01-3.64670E-01 4.14028E-02 1.01276E-01-7.32747E-15-3.68055E-13
 -1      1362 2.66904E+01-7.96238E-02 7.88676E-03-4.38166E-01 1.95781E-14-2.69271E-13
 -1      1363 2.61801E+01-4.05978E-02 2.53946E-03-4.67331E-01 4.51115E-14-2.66127E-13
 -1      1364 2.59333E+01-2.01908E-01 1.81061E-02-6.38673E-01 3.29337E-14-3.63799E-13
 -1      1365 2.57157E+01-1.72834E-02-1.28296E-03-5.34617E-01 4.70467E-14-2.13791E-13
 -1      1366 2.50773E+01 8.11803E-03-5.04814E-03-5.32868E-01-1.76339E-14-1.76931E-13
 -1      1367 2.50821E+01-6.37157E-02 1.33014E-03-9.65451E-01 6.54537E-14-3.29381E-13
 -1      1368 2.46081E+01 1.55140E-02-3.50916E-03-5.10476E-01-2.68672E-14-1.93717E-13
 -1      1369 2.39929E+01 2.88428E-02-6.05558E-03-4.95585E-01-1.76055E-14-2.02938E-13
 -1      1370 2.41518E+01 1.47035E-02-6.94431E-03-1.00608E+00-2.43950E-14-2.79821E-13
 -1      1371 2.35708E+01 2.79028E-02-2.60568E-03-4.35241E-01 2.61943E-16-1.71377E-13
 -1      1372 2.30447E+01 3.35276E-02-4.54802E-03-4.17190E-01-3.04557E-14-2.29207E-13
 -1      1373 2.32767E+01 4.71215E-02-9.49453E-03-9.00798E-01-1.40543E-14-2.46250E-13
 -1      1374 2.26901E+01 2.93547E-02-1.06150E-03-3.48707E-01-1.01988E-13-2.21417E-13
 -1      1375 2.22688E+01 3.08462E-02-2.72208E-03-3.31980E-01-9.42146E-14-3.42802E-13
 -1      1376 2.25196E+01 5.36640E-02-9.21223E-03-7.44268E-01-8.57816E-14-2.04619E-13
 -1      1377 2.19836E+01 2.60918E-02 1.12978E-04-2.69172E-01-4.12886E-14-3.44193E-13
 -1      1378 2.16593E+01 2.56636E-02-1.33786E-03-2.55263E-01 6.21465E-16-4.05241E-13
 -1      1379 2.18980E+01 4.86687E-02-7.89502E-03-5.86545E-01-7.65872E-14-2.04673E-13
 -1      1380 2.14366E+01 2.14287E-02 7.53353E-04-2.02871E-01-3.42387E-14-4.35577E-13
 -1      1381 2.11931E+01 2.02673E-02-4.72292E-04-1.91912E-01-7.43537E-14-4.89620E-13
 -1      1382 2.14049E+01 3.99973E-02-6.39191E-03-4.48685E-01-4.73935E-14-2.83988E-13
 -1      1383 2.10227E+01 1.68640E-02 9.93795E-04-1.50349E-01 3.14505E-15-5.92172E-13
 -1      1384 2.08432E+01 1.55403E-02 3.62513E-06-1.41965E-01 1.45444E-14-5.50609E-13
 -1      1385 2.10231E+01 3.12370E-02-5.02671E-03-3.36363E-01-9.18016E-14-3.93320E-13
 -1      1386 2.07149E+01 1.29458E-02 1.00165E-03-1.09933E-01 2.30133E-14-6.22882E-13
 -1      1387 2.05843E+01 1.17041E-02 2.33122E-04-1.03628E-01-1.28651E-14-5.99511E-13
 -1      1388 2.07328E+01 2.37066E-02-3.88841E-03-2.48356E-01-1.40755E-14-5.40154E-13
 -1      1389 2.04891E+01 9.78401E-03 8.98922E-04-7.93782E-02 9.20687E-14-5.29935E-13
 -1      1390 2.03953E+01 8.70968E-03 3.21509E-04-7.46900E-02 1.05509E-13-4.00184E-13
 -1      1391 2.05153E+01 1.76846E-02-2.97541E-03-1.80993E-01 8.15392E-14-5.38378E-13
 -1      1392 2.03256E+01 7.31372E-03 7.57686E-04-5.65547E-02 2.43393E-15-2.99192E-13
 -1      1393 2.02592E+01 6.42079E-03 3.35120E-04-5.30980E-02-8.63177E-15-2.82497E-13
 -1      1394 2.03544E+01 1.30419E-02-2.25737E-03-1.30203E-01 8.07355E-14-4.09898E-13
 -1      1395 2.02088E+01 5.41779E-03 6.14852E-04-3.96655E-02-8.76699E-14-2.23433E-13
 -1      1396 2.01625E+01 4.69170E-03 3.12474E-04-3.71372E-02-8.92007E-14-3.09199E-13
 -1      1397 2.02371E+01 9.53144E-03-1.69889E-03-9.23279E-02-8.63524E-15-2.05459E-13
 -1      1398 2.01267E+01 3.97763E-03 4.86635E-04-2.72782E-02 2.46261E-14-2.69471E-13
 -1      1399 2.00951E+01 3.39490E-03 2.74768E-04-2.54455E-02 5.76588E-14-2.20542E-13
 -1      1400 2.01527E+01 6.90510E-03-1.26765E-03-6.43464E-02 4.00081E-15-9.09216E-14
 -1      1401 2.00701E+01 2.89105E-03 3.78327E-04-1.82807E-02-2.53277E-14-2.37799E-13
 -1      1402 2.00492E+01 2.42762E-03 2.33120E-04-1.69668E-02-2.00626E-14-1.69689E-13
 -1      1403 2.00930E+01 4.95264E-03-9.36586E-04-4.38687E-02 1.74789E-14-1.05244E-13
 -1      1404 2.00321E+01 2.07583E-03 2.90001E-04-1.18215E-02 1.01762E-13-2.82321E-13
 -1      1405 2.00187E+01 1.71009E-03 1.93014E-04-1.08928E-02 8.37924E-14-1.43700E-13
 -1      1406 2.00517E+01 3.50817E-03-6.83891E-04-2.90426E-02 3.90651E-14-1.63235E-13
 -1      1407 2.00075E+01 1.46784E-03 2.19559E-04-7.25219E-03 3.51658E-14-1.99604E-13
 -1      1408 1.99994E+01 1.18139E-03 1.56890E-04-6.60780E-03-8.31954E-15-1.47797E-13
 -1      1409 2.00238E+01 2.44503E-03-4.92275E-04-1.84476E-02 5.79864E-14-2.58172E-13
 -1      1410 1.99923E+01 1.01768E-03 1.64241E-04-4.08035E-03 3.78666E-14-2.37125E-13
 -1      1411 1.99880E+01 7.95204E-04 1.25597E-04-3.64410E-03 6.82442E-14-1.77743E-13
 -1      1412 2.00057E+01 1.66772E-03-3.48118E-04-1.09997E-02 1.27138E-14-2.52962E-13
 -1      1413 1.99838E+01 6.87471E-04 1.21317E-04-1.93296E-03 6.98406E-14-1.09162E-13
 -1      1414 1.99819E+01 5.16315E-04 9.91794E-05-1.64747E-03 7.05010E-14-2.84323E-14
 -1      1415 1.99945E+01 1.10450E-03-2.40709E-04-5.87428E-03 5.38679E-14-1.99383E-13
 -1      1416 1.99797E+01 4.48118E-04 8.83546E-05-5.28096E-04-2.83100E-14 7.62585E-14
 -1      1417 1.99794E+01 3.17879E-04 7.72973E-05-3.50277E-04-1.06848E-14 1.23553E-13
 -1      1418 1.99882E+01 7.01285E-04-1.61618E-04-2.44559E-03 1.20024E-13-7.71018E-14
 -1      1419 1.99785E+01 2.77249E-04 6.32979E-05 3.46347E-04-2.68153E-14 1.86911E-13
 -1      1420 1.99792E+01 1.79392E-04 5.94513E-05 4.48678E-04-3.63500E-14 1.84332E-13
 -1      1421 1.99851E+01 4.17224E-04-1.04213E-04-2.40819E-04-2.12808E-14 1.30717E-14
 -1      1422 1.99792E+01 1.57638E-04 4.44531E-05 8.48957E-04 9.58961E-15 1.75240E-13
 -1      1423 1.99804E+01 8.51823E-05 4.50958E-05 8.99635E-04-4.29798E-14 1.63610E-13
 -1      1424 1.99842E+01 2.21327E-04-6.32830E-05 1.09539E-03-7.04380E-14 1.25193E-13
 -1      1425 1.99809E+01 7.60272E-05 3.04474E-05 1.09726E-03-1.72318E-13 1.25412E-13
 -1      1426 1.99824E+01 2.32957E-05 3.36974E-05 1.11374E-03-9.33355E-14-6.77037E-14
 -1      1427 1.99847E+01 9.00719E-05-3.47434E-05 1.82809E-03-1.10156E-13-5.42776E-14
 -1      1428 1.99832E+01 2.22445E-05 2.01792E-05 1.17732E-03 5.56009E-14 2.32577E-14
 -1      1429 1.99847E+01-1.53508E-05 2.47629E-05 1.17221E-03 7.00185E-14-5.77119E-14
 -1      1430 1.99859E+01 5.62720E-06-1.54094E-05 2.15293E-03-4.42159E-14 3.53703E-14
 -1      1431 1.99856E+01-1.14742E-05 1.27707E-05 1.15128E-03 7.53272E-14-5.50131E-14
 -1      1432 1.99870E+01-3.76096E-05 1.78516E-05 1.13351E-03 8.76332E-14 2.00930E-14
 -1      1433 1.99876E+01-4.54696E-05-2.81406E-06 2.21247E-03 1.37706E-13 9.88815E-14
 -1      1434 1.99879E+01-3.10091E-05 7.52751E-06 1.06312E-03-1.40602E-13-4.89072E-14
 -1      1435 1.99893E+01-4.86015E-05 1.25791E-05 1.03886E-03-2.94881E-13-2.60888E-13
 -1      1436 1.99894E+01-7.33101E-05 4.93623E-06 2.10889E-03-1.82224E-13-2.33426E-13
 -1      1437 1.99901E+01-4.07680E-05 3.90387E-06 9.43229E-04-1.16936E-13-4.47751E-13
 -1      1438 1.99913E+01-5.21064E-05 8.61569E-06 9.16615E-04-6.55547E-14-5.47765E-13
 -1      1439 1.99911E+01-8.53845E-05 9.27977E-06 1.91389E-03-3.62044E-13-3.09027E-13
 -1      1440 1.99921E+01-4.40143E-05 1.47403E-06 8.11941E-04 1.53493E-14-3.63347E-13
 -1      1441 1.99931E+01-5.08738E-05 5.68330E-06 7.85620E-04 2.05055E-13-2.65696E-13
 -1      1442 1.99927E+01-8.71810E-05 1.12952E-05 1.67639E-03 3.73530E-14-3.13816E-13
 -1      1443 1.99938E+01-4.31285E-05-9.12197E-08 6.82234E-04 1.30191E-13-3.03542E-13
 -1      1444 1.99946E+01-4.68692E-05 3.55042E-06 6.57785E-04-2.73042E-14-2.24089E-13
 -1      1445 1.99942E+01-8.26591E-05 1.17798E-05 1.42860E-03 2.06383E-13-4.09320E-13
 -1      1446 1.99952E+01-3.98191E-05-1.04381E-06 5.61809E-04 2.03444E-14-1.35916E-13
 -1      1447 1.99958E+01-4.14706E-05 2.02689E-06 5.40059E-04-5.63719E-14-2.03661E-13
 -1      1448 1.99954E+01-7.46236E-05 1.13135E-05 1.19052E-03 7.18604E-14-3.49425E-13
 -1      1449 1.99963E+01-3.52922E-05-1.57375E-06 4.54648E-04-1.39203E-14-1.87788E-13
 -1      1450 1.99969E+01-3.56267E-05 9.59450E-07 4.35904E-04-1.87507E-14-2.97308E-13
 -1      1451 1.99964E+01-6.50241E-05 1.03105E-05 9.73526E-04-5.70585E-14-2.88128E-13
 -1      1452 1.99973E+01-3.03899E-05-1.81976E-06 3.62148E-04-1.78372E-15-2.11578E-13
 -1      1453 1.99977E+01-2.99828E-05 2.30578E-07 3.46365E-04 9.01800E-14-1.51312E-13
 -1      1454 1.99973E+01-5.51956E-05 9.06230E-06 7.82855E-04-1.59907E-14-3.34720E-13
 -1      1455 1.99980E+01-2.57023E-05-1.87291E-06 2.83923E-04 1.19618E-13 1.12636E-14
 -1      1456 1.99984E+01-2.49830E-05-2.35901E-07 2.70808E-04 1.24365E-13 6.20880E-14
 -1      1457 1.99980E+01-4.60532E-05 7.77362E-06 6.19540E-04 2.68074E-13-1.44296E-13
 -1      1458 1.99986E+01-2.16618E-05-1.76945E-06 2.18333E-04 1.62814E-13 9.91841E-14
 -1      1459 1.99989E+01-2.09510E-05-4.58472E-07 2.07410E-04 8.43620E-14 2.62674E-13
 -1      1460 1.99985E+01-3.82574E-05 6.59362E-06 4.81666E-04 2.68554E-13 3.15881E-14
 -1      1461 1.99991E+01-1.86164E-05-1.47052E-06 1.62800E-04 2.15874E-14 3.22089E-13
 -1      1462 1.99993E+01-1.81383E-05-3.88306E-07 1.53426E-04 9.21899E-14 3.74744E-13
 -1      1463 1.99990E+01-3.23484E-05 5.64187E-06 3.65202E-04 1.66071E-13 2.39223E-13
 -1      1464 1.99994E+01-1.68284E-05-8.61902E-07 1.14035E-04-1.82486E-14 2.57889E-13
 -1      1465 1.99995E+01-1.66212E-05 1.42362E-08 1.05414E-04-2.44462E-15 2.13891E-13
 -1      1466 1.99993E+01-2.88144E-05 5.00156E-06 2.64572E-04-1.19127E-15 2.34768E-13
 -1      1467 1.99996E+01-1.61982E-05 7.14692E-08 6.87508E-05 1.61511E-13 2.95070E-13
 -1      1468 1.99997E+01-1.58401E-05 2.99184E-07 6.00130E-05 1.19588E-13 4.78923E-13
 -1      1469 1.99995E+01-2.77897E-05 4.54241E-06 1.73555E-04 9.02963E-14 6.92539E-14
 -1      1470 1.99998E+01-1.74911E-05 9.99077E-08 2.49819E-05 3.51052E-14 6.08270E-13
 -1      1471 1.99998E+01-1.29970E-05-1.85685E-06 1.58979E-05-1.73198E-14 6.10233E-13
 -1      1472 1.99997E+01-2.81613E-05 3.75146E-06 8.85470E-05 1.26019E-13 2.31480E-13
 -1      1473 1.99998E+01 1.79955E-06-4.95860E-06-8.66121E-06-3.89709E-13 4.25812E-13
 -1      1474 1.99998E+01-1.14545E-05 1.71178E-07 1.09967E-05-3.40819E-13 2.13200E-13
 -1      1475 2.21166E+01 7.15848E-02-1.72318E-01 7.78079E-01 3.01099E-13 1.97612E-12
 -1      1476 2.38634E+01 2.17272E-01-2.62135E-01 1.03528E+00 2.57572E-13 2.45776E-12
 -1      1477 2.40789E+01 1.00028E+00-8.61142E-02 2.71919E+00 5.23685E-13 1.54533E-12
 -1      1478 2.04058E+01 2.67303E-02-2.12538E-02 5.02330E-01 2.09829E-13 1.40147E-12
 -1      1479 2.12635E+01 1.02310E-01-7.26070E-02 5.39858E-01 2.03799E-13 1.76117E-12
 -1      1480 2.20031E+01 1.82537E-01-5.47251E-02 1.37443E+00 4.29622E-13 1.15049E-12
 -1      1481 1.92082E+01 2.15734E-02 3.74056E-03 3.77277E-01 1.41066E-13 1.00030E-12
 -1      1482 1.98034E+01 4.72925E-02 3.96015E-04 3.95248E-01 1.42002E-13 1.25063E-12
 -1      1483 2.05734E+01 6.60658E-02-8.32335E-03 9.08581E-01 3.21455E-13 8.41651E-13
 -1      1484 1.83588E+01 2.99629E-02-3.82679E-03 2.59742E-01 8.41688E-14 7.42002E-13
 -1      1485 1.87871E+01 4.46020E-02 9.05604E-03 2.83746E-01 9.66466E-14 8.97396E-13
 -1      1486 1.95700E+01 5.76238E-02-3.52284E-03 6.52255E-01 2.25632E-13 6.14550E-13
 -1      1487 1.78848E+01 3.79817E-02-1.30476E-02 1.05463E-01 7.55082E-14 5.29928E-13
 -1      1488 1.81161E+01 5.75030E-02 2.64001E-03 1.42933E-01 5.71834E-14 6.39040E-13
 -1      1489 1.89090E+01 7.85458E-02-9.71136E-03 3.86112E-01 1.50669E-13 4.17055E-13
 -1      1490 1.78439E+01 3.69403E-02-1.52030E-02-7.06502E-02 6.07838E-14 3.71458E-13
 -1      1491 1.78368E+01 6.49178E-02-2.31851E-03-2.48348E-02 5.03226E-14 4.50722E-13
 -1      1492 1.86080E+01 9.37568E-02-1.43247E-02 7.02818E-02 1.14152E-13 2.30483E-13
 -1      1493 1.82197E+01 2.55464E-02-9.82277E-03-2.24938E-01 6.83312E-14 1.86316E-13
 -1      1494 1.79801E+01 5.73363E-02-2.58648E-03-1.82583E-01 7.66436E-14 3.04212E-13
 -1      1495 1.86760E+01 8.49672E-02-1.43840E-02-2.46418E-01 1.43590E-13 6.14300E-14
 -1      1496 1.88950E+01 8.59995E-03-5.01829E-04-3.16997E-01 4.48879E-14 4.35971E-14
 -1      1497 1.84893E+01 3.62142E-02 5.77463E-04-2.88877E-01 5.05381E-14 1.19627E-13
 -1      1498 1.90559E+01 5.19219E-02-1.07197E-02-4.86822E-01 1.03161E-13-5.37261E-14
 -1      1499 1.96910E+01-7.12675E-03 8.19054E-03-3.31850E-01 9.59156E-14-1.55369E-13
 -1      1500 1.92216E+01 1.01252E-02 4.58376E-03-3.22281E-01 9.15172E-14 1.17233E-14
 -1      1501 1.96246E+01 8.25410E-03-5.55882E-03-5.97626E-01 1.42562E-13-1.54697E-13
 -1      1502 2.04338E+01-1.70315E-02 1.31242E-02-2.82589E-01 6.26348E-14-2.91690E-13
 -1      1503 1.99999E+01-1.17705E-02 7.26635E-03-2.88937E-01 6.60518E-14-1.95826E-13
 -1      1504 2.02350E+01-2.93843E-02-9.95805E-04-5.74700E-01 1.40327E-13-2.93616E-13
 -1      1505 2.10055E+01-2.01566E-02 1.37481E-02-1.97961E-01 2.23164E-14-3.89012E-13
 -1      1506 2.06734E+01-2.44369E-02 7.73901E-03-2.13701E-01 1.53952E-14-3.54564E-13
 -1      1507 2.07633E+01-5.07837E-02 1.89926E-03-4.55461E-01 6.83759E-14-3.34599E-13
 -1      1508 2.13593E+01-1.82131E-02 1.13427E-02-1.06827E-01 3.07402E-14-4.39265E-13
 -1      1509 2.11543E+01-2.77688E-02 6.40352E-03-1.25282E-01 2.50659E-14-4.20762E-13
 -1      1510 2.11380E+01-5.50215E-02 3.09903E-03-2.93364E-01 2.15149E-14-4.31484E-13
 -1      1511 2.15067E+01-1.37164E-02 7.71050E-03-2.87709E-02 6.79157E-14-5.37100E-13
 -1      1512 2.14207E+01-2.46061E-02 4.23108E-03-4.53041E-02 4.13745E-14-4.81958E-13
 -1      1513 2.13403E+01-4.72815E-02 3.11428E-03-1.34376E-01 7.99551E-14-5.57131E-13
 -1      1514 2.14916E+01-8.72417E-03 4.21811E-03 2.75876E-02 8.34840E-14-7.32238E-13
 -1      1515 2.14981E+01-1.83632E-02 2.10638E-03 1.51670E-02 1.02652E-13-5.49018E-13
 -1      1516 2.13900E+01-3.41594E-02 2.52928E-03-6.08396E-03 1.29484E-13-6.23031E-13
 -1      1517 2.13678E+01-4.42368E-03 1.53842E-03 6.17856E-02-5.59999E-14-7.73907E-13
 -1      1518 2.14353E+01-1.16435E-02 5.11120E-04 5.38313E-02-2.05695E-15-7.67526E-13
 -1      1519 2.13251E+01-2.06946E-02 1.76831E-03 8.18124E-02 8.86125E-14-5.34031E-13
 -1      1520 2.11843E+01-1.25934E-03-1.92901E-04 7.76970E-02-5.99032E-14-5.61862E-13
 -1      1521 2.12846E+01-5.89966E-03-4.46681E-04 7.35592E-02-8.91183E-14-7.25993E-13
 -1      1522 2.11876E+01-9.59701E-03 1.06544E-03 1.31628E-01-1.09848E-13-5.92044E-13
 -1      1523 2.09792E+01 7.78363E-04-1.12390E-03 8.05610E-02 7.60257E-14-6.46020E-13
 -1      1524 2.10908E+01-1.66077E-03-8.74237E-04 7.92355E-02 8.95582E-14-5.30553E-13
 -1      1525 2.10138E+01-1.72114E-03 5.13589E-04 1.51425E-01 3.76774E-14-5.18445E-13
 -1      1526 2.07782E+01 1.90277E-03-1.49024E-03 7.52757E-02 5.18080E-14-8.28412E-13
 -1      1527 2.08869E+01 1.09745E-03-9.48645E-04 7.57815E-02 6.96107E-14-6.91586E-13
 -1      1528 2.08310E+01 3.15146E-03 1.25112E-04 1.50555E-01 1.11342E-13-5.28689E-13
 -1      1529 2.05966E+01 2.37470E-03-1.51049E-03 6.56922E-02 2.68795E-15-8.82088E-13
 -1      1530 2.06940E+01 2.64821E-03-8.31611E-04 6.72351E-02-2.53367E-14-8.68164E-13
 -1      1531 2.06572E+01 5.67901E-03-1.23204E-04 1.37283E-01 6.41370E-14-6.10861E-13
 -1      1532 2.04414E+01 2.42684E-03-1.34868E-03 5.45036E-02-1.24541E-13-7.13221E-13
 -1      1533 2.05240E+01 3.32506E-03-6.38528E-04 5.65118E-02-9.93059E-14-7.94856E-13
 -1      1534 2.05027E+01 6.58346E-03-2.64537E-04 1.17902E-01-1.26085E-13-5.91265E-13
 -1      1535 2.03147E+01 2.23810E-03-1.11272E-03 4.34073E-02-6.11067E-14-6.32014E-13
 -1      1536 2.03815E+01 3.42903E-03-4.38292E-04 4.55072E-02-4.69336E-14-6.99039E-13
 -1      1537 2.03720E+01 6.47924E-03-3.30258E-04 9.67095E-02-1.34936E-13-4.82052E-13
 -1      1538 2.02149E+01 1.93319E-03-8.66147E-04 3.33507E-02 3.11203E-14-6.74650E-13
 -1      1539 2.02670E+01 3.19538E-03-2.64950E-04 3.53217E-02-6.98573E-15-5.99730E-13
 -1      1540 2.02657E+01 5.82406E-03-3.45904E-04 7.63468E-02-1.75719E-14-4.46427E-13
 -1      1541 2.01389E+01 1.59220E-03-6.41907E-04 2.47653E-02-2.56875E-14-6.55152E-13
 -1      1542 2.01781E+01 2.79143E-03-1.30490E-04 2.64952E-02 3.17769E-15-6.29019E-13
 -1      1543 2.01823E+01 4.92814E-03-3.30679E-04 5.82324E-02-1.11510E-15-4.34745E-13
 -1      1544 2.00830E+01 1.26227E-03-4.53807E-04 1.77564E-02-1.00808E-13-4.65580E-13
 -1      1545 2.01115E+01 2.32719E-03-3.48164E-05 1.92037E-02-8.85443E-14-6.95894E-13
 -1      1546 2.01188E+01 3.98463E-03-2.98291E-04 4.29579E-02-9.41914E-14-4.60398E-13
 -1      1547 2.00432E+01 9.67955E-04-3.04674E-04 1.22405E-02 1.55117E-13-4.96004E-13
 -1      1548 2.00632E+01 1.86944E-03 2.76795E-05 1.34067E-02 9.93433E-14-3.29545E-13
 -1      1549 2.00719E+01 3.10259E-03-2.58098E-04 3.05992E-02-1.92629E-14-4.22661E-13
 -1      1550 2.00160E+01 7.19329E-04-1.91653E-04 8.03860E-03 1.07049E-14-6.87250E-13
 -1      1551 2.00294E+01 1.45459E-03 6.43118E-05 8.94894E-03 5.07527E-14-5.57159E-13
 -1      1552 2.00385E+01 2.33492E-03-2.16179E-04 2.09410E-02 1.42741E-13-3.77011E-13
 -1      1553 1.99984E+01 5.17717E-04-1.09417E-04 4.93654E-03 7.01861E-14-7.72178E-13
 -1      1554 2.00068E+01 1.09895E-03 8.21526E-05 5.62665E-03 5.19030E-14-6.92408E-13
 -1      1555 2.00155E+01 1.69941E-03-1.76234E-04 1.36277E-02 8.38465E-14-4.82905E-13
 -1      1556 1.99877E+01 3.59642E-04-5.19950E-05 2.71976E-03 5.07695E-14-9.77163E-13
 -1      1557 1.99926E+01 8.06392E-04 8.71996E-05 3.22817E-03 2.69689E-14-9.19261E-13
 -1      1558 2.00005E+01 1.19341E-03-1.40290E-04 8.25835E-03 8.82695E-14-5.88424E-13
 -1      1559 1.99820E+01 2.39365E-04-1.37351E-05 1.19274E-03-7.73958E-15-1.10988E-12
 -1      1560 1.99844E+01 5.73620E-04 8.41485E-05 1.55617E-03-1.00065E-14-1.11837E-12
 -1      1561 1.99913E+01 8.03714E-04-1.09247E-04 4.44302E-03 4.62425E-14-8.10768E-13
 -1      1562 1.99797E+01 1.50448E-04 1.02634E-05 1.87450E-04 2.42173E-14-1.18472E-12
 -1      1563 1.99804E+01 3.93736E-04 7.64622E-05 4.38512E-04 2.17738E-14-1.10527E-12
 -1      1564 1.99862E+01 5.12656E-04-8.32805E-05 1.83164E-03 2.63970E-14-8.16994E-13
 -1      1565 1.99796E+01 8.66472E-05 2.40136E-05-4.34441E-04-3.52753E-15-1.18727E-12
 -1      1566 1.99792E+01 2.58464E-04 6.65631E-05-2.68158E-04 1.74510E-14-1.13053E-12
 -1      1567 1.99840E+01 3.01855E-04-6.21303E-05 1.26432E-04 8.57895E-15-7.01538E-13
 -1      1568 1.99808E+01 4.23705E-05 3.06668E-05-7.83044E-04-3.93747E-14-1.09254E-12
 -1      1569 1.99798E+01 1.59485E-04 5.60550E-05-6.79033E-04-2.83706E-14-1.13373E-12
 -1      1570 1.99837E+01 1.54186E-04-4.53017E-05-9.16033E-04-7.39024E-15-6.68575E-13
 -1      1571 1.99828E+01 1.28641E-05 3.26131E-05-9.43479E-04 3.22928E-14-9.29691E-13
 -1      1572 1.99815E+01 8.91610E-05 4.59309E-05-8.83920E-04-5.02627E-14-1.04373E-12
 -1      1573 1.99846E+01 5.47366E-05-3.21989E-05-1.48845E-03-1.11172E-13-6.65630E-13
 -1      1574 1.99851E+01-5.76093E-06 3.16098E-05-9.79798E-04-7.70872E-14-9.32327E-13
 -1      1575 1.99837E+01 4.08678E-05 3.67482E-05-9.50952E-04 5.60391E-14-9.20699E-13
 -1      1576 1.99861E+01-8.89667E-06-2.22099E-05-1.73910E-03 4.01776E-14-6.22870E-13
 -1      1577 1.99874E+01-1.65899E-05 2.89089E-05-9.38930E-04 5.81624E-14-1.07824E-12
 -1      1578 1.99860E+01 9.09007E-06 2.87665E-05-9.30463E-04-2.58777E-14-1.07570E-12
 -1      1579 1.99878E+01-4.66712E-05-1.47572E-05-1.77909E-03 4.55397E-14-7.68871E-13
 -1      1580 1.99896E+01-2.20061E-05 2.53731E-05-8.54289E-04-5.51605E-14-1.14439E-12
 -1      1581 1.99883E+01-1.06194E-05 2.20522E-05-8.58620E-04-2.64110E-14-1.24585E-12
 -1      1582 1.99897E+01-6.63492E-05-9.32408E-06-1.68951E-03 8.23361E-14-1.04853E-12
 -1      1583 1.99916E+01-2.38066E-05 2.15728E-05-7.48902E-04-9.86050E-14-7.86740E-13
 -1      1584 1.99905E+01-2.17522E-05 1.65536E-05-7.60616E-04-1.08925E-13-1.04433E-12
 -1      1585 1.99915E+01-7.38246E-05-5.46603E-06-1.52783E-03-1.82904E-13-8.39043E-13
 -1      1586 1.99933E+01-2.33151E-05 1.78664E-05-6.37996E-04 3.94415E-14-6.31138E-13
 -1      1587 1.99924E+01-2.69853E-05 1.21538E-05-6.53345E-04 5.52727E-14-6.17378E-13
 -1      1588 1.99931E+01-7.34623E-05-2.81142E-06-1.33342E-03-8.17105E-14-5.97460E-13
 -1      1589 1.99948E+01-2.14847E-05 1.44617E-05-5.31084E-04-5.30571E-14-5.57221E-13
 -1      1590 1.99940E+01-2.83276E-05 8.70607E-06-5.47573E-04-9.30911E-14-7.16673E-13
 -1      1591 1.99945E+01-6.84151E-05-1.05653E-06-1.13215E-03 2.33460E-14-4.39086E-13
 -1      1592 1.99960E+01-1.89869E-05 1.14646E-05-4.33577E-04-1.60691E-14-4.79206E-13
 -1      1593 1.99954E+01-2.72577E-05 6.05652E-06-4.49639E-04 3.95488E-14-4.88207E-13
 -1      1594 1.99957E+01-6.09030E-05 4.28476E-08-9.39952E-04-5.41148E-14-4.76921E-13
 -1      1595 1.99970E+01-1.62874E-05 8.91623E-06-3.48007E-04-6.30765E-14-3.20917E-13
 -1      1596 1.99965E+01-2.48477E-05 4.05815E-06-3.62751E-04-5.32217E-14-4.01766E-13
 -1      1597 1.99967E+01-5.24501E-05 6.81997E-07-7.65703E-04-9.95099E-14-1.72520E-13
 -1      1598 1.99979E+01-1.37060E-05 6.82202E-06-2.74914E-04 2.34478E-14-4.48172E-13
 -1      1599 1.99974E+01-2.18703E-05 2.57955E-06-2.87942E-04-1.52296E-15-4.15018E-13
 -1      1600 1.99975E+01-4.40794E-05 1.01905E-06-6.13272E-04-2.52613E-14-2.06891E-13
 -1      1601 1.99985E+01-1.14770E-05 5.18649E-06-2.13458E-04 7.32237E-14-7.03079E-13
 -1      1602 1.99981E+01-1.88959E-05 1.51398E-06-2.24744E-04 1.43848E-13-5.05760E-13
 -1      1603 1.99982E+01-3.64758E-05 1.18888E-06-4.83069E-04 2.34390E-13-4.63437E-13
 -1      1604 1.99990E+01-9.76041E-06 4.05289E-06-1.61793E-04-1.04225E-13-6.38533E-13
 -1      1605 1.99987E+01-1.63613E-05 8.02551E-07-1.71610E-04-1.16032E-13-8.12753E-13
 -1      1606 1.99987E+01-3.01201E-05 1.33045E-06-3.73057E-04-2.27583E-14-4.69099E-13
 -1      1607 1.99993E+01-8.69361E-06 3.52357E-06-1.17370E-04 3.25035E-14-5.99588E-13
 -1      1608 1.99991E+01-1.46249E-05 4.51309E-07-1.26250E-04 1.17650E-13-5.92280E-13
 -1      1609 1.99991E+01-2.53564E-05 1.60224E-06-2.79466E-04-6.14770E-14-4.46742E-13
 -1      1610 1.99996E+01-8.38727E-06 3.54226E-06-7.70179E-05-9.20190E-14-5.78094E-13
 -1      1611 1.99995E+01-1.40171E-05 5.05769E-07-8.58148E-05-4.29761E-14-6.18013E-13
 -1      1612 1.99994E+01-2.25530E-05 2.13882E-06-1.97317E-04 4.12746E-15-1.13009E-13
 -1      1613 1.99997E+01-8.62742E-06 3.00990E-06-3.75064E-05-5.59167E-14-3.92574E-13
 -1      1614 1.99997E+01-1.45134E-05 6.97755E-07-4.74883E-05-1.23509E-13-5.02298E-13
 -1      1615 1.99996E+01-2.20679E-05 2.65458E-06-1.21268E-04-1.41666E-13-2.21081E-13
 -1      1616 1.99998E+01-7.32841E-06-2.28464E-06-2.27685E-06 8.77920E-14-6.48528E-13
 -1      1617 1.99998E+01-1.30266E-05-2.64999E-07-1.17235E-05 1.27245E-13-4.09086E-13
 -1      1618 1.99997E+01-2.01562E-05 2.23097E-06-4.86281E-05 1.40786E-13-3.57603E-13
 -1      1619 1.99998E+01 1.82988E-06-5.01520E-06 6.88505E-06-3.73735E-13-4.25494E-13
 -1      1620 1.99998E+01-4.53725E-05 1.96860E-06-2.79645E-05-5.67578E-13-7.98013E-14
 -1      1621 1.99998E+01-2.26822E-05-1.62243E-06-1.88835E-05-5.94877E-13 3.65971E-14
 -1      1622 1.99998E+01-1.71811E-04 1.79747E-06-6.65923E-05-2.15491E-13 3.68063E-13
 -1      1623 1.99998E+01-1.01499E-04 1.38811E-06-5.92269E-05-5.94289E-13 3.04059E-14
 -1      1624 1.99998E+01-1.15644E-04 2.71066E-06-8.79284E-05-2.27246E-13 1.73658E-13
 -1      1625 1.99998E+01-3.56143E-04 9.41749E-07-9.30046E-05-2.24010E-13 1.06248E-13
 -1      1626 1.99998E+01-2.51489E-04 1.22557E-06-8.89241E-05-3.73410E-13 3.59044E-13
 -1      1627 1.99998E+01-2.51662E-04 2.84282E-06-1.52384E-04-3.36950E-13 3.83629E-13
 -1      1628 1.99998E+01-5.67608E-04 2.56036E-07-1.01750E-04 4.02311E-14-6.89999E-14
 -1      1629 1.99998E+01-4.49309E-04 6.05143E-07-1.01465E-04-9.93960E-14 2.27851E-13
 -1      1630 1.99998E+01-4.25336E-04 9.76489E-07-1.89058E-04-3.64199E-13 2.01440E-13
 -1      1631 1.99998E+01-7.67442E-04-7.77314E-08-9.31313E-05-5.92866E-13-4.37122E-13
 -1      1632 1.99998E+01-6.58454E-04 1.80962E-07-9.61199E-05-7.35046E-14-5.35257E-13
 -1      1633 1.99998E+01-6.09725E-04-9.83874E-07-1.91817E-04-2.75663E-13-4.84366E-13
 -1      1634 1.99998E+01-9.30507E-04-2.33367E-07-6.94758E-05-5.22659E-13 7.27461E-14
 -1      1635 1.99998E+01-8.45499E-04-7.45085E-08-7.51816E-05-4.32164E-13-2.24376E-13
 -1      1636 1.99998E+01-7.78519E-04-2.67366E-06-1.63037E-04-1.88725E-13-4.52562E-13
 -1      1637 1.99998E+01-1.02793E-03-2.68272E-07-3.51752E-05-2.96002E-13-7.71123E-14
 -1      1638 1.99998E+01-9.82177E-04-1.89132E-07-4.25503E-05-5.39905E-13 2.67554E-13
 -1      1639 1.99998E+01-9.07838E-04-3.89850E-06-1.08482E-04-1.15003E-13 1.39914E-13
 -1      1640 1.99998E+01-1.04533E-03-2.46732E-07 4.35380E-06 5.27077E-14 2.24332E-13
 -1      1641 1.99998E+01-1.04579E-03-2.48533E-07-3.58662E-06-2.01264E-13 1.58625E-13
 -1      1642 1.99998E+01-9.77148E-04-4.53154E-06-3.75358E-05-3.73667E-14 1.33275E-13
 -1      1643 1.99998E+01-9.80206E-04-1.78742E-07 4.32454E-05 2.55696E-13 2.38596E-14
 -1      1644 1.99998E+01-1.02681E-03-2.68540E-07 3.58965E-05 1.55258E-13 1.36795E-13
 -1      1645 1.99998E+01-9.76497E-04-4.52484E-06 3.89716E-05 1.62656E-13 2.64945E-13
 -1      1646 1.99998E+01-8.42317E-04-4.40650E-08 7.56807E-05 2.27833E-13-7.52148E-14
 -1      1647 1.99998E+01-9.27984E-04-2.48244E-07 7.00455E-05 2.96501E-13-1.45462E-14
 -1      1648 1.99998E+01-9.05982E-04-3.87128E-06 1.09708E-04 5.66922E-14 1.42026E-13
 -1      1649 1.99998E+01-6.56260E-04 1.66115E-07 9.62028E-05-4.59621E-14-3.83488E-14
 -1      1650 1.99998E+01-7.65493E-04-8.93314E-08 9.32678E-05 1.34067E-13-2.31785E-13
 -1      1651 1.99998E+01-7.77081E-04-2.68024E-06 1.63567E-04 7.22660E-14-3.03294E-13
 -1      1652 1.99998E+01-4.45335E-04 5.89114E-07 1.01414E-04-1.91353E-13-2.07162E-13
 -1      1653 1.99998E+01-5.63612E-04 2.61965E-07 1.01769E-04-1.38690E-13 9.88488E-14
 -1      1654 1.99998E+01-6.07902E-04-9.67056E-07 1.91965E-04-8.07821E-15-9.65247E-14
 -1      1655 1.99998E+01-2.47805E-04 1.36077E-06 8.86098E-05-2.11762E-13 1.03238E-13
 -1      1656 1.99998E+01-3.52295E-04 9.26355E-07 9.26300E-05-2.38386E-13-7.21888E-15
 -1      1657 1.99998E+01-4.21837E-04 1.02778E-06 1.88701E-04 1.99863E-14-2.40220E-13
 -1      1658 1.99998E+01-1.00967E-04 4.99823E-07 5.92141E-05-4.94819E-13-2.19251E-13
 -1      1659 1.99998E+01-1.69489E-04 1.88059E-06 6.68521E-05-1.90323E-13-7.31016E-14
 -1      1660 1.99998E+01-2.49491E-04 2.81385E-06 1.51311E-04-8.26287E-14-8.92340E-14
 -1      1661 1.99998E+01-3.96489E-05-2.12154E-06 3.33211E-05-4.47736E-13-2.11646E-13
 -1      1662 1.99998E+01-6.45529E-05 1.64955E-06 4.61880E-05-3.67087E-13-3.27871E-13
 -1      1663 1.99998E+01-1.37026E-04 1.09960E-06 1.08698E-04-1.65862E-13-3.41431E-13
 -1      1664 1.99997E+01-6.86359E-05-1.61212E-06 7.10275E-05-3.17910E-14-1.80329E-13
 -1      1665-2.56540E-01-1.20951E+01-1.53904E+00-2.95840E-01 1.03928E-12 7.88813E-13
 -1      1666-3.60269E-01-1.43650E+01-1.74719E+00 6.72419E-01-4.20497E-14 6.22224E-13
 -1      1667 1.60065E+00-6.28766E+00-1.15447E+00 1.04093E+00 2.27318E-12 1.48881E-12
 -1      1668 8.22241E-01-1.11225E+01-1.66252E+00 3.60819E-01 1.48037E-12 9.11344E-13
 -1      1669 7.77933E+00 7.52895E-01-4.47453E-01 5.54427E+00 2.72871E-12 2.19713E-12
 -1      1670 4.53135E+00-4.44870E+00-1.19322E+00 2.62304E+00 2.36389E-12 1.63591E-12
 -1      1671 1.95172E+01 5.22046E+00 3.50032E-01 1.03434E+01 2.39797E-12 2.59115E-12
 -1      1672 1.26092E+01 2.10330E+00-5.08193E-01 6.74127E+00 2.61191E-12 2.19558E-12
 -1      1673 3.26520E+01 6.92893E+00 1.08598E+00 1.28806E+01 1.89937E-12 2.43294E-12
 -1      1674 2.40016E+01 6.87339E+00 2.69160E-01 1.12378E+01 2.46259E-12 2.62479E-12
 -1      1675 4.57686E+01 5.27982E+00 1.61446E+00 1.07644E+01 1.07381E-12 1.37823E-12
 -1      1676 3.75207E+01 7.05708E+00 1.02580E+00 1.26255E+01 1.67655E-12 2.19624E-12
 -1      1677 5.28678E+01 3.51477E+00 1.74376E+00 3.95659E+00 6.12232E-13-2.20907E-13
 -1      1678 4.90256E+01 4.83203E+00 1.54427E+00 8.68137E+00 8.84057E-13 8.91509E-13
 -1      1679 5.12782E+01 3.78286E+00 1.49019E+00-4.11114E+00 8.94063E-13-1.83542E-12
 -1      1680 5.30850E+01 3.45168E+00 1.67788E+00 1.23283E+00 6.77486E-13-7.45268E-13
 -1      1681 4.26129E+01 5.49944E+00 1.01678E+00-1.00280E+01 1.66191E-12-3.11684E-12
 -1      1682 4.91118E+01 3.94502E+00 1.49513E+00-6.65531E+00 1.12109E-12-2.27007E-12
 -1      1683 3.04844E+01 7.02487E+00 4.12795E-01-1.18961E+01 2.60236E-12-3.76377E-12
 -1      1684 3.85985E+01 5.88611E+00 1.07872E+00-1.16736E+01 1.97020E-12-3.49609E-12
 -1      1685 1.84762E+01 5.76082E+00-2.31174E-01-9.27870E+00 3.19400E-12-3.37741E-12
 -1      1686 2.59386E+01 6.42964E+00 4.49407E-01-1.14643E+01 2.75024E-12-3.54849E-12
 -1      1687 8.38469E+00 2.98998E+00-7.43063E-01-5.71132E+00 3.58780E-12-2.78655E-12
 -1      1688 1.31343E+01 5.84709E+00-1.48499E-01-8.73758E+00 3.54727E-12-3.44891E-12
 -1      1689 3.77229E+00-2.35224E+00-9.54173E-01-2.84303E+00 2.59526E-12-1.74635E-12
 -1      1690 5.98872E+00 1.41053E+00-5.36193E-01-4.79615E+00 3.12395E-12-2.39891E-12
 -1      1691 5.26767E-01-7.34190E+00-1.26949E+00-8.98005E-01 1.55531E-12-9.51121E-13
 -1      1692 1.02027E+00-3.79612E+00-9.82235E-01-1.15054E+00 2.58749E-12-1.48635E-12
 -1      1693-3.34892E-01-9.14104E+00-1.25967E+00-1.23928E+00-4.17430E-13-8.69083E-13
 -1      1694-1.44392E-01-7.64067E+00-1.09644E+00-4.85356E-01 9.08051E-13-9.67004E-13
 -1      1695-5.61071E-01-8.83189E+00-1.43822E+00-1.38212E+00-2.14900E-12-1.20048E-12
 -1      1696-4.20194E-01-1.01944E+01-1.45524E+00-5.52781E-01-9.52571E-13-7.99361E-13
 -1      1697 2.35741E+00-4.13393E+00-1.14000E+00 1.04661E+00-3.12650E-12-2.26696E-12
 -1      1698 1.20027E+00-7.68600E+00-1.43097E+00 4.87757E-02-2.29217E-12-1.52128E-12
 -1      1699 7.88461E+00 8.93822E-01-8.22197E-01 4.63034E+00-3.85481E-12-3.44003E-12
 -1      1700 4.52451E+00-3.15530E+00-1.41603E+00 1.92618E+00-3.60845E-12-2.65094E-12
 -1      1701 2.06505E+01 3.96090E+00 2.49074E-02 9.17669E+00-3.26650E-12-3.96705E-12
 -1      1702 1.31933E+01 1.43648E+00-8.80188E-01 5.79580E+00-3.60068E-12-3.54716E-12
 -1      1703 3.55620E+01 5.08547E+00 9.84217E-01 1.12409E+01-2.46858E-12-4.02633E-12
 -1      1704 2.59222E+01 5.02527E+00-9.82544E-03 9.81869E+00-3.14537E-12-4.16867E-12
 -1      1705 4.96126E+01 3.93397E+00 1.75077E+00 8.25379E+00-1.41914E-12-2.93032E-12
 -1      1706 4.07952E+01 5.32339E+00 1.00225E+00 1.04433E+01-2.15422E-12-3.71636E-12
 -1      1707 5.65005E+01 3.52067E+00 2.06498E+00 7.84482E-01-8.82405E-13-1.06659E-12
 -1      1708 5.23321E+01 4.23415E+00 1.71368E+00 5.80292E+00-1.18927E-12-2.28939E-12
 -1      1709 5.56342E+01 4.36268E+00 2.04708E+00-6.78810E+00-9.32532E-13 7.28750E-13
 -1      1710 5.77550E+01 3.52618E+00 2.16498E+00-1.45194E+00-8.11129E-13-5.67615E-13
 -1      1711 4.57858E+01 6.15781E+00 1.42979E+00-1.14921E+01-1.65937E-12 2.22655E-12
 -1      1712 5.29284E+01 4.52607E+00 1.98915E+00-8.51710E+00-1.13157E-12 1.16240E-12
 -1      1713 3.26707E+01 7.10081E+00 6.59481E-01-1.26022E+01-2.45437E-12 3.19256E-12
 -1      1714 4.16358E+01 6.23902E+00 1.47239E+00-1.28557E+01-1.83636E-12 2.72360E-12
 -1      1715 1.95541E+01 4.61977E+00-2.19893E-01-9.24310E+00-2.89790E-12 3.05467E-12
 -1      1716 2.78119E+01 6.05268E+00 6.65711E-01-1.20789E+01-2.51288E-12 3.23341E-12
 -1      1717 8.77879E+00 4.19356E-02-9.86472E-01-4.88789E+00-3.14992E-12 2.53753E-12
 -1      1718 1.40205E+01 3.95891E+00-1.76527E-01-8.43321E+00-3.10640E-12 3.12927E-12
 -1      1719 3.26223E+00-6.77177E+00-1.46846E+00-1.40613E+00-2.63956E-12 1.63602E-12
 -1      1720 5.53891E+00-1.80688E+00-8.57208E-01-3.61504E+00-3.01847E-12 2.27451E-12
 -1      1721 4.78496E-01-1.24831E+01-1.75886E+00 4.97273E-02-1.74105E-12 9.44161E-13
 -1      1722 9.80555E-01-8.34676E+00-1.38152E+00-2.11690E-01-2.46780E-12 1.43985E-12
 -1      1723-4.95580E-01-1.47112E+01-1.78565E+00-1.64709E-01-4.15272E-13 6.37879E-13
 -1      1724-5.13741E-01-1.33843E+01-1.69677E+00 9.70544E-01-1.40715E-12 8.24119E-13
 -1      1725 2.54639E+01 1.49511E+00 2.87101E-01 7.52437E+00 1.38373E-12 1.19527E-12
 -1      1726 1.56993E+01-2.16293E+00-1.73002E-01 7.16745E+00 1.16973E-12 1.32816E-12
 -1      1727 1.99998E+01-2.49234E-06-9.39483E-07-1.69813E-07-4.71721E-13-2.82258E-13
 -1      1728 1.99998E+01-4.36353E-05-3.39983E-07-3.17414E-05 2.34808E-15-1.96311E-13
 -1      1729 9.70542E-01-8.36451E+00-1.12315E+00 2.81083E+00 4.71012E-13 1.29169E-12
 -1      1730 6.50080E+00-5.51661E+00-7.30770E-01 5.26194E+00 9.78106E-13 1.46767E-12
 -1      1731-9.62431E-01-9.37438E+00-1.21914E+00 5.17405E-01-1.51115E-13 1.23285E-12
 -1      1732 3.50476E+01 5.03303E+00 8.95011E-01 7.45102E+00 1.48079E-12 9.41247E-13
 -1      1733 4.27964E+01 6.73237E+00 1.36205E+00 5.36439E+00 1.31284E-12 2.98761E-13
 -1      1734 4.59487E+01 7.18267E+00 1.46315E+00 1.73290E+00 1.20653E-12-5.36682E-13
 -1      1735 4.41080E+01 6.92028E+00 1.30191E+00-2.22409E+00 1.41620E-12-1.27925E-12
 -1      1736 3.86226E+01 5.76339E+00 9.71163E-01-5.72434E+00 1.71614E-12-1.94234E-12
 -1      1737 2.98639E+01 3.94066E+00 4.21654E-01-7.15076E+00 1.89954E-12-2.14939E-12
 -1      1738 2.02755E+01 2.18806E+00 3.15382E-02-7.57644E+00 2.03454E-12-2.18525E-12
 -1      1739 1.13173E+01-1.47935E-01-3.94570E-01-6.54585E+00 1.69420E-12-1.99701E-12
 -1      1740 4.82192E+00-2.35172E+00-5.74589E-01-4.84005E+00 1.24079E-12-1.70287E-12
 -1      1741 4.60553E-01-4.24229E+00-8.01488E-01-2.59960E+00 4.28158E-13-1.58090E-12
 -1      1742-8.02179E-01-5.22304E+00-9.20475E-01-8.00623E-01-4.24827E-13-1.58074E-12
 -1      1743 1.43469E+00-5.15830E+00-9.35090E-01 1.81566E+00-1.24623E-12-1.77969E-12
 -1      1744 6.92662E+00-3.93478E+00-8.50994E-01 3.95704E+00-1.74238E-12-2.11347E-12
 -1      1745 1.60683E+01-2.05058E+00-4.73001E-01 5.60761E+00-2.16471E-12-2.39697E-12
 -1      1746 2.72109E+01 4.65315E-01 1.11464E-01 5.87389E+00-2.09116E-12-2.41762E-12
 -1      1747 3.80811E+01 3.55184E+00 8.98715E-01 5.13121E+00-1.96354E-12-2.20579E-12
 -1      1748 4.55506E+01 6.11078E+00 1.46855E+00 2.25337E+00-1.65595E-12-1.36879E-12
 -1      1749 4.88526E+01 7.42432E+00 1.71846E+00-9.26333E-01-1.52078E-12-5.22360E-13
 -1      1750 4.76246E+01 7.07532E+00 1.65436E+00-3.72544E+00-1.58984E-12 3.59823E-13
 -1      1751 4.15393E+01 5.62533E+00 1.24993E+00-6.23509E+00-1.73523E-12 1.11899E-12
 -1      1752 3.25155E+01 2.79697E+00 6.00584E-01-7.32151E+00-1.69348E-12 1.64191E-12
 -1      1753 2.21857E+01-2.52694E-01 2.92233E-02-7.46363E+00-1.67266E-12 1.86373E-12
 -1      1754 1.21299E+01-3.63689E+00-5.92652E-01-6.19944E+00-1.61382E-12 1.79945E-12
 -1      1755 4.93481E+00-6.82482E+00-9.67116E-01-4.27960E+00-1.30174E-12 1.48390E-12
 -1      1756 3.57781E-01-8.98455E+00-1.20679E+00-1.93785E+00-8.08520E-13 1.30196E-12
 -1      1757 3.29851E+01 2.14693E+00 2.01412E-02-2.37596E+00-2.69489E-13 2.11631E-12
 -1      1758 2.06597E+01 2.71296E+00-4.62277E-02-3.33826E-01-1.00059E-13-1.47521E-13
 -1      1759 2.31054E+01 2.71639E+00-2.37771E-02-9.37353E-01-1.91791E-13 8.19761E-14
 -1      1760 2.53786E+01 2.47736E+00-5.36390E-02-1.58014E+00-2.45637E-13 3.78898E-13
 -1      1761 2.73727E+01 2.33140E+00-1.72740E-01-2.17978E+00-3.34135E-13 7.12555E-13
 -1      1762 2.47367E+01 1.36129E+00-3.56859E-02-1.11911E+00-1.92941E-13 3.09516E-13
 -1      1763 1.07525E+01 4.32791E+00-3.17979E-02 2.92758E-01-5.97092E-14-8.88706E-13
 -1      1764 1.29222E+01 4.18609E+00 7.94938E-02 5.38711E-01-1.77566E-14-7.76434E-13
 -1      1765 8.56148E+00 4.90076E+00 2.27632E-02-1.15165E+00-2.61429E-13-1.06085E-12
 -1      1766 9.24170E+00 4.90261E+00 5.53700E-02-5.36014E-01-1.63584E-13-1.01363E-12
 -1      1767 9.60387E+00 4.38784E+00 7.27734E-02 1.86696E-01-1.02328E-13-1.05363E-12
 -1      1768 9.80358E+00 4.51714E+00 7.32600E-02-2.66818E+00-4.77975E-13-1.03589E-12
 -1      1769 8.78786E+00 4.70403E+00 1.34359E-03-2.18538E+00-3.86646E-13-1.05481E-12
 -1      1770 8.19813E+00 4.75211E+00 1.05598E-01-1.79854E+00-3.55579E-13-1.19320E-12
 -1      1771 1.33519E+01 3.51463E+00 7.68902E-02-3.16054E+00-5.73507E-13-8.82376E-13
 -1      1772 1.14064E+01 3.74704E+00-3.54891E-02-3.14524E+00-5.47437E-13-9.33909E-13
 -1      1773 1.03668E+01 3.85013E+00 5.65400E-02-3.37695E+00-5.75255E-13-1.07657E-12
 -1      1774 1.72793E+01 2.66933E+00 4.19849E-02-2.40590E+00-4.97959E-13-7.22929E-13
 -1      1775 1.53750E+01 2.78765E+00-3.20723E-02-2.84315E+00-5.43593E-13-7.59098E-13
 -1      1776 1.45324E+01 2.49734E+00-1.17648E-02-3.42915E+00-6.25111E-13-8.34048E-13
 -1      1777 2.01475E+01 2.44761E+00-2.28557E-03-9.87447E-01-3.11164E-13-6.33001E-13
 -1      1778 1.88679E+01 2.39669E+00-1.50040E-02-1.62338E+00-4.02851E-13-6.50882E-13
 -1      1779 1.85438E+01 1.68691E+00-3.58946E-02-2.15657E+00-4.94407E-13-6.26228E-13
 -1      1780 2.17219E+01 2.72078E+00-3.08731E-02 4.69428E-01-7.30570E-14-6.16375E-13
 -1      1781 2.10769E+01 2.56227E+00-9.54797E-03-1.61756E-01-1.88544E-13-6.03063E-13
 -1      1782 2.11877E+01 1.66587E+00-2.77552E-02-4.67512E-01-2.64079E-13-5.37282E-13
 -1      1783 2.23619E+01 3.15152E+00-4.41844E-02 1.68431E+00 1.51133E-13-5.96079E-13
 -1      1784 2.21310E+01 2.98001E+00-1.60203E-02 1.13785E+00 4.08137E-14-6.06425E-13
 -1      1785 2.24680E+01 2.08369E+00-1.48114E-02 1.00270E+00-1.32934E-15-5.17367E-13
 -1      1786 2.25397E+01 3.46482E+00-5.27592E-02 2.63888E+00 3.64474E-13-5.05845E-13
 -1      1787 2.24861E+01 3.35708E+00-2.76076E-02 2.17395E+00 2.50720E-13-5.65960E-13
 -1      1788 2.28864E+01 2.53147E+00-8.38535E-03 2.09084E+00 2.26750E-13-4.84134E-13
 -1      1789 2.26735E+01 3.46640E+00-7.32867E-02 3.37864E+00 5.37003E-13-2.41855E-13
 -1      1790 2.25846E+01 3.49906E+00-4.48883E-02 2.97857E+00 4.32699E-13-4.00759E-13
 -1      1791 2.29581E+01 2.74571E+00-4.15035E-03 2.85547E+00 4.31354E-13-3.63192E-13
 -1      1792 2.33151E+01 2.84616E+00-8.18349E-02 3.81760E+00 6.32989E-13 3.34011E-13
 -1      1793 2.28893E+01 3.20690E+00-5.85646E-02 3.55174E+00 5.79264E-13-2.38212E-14
 -1      1794 2.31311E+01 2.50397E+00 5.07821E-03 3.28565E+00 5.82629E-13-6.68111E-14
 -1      1795 2.41167E+01 1.30696E+00-1.48867E-01 3.11679E+00 5.82617E-13 1.12654E-12
 -1      1796 2.36461E+01 2.46673E+00 1.28246E-04 3.64193E+00 6.02551E-13 6.09041E-13
 -1      1797 2.32462E+01 1.71439E+00-3.31771E-02 3.10755E+00 6.57776E-13 3.57797E-13
 -1      1798 2.30587E+01 8.01205E-01-7.79452E-02 2.27266E+00 5.81729E-13 9.52034E-13
 -1      1799 3.04822E+01 2.44746E+00 1.13271E-01-2.65504E+00-3.25750E-13 1.26422E-12
 -1      1800 2.16676E+01 2.67731E-01-1.09909E-02 1.44392E+00 4.50567E-13 7.15856E-13
 -1      1801 2.25490E+01 4.09818E-01-1.99635E-02 1.79610E+00 4.90739E-13 8.85946E-13
 -1      1802 2.27781E+01 8.38771E-01 5.52022E-03 2.33939E+00 5.63431E-13 5.59164E-13
 -1      1803 2.96240E+01 1.13056E+00 9.84916E-02-1.98364E+00-2.86920E-13 1.08846E-12
 -1      1804 2.94487E+01-6.40482E-01 5.54828E-02-1.74707E+00-1.79634E-13 1.21099E-12
 -1      1805 2.86258E+01-9.05822E-01-4.47349E-02-2.11038E+00-1.93488E-13 1.15272E-12
 -1      1806 2.87817E+01-9.17008E-01 1.36900E-02-2.69067E+00-2.06614E-13 1.20519E-12
 -1      1807 2.79331E+01-6.76341E-01-1.89496E-02-3.10447E+00-3.03162E-13 1.13223E-12
 -1      1808 2.86352E+01-1.27415E+00-1.64849E-02-2.68423E+00-2.30455E-13 9.45635E-13
 -1      1809 2.77661E+01-1.41936E-01-5.17814E-02-3.45806E+00-4.15157E-13 1.10630E-12
 -1      1810 2.68733E+01 6.48593E-01-5.47170E-03-3.31082E+00-5.09148E-13 9.58012E-13
 -1      1811 2.87130E+01-5.47332E-01-2.88117E-02-3.76101E+00-4.18592E-13 9.67219E-13
 -1      1812 2.63563E+01 1.43220E+00-1.05760E-01-2.63152E+00-5.94566E-13 7.74859E-13
 -1      1813 2.58101E+01 2.03752E+00-4.42381E-02-1.66589E+00-6.39530E-13 5.43966E-13
 -1      1814 2.81407E+01 1.63278E+00-7.27020E-02-3.59826E+00-7.11126E-13 7.54945E-13
 -1      1815 2.55509E+01 2.23459E+00-6.59975E-02-1.98287E-01-7.06241E-13 2.26300E-13
 -1      1816 2.55756E+01 1.92604E+00-9.78469E-02 9.73711E-01-6.97720E-13-5.58303E-14
 -1      1817 2.74652E+01 3.09594E+00-1.25769E-01-1.17868E+00-9.13991E-13 2.10837E-13
 -1      1818 2.57748E+01 1.23603E+00-1.59358E-02 2.02179E+00-6.14842E-13-3.01976E-13
 -1      1819 2.62257E+01 3.89078E-01-9.11057E-02 2.47670E+00-4.22579E-13-4.62467E-13
 -1      1820 2.73743E+01 2.31149E+00-1.05196E-01 1.72229E+00-8.31557E-13-4.31197E-13
 -1      1821 2.62820E+01-3.43313E-01-1.24115E-02 2.40182E+00-2.49002E-13-4.64464E-13
 -1      1822 2.67436E+01-8.80892E-01-3.65615E-02 2.06704E+00-1.03235E-13-4.91012E-13
 -1      1823 2.75339E+01 7.72737E-02-4.09928E-02 2.68488E+00-3.78725E-13-6.71324E-13
 -1      1824 2.63516E+01-1.10904E+00-3.41395E-02 1.35182E+00-1.31353E-14-4.07979E-13
 -1      1825 2.65493E+01-1.13512E+00 3.02839E-03 7.36579E-01 5.71470E-14-3.87679E-13
 -1      1826 2.70682E+01-1.42944E+00-1.14225E-02 1.68353E+00-3.48584E-14-5.95331E-13
 -1      1827 2.59399E+01-1.00868E+00-4.12589E-02 4.12301E-02 8.78811E-15-3.06595E-13
 -1      1828 2.58333E+01-7.92313E-01 1.31194E-02-4.60367E-01 2.16042E-14-3.19619E-13
 -1      1829 2.60149E+01-1.58733E+00-1.17702E-02 1.30023E-01 3.18755E-14-4.11490E-13
 -1      1830 2.52498E+01-5.78520E-01-3.13399E-02-8.73104E-01 2.24612E-14-2.64461E-13
 -1      1831 2.49246E+01-3.58479E-01 8.14412E-03-1.14037E+00 1.12423E-13-2.46259E-13
 -1      1832 2.48504E+01-1.04616E+00-1.76606E-02-1.02673E+00 6.75970E-14-2.75413E-13
 -1      1833 2.44580E+01-1.96820E-01-1.56231E-02-1.29001E+00 5.39048E-14-2.39315E-13
 -1      1834 2.40304E+01-5.64935E-02 3.63342E-03-1.36640E+00 1.16348E-14-2.78133E-13
 -1      1835 2.38519E+01-4.39405E-01-1.45391E-02-1.58775E+00 4.98620E-14-2.20424E-13
 -1      1836 2.36689E+01 3.23093E-02-2.81747E-03-1.35355E+00-2.76461E-15-2.75266E-13
 -1      1837 2.32267E+01 9.89525E-02 1.51548E-03-1.31911E+00 9.06398E-15-2.19748E-13
 -1      1838 2.30594E+01-3.59843E-02-9.93925E-03-1.70775E+00-9.84521E-15-2.63838E-13
 -1      1839 2.29418E+01 1.35340E-01 4.93158E-03-1.22832E+00 1.57071E-14-1.95802E-13
 -1      1840 2.25367E+01 1.55641E-01 1.19203E-03-1.14606E+00 1.90058E-14-1.09637E-13
 -1      1841 2.24285E+01 1.65433E-01-6.57465E-03-1.58098E+00 1.70262E-14-1.63909E-13
 -1      1842 2.23071E+01 1.62790E-01 8.46044E-03-1.03039E+00-6.87328E-14-1.01948E-13
 -1      1843 2.19618E+01 1.59734E-01 1.46871E-03-9.37486E-01-1.04042E-13-1.05998E-13
 -1      1844 2.19173E+01 2.34180E-01-4.53945E-03-1.34943E+00-3.45340E-14-8.95540E-15
 -1      1845 2.17749E+01 1.53533E-01 9.22166E-03-8.24469E-01-1.31369E-13-1.42910E-13
 -1      1846 2.14939E+01 1.41199E-01 1.71467E-03-7.38696E-01-6.79964E-14-1.02040E-13
 -1      1847 2.14990E+01 2.33581E-01-3.43809E-03-1.09640E+00-1.10736E-13-4.18971E-14
 -1      1848 2.13424E+01 1.30451E-01 8.52012E-03-6.39976E-01-2.84659E-14-1.58959E-13
 -1      1849 2.11208E+01 1.16056E-01 1.77818E-03-5.67756E-01-7.24421E-14-2.14320E-13
 -1      1850 2.11575E+01 2.03946E-01-2.82512E-03-8.62687E-01-1.04845E-13-1.07980E-13
 -1      1851 2.09991E+01 1.04937E-01 7.23251E-03-4.86496E-01-1.19334E-13-2.04513E-13
 -1      1852 2.08283E+01 9.16229E-02 1.68576E-03-4.28639E-01-7.75948E-14-2.65596E-13
 -1      1853 2.08815E+01 1.66544E-01-2.41220E-03-6.63825E-01-1.19881E-13-1.14993E-13
 -1      1854 2.07319E+01 8.17933E-02 5.84310E-03-3.64050E-01-7.69586E-14-2.67925E-13
 -1      1855 2.06025E+01 7.06114E-02 1.50305E-03-3.19036E-01 8.87485E-15-3.35203E-13
 -1      1856 2.06613E+01 1.30963E-01-2.06912E-03-5.02324E-01-5.73382E-14-1.84803E-13
 -1      1857 2.05272E+01 6.25210E-02 4.57656E-03-2.68823E-01 8.45324E-14-2.63998E-13
 -1      1858 2.04306E+01 5.35777E-02 1.28478E-03-2.34442E-01 1.14330E-13-2.68112E-13
 -1      1859 2.04883E+01 1.00650E-01-1.75346E-03-3.74880E-01 6.00354E-14-7.11635E-14
 -1      1860 2.03726E+01 4.71619E-02 3.51138E-03-1.95994E-01 1.17923E-13-2.46405E-13
 -1      1861 2.03014E+01 4.01989E-02 1.06554E-03-1.70067E-01 7.67145E-14-1.67625E-13
 -1      1862 2.03543E+01 7.61975E-02-1.45976E-03-2.76204E-01 1.06005E-13-2.35838E-14
 -1      1863 2.02575E+01 3.52147E-02 2.65446E-03-1.40967E-01 3.04873E-14-1.43925E-14
 -1      1864 2.02057E+01 2.98775E-02 8.63749E-04-1.21613E-01 4.35413E-14-3.25502E-14
 -1      1865 2.02520E+01 5.70491E-02-1.19298E-03-2.00839E-01 1.24541E-13-3.43768E-15
 -1      1866 2.01729E+01 2.60519E-02 1.98295E-03-9.98078E-02 3.38347E-15 1.28556E-14
 -1      1867 2.01358E+01 2.20005E-02 6.87335E-04-8.54968E-02 1.77697E-14 1.77876E-14
 -1      1868 2.01750E+01 4.23077E-02-9.57949E-04-1.43911E-01 6.74362E-14 9.71428E-14
 -1      1869 2.01117E+01 1.90868E-02 1.46534E-03-6.93191E-02 2.33328E-14-1.21299E-14
 -1      1870 2.00857E+01 1.60330E-02 5.38255E-04-5.88425E-02 4.99430E-14-1.96967E-14
 -1      1871 2.01180E+01 3.10770E-02-7.56647E-04-1.01341E-01 5.18715E-14 1.48375E-13
 -1      1872 2.00682E+01 1.38275E-02 1.07080E-03-4.69703E-02-6.08346E-15-5.39336E-14
 -1      1873 2.00503E+01 1.15403E-02 4.15301E-04-3.93898E-02-5.90588E-14-8.20017E-14
 -1      1874 2.00764E+01 2.25834E-02-5.88342E-04-6.98383E-02-7.52333E-15-2.55022E-14
 -1      1875 2.00380E+01 9.88105E-03 7.72685E-04-3.07872E-02-1.72635E-14-8.89968E-14
 -1      1876 2.00261E+01 8.17970E-03 3.15794E-04-2.53801E-02 1.69022E-14-7.35797E-14
 -1      1877 2.00468E+01 1.62005E-02-4.50492E-04-4.67960E-02-8.18850E-14 1.89763E-14
 -1      1878 2.00176E+01 6.94031E-03 5.49232E-04-1.92416E-02-4.46276E-14-7.15204E-14
 -1      1879 2.00099E+01 5.68535E-03 2.36535E-04-1.54533E-02-5.32585E-14-1.49101E-13
 -1      1880 2.00260E+01 1.14361E-02-3.39588E-04-3.01719E-02 1.44479E-14 5.63900E-14
 -1      1881 2.00042E+01 4.76768E-03 3.83157E-04-1.11563E-02 4.26675E-14-1.67914E-13
 -1      1882 1.99996E+01 3.85165E-03 1.74305E-04-8.56294E-03 1.74037E-13-1.36659E-13
 -1      1883 2.00120E+01 7.90831E-03-2.51787E-04-1.83770E-02-1.75668E-16-1.55854E-14
 -1      1884 1.99960E+01 3.17965E-03 2.60933E-04-5.62792E-03 2.35144E-13-8.49676E-14
 -1      1885 1.99935E+01 2.51983E-03 1.26118E-04-3.90687E-03 1.65679E-13-2.25243E-14
 -1      1886 2.00028E+01 5.32223E-03-1.83321E-04-1.01821E-02 2.15262E-13-3.78286E-14
 -1      1887 1.99913E+01 2.03452E-03 1.72041E-04-1.96689E-03-4.56050E-14-7.32384E-14
 -1      1888 1.99902E+01 1.56720E-03 8.93247E-05-8.73602E-04-1.05949E-13-1.22858E-13
 -1      1889 1.99971E+01 3.45029E-03-1.30720E-04-4.64103E-03 4.92380E-14-3.81951E-14
 -1      1890 1.99890E+01 1.22279E-03 1.08330E-04 3.50467E-04-6.02042E-14-4.15396E-14
 -1      1891 1.99888E+01 8.98939E-04 6.16434E-05 9.99933E-04-2.62087E-14-3.77838E-15
 -1      1892 1.99938E+01 2.11676E-03-9.09199E-05-1.02993E-03-7.35501E-14-6.57104E-14
 -1      1893 1.99884E+01 6.59926E-04 6.34988E-05 1.71862E-03-1.27026E-13 2.59646E-14
 -1      1894 1.99887E+01 4.41849E-04 4.11518E-05 2.06143E-03-1.85574E-13-4.39061E-14
 -1      1895 1.99923E+01 1.18599E-03-6.12903E-05 1.20068E-03-5.69483E-14 4.04289E-14
 -1      1896 1.99887E+01 2.80777E-04 3.26880E-05 2.43191E-03-7.66626E-14-9.85145E-14
 -1      1897 1.99894E+01 1.39643E-04 2.62571E-05 2.56916E-03 1.61440E-13 4.96801E-14
 -1      1898 1.99918E+01 5.53450E-04-3.96236E-05 2.46415E-03-1.13868E-13-5.76926E-14
 -1      1899 1.99896E+01 3.53944E-05 1.21669E-05 2.70727E-03 9.95888E-14-4.49274E-14
 -1      1900 1.99904E+01-5.07169E-05 1.56590E-05 2.71242E-03 4.23579E-14-1.46538E-13
 -1      1901 1.99921E+01 1.38904E-04-2.41010E-05 3.06793E-03 5.61805E-14-1.31028E-13
 -1      1902 1.99908E+01-1.14269E-04-9.13521E-07 2.70225E-03-7.08918E-14-3.00343E-13
 -1      1903 1.99917E+01-1.61877E-04 8.31101E-06 2.62771E-03-3.54066E-13-3.52302E-13
 -1      1904 1.99927E+01-1.18865E-04-1.32481E-05 3.23755E-03-1.12414E-13-3.18920E-13
 -1      1905 1.99921E+01-1.96925E-04-8.71196E-06 2.52913E-03-4.42806E-13-2.43141E-13
 -1      1906 1.99930E+01-2.18340E-04 3.38098E-06 2.41147E-03-2.70768E-13-2.10236E-13
 -1      1907 1.99936E+01-2.66168E-04-5.88717E-06 3.13568E-03-2.55370E-13-1.90662E-13
 -1      1908 1.99934E+01-2.33998E-04-1.28482E-05 2.26607E-03-6.48777E-15-9.92723E-14
 -1      1909 1.99942E+01-2.38272E-04 2.15672E-07 2.13004E-03 1.24006E-13-2.58890E-15
 -1      1910 1.99945E+01-3.37665E-04-1.09135E-06 2.87727E-03-2.82001E-14 9.55752E-14
 -1      1911 1.99946E+01-2.41255E-04-1.45228E-05 1.96585E-03 1.55950E-13-1.49609E-14
 -1      1912 1.99953E+01-2.34939E-04-1.69206E-06 1.82751E-03 1.71604E-13-1.93790E-13
 -1      1913 1.99954E+01-3.58969E-04 1.85879E-06 2.54138E-03 9.29077E-14 2.30797E-13
 -1      1914 1.99957E+01-2.30123E-04-1.46130E-05 1.66256E-03 2.14342E-13-9.73820E-14
 -1      1915 1.99962E+01-2.17876E-04-2.73218E-06 1.53170E-03 8.04098E-14-1.43243E-13
 -1      1916 1.99962E+01-3.48721E-04 3.51351E-06 2.18049E-03 1.61928E-13 1.18024E-13
 -1      1917 1.99966E+01-2.08740E-04-1.37481E-05 1.37682E-03 7.39085E-15-7.80633E-14
 -1      1918 1.99971E+01-1.93818E-04-3.20285E-06 1.25877E-03 9.87728E-14 2.74461E-14
 -1      1919 1.99969E+01-3.20270E-04 4.28706E-06 1.82766E-03 1.50414E-13 1.86975E-13
 -1      1920 1.99973E+01-1.82812E-04-1.23697E-05 1.11967E-03 3.74927E-14 1.57749E-13
 -1      1921 1.99977E+01-1.67458E-04-3.33180E-06 1.01663E-03 8.78085E-15 2.32976E-13
 -1      1922 1.99976E+01-2.83019E-04 4.48526E-06 1.50201E-03 1.15824E-13 3.81498E-13
 -1      1923 1.99980E+01-1.56294E-04-1.07774E-05 8.95421E-04 1.76253E-13 1.99942E-13
 -1      1924 1.99983E+01-1.42051E-04-3.28946E-06 8.07410E-04 3.10893E-13 2.15120E-13
 -1      1925 1.99981E+01-2.43510E-04 4.32879E-06 1.21279E-03 9.69713E-14 4.84411E-13
 -1      1926 1.99985E+01-1.31936E-04-9.15846E-06 7.03729E-04 2.48143E-13 2.29009E-13
 -1      1927 1.99987E+01-1.19890E-04-3.19460E-06 6.29255E-04 2.87074E-13 3.78504E-13
 -1      1928 1.99986E+01-2.06283E-04 3.97568E-06 9.62338E-04 1.59128E-13 5.08999E-13
 -1      1929 1.99989E+01-1.11709E-04-7.60721E-06 5.41033E-04 1.95959E-13 2.80162E-13
 -1      1930 1.99991E+01-1.02642E-04-3.10334E-06 4.77526E-04 9.83938E-14 3.17322E-13
 -1      1931 1.99989E+01-1.74556E-04 3.53001E-06 7.48291E-04 2.44495E-13 2.55203E-13
 -1      1932 1.99992E+01-9.70180E-05-6.14019E-06 4.01613E-04-4.09951E-14 2.34423E-13
 -1      1933 1.99994E+01-9.14067E-05-3.03579E-06 3.45855E-04-5.22438E-14 1.26656E-13
 -1      1934 1.99992E+01-1.50576E-04 3.04263E-06 5.65130E-04-3.01345E-14 1.81629E-13
 -1      1935 1.99995E+01-8.81818E-05-4.62128E-06 2.78579E-04 6.32812E-15 6.39944E-15
 -1      1936 1.99996E+01-8.53014E-05-2.82197E-06 2.27482E-04 1.39215E-13 7.35285E-14
 -1      1937 1.99994E+01-1.35574E-04 2.45163E-06 4.05913E-04-4.23806E-14 8.21176E-14
 -1      1938 1.99996E+01-8.15429E-05-3.52974E-06 1.69843E-04 1.37745E-13 4.30329E-14
 -1      1939 1.99997E+01-7.78779E-05-2.79591E-06 1.24081E-04 1.16453E-13 4.06949E-14
 -1      1940 1.99997E+01-1.04179E-04 1.99554E-06 1.48755E-04-9.56886E-14-6.93336E-14
 -1      1941 1.99996E+01-1.22299E-04 3.01623E-06 2.67329E-04 4.23627E-14 4.09940E-14
 -1      1942 2.05917E+01 1.68545E-01 1.14541E-02 1.06017E+00 3.19834E-13 5.25153E-13
 -1      1943 2.11971E+01 1.96970E-01 1.68993E-02 1.22225E+00 3.59643E-13 6.44734E-13
 -1      1944 2.16471E+01 3.44081E-01 2.41992E-03 1.63396E+00 4.45401E-13 4.29316E-13
 -1      1945 1.97903E+01 1.94448E-01 1.08779E-02 7.30283E-01 2.42609E-13 3.68310E-13
 -1      1946 2.02065E+01 1.83088E-01 1.80694E-02 8.74325E-01 2.62289E-13 4.65860E-13
 -1      1947 2.07299E+01 2.64190E-01-1.34337E-03 1.18000E+00 3.30454E-13 2.80997E-13
 -1      1948 1.92921E+01 2.39673E-01 6.70689E-03 3.35999E-01 1.77286E-13 2.03711E-13
 -1      1949 1.95368E+01 2.29782E-01 1.50558E-02 5.13798E-01 2.09263E-13 3.09049E-13
 -1      1950 2.00733E+01 3.09843E-01-6.70918E-03 7.25366E-01 2.58659E-13 1.56863E-13
 -1      1951 1.91315E+01 2.41715E-01 3.05206E-03-1.01782E-01 1.78913E-13 8.59295E-15
 -1      1952 1.91969E+01 2.56026E-01 1.32164E-02 9.69582E-02 1.71033E-13 1.24172E-13
 -1      1953 1.97115E+01 3.49327E-01-9.35567E-03 2.05463E-01 2.39513E-13 4.13829E-15
 -1      1954 1.92956E+01 1.81452E-01 1.23844E-03-4.87322E-01 1.51958E-13-6.18073E-14
 -1      1955 1.91904E+01 2.21792E-01 1.11394E-02-3.12157E-01 1.53147E-13-4.96946E-14
 -1      1956 1.96593E+01 3.15546E-01-8.41642E-03-3.12585E-01 2.09150E-13-1.45977E-13
 -1      1957 1.96985E+01 8.02995E-02 1.44680E-03-7.25660E-01 1.30091E-13-1.86889E-13
 -1      1958 1.94644E+01 1.32050E-01 7.62217E-03-6.15936E-01 1.51894E-13-1.12198E-13
 -1      1959 1.98700E+01 2.03614E-01-4.98577E-03-7.10097E-01 1.88368E-13-1.80091E-13
 -1      1960 2.02066E+01-2.17780E-02 2.79083E-03-7.78466E-01 1.78451E-13-3.05897E-13
 -1      1961 1.99101E+01 2.25998E-02 3.06915E-03-7.49965E-01 1.57735E-13-2.36389E-13
 -1      1962 2.02375E+01 5.46195E-02-1.34303E-03-9.01724E-01 2.00156E-13-3.02182E-13
 -1      1963 2.06886E+01-9.29361E-02 3.88937E-03-6.73683E-01 1.03915E-13-3.79633E-13
 -1      1964 2.03988E+01-6.76521E-02-1.28917E-03-7.13554E-01 1.44691E-13-3.10620E-13
 -1      1965 2.06378E+01-7.78887E-02 8.33861E-04-8.79238E-01 1.67112E-13-3.68199E-13
 -1      1966 2.10560E+01-1.22437E-01 4.01838E-03-4.78198E-01 3.74293E-14-4.02959E-13
 -1      1967 2.08240E+01-1.17430E-01-4.37031E-03-5.57521E-01 7.74771E-14-3.74132E-13
 -1      1968 2.09727E+01-1.58899E-01 1.27605E-03-7.00934E-01 8.52885E-14-3.87819E-13
 -1      1969 2.12736E+01-1.17641E-01 3.25113E-03-2.61224E-01 2.83046E-14-4.63895E-13
 -1      1970 2.11237E+01-1.26950E-01-5.74985E-03-3.50617E-01 4.79625E-14-4.07063E-13
 -1      1971 2.11916E+01-1.82393E-01 7.80213E-04-4.51207E-01 6.26014E-14-4.33726E-13
 -1      1972 2.13482E+01-9.32581E-02 2.09605E-03-7.12874E-02 1.85530E-13-5.88541E-13
 -1      1973 2.12811E+01-1.09161E-01-5.65637E-03-1.50231E-01 1.00094E-13-4.93145E-13
 -1      1974 2.12863E+01-1.63220E-01 1.54737E-04-2.02952E-01 1.40215E-13-4.90822E-13
 -1      1975 2.13099E+01-6.27367E-02 1.00703E-03 6.87951E-02 5.54786E-14-5.13211E-13
 -1      1976 2.13113E+01-7.92066E-02-4.63312E-03 1.00587E-02 9.37059E-14-5.37831E-13
 -1      1977 2.12752E+01-1.22586E-01-2.36305E-04-4.28174E-04 1.16546E-13-4.68440E-13
 -1      1978 2.11957E+01-3.46777E-02 2.14663E-04 1.56008E-01-2.75825E-14-4.29438E-13
 -1      1979 2.12452E+01-4.83702E-02-3.23560E-03 1.18978E-01 5.86157E-14-4.32910E-13
 -1      1980 2.11879E+01-7.78730E-02-3.84769E-04 1.40002E-01 2.48252E-14-4.12186E-13
 -1      1981 2.10396E+01-1.29453E-02-2.43340E-04 1.98395E-01-1.07938E-13-4.95060E-13
 -1      1982 2.11172E+01-2.27230E-02-1.86301E-03 1.79928E-01-9.27901E-14-4.57672E-13
 -1      1983 2.10540E+01-3.92593E-02-3.96784E-04 2.20880E-01-5.26144E-14-3.64428E-13
 -1      1984 2.08684E+01 1.79098E-03-4.33738E-04 2.07968E-01 1.14907E-13-4.47285E-13
 -1      1985 2.09579E+01-4.25738E-03-7.31617E-04 2.03208E-01-6.32903E-17-4.92782E-13
 -1      1986 2.08987E+01-1.06731E-02-3.64815E-04 2.54059E-01-9.62669E-15-3.85871E-13
 -1      1987 2.07006E+01 1.04902E-02-4.51577E-04 1.96440E-01 9.61140E-14-4.58986E-13
 -1      1988 2.07904E+01 7.40754E-03 8.51293E-05 2.00591E-01 1.54768E-13-3.93331E-13
 -1      1989 2.07405E+01 7.87189E-03-3.35479E-04 2.53808E-01 1.26139E-13-3.30551E-13
 -1      1990 2.05477E+01 1.46595E-02-3.79583E-04 1.73307E-01-3.27819E-14-4.26232E-13
 -1      1991 2.06305E+01 1.36633E-02 6.01531E-04 1.82447E-01 5.77495E-14-4.02279E-13
 -1      1992 2.05919E+01 1.81848E-02-3.20377E-04 2.33029E-01 7.45886E-14-2.59471E-13
 -1      1993 2.04153E+01 1.57725E-02-2.74878E-04 1.45397E-01-1.78507E-13-4.34601E-13
 -1      1994 2.04874E+01 1.60910E-02 8.73455E-04 1.56681E-01-1.40852E-13-4.66366E-13
 -1      1995 2.04597E+01 2.25490E-02-3.14764E-04 2.01757E-01-1.08603E-13-2.19282E-13
 -1      1996 2.03053E+01 1.50284E-02-1.70737E-04 1.17151E-01-1.04919E-13-3.68097E-13
 -1      1997 2.03653E+01 1.60724E-02 9.67847E-04 1.28709E-01-1.58178E-13-3.68831E-13
 -1      1998 2.03471E+01 2.30417E-02-3.10419E-04 1.66996E-01-1.76348E-13-2.50217E-13
 -1      1999 2.02170E+01 1.33025E-02-8.31108E-05 9.11426E-02-8.91632E-15-3.57986E-13
 -1      2000 2.02651E+01 1.46634E-02 9.46060E-04 1.01875E-01-3.82372E-14-3.47770E-13
 -1      2001 2.02545E+01 2.12857E-02-3.01415E-04 1.33161E-01-6.23066E-14-2.25530E-13
 -1      2002 2.01483E+01 1.11814E-02-1.71478E-05 6.86312E-02-1.27362E-13-2.97248E-13
 -1      2003 2.01856E+01 1.25995E-02 8.57010E-04 7.79863E-02-6.85201E-14-3.25524E-13
 -1      2004 2.01807E+01 1.84282E-02-2.85293E-04 1.02713E-01-7.76709E-14-2.09667E-13
 -1      2005 2.00963E+01 9.02832E-03 2.78648E-05 5.00148E-02-9.58725E-14-3.77029E-13
 -1      2006 2.01243E+01 1.03537E-02 7.36073E-04 5.78011E-02-6.13557E-14-3.09731E-13
 -1      2007 2.01235E+01 1.52157E-02-2.62342E-04 7.67551E-02-8.42174E-14-2.21756E-13
 -1      2008 2.00582E+01 7.04621E-03 5.52586E-05 3.51762E-02 6.76016E-14-3.57657E-13
 -1      2009 2.00786E+01 8.20440E-03 6.06765E-04 4.14218E-02-9.76966E-14-4.14185E-13
 -1      2010 2.00803E+01 1.20936E-02-2.34412E-04 5.55230E-02-5.46113E-14-3.49267E-13
 -1      2011 2.00310E+01 5.33134E-03 6.91209E-05 2.37231E-02 9.82641E-14-3.62675E-13
 -1      2012 2.00454E+01 6.29622E-03 4.83361E-04 2.85758E-02 1.88542E-13-2.95766E-13
 -1      2013 2.00487E+01 9.29788E-03-2.03872E-04 3.87436E-02 8.86535E-14-3.02481E-13
 -1      2014 2.00124E+01 3.91275E-03 7.33392E-05 1.51463E-02 9.93523E-14-4.17927E-13
 -1      2015 2.00221E+01 4.68698E-03 3.73499E-04 1.88068E-02 4.93314E-14-4.53432E-13
 -1      2016 2.00262E+01 6.92800E-03-1.72932E-04 2.58852E-02 1.58661E-13-2.82892E-13
 -1      2017 2.00003E+01 2.78037E-03 7.11890E-05 8.91679E-03 1.18388E-13-4.95353E-13
 -1      2018 2.00065E+01 3.38205E-03 2.80356E-04 1.15978E-02 1.32292E-13-3.93527E-13
 -1      2019 2.00108E+01 5.00023E-03-1.43326E-04 1.63187E-02 1.12610E-13-3.20205E-13
 -1      2020 1.99929E+01 1.90380E-03 6.52223E-05 4.54035E-03 1.66749E-14-4.71633E-13
 -1      2021 1.99965E+01 2.35785E-03 2.04320E-04 6.44306E-03 7.36692E-14-4.28808E-13
 -1      2022 2.00007E+01 3.48433E-03-1.16236E-04 9.41503E-03 2.77330E-14-9.91858E-14
 -1      2023 1.99888E+01 1.24431E-03 5.73078E-05 1.58449E-03 9.17323E-14-3.86918E-13
 -1      2024 1.99907E+01 1.57714E-03 1.44186E-04 2.88651E-03 3.07834E-14-4.43909E-13
 -1      2025 1.99945E+01 2.32768E-03-9.23302E-05 4.59886E-03 6.77282E-14-6.34786E-14
 -1      2026 1.99870E+01 7.62026E-04 4.87364E-05-3.12438E-04-5.72419E-14-3.45296E-13
 -1      2027 1.99877E+01 9.98570E-04 9.79615E-05 5.38549E-04-4.38975E-14-3.66351E-13
 -1      2028 1.99911E+01 1.47024E-03-7.18677E-05 1.37332E-03-1.69056E-14-5.44550E-14
 -1      2029 1.99868E+01 4.19885E-04 4.03429E-05-1.44228E-03 4.26194E-14-5.70685E-13
 -1      2030 1.99867E+01 5.82137E-04 6.33850E-05-9.20740E-04 1.94687E-14-4.30620E-13
 -1      2031 1.99895E+01 8.53243E-04-5.48094E-05-6.73186E-04 2.15113E-14-2.78790E-13
 -1      2032 1.99875E+01 1.85544E-04 3.26217E-05-2.03367E-03-5.15918E-14-5.81953E-13
 -1      2033 1.99869E+01 2.91998E-04 3.82335E-05-1.74569E-03-9.99474E-14-5.38295E-13
 -1      2034 1.99893E+01 4.23714E-04-4.09218E-05-1.87049E-03-9.51728E-14-3.39250E-13
 -1      2035 1.99887E+01 3.19785E-05 2.58250E-05-2.26097E-03-6.31004E-14-5.79196E-13
 -1      2036 1.99879E+01 9.76429E-05 2.04892E-05-2.13293E-03 3.80597E-14-5.41230E-13
 -1      2037 1.99898E+01 1.36409E-04-2.98608E-05-2.47549E-03 3.87603E-14-4.86809E-13
 -1      2038 1.99901E+01-6.26432E-05 2.00414E-05-2.25374E-03 1.54813E-13-7.58611E-13
 -1      2039 1.99892E+01-2.59419E-05 8.41458E-06-2.23052E-03-3.04391E-14-6.28837E-13
 -1      2040 1.99908E+01-4.58355E-05-2.12339E-05-2.68308E-03 2.85019E-14-5.10264E-13
 -1      2041 1.99916E+01-1.15465E-04 1.52541E-05-2.10569E-03-1.45556E-13-8.44016E-13
 -1      2042 1.99907E+01-9.86492E-05 5.69547E-07-2.14711E-03 9.09239E-14-7.93739E-13
 -1      2043 1.99919E+01-1.52600E-04-1.46440E-05-2.63739E-03 5.13197E-14-4.75054E-13
 -1      2044 1.99931E+01-1.39621E-04 1.13847E-05-1.88264E-03-2.59334E-13-6.40936E-13
 -1      2045 1.99922E+01-1.35891E-04-4.20287E-06-1.96018E-03-2.21110E-13-7.99859E-13
 -1      2046 1.99931E+01-2.06807E-04-9.71707E-06-2.44212E-03-2.20437E-13-5.39721E-13
 -1      2047 1.99944E+01-1.44939E-04 8.32232E-06-1.62913E-03-2.77282E-14-4.73224E-13
 -1      2048 1.99936E+01-1.49325E-04-6.80834E-06-1.72326E-03-1.68120E-13-6.22600E-13
 -1      2049 1.99943E+01-2.25790E-04-6.11712E-06-2.16965E-03-2.36825E-13-4.38442E-13
 -1      2050 1.99955E+01-1.38614E-04 5.94310E-06-1.37397E-03-2.72576E-14-4.50706E-13
 -1      2051 1.99949E+01-1.47574E-04-7.93925E-06-1.47184E-03 7.05409E-15-3.92288E-13
 -1      2052 1.99954E+01-2.22355E-04-3.55351E-06-1.86862E-03-7.78623E-14-3.81028E-13
 -1      2053 1.99965E+01-1.25802E-04 4.12182E-06-1.13446E-03-7.94799E-14-4.39855E-13
 -1      2054 1.99959E+01-1.36874E-04-8.11367E-06-1.22815E-03-1.01350E-14-4.20483E-13
 -1      2055 1.99963E+01-2.05752E-04-1.78192E-06-1.57009E-03 1.47514E-14-3.60320E-13
 -1      2056 1.99973E+01-1.10131E-04 2.73852E-06-9.19712E-04-1.28004E-13-3.53705E-13
 -1      2057 1.99968E+01-1.21651E-04-7.71095E-06-1.00486E-03-1.30345E-13-4.03007E-13
 -1      2058 1.99971E+01-1.82525E-04-6.02249E-07-1.29236E-03-1.17885E-13-3.58829E-13
 -1      2059 1.99980E+01-9.41287E-05 1.68279E-06-7.33120E-04 1.18567E-13-4.32639E-13
 -1      2060 1.99976E+01-1.05001E-04-7.00269E-06-8.07886E-04-2.96911E-14-3.58363E-13
 -1      2061 1.99978E+01-1.57225E-04 1.46444E-07-1.04466E-03-3.53335E-14-4.39723E-13
 -1      2062 1.99985E+01-7.95778E-05 8.51657E-07-5.74102E-04 1.44019E-13-4.19736E-13
 -1      2063 1.99982E+01-8.90704E-05-6.17940E-06-6.38431E-04 1.44695E-13-3.92011E-13
 -1      2064 1.99983E+01-1.32968E-04 5.95379E-07-8.29823E-04 1.51909E-13-4.03365E-13
 -1      2065 1.99989E+01-6.77624E-05 2.06436E-07-4.39197E-04-1.16831E-13-2.16920E-13
 -1      2066 1.99987E+01-7.54408E-05-5.35469E-06-4.94409E-04-1.88120E-14-1.37906E-13
 -1      2067 1.99988E+01-1.12043E-04 8.36190E-07-6.46294E-04-1.44838E-13-2.35744E-13
 -1      2068 1.99993E+01-5.94928E-05-2.44056E-07-3.23245E-04-1.44179E-13-9.38501E-14
 -1      2069 1.99991E+01-6.50861E-05-4.55465E-06-3.71489E-04-8.42100E-14-9.77967E-14
 -1      2070 1.99991E+01-9.56298E-05 1.08067E-06-4.89381E-04-1.23467E-13 5.20992E-14
 -1      2071 1.99995E+01-5.53007E-05-4.73342E-07-2.20019E-04-9.10420E-15-3.80005E-14
 -1      2072 1.99994E+01-5.87813E-05-3.74606E-06-2.64144E-04 9.87124E-15-1.92286E-14
 -1      2073 1.99994E+01-8.50157E-05 1.27327E-06-3.52914E-04-2.97962E-14 1.11645E-13
 -1      2074 1.99997E+01-5.41340E-05-1.25020E-06-1.24771E-04-1.33027E-13-2.85986E-13
 -1      2075 1.99996E+01-5.56924E-05-2.73526E-06-1.66698E-04-1.60824E-13-2.17401E-13
 -1      2076 1.99996E+01-8.00547E-05 1.25184E-06-2.30330E-04-5.23560E-14-5.80276E-14
 -1      2077 1.99997E+01-5.02585E-05-2.04212E-06-5.97061E-05 1.59410E-13-2.17967E-13
 -1      2078 1.99997E+01-5.58232E-05-1.84685E-06-9.67870E-05 6.84361E-14-2.29418E-13
 -1      2079 1.99997E+01-7.94450E-05 9.87488E-07-1.40506E-04 5.58548E-14-1.88019E-13
 -1      2080 1.99997E+01-7.32204E-05-1.31519E-07-7.97954E-05 2.20604E-14 1.07425E-13
 -1      2081 1.99998E+01-4.87234E-04 1.18917E-06-2.69136E-04-2.62594E-13 2.11309E-13
 -1      2082 1.99998E+01-4.01077E-04-1.84551E-06-2.58732E-04-3.76911E-13 3.39585E-13
 -1      2083 1.99998E+01-3.17114E-04 2.57555E-07-2.35351E-04-3.23570E-13 3.14307E-13
 -1      2084 1.99997E+01-2.41411E-04-2.17097E-06-2.05047E-04-1.50583E-13 1.48242E-13
 -1      2085 1.99997E+01-3.76563E-04 2.20518E-07-3.20187E-04-2.91601E-13 2.47307E-13
 -1      2086 1.99997E+01-1.80833E-04-4.92125E-07-1.65034E-04-7.55551E-14 7.71928E-14
 -1      2087 1.99997E+01-1.22838E-04-1.81145E-06-1.24984E-04-6.55291E-14 4.97851E-14
 -1      2088 1.99997E+01-1.28171E-04-1.16295E-06-1.56563E-04 1.29833E-13-1.65344E-13
 -1      2089 1.99997E+01-2.35277E-04 9.93889E-07-2.47639E-04-1.84052E-14 7.54344E-14
 -1      2090 1.99998E+01-6.52606E-04 2.15683E-06-2.59922E-04-4.73009E-13-7.91260E-13
 -1      2091 1.99998E+01-5.68669E-04-6.09129E-07-2.68528E-04-4.61890E-13-1.15070E-13
 -1      2092 1.99998E+01-5.40523E-04-5.22944E-07-3.43959E-04-5.01112E-13-2.00566E-13
 -1      2093 1.99999E+01-7.97749E-04 2.94302E-06-2.10176E-04-6.54809E-14-1.34577E-13
 -1      2094 1.99998E+01-7.25894E-04 7.30619E-07-2.35983E-04-3.16824E-13-3.05418E-13
 -1      2095 1.99998E+01-6.95187E-04-1.73142E-06-3.15581E-04-3.54469E-13-3.36302E-13
 -1      2096 1.99999E+01-8.99739E-04 3.36879E-06-1.28848E-04 1.33578E-14-2.50467E-15
 -1      2097 1.99999E+01-8.52068E-04 1.98060E-06-1.67120E-04 7.24218E-14 2.54341E-14
 -1      2098 1.99999E+01-8.22788E-04-2.61574E-06-2.39431E-04 4.98138E-14 3.66779E-14
 -1      2099 1.99999E+01-9.45043E-04 3.36085E-06-2.87647E-05-1.44920E-13 2.13762E-13
 -1      2100 1.99999E+01-9.28556E-04 2.89091E-06-7.35595E-05-1.77765E-13 7.58763E-14
 -1      2101 1.99999E+01-9.06032E-04-3.19455E-06-1.28303E-04-7.94922E-14-1.90326E-13
 -1      2102 1.99999E+01-9.27707E-04 2.88826E-06 7.54304E-05-8.15051E-14 9.25701E-14
 -1      2103 1.99999E+01-9.44812E-04 3.36280E-06 3.06986E-05-1.56347E-13 3.25292E-13
 -1      2104 1.99999E+01-9.34671E-04-3.39256E-06 1.20655E-06-3.34959E-13 2.93376E-13
 -1      2105 1.99999E+01-8.50196E-04 1.99977E-06 1.68648E-04-8.80853E-14 1.03177E-13
 -1      2106 1.99999E+01-8.98462E-04 3.34485E-06 1.30585E-04-1.00894E-13 1.14952E-13
 -1      2107 1.99999E+01-9.05128E-04-3.17798E-06 1.30564E-04-2.83856E-13 4.14173E-14
 -1      2108 1.99998E+01-7.25766E-04 7.48240E-07 2.36021E-04-9.45836E-14-4.37808E-13
 -1      2109 1.99999E+01-7.96612E-04 2.91959E-06 2.10805E-04-6.78545E-14-1.16073E-13
 -1      2110 1.99999E+01-8.22015E-04-2.64680E-06 2.40498E-04-1.47417E-13-7.05298E-15
 -1      2111 1.99998E+01-5.67188E-04-6.49451E-07 2.68662E-04-7.64734E-15-5.79256E-14
 -1      2112 1.99998E+01-6.52597E-04 2.15986E-06 2.60029E-04 1.02947E-13-2.06019E-13
 -1      2113 1.99998E+01-6.95316E-04-1.72597E-06 3.15637E-04-5.25374E-14-1.81112E-13
 -1      2114 1.99998E+01-3.97697E-04-1.84229E-06 2.58155E-04 1.79840E-13-1.65355E-13
 -1      2115 1.99998E+01-4.83979E-04 1.22710E-06 2.69125E-04 1.02273E-13-1.94873E-13
 -1      2116 1.99998E+01-5.39283E-04-6.95763E-07 3.44099E-04 1.12944E-13 5.59759E-14
 -1      2117 1.99997E+01-2.34387E-04-5.92607E-07 2.04272E-04-1.35842E-13-3.04233E-13
 -1      2118 1.99998E+01-3.14049E-04 2.72914E-07 2.34199E-04-7.65001E-14-2.12284E-13
 -1      2119 1.99997E+01-3.74340E-04 5.32614E-08 3.18807E-04-1.70087E-14-4.13466E-13
 -1      2120 1.06512E+01-3.83832E+00-1.16336E-01 7.00847E+00 3.25684E-13 1.09548E-12
 -1      2121 6.93723E+00-5.29186E+00-3.72811E-01 5.65210E+00 1.46050E-13 1.16396E-12
 -1      2122 7.39737E-01-5.33671E+00-3.43433E-01 1.36086E+00 3.66374E-15 1.15458E-12
 -1      2123 6.23955E-01-5.72666E+00-3.99144E-01-3.47587E-01-2.95403E-13 1.18905E-12
 -1      2124 4.30414E+00-4.94709E+00-2.65736E-01 4.84364E+00 2.12108E-13 1.20171E-12
 -1      2125 2.34721E+00-5.39459E+00-3.31864E-01 3.44665E+00-1.09551E-13 1.11655E-12
 -1      2126 7.72135E+00-3.95008E+00-8.92128E-02 6.27065E+00-3.16580E-13 1.11539E-12
 -1      2127 1.98428E+01-2.52350E+00-4.61425E-03 7.32016E+00 4.98712E-13 7.46653E-13
 -1      2128 1.49952E+01-3.99526E+00-2.27255E-01 6.78207E+00 3.49498E-13 9.01751E-13
 -1      2129 2.86595E+01 7.27985E-01 2.10731E-01 5.95573E+00 9.76275E-13 3.28348E-13
 -1      2130 2.41404E+01-1.37025E+00-8.89105E-02 5.76311E+00 7.26030E-13 4.00679E-13
 -1      2131 1.54321E+01 3.35368E+00-4.72720E-02 5.51002E-01 4.88151E-15-5.60448E-13
 -1      2132 1.80966E+01 3.26613E+00 5.12062E-02 2.71921E-01-4.77951E-14-3.80904E-13
 -1      2133 1.98096E+01 1.90932E+00-1.89818E-02 2.35139E-01-3.09995E-14-2.03764E-13
 -1      2134 1.42496E+01 3.08601E+00 2.78027E-02 9.82162E-01 3.12944E-14-6.86701E-13
 -1      2135 3.84226E+01 6.18220E+00 3.04094E-01 2.24144E+00 1.23923E-12-2.89435E-13
 -1      2136 3.60762E+01 5.43833E+00 1.75936E-01 3.26634E+00 1.27226E-12-4.79061E-14
 -1      2137 3.93331E+01 7.17503E+00 2.50175E-01 4.33199E-01 1.32799E-12-6.32355E-13
 -1      2138 3.92522E+01 6.96172E+00 3.02259E-01 1.82355E+00 1.28780E-12-3.15775E-13
 -1      2139 3.50966E+01 7.39403E+00 3.35165E-01 6.01413E-01 1.33821E-12-4.99101E-13
 -1      2140 3.70073E+01 6.30147E+00 1.26785E-01-1.15422E+00 1.46227E-12-9.23095E-13
 -1      2141 3.85730E+01 6.90465E+00 2.48905E-01-1.99863E-02 1.39833E-12-6.66356E-13
 -1      2142 3.34243E+01 4.18117E+00 4.79488E-02-3.57597E+00 1.53512E-12-1.27010E-12
 -1      2143 3.64840E+01 5.00921E+00 1.97548E-01-2.36599E+00 1.46885E-12-1.03184E-12
 -1      2144 2.73350E+01 1.87932E+00-9.04762E-02-4.79945E+00 1.36516E-12-1.22874E-12
 -1      2145 3.17275E+01 3.11234E+00 2.00089E-01-4.74350E+00 1.46902E-12-1.31567E-12
 -1      2146 3.17908E+01 3.18092E+00 1.88444E-01-1.54726E+00 1.17271E-12-5.56166E-13
 -1      2147 1.88273E+01 2.35967E-02-1.93268E-01-6.38264E+00 1.17117E-12-1.45350E-12
 -1      2148 2.36015E+01 7.98861E-01 4.86497E-03-6.34626E+00 1.17961E-12-1.30140E-12
 -1      2149 1.22591E+01-9.98733E-01-1.55413E-01-6.40704E+00 5.91527E-13-1.34145E-12
 -1      2150 1.57717E+01-6.27736E-02-4.53083E-02-7.04058E+00 1.04344E-12-1.51207E-12
 -1      2151 1.94710E+01-1.11322E+00 2.84449E-02-5.98259E+00 2.54963E-13-9.50434E-13
 -1      2152 4.58255E+00-1.78532E+00-3.02507E-01-4.77720E+00 4.22995E-13-1.51065E-12
 -1      2153 7.66305E+00-5.55031E-01-1.12812E-01-6.14681E+00 6.04461E-13-1.51459E-12
 -1      2154 1.35976E+00-1.31243E+00-1.61612E-01-2.81754E+00-1.96704E-13-1.55687E-12
 -1      2155 2.64869E+00-1.40521E+00-1.93324E-01-3.98444E+00 3.45224E-13-1.57760E-12
 -1      2156 4.95196E+00-1.41716E-01-6.39924E-02-5.12558E+00-1.65007E-13-1.61648E-12
 -1      2157 1.01904E+00-2.01811E+00-2.37820E-01 4.12709E-01-5.84421E-13-1.63081E-12
 -1      2158 7.75356E-01-9.70013E-01-1.04355E-01-9.70053E-01-1.58824E-13-1.58334E-12
 -1      2159 4.94846E+00-1.63316E+00-8.44925E-02 3.42970E+00-7.22866E-13-1.62878E-12
 -1      2160 2.38607E+00-2.33942E+00-2.91902E-01 1.76542E+00-5.01627E-13-1.58895E-12
 -1      2161 3.51068E+00 2.13229E-01-2.01185E-02 1.60055E+00-2.19658E-13-1.73161E-12
 -1      2162 1.19342E+01-2.86286E+00-2.31701E-01 5.16627E+00-1.28597E-12-1.76027E-12
 -1      2163 8.25779E+00-3.12199E+00-3.13749E-01 4.31794E+00-8.37830E-13-1.54765E-12
 -1      2164 2.10775E+01-2.45027E+00-1.11942E-01 5.39155E+00-1.29130E-12-1.53827E-12
 -1      2165 1.55910E+01-3.29400E+00-4.00038E-01 4.86809E+00-1.26332E-12-1.63786E-12
 -1      2166 1.65584E+01-3.44530E+00-9.96694E-02 4.99187E+00-4.89608E-13-1.22014E-12
 -1      2167 3.10219E+01-4.38596E-01 1.44112E-01 3.68397E+00-1.48936E-12-1.31040E-12
 -1      2168 2.58187E+01-1.99389E+00-2.04299E-01 3.70579E+00-1.32760E-12-1.29852E-12
 -1      2169 3.79504E+01 2.67919E+00 3.15798E-01 1.90739E+00-1.59017E-12-1.07003E-12
 -1      2170 3.35216E+01 1.27627E+00 8.54222E-03 2.62918E+00-1.64090E-12-1.29718E-12
 -1      2171 4.05934E+01 5.53517E+00 3.05602E-01-5.62127E-01-1.58340E-12-4.02123E-13
 -1      2172 3.90387E+01 4.32728E+00 2.83326E-01 4.64855E-01-1.65284E-12-8.10352E-13
 -1      2173 4.28236E+01 7.00667E+00 5.62939E-01-1.38713E+00-1.61621E-12-1.33268E-13
 -1      2174 4.15254E+01 6.88896E+00 3.76692E-01-6.42126E-01-1.62254E-12-4.73732E-13
 -1      2175 4.06074E+01 6.10776E+00 3.49483E-01-2.27924E+00-1.64702E-12 1.98286E-13
 -1      2176 4.26255E+01 6.57880E+00 4.94290E-01-1.67064E+00-1.60416E-12-9.25093E-14
 -1      2177 3.84458E+01 7.67466E+00 4.72939E-01-5.87277E-01-1.73450E-12-1.74555E-13
 -1      2178 3.60855E+01 3.06703E+00 1.42829E-01-3.58375E+00-1.49113E-12 5.38458E-13
 -1      2179 3.92045E+01 4.43001E+00 3.77423E-01-2.80376E+00-1.51112E-12 2.52187E-13
 -1      2180 2.99022E+01-1.28449E-01-5.78768E-02-4.69322E+00-1.14925E-12 7.98694E-13
 -1      2181 3.44788E+01 1.68172E+00 2.97466E-01-4.72822E+00-1.33110E-12 6.85896E-13
 -1      2182 3.45332E+01 1.38045E+00 2.49876E-01-1.35965E+00-1.13443E-12-6.63913E-14
 -1      2183 2.08728E+01-3.04114E+00-2.63834E-01-6.28212E+00-9.25426E-13 1.20115E-12
 -1      2184 2.60416E+01-1.59836E+00 3.55893E-02-6.43295E+00-9.56180E-13 1.04050E-12
 -1      2185 1.27841E+01-4.83665E+00-3.83134E-01-6.23034E+00-7.24754E-13 1.19101E-12
 -1      2186 1.70953E+01-3.25442E+00-1.01507E-01-7.08856E+00-9.37694E-13 1.33477E-12
 -1      2187 5.97057E+00-5.69492E+00-4.10624E-01-4.87809E+00-4.86333E-13 1.14458E-12
 -1      2188 9.21074E+00-4.62346E+00-2.11264E-01-6.16001E+00-7.13984E-13 1.19180E-12
 -1      2189 1.40243E+00-6.04169E+00-4.48266E-01-2.07942E+00-2.35978E-13 1.24278E-12
 -1      2190 3.04384E+00-5.45100E+00-3.48692E-01-3.60694E+00-5.57332E-13 1.25461E-12
 -1      2191 3.49795E+01 3.99352E+00 3.24962E-01 4.44846E+00 1.20712E-12 5.46230E-14
 -1      2192 3.08464E+01 2.47790E+00 1.62038E-02 4.81680E+00 1.17729E-12 2.56795E-13
 -1      2193 3.00858E+01 3.11128E-01 1.32291E-01 3.15122E+00 7.09696E-13-3.41727E-13
 -1      2194 2.87915E+01 1.80117E-01-5.67513E-02-1.65029E+00-2.60434E-13 1.02153E-12
 -1      2195 3.36063E+01 4.40282E+00 2.56557E-01 1.43026E+00 1.11680E-12-5.17086E-13
 -1      2196 2.78456E+01-1.82652E-01-2.80165E-02-1.88395E+00-2.18145E-13 7.55687E-13
 -1      2197 2.99852E+00-3.46703E+00-1.40828E-01 2.92324E+00-2.12108E-13 1.23707E-12
 -1      2198 1.50408E+01-4.32173E+00 4.23147E-03 7.30566E+00-2.73781E-13 7.71707E-13
 -1      2199 1.99997E+01-1.93591E-04-1.19182E-06 1.92548E-04-1.86326E-13-4.26737E-13
 -1      2200 2.29209E+00-3.68292E+00-1.95722E-01-1.55928E+00-9.70612E-14 1.31173E-12
 -1      2201 2.37310E+01-3.22490E+00 5.54718E-02 5.72196E+00 9.15934E-14 1.10217E-13
 -1      2202 6.33736E+00-4.26645E+00-1.62413E-01-5.16291E+00-3.00870E-14 1.15491E-12
 -1      2203 1.34292E+01-4.86827E+00-1.16724E-01-6.76536E+00-8.82072E-14 9.54153E-13
 -1      2204 2.92829E+01-2.32522E+00 1.00604E-01-3.95568E+00-6.11677E-13 3.61933E-13
 -1      2205 3.74182E+01 5.26519E+00 3.75681E-01-2.86810E-01-1.58168E-12-1.53266E-13
 -1      2206 3.76862E+01 6.65999E+00 3.32726E-01-1.80825E+00-1.63902E-12-1.08857E-13
 -1      2207 3.63873E+01 3.28427E+00 3.09977E-01-1.23778E+00-1.49170E-12-1.74138E-13
 -1      2208 2.54734E+01-3.32866E+00-2.58613E-03 3.29512E+00-7.11320E-13-7.92033E-13
 -1      2209 8.58142E+00-1.71798E+00-8.50823E-02 4.16995E+00-2.58404E-13-1.50704E-12
 -1      2210 2.09092E+00 4.49869E-01-5.96535E-02-1.98347E+00-2.86160E-13-1.74527E-12
 -1      2211 1.16246E+01-8.48743E-01-1.98538E-02-6.60723E+00 5.16254E-14-1.30301E-12
 -1      2212 2.64566E+01 2.39902E-01 6.60058E-02-4.05313E+00 7.64833E-13-7.40907E-13
 -1      2213 3.50590E+01 7.97130E+00 2.28169E-01 7.78806E-01 1.45672E-12-4.65128E-13
 -1      2214 3.40505E+01 6.07754E+00 2.20162E-01 9.61556E-02 1.42059E-12-4.54525E-13
 -1      2215 3.25654E+01-6.03843E-01 1.36921E-01 5.41654E-01-1.12166E-12-4.15723E-13
 -1      2216 2.14614E+01-4.42698E+00-3.63163E-03-6.29511E+00-2.94209E-13 7.44738E-13
 -1      2217 2.18799E+01 5.09121E-01 8.89556E-03 1.85738E+00 4.35851E-13 2.13338E-13
 -1      2218 2.23964E+01 6.24669E-01 1.87347E-02 2.13310E+00 4.82505E-13 2.81614E-13
 -1      2219 7.15068E+00 4.33611E+00 1.21267E-01-2.48294E+00-4.63140E-13-1.31639E-12
 -1      2220 6.72718E+00 4.52951E+00 1.04928E-01-1.41511E+00-2.82652E-13-1.32573E-12
 -1      2221 7.63149E+00 4.11330E+00 4.69888E-02 2.83738E-01-1.20879E-13-1.22957E-12
 -1      2222 9.73194E+00 3.72690E+00 1.47729E-01 1.05179E+00 2.24508E-14-1.09910E-12
 -1      2223 1.63546E+01 1.61421E+00 9.95460E-02-3.72458E+00-6.83346E-13-7.48819E-13
 -1      2224 1.36647E+01 2.08801E+00-1.83177E-02-4.17958E+00-7.16930E-13-8.64704E-13
 -1      2225 2.03140E+01 9.20362E-01 1.50218E-02-1.85721E+00-4.67286E-13-5.15754E-13
 -1      2226 1.85364E+01 1.09050E+00-1.02625E-03-2.72579E+00-5.89655E-13-5.74568E-13
 -1      2227 1.79216E+01 5.67112E-01-4.16056E-03-3.55911E+00-6.30117E-13-5.89750E-13
 -1      2228 2.23562E+01 1.10685E+00-3.58584E-02 7.39820E-02-1.88955E-13-4.50553E-13
 -1      2229 2.15476E+01 1.03014E+00 1.11221E-02-7.38377E-01-3.38011E-13-4.49224E-13
 -1      2230 2.15550E+01 3.67735E-01-3.05004E-03-1.28022E+00-3.85469E-13-3.65409E-13
 -1      2231 2.30766E+01 1.65136E+00-4.83606E-02 1.51301E+00 7.75653E-14-4.47052E-13
 -1      2232 2.28625E+01 1.46750E+00 3.76511E-03 9.14775E-01-6.14647E-14-4.43172E-13
 -1      2233 2.31652E+01 8.38894E-01 1.86107E-03 6.88849E-01-9.87955E-14-3.25939E-13
 -1      2234 2.31541E+01 2.08328E+00-4.79011E-02 2.43529E+00 3.03745E-13-4.26877E-13
 -1      2235 2.31895E+01 1.94602E+00-1.05651E-02 2.02519E+00 1.73627E-13-4.38153E-13
 -1      2236 2.35390E+01 1.43407E+00 9.28122E-03 1.95195E+00 1.45532E-13-3.41316E-13
 -1      2237 2.30370E+01 2.15944E+00-5.70677E-02 2.98313E+00 4.96008E-13-2.97779E-13
 -1      2238 2.31312E+01 2.19328E+00-1.63304E-02 2.71016E+00 3.80491E-13-3.74093E-13
 -1      2239 2.34207E+01 1.77544E+00 1.76665E-02 2.64729E+00 3.50961E-13-2.98223E-13
 -1      2240 2.11645E+01 5.06561E-01 1.60663E-02 1.36554E+00 3.44127E-13 1.18729E-13
 -1      2241 2.15582E+01 4.78720E-01 1.71411E-02 1.59951E+00 3.86397E-13 1.98840E-13
 -1      2242 2.21813E+01 7.26174E-01 1.23922E-03 2.07056E+00 4.60780E-13 1.00394E-13
 -1      2243 2.82581E+01-1.73664E+00 4.67735E-02-1.86494E+00-8.41271E-14 7.55418E-13
 -1      2244 2.83561E+01-1.97532E+00-4.83149E-02-2.36722E+00-1.74144E-13 8.14928E-13
 -1      2245 3.17456E+01 4.37667E+00-1.31410E-01 9.44733E-02 1.04408E-12-7.18786E-13
 -1      2246 3.10891E+01 2.59342E+00-5.99770E-02 6.33868E-01 9.18932E-13-7.34246E-13
 -1      2247 2.94840E+01-1.63796E+00-3.32965E-02-3.19201E+00-3.11471E-13 9.24677E-13
 -1      2248 2.94120E+01-6.26129E-01-5.79071E-02-3.59551E+00-5.05179E-13 9.05831E-13
 -1      2249 2.88798E+01-2.29695E+00-3.81069E-02-2.20783E+00-2.16293E-13 7.80716E-13
 -1      2250 2.91065E+01 4.16990E+00-2.18664E-01-2.07828E+00-1.11769E-12 3.01251E-13
 -1      2251 2.89133E+01 4.59642E+00-1.66907E-01-5.27665E-01-1.19782E-12-3.27221E-14
 -1      2252 2.90231E+01 3.97096E+00-1.02241E-01 1.17718E+00-1.13487E-12-3.56298E-13
 -1      2253 2.90375E+01 2.32299E+00-2.00713E-01 2.19565E+00-9.01057E-13-5.70516E-13
 -1      2254 2.86742E+01 5.94251E-01-5.88386E-02 2.50440E+00-5.57887E-13-7.58206E-13
 -1      2255 2.86019E+01-1.05155E+00-1.12261E-01 2.32299E+00-2.34021E-13-7.53737E-13
 -1      2256 3.04445E+01 1.77184E+00-1.21757E-01 2.20970E+00-8.75300E-13-6.92668E-13
 -1      2257 2.76549E+01-2.00675E+00-4.42265E-02 1.40156E+00-3.03403E-15-7.27605E-13
 -1      2258 2.72259E+01-2.42741E+00-9.32142E-03 6.38704E-01 1.52465E-13-6.34170E-13
 -1      2259 2.59832E+01-2.33991E+00-3.35913E-02-2.31799E-01 1.60774E-13-4.62982E-13
 -1      2260 2.54385E+01-1.99577E+00 3.78852E-02-9.03237E-01 1.52461E-13-3.70673E-13
 -1      2261 2.64119E+01-2.97899E+00-4.04714E-02-4.81861E-01 2.41167E-13-6.40031E-13
 -1      2262 2.44251E+01-1.54648E+00-2.47369E-02-1.38287E+00 8.37368E-14-2.77790E-13
 -1      2263 2.39142E+01-1.05068E+00 3.07526E-02-1.75318E+00 1.28653E-13-2.10363E-13
 -1      2264 2.42007E+01-2.23849E+00-5.01744E-02-1.77611E+00 1.80347E-13-3.31887E-13
 -1      2265 2.32821E+01-6.56607E-01-1.06775E-02-1.89016E+00 9.26906E-14-1.95265E-13
 -1      2266 2.28587E+01-3.00932E-01 1.75357E-02-2.01120E+00 5.57540E-14-1.85363E-13
 -1      2267 2.27111E+01-1.07265E+00-3.28288E-02-2.26399E+00 1.06505E-13-2.25246E-13
 -1      2268 2.25032E+01-6.02879E-02-1.34151E-03-1.96498E+00 7.64319E-15-1.59272E-13
 -1      2269 2.21592E+01 1.31508E-01 6.99293E-03-1.93266E+00 3.23017E-14-1.17907E-13
 -1      2270 2.18419E+01-2.24915E-01-1.73602E-02-2.28131E+00 8.02565E-14-1.42683E-13
 -1      2271 2.19624E+01 2.44575E-01 3.94600E-03-1.80412E+00 3.16375E-14-8.82407E-14
 -1      2272 2.16801E+01 3.20832E-01 1.64111E-03-1.69698E+00 4.57256E-14-7.30492E-14
 -1      2273 2.13510E+01 2.42527E-01-7.98935E-03-2.06996E+00 2.91037E-14-1.23235E-13
 -1      2274 2.15617E+01 3.54929E-01 6.59441E-03-1.54414E+00 2.04513E-14-4.52216E-14
 -1      2275 2.13274E+01 3.66680E-01-4.52782E-04-1.41280E+00-6.87402E-14-2.77920E-14
 -1      2276 2.10580E+01 4.33919E-01-2.96422E-03-1.76959E+00 4.86785E-14-1.04966E-13
 -1      2277 2.12450E+01 3.60733E-01 7.40162E-03-1.26432E+00-1.08308E-13 8.73097E-14
 -1      2278 2.10506E+01 3.42591E-01-1.05551E-03-1.13616E+00-5.44864E-14 8.98061E-14
 -1      2279 2.08579E+01 4.68336E-01-8.12993E-04-1.45636E+00-6.57753E-14 1.72933E-14
 -1      2280 2.09851E+01 3.20384E-01 7.09071E-03-1.00463E+00-8.79175E-14 1.09858E-13
 -1      2281 2.08257E+01 2.91893E-01-1.03449E-03-8.91846E-01-1.07022E-13 6.35660E-14
 -1      2282 2.07015E+01 4.28430E-01-2.04657E-04-1.16688E+00-7.92466E-14 2.04388E-13
 -1      2283 2.07699E+01 2.65785E-01 6.24371E-03-7.81254E-01-9.74043E-14 6.80965E-14
 -1      2284 2.06410E+01 2.36519E-01-8.10287E-04-6.87509E-01-9.37437E-14 5.78288E-14
 -1      2285 2.05695E+01 3.61702E-01-2.11344E-04-9.16252E-01-9.78040E-14 2.04077E-13
 -1      2286 2.05929E+01 2.12061E-01 5.22275E-03-5.97537E-01-1.59251E-13 4.14733E-14
 -1      2287 2.04903E+01 1.86003E-01-5.63233E-04-5.22274E-01-4.99202E-14 9.01970E-14
 -1      2288 2.04555E+01 2.91903E-01-3.75150E-04-7.07902E-01-1.67440E-13 1.75364E-13
 -1      2289 2.04492E+01 1.65175E-01 4.22481E-03-4.50700E-01 6.71699E-14-3.23395E-14
 -1      2290 2.03689E+01 1.43499E-01-3.57768E-04-3.91629E-01 8.34394E-14 6.39327E-15
 -1      2291 2.03579E+01 2.29176E-01-5.15738E-04-5.39380E-01-7.19551E-14 1.21866E-13
 -1      2292 2.03345E+01 1.26608E-01 3.33973E-03-3.35611E-01 9.52379E-14-8.58378E-14
 -1      2293 2.02726E+01 1.09232E-01-2.07461E-04-2.89979E-01 1.40238E-13-9.13564E-14
 -1      2294 2.02758E+01 1.76704E-01-5.86257E-04-4.05723E-01 5.71451E-14-1.79955E-13
 -1      2295 2.02444E+01 9.59041E-02 2.59619E-03-2.46695E-01 1.70889E-13-6.83121E-14
 -1      2296 2.01974E+01 8.22718E-02-1.06344E-04-2.11874E-01 1.61959E-13-7.46263E-14
 -1      2297 2.02083E+01 1.34485E-01-5.92415E-04-3.01296E-01 1.52105E-13-1.34449E-13
 -1      2298 2.01749E+01 7.19244E-02 1.99186E-03-1.78798E-01 4.14831E-14-9.35994E-14
 -1      2299 2.01397E+01 6.13706E-02-4.29971E-05-1.52508E-01-2.03926E-14-3.18329E-14
 -1      2300 2.01540E+01 1.01279E-01-5.54344E-04-2.20709E-01 5.08160E-14-1.66248E-13
 -1      2301 2.01221E+01 5.34202E-02 1.51102E-03-1.27496E-01 6.06167E-15-2.01375E-14
 -1      2302 2.00961E+01 4.53242E-02-6.14467E-06-1.07852E-01 5.47646E-14-4.46610E-14
 -1      2303 2.01113E+01 7.55264E-02-4.91580E-04-1.59207E-01-4.74631E-14-2.53106E-13
 -1      2304 2.00827E+01 3.92622E-02 1.13396E-03-8.91444E-02-5.52480E-15-4.64933E-14
 -1      2305 2.00638E+01 3.30973E-02 1.32867E-05-7.46279E-02-6.29810E-14-4.65655E-14
 -1      2306 2.00783E+01 5.57455E-02-4.18920E-04-1.12782E-01-2.43514E-14-2.20783E-13
 -1      2307 2.00538E+01 2.85067E-02 8.41478E-04-6.08032E-02-3.37942E-14-2.71711E-14
 -1      2308 2.00404E+01 2.38459E-02 2.18886E-05-5.02103E-02-1.77391E-14 2.00347E-14
 -1      2309 2.00534E+01 4.06677E-02-3.46115E-04-7.81392E-02-6.47079E-14-2.49698E-13
 -1      2310 2.00330E+01 2.03948E-02 6.16699E-04-4.01342E-02 3.26610E-14 1.77881E-14
 -1      2311 2.00237E+01 1.68989E-02 2.41544E-05-3.25192E-02 8.95908E-14 6.73924E-14
 -1      2312 2.00350E+01 2.92584E-02-2.78791E-04-5.26189E-02 4.61665E-14-1.70944E-13
 -1      2313 2.00185E+01 1.43262E-02 4.45467E-04-2.52948E-02 2.36912E-15 9.06206E-14
 -1      2314 2.00122E+01 1.17286E-02 2.29985E-05-1.99196E-02 2.42546E-14 5.65366E-14
 -1      2315 2.00217E+01 2.06934E-02-2.19680E-04-3.40951E-02 2.53196E-14-4.98879E-14
 -1      2316 2.00085E+01 9.83036E-03 3.16229E-04-1.48423E-02 1.50196E-13 9.26715E-14
 -1      2317 2.00045E+01 7.92185E-03 2.02273E-05-1.11344E-02 2.33950E-13 5.57902E-14
 -1      2318 2.00122E+01 1.43234E-02-1.69663E-04-2.08846E-02 7.42748E-14 1.58746E-13
 -1      2319 2.00020E+01 6.53888E-03 2.19690E-04-7.65495E-03 1.77959E-13-6.69953E-14
 -1      2320 1.99996E+01 5.15610E-03 1.69056E-05-5.17295E-03 3.82025E-16 7.71999E-15
 -1      2321 2.00058E+01 9.63863E-03-1.28530E-04-1.16649E-02 1.07875E-13 7.23567E-14
 -1      2322 1.99980E+01 4.16418E-03 1.48437E-04-2.86656E-03-1.90625E-14 6.45785E-14
 -1      2323 1.99966E+01 3.17945E-03 1.36205E-05-1.27267E-03 1.06886E-13 2.27594E-13
 -1      2324 2.00015E+01 6.24032E-03-9.54865E-05-5.40531E-03 6.88928E-14 1.17502E-13
 -1      2325 1.99957E+01 2.48186E-03 9.65880E-05 1.86588E-04-8.51978E-14 1.74314E-13
 -1      2326 1.99951E+01 1.79571E-03 1.06636E-05 1.14865E-03-1.66715E-13 1.98398E-13
 -1      2327 1.99988E+01 3.81671E-03-6.94799E-05-1.30921E-03 4.51107E-15 3.30634E-13
 -1      2328 1.99946E+01 1.31735E-03 5.95020E-05 2.00816E-03-1.54229E-13-5.45392E-14
 -1      2329 1.99944E+01 8.52567E-04 8.15062E-06 2.53084E-03-3.63784E-14-3.81967E-14
 -1      2330 1.99973E+01 2.12483E-03-4.93949E-05 1.23309E-03-2.19438E-13 2.85859E-14
 -1      2331 1.99942E+01 5.35407E-04 3.35329E-05 2.97615E-03 1.37523E-14-1.09641E-13
 -1      2332 1.99944E+01 2.32444E-04 6.09875E-06 3.20215E-03-8.74700E-14-2.28769E-13
 -1      2333 1.99965E+01 9.75978E-04-3.41654E-05 2.68312E-03-6.41875E-14-1.09570E-13
 -1      2334 1.99944E+01 3.19299E-05 1.58345E-05 3.37055E-03-9.20306E-14-2.31559E-13
 -1      2335 1.99947E+01-1.54792E-04 4.47386E-06 3.40409E-03-3.23462E-14-1.59060E-13
 -1      2336 1.99963E+01 2.24536E-04-2.28321E-05 3.38581E-03-7.16925E-14-2.50110E-13
 -1      2337 1.99948E+01-2.72547E-04 4.20161E-06 3.39547E-03-2.27931E-13-2.00250E-13
 -1      2338 1.99953E+01-3.77567E-04 3.21883E-06 3.31129E-03-1.97068E-13-1.76668E-14
 -1      2339 1.99964E+01-2.41032E-04-1.45651E-05 3.59516E-03-9.86566E-14-2.09522E-13
 -1      2340 1.99954E+01-4.38062E-04-3.05936E-06 3.19689E-03-3.68760E-14 2.16318E-13
 -1      2341 1.99959E+01-4.87244E-04 2.26945E-06 3.04739E-03 7.89839E-14 2.75544E-13
 -1      2342 1.99966E+01-5.05310E-04-8.66842E-06 3.49489E-03 3.43471E-15 1.60217E-14
 -1      2343 1.99961E+01-5.09417E-04-7.23458E-06 2.87680E-03 1.51522E-13 3.30913E-13
 -1      2344 1.99965E+01-5.21867E-04 1.56254E-06 2.69765E-03 1.51028E-13 3.56154E-13
 -1      2345 1.99970E+01-6.31703E-04-4.57137E-06 3.21509E-03 1.59864E-13 2.87348E-13
 -1      2346 1.99967E+01-5.19579E-04-9.28843E-06 2.50425E-03 7.86274E-14 2.59250E-13
 -1      2347 1.99971E+01-5.09192E-04 1.03974E-06 2.31876E-03 9.69654E-14 2.48176E-13
 -1      2348 1.99974E+01-6.67096E-04-1.81583E-06 2.84540E-03 7.83160E-14 2.96277E-13
 -1      2349 1.99973E+01-4.92424E-04-9.93304E-06 2.12403E-03 1.63841E-13 2.48448E-13
 -1      2350 1.99976E+01-4.69138E-04 6.48540E-07 1.94655E-03 2.08701E-13 3.11423E-13
 -1      2351 1.99978E+01-6.45640E-04-4.06062E-08 2.44540E-03 9.32170E-14 3.00634E-13
 -1      2352 1.99978E+01-4.44955E-04-9.68431E-06 1.76336E-03 2.28640E-13 1.96166E-13
 -1      2353 1.99981E+01-4.15770E-04 3.41220E-07 1.60181E-03 1.65838E-13 3.47265E-13
 -1      2354 1.99982E+01-5.91803E-04 1.03298E-06 2.05263E-03 2.13879E-13 2.76507E-15
 -1      2355 1.99983E+01-3.89109E-04-8.90756E-06 1.43691E-03 4.83188E-14 4.91320E-13
 -1      2356 1.99985E+01-3.58898E-04 7.34894E-08 1.29468E-03 7.78462E-14 4.71425E-13
 -1      2357 1.99985E+01-5.22847E-04 1.61306E-06 1.68883E-03 2.00631E-13 1.80078E-13
 -1      2358 1.99986E+01-3.33186E-04-7.85239E-06 1.15051E-03-7.95207E-15 3.49517E-13
 -1      2359 1.99988E+01-3.05311E-04-1.81476E-07 1.02785E-03 5.84031E-14 2.58756E-13
 -1      2360 1.99988E+01-4.50814E-04 1.84998E-06 1.36448E-03-7.16641E-14 1.84979E-13
 -1      2361 1.99989E+01-2.82910E-04-6.67220E-06 9.03951E-04 1.14433E-13 1.12338E-13
 -1      2362 1.99991E+01-2.59691E-04-4.34606E-07 7.99024E-04 1.19432E-13-8.80205E-14
 -1      2363 1.99991E+01-3.83969E-04 1.86454E-06 1.08230E-03 4.14573E-15-1.42511E-13
 -1      2364 1.99992E+01-2.42250E-04-5.45790E-06 6.93011E-04 2.63787E-14-9.14626E-14
 -1      2365 1.99993E+01-2.25231E-04-7.71614E-07 6.02704E-04-8.26083E-14-4.45922E-14
 -1      2366 1.99993E+01-3.28054E-04 1.69029E-06 8.39858E-04 2.86068E-15-4.74612E-13
 -1      2367 1.99994E+01-2.12948E-04-4.22142E-06 5.10757E-04-1.13516E-13 1.10669E-13
 -1      2368 1.99995E+01-2.03020E-04-1.76406E-06 4.31987E-04-9.40444E-14 3.70338E-14
 -1      2369 1.99994E+01-2.86527E-04 1.38970E-06 6.31486E-04-4.68161E-14-4.56904E-13
 -1      2370 1.02959E+01-3.32083E+00 1.35782E-02 6.93747E+00-4.89109E-13 8.74106E-13
 -1      2371 7.68974E+00-2.80671E+00 8.23269E-02 5.75781E+00-5.05151E-13 9.38638E-13
 -1      2372 2.03148E+01 6.65468E-01 1.18360E-02 1.47474E-01 2.95778E-13-1.04487E-13
 -1      2373 2.04229E+01 6.61654E-01 1.28772E-02 4.42497E-01 2.83197E-13-3.71504E-14
 -1      2374 2.02908E+01 5.49494E-01 4.17685E-03-4.71766E-01 2.14691E-13-2.01737E-13
 -1      2375 2.02636E+01 6.30339E-01 1.52619E-02-2.12225E-01 2.76904E-13-1.39626E-13
 -1      2376 2.08334E+01 8.87350E-01-1.23270E-02 6.21851E-03 3.16304E-13-1.77058E-13
 -1      2377 2.04894E+01 3.00146E-01-2.24077E-03-9.02271E-01 2.18158E-13-2.93464E-13
 -1      2378 2.03618E+01 4.38166E-01 1.46805E-02-7.40647E-01 1.94457E-13-2.69087E-13
 -1      2379 2.08485E+01 6.77423E-01-8.38644E-03-6.74400E-01 2.53902E-13-3.33195E-13
 -1      2380 2.07922E+01 1.83175E-02-4.77351E-03-1.05989E+00 2.06575E-13-3.45578E-13
 -1      2381 2.06154E+01 1.58322E-01 9.87907E-03-1.02026E+00 2.44309E-13-2.93382E-13
 -1      2382 2.10367E+01 3.20729E-01-1.30875E-03-1.08662E+00 2.38963E-13-3.69321E-13
 -1      2383 2.10774E+01-1.99613E-01-4.24653E-03-9.65402E-01 1.18114E-13-3.52725E-13
 -1      2384 2.09029E+01-1.02016E-01 2.75229E-03-1.02861E+00 1.71926E-13-3.59756E-13
 -1      2385 2.12624E+01-4.85830E-02 3.97412E-03-1.17208E+00 1.92371E-13-3.50106E-13
 -1      2386 2.12676E+01-3.08595E-01-2.44620E-03-7.11874E-01 6.76477E-14-4.05460E-13
 -1      2387 2.11319E+01-2.68195E-01-3.76134E-03-8.33788E-01 1.37009E-13-3.85695E-13
 -1      2388 2.14182E+01-3.14526E-01 5.44903E-03-9.92392E-01 1.34087E-13-4.24147E-13
 -1      2389 2.13413E+01-3.18355E-01-8.09402E-04-4.05472E-01 9.76337E-14-4.59125E-13
 -1      2390 2.12610E+01-3.24761E-01-7.64332E-03-5.41709E-01 8.13490E-14-4.30101E-13
 -1      2391 2.14616E+01-4.33097E-01 4.08076E-03-6.71037E-01 1.05250E-13-4.63058E-13
 -1      2392 2.13144E+01-2.65448E-01 2.39786E-04-1.24868E-01 1.65570E-13-5.22848E-13
 -1      2393 2.12891E+01-2.98445E-01-8.63976E-03-2.44711E-01 1.32099E-13-4.84624E-13
 -1      2394 2.14037E+01-4.26007E-01 1.94929E-03-3.24680E-01 1.17982E-13-5.31114E-13
 -1      2395 2.12168E+01-1.87543E-01 7.39253E-04 8.97552E-02 4.73363E-14-4.41200E-13
 -1      2396 2.12366E+01-2.28901E-01-7.60252E-03 8.00938E-04 1.20490E-13-4.75621E-13
 -1      2397 2.12784E+01-3.44244E-01 2.84679E-04-2.85346E-02 1.08362E-13-5.25612E-13
 -1      2398 2.10786E+01-1.10804E-01 8.83275E-04 2.29052E-01-2.91515E-14-3.53933E-13
 -1      2399 2.11296E+01-1.48934E-01-5.61919E-03 1.73181E-01 1.20318E-14-3.89311E-13
 -1      2400 2.11196E+01-2.36291E-01-6.71231E-04 1.85519E-01 2.00035E-16-4.21305E-13
 -1      2401 2.09234E+01-4.84544E-02 8.56075E-04 3.01711E-01-8.96133E-14-3.17020E-13
 -1      2402 2.09924E+01-7.81243E-02-3.49662E-03 2.74200E-01-2.21763E-14-3.24054E-13
 -1      2403 2.09517E+01-1.34226E-01-1.09213E-03 3.15735E-01-5.71230E-14-3.13865E-13
 -1      2404 2.07676E+01-4.27038E-03 7.70171E-04 3.23755E-01 1.37832E-14-3.59681E-13
 -1      2405 2.08437E+01-2.45157E-02-1.67625E-03 3.17289E-01-5.55310E-14-3.37290E-13
 -1      2406 2.07899E+01-5.33404E-02-1.20867E-03 3.75969E-01-4.22567E-14-3.14691E-13
 -1      2407 2.06216E+01 2.32261E-02 6.76927E-04 3.11867E-01 9.53470E-14-2.57451E-13
 -1      2408 2.06970E+01 1.11792E-02-3.21283E-04 3.19171E-01 6.01596E-14-2.76603E-13
 -1      2409 2.06424E+01 2.80558E-03-1.18343E-03 3.85164E-01-1.29094E-14-2.54959E-13
 -1      2410 2.04913E+01 3.76301E-02 5.91761E-04 2.80175E-01-3.38616E-14-6.51907E-14
 -1      2411 2.05610E+01 3.17935E-02 5.69481E-04 2.95241E-01 6.24541E-14-1.47063E-13
 -1      2412 2.05126E+01 3.69221E-02-1.10282E-03 3.61404E-01-1.48272E-14-1.58048E-13
 -1      2413 2.03793E+01 4.28348E-02 5.16151E-04 2.39248E-01-1.45484E-13-9.68173E-14
 -1      2414 2.04404E+01 4.12349E-02 1.07360E-03 2.57668E-01-7.11438E-14-5.50962E-14
 -1      2415 2.04015E+01 5.40795E-02-1.00381E-03 3.19360E-01-7.59961E-14-4.86425E-15
 -1      2416 2.02859E+01 4.21910E-02 4.47900E-04 1.96248E-01-1.59591E-13-1.69545E-13
 -1      2417 2.03375E+01 4.31992E-02 1.29100E-03 2.15098E-01-1.87127E-13-1.29189E-13
 -1      2418 2.03087E+01 5.95009E-02-8.99426E-04 2.69713E-01-1.55206E-13 4.27676E-14
 -1      2419 2.02101E+01 3.82465E-02 3.85069E-04 1.55568E-01-7.50302E-14-1.59169E-13
 -1      2420 2.02521E+01 4.06585E-02 1.31565E-03 1.73102E-01-9.63340E-14-1.48557E-13
 -1      2421 2.02326E+01 5.75823E-02-7.94088E-04 2.19541E-01-1.50721E-13-1.03315E-13
 -1      2422 2.01501E+01 3.27748E-02 3.26855E-04 1.19551E-01-7.82547E-14-1.57911E-13
 -1      2423 2.01834E+01 3.57715E-02 1.22380E-03 1.34880E-01 1.09456E-14-1.47753E-13
 -1      2424 2.01715E+01 5.16197E-02-6.90002E-04 1.73069E-01-5.57999E-14-1.22958E-13
 -1      2425 2.01037E+01 2.69173E-02 2.73346E-04 8.91505E-02-6.19067E-14-3.06394E-13
 -1      2426 2.01293E+01 2.99842E-02 1.07159E-03 1.01953E-01-1.37157E-13-2.80705E-13
 -1      2427 2.01234E+01 4.38816E-02-5.89238E-04 1.32454E-01-3.39104E-14-2.35018E-13
 -1      2428 2.00687E+01 2.13469E-02 2.24957E-04 6.44375E-02-4.01127E-14-3.28586E-13
 -1      2429 2.00878E+01 2.41901E-02 8.97147E-04 7.47468E-02-3.97334E-14-3.07118E-13
 -1      2430 2.00863E+01 3.58112E-02-4.94101E-04 9.84589E-02-9.70456E-14-3.29944E-13
 -1      2431 2.00429E+01 1.64122E-02 1.82073E-04 4.49810E-02 5.56402E-14-2.64454E-13
 -1      2432 2.00568E+01 1.88883E-02 7.24374E-04 5.30245E-02-8.39457E-15-3.39316E-13
 -1      2433 2.00582E+01 2.82455E-02-4.06719E-04 7.09841E-02-1.89895E-14-2.44969E-13
 -1      2434 2.00244E+01 1.22512E-02 1.44871E-04 3.01028E-02 1.96776E-13-2.29599E-13
 -1      2435 2.00342E+01 1.43124E-02 5.66775E-04 3.61978E-02 1.47333E-13-1.40332E-13
 -1      2436 2.00374E+01 2.16062E-02-3.28628E-04 4.94421E-02-1.62878E-15-2.47609E-13
 -1      2437 2.00116E+01 8.87328E-03 1.13273E-04 1.90434E-02-1.13462E-14-2.54405E-14
 -1      2438 2.00182E+01 1.05290E-02 4.30731E-04 2.35302E-02 1.48095E-13-7.62136E-14
 -1      2439 2.00223E+01 1.60466E-02-2.60626E-04 3.30189E-02 1.31293E-14 8.83734E-14
 -1      2440 2.00030E+01 6.21685E-03 8.69791E-05 1.10614E-02-8.34379E-15 6.09093E-14
 -1      2441 2.00073E+01 7.50682E-03 3.18036E-04 1.42644E-02-4.04633E-14-3.31568E-15
 -1      2442 2.00117E+01 1.15587E-02-2.02828E-04 2.08392E-02-5.48494E-14 1.42343E-13
 -1      2443 1.99976E+01 4.18658E-03 6.55261E-05 5.48691E-03 5.96377E-14 1.06915E-13
 -1      2444 2.00002E+01 5.16370E-03 2.27759E-04 7.69454E-03 8.92493E-14 1.06102E-13
 -1      2445 2.00045E+01 8.04676E-03-1.54802E-04 1.20648E-02 5.28312E-15 4.68768E-14
 -1      2446 1.99945E+01 2.67697E-03 4.83554E-05 1.74533E-03 2.96830E-14-5.97120E-14
 -1      2447 1.99958E+01 3.39691E-03 1.57529E-04 3.20192E-03 3.35832E-14 8.02894E-14
 -1      2448 1.99999E+01 5.37516E-03-1.15739E-04 5.94688E-03 4.10606E-14 8.18622E-14
 -1      2449 1.99929E+01 1.58593E-03 3.48702E-05-6.37532E-04 8.74439E-14-1.80534E-13
 -1      2450 1.99934E+01 2.10107E-03 1.04366E-04 2.67599E-04 9.03160E-14-8.85584E-14
 -1      2451 1.99970E+01 3.39811E-03-8.46080E-05 1.84697E-03 1.26241E-13-1.11973E-14
 -1      2452 1.99924E+01 8.21821E-04 2.44800E-05-2.04097E-03-3.28985E-14-3.17525E-13
 -1      2453 1.99924E+01 1.17837E-03 6.52036E-05-1.52913E-03 4.93297E-14-1.82628E-13
 -1      2454 1.99955E+01 1.97660E-03-6.02895E-05-7.59432E-04 1.18859E-13-5.26515E-14
 -1      2455 1.99926E+01 3.06458E-04 1.66318E-05-2.76015E-03 6.16620E-14-3.95505E-13
 -1      2456 1.99923E+01 5.43354E-04 3.71772E-05-2.51957E-03-5.11330E-14-4.61749E-13
 -1      2457 1.99948E+01 9.87080E-04-4.16706E-05-2.29064E-03 1.26116E-14-2.24631E-13
 -1      2458 1.99931E+01-2.44390E-05 1.08281E-05-3.01907E-03 6.68864E-14-3.00385E-13
 -1      2459 1.99926E+01 1.24481E-04 1.77720E-05-2.95797E-03 7.58480E-14-3.23574E-13
 -1      2460 1.99948E+01 3.24801E-04-2.77093E-05-3.07157E-03-6.99551E-15-1.36614E-13
 -1      2461 1.99939E+01-2.22149E-04 6.63620E-06-2.98346E-03-7.56946E-14-8.58978E-14
 -1      2462 1.99933E+01-1.36148E-04 4.87178E-06-3.03454E-03 1.02578E-13-1.51478E-13
 -1      2463 1.99950E+01-9.58788E-05-1.74724E-05-3.34843E-03 1.74187E-14 1.22006E-13
 -1      2464 1.99948E+01-3.26532E-04 3.68891E-06-2.77276E-03-1.76120E-13-1.66937E-13
 -1      2465 1.99942E+01-2.84126E-04-3.24469E-06-2.88803E-03-2.36118E-13-1.32420E-13
 -1      2466 1.99955E+01-3.42980E-04-1.01522E-05-3.30318E-03-1.11626E-13 1.91697E-13
 -1      2467 1.99956E+01-3.67854E-04 1.68159E-06-2.47046E-03-1.99045E-13-2.74413E-13
 -1      2468 1.99950E+01-3.54482E-04-7.93897E-06-2.61679E-03-1.70448E-13-2.19280E-13
 -1      2469 1.99961E+01-4.69165E-04-5.06965E-06-3.06684E-03-1.06711E-13-8.36360E-14
 -1      2470 1.99964E+01-3.68587E-04 3.65522E-07-2.13283E-03-1.32944E-13-2.72486E-13
 -1      2471 1.99959E+01-3.73518E-04-1.02612E-05-2.28826E-03-2.05882E-13-2.73257E-13
 -1      2472 1.99967E+01-5.14271E-04-1.66782E-06-2.73091E-03-2.46804E-13-6.54589E-14
 -1      2473 1.99971E+01-3.45065E-04-4.59798E-07-1.79591E-03-6.63184E-14-1.38095E-13
 -1      2474 1.99966E+01-3.60556E-04-1.10023E-05-1.94671E-03-4.17733E-14-2.28281E-13
 -1      2475 1.99972E+01-5.07771E-04 5.00160E-07-2.35694E-03-1.98265E-13-6.04498E-15
 -1      2476 1.99977E+01-3.08925E-04-9.54976E-07-1.48105E-03-1.65641E-13-8.66900E-14
 -1      2477 1.99973E+01-3.29500E-04-1.07435E-05-1.61943E-03-9.01679E-14-5.32730E-14
 -1      2478 1.99977E+01-4.71015E-04 1.78507E-06-1.98428E-03-1.79186E-13 9.74804E-14
 -1      2479 1.99982E+01-2.68346E-04-1.25176E-06-1.19910E-03 1.05365E-13-2.88728E-13
 -1      2480 1.99979E+01-2.90175E-04-9.89908E-06-1.32148E-03-7.68608E-14-2.53798E-13
 -1      2481 1.99982E+01-4.19181E-04 2.45409E-06-1.63615E-03-7.23026E-14-1.01824E-13
 -1      2482 1.99986E+01-2.28965E-04-1.43430E-06-9.53494E-04 1.32855E-13-2.84227E-13
 -1      2483 1.99984E+01-2.49440E-04-8.75338E-06-1.05928E-03 2.71412E-13-2.88929E-13
 -1      2484 1.99986E+01-3.62922E-04 2.70804E-06-1.32423E-03 1.66983E-13-2.79744E-13
 -1      2485 1.99990E+01-1.94818E-04-1.66188E-06-7.42715E-04-2.54243E-13-3.68245E-13
 -1      2486 1.99988E+01-2.12024E-04-7.52097E-06-8.33330E-04-1.23236E-13-4.06313E-13
 -1      2487 1.99989E+01-3.09440E-04 2.70773E-06-1.05195E-03 3.87367E-14-1.85525E-13
 -1      2488 1.99992E+01-1.68400E-04-1.64850E-06-5.61281E-04-1.84853E-13-2.72959E-13
 -1      2489 1.99991E+01-1.81662E-04-6.28868E-06-6.39951E-04-3.01566E-13-4.07909E-13
 -1      2490 1.99991E+01-2.63645E-04 2.77895E-06-8.18930E-04-3.15145E-13-5.78736E-13
 -1      2491 1.99994E+01-1.50724E-04-1.62358E-06-4.03151E-04-6.97993E-14-1.12035E-13
 -1      2492 1.99993E+01-1.59597E-04-5.29319E-06-4.73137E-04-1.30182E-13-1.75182E-13
 -1      2493 1.99993E+01-2.27182E-04 3.82826E-06-6.17314E-04-2.99785E-13-6.06528E-13
 -1      2494 1.99996E+01-1.40964E-04-1.82842E-06-2.63524E-04 8.75531E-14-1.52849E-13
 -1      2495 1.99995E+01-1.45874E-04-4.41810E-06-3.26844E-04 6.40189E-14 7.06112E-14
 -1      2496 1.99995E+01-2.02094E-04 3.94957E-06-4.40650E-04-4.79696E-14-2.82099E-13
 -1      2497 1.99997E+01-1.31026E-04-2.54898E-06-1.89871E-04 3.47702E-14-1.01549E-13
 -1      2498 1.99999E+01-7.39672E-04 3.45109E-06-3.62286E-04-1.45256E-13-8.77284E-14
 -1      2499 1.99999E+01-6.73888E-04-1.07662E-06-3.92193E-04-2.86273E-13-3.70611E-13
 -1      2500 2.00000E+01-8.53864E-04 3.51224E-06-2.58551E-04 6.19108E-14 1.89133E-13
 -1      2501 1.99999E+01-8.04844E-04 2.60548E-07-3.10889E-04-1.47827E-14 1.87704E-13
 -1      2502 1.99999E+01-7.97039E-04-2.33463E-06-3.91095E-04-3.77700E-14 2.14721E-13
 -1      2503 1.99997E+01-4.31462E-04 2.07995E-06-4.05943E-04-4.21628E-13-7.45218E-14
 -1      2504 1.99997E+01-3.54992E-04-3.11746E-06-3.82091E-04-1.90515E-13 9.62289E-14
 -1      2505 1.99998E+01-5.92090E-04 2.74495E-06-4.13801E-04-5.44894E-13-3.13623E-13
 -1      2506 1.99998E+01-5.18881E-04-2.30483E-06-4.14882E-04-5.83206E-13-6.14681E-14
 -1      2507 1.99998E+01-4.92161E-04 1.09818E-06-4.81901E-04-3.96452E-13-3.06850E-13
 -1      2508 1.99999E+01-6.55799E-04-1.78648E-06-4.71174E-04-2.85253E-13-1.49193E-13
 -1      2509 2.00000E+01-9.21845E-04 3.19057E-06-1.18811E-04-2.77244E-13-2.33578E-13
 -1      2510 2.00000E+01-8.95831E-04 1.47881E-06-1.85642E-04-8.94335E-14-2.98398E-13
 -1      2511 2.00000E+01-9.00147E-04-2.97119E-06-2.57446E-04-2.06761E-13-2.08195E-13
 -1      2512 2.00000E+01-9.35996E-04 2.49965E-06 3.72690E-05-3.18170E-13 3.26769E-13
 -1      2513 2.00000E+01-9.36223E-04 2.50044E-06-3.45223E-05-2.86598E-13 2.43642E-13
 -1      2514 2.00000E+01-9.54420E-04-3.30891E-06-8.87985E-05-2.17083E-13 2.94804E-14
 -1      2515 2.00000E+01-8.94760E-04 1.51653E-06 1.88136E-04-1.85357E-13-3.95710E-15
 -1      2516 2.00000E+01-9.21291E-04 3.17897E-06 1.21493E-04-3.30732E-13 3.40205E-13
 -1      2517 2.00000E+01-9.54095E-04-3.29156E-06 9.18609E-05-2.31600E-13 3.77533E-13
 -1      2518 1.99999E+01-8.05043E-04 2.65415E-07 3.11019E-04-1.47043E-13-6.45021E-14
 -1      2519 2.00000E+01-8.53345E-04 3.49931E-06 2.59706E-04-1.13051E-13-1.84795E-13
 -1      2520 2.00000E+01-8.99914E-04-3.01057E-06 2.58970E-04-1.55978E-14 3.24729E-14
 -1      2521 1.99999E+01-6.73820E-04-1.03602E-06 3.92114E-04 6.66767E-14 5.72856E-14
 -1      2522 1.99999E+01-7.39820E-04 3.41297E-06 3.62310E-04-1.39695E-13-9.33884E-14
 -1      2523 1.99999E+01-7.97356E-04-2.35216E-06 3.91296E-04-1.43082E-13-1.18184E-13
 -1      2524 1.99998E+01-5.16653E-04-2.01244E-06 4.16413E-04 1.55830E-13 8.20374E-14
 -1      2525 1.99998E+01-5.92215E-04 2.95318E-06 4.14027E-04 6.18057E-14 1.97772E-13
 -1      2526 1.99999E+01-6.55926E-04-1.37352E-06 4.70800E-04-1.25752E-14 4.03551E-14
 -1      2527 1.99997E+01-3.50890E-04-2.43192E-06 3.78006E-04-2.70123E-13-6.01392E-13
 -1      2528 1.99997E+01-4.27731E-04 1.94225E-06 4.04668E-04 4.26919E-14-4.22743E-13
 -1      2529 1.99997E+01-4.91931E-04-1.21199E-06 4.83928E-04-6.27583E-14-3.04187E-13
 -1      2530 1.99997E+01-2.07732E-04-2.26788E-06 2.51954E-04-2.50772E-13-2.46962E-13
 -1      2531 3.36862E+00-1.82121E+00 4.05550E-02-6.84160E-01-3.85976E-14 1.09779E-12
 -1      2532 4.33904E+00-2.22157E+00 3.62324E-02-2.87539E+00 1.01169E-14 1.15041E-12
 -1      2533 2.06158E+01 6.21374E-01 1.65669E-02 8.00495E-01 2.96460E-13 5.48444E-15
 -1      2534 2.08690E+01 5.63041E-01 1.19984E-02 1.06998E+00 3.21467E-13 7.00175E-14
 -1      2535 2.10781E+01 8.87093E-01-1.11600E-02 7.85090E-01 3.48827E-13-9.41621E-14
 -1      2536 1.77815E+01-4.33009E+00-7.10613E-02 7.18261E+00-4.90885E-13 3.98511E-13
 -1      2537 1.40039E+01-3.97013E+00 8.50731E-02 7.10369E+00-5.90111E-13 6.53810E-13
 -1      2538 6.16208E+00-2.83578E+00 3.64695E-02-4.38901E+00 2.18214E-13 1.07109E-12
 -1      2539 8.96748E+00-3.25267E+00-1.78235E-03-5.96738E+00 2.09194E-13 8.89816E-13
 -1      2540 6.96432E+00-1.49447E+00 1.43556E-01-3.63921E+00 2.43916E-13 9.88265E-13
 -1      2541 2.60624E+01 9.76021E-02 1.55756E-02-1.12080E+00-1.12020E-13 4.20570E-13
 -1      2542 2.68281E+01-1.19225E+00-5.13494E-02-1.31344E+00-1.10929E-13 5.98687E-13
 -1      2543 2.63768E+01-1.74616E+00-2.14317E-03-9.29398E-01 1.82450E-14 4.88291E-13
 -1      2544 2.37527E+01 2.98765E-01-5.48043E-05-4.85219E-01-1.79926E-14 1.81827E-13
 -1      2545 2.58503E+01-3.29552E+00-9.87621E-02 4.45093E+00-2.69229E-14-4.48780E-13
 -1      2546 2.23251E+01-4.12741E+00 8.14987E-02 5.62481E+00-3.64403E-13-9.41192E-14
 -1      2547 3.38931E+01 6.28594E+00-2.41654E-01-1.30524E+00-1.56941E-12-4.54498E-14
 -1      2548 3.35939E+01 5.84830E+00-2.63951E-02-2.08681E+00-1.48798E-12 8.32390E-14
 -1      2549 3.13683E+01 7.43293E+00-1.40567E-01 8.59838E-01 1.40388E-12-3.53717E-13
 -1      2550 3.21675E+01 7.64685E+00-8.71268E-02 5.19419E-01 1.37534E-12-4.48520E-13
 -1      2551 1.10694E+01 3.13117E+00 1.52922E-01-4.19945E+00-6.96138E-13-1.09301E-12
 -1      2552 8.69013E+00 3.67953E+00 2.64983E-02-3.76871E+00-5.98709E-13-1.19703E-12
 -1      2553 1.24035E+01 1.88464E+00 6.55162E-02-4.80686E+00-7.07517E-13-1.00478E-12
 -1      2554 3.13955E+01 4.66326E+00-7.77731E-02 7.80655E-01 1.23757E-12-2.13940E-13
 -1      2555 3.13574E+01 6.06423E+00-1.72454E-01 1.33542E+00 1.33696E-12-1.90403E-13
 -1      2556 3.21733E+01 7.18624E+00-1.27027E-01 2.22980E-01 1.29163E-12-5.41338E-13
 -1      2557 3.17181E+01 6.45375E+00-9.32895E-02-4.67194E-02 1.19382E-12-5.82895E-13
 -1      2558 2.97475E+01 7.27378E+00-6.53125E-02 1.73208E-01 1.24206E-12-5.06276E-13
 -1      2559 3.30046E+01-3.57531E-01-8.88734E-02-1.19129E+00-1.03489E-12 1.29563E-13
 -1      2560 3.07012E+01-1.87414E+00-4.40780E-02-4.71753E-01-7.46000E-13 1.18572E-13
 -1      2561 2.96768E+01 2.07472E+00-5.46623E-02-5.51766E-01 8.94396E-13-2.01644E-13
 -1      2562 3.10372E+01 3.24579E+00-1.26533E-01 1.14241E-01 1.10224E-12-1.92651E-13
 -1      2563 2.98654E+01 3.90259E+00-1.85417E-02 1.49317E+00 9.93358E-13-2.13440E-14
 -1      2564 2.46353E+01-8.28210E-01-2.63676E-02-3.47541E+00 2.99274E-13-3.79891E-13
 -1      2565 2.78565E+01 1.92613E-01-9.61050E-02-2.20297E+00 6.11414E-13-2.86715E-13
 -1      2566 1.88464E+01-1.28560E+00 4.33491E-02-5.56215E+00-1.42608E-13-6.97317E-13
 -1      2567 2.17232E+01-1.33117E+00-4.61064E-02-5.09887E+00 9.92817E-14-5.70100E-13
 -1      2568 1.02759E+01-1.19793E-01 7.20108E-02-6.23955E+00-3.42171E-13-1.24997E-12
 -1      2569 1.44084E+01-6.91495E-01-8.01166E-03-6.56988E+00-2.27207E-13-9.88834E-13
 -1      2570 5.23685E+00 1.21039E+00 8.10499E-02-4.65323E+00-4.27922E-13-1.51837E-12
 -1      2571 7.31832E+00 6.48905E-01 5.54854E-02-5.85109E+00-3.05728E-13-1.44018E-12
 -1      2572 5.39123E+00 1.31316E+00 1.09124E-01 2.31213E+00-1.48478E-13-1.52139E-12
 -1      2573 3.83243E+00 1.87809E+00 1.56446E-01 5.96138E-01-1.29882E-13-1.63125E-12
 -1      2574 1.24599E+01-1.65971E+00 5.67061E-02 4.71014E+00-1.09329E-13-1.19751E-12
 -1      2575 8.58700E+00-1.57665E-01 7.71594E-02 3.66912E+00 2.22045E-14-1.29857E-12
 -1      2576 1.98207E+01-3.48587E+00-4.38765E-02 4.41667E+00-2.23321E-13-7.52197E-13
 -1      2577 1.59614E+01-2.86471E+00-2.41097E-02 4.53258E+00-8.97060E-14-9.20708E-13
 -1      2578 2.04058E+01-4.92951E+00-9.05430E-03-6.07540E+00 8.88178E-14 4.83322E-13
 -1      2579 2.38738E+01-4.68718E+00-8.46786E-02-5.45855E+00-1.70419E-14 3.13194E-13
 -1      2580 2.78737E+01-3.48427E+00-1.19862E-01 1.60421E+00-4.65628E-13-1.45883E-13
 -1      2581 2.38175E+01-3.74786E+00 4.63973E-03 2.92413E+00-2.30371E-13-4.48322E-13
 -1      2582 3.38093E+01 3.12930E+00-2.15456E-01-2.83742E+00-1.32122E-12 3.44086E-13
 -1      2583 3.35166E+01 1.49283E+00-5.59688E-02-2.24936E+00-1.19059E-12 2.19602E-13
 -1      2584 3.20835E+01 2.94501E-01-4.83959E-03-2.91446E+00-8.88067E-13 5.94164E-13
 -1      2585 3.31046E+01 3.65838E+00-1.23788E-01 9.92144E-01-1.34431E-12-4.07840E-13
 -1      2586 3.39139E+01 5.30470E+00-1.46377E-01 6.71004E-01-1.49791E-12-3.48957E-13
 -1      2587 3.20055E+01-5.14487E-01-7.42543E-02-2.61780E-01-7.65298E-13-4.07563E-13
 -1      2588 3.32687E+01 1.11605E+00-1.25027E-01 3.63199E-01-1.01369E-12-4.58855E-13
 -1      2589 2.73630E+01-3.87494E+00-2.13324E-02-3.46834E+00-1.09524E-13 9.88098E-15
 -1      2590 3.04945E+01-2.43462E+00-1.08696E-01-2.06081E+00-4.16625E-13-2.16771E-13
 -1      2591 1.31551E+01-4.18430E+00 4.95760E-02-6.58956E+00 2.36478E-13 7.66748E-13
 -1      2592 1.68473E+01-4.63697E+00-2.01162E-02-6.91819E+00 8.95950E-14 7.46223E-13
 -1      2593 1.99158E+01-4.69109E+00 9.73194E-02-6.06176E+00 3.41449E-13 3.74005E-13
 -1      2594 5.23896E+00-1.94621E+00 5.18080E-02 4.15009E+00-3.09697E-13 9.98257E-13
 -1      2595 3.76577E+00-1.69658E+00 7.63916E-02 1.71759E+00-2.26749E-13 1.11605E-12
 -1      2596 2.25399E+01 7.94935E-01-1.11710E-02 2.30723E+00 5.50400E-13 2.79329E-13
 -1      2597 2.31016E+01 1.19822E+00-1.39853E-02 2.76873E+00 5.88155E-13 3.20292E-13
 -1      2598 2.30047E+01 1.64770E+00-2.57253E-02 3.04199E+00 6.21081E-13 1.11605E-13
 -1      2599 2.26881E+01 9.57360E-01-1.52037E-02 2.53015E+00 5.49656E-13 1.04279E-13
 -1      2600 3.03587E+01 5.64319E-01-8.17889E-02 1.67517E+00 6.89466E-13-7.14040E-13
 -1      2601 2.83902E+01-1.19587E+00-5.37538E-03 2.45122E+00 3.58158E-13-6.42209E-13
 -1      2602 2.98061E+01 1.15518E+00-2.25052E-02 1.48820E-01 6.13079E-13-8.67140E-13
 -1      2603 6.32830E+00 3.74163E+00 1.33460E-01-3.43985E-01-2.04139E-13-1.41448E-12
 -1      2604 1.02044E+01 2.50458E+00 9.42287E-02 1.99881E+00 8.96089E-14-1.07946E-12
 -1      2605 1.20433E+01 2.71420E+00-7.64207E-03 1.75256E+00 1.11730E-13-8.76299E-13
 -1      2606 2.86179E+01 5.63918E+00-1.04446E-01 1.84296E+00 1.15888E-12-1.26288E-13
 -1      2607 3.02764E+01 6.61176E+00-1.02205E-01 1.41041E+00 1.30385E-12-2.50966E-13
 -1      2608 2.83175E+01 6.81081E+00-1.67118E-01 1.30136E+00 1.23776E-12-2.93210E-13
 -1      2609 2.15645E+01 7.59464E-01-5.39411E-03 1.48921E+00 3.94426E-13 1.91379E-14
 -1      2610 2.30049E+01 1.92708E+00-1.32456E-02 3.02401E+00 5.38120E-13-9.33767E-14
 -1      2611 5.36770E+00-6.88612E-01 1.63847E-01 5.48973E-01-1.27716E-13 1.03428E-12
 -1      2612 2.31605E+01-3.48044E+00 7.71943E-02 2.77337E+00 3.57769E-14-2.95472E-13
 -1      2613 1.53046E+01 2.13116E+00 1.23294E-01 1.64681E+00 1.33601E-13-6.55198E-13
 -1      2614 2.70971E+01-2.69937E+00-1.89663E-02 2.68807E+00-7.11931E-14-7.27252E-13
 -1      2615 1.58255E+01-1.78942E+00 9.41256E-02 4.05886E+00 1.90681E-13-8.68527E-13
 -1      2616 8.52092E+00 1.06246E+00 1.02055E-01 2.85525E+00 5.39707E-14-1.31320E-12
 -1      2617 2.99649E+01 2.73544E+00-8.72677E-02-3.39722E+00-9.85323E-13 6.04267E-13
 -1      2618 3.20128E+01 4.19970E+00-4.66240E-02-2.90814E+00-1.26224E-12 3.46140E-13
 -1      2619 3.02026E+01 7.98811E-01-1.49726E-01-3.91329E+00-7.74478E-13 8.04024E-13
 -1      2620 7.92154E+00-1.55907E+00 1.55961E-01 4.79927E+00-5.20819E-13 8.59757E-13
 -1      2621 2.88625E+01-1.96729E+00-7.25997E-02 1.39075E+00-9.15101E-14-8.63393E-13
 -1      2622 1.36299E+01-3.24610E+00 1.29944E-01 6.88797E+00-7.00301E-13 6.00617E-13
 -1      2623 1.99996E+01-1.89983E-04-2.38946E-07-2.81443E-04 9.17731E-14-1.49823E-13
 -1      2624 1.99997E+01-2.47986E-04 2.59913E-07-3.26294E-04 9.02488E-14-6.66860E-14
 -1      2625 4.09372E+00 1.89691E+00 1.58998E-01-3.73694E+00-3.36287E-13-1.63852E-12
 -1      2626 6.09681E+00 2.30812E+00 1.09424E-01-4.24339E+00-5.38583E-13-1.51112E-12
 -1      2627 1.99996E+01-1.92949E-04-2.60638E-06 3.13733E-04-2.21761E-13-2.03787E-13
 -1      2628 1.99997E+01-2.76355E-04 1.76552E-06 3.56737E-04-2.75906E-13-4.40563E-13
 -1      2629 1.99996E+01-3.36015E-04-1.68891E-06 4.49665E-04-1.72308E-13-6.65428E-13
 -1      2630 1.99995E+01-2.02465E-04-3.94387E-06 3.79720E-04-2.01233E-13 4.28253E-14
 -1      2631 1.01124E+01 7.25051E-01 6.87943E-02-5.93843E+00-5.55167E-13-1.24944E-12
 -1      2632 1.72753E+01-8.92049E-01 6.77796E-02-5.66485E+00-4.26603E-13-7.73397E-13
 -1      2633 2.31446E+01 1.57253E+00 1.43252E-02 2.90089E+00 5.04671E-13-8.21357E-14
 -1      2634 2.10993E+01-4.22385E+00 1.00079E-01 5.89447E+00-6.14647E-13-4.53942E-14
 -1      2635 2.82688E+01 8.23096E-01-1.25279E-02-3.16300E-01 5.13934E-13-8.99281E-15
 -1      2636 1.25331E+01-3.20267E+00 1.19817E-01-6.16509E+00 4.19498E-13 7.82985E-13
 -1      2637 2.64706E+01-4.50264E+00 6.92022E-02-3.59396E+00 1.83326E-13-1.27398E-13
 -1      2638 3.06968E+01-1.99895E+00 1.12844E-02-1.35087E-01-3.09500E-13-5.57304E-13
 -1      2639 2.93273E+01-2.86975E+00-1.85781E-02-3.80757E-01-3.57936E-13 3.10807E-13
 -1      2640 3.11234E+01 5.29427E+00-7.95368E-02 3.72498E-01-1.37274E-12-2.45179E-13
 -1      2641 3.02029E+01 5.11212E+00-5.87801E-02-5.81548E-01 9.97841E-13-7.21589E-13
 -1      2642 7.35844E+00 3.46164E+00 1.45069E-01-3.53945E+00-5.37216E-13-1.37670E-12
 -1      2643 1.83295E+01 1.07926E+00-1.60838E-02 1.21499E+00 1.43469E-13-3.25059E-13
 -1      2644 2.13279E+01 7.30200E-01 6.04436E-02 4.87733E-01 6.12045E-14-1.15130E-13
 -1      2645 2.25357E+01-6.55961E-01 7.45116E-03 5.71625E-01 9.46673E-14 4.35242E-14
 -1      2646 1.66785E+01 7.06809E-01 9.48194E-02 2.11588E+00 1.97634E-13-5.57679E-13
 -1      2647 2.40515E+01-1.13117E+00 5.35713E-02-3.20515E+00-7.56895E-14-2.44416E-13
 -1      2648 3.07030E+00 2.02059E+00 6.18818E-02-1.69756E+00-3.51292E-13-1.62759E-12
 -1      2649 3.39757E+01 6.60411E+00-6.57378E-02-6.18236E-01-1.59311E-12-1.18794E-13
 -1      2650 1.99996E+01-2.62848E-04 2.50283E-06 4.78879E-04-2.30275E-13-1.16172E-13
 -1      2651 1.99996E+01-3.04699E-04-2.42391E-06-4.20414E-04-5.78739E-14-2.53861E-13
 -1      2652 2.03719E+01-2.95889E-01 8.42268E-02-3.23513E+00-5.89660E-13-4.35555E-13
 -1      2653 1.77546E+01 7.09817E-02 2.65998E-02-4.31589E+00-7.01855E-13-5.80092E-13
 -1      2654 2.37937E+01 1.24979E+00-4.72517E-02 2.37803E+00 2.48563E-13-2.68162E-13
 -1      2655 2.39394E+01 1.04189E+00-5.25402E-03 1.96106E+00 1.09924E-13-2.55901E-13
 -1      2656 2.34083E+01 1.42473E+00-4.09969E-02 2.77546E+00 4.11574E-13-2.36892E-13
 -1      2657 2.36183E+01 1.40681E+00-1.09225E-02 2.59294E+00 3.04414E-13-2.66226E-13
 -1      2658 2.39760E+01 1.26154E+00 2.15815E-02 2.61446E+00 3.23266E-13-1.70634E-13
 -1      2659 2.24334E+01 9.20511E-01 5.40484E-03 2.14186E+00 4.32764E-13-5.96365E-15
 -1      2660 2.27616E+01 9.09641E-01-2.24466E-03 2.43544E+00 4.54707E-13 1.07622E-14
 -1      2661 2.28164E+01-4.26144E+00-5.78861E-02 4.83075E+00-5.92915E-13-3.80376E-13
 -1      2662 1.95629E+01-3.94607E+00 1.43487E-01 6.04255E+00-7.54063E-13 3.79948E-14
 -1      2663 2.87855E+01 1.52705E+00-1.81707E-01-6.73435E-01 6.12801E-13-8.69235E-13
 -1      2664 2.85612E+01-4.30224E-02-2.47003E-02-6.95996E-02 3.67109E-13-9.50268E-13
 -1      2665 3.10462E+01-1.05223E-01-8.46215E-02-3.43361E+00-7.33025E-13 7.70078E-13
 -1      2666 1.01283E+01-1.48170E+00 7.75564E-02 5.60196E+00-5.48700E-13 7.23255E-13
 -1      2667 8.13244E+00-4.70645E-01 1.58993E-01 3.83684E+00-4.24348E-13 7.15927E-13
 -1      2668 1.56228E+01-3.35375E+00-3.15265E-02 6.74754E+00-7.55229E-13 3.56909E-13
 -1      2669 1.27885E+01-2.33574E+00 1.59207E-01 6.30986E+00-7.07129E-13 5.77899E-13
 -1      2670 1.99997E+01-4.26723E-04 6.69313E-07-5.63074E-04-2.95141E-13-4.22712E-13
 -1      2671 1.99996E+01-3.23693E-04-1.94423E-06-5.10305E-04-1.21365E-13-3.09705E-13
 -1      2672 1.99995E+01-3.39681E-04-5.39946E-06-5.98403E-04-3.40608E-13-4.86327E-13
 -1      2673 2.36644E+01-2.75544E+00-4.06524E-03-2.46378E+00 3.08076E-13-3.67309E-13
 -1      2674 2.28002E+01-1.93667E+00 5.56011E-02-2.74021E+00 2.48109E-13-2.86543E-13
 -1      2675 2.20380E+01-1.26641E+00 1.35856E-02-2.68007E+00 1.84993E-13-1.88405E-13
 -1      2676 2.14693E+01-6.67312E-01 3.19503E-02-2.71680E+00 1.66305E-13-1.54068E-13
 -1      2677 2.11399E+01-1.70949E+00-3.74292E-02-3.24657E+00 2.85303E-13-1.91510E-13
 -1      2678 2.11559E+01-2.30906E-01 1.38541E-02-2.53028E+00 1.00579E-13-7.77453E-14
 -1      2679 2.08190E+01 1.07395E-01 8.22765E-03-2.43953E+00 4.09545E-14-8.90477E-14
 -1      2680 2.02556E+01-4.18169E-01-7.98085E-03-2.95192E+00 1.66836E-13-5.04596E-14
 -1      2681 2.07455E+01 3.34139E-01 1.05485E-02-2.22555E+00 6.24419E-14-7.64675E-14
 -1      2682 2.05484E+01 4.81534E-01-4.59453E-04-2.08104E+00 8.75102E-14-4.86423E-14
 -1      2683 1.99410E+01 3.23193E-01-6.97355E-03-2.46596E+00 7.54330E-14 3.81999E-14
 -1      2684 2.05646E+01 5.65456E-01 7.51344E-03-1.88367E+00 5.77457E-14-7.51760E-14
 -1      2685 2.04387E+01 6.02431E-01-3.24116E-03-1.72535E+00 2.36642E-14-9.94857E-14
 -1      2686 1.99137E+01 6.51052E-01-7.58173E-04-2.03876E+00 7.24541E-14 3.49034E-14
 -1      2687 2.04790E+01 6.08691E-01 6.16734E-03-1.55135E+00 6.54146E-14-5.31330E-14
 -1      2688 2.03858E+01 5.90011E-01-3.83046E-03-1.40012E+00 6.29129E-14 1.09136E-13
 -1      2689 1.99725E+01 7.34682E-01 2.11159E-03-1.66574E+00 7.35805E-14 3.20568E-14
 -1      2690 2.04227E+01 5.60647E-01 5.25720E-03-1.25093E+00-6.90253E-14 1.45153E-13
 -1      2691 2.03458E+01 5.19444E-01-3.54605E-03-1.11652E+00-1.26056E-13 1.67784E-13
 -1      2692 2.00403E+01 6.93641E-01 2.69990E-03-1.34519E+00 2.35080E-14 1.14854E-13
 -1      2693 2.03710E+01 4.78041E-01 4.52832E-03-9.91185E-01-1.40454E-13 1.74669E-13
 -1      2694 2.03048E+01 4.31747E-01-2.96710E-03-8.77031E-01-8.60320E-14 1.69586E-13
 -1      2695 2.00892E+01 6.01090E-01 2.30202E-03-1.07306E+00-9.47801E-14 1.35465E-13
 -1      2696 2.03183E+01 3.89992E-01 3.86741E-03-7.73600E-01-1.04632E-13 1.80862E-13
 -1      2697 2.02610E+01 3.46692E-01-2.34922E-03-6.79624E-01-1.74992E-13 1.89998E-13
 -1      2698 2.01148E+01 4.96135E-01 1.63485E-03-8.45306E-01-8.11251E-14 1.08995E-13
 -1      2699 2.02656E+01 3.09524E-01 3.25029E-03-5.95621E-01-2.46943E-13 1.82859E-13
 -1      2700 2.02168E+01 2.72262E-01-1.79707E-03-5.19977E-01-1.43010E-13 3.14006E-14
 -1      2701 2.01214E+01 3.97290E-01 1.01230E-03-6.57587E-01-2.02599E-13 1.15698E-13
 -1      2702 2.02156E+01 2.41169E-01 2.68389E-03-4.52721E-01-4.66040E-14-4.62355E-14
 -1      2703 2.01750E+01 2.10516E-01-1.34358E-03-3.92865E-01 8.22014E-14-6.61973E-14
 -1      2704 2.01153E+01 3.11764E-01 5.35586E-04-5.05171E-01-1.58709E-13 3.96994E-14
 -1      2705 2.01705E+01 1.85397E-01 2.17948E-03-3.39705E-01 2.22156E-13-1.42376E-13
 -1      2706 2.01374E+01 1.60842E-01-9.88911E-04-2.92990E-01 2.06815E-13-1.45615E-13
 -1      2707 2.01022E+01 2.41099E-01 2.10324E-04-3.83142E-01 1.24095E-13-8.05004E-14
 -1      2708 2.01316E+01 1.40970E-01 1.74333E-03-2.51468E-01 8.65840E-14-1.87980E-13
 -1      2709 2.01052E+01 1.21625E-01-7.20141E-04-2.15443E-01-5.91673E-14-2.33193E-13
 -1      2710 2.00862E+01 1.84293E-01 8.09138E-06-2.86699E-01 1.04045E-13-2.29868E-13
 -1      2711 2.00992E+01 1.06114E-01 1.37551E-03-1.83382E-01-9.04280E-14-2.61251E-13
 -1      2712 2.00785E+01 9.10470E-02-5.20251E-04-1.55914E-01-4.84633E-14-2.44353E-13
 -1      2713 2.00699E+01 1.39415E-01-1.04665E-04-2.11408E-01-6.24452E-14-2.34885E-13
 -1      2714 2.00729E+01 7.90554E-02 1.07145E-03-1.31447E-01-2.03658E-14-3.04837E-13
 -1      2715 2.00571E+01 6.74233E-02-3.73211E-04-1.10742E-01-3.40960E-14-2.70263E-13
 -1      2716 2.00548E+01 1.04381E-01-1.57362E-04-1.53333E-01-7.68044E-14-3.34610E-13
 -1      2717 2.00522E+01 5.82266E-02 8.24173E-04-9.23000E-02-5.41109E-14-3.49865E-13
 -1      2718 2.00403E+01 4.93179E-02-2.65768E-04-7.68839E-02-2.11819E-14-2.31975E-13
 -1      2719 2.00418E+01 7.72833E-02-1.72692E-04-1.09090E-01-6.19725E-14-2.65768E-13
 -1      2720 2.00363E+01 4.23194E-02 6.25898E-04-6.31704E-02 1.16770E-13-2.15597E-13
 -1      2721 2.00275E+01 3.55524E-02-1.87597E-04-5.18500E-02 1.06291E-13-1.24504E-13
 -1      2722 2.00310E+01 5.64957E-02-1.66542E-04-7.58215E-02 7.18851E-14-8.45371E-14
 -1      2723 2.00243E+01 3.02713E-02 4.68927E-04-4.18068E-02 7.19789E-14-4.33793E-14
 -1      2724 2.00180E+01 2.51779E-02-1.30920E-04-3.36260E-02 3.08676E-15-4.76993E-14
 -1      2725 2.00223E+01 4.06820E-02-1.49371E-04-5.11627E-02 1.35838E-13-6.11637E-15
 -1      2726 2.00155E+01 2.12313E-02 3.46139E-04-2.64000E-02-1.33089E-14-1.40392E-14
 -1      2727 2.00110E+01 1.74381E-02-8.99783E-05-2.06002E-02 1.47145E-13 5.13910E-14
 -1      2728 2.00156E+01 2.87625E-02-1.27726E-04-3.31790E-02 4.18856E-14-7.27667E-14
 -1      2729 2.00091E+01 1.45226E-02 2.51229E-04-1.55104E-02 1.37526E-13 3.59374E-14
 -1      2730 2.00061E+01 1.17331E-02-6.05520E-05-1.14947E-02 1.11871E-13 4.64454E-16
 -1      2731 2.00104E+01 1.98731E-02-1.05478E-04-2.03088E-02 9.98086E-14-1.27790E-13
 -1      2732 2.00047E+01 9.60890E-03 1.78772E-04-8.00296E-03 9.86299E-14-1.29631E-14
 -1      2733 2.00028E+01 7.58839E-03-3.95550E-05-5.30606E-03 1.20785E-13 7.82863E-14
 -1      2734 2.00067E+01 1.33259E-02-8.47373E-05-1.13056E-02 1.33314E-13-1.64614E-13
 -1      2735 2.00018E+01 6.06671E-03 1.24185E-04-2.99188E-03 8.35680E-14-2.83388E-14
 -1      2736 2.00006E+01 4.63010E-03-2.47275E-05-1.25436E-03-5.24934E-14-1.38706E-15
 -1      2737 2.00039E+01 8.57547E-03-6.65023E-05-5.18521E-03 3.09511E-14-2.58770E-13
 -1      2738 1.99999E+01 3.56269E-03 8.36608E-05 2.07360E-04-2.15701E-13 2.18172E-14
 -1      2739 1.99992E+01 2.56467E-03-1.44082E-05 1.26010E-03-2.65082E-13-9.92750E-14
 -1      2740 2.00020E+01 5.19112E-03-5.11017E-05-1.17945E-03-1.23522E-13-2.13710E-13
 -1      2741 1.99987E+01 1.83577E-03 5.40750E-05 2.11756E-03-1.69702E-13-8.02810E-14
 -1      2742 1.99984E+01 1.16299E-03-7.37008E-06 2.69280E-03-1.38099E-13-2.20770E-13
 -1      2743 2.00007E+01 2.83422E-03-3.84816E-05 1.30395E-03-2.70232E-13-7.07196E-14
 -1      2744 1.99981E+01 6.82776E-04 3.28917E-05 3.13291E-03-1.43962E-13-2.45260E-13
 -1      2745 1.99980E+01 2.47475E-04-2.70402E-06 3.38498E-03-7.46633E-14-1.70198E-13
 -1      2746 1.99999E+01 1.24028E-03-2.83899E-05 2.71578E-03-1.89375E-13-1.58081E-13
 -1      2747 1.99978E+01-5.31249E-05 1.80773E-05 3.54634E-03-1.00541E-13-3.10470E-13
 -1      2748 1.99979E+01-3.18226E-04 2.64585E-07 3.58828E-03-4.97940E-14-2.30965E-13
 -1      2749 1.99994E+01 2.04367E-04-2.04886E-05 3.39419E-03-1.76368E-13-1.18869E-13
 -1      2750 1.99978E+01-4.91808E-04 8.01989E-06 3.57188E-03 1.54298E-13-2.82469E-13
 -1      2751 1.99980E+01-6.37724E-04 2.03537E-06 3.48494E-03 1.86530E-13-1.33543E-13
 -1      2752 1.99991E+01-4.30873E-04-1.44210E-05 3.58877E-03 1.42119E-13-3.30814E-13
 -1      2753 1.99979E+01-7.23851E-04 1.45690E-06 3.36280E-03 1.87178E-13-1.47336E-14
 -1      2754 1.99981E+01-7.88769E-04 2.97627E-06 3.20404E-03 2.28441E-13-1.48680E-14
 -1      2755 1.99990E+01-7.84882E-04-9.84803E-06 3.48026E-03 3.05600E-13-2.82568E-13
 -1      2756 1.99981E+01-8.16792E-04-2.58698E-06 3.02623E-03 8.33936E-14 1.01416E-14
 -1      2757 1.99983E+01-8.28886E-04 3.35538E-06 2.83450E-03-1.78370E-14-2.57766E-14
 -1      2758 1.99990E+01-9.47191E-04-6.46678E-06 3.19665E-03 1.42449E-13-3.08317E-13
 -1      2759 1.99983E+01-8.20256E-04-4.85438E-06 2.63465E-03 5.25772E-14 7.59521E-14
 -1      2760 1.99985E+01-7.99986E-04 3.36541E-06 2.43536E-03 3.45011E-14-2.69713E-14
 -1      2761 1.99990E+01-9.83958E-04-4.01770E-06 2.82607E-03 2.24111E-14-2.06394E-13
 -1      2762 1.99986E+01-7.70118E-04-5.90224E-06 2.23503E-03 1.99251E-14 6.67403E-14
 -1      2763 1.99988E+01-7.32091E-04 3.14259E-06 2.04378E-03 2.69180E-13-9.47854E-14
 -1      2764 1.99991E+01-9.43307E-04-2.28489E-06 2.42693E-03 2.67609E-14-2.47669E-14
 -1      2765 1.99988E+01-6.91880E-04-6.13966E-06 1.85578E-03 3.74979E-13-1.24985E-13
 -1      2766 1.99990E+01-6.46365E-04 2.77858E-06 1.68119E-03 1.91540E-13-6.25620E-15
 -1      2767 1.99992E+01-8.59663E-04-1.09649E-06 2.03590E-03 2.73619E-13-3.08911E-14
 -1      2768 1.99990E+01-6.03420E-04-5.86288E-06 1.51213E-03-7.61103E-14-1.42529E-14
 -1      2769 1.99991E+01-5.57568E-04 2.32493E-06 1.35788E-03-1.72041E-13-9.38236E-14
 -1      2770 1.99993E+01-7.57267E-04-3.24107E-07 1.67408E-03 1.19878E-13-3.21121E-13
 -1      2771 1.99992E+01-5.17164E-04-5.28010E-06 1.21002E-03-2.15619E-13-2.05013E-13
 -1      2772 1.99993E+01-4.75760E-04 1.87395E-06 1.07638E-03-4.11604E-14-2.87510E-13
 -1      2773 1.99994E+01-6.53008E-04 1.31410E-07 1.35152E-03-2.30300E-13-1.16905E-13
 -1      2774 1.99993E+01-4.41264E-04-4.50120E-06 9.49182E-04 1.04937E-13-5.35718E-13
 -1      2775 1.99994E+01-4.07683E-04 1.34840E-06 8.34482E-04-1.44017E-13-6.39385E-13
 -1      2776 1.99995E+01-5.57895E-04 4.66508E-07 1.07044E-03-1.98775E-13-4.27688E-13
 -1      2777 1.99995E+01-3.80899E-04-3.47751E-06 7.25280E-04-1.33044E-13-7.01610E-13
 -1      2778 1.99995E+01-3.58280E-04-3.91661E-08 6.27004E-04 7.71395E-14-5.81562E-13
 -1      2779 1.99996E+01-4.80489E-04 3.80371E-07 8.29039E-04-8.42164E-14-5.25332E-13
 -1      2780 2.13131E+01 1.26564E+00 1.67313E-03-1.44634E-01 3.65209E-13-2.75297E-13
 -1      2781 2.13803E+01 1.34750E+00 1.12004E-02 2.59156E-01 3.81706E-13-2.29016E-13
 -1      2782 2.17173E+01-2.31596E-01-9.97691E-03-1.20499E+00 1.66110E-13-4.03376E-13
 -1      2783 2.16415E+01 1.21151E-02 8.40603E-03-1.24661E+00 2.21478E-13-3.79271E-13
 -1      2784 2.17577E+01-5.39535E-01-3.44464E-03-9.16288E-01 8.64671E-14-4.21374E-13
 -1      2785 2.17159E+01-4.11481E-01 2.21723E-04-1.06153E+00 1.35049E-13-3.83234E-13
 -1      2786 2.21084E+01-3.96689E-01 7.76838E-03-1.16110E+00 1.62205E-13-4.28129E-13
 -1      2787 2.16631E+01-6.28231E-01 1.50229E-03-5.25655E-01 7.48778E-14-4.21854E-13
 -1      2788 2.16650E+01-6.08479E-01-5.64833E-03-7.06318E-01 7.83373E-14-4.07232E-13
 -1      2789 2.19892E+01-7.15177E-01 4.92556E-03-7.79644E-01 9.55656E-14-3.73621E-13
 -1      2790 2.14778E+01-5.62217E-01 4.09673E-03-1.55881E-01 1.52611E-13-4.30331E-13
 -1      2791 2.15165E+01-6.11871E-01-7.90755E-03-3.22529E-01 1.36798E-13-3.97089E-13
 -1      2792 2.17434E+01-7.74659E-01 5.51121E-04-3.50285E-01 1.19434E-13-3.53103E-13
 -1      2793 2.12548E+01-4.21826E-01 4.75859E-03 1.30751E-01 2.39530E-14-3.86965E-13
 -1      2794 2.13172E+01-5.00266E-01-7.41580E-03 2.74954E-03 7.89457E-14-4.14067E-13
 -1      2795 2.14445E+01-6.64319E-01-2.33364E-03 1.65327E-02 9.57147E-14-3.08085E-13
 -1      2796 2.10327E+01-2.68058E-01 4.26153E-03 3.18858E-01-7.02943E-14-2.53340E-13
 -1      2797 2.11065E+01-3.47083E-01-5.64886E-03 2.35305E-01-1.66690E-14-3.19527E-13
 -1      2798 2.11512E+01-4.81014E-01-3.45488E-03 2.77985E-01-5.09679E-14-2.35901E-13
 -1      2799 2.08321E+01-1.35073E-01 3.29691E-03 4.19013E-01-7.27574E-14-2.31328E-13
 -1      2800 2.09084E+01-2.00259E-01-3.64193E-03 3.75013E-01-5.04873E-14-2.34084E-13
 -1      2801 2.08952E+01-2.93148E-01-3.44093E-03 4.34003E-01-1.17311E-13-1.51240E-13
 -1      2802 2.06606E+01-3.57812E-02 2.29709E-03 4.51858E-01-6.03047E-14-1.94813E-13
 -1      2803 2.07337E+01-8.26850E-02-1.89865E-03 4.38183E-01-2.76501E-14-1.80384E-13
 -1      2804 2.06864E+01-1.36422E-01-2.92405E-03 5.03909E-01-5.37516E-14-1.18135E-13
 -1      2805 2.05184E+01 2.96888E-02 1.46446E-03 4.38934E-01-2.58342E-14-1.69399E-13
 -1      2806 2.05852E+01-6.99827E-05-5.82301E-04 4.45889E-01-4.61224E-14-1.99505E-13
 -1      2807 2.05227E+01-2.24757E-02-2.29799E-03 5.11947E-01-5.55684E-14-1.57256E-13
 -1      2808 2.04025E+01 6.70917E-02 8.49641E-04 3.98556E-01-8.04808E-14-7.80707E-14
 -1      2809 2.04615E+01 5.10192E-02 3.10928E-04 4.17824E-01-5.06621E-14-1.84922E-13
 -1      2810 2.03967E+01 5.07103E-02-1.74341E-03 4.80248E-01-6.34860E-14-1.89121E-13
 -1      2811 2.03092E+01 8.38089E-02 4.33934E-04 3.44593E-01-1.11044E-13-2.13926E-14
 -1      2812 2.03599E+01 7.75305E-02 8.49550E-04 3.69846E-01-8.66814E-14-5.86733E-14
 -1      2813 2.03005E+01 9.10032E-02-1.31305E-03 4.26368E-01-1.05896E-13-7.37433E-14
 -1      2814 2.02346E+01 8.66948E-02 1.74181E-04 2.86657E-01-1.14162E-13-1.21489E-13
 -1      2815 2.02772E+01 8.67795E-02 1.11904E-03 3.13511E-01-6.35824E-14-5.32341E-14
 -1      2816 2.02270E+01 1.07524E-01-9.98938E-04 3.63028E-01-6.68313E-14-1.30927E-13
 -1      2817 2.01756E+01 8.12403E-02 2.53173E-05 2.30834E-01-1.06470E-13-1.82324E-13
 -1      2818 2.02106E+01 8.50240E-02 1.19993E-03 2.56531E-01-1.50971E-13-1.66146E-13
 -1      2819 2.01708E+01 1.08428E-01-7.74865E-04 2.98729E-01-7.93895E-14-2.85180E-13
 -1      2820 2.01293E+01 7.14402E-02-5.03797E-05 1.80554E-01-8.12154E-14-1.89505E-13
 -1      2821 2.01575E+01 7.70302E-02 1.15943E-03 2.03561E-01-1.13254E-13-2.09233E-13
 -1      2822 2.01276E+01 1.00119E-01-6.13973E-04 2.38657E-01-1.27192E-13-2.59157E-13
 -1      2823 2.00934E+01 5.99838E-02-8.08705E-05 1.37391E-01-1.93779E-14-2.08312E-13
 -1      2824 2.01156E+01 6.61338E-02 1.04900E-03 1.57028E-01-2.11325E-14-1.85469E-13
 -1      2825 2.00944E+01 8.71885E-02-4.94695E-04 1.85573E-01-5.94224E-14-1.56946E-13
 -1      2826 2.00660E+01 4.85458E-02-8.55265E-05 1.01696E-01-1.25220E-13-1.65815E-13
 -1      2827 2.00831E+01 5.44996E-02 9.05317E-04 1.17842E-01-7.90739E-14-1.61707E-13
 -1      2828 2.00690E+01 7.26933E-02-4.02450E-04 1.40570E-01-7.66926E-14-8.25189E-14
 -1      2829 2.00452E+01 3.80697E-02-7.69804E-05 7.30865E-02 1.96501E-14-1.17770E-13
 -1      2830 2.00581E+01 4.34180E-02 7.52918E-04 8.59499E-02-2.76206E-14-5.51741E-14
 -1      2831 2.00496E+01 5.85097E-02-3.28338E-04 1.03675E-01-9.44317E-14 7.96000E-14
 -1      2832 2.00298E+01 2.90037E-02-6.29893E-05 5.07873E-02-3.09619E-14 5.67677E-14
 -1      2833 2.00394E+01 3.35681E-02 6.07021E-04 6.07496E-02-2.53514E-16-4.31340E-14
 -1      2834 2.00349E+01 4.56732E-02-2.67111E-04 7.42880E-02 3.84092E-15 1.51457E-13
 -1      2835 2.00186E+01 2.14793E-02-4.79961E-05 3.38585E-02-1.39997E-13 1.49376E-13
 -1      2836 2.00255E+01 2.52261E-02 4.76053E-04 4.13684E-02-4.29175E-14 3.10901E-14
 -1      2837 2.00239E+01 3.46530E-02-2.15736E-04 5.14867E-02-8.35369E-14 2.19317E-13
 -1      2838 2.00106E+01 1.54411E-02-3.42969E-05 2.13420E-02 1.42219E-15 8.60444E-14
 -1      2839 2.00155E+01 1.84197E-02 3.63756E-04 2.68502E-02-6.21257E-14 1.08803E-13
 -1      2840 2.00158E+01 2.55604E-02-1.72440E-04 3.42365E-02-1.18164E-13 3.76951E-14
 -1      2841 2.00051E+01 1.07349E-02-2.28704E-05 1.23446E-02 5.08966E-14 1.60361E-14
 -1      2842 2.00084E+01 1.30365E-02 2.70847E-04 1.62666E-02 3.93349E-14 3.63956E-14
 -1      2843 2.00099E+01 1.82979E-02-1.36094E-04 2.15169E-02 8.70254E-14 7.03577E-14
 -1      2844 2.00014E+01 7.16448E-03-1.39381E-05 6.08079E-03 6.34744E-14-3.24738E-14
 -1      2845 2.00035E+01 8.89600E-03 1.96240E-04 8.77904E-03 1.14196E-14 1.98634E-14
 -1      2846 2.00057E+01 1.26598E-02-1.05865E-04 1.23940E-02 6.78953E-14 9.24249E-15
 -1      2847 1.99991E+01 4.52714E-03-7.32496E-06 1.88754E-03 7.93228E-14 9.66854E-15
 -1      2848 2.00004E+01 5.79497E-03 1.37897E-04 3.66553E-03 1.04301E-13-3.55548E-15
 -1      2849 2.00027E+01 8.39813E-03-8.10367E-05 6.05554E-03 8.53402E-14-1.82276E-14
 -1      2850 1.99977E+01 2.63318E-03-2.68017E-06-7.76399E-04 1.77599E-13-1.76721E-14
 -1      2851 1.99984E+01 3.53477E-03 9.33971E-05 3.27392E-04 1.81857E-13 1.12528E-13
 -1      2852 2.00008E+01 5.26151E-03-6.09390E-05 1.82078E-03 9.90336E-14 3.89933E-14
 -1      2853 1.99970E+01 1.31574E-03 3.94762E-07-2.34089E-03-6.36616E-14 3.76169E-14
 -1      2854 1.99973E+01 1.93557E-03 6.02879E-05-1.71722E-03 6.99112E-14 9.92236E-14
 -1      2855 1.99996E+01 3.01768E-03-4.49240E-05-8.63287E-04 1.31554E-13 2.21077E-13
 -1      2856 1.99968E+01 4.34333E-04 2.27804E-06-3.13886E-03-4.74617E-14 1.45999E-13
 -1      2857 1.99968E+01 8.42756E-04 3.62890E-05-2.84604E-03-9.83048E-14 6.59366E-14
 -1      2858 1.99988E+01 1.46387E-03-3.23724E-05-2.43438E-03-1.23832E-13 2.62281E-13
 -1      2859 1.99968E+01-1.25504E-04 3.29608E-06-3.42212E-03-6.03196E-14 2.90973E-13
 -1      2860 1.99967E+01 1.28300E-04 1.93949E-05-3.34808E-03-5.12894E-14 1.69002E-13
 -1      2861 1.99984E+01 4.30203E-04-2.27055E-05-3.23070E-03-4.92586E-14 1.23071E-13
 -1      2862 1.99971E+01-4.54448E-04 3.71331E-06-3.37655E-03-4.02449E-14 1.82456E-13
 -1      2863 1.99968E+01-3.10627E-04 7.91121E-06-3.43923E-03 3.19799E-14 3.90657E-13
 -1      2864 1.99983E+01-2.21113E-04-1.53973E-05-3.50758E-03-1.20793E-14 2.96383E-13
 -1      2865 1.99974E+01-6.22611E-04 3.73356E-06-3.13585E-03-1.18370E-13 4.44369E-14
 -1      2866 1.99971E+01-5.54515E-04 4.50977E-07-3.27680E-03-4.05789E-14 1.32703E-13
 -1      2867 1.99983E+01-5.98892E-04-9.98195E-06-3.45323E-03 5.28815E-14 3.06690E-13
 -1      2868 1.99977E+01-6.82996E-04 3.50648E-06-2.79338E-03-2.75312E-13 5.29258E-14
 -1      2869 1.99974E+01-6.64912E-04-4.09043E-06-2.97224E-03-2.18947E-13 7.87784E-14
 -1      2870 1.99984E+01-7.87024E-04-6.05813E-06-3.20286E-03-1.67186E-13 1.99100E-13
 -1      2871 1.99981E+01-6.74825E-04 3.13674E-06-2.41190E-03-2.15229E-13 1.10230E-14
 -1      2872 1.99978E+01-6.87861E-04-6.57149E-06-2.60197E-03-2.19495E-13-5.08724E-14
 -1      2873 1.99986E+01-8.48770E-04-3.28833E-06-2.85074E-03-2.17864E-13-3.93072E-14
 -1      2874 1.99984E+01-6.26521E-04 2.69425E-06-2.03153E-03-1.05209E-13-1.98766E-13
 -1      2875 1.99981E+01-6.57085E-04-7.64328E-06-2.21615E-03-7.23203E-14-1.02116E-13
 -1      2876 1.99987E+01-8.30830E-04-1.39407E-06-2.46017E-03-1.07445E-13-1.30237E-13
 -1      2877 1.99987E+01-5.58291E-04 2.22446E-06-1.67588E-03 1.72201E-15-2.35119E-13
 -1      2878 1.99985E+01-5.96790E-04-7.78920E-06-1.84563E-03-1.23258E-13-1.81201E-13
 -1      2879 1.99989E+01-7.66970E-04-1.50206E-07-2.07148E-03-6.35866E-14-2.09512E-13
 -1      2880 1.99989E+01-4.84258E-04 1.79901E-06-1.35682E-03 1.36858E-13-1.26677E-13
 -1      2881 1.99987E+01-5.24054E-04-7.35142E-06-1.50747E-03 5.65330E-14-2.38715E-13
 -1      2882 1.99991E+01-6.81159E-04 6.16035E-07-1.70837E-03-7.54119E-15-8.84636E-14
 -1      2883 1.99991E+01-4.14934E-04 8.17416E-07-1.07830E-03-1.99339E-14-1.41855E-13
 -1      2884 1.99990E+01-4.51056E-04-6.61172E-06-1.20909E-03 2.17712E-13-1.62002E-14
 -1      2885 1.99992E+01-5.90031E-04 1.04077E-06-1.38290E-03 8.38710E-14 2.64200E-14
 -1      2886 1.99993E+01-3.56497E-04-1.05528E-06-8.37287E-04-1.40012E-13-5.29784E-13
 -1      2887 1.99992E+01-3.84497E-04-5.29430E-06-9.48619E-04-9.75380E-14-2.65777E-13
 -1      2888 1.99994E+01-5.05285E-04 2.72989E-06-1.10054E-03 8.50405E-14 1.34911E-14
 -1      2889 1.99995E+01-3.37039E-04-2.16917E-06-6.66219E-04-3.55296E-13-5.51006E-13
 -1      2890 1.99994E+01-3.58645E-04-5.78761E-06-7.64576E-04-3.73617E-13-6.52974E-13
 -1      2891 1.99995E+01-4.53593E-04 6.29511E-06-8.90068E-04-9.51422E-14-2.48947E-13
 -1      2892 1.99996E+01-4.43639E-04 6.93824E-06-7.32492E-04-3.06082E-13-2.61999E-13
 -1      2893 2.00002E+01-9.93142E-04 2.39514E-06-5.40428E-05-9.65569E-14 3.17128E-13
 -1      2894 2.00001E+01-9.80885E-04 1.25126E-06-1.48090E-04-1.46547E-13-9.50814E-14
 -1      2895 2.00000E+01-8.54641E-04 3.80848E-06-4.18067E-04-1.23348E-13 2.24030E-13
 -1      2896 2.00000E+01-7.98233E-04-1.07831E-06-4.76216E-04-1.41565E-13 1.78926E-14
 -1      2897 2.00001E+01-9.80338E-04 1.30258E-06 1.51332E-04-1.46337E-13 3.23558E-13
 -1      2898 2.00002E+01-9.93037E-04 2.37704E-06 5.73867E-05-7.54216E-14 2.66374E-13
 -1      2899 2.00002E+01-1.04545E-03-3.47946E-06 1.80649E-06-1.01318E-14 2.71937E-13
 -1      2900 2.00001E+01-9.49811E-04 3.27452E-06-2.52442E-04-2.82307E-13-3.64778E-13
 -1      2901 2.00001E+01-9.13890E-04 2.42467E-08-3.34051E-04-2.38171E-13 3.37284E-14
 -1      2902 2.00001E+01-9.31303E-04-2.78150E-06-4.22811E-04-2.80400E-13-5.15457E-14
 -1      2903 2.00002E+01-1.01630E-03-3.31000E-06-2.24799E-04-1.05140E-13-1.20953E-15
 -1      2904 7.58115E+00-3.35449E-01 1.40011E-01-2.69835E+00 1.74853E-13 7.72105E-13
 -1      2905 9.19166E+00-1.04262E+00 9.62014E-02-4.38711E+00 3.22797E-13 8.14238E-13
 -1      2906 1.99996E+01-3.43080E-04-8.18968E-07 5.06431E-04-1.65761E-13-6.80295E-13
 -1      2907 1.99997E+01-4.09386E-04 2.29826E-06 5.28255E-04 7.94260E-16-9.29196E-13
 -1      2908 1.99996E+01-3.51349E-04-3.04977E-06 5.64200E-04-5.33745E-14-6.35073E-13
 -1      2909 2.00001E+01-9.14453E-04 4.25910E-08 3.34104E-04-1.43316E-13-2.97280E-14
 -1      2910 2.00001E+01-9.49782E-04 3.27440E-06 2.53905E-04-1.18954E-13 2.05193E-13
 -1      2911 2.00002E+01-1.01642E-03-3.32832E-06 2.26466E-04-2.33519E-13 3.63374E-13
 -1      2912 2.00000E+01-7.99705E-04-1.32628E-06 4.76276E-04-2.23570E-13-5.74040E-14
 -1      2913 2.00000E+01-8.55311E-04 3.83051E-06 4.18134E-04-1.98035E-13-1.46831E-13
 -1      2914 2.00001E+01-9.32172E-04-2.86484E-06 4.22769E-04-2.96982E-13-5.98738E-14
 -1      2915 1.99998E+01-6.46242E-04-1.74007E-06 5.53066E-04-1.29122E-13-6.58179E-14
 -1      2916 1.99999E+01-7.17237E-04 3.71822E-06 5.28210E-04-9.08118E-14 1.01971E-13
 -1      2917 2.00000E+01-7.98709E-04-2.30921E-06 5.67075E-04-2.48691E-13 5.12675E-14
 -1      2918 1.99997E+01-4.87358E-04-9.08226E-07 5.49051E-04-1.60457E-14-3.32769E-13
 -1      2919 1.99998E+01-5.67865E-04 3.17454E-06 5.59445E-04-9.77367E-14-3.46881E-14
 -1      2920 1.99998E+01-6.47320E-04-3.10189E-07 6.25784E-04-2.53050E-13-3.64151E-14
 -1      2921 1.99997E+01-4.98243E-04-6.95252E-07 6.10085E-04-7.14348E-14-3.11821E-13
 -1      2922 2.15089E+01 1.33495E+00 1.18381E-02 7.47123E-01 3.76394E-13-1.47463E-13
 -1      2923 2.16850E+01 1.25068E+00 1.78539E-03 1.14814E+00 4.04885E-13-9.46392E-14
 -1      2924 2.19029E+01 1.69349E+00-7.64858E-03 6.15057E-01 4.36753E-13-2.30063E-13
 -1      2925 2.49119E+01-3.35028E+00-4.88022E-02 1.49425E+00 6.58501E-14 8.75480E-14
 -1      2926 2.16579E+01-2.79152E+00 4.88188E-02 2.63466E+00 1.90459E-13-2.09707E-13
 -1      2927 2.78539E+01 6.72019E+00-1.83603E-01 4.31457E-01 1.18747E-12-4.58228E-13
 -1      2928 2.80289E+01 6.47296E+00-1.32717E-01-2.65182E-01 1.11156E-12-5.82985E-13
 -1      2929 2.29964E+01 1.28167E+00 1.11088E-03 2.69135E+00 4.78996E-13-9.30957E-14
 -1      2930 2.48587E+01-4.60341E+00 7.91228E-02-3.74262E+00 3.46820E-13-2.40204E-13
 -1      2931 2.73341E+01-4.19984E+00-7.67727E-02-2.06105E+00 2.30364E-13-5.03389E-13
 -1      2932 2.19309E+01 1.12427E+00 1.35691E-02 1.55401E+00 4.23998E-13-6.63981E-14
 -1      2933 2.21947E+01 9.91241E-01-2.70684E-03 1.88048E+00 4.27154E-13-9.14291E-15
 -1      2934 2.27412E+01 1.23629E+00 4.20600E-03 2.25995E+00 4.62239E-13-6.16096E-14
 -1      2935 2.22725E+01 1.51446E+00-3.90800E-04 1.56819E+00 4.56131E-13-1.16683E-13
 -1      2936 2.15527E+01 2.82019E-01-1.38984E-02-1.22823E+00 2.15274E-13-3.97430E-13
 -1      2937 2.14778E+01 5.82359E-01 1.52610E-02-1.10582E+00 2.31904E-13-4.26420E-13
 -1      2938 2.20576E+01 1.90518E-01 4.55149E-03-1.31284E+00 2.15121E-13-4.27955E-13
 -1      2939 2.13646E+01 8.57108E-01-1.05473E-02-8.68295E-01 2.87191E-13-4.19230E-13
 -1      2940 2.13387E+01 1.10190E+00 1.64809E-02-5.72165E-01 3.39903E-13-3.30661E-13
 -1      2941 2.18986E+01 9.07703E-01-2.27963E-03-1.06591E+00 2.69775E-13-4.26048E-13
 -1      2942 2.69961E+01-3.71962E+00-1.68678E-02-1.08176E+00 2.88179E-13-6.30270E-13
 -1      2943 2.57389E+01-3.49145E+00 5.52994E-02-1.83305E+00 3.84002E-13-5.02414E-13
 -1      2944 2.39604E+01 6.49039E-01-5.57494E-02 1.42096E+00 2.92912E-14-2.31898E-13
 -1      2945 2.38261E+01 3.93630E-01 2.41393E-02 6.75498E-01-1.32405E-13-2.16839E-13
 -1      2946 2.44586E+01 8.36755E-01 1.97790E-02 1.97765E+00 1.37286E-13-1.26404E-13
 -1      2947 1.17201E+01-2.03907E+00 1.39833E-01-5.48368E+00 4.40814E-13 7.60308E-13
 -1      2948 1.52164E+01-3.23907E+00 1.90255E-02-6.25223E+00 4.31932E-13 6.25500E-13
 -1      2949 1.22074E+01-1.01017E+00 1.71745E-01-4.60840E+00 3.69801E-13 7.13735E-13
 -1      2950 2.67890E+01 8.08234E-02-1.60671E-02-1.60342E-01 2.35464E-13 8.77631E-14
 -1      2951 2.80775E+01 1.39168E+00-1.27493E-01 1.08615E+00 5.67234E-13 1.04958E-13
 -1      2952 2.32873E+01-2.19298E-01-6.10703E-02-4.86311E-01-2.40939E-13-2.21858E-13
 -1      2953 2.21594E+01-2.94586E-01 1.35272E-02-1.66569E+00-4.13853E-13-2.76262E-13
 -1      2954 2.45444E+01-6.09078E-02 3.04789E-02 4.98542E-01-1.07803E-13-5.80890E-14
 -1      2955 2.76978E+01-2.04083E+00-1.19371E-01 1.29636E+00 6.91357E-14-8.76216E-13
 -1      2956 2.58153E+01-3.42334E+00 1.76845E-02 2.84703E+00-3.05034E-13-7.29333E-13
 -1      2957 2.85376E+01 2.87457E+00-6.73466E-02 1.79744E+00 7.81583E-13 6.71130E-14
 -1      2958 2.83803E+01 3.94302E+00-1.89954E-01 2.06806E+00 9.40761E-13 4.82947E-15
 -1      2959 4.67101E+00 2.90900E+00 1.42579E-01-1.00435E+00-2.71299E-13-1.58296E-12
 -1      2960 1.68418E+01-5.52877E-01 3.32190E-02-5.32209E+00-5.63313E-13-6.97553E-13
 -1      2961 2.06882E+01-1.26305E+00-6.35047E-03-4.40195E+00-4.13947E-13-4.24279E-13
 -1      2962 2.31859E+01-1.20183E+00 1.35620E-02-2.97194E+00-2.41834E-13-1.78114E-13
 -1      2963 2.55553E+01-1.05185E+00-1.03601E-01-1.66586E+00 2.34951E-14-4.36456E-14
 -1      2964 2.60203E+01-3.38315E-01-6.46195E-02-1.72828E-01 7.79637E-14 7.43711E-14
 -1      2965 3.09002E+01-1.71000E+00-3.92569E-02-2.65475E+00-5.01697E-13 7.27307E-13
 -1      2966 3.16920E+01 2.07864E+00-4.06858E-02 1.67906E+00-1.00056E-12-6.26083E-13
 -1      2967 2.96105E+01-2.59827E+00-8.56136E-02-1.34684E+00-3.41921E-13 5.60635E-13
 -1      2968 2.73466E+01-3.47987E+00 3.69565E-02 2.40462E-01-1.50713E-14 3.16400E-13
 -1      2969 2.60224E+01-3.01406E+00 3.63697E-02 3.69741E-01 1.06609E-13 2.81278E-13
 -1      2970 2.90430E+01-2.61719E+00-5.14521E-02-1.71528E+00-2.45637E-13 6.81927E-13
 -1      2971 2.82038E+01 5.34397E+00-1.85690E-01-8.69744E-01 9.88098E-13-6.96776E-13
 -1      2972 2.85996E+01 3.61516E+00-9.30932E-02-1.13285E+00 7.95697E-13-8.12572E-13
 -1      2973 1.89718E+01-4.11772E+00 1.16051E-01-5.85545E+00 4.28768E-13 3.28446E-13
 -1      2974 2.18718E+01-4.77552E+00-5.13236E-02-5.31489E+00 3.76393E-13 6.56558E-14
 -1      2975 6.74913E+00 1.05766E-01 1.13221E-01 1.64540E+00-2.27880E-13 8.25590E-13
 -1      2976 6.59689E+00 4.49692E-02 1.44372E-01-8.31877E-01-2.27839E-14 8.50847E-13
 -1      2977 8.96863E+00 4.44569E-01 1.92326E-01-1.59886E+00 5.62467E-14 7.18620E-13
 -1      2978 9.46641E+00 1.53297E+00 9.32959E-02 2.69649E+00 1.10564E-13-1.19030E-12
 -1      2979 1.27288E+01 6.83259E-01 1.26775E-01 3.26369E+00 1.97745E-13-9.37889E-13
 -1      2980 2.70512E+01 6.23465E+00-1.23487E-01 8.66684E-01 1.10845E-12-3.79925E-13
 -1      2981 1.78528E+01-3.16849E+00 1.17660E-01-5.53896E+00 4.79866E-13 3.99951E-13
 -1      2982 1.84368E+01-3.28164E+00 1.16008E-01 5.82729E+00-7.61974E-13 9.83137E-14
 -1      2983 2.74583E+01-1.34145E+00-4.72891E-02 2.55169E-01 7.46538E-14-8.87332E-13
 -1      2984 3.07815E+01-5.64439E-01-1.55176E-01 1.74965E+00-5.33046E-13-7.97307E-13
 -1      2985 5.06737E+00 3.31037E+00 6.99694E-02-4.58998E-01-2.24295E-13-1.48531E-12
 -1      2986 6.73946E+00 3.14589E+00 2.53854E-01 1.30177E+00-1.79613E-14-1.42020E-12
 -1      2987 1.27608E+01-1.41073E+00 1.62273E-01 5.50798E+00-6.15841E-13 5.40776E-13
 -1      2988 2.45670E+01-1.79645E+00 5.95985E-02 4.14734E-01 1.50224E-13 1.85968E-13
 -1      2989 2.58863E+01-2.63945E+00-1.83928E-02-2.87522E-02 7.54952E-14 3.72908E-13
 -1      2990 9.04619E+00 2.84522E-01 1.89501E-01 2.55353E+00-3.30867E-13 7.07157E-13
 -1      2991 2.74560E+01 1.81131E+00-2.81283E-02 1.82691E+00 4.97137E-13 9.46188E-14
 -1      2992 2.37349E+01-3.51650E+00-2.70957E-02-3.01621E+00 4.04815E-13-4.00589E-13
 -1      2993 1.99996E+01-4.35414E-04 2.92531E-07 6.53206E-04-1.01020E-13-6.03281E-13
 -1      2994 2.17887E+01 1.48563E+00-9.40392E-03-3.62055E-01 4.01510E-13-3.56985E-13
 -1      2995 8.63573E+00 2.37230E+00 2.17455E-01-5.03641E+00-6.54060E-13-1.33432E-12
 -1      2996 1.08873E+01 1.33677E+00 4.82784E-02-5.53245E+00-6.68701E-13-1.12410E-12
 -1      2997 7.01776E+00 2.94683E+00 1.02534E-01-4.12936E+00-5.82853E-13-1.36946E-12
 -1      2998 1.45795E+01 5.74033E-01 1.41020E-01-5.46301E+00-6.97872E-13-9.08121E-13
 -1      2999 1.63884E+01-2.75078E-01 9.93500E-02 2.90380E+00 2.48586E-13-5.91791E-13
 -1      3000 2.18242E+01-1.46061E+00 4.53945E-02 1.43439E+00 2.68237E-13-7.63695E-14
 -1      3001 5.22659E+00 3.57521E+00 1.86810E-01-2.72189E+00-4.04739E-13-1.53166E-12
 -1      3002 1.96756E+01-1.60997E+00 6.21096E-02 2.81522E+00 2.17229E-13-3.70558E-13
 -1      3003 2.76530E+01 2.23047E+00-7.82443E-02-1.19266E+00 5.81757E-13-8.32737E-13
 -1      3004 2.45636E+01-3.99605E+00 1.74344E-02 3.52157E+00-4.62588E-13-5.92651E-13
 -1      3005 2.29349E+01-3.86907E+00 2.02435E-02 3.98110E+00-5.72847E-13-4.20095E-13
 -1      3006 2.53781E+01-3.33464E+00-2.59411E-02 2.07676E+00-3.55286E-13-7.04277E-13
 -1      3007 2.00000E+01-8.00010E-04-2.62874E-06-5.65962E-04-9.33304E-14-1.33617E-13
 -1      3008 1.99999E+01-7.18037E-04 4.60022E-06-5.27962E-04-5.89789E-14-1.73384E-13
 -1      3009 1.99998E+01-6.48896E-04-2.83123E-06-5.57812E-04-5.06736E-14-8.52505E-14
 -1      3010 2.32065E+01 1.35274E+00-1.80829E-03 2.74734E+00 4.47745E-13-1.34820E-13
 -1      3011 2.33348E+01 1.22899E+00 1.15111E-02 2.64762E+00 4.20757E-13-1.36959E-13
 -1      3012 1.99997E+01-5.10716E-04 2.17726E-06-5.73812E-04-3.02549E-13-3.39641E-13
 -1      3013 2.68948E+01 5.08970E+00-1.01931E-01-7.36109E-01 9.33836E-13-6.58779E-13
 -1      3014 2.37555E+01-4.33195E+00 4.46847E-02-3.89320E+00 4.34028E-13-2.52973E-13
 -1      3015 2.85381E+01-3.50801E+00-2.95689E-02-5.21112E-01 1.66887E-13-6.47760E-13
 -1      3016 2.26223E+01-1.12465E+00-1.23086E-02-2.80802E+00-3.63681E-13-2.06758E-13
 -1      3017 2.79513E+01-2.83332E+00 2.83181E-02-1.07735E+00-2.68535E-15 5.77295E-13
 -1      3018 2.98556E+01-2.05506E+00-4.49141E-02 3.83855E-01-2.22454E-13-6.84369E-13
 -1      3019 2.23768E+01-5.58115E-01-1.53517E-02-2.04948E+00-3.96759E-13-2.22390E-13
 -1      3020 2.69143E+01 3.78164E+00-6.24325E-02 2.39426E+00 7.95211E-13-4.56579E-15
 -1      3021 2.78732E+01 4.70158E+00-9.42638E-02 2.20368E+00 9.82950E-13-5.34156E-14
 -1      3022 2.66380E+01 5.19507E+00-1.57252E-01 2.13706E+00 9.88820E-13-1.43524E-13
 -1      3023 2.61995E+01 5.58105E+00-1.23447E-01 1.54113E+00 1.00285E-12-2.75772E-13
 -1      3024 2.57462E+01 5.73268E+00-8.48946E-02 5.73930E-01 1.01569E-12-4.44795E-13
 -1      3025 2.37786E+01 1.41687E+00-1.98839E-02 2.72768E+00 4.08023E-13-1.66766E-13
 -1      3026 2.41940E+01 1.29267E+00-6.43128E-03 2.60710E+00 3.20833E-13-1.45367E-13
 -1      3027 2.25481E+01-7.75259E-02-1.64276E-02-1.35442E+00 1.64011E-13-4.77885E-13
 -1      3028 2.25128E+01 3.89352E-01 1.08637E-02-1.35204E+00 2.04974E-13-4.90003E-13
 -1      3029 1.43924E+01-1.69042E+00-6.31942E-03 5.56675E+00-6.63247E-13 3.06560E-13
 -1      3030 1.24218E+01-5.91203E-01 1.18285E-01 4.69308E+00-5.28542E-13 4.68806E-13
 -1      3031 1.07079E+01 2.78279E-01 5.87172E-02 3.41930E+00-3.99181E-13 5.55694E-13
 -1      3032 9.64614E+00 9.23062E-01 9.07256E-02 1.29369E+00-2.92470E-13 5.70724E-13
 -1      3033 1.91959E+01-3.26599E-01 7.30711E-03-3.14426E+00 2.24889E-13 1.07029E-13
 -1      3034 1.88888E+01 1.62603E-01-1.47990E-03-2.85174E+00 1.33419E-13 1.05933E-13
 -1      3035 1.90903E+01 4.72672E-01 1.50720E-02-2.52253E+00 9.17310E-14 7.04007E-14
 -1      3036 1.90171E+01 6.78312E-01-9.35810E-03-2.29332E+00 7.97574E-14 1.02903E-13
 -1      3037 1.79839E+01 5.50451E-01 1.52864E-02-2.69163E+00 1.00374E-13 1.61510E-13
 -1      3038 1.92484E+01 8.11577E-01 1.02983E-02-2.03843E+00-7.48219E-15 6.59301E-14
 -1      3039 1.92512E+01 8.68113E-01-9.06085E-03-1.84573E+00 1.86289E-14 1.57185E-14
 -1      3040 1.83850E+01 9.44638E-01 6.53541E-03-2.08024E+00 2.16705E-14 9.13414E-14
 -1      3041 1.94574E+01 8.88766E-01 5.53098E-03-1.65596E+00 9.06166E-14 4.67475E-14
 -1      3042 1.94858E+01 8.69487E-01-7.71170E-03-1.49165E+00 1.23313E-13 7.93517E-14
 -1      3043 1.88143E+01 1.04294E+00 7.84186E-03-1.65361E+00 7.76679E-14 8.96790E-14
 -1      3044 1.96505E+01 8.35878E-01 3.38833E-03-1.34272E+00 6.31118E-14 1.24796E-14
 -1      3045 1.96767E+01 7.83064E-01-6.24210E-03-1.20232E+00-2.92766E-14 7.69160E-16
 -1      3046 1.91693E+01 9.90648E-01 7.19347E-03-1.33433E+00 4.76335E-14-8.35031E-15
 -1      3047 1.98003E+01 7.27940E-01 2.47491E-03-1.08100E+00-6.21546E-14-3.12221E-14
 -1      3048 1.98160E+01 6.65084E-01-4.94409E-03-9.61869E-01-7.67232E-14 3.55185E-14
 -1      3049 1.94411E+01 8.71604E-01 5.83160E-03-1.07987E+00-6.58242E-14-1.89373E-13
 -1      3050 1.99046E+01 6.05940E-01 2.07327E-03-8.61407E-01-1.13892E-13-6.74524E-14
 -1      3051 1.99098E+01 5.44864E-01-3.86050E-03-7.61631E-01-1.01274E-13-7.53221E-14
 -1      3052 1.96383E+01 7.32602E-01 4.38441E-03-8.69566E-01-1.08704E-13-2.35930E-13
 -1      3053 1.99712E+01 4.89983E-01 1.84726E-03-6.78343E-01-1.70655E-13-8.69565E-14
 -1      3054 1.99686E+01 4.35807E-01-2.97739E-03-5.96031E-01-2.36692E-13-9.83180E-14
 -1      3055 1.97757E+01 5.97675E-01 3.12329E-03-6.93526E-01-1.31565E-13-2.71598E-13
 -1      3056 2.00100E+01 3.88387E-01 1.66013E-03-5.27483E-01-1.88959E-13 3.05474E-14
 -1      3057 2.00026E+01 3.42674E-01-2.27039E-03-4.60602E-01-3.46655E-14 6.11611E-15
 -1      3058 1.98680E+01 4.77532E-01 2.13153E-03-5.46522E-01-1.62268E-13-1.48030E-13
 -1      3059 2.00297E+01 3.03333E-01 1.46914E-03-4.04815E-01 3.08875E-14 4.58405E-15
 -1      3060 2.00202E+01 2.65915E-01-1.71382E-03-3.51241E-01 6.49427E-14-1.36998E-13
 -1      3061 1.99280E+01 3.75633E-01 1.40110E-03-4.24994E-01-4.26919E-14-3.41954E-14
 -1      3062 2.00374E+01 2.34085E-01 1.27065E-03-3.06410E-01-3.05043E-14-2.47158E-13
 -1      3063 2.00274E+01 2.04050E-01-1.28373E-03-2.64063E-01-8.29875E-14-3.83252E-13
 -1      3064 1.99657E+01 2.91775E-01 8.84488E-04-3.25833E-01-1.10834E-13-1.34573E-13
 -1      3065 2.00380E+01 1.78717E-01 1.07367E-03-2.28509E-01-7.19512E-14-3.63164E-13
 -1      3066 2.00286E+01 1.54935E-01-9.55096E-04-1.95464E-01-1.85563E-14-3.93911E-13
 -1      3067 1.99883E+01 2.24130E-01 5.32377E-04-2.46051E-01-1.07919E-13-3.89561E-13
 -1      3068 2.00349E+01 1.35008E-01 8.87712E-04-1.67648E-01-1.41450E-14-3.75430E-13
 -1      3069 2.00265E+01 1.16373E-01-7.05642E-04-1.42189E-01-3.17823E-14-2.72886E-13
 -1      3070 2.00011E+01 1.70325E-01 3.00882E-04-1.82777E-01-1.92739E-14-3.08618E-13
 -1      3071 2.00300E+01 1.00848E-01 7.19429E-04-1.20728E-01-8.23438E-14-1.55286E-13
 -1      3072 2.00230E+01 8.63804E-02-5.17324E-04-1.01370E-01-3.39020E-14-2.07960E-13
 -1      3073 2.00078E+01 1.27994E-01 1.53421E-04-1.33322E-01 5.48331E-14-1.69237E-13
 -1      3074 2.00247E+01 7.43911E-02 5.72419E-04-8.50535E-02-7.67220E-16-1.77889E-13
 -1      3075 2.00190E+01 6.32593E-02-3.75848E-04-7.05380E-02 8.66650E-14-1.47947E-13
 -1      3076 2.00107E+01 9.50096E-02 6.28162E-05-9.52375E-02 2.50191E-15-1.50696E-13
 -1      3077 2.00197E+01 5.40833E-02 4.47622E-04-5.83240E-02 1.69128E-13-1.53395E-13
 -1      3078 2.00151E+01 4.55990E-02-2.70067E-04-4.76055E-02 9.38945E-14-1.22287E-13
 -1      3079 2.00113E+01 6.95467E-02 9.72564E-06-6.63561E-02 6.23904E-14-2.08124E-13
 -1      3080 2.00152E+01 3.86443E-02 3.44160E-04-3.86178E-02-3.34510E-14-1.44274E-13
 -1      3081 2.00117E+01 3.22455E-02-1.91388E-04-3.08394E-02-6.35444E-14-2.49902E-13
 -1      3082 2.00108E+01 5.00803E-02-1.92513E-05-4.48100E-02 1.08264E-14-1.32247E-13
 -1      3083 2.00115E+01 2.70324E-02 2.60117E-04-2.43530E-02-6.40305E-15-2.80010E-13
 -1      3084 2.00088E+01 2.22641E-02-1.33239E-04-1.88219E-02 1.15528E-13-3.29735E-13
 -1      3085 2.00096E+01 3.53559E-02-3.31725E-05-2.90235E-02-3.52548E-14-3.24670E-13
 -1      3086 2.00084E+01 1.84062E-02 1.93086E-04-1.42464E-02 1.37365E-13-3.38197E-13
 -1      3087 2.00065E+01 1.49024E-02-9.06135E-05-1.04095E-02 1.39108E-13-3.41539E-13
 -1      3088 2.00082E+01 2.43517E-02-3.80241E-05-1.76919E-02 6.88203E-14-4.09194E-13
 -1      3089 2.00060E+01 1.20903E-02 1.40530E-04-7.27114E-03 1.13992E-13-4.19140E-13
 -1      3090 2.00046E+01 9.55799E-03-5.96954E-05-4.69219E-03-4.22156E-14-4.30964E-13
 -1      3091 2.00068E+01 1.62413E-02-3.76778E-05-9.75339E-03 9.08618E-14-4.17238E-13
 -1      3092 2.00042E+01 7.54502E-03 1.00004E-04-2.61637E-03-4.23711E-14-3.00225E-13
 -1      3093 2.00032E+01 5.75141E-03-3.75719E-05-9.55303E-04-7.52347E-14-3.11076E-13
 -1      3094 2.00055E+01 1.03607E-02-3.45820E-05-4.35718E-03 1.45272E-13-5.13695E-13
 -1      3095 2.00028E+01 4.34229E-03 6.92754E-05 3.49911E-04-1.56978E-13-2.33735E-13
 -1      3096 2.00021E+01 3.10341E-03-2.20163E-05 1.35457E-03-2.09773E-13-1.78680E-13
 -1      3097 2.00043E+01 6.18001E-03-3.02449E-05-8.31948E-04-4.21669E-14-3.50965E-13
 -1      3098 2.00017E+01 2.14464E-03 4.63835E-05 2.11338E-03-2.14158E-13-8.11687E-14
 -1      3099 2.00013E+01 1.31646E-03-1.13262E-05 2.65992E-03-1.78406E-13-1.16920E-13
 -1      3100 2.00033E+01 3.27941E-03-2.55633E-05 1.34404E-03-1.07907E-13-1.16769E-13
 -1      3101 2.00010E+01 6.88427E-04 2.96550E-05 3.04179E-03-1.62894E-13-4.02125E-14
 -1      3102 2.00007E+01 1.59244E-04-4.20213E-06 3.27828E-03-1.13675E-13 2.37878E-14
 -1      3103 2.00025E+01 1.32917E-03-2.10436E-05 2.57003E-03-1.24804E-13-1.65820E-13
 -1      3104 2.00005E+01-2.30291E-04 1.76950E-05 3.40912E-03 1.17198E-14 1.48877E-13
 -1      3105 2.00003E+01-5.46152E-04 3.43833E-07 3.44424E-03 2.76785E-13 9.70671E-14
 -1      3106 2.00018E+01 7.29523E-05-1.69466E-05 3.14652E-03 6.40236E-14 2.18064E-13
 -1      3107 2.00001E+01-7.67502E-04 9.36375E-06 3.41581E-03 3.07281E-13 7.71052E-14
 -1      3108 2.00001E+01-9.34934E-04 3.05791E-06 3.32771E-03 2.71250E-13 3.58991E-14
 -1      3109 2.00013E+01-6.86389E-04-1.33836E-05 3.29567E-03 2.06985E-13 3.49499E-13
 -1      3110 1.99999E+01-1.04100E-03 3.74722E-06 3.20541E-03 1.59091E-13-7.09661E-14
 -1      3111 1.99999E+01-1.10848E-03 4.49859E-06 3.04895E-03 3.78132E-14-8.16834E-14
 -1      3112 2.00009E+01-1.09854E-03-1.03768E-05 3.17845E-03 1.70483E-13 1.43544E-13
 -1      3113 1.99997E+01-1.13848E-03 1.25966E-07 2.87813E-03-1.68925E-14-1.12153E-13
 -1      3114 1.99998E+01-1.14167E-03 5.07835E-06 2.69062E-03 6.95456E-14-1.35796E-13
 -1      3115 2.00006E+01-1.27563E-03-7.89932E-06 2.90872E-03 2.06660E-14 1.40817E-13
 -1      3116 1.99997E+01-1.12426E-03-2.05679E-06 2.50161E-03 1.02442E-13-1.21358E-13
 -1      3117 1.99997E+01-1.08897E-03 5.09854E-06 2.30738E-03 1.21461E-13 1.53918E-15
 -1      3118 2.00003E+01-1.30037E-03-5.89972E-06 2.56471E-03 7.73015E-14-6.59172E-14
 -1      3119 1.99996E+01-1.04469E-03-3.22814E-06 2.11948E-03 2.13732E-13 3.63500E-15
 -1      3120 1.99997E+01-9.89239E-04 4.77578E-06 1.93341E-03 2.76159E-13-1.89144E-14
 -1      3121 2.00001E+01-1.23281E-03-4.31428E-06 2.19803E-03 1.40545E-13-1.51594E-13
 -1      3122 1.99996E+01-9.32567E-04-3.70598E-06 1.75799E-03 1.40645E-13-4.47480E-14
 -1      3123 1.99997E+01-8.69793E-04 4.25818E-06 1.58822E-03 1.38550E-14-5.37563E-14
 -1      3124 2.00000E+01-1.11571E-03-3.08883E-06 1.84091E-03 1.58680E-13 1.03725E-13
 -1      3125 1.99996E+01-8.10881E-04-3.75016E-06 1.43107E-03-2.56671E-13-7.50931E-14
 -1      3126 1.99997E+01-7.49570E-04 3.68136E-06 1.28096E-03-3.57113E-13-3.10654E-14
 -1      3127 1.99999E+01-9.79046E-04-2.15822E-06 1.51172E-03-1.50765E-13 1.27222E-13
 -1      3128 1.99996E+01-6.96149E-04-3.72002E-06 1.14413E-03-1.97491E-13-1.79805E-13
 -1      3129 1.99997E+01-6.41460E-04 3.22881E-06 1.01328E-03-1.60980E-13-1.34146E-13
 -1      3130 1.99999E+01-8.42925E-04-1.23771E-06 1.21958E-03-3.67386E-13-3.24359E-14
 -1      3131 1.99997E+01-5.95679E-04-3.07836E-06 8.96084E-04-2.34593E-13-2.32895E-13
 -1      3132 1.99997E+01-5.54514E-04 1.61835E-06 7.84274E-04-1.42461E-13-2.12530E-13
 -1      3133 1.99998E+01-7.21090E-04 4.53589E-07 9.66133E-04-2.59073E-13 2.00998E-13
 -1      3134 2.24820E+01-7.35301E-01-5.48100E-03-1.01697E+00 7.65009E-14-4.27334E-13
 -1      3135 2.25078E+01-4.58259E-01 1.95399E-04-1.17926E+00 1.24798E-13-4.50498E-13
 -1      3136 2.30049E+01-3.46365E-01 9.62403E-03-1.25756E+00 1.34587E-13-5.59604E-13
 -1      3137 2.14078E+01-7.36205E-01 8.80686E-03 2.62621E-01-2.91496E-14-1.59901E-13
 -1      3138 2.15457E+01-8.54087E-01-6.74057E-03 1.11958E-01 7.48717E-14-2.38335E-13
 -1      3139 2.10474E+01-4.89290E-01 7.48925E-03 4.71140E-01-8.26957E-14-1.13633E-13
 -1      3140 2.11760E+01-6.16938E-01-4.50254E-03 3.75899E-01-3.98047E-14-1.24255E-13
 -1      3141 2.12505E+01-7.91900E-01-7.78216E-03 4.79436E-01-3.30702E-14-3.38255E-14
 -1      3142 2.07591E+01-2.65683E-01 5.53070E-03 5.71819E-01-1.53194E-13-9.77881E-14
 -1      3143 2.08687E+01-3.75189E-01-2.41055E-03 5.24035E-01-1.36362E-13-8.03380E-14
 -1      3144 2.08644E+01-5.00340E-01-7.03108E-03 6.27617E-01-9.11178E-14 1.26971E-14
 -1      3145 2.05423E+01-9.28060E-02 3.64878E-03 5.94651E-01-5.91488E-14-1.20629E-13
 -1      3146 2.06311E+01-1.74271E-01-8.90475E-04 5.82189E-01-8.48431E-14-1.42003E-13
 -1      3147 2.05788E+01-2.49915E-01-5.50534E-03 6.75702E-01-6.63394E-14-1.13463E-13
 -1      3148 2.03857E+01 2.55299E-02 2.15064E-03 5.67085E-01-4.68440E-14-1.43506E-13
 -1      3149 2.04556E+01-2.82383E-02 8.72850E-05 5.78215E-01-4.68711E-14-1.15568E-13
 -1      3150 2.03796E+01-6.33012E-02-3.95719E-03 6.58303E-01-4.87085E-14-1.23044E-13
 -1      3151 2.02750E+01 9.67876E-02 1.07660E-03 5.10593E-01-1.26698E-13-9.87774E-14
 -1      3152 2.03294E+01 6.59058E-02 6.68419E-04 5.35680E-01-5.29713E-14-1.06138E-13
 -1      3153 2.02465E+01 6.02622E-02-2.67985E-03 6.02498E-01-9.05370E-14-8.26437E-14
 -1      3154 2.01974E+01 1.32170E-01 3.68942E-04 4.40614E-01-1.20579E-13-1.41748E-13
 -1      3155 2.02397E+01 1.18205E-01 9.77447E-04 4.72469E-01-1.51003E-13-1.49665E-13
 -1      3156 2.01604E+01 1.31655E-01-1.74183E-03 5.27527E-01-1.03994E-13-1.82607E-13
 -1      3157 2.01430E+01 1.42697E-01-5.77990E-05 3.67541E-01-8.18889E-14-1.53412E-13
 -1      3158 2.01759E+01 1.40135E-01 1.10595E-03 4.01193E-01-7.42259E-14-9.56931E-14
 -1      3159 2.01059E+01 1.64380E-01-1.10059E-03 4.46274E-01-9.55036E-14-1.32879E-13
 -1      3160 2.01046E+01 1.37551E-01-2.85983E-04 2.97863E-01-1.16360E-13-1.95097E-13
 -1      3161 2.01303E+01 1.41955E-01 1.11622E-03 3.30147E-01-9.12352E-14-2.31422E-13
 -1      3162 2.00719E+01 1.70926E-01-6.85236E-04 3.66889E-01-5.66020E-14-1.17094E-13
 -1      3163 2.00771E+01 1.23648E-01-3.83433E-04 2.35210E-01-1.33587E-13-2.22193E-13
 -1      3164 2.00971E+01 1.31760E-01 1.05275E-03 2.64324E-01-1.18439E-13-2.09580E-13
 -1      3165 2.00507E+01 1.61371E-01-4.28969E-04 2.94114E-01-1.08482E-13-1.28470E-13
 -1      3166 2.00570E+01 1.05802E-01-4.00236E-04 1.81232E-01-8.50048E-14-6.41771E-14
 -1      3167 2.00727E+01 1.15400E-01 9.47570E-04 2.06335E-01-1.69021E-13-1.55326E-13
 -1      3168 2.00372E+01 1.43152E-01-2.76118E-04 2.30321E-01-1.63524E-13-1.97276E-13
 -1      3169 2.00422E+01 8.71325E-02-3.71705E-04 1.36278E-01-1.50265E-13 4.24700E-14
 -1      3170 2.00544E+01 9.68096E-02 8.22796E-04 1.57171E-01-3.58645E-14-2.69525E-14
 -1      3171 2.00284E+01 1.21365E-01-1.86891E-04 1.76311E-01-1.16137E-13-5.61604E-16
 -1      3172 2.00312E+01 6.94987E-02-3.21377E-04 9.98965E-02-5.43381E-14 1.95743E-14
 -1      3173 2.00405E+01 7.84419E-02 6.93460E-04 1.16775E-01-1.04885E-13 1.24903E-14
 -1      3174 2.00223E+01 9.92624E-02-1.35479E-04 1.31886E-01-9.61843E-14 4.12489E-14
 -1      3175 2.00228E+01 5.38739E-02-2.64003E-04 7.11976E-02-7.72954E-14 1.29121E-13
 -1      3176 2.00300E+01 6.16809E-02 5.69509E-04 8.44763E-02-4.44293E-14 1.35610E-14
 -1      3177 2.00178E+01 7.87409E-02-1.05436E-04 9.62578E-02-3.46686E-14 1.77952E-14
 -1      3178 2.00165E+01 4.06451E-02-2.08176E-04 4.90964E-02-6.75168E-14-3.21621E-14
 -1      3179 2.00219E+01 4.71809E-02 4.56888E-04 5.92858E-02-2.33925E-14-1.18368E-14
 -1      3180 2.00144E+01 6.07563E-02-8.67922E-05 6.83443E-02 3.76189E-14-8.71858E-14
 -1      3181 2.00117E+01 2.98361E-02-1.58358E-04 3.24754E-02-9.90458E-15-1.68540E-13
 -1      3182 2.00157E+01 3.51274E-02 3.58556E-04 4.01037E-02-8.77113E-14-4.40241E-14
 -1      3183 2.00116E+01 4.56465E-02-7.38948E-05 4.69605E-02-2.02377E-14-1.51061E-13
 -1      3184 2.00081E+01 2.12643E-02-1.16379E-04 2.02804E-02 9.33401E-14-1.54517E-13
 -1      3185 2.00110E+01 2.54267E-02 2.75400E-04 2.58461E-02 2.80094E-14-1.64428E-13
 -1      3186 2.00092E+01 3.33720E-02-6.37654E-05 3.09458E-02 2.57873E-14-3.29351E-13
 -1      3187 2.00054E+01 1.46466E-02-8.24955E-05 1.15721E-02 8.59178E-14-9.92463E-14
 -1      3188 2.00075E+01 1.78360E-02 2.06954E-04 1.55184E-02 1.38873E-13-1.16664E-13
 -1      3189 2.00073E+01 2.36832E-02-5.49831E-05 1.92362E-02 1.18271E-13-2.40139E-13
 -1      3190 2.00035E+01 9.66693E-03-5.61039E-05 5.54676E-03 4.21786E-14 1.81385E-14
 -1      3191 2.00049E+01 1.20490E-02 1.51955E-04 8.25217E-03 4.90189E-14 6.02557E-16
 -1      3192 2.00057E+01 1.62330E-02-4.69726E-05 1.08996E-02 1.62565E-14-9.26055E-14
 -1      3193 2.00020E+01 6.01625E-03-3.61980E-05 1.53905E-03 6.93470E-14 8.74768E-14
 -1      3194 2.00030E+01 7.74879E-03 1.08733E-04 3.31589E-03-9.90072E-16 6.67652E-14
 -1      3195 2.00043E+01 1.06475E-02-3.95762E-05 5.14814E-03 2.29714E-14-1.11870E-14
 -1      3196 2.00010E+01 3.41431E-03-2.16486E-05-9.87329E-04-8.05727E-14 4.19210E-13
 -1      3197 2.00017E+01 4.63814E-03 7.54885E-05 1.11774E-04 7.00982E-14 3.79637E-13
 -1      3198 2.00032E+01 6.56743E-03-3.28097E-05 1.33439E-03-1.64471E-13 2.08852E-13
 -1      3199 2.00004E+01 1.61940E-03-1.13631E-05-2.45426E-03-3.07109E-14 3.19645E-13
 -1      3200 2.00007E+01 2.45453E-03 5.04634E-05-1.83639E-03 4.49609E-14 3.37685E-13
 -1      3201 2.00023E+01 3.67076E-03-2.67350E-05-1.06048E-03 9.21959E-15 4.12752E-13
 -1      3202 1.99999E+01 4.30673E-04-4.36693E-06-3.18621E-03-2.99543E-14 1.67940E-13
 -1      3203 2.00001E+01 9.75888E-04 3.20480E-05-2.89913E-03-6.94844E-14 2.23205E-13
 -1      3204 2.00016E+01 1.68157E-03-2.14006E-05-2.44298E-03 8.87709E-14 2.83407E-13
 -1      3205 1.99996E+01-3.13891E-04 1.64107E-07-3.42726E-03-8.76935E-14 3.50852E-13
 -1      3206 1.99997E+01 2.04956E-05 1.88308E-05-3.35841E-03-1.02926E-13 2.77539E-13
 -1      3207 2.00011E+01 3.71787E-04-1.68200E-05-3.12483E-03-1.52150E-13 2.64377E-13
 -1      3208 1.99995E+01-7.41691E-04 2.89970E-06-3.35674E-03 2.03083E-14 2.71245E-13
 -1      3209 1.99995E+01-5.56375E-04 9.61609E-06-3.42391E-03 6.78226E-14 3.19528E-13
 -1      3210 2.00007E+01-4.41807E-04-1.29711E-05-3.33986E-03-6.98873E-14 1.49429E-13
 -1      3211 1.99994E+01-9.50630E-04 4.36684E-06-3.10312E-03-1.54774E-13 8.88076E-14
 -1      3212 1.99993E+01-8.67229E-04 3.41907E-06-3.24787E-03 1.49988E-14 2.85325E-13
 -1      3213 2.00004E+01-9.02824E-04-9.80284E-06-3.25959E-03 3.63882E-14 2.04588E-13
 -1      3214 1.99994E+01-1.01435E-03 4.96686E-06-2.75572E-03-1.21011E-13-2.57971E-14
 -1      3215 1.99993E+01-9.97612E-04-5.50722E-07-2.93779E-03-2.03415E-13-9.83556E-15
 -1      3216 2.00002E+01-1.12132E-03-7.24621E-06-3.00664E-03-7.31780E-14 1.03663E-13
 -1      3217 1.99994E+01-9.87106E-04 4.99765E-06-2.37428E-03-1.77411E-13-1.94143E-14
 -1      3218 1.99993E+01-1.01122E-03-2.91328E-06-2.56711E-03-1.06241E-13-4.56542E-14
 -1      3219 2.00000E+01-1.17987E-03-5.22638E-06-2.66608E-03-1.68004E-13 1.51609E-13
 -1      3220 1.99994E+01-9.08065E-04 4.67682E-06-1.99668E-03-2.54225E-14 1.41378E-13
 -1      3221 1.99993E+01-9.54527E-04-4.14307E-06-2.18375E-03-1.04139E-13 7.05321E-14
 -1      3222 1.99999E+01-1.13920E-03-3.66222E-06-2.29468E-03-1.89057E-13 1.97617E-13
 -1      3223 1.99995E+01-8.04956E-04 4.14458E-06-1.64501E-03 9.99284E-14 6.03289E-14
 -1      3224 1.99994E+01-8.60717E-04-4.60258E-06-1.81702E-03 1.00101E-13 4.33220E-14
 -1      3225 1.99998E+01-1.04298E-03-2.46841E-06-1.92829E-03 8.98346E-14 7.26461E-14
 -1      3226 1.99995E+01-6.97663E-04 2.99055E-06-1.33047E-03 4.97418E-14 1.54410E-14
 -1      3227 1.99994E+01-7.53200E-04-4.59267E-06-1.48273E-03 9.46835E-14 3.72002E-14
 -1      3228 1.99998E+01-9.22169E-04-1.58503E-06-1.58754E-03 1.08680E-13-3.60775E-15
 -1      3229 1.99996E+01-6.03896E-04-2.69999E-06-1.06013E-03 8.70323E-14 4.36249E-14
 -1      3230 1.99995E+01-6.46678E-04-4.92101E-06-1.18604E-03 6.30502E-14-4.11051E-15
 -1      3231 1.99997E+01-7.99004E-04-8.09454E-07-1.28140E-03-2.26184E-14-9.82067E-14
 -1      3232 1.99998E+01-5.91449E-04-2.78193E-06-6.49636E-04-4.65106E-14-7.51225E-14
 -1      3233 2.00004E+01-1.10143E-03 1.64549E-06 6.19078E-05-7.13951E-15 2.13644E-13
 -1      3234 2.00004E+01-1.10168E-03 1.57078E-06-5.81465E-05 1.37977E-15 2.30280E-13
 -1      3235 2.22469E+01 1.79568E+00-1.84310E-02-6.11154E-01 4.03894E-13-3.75594E-13
 -1      3236 2.22537E+01 2.09977E+00 5.43211E-03-1.63353E-01 4.48085E-13-3.71429E-13
 -1      3237 1.99997E+01-5.11510E-04-1.26399E-06 6.74511E-04-1.48037E-13-2.70109E-13
 -1      3238 2.00000E+01-8.08552E-04-2.28982E-06 6.68321E-04-3.80248E-13 7.84907E-14
 -1      3239 2.00001E+01-8.78134E-04 4.46441E-06 6.09206E-04-3.44643E-13-5.43202E-14
 -1      3240 2.23044E+01 2.23444E+00 4.01856E-03 4.68672E-01 4.77651E-13-2.83556E-13
 -1      3241 2.24183E+01 2.20408E+00-3.74730E-03 9.73933E-01 4.96251E-13-2.39560E-13
 -1      3242 2.27391E+01 2.63872E+00-5.86952E-03 1.97054E-01 5.19941E-13-3.28564E-13
 -1      3243 1.67877E+01-2.25518E+00 9.57997E-02-5.19440E+00 5.06241E-13 4.19123E-13
 -1      3244 1.99104E+01-3.32863E+00 4.37219E-02-4.96836E+00 5.02376E-13 9.97709E-14
 -1      3245 2.55223E+01 4.91848E+00-1.36564E-01-4.26722E-01 9.15101E-13-5.68284E-13
 -1      3246 2.59239E+01 4.04269E+00-5.05253E-02-1.21741E+00 7.95169E-13-7.32747E-13
 -1      3247 2.22075E+01-9.88497E-01 3.89767E-03-5.30121E-01 5.66133E-14-3.36052E-13
 -1      3248 2.22975E+01-9.07447E-01-4.91250E-03-7.48977E-01 9.36390E-14-3.60154E-13
 -1      3249 2.27273E+01-9.87306E-01 7.18640E-03-7.77461E-01 4.87285E-14-4.82440E-13
 -1      3250 2.17223E+01-3.24557E+00 1.08950E-01-4.22256E+00 4.78777E-13-1.41828E-13
 -1      3251 2.00003E+01-1.05838E-03 4.06335E-07 3.07321E-04-1.48352E-13 3.28699E-13
 -1      3252 2.00003E+01-1.08433E-03 2.72035E-06 1.96802E-04-6.11322E-14 2.49898E-13
 -1      3253 2.00005E+01-1.16555E-03-3.45217E-06 1.41892E-04 3.12201E-14 1.44334E-13
 -1      3254 2.46143E+01 1.12616E+00-5.10448E-02 2.48659E+00 2.92112E-13-1.13382E-13
 -1      3255 2.49250E+01 7.87896E-01-3.62186E-02 2.00725E+00 1.77870E-13-5.72927E-14
 -1      3256 2.45649E+01 1.60129E+00 1.38730E-02 2.69830E+00 3.73313E-13-6.25914E-14
 -1      3257 2.34858E+01 1.34271E+00-7.48493E-03 2.64923E+00 4.17633E-13-1.14673E-13
 -1      3258 2.23973E+01 8.67474E-01-3.20918E-02-1.24903E+00 2.45966E-13-4.68614E-13
 -1      3259 2.23744E+01 1.37847E+00 1.64807E-02-1.01711E+00 3.31005E-13-4.52842E-13
 -1      3260 2.29496E+01 7.56251E-01-1.01202E-02-1.39676E+00 2.43552E-13-5.96070E-13
 -1      3261 2.00002E+01-9.57151E-04-8.27138E-07 5.19803E-04-2.35959E-13-8.81450E-14
 -1      3262 2.00002E+01-1.00810E-03 3.63301E-06 4.28550E-04-3.27839E-13 7.19642E-14
 -1      3263 2.00004E+01-1.10220E-03-3.16964E-06 4.07785E-04-1.24626E-13 8.22811E-14
 -1      3264 2.00002E+01-9.79557E-04-3.32132E-06 6.27172E-04-3.07338E-13-6.71279E-14
 -1      3265 1.20118E+01-1.19639E-01 1.11711E-01-3.78193E+00 3.25323E-13 6.45942E-13
 -1      3266 1.41720E+01-1.24774E+00 4.43363E-02-4.94886E+00 3.88488E-13 6.69242E-13
 -1      3267 2.18156E+01-9.40581E-01 8.18231E-03-7.50769E-02 1.14401E-13-3.00390E-13
 -1      3268 2.19431E+01-9.96013E-01-7.71947E-03-2.76013E-01 7.24362E-14-3.12390E-13
 -1      3269 2.22578E+01-1.18306E+00-1.31087E-03-2.38348E-01 4.94790E-14-3.04115E-13
 -1      3270 2.17307E+01-1.06026E+00-6.40596E-03 1.95934E-01 2.72951E-14-1.89281E-13
 -1      3271 2.62919E+01 2.50558E+00-1.44011E-01-1.45682E+00 5.57540E-13-7.86475E-13
 -1      3272 2.69126E+01 9.15232E-01-3.53576E-02-1.28294E+00 3.33872E-13-8.82669E-13
 -1      3273 2.67040E+01 1.19137E+00 2.26953E-02 1.92497E+00 3.25101E-13 1.20896E-13
 -1      3274 2.65980E+01 2.17982E+00-1.36655E-01 2.32587E+00 5.60434E-13 7.77919E-14
 -1      3275 2.68692E+01-6.13629E-01-1.13386E-01-6.38800E-01 1.56583E-13-9.16052E-13
 -1      3276 2.64170E+01-2.00720E+00-2.30379E-02 4.09069E-01-1.01190E-13-8.59326E-13
 -1      3277 2.61265E+01-1.06229E-01-2.85356E-02-1.06562E+00 1.17805E-13-8.23605E-13
 -1      3278 1.99255E+01-3.45370E+00-2.31857E-02 5.14175E+00-7.20403E-13-5.68920E-14
 -1      3279 1.71207E+01-2.46943E+00 1.35414E-01 5.66525E+00-7.31554E-13 1.71405E-13
 -1      3280 9.82967E+00 1.04863E+00 1.01616E-01-5.55687E-01-6.34113E-14 5.44537E-13
 -1      3281 1.06765E+01 6.07859E-01 7.28794E-02-2.41217E+00 9.46188E-14 5.30839E-13
 -1      3282 2.05370E+01-2.45856E+00 4.27970E-02-4.17505E+00 4.17607E-13-6.58362E-14
 -1      3283 2.32880E+01 1.56586E+00 6.32839E-03 2.38970E+00 4.57297E-13-1.27995E-13
 -1      3284 1.77500E+01-7.69750E-01 2.72327E-02-3.80904E+00 3.08423E-13 2.80279E-13
 -1      3285 1.62635E+01-3.60854E-02 6.19748E-02-3.57069E+00 2.42200E-13 4.34645E-13
 -1      3286 1.28164E+01 1.96865E-01 1.26320E-01 3.55677E+00-4.53009E-13 4.16847E-13
 -1      3287 1.14590E+01 1.25153E+00 1.32334E-01 3.91106E-01-2.09130E-13 4.27866E-13
 -1      3288 2.56431E+01 4.80606E+00-7.32237E-02 1.83495E+00 8.67806E-13-1.82510E-13
 -1      3289 1.99998E+01-6.19686E-04-1.29766E-06 7.36476E-04-2.69500E-13-1.06399E-13
 -1      3290 1.99999E+01-7.30044E-04 5.22191E-06-6.99748E-04 4.86879E-15-3.40304E-14
 -1      3291 1.99998E+01-6.06741E-04-1.61212E-06-7.26887E-04-1.30327E-13-1.41485E-13
 -1      3292 1.99997E+01-6.19282E-04-5.43299E-06-8.07331E-04-7.02263E-14 6.60879E-14
 -1      3293 2.28234E+01 1.84936E+00-3.72222E-04-8.86785E-01 3.85743E-13-4.76640E-13
 -1      3294 1.99997E+01-6.34818E-04-1.88482E-06-8.93299E-04-1.71419E-13 1.89186E-13
 -1      3295 1.99997E+01-6.47420E-04-3.84388E-06-9.79633E-04-1.24513E-15 1.69363E-13
 -1      3296 1.99999E+01-7.74858E-04 6.34607E-06-8.68655E-04-1.54540E-13-2.81230E-13
 -1      3297 2.00002E+01-1.00703E-03 3.44815E-06-4.28658E-04-2.66915E-13 2.70460E-14
 -1      3298 2.00002E+01-9.55509E-04-4.98659E-07-5.19421E-04-2.55145E-13-4.67913E-14
 -1      3299 2.57685E+01-2.81227E+00-2.42656E-02 1.05678E+00-2.52924E-13-7.86832E-13
 -1      3300 2.45808E+01-3.11930E+00-7.63953E-03 1.74553E+00-3.77906E-13-6.75994E-13
 -1      3301 2.55150E+01-2.04028E+00-3.42416E-02 7.33091E-02-1.76432E-13-8.08801E-13
 -1      3302 2.00001E+01-8.86066E-04 4.02510E-06-5.93931E-04-1.64029E-13-2.26232E-13
 -1      3303 2.00000E+01-8.16197E-04-7.50583E-07-6.50482E-04-5.42702E-14-1.59187E-13
 -1      3304 2.00000E+01-8.44314E-04-4.50808E-06-7.33512E-04-1.17152E-13-2.22816E-13
 -1      3305 2.00002E+01-9.87195E-04-3.76154E-06-6.10137E-04-1.53496E-13-2.92629E-13
 -1      3306 2.00003E+01-1.08411E-03 2.75199E-06-1.95324E-04 1.89238E-14 1.19319E-13
 -1      3307 2.00003E+01-1.05778E-03 3.17969E-07-3.07802E-04-1.71607E-13 2.48760E-14
 -1      3308 2.00005E+01-1.16528E-03-3.40438E-06-1.40327E-04-5.15783E-14 1.62981E-13
 -1      3309 1.99999E+01-6.90424E-04 2.30255E-06 7.29385E-04-3.32530E-13 1.86362E-13
 -1      3310 1.65975E+01-1.39048E+00 9.42966E-02-4.55659E+00 4.54473E-13 4.29462E-13
 -1      3311 2.53523E+01 2.63099E+00-4.37622E-02-1.33384E+00 5.72400E-13-7.61124E-13
 -1      3312 1.27802E+01 5.39289E-01 1.07307E-01-2.78763E+00 1.90934E-13 4.92620E-13
 -1      3313 2.53099E+01 7.40075E-01-8.51157E-02 1.93988E+00 2.09052E-13 1.35274E-14
 -1      3314 2.54295E+01 3.01776E-01-1.99321E-02 1.01105E+00 7.22404E-14 1.92103E-14
 -1      3315 2.27342E+01 2.11789E+00 1.44271E-03 1.62013E+00 5.01805E-13-1.77725E-13
 -1      3316 2.29362E+01 1.84193E+00-2.80901E-02 2.04421E+00 4.92406E-13-1.34008E-13
 -1      3317 2.37853E+01 2.05461E+00 8.03906E-03 2.50595E+00 4.76023E-13-1.23359E-13
 -1      3318 2.31226E+01 2.65087E+00-3.33408E-03 1.49252E+00 5.34736E-13-2.16266E-13
 -1      3319 1.99999E+01-7.89560E-04-2.60358E-06 7.91029E-04-4.10106E-13 1.36845E-13
 -1      3320 2.49049E+01 4.71984E+00-4.60620E-02 1.02071E-01 8.60763E-13-5.14629E-13
 -1      3321 2.29215E+01-3.49764E+00-9.28455E-03 3.25557E+00-5.30045E-13-4.54712E-13
 -1      3322 2.17568E+01-3.55091E+00 7.74843E-02 4.36115E+00-6.56464E-13-2.20052E-13
 -1      3323 2.02691E+01-3.00304E+00 8.52651E-03 4.46086E+00-6.18235E-13-5.99000E-14
 -1      3324 2.45623E+01-8.95311E-01 2.94816E-02-1.08093E+00-2.52149E-13-4.36803E-14
 -1      3325 2.63124E+01 2.90292E+00-5.42551E-02 2.58217E+00 6.15917E-13 8.00887E-14
 -1      3326 2.55065E+01 3.48851E+00-1.03918E-01 2.57983E+00 6.77847E-13-9.74915E-15
 -1      3327 2.56227E+01 2.18918E+00-2.79565E-02 2.57013E+00 4.70318E-13 5.99572E-14
 -1      3328 1.99806E+01-1.63983E+00 5.93359E-02-3.92193E+00 3.51542E-13 3.44117E-14
 -1      3329 2.54942E+01-2.84880E-01-9.42419E-02 1.92602E-01 1.20433E-14 6.75016E-14
 -1      3330 1.66198E+01-1.75283E+00 9.31208E-02 5.04051E+00-6.64871E-13 2.03445E-13
 -1      3331 1.43497E+01-1.74595E-01 2.73583E-03 3.90370E+00-4.71876E-13 2.96894E-13
 -1      3332 1.30318E+01 7.37783E-01 3.64238E-02 2.65067E+00-3.51243E-13 3.13735E-13
 -1      3333 2.34196E+01-8.54496E-01-8.29973E-03-1.03042E+00 2.53985E-14-5.95611E-13
 -1      3334 2.35189E+01-3.45020E-01-5.72236E-04-1.23891E+00 9.56558E-14-6.57119E-13
 -1      3335 1.75717E+01 1.10888E+00 5.09262E-03-1.88813E+00 9.23480E-15 1.32123E-13
 -1      3336 1.77902E+01 1.16366E+00-1.86995E-02-1.66041E+00-1.02034E-14 8.36294E-14
 -1      3337 1.82122E+01 1.18211E+00 2.26652E-03-1.49153E+00 1.36625E-14 2.57922E-14
 -1      3338 1.84050E+01 1.15452E+00-1.29803E-02-1.33076E+00 7.26024E-14 6.34919E-14
 -1      3339 1.75163E+01 1.35422E+00 1.85078E-02-1.30179E+00-3.90508E-14 2.73861E-14
 -1      3340 1.87167E+01 1.11351E+00 1.01075E-04-1.21277E+00 2.77007E-14-2.26797E-14
 -1      3341 1.88717E+01 1.04964E+00-9.12925E-03-1.08742E+00-4.77424E-14-1.22646E-13
 -1      3342 1.82099E+01 1.26738E+00 1.36132E-02-1.06022E+00-7.34352E-14-1.26007E-13
 -1      3343 1.91009E+01 9.82680E-01-4.26386E-04-9.95761E-01-1.36017E-13-2.01205E-13
 -1      3344 1.92168E+01 9.06182E-01-6.62988E-03-8.92103E-01-1.44318E-13-2.26500E-13
 -1      3345 1.87232E+01 1.12168E+00 1.01041E-02-8.83242E-01-1.18177E-13-2.09091E-13
 -1      3346 1.93842E+01 8.32422E-01-3.18522E-04-8.15654E-01-1.06077E-13-2.54681E-13
 -1      3347 1.94664E+01 7.56268E-01-4.96840E-03-7.27705E-01-1.14878E-13-2.70734E-13
 -1      3348 1.90998E+01 9.56696E-01 7.46051E-03-7.38437E-01-1.37509E-13-2.11464E-13
 -1      3349 1.95877E+01 6.85760E-01-3.21628E-05-6.61915E-01-1.08368E-13-2.79755E-13
 -1      3350 1.96435E+01 6.16304E-01-3.79466E-03-5.87081E-01-1.14755E-13-2.50539E-13
 -1      3351 1.93734E+01 7.94674E-01 5.42920E-03-6.12550E-01-1.25622E-13-1.69144E-13
 -1      3352 1.97306E+01 5.53585E-01 2.40517E-04-5.30297E-01-7.08959E-14-1.87124E-13
 -1      3353 1.97670E+01 4.93361E-01-2.91935E-03-4.67212E-01-4.46996E-14-6.01065E-14
 -1      3354 1.95699E+01 6.46951E-01 3.89064E-03-5.01219E-01-2.97744E-14-1.63817E-13
 -1      3355 1.98289E+01 4.39912E-01 4.33124E-04-4.18737E-01-1.03490E-13 6.00218E-14
 -1      3356 1.98516E+01 3.89364E-01-2.24332E-03-3.66313E-01-5.51264E-14-1.37072E-14
 -1      3357 1.97095E+01 5.18314E-01 2.75719E-03-4.03554E-01-1.72110E-14-4.27775E-15
 -1      3358 1.98953E+01 3.45072E-01 5.34560E-04-3.25599E-01-1.55476E-13-7.91296E-14
 -1      3359 1.99087E+01 3.03577E-01-1.72059E-03-2.82710E-01-1.81784E-13-1.40384E-13
 -1      3360 1.98075E+01 4.09686E-01 1.92541E-03-3.19398E-01-1.38882E-13-2.63320E-14
 -1      3361 1.99392E+01 2.67562E-01 5.62885E-04-2.49116E-01-1.59528E-13-1.39910E-13
 -1      3362 1.99466E+01 2.34029E-01-1.31488E-03-2.14579E-01-1.81965E-13-1.98691E-13
 -1      3363 1.98756E+01 3.19955E-01 1.32409E-03-2.48341E-01-2.05096E-13-6.31557E-14
 -1      3364 1.99676E+01 2.05148E-01 5.41172E-04-1.87366E-01-3.12835E-14-1.21012E-13
 -1      3365 1.99712E+01 1.78384E-01-9.98292E-04-1.59991E-01 6.18397E-14-2.21005E-14
 -1      3366 1.99223E+01 2.47015E-01 8.99135E-04-1.89581E-01-3.49115E-14 3.72814E-14
 -1      3367 1.99856E+01 1.55488E-01 4.89517E-04-1.38347E-01 6.71850E-14-5.52716E-14
 -1      3368 1.99869E+01 1.34359E-01-7.51649E-04-1.16986E-01 5.86996E-14-2.90194E-14
 -1      3369 1.99539E+01 1.88478E-01 6.01309E-04-1.41973E-01 6.22924E-14 1.24793E-13
 -1      3370 1.99965E+01 1.16394E-01 4.23859E-04-1.00075E-01-4.59954E-15-6.45054E-14
 -1      3371 1.99965E+01 9.98854E-02-5.60490E-04-8.36667E-02-5.51202E-15-9.56257E-14
 -1      3372 1.99750E+01 1.42040E-01 3.94787E-04-1.04144E-01 5.55236E-14 3.56039E-14
 -1      3373 2.00028E+01 8.59311E-02 3.54821E-04-7.06875E-02 1.21933E-14-1.47274E-13
 -1      3374 2.00021E+01 7.31652E-02-4.13262E-04-5.82867E-02 5.86762E-14-1.16647E-13
 -1      3375 1.99886E+01 1.05597E-01 2.53112E-04-7.46449E-02 3.75252E-14-6.29431E-14
 -1      3376 2.00061E+01 6.24383E-02 2.88889E-04-4.85067E-02 2.55168E-14-2.30329E-13
 -1      3377 2.00051E+01 5.26746E-02-3.00662E-04-3.92955E-02-3.98135E-14-2.25283E-13
 -1      3378 1.99972E+01 7.73053E-02 1.56981E-04-5.20657E-02-3.23763E-14-1.94217E-13
 -1      3379 2.00075E+01 4.45211E-02 2.29613E-04-3.20692E-02-6.51436E-14-2.75392E-13
 -1      3380 2.00064E+01 3.71428E-02-2.15235E-04-2.53568E-02-7.57077E-14-3.25532E-13
 -1      3381 2.00023E+01 5.55888E-02 9.25651E-05-3.51114E-02-7.34925E-14-2.21731E-13
 -1      3382 2.00078E+01 3.10225E-02 1.78544E-04-2.01318E-02 6.55250E-15-3.54055E-13
 -1      3383 2.00067E+01 2.55216E-02-1.51035E-04-1.53463E-02 9.56475E-14-3.44703E-13
 -1      3384 2.00051E+01 3.91221E-02 5.00844E-05-2.26383E-02-6.63124E-14-3.25624E-13
 -1      3385 2.00074E+01 2.09925E-02 1.35955E-04-1.16616E-02 5.40157E-14-3.36776E-13
 -1      3386 2.00064E+01 1.69542E-02-1.03327E-04-8.33823E-03 9.92453E-14-3.67398E-13
 -1      3387 2.00063E+01 2.68045E-02 2.26733E-05-1.36675E-02 4.79156E-14-3.70251E-13
 -1      3388 2.00066E+01 1.36577E-02 1.01370E-04-5.81746E-03 1.68650E-13-3.23822E-13
 -1      3389 2.00058E+01 1.07464E-02-6.83479E-05-3.58436E-03 1.32513E-13-2.29464E-13
 -1      3390 2.00067E+01 1.77314E-02 5.53665E-06-7.38363E-03 7.32339E-14-2.24498E-13
 -1      3391 2.00057E+01 8.39376E-03 7.39214E-05-1.92623E-03-7.60349E-14-1.77085E-13
 -1      3392 2.00050E+01 6.34019E-03-4.31127E-05-4.90937E-04-1.05981E-13-2.01978E-13
 -1      3393 2.00064E+01 1.11667E-02-4.66334E-06-3.12203E-03 4.21608E-14-2.55335E-13
 -1      3394 2.00048E+01 4.70106E-03 5.25871E-05 5.41383E-04-3.10887E-14-1.68656E-13
 -1      3395 2.00042E+01 3.29138E-03-2.52642E-05 1.40537E-03-9.03771E-14-8.32549E-14
 -1      3396 2.00058E+01 6.51723E-03-1.02440E-05-3.52233E-04-6.97516E-14-1.15451E-13
 -1      3397 2.00039E+01 2.18390E-03 3.63333E-05 1.99466E-03-1.01872E-13-7.74734E-14
 -1      3398 2.00035E+01 1.25006E-03-1.29509E-05 2.45990E-03-3.02160E-14-8.94961E-14
 -1      3399 2.00051E+01 3.30985E-03-1.28090E-05 1.34131E-03-7.89035E-14-1.33819E-13
 -1      3400 2.00031E+01 5.32153E-04 2.41970E-05 2.74470E-03 1.12901E-13-7.94409E-14
 -1      3401 2.00028E+01-5.63866E-05-4.72906E-06 2.94043E-03 2.49995E-13 1.06889E-13
 -1      3402 2.00043E+01 1.17157E-03-1.34629E-05 2.27812E-03 1.20763E-13-1.64508E-13
 -1      3403 2.00024E+01-4.94426E-04 1.53256E-05 3.02372E-03 2.12391E-13 1.05485E-13
 -1      3404 2.00022E+01-8.37796E-04 5.17402E-07 3.04491E-03 2.30994E-13 5.09979E-14
 -1      3405 2.00035E+01-1.88284E-04-1.29605E-05 2.69933E-03 2.50803E-13-3.55391E-13
 -1      3406 2.00019E+01-1.07955E-03 8.99260E-06 3.00167E-03 1.83418E-13-4.02611E-14
 -1      3407 2.00016E+01-1.25350E-03 3.64255E-06 2.91661E-03 1.19252E-13-1.07269E-13
 -1      3408 2.00028E+01-9.93331E-04-1.18115E-05 2.78330E-03 2.08241E-13-4.12489E-13
 -1      3409 2.00014E+01-1.36175E-03 4.59705E-06 2.80012E-03 2.91146E-14-1.84320E-15
 -1      3410 2.00012E+01-1.42275E-03 5.29301E-06 2.65669E-03-1.37200E-14-5.15558E-16
 -1      3411 2.00022E+01-1.41322E-03-1.03534E-05 2.65912E-03 5.83750E-14-3.54120E-13
 -1      3412 2.00010E+01-1.44396E-03 1.65708E-06 2.50371E-03 4.90861E-14 5.78521E-14
 -1      3413 2.00009E+01-1.43344E-03 5.94811E-06 2.33441E-03 1.09382E-13 1.75971E-14
 -1      3414 2.00017E+01-1.57479E-03-8.80366E-06 2.41788E-03 8.42380E-14-1.44326E-13
 -1      3415 2.00007E+01-1.40143E-03-2.08227E-07 2.16935E-03 1.31394E-13 8.69750E-14
 -1      3416 2.00006E+01-1.34923E-03 5.96356E-06 1.99523E-03 1.23432E-13-9.22002E-14
 -1      3417 2.00012E+01-1.57139E-03-7.30133E-06 2.12187E-03 1.16581E-13 1.45267E-13
 -1      3418 2.00004E+01-1.28812E-03-1.30918E-06 1.83341E-03 5.09461E-14 1.71365E-14
 -1      3419 2.00004E+01-1.21530E-03 5.59477E-06 1.66731E-03 1.76198E-13 2.45888E-14
 -1      3420 2.00009E+01-1.47041E-03-5.91242E-06 1.81182E-03 1.51159E-13 4.81407E-14
 -1      3421 2.00002E+01-1.14210E-03-1.88310E-06 1.51767E-03 2.07650E-14-2.51590E-14
 -1      3422 2.00002E+01-1.06330E-03 4.93108E-06 1.36654E-03-3.39420E-13-5.48559E-14
 -1      3423 2.00006E+01-1.31966E-03-4.69246E-06 1.51300E-03-5.18453E-14-1.92814E-13
 -1      3424 2.00001E+01-9.90767E-04-2.49722E-06 1.23298E-03-3.84733E-13 1.42581E-13
 -1      3425 2.00000E+01-9.15889E-04 3.70538E-06 1.09984E-03-2.56762E-13 3.27744E-13
 -1      3426 2.00004E+01-1.15191E-03-3.07846E-06 1.24018E-03-2.30041E-13 8.61231E-14
 -1      3427 2.00000E+01-8.84274E-04-3.57357E-06 9.96230E-04-2.35130E-13 3.07999E-13
 -1      3428 2.00000E+01-8.20596E-04 1.47991E-06 8.81051E-04-3.15329E-13 2.22155E-13
 -1      3429 2.00001E+01-9.30937E-04 3.44339E-06 8.09119E-04-3.09171E-13 3.81528E-14
 -1      3430 2.00002E+01-1.02114E-03 8.65073E-07 1.00557E-03-1.17268E-13 1.44740E-13
 -1      3431 2.06728E+01-4.21481E-01 7.45504E-03 8.01899E-01-6.05514E-14 8.91889E-15
 -1      3432 2.08350E+01-5.83364E-01-3.79178E-04 7.68548E-01-6.55615E-14-6.19269E-16
 -1      3433 2.10781E+01-7.53087E-01 1.08280E-02 7.40993E-01-5.83897E-14-6.36207E-14
 -1      3434 2.12858E+01-9.39227E-01-3.09662E-03 6.51829E-01-4.60838E-14-7.20749E-14
 -1      3435 2.08030E+01-7.29837E-01-1.17291E-02 9.41781E-01-5.27060E-14-9.23913E-14
 -1      3436 2.02150E+01 1.88051E-02 2.46254E-03 7.12767E-01-5.62420E-14-6.07910E-14
 -1      3437 2.02966E+01-6.29123E-02 1.59338E-03 7.38653E-01-3.76278E-14-4.99715E-14
 -1      3438 2.01064E+01 1.30471E-01 1.05214E-03 6.23921E-01-6.60380E-14-7.06153E-14
 -1      3439 2.01609E+01 8.21322E-02 1.69414E-03 6.61366E-01-2.75265E-14-7.38543E-14
 -1      3440 2.00503E+01 7.68511E-02-3.73323E-03 7.39503E-01-2.95134E-14 7.94072E-14
 -1      3441 2.00451E+01 1.88836E-01 1.69980E-04 5.28833E-01-1.07132E-13-9.08680E-14
 -1      3442 2.00807E+01 1.65504E-01 1.59561E-03 5.70712E-01-8.46456E-14-6.71616E-14
 -1      3443 1.99771E+01 1.82068E-01-2.20299E-03 6.27525E-01-3.50025E-14 9.82988E-14
 -1      3444 2.00135E+01 2.09535E-01-3.38349E-04 4.36568E-01-1.47667E-13-2.78981E-14
 -1      3445 2.00365E+01 2.03408E-01 1.42766E-03 4.78303E-01-1.80433E-13-1.33464E-13
 -1      3446 1.99455E+01 2.32463E-01-1.18901E-03 5.19595E-01-1.44846E-13 8.22689E-14
 -1      3447 1.99996E+01 2.05840E-01-5.93488E-04 3.52197E-01-6.43547E-14 2.04481E-15
 -1      3448 2.00145E+01 2.10530E-01 1.24386E-03 3.91044E-01-6.83650E-14-2.41389E-14
 -1      3449 1.99380E+01 2.45243E-01-5.59459E-04 4.21316E-01-1.60573E-13 3.85787E-14
 -1      3450 1.99953E+01 1.87950E-01-6.86412E-04 2.78161E-01-1.14704E-13-8.07961E-15
 -1      3451 2.00052E+01 1.98674E-01 1.06546E-03 3.12664E-01-5.06420E-14 3.10341E-14
 -1      3452 1.99433E+01 2.34394E-01-1.95099E-04 3.35182E-01-7.55307E-14 5.44371E-14
 -1      3453 1.99958E+01 1.63117E-01-6.80148E-04 2.15222E-01-2.06175E-13-1.09503E-13
 -1      3454 2.00025E+01 1.76546E-01 9.02169E-04 2.44791E-01-1.45332E-13-1.26562E-13
 -1      3455 1.99541E+01 2.10359E-01-2.03327E-06 2.61819E-01-8.72866E-14 2.85554E-14
 -1      3456 1.99981E+01 1.36169E-01-6.18929E-04 1.63117E-01-1.43736E-13 1.50311E-14
 -1      3457 2.00029E+01 1.50131E-01 7.55808E-04 1.87724E-01-2.19072E-13-1.03285E-13
 -1      3458 1.99662E+01 1.80410E-01 8.74217E-05 2.00794E-01-2.16826E-13 4.41132E-14
 -1      3459 2.00008E+01 1.10092E-01-5.32382E-04 1.20980E-01-1.13322E-13 4.98311E-14
 -1      3460 2.00044E+01 1.23279E-01 6.25518E-04 1.40941E-01-7.64692E-14 1.40736E-13
 -1      3461 1.99773E+01 1.49295E-01 1.15668E-04 1.51089E-01-2.04168E-13 5.99673E-14
 -1      3462 2.00030E+01 8.65467E-02-4.39064E-04 8.76281E-02 1.36362E-15 6.68105E-14
 -1      3463 2.00058E+01 9.82639E-02 5.10943E-04 1.03450E-01-8.21999E-14 9.86623E-14
 -1      3464 1.99866E+01 1.19889E-01 1.11130E-04 1.11386E-01-5.18630E-14 1.22540E-13
 -1      3465 2.00046E+01 6.62852E-02-3.49857E-04 6.17693E-02 2.82958E-14 7.24839E-14
 -1      3466 2.00069E+01 7.62497E-02 4.11623E-04 7.40379E-02 7.36853E-14 8.44966E-14
 -1      3467 1.99937E+01 9.37258E-02 9.17547E-05 8.02583E-02 5.44662E-14 1.50080E-13
 -1      3468 2.00055E+01 4.94803E-02-2.70435E-04 4.21282E-02 1.47517E-14-3.21352E-14
 -1      3469 2.00073E+01 5.76676E-02 3.26814E-04 5.14367E-02-3.18569E-15 1.49391E-14
 -1      3470 1.99988E+01 7.14393E-02 6.79619E-05 5.63035E-02 5.41074E-14 2.10081E-13
 -1      3471 2.00058E+01 3.59590E-02-2.03117E-04 2.75254E-02 4.13166E-15-1.69313E-13
 -1      3472 2.00073E+01 4.24940E-02 2.55528E-04 3.44308E-02 3.92276E-14-1.26818E-13
 -1      3473 2.00022E+01 5.30917E-02 4.52734E-05 3.82173E-02 1.07078E-13-4.36975E-14
 -1      3474 2.00057E+01 2.53662E-02-1.48168E-04 1.69174E-02 5.82947E-14 2.17955E-15
 -1      3475 2.00069E+01 3.04490E-02 1.96574E-04 2.19167E-02 3.79032E-14-1.29856E-13
 -1      3476 2.00042E+01 3.84146E-02 2.62004E-05 2.48371E-02-2.19936E-14-6.12672E-15
 -1      3477 2.00053E+01 1.72717E-02-1.04703E-04 9.41205E-03 1.14679E-14 7.28157E-14
 -1      3478 2.00063E+01 2.11290E-02 1.48614E-04 1.29321E-02 2.43676E-14 6.15377E-14
 -1      3479 2.00052E+01 2.69712E-02 1.15048E-05 1.51589E-02 1.99083E-14 2.57440E-13
 -1      3480 2.00047E+01 1.12364E-02-7.12763E-05 4.26750E-03-6.92916E-14 1.30518E-13
 -1      3481 2.00055E+01 1.40922E-02 1.10238E-04 6.66398E-03 5.03917E-14 4.97821E-14
 -1      3482 2.00055E+01 1.82633E-02 1.01106E-06 8.33847E-03 4.06350E-14 1.19145E-13
 -1      3483 2.00040E+01 6.85071E-03-4.62527E-05 8.81755E-04-3.40952E-13 1.86762E-13
 -1      3484 2.00047E+01 8.91024E-03 8.00429E-05 2.44355E-03-2.79536E-13 1.04891E-13
 -1      3485 2.00054E+01 1.17961E-02-5.89098E-06 3.68199E-03-1.91758E-13 2.35361E-13
 -1      3486 2.00034E+01 3.75351E-03-2.80279E-05-1.22319E-03 9.96867E-14 1.49975E-13
 -1      3487 2.00039E+01 5.19525E-03 5.66885E-05-2.66894E-04-2.41420E-14 1.89496E-13
 -1      3488 2.00049E+01 7.11501E-03-9.95177E-06 6.31295E-04-1.86986E-13 7.02868E-14
 -1      3489 2.00027E+01 1.63930E-03-1.51480E-05-2.41916E-03 9.52940E-15 2.92623E-13
 -1      3490 2.00031E+01 2.61280E-03 3.89462E-05-1.89039E-03 8.03047E-14 1.92744E-13
 -1      3491 2.00043E+01 3.82345E-03-1.19021E-05-1.25409E-03 8.00146E-14 1.51041E-13
 -1      3492 2.00022E+01 2.57583E-04-6.36195E-06-2.98957E-03-1.82327E-13 2.60582E-13
 -1      3493 2.00024E+01 8.84506E-04 2.57236E-05-2.75300E-03-2.41874E-14 3.66636E-13
 -1      3494 2.00036E+01 1.58804E-03-1.23769E-05-2.31512E-03-5.17509E-14 3.50494E-13
 -1      3495 2.00017E+01-5.91600E-04-6.34039E-07-3.14600E-03 6.89312E-14 1.33165E-13
 -1      3496 2.00019E+01-2.14818E-04 1.60760E-05-3.10094E-03-1.03565E-13 1.20510E-13
 -1      3497 2.00030E+01 1.36883E-04-1.18891E-05-2.81072E-03-1.33570E-14 2.96709E-13
 -1      3498 2.00012E+01-1.06419E-03 2.86791E-06-3.04287E-03-8.67984E-14 2.10635E-13
 -1      3499 2.00014E+01-8.62810E-04 9.20592E-06-3.11615E-03 6.91540E-14 1.67231E-13
 -1      3500 2.00024E+01-7.46166E-04-1.08300E-05-2.93357E-03-8.05417E-15 7.01545E-14
 -1      3501 2.00009E+01-1.27919E-03 4.79689E-06-2.79009E-03-7.38037E-14 1.77254E-13
 -1      3502 2.00010E+01-1.19651E-03 4.45465E-06-2.92992E-03-9.49299E-14 2.71855E-13
 -1      3503 2.00019E+01-1.22910E-03-9.48293E-06-2.82390E-03-4.80371E-14 1.97794E-13
 -1      3504 2.00006E+01-1.32556E-03 5.64544E-06-2.46355E-03-2.08578E-13 2.75163E-13
 -1      3505 2.00007E+01-1.31942E-03 1.29169E-06-2.63444E-03-5.59900E-14 1.13545E-13
 -1      3506 2.00014E+01-1.43971E-03-8.04366E-06-2.58129E-03-5.21330E-14 3.40353E-14
 -1      3507 2.00004E+01-1.26855E-03 5.77734E-06-2.11357E-03-1.56843E-13 9.13821E-14
 -1      3508 2.00004E+01-1.30822E-03-6.99647E-07-2.29224E-03-1.97790E-13 3.47256E-13
 -1      3509 2.00010E+01-1.47339E-03-6.65764E-06-2.27431E-03-1.89239E-13 5.88408E-14
 -1      3510 2.00002E+01-1.15481E-03 5.50136E-06-1.77152E-03 1.43761E-13 8.31471E-14
 -1      3511 2.00002E+01-1.21850E-03-1.83350E-06-1.94371E-03 3.28065E-14 3.23096E-14
 -1      3512 2.00007E+01-1.39989E-03-5.41128E-06-1.94817E-03 6.27281E-14-5.76107E-14
 -1      3513 2.00001E+01-1.01800E-03 4.92374E-06-1.45556E-03 7.26468E-14-1.09834E-13
 -1      3514 2.00001E+01-1.08991E-03-2.38744E-06-1.61356E-03 1.77924E-13 3.09283E-15
 -1      3515 2.00005E+01-1.26894E-03-4.35897E-06-1.63137E-03 1.86006E-13 2.58753E-15
 -1      3516 2.00000E+01-8.81513E-04 3.34473E-06-1.17442E-03-5.81040E-14-9.53210E-14
 -1      3517 2.00000E+01-9.48312E-04-1.98704E-06-1.31438E-03 2.56025E-14-1.29745E-13
 -1      3518 2.00003E+01-1.11481E-03-2.93593E-06-1.34011E-03 1.34778E-13-1.13629E-13
 -1      3519 1.99998E+01-7.68613E-04 5.12921E-06-1.04902E-03-1.25838E-13-2.24105E-14
 -1      3520 2.00004E+01-1.10091E-03-3.21067E-06-4.08397E-04-7.13862E-14 2.15236E-13
 -1      3521 2.36589E+01 2.50593E+00-5.65703E-02-1.07791E+00 5.20119E-13-6.38540E-13
 -1      3522 2.36232E+01 3.13507E+00-3.71812E-02-6.57458E-01 5.98448E-13-5.65074E-13
 -1      3523 2.56902E+01 1.52538E+00 2.03160E-02 2.53937E+00 3.42379E-13 5.51260E-14
 -1      3524 2.41722E+01 4.07181E+00-3.76029E-02 1.03351E-01 7.60017E-13-4.82208E-13
 -1      3525 2.31691E+01 3.23419E+00-5.47499E-03 2.44679E-01 5.95357E-13-3.59249E-13
 -1      3526 2.32279E+01 3.23606E+00-3.41699E-02 9.26873E-01 6.00396E-13-2.68245E-13
 -1      3527 2.42918E+01 4.39725E+00-9.69442E-02 1.12513E+00 7.90527E-13-2.97762E-13
 -1      3528 2.00006E+01-1.23088E-03 1.20169E-06 2.27964E-04 5.95806E-14 2.52992E-13
 -1      3529 2.00006E+01-1.24640E-03 1.90642E-06 8.57437E-05 2.21097E-14 6.81544E-15
 -1      3530 2.29392E+01-1.39588E+00 5.78415E-03-3.93383E-01-3.57350E-14-4.45322E-13
 -1      3531 2.31287E+01-1.20493E+00-4.89479E-03-6.75780E-01 6.37793E-15-4.85978E-13
 -1      3532 2.36622E+01-1.26362E+00 4.86131E-03-6.54730E-01-6.05683E-14-5.39903E-13
 -1      3533 2.52903E+01 4.03288E+00-5.70052E-02 2.29015E+00 7.37792E-13-8.40647E-14
 -1      3534 2.47158E+01 4.43348E+00-5.38431E-02 1.70203E+00 7.91561E-13-2.13374E-13
 -1      3535 2.40866E+01 3.83039E+00-1.53307E-02 1.53899E+00 6.68791E-13-2.26809E-13
 -1      3536 2.48876E+01 3.22623E+00-1.82984E-02 2.44621E+00 5.88571E-13-5.08846E-14
 -1      3537 2.03943E+01-1.61850E-01 4.56524E-03 7.80199E-01-5.00684E-14-7.55718E-14
 -1      3538 2.05124E+01-2.83593E-01 1.05174E-03 7.83904E-01-3.52369E-14 1.88209E-15
 -1      3539 2.04280E+01-3.70177E-01-8.65925E-03 9.23374E-01-6.33256E-14-4.76564E-14
 -1      3540 2.01897E+01-1.02007E-01-5.89447E-03 8.44703E-01-2.86988E-14 1.09709E-13
 -1      3541 1.67518E+01 7.07294E-01-1.36271E-02-2.54058E+00 6.10475E-14 2.62050E-13
 -1      3542 1.69928E+01 9.89205E-01-2.68077E-02-2.14752E+00 2.12777E-14 1.83705E-13
 -1      3543 1.65913E+01 1.30408E+00 2.52964E-02-1.67330E+00-3.27670E-14 2.35224E-13
 -1      3544 1.22881E+01 1.26947E+00 3.54975E-02 1.26789E+00-2.37949E-13 3.70204E-13
 -1      3545 1.23354E+01 1.35368E+00 8.86492E-03-4.73826E-01-9.34565E-14 2.82663E-13
 -1      3546 1.39140E+01 5.35847E-01 1.56842E-02-2.92478E+00 1.65361E-13 4.44526E-13
 -1      3547 1.59178E+01 7.35092E-01 1.16774E-02-2.58325E+00 5.86822E-14 3.38512E-13
 -1      3548 1.51218E+01 1.28143E+00 4.46710E-02-1.86185E+00-5.45224E-15 3.39437E-13
 -1      3549 1.29572E+01 1.27971E+00 7.95434E-02-1.56479E+00-8.47239E-15 2.56694E-13
 -1      3550 1.78310E+01-1.87873E+00-1.06132E-02 4.55492E+00-6.11662E-13 1.14915E-13
 -1      3551 1.58763E+01-8.62117E-01 7.29565E-02 4.39558E+00-5.83450E-13 1.92533E-13
 -1      3552 1.60370E+01-2.54197E-01 6.33398E-02 3.55485E+00-4.24952E-13 1.62797E-13
 -1      3553 2.52792E+01 2.79467E-01-6.52299E-02-1.37434E+00 1.73021E-13-7.31037E-13
 -1      3554 2.55646E+01-7.97793E-01 4.63206E-03-9.23132E-01-1.01689E-14-7.74679E-13
 -1      3555 2.00000E+01-9.19985E-04-2.70546E-06-1.07602E-03-1.50484E-13 1.39938E-14
 -1      3556 2.42366E+01 1.46478E+00-9.28892E-03-1.47462E+00 3.70839E-13-7.43934E-13
 -1      3557 2.51671E+01 2.04281E+00-3.09573E-02 2.69502E+00 4.28487E-13 2.22253E-14
 -1      3558 2.00006E+01-1.24601E-03 2.01556E-06-8.45183E-05-1.56130E-14-4.01348E-14
 -1      3559 2.00006E+01-1.23022E-03 1.11526E-06-2.29330E-04 8.81327E-14 1.58161E-13
 -1      3560 2.00007E+01-1.33423E-03-3.39501E-06-1.03002E-06 5.99147E-14-2.56466E-14
 -1      3561 2.00003E+01-1.07437E-03-4.04454E-06 7.98645E-04-3.10279E-13-6.54049E-14
 -1      3562 2.00003E+01-1.02469E-03 7.46352E-07 7.04822E-04-4.77057E-13-1.93036E-13
 -1      3563 2.00004E+01-1.09486E-03 3.26118E-06 6.08508E-04-3.84241E-13-2.90838E-13
 -1      3564 2.13486E+01-1.14936E+00-1.41269E-02 8.45861E-01-9.63851E-14-1.37283E-13
 -1      3565 2.16229E+01-1.11204E+00 1.38287E-02 5.47785E-01-7.44368E-14-1.24100E-13
 -1      3566 2.18623E+01-1.27732E+00-6.90079E-03 3.85040E-01-1.46523E-14-2.05373E-13
 -1      3567 2.35122E+01 7.07143E-01 9.43986E-03-1.39380E+00 2.43278E-13-7.30078E-13
 -1      3568 2.48092E+01 5.02764E-01-3.98877E-02-1.42267E+00 2.53599E-13-7.82966E-13
 -1      3569 2.50329E+01-1.55027E+00-1.34138E-02-3.43281E-01-1.27884E-13-7.10487E-13
 -1      3570 2.00001E+01-8.74797E-04-2.97342E-07-8.16808E-04-1.81581E-13-1.45739E-13
 -1      3571 2.00001E+01-9.06254E-04-2.99264E-06-9.11288E-04-3.07908E-13-1.34189E-13
 -1      3572 2.00002E+01-9.47174E-04 3.93912E-06-7.68118E-04-2.86414E-13-1.99139E-13
 -1      3573 2.41520E+01-2.79920E+00-1.16132E-02 1.28180E+00-3.29774E-13-7.65486E-13
 -1      3574 2.38511E+01-3.28686E+00 1.99004E-02 2.33076E+00-4.18606E-13-6.36053E-13
 -1      3575 2.25661E+01-3.09997E+00-1.35604E-02 2.81906E+00-4.27637E-13-4.92273E-13
 -1      3576 2.00004E+01-1.08896E-03 3.41769E-06-6.06452E-04-4.58550E-16-1.51207E-14
 -1      3577 2.00003E+01-1.02951E-03 1.49288E-07-6.86041E-04-8.53585E-14-2.67403E-13
 -1      3578 2.00003E+01-1.07604E-03-4.27679E-06-7.74331E-04-1.74075E-13-6.97493E-14
 -1      3579 2.25160E+01-1.44375E+00-8.84720E-03-6.82064E-02-2.58478E-14-3.61011E-13
 -1      3580 2.29029E+01-1.65202E+00-2.35051E-03 5.31446E-02-8.45795E-14-4.10315E-13
 -1      3581 2.22781E+01-1.39010E+00 1.39722E-02 1.72040E-01-1.47409E-14-3.23699E-13
 -1      3582 1.92877E+01-2.20647E+00 6.83157E-02 4.29465E+00-6.03052E-13 8.80095E-14
 -1      3583 1.84279E+01-1.48907E+00 1.29044E-02 3.88220E+00-5.03967E-13 1.07033E-13
 -1      3584 2.05516E+01-2.57027E+00-7.78718E-03 3.68942E+00-5.31269E-13-1.03067E-13
 -1      3585 2.45107E+01 2.05768E+00-4.69952E-02 2.67990E+00 4.55435E-13-8.44609E-14
 -1      3586 2.35647E+01 3.17567E+00-8.44532E-03 1.64065E+00 5.96249E-13-2.19460E-13
 -1      3587 2.42909E+01 2.68231E+00-5.07502E-03 2.45256E+00 5.30583E-13-7.20309E-14
 -1      3588 2.35385E+01 1.67932E-02-1.19859E-02-1.40436E+00 1.44195E-13-7.28658E-13
 -1      3589 1.37375E+01 1.41390E+00 5.43149E-02-7.30139E-01-9.11970E-14 1.81435E-13
 -1      3590 1.39259E+01 1.11725E+00 7.46794E-02 1.74664E+00-2.58399E-13 2.82618E-13
 -1      3591 2.00002E+01-1.01123E-03 2.71637E-06-1.02329E-03-1.30641E-13-1.97004E-13
 -1      3592 2.00005E+01-1.19492E-03 2.83910E-06-3.64657E-04 8.91254E-14 2.17572E-13
 -1      3593 2.00005E+01-1.15036E-03 7.20849E-07-4.93076E-04 9.18205E-14 2.14844E-14
 -1      3594 2.00005E+01-1.20954E-03-3.84598E-06-5.70236E-04 2.08839E-13 1.05942E-13
 -1      3595 2.00007E+01-1.29888E-03-3.53038E-06-3.14844E-04 1.42176E-13 9.75304E-14
 -1      3596 2.00005E+01-1.15335E-03 1.01203E-06 4.91966E-04-2.23512E-13-1.65802E-13
 -1      3597 2.00005E+01-1.19783E-03 2.76786E-06 3.63562E-04-1.50109E-14 2.68473E-14
 -1      3598 2.00007E+01-1.30192E-03-3.65923E-06 3.13228E-04-1.15614E-13-1.31901E-14
 -1      3599 2.00005E+01-1.21672E-03-3.49247E-06 5.70672E-04-3.70424E-13-3.86790E-13
 -1      3600 2.39951E+01-4.48298E-01 2.84915E-03-1.19376E+00 6.40910E-14-7.31621E-13
 -1      3601 1.57833E+01 1.40297E+00 1.38734E-02-1.21286E+00-8.85611E-14 1.72062E-13
 -1      3602 1.62750E+01 1.43671E+00-1.83141E-02-1.02971E+00-1.01343E-13 1.05257E-13
 -1      3603 1.77572E+01 1.32956E+00-6.16873E-03-8.01235E-01-9.78411E-14-4.63496E-14
 -1      3604 1.80619E+01 1.26009E+00-1.04632E-02-7.25381E-01-9.79245E-14-1.08904E-13
 -1      3605 1.83815E+01 1.18563E+00-4.98274E-03-6.97409E-01-1.56767E-13-1.09403E-13
 -1      3606 1.86066E+01 1.10420E+00-7.01647E-03-6.35844E-01-1.82684E-13-1.90437E-13
 -1      3607 1.80593E+01 1.28693E+00 1.44013E-02-4.58107E-01-1.69623E-13-7.22209E-15
 -1      3608 1.88399E+01 1.02233E+00-3.58867E-03-6.07562E-01-1.42747E-13-1.80466E-13
 -1      3609 1.90038E+01 9.39329E-01-5.10584E-03-5.52665E-01-1.28976E-13-1.26132E-13
 -1      3610 1.85906E+01 1.11724E+00 1.01475E-02-4.37133E-01-1.71753E-13-7.54052E-14
 -1      3611 1.91757E+01 8.59434E-01-2.43207E-03-5.22319E-01-1.33335E-13-1.32634E-13
 -1      3612 1.92937E+01 7.81285E-01-3.84705E-03-4.71777E-01-1.12397E-13-1.09691E-13
 -1      3613 1.89809E+01 9.48145E-01 7.32057E-03-4.02368E-01-9.89079E-14-1.80004E-13
 -1      3614 1.94205E+01 7.08064E-01-1.56742E-03-4.40557E-01-9.87074E-14-1.32652E-13
 -1      3615 1.95044E+01 6.38082E-01-2.98359E-03-3.94392E-01 1.45585E-15-1.45542E-13
 -1      3616 1.92688E+01 7.88897E-01 5.30984E-03-3.57875E-01-1.12435E-13-1.19819E-13
 -1      3617 1.95976E+01 5.73763E-01-9.07001E-04-3.63861E-01 1.45827E-14-1.78055E-13
 -1      3618 1.96565E+01 5.13185E-01-2.32939E-03-3.22677E-01-3.41308E-14-1.63641E-13
 -1      3619 1.94805E+01 6.45581E-01 3.89695E-03-3.08075E-01-2.02745E-14-1.84742E-13
 -1      3620 1.97248E+01 4.58379E-01-4.51970E-04-2.94261E-01-1.40000E-13-2.37512E-13
 -1      3621 1.97656E+01 4.07265E-01-1.83386E-03-2.58458E-01-1.67147E-13-2.51585E-13
 -1      3622 1.96353E+01 5.20501E-01 2.84275E-03-2.57534E-01-1.64788E-13-3.98984E-13
 -1      3623 1.98154E+01 3.61571E-01-1.55973E-04-2.33049E-01-1.35884E-13-1.70484E-13
 -1      3624 1.98432E+01 3.19223E-01-1.44833E-03-2.02702E-01-1.17531E-13-1.34628E-13
 -1      3625 1.97478E+01 4.14084E-01 2.04603E-03-2.09543E-01-1.33561E-13-3.85732E-13
 -1      3626 1.98792E+01 2.81730E-01 2.41902E-05-1.80784E-01-6.19748E-14-3.83484E-14
 -1      3627 1.98979E+01 2.47159E-01-1.13576E-03-1.55679E-01 7.94990E-14 6.05390E-14
 -1      3628 1.98291E+01 3.25266E-01 1.47187E-03-1.66226E-01-2.60866E-14-2.17761E-13
 -1      3629 1.99237E+01 2.16824E-01 1.21165E-04-1.37364E-01 6.95291E-14 4.84101E-14
 -1      3630 1.99360E+01 1.88983E-01-8.81198E-04-1.17049E-01 1.32891E-13 1.17012E-13
 -1      3631 1.98872E+01 2.52235E-01 1.04949E-03-1.28751E-01 5.67864E-14-7.87878E-14
 -1      3632 1.99542E+01 1.64745E-01 1.64970E-04-1.02150E-01 8.98591E-14 7.93302E-14
 -1      3633 1.99622E+01 1.42598E-01-6.75714E-04-8.60453E-02 7.34817E-16 3.16129E-14
 -1      3634 1.99282E+01 1.93054E-01 7.41522E-04-9.74040E-02 6.59068E-14 1.27059E-14
 -1      3635 1.99749E+01 1.23458E-01 1.75482E-04-7.42154E-02-3.64373E-14-6.03071E-14
 -1      3636 1.99798E+01 1.06050E-01-5.11521E-04-6.16965E-02 1.06789E-14-1.21047E-13
 -1      3637 1.99568E+01 1.45726E-01 5.18254E-04-7.19162E-02-1.43112E-13-1.14776E-14
 -1      3638 1.99885E+01 9.11120E-02 1.66619E-04-5.25158E-02-1.20386E-14-2.36953E-13
 -1      3639 1.99913E+01 7.75935E-02-3.81694E-04-4.29721E-02-8.52318E-14-2.64513E-13
 -1      3640 1.99762E+01 1.08350E-01 3.57130E-04-5.17122E-02-1.24358E-13-2.18842E-13
 -1      3641 1.99971E+01 6.60742E-02 1.47847E-04-3.60054E-02 2.13483E-14-2.45687E-13
 -1      3642 1.99987E+01 5.57083E-02-2.80198E-04-2.88737E-02-2.81541E-14-1.95365E-13
 -1      3643 1.99892E+01 7.92042E-02 2.41511E-04-3.60722E-02-2.26257E-15-2.55311E-13
 -1      3644 2.00023E+01 4.69394E-02 1.25233E-04-2.37071E-02-9.23733E-14-6.25235E-14
 -1      3645 2.00030E+01 3.90985E-02-2.01823E-04-1.84907E-02-2.61670E-14-7.14417E-14
 -1      3646 1.99975E+01 5.67719E-02 1.59173E-04-2.42423E-02 6.34441E-15-4.64895E-14
 -1      3647 2.00053E+01 3.25168E-02 1.02412E-04-1.47523E-02-7.04113E-14-5.79993E-14
 -1      3648 2.00054E+01 2.66745E-02-1.42111E-04-1.10271E-02 3.94655E-14-1.62833E-13
 -1      3649 2.00026E+01 3.97454E-02 1.01125E-04-1.55038E-02-8.84544E-14 1.67971E-13
 -1      3650 2.00066E+01 2.18118E-02 8.13751E-05-8.39670E-03 1.29816E-13-2.03194E-13
 -1      3651 2.00064E+01 1.75322E-02-9.72874E-05-5.81011E-03 1.63826E-13-1.00649E-13
 -1      3652 2.00054E+01 2.70170E-02 6.07503E-05-9.21165E-03 8.10056E-14-1.69665E-14
 -1      3653 2.00070E+01 1.40041E-02 6.30499E-05-4.02058E-03 1.26453E-13-3.05791E-13
 -1      3654 2.00066E+01 1.09304E-02-6.41941E-05-2.28659E-03 4.26386E-14-2.82822E-13
 -1      3655 2.00067E+01 1.76620E-02 3.31746E-05-4.81097E-03 4.74721E-14-9.59451E-14
 -1      3656 2.00067E+01 8.42490E-03 4.77142E-05-1.12105E-03-5.48949E-14-2.56010E-13
 -1      3657 2.00063E+01 6.26902E-03-4.02208E-05-1.21921E-05-8.53087E-14-2.13457E-13
 -1      3658 2.00071E+01 1.09196E-02 1.48056E-05-1.84034E-03-4.90295E-14-1.89006E-13
 -1      3659 2.00061E+01 4.53580E-03 3.52725E-05 7.01245E-04-4.96480E-14-1.63614E-13
 -1      3660 2.00057E+01 3.06788E-03-2.32393E-05 1.36234E-03 2.58358E-14-5.29409E-14
 -1      3661 2.00068E+01 6.17181E-03 2.99651E-06 7.36361E-05-2.68917E-14-2.36983E-13
 -1      3662 2.00054E+01 1.90865E-03 2.54361E-05 1.75695E-03-1.14348E-14-9.54202E-14
 -1      3663 2.00049E+01 9.47641E-04-1.15371E-05 2.10599E-03 1.59674E-13-1.17003E-13
 -1      3664 2.00062E+01 2.92371E-03-4.19935E-06 1.22590E-03 1.63493E-14 4.52412E-14
 -1      3665 2.00045E+01 2.07320E-04 1.78359E-05 2.28296E-03 1.99938E-13-2.65090E-13
 -1      3666 2.00041E+01-3.87509E-04-3.75532E-06 2.42178E-03 2.43407E-13-2.87253E-13
 -1      3667 2.00054E+01 7.83927E-04-8.20823E-06 1.84431E-03 4.32401E-14 7.51873E-15
 -1      3668 2.00037E+01-8.28569E-04 1.20892E-05 2.45627E-03 2.16540E-13-4.29553E-13
 -1      3669 2.00034E+01-1.16505E-03 1.16877E-06 2.45974E-03 1.03125E-13-3.51347E-13
 -1      3670 2.00046E+01-5.52633E-04-1.00688E-05 2.10112E-03 1.42226E-13-2.07474E-13
 -1      3671 2.00030E+01-1.39785E-03 7.83638E-06 2.40627E-03 1.45113E-13-3.08204E-13
 -1      3672 2.00027E+01-1.55737E-03 4.05705E-06 2.32815E-03 1.57421E-13-1.96461E-13
 -1      3673 2.00038E+01-1.32043E-03-1.05301E-05 2.12368E-03 1.50819E-13-2.76175E-13
 -1      3674 2.00023E+01-1.65006E-03 4.76162E-06 2.22529E-03 1.01282E-13-7.77512E-14
 -1      3675 2.00021E+01-1.69310E-03 5.54290E-06 2.10317E-03 1.20116E-13-1.22978E-14
 -1      3676 2.00030E+01-1.69690E-03-1.01204E-05 2.00389E-03 1.96130E-13-3.55424E-14
 -1      3677 2.00018E+01-1.69593E-03 2.60874E-06 1.97736E-03 8.88192E-14-9.72856E-14
 -1      3678 2.00016E+01-1.66677E-03 6.08088E-06 1.83666E-03 2.11553E-13-3.11194E-14
 -1      3679 2.00024E+01-1.81423E-03-9.20126E-06 1.80635E-03 8.42514E-14 2.35697E-15
 -1      3680 2.00013E+01-1.61621E-03 1.15758E-06 1.70512E-03 1.11403E-13-1.83204E-13
 -1      3681 2.00012E+01-1.54639E-03 6.03151E-06 1.56211E-03 1.73734E-14-1.26826E-13
 -1      3682 2.00018E+01-1.76959E-03-8.07084E-06 1.57496E-03 9.70927E-15-2.41267E-13
 -1      3683 2.00009E+01-1.46805E-03 1.92099E-07 1.43561E-03-1.60293E-14-2.81162E-13
 -1      3684 2.00008E+01-1.37990E-03 5.51071E-06 1.30037E-03-1.92160E-13-2.68866E-13
 -1      3685 2.00013E+01-1.63223E-03-6.87967E-06 1.33790E-03-1.88956E-13-2.61736E-13
 -1      3686 2.00006E+01-1.29212E-03-5.92060E-07 1.18434E-03-1.03787E-13-1.28844E-13
 -1      3687 2.00005E+01-1.20245E-03 4.01130E-06 1.06412E-03 6.09388E-14 4.23478E-15
 -1      3688 2.00009E+01-1.45102E-03-5.41865E-06 1.11289E-03 1.96313E-14-3.13978E-13
 -1      3689 2.00004E+01-1.16435E-03-2.91576E-06 9.77513E-04-4.47634E-14 1.25858E-15
 -1      3690 2.00004E+01-1.11156E-03 1.72647E-06 8.72171E-04-1.45413E-13-1.66442E-14
 -1      3691 2.00005E+01-1.19844E-03 2.61537E-06 7.62310E-04-2.64719E-13-3.32619E-13
 -1      3692 2.00007E+01-1.30404E-03-2.46579E-06 9.19583E-04 3.84289E-14-3.53753E-13
 -1      3693 2.05063E+01-5.70316E-01 8.88003E-03 1.14178E+00-1.05170E-13-7.45436E-14
 -1      3694 2.07342E+01-7.91823E-01 3.31759E-03 1.14764E+00-1.07047E-13-1.13050E-13
 -1      3695 1.98467E+01 2.59953E-01-4.32245E-04 6.09599E-01-9.74998E-14 2.14705E-13
 -1      3696 1.98747E+01 2.28125E-01 2.61425E-03 6.67294E-01-9.87107E-14 1.32365E-13
 -1      3697 1.98829E+01 1.79704E-01 4.23662E-04 7.43098E-01-4.98649E-14 1.08866E-13
 -1      3698 1.99376E+01 1.14759E-01 3.30830E-03 8.02837E-01 1.33315E-14 1.20741E-13
 -1      3699 1.97377E+01 2.55148E-01-2.39838E-03 7.25931E-01-9.57738E-14 1.22294E-13
 -1      3700 1.98622E+01 2.86373E-01-1.03357E-03 3.89896E-01-8.98329E-14 1.82131E-13
 -1      3701 1.98644E+01 2.92017E-01 1.53834E-03 4.36188E-01-1.46653E-13 2.04887E-13
 -1      3702 1.98866E+01 2.63430E-01-1.05557E-03 3.04726E-01-7.51130E-14 1.39468E-13
 -1      3703 1.98841E+01 2.77369E-01 1.16710E-03 3.44322E-01-5.38047E-14 1.36542E-13
 -1      3704 1.98077E+01 3.19760E-01 1.47919E-04 3.57297E-01-6.83439E-14 3.49435E-13
 -1      3705 1.99122E+01 2.30540E-01-9.84658E-04 2.34525E-01-5.78609E-14 1.27084E-13
 -1      3706 1.99078E+01 2.48373E-01 8.91142E-04 2.67648E-01-4.32403E-14 1.61803E-13
 -1      3707 1.98480E+01 2.88017E-01 3.43883E-04 2.75315E-01-5.48776E-14 2.63474E-13
 -1      3708 1.99357E+01 1.94207E-01-8.66608E-04 1.77609E-01-2.77392E-13 1.41801E-13
 -1      3709 1.99311E+01 2.13021E-01 6.89199E-04 2.04770E-01-1.45299E-13 1.29720E-13
 -1      3710 1.98853E+01 2.48425E-01 4.15313E-04 2.09402E-01-1.46386E-13 1.14229E-13
 -1      3711 1.99556E+01 1.58565E-01-7.32016E-04 1.32189E-01-2.06491E-13 1.58145E-13
 -1      3712 1.99515E+01 1.76553E-01 5.37686E-04 1.54053E-01-2.66706E-13 6.71928E-14
 -1      3713 1.99172E+01 2.07051E-01 4.09430E-04 1.57030E-01-2.63618E-13 1.93307E-13
 -1      3714 1.99715E+01 1.25991E-01-5.98624E-04 9.65003E-02-1.39223E-14 1.60271E-13
 -1      3715 1.99682E+01 1.42157E-01 4.22154E-04 1.13790E-01-1.13801E-13 1.61150E-13
 -1      3716 1.99432E+01 1.67664E-01 3.63222E-04 1.15905E-01-1.43567E-13 1.64669E-13
 -1      3717 1.99835E+01 9.76388E-02-4.76201E-04 6.88934E-02 6.15491E-14 2.44675E-13
 -1      3718 1.99812E+01 1.11539E-01 3.32514E-04 8.23284E-02 4.98846E-14 2.71404E-13
 -1      3719 1.99634E+01 1.32338E-01 3.00873E-04 8.40057E-02-4.94447E-14 1.98929E-13
 -1      3720 1.99922E+01 7.38584E-02-3.69404E-04 4.78848E-02 1.62844E-13 2.09491E-13
 -1      3721 1.99907E+01 8.54056E-02 2.61803E-04 5.81386E-02 1.12012E-13 2.95458E-13
 -1      3722 1.99785E+01 1.01980E-01 2.36462E-04 5.95860E-02 9.76457E-14 2.76807E-13
 -1      3723 1.99981E+01 5.45066E-02-2.79688E-04 3.21755E-02 1.13989E-13 9.71098E-14
 -1      3724 1.99973E+01 6.38284E-02 2.05355E-04 3.98548E-02 2.07176E-13 1.80403E-13
 -1      3725 1.99893E+01 7.67538E-02 1.77489E-04 4.11606E-02 2.21446E-13 2.58309E-13
 -1      3726 2.00020E+01 3.91670E-02-2.06588E-04 2.06535E-02-1.03842E-13 1.94277E-13
 -1      3727 2.00016E+01 4.65039E-02 1.60007E-04 2.62877E-02-4.88065E-14 1.43445E-13
 -1      3728 1.99967E+01 5.63718E-02 1.27336E-04 2.74803E-02 3.19957E-14 2.80451E-13
 -1      3729 2.00042E+01 2.72975E-02-1.48580E-04 1.23869E-02-1.87481E-14 2.11369E-13
 -1      3730 2.00042E+01 3.29371E-02 1.23533E-04 1.64256E-02-5.52160E-14 1.42733E-13
 -1      3731 2.00014E+01 4.03090E-02 8.69034E-05 1.75072E-02-6.81579E-14 1.33970E-13
 -1      3732 2.00053E+01 1.83251E-02-1.03650E-04 6.60873E-03-1.05812E-13 3.28305E-13
 -1      3733 2.00055E+01 2.25603E-02 9.42875E-05 9.42553E-03 3.55407E-15 3.07130E-13
 -1      3734 2.00043E+01 2.79411E-02 5.57079E-05 1.03906E-02-8.57197E-14 2.23575E-13
 -1      3735 2.00056E+01 1.17026E-02-6.96540E-05 2.69930E-03-1.53078E-13 2.76804E-13
 -1      3736 2.00060E+01 1.48073E-02 7.09882E-05 4.59782E-03-7.92378E-14 3.51290E-13
 -1      3737 2.00057E+01 1.86337E-02 3.25859E-05 5.44204E-03-1.34558E-13 3.98196E-13
 -1      3738 2.00055E+01 6.93882E-03-4.45369E-05 1.66219E-04-7.11238E-14 1.29601E-13
 -1      3739 2.00058E+01 9.15521E-03 5.25944E-05 1.38869E-03-1.68254E-13 1.75565E-13
 -1      3740 2.00062E+01 1.17935E-02 1.61301E-05 2.11207E-03-8.05652E-14 2.57535E-13
 -1      3741 2.00050E+01 3.61151E-03-2.64501E-05-1.37507E-03 8.13989E-14 2.50216E-13
 -1      3742 2.00054E+01 5.14569E-03 3.82350E-05-6.39037E-04 3.71167E-14 1.28270E-13
 -1      3743 2.00061E+01 6.89504E-03 4.94188E-06-3.16646E-05-6.34387E-14 1.16153E-13
 -1      3744 2.00044E+01 1.36976E-03-1.38018E-05-2.21982E-03-1.06837E-13 3.05110E-13
 -1      3745 2.00048E+01 2.39160E-03 2.71702E-05-1.82450E-03 3.08291E-14 3.05750E-13
 -1      3746 2.00057E+01 3.49075E-03-2.23828E-06-1.32440E-03 1.43675E-14 3.27608E-13
 -1      3747 2.00037E+01-7.02998E-05-5.26778E-06-2.59063E-03-2.87131E-14 2.36835E-13
 -1      3748 2.00041E+01 5.75658E-04 1.87696E-05-2.42618E-03 1.93434E-15 2.80924E-13
 -1      3749 2.00050E+01 1.21116E-03-6.47555E-06-2.02202E-03-6.31372E-14 1.26357E-13
 -1      3750 2.00031E+01-9.32890E-04 2.22950E-07-2.65211E-03 2.31186E-14 1.84748E-13
 -1      3751 2.00034E+01-5.55709E-04 1.24978E-05-2.63740E-03-3.51542E-14 1.83975E-13
 -1      3752 2.00043E+01-2.41056E-04-8.63058E-06-2.31659E-03 1.82014E-14 1.53132E-13
 -1      3753 2.00024E+01-1.39131E-03 3.51656E-06-2.52332E-03-1.60505E-14 6.68154E-14
 -1      3754 2.00027E+01-1.20060E-03 7.90387E-06-2.59979E-03 3.21224E-14 2.00263E-13
 -1      3755 2.00035E+01-1.09977E-03-9.37328E-06-2.34953E-03 4.53096E-14 1.83010E-13
 -1      3756 2.00019E+01-1.57672E-03 5.28175E-06-2.28824E-03-4.32024E-14 1.12875E-13
 -1      3757 2.00021E+01-1.51056E-03 4.60963E-06-2.41471E-03-5.28152E-15 1.16321E-13
 -1      3758 2.00028E+01-1.54508E-03-9.20464E-06-2.22278E-03 2.43713E-14 2.00888E-13
 -1      3759 2.00014E+01-1.58654E-03 6.00847E-06-2.00438E-03-1.67050E-13 2.02175E-14
 -1      3760 2.00016E+01-1.59913E-03 2.30725E-06-2.15282E-03-1.08835E-13-3.75698E-14
 -1      3761 2.00022E+01-1.71274E-03-8.47906E-06-2.00800E-03-7.03472E-14 9.69142E-14
 -1      3762 2.00010E+01-1.49228E-03 5.89277E-06-1.70955E-03 6.65752E-14-7.50480E-14
 -1      3763 2.00012E+01-1.55002E-03 7.73941E-07-1.86172E-03-2.87132E-14-8.22332E-14
 -1      3764 2.00017E+01-1.70361E-03-7.56075E-06-1.75434E-03-1.13979E-13-3.65925E-14
 -1      3765 2.00007E+01-1.34277E-03 5.81012E-06-1.42695E-03 2.55145E-13-5.74040E-14
 -1      3766 2.00008E+01-1.42249E-03 2.21915E-07-1.57057E-03 1.84435E-13-6.85790E-14
 -1      3767 2.00012E+01-1.59221E-03-6.87707E-06-1.49288E-03 3.95926E-14-1.03276E-13
 -1      3768 2.00005E+01-1.17847E-03 3.15631E-06-1.16750E-03 6.87626E-14 6.11640E-14
 -1      3769 2.00005E+01-1.26341E-03-1.44034E-06-1.29784E-03 2.71938E-13-1.00664E-14
 -1      3770 2.00009E+01-1.42583E-03-4.82620E-06-1.24072E-03 2.04608E-13-1.03611E-14
 -1      3771 1.48638E+01 8.46157E-01-8.45215E-03 2.19559E+00-2.77106E-13 2.18093E-13
 -1      3772 1.42168E+01 1.35914E+00-5.24416E-03 9.09959E-01-1.83033E-13 2.49209E-13
 -1      3773 1.48191E+01 1.44587E+00-2.24096E-03-1.12768E+00-1.02847E-13 1.30619E-13
 -1      3774 2.00004E+01-1.11617E-03-6.83409E-07-8.72555E-04-8.46674E-14-9.91841E-14
 -1      3775 2.00004E+01-1.14370E-03-1.88940E-06-1.05102E-03 3.99956E-14-2.39609E-14
 -1      3776 2.00007E+01-1.28045E-03 2.50354E-06-1.00663E-03 9.85594E-14 2.05062E-13
 -1      3777 2.00005E+01-1.18697E-03 4.10952E-06-7.84235E-04 1.22762E-13 1.86309E-13
 -1      3778 1.70457E+01-5.36320E-01-1.70962E-02 3.42417E+00-4.08623E-13 8.19709E-14
 -1      3779 1.59056E+01 2.40797E-01 2.44537E-02 2.93720E+00-3.49132E-13 9.61236E-14
 -1      3780 1.69066E+01 1.41995E+00-5.30028E-03-9.47192E-01-8.99589E-14 2.32475E-14
 -1      3781 1.73116E+01 1.38048E+00-1.61129E-02-8.38298E-01-1.22334E-13-6.85491E-14
 -1      3782 1.73292E+01 1.44298E+00 2.15179E-02-4.69107E-01-1.09354E-13-4.82826E-14
 -1      3783 1.98454E+01 2.89703E-01-8.58865E-04 4.91381E-01-1.62096E-13 2.03251E-13
 -1      3784 1.98569E+01 2.80772E-01 2.01856E-03 5.44032E-01-1.01984E-13 2.25955E-13
 -1      3785 1.97692E+01 3.34431E-01-2.70017E-04 4.58112E-01-1.02153E-13 3.69064E-13
 -1      3786 2.06079E+01-9.41043E-01-1.82575E-02 1.41033E+00-1.65817E-13-2.19094E-13
 -1      3787 2.10366E+01-1.02812E+00 1.41863E-02 1.17846E+00-1.38143E-13-1.79339E-13
 -1      3788 2.13477E+01-1.28812E+00-3.98881E-04 1.12049E+00-1.62999E-13-2.22625E-13
 -1      3789 2.03240E+01-3.80853E-01 4.06821E-03 1.06916E+00-9.46172E-14 6.49085E-15
 -1      3790 2.01633E+01-4.60015E-01-1.18997E-02 1.26671E+00-1.37788E-13 4.04191E-15
 -1      3791 2.01712E+01-2.16554E-01 4.65071E-03 1.02855E+00-1.05536E-13 4.73397E-14
 -1      3792 1.97410E+01 3.18809E-01-1.05851E-03 5.80388E-01-1.01643E-13 3.43704E-13
 -1      3793 1.45021E+01 1.58242E+00 2.46396E-02-8.74396E-02-1.41875E-13 1.44185E-13
 -1      3794 1.53823E+01 1.44908E+00 2.08007E-02 3.92687E-01-1.87400E-13 1.79069E-13
 -1      3795 1.80144E+01-8.47263E-01 3.76800E-02 3.41808E+00-3.99346E-13 7.96342E-14
 -1      3796 1.78331E+01-4.15978E-01 4.23821E-04 2.91533E+00-2.88417E-13 9.20926E-14
 -1      3797 1.90073E+01-1.34948E+00-2.17166E-02 3.27500E+00-3.97552E-13 4.72487E-14
 -1      3798 1.60944E+01 6.65572E-01 2.85924E-02 2.18124E+00-3.10293E-13 1.23969E-13
 -1      3799 2.44215E+01-1.13710E+00-2.41610E-02-7.72440E-01-7.39383E-14-6.16537E-13
 -1      3800 2.45685E+01-2.10769E+00 2.02126E-02 1.06868E-01-2.20020E-13-6.88428E-13
 -1      3801 2.28021E+01-1.92581E+00 2.22724E-02 6.44747E-01-1.18116E-13-4.12537E-13
 -1      3802 2.31957E+01-1.96626E+00-8.86402E-03 3.47770E-01-1.29477E-13-4.36324E-13
 -1      3803 2.38425E+01-2.37592E+00-1.12383E-02 7.09125E-01-2.74296E-13-6.12866E-13
 -1      3804 2.00009E+01-1.42013E-03 1.34676E-06 8.80988E-05 7.58107E-14 3.01382E-14
 -1      3805 2.00009E+01-1.41990E-03 1.33707E-06-9.08161E-05 1.09232E-13-1.13887E-13
 -1      3806 2.20703E+01-1.52685E+00-1.25646E-02 5.67950E-01-8.41876E-14-2.57332E-13
 -1      3807 1.99790E+01 2.81970E-02 1.98954E-03 8.86875E-01-2.94307E-14 1.23521E-13
 -1      3808 2.00745E+01-8.13841E-02 3.92237E-03 9.42694E-01-7.74616E-14 1.00018E-13
 -1      3809 1.99073E+01-1.09022E-01-7.67841E-03 1.08066E+00-1.24344E-13 4.23554E-14
 -1      3810 2.16759E+01-2.69522E+00 3.71624E-02 3.10304E+00-4.64299E-13-3.09031E-13
 -1      3811 2.05389E+01-2.12511E+00-7.70129E-03 3.12614E+00-4.37502E-13-1.79064E-13
 -1      3812 2.23702E+01-2.62956E+00-1.18835E-02 2.23004E+00-3.34141E-13-5.36405E-13
 -1      3813 2.44074E+01-6.79397E-01-5.31027E-03-1.09241E+00-1.93005E-14-6.89578E-13
 -1      3814 2.43773E+01-1.89265E-01 4.18271E-03-1.25208E+00 1.19949E-13-7.48228E-13
 -1      3815 2.36865E+01-1.67279E+00 3.26005E-03-2.91842E-01-1.46162E-13-4.68706E-13
 -1      3816 2.39601E+01-1.29630E+00-1.03060E-02-6.55793E-01-1.34185E-13-6.02303E-13
 -1      3817 2.38589E+01 2.97756E+00-6.72008E-02 2.12508E+00 5.63057E-13-1.63468E-13
 -1      3818 2.00008E+01-1.37342E-03 5.27064E-07 3.97477E-04-3.22419E-13-2.78183E-13
 -1      3819 2.00009E+01-1.40073E-03 2.23394E-06 2.56876E-04-7.48198E-14-6.45557E-14
 -1      3820 2.00011E+01-1.50649E-03-3.71274E-06 1.71697E-04-9.58821E-14-1.59709E-13
 -1      3821 2.00006E+01-1.26196E-03 3.97425E-07-6.57521E-04 2.24259E-13 7.85520E-14
 -1      3822 2.00007E+01-1.31753E-03-3.40372E-06-7.60509E-04 1.73651E-13 2.57528E-13
 -1      3823 2.00007E+01-1.31570E-03 2.86258E-06-5.38266E-04 1.96925E-13-3.14805E-14
 -1      3824 1.63083E+01 1.55918E+00 3.31134E-02-4.98812E-01-1.68012E-13 1.25276E-14
 -1      3825 2.35707E+01-2.03824E+00-4.27470E-03 3.18353E-01-1.77064E-13-5.11998E-13
 -1      3826 1.97817E+01 1.21248E-01-4.49416E-03 8.94491E-01-1.89943E-14 9.80537E-14
 -1      3827 2.00008E+01-1.37172E-03-1.15686E-06-8.63235E-04 2.24068E-14 3.11160E-13
 -1      3828 2.00009E+01-1.41499E-03 9.68445E-07-9.85637E-04-1.20866E-14 2.52277E-13
 -1      3829 2.00010E+01-1.43873E-03 1.60628E-06-7.35220E-04 4.88476E-15 1.48832E-13
 -1      3830 1.83676E+01 1.12355E+00-8.25563E-03-2.34189E-01-1.99065E-13 4.06609E-14
 -1      3831 1.86067E+01 1.04960E+00-3.70301E-03-2.34228E-01-1.24071E-13 4.77345E-14
 -1      3832 1.88067E+01 9.71113E-01-5.29320E-03-2.56240E-01-9.93954E-14 2.38586E-14
 -1      3833 1.89803E+01 8.95817E-01-2.97062E-03-2.46738E-01-1.49258E-13-2.90280E-14
 -1      3834 1.86736E+01 1.01554E+00 8.08504E-03-7.04919E-02-1.57616E-13 1.44706E-13
 -1      3835 1.91315E+01 8.21154E-01-3.64358E-03-2.53613E-01-1.62690E-13 7.03096E-15
 -1      3836 1.92586E+01 7.50042E-01-2.42844E-03-2.37293E-01-8.74866E-14-4.32898E-15
 -1      3837 1.90186E+01 8.71173E-01 5.82771E-03-1.20212E-01-1.19489E-13 1.28809E-13
 -1      3838 1.93733E+01 6.81571E-01-2.40187E-03-2.34435E-01-1.24705E-13-8.44682E-14
 -1      3839 1.94661E+01 6.17090E-01-1.93783E-03-2.14570E-01-1.74116E-13-2.17656E-13
 -1      3840 1.92801E+01 7.33276E-01 4.56914E-03-1.38845E-01-1.72880E-13 3.22193E-14
 -1      3841 1.95527E+01 5.56440E-01-1.58481E-03-2.06131E-01-1.72549E-13-2.11348E-13
 -1      3842 1.96200E+01 4.99972E-01-1.59056E-03-1.85297E-01-1.84260E-13-2.25138E-13
 -1      3843 1.94770E+01 6.05892E-01 3.46449E-03-1.38371E-01-1.73625E-13-1.18668E-13
 -1      3844 1.96850E+01 4.47750E-01-1.03039E-03-1.74088E-01-1.23822E-13-2.51848E-13
 -1      3845 1.97336E+01 3.99428E-01-1.33141E-03-1.53993E-01-9.65442E-14-2.26424E-13
 -1      3846 1.96248E+01 4.92607E-01 2.47656E-03-1.26748E-01-1.42557E-13-6.47538E-14
 -1      3847 1.97822E+01 3.55265E-01-6.28701E-04-1.42099E-01-5.66156E-14-1.71605E-13
 -1      3848 1.98169E+01 3.14645E-01-1.09458E-03-1.23919E-01 2.21280E-14-1.21198E-13
 -1      3849 1.97354E+01 3.94774E-01 1.85849E-03-1.09150E-01-5.12989E-14-1.08206E-13
 -1      3850 1.98529E+01 2.78000E-01-3.68620E-04-1.12650E-01-8.08674E-15-4.90248E-14
 -1      3851 1.98773E+01 2.44479E-01-8.83121E-04-9.69217E-02 7.87533E-14 8.83229E-15
 -1      3852 1.98173E+01 3.11648E-01 1.37390E-03-9.00587E-02 4.85596E-14-1.25444E-15
 -1      3853 1.99036E+01 2.14554E-01-1.96565E-04-8.69075E-02 9.64364E-14 2.10144E-14
 -1      3854 1.99206E+01 1.87317E-01-7.00386E-04-7.37712E-02 1.59310E-14 2.91075E-14
 -1      3855 1.98771E+01 2.42497E-01 1.00704E-03-7.16779E-02 3.75114E-14 9.11603E-14
 -1      3856 1.99396E+01 1.63227E-01-8.84739E-05-6.52865E-02-8.35032E-14-1.78403E-15
 -1      3857 1.99512E+01 1.41412E-01-5.46012E-04-5.46358E-02-1.98809E-13-1.91073E-14
 -1      3858 1.99203E+01 1.85927E-01 7.31175E-04-5.52296E-02-4.79993E-14 7.46174E-14
 -1      3859 1.99646E+01 1.22285E-01-2.41063E-05-4.77156E-02-2.50173E-13 2.35763E-14
 -1      3860 1.99723E+01 1.05055E-01-4.18134E-04-3.93040E-02-2.09635E-13-1.12805E-13
 -1      3861 1.99510E+01 1.40358E-01 5.24234E-04-4.12561E-02-2.00985E-13 2.03451E-14
 -1      3862 1.99816E+01 9.00730E-02 1.16283E-05-3.38393E-02-5.39462E-14-2.01289E-14
 -1      3863 1.99866E+01 7.66546E-02-3.14207E-04-2.73561E-02 1.34305E-14 1.63425E-14
 -1      3864 1.99723E+01 1.04193E-01 3.69864E-04-2.98529E-02-9.04233E-14 1.46980E-13
 -1      3865 1.99928E+01 6.50813E-02 2.92886E-05-2.31655E-02 2.61491E-14-9.81799E-15
 -1      3866 1.99959E+01 5.47811E-02-2.31314E-04-1.82860E-02 9.86440E-14 1.53850E-13
 -1      3867 1.99867E+01 7.59089E-02 2.55653E-04-2.08548E-02 4.01001E-14 1.80006E-13
 -1      3868 2.00000E+01 4.59706E-02 3.59960E-05-1.51621E-02 3.67115E-14 2.11980E-13
 -1      3869 2.00017E+01 3.81843E-02-1.66414E-04-1.15784E-02 2.16852E-14 3.18546E-13
 -1      3870 1.99962E+01 5.41183E-02 1.72040E-04-1.39656E-02 1.36319E-13 1.61971E-13
 -1      3871 2.00042E+01 3.15817E-02 3.64160E-05-9.31672E-03 8.70417E-15 1.85036E-13
 -1      3872 2.00051E+01 2.57929E-02-1.16540E-04-6.75367E-03 3.45892E-14 1.12847E-13
 -1      3873 2.00020E+01 3.75913E-02 1.11620E-04-8.84151E-03-1.94515E-14 2.45679E-13
 -1      3874 2.00064E+01 2.09304E-02 3.35176E-05-5.16824E-03 4.76828E-14 8.23744E-14
 -1      3875 2.00067E+01 1.67062E-02-7.89425E-05-3.39052E-03-2.30438E-15 3.23556E-14
 -1      3876 2.00054E+01 2.52662E-02 6.86577E-05-5.14252E-03-1.24535E-14 2.11604E-13
 -1      3877 2.00073E+01 1.31955E-02 2.91282E-05-2.32118E-03-8.32744E-14 3.22673E-15
 -1      3878 2.00072E+01 1.01789E-02-5.11756E-05-1.13401E-03-1.46214E-13 4.16081E-15
 -1      3879 2.00071E+01 1.62448E-02 3.87235E-05-2.55914E-03-3.44430E-14 1.34752E-13
 -1      3880 2.00074E+01 7.70287E-03 2.43250E-05-4.48165E-04-1.41572E-13 2.12676E-14
 -1      3881 2.00071E+01 5.60382E-03-3.11293E-05 3.05250E-04 2.10862E-14 4.65333E-16
 -1      3882 2.00076E+01 9.78170E-03 1.84076E-05-8.25127E-04-9.76535E-14 2.40825E-13
 -1      3883 2.00069E+01 3.90733E-03 1.97046E-05 7.13922E-04 5.38790E-14-4.40238E-14
 -1      3884 2.00065E+01 2.49390E-03-1.70328E-05 1.15681E-03 3.85210E-14 9.10454E-14
 -1      3885 2.00074E+01 5.26829E-03 5.10001E-06 2.79552E-04 3.35229E-14 1.72654E-13
 -1      3886 2.00062E+01 1.37445E-03 1.55641E-05 1.37122E-03-2.35576E-14 1.70493E-13
 -1      3887 2.00058E+01 4.63840E-04-7.43492E-06 1.59827E-03 3.46253E-14 1.22760E-13
 -1      3888 2.00068E+01 2.21578E-03-3.18276E-06 9.30882E-04 6.20801E-14 1.11103E-13
 -1      3889 2.00053E+01-2.36823E-04 1.20198E-05 1.68146E-03 3.38171E-14 1.35789E-13
 -1      3890 2.00049E+01-7.86518E-04-1.17113E-06 1.76385E-03 7.10224E-14-1.30065E-14
 -1      3891 2.00060E+01 2.37640E-04-7.93514E-06 1.26575E-03 1.06822E-14 2.29614E-13
 -1      3892 2.00045E+01-1.19027E-03 9.08379E-06 1.76255E-03 7.57999E-14-8.26002E-14
 -1      3893 2.00041E+01-1.48752E-03 2.67243E-06 1.75257E-03 1.21653E-13-1.40090E-13
 -1      3894 2.00051E+01-9.67092E-04-1.02716E-05 1.38792E-03 4.55447E-14 1.62072E-13
 -1      3895 2.00036E+01-1.68675E-03 6.71111E-06 1.70048E-03 2.79851E-13-1.67586E-13
 -1      3896 2.00033E+01-1.81311E-03 4.80250E-06 1.63561E-03 1.59412E-13-6.83820E-14
 -1      3897 2.00042E+01-1.62907E-03-1.10110E-05 1.37403E-03 2.00960E-13-5.88878E-14
 -1      3898 2.00029E+01-1.87670E-03 4.83098E-06 1.55633E-03 2.43252E-14-4.50827E-14
 -1      3899 2.00026E+01-1.89238E-03 5.81278E-06 1.46266E-03 1.18700E-13-8.32810E-14
 -1      3900 2.00034E+01-1.92212E-03-1.07213E-05 1.27911E-03 1.43669E-13-3.02276E-13
 -1      3901 2.00022E+01-1.87092E-03 3.36160E-06 1.37248E-03 4.74525E-14-3.48201E-14
 -1      3902 2.00020E+01-1.82035E-03 5.96760E-06 1.26761E-03-1.15599E-13-1.66570E-13
 -1      3903 2.00027E+01-1.97466E-03-9.70436E-06 1.14162E-03 4.10393E-14-5.75022E-14
 -1      3904 2.00017E+01-1.74990E-03 2.24195E-06 1.17616E-03-2.74888E-13-1.53977E-13
 -1      3905 2.00014E+01-1.66318E-03 5.63856E-06 1.07146E-03-2.42828E-13-2.94727E-13
 -1      3906 2.00020E+01-1.88141E-03-8.49579E-06 9.88255E-04-1.25366E-13-1.90984E-13
 -1      3907 2.00012E+01-1.56983E-03 1.29055E-06 9.86112E-04-1.01091E-13-2.95798E-13
 -1      3908 2.00010E+01-1.47101E-03 4.28864E-06 8.88470E-04 2.06267E-14-3.61518E-13
 -1      3909 2.00015E+01-1.70729E-03-6.70786E-06 8.34918E-04-2.15139E-13-2.89243E-13
 -1      3910 1.98098E+01 3.06766E-01-1.38962E-03 2.34266E-01-4.21222E-14 2.51853E-13
 -1      3911 1.97921E+01 3.30061E-01 8.72102E-04 2.69973E-01-2.03802E-15 2.84494E-13
 -1      3912 1.97538E+01 3.49869E-01-1.58925E-03 3.09658E-01-8.54180E-14 3.17079E-13
 -1      3913 1.97362E+01 3.68571E-01 1.29875E-03 3.54128E-01-1.07201E-13 2.81807E-13
 -1      3914 1.97230E+01 3.75655E-01 7.94856E-04 2.65306E-01-3.86995E-14 2.76162E-13
 -1      3915 1.98986E+01 2.13111E-01-9.53553E-04 1.29632E-01-2.75270E-13 1.93523E-13
 -1      3916 1.98853E+01 2.36470E-01 4.10934E-04 1.51990E-01-2.48846E-13 1.87429E-13
 -1      3917 1.99305E+01 1.70566E-01-7.63245E-04 9.44620E-02-1.01935E-13 1.96122E-13
 -1      3918 1.99198E+01 1.91633E-01 2.90438E-04 1.11884E-01-1.60645E-13 1.89429E-13
 -1      3919 1.98910E+01 2.20096E-01 6.30033E-04 1.06315E-01-1.88259E-13 1.66306E-13
 -1      3920 1.99549E+01 1.33329E-01-5.99039E-04 6.76471E-02-1.28655E-13 2.36682E-13
 -1      3921 1.99468E+01 1.51543E-01 2.10785E-04 8.10683E-02-1.06693E-13 1.80315E-13
 -1      3922 1.99260E+01 1.74785E-01 5.14029E-04 7.66281E-02-1.16893E-13 1.52730E-13
 -1      3923 1.99729E+01 1.01883E-01-4.61227E-04 4.74219E-02 1.36190E-13 2.84600E-13
 -1      3924 1.99670E+01 1.17117E-01 1.57148E-04 5.76298E-02-4.53041E-14 2.10097E-13
 -1      3925 1.99524E+01 1.35730E-01 4.03835E-04 5.43434E-02-1.49180E-14 6.85522E-14
 -1      3926 1.99858E+01 7.60911E-02-3.48259E-04 3.23577E-02 1.97531E-13 2.58645E-13
 -1      3927 1.99817E+01 8.84862E-02 1.20031E-04 4.00114E-02 2.52139E-13 2.41799E-13
 -1      3928 1.99718E+01 1.03115E-01 3.06576E-04 3.77554E-02 1.59001E-13 1.48893E-13
 -1      3929 1.99947E+01 5.54677E-02-2.57599E-04 2.13015E-02-1.93475E-14 1.81057E-13
 -1      3930 1.99920E+01 6.53101E-02 9.34394E-05 2.69478E-02 1.41085E-13 2.35241E-13
 -1      3931 1.99855E+01 7.65950E-02 2.25013E-04 2.55373E-02 1.41267E-13 1.76369E-13
 -1      3932 2.00004E+01 3.93541E-02-1.86272E-04 1.33275E-02-6.26213E-14 6.47076E-14
 -1      3933 1.99988E+01 4.69948E-02 7.36552E-05 1.74154E-02-6.24584E-14 1.39837E-13
 -1      3934 1.99948E+01 5.55357E-02 1.59295E-04 1.66552E-02-7.32013E-15-5.39051E-15
 -1      3935 2.00039E+01 2.70401E-02-1.31225E-04 7.69666E-03-1.90651E-13 2.34643E-13
 -1      3936 2.00030E+01 3.28428E-02 5.84092E-05 1.05911E-02-1.23222E-13 7.07610E-14
 -1      3937 2.00008E+01 3.91777E-02 1.08126E-04 1.03022E-02-1.48842E-13-1.86465E-15
 -1      3938 2.00057E+01 1.78373E-02-8.95603E-05 3.82398E-03-1.09221E-13 2.05546E-13
 -1      3939 2.00054E+01 2.21464E-02 4.63299E-05 5.81793E-03-1.76123E-13 2.06945E-13
 -1      3940 2.00044E+01 2.67417E-02 6.95254E-05 5.84999E-03-1.06263E-13 5.31486E-14
 -1      3941 2.00065E+01 1.11199E-02-5.86597E-05 1.25063E-03-7.91092E-14 4.96206E-14
 -1      3942 2.00065E+01 1.42437E-02 3.65841E-05 2.57637E-03-8.85258E-14 1.29232E-13
 -1      3943 2.00063E+01 1.74931E-02 4.13107E-05 2.81040E-03-2.56074E-14-1.17650E-13
 -1      3944 2.00065E+01 6.34363E-03-3.62462E-05-3.79353E-04 5.16300E-14-4.86381E-14
 -1      3945 2.00068E+01 8.54744E-03 2.86509E-05 4.59850E-04 7.40043E-15-3.17298E-14
 -1      3946 2.00070E+01 1.07752E-02 2.13756E-05 8.06558E-04 5.12688E-14-2.65632E-13
 -1      3947 2.00061E+01 3.05130E-03-2.03970E-05-1.33877E-03-5.15025E-14 4.66235E-14
 -1      3948 2.00065E+01 4.55598E-03 2.21857E-05-8.46027E-04 2.25887E-14-3.01320E-14
 -1      3949 2.00070E+01 6.02370E-03 7.83864E-06-4.50391E-04 4.79715E-14-2.39224E-13
 -1      3950 2.00055E+01 8.68993E-04-9.52806E-06-1.83380E-03 1.30396E-14 1.07531E-13
 -1      3951 2.00058E+01 1.85387E-03 1.69414E-05-1.58119E-03-2.54763E-14 1.58941E-13
 -1      3952 2.00065E+01 2.76848E-03-8.96644E-07-1.17969E-03-7.07792E-14-1.08301E-13
 -1      3953 2.00047E+01-5.01794E-04-2.36309E-06-2.01784E-03-3.58387E-14 2.41305E-13
 -1      3954 2.00051E+01 1.05575E-04 1.27249E-05-1.92604E-03-1.98439E-14 1.72769E-13
 -1      3955 2.00058E+01 6.27592E-04-6.13278E-06-1.54579E-03-2.42874E-14 1.74103E-13
 -1      3956 2.00039E+01-1.29433E-03 2.10344E-06-2.00296E-03-9.21287E-15 2.90398E-13
 -1      3957 2.00043E+01-9.53913E-04 9.37557E-06-2.01392E-03 2.32249E-14 2.88998E-13
 -1      3958 2.00050E+01-7.02278E-04-8.89952E-06-1.67027E-03-4.03467E-14 2.50924E-13
 -1      3959 2.00032E+01-1.68723E-03 4.63596E-06-1.86926E-03-5.88754E-14 3.71877E-13
 -1      3960 2.00035E+01-1.52958E-03 6.75346E-06-1.94144E-03-6.28821E-14 2.92363E-13
 -1      3961 2.00041E+01-1.45714E-03-9.98913E-06-1.64148E-03-6.21477E-14 3.35039E-13
 -1      3962 2.00025E+01-1.81436E-03 5.87012E-06-1.67238E-03-6.61031E-14 2.71027E-13
 -1      3963 2.00028E+01-1.77681E-03 4.72380E-06-1.77685E-03 6.53685E-14 2.93674E-13
 -1      3964 2.00033E+01-1.81704E-03-9.98188E-06-1.52213E-03-2.13268E-15 4.68605E-13
 -1      3965 2.00019E+01-1.77409E-03 6.26030E-06-1.45032E-03 4.40554E-14-1.90514E-14
 -1      3966 2.00022E+01-1.81058E-03 3.14142E-06-1.56733E-03-2.58487E-14 1.09590E-13
 -1      3967 2.00026E+01-1.91579E-03-9.20368E-06-1.35518E-03 1.12465E-13 2.75274E-13
 -1      3968 2.00014E+01-1.64268E-03 5.22134E-06-1.22917E-03 7.47356E-14 1.86487E-14
 -1      3969 2.00016E+01-1.71566E-03 1.90557E-06-1.34612E-03 6.11231E-14-2.85407E-14
 -1      3970 2.00020E+01-1.85286E-03-8.91193E-06-1.17182E-03 7.64774E-14 8.65731E-14
 -1      3971 2.00011E+01-1.50699E-03 1.53384E-06-1.09050E-03 5.08425E-14 1.15121E-13
 -1      3972 2.32825E+01-2.56195E+00 2.61005E-02 1.41869E+00-2.77096E-13-5.83998E-13
 -1      3973 1.95799E+01 2.62605E-01-1.25436E-03 8.62769E-01-1.00408E-13 9.37938E-14
 -1      3974 1.96272E+01 1.86818E-01 5.40617E-03 9.56350E-01-1.17005E-13 2.82245E-14
 -1      3975 2.00007E+01-1.26865E-03 9.00785E-07 6.50929E-04-3.31123E-13-4.07520E-13
 -1      3976 2.00007E+01-1.31972E-03 2.53776E-06 5.31432E-04-2.91961E-13-3.44857E-13
 -1      3977 2.00009E+01-1.43869E-03-1.10123E-06 4.81959E-04-1.22848E-13-3.32896E-13
 -1      3978 2.00007E+01-1.31937E-03 5.30584E-07 7.25495E-04-9.69742E-14-3.42253E-13
 -1      3979 2.18133E+01-1.53238E+00 2.25426E-02 1.04880E+00-1.69789E-13-2.73834E-13
 -1      3980 2.21786E+01-1.76884E+00-9.24806E-03 8.86498E-01-1.04235E-13-3.41435E-13
 -1      3981 2.23596E+01-2.07539E+00-2.42127E-02 1.21783E+00-1.48423E-13-4.28532E-13
 -1      3982 1.68689E+01 3.76343E-01-1.12047E-02 2.30829E+00-3.53528E-13 5.08777E-14
 -1      3983 1.60438E+01 9.80707E-01-4.12963E-03 1.61897E+00-2.93887E-13 1.61742E-13
 -1      3984 1.58617E+01 1.32588E+00 2.15990E-02 1.01045E+00-2.42043E-13 2.38785E-13
 -1      3985 1.59056E+01 1.44109E+00-2.12657E-02 9.65870E-02-2.19407E-13 1.33144E-13
 -1      3986 1.65497E+01 1.42244E+00-1.01339E-02 7.02835E-02-2.00875E-13 6.22198E-14
 -1      3987 1.66358E+01 1.07947E+00 1.65968E-02 1.20043E+00-2.85800E-13 1.01569E-13
 -1      3988 1.98584E+01 2.59494E-01-1.16617E-03 1.75338E-01-1.31557E-13 1.44162E-13
 -1      3989 1.98425E+01 2.83919E-01 5.94724E-04 2.03732E-01-7.36896E-14 2.18952E-13
 -1      3990 1.97901E+01 3.23925E-01 8.08735E-04 1.97372E-01-2.66144E-14 3.31620E-13
 -1      3991 2.00009E+01-1.39526E-03 2.49213E-06-2.52750E-04 1.58865E-13 6.00391E-14
 -1      3992 2.00008E+01-1.36523E-03 9.78583E-07-3.92298E-04 1.48504E-13 1.15503E-13
 -1      3993 2.00009E+01-1.43436E-03-2.78614E-06-4.81019E-04 2.25779E-13-3.69539E-14
 -1      3994 2.00011E+01-1.50215E-03-3.21029E-06-1.67837E-04 1.15169E-13-1.67386E-14
 -1      3995 1.95911E+01 3.56050E-01-1.72681E-03 6.77074E-01-1.72789E-13 2.01433E-13
 -1      3996 1.96052E+01 3.20229E-01 3.87378E-03 7.57194E-01-8.14083E-14 1.46536E-13
 -1      3997 1.94230E+01 3.68353E-01-1.90682E-03 8.10996E-01-1.28971E-13 1.00297E-13
 -1      3998 1.70238E+01 1.36904E+00-1.71128E-02-4.73310E-02-1.95631E-13 5.30397E-14
 -1      3999 1.74755E+01 1.32001E+00-7.37821E-03-7.32080E-02-1.78508E-13 4.40696E-15
 -1      4000 1.69270E+01 1.34587E+00 2.43945E-02 4.99669E-01-2.52243E-13 1.05466E-13
 -1      4001 1.96935E+01 3.81059E-01-1.69876E-03 4.05409E-01-1.45135E-13 2.75278E-13
 -1      4002 1.96794E+01 3.89849E-01 1.91084E-03 4.60322E-01-1.03547E-13 2.96441E-13
 -1      4003 1.96466E+01 4.18848E-01 6.94907E-04 3.53986E-01-1.21227E-13 2.20065E-13
 -1      4004 1.96355E+01 3.88508E-01-1.75826E-03 5.26166E-01-9.17894E-14 2.90549E-13
 -1      4005 1.96307E+01 3.79956E-01 2.73399E-03 5.93049E-01-1.74485E-13 2.37925E-13
 -1      4006 1.94854E+01 4.33696E-01-2.67833E-04 6.19220E-01-1.81918E-13 1.30167E-13
 -1      4007 1.77953E+01 1.25901E+00-1.23651E-02-1.64811E-01-1.34492E-13 2.50862E-14
 -1      4008 1.81236E+01 1.19336E+00-4.84999E-03-1.78156E-01-1.69279E-13 1.45477E-14
 -1      4009 1.82363E+01 1.15011E+00 1.16904E-02 3.53733E-02-1.77191E-13 4.28079E-14
 -1      4010 1.76881E+01 1.26093E+00 1.73674E-02 2.22559E-01-1.52915E-13-4.57655E-14
 -1      4011 2.23048E+01-2.34425E+00-6.98051E-03 1.79003E+00-2.34663E-13-4.69696E-13
 -1      4012 2.07523E+01-1.85248E+00-3.12699E-02 2.50603E+00-3.33073E-13-2.56759E-13
 -1      4013 1.99760E+01-1.58022E+00 3.04164E-02 2.99118E+00-4.20431E-13-5.30587E-14
 -1      4014 1.94072E+01-1.09392E+00-8.53061E-03 2.72373E+00-2.82136E-13-3.77972E-14
 -1      4015 1.97996E+01-2.18548E-01 3.11856E-03 1.34236E+00-2.17494E-13-1.08695E-13
 -1      4016 1.99801E+01-4.21331E-01 8.72211E-03 1.44513E+00-2.36242E-13-2.52858E-13
 -1      4017 2.17598E+01-1.99334E+00 3.52225E-02 1.93357E+00-2.57478E-13-4.01316E-13
 -1      4018 1.98460E+01 2.70608E-01 7.37478E-04 1.45609E-01-1.42957E-13 3.08160E-13
 -1      4019 2.00008E+01-1.36937E-03 2.97947E-07 8.06198E-04 1.94479E-14-2.50502E-13
 -1      4020 2.13316E+01-1.53917E+00-2.67371E-02 1.43860E+00-2.02886E-13-3.19927E-13
 -1      4021 2.00014E+01-1.65161E-03-6.39320E-06-9.60259E-04-2.45253E-14 1.63674E-13
 -1      4022 1.96797E+01-4.62934E-01-1.27004E-02 1.70659E+00-2.33824E-13-2.71182E-13
 -1      4023 2.01525E+01-6.71777E-01 7.86715E-03 1.60905E+00-1.91036E-13-2.22297E-13
 -1      4024 2.04591E+01-9.46627E-01 1.28300E-02 1.67417E+00-2.04105E-13-2.82158E-13
 -1      4025 2.00010E+01-1.49639E-03-3.35184E-06 6.82783E-04 4.38410E-14-2.85963E-13
 -1      4026 1.74950E+01 1.35193E-01 3.33550E-02 2.47662E+00-3.21874E-13 1.31681E-13
 -1      4027 1.72991E+01 4.42960E-01-1.59198E-02 2.00614E+00-3.20271E-13 1.26581E-13
 -1      4028 1.81695E+01-2.95700E-01-6.35451E-03 2.54646E+00-2.65783E-13 1.10670E-13
 -1      4029 1.95649E+01 4.43375E-01 4.89090E-04 4.69634E-01-1.43430E-13 1.36226E-13
 -1      4030 2.00013E+01-1.60170E-03 2.00229E-06-1.18332E-04-7.69267E-14-2.20304E-13
 -1      4031 2.00012E+01-1.58110E-03-2.33966E-07-2.85102E-04-6.82156E-14 6.45154E-14
 -1      4032 1.96329E+01 8.17559E-02 1.01554E-04 1.08599E+00-1.33586E-13-8.22022E-14
 -1      4033 1.97330E+01-4.99680E-02 6.89450E-03 1.19008E+00-1.66686E-13-9.32033E-14
 -1      4034 1.94647E+01-4.51935E-02-9.18202E-03 1.35510E+00-2.35476E-13-2.46176E-13
 -1      4035 2.00012E+01-1.58778E-03-1.97423E-08 2.59907E-04-1.05058E-13-1.62840E-13
 -1      4036 2.00013E+01-1.60109E-03 2.28851E-06 8.62077E-05-9.91600E-14-1.08467E-13
 -1      4037 2.00015E+01-1.69578E-03-3.27948E-06-3.27043E-05-1.43620E-13-1.51432E-13
 -1      4038 1.94032E+01 2.21702E-01-4.22604E-03 1.05376E+00-1.91874E-13-1.28729E-13
 -1      4039 2.10847E+01-1.62118E+00 4.95219E-03 1.94856E+00-2.59556E-13-3.24527E-13
 -1      4040 1.89185E+01 8.62063E-01-6.65815E-03 1.87053E-02-1.21476E-13 1.14914E-13
 -1      4041 1.90783E+01 8.03539E-01-9.66478E-04-4.96557E-03-1.36367E-13 4.93168E-14
 -1      4042 1.91978E+01 7.39443E-01-3.98575E-03-3.66443E-02-2.17441E-13 2.95352E-14
 -1      4043 1.93155E+01 6.80067E-01-1.18784E-03-4.70027E-02-2.30114E-13-3.17707E-14
 -1      4044 1.91520E+01 7.57657E-01 4.69313E-03 8.97569E-02-2.00657E-13-3.93154E-14
 -1      4045 1.94097E+01 6.21407E-01-2.49741E-03-6.39450E-02-2.49368E-13-5.59213E-14
 -1      4046 1.94974E+01 5.65606E-01-1.12158E-03-6.53213E-02-2.26207E-13-7.31244E-14
 -1      4047 1.93652E+01 6.47911E-01 4.08922E-03 3.01109E-02-2.92215E-13-7.05914E-14
 -1      4048 1.95695E+01 5.12426E-01-2.17356E-03-7.21646E-02-1.96017E-13-9.58578E-14
 -1      4049 1.96365E+01 4.63056E-01-8.14882E-04-6.77442E-02-1.48685E-13-7.58298E-14
 -1      4050 1.95285E+01 5.43944E-01 3.25580E-03-9.27018E-04-2.69919E-13-1.32849E-13
 -1      4051 1.96920E+01 4.15140E-01-1.62127E-03-6.98691E-02-3.28874E-14-8.44701E-14
 -1      4052 1.97418E+01 3.71929E-01-7.75298E-04-6.30425E-02 5.69583E-14-5.25280E-14
 -1      4053 1.96591E+01 4.46677E-01 3.10454E-03-1.80068E-02-7.56834E-14-1.49154E-13
 -1      4054 1.97841E+01 3.31054E-01-1.11225E-03-6.21122E-02 5.43043E-14-2.53676E-14
 -1      4055 1.98205E+01 2.94179E-01-6.81996E-04-5.45017E-02 5.82958E-14 4.00463E-15
 -1      4056 1.97574E+01 3.60251E-01 2.52750E-03-2.48076E-02 8.80023E-14-1.27270E-13
 -1      4057 1.98523E+01 2.59920E-01-7.52684E-04-5.20580E-02 3.44042E-14 3.47433E-14
 -1      4058 1.98786E+01 2.29117E-01-5.73904E-04-4.46472E-02 7.75153E-14 4.04579E-15
 -1      4059 1.98313E+01 2.85673E-01 1.99090E-03-2.54440E-02 9.58248E-14-2.29465E-13
 -1      4060 1.99021E+01 2.00909E-01-5.02641E-04-4.16863E-02-1.80534E-14 7.91768E-15
 -1      4061 1.99209E+01 1.75658E-01-4.65823E-04-3.50233E-02-9.54358E-14-1.81438E-14
 -1      4062 1.98861E+01 2.22800E-01 1.53119E-03-2.29236E-02 2.99276E-14-1.76527E-13
 -1      4063 1.99380E+01 1.52815E-01-3.30303E-04-3.21102E-02-1.55229E-13 8.72858E-14
 -1      4064 1.99512E+01 1.32473E-01-3.66130E-04-2.64367E-02-1.64346E-13 8.56856E-14
 -1      4065 1.99262E+01 1.70877E-01 1.15092E-03-1.90896E-02-4.62160E-15-1.39791E-13
 -1      4066 1.99634E+01 1.14265E-01-2.12573E-04-2.38565E-02-6.61725E-14 9.21296E-14
 -1      4067 1.99723E+01 9.81459E-02-2.79159E-04-1.92204E-02 5.45962E-14 1.98936E-13
 -1      4068 1.99549E+01 1.28793E-01 8.44621E-04-1.50052E-02-2.97441E-14 8.70762E-14
 -1      4069 1.99808E+01 8.38568E-02-1.32942E-04-1.70849E-02-1.35700E-14 1.57962E-13
 -1      4070 1.99868E+01 7.12890E-02-2.06464E-04-1.34229E-02 1.09175E-14 1.05686E-13
 -1      4071 1.99749E+01 9.52769E-02 6.03622E-04-1.12322E-02 4.54306E-14 1.39267E-13
 -1      4072 1.99924E+01 6.02490E-02-7.97066E-05-1.17441E-02 1.12431E-13 1.21145E-13
 -1      4073 1.99962E+01 5.06095E-02-1.47810E-04-8.93722E-03 1.25424E-13 1.17224E-13
 -1      4074 1.99885E+01 6.90336E-02 4.18173E-04-8.02191E-03 1.39296E-13 1.08992E-13
 -1      4075 1.99999E+01 4.22168E-02-4.46362E-05-7.67438E-03-8.60499E-15 1.40184E-13
 -1      4076 2.00021E+01 3.49486E-02-1.01936E-04-5.58374E-03-2.18350E-14 2.35832E-13
 -1      4077 1.99974E+01 4.88307E-02 2.78615E-04-5.44262E-03 8.20130E-14 3.76739E-14
 -1      4078 2.00043E+01 2.86775E-02-2.19797E-05-4.67307E-03-6.07240E-14 2.66544E-13
 -1      4079 2.00055E+01 2.32973E-02-6.70905E-05-3.16088E-03-4.95088E-14 2.73900E-13
 -1      4080 2.00029E+01 3.35473E-02 1.76020E-04-3.46327E-03 3.26689E-15 1.46305E-13
 -1      4081 2.00067E+01 1.86995E-02-7.74200E-06-2.53323E-03-1.03338E-13 2.44517E-13
 -1      4082 2.00072E+01 1.47978E-02-4.13806E-05-1.47412E-03-8.31906E-14 1.76915E-13
 -1      4083 2.00060E+01 2.21990E-02 1.02523E-04-2.00567E-03-6.49822E-14 1.80258E-13
 -1      4084 2.00077E+01 1.14990E-02 8.39588E-07-1.06450E-03-9.29698E-14 1.49365E-13
 -1      4085 2.00077E+01 8.73598E-03-2.29909E-05-3.50581E-04-4.17368E-14 1.87376E-13
 -1      4086 2.00075E+01 1.39441E-02 5.14348E-05-9.75729E-04-9.15047E-14 1.99229E-13
 -1      4087 2.00077E+01 6.42909E-03 5.66827E-06-1.02676E-04-8.95072E-14 2.23337E-13
 -1      4088 2.00075E+01 4.52823E-03-1.02964E-05 3.55168E-04-2.26492E-14 1.26007E-13
 -1      4089 2.00079E+01 8.07972E-03 1.72306E-05-2.80887E-04-3.34133E-14 2.15369E-13
 -1      4090 2.00073E+01 2.96577E-03 8.05004E-06 4.87597E-04 1.84911E-14 1.88117E-13
 -1      4091 2.00069E+01 1.70574E-03-1.91262E-06 7.60643E-04 9.69080E-14 1.09782E-13
 -1      4092 2.00076E+01 4.03060E-03-4.53837E-06 1.61270E-04 4.93224E-14 1.99762E-13
 -1      4093 2.00065E+01 6.91496E-04 8.87656E-06 8.13975E-04 9.48730E-14 1.90699E-13
 -1      4094 2.00061E+01-1.01805E-04 3.29738E-06 9.57675E-04 8.05671E-14 2.53432E-13
 -1      4095 2.00069E+01 1.33448E-03-1.73730E-05 4.19643E-04 1.34170E-13 2.09092E-13
 -1      4096 2.00056E+01-7.20926E-04 8.75183E-06 9.59535E-04 3.17991E-14 2.40405E-13
 -1      4097 2.00052E+01-1.18223E-03 6.23964E-06 1.01594E-03 5.55600E-14 1.50778E-13
 -1      4098 2.00061E+01-3.73516E-04-2.39657E-05 5.49282E-04 3.37734E-14 1.76738E-13
 -1      4099 2.00047E+01-1.52377E-03 8.07874E-06 9.86626E-04-5.96780E-14 1.28491E-13
 -1      4100 2.00043E+01-1.75560E-03 7.61892E-06 9.86791E-04 5.66303E-14-6.33185E-14
 -1      4101 2.00051E+01-1.37657E-03-2.63280E-05 5.92609E-04-3.31764E-14-1.20703E-13
 -1      4102 2.00038E+01-1.90839E-03 7.11025E-06 9.40716E-04 6.23634E-14-2.67678E-13
 -1      4103 2.00034E+01-1.98737E-03 7.94984E-06 9.06899E-04 5.29091E-14-3.44001E-13
 -1      4104 2.00042E+01-1.89060E-03-2.58563E-05 5.81382E-04-1.26682E-13-2.37756E-13
 -1      4105 2.00030E+01-2.01757E-03 5.95662E-06 8.53592E-04 8.01089E-14-3.85264E-13
 -1      4106 2.00027E+01-1.99954E-03 7.43183E-06 8.01058E-04 2.78784E-14-2.81681E-13
 -1      4107 2.00034E+01-2.07690E-03-2.30692E-05 5.38968E-04-3.05437E-14-3.74588E-13
 -1      4108 2.00023E+01-1.95577E-03 4.50947E-06 7.46401E-04-1.27620E-14-2.26315E-13
 -1      4109 2.00020E+01-1.88259E-03 4.41149E-06 6.83372E-04-2.23209E-13-3.12304E-13
 -1      4110 2.00026E+01-2.04824E-03-1.51285E-05 4.83241E-04 2.17262E-14-4.08080E-13
 -1      4111 2.00012E+01-1.53908E-03 2.77703E-06-4.41846E-04 8.22679E-14 1.63541E-13
 -1      4112 2.00011E+01-1.49488E-03 1.26616E-06-5.91001E-04 1.01652E-13 7.72621E-14
 -1      4113 2.00012E+01-1.55715E-03 1.29001E-06-7.04533E-04-2.48441E-13 2.46452E-13
 -1      4114 2.00014E+01-1.65423E-03-3.32862E-06-4.03066E-04-6.41859E-14 2.00915E-14
 -1      4115 1.85579E+01 9.80671E-01-9.00059E-03 1.16334E-01-1.07748E-13 1.51877E-14
 -1      4116 1.87720E+01 9.26881E-01-3.81122E-05 7.09143E-02-1.15082E-13 9.35238E-14
 -1      4117 1.88746E+01 8.62806E-01 4.60801E-03 1.94298E-01-9.44444E-14 2.19676E-14
 -1      4118 1.93816E+01 5.11643E-01-2.97827E-03 5.28452E-01-1.54476E-13-1.67758E-14
 -1      4119 1.93519E+01 5.09674E-01 3.87364E-03 6.10632E-01-1.26945E-13 1.02347E-14
 -1      4120 1.99214E+01 1.71304E-01-8.30247E-04 5.55594E-02-5.36575E-14 5.30275E-14
 -1      4121 1.99073E+01 1.94305E-01 1.48099E-04 6.75486E-02-8.18920E-14 8.60657E-14
 -1      4122 1.98835E+01 2.17907E-01-1.08748E-03 7.85414E-02-1.08166E-13 1.75629E-13
 -1      4123 1.98651E+01 2.44560E-01 2.44103E-04 9.44603E-02-1.37121E-13 2.02087E-13
 -1      4124 1.98863E+01 2.20418E-01 1.60484E-03 5.65840E-02-3.72290E-14-1.57378E-14
 -1      4125 1.99703E+01 9.93718E-02-4.64203E-04 2.63995E-02 1.87196E-13-1.30897E-14
 -1      4126 1.99628E+01 1.15098E-01 6.31503E-05 3.30766E-02 7.11131E-14 3.57306E-15
 -1      4127 1.99847E+01 7.32467E-02-3.38717E-04 1.75097E-02 1.12558E-13 6.05907E-14
 -1      4128 1.99795E+01 8.57975E-02 4.71412E-05 2.24253E-02 2.02102E-13 8.37049E-14
 -1      4129 1.99726E+01 9.85330E-02 6.78500E-04 1.80270E-02 1.13186E-13-7.82523E-14
 -1      4130 1.99945E+01 5.26912E-02-2.42312E-04 1.11571E-02-3.36114E-14 9.11316E-14
 -1      4131 1.99911E+01 6.24987E-02 3.85675E-05 1.47307E-02 9.00562E-14 1.63676E-13
 -1      4132 1.99866E+01 7.21966E-02 4.79042E-04 1.17721E-02 8.62122E-14 9.81745E-14
 -1      4133 2.00008E+01 3.68519E-02-1.69268E-04 6.68679E-03-9.94772E-14 5.34420E-15
 -1      4134 1.99987E+01 4.43601E-02 3.35732E-05 9.24402E-03-1.13838E-13 6.51226E-14
 -1      4135 1.99959E+01 5.16128E-02 3.25414E-04 7.38033E-03-2.92955E-14 1.00014E-13
 -1      4136 2.00045E+01 2.48982E-02-1.14758E-04 3.60445E-03-1.09717E-14-2.27779E-13
 -1      4137 2.00034E+01 3.05278E-02 3.00730E-05 5.39808E-03-1.86075E-14-1.26789E-14
 -1      4138 2.00018E+01 3.58455E-02 2.10208E-04 4.33676E-03 4.82396E-14-1.15297E-13
 -1      4139 2.00065E+01 1.60710E-02-7.47687E-05 1.53656E-03 2.91877E-14-2.40880E-13
 -1      4140 2.00060E+01 2.02000E-02 2.70503E-05 2.76250E-03 1.16831E-14-1.31989E-13
 -1      4141 2.00053E+01 2.40119E-02 1.26192E-04 2.26653E-03 2.55146E-14-2.82793E-13
 -1      4142 2.00072E+01 9.70571E-03-4.60029E-05 2.01337E-04 1.75936E-13-3.55415E-13
 -1      4143 2.00072E+01 1.26607E-02 2.40936E-05 1.01075E-03 9.13556E-14-3.12297E-13
 -1      4144 2.00070E+01 1.53212E-02 6.67909E-05 8.95286E-04 9.12484E-14-1.83994E-13
 -1      4145 2.00072E+01 5.23963E-03-2.57905E-05-6.12996E-04 4.31729E-14-1.89139E-13
 -1      4146 2.00074E+01 7.29453E-03 2.11063E-05-1.04233E-04 8.22413E-14-2.45740E-13
 -1      4147 2.00076E+01 9.09040E-03 2.63137E-05 2.15546E-05 5.23287E-14-2.14665E-13
 -1      4148 2.00067E+01 2.20910E-03-1.19963E-05-1.06451E-03-1.20198E-13-1.18000E-13
 -1      4149 2.00071E+01 3.58789E-03 1.81334E-05-7.68409E-04-4.20349E-14-2.11843E-13
 -1      4150 2.00075E+01 4.74726E-03 1.53520E-08-5.02746E-04-4.31177E-14-1.11910E-13
 -1      4151 2.00060E+01 2.40792E-04-2.93538E-06-1.27007E-03-8.05321E-14-8.09342E-14
 -1      4152 2.00064E+01 1.12257E-03 1.52659E-05-1.12058E-03-4.82915E-14-1.92027E-13
 -1      4153 2.00069E+01 1.82372E-03-1.59388E-05-7.86200E-04-1.25270E-13-2.75529E-13
 -1      4154 2.00051E+01-9.59628E-04 2.70626E-06-1.31501E-03-1.10566E-13-6.54600E-14
 -1      4155 2.00056E+01-4.34534E-04 1.25924E-05-1.26323E-03-1.54517E-13-1.21341E-13
 -1      4156 2.00061E+01-5.46844E-05-2.45624E-05-9.07982E-04-9.78913E-14-4.44748E-13
 -1      4157 2.00043E+01-1.61973E-03 5.94488E-06-1.26059E-03-8.57642E-14 3.40190E-14
 -1      4158 2.00047E+01-1.34345E-03 1.01808E-05-1.27098E-03-1.25419E-13 1.18626E-13
 -1      4159 2.00052E+01-1.18161E-03-2.81585E-05-9.25293E-04-2.01896E-13-2.40584E-13
 -1      4160 2.00035E+01-1.91220E-03 7.56246E-06-1.14980E-03 5.88358E-14 4.36183E-14
 -1      4161 2.00038E+01-1.80338E-03 8.07627E-06-1.19720E-03-3.23905E-14 1.29174E-13
 -1      4162 2.00043E+01-1.78302E-03-2.84186E-05-8.78982E-04-1.20592E-13-2.81495E-13
 -1      4163 2.00027E+01-1.96603E-03 7.61796E-06-1.01148E-03 1.09472E-13 4.09349E-14
 -1      4164 2.00031E+01-1.96456E-03 6.26260E-06-1.07882E-03 1.23073E-13 1.70396E-13
 -1      4165 2.00034E+01-2.02967E-03-2.64236E-05-7.97893E-04 1.67968E-14-2.39602E-13
 -1      4166 2.00021E+01-1.86890E-03 8.81014E-06-8.62345E-04 1.40192E-13 3.92444E-14
 -1      4167 2.00024E+01-1.93226E-03 6.09313E-06-9.37416E-04 9.22928E-14 5.19443E-14
 -1      4168 2.00027E+01-2.04789E-03-2.12105E-05-7.00258E-04 1.40496E-13-2.36183E-14
 -1      4169 2.06469E+01-1.25940E+00 1.50624E-02 1.93599E+00-2.66350E-13-2.79966E-13
 -1      4170 1.97709E+01 3.29587E-01-1.80058E-03 1.51937E-01-1.05093E-13 3.23055E-13
 -1      4171 1.97430E+01 3.61160E-01 6.67163E-04 1.79771E-01-1.39820E-14 2.69244E-13
 -1      4172 1.98339E+01 2.71185E-01-1.40749E-03 1.09728E-01-1.55854E-13 2.85324E-13
 -1      4173 1.98108E+01 3.00935E-01 4.04794E-04 1.30793E-01-8.86439E-14 3.79871E-13
 -1      4174 1.97705E+01 3.39758E-01 2.42527E-03 1.14521E-01-9.82401E-14 2.68989E-13
 -1      4175 2.00012E+01-1.54352E-03 1.68520E-06 5.43980E-04 1.44548E-14-1.85253E-13
 -1      4176 1.72372E+01 8.80349E-01 2.60957E-02 1.45340E+00-2.85238E-13 6.18141E-14
 -1      4177 1.69349E+01 1.10223E+00-1.52469E-02 9.44628E-01-2.74539E-13 9.29716E-14
 -1      4178 1.74097E+01 1.10966E+00 2.73613E-03 7.41705E-01-2.57869E-13 4.53215E-14
 -1      4179 1.99498E+01 1.31859E-01-6.25464E-04 3.86962E-02 6.84895E-14-4.49504E-14
 -1      4180 1.99393E+01 1.51121E-01 9.32267E-05 4.76771E-02 4.22391E-14 5.03957E-14
 -1      4181 1.99525E+01 1.31542E-01 9.30488E-04 2.68565E-02 8.35840E-14-7.73484E-14
 -1      4182 1.96930E+01 3.89995E-01-2.26600E-03 2.09023E-01 1.44475E-14 2.09880E-13
 -1      4183 1.96610E+01 4.21060E-01 1.14201E-03 2.45819E-01-3.74144E-14 2.81024E-13
 -1      4184 1.96878E+01 4.07106E-01 2.68021E-03 1.61440E-01-4.76511E-14 1.90032E-13
 -1      4185 1.92622E+01 4.88775E-01-4.97845E-03 7.14731E-01-1.37556E-13 1.19160E-14
 -1      4186 1.92553E+01 4.60498E-01 6.74398E-03 8.22462E-01-1.58728E-13-6.96039E-15
 -1      4187 1.91696E+01 5.86604E-01 1.89215E-03 6.23755E-01-1.16424E-13-6.08532E-14
 -1      4188 1.94960E+01 4.91614E-01-2.61052E-03 3.89953E-01-2.09480E-13 3.53936E-14
 -1      4189 1.94588E+01 5.07383E-01 2.05168E-03 4.53013E-01-1.88452E-13-3.77804E-14
 -1      4190 1.93285E+01 5.76764E-01 2.92865E-03 4.43301E-01-1.93036E-13-9.14733E-14
 -1      4191 1.91648E+01 3.97500E-01-6.05295E-03 9.61845E-01-1.81119E-13 9.78398E-15
 -1      4192 1.91915E+01 3.24707E-01 8.41107E-03 1.09849E+00-1.97721E-13-5.16764E-14
 -1      4193 1.90144E+01 5.39883E-01 1.46393E-03 8.65644E-01-1.67645E-13-4.99053E-15
 -1      4194 1.91184E+01 2.17475E-01-3.25209E-03 1.27799E+00-2.59528E-13-1.08568E-13
 -1      4195 1.91895E+01 7.27483E-02 7.61294E-03 1.45372E+00-2.84024E-13-1.48195E-13
 -1      4196 1.88800E+01 3.98724E-01-1.10097E-03 1.19016E+00-2.54838E-13 1.03235E-13
 -1      4197 1.96001E+01 4.46924E-01-2.78084E-03 2.86273E-01-1.20668E-13 1.11056E-13
 -1      4198 1.95650E+01 4.73808E-01 1.64324E-03 3.34924E-01-2.07533E-13 1.13246E-13
 -1      4199 1.95850E+01 4.73122E-01 2.06940E-03 2.26390E-01-1.24942E-13 7.25179E-14
 -1      4200 2.00014E+01-1.65244E-03-4.39901E-07 4.70366E-04-2.66427E-14-9.87638E-14
 -1      4201 2.00017E+01-1.78555E-03-1.54548E-08 7.83469E-05-6.07471E-14-1.35479E-13
 -1      4202 2.00017E+01-1.78708E-03 1.90813E-07-1.33463E-04-1.78532E-13-1.72000E-13
 -1      4203 2.00016E+01-1.75479E-03 2.98781E-06-3.30212E-04-1.78581E-13-4.52655E-14
 -1      4204 2.00015E+01-1.72420E-03-3.26174E-06-4.94830E-04-1.48398E-13 4.06344E-14
 -1      4205 2.00019E+01-1.85085E-03 2.23896E-06-2.24372E-04-2.40385E-13-5.26692E-14
 -1      4206 2.00018E+01-1.79422E-03 3.12100E-06 6.39994E-04-3.37750E-13-2.75897E-13
 -1      4207 2.00015E+01-1.69733E-03 3.40921E-06 5.77598E-04-1.28370E-13-2.74148E-13
 -1      4208 1.99244E+01 1.72010E-01 1.23947E-03 3.92492E-02 2.63511E-14-2.11884E-14
 -1      4209 1.94667E+01 5.33116E-01 2.31965E-03 3.15502E-01-2.38998E-13-2.16846E-14
 -1      4210 1.98358E+01 2.76677E-01 2.01449E-03 8.07849E-02-6.78560E-14 1.19171E-13
 -1      4211 2.00081E+01-1.02462E+00-6.82612E-03 2.16493E+00-2.67147E-13-1.92500E-13
 -1      4212 2.00018E+01-1.81017E-03 8.71908E-07-7.40765E-04 5.09527E-15 5.32502E-15
 -1      4213 2.00021E+01-1.91616E-03-1.08147E-05-5.22660E-04-4.41154E-14 1.42599E-14
 -1      4214 1.76113E+01 5.54075E-01-9.60081E-03 1.66620E+00-2.62270E-13 1.31237E-13
 -1      4215 1.83959E+01 1.03303E+00 1.44435E-03 2.04539E-01-1.06989E-13 3.99021E-14
 -1      4216 1.85483E+01 9.47973E-01 6.28510E-03 3.58735E-01-9.01800E-14 5.47476E-14
 -1      4217 1.81317E+01 1.06603E+00-1.23294E-02 2.90016E-01-1.37733E-13-3.62186E-14
 -1      4218 1.95288E+01-8.43231E-01-1.66314E-03 2.31578E+00-2.48560E-13-1.12981E-13
 -1      4219 1.88195E+01-5.19604E-01 2.22032E-02 2.53592E+00-2.35582E-13-1.95739E-14
 -1      4220 1.83986E+01-1.22979E-01-8.23490E-03 2.19729E+00-2.49286E-13 7.42723E-14
 -1      4221 1.93933E+01-5.40455E-01-8.09904E-03 2.03320E+00-2.00891E-13-1.56043E-13
 -1      4222 2.00014E+01-1.66737E-03 2.85637E-06-6.46715E-04-1.83124E-13 1.91618E-13
 -1      4223 1.76131E+01 1.10978E+00-1.57610E-02 5.60032E-01-2.06816E-13 6.39256E-15
 -1      4224 1.79546E+01 1.09498E+00 1.86924E-03 4.22669E-01-1.45489E-13 1.11114E-14
 -1      4225 1.81815E+01 9.87213E-01 8.13543E-03 6.05503E-01-1.46698E-13 1.00813E-13
 -1      4226 1.77785E+01 9.95709E-01 2.52537E-02 9.50861E-01-2.51407E-13 6.16559E-14
 -1      4227 2.00020E+01-1.89064E-03-7.27857E-06 4.15754E-04-1.90569E-13-3.42776E-13
 -1      4228 1.92739E+01 6.20262E-01-3.89960E-03 3.28275E-01-2.25788E-13-1.15778E-13
 -1      4229 1.91947E+01 6.49235E-01 4.72385E-04 4.01056E-01-1.63620E-13-7.37958E-14
 -1      4230 1.93258E+01 6.37988E-01-3.16344E-03 1.20304E-01-2.79360E-13-6.70717E-14
 -1      4231 1.94185E+01 5.93483E-01-2.32970E-04 9.42365E-02-2.91361E-13-9.67633E-14
 -1      4232 1.95301E+01 5.11739E-01-2.67631E-03 1.08949E-01-1.85103E-13 1.84656E-15
 -1      4233 1.96043E+01 4.67009E-01-7.40453E-04 9.08380E-02-1.28000E-13-1.76678E-14
 -1      4234 1.96511E+01 4.26458E-01-2.79203E-03 6.66582E-02-1.41064E-13 6.53321E-14
 -1      4235 1.97086E+01 3.86073E-01-9.86914E-04 5.69929E-02-4.47869E-14 4.55993E-14
 -1      4236 1.97467E+01 3.48644E-01-2.31877E-03 3.99846E-02 7.25547E-15-6.27590E-14
 -1      4237 1.97907E+01 3.12728E-01-9.26687E-04 3.53531E-02 7.04591E-14-1.11608E-13
 -1      4238 1.98207E+01 2.79545E-01-1.83059E-03 2.33692E-02 2.67040E-14-2.46311E-13
 -1      4239 1.98537E+01 2.48508E-01-7.89399E-04 2.16504E-02-3.98735E-14-2.23880E-13
 -1      4240 1.98768E+01 2.20006E-01-1.40959E-03 1.32092E-02 4.13379E-15-2.84612E-13
 -1      4241 1.99013E+01 1.93859E-01-6.36935E-04 1.30869E-02 7.35741E-14-2.68562E-13
 -1      4242 1.99186E+01 1.70012E-01-1.06374E-03 7.13605E-03 1.01699E-13-2.57911E-13
 -1      4243 1.99363E+01 1.48470E-01-4.92263E-04 7.79999E-03 5.24213E-14-1.00334E-13
 -1      4244 1.99490E+01 1.28968E-01-7.86618E-04 3.60165E-03 5.90713E-14-1.02035E-13
 -1      4245 1.99616E+01 1.11572E-01-3.65432E-04 4.57155E-03 1.34924E-14-6.05478E-14
 -1      4246 1.99706E+01 9.59490E-02-5.68912E-04 1.61117E-03 3.67133E-14 2.21342E-14
 -1      4247 1.99793E+01 8.21611E-02-2.60093E-04 2.61927E-03 1.10115E-13-4.47246E-14
 -1      4248 1.99855E+01 6.98853E-02-4.01030E-04 5.37658E-04 9.48428E-14-7.32027E-14
 -1      4249 1.99913E+01 5.91525E-02-1.76297E-04 1.44913E-03 1.58316E-13-4.36762E-14
 -1      4250 1.99954E+01 4.96872E-02-2.73984E-04-5.76955E-06 1.05750E-13-1.31650E-13
 -1      4251 1.99991E+01 4.14818E-02-1.12134E-04 7.53905E-04 8.81920E-14-1.04352E-13
 -1      4252 2.00016E+01 3.43218E-02-1.79735E-04-2.52542E-04 5.84020E-14-1.33766E-13
 -1      4253 2.00039E+01 2.81647E-02-6.47882E-05 3.45100E-04 1.86774E-14-1.49938E-13
 -1      4254 2.00053E+01 2.28564E-02-1.11330E-04-3.40115E-04 6.49112E-14-7.74520E-14
 -1      4255 2.00065E+01 1.83281E-02-3.11885E-05 1.08365E-04 3.26249E-14 4.17185E-14
 -1      4256 2.00072E+01 1.44784E-02-6.29168E-05-3.47235E-04 1.49211E-14 2.14339E-14
 -1      4257 2.00077E+01 1.12219E-02-8.40067E-06-2.51160E-05-1.08975E-14 9.75479E-14
 -1      4258 2.00078E+01 8.49971E-03-2.96788E-05-3.17569E-04-7.61080E-14 2.57567E-13
 -1      4259 2.00078E+01 6.21873E-03 6.17434E-06-9.65863E-05 4.27935E-15 1.79166E-13
 -1      4260 2.00077E+01 4.35168E-03-7.73618E-06-2.74347E-04-7.97882E-14 1.38588E-13
 -1      4261 2.00074E+01 2.80501E-03 1.47189E-05-1.30790E-04 1.55870E-14 3.67916E-14
 -1      4262 2.00071E+01 1.57381E-03 5.97678E-06-2.29231E-04 1.12492E-13-8.42761E-14
 -1      4263 2.00067E+01 5.69062E-04 1.89905E-05-1.42672E-04 9.30506E-15-4.81395E-14
 -1      4264 2.00063E+01-1.99509E-04 1.38345E-05-1.87553E-04-7.83286E-14-1.43970E-13
 -1      4265 2.00058E+01-8.13099E-04 2.03516E-05-1.41361E-04-9.63149E-14-2.10298E-13
 -1      4266 2.00054E+01-1.25338E-03 1.76305E-05-1.51340E-04-1.28251E-13-1.65369E-13
 -1      4267 2.00049E+01-1.59189E-03 1.98048E-05-1.32511E-04-1.43617E-13-2.76774E-13
 -1      4268 2.00044E+01-1.80626E-03 1.86368E-05-1.21057E-04-8.88017E-14-3.63057E-13
 -1      4269 2.00040E+01-1.95751E-03 1.79502E-05-1.19654E-04-9.67853E-14-4.10983E-13
 -1      4270 2.00036E+01-2.02297E-03 1.74182E-05-9.68097E-05-5.59591E-15-2.44107E-13
 -1      4271 2.00032E+01-2.05226E-03 1.44665E-05-1.05516E-04 9.33044E-14-2.73459E-13
 -1      4272 2.00028E+01-2.03059E-03 1.17223E-05-8.04962E-05 5.45467E-14-2.79153E-13
 -1      4273 2.00024E+01-1.98505E-03 6.86053E-06-8.80091E-05-7.49108E-14-2.25774E-13
 -1      4274 2.00016E+01-1.74050E-03 9.17283E-07 2.79782E-04-1.23816E-13-1.21793E-13
 -1      4275 1.81977E+01 2.74740E-01 1.76793E-02 1.86367E+00-2.77945E-13 1.05841E-13
 -1      4276 1.79245E+01 5.99931E-01-1.89356E-02 1.40975E+00-2.59561E-13 1.21934E-13
 -1      4277 1.91804E+01-1.18424E-01-6.54835E-04 1.68670E+00-2.46275E-13-1.46665E-13
 -1      4278 1.93299E+01-3.57480E-01 5.77687E-03 1.89799E+00-2.11561E-13-1.17570E-13
 -1      4279 2.00022E+01-1.94731E-03-4.76146E-06-3.25233E-04-1.29369E-13-1.11659E-13
 -1      4280 2.00018E+01-1.83514E-03 4.99709E-07 1.89586E-04-8.04909E-14-3.04538E-13
 -1      4281 1.87833E+01 1.51689E-01-5.34720E-03 1.60850E+00-2.82620E-13 6.88744E-14
 -1      4282 1.90862E+01 7.48151E-01-1.48733E-03 2.09780E-01-1.43400E-13 5.39786E-15
 -1      4283 1.92113E+01 6.99299E-01 2.89769E-05 1.60943E-01-1.99594E-13-1.52537E-14
 -1      4284 1.89597E+01 7.40765E-01-4.71001E-03 4.12201E-01-8.08503E-14-3.29785E-14
 -1      4285 1.88780E+01 7.54490E-01 2.47709E-03 5.08535E-01-6.60276E-14-3.57233E-14
 -1      4286 1.87048E+01 7.61105E-01-6.96759E-03 6.19579E-01-1.21577E-13 3.14641E-14
 -1      4287 1.86251E+01 7.49945E-01 4.06869E-03 7.55768E-01-1.68412E-13 7.59496E-14
 -1      4288 1.84301E+01 7.27221E-01-7.07072E-03 9.15176E-01-2.15998E-13 1.16346E-13
 -1      4289 1.83384E+01 6.57059E-01-2.93984E-03 1.09804E+00-2.83949E-13 7.86510E-14
 -1      4290 1.94583E+01 5.43644E-01-1.90085E-03 2.24260E-01-2.39761E-13-6.93922E-14
 -1      4291 1.93965E+01 5.77363E-01 5.48782E-04 2.71861E-01-2.68186E-13-5.77194E-14
 -1      4292 2.00022E+01-1.92500E-03 3.65884E-06 2.17120E-04-9.62693E-14-3.51665E-13
 -1      4293 1.81306E+01 6.68206E-01-8.81680E-03 1.19020E+00-2.56877E-13 1.16797E-13
 -1      4294 1.92935E+01 6.46372E-01 2.30649E-03 2.26414E-01-2.47771E-13-6.09695E-14
 -1      4295 1.88532E+01-2.07701E-01-1.05864E-02 2.01350E+00-2.26673E-13-3.79946E-14
 -1      4296 1.91078E+01 7.06829E-01-2.55114E-04 3.35636E-01-1.35534E-13-2.18339E-14
 -1      4297 1.94710E+01 5.52537E-01-6.59002E-04 1.41024E-01-2.76790E-13-8.86019E-14
 -1      4298 1.86412E+01 3.29226E-01 5.39100E-03 1.48271E+00-2.93153E-13 1.00859E-13
 -1      4299 1.86389E+01 1.51981E-01 3.68723E-03 1.71190E+00-2.35740E-13 1.19212E-13
 -1      4300 1.83406E+01 6.53811E-02 3.58623E-04 2.01920E+00-2.66454E-13 1.16707E-13
 -3
    1PSTEP                         3           1           1          
  100CL  101 1.000000000        4300                     0    1           1
 -4  TOSTRAIN    6    1
 -5  EXX         1    4    1    1
 -5  EYY         1    4    2    2
 -5  EZZ         1    4    3    3
 -5  EXY         1    4    1    2
 -5  EYZ         1    4    2    3
 -5  EZX         1    4    3    1
 -1         1 3.23420E-04-1.00299E-04-8.11957E-05 2.30144E-06-9.01587E-19-7.48507E-18
 -1         2 3.31079E-05-1.00662E-04 1.72013E-05-3.27701E-07-1.95575E-18 5.13964E-19
 -1         3 9.52372E-05-2.85711E-05-2.85713E-05 2.95334E-11-3.47834E-18-3.19926E-18
 -1         4 9.52372E-05-2.85711E-05-2.85713E-05-2.89362E-11 9.18741E-19 1.03374E-18
 -1         5 1.64095E-04-2.48150E-05-4.82095E-05 4.45344E-05-2.99585E-19 2.71850E-17
 -1         6 1.98265E-04 3.92581E-10-6.22489E-05-6.48786E-05-1.44334E-18 2.74395E-17
 -1         7 1.26858E-04-1.63503E-06-5.32894E-05-2.66447E-05-1.45901E-19 7.84040E-18
 -1         8 1.06292E-04-1.90862E-07-4.47921E-05-9.84264E-06-2.28487E-19 1.18444E-18
 -1         9 8.79413E-05 6.09841E-08-3.73088E-05-1.09079E-06-1.59666E-19-2.77744E-18
 -1        10 6.99347E-05 3.49821E-07-3.01904E-05 2.94506E-06-8.42798E-20-5.05227E-18
 -1        11 5.43742E-05 7.10056E-07-2.43029E-05 1.39335E-06-4.30928E-20-6.38389E-18
 -1        12 4.54725E-05 9.17448E-07-2.09625E-05-5.00097E-06-8.35916E-20-7.03689E-18
 -1        13 4.60422E-05 7.89867E-07-2.09871E-05-1.25586E-05-1.61201E-19-7.26290E-18
 -1        14 5.44419E-05 4.11326E-07-2.38372E-05-1.68087E-05-2.05194E-19-7.18231E-18
 -1        15 6.62302E-05 1.00790E-08-2.80825E-05-1.58074E-05-1.94712E-19-7.12329E-18
 -1        16 7.72799E-05-2.54589E-07-3.23139E-05-1.02139E-05-1.53631E-19-7.05822E-18
 -1        17 8.50901E-05-3.29915E-07-3.55416E-05-2.35603E-06-6.20452E-20-7.10458E-18
 -1        18 8.95425E-05-2.72056E-07-3.75753E-05 5.71764E-06 1.38966E-20-7.05400E-18
 -1        19 9.16615E-05-1.47693E-07-3.87089E-05 1.29781E-05 1.24381E-19-6.55861E-18
 -1        20 9.28659E-05 1.52777E-08-3.94833E-05 1.93029E-05 2.43522E-19-5.08995E-18
 -1        21 9.49823E-05 2.31195E-07-4.06539E-05 2.53200E-05 3.32566E-19-1.45833E-18
 -1        22 1.02563E-04 4.15227E-08-4.35227E-05 3.34561E-05 7.84564E-20 6.80674E-18
 -1        23 1.73076E-04-5.84095E-05-5.32414E-05-3.20319E-06-8.66038E-19 2.29209E-17
 -1        24 1.53560E-04-4.59732E-05-4.67409E-05 6.67025E-07-1.85574E-19 1.98359E-17
 -1        25 1.45572E-04-4.38732E-05-4.31010E-05-2.21539E-07-4.43435E-20 1.69375E-17
 -1        26 1.31023E-04-3.94664E-05-3.87297E-05-1.40315E-06-9.43317E-21 1.48020E-17
 -1        27 1.10697E-04-3.32229E-05-3.34409E-05-2.00159E-06-1.87357E-19 1.24946E-17
 -1        28 9.29074E-05-2.76837E-05-2.91192E-05-1.23677E-06 1.06647E-19 9.89282E-18
 -1        29 8.81164E-05-2.61889E-05-2.79153E-05 5.82594E-07 4.42310E-20 6.92952E-18
 -1        30 9.86072E-05-2.94886E-05-3.02604E-05 1.89362E-06-1.59742E-19 3.19924E-18
 -1        31 1.15820E-04-3.48002E-05-3.44612E-05 1.80664E-06 1.18353E-20 1.72318E-19
 -1        32 1.29354E-04-3.88792E-05-3.81341E-05 9.35569E-07-1.01091E-19-7.47030E-19
 -1        33 1.34762E-04-4.04531E-05-3.98809E-05 1.48945E-07 6.64921E-20-1.31244E-18
 -1        34 1.33248E-04-3.99615E-05-3.97015E-05-2.47127E-07-7.01449E-22-1.26903E-18
 -1        35 1.27961E-04-3.83680E-05-3.83255E-05-3.43408E-07 2.29388E-19-8.35572E-19
 -1        36 1.21524E-04-3.64473E-05-3.64975E-05-3.01176E-07-2.80689E-19-2.63943E-19
 -1        37 1.15425E-04-3.46307E-05-3.46995E-05-2.22524E-07-1.00019E-19-5.00835E-19
 -1        38 1.10273E-04-3.30945E-05-3.31520E-05-1.50335E-07-3.08335E-19-1.27546E-18
 -1        39 1.06187E-04-3.18729E-05-3.19128E-05-9.60747E-08-1.30872E-19-2.86757E-18
 -1        40 1.03065E-04-3.09367E-05-3.09617E-05-5.88716E-08 2.88573E-19-3.32891E-18
 -1        41 1.00734E-04-3.02361E-05-3.02507E-05-3.45820E-08 2.78433E-20-4.29779E-18
 -1        42 9.90237E-05-2.97207E-05-2.97286E-05-1.91787E-08 2.24451E-19-3.67328E-18
 -1        43 9.77848E-05-2.93466E-05-2.93504E-05-9.61461E-09-2.84536E-20-3.38044E-18
 -1        44 9.68989E-05-2.90785E-05-2.90801E-05-3.80072E-09 7.01027E-20-1.54120E-18
 -1        45 9.62743E-05-2.88892E-05-2.88895E-05-3.68380E-10-3.61112E-19-1.36145E-18
 -1        46 9.58412E-05-2.87577E-05-2.87573E-05 1.56097E-09-2.77606E-19-3.10147E-18
 -1        47 9.55474E-05-2.86683E-05-2.86675E-05 2.54748E-09 1.19955E-19-2.30918E-18
 -1        48 9.53538E-05-2.86092E-05-2.86084E-05 2.94884E-09 9.93532E-20-1.86439E-18
 -1        49 9.52315E-05-2.85717E-05-2.85709E-05 2.99475E-09 1.48941E-19-2.48308E-19
 -1        50 9.51592E-05-2.85494E-05-2.85486E-05 2.83363E-09-9.80469E-20-6.75328E-19
 -1        51 9.51210E-05-2.85375E-05-2.85368E-05 2.56159E-09 3.72091E-19-4.06625E-19
 -1        52 9.51056E-05-2.85325E-05-2.85319E-05 2.24049E-09-3.01862E-20 7.31023E-19
 -1        53 9.51048E-05-2.85320E-05-2.85315E-05 1.90946E-09-3.36705E-20 1.58058E-18
 -1        54 9.51128E-05-2.85342E-05-2.85338E-05 1.59236E-09 1.12582E-19 1.29312E-18
 -1        55 9.51255E-05-2.85379E-05-2.85375E-05 1.30272E-09-5.69760E-19 1.94029E-18
 -1        56 9.51403E-05-2.85422E-05-2.85420E-05 1.04719E-09 4.08471E-20-4.29228E-19
 -1        57 9.51554E-05-2.85467E-05-2.85465E-05 8.27825E-10 3.34418E-19-1.15652E-18
 -1        58 9.51697E-05-2.85510E-05-2.85508E-05 6.43802E-10 5.40158E-19 4.72996E-19
 -1        59 9.51827E-05-2.85548E-05-2.85547E-05 4.92551E-10-8.71854E-19-3.13719E-18
 -1        60 9.51940E-05-2.85582E-05-2.85581E-05 3.70582E-10-3.39514E-19-4.15733E-18
 -1        61 9.52037E-05-2.85611E-05-2.85610E-05 2.74037E-10 1.14592E-18-1.09285E-18
 -1        62 9.52117E-05-2.85635E-05-2.85634E-05 1.99052E-10-1.74505E-19 3.16314E-19
 -1        63 9.52182E-05-2.85654E-05-2.85654E-05 1.41983E-10-2.24931E-19 2.47604E-19
 -1        64 9.52235E-05-2.85670E-05-2.85670E-05 9.95141E-11-2.12851E-19-5.35304E-19
 -1        65 9.52277E-05-2.85683E-05-2.85683E-05 6.86693E-11 3.08303E-20-4.35534E-20
 -1        66 9.52309E-05-2.85692E-05-2.85692E-05 4.67288E-11 3.71230E-19 1.08097E-18
 -1        67 9.52334E-05-2.85700E-05-2.85700E-05 3.09679E-11-3.49316E-19 2.43101E-18
 -1        68 9.52352E-05-2.85705E-05-2.85705E-05 1.80712E-11 5.39781E-19 1.91731E-18
 -1        69 9.52364E-05-2.85709E-05-2.85709E-05 3.13946E-12 3.05919E-19 2.46291E-18
 -1        70 9.52371E-05-2.85711E-05-2.85711E-05-2.44404E-11 5.81396E-20 5.01244E-18
 -1        71 9.52373E-05-2.85712E-05-2.85712E-05-5.89089E-11-1.90578E-19 4.30944E-18
 -1        72 1.14588E-04-3.43131E-05-3.82763E-05-2.10425E-06 5.30084E-19 2.36914E-17
 -1        73 1.00653E-04-2.99117E-05-3.14433E-05-3.20280E-07 2.81546E-19 1.67686E-17
 -1        74 9.29623E-05-2.78761E-05-2.81126E-05 5.73972E-09 1.34902E-19 1.16823E-17
 -1        75 8.73707E-05-2.62635E-05-2.62421E-05 1.24156E-07 1.00885E-19 8.24354E-18
 -1        76 8.32546E-05-2.50133E-05-2.50510E-05 1.68634E-07-5.12141E-20 6.17978E-18
 -1        77 8.10197E-05-2.43131E-05-2.44467E-05 1.23766E-07 3.49608E-20 4.83579E-18
 -1        78 8.11434E-05-2.43286E-05-2.45015E-05 8.13706E-09 4.32252E-20 3.98790E-18
 -1        79 8.35965E-05-2.50578E-05-2.51968E-05-1.26007E-07 8.43484E-20 2.42552E-18
 -1        80 8.77157E-05-2.62992E-05-2.63574E-05-2.23973E-07-3.05788E-20 1.47966E-18
 -1        81 9.24627E-05-2.77342E-05-2.77067E-05-2.57603E-07 1.24873E-19-4.60548E-19
 -1        82 9.68328E-05-2.90546E-05-2.89689E-05-2.31865E-07 3.69497E-20-2.01810E-18
 -1        83 1.00159E-04-3.00571E-05-2.99509E-05-1.71797E-07 5.51638E-20-2.19500E-18
 -1        84 1.02199E-04-3.06690E-05-3.05723E-05-1.04150E-07-1.76682E-20-2.35483E-18
 -1        85 1.03043E-04-3.09202E-05-3.08481E-05-4.65367E-08 1.33260E-19-2.95542E-18
 -1        86 1.02967E-04-3.08946E-05-3.08498E-05-5.88659E-09 1.36714E-19-6.01809E-18
 -1        87 1.02290E-04-3.06892E-05-3.06671E-05 1.81843E-08-1.76896E-19-5.95128E-18
 -1        88 1.01294E-04-3.03892E-05-3.03831E-05 2.93863E-08 5.10196E-20-3.60176E-18
 -1        89 1.00194E-04-3.00583E-05-3.00620E-05 3.20449E-08 1.52398E-19-4.83228E-18
 -1        90 9.91280E-05-2.97385E-05-2.97469E-05 2.98004E-08-1.73962E-19-6.75459E-18
 -1        91 9.81767E-05-2.94531E-05-2.94632E-05 2.52463E-08 1.67824E-19-6.88447E-18
 -1        92 9.73745E-05-2.92126E-05-2.92224E-05 2.00196E-08-1.01673E-19-5.74358E-18
 -1        93 9.67278E-05-2.90187E-05-2.90273E-05 1.50378E-08-3.53981E-19-4.60679E-18
 -1        94 9.62259E-05-2.88682E-05-2.88752E-05 1.07374E-08 1.19790E-19-5.28339E-18
 -1        95 9.58499E-05-2.87554E-05-2.87609E-05 7.26111E-09-8.67934E-20-5.68797E-18
 -1        96 9.55779E-05-2.86738E-05-2.86779E-05 4.58978E-09-1.50852E-19-2.31796E-18
 -1        97 9.53887E-05-2.86170E-05-2.86200E-05 2.62595E-09 3.15250E-19-4.32673E-18
 -1        98 9.52631E-05-2.85793E-05-2.85813E-05 1.24402E-09-2.11370E-19-5.73240E-18
 -1        99 9.51847E-05-2.85557E-05-2.85570E-05 3.17825E-10 1.79246E-20-7.04144E-18
 -1       100 9.51404E-05-2.85424E-05-2.85432E-05-2.65644E-10 1.17468E-19-7.94121E-18
 -1       101 9.51196E-05-2.85361E-05-2.85365E-05-6.00913E-10 4.62798E-20-8.74698E-18
 -1       102 9.51147E-05-2.85346E-05-2.85347E-05-7.63279E-10 8.30890E-20-9.96937E-18
 -1       103 9.51195E-05-2.85360E-05-2.85360E-05-8.10461E-10 6.37322E-20-1.02648E-17
 -1       104 9.51300E-05-2.85391E-05-2.85390E-05-7.85221E-10-9.65801E-20-9.50365E-18
 -1       105 9.51433E-05-2.85431E-05-2.85429E-05-7.18219E-10 2.46203E-19-7.74641E-18
 -1       106 9.51574E-05-2.85473E-05-2.85471E-05-6.30675E-10-8.46093E-19-8.25720E-18
 -1       107 9.51710E-05-2.85513E-05-2.85512E-05-5.36687E-10-4.67207E-20-8.83434E-18
 -1       108 9.51835E-05-2.85551E-05-2.85549E-05-4.45131E-10 1.01868E-19-8.75357E-18
 -1       109 9.51946E-05-2.85584E-05-2.85583E-05-3.61173E-10 1.05372E-19-5.61293E-18
 -1       110 9.52041E-05-2.85612E-05-2.85611E-05-2.87425E-10-2.93088E-19-6.33821E-18
 -1       111 9.52119E-05-2.85636E-05-2.85635E-05-2.24819E-10 4.41907E-19-4.16887E-18
 -1       112 9.52184E-05-2.85655E-05-2.85654E-05-1.73233E-10 2.16170E-19-4.62449E-18
 -1       113 9.52236E-05-2.85671E-05-2.85670E-05-1.31934E-10-2.23947E-19-3.40569E-18
 -1       114 9.52277E-05-2.85683E-05-2.85683E-05-9.98642E-11-1.02701E-20-3.37151E-18
 -1       115 9.52310E-05-2.85693E-05-2.85692E-05-7.57582E-11 1.72868E-20-6.80662E-18
 -1       116 9.52334E-05-2.85700E-05-2.85700E-05-5.80762E-11 3.57308E-19-4.83288E-18
 -1       117 9.52352E-05-2.85706E-05-2.85705E-05-4.48346E-11-7.14181E-20-6.53679E-18
 -1       118 9.52365E-05-2.85709E-05-2.85709E-05-3.18850E-11-3.83202E-19-5.46966E-18
 -1       119 9.52371E-05-2.85711E-05-2.85711E-05-6.77131E-12 2.27396E-19-3.17558E-18
 -1       120 9.52373E-05-2.85712E-05-2.85712E-05 4.62224E-11 1.73601E-18-6.01988E-18
 -1       121 9.52371E-05-2.85710E-05-2.85712E-05 6.53690E-11-7.06924E-18 4.08114E-19
 -1       122 9.52372E-05-2.85712E-05-2.85711E-05 7.50452E-12-6.69439E-18-1.56232E-18
 -1       123 9.52374E-05-2.85719E-05-2.85709E-05-3.06035E-11-1.50067E-18 2.40946E-18
 -1       124 9.52377E-05-2.85729E-05-2.85706E-05-4.89664E-11 1.07077E-18 6.89912E-19
 -1       125 9.52380E-05-2.85741E-05-2.85703E-05-5.20029E-11 1.59003E-18-1.73864E-18
 -1       126 9.52383E-05-2.85752E-05-2.85699E-05-4.49050E-11-6.50425E-18-1.56545E-18
 -1       127 9.52386E-05-2.85760E-05-2.85697E-05-2.98551E-11-6.29923E-18 1.64828E-18
 -1       128 9.52387E-05-2.85765E-05-2.85696E-05-1.02915E-11-2.59125E-18-8.63460E-19
 -1       129 9.52387E-05-2.85765E-05-2.85696E-05 1.07412E-11 6.27871E-19 1.56662E-19
 -1       130 9.52386E-05-2.85760E-05-2.85697E-05 3.01961E-11 3.43402E-18-1.04514E-18
 -1       131 9.52383E-05-2.85752E-05-2.85699E-05 4.54646E-11 1.32631E-18-6.28385E-19
 -1       132 9.52380E-05-2.85741E-05-2.85703E-05 5.20984E-11-1.64072E-18 1.21478E-18
 -1       133 9.52377E-05-2.85729E-05-2.85706E-05 4.85903E-11-2.75607E-18-4.22257E-19
 -1       134 9.52374E-05-2.85719E-05-2.85709E-05 3.40540E-11-1.89816E-18 6.90958E-19
 -1       135 9.52372E-05-2.85712E-05-2.85711E-05-1.05322E-11-4.52359E-18-1.64281E-18
 -1       136 9.52371E-05-2.85710E-05-2.85712E-05-1.05747E-10-4.96491E-18 4.97588E-19
 -1       137 2.27939E-05-7.53148E-05 1.21220E-05-1.94651E-05 1.31061E-17 3.08826E-18
 -1       138 6.98173E-06-2.51927E-05 3.97459E-07-1.22568E-05 2.36771E-17 1.13905E-17
 -1       139 1.41958E-05 1.99668E-05-1.75769E-05 3.10640E-05 2.75315E-17 2.05367E-17
 -1       140 7.00797E-05 2.73865E-05-3.93434E-05 8.85407E-05 2.28644E-17 2.68780E-17
 -1       141 1.57765E-04-7.63975E-06-5.73067E-05 1.15507E-04 1.34515E-17 2.44132E-17
 -1       142 2.49916E-04-6.05948E-05-7.07737E-05 9.04015E-05 4.00885E-18 1.30206E-17
 -1       143 2.95523E-04-9.04949E-05-7.63318E-05 2.25582E-05 1.53339E-19-2.55976E-18
 -1       144 2.75628E-04-7.91438E-05-7.37618E-05-5.50113E-05 3.52309E-18-1.82178E-17
 -1       145 2.00767E-04-3.51856E-05-6.36815E-05-1.02461E-04 1.20569E-17-3.03098E-17
 -1       146 1.13759E-04 9.41268E-06-4.94561E-05-1.02792E-04 2.21806E-17-3.39766E-17
 -1       147 4.07902E-05 3.11692E-05-3.16576E-05-6.61297E-05 3.03348E-17-3.06520E-17
 -1       148 7.82599E-06 1.72115E-05-1.49162E-05-2.17480E-05 3.23711E-17-2.10037E-17
 -1       149 6.02333E-06-1.87699E-05-9.38088E-07 7.63206E-06 2.59709E-17-1.04512E-17
 -1       150 1.80855E-05-5.58694E-05 8.22963E-06 8.88150E-06 1.28751E-17-2.53175E-18
 -1       151 2.36511E-05-7.23228E-05 1.17434E-05-6.69122E-06-5.58933E-18-9.66412E-19
 -1       152 1.46282E-05-5.64039E-05 8.30735E-06-2.24434E-05-2.09586E-17-6.75683E-18
 -1       153 5.14344E-06-1.79232E-05-3.02561E-06-1.04043E-05-3.20632E-17-1.83997E-17
 -1       154 1.72265E-05 1.54549E-05-1.92205E-05 2.86727E-05-3.41020E-17-3.01908E-17
 -1       155 7.97944E-05 1.50984E-05-4.02729E-05 8.21225E-05-2.77225E-17-3.73423E-17
 -1       156 1.76941E-04-2.27161E-05-5.94352E-05 1.06148E-04-1.68200E-17-3.58790E-17
 -1       157 2.75339E-04-7.40913E-05-7.42533E-05 7.64159E-05-5.86501E-18-2.49273E-17
 -1       158 2.97303E-04-8.25565E-05-7.85299E-05-7.49176E-05-2.75864E-18 1.03097E-17
 -1       159 2.15045E-04-3.45608E-05-6.75251E-05-1.16956E-04-1.11666E-17 2.51755E-17
 -1       160 1.19553E-04 1.13772E-05-5.13536E-05-1.10550E-04-2.10500E-17 3.14766E-17
 -1       161 4.13628E-05 2.89213E-05-3.09549E-05-6.45139E-05-2.78648E-17 2.85539E-17
 -1       162 7.62782E-06 6.25689E-06-1.16436E-05-1.17013E-05-2.93069E-17 1.96967E-17
 -1       163 1.00713E-05-4.09108E-05 4.02025E-06 2.00968E-05-2.47346E-17 1.05648E-17
 -1       164 2.59982E-05-8.53639E-05 1.41666E-05 2.08762E-05-1.53048E-17 3.32250E-18
 -1       165 1.30086E-04-2.21565E-05-4.64943E-05-1.79258E-05-2.38993E-18 4.60897E-18
 -1       166 1.07331E-04-1.51806E-05-3.96919E-05-8.58289E-06-1.65195E-18 1.79968E-19
 -1       167 8.44872E-05-8.26199E-06-3.27776E-05-1.27050E-06-7.92320E-19-2.79322E-18
 -1       168 6.10388E-05 3.26761E-07-2.63611E-05 1.55141E-06-3.11973E-19-4.96129E-18
 -1       169 4.26105E-05 7.94881E-06-2.17044E-05-1.96974E-06-7.45733E-19-6.34764E-18
 -1       170 3.68728E-05 9.92779E-06-2.00764E-05-9.70076E-06-1.74141E-18-6.90028E-18
 -1       171 4.54045E-05 5.10857E-06-2.16715E-05-1.59377E-05-2.66856E-18-6.70398E-18
 -1       172 6.20487E-05-2.88039E-06-2.53921E-05-1.67256E-05-2.90700E-18-6.12435E-18
 -1       173 7.88941E-05-9.57003E-06-2.97532E-05-1.19306E-05-2.39173E-18-5.66920E-18
 -1       174 9.06407E-05-1.27058E-05-3.34595E-05-4.20455E-06-1.35381E-18-5.43859E-18
 -1       175 9.67383E-05-1.29210E-05-3.60019E-05 3.86777E-06-1.18512E-19-5.45561E-18
 -1       176 9.89772E-05-1.18217E-05-3.74607E-05 1.10560E-05 1.10500E-18-5.25175E-18
 -1       177 9.96015E-05-1.07911E-05-3.82116E-05 1.72233E-05 2.28756E-18-4.41775E-18
 -1       178 1.00939E-04-1.10297E-05-3.87482E-05 2.27078E-05 3.30843E-18-2.21102E-18
 -1       179 1.06769E-04-1.52110E-05-3.95146E-05 2.76016E-05 3.74733E-18 2.50055E-18
 -1       180 1.17682E-04-2.88917E-05-3.94371E-05 2.32693E-05 3.28407E-18 9.23488E-18
 -1       181 1.50552E-04-4.26508E-05-4.62611E-05-1.07903E-05-2.01808E-18 1.00465E-17
 -1       182 1.44069E-04-4.46483E-05-4.26388E-05-8.34253E-06-1.49057E-18 9.50708E-18
 -1       183 1.37521E-04-4.33520E-05-4.03169E-05-1.30626E-05-1.12265E-18 9.04275E-18
 -1       184 1.29070E-04-3.96543E-05-3.83338E-05-1.79610E-05-1.76707E-18 8.18001E-18
 -1       185 1.18893E-04-3.34268E-05-3.67606E-05-1.59325E-05-2.34849E-18 6.33718E-18
 -1       186 1.12076E-04-2.90023E-05-3.58203E-05-4.59399E-06-2.73216E-18 3.46814E-18
 -1       187 1.13033E-04-3.04865E-05-3.55614E-05 8.84059E-06-2.91496E-18 2.43575E-19
 -1       188 1.19369E-04-3.57061E-05-3.59314E-05 1.44399E-05-1.87015E-18-1.78794E-18
 -1       189 1.25074E-04-3.95751E-05-3.66522E-05 1.08957E-05-6.13292E-19-2.20449E-18
 -1       190 1.26979E-04-4.02961E-05-3.71548E-05 3.73914E-06-1.41130E-19-2.05953E-18
 -1       191 1.25363E-04-3.89931E-05-3.70321E-05-2.21282E-06-6.68693E-21-2.31530E-18
 -1       192 1.21675E-04-3.70486E-05-3.62892E-05-5.41554E-06 4.52446E-19-2.00544E-18
 -1       193 1.17220E-04-3.51875E-05-3.51708E-05-6.35936E-06 9.57859E-20-1.92216E-18
 -1       194 1.12824E-04-3.36276E-05-3.39457E-05-6.00876E-06-8.95142E-20-1.75572E-18
 -1       195 1.08908E-04-3.23835E-05-3.27936E-05-5.11164E-06-4.85133E-20-1.30549E-18
 -1       196 1.05630E-04-3.14127E-05-3.18010E-05-4.09895E-06-8.36960E-19-1.39152E-18
 -1       197 1.02994E-04-3.06646E-05-3.09907E-05-3.17065E-06-1.33817E-19-1.28866E-18
 -1       198 1.00932E-04-3.00937E-05-3.03519E-05-2.39559E-06-6.47857E-19-1.98363E-18
 -1       199 9.93512E-05-2.96623E-05-2.98602E-05-1.77984E-06-3.55239E-19-2.79097E-18
 -1       200 9.81581E-05-2.93395E-05-2.94884E-05-1.30451E-06 1.52727E-19-3.61993E-18
 -1       201 9.72699E-05-2.91006E-05-2.92113E-05-9.44079E-07 9.78529E-19-3.03100E-18
 -1       202 9.66175E-05-2.89259E-05-2.90075E-05-6.74087E-07 6.62692E-20-1.86205E-18
 -1       203 9.61447E-05-2.88000E-05-2.88596E-05-4.73798E-07-3.96273E-19-8.33731E-19
 -1       204 9.58074E-05-2.87107E-05-2.87539E-05-3.26567E-07 3.14840E-19-5.21675E-19
 -1       205 9.55713E-05-2.86488E-05-2.86797E-05-2.19411E-07 4.36419E-20-5.87998E-19
 -1       206 9.54098E-05-2.86069E-05-2.86288E-05-1.42339E-07 3.77020E-19-1.40511E-18
 -1       207 9.53027E-05-2.85797E-05-2.85948E-05-8.77150E-08 1.23399E-19-1.41188E-18
 -1       208 9.52347E-05-2.85629E-05-2.85731E-05-4.97230E-08 1.91286E-19-1.85521E-18
 -1       209 9.51942E-05-2.85533E-05-2.85600E-05-2.39435E-08 9.69989E-19-8.68601E-19
 -1       210 9.51728E-05-2.85487E-05-2.85529E-05-7.03000E-09 1.41385E-19 9.61376E-20
 -1       211 9.51641E-05-2.85474E-05-2.85498E-05 3.54025E-09-5.16028E-19 1.86126E-19
 -1       212 9.51636E-05-2.85482E-05-2.85494E-05 9.65623E-09-2.57894E-19 4.05037E-19
 -1       213 9.51680E-05-2.85501E-05-2.85505E-05 1.27197E-08-1.21923E-18-4.67391E-19
 -1       214 9.51751E-05-2.85526E-05-2.85525E-05 1.37589E-08 9.57866E-19 8.03737E-19
 -1       215 9.51833E-05-2.85553E-05-2.85549E-05 1.35166E-08 5.04463E-19-1.78073E-19
 -1       216 9.51918E-05-2.85579E-05-2.85574E-05 1.25198E-08-2.86423E-18-1.64807E-18
 -1       217 9.51998E-05-2.85604E-05-2.85597E-05 1.11330E-08-8.55311E-19-2.40677E-18
 -1       218 9.52070E-05-2.85625E-05-2.85619E-05 9.60060E-09 1.11221E-18-1.44616E-18
 -1       219 9.52134E-05-2.85644E-05-2.85639E-05 8.07918E-09 8.77849E-19-2.72889E-18
 -1       220 9.52188E-05-2.85660E-05-2.85655E-05 6.66200E-09-2.20870E-19-2.22618E-18
 -1       221 9.52233E-05-2.85673E-05-2.85669E-05 5.39768E-09 3.97893E-20-2.18635E-18
 -1       222 9.52270E-05-2.85684E-05-2.85680E-05 4.30373E-09 4.53793E-19-1.31375E-18
 -1       223 9.52299E-05-2.85692E-05-2.85689E-05 3.37613E-09 1.77609E-18-3.14595E-19
 -1       224 9.52322E-05-2.85699E-05-2.85696E-05 2.59566E-09 1.63490E-18 1.08284E-18
 -1       225 9.52340E-05-2.85704E-05-2.85701E-05 1.93195E-09 5.32203E-19 1.87093E-18
 -1       226 9.52354E-05-2.85708E-05-2.85706E-05 1.34660E-09-3.57381E-19 1.06710E-18
 -1       227 9.52363E-05-2.85710E-05-2.85708E-05 8.02171E-10 1.37959E-18 6.65636E-19
 -1       228 9.52369E-05-2.85712E-05-2.85710E-05 2.87691E-10 1.74263E-19 1.76958E-18
 -1       229 1.09173E-04-3.14526E-05-3.35248E-05 1.08376E-05 3.15327E-18 8.03189E-18
 -1       230 1.00869E-04-2.98136E-05-3.04168E-05 6.47879E-06 2.30795E-18 5.81559E-18
 -1       231 9.52335E-05-2.83133E-05-2.86267E-05 4.73131E-06 1.62008E-18 4.31842E-18
 -1       232 9.12629E-05-2.70399E-05-2.74960E-05 3.25418E-06 1.14788E-18 3.12754E-18
 -1       233 8.89380E-05-2.62230E-05-2.68685E-05 1.42395E-06 7.73162E-19 1.92511E-18
 -1       234 8.84191E-05-2.60450E-05-2.67297E-05-6.40782E-07 7.42226E-19 7.23325E-19
 -1       235 8.96172E-05-2.65184E-05-2.70398E-05-2.46398E-06 8.28534E-19 2.97586E-20
 -1       236 9.20615E-05-2.74557E-05-2.76826E-05-3.58343E-06 5.98541E-19-7.38815E-19
 -1       237 9.50394E-05-2.85582E-05-2.84845E-05-3.81436E-06 1.06830E-18-1.39780E-18
 -1       238 9.78554E-05-2.95486E-05-2.92678E-05-3.29217E-06 6.59278E-19-1.92574E-18
 -1       239 1.00032E-04-3.02610E-05-2.98986E-05-2.33918E-06 1.68426E-19-2.39759E-18
 -1       240 1.01375E-04-3.06520E-05-3.03096E-05-1.28855E-06 1.15417E-19-2.94229E-18
 -1       241 1.01914E-04-3.07623E-05-3.04957E-05-3.73132E-07 8.68980E-19-3.92795E-18
 -1       242 1.01811E-04-3.06687E-05-3.04930E-05 2.98805E-07 8.66299E-19-3.47038E-18
 -1       243 1.01273E-04-3.04503E-05-3.03559E-05 7.14789E-07-3.11607E-19-3.45417E-18
 -1       244 1.00491E-04-3.01721E-05-3.01391E-05 9.15373E-07-7.34029E-19-3.55387E-18
 -1       245 9.96155E-05-2.98806E-05-2.98879E-05 9.59558E-07 9.83206E-19-2.99330E-18
 -1       246 9.87523E-05-2.96049E-05-2.96353E-05 9.04160E-07 6.57166E-19-3.62792E-18
 -1       247 9.79652E-05-2.93611E-05-2.94018E-05 7.94765E-07-2.78388E-19-4.05633E-18
 -1       248 9.72862E-05-2.91556E-05-2.91984E-05 6.63809E-07-1.18597E-18-3.22780E-18
 -1       249 9.67252E-05-2.89890E-05-2.90291E-05 5.32111E-07-4.31313E-19-2.96454E-18
 -1       250 9.62781E-05-2.88583E-05-2.88934E-05 4.11564E-07 1.89484E-19-2.86053E-18
 -1       251 9.59331E-05-2.87590E-05-2.87881E-05 3.07823E-07-3.45769E-19-2.51235E-18
 -1       252 9.56750E-05-2.86858E-05-2.87090E-05 2.22528E-07-1.01664E-18-3.02762E-18
 -1       253 9.54881E-05-2.86335E-05-2.86513E-05 1.54947E-07 1.20594E-18-2.08006E-18
 -1       254 9.53573E-05-2.85975E-05-2.86108E-05 1.03119E-07 2.56298E-19-2.87727E-18
 -1       255 9.52696E-05-2.85739E-05-2.85835E-05 6.45808E-08 7.44719E-19-2.88940E-18
 -1       256 9.52141E-05-2.85593E-05-2.85660E-05 3.68175E-08 6.26881E-19-4.55797E-18
 -1       257 9.51817E-05-2.85512E-05-2.85557E-05 1.75057E-08-1.33352E-19-5.21864E-18
 -1       258 9.51657E-05-2.85476E-05-2.85504E-05 4.62951E-09 3.25536E-19-4.63547E-18
 -1       259 9.51605E-05-2.85469E-05-2.85485E-05-3.48398E-09-1.25482E-19-3.82284E-18
 -1       260 9.51623E-05-2.85480E-05-2.85489E-05-8.17562E-09-3.03824E-19-4.21714E-18
 -1       261 9.51682E-05-2.85502E-05-2.85505E-05-1.04888E-08-2.79248E-20-3.89737E-18
 -1       262 9.51762E-05-2.85529E-05-2.85528E-05-1.12138E-08-2.20576E-19-3.86548E-18
 -1       263 9.51849E-05-2.85557E-05-2.85554E-05-1.09336E-08 1.17919E-18-5.88667E-18
 -1       264 9.51936E-05-2.85584E-05-2.85580E-05-1.00665E-08-7.42932E-19-6.14444E-18
 -1       265 9.52017E-05-2.85608E-05-2.85604E-05-8.90345E-09-1.32094E-18-4.53675E-18
 -1       266 9.52089E-05-2.85630E-05-2.85625E-05-7.63909E-09 4.18905E-19-2.39838E-18
 -1       267 9.52151E-05-2.85648E-05-2.85644E-05-6.39706E-09-4.35429E-19-2.98172E-18
 -1       268 9.52203E-05-2.85663E-05-2.85660E-05-5.24970E-09-4.13056E-19-2.25384E-18
 -1       269 9.52246E-05-2.85676E-05-2.85673E-05-4.23312E-09-7.32420E-19-9.26990E-19
 -1       270 9.52281E-05-2.85686E-05-2.85684E-05-3.35813E-09 6.86759E-19-2.16716E-18
 -1       271 9.52309E-05-2.85694E-05-2.85692E-05-2.61806E-09 1.32288E-18-2.55907E-18
 -1       272 9.52330E-05-2.85700E-05-2.85699E-05-1.99347E-09-8.62275E-19-2.88308E-18
 -1       273 9.52347E-05-2.85705E-05-2.85704E-05-1.45654E-09 1.66552E-20-1.64582E-18
 -1       274 9.52358E-05-2.85709E-05-2.85707E-05-9.72650E-10-5.68004E-19-9.14573E-19
 -1       275 9.52366E-05-2.85711E-05-2.85709E-05-5.08116E-10-6.03538E-19-1.85791E-18
 -1       276 9.52370E-05-2.85712E-05-2.85711E-05-8.71615E-11 8.83323E-19-2.59281E-18
 -1       277 9.52371E-05-2.85714E-05-2.85710E-05-3.19686E-10-7.09222E-19 7.48042E-19
 -1       278 9.52373E-05-2.85720E-05-2.85708E-05-7.69367E-10-1.25101E-18 1.50421E-18
 -1       279 9.52375E-05-2.85727E-05-2.85706E-05-1.09854E-09-3.01655E-18 2.14902E-18
 -1       280 9.52379E-05-2.85736E-05-2.85704E-05-1.22024E-09-1.74070E-18 1.22385E-18
 -1       281 9.52382E-05-2.85745E-05-2.85702E-05-1.13506E-09-1.81100E-18-5.01271E-18
 -1       282 9.52385E-05-2.85752E-05-2.85700E-05-8.66912E-10 3.98875E-19-1.00636E-18
 -1       283 9.52386E-05-2.85757E-05-2.85698E-05-4.65765E-10-1.11672E-18 9.01752E-19
 -1       284 9.52387E-05-2.85759E-05-2.85698E-05 4.57216E-12 3.21597E-19 2.14239E-18
 -1       285 9.52386E-05-2.85757E-05-2.85698E-05 4.74218E-10 6.62084E-19 9.02346E-19
 -1       286 9.52385E-05-2.85752E-05-2.85700E-05 8.73437E-10 6.16260E-19 1.33864E-19
 -1       287 9.52382E-05-2.85745E-05-2.85702E-05 1.13572E-09 4.97538E-19-2.43395E-18
 -1       288 9.52379E-05-2.85736E-05-2.85704E-05 1.22048E-09 6.08510E-21-9.63208E-19
 -1       289 9.52375E-05-2.85727E-05-2.85706E-05 1.09300E-09 2.58405E-19-7.76917E-20
 -1       290 9.52373E-05-2.85720E-05-2.85708E-05 7.62627E-10-9.20707E-19-1.63059E-18
 -1       291 9.52370E-05-2.85715E-05-2.85709E-05 5.79932E-10-8.79357E-19-2.48475E-18
 -1       292 1.13379E-05-3.72324E-05 8.26285E-06 1.14787E-05 7.39460E-19 7.19311E-18
 -1       293 2.57416E-05-3.58327E-05 1.67891E-06 2.45429E-05 4.86387E-18 8.28618E-18
 -1       294 5.57266E-05-3.15914E-05-1.16186E-05 4.06868E-05 6.45820E-18 8.45641E-18
 -1       295 9.97282E-05-3.30464E-05-2.86436E-05 4.62221E-05 7.01153E-18 7.00242E-18
 -1       296 1.36905E-04-2.70514E-05-4.58188E-05 4.80876E-05 9.29375E-18 6.50627E-18
 -1       297 1.75571E-04-2.94071E-05-5.99183E-05 4.19142E-05 8.58936E-18 3.77861E-18
 -1       298 2.00986E-04-3.41255E-05-6.81840E-05 2.26001E-05 7.31466E-18-7.45601E-19
 -1       299 2.02133E-04-3.34096E-05-6.92262E-05-2.00069E-06 7.93490E-18-5.65934E-18
 -1       300 1.86420E-04-3.19042E-05-6.37909E-05-2.47613E-05 9.56094E-18-9.63458E-18
 -1       301 1.54895E-04-2.67278E-05-5.34383E-05-4.36525E-05 1.15049E-17-1.33831E-17
 -1       302 1.16097E-04-2.40204E-05-3.92555E-05-4.49784E-05 1.12886E-17-1.18254E-17
 -1       303 6.88683E-05-1.39272E-05-2.43361E-05-4.56614E-05 1.29971E-17-1.35057E-17
 -1       304 4.12578E-05-1.61436E-05-1.18050E-05-3.80382E-05 7.41323E-18-1.05017E-17
 -1       305 1.47861E-05-1.80031E-05-6.80789E-07-2.14032E-05 6.32797E-18-9.40095E-18
 -1       306 4.01724E-06-1.57826E-05 3.38132E-06-1.13938E-05-4.08958E-19-9.57433E-18
 -1       307 6.87482E-06-2.40362E-05 4.69835E-06 2.25642E-06-5.87947E-18-9.48010E-18
 -1       308 2.64167E-05-2.34581E-05-3.17936E-06 2.11925E-05-8.00319E-18-1.12923E-17
 -1       309 5.50160E-05-2.72156E-05-1.40791E-05 3.06639E-05-1.33791E-17-1.42310E-17
 -1       310 1.05557E-04-3.62831E-05-3.04403E-05 3.69948E-05-1.23097E-17-1.37463E-17
 -1       311 1.51353E-04-3.76607E-05-4.77379E-05 3.64680E-05-1.28851E-17-1.47092E-17
 -1       312 1.92802E-04-4.05058E-05-6.23859E-05 2.45365E-05-1.09870E-17-1.12808E-17
 -1       313 2.09557E-04-3.64286E-05-7.07101E-05 2.79469E-06-9.53219E-18-5.20375E-18
 -1       314 2.19910E-04-3.90239E-05-7.32461E-05-1.49544E-05-9.19327E-18-3.17531E-19
 -1       315 1.99560E-04-3.56647E-05-6.69061E-05-2.98057E-05-1.02797E-17 3.98338E-18
 -1       316 1.68817E-04-3.40866E-05-5.55822E-05-4.47810E-05-1.08187E-17 8.88241E-18
 -1       317 1.29170E-04-3.56591E-05-3.96338E-05-4.55110E-05-9.59805E-18 9.96619E-18
 -1       318 8.11037E-05-3.08897E-05-2.25723E-05-4.42385E-05-1.04378E-17 1.17738E-17
 -1       319 4.77944E-05-3.50003E-05-7.61318E-06-3.39613E-05-8.69437E-18 9.57311E-18
 -1       320 2.28349E-05-3.77586E-05 3.54608E-06-2.01146E-05-6.55879E-18 8.15301E-18
 -1       321 1.08429E-05-3.98178E-05 9.26856E-06-4.94080E-06-2.75370E-18 7.51085E-18
 -1       322 1.05077E-04-2.48344E-05-3.44460E-05-2.87272E-06-6.03058E-19 1.52658E-19
 -1       323 1.27347E-04-3.33677E-05-4.04046E-05-1.10541E-05-1.66028E-18 3.44294E-18
 -1       324 4.86734E-05 2.14700E-06-2.16084E-05 5.83517E-06 9.42589E-20-5.59224E-18
 -1       325 3.04841E-05 1.20235E-05-1.79553E-05-4.40651E-06-1.33914E-18-7.24821E-18
 -1       326 3.38018E-05 9.52014E-06-1.83143E-05-1.75357E-05-3.14875E-18-7.21594E-18
 -1       327 5.38142E-05-2.29745E-06-2.19439E-05-2.31832E-05-4.13985E-18-5.89326E-18
 -1       328 7.74960E-05-1.47568E-05-2.68598E-05-1.84173E-05-3.78697E-18-4.33938E-18
 -1       329 9.43394E-05-2.16152E-05-3.12183E-05-8.12692E-06-2.50349E-18-3.45967E-18
 -1       330 1.02692E-04-2.29914E-05-3.42439E-05 2.12105E-06-8.44090E-19-3.24774E-18
 -1       331 1.05319E-04-2.16534E-05-3.59589E-05 1.00514E-05 7.15314E-19-3.17635E-18
 -1       332 1.05437E-04-2.00957E-05-3.66842E-05 1.56804E-05 2.10765E-18-2.89197E-18
 -1       333 1.05489E-04-1.99704E-05-3.67745E-05 1.95218E-05 3.24171E-18-1.72247E-18
 -1       334 1.07273E-04-2.28304E-05-3.63329E-05 2.07873E-05 4.09591E-18 8.16222E-19
 -1       335 1.09358E-04-2.74669E-05-3.52170E-05 1.74195E-05 3.87993E-18 3.67749E-18
 -1       336 1.05024E-04-2.96281E-05-3.22840E-05 1.16935E-05 3.18350E-18 3.00011E-18
 -1       337 1.37711E-04-4.64009E-05-3.91351E-05-1.31763E-05-1.11736E-18 5.50918E-18
 -1       338 1.39145E-04-4.74972E-05-3.93634E-05-2.03542E-05-1.67374E-18 6.01147E-18
 -1       339 1.35769E-04-3.94099E-05-4.15073E-05-2.53876E-05-3.48504E-18 5.73047E-18
 -1       340 1.27804E-04-2.58718E-05-4.41347E-05-1.69919E-05-5.21619E-18 3.34550E-18
 -1       341 1.24960E-04-2.26630E-05-4.42582E-05 2.90634E-06-6.04363E-18-9.69436E-19
 -1       342 1.29298E-04-3.33970E-05-4.14113E-05 1.66223E-05-3.97521E-18-4.04426E-18
 -1       343 1.32327E-04-4.42765E-05-3.78944E-05 1.51282E-05-9.43896E-19-4.11419E-18
 -1       344 1.29351E-04-4.65128E-05-3.55686E-05 5.49603E-06 5.35851E-19-3.02517E-18
 -1       345 1.23103E-04-4.28884E-05-3.44163E-05-3.53273E-06 1.85593E-19-1.98599E-18
 -1       346 1.16820E-04-3.80359E-05-3.37953E-05-8.77537E-06 6.06586E-19-1.21273E-18
 -1       347 1.11820E-04-3.42904E-05-3.32420E-05-1.06242E-05-5.93924E-20-1.50208E-18
 -1       348 1.08059E-04-3.19256E-05-3.26323E-05-1.03844E-05 9.95536E-20-1.21183E-18
 -1       349 1.05205E-04-3.05669E-05-3.19841E-05-9.13546E-06 2.32750E-19-4.41890E-19
 -1       350 1.02982E-04-2.98096E-05-3.13520E-05-7.56170E-06-6.85777E-19-4.85499E-20
 -1       351 1.01216E-04-2.93786E-05-3.07791E-05-6.02322E-06-7.12861E-19-2.18732E-19
 -1       352 9.98048E-05-2.91181E-05-3.02868E-05-4.67535E-06-5.80095E-19-8.02823E-19
 -1       353 9.86822E-05-2.89482E-05-2.98797E-05-3.56197E-06-7.26413E-19-8.14801E-19
 -1       354 9.77973E-05-2.88299E-05-2.95525E-05-2.67395E-06 4.98116E-20-7.72386E-19
 -1       355 9.71082E-05-2.87441E-05-2.92950E-05-1.98138E-06 6.45115E-19-4.08465E-20
 -1       356 9.65787E-05-2.86811E-05-2.90960E-05-1.44954E-06 9.55622E-19-2.32088E-19
 -1       357 9.61777E-05-2.86351E-05-2.89446E-05-1.04592E-06 6.01454E-19 4.71277E-19
 -1       358 9.58785E-05-2.86023E-05-2.88310E-05-7.42744E-07 7.99665E-20 9.73498E-19
 -1       359 9.56590E-05-2.85797E-05-2.87471E-05-5.17291E-07 3.96146E-19 4.64783E-19
 -1       360 9.55010E-05-2.85650E-05-2.86860E-05-3.51465E-07-4.61981E-19 7.54478E-20
 -1       361 9.53896E-05-2.85561E-05-2.86423E-05-2.31029E-07-2.05684E-19 3.66643E-19
 -1       362 9.53133E-05-2.85514E-05-2.86118E-05-1.44880E-07-1.44714E-19 3.78991E-19
 -1       363 9.52627E-05-2.85497E-05-2.85910E-05-8.44064E-08 6.85112E-19-3.89754E-19
 -1       364 9.52307E-05-2.85500E-05-2.85773E-05-4.29629E-08 1.59962E-18-2.59009E-19
 -1       365 9.52120E-05-2.85514E-05-2.85687E-05-1.54512E-08-8.46912E-19-6.61084E-19
 -1       366 9.52024E-05-2.85535E-05-2.85637E-05 2.01378E-09 8.75921E-20-2.03999E-20
 -1       367 9.51988E-05-2.85559E-05-2.85612E-05 1.23682E-08-1.12035E-18 4.07488E-19
 -1       368 9.51992E-05-2.85583E-05-2.85604E-05 1.78081E-08 5.24387E-19-3.95940E-19
 -1       369 9.52018E-05-2.85606E-05-2.85605E-05 1.99552E-08-4.23252E-19-1.62107E-18
 -1       370 9.52057E-05-2.85626E-05-2.85613E-05 1.99890E-08-1.03718E-18-2.03028E-18
 -1       371 9.52101E-05-2.85644E-05-2.85624E-05 1.87515E-08-1.48460E-18-1.75994E-19
 -1       372 9.52145E-05-2.85659E-05-2.85637E-05 1.68295E-08 6.46776E-19 1.47730E-18
 -1       373 9.52186E-05-2.85672E-05-2.85649E-05 1.46195E-08 7.70817E-19 1.11095E-18
 -1       374 9.52223E-05-2.85682E-05-2.85661E-05 1.23783E-08 1.03045E-18 8.78892E-19
 -1       375 9.52256E-05-2.85690E-05-2.85671E-05 1.02612E-08 1.12322E-18 1.80369E-18
 -1       376 9.52283E-05-2.85697E-05-2.85680E-05 8.35149E-09 1.90012E-19 3.23284E-18
 -1       377 9.52306E-05-2.85702E-05-2.85687E-05 6.68183E-09 1.11007E-18 3.49416E-18
 -1       378 9.52324E-05-2.85706E-05-2.85694E-05 5.24977E-09 1.40657E-18 2.90208E-18
 -1       379 9.52339E-05-2.85709E-05-2.85699E-05 4.02904E-09 8.66723E-19 1.09201E-18
 -1       380 9.52351E-05-2.85711E-05-2.85703E-05 2.97880E-09-7.82080E-19 1.38599E-18
 -1       381 9.52359E-05-2.85714E-05-2.85705E-05 2.05338E-09 3.23317E-19 4.86897E-19
 -1       382 9.52366E-05-2.85715E-05-2.85707E-05 1.27124E-09-1.11869E-19 3.57982E-20
 -1       383 1.00419E-04-2.90397E-05-3.05452E-05 8.57940E-06 2.32545E-18 2.11553E-18
 -1       384 9.65932E-05-2.77435E-05-2.94749E-05 5.96424E-06 1.76207E-18 1.28765E-18
 -1       385 9.40291E-05-2.66541E-05-2.88518E-05 2.93136E-06 1.43680E-18 5.37909E-19
 -1       386 9.30281E-05-2.62980E-05-2.85796E-05-4.24296E-07 1.54106E-18-4.81445E-19
 -1       387 9.35850E-05-2.68291E-05-2.85944E-05-3.40863E-06 1.01864E-18-1.06361E-18
 -1       388 9.52727E-05-2.79949E-05-2.88235E-05-5.29652E-06 1.24948E-18-1.51287E-18
 -1       389 9.74155E-05-2.93273E-05-2.91772E-05-5.77886E-06 1.22600E-18-2.28721E-18
 -1       390 9.93817E-05-3.04124E-05-2.95611E-05-5.05098E-06 7.55879E-19-2.28105E-18
 -1       391 1.00784E-04-3.10499E-05-2.98936E-05-3.61311E-06 2.79082E-19-2.51350E-18
 -1       392 1.01508E-04-3.12476E-05-3.01211E-05-1.98996E-06 5.18255E-19-2.74402E-18
 -1       393 1.01625E-04-3.11251E-05-3.02237E-05-5.53770E-07 1.14919E-18-3.17256E-18
 -1       394 1.01293E-04-3.08214E-05-3.02096E-05 5.16148E-07 2.73136E-19-2.69215E-18
 -1       395 1.00678E-04-3.04468E-05-3.01042E-05 1.19052E-06-1.14411E-20-2.20753E-18
 -1       396 9.99223E-05-3.00715E-05-2.99389E-05 1.52531E-06-6.84766E-19-2.23962E-18
 -1       397 9.91311E-05-2.97327E-05-2.97432E-05 1.60857E-06 4.60724E-19-2.42093E-18
 -1       398 9.83746E-05-2.94453E-05-2.95408E-05 1.52785E-06 9.54521E-19-1.84481E-18
 -1       399 9.76938E-05-2.92117E-05-2.93485E-05 1.35517E-06-1.20388E-19-1.08013E-18
 -1       400 9.71083E-05-2.90276E-05-2.91761E-05 1.14304E-06-1.15104E-18-1.65462E-18
 -1       401 9.66228E-05-2.88863E-05-2.90284E-05 9.26048E-07-7.85523E-19-1.40559E-18
 -1       402 9.62324E-05-2.87805E-05-2.89065E-05 7.24653E-07-9.06107E-20-1.41475E-18
 -1       403 9.59273E-05-2.87031E-05-2.88092E-05 5.49146E-07-1.05110E-18-1.21789E-18
 -1       404 9.56953E-05-2.86478E-05-2.87336E-05 4.03100E-07-2.24935E-19-1.62595E-18
 -1       405 9.55235E-05-2.86096E-05-2.86766E-05 2.85987E-07-1.37692E-19-2.33558E-18
 -1       406 9.54001E-05-2.85841E-05-2.86348E-05 1.95039E-07 1.06824E-18-1.32586E-18
 -1       407 9.53142E-05-2.85679E-05-2.86051E-05 1.26486E-07 1.00584E-18-2.36637E-18
 -1       408 9.52570E-05-2.85583E-05-2.85848E-05 7.63320E-08 3.91595E-19-1.41753E-18
 -1       409 9.52209E-05-2.85534E-05-2.85715E-05 4.07935E-08 2.72340E-19-1.25030E-19
 -1       410 9.52000E-05-2.85516E-05-2.85634E-05 1.65298E-08 3.66854E-19-1.05725E-19
 -1       411 9.51897E-05-2.85518E-05-2.85590E-05 7.25763E-10-3.62864E-19-7.74355E-19
 -1       412 9.51865E-05-2.85531E-05-2.85571E-05-8.90580E-09 1.76909E-19-2.10381E-18
 -1       413 9.51878E-05-2.85551E-05-2.85568E-05-1.41680E-08-7.48079E-19-2.97904E-18
 -1       414 9.51918E-05-2.85573E-05-2.85576E-05-1.64444E-08 4.34631E-19-2.93520E-18
 -1       415 9.51971E-05-2.85596E-05-2.85589E-05-1.67698E-08 6.64229E-19-3.28557E-18
 -1       416 9.52029E-05-2.85616E-05-2.85605E-05-1.58982E-08-9.36499E-19-3.10446E-18
 -1       417 9.52086E-05-2.85635E-05-2.85622E-05-1.43631E-08-1.53517E-18-3.05979E-18
 -1       418 9.52139E-05-2.85652E-05-2.85638E-05-1.25297E-08-8.84686E-19-2.71253E-18
 -1       419 9.52187E-05-2.85665E-05-2.85652E-05-1.06371E-08-1.15672E-19-2.48285E-18
 -1       420 9.52228E-05-2.85677E-05-2.85665E-05-8.83214E-09-1.34926E-19-2.11151E-18
 -1       421 9.52262E-05-2.85686E-05-2.85676E-05-7.19560E-09-1.00566E-18-2.58820E-18
 -1       422 9.52291E-05-2.85694E-05-2.85685E-05-5.76144E-09 1.04091E-18-2.57561E-18
 -1       423 9.52314E-05-2.85699E-05-2.85692E-05-4.53132E-09 1.47505E-19-2.45506E-18
 -1       424 9.52332E-05-2.85704E-05-2.85698E-05-3.48406E-09-1.40026E-18-5.70879E-19
 -1       425 9.52346E-05-2.85708E-05-2.85702E-05-2.58390E-09-7.16627E-19 7.80461E-19
 -1       426 9.52357E-05-2.85711E-05-2.85706E-05-1.78892E-09 1.64817E-19 8.88614E-19
 -1       427 9.52365E-05-2.85713E-05-2.85708E-05-1.06365E-09-4.62517E-19-1.28355E-18
 -1       428 9.52368E-05-2.85714E-05-2.85709E-05-6.78245E-10 1.07607E-18-6.05152E-19
 -1       429 9.52377E-05-2.85733E-05-2.85704E-05-2.12044E-09-2.56386E-18 7.46881E-19
 -1       430 9.52372E-05-2.85724E-05-2.85706E-05-1.80450E-09-6.63077E-19 1.22978E-18
 -1       431 9.52369E-05-2.85718E-05-2.85708E-05-1.26938E-09 3.67766E-19-2.44249E-19
 -1       432 9.52381E-05-2.85741E-05-2.85703E-05-2.10760E-09-3.39029E-18-3.38739E-18
 -1       433 9.52386E-05-2.85749E-05-2.85702E-05-1.77127E-09-8.78298E-19-7.71369E-20
 -1       434 9.52389E-05-2.85754E-05-2.85700E-05-1.17259E-09 8.46778E-19 6.86327E-20
 -1       435 9.52390E-05-2.85757E-05-2.85700E-05-4.05147E-10-1.87972E-18 3.85106E-19
 -1       436 9.52390E-05-2.85757E-05-2.85700E-05 4.19957E-10-2.11067E-18 1.82252E-18
 -1       437 9.52389E-05-2.85754E-05-2.85700E-05 1.18547E-09-1.36371E-18-2.85362E-19
 -1       438 9.52386E-05-2.85749E-05-2.85702E-05 1.77194E-09-1.17278E-18-1.17845E-18
 -1       439 9.52381E-05-2.85741E-05-2.85703E-05 2.10767E-09 4.80618E-19 2.99588E-19
 -1       440 9.52377E-05-2.85733E-05-2.85705E-05 2.12026E-09 1.65655E-18-9.07487E-19
 -1       441 9.52372E-05-2.85724E-05-2.85706E-05 1.80076E-09-1.59201E-18-2.84395E-18
 -1       442 5.67489E-05-3.49770E-05-9.37363E-06 4.51389E-05-2.28402E-18 6.00409E-18
 -1       443 1.20610E-05-1.66395E-05 1.74508E-06 3.19948E-06-8.48767E-19 7.71086E-18
 -1       444 2.82732E-05-2.28358E-05-2.34247E-06 3.24128E-05-1.94574E-18 6.95795E-18
 -1       445 9.81158E-05-4.82326E-05-2.14076E-05 4.37537E-05-1.41963E-18 2.78277E-18
 -1       446 1.34057E-04-4.83071E-05-3.66870E-05 2.62082E-05 2.40954E-18-1.94796E-18
 -1       447 7.77509E-05-1.28050E-05-2.77636E-05 5.35243E-06 3.05620E-19-2.74361E-18
 -1       448 1.52696E-04-1.97131E-05-5.68836E-05 3.60311E-06 7.65008E-18-3.42387E-18
 -1       449 1.56010E-04-1.27077E-05-6.12654E-05 3.95085E-06 8.79432E-18-2.97470E-18
 -1       450 1.49760E-04-1.33023E-05-5.86540E-05 5.45820E-06 9.17019E-18-2.31547E-18
 -1       451 1.51199E-04-2.67681E-05-5.33352E-05-3.88648E-06 8.29388E-18-2.94990E-18
 -1       452 1.39614E-04-3.52178E-05-4.46877E-05-1.56077E-05 6.22174E-18-3.44806E-18
 -1       453 1.08777E-04-3.69472E-05-3.09145E-05-3.32455E-05 2.81728E-18-4.78431E-18
 -1       454 7.88932E-05-2.87652E-05-2.13880E-05-4.15426E-05 3.22825E-19-6.22546E-18
 -1       455 3.47740E-05-1.21365E-05-9.77627E-06-3.82377E-05-4.51998E-19-9.16400E-18
 -1       456 1.35541E-05-1.89696E-06-4.80766E-06-2.51709E-05-1.65516E-18-1.04136E-17
 -1       457 7.49205E-06 1.63783E-06-3.69294E-06 1.68143E-07-1.63581E-18-1.07737E-17
 -1       458 2.43720E-05-7.37047E-06-7.04928E-06 1.96979E-05-8.42163E-19-9.79043E-18
 -1       459 6.41274E-05-3.15749E-05-1.41676E-05 3.24001E-05-2.41584E-18-8.30831E-18
 -1       460 1.03509E-04-4.74723E-05-2.43101E-05 2.91819E-05-3.24604E-18-6.14448E-18
 -1       461 1.45491E-04-5.48730E-05-3.89230E-05 9.92071E-06-5.27289E-18-2.48308E-18
 -1       462 1.64488E-04-4.45251E-05-5.12336E-05-2.12180E-06-8.38679E-18-2.03140E-18
 -1       463 1.65698E-04-2.80565E-05-5.88254E-05-1.32559E-05-9.81203E-18 2.28064E-19
 -1       464 1.69912E-04-1.89261E-05-6.41025E-05-7.03789E-06-1.06948E-17-9.63923E-19
 -1       465 1.69916E-04-2.12749E-05-6.30975E-05-1.95578E-06-1.06863E-17-1.21570E-18
 -1       466 1.64902E-04-3.66752E-05-5.47672E-05-2.54779E-06-8.49569E-18-1.23783E-18
 -1       467 1.56064E-04-4.97043E-05-4.54483E-05-1.40721E-05-5.45602E-18 9.15854E-20
 -1       468 1.25714E-04-5.51236E-05-3.04140E-05-3.37846E-05-2.01499E-18 3.26690E-18
 -1       469 9.00707E-05-4.79601E-05-1.82765E-05-4.33211E-05-1.06991E-18 5.45754E-18
 -1       470 5.19710E-05-3.44277E-05-7.70356E-06-4.05423E-05 1.29808E-19 5.83796E-18
 -1       471 2.17555E-05-2.25746E-05 1.41908E-08-2.25516E-05-2.08105E-19 8.02850E-18
 -1       472 1.49470E-04-3.52154E-05-4.88534E-05 1.34875E-05 6.12487E-18-3.08595E-18
 -1       473 1.06249E-04-2.85924E-05-3.32803E-05 1.45185E-05 3.05539E-18 5.48784E-19
 -1       474 2.01862E-05 1.11828E-05-1.29535E-05-1.31654E-05-2.33739E-18-9.18226E-18
 -1       475 3.09598E-05 5.26250E-06-1.49977E-05 8.00635E-06 1.13555E-20-8.04012E-18
 -1       476 7.22557E-05-1.71421E-05-2.34144E-05-2.84373E-05-4.70705E-18-4.77572E-18
 -1       477 9.62962E-05-2.80875E-05-2.91932E-05-1.53807E-05-3.42571E-18-2.70034E-18
 -1       478 1.07683E-04-3.02932E-05-3.31997E-05-1.01455E-06-1.54449E-18-2.06148E-18
 -1       479 1.10392E-04-2.83210E-05-3.52289E-05 9.04853E-06 1.70198E-19-2.12674E-18
 -1       480 1.09652E-04-2.58998E-05-3.59454E-05 1.48454E-05 1.56061E-18-2.18183E-18
 -1       481 1.08483E-04-2.49329E-05-3.58491E-05 1.79861E-05 2.75662E-18-1.65204E-18
 -1       482 1.03222E-04-2.79699E-05-3.22289E-05 1.11201E-05 2.51720E-18 4.06174E-19
 -1       483 1.35864E-04-5.15371E-05-3.61557E-05-9.09332E-06-1.58278E-19 4.07261E-18
 -1       484 1.39187E-04-2.85552E-05-4.78590E-05-4.00673E-06 5.19464E-18-5.29803E-18
 -1       485 1.46112E-04-5.17313E-05-4.06563E-05-1.88047E-05-2.53991E-18 5.41487E-18
 -1       486 1.38274E-04-1.53912E-05-5.34815E-05-9.02886E-06-8.87341E-18 3.60538E-19
 -1       487 1.41612E-04-2.42653E-05-5.08944E-05 1.19041E-05-7.90186E-18-3.25851E-18
 -1       488 1.43225E-04-4.51854E-05-4.24329E-05 1.42079E-05-2.66119E-18-5.45410E-18
 -1       489 1.36844E-04-5.44103E-05-3.54538E-05 2.44084E-06 1.24428E-18-4.93545E-18
 -1       490 1.24424E-04-4.94731E-05-3.21353E-05-8.12939E-06 1.71108E-18-2.83924E-18
 -1       491 1.13598E-04-4.08577E-05-3.11868E-05-1.32963E-05 8.45786E-19-1.49110E-18
 -1       492 1.06541E-04-3.42310E-05-3.09903E-05-1.44842E-05 6.68413E-19-1.10670E-18
 -1       493 1.02514E-04-3.03137E-05-3.09432E-05-1.36517E-05 2.06099E-19-8.07090E-19
 -1       494 1.00315E-04-2.83925E-05-3.08225E-05-1.19335E-05 3.36455E-19-6.17159E-19
 -1       495 9.90684E-05-2.76473E-05-3.06055E-05-9.96811E-06-3.77178E-20-7.28977E-19
 -1       496 9.82717E-05-2.74886E-05-3.03315E-05-8.07284E-06-3.20348E-19 1.10578E-18
 -1       497 9.76844E-05-2.75780E-05-3.00417E-05-6.39144E-06-8.09517E-19 1.41981E-18
 -1       498 9.72063E-05-2.77456E-05-2.97655E-05-4.97166E-06-5.03256E-19 1.20475E-18
 -1       499 9.68007E-05-2.79166E-05-2.95191E-05-3.81087E-06-1.21789E-18 1.53180E-18
 -1       500 9.64560E-05-2.80639E-05-2.93089E-05-2.88298E-06 8.51669E-20-3.78997E-19
 -1       501 9.61676E-05-2.81819E-05-2.91352E-05-2.15354E-06 9.07732E-19-1.15738E-18
 -1       502 9.59315E-05-2.82733E-05-2.89952E-05-1.58765E-06 1.05346E-18-7.14445E-19
 -1       503 9.57426E-05-2.83433E-05-2.88845E-05-1.15365E-06-4.80857E-19-1.50431E-18
 -1       504 9.55950E-05-2.83968E-05-2.87986E-05-8.24394E-07-2.16347E-20-1.47969E-18
 -1       505 9.54823E-05-2.84379E-05-2.87329E-05-5.77370E-07-3.75887E-19-1.41605E-18
 -1       506 9.53981E-05-2.84695E-05-2.86834E-05-3.94280E-07 4.38154E-20-1.30339E-18
 -1       507 9.53369E-05-2.84940E-05-2.86467E-05-2.60437E-07 3.91502E-19-5.00522E-19
 -1       508 9.52934E-05-2.85131E-05-2.86200E-05-1.64168E-07-3.11704E-19 3.21299E-19
 -1       509 9.52636E-05-2.85279E-05-2.86009E-05-9.62706E-08 1.03778E-18 1.16015E-18
 -1       510 9.52439E-05-2.85394E-05-2.85876E-05-4.95441E-08 6.52196E-19 1.49744E-19
 -1       511 9.52316E-05-2.85482E-05-2.85786E-05-1.84015E-08 8.37657E-19 1.68648E-18
 -1       512 9.52246E-05-2.85549E-05-2.85727E-05 1.45354E-09-1.18406E-18 1.63308E-18
 -1       513 9.52212E-05-2.85599E-05-2.85691E-05 1.32906E-08-9.16574E-19-4.89742E-19
 -1       514 9.52201E-05-2.85637E-05-2.85671E-05 1.95686E-08-5.84364E-19-1.53947E-18
 -1       515 9.52206E-05-2.85664E-05-2.85661E-05 2.21108E-08-9.89551E-20-1.22276E-18
 -1       516 9.52220E-05-2.85683E-05-2.85659E-05 2.22479E-08-8.12366E-19-1.04505E-18
 -1       517 9.52238E-05-2.85697E-05-2.85661E-05 2.09316E-08 3.41914E-19 1.59164E-18
 -1       518 9.52258E-05-2.85706E-05-2.85665E-05 1.88269E-08 1.19976E-18 2.16216E-18
 -1       519 9.52277E-05-2.85712E-05-2.85671E-05 1.63835E-08 1.35048E-19 1.84266E-18
 -1       520 9.52295E-05-2.85716E-05-2.85677E-05 1.38929E-08 7.39148E-19 1.28001E-18
 -1       521 9.52311E-05-2.85718E-05-2.85683E-05 1.15317E-08 2.03853E-18-1.86742E-19
 -1       522 9.52325E-05-2.85719E-05-2.85688E-05 9.39422E-09 1.80700E-19 2.15585E-18
 -1       523 9.52337E-05-2.85719E-05-2.85693E-05 7.51762E-09-6.37282E-19 1.58145E-19
 -1       524 9.52346E-05-2.85719E-05-2.85697E-05 5.89973E-09 7.03408E-19-2.05820E-18
 -1       525 9.52354E-05-2.85720E-05-2.85701E-05 4.51386E-09-9.66319E-19-3.29231E-18
 -1       526 9.52361E-05-2.85720E-05-2.85703E-05 3.31812E-09-2.07372E-19-1.42495E-18
 -1       527 5.18544E-05-2.63431E-05-1.04756E-05 4.02267E-05-4.07513E-18 4.90977E-18
 -1       528 9.82809E-05-2.53351E-05-3.12465E-05 2.45049E-06 2.02188E-18-9.15617E-19
 -1       529 9.78984E-05-2.56842E-05-3.09373E-05-2.31869E-06 1.80311E-18-1.41948E-18
 -1       530 9.89223E-05-2.73956E-05-3.06485E-05-5.86010E-06 1.39885E-18-2.47439E-18
 -1       531 1.00572E-04-2.96600E-05-3.03886E-05-7.39016E-06 1.46844E-18-2.11555E-18
 -1       532 1.02017E-04-3.15796E-05-3.01885E-05-6.96290E-06 8.68878E-19-2.30417E-18
 -1       533 1.02768E-04-3.26391E-05-3.00597E-05-5.24638E-06 6.60938E-19-2.73145E-18
 -1       534 1.02772E-04-3.28218E-05-2.99851E-05-3.05382E-06 6.43579E-19-3.01512E-18
 -1       535 1.02224E-04-3.23957E-05-2.99329E-05-9.99064E-07 9.22088E-19-3.43062E-18
 -1       536 1.01374E-04-3.16786E-05-2.98752E-05 5.97752E-07 3.01045E-19-2.96104E-18
 -1       537 1.00425E-04-3.09103E-05-2.97959E-05 1.65236E-06-2.46175E-19-2.09735E-18
 -1       538 9.95000E-05-3.02256E-05-2.96913E-05 2.21879E-06-3.75001E-19-1.80042E-18
 -1       539 9.86638E-05-2.96775E-05-2.95665E-05 2.40894E-06-2.12911E-19-1.94489E-18
 -1       540 9.79409E-05-2.92695E-05-2.94306E-05 2.34251E-06 7.24077E-20-1.29773E-18
 -1       541 9.73341E-05-2.89822E-05-2.92931E-05 2.12259E-06-2.88657E-19-1.54847E-19
 -1       542 9.68358E-05-2.87893E-05-2.91619E-05 1.82757E-06-6.96568E-19 3.60534E-19
 -1       543 9.64341E-05-2.86657E-05-2.90426E-05 1.51157E-06-1.17026E-18-3.04462E-19
 -1       544 9.61157E-05-2.85907E-05-2.89383E-05 1.20855E-06-6.41987E-19-6.66294E-19
 -1       545 9.58675E-05-2.85485E-05-2.88502E-05 9.37287E-07-3.20673E-20-9.21045E-19
 -1       546 9.56772E-05-2.85274E-05-2.87778E-05 7.06057E-07-4.06907E-19-1.95058E-18
 -1       547 9.55340E-05-2.85196E-05-2.87199E-05 5.16333E-07-4.02034E-19-1.68281E-18
 -1       548 9.54284E-05-2.85194E-05-2.86748E-05 3.65580E-07-8.11011E-20-1.96790E-18
 -1       549 9.53522E-05-2.85235E-05-2.86405E-05 2.49197E-07 3.77116E-19-6.34862E-19
 -1       550 9.52987E-05-2.85296E-05-2.86151E-05 1.61791E-07-3.40225E-19 1.24109E-18
 -1       551 9.52624E-05-2.85362E-05-2.85968E-05 9.79683E-08-2.83187E-19 5.34285E-19
 -1       552 9.52388E-05-2.85426E-05-2.85839E-05 5.27717E-08 2.92525E-19 7.14658E-19
 -1       553 9.52244E-05-2.85484E-05-2.85753E-05 2.18942E-08 4.52655E-19 7.59067E-20
 -1       554 9.52165E-05-2.85534E-05-2.85698E-05 1.74159E-09 9.39142E-19 1.11480E-19
 -1       555 9.52130E-05-2.85576E-05-2.85666E-05-1.05901E-08 6.52491E-19-8.39346E-19
 -1       556 9.52125E-05-2.85610E-05-2.85649E-05-1.73829E-08-2.86144E-19-1.53601E-18
 -1       557 9.52137E-05-2.85637E-05-2.85643E-05-2.03852E-08 1.57233E-19-4.26340E-20
 -1       558 9.52160E-05-2.85658E-05-2.85643E-05-2.09041E-08 2.97048E-20 1.87825E-18
 -1       559 9.52187E-05-2.85674E-05-2.85648E-05-1.98924E-08-9.24348E-19 3.16895E-19
 -1       560 9.52215E-05-2.85687E-05-2.85655E-05-1.80252E-08-1.05409E-18-6.87071E-19
 -1       561 9.52243E-05-2.85695E-05-2.85663E-05-1.57650E-08-1.63223E-18-5.04704E-19
 -1       562 9.52268E-05-2.85702E-05-2.85671E-05-1.34155E-08-9.19599E-19 4.23617E-19
 -1       563 9.52290E-05-2.85707E-05-2.85679E-05-1.11633E-08-1.16865E-18 2.45480E-19
 -1       564 9.52309E-05-2.85710E-05-2.85685E-05-9.11150E-09 3.30688E-19-1.43963E-18
 -1       565 9.52325E-05-2.85712E-05-2.85691E-05-7.30310E-09 1.74631E-18-9.40746E-19
 -1       566 9.52338E-05-2.85714E-05-2.85696E-05-5.74171E-09-1.34254E-18-2.44231E-18
 -1       567 9.52348E-05-2.85715E-05-2.85700E-05-4.41164E-09-2.11140E-18-4.46687E-18
 -1       568 9.52357E-05-2.85716E-05-2.85703E-05-3.25351E-09-1.50948E-18-3.12113E-18
 -1       569 9.52364E-05-2.85718E-05-2.85705E-05-2.23255E-09 1.08191E-18-1.24724E-18
 -1       570 9.52387E-05-2.85748E-05-2.85703E-05-2.74564E-09-9.48159E-19-6.55176E-19
 -1       571 9.52393E-05-2.85755E-05-2.85702E-05-2.06516E-09-3.27044E-19 2.29735E-18
 -1       572 9.52373E-05-2.85729E-05-2.85704E-05-2.92469E-09-1.79400E-18-1.58949E-18
 -1       573 9.52380E-05-2.85739E-05-2.85703E-05-3.03913E-09-2.78408E-18-1.09088E-18
 -1       574 9.52396E-05-2.85759E-05-2.85702E-05-1.10220E-09-1.80150E-18-2.96510E-18
 -1       575 9.52398E-05-2.85761E-05-2.85701E-05 9.63132E-12-1.25640E-18 2.05226E-18
 -1       576 9.52396E-05-2.85759E-05-2.85702E-05 1.12052E-09-1.04114E-18 2.01286E-18
 -1       577 9.52393E-05-2.85755E-05-2.85702E-05 2.06628E-09-4.88101E-19-7.17803E-19
 -1       578 9.52387E-05-2.85748E-05-2.85703E-05 2.74720E-09-3.97233E-19 6.85870E-20
 -1       579 9.52380E-05-2.85739E-05-2.85703E-05 3.04434E-09-6.35011E-20 3.73675E-19
 -1       580 9.52372E-05-2.85729E-05-2.85704E-05 2.90810E-09-6.59063E-19-4.90686E-18
 -1       581 2.55998E-05-1.12653E-05-5.60150E-06-1.21645E-05 4.59436E-19 6.11134E-18
 -1       582 1.00243E-04-2.63933E-05-3.16320E-05 7.20562E-06 2.30970E-18-2.95806E-19
 -1       583 8.63711E-05-4.36342E-05-1.80542E-05 4.40252E-05-4.77414E-18 2.21469E-18
 -1       584 4.41860E-05-2.26084E-05-8.81099E-06-3.28065E-05 2.54788E-18 5.67316E-18
 -1       585 1.20881E-04-4.06320E-05-3.43825E-05-2.92468E-06 1.40793E-19 1.92483E-18
 -1       586 1.24113E-04-5.58136E-05-2.92385E-05 2.73493E-05-2.85770E-18-3.46534E-18
 -1       587 1.29106E-04-5.85831E-06-5.34509E-05 4.40070E-06 8.21251E-18-2.37839E-18
 -1       588 4.00155E-05 2.62507E-07-1.68011E-05-2.96535E-05-4.36303E-18-7.57459E-18
 -1       589 1.34167E-04-1.81086E-05-5.02365E-05 1.18548E-05 7.08130E-18-2.46540E-19
 -1       590 1.31867E-04-9.61979E-06-5.29199E-05-2.52387E-06 7.20634E-18-3.77467E-18
 -1       591 1.52937E-04-5.24850E-05-4.33120E-05-1.33034E-05-4.09729E-18 3.58464E-18
 -1       592 1.37363E-04-3.02837E-05-4.62037E-05 6.60882E-06 5.19316E-18 3.85929E-19
 -1       593 1.27335E-04-4.15689E-05-3.69163E-05-1.06837E-05 1.12084E-18-2.47228E-19
 -1       594 1.03434E-04-3.75899E-05-2.80813E-05-2.88930E-05-1.86564E-18-2.58998E-18
 -1       595 6.23429E-05-1.93458E-05-1.81952E-05-3.95867E-05-3.60121E-18-6.35934E-18
 -1       596 3.31246E-05-2.88756E-06-1.24453E-05-3.30473E-05-3.59370E-18-8.88045E-18
 -1       597 2.16098E-05 4.82213E-06-1.07042E-05 8.13100E-06-4.16859E-19-9.42658E-18
 -1       598 5.80271E-05-1.92634E-05-1.62148E-05 2.55902E-05 1.25668E-18-6.58970E-18
 -1       599 9.64689E-05-4.21511E-05-2.30493E-05 2.47481E-05 9.31260E-19-3.55355E-18
 -1       600 1.17449E-04-5.74939E-05-2.56148E-05-3.29724E-05 1.92970E-18 7.31995E-19
 -1       601 1.32172E-04-5.66799E-05-3.23854E-05 8.62862E-06-2.09376E-19 4.67536E-19
 -1       602 1.50519E-04-3.68400E-05-4.91727E-05-2.35500E-05-6.61882E-18 4.07809E-18
 -1       603 1.51625E-04-4.71582E-05-4.52301E-05 7.96044E-06-4.00893E-18-4.48065E-18
 -1       604 1.44697E-04-5.99178E-05-3.64502E-05-1.02786E-05 3.83971E-19-2.83963E-18
 -1       605 8.43058E-05-4.36710E-05-1.70755E-05-4.17161E-05 2.49965E-18 3.79632E-18
 -1       606 2.80117E-05-1.11966E-05-6.63560E-06 1.85892E-05-2.08598E-18 5.71917E-18
 -1       607 1.07402E-04-2.70648E-05-3.44396E-05 1.71340E-05 3.58076E-18 6.13900E-19
 -1       608 1.39888E-04-4.53874E-05-4.07070E-05 5.99300E-06 2.11596E-18-5.68253E-18
 -1       609 5.99067E-05-1.09176E-05-2.06507E-05 1.56367E-05 1.10943E-18-5.30002E-18
 -1       610 1.21906E-04-9.83581E-06-4.85542E-05 1.12133E-05 7.05160E-18-1.31137E-18
 -1       611 1.78007E-05 7.73165E-06-1.04124E-05-2.05627E-05-2.82483E-18-9.77058E-18
 -1       612 9.52365E-05-2.85721E-05-2.85705E-05 2.62795E-09-1.91607E-18-1.73909E-18
 -1       613 9.54439E-05-2.96346E-05-2.79873E-05 9.92611E-06 1.46191E-18-1.36891E-18
 -1       614 9.76364E-05-3.34068E-05-2.74641E-05-2.52374E-05-3.57766E-18-2.52448E-18
 -1       615 1.13959E-04-2.96310E-05-3.61835E-05 1.50657E-05 1.48072E-18-1.09326E-18
 -1       616 1.10666E-04-2.75864E-05-3.56384E-05 1.69453E-05 2.41581E-18-1.25475E-18
 -1       617 1.07998E-04-2.76758E-05-3.43908E-05 1.57293E-05 2.70641E-18-3.71197E-19
 -1       618 1.08239E-04-4.99908E-05-2.47672E-05 3.17533E-05-4.52453E-18-1.28263E-18
 -1       619 1.32515E-04-3.79462E-05-4.08494E-05-5.50204E-06 2.29897E-18-5.80403E-18
 -1       620 4.96898E-05-1.70139E-05-1.35029E-05 2.89293E-05-2.91062E-18 4.02902E-18
 -1       621 7.46998E-05-3.30616E-05-1.75037E-05 3.89311E-05-4.74127E-18 2.23333E-18
 -1       622 9.52370E-05-2.85731E-05-2.85703E-05-4.09288E-09-1.95351E-18-2.30701E-18
 -1       623 1.08113E-04-4.32898E-05-2.76997E-05-2.13924E-05 2.28405E-18-1.76723E-18
 -1       624 9.96990E-05-3.39225E-05-2.81780E-05-1.96328E-05 1.46955E-18-6.04398E-19
 -1       625 9.52156E-05-2.81934E-05-2.87157E-05-1.67200E-05 5.02876E-19 8.71187E-21
 -1       626 9.39507E-05-2.57381E-05-2.92315E-05-1.38718E-05 5.25076E-19 3.99008E-19
 -1       627 9.38601E-05-2.49865E-05-2.95156E-05-1.13942E-05 2.85045E-19-1.13889E-19
 -1       628 9.42050E-05-2.50992E-05-2.96149E-05-9.25239E-06 8.45952E-19 5.64811E-19
 -1       629 9.46142E-05-2.55641E-05-2.95912E-05-7.42342E-06-5.24584E-19 7.05279E-19
 -1       630 9.49476E-05-2.61158E-05-2.94979E-05-5.88187E-06-5.92721E-19 8.81361E-19
 -1       631 9.51743E-05-2.66338E-05-2.93734E-05-4.60208E-06-6.64427E-19 8.28196E-19
 -1       632 9.53072E-05-2.70742E-05-2.92418E-05-3.55583E-06-1.72478E-18 6.88272E-19
 -1       633 9.53713E-05-2.74298E-05-2.91171E-05-2.71290E-06-9.47599E-21 1.01693E-19
 -1       634 9.53907E-05-2.77090E-05-2.90059E-05-2.04283E-06 1.18076E-18-1.04483E-18
 -1       635 9.53844E-05-2.79246E-05-2.89109E-05-1.51680E-06-1.75548E-19-1.70800E-18
 -1       636 9.53653E-05-2.80897E-05-2.88321E-05-1.10882E-06-3.35287E-19-2.03349E-18
 -1       637 9.53417E-05-2.82153E-05-2.87682E-05-7.96203E-07-5.37315E-19-1.68080E-18
 -1       638 9.53182E-05-2.83105E-05-2.87174E-05-5.59692E-07-1.59479E-19-1.43584E-18
 -1       639 9.52973E-05-2.83824E-05-2.86777E-05-3.83192E-07 1.16501E-18-4.76362E-19
 -1       640 9.52800E-05-2.84364E-05-2.86472E-05-2.53472E-07 4.42116E-19-9.53872E-20
 -1       641 9.52663E-05-2.84767E-05-2.86241E-05-1.59790E-07 1.54613E-19-7.01920E-19
 -1       642 9.52559E-05-2.85065E-05-2.86069E-05-9.35293E-08 9.13583E-19-1.04405E-18
 -1       643 9.52483E-05-2.85283E-05-2.85943E-05-4.78488E-08 8.98458E-19-1.15435E-18
 -1       644 9.52429E-05-2.85440E-05-2.85852E-05-1.73820E-08-4.29314E-19-1.58938E-18
 -1       645 9.52393E-05-2.85551E-05-2.85789E-05 2.03304E-09-1.55747E-18-9.45649E-19
 -1       646 9.52370E-05-2.85628E-05-2.85747E-05 1.35837E-08-1.52723E-18-6.76103E-19
 -1       647 9.52356E-05-2.85679E-05-2.85719E-05 1.96776E-08-1.16459E-18-7.84865E-19
 -1       648 9.52349E-05-2.85712E-05-2.85701E-05 2.21052E-08-6.49529E-19-1.31410E-18
 -1       649 9.52346E-05-2.85732E-05-2.85692E-05 2.21752E-08 2.08488E-18-2.03069E-18
 -1       650 9.52346E-05-2.85743E-05-2.85687E-05 2.08247E-08 1.74726E-18-1.57053E-18
 -1       651 9.52348E-05-2.85747E-05-2.85686E-05 1.87075E-08-7.88549E-20-1.68274E-18
 -1       652 9.52351E-05-2.85747E-05-2.85687E-05 1.62655E-08 2.83143E-19-1.02216E-18
 -1       653 9.52354E-05-2.85745E-05-2.85689E-05 1.37841E-08 5.90968E-19 3.62701E-19
 -1       654 9.52357E-05-2.85742E-05-2.85692E-05 1.14350E-08 1.90420E-18-1.34831E-18
 -1       655 9.52360E-05-2.85738E-05-2.85695E-05 9.30965E-09-7.59001E-19-1.35696E-18
 -1       656 9.52363E-05-2.85735E-05-2.85698E-05 7.44260E-09-1.72891E-18-1.44660E-18
 -1       657 9.52365E-05-2.85732E-05-2.85700E-05 5.83116E-09-7.99436E-19-3.45851E-18
 -1       658 9.52368E-05-2.85730E-05-2.85702E-05 4.45063E-09-2.87835E-19-3.31127E-18
 -1       659 1.01343E-04-2.29696E-05-3.35790E-05 6.14271E-07 2.66118E-18-1.92930E-18
 -1       660 1.05524E-04-3.24032E-05-3.13412E-05-8.08170E-06 1.19457E-18-2.63196E-18
 -1       661 1.06037E-04-3.45666E-05-3.06299E-05-6.16805E-06 7.26203E-19-2.34259E-18
 -1       662 1.05361E-04-3.50822E-05-3.01210E-05-3.46986E-06 4.42390E-19-2.25438E-18
 -1       663 1.03935E-04-3.44129E-05-2.97976E-05-9.12512E-07 1.09793E-18-2.08443E-18
 -1       664 1.02246E-04-3.31711E-05-2.96058E-05 1.05308E-06-4.89741E-20-1.64775E-18
 -1       665 1.00635E-04-3.18293E-05-2.94900E-05 2.32847E-06-6.18520E-19-1.04495E-18
 -1       666 9.92690E-05-3.06528E-05-2.94080E-05 2.99748E-06-6.46158E-19-9.31523E-19
 -1       667 9.81894E-05-2.97428E-05-2.93348E-05 3.20811E-06-2.69134E-19-6.91691E-19
 -1       668 9.73727E-05-2.91018E-05-2.92591E-05 3.10926E-06-1.39617E-19-1.12337E-18
 -1       669 9.67709E-05-2.86873E-05-2.91786E-05 2.82512E-06-7.59858E-19-7.84677E-19
 -1       670 9.63339E-05-2.84441E-05-2.90954E-05 2.44895E-06-5.90693E-19-5.27187E-19
 -1       671 9.60187E-05-2.83207E-05-2.90131E-05 2.04537E-06-3.24509E-19-1.38969E-18
 -1       672 9.57919E-05-2.82753E-05-2.89354E-05 1.65556E-06-6.66425E-19-1.63163E-18
 -1       673 9.56285E-05-2.82769E-05-2.88647E-05 1.30303E-06-8.75843E-19-1.46262E-18
 -1       674 9.55107E-05-2.83040E-05-2.88026E-05 9.98853E-07 2.23416E-20-7.95949E-19
 -1       675 9.54258E-05-2.83426E-05-2.87498E-05 7.45835E-07-8.90410E-19-3.89525E-20
 -1       676 9.53648E-05-2.83839E-05-2.87059E-05 5.41727E-07-8.63304E-20 4.71021E-19
 -1       677 9.53210E-05-2.84230E-05-2.86704E-05 3.81493E-07-3.37741E-19 1.52891E-18
 -1       678 9.52900E-05-2.84575E-05-2.86424E-05 2.58872E-07-8.70750E-19 7.92302E-19
 -1       679 9.52684E-05-2.84865E-05-2.86207E-05 1.67378E-07-5.47803E-21 2.42572E-19
 -1       680 9.52535E-05-2.85099E-05-2.86043E-05 1.00898E-07 7.43298E-19 1.90399E-19
 -1       681 9.52435E-05-2.85283E-05-2.85922E-05 5.40016E-08 2.95230E-19-1.01450E-19
 -1       682 9.52372E-05-2.85423E-05-2.85835E-05 2.20650E-08 3.28258E-19 4.24610E-21
 -1       683 9.52333E-05-2.85526E-05-2.85774E-05 1.28214E-09 1.44349E-18 8.64387E-19
 -1       684 9.52313E-05-2.85601E-05-2.85733E-05-1.13946E-08-1.48219E-19 1.80494E-18
 -1       685 9.52304E-05-2.85653E-05-2.85707E-05-1.83454E-08-8.56384E-19 1.37080E-18
 -1       686 9.52303E-05-2.85689E-05-2.85692E-05-2.13864E-08-3.23247E-19 1.14523E-18
 -1       687 9.52306E-05-2.85712E-05-2.85684E-05-2.18710E-08 4.11193E-19 2.44058E-18
 -1       688 9.52313E-05-2.85725E-05-2.85680E-05-2.07834E-08-1.24756E-19 1.72858E-18
 -1       689 9.52320E-05-2.85732E-05-2.85681E-05-1.88198E-08-1.79599E-18 3.70880E-19
 -1       690 9.52328E-05-2.85735E-05-2.85683E-05-1.64564E-08-8.50836E-19-4.99582E-19
 -1       691 9.52336E-05-2.85736E-05-2.85686E-05-1.40049E-08-4.44074E-19-1.37357E-18
 -1       692 9.52343E-05-2.85734E-05-2.85689E-05-1.16562E-08-2.77058E-19-5.66857E-19
 -1       693 9.52349E-05-2.85732E-05-2.85693E-05-9.51504E-09 2.27530E-19-3.09768E-19
 -1       694 9.52355E-05-2.85730E-05-2.85696E-05-7.63136E-09 7.43713E-19 2.61335E-19
 -1       695 9.52359E-05-2.85728E-05-2.85699E-05-6.02281E-09 5.51497E-19-4.60537E-19
 -1       696 9.52365E-05-2.85729E-05-2.85701E-05-5.02595E-09-1.77649E-18-1.19028E-18
 -1       697 9.52407E-05-2.85767E-05-2.85703E-05-7.08931E-10 1.16168E-19 1.33005E-18
 -1       698 9.52397E-05-2.85757E-05-2.85703E-05-3.14820E-09-1.38078E-18-5.58167E-20
 -1       699 9.52407E-05-2.85767E-05-2.85703E-05 7.31097E-10-5.68445E-19 1.57430E-18
 -1       700 9.52403E-05-2.85763E-05-2.85703E-05-2.05820E-09-1.82635E-18-8.99743E-19
 -1       701 4.66480E-05-1.41080E-05-1.34265E-05-2.13855E-05 1.54344E-18 4.24686E-18
 -1       702 9.52370E-05-2.85729E-05-2.85703E-05 3.64396E-09-5.82361E-19-5.53830E-18
 -1       703 9.52403E-05-2.85764E-05-2.85703E-05 2.05746E-09-1.76468E-18 1.27552E-18
 -1       704 9.52397E-05-2.85757E-05-2.85703E-05 3.14634E-09-1.87676E-18-8.24292E-19
 -1       705 9.52387E-05-2.85747E-05-2.85703E-05 3.82010E-09-1.35146E-18 8.06186E-19
 -1       706 9.52378E-05-2.85738E-05-2.85703E-05 3.89934E-09-9.57326E-19-3.14879E-19
 -1       707 1.02568E-04-2.34528E-05-3.39011E-05 6.96097E-06 2.77780E-18-1.02335E-18
 -1       708 1.17296E-04-4.69712E-05-3.00647E-05 8.38353E-06 1.45062E-18 5.65130E-19
 -1       709 1.17627E-04-8.51821E-06-4.72421E-05-1.49741E-07 6.60760E-18-3.25860E-18
 -1       710 1.30185E-04-5.77606E-05-3.09853E-05-1.50983E-05 2.42762E-18-3.32068E-18
 -1       711 1.05241E-04-2.57231E-05-3.40865E-05 1.22191E-05 2.85575E-18-5.63572E-19
 -1       712 1.03926E-04-2.88512E-05-3.21821E-05-7.93546E-06 1.36380E-18-2.65957E-18
 -1       713 1.02040E-04-2.50723E-05-3.29900E-05-4.93235E-06 2.17512E-18-2.43021E-18
 -1       714 1.16768E-04-3.34163E-05-3.57879E-05 9.06780E-06 1.71445E-19-5.52419E-19
 -1       715 7.17600E-05-3.08493E-05-1.71687E-05-3.52967E-05 2.90771E-18 4.17383E-18
 -1       716 1.27742E-04-3.55308E-05-3.96478E-05 7.57778E-06 1.74943E-18 1.07367E-18
 -1       717 1.16299E-04-3.81955E-05-3.35104E-05-4.20913E-06-1.62704E-18-4.65828E-19
 -1       718 1.30992E-04-5.17616E-05-3.41350E-05 8.84903E-06-1.23138E-18-5.18470E-18
 -1       719 1.26840E-04-2.46691E-05-4.41456E-05 1.46097E-05 4.51683E-18 4.81393E-19
 -1       720 1.20252E-04-4.10304E-05-3.40967E-05-9.23895E-06-1.07721E-18-2.09177E-20
 -1       721 1.37954E-04-5.54826E-05-3.53265E-05-4.24468E-06-7.70800E-20 3.16348E-18
 -1       722 1.23309E-04-1.94016E-05-4.49409E-05-8.84899E-06 4.93196E-18-4.85056E-18
 -1       723 1.06662E-04-5.03635E-05-2.39104E-05-3.20896E-05 3.04593E-18 3.59294E-19
 -1       724 3.65474E-05-7.67417E-06-1.18287E-05 1.96645E-06-8.55716E-19 4.59828E-18
 -1       725 1.20817E-04-5.23564E-05-2.93334E-05 1.72367E-05-2.96032E-18-3.69488E-18
 -1       726 9.52387E-05-2.85747E-05-2.85703E-05-3.84346E-09 4.81145E-19-2.76383E-19
 -1       727 1.18180E-04-1.63074E-05-4.39925E-05 1.51397E-05 5.16627E-18-3.98231E-19
 -1       728 1.11935E-04-1.11315E-05-4.34911E-05 7.51285E-06 5.65690E-18-2.02241E-18
 -1       729 1.12133E-04-2.66908E-05-3.66353E-05 1.70616E-05 2.55706E-18-8.46548E-19
 -1       730 1.09563E-04-3.23299E-05-3.31019E-05-8.91425E-06 1.06637E-18-3.76385E-18
 -1       731 6.88948E-05-2.41772E-05-1.89181E-05 2.98297E-05-3.74937E-18 1.99448E-18
 -1       732 5.24831E-05-1.14207E-05-1.73199E-05 1.36834E-05-2.16157E-18 2.78849E-18
 -1       733 8.43758E-05-2.42830E-05-2.57168E-05-1.90845E-05 9.03291E-19 1.58264E-18
 -1       734 8.51710E-05-2.19601E-05-2.70976E-05-1.44889E-05 4.56798E-19 7.56281E-19
 -1       735 8.70436E-05-2.16357E-05-2.80330E-05-1.13792E-05-9.07510E-20 3.73083E-19
 -1       736 8.89507E-05-2.22163E-05-2.86005E-05-9.14412E-06 8.23479E-19 6.57191E-19
 -1       737 9.06022E-05-2.31396E-05-2.89123E-05-7.40534E-06-1.42095E-19-8.01766E-19
 -1       738 9.19193E-05-2.41201E-05-2.90564E-05-5.98453E-06-5.35474E-19-1.26307E-18
 -1       739 9.29164E-05-2.50222E-05-2.90972E-05-4.79755E-06-7.21241E-19-1.80058E-18
 -1       740 9.36448E-05-2.57942E-05-2.90786E-05-3.80299E-06-1.18337E-18-1.59221E-18
 -1       741 9.41632E-05-2.64278E-05-2.90293E-05-2.97606E-06-6.25515E-19-5.70995E-20
 -1       742 9.45248E-05-2.69345E-05-2.89671E-05-2.29695E-06-1.51291E-19-3.46339E-19
 -1       743 9.47731E-05-2.73329E-05-2.89028E-05-1.74692E-06-8.37270E-19-1.71742E-18
 -1       744 9.49415E-05-2.76427E-05-2.88422E-05-1.30776E-06-5.60391E-19-2.46283E-18
 -1       745 9.50543E-05-2.78817E-05-2.87882E-05-9.62184E-07 3.43606E-19-1.55773E-18
 -1       746 9.51289E-05-2.80647E-05-2.87418E-05-6.94228E-07-4.37135E-20-7.34193E-19
 -1       747 9.51776E-05-2.82039E-05-2.87030E-05-4.89564E-07 5.49324E-20-1.15724E-18
 -1       748 9.52088E-05-2.83089E-05-2.86714E-05-3.35704E-07 7.82911E-19-1.10120E-18
 -1       749 9.52282E-05-2.83876E-05-2.86460E-05-2.22006E-07-4.64861E-19-1.44764E-18
 -1       750 9.52398E-05-2.84458E-05-2.86260E-05-1.39591E-07-1.23737E-20-2.35161E-18
 -1       751 9.52463E-05-2.84884E-05-2.86105E-05-8.11722E-08 6.04426E-19-2.43282E-18
 -1       752 9.52494E-05-2.85190E-05-2.85987E-05-4.08729E-08 8.77496E-19-3.39602E-18
 -1       753 9.52504E-05-2.85407E-05-2.85899E-05-1.40217E-08 3.27048E-19-2.14689E-18
 -1       754 9.52501E-05-2.85555E-05-2.85834E-05 3.03732E-09-4.79400E-19-1.78323E-18
 -1       755 9.52491E-05-2.85655E-05-2.85787E-05 1.31217E-08-9.27062E-19-6.05644E-19
 -1       756 9.52477E-05-2.85718E-05-2.85754E-05 1.83686E-08-4.90087E-19-3.54379E-19
 -1       757 9.52462E-05-2.85756E-05-2.85731E-05 2.03718E-08 1.11768E-18 2.68901E-18
 -1       758 9.52447E-05-2.85775E-05-2.85717E-05 2.02969E-08 1.58660E-18 1.88659E-18
 -1       759 9.52433E-05-2.85783E-05-2.85707E-05 1.89782E-08 5.54281E-19 9.94701E-19
 -1       760 9.52421E-05-2.85783E-05-2.85702E-05 1.69971E-08-3.09804E-20 3.05995E-19
 -1       761 9.52410E-05-2.85779E-05-2.85699E-05 1.47451E-08 7.95805E-19-3.63493E-19
 -1       762 9.52402E-05-2.85772E-05-2.85699E-05 1.24736E-08 9.91825E-19-4.68259E-19
 -1       763 9.52394E-05-2.85764E-05-2.85699E-05 1.03328E-08 8.46373E-19 1.04392E-18
 -1       764 9.52388E-05-2.85756E-05-2.85700E-05 8.40254E-09-2.94644E-18 6.19916E-20
 -1       765 9.52384E-05-2.85749E-05-2.85701E-05 6.71956E-09-1.14813E-18 1.07790E-18
 -1       766 9.52381E-05-2.85743E-05-2.85702E-05 5.26275E-09-2.07194E-18 6.17094E-19
 -1       767 1.10237E-04-3.65242E-05-3.15909E-05-6.51016E-06 4.32348E-19-3.19413E-18
 -1       768 1.03674E-04-3.51458E-05-2.93702E-05 2.28128E-06-1.83951E-19-5.43227E-19
 -1       769 1.01149E-04-3.30832E-05-2.91716E-05 3.57823E-06-3.58867E-19-2.37796E-20
 -1       770 9.91410E-05-3.12741E-05-2.90863E-05 4.13834E-06-6.03592E-19 4.02892E-20
 -1       771 9.76770E-05-2.98892E-05-2.90522E-05 4.19336E-06-3.20457E-19-9.96417E-19
 -1       772 9.66763E-05-2.89326E-05-2.90331E-05 3.93739E-06-2.89220E-19-6.83960E-19
 -1       773 9.60293E-05-2.83354E-05-2.90116E-05 3.51246E-06-6.49368E-19-6.24811E-19
 -1       774 9.56329E-05-2.80086E-05-2.89817E-05 3.01582E-06-8.39386E-19-1.46811E-18
 -1       775 9.54043E-05-2.78693E-05-2.89435E-05 2.51065E-06-3.60359E-19-4.12988E-19
 -1       776 9.52823E-05-2.78499E-05-2.88995E-05 2.03537E-06-4.05445E-19-7.32675E-19
 -1       777 9.52247E-05-2.79001E-05-2.88533E-05 1.61081E-06-8.15014E-19-1.20553E-18
 -1       778 9.52035E-05-2.79852E-05-2.88078E-05 1.24594E-06-1.27405E-18-7.44198E-19
 -1       779 9.52012E-05-2.80825E-05-2.87651E-05 9.41992E-07-4.73356E-19 5.61991E-19
 -1       780 9.52076E-05-2.81784E-05-2.87268E-05 6.95480E-07-4.97690E-19-8.64757E-20
 -1       781 9.52167E-05-2.82652E-05-2.86934E-05 5.00309E-07 4.80202E-20 9.81945E-20
 -1       782 9.52255E-05-2.83398E-05-2.86653E-05 3.49258E-07 4.05877E-20-1.10208E-18
 -1       783 9.52328E-05-2.84012E-05-2.86421E-05 2.34947E-07 1.05594E-19-1.45215E-18
 -1       784 9.52381E-05-2.84501E-05-2.86234E-05 1.50424E-07 3.11206E-19-2.03031E-18
 -1       785 9.52417E-05-2.84879E-05-2.86087E-05 8.94839E-08 6.16601E-19-1.17524E-18
 -1       786 9.52437E-05-2.85164E-05-2.85974E-05 4.67993E-08 2.00476E-19-9.16919E-20
 -1       787 9.52446E-05-2.85373E-05-2.85888E-05 1.79390E-08-4.94725E-19 1.80991E-19
 -1       788 9.52447E-05-2.85522E-05-2.85825E-05-6.87508E-10-9.83755E-19 2.83669E-18
 -1       789 9.52442E-05-2.85624E-05-2.85779E-05-1.19222E-08 8.69098E-19 1.96167E-18
 -1       790 9.52435E-05-2.85691E-05-2.85747E-05-1.79654E-08-5.68756E-20 1.73209E-18
 -1       791 9.52427E-05-2.85733E-05-2.85726E-05-2.04846E-08-1.50649E-18 1.28088E-18
 -1       792 9.52418E-05-2.85757E-05-2.85712E-05-2.07160E-08 5.25440E-19 1.22737E-18
 -1       793 9.52409E-05-2.85768E-05-2.85703E-05-1.95538E-08-2.85756E-19 1.25230E-18
 -1       794 9.52402E-05-2.85771E-05-2.85699E-05-1.76278E-08-5.66564E-19 6.50302E-19
 -1       795 9.52395E-05-2.85769E-05-2.85697E-05-1.53664E-08-1.32570E-18 1.56690E-18
 -1       796 9.52390E-05-2.85764E-05-2.85696E-05-1.30477E-08-6.29497E-19 1.08774E-18
 -1       797 9.52385E-05-2.85758E-05-2.85697E-05-1.08407E-08 1.08144E-18 4.29305E-19
 -1       798 9.52381E-05-2.85752E-05-2.85698E-05-8.83499E-09 2.07269E-19-4.47136E-19
 -1       799 9.52379E-05-2.85746E-05-2.85700E-05-7.04957E-09-1.56025E-19-6.06760E-19
 -1       800 9.52420E-05-2.85777E-05-2.85704E-05 1.23830E-11-2.27741E-19 4.61836E-19
 -1       801 1.04586E-04-2.08074E-05-3.59225E-05-2.84902E-06 2.91620E-18-2.56919E-18
 -1       802 9.52399E-05-2.85759E-05-2.85703E-05 4.44728E-09-2.67816E-18-2.69657E-19
 -1       803 1.04697E-04-1.95791E-05-3.65225E-05 5.13626E-06 3.34310E-18-1.59732E-18
 -1       804 9.38979E-05-3.87990E-05-2.33003E-05-2.96021E-05 3.14642E-18 1.03811E-18
 -1       805 1.12049E-04-1.63857E-05-4.12053E-05-5.56241E-06 4.76117E-18-4.19495E-18
 -1       806 1.08965E-04-3.78316E-05-3.04837E-05-3.08208E-06 2.26167E-19-2.31602E-18
 -1       807 9.52418E-05-2.85775E-05-2.85704E-05 1.73633E-09 4.06970E-19 1.72348E-18
 -1       808 1.17787E-04-2.92423E-05-3.80002E-05 1.62053E-05 2.03753E-18-2.63308E-20
 -1       809 1.06849E-04-2.60842E-05-3.46363E-05-8.06017E-06 1.97724E-18-3.59589E-18
 -1       810 9.52410E-05-2.85768E-05-2.85704E-05 3.28980E-09-1.71345E-18-5.58820E-19
 -1       811 6.78570E-05-2.18940E-05-1.94584E-05-2.58813E-05 2.25660E-18 3.77615E-18
 -1       812 1.06473E-04-3.70059E-05-2.97719E-05 5.15628E-08 4.45393E-19-1.64150E-18
 -1       813 1.21183E-04-3.09725E-05-3.88830E-05-9.84564E-06 2.06423E-18-4.93665E-18
 -1       814 1.22275E-04-3.00719E-05-3.96586E-05 1.51890E-05 2.39092E-18 5.54132E-19
 -1       815 1.26223E-04-4.35138E-05-3.55795E-05-3.23842E-06-2.86416E-19-5.36931E-18
 -1       816 9.32001E-05-3.96286E-05-2.27844E-05 3.14902E-05-4.31164E-18 5.49446E-19
 -1       817 5.32837E-05-1.06009E-05-1.79872E-05-8.53543E-06-5.21045E-20 2.14874E-18
 -1       818 9.52388E-05-2.85749E-05-2.85702E-05-4.84524E-09-1.08555E-19-9.77928E-19
 -1       819 9.52389E-05-2.85752E-05-2.85702E-05-5.96100E-09-1.58633E-18 1.88204E-19
 -1       820 9.52410E-05-2.85768E-05-2.85704E-05-3.28772E-09-9.18392E-19-1.74659E-19
 -1       821 1.22683E-04-4.82624E-05-3.19280E-05 4.11291E-06-1.77253E-18-4.88033E-18
 -1       822 9.52400E-05-2.85760E-05-2.85703E-05-4.23720E-09-8.30606E-19-2.21303E-18
 -1       823 9.52418E-05-2.85775E-05-2.85704E-05-1.74124E-09-1.36485E-19 1.49321E-18
 -1       824 1.07975E-04-2.16476E-05-3.70467E-05 1.34139E-05 3.24392E-18-9.72348E-19
 -1       825 1.08165E-04-4.64426E-05-2.64026E-05 2.30579E-05-3.46944E-18-1.56891E-18
 -1       826 1.16031E-04-2.30394E-05-3.99881E-05 1.69606E-05 3.27182E-18 2.14475E-19
 -1       827 6.90634E-05-1.86408E-05-2.15081E-05 1.87688E-05-2.20754E-18 1.39373E-18
 -1       828 1.15356E-04-3.84088E-05-3.29958E-05-6.29478E-06-2.95844E-19-4.17971E-18
 -1       829 7.92718E-05-1.79236E-05-2.62921E-05-8.99615E-06-1.94607E-19 8.24320E-19
 -1       830 8.31996E-05-1.92651E-05-2.74017E-05-7.19564E-06-3.46407E-19-2.44741E-19
 -1       831 8.62546E-05-2.07194E-05-2.80873E-05-5.95903E-06-4.40702E-19-1.03797E-18
 -1       832 8.86022E-05-2.21128E-05-2.84957E-05-4.98932E-06-1.04584E-18-1.57553E-18
 -1       833 9.03852E-05-2.33618E-05-2.87244E-05-4.16120E-06-8.66428E-19-1.16237E-18
 -1       834 9.17235E-05-2.44337E-05-2.88385E-05-3.42942E-06-6.44585E-19-1.07990E-18
 -1       835 9.27174E-05-2.53269E-05-2.88817E-05-2.78288E-06 2.33503E-19-7.57883E-19
 -1       836 9.34485E-05-2.60553E-05-2.88828E-05-2.22041E-06-4.40119E-19 1.94119E-19
 -1       837 9.39815E-05-2.66397E-05-2.88607E-05-1.74080E-06-1.29409E-18-4.98408E-19
 -1       838 9.43673E-05-2.71031E-05-2.88275E-05-1.34028E-06-1.19818E-18-1.58813E-19
 -1       839 9.46446E-05-2.74670E-05-2.87904E-05-1.01272E-06 4.95825E-19 7.12063E-19
 -1       840 9.48424E-05-2.77503E-05-2.87537E-05-7.50129E-07 7.51987E-19 7.34321E-19
 -1       841 9.49820E-05-2.79689E-05-2.87199E-05-5.43599E-07 7.80732E-20 2.33213E-20
 -1       842 9.50795E-05-2.81361E-05-2.86900E-05-3.84159E-07 3.64001E-19-6.23853E-19
 -1       843 9.51464E-05-2.82627E-05-2.86645E-05-2.63371E-07-3.94196E-19-1.73999E-18
 -1       844 9.51914E-05-2.83574E-05-2.86432E-05-1.73654E-07-7.38939E-19-1.54556E-18
 -1       845 9.52209E-05-2.84274E-05-2.86258E-05-1.08433E-07 1.59191E-19-1.94845E-18
 -1       846 9.52393E-05-2.84783E-05-2.86118E-05-6.21655E-08 4.00855E-19-2.20531E-18
 -1       847 9.52501E-05-2.85147E-05-2.86009E-05-3.02890E-08 1.00615E-18-1.38408E-18
 -1       848 9.52557E-05-2.85401E-05-2.85924E-05-9.12910E-09-5.48217E-19-1.05739E-18
 -1       849 9.52578E-05-2.85573E-05-2.85859E-05 4.21768E-09-5.03674E-19-9.48774E-19
 -1       850 9.52577E-05-2.85685E-05-2.85811E-05 1.20028E-08-1.40917E-19-6.41404E-19
 -1       851 9.52564E-05-2.85754E-05-2.85776E-05 1.59401E-08 1.58903E-18-1.58895E-18
 -1       852 9.52543E-05-2.85793E-05-2.85750E-05 1.73092E-08 1.79229E-18-2.33546E-18
 -1       853 9.52520E-05-2.85811E-05-2.85732E-05 1.70458E-08 6.29917E-19-2.48765E-18
 -1       854 9.52496E-05-2.85815E-05-2.85720E-05 1.58182E-08 1.83262E-19-1.48884E-18
 -1       855 9.52474E-05-2.85811E-05-2.85712E-05 1.40907E-08 4.85613E-19 6.24194E-20
 -1       856 9.52453E-05-2.85802E-05-2.85708E-05 1.21738E-08 1.39144E-18 4.04236E-19
 -1       857 9.52436E-05-2.85791E-05-2.85705E-05 1.02648E-08 6.41544E-19-1.30232E-19
 -1       858 9.52421E-05-2.85780E-05-2.85703E-05 8.48133E-09-1.64908E-18-1.06605E-18
 -1       859 9.52408E-05-2.85769E-05-2.85703E-05 6.89335E-09-7.61411E-19 1.63236E-18
 -1       860 9.52404E-05-2.85763E-05-2.85703E-05 5.59136E-09-1.14605E-18 9.89232E-19
 -1       861 9.88494E-05-3.18976E-05-2.86937E-05 5.87905E-06-3.96044E-19-3.14749E-19
 -1       862 1.01626E-04-3.44620E-05-2.87849E-05 5.72027E-06-4.25071E-19-6.63789E-19
 -1       863 9.57500E-05-2.86709E-05-2.87482E-05 4.92196E-06-5.66346E-20 5.93609E-19
 -1       864 9.50618E-05-2.78775E-05-2.87933E-05 4.23122E-06-2.05601E-19 4.47542E-19
 -1       865 9.47193E-05-2.74629E-05-2.88242E-05 3.54069E-06-4.95156E-19 6.84652E-19
 -1       866 9.45955E-05-2.73090E-05-2.88371E-05 2.89763E-06-1.30823E-18 1.83423E-19
 -1       867 9.45995E-05-2.73209E-05-2.88337E-05 2.32508E-06-5.46562E-19 2.29789E-19
 -1       868 9.46697E-05-2.74278E-05-2.88179E-05 1.83145E-06-4.15828E-19 5.78402E-19
 -1       869 9.47673E-05-2.75808E-05-2.87942E-05 1.41653E-06-8.09285E-19 1.29983E-19
 -1       870 9.48690E-05-2.77476E-05-2.87663E-05 1.07537E-06-1.72650E-18-7.44047E-20
 -1       871 9.49624E-05-2.79090E-05-2.87372E-05 8.00442E-07-8.28838E-19 9.75204E-19
 -1       872 9.50418E-05-2.80541E-05-2.87090E-05 5.83057E-07 1.44997E-19 9.34389E-19
 -1       873 9.51056E-05-2.81784E-05-2.86831E-05 4.14326E-07 3.55885E-19 1.42731E-18
 -1       874 9.51546E-05-2.82809E-05-2.86602E-05 2.85796E-07 6.18840E-19 5.75565E-19
 -1       875 9.51907E-05-2.83627E-05-2.86405E-05 1.89799E-07 2.13709E-19-2.63783E-19
 -1       876 9.52161E-05-2.84264E-05-2.86242E-05 1.19617E-07-1.10838E-19 7.13221E-19
 -1       877 9.52332E-05-2.84746E-05-2.86108E-05 6.95364E-08 2.74899E-19 1.42910E-18
 -1       878 9.52440E-05-2.85101E-05-2.86002E-05 3.48141E-08-2.17104E-19 1.38276E-18
 -1       879 9.52501E-05-2.85357E-05-2.85919E-05 1.15966E-08-2.13189E-18 8.81432E-19
 -1       880 9.52530E-05-2.85534E-05-2.85855E-05-3.18357E-09 2.72655E-19 6.14637E-19
 -1       881 9.52537E-05-2.85653E-05-2.85808E-05-1.19218E-08 4.00975E-19 1.55152E-18
 -1       882 9.52531E-05-2.85728E-05-2.85773E-05-1.64533E-08-4.06136E-19 2.49729E-18
 -1       883 9.52517E-05-2.85773E-05-2.85748E-05-1.81568E-08-1.93636E-19 9.46174E-19
 -1       884 9.52499E-05-2.85795E-05-2.85730E-05-1.80461E-08-5.37812E-20 1.03704E-18
 -1       885 9.52480E-05-2.85804E-05-2.85718E-05-1.68499E-08-3.32605E-19 8.40139E-19
 -1       886 9.52461E-05-2.85802E-05-2.85711E-05-1.50774E-08-7.21838E-19 9.31529E-20
 -1       887 9.52443E-05-2.85796E-05-2.85706E-05-1.30722E-08-8.19330E-19 5.05282E-19
 -1       888 9.52428E-05-2.85786E-05-2.85704E-05-1.10530E-08 9.37450E-19-1.60758E-19
 -1       889 9.52415E-05-2.85776E-05-2.85702E-05-9.15898E-09 1.41888E-18-4.06365E-19
 -1       890 9.52404E-05-2.85766E-05-2.85702E-05-7.44810E-09-7.60775E-20-5.30757E-19
 -1       891 1.07216E-04-1.53091E-05-3.95119E-05 6.38749E-06 4.28090E-18-1.77206E-18
 -1       892 9.52435E-05-2.85788E-05-2.85706E-05 1.07550E-09 3.79118E-19 9.51377E-19
 -1       893 1.13474E-04-4.10992E-05-3.10210E-05-1.71904E-06-5.05602E-19-2.68319E-18
 -1       894 1.11270E-04-1.73663E-05-4.03771E-05 1.30682E-05 3.99938E-18-8.81816E-19
 -1       895 9.69491E-05-2.99742E-05-2.87036E-05 5.52400E-06-3.37096E-19 2.76253E-19
 -1       896 7.43960E-05-1.70932E-05-2.45156E-05-1.18084E-05-6.67766E-20 1.86166E-18
 -1       897 6.09108E-05-1.16599E-05-2.10076E-05 2.42210E-06-9.01959E-19 1.58353E-18
 -1       898 6.52583E-05-1.40109E-05-2.18368E-05-1.13033E-05-1.57073E-19 1.70943E-18
 -1       899 8.35076E-05-2.94789E-05-2.30613E-05 2.48866E-05-3.19005E-18 6.73772E-19
 -1       900 1.19021E-04-3.75000E-05-3.49836E-05-7.59583E-06 2.48578E-19-4.26856E-18
 -1       901 9.52435E-05-2.85788E-05-2.85706E-05-1.08821E-09 7.76748E-19-2.86472E-19
 -1       902 9.52420E-05-2.85776E-05-2.85704E-05 4.26533E-09-2.93580E-18-2.52935E-18
 -1       903 1.05301E-04-3.74262E-05-2.90889E-05 4.65419E-06-7.34037E-19-1.11218E-18
 -1       904 1.14481E-04-3.46884E-05-3.42077E-05-8.32488E-06 9.35269E-19-4.91313E-18
 -1       905 9.52405E-05-2.85765E-05-2.85703E-05-5.30674E-09-1.90709E-18-8.29155E-19
 -1       906 1.15733E-04-4.74856E-05-2.92548E-05 1.16143E-05-2.17715E-18-4.23121E-18
 -1       907 9.52419E-05-2.85775E-05-2.85704E-05-4.24405E-09 7.55435E-19 3.59675E-19
 -1       908 1.09567E-04-4.01022E-05-2.97683E-05 2.22037E-06-4.38001E-19-2.19557E-18
 -1       909 9.59804E-05-3.70296E-05-2.52257E-05 2.25145E-05-3.16497E-18 2.63380E-19
 -1       910 9.52429E-05-2.85783E-05-2.85705E-05-2.79619E-09 1.04643E-18 6.22664E-19
 -1       911 9.52429E-05-2.85784E-05-2.85705E-05 2.78813E-09-1.68100E-18-1.58287E-18
 -1       912 7.19093E-05-1.46710E-05-2.45113E-05-3.31163E-06-1.01242E-18 4.25961E-19
 -1       913 8.23497E-05-1.88424E-05-2.72191E-05-2.87803E-06-7.14044E-19-1.58802E-19
 -1       914 8.55831E-05-2.05145E-05-2.78877E-05-2.78980E-06-1.33861E-18-3.63589E-19
 -1       915 8.80183E-05-2.19762E-05-2.83041E-05-2.61338E-06-5.53587E-19-5.92645E-19
 -1       916 8.98651E-05-2.32396E-05-2.85540E-05-2.36281E-06-9.55908E-19-8.27915E-19
 -1       917 9.12662E-05-2.43115E-05-2.86950E-05-2.06484E-06-2.45407E-19-7.33471E-19
 -1       918 9.23265E-05-2.52069E-05-2.87656E-05-1.74912E-06-4.77543E-19-1.90162E-18
 -1       919 9.31243E-05-2.59429E-05-2.87920E-05-1.44075E-06-1.15544E-18-2.76299E-18
 -1       920 9.37213E-05-2.65401E-05-2.87919E-05-1.15604E-06-6.35775E-19-1.75392E-18
 -1       921 9.41654E-05-2.70198E-05-2.87767E-05-9.05127E-07 1.24553E-19-6.82472E-19
 -1       922 9.44930E-05-2.74007E-05-2.87539E-05-6.92179E-07 7.15742E-19-9.77766E-20
 -1       923 9.47323E-05-2.77000E-05-2.87282E-05-5.16857E-07-1.79930E-19 9.32370E-20
 -1       924 9.49051E-05-2.79325E-05-2.87026E-05-3.76300E-07-1.07495E-18-4.09305E-19
 -1       925 9.50282E-05-2.81113E-05-2.86787E-05-2.66326E-07-6.63659E-19-1.93353E-18
 -1       926 9.51144E-05-2.82469E-05-2.86575E-05-1.82262E-07 2.08372E-19-1.33238E-18
 -1       927 9.51734E-05-2.83485E-05-2.86392E-05-1.19482E-07-9.28833E-20 8.12284E-19
 -1       928 9.52125E-05-2.84234E-05-2.86239E-05-7.37333E-08-2.12683E-19 9.18539E-19
 -1       929 9.52374E-05-2.84777E-05-2.86113E-05-4.12899E-08 6.95570E-19-1.03172E-19
 -1       930 9.52523E-05-2.85162E-05-2.86012E-05-1.90091E-08 8.64688E-20-1.19017E-18
 -1       931 9.52602E-05-2.85429E-05-2.85931E-05-4.31742E-09-7.65975E-19-1.45256E-18
 -1       932 9.52634E-05-2.85607E-05-2.85869E-05 4.83987E-09 2.78879E-19-6.15083E-19
 -1       933 9.52637E-05-2.85720E-05-2.85821E-05 1.00660E-08 5.98883E-20 5.89129E-19
 -1       934 9.52621E-05-2.85788E-05-2.85786E-05 1.25848E-08 7.65032E-19-6.09830E-19
 -1       935 9.52596E-05-2.85824E-05-2.85760E-05 1.33107E-08 7.64652E-19-1.77864E-18
 -1       936 9.52566E-05-2.85838E-05-2.85741E-05 1.29110E-08 1.42104E-18-1.23098E-18
 -1       937 9.52535E-05-2.85838E-05-2.85727E-05 1.18605E-08 4.51967E-19 5.55650E-19
 -1       938 9.52506E-05-2.85830E-05-2.85718E-05 1.04879E-08 8.45380E-19-7.34790E-19
 -1       939 9.52479E-05-2.85818E-05-2.85712E-05 9.00911E-09-9.43382E-19-1.43648E-18
 -1       940 9.52456E-05-2.85804E-05-2.85708E-05 7.56295E-09-7.34844E-19-2.28519E-18
 -1       941 9.52436E-05-2.85789E-05-2.85706E-05 6.22908E-09 6.77829E-19-1.57809E-18
 -1       942 9.52428E-05-2.85782E-05-2.85705E-05 5.18490E-09-4.43748E-19-1.94237E-18
 -1       943 9.79302E-05-3.22114E-05-2.81642E-05 8.38352E-06-9.91387E-19-8.18379E-19
 -1       944 9.35402E-05-2.67511E-05-2.86240E-05 4.01281E-06-9.23076E-19 1.48774E-18
 -1       945 9.37543E-05-2.72103E-05-2.85191E-05 4.98763E-06-1.09239E-19 7.48051E-19
 -1       946 9.37478E-05-2.66836E-05-2.87418E-05 2.49780E-06-6.39657E-19 2.12638E-18
 -1       947 9.39776E-05-2.68660E-05-2.87622E-05 1.93564E-06-3.11406E-19 1.85527E-18
 -1       948 9.42188E-05-2.71011E-05-2.87648E-05 1.48129E-06-4.28992E-19 1.24389E-18
 -1       949 9.44448E-05-2.73494E-05-2.87552E-05 1.11829E-06-1.38624E-18 8.47588E-19
 -1       950 9.46423E-05-2.75863E-05-2.87383E-05 8.31682E-07-1.51315E-18 1.14015E-18
 -1       951 9.48063E-05-2.77985E-05-2.87176E-05 6.08080E-07-4.78567E-19 1.08991E-18
 -1       952 9.49372E-05-2.79802E-05-2.86959E-05 4.35836E-07-2.02716E-19 1.68771E-18
 -1       953 9.50381E-05-2.81305E-05-2.86747E-05 3.04977E-07 1.30171E-18 1.90866E-18
 -1       954 9.51134E-05-2.82511E-05-2.86552E-05 2.07070E-07 1.25460E-18 1.72996E-18
 -1       955 9.51677E-05-2.83456E-05-2.86381E-05 1.35068E-07-6.83107E-19 1.75168E-18
 -1       956 9.52055E-05-2.84176E-05-2.86234E-05 8.31561E-08-4.05195E-19 5.62054E-19
 -1       957 9.52307E-05-2.84714E-05-2.86111E-05 4.66027E-08-1.04318E-18 2.50870E-18
 -1       958 9.52464E-05-2.85104E-05-2.86011E-05 2.16052E-08-5.07730E-19 2.27814E-18
 -1       959 9.52554E-05-2.85379E-05-2.85932E-05 5.15196E-09-6.05740E-19 9.61254E-19
 -1       960 9.52596E-05-2.85567E-05-2.85870E-05-5.10866E-09 2.00734E-19 1.15370E-18
 -1       961 9.52608E-05-2.85690E-05-2.85822E-05-1.09848E-08-4.41112E-19 1.62979E-18
 -1       962 9.52599E-05-2.85766E-05-2.85786E-05-1.38446E-08 1.74478E-19 7.11456E-19
 -1       963 9.52579E-05-2.85807E-05-2.85759E-05-1.47044E-08 1.33036E-19 1.20337E-18
 -1       964 9.52553E-05-2.85826E-05-2.85740E-05-1.43046E-08 2.13542E-19 8.74369E-19
 -1       965 9.52526E-05-2.85830E-05-2.85727E-05-1.31716E-08 1.57070E-19 1.31139E-18
 -1       966 9.52499E-05-2.85825E-05-2.85718E-05-1.16706E-08-1.06880E-18 3.25206E-19
 -1       967 9.52474E-05-2.85814E-05-2.85712E-05-1.00483E-08-8.91789E-20-1.03123E-18
 -1       968 9.52453E-05-2.85801E-05-2.85708E-05-8.43632E-09 1.06343E-18-6.25738E-19
 -1       969 9.52434E-05-2.85788E-05-2.85705E-05-6.96210E-09 7.95988E-19 9.93610E-19
 -1       970 7.06916E-05-1.58394E-05-2.34848E-05 8.66356E-06-1.43418E-18 1.54880E-18
 -1       971 9.52427E-05-2.85782E-05-2.85705E-05-5.49911E-09 1.01270E-18 1.44382E-18
 -1       972 8.09701E-05-2.42601E-05-2.42754E-05 1.76833E-05-2.15736E-18 3.28612E-19
 -1       973 7.79964E-05-1.69456E-05-2.61624E-05-2.94693E-06-8.98395E-19-2.80910E-19
 -1       974 9.35766E-05-2.66157E-05-2.86975E-05 3.18524E-06-5.41816E-19 2.28568E-18
 -1       975 1.01487E-04-3.56251E-05-2.82314E-05 9.02907E-06-1.18909E-18-1.73614E-18
 -1       976 9.56796E-05-2.97550E-05-2.82537E-05 7.28480E-06-8.19645E-19 3.82180E-19
 -1       977 8.96991E-05-3.02441E-05-2.54779E-05 1.81470E-05-1.66896E-18 3.38704E-19
 -1       978 1.17024E-04-4.25544E-05-3.19193E-05-2.19850E-06-1.11039E-18-3.41653E-18
 -1       979 1.12990E-04-4.37724E-05-2.96535E-05 6.11888E-06-1.01245E-18-3.01499E-18
 -1       980 9.52455E-05-2.85802E-05-2.85708E-05-9.13486E-12 2.45481E-19-7.56282E-19
 -1       981 9.43881E-05-2.81488E-05-2.83886E-05 6.09828E-06-4.53989E-19 4.75426E-19
 -1       982 1.05645E-04-4.16495E-05-2.74251E-05 1.57367E-05-2.16694E-18-2.41655E-18
 -1       983 9.52451E-05-2.85800E-05-2.85708E-05 2.12062E-09-9.54955E-19-1.60693E-18
 -1       984 9.52441E-05-2.85792E-05-2.85707E-05-3.89357E-09 1.51711E-18-1.76782E-19
 -1       985 9.52453E-05-2.85801E-05-2.85708E-05-5.22537E-09-1.04595E-18 2.09540E-18
 -1       986 8.63070E-05-2.12174E-05-2.78953E-05-2.09954E-07-9.56816E-19 5.56737E-19
 -1       987 8.84256E-05-2.24742E-05-2.82654E-05-6.37472E-07-8.39584E-19 9.67555E-19
 -1       988 9.00671E-05-2.35762E-05-2.84967E-05-8.32299E-07-8.55030E-19 6.64120E-19
 -1       989 9.13469E-05-2.45351E-05-2.86336E-05-8.77505E-07-1.25578E-18-4.68274E-19
 -1       990 9.23382E-05-2.53521E-05-2.87084E-05-8.31350E-07-1.05871E-18-4.44436E-19
 -1       991 9.30999E-05-2.60331E-05-2.87431E-05-7.33866E-07-6.14852E-19-6.38561E-19
 -1       992 9.36853E-05-2.65979E-05-2.87519E-05-6.16653E-07 2.11437E-19-3.44454E-19
 -1       993 9.41289E-05-2.70577E-05-2.87450E-05-4.98610E-07 6.20768E-20 5.93967E-19
 -1       994 9.44617E-05-2.74268E-05-2.87294E-05-3.89764E-07 2.80510E-19 5.76722E-19
 -1       995 9.47083E-05-2.77192E-05-2.87097E-05-2.95264E-07-9.18949E-19 1.77102E-19
 -1       996 9.48886E-05-2.79479E-05-2.86890E-05-2.16813E-07-1.43758E-18 3.78189E-19
 -1       997 9.50182E-05-2.81242E-05-2.86689E-05-1.53998E-07 1.64242E-19 1.35725E-18
 -1       998 9.51095E-05-2.82583E-05-2.86506E-05-1.05257E-07 5.58726E-19 8.86727E-19
 -1       999 9.51723E-05-2.83586E-05-2.86345E-05-6.85271E-08 4.41290E-19 1.49028E-18
 -1      1000 9.52140E-05-2.84323E-05-2.86207E-05-4.16440E-08-2.34729E-19 1.55500E-18
 -1      1001 9.52404E-05-2.84855E-05-2.86093E-05-2.25736E-08-2.67965E-20 1.30628E-18
 -1      1002 9.52561E-05-2.85229E-05-2.86000E-05-9.52560E-09-6.00693E-19 8.96849E-19
 -1      1003 9.52643E-05-2.85485E-05-2.85925E-05-9.95017E-10-3.83981E-19 1.66065E-18
 -1      1004 9.52674E-05-2.85653E-05-2.85866E-05 4.23866E-09 4.15931E-19 6.36598E-19
 -1      1005 9.52674E-05-2.85758E-05-2.85821E-05 7.13650E-09 3.28687E-19 9.64707E-19
 -1      1006 9.52654E-05-2.85818E-05-2.85787E-05 8.43541E-09 6.60459E-20 1.59239E-18
 -1      1007 9.52624E-05-2.85847E-05-2.85761E-05 8.68624E-09 3.97621E-19 6.79479E-19
 -1      1008 9.52589E-05-2.85856E-05-2.85743E-05 8.28987E-09 1.68307E-18-1.09622E-18
 -1      1009 9.52554E-05-2.85852E-05-2.85729E-05 7.52926E-09 7.03191E-19-1.48299E-18
 -1      1010 9.52520E-05-2.85840E-05-2.85720E-05 6.60364E-09-1.37691E-19-3.43494E-19
 -1      1011 9.52490E-05-2.85825E-05-2.85714E-05 5.63176E-09-2.05440E-18-1.71519E-18
 -1      1012 9.52464E-05-2.85809E-05-2.85709E-05 4.70289E-09-3.02704E-20-1.56659E-18
 -1      1013 9.35799E-05-2.65582E-05-2.87239E-05 1.40884E-06 1.73982E-19 1.70569E-18
 -1      1014 9.31647E-05-2.62191E-05-2.86912E-05 1.88699E-06-4.68686E-19 1.65600E-18
 -1      1015 9.42677E-05-2.72254E-05-2.87326E-05 7.65930E-07-1.50799E-18 1.45072E-18
 -1      1016 9.45272E-05-2.75119E-05-2.87210E-05 5.55588E-07-7.52779E-19 1.09708E-18
 -1      1017 9.47336E-05-2.77565E-05-2.87046E-05 3.97171E-07-6.20095E-19 9.06186E-19
 -1      1018 9.48932E-05-2.79589E-05-2.86862E-05 2.78751E-07 2.83779E-19 5.01317E-19
 -1      1019 9.50132E-05-2.81221E-05-2.86677E-05 1.91070E-07 1.51501E-18 1.07989E-18
 -1      1020 9.51011E-05-2.82503E-05-2.86504E-05 1.26915E-07 5.08337E-19 7.68895E-19
 -1      1021 9.51634E-05-2.83490E-05-2.86348E-05 8.06595E-08-6.42424E-19-3.28715E-20
 -1      1022 9.52061E-05-2.84232E-05-2.86213E-05 4.79162E-08-9.77653E-19 4.83052E-19
 -1      1023 9.52340E-05-2.84776E-05-2.86099E-05 2.52706E-08-5.03600E-19-2.61224E-19
 -1      1024 9.52512E-05-2.85166E-05-2.86005E-05 1.00781E-08-1.62321E-19-1.36656E-18
 -1      1025 9.52606E-05-2.85437E-05-2.85930E-05 3.04344E-10 7.46403E-19-1.69847E-18
 -1      1026 9.52649E-05-2.85618E-05-2.85870E-05-5.60267E-09-1.89540E-19-1.22980E-18
 -1      1027 9.52656E-05-2.85733E-05-2.85824E-05-8.81369E-09-1.32069E-19 2.61077E-19
 -1      1028 9.52642E-05-2.85801E-05-2.85789E-05-1.02005E-08-5.54126E-19 1.66003E-18
 -1      1029 9.52616E-05-2.85836E-05-2.85763E-05-1.04019E-08-2.58018E-19 2.18210E-18
 -1      1030 9.52584E-05-2.85849E-05-2.85744E-05-9.87723E-09-6.11981E-19 2.61655E-18
 -1      1031 9.52551E-05-2.85848E-05-2.85730E-05-8.94648E-09 6.54072E-19 2.71066E-18
 -1      1032 9.52519E-05-2.85838E-05-2.85720E-05-7.82773E-09 5.67726E-19 6.45583E-19
 -1      1033 9.52490E-05-2.85824E-05-2.85714E-05-6.68169E-09 6.66752E-19 4.45761E-19
 -1      1034 9.19442E-05-2.61925E-05-2.81799E-05 5.70549E-06-1.08544E-18 1.13408E-19
 -1      1035 9.52441E-05-2.85792E-05-2.85707E-05 3.79517E-09-6.62317E-19-2.15311E-18
 -1      1036 1.06616E-04-3.98305E-05-2.86206E-05 8.63350E-06-1.14577E-18-2.31403E-18
 -1      1037 7.91538E-05-2.04775E-05-2.51503E-05 1.10166E-05-2.03715E-18 3.28472E-19
 -1      1038 7.60827E-05-1.69422E-05-2.53358E-05 4.09012E-06-1.62649E-18 1.04115E-18
 -1      1039 9.39514E-05-2.69027E-05-2.87354E-05 1.04365E-06-3.65043E-19 2.18649E-18
 -1      1040 9.52450E-05-2.85799E-05-2.85708E-05-2.04783E-09 1.05360E-18 9.88841E-19
 -1      1041 9.20179E-05-2.57970E-05-2.83809E-05 4.36673E-06-8.51316E-19 8.60406E-19
 -1      1042 8.06440E-05-1.86089E-05-2.65831E-05 2.11143E-06-1.44183E-18 1.43381E-19
 -1      1043 9.27284E-05-2.59265E-05-2.86292E-05 2.51123E-06-1.08992E-18 1.27671E-18
 -1      1044 9.23202E-05-2.57525E-05-2.85289E-05 3.32063E-06-1.04458E-18 6.17157E-19
 -1      1045 8.38041E-05-1.99561E-05-2.73617E-05 6.84809E-07-8.87408E-19-1.73261E-19
 -1      1046 9.81969E-05-3.53707E-05-2.69273E-05 1.51743E-05-1.94009E-18-1.07704E-18
 -1      1047 9.33928E-05-2.88929E-05-2.76452E-05 9.41280E-06-1.71790E-18-1.93298E-18
 -1      1048 9.56648E-05-3.17583E-05-2.73870E-05 1.17258E-05-1.28398E-18-1.43067E-18
 -1      1049 8.46737E-05-2.46412E-05-2.57213E-05 1.34857E-05-1.79728E-18 1.02678E-18
 -1      1050 9.52474E-05-2.85816E-05-2.85711E-05-1.48992E-09-1.11336E-18-8.72585E-19
 -1      1051 9.22906E-05-2.71282E-05-2.79283E-05 7.38026E-06-1.26725E-18-1.38053E-18
 -1      1052 9.52475E-05-2.85816E-05-2.85711E-05 1.08276E-09-6.80865E-19-2.77071E-19
 -1      1053 8.93875E-05-2.33094E-05-2.83170E-05 8.23284E-07-7.75602E-19 6.32355E-20
 -1      1054 9.07182E-05-2.41934E-05-2.85103E-05 3.25809E-07-1.64750E-18-2.57713E-19
 -1      1055 9.17423E-05-2.49552E-05-2.86224E-05 7.06046E-08-1.97180E-18-5.83278E-19
 -1      1056 9.25991E-05-2.56571E-05-2.86895E-05-7.12756E-08-1.25072E-18-7.87201E-19
 -1      1057 9.32738E-05-2.62580E-05-2.87213E-05-1.40905E-07 3.06368E-19-9.50401E-19
 -1      1058 9.37997E-05-2.67625E-05-2.87304E-05-1.59684E-07 7.75533E-19-1.20749E-18
 -1      1059 9.42053E-05-2.71792E-05-2.87255E-05-1.51200E-07 2.13363E-19-1.29773E-18
 -1      1060 9.45137E-05-2.75176E-05-2.87127E-05-1.29991E-07 2.59806E-19-1.58110E-18
 -1      1061 9.47446E-05-2.77878E-05-2.86958E-05-1.04670E-07-3.72680E-19 1.57798E-19
 -1      1062 9.49145E-05-2.80000E-05-2.86777E-05-7.99972E-08 1.18495E-19 7.36161E-19
 -1      1063 9.50371E-05-2.81640E-05-2.86599E-05-5.83068E-08 2.84521E-19 2.62880E-19
 -1      1064 9.51236E-05-2.82886E-05-2.86435E-05-4.04645E-08 1.16209E-18 1.94229E-19
 -1      1065 9.51828E-05-2.83817E-05-2.86290E-05-2.65065E-08 1.46699E-19 5.07073E-19
 -1      1066 9.52219E-05-2.84498E-05-2.86166E-05-1.60460E-08-1.14289E-19 8.98330E-19
 -1      1067 9.52464E-05-2.84986E-05-2.86062E-05-8.52158E-09-5.66610E-19 1.32999E-18
 -1      1068 9.52605E-05-2.85326E-05-2.85977E-05-3.34101E-09-5.15801E-19 1.59242E-18
 -1      1069 9.52675E-05-2.85556E-05-2.85908E-05 4.34977E-11-1.51641E-19 1.24462E-18
 -1      1070 9.52698E-05-2.85704E-05-2.85855E-05 2.10146E-09 9.07867E-19 1.12506E-18
 -1      1071 9.52690E-05-2.85793E-05-2.85813E-05 3.21498E-09 4.63019E-19 1.51122E-18
 -1      1072 9.52665E-05-2.85842E-05-2.85781E-05 3.68283E-09 7.83052E-20 4.69807E-20
 -1      1073 9.52631E-05-2.85863E-05-2.85758E-05 3.73110E-09-7.73147E-19-8.61102E-19
 -1      1074 9.52593E-05-2.85865E-05-2.85740E-05 3.52652E-09-4.93361E-19-2.15418E-18
 -1      1075 9.52556E-05-2.85857E-05-2.85728E-05 3.18851E-09 2.85379E-19-2.85422E-18
 -1      1076 9.52520E-05-2.85842E-05-2.85719E-05 2.79207E-09-4.63118E-19-2.40032E-18
 -1      1077 9.52465E-05-2.85809E-05-2.85710E-05-3.45191E-09-5.48496E-19 9.37827E-19
 -1      1078 8.77499E-05-2.23807E-05-2.80165E-05 1.62861E-06-4.19776E-19-4.39804E-20
 -1      1079 9.07711E-05-2.46662E-05-2.83287E-05 3.24708E-06-8.19762E-19-4.67749E-19
 -1      1080 9.45079E-05-2.75169E-05-2.87103E-05 2.90306E-07-1.53110E-20-5.40895E-19
 -1      1081 9.42202E-05-2.72051E-05-2.87206E-05 4.16222E-07-5.15285E-19 1.45730E-19
 -1      1082 9.48980E-05-2.79818E-05-2.86783E-05 1.35851E-07 5.95822E-19-9.24354E-19
 -1      1083 9.50218E-05-2.81456E-05-2.86612E-05 9.01145E-08 7.53476E-19-1.13940E-20
 -1      1084 9.51108E-05-2.82722E-05-2.86451E-05 5.78314E-08 3.48415E-19 6.68601E-19
 -1      1085 9.51728E-05-2.83680E-05-2.86306E-05 3.52881E-08-1.14243E-19-2.11322E-19
 -1      1086 9.52145E-05-2.84390E-05-2.86181E-05 1.97892E-08 2.78882E-19-1.66936E-18
 -1      1087 9.52412E-05-2.84904E-05-2.86075E-05 9.36639E-09 4.85192E-19-1.13940E-18
 -1      1088 9.52571E-05-2.85266E-05-2.85988E-05 2.57614E-09 8.88995E-19-1.78952E-18
 -1      1089 9.52654E-05-2.85513E-05-2.85917E-05-1.64282E-09 7.54859E-21-5.90156E-19
 -1      1090 9.52686E-05-2.85675E-05-2.85862E-05-4.07025E-09-9.64587E-19-8.20037E-19
 -1      1091 9.52685E-05-2.85775E-05-2.85819E-05-5.27681E-09-3.11829E-19-2.28655E-18
 -1      1092 9.52664E-05-2.85831E-05-2.85786E-05-5.67709E-09-1.06400E-18-2.73036E-18
 -1      1093 9.52632E-05-2.85857E-05-2.85761E-05-5.56907E-09-1.32261E-18-1.31889E-18
 -1      1094 9.52596E-05-2.85863E-05-2.85743E-05-5.16445E-09-2.48512E-19-2.21868E-18
 -1      1095 9.52559E-05-2.85857E-05-2.85730E-05-4.61384E-09 7.45926E-19-4.62859E-19
 -1      1096 9.52524E-05-2.85844E-05-2.85720E-05-3.96330E-09 4.29745E-19-2.62039E-19
 -1      1097 9.34074E-05-2.64184E-05-2.87094E-05 8.36770E-07-6.19724E-19 1.71190E-18
 -1      1098 9.38564E-05-2.68377E-05-2.87222E-05 5.91922E-07-3.89618E-19 1.31450E-18
 -1      1099 8.20485E-05-2.05969E-05-2.63238E-05 7.24565E-06-1.60392E-18 5.05962E-19
 -1      1100 9.47301E-05-2.77743E-05-2.86953E-05 2.00191E-07 5.31692E-19-4.36829E-19
 -1      1101 9.28686E-05-2.59606E-05-2.86748E-05 1.17748E-06-1.38230E-19 8.80171E-19
 -1      1102 9.00508E-05-2.45090E-05-2.80878E-05 4.52938E-06-8.22986E-19-3.00805E-19
 -1      1103 9.15603E-05-2.50514E-05-2.85031E-05 2.29139E-06-1.51394E-18-5.75471E-19
 -1      1104 8.94422E-05-2.46847E-05-2.77549E-05 6.27590E-06-1.20338E-18 5.49281E-19
 -1      1105 8.91211E-05-2.53376E-05-2.73275E-05 8.51778E-06-1.98029E-18 2.90087E-19
 -1      1106 9.22516E-05-2.54891E-05-2.86104E-05 1.64287E-06-1.36064E-18-1.40976E-19
 -1      1107 9.52501E-05-2.85832E-05-2.85715E-05-1.30530E-10-7.92142E-19-1.40710E-18
 -1      1108 9.52494E-05-2.85827E-05-2.85714E-05-2.60313E-09-1.14218E-18 1.42533E-19
 -1      1109 9.52489E-05-2.85824E-05-2.85713E-05 2.38036E-09-1.36837E-18-1.71526E-18
 -1      1110 8.59902E-05-2.15739E-05-2.76073E-05 2.88945E-06-6.84783E-19 3.75994E-19
 -1      1111 9.07436E-05-2.87739E-05-2.65686E-05 1.34118E-05-1.26883E-18-4.97455E-19
 -1      1112 8.39990E-05-2.08960E-05-2.70475E-05 4.75112E-06-1.26391E-18 5.78465E-19
 -1      1113 9.02620E-05-2.40687E-05-2.83748E-05 1.72480E-06-1.05998E-18-2.11749E-19
 -1      1114 9.15383E-05-2.49083E-05-2.85609E-05 1.11458E-06-1.77200E-18-4.25090E-19
 -1      1115 8.73972E-05-2.48236E-05-2.68212E-05 9.88558E-06-1.60821E-18 8.06242E-19
 -1      1116 8.94911E-05-2.69500E-05-2.68077E-05 1.14902E-05-1.47615E-18 2.77543E-19
 -1      1117 1.61274E-04 3.92581E-10-5.80793E-05-4.64958E-05-3.45589E-19 1.74044E-17
 -1      1118 1.17353E-04 1.28603E-10-4.85643E-05-1.71218E-05-2.09217E-19 5.17574E-18
 -1      1119 9.71483E-05 7.59376E-11-4.09663E-05-5.18391E-06-1.43572E-19-6.31754E-19
 -1      1120 7.88681E-05 3.89849E-11-3.36840E-05 1.23695E-06-8.68209E-20-3.78497E-18
 -1      1121 6.21915E-05-5.90801E-12-2.71686E-05 2.51907E-06-6.18334E-20-5.59873E-18
 -1      1122 5.01532E-05-4.52951E-11-2.25344E-05-1.59737E-06-4.70103E-20-6.59951E-18
 -1      1123 4.60292E-05-5.52368E-11-2.08725E-05-8.86767E-06-5.29396E-20-7.05271E-18
 -1      1124 5.03812E-05-2.98111E-11-2.23404E-05-1.49901E-05-5.95041E-20-7.11779E-18
 -1      1125 6.02842E-05 1.24257E-11-2.59231E-05-1.66491E-05-5.88688E-20-7.02970E-18
 -1      1126 7.16108E-05 4.81720E-11-3.01893E-05-1.32378E-05-5.90805E-20-6.96515E-18
 -1      1127 8.10696E-05 6.54146E-11-3.39296E-05-6.35531E-06-3.40931E-20-6.93363E-18
 -1      1128 8.72671E-05 6.68419E-11-3.65542E-05 1.71547E-06 7.83505E-21-6.91532E-18
 -1      1129 9.06087E-05 6.07579E-11-3.81220E-05 9.42332E-06 5.23043E-20-6.61796E-18
 -1      1130 9.23192E-05 5.44204E-11-3.90495E-05 1.62141E-05 1.05826E-19-5.62732E-18
 -1      1131 9.40706E-05 5.40813E-11-3.99666E-05 2.23483E-05 1.68877E-19-3.08413E-18
 -1      1132 9.87590E-05 7.35250E-11-4.17940E-05 2.91994E-05 2.49663E-19 2.72303E-18
 -1      1133 1.20623E-04 1.81406E-10-4.58641E-05 4.24754E-05 6.61109E-19 1.60373E-17
 -1      1134 1.87315E-04-3.92579E-05-5.81389E-05-3.02562E-05-1.57410E-18 2.52441E-17
 -1      1135 1.57194E-04-4.67968E-05-4.93603E-05 2.08801E-07-5.23731E-19 2.23604E-17
 -1      1136 1.49925E-04-4.48759E-05-4.49692E-05 2.00976E-07-1.54610E-19 1.84640E-17
 -1      1137 1.39181E-04-4.16960E-05-4.10241E-05-8.69192E-07-5.89879E-20 1.59870E-17
 -1      1138 1.21114E-04-3.62630E-05-3.61269E-05-1.74284E-06-8.07576E-20 1.38985E-17
 -1      1139 1.00639E-04-3.02669E-05-3.11709E-05-1.66849E-06 1.52731E-20 1.12895E-17
 -1      1140 8.83749E-05-2.67322E-05-2.83054E-05-3.41864E-07 9.78852E-20 8.49487E-18
 -1      1141 9.17130E-05-2.76429E-05-2.89252E-05 1.27673E-06-6.92185E-20 5.18511E-18
 -1      1142 1.07016E-04-3.20269E-05-3.23453E-05 1.88826E-06-1.44591E-21 1.56511E-18
 -1      1143 1.23501E-04-3.68891E-05-3.63937E-05 1.38622E-06-1.32925E-19-2.85874E-19
 -1      1144 1.33192E-04-3.98270E-05-3.91233E-05 5.49851E-07-3.52048E-20-1.08431E-18
 -1      1145 1.34797E-04-4.03627E-05-3.98690E-05-4.05892E-08-2.99439E-20-1.29964E-18
 -1      1146 1.30963E-04-3.92583E-05-3.90466E-05-2.88186E-07 7.43238E-20-1.31674E-18
 -1      1147 1.24795E-04-3.74393E-05-3.74152E-05-3.19646E-07-1.33313E-19-2.13770E-19
 -1      1148 1.18371E-04-3.55326E-05-3.55886E-05-2.63214E-07-5.69621E-20-3.87359E-19
 -1      1149 1.12691E-04-3.38392E-05-3.39121E-05-1.90028E-07-2.19539E-19-9.11196E-19
 -1      1150 1.08071E-04-3.24561E-05-3.25195E-05-1.27447E-07-1.33618E-19-2.04093E-18
 -1      1151 1.04487E-04-3.13792E-05-3.14266E-05-8.14490E-08 2.04760E-19-3.10844E-18
 -1      1152 1.01787E-04-3.05651E-05-3.05980E-05-5.00588E-08-6.00550E-20-3.80837E-18
 -1      1153 9.97909E-05-2.99615E-05-2.99835E-05-2.94987E-08 2.25427E-19-4.15333E-18
 -1      1154 9.83371E-05-2.95206E-05-2.95351E-05-1.63729E-08 1.15798E-19-3.40994E-18
 -1      1155 9.72915E-05-2.92028E-05-2.92121E-05-8.15929E-09 1.26508E-19-2.60782E-18
 -1      1156 9.65492E-05-2.89766E-05-2.89825E-05-3.12974E-09-8.10103E-20-8.46415E-19
 -1      1157 9.60302E-05-2.88181E-05-2.88217E-05-1.43898E-10-3.67791E-19-2.60554E-18
 -1      1158 9.56742E-05-2.87091E-05-2.87113E-05 1.53824E-09 2.21327E-20-2.84763E-18
 -1      1159 9.54361E-05-2.86359E-05-2.86371E-05 2.39463E-09-5.62590E-20-1.99891E-18
 -1      1160 9.52824E-05-2.85885E-05-2.85891E-05 2.73463E-09 2.66603E-19-9.71139E-19
 -1      1161 9.51881E-05-2.85592E-05-2.85594E-05 2.75946E-09-8.81474E-20-1.92930E-19
 -1      1162 9.51351E-05-2.85425E-05-2.85425E-05 2.60060E-09 1.68888E-19-6.90678E-19
 -1      1163 9.51100E-05-2.85344E-05-2.85342E-05 2.34385E-09 3.85637E-19-1.03296E-19
 -1      1164 9.51031E-05-2.85319E-05-2.85316E-05 2.04474E-09-1.74623E-19 1.01206E-18
 -1      1165 9.51075E-05-2.85329E-05-2.85326E-05 1.73845E-09 3.00566E-20 1.84762E-18
 -1      1166 9.51185E-05-2.85359E-05-2.85357E-05 1.44636E-09 1.41023E-19 1.48540E-18
 -1      1167 9.51326E-05-2.85400E-05-2.85398E-05 1.18054E-09-4.86915E-19 7.45172E-19
 -1      1168 9.51478E-05-2.85445E-05-2.85442E-05 9.46752E-10 1.77544E-19-9.11681E-19
 -1      1169 9.51627E-05-2.85489E-05-2.85486E-05 7.46660E-10 4.63023E-19-3.62660E-19
 -1      1170 9.51764E-05-2.85529E-05-2.85528E-05 5.79296E-10-2.02282E-19-7.33340E-19
 -1      1171 9.51886E-05-2.85566E-05-2.85564E-05 4.42150E-10-1.30467E-19-4.63146E-18
 -1      1172 9.51991E-05-2.85597E-05-2.85596E-05 3.31906E-10 4.39307E-19-2.37450E-18
 -1      1173 9.52079E-05-2.85623E-05-2.85622E-05 2.44945E-10 7.89011E-20-3.81148E-19
 -1      1174 9.52152E-05-2.85645E-05-2.85644E-05 1.77669E-10-6.50607E-20 5.73057E-19
 -1      1175 9.52211E-05-2.85663E-05-2.85662E-05 1.26691E-10 1.08740E-19 5.31964E-19
 -1      1176 9.52257E-05-2.85677E-05-2.85676E-05 8.89129E-11 6.29293E-20-1.03807E-18
 -1      1177 9.52294E-05-2.85688E-05-2.85688E-05 6.15019E-11-1.97609E-20 1.01594E-18
 -1      1178 9.52322E-05-2.85696E-05-2.85696E-05 4.17358E-11-5.76758E-20 1.94381E-18
 -1      1179 9.52344E-05-2.85703E-05-2.85703E-05 2.66039E-11 1.81789E-19 2.50334E-18
 -1      1180 9.52359E-05-2.85707E-05-2.85707E-05 1.21129E-11 3.85609E-19 4.47078E-19
 -1      1181 9.52369E-05-2.85710E-05-2.85710E-05-8.01788E-12 1.08546E-19 5.11363E-18
 -1      1182 9.52373E-05-2.85712E-05-2.85712E-05-4.57621E-11-8.35395E-20 4.30561E-18
 -1      1183 9.52373E-05-2.85712E-05-2.85712E-05-3.62947E-11 5.11810E-19 2.65846E-18
 -1      1184 1.49278E-04-4.30788E-05-4.36320E-05 1.40578E-05-2.51569E-19 2.74396E-17
 -1      1185 1.06826E-04-3.11282E-05-3.46500E-05 9.45324E-07 2.68562E-19 2.04677E-17
 -1      1186 9.64524E-05-2.87176E-05-2.97198E-05 1.92742E-07 1.50084E-19 1.43988E-17
 -1      1187 9.00083E-05-2.70236E-05-2.71622E-05 1.51036E-07 1.35947E-19 9.97069E-18
 -1      1188 8.51584E-05-2.56201E-05-2.56368E-05 1.87821E-07 6.76038E-20 7.25819E-18
 -1      1189 8.19052E-05-2.46370E-05-2.47307E-05 1.97466E-07 1.59315E-20 5.55848E-18
 -1      1190 8.07794E-05-2.42736E-05-2.44469E-05 1.41563E-07-2.46665E-20 4.41204E-18
 -1      1191 8.20611E-05-2.46307E-05-2.48191E-05 3.20948E-08 8.74925E-20 3.42545E-18
 -1      1192 8.54129E-05-2.56181E-05-2.57520E-05-8.89462E-08 5.99210E-20 1.93372E-18
 -1      1193 8.99540E-05-2.69747E-05-2.70169E-05-1.78189E-07 4.10526E-20 7.47771E-19
 -1      1194 9.46204E-05-2.83778E-05-2.83333E-05-2.13737E-07 1.57988E-19-1.35880E-18
 -1      1195 9.85461E-05-2.95614E-05-2.94634E-05-1.99357E-07 6.24852E-20-2.19479E-18
 -1      1196 1.01267E-04-3.03820E-05-3.02693E-05-1.54397E-07 7.74026E-20-2.33062E-18
 -1      1197 1.02715E-04-3.08179E-05-3.07189E-05-1.00051E-07-1.74598E-19-2.40977E-18
 -1      1198 1.03085E-04-3.09288E-05-3.08566E-05-5.11497E-08 1.83684E-19-4.51108E-18
 -1      1199 1.02686E-04-3.08084E-05-3.07642E-05-1.44974E-08 1.88185E-19-6.50297E-18
 -1      1200 1.01828E-04-3.05500E-05-3.05289E-05 9.02826E-09-1.09350E-19-4.78460E-18
 -1      1201 1.00762E-04-3.02297E-05-3.02247E-05 2.16224E-08 1.15959E-19-4.09314E-18
 -1      1202 9.96662E-05-2.99008E-05-2.99053E-05 2.64164E-08 7.29817E-20-5.68644E-18
 -1      1203 9.86493E-05-2.95957E-05-2.96051E-05 2.63127E-08 1.40482E-19-7.00225E-18
 -1      1204 9.77677E-05-2.93313E-05-2.93423E-05 2.35460E-08-3.46400E-20-6.30630E-18
 -1      1205 9.70411E-05-2.91134E-05-2.91241E-05 1.96412E-08-1.69000E-19-5.21975E-18
 -1      1206 9.64663E-05-2.89410E-05-2.89505E-05 1.55376E-08-1.66401E-19-4.82899E-18
 -1      1207 9.60279E-05-2.88094E-05-2.88173E-05 1.17509E-08 1.07913E-19-5.52284E-18
 -1      1208 9.57051E-05-2.87125E-05-2.87187E-05 8.51723E-09-6.57663E-20-4.34304E-18
 -1      1209 9.54759E-05-2.86436E-05-2.86484E-05 5.90249E-09 1.74101E-19-2.98707E-18
 -1      1210 9.53198E-05-2.85967E-05-2.86002E-05 3.87814E-09 2.39370E-20-5.14198E-18
 -1      1211 9.52191E-05-2.85664E-05-2.85688E-05 2.37003E-09 9.39207E-20-6.53243E-18
 -1      1212 9.51588E-05-2.85482E-05-2.85498E-05 1.28802E-09-5.29793E-20-7.01072E-18
 -1      1213 9.51272E-05-2.85386E-05-2.85396E-05 5.42739E-10 1.15630E-19-8.49625E-18
 -1      1214 9.51151E-05-2.85349E-05-2.85355E-05 5.40411E-11 1.20089E-20-9.63036E-18
 -1      1215 9.51156E-05-2.85349E-05-2.85352E-05-2.45601E-10 1.84568E-19-1.01972E-17
 -1      1216 9.51238E-05-2.85373E-05-2.85374E-05-4.10587E-10 2.08286E-19-1.01205E-17
 -1      1217 9.51360E-05-2.85409E-05-2.85409E-05-4.83197E-10-3.24088E-19-8.58422E-18
 -1      1218 9.51499E-05-2.85451E-05-2.85450E-05-4.95287E-10 5.13216E-20-7.83147E-18
 -1      1219 9.51640E-05-2.85493E-05-2.85491E-05-4.70151E-10-5.44178E-19-8.02808E-18
 -1      1220 9.51772E-05-2.85532E-05-2.85530E-05-4.24312E-10 2.17210E-19-9.81084E-18
 -1      1221 9.51890E-05-2.85567E-05-2.85566E-05-3.69095E-10 1.07991E-19-7.32907E-18
 -1      1222 9.51993E-05-2.85598E-05-2.85597E-05-3.11948E-10 1.08182E-19-6.11983E-18
 -1      1223 9.52080E-05-2.85624E-05-2.85623E-05-2.57510E-10-2.48187E-19-5.84380E-18
 -1      1224 9.52152E-05-2.85646E-05-2.85645E-05-2.08448E-10 6.36732E-19-4.05637E-18
 -1      1225 9.52211E-05-2.85663E-05-2.85662E-05-1.66089E-10 6.26711E-20-4.01245E-18
 -1      1226 9.52257E-05-2.85677E-05-2.85676E-05-1.30893E-10-5.81865E-19-3.09738E-18
 -1      1227 9.52294E-05-2.85688E-05-2.85688E-05-1.02766E-10 2.99245E-19-5.11245E-18
 -1      1228 9.52322E-05-2.85697E-05-2.85696E-05-8.11836E-11-2.76458E-19-6.32136E-18
 -1      1229 9.52344E-05-2.85703E-05-2.85703E-05-6.51690E-11 6.44091E-19-5.07573E-18
 -1      1230 9.52359E-05-2.85708E-05-2.85707E-05-5.25918E-11-6.71391E-20-6.93867E-18
 -1      1231 9.52369E-05-2.85711E-05-2.85710E-05-3.66961E-11-8.81845E-20-3.76103E-18
 -1      1232 9.52373E-05-2.85712E-05-2.85712E-05-1.53135E-12 5.61345E-19-4.53626E-18
 -1      1233 9.52372E-05-2.85712E-05-2.85712E-05 3.31002E-11 1.11508E-19-5.12407E-18
 -1      1234 9.52371E-05-2.85710E-05-2.85712E-05 3.35391E-11-5.67217E-18-4.95270E-19
 -1      1235 9.52371E-05-2.85710E-05-2.85711E-05 3.78618E-11-7.98935E-18-7.04286E-19
 -1      1236 9.52373E-05-2.85715E-05-2.85710E-05-1.21214E-11-4.22118E-18 6.80412E-19
 -1      1237 9.52375E-05-2.85724E-05-2.85708E-05-3.95399E-11-1.57327E-19 5.12339E-19
 -1      1238 9.52379E-05-2.85735E-05-2.85704E-05-4.99626E-11 3.21294E-18-3.08669E-19
 -1      1239 9.52382E-05-2.85747E-05-2.85701E-05-4.76250E-11-3.82670E-18-1.26247E-18
 -1      1240 9.52385E-05-2.85757E-05-2.85698E-05-3.70895E-11-8.43278E-18-1.77477E-20
 -1      1241 9.52387E-05-2.85763E-05-2.85696E-05-1.99033E-11-2.66278E-18-1.70670E-19
 -1      1242 9.52387E-05-2.85766E-05-2.85696E-05 2.23190E-13-1.61451E-18 9.38383E-20
 -1      1243 9.52387E-05-2.85763E-05-2.85696E-05 2.03281E-11 3.03468E-18-4.27032E-19
 -1      1244 9.52385E-05-2.85757E-05-2.85698E-05 3.73500E-11 2.92639E-18-1.35587E-18
 -1      1245 9.52382E-05-2.85747E-05-2.85701E-05 4.83519E-11-6.26423E-19 3.83413E-19
 -1      1246 9.52378E-05-2.85735E-05-2.85704E-05 4.99332E-11-2.07111E-18-7.04873E-19
 -1      1247 9.52375E-05-2.85723E-05-2.85708E-05 3.98685E-11-2.81022E-18 7.99334E-19
 -1      1248 9.52372E-05-2.85714E-05-2.85710E-05 1.47654E-11-3.14415E-18-2.60273E-19
 -1      1249 9.52371E-05-2.85710E-05-2.85712E-05-6.61988E-11-4.34100E-18-1.06365E-18
 -1      1250 9.52371E-05-2.85710E-05-2.85712E-05-3.98899E-11-2.37806E-18 1.02243E-18
 -1      1251 3.05340E-05-9.51222E-05 1.49605E-05-1.16904E-05 5.78100E-18 1.79132E-18
 -1      1252 1.56124E-05-5.44980E-05 6.41988E-06-2.00487E-05 1.92243E-17 7.69191E-18
 -1      1253 8.39936E-06-2.05450E-06-8.39788E-06 5.97196E-06 2.68577E-17 1.66162E-17
 -1      1254 3.90030E-05 2.74862E-05-2.84706E-05 6.00809E-05 2.61225E-17 2.51382E-17
 -1      1255 1.13874E-04 1.27932E-05-4.84715E-05 1.06138E-04 1.88168E-17 2.70187E-17
 -1      1256 2.08848E-04-3.45206E-05-6.42718E-05 1.08307E-04 8.64312E-18 1.97435E-17
 -1      1257 2.81600E-04-7.87109E-05-7.37848E-05 5.93223E-05 1.77168E-18 5.57221E-18
 -1      1258 2.95183E-04-8.83468E-05-7.53170E-05-1.73184E-05 1.35480E-18-1.06404E-17
 -1      1259 2.44561E-04-5.84609E-05-6.89241E-05-8.29221E-05 7.65294E-18-2.50705E-17
 -1      1260 1.59253E-04-1.15566E-05-5.66755E-05-1.07027E-04 1.73104E-17-3.36526E-17
 -1      1261 7.57115E-05 2.33009E-05-4.05927E-05-8.60877E-05 2.69340E-17-3.35154E-17
 -1      1262 2.16508E-05 2.61615E-05-2.32263E-05-4.24846E-05 3.26192E-17-2.69678E-17
 -1      1263 5.56934E-06-1.15009E-06-7.80015E-06-4.44435E-06 3.00205E-17-1.64744E-17
 -1      1264 1.34298E-05-4.16287E-05 3.77809E-06 1.15196E-05 2.04609E-17-6.63904E-18
 -1      1265 2.24980E-05-6.88934E-05 1.02352E-05 1.92096E-06 3.77226E-18-1.92525E-18
 -1      1266 2.22914E-05-7.15822E-05 1.01899E-05-1.68962E-05-1.37954E-17-3.85310E-18
 -1      1267 9.52946E-06-4.03894E-05 2.92021E-06-2.01401E-05-2.72245E-17-1.30278E-17
 -1      1268 8.67604E-06-1.62848E-06-1.09905E-05 4.80340E-06-3.43582E-17-2.53017E-17
 -1      1269 4.51072E-05 1.82777E-05-2.96675E-05 5.49687E-05-3.17934E-17-3.50960E-17
 -1      1270 1.28076E-04-1.31231E-06-4.99544E-05 9.79089E-05-2.26353E-17-3.82266E-17
 -1      1271 2.32288E-04-4.91995E-05-6.70231E-05 9.68808E-05-1.13028E-17-3.17265E-17
 -1      1272 3.09600E-04-9.02903E-05-7.80706E-05 4.18664E-05-3.15512E-18-1.65714E-17
 -1      1273 3.22423E-04-9.59239E-05-8.01268E-05-3.84386E-05-1.23696E-18 1.42852E-18
 -1      1274 2.63154E-04-5.95113E-05-7.32663E-05-1.00668E-04-6.99459E-18 1.86610E-17
 -1      1275 1.69735E-04-9.88520E-06-5.95673E-05-1.18910E-04-1.64833E-17 2.97613E-17
 -1      1276 7.86529E-05 2.36450E-05-4.12049E-05-8.95440E-05-2.52018E-17 3.13910E-17
 -1      1277 2.14962E-05 1.98915E-05-2.12116E-05-3.64640E-05-2.96462E-17 2.51264E-17
 -1      1278 7.27533E-06-1.85021E-05-3.67727E-06 7.93291E-06-2.76912E-17 1.56227E-17
 -1      1279 1.89974E-05-6.81964E-05 9.30284E-06 2.42487E-05-2.06591E-17 7.29486E-18
 -1      1280 3.23085E-05-1.00632E-04 1.58805E-05 1.18106E-05-9.28454E-18 2.18672E-18
 -1      1281 1.53093E-04-3.41595E-05-5.39241E-05-1.57390E-05-4.81326E-19 1.51282E-17
 -1      1282 1.18536E-04-1.21246E-05-4.57126E-05-1.30599E-05-1.16425E-18 2.70871E-18
 -1      1283 1.28532E-04-1.27399E-05-4.97820E-05-2.16978E-05-1.68644E-18 5.70794E-18
 -1      1284 9.73202E-05-7.49255E-06-3.85785E-05-4.68946E-06-8.91926E-19-1.77189E-18
 -1      1285 1.06905E-04-7.71486E-06-4.22887E-05-9.13930E-06-1.19643E-18 1.80047E-19
 -1      1286 1.18816E-04-1.86521E-05-4.30107E-05-1.24096E-05-1.86522E-18 2.72872E-18
 -1      1287 7.67856E-05-3.77566E-06-3.15307E-05 9.51986E-07-4.36434E-19-4.41797E-18
 -1      1288 8.64987E-05-4.04997E-06-3.50816E-05-1.31164E-06-6.46286E-19-3.24448E-18
 -1      1289 9.58643E-05-1.17756E-05-3.62014E-05-4.75864E-06-1.14349E-18-1.20215E-18
 -1      1290 5.72585E-05 8.56409E-07-2.53635E-05 1.58485E-06-2.02017E-19-6.14112E-18
 -1      1291 6.58960E-05 5.03658E-07-2.83128E-05 1.95241E-06-3.02603E-19-5.42558E-18
 -1      1292 7.27442E-05-4.28572E-06-2.95083E-05 4.31314E-07-5.02343E-19-3.81268E-18
 -1      1293 4.38281E-05 4.86135E-06-2.13637E-05-3.32023E-06-4.79209E-19-7.15140E-18
 -1      1294 4.88111E-05 4.65600E-06-2.30396E-05-6.04810E-07-4.43210E-19-6.78650E-18
 -1      1295 5.17818E-05 3.77430E-06-2.39310E-05 1.09687E-07-4.86515E-19-5.63241E-18
 -1      1296 4.16131E-05 5.71963E-06-2.05652E-05-1.08557E-05-1.04434E-18-7.53395E-18
 -1      1297 4.11529E-05 5.84851E-06-2.05455E-05-7.54933E-06-9.48359E-19-7.39934E-18
 -1      1298 3.96930E-05 8.61410E-06-2.07608E-05-5.74977E-06-1.17851E-18-6.64158E-18
 -1      1299 5.03047E-05 2.94756E-06-2.27860E-05-1.60682E-05-1.54308E-18-7.43340E-18
 -1      1300 4.53925E-05 3.31324E-06-2.13485E-05-1.43242E-05-1.48241E-18-7.44502E-18
 -1      1301 4.11229E-05 7.19128E-06-2.07662E-05-1.30273E-05-2.09612E-18-6.80145E-18
 -1      1302 6.45054E-05-1.43671E-06-2.67642E-05-1.60681E-05-1.61233E-18-7.15699E-18
 -1      1303 5.78263E-05-1.04972E-06-2.46313E-05-1.67782E-05-1.66188E-18-7.16058E-18
 -1      1304 5.37062E-05 8.23162E-07-2.34707E-05-1.66424E-05-2.67726E-18-6.40067E-18
 -1      1305 7.82832E-05-5.03131E-06-3.10579E-05-1.10634E-05-1.29861E-18-6.93712E-18
 -1      1306 7.22735E-05-4.78249E-06-2.89399E-05-1.38638E-05-1.42894E-18-6.91777E-18
 -1      1307 7.04714E-05-6.40881E-06-2.75611E-05-1.45388E-05-2.54004E-18-5.84617E-18
 -1      1308 8.78945E-05-6.66999E-06-3.45258E-05-3.40430E-06-6.87050E-19-6.88370E-18
 -1      1309 8.38648E-05-6.60245E-06-3.29164E-05-7.17563E-06-8.65668E-19-6.82685E-18
 -1      1310 8.48032E-05-1.11450E-05-3.16280E-05-8.11813E-06-1.75614E-18-5.50614E-18
 -1      1311 9.30780E-05-6.71766E-06-3.68171E-05 4.63440E-06 2.28699E-20-6.85191E-18
 -1      1312 9.09399E-05-6.77409E-06-3.58064E-05 8.05958E-07-1.71948E-19-6.86496E-18
 -1      1313 9.37279E-05-1.26726E-05-3.47579E-05-1.33266E-07-6.91483E-19-5.38062E-18
 -1      1314 9.52315E-05-6.04047E-06-3.81169E-05 1.18920E-05 7.68603E-19-6.49960E-18
 -1      1315 9.43175E-05-6.15590E-06-3.75572E-05 8.42955E-06 5.06367E-19-6.73939E-18
 -1      1316 9.78801E-05-1.21709E-05-3.67474E-05 7.51466E-06 4.75728E-19-5.25489E-18
 -1      1317 9.61500E-05-5.35008E-06-3.88844E-05 1.81959E-05 1.49647E-18-5.34562E-18
 -1      1318 9.56544E-05-5.49722E-06-3.85089E-05 1.51053E-05 1.20395E-18-6.09318E-18
 -1      1319 9.92913E-05-1.11144E-05-3.78331E-05 1.41733E-05 1.66036E-18-4.74132E-18
 -1      1320 9.78815E-05-5.23414E-06-3.97457E-05 2.40282E-05 2.13611E-18-2.43533E-18
 -1      1321 9.68249E-05-5.40971E-06-3.91881E-05 2.09379E-05 1.76712E-18-4.23048E-18
 -1      1322 1.00236E-04-1.07151E-05-3.84511E-05 1.99562E-05 2.66487E-18-3.20147E-18
 -1      1323 1.04287E-04-7.42092E-06-4.15581E-05 3.07188E-05 2.14808E-18 3.90006E-18
 -1      1324 1.00578E-04-7.11249E-06-4.02478E-05 2.63855E-05 2.00535E-18-2.72109E-20
 -1      1325 1.03577E-04-1.26261E-05-3.90882E-05 2.51033E-05 3.43482E-18 2.77827E-19
 -1      1326 1.39779E-04-2.80723E-05-4.39734E-05 3.36241E-05 1.32434E-18 1.72007E-17
 -1      1327 1.11866E-04-1.58595E-05-4.19045E-05 2.91118E-05 1.22460E-18 7.82828E-18
 -1      1328 1.13354E-04-2.15142E-05-3.95323E-05 2.67965E-05 3.70539E-18 6.12426E-18
 -1      1329 1.14570E-04-3.09581E-05-3.89199E-05 9.50091E-06 2.27328E-18 1.61614E-17
 -1      1330 1.58140E-04-4.69028E-05-4.92978E-05-6.63287E-06-1.32508E-18 1.62833E-17
 -1      1331 1.51863E-04-4.46582E-05-4.64330E-05-4.10420E-06-1.25075E-18 1.47710E-17
 -1      1332 1.48857E-04-4.48494E-05-4.46642E-05-4.00248E-06-7.32154E-19 1.44015E-17
 -1      1333 1.44378E-04-4.39835E-05-4.29155E-05-4.38796E-06-8.49720E-19 1.31168E-17
 -1      1334 1.46744E-04-4.40741E-05-4.43416E-05-8.68039E-06-1.96940E-18 9.89491E-18
 -1      1335 1.41083E-04-4.33470E-05-4.16590E-05-6.45985E-06-5.24651E-19 1.27508E-17
 -1      1336 1.34051E-04-4.11065E-05-3.96596E-05-7.36959E-06-6.93866E-19 1.18235E-17
 -1      1337 1.40566E-04-4.36582E-05-4.14579E-05-1.04985E-05-1.34040E-18 9.44603E-18
 -1      1338 1.29598E-04-3.96158E-05-3.84023E-05-9.41118E-06-7.40353E-19 1.13174E-17
 -1      1339 1.20161E-04-3.60766E-05-3.60608E-05-9.86090E-06-1.09058E-18 1.01496E-17
 -1      1340 1.33445E-04-4.13845E-05-3.93311E-05-1.57171E-05-1.42020E-18 8.89279E-18
 -1      1341 1.14955E-04-3.38148E-05-3.49320E-05-8.94040E-06-1.12677E-18 9.16161E-18
 -1      1342 1.06809E-04-3.05250E-05-3.30416E-05-8.09804E-06-1.16319E-18 7.97820E-18
 -1      1343 1.23790E-04-3.64577E-05-3.75433E-05-1.75436E-05-2.08407E-18 7.38375E-18
 -1      1344 1.03387E-04-2.89372E-05-3.23676E-05-3.31211E-06-1.26621E-18 6.57896E-18
 -1      1345 1.01142E-04-2.80755E-05-3.18197E-05-1.48522E-06-1.33127E-18 5.12823E-18
 -1      1346 1.14838E-04-3.13183E-05-3.62666E-05-1.07271E-05-2.50965E-18 5.05917E-18
 -1      1347 1.01614E-04-2.85046E-05-3.17843E-05 4.15367E-06-1.38268E-18 3.56040E-18
 -1      1348 1.06278E-04-3.05867E-05-3.27537E-05 5.48656E-06-1.37481E-18 1.77612E-18
 -1      1349 1.11809E-04-2.99061E-05-3.56631E-05 2.35690E-06-2.78155E-18 1.87243E-18
 -1      1350 1.09513E-04-3.23192E-05-3.32539E-05 7.90111E-06-1.22634E-18 6.62380E-19
 -1      1351 1.17283E-04-3.55020E-05-3.50366E-05 7.87742E-06-8.31628E-19-7.41260E-19
 -1      1352 1.15877E-04-3.31001E-05-3.57383E-05 1.22679E-05-2.51473E-18-8.12993E-19
 -1      1353 1.20332E-04-3.68230E-05-3.57162E-05 6.44634E-06-4.99339E-19-9.56724E-19
 -1      1354 1.26536E-04-3.91000E-05-3.72934E-05 5.59229E-06-3.02298E-19-1.44006E-18
 -1      1355 1.22416E-04-3.75430E-05-3.63043E-05 1.30646E-05-1.21697E-18-2.07428E-18
 -1      1356 1.27733E-04-3.93684E-05-3.77354E-05 2.57661E-06-2.86138E-19-1.43943E-18
 -1      1357 1.30278E-04-4.01178E-05-3.84815E-05 1.71739E-06-4.52369E-20-1.79439E-18
 -1      1358 1.26459E-04-3.98663E-05-3.69244E-05 7.34745E-06-4.59198E-19-2.16679E-18
 -1      1359 1.29642E-04-3.96556E-05-3.84783E-05-8.23833E-07 5.03455E-20-1.90155E-18
 -1      1360 1.28977E-04-3.92699E-05-3.83717E-05-1.33101E-06 1.39840E-19-1.88059E-18
 -1      1361 1.26564E-04-3.96264E-05-3.71126E-05 6.26949E-07-4.53692E-20-2.27846E-18
 -1      1362 1.27199E-04-3.85195E-05-3.79778E-05-2.71246E-06 1.21192E-19-1.66688E-18
 -1      1363 1.24722E-04-3.75971E-05-3.73301E-05-2.89300E-06 2.79263E-19-1.64748E-18
 -1      1364 1.23754E-04-3.80348E-05-3.66729E-05-3.95369E-06 2.03857E-19-2.25208E-18
 -1      1365 1.22482E-04-3.68171E-05-3.67181E-05-3.30953E-06 2.91239E-19-1.32346E-18
 -1      1366 1.19411E-04-3.57789E-05-3.58604E-05-3.29871E-06-1.09162E-19-1.09532E-18
 -1      1367 1.19528E-04-3.61368E-05-3.57342E-05-5.97660E-06 4.05183E-19-2.03905E-18
 -1      1368 1.17164E-04-3.50755E-05-3.51933E-05-3.16009E-06-1.66321E-19-1.19924E-18
 -1      1369 1.14219E-04-3.41295E-05-3.43456E-05-3.06791E-06-1.08989E-19-1.25628E-18
 -1      1370 1.14997E-04-3.44226E-05-3.45566E-05-6.22810E-06-1.51016E-19-1.73222E-18
 -1      1371 1.12206E-04-3.35359E-05-3.37248E-05-2.69435E-06 1.62127E-21-1.06090E-18
 -1      1372 1.09695E-04-3.27548E-05-3.29905E-05-2.58260E-06-1.88531E-19-1.41891E-18
 -1      1373 1.10787E-04-3.30144E-05-3.33649E-05-5.57637E-06-8.69995E-20-1.52441E-18
 -1      1374 1.08007E-04-3.22731E-05-3.24614E-05-2.15867E-06-6.31357E-19-1.37068E-18
 -1      1375 1.06002E-04-3.16618E-05-3.18697E-05-2.05512E-06-5.83238E-19-2.12211E-18
 -1      1376 1.07173E-04-3.19021E-05-3.22914E-05-4.60738E-06-5.31030E-19-1.26669E-18
 -1      1377 1.04646E-04-3.12811E-05-3.14419E-05-1.66630E-06-2.55597E-19-2.13070E-18
 -1      1378 1.03105E-04-3.08178E-05-3.09850E-05-1.58020E-06 3.84804E-21-2.50863E-18
 -1      1379 1.04218E-04-3.10398E-05-3.13899E-05-3.63100E-06-4.74107E-19-1.26702E-18
 -1      1380 1.02047E-04-3.05227E-05-3.06507E-05-1.25587E-06-2.11953E-19-2.69644E-18
 -1      1381 1.00891E-04-3.01787E-05-3.03071E-05-1.18803E-06-4.60285E-19-3.03098E-18
 -1      1382 1.01880E-04-3.03788E-05-3.06660E-05-2.77758E-06-2.93388E-19-1.75802E-18
 -1      1383 1.00083E-04-2.99536E-05-3.00518E-05-9.30732E-07 1.94685E-20-3.66583E-18
 -1      1384 9.92310E-05-2.97020E-05-2.97981E-05-8.78830E-07 9.00353E-20-3.40853E-18
 -1      1385 1.00073E-04-2.98771E-05-3.01016E-05-2.08225E-06-5.68293E-19-2.43484E-18
 -1      1386 9.86225E-05-2.95325E-05-2.96064E-05-6.80535E-07 1.42462E-19-3.85594E-18
 -1      1387 9.80035E-05-2.93508E-05-2.94218E-05-6.41506E-07-7.96426E-20-3.71126E-18
 -1      1388 9.86993E-05-2.94999E-05-2.96707E-05-1.53744E-06-8.71385E-20-3.34381E-18
 -1      1389 9.75518E-05-2.92248E-05-2.92798E-05-4.91389E-07 5.69949E-19-3.28055E-18
 -1      1390 9.71077E-05-2.90952E-05-2.91471E-05-4.62367E-07 6.53151E-19-2.47733E-18
 -1      1391 9.76708E-05-2.92191E-05-2.93470E-05-1.12043E-06 5.04765E-19-3.33281E-18
 -1      1392 9.67769E-05-2.90028E-05-2.90434E-05-3.50100E-07 1.50671E-20-1.85214E-18
 -1      1393 9.64626E-05-2.89116E-05-2.89493E-05-3.28702E-07-5.34359E-20-1.74879E-18
 -1      1394 9.69105E-05-2.90124E-05-2.91071E-05-8.06021E-07 4.99791E-19-2.53747E-18
 -1      1395 9.62236E-05-2.88447E-05-2.88745E-05-2.45549E-07-5.42719E-19-1.38315E-18
 -1      1396 9.60049E-05-2.87817E-05-2.88088E-05-2.29897E-07-5.52195E-19-1.91409E-18
 -1      1397 9.63558E-05-2.88623E-05-2.89318E-05-5.71554E-07-5.34557E-20-1.27189E-18
 -1      1398 9.58349E-05-2.87341E-05-2.87557E-05-1.68865E-07 1.52447E-19-1.66816E-18
 -1      1399 9.56858E-05-2.86915E-05-2.87109E-05-1.57519E-07 3.56936E-19-1.36526E-18
 -1      1400 9.59571E-05-2.87548E-05-2.88054E-05-3.98335E-07 2.47658E-20-5.62848E-19
 -1      1401 9.55672E-05-2.86583E-05-2.86739E-05-1.13166E-07-1.56790E-19-1.47209E-18
 -1      1402 9.54684E-05-2.86304E-05-2.86440E-05-1.05033E-07-1.24197E-19-1.05045E-18
 -1      1403 9.56752E-05-2.86794E-05-2.87158E-05-2.71568E-07 1.08203E-19-6.51510E-19
 -1      1404 9.53875E-05-2.86078E-05-2.86189E-05-7.31809E-08 6.29952E-19-1.74770E-18
 -1      1405 9.53246E-05-2.85903E-05-2.85997E-05-6.74319E-08 5.18715E-19-8.89570E-19
 -1      1406 9.54801E-05-2.86276E-05-2.86535E-05-1.79788E-07 2.41832E-19-1.01050E-18
 -1      1407 9.52713E-05-2.85754E-05-2.85832E-05-4.48945E-08 2.17693E-19-1.23564E-18
 -1      1408 9.52335E-05-2.85652E-05-2.85716E-05-4.09054E-08-5.15019E-20-9.14933E-19
 -1      1409 9.53487E-05-2.85931E-05-2.86113E-05-1.14200E-07 3.58963E-19-1.59821E-18
 -1      1410 9.51999E-05-2.85559E-05-2.85612E-05-2.52593E-08 2.34412E-19-1.46791E-18
 -1      1411 9.51795E-05-2.85506E-05-2.85548E-05-2.25587E-08 4.22464E-19-1.10031E-18
 -1      1412 9.52633E-05-2.85711E-05-2.85836E-05-6.80936E-08 7.87046E-20-1.56596E-18
 -1      1413 9.51597E-05-2.85452E-05-2.85487E-05-1.19659E-08 4.32346E-19-6.75764E-19
 -1      1414 9.51509E-05-2.85432E-05-2.85458E-05-1.01986E-08 4.36435E-19-1.76010E-19
 -1      1415 9.52107E-05-2.85580E-05-2.85663E-05-3.63646E-08 3.33468E-19-1.23427E-18
 -1      1416 9.51406E-05-2.85404E-05-2.85426E-05-3.26917E-09-1.75252E-19 4.72076E-19
 -1      1417 9.51393E-05-2.85406E-05-2.85421E-05-2.16838E-09-6.61443E-20 7.64851E-19
 -1      1418 9.51810E-05-2.85509E-05-2.85563E-05-1.51393E-08 7.43008E-19-4.77297E-19
 -1      1419 9.51354E-05-2.85395E-05-2.85409E-05 2.14405E-09-1.65999E-19 1.15707E-18
 -1      1420 9.51387E-05-2.85409E-05-2.85417E-05 2.77753E-09-2.25023E-19 1.14110E-18
 -1      1421 9.51668E-05-2.85480E-05-2.85513E-05-1.49079E-09-1.31738E-19 8.09203E-20
 -1      1422 9.51388E-05-2.85410E-05-2.85417E-05 5.25545E-09 5.93643E-20 1.08482E-18
 -1      1423 9.51446E-05-2.85431E-05-2.85433E-05 5.56917E-09-2.66066E-19 1.01282E-18
 -1      1424 9.51628E-05-2.85478E-05-2.85495E-05 6.78100E-09-4.36045E-19 7.75004E-19
 -1      1425 9.51471E-05-2.85439E-05-2.85441E-05 6.79253E-09-1.06673E-18 7.76360E-19
 -1      1426 9.51540E-05-2.85462E-05-2.85461E-05 6.89457E-09-5.77791E-19-4.19118E-19
 -1      1427 9.51651E-05-2.85491E-05-2.85499E-05 1.13167E-08-6.81918E-19-3.36004E-19
 -1      1428 9.51579E-05-2.85473E-05-2.85473E-05 7.28819E-09 3.44196E-19 1.43976E-19
 -1      1429 9.51651E-05-2.85496E-05-2.85494E-05 7.25656E-09 4.33448E-19-3.57264E-19
 -1      1430 9.51712E-05-2.85513E-05-2.85514E-05 1.33276E-08-2.73717E-19 2.18959E-19
 -1      1431 9.51694E-05-2.85509E-05-2.85508E-05 7.12698E-09 4.66312E-19-3.40557E-19
 -1      1432 9.51763E-05-2.85531E-05-2.85528E-05 7.01696E-09 5.42491E-19 1.24385E-19
 -1      1433 9.51791E-05-2.85539E-05-2.85536E-05 1.36963E-08 8.52468E-19 6.12124E-19
 -1      1434 9.51807E-05-2.85544E-05-2.85541E-05 6.58121E-09-8.70391E-19-3.02758E-19
 -1      1435 9.51870E-05-2.85563E-05-2.85560E-05 6.43102E-09-1.82545E-18-1.61502E-18
 -1      1436 9.51875E-05-2.85566E-05-2.85561E-05 1.30551E-08-1.12805E-18-1.44502E-18
 -1      1437 9.51912E-05-2.85575E-05-2.85573E-05 5.83904E-09-7.23889E-19-2.77179E-18
 -1      1438 9.51967E-05-2.85593E-05-2.85589E-05 5.67428E-09-4.05815E-19-3.39093E-18
 -1      1439 9.51959E-05-2.85591E-05-2.85586E-05 1.18479E-08-2.24122E-18-1.91303E-18
 -1      1440 9.52005E-05-2.85603E-05-2.85601E-05 5.02630E-09 9.50194E-20-2.24929E-18
 -1      1441 9.52052E-05-2.85618E-05-2.85614E-05 4.86336E-09 1.26939E-18-1.64478E-18
 -1      1442 9.52035E-05-2.85615E-05-2.85608E-05 1.03777E-08 2.31233E-19-1.94267E-18
 -1      1443 9.52085E-05-2.85627E-05-2.85625E-05 4.22335E-09 8.05945E-19-1.87907E-18
 -1      1444 9.52124E-05-2.85639E-05-2.85636E-05 4.07200E-09-1.69026E-19-1.38722E-18
 -1      1445 9.52104E-05-2.85635E-05-2.85629E-05 8.84369E-09 1.27761E-18-2.53389E-18
 -1      1446 9.52152E-05-2.85647E-05-2.85645E-05 3.47786E-09 1.25941E-19-8.41386E-19
 -1      1447 9.52184E-05-2.85657E-05-2.85654E-05 3.34322E-09-3.48969E-19-1.26076E-18
 -1      1448 9.52162E-05-2.85652E-05-2.85647E-05 7.36991E-09 4.44850E-19-2.16311E-18
 -1      1449 9.52207E-05-2.85664E-05-2.85661E-05 2.81449E-09-8.61730E-20-1.16250E-18
 -1      1450 9.52233E-05-2.85671E-05-2.85669E-05 2.69846E-09-1.16076E-19-1.84048E-18
 -1      1451 9.52212E-05-2.85667E-05-2.85662E-05 6.02659E-09-3.53219E-19-1.78365E-18
 -1      1452 9.52252E-05-2.85677E-05-2.85675E-05 2.24187E-09-1.10421E-20-1.30977E-18
 -1      1453 9.52272E-05-2.85683E-05-2.85681E-05 2.14416E-09 5.58257E-19-9.36693E-19
 -1      1454 9.52252E-05-2.85678E-05-2.85674E-05 4.84624E-09-9.89902E-20-2.07208E-18
 -1      1455 9.52287E-05-2.85687E-05-2.85686E-05 1.75762E-09 7.40492E-19 6.97269E-20
 -1      1456 9.52303E-05-2.85692E-05-2.85691E-05 1.67643E-09 7.69878E-19 3.84354E-19
 -1      1457 9.52285E-05-2.85688E-05-2.85684E-05 3.83525E-09 1.65951E-18-8.93258E-19
 -1      1458 9.52315E-05-2.85695E-05-2.85694E-05 1.35159E-09 1.00790E-18 6.13997E-19
 -1      1459 9.52327E-05-2.85699E-05-2.85698E-05 1.28397E-09 5.22241E-19 1.62608E-18
 -1      1460 9.52312E-05-2.85695E-05-2.85693E-05 2.98174E-09 1.66248E-18 1.95545E-19
 -1      1461 9.52336E-05-2.85702E-05-2.85701E-05 1.00781E-09 1.33636E-19 1.99388E-18
 -1      1462 9.52346E-05-2.85704E-05-2.85703E-05 9.49780E-10 5.70700E-19 2.31984E-18
 -1      1463 9.52332E-05-2.85701E-05-2.85699E-05 2.26078E-09 1.02806E-18 1.48090E-18
 -1      1464 9.52352E-05-2.85706E-05-2.85705E-05 7.05932E-10-1.12967E-19 1.59646E-18
 -1      1465 9.52359E-05-2.85708E-05-2.85707E-05 6.52561E-10-1.51333E-20 1.32409E-18
 -1      1466 9.52348E-05-2.85706E-05-2.85704E-05 1.63783E-09-7.37456E-21 1.45333E-18
 -1      1467 9.52363E-05-2.85710E-05-2.85709E-05 4.25600E-10 9.99832E-19 1.82662E-18
 -1      1468 9.52367E-05-2.85711E-05-2.85710E-05 3.71509E-10 7.40304E-19 2.96476E-18
 -1      1469 9.52359E-05-2.85709E-05-2.85707E-05 1.07439E-09 5.58977E-19 4.28715E-19
 -1      1470 9.52370E-05-2.85712E-05-2.85711E-05 1.54650E-10 2.17318E-19 3.76548E-18
 -1      1471 9.52371E-05-2.85712E-05-2.85711E-05 9.84155E-11-1.07218E-19 3.77763E-18
 -1      1472 9.52366E-05-2.85711E-05-2.85709E-05 5.48148E-10 7.80119E-19 1.43297E-18
 -1      1473 9.52372E-05-2.85711E-05-2.85712E-05-5.36170E-11-2.41248E-18 2.63598E-18
 -1      1474 9.52371E-05-2.85712E-05-2.85711E-05 6.80748E-11-2.10983E-18 1.31981E-18
 -1      1475 1.05461E-04-3.10080E-05-3.25179E-05 4.81668E-06 1.86395E-18 1.22332E-17
 -1      1476 1.13699E-04-3.26814E-05-3.56492E-05 6.40887E-06 1.59449E-18 1.52146E-17
 -1      1477 1.13355E-04-2.95121E-05-3.62374E-05 1.68331E-05 3.24191E-18 9.56618E-18
 -1      1478 9.71626E-05-2.89935E-05-2.92905E-05 3.10966E-06 1.29895E-18 8.67578E-18
 -1      1479 1.01212E-04-2.97855E-05-3.08684E-05 3.34198E-06 1.26162E-18 1.09025E-17
 -1      1480 1.04594E-04-3.04857E-05-3.19544E-05 8.50837E-06 2.65963E-18 7.12208E-18
 -1      1481 9.14315E-05-2.73429E-05-2.74533E-05 2.33553E-06 8.73264E-19 6.19235E-18
 -1      1482 9.42335E-05-2.80659E-05-2.83562E-05 2.44678E-06 8.79061E-19 7.74200E-18
 -1      1483 9.78862E-05-2.90641E-05-2.95246E-05 5.62455E-06 1.98995E-18 5.21021E-18
 -1      1484 8.73856E-05-2.60787E-05-2.62879E-05 1.60793E-06 5.21031E-19 4.59335E-18
 -1      1485 8.93858E-05-2.66393E-05-2.68593E-05 1.75652E-06 5.98290E-19 5.55531E-18
 -1      1486 9.31132E-05-2.76777E-05-2.80562E-05 4.03777E-06 1.39675E-18 3.80436E-18
 -1      1487 8.51303E-05-2.53503E-05-2.56662E-05 6.52868E-07 4.67436E-19 3.28051E-18
 -1      1488 8.61811E-05-2.56100E-05-2.59497E-05 8.84821E-07 3.53987E-19 3.95596E-18
 -1      1489 8.99445E-05-2.66250E-05-2.71713E-05 2.39022E-06 9.32722E-19 2.58177E-18
 -1      1490 8.49399E-05-2.52937E-05-2.56164E-05-4.37359E-07 3.76281E-19 2.29950E-18
 -1      1491 8.48476E-05-2.51687E-05-2.55849E-05-1.53739E-07 3.11523E-19 2.79019E-18
 -1      1492 8.84959E-05-2.61159E-05-2.67850E-05 4.35078E-07 7.06637E-19 1.42680E-18
 -1      1493 8.67378E-05-2.58924E-05-2.61114E-05-1.39248E-06 4.23000E-19 1.15342E-18
 -1      1494 8.55414E-05-2.54092E-05-2.57801E-05-1.13028E-06 4.74464E-19 1.88323E-18
 -1      1495 8.88324E-05-2.62548E-05-2.68698E-05-1.52545E-06 8.88882E-19 3.80278E-19
 -1      1496 8.99644E-05-2.69511E-05-2.70075E-05-1.96236E-06 2.77880E-19 2.69886E-19
 -1      1497 8.79919E-05-2.62417E-05-2.64623E-05-1.78829E-06 3.12860E-19 7.40492E-19
 -1      1498 9.06834E-05-2.69601E-05-2.73479E-05-3.01366E-06 6.38613E-19-3.32593E-19
 -1      1499 9.37651E-05-2.81756E-05-2.80808E-05-2.05431E-06 5.93763E-19-9.61859E-19
 -1      1500 9.15104E-05-2.74178E-05-2.74521E-05-1.99507E-06 5.66536E-19 7.25801E-20
 -1      1501 9.34469E-05-2.79880E-05-2.80735E-05-3.69959E-06 8.82527E-19-9.57630E-19
 -1      1502 9.73096E-05-2.92910E-05-2.91044E-05-1.74936E-06 3.87739E-19-1.80569E-18
 -1      1503 9.52439E-05-2.86377E-05-2.85198E-05-1.78866E-06 4.08890E-19-1.21232E-18
 -1      1504 9.64004E-05-2.90456E-05-2.88699E-05-3.55767E-06 8.68692E-19-1.81761E-18
 -1      1505 1.00035E-04-3.01234E-05-2.99135E-05-1.22547E-06 1.38147E-19-2.40818E-18
 -1      1506 9.84687E-05-2.96609E-05-2.94617E-05-1.32291E-06 9.52978E-20-2.19491E-18
 -1      1507 9.89428E-05-2.99064E-05-2.95803E-05-2.81952E-06 4.23278E-19-2.07133E-18
 -1      1508 1.01721E-04-3.06162E-05-3.04333E-05-6.61310E-07 1.90298E-19-2.71927E-18
 -1      1509 1.00765E-04-3.03618E-05-3.01503E-05-7.75558E-07 1.55172E-19-2.60473E-18
 -1      1510 1.00731E-04-3.04635E-05-3.01037E-05-1.81606E-06 1.33183E-19-2.67110E-18
 -1      1511 1.02422E-04-3.08002E-05-3.06676E-05-1.78106E-07 4.20431E-19-3.32491E-18
 -1      1512 1.02032E-04-3.07242E-05-3.05457E-05-2.80454E-07 2.56128E-19-2.98355E-18
 -1      1513 1.01684E-04-3.07158E-05-3.04038E-05-8.31852E-07 4.94958E-19-3.44890E-18
 -1      1514 1.02347E-04-3.07499E-05-3.06698E-05 1.70780E-07 5.16804E-19-4.53290E-18
 -1      1515 1.02395E-04-3.08020E-05-3.06753E-05 9.38909E-08 6.35465E-19-3.39868E-18
 -1      1516 1.01902E-04-3.07234E-05-3.04962E-05-3.76626E-08 8.01568E-19-3.85686E-18
 -1      1517 1.01755E-04-3.05486E-05-3.05117E-05 3.82482E-07-3.46668E-19-4.79085E-18
 -1      1518 1.02089E-04-3.06780E-05-3.06028E-05 3.33241E-07-1.27353E-20-4.75134E-18
 -1      1519 1.01575E-04-3.05655E-05-3.04264E-05 5.06458E-07 5.48550E-19-3.30591E-18
 -1      1520 1.00880E-04-3.02690E-05-3.02624E-05 4.80981E-07-3.70829E-19-3.47820E-18
 -1      1521 1.01364E-04-3.04341E-05-3.04003E-05 4.55366E-07-5.51685E-19-4.49425E-18
 -1      1522 1.00905E-04-3.03152E-05-3.02492E-05 8.14842E-07-6.80009E-19-3.66503E-18
 -1      1523 9.99015E-05-2.99650E-05-2.99768E-05 4.98711E-07 4.70635E-19-3.99917E-18
 -1      1524 1.00436E-04-3.01364E-05-3.01316E-05 4.90505E-07 5.54408E-19-3.28437E-18
 -1      1525 1.00067E-04-3.00286E-05-3.00148E-05 9.37390E-07 2.33241E-19-3.20942E-18
 -1      1526 9.89435E-05-2.96720E-05-2.96930E-05 4.65992E-07 3.20716E-19-5.12827E-18
 -1      1527 9.94612E-05-2.98319E-05-2.98445E-05 4.69124E-07 4.30923E-19-4.28125E-18
 -1      1528 9.91905E-05-2.97437E-05-2.97625E-05 9.32009E-07 6.89258E-19-3.27284E-18
 -1      1529 9.80777E-05-2.94102E-05-2.94343E-05 4.06666E-07 1.66387E-20-5.46055E-18
 -1      1530 9.85405E-05-2.95491E-05-2.95707E-05 4.16217E-07-1.56847E-19-5.37434E-18
 -1      1531 9.83597E-05-2.94831E-05-2.95190E-05 8.49847E-07 3.97037E-19-3.78152E-18
 -1      1532 9.73386E-05-2.91886E-05-2.92119E-05 3.37403E-07-7.70970E-19-4.41518E-18
 -1      1533 9.77294E-05-2.93032E-05-2.93278E-05 3.49835E-07-6.14751E-19-4.92054E-18
 -1      1534 9.76229E-05-2.92579E-05-2.93003E-05 7.29869E-07-7.80528E-19-3.66021E-18
 -1      1535 9.67349E-05-2.90087E-05-2.90295E-05 2.68712E-07-3.78279E-19-3.91247E-18
 -1      1536 9.70505E-05-2.90995E-05-2.91234E-05 2.81711E-07-2.90541E-19-4.32739E-18
 -1      1537 9.70008E-05-2.90715E-05-2.91137E-05 5.98678E-07-8.35317E-19-2.98413E-18
 -1      1538 9.62598E-05-2.88680E-05-2.88853E-05 2.06457E-07 1.92650E-19-4.17640E-18
 -1      1539 9.65052E-05-2.89372E-05-2.89586E-05 2.18658E-07-4.32450E-20-3.71261E-18
 -1      1540 9.64957E-05-2.89228E-05-2.89610E-05 4.72623E-07-1.08779E-19-2.76360E-18
 -1      1541 9.58983E-05-2.87614E-05-2.87752E-05 1.53309E-07-1.59017E-19-4.05570E-18
 -1      1542 9.60826E-05-2.88124E-05-2.88305E-05 1.64018E-07 1.96716E-20-3.89393E-18
 -1      1543 9.60995E-05-2.88079E-05-2.88404E-05 3.60486E-07-6.90282E-21-2.69128E-18
 -1      1544 9.56322E-05-2.86833E-05-2.86940E-05 1.09921E-07-6.24047E-19-2.88216E-18
 -1      1545 9.57658E-05-2.87196E-05-2.87342E-05 1.18880E-07-5.48131E-19-4.30792E-18
 -1      1546 9.57983E-05-2.87217E-05-2.87482E-05 2.65930E-07-5.83090E-19-2.85008E-18
 -1      1547 9.54430E-05-2.86281E-05-2.86360E-05 7.57742E-08 9.60250E-19-3.07050E-18
 -1      1548 9.55362E-05-2.86528E-05-2.86642E-05 8.29941E-08 6.14982E-19-2.04004E-18
 -1      1549 9.55765E-05-2.86590E-05-2.86798E-05 1.89424E-07-1.19247E-19-2.61647E-18
 -1      1550 9.53137E-05-2.85906E-05-2.85963E-05 4.97628E-08 6.62686E-20-4.25440E-18
 -1      1551 9.53760E-05-2.86066E-05-2.86152E-05 5.53982E-08 3.14183E-19-3.44908E-18
 -1      1552 9.54183E-05-2.86150E-05-2.86308E-05 1.29635E-07 8.83634E-19-2.33388E-18
 -1      1553 9.52299E-05-2.85665E-05-2.85704E-05 3.05595E-08 4.34486E-19-4.78015E-18
 -1      1554 9.52689E-05-2.85761E-05-2.85824E-05 3.48317E-08 3.21304E-19-4.28633E-18
 -1      1555 9.53099E-05-2.85853E-05-2.85969E-05 8.43618E-08 5.19050E-19-2.98941E-18
 -1      1556 9.51792E-05-2.85521E-05-2.85547E-05 1.68366E-08 3.14287E-19-6.04910E-18
 -1      1557 9.52015E-05-2.85571E-05-2.85616E-05 1.99839E-08 1.66950E-19-5.69066E-18
 -1      1558 9.52390E-05-2.85663E-05-2.85745E-05 5.11231E-08 5.46430E-19-3.64262E-18
 -1      1559 9.51521E-05-2.85446E-05-2.85461E-05 7.38361E-09-4.79117E-20-6.87069E-18
 -1      1560 9.51628E-05-2.85465E-05-2.85495E-05 9.63343E-09-6.19452E-20-6.92326E-18
 -1      1561 9.51957E-05-2.85550E-05-2.85607E-05 2.75044E-08 2.86263E-19-5.01904E-18
 -1      1562 9.51411E-05-2.85417E-05-2.85426E-05 1.16040E-09 1.49917E-19-7.33400E-18
 -1      1563 9.51440E-05-2.85416E-05-2.85436E-05 2.71460E-09 1.34790E-19-6.84216E-18
 -1      1564 9.51720E-05-2.85492E-05-2.85529E-05 1.13387E-08 1.63410E-19-5.05758E-18
 -1      1565 9.51406E-05-2.85419E-05-2.85422E-05-2.68940E-09-2.18371E-20-7.34976E-18
 -1      1566 9.51387E-05-2.85406E-05-2.85418E-05-1.66003E-09 1.08030E-19-6.99855E-18
 -1      1567 9.51618E-05-2.85471E-05-2.85494E-05 7.82677E-10 5.31078E-20-4.34285E-18
 -1      1568 9.51465E-05-2.85438E-05-2.85439E-05-4.84742E-09-2.43748E-19-6.76335E-18
 -1      1569 9.51417E-05-2.85419E-05-2.85426E-05-4.20354E-09-1.75628E-19-7.01834E-18
 -1      1570 9.51604E-05-2.85474E-05-2.85486E-05-5.67068E-09-4.57491E-20-4.13879E-18
 -1      1571 9.51560E-05-2.85468E-05-2.85467E-05-5.84058E-09 1.99908E-19-5.75523E-18
 -1      1572 9.51497E-05-2.85446E-05-2.85449E-05-5.47189E-09-3.11150E-19-6.46120E-18
 -1      1573 9.51646E-05-2.85491E-05-2.85496E-05-9.21421E-09-6.88207E-19-4.12056E-18
 -1      1574 9.51669E-05-2.85501E-05-2.85499E-05-6.06542E-09-4.77207E-19-5.77155E-18
 -1      1575 9.51602E-05-2.85479E-05-2.85480E-05-5.88685E-09 3.46908E-19-5.69956E-18
 -1      1576 9.51717E-05-2.85515E-05-2.85516E-05-1.07658E-08 2.48718E-19-3.85586E-18
 -1      1577 9.51780E-05-2.85535E-05-2.85532E-05-5.81242E-09 3.60053E-19-6.67484E-18
 -1      1578 9.51715E-05-2.85515E-05-2.85513E-05-5.76001E-09-1.60195E-19-6.65907E-18
 -1      1579 9.51803E-05-2.85543E-05-2.85541E-05-1.10134E-08 2.81913E-19-4.75968E-18
 -1      1580 9.51886E-05-2.85567E-05-2.85564E-05-5.28846E-09-3.41470E-19-7.08432E-18
 -1      1581 9.51825E-05-2.85548E-05-2.85546E-05-5.31527E-09-1.63497E-19-7.71243E-18
 -1      1582 9.51891E-05-2.85570E-05-2.85566E-05-1.04589E-08 5.09700E-19-6.49093E-18
 -1      1583 9.51981E-05-2.85596E-05-2.85593E-05-4.63606E-09-6.10412E-19-4.87029E-18
 -1      1584 9.51928E-05-2.85580E-05-2.85577E-05-4.70857E-09-6.74301E-19-6.46489E-18
 -1      1585 9.51975E-05-2.85596E-05-2.85592E-05-9.45798E-09-1.13226E-18-5.19407E-18
 -1      1586 9.52064E-05-2.85621E-05-2.85618E-05-3.94950E-09 2.44161E-19-3.90705E-18
 -1      1587 9.52018E-05-2.85607E-05-2.85604E-05-4.04452E-09 3.42165E-19-3.82186E-18
 -1      1588 9.52052E-05-2.85619E-05-2.85614E-05-8.25451E-09-5.05827E-19-3.69856E-18
 -1      1589 9.52134E-05-2.85642E-05-2.85639E-05-3.28766E-09-3.28448E-19-3.44946E-18
 -1      1590 9.52096E-05-2.85630E-05-2.85628E-05-3.38974E-09-5.76278E-19-4.43655E-18
 -1      1591 9.52120E-05-2.85639E-05-2.85635E-05-7.00852E-09 1.44523E-19-2.71815E-18
 -1      1592 9.52193E-05-2.85659E-05-2.85657E-05-2.68405E-09-9.94755E-20-2.96652E-18
 -1      1593 9.52161E-05-2.85650E-05-2.85648E-05-2.78348E-09 2.44826E-19-3.02223E-18
 -1      1594 9.52177E-05-2.85656E-05-2.85652E-05-5.81875E-09-3.34996E-19-2.95237E-18
 -1      1595 9.52241E-05-2.85673E-05-2.85671E-05-2.15433E-09-3.90473E-19-1.98663E-18
 -1      1596 9.52215E-05-2.85666E-05-2.85664E-05-2.24560E-09-3.29468E-19-2.48712E-18
 -1      1597 9.52225E-05-2.85670E-05-2.85666E-05-4.74007E-09-6.16014E-19-1.06798E-18
 -1      1598 9.52279E-05-2.85684E-05-2.85683E-05-1.70185E-09 1.45153E-19-2.77440E-18
 -1      1599 9.52259E-05-2.85679E-05-2.85677E-05-1.78250E-09-9.42785E-21-2.56916E-18
 -1      1600 9.52264E-05-2.85681E-05-2.85678E-05-3.79644E-09-1.56379E-19-1.28075E-18
 -1      1601 9.52309E-05-2.85693E-05-2.85692E-05-1.32141E-09 4.53289E-19-4.35239E-18
 -1      1602 9.52293E-05-2.85689E-05-2.85687E-05-1.39127E-09 8.90486E-19-3.13090E-18
 -1      1603 9.52295E-05-2.85690E-05-2.85688E-05-2.99043E-09 1.45099E-18-2.86889E-18
 -1      1604 9.52332E-05-2.85700E-05-2.85699E-05-1.00157E-09-6.45205E-19-3.95282E-18
 -1      1605 9.52320E-05-2.85697E-05-2.85696E-05-1.06235E-09-7.18290E-19-5.03133E-18
 -1      1606 9.52320E-05-2.85697E-05-2.85695E-05-2.30940E-09-1.40885E-19-2.90395E-18
 -1      1607 9.52349E-05-2.85705E-05-2.85704E-05-7.26579E-10 2.01212E-19-3.71173E-18
 -1      1608 9.52340E-05-2.85703E-05-2.85702E-05-7.81549E-10 7.28311E-19-3.66650E-18
 -1      1609 9.52339E-05-2.85703E-05-2.85701E-05-1.73003E-09-3.80572E-19-2.76555E-18
 -1      1610 9.52361E-05-2.85709E-05-2.85708E-05-4.76778E-10-5.69642E-19-3.57868E-18
 -1      1611 9.52355E-05-2.85707E-05-2.85706E-05-5.31235E-10-2.66043E-19-3.82580E-18
 -1      1612 9.52353E-05-2.85707E-05-2.85705E-05-1.22149E-09 2.55510E-20-6.99579E-19
 -1      1613 9.52368E-05-2.85711E-05-2.85710E-05-2.32182E-10-3.46151E-19-2.43022E-18
 -1      1614 9.52365E-05-2.85710E-05-2.85709E-05-2.93975E-10-7.64577E-19-3.10946E-18
 -1      1615 9.52363E-05-2.85710E-05-2.85708E-05-7.50709E-10-8.76979E-19-1.36860E-18
 -1      1616 9.52371E-05-2.85712E-05-2.85711E-05-1.40948E-11 5.43474E-19-4.01470E-18
 -1      1617 9.52370E-05-2.85712E-05-2.85711E-05-7.25743E-11 7.87707E-19-2.53244E-18
 -1      1618 9.52369E-05-2.85711E-05-2.85710E-05-3.01031E-10 8.71535E-19-2.21373E-18
 -1      1619 9.52372E-05-2.85711E-05-2.85712E-05 4.26218E-11-2.31360E-18-2.63401E-18
 -1      1620 9.52371E-05-2.85713E-05-2.85710E-05-1.73113E-10-3.51358E-18-4.94008E-19
 -1      1621 9.52371E-05-2.85712E-05-2.85711E-05-1.16898E-10-3.68257E-18 2.26553E-19
 -1      1622 9.52373E-05-2.85719E-05-2.85709E-05-4.12238E-10-1.33399E-18 2.27849E-18
 -1      1623 9.52372E-05-2.85716E-05-2.85710E-05-3.66643E-10-3.67893E-18 1.88227E-19
 -1      1624 9.52372E-05-2.85717E-05-2.85709E-05-5.44319E-10-1.40676E-18 1.07502E-18
 -1      1625 9.52376E-05-2.85728E-05-2.85706E-05-5.75743E-10-1.38673E-18 6.57723E-19
 -1      1626 9.52375E-05-2.85723E-05-2.85708E-05-5.50483E-10-2.31158E-18 2.22265E-18
 -1      1627 9.52374E-05-2.85723E-05-2.85707E-05-9.43330E-10-2.08588E-18 2.37485E-18
 -1      1628 9.52380E-05-2.85738E-05-2.85703E-05-6.29881E-10 2.49050E-19-4.27142E-19
 -1      1629 9.52378E-05-2.85733E-05-2.85705E-05-6.28114E-10-6.15308E-19 1.41051E-18
 -1      1630 9.52377E-05-2.85732E-05-2.85705E-05-1.17036E-09-2.25457E-18 1.24701E-18
 -1      1631 9.52383E-05-2.85748E-05-2.85701E-05-5.76527E-10-3.67012E-18-2.70600E-18
 -1      1632 9.52381E-05-2.85743E-05-2.85702E-05-5.95028E-10-4.55029E-19-3.31349E-18
 -1      1633 9.52380E-05-2.85740E-05-2.85703E-05-1.18744E-09-1.70649E-18-2.99846E-18
 -1      1634 9.52385E-05-2.85756E-05-2.85698E-05-4.30089E-10-3.23551E-18 4.50333E-19
 -1      1635 9.52384E-05-2.85752E-05-2.85699E-05-4.65410E-10-2.67530E-18-1.38899E-18
 -1      1636 9.52383E-05-2.85749E-05-2.85701E-05-1.00927E-09-1.16830E-18-2.80157E-18
 -1      1637 9.52387E-05-2.85761E-05-2.85697E-05-2.17751E-10-1.83239E-18-4.77362E-19
 -1      1638 9.52386E-05-2.85758E-05-2.85698E-05-2.63407E-10-3.34227E-18 1.65629E-18
 -1      1639 9.52385E-05-2.85755E-05-2.85699E-05-6.71557E-10-7.11921E-19 8.66131E-19
 -1      1640 9.52387E-05-2.85761E-05-2.85697E-05 2.69521E-11 3.26286E-19 1.38872E-18
 -1      1641 9.52387E-05-2.85761E-05-2.85697E-05-2.22029E-11-1.24592E-18 9.81965E-19
 -1      1642 9.52387E-05-2.85758E-05-2.85698E-05-2.32364E-10-2.31318E-19 8.25038E-19
 -1      1643 9.52386E-05-2.85758E-05-2.85698E-05 2.67710E-10 1.58288E-18 1.47703E-19
 -1      1644 9.52387E-05-2.85761E-05-2.85697E-05 2.22217E-10 9.61123E-19 8.46824E-19
 -1      1645 9.52387E-05-2.85758E-05-2.85698E-05 2.41253E-10 1.00692E-18 1.64013E-18
 -1      1646 9.52384E-05-2.85752E-05-2.85700E-05 4.68500E-10 1.41039E-18-4.65615E-19
 -1      1647 9.52385E-05-2.85756E-05-2.85698E-05 4.33615E-10 1.83548E-18-9.00479E-20
 -1      1648 9.52385E-05-2.85755E-05-2.85699E-05 6.79144E-10 3.50952E-19 8.79210E-19
 -1      1649 9.52381E-05-2.85743E-05-2.85702E-05 5.95541E-10-2.84528E-19-2.37398E-19
 -1      1650 9.52383E-05-2.85748E-05-2.85701E-05 5.77372E-10 8.29941E-19-1.43486E-18
 -1      1651 9.52383E-05-2.85749E-05-2.85701E-05 1.01256E-09 4.47361E-19-1.87753E-18
 -1      1652 9.52378E-05-2.85733E-05-2.85705E-05 6.27802E-10-1.18457E-18-1.28243E-18
 -1      1653 9.52380E-05-2.85738E-05-2.85703E-05 6.29999E-10-8.58556E-19 6.11921E-19
 -1      1654 9.52380E-05-2.85740E-05-2.85703E-05 1.18836E-09-5.00080E-20-5.97534E-19
 -1      1655 9.52375E-05-2.85723E-05-2.85708E-05 5.48537E-10-1.31091E-18 6.39094E-19
 -1      1656 9.52376E-05-2.85728E-05-2.85706E-05 5.73424E-10-1.47572E-18-4.46883E-20
 -1      1657 9.52377E-05-2.85731E-05-2.85705E-05 1.16815E-09 1.23725E-19-1.48707E-18
 -1      1658 9.52372E-05-2.85716E-05-2.85710E-05 3.66563E-10-3.06316E-18-1.35727E-18
 -1      1659 9.52373E-05-2.85719E-05-2.85709E-05 4.13846E-10-1.17819E-18-4.52534E-19
 -1      1660 9.52374E-05-2.85723E-05-2.85707E-05 9.36689E-10-5.11511E-19-5.52401E-19
 -1      1661 9.52371E-05-2.85713E-05-2.85711E-05 2.06273E-10-2.77170E-18-1.31019E-18
 -1      1662 9.52371E-05-2.85714E-05-2.85710E-05 2.85926E-10-2.27244E-18-2.02968E-18
 -1      1663 9.52371E-05-2.85717E-05-2.85709E-05 6.72892E-10-1.02676E-18-2.11362E-18
 -1      1664 9.52369E-05-2.85714E-05-2.85710E-05 4.39694E-10-1.96801E-19-1.11632E-18
 -1      1665 1.82557E-05-5.50304E-05 1.03164E-05-1.83139E-06 6.43322E-18 4.88314E-18
 -1      1666 2.13019E-05-6.53942E-05 1.27162E-05 4.16259E-06-2.60251E-19 3.85188E-18
 -1      1667 1.82537E-05-3.05786E-05 1.19827E-06 6.44384E-06 1.40726E-17 9.21635E-18
 -1      1668 2.21797E-05-5.17637E-05 6.79782E-06 2.23364E-06 9.16490E-18 5.64172E-18
 -1      1669 3.66081E-05-6.88889E-06-1.43196E-05 3.43217E-05 1.68907E-17 1.36029E-17
 -1      1670 2.96378E-05-2.59530E-05-5.80006E-06 1.62378E-05 1.46333E-17 1.01271E-17
 -1      1671 8.49811E-05-3.52240E-06-3.36727E-05 6.40308E-05 1.48434E-17 1.60403E-17
 -1      1672 5.77650E-05-7.27140E-06-2.34378E-05 4.17317E-05 1.61699E-17 1.35915E-17
 -1      1673 1.44036E-04-1.52022E-05-5.13728E-05 7.97370E-05 1.17585E-17 1.50602E-17
 -1      1674 1.04090E-04-1.94211E-06-4.28254E-05 6.95676E-05 1.52457E-17 1.62503E-17
 -1      1675 2.08097E-04-4.25481E-05-6.52384E-05 6.66367E-05 6.64751E-18 8.53047E-18
 -1      1676 1.67123E-04-2.14613E-05-5.87978E-05 7.81578E-05 1.03787E-17 1.35949E-17
 -1      1677 2.44239E-04-6.12796E-05-7.22430E-05 2.44932E-05 3.79026E-18-1.36711E-18
 -1      1678 2.24346E-04-4.92330E-05-6.95858E-05 5.37418E-05 5.47289E-18 5.51969E-18
 -1      1679 2.36649E-04-5.73698E-05-7.15625E-05-2.54499E-05 5.53494E-18-1.13621E-17
 -1      1680 2.45458E-04-6.17961E-05-7.27767E-05 7.63182E-06 4.19430E-18-4.61331E-18
 -1      1681 1.93610E-04-3.61404E-05-6.38902E-05-6.20781E-05 1.02881E-17-1.92971E-17
 -1      1682 2.26094E-04-5.35098E-05-6.86757E-05-4.11995E-05 6.94011E-18-1.40531E-17
 -1      1683 1.34539E-04-1.06871E-05-5.16191E-05-7.36425E-05 1.61101E-17-2.33002E-17
 -1      1684 1.73853E-04-2.86526E-05-5.84127E-05-7.22649E-05 1.21971E-17-2.16425E-17
 -1      1685 8.00826E-05 1.36811E-06-3.57252E-05-5.74395E-05 1.97723E-17-2.09065E-17
 -1      1686 1.13690E-04-7.07988E-06-4.41004E-05-7.09694E-05 1.70254E-17-2.19661E-17
 -1      1687 3.67172E-05 3.32141E-06-1.97879E-05-3.53558E-05 2.22109E-17-1.72494E-17
 -1      1688 5.44036E-05 9.29210E-06-2.78235E-05-5.40898E-05 2.19593E-17-2.13486E-17
 -1      1689 2.26867E-05-1.52270E-05-6.57231E-06-1.75997E-05 1.60657E-17-1.08107E-17
 -1      1690 2.72687E-05-1.07251E-06-1.31237E-05-2.96905E-05 1.93403E-17-1.48510E-17
 -1      1691 1.48104E-05-3.39004E-05 3.69072E-06-5.55908E-06 9.62865E-18-5.88783E-18
 -1      1692 1.16847E-05-1.81311E-05-7.11812E-07-7.12240E-06 1.60182E-17-9.20105E-18
 -1      1693 1.32634E-05-4.12508E-05 7.53863E-06-7.67175E-06-2.58398E-18-5.37993E-18
 -1      1694 1.17940E-05-3.46115E-05 5.90037E-06-3.00459E-06 5.62091E-18-5.98598E-18
 -1      1695 1.19998E-05-3.92005E-05 6.56987E-06-8.55597E-06-1.33031E-17-7.43176E-18
 -1      1696 1.46415E-05-4.58658E-05 8.23406E-06-3.42198E-06-5.89683E-18-4.94858E-18
 -1      1697 1.87599E-05-2.14246E-05-2.89068E-06 6.47903E-06-1.93547E-17-1.40340E-17
 -1      1698 1.87398E-05-3.62704E-05 2.45119E-06 3.01945E-07-1.41891E-17-9.41774E-18
 -1      1699 3.74435E-05-5.83287E-06-1.64558E-05 2.86640E-05-2.38626E-17-2.12948E-17
 -1      1700 2.80758E-05-1.94659E-05-8.69902E-06 1.19240E-05-2.23388E-17-1.64104E-17
 -1      1701 9.26419E-05-1.06749E-05-3.50406E-05 5.68081E-05-2.02212E-17-2.45555E-17
 -1      1702 6.20307E-05-1.07499E-05-2.50911E-05 3.58788E-05-2.22922E-17-2.19568E-17
 -1      1703 1.60672E-04-2.79923E-05-5.33810E-05 6.95865E-05-1.52817E-17-2.49265E-17
 -1      1704 1.16274E-04-1.30879E-05-4.42575E-05 6.07824E-05-1.94733E-17-2.58057E-17
 -1      1705 2.28129E-04-5.46430E-05-6.81580E-05 5.10949E-05-8.78511E-18-1.81409E-17
 -1      1706 1.85226E-04-3.43612E-05-6.11111E-05 6.46487E-05-1.33361E-17-2.30063E-17
 -1      1707 2.61070E-04-6.68998E-05-7.59112E-05 4.85632E-06-5.46252E-18-6.60220E-18
 -1      1708 2.40704E-04-5.70457E-05-7.26486E-05 3.59228E-05-7.36220E-18-1.41709E-17
 -1      1709 2.55768E-04-6.16272E-05-7.59619E-05-4.20215E-05-5.77274E-18 4.51130E-18
 -1      1710 2.66893E-04-6.88086E-05-7.72351E-05-8.98822E-06-5.02100E-18-3.51360E-18
 -1      1711 2.07188E-04-3.81279E-05-6.73966E-05-7.11413E-05-1.02726E-17 1.37838E-17
 -1      1712 2.42732E-04-5.69009E-05-7.26056E-05-5.27249E-05-7.00496E-18 7.19724E-18
 -1      1713 1.44489E-04-1.38012E-05-5.36761E-05-7.80136E-05-1.51941E-17 1.97630E-17
 -1      1714 1.87249E-04-3.18735E-05-6.13812E-05-7.95831E-05-1.13685E-17 1.68602E-17
 -1      1715 8.68290E-05-5.62134E-06-3.55811E-05-5.72192E-05-1.79393E-17 1.89075E-17
 -1      1716 1.22840E-04-1.18601E-05-4.52079E-05-7.47742E-05-1.55566E-17 2.00154E-17
 -1      1717 4.31531E-05-1.09322E-05-1.72985E-05-3.02583E-05-1.94995E-17 1.57091E-17
 -1      1718 6.13611E-05-9.25243E-07-2.65255E-05-5.22056E-05-1.92310E-17 1.93716E-17
 -1      1719 2.73062E-05-3.48090E-05-1.97904E-06-8.70463E-06-1.63393E-17 1.01282E-17
 -1      1720 3.01816E-05-1.52923E-05-9.41341E-06-2.23788E-05-1.86872E-17 1.40807E-17
 -1      1721 2.26241E-05-5.76140E-05 8.77382E-06 3.07836E-07-1.07781E-17 5.84484E-18
 -1      1722 1.85668E-05-3.91737E-05 3.94448E-06-1.31046E-06-1.52771E-17 8.91343E-18
 -1      1723 2.12070E-05-6.67943E-05 1.32208E-05-1.01963E-06-2.57090E-18 3.94887E-18
 -1      1724 1.90980E-05-6.05767E-05 1.17744E-05 6.00813E-06-8.71089E-18 5.10147E-18
 -1      1725 1.18711E-04-2.96675E-05-3.71457E-05 4.65794E-05 8.56647E-18 7.39968E-18
 -1      1726 7.80955E-05-3.24800E-05-2.01614E-05 4.43700E-05 7.24044E-18 8.22173E-18
 -1      1727 9.52371E-05-2.85711E-05-2.85711E-05-1.05122E-12-2.92018E-18-1.74731E-18
 -1      1728 9.52371E-05-2.85713E-05-2.85710E-05-1.96494E-10 1.45357E-20-1.21526E-18
 -1      1729 1.81754E-05-3.96130E-05 5.21446E-06 1.74004E-05 2.91549E-18 7.99599E-18
 -1      1730 3.98810E-05-3.45125E-05-4.88584E-06 3.25739E-05 6.05459E-18 9.08565E-18
 -1      1731 1.05506E-05-4.15234E-05 8.96143E-06 3.20298E-06-9.35601E-19 7.63261E-18
 -1      1732 1.58425E-04-2.73798E-05-5.29961E-05 4.61254E-05 9.16680E-18 5.82589E-18
 -1      1733 1.92229E-04-3.10247E-05-6.42695E-05 3.32081E-05 8.12707E-18 1.84950E-18
 -1      1734 2.06452E-04-3.35279E-05-6.89345E-05 1.07275E-05 7.46956E-18-3.32233E-18
 -1      1735 1.98292E-04-3.19175E-05-6.66979E-05-1.37682E-05 8.76721E-18-7.91891E-18
 -1      1736 1.74297E-04-2.91179E-05-5.87840E-05-3.54364E-05 1.06238E-17-1.20245E-17
 -1      1737 1.35977E-04-2.45000E-05-4.62843E-05-4.42666E-05 1.17589E-17-1.33060E-17
 -1      1738 9.33789E-05-1.85907E-05-3.19405E-05-4.69017E-05 1.25941E-17-1.35275E-17
 -1      1739 5.46669E-05-1.63083E-05-1.78351E-05-4.05220E-05 1.04888E-17-1.23627E-17
 -1      1740 2.71420E-05-1.72663E-05-6.26499E-06-2.99622E-05 7.68089E-18-1.05416E-17
 -1      1741 9.39850E-06-1.97143E-05 1.58587E-06-1.60927E-05 2.65058E-18-9.78620E-18
 -1      1742 4.95655E-06-2.24107E-05 4.22425E-06-4.95624E-06-2.62983E-18-9.78620E-18
 -1      1743 1.55367E-05-2.52770E-05 8.66630E-07 1.12398E-05-7.71393E-18-1.10174E-17
 -1      1744 3.98207E-05-2.74165E-05-8.32642E-06 2.44959E-05-1.07865E-17-1.30834E-17
 -1      1745 8.01207E-05-3.20436E-05-2.22777E-05 3.47138E-05-1.33992E-17-1.48379E-17
 -1      1746 1.28752E-04-3.68162E-05-3.90067E-05 3.63622E-05-1.29456E-17-1.49654E-17
 -1      1747 1.74980E-04-3.87719E-05-5.51960E-05 3.17647E-05-1.21551E-17-1.36567E-17
 -1      1748 2.06080E-04-3.80712E-05-6.68089E-05 1.39495E-05-1.02510E-17-8.47329E-18
 -1      1749 2.19570E-04-3.68905E-05-7.22124E-05-5.73444E-06-9.41435E-18-3.23365E-18
 -1      1750 2.14313E-04-3.67065E-05-7.02649E-05-2.30622E-05-9.84168E-18 2.22770E-18
 -1      1751 1.87985E-04-3.43403E-05-6.14260E-05-3.85982E-05-1.07418E-17 6.92704E-18
 -1      1752 1.49982E-04-3.39898E-05-4.75865E-05-4.53236E-05-1.04837E-17 1.01652E-17
 -1      1753 1.05966E-04-3.29390E-05-3.11938E-05-4.62034E-05-1.03558E-17 1.15374E-17
 -1      1754 6.38035E-05-3.38003E-05-1.49550E-05-3.83775E-05-9.98991E-18 1.11398E-17
 -1      1755 3.46305E-05-3.81673E-05-1.90530E-06-2.64928E-05-8.05782E-18 9.18607E-18
 -1      1756 1.62628E-05-4.15707E-05 6.57734E-06-1.19962E-05-5.00512E-18 8.06015E-18
 -1      1757 1.53976E-04-3.69268E-05-5.00927E-05-1.47083E-05-1.66823E-18 1.31011E-17
 -1      1758 9.45698E-05-1.65289E-05-3.36096E-05-2.06654E-06-6.19446E-19-9.13234E-19
 -1      1759 1.06179E-04-2.00385E-05-3.70015E-05-5.80266E-06-1.18728E-18 5.07373E-19
 -1      1760 1.17388E-04-2.43816E-05-4.00496E-05-9.78181E-06-1.52050E-18 2.34554E-18
 -1      1761 1.27263E-04-2.77552E-05-4.32571E-05-1.34939E-05-2.06840E-18 4.41092E-18
 -1      1762 1.15900E-04-2.88048E-05-3.74528E-05-6.92780E-06-1.19441E-18 1.91601E-18
 -1      1763 4.50651E-05 5.29381E-06-2.16949E-05 1.81231E-06-3.69598E-19-5.50153E-18
 -1      1764 5.54408E-05 1.35984E-06-2.40619E-05 3.33488E-06-1.09903E-19-4.80649E-18
 -1      1765 3.37354E-05 1.10737E-05-1.91234E-05-7.12928E-06-1.61837E-18-6.56721E-18
 -1      1766 3.69252E-05 1.00642E-05-1.99425E-05-3.31818E-06-1.01268E-18-6.27487E-18
 -1      1767 3.93604E-05 7.07068E-06-1.96416E-05 1.15574E-06-6.33422E-19-6.52252E-18
 -1      1768 4.01260E-05 7.40039E-06-2.01093E-05-1.65173E-05-2.95890E-18-6.41260E-18
 -1      1769 3.51250E-05 9.84413E-06-1.92677E-05-1.35286E-05-2.39352E-18-6.52975E-18
 -1      1770 3.20991E-05 1.07666E-05-1.79975E-05-1.11338E-05-2.20121E-18-7.38644E-18
 -1      1771 5.84497E-05-2.44764E-06-2.37289E-05-1.95653E-05-3.55029E-18-5.46234E-18
 -1      1772 4.90142E-05 1.59880E-06-2.18168E-05-1.94705E-05-3.38893E-18-5.78132E-18
 -1      1773 4.37847E-05 3.44350E-06-2.00407E-05-2.09050E-05-3.56119E-18-6.66453E-18
 -1      1774 7.84089E-05-1.20335E-05-2.82981E-05-1.48937E-05-3.08267E-18-4.47523E-18
 -1      1775 6.92776E-05-8.64391E-06-2.60993E-05-1.76005E-05-3.36513E-18-4.69913E-18
 -1      1776 6.56509E-05-8.85161E-06-2.43842E-05-2.12281E-05-3.86975E-18-5.16317E-18
 -1      1777 9.24474E-05-1.71236E-05-3.22897E-05-6.11277E-06-1.92625E-18-3.91853E-18
 -1      1778 8.64448E-05-1.55199E-05-3.04495E-05-1.00495E-05-2.49390E-18-4.02923E-18
 -1      1779 8.59451E-05-1.84070E-05-2.90719E-05-1.33502E-05-3.06062E-18-3.87671E-18
 -1      1780 9.95951E-05-1.80311E-05-3.50652E-05 2.90599E-06-4.52256E-19-3.81562E-18
 -1      1781 9.67193E-05-1.78949E-05-3.38157E-05-1.00135E-06-1.16718E-18-3.73322E-18
 -1      1782 9.85536E-05-2.22957E-05-3.27801E-05-2.89412E-06-1.63478E-18-3.32609E-18
 -1      1783 1.02046E-04-1.68751E-05-3.66581E-05 1.04267E-05 9.35586E-19-3.69007E-18
 -1      1784 1.01151E-04-1.74023E-05-3.59492E-05 7.04385E-06 2.52647E-19-3.75405E-18
 -1      1785 1.04035E-04-2.21536E-05-3.51443E-05 6.20721E-06-8.23045E-21-3.20274E-18
 -1      1786 1.02458E-04-1.56251E-05-3.74005E-05 1.63359E-05 2.25627E-18-3.13143E-18
 -1      1787 1.02320E-04-1.60974E-05-3.70502E-05 1.34578E-05 1.55208E-18-3.50354E-18
 -1      1788 1.05378E-04-2.06282E-05-3.63512E-05 1.29433E-05 1.40369E-18-2.99699E-18
 -1      1789 1.03122E-04-1.57793E-05-3.76917E-05 2.09154E-05 3.32430E-18-1.49713E-18
 -1      1790 1.02611E-04-1.55373E-05-3.74761E-05 1.84387E-05 2.67862E-18-2.48091E-18
 -1      1791 1.05408E-04-1.97165E-05-3.67394E-05 1.76767E-05 2.67029E-18-2.24837E-18
 -1      1792 1.07075E-04-1.96373E-05-3.77630E-05 2.36328E-05 3.91850E-18 2.06782E-18
 -1      1793 1.04499E-04-1.73444E-05-3.75592E-05 2.19870E-05 3.58592E-18-1.47490E-19
 -1      1794 1.06564E-04-2.11280E-05-3.65973E-05 2.03397E-05 3.60676E-18-4.13590E-19
 -1      1795 1.13187E-04-2.80162E-05-3.70284E-05 1.92944E-05 3.60672E-18 6.97383E-18
 -1      1796 1.09076E-04-2.20340E-05-3.73034E-05 2.25453E-05 3.73007E-18 3.77014E-18
 -1      1797 1.08295E-04-2.49977E-05-3.58160E-05 1.92372E-05 4.07195E-18 2.21491E-18
 -1      1798 1.08770E-04-2.90145E-05-3.44568E-05 1.40689E-05 3.60116E-18 5.89347E-18
 -1      1799 1.41495E-04-3.20532E-05-4.65029E-05-1.64360E-05-2.01655E-18 7.82616E-18
 -1      1800 1.02812E-04-2.96631E-05-3.13886E-05 8.93852E-06 2.78921E-18 4.43148E-18
 -1      1801 1.06819E-04-3.02328E-05-3.28934E-05 1.11187E-05 3.03794E-18 5.48441E-18
 -1      1802 1.07261E-04-2.85539E-05-3.37121E-05 1.44820E-05 3.48795E-18 3.46151E-18
 -1      1803 1.39311E-04-3.70770E-05-4.34660E-05-1.22797E-05-1.77618E-18 6.73804E-18
 -1      1804 1.41067E-04-4.51987E-05-4.08904E-05-1.08152E-05-1.11202E-18 7.49657E-18
 -1      1805 1.37671E-04-4.51436E-05-3.98131E-05-1.30643E-05-1.19779E-18 7.13591E-18
 -1      1806 1.38346E-04-4.55030E-05-3.97416E-05-1.66565E-05-1.27905E-18 7.46073E-18
 -1      1807 1.34008E-04-4.30980E-05-3.90284E-05-1.92182E-05-1.87673E-18 7.00903E-18
 -1      1808 1.38202E-04-4.69512E-05-3.91657E-05-1.66167E-05-1.42664E-18 5.85393E-18
 -1      1809 1.32496E-04-4.02677E-05-3.97096E-05-2.14070E-05-2.57000E-18 6.84854E-18
 -1      1810 1.27049E-04-3.52941E-05-3.93431E-05-2.04956E-05-3.15181E-18 5.93053E-18
 -1      1811 1.37552E-04-4.35838E-05-4.03739E-05-2.32824E-05-2.59129E-18 5.98757E-18
 -1      1812 1.23611E-04-3.06807E-05-4.02014E-05-1.62903E-05-3.68057E-18 4.79673E-18
 -1      1813 1.20057E-04-2.71059E-05-3.99929E-05-1.03126E-05-3.95893E-18 3.36742E-18
 -1      1814 1.31775E-04-3.23220E-05-4.28798E-05-2.22750E-05-4.40214E-18 4.67340E-18
 -1      1815 1.18573E-04-2.57662E-05-4.00079E-05-1.22749E-06-4.37185E-18 1.40090E-18
 -1      1816 1.19177E-04-2.72251E-05-3.97539E-05 6.02773E-06-4.31923E-18-3.45576E-19
 -1      1817 1.26544E-04-2.43138E-05-4.42577E-05-7.29657E-06-5.65807E-18 1.30517E-18
 -1      1818 1.20994E-04-3.09125E-05-3.86628E-05 1.25159E-05-3.80630E-18-1.86935E-18
 -1      1819 1.24458E-04-3.54823E-05-3.84549E-05 1.53319E-05-2.61596E-18-2.86287E-18
 -1      1820 1.27202E-04-2.79487E-05-4.29091E-05 1.06618E-05-5.14795E-18-2.66924E-18
 -1      1821 1.25660E-04-3.91628E-05-3.71143E-05 1.48684E-05-1.54140E-18-2.87523E-18
 -1      1822 1.28661E-04-4.23476E-05-3.71208E-05 1.27960E-05-6.39073E-19-3.03962E-18
 -1      1823 1.31062E-04-3.89077E-05-3.96398E-05 1.66207E-05-2.34448E-18-4.15578E-18
 -1      1824 1.27117E-04-4.28776E-05-3.62234E-05 8.36843E-06-8.13019E-20-2.52561E-18
 -1      1825 1.28043E-04-4.33373E-05-3.62916E-05 4.55978E-06 3.53769E-19-2.39992E-18
 -1      1826 1.30954E-04-4.54594E-05-3.66812E-05 1.04218E-05-2.15795E-19-3.68539E-18
 -1      1827 1.25023E-04-4.18014E-05-3.58126E-05 2.55234E-07 5.43954E-20-1.89797E-18
 -1      1828 1.24129E-04-4.06964E-05-3.57104E-05-2.84989E-06 1.33752E-19-1.97860E-18
 -1      1829 1.26165E-04-4.47061E-05-3.49526E-05 8.04906E-07 1.97332E-19-2.54732E-18
 -1      1830 1.21108E-04-3.87812E-05-3.53939E-05-5.40493E-06 1.39033E-19-1.63714E-18
 -1      1831 1.19189E-04-3.73253E-05-3.50557E-05-7.05943E-06 6.95950E-19-1.52445E-18
 -1      1832 1.19855E-04-4.04571E-05-3.40902E-05-6.35597E-06 4.18441E-19-1.70494E-18
 -1      1833 1.16770E-04-3.58550E-05-3.47333E-05-7.98580E-06 3.33685E-19-1.48147E-18
 -1      1834 1.14506E-04-3.46034E-05-3.42311E-05-8.45868E-06 7.20243E-20-1.72177E-18
 -1      1835 1.14229E-04-3.61458E-05-3.35156E-05-9.82894E-06 3.08667E-19-1.36452E-18
 -1      1836 1.12667E-04-3.36549E-05-3.38723E-05-8.37915E-06-1.71144E-20-1.70402E-18
 -1      1837 1.10460E-04-3.27120E-05-3.33152E-05-8.16595E-06 5.61089E-20-1.36034E-18
 -1      1838 1.09872E-04-3.30991E-05-3.29379E-05-1.05718E-05-6.09450E-20-1.63329E-18
 -1      1839 1.09046E-04-3.21366E-05-3.29439E-05-7.60390E-06 9.72367E-20-1.21211E-18
 -1      1840 1.07094E-04-3.14558E-05-3.24119E-05-7.09464E-06 1.17655E-19-6.78705E-19
 -1      1841 1.06575E-04-3.12435E-05-3.23083E-05-9.78705E-06 1.05400E-19-1.01468E-18
 -1      1842 1.05980E-04-3.11041E-05-3.20595E-05-6.37861E-06-4.25488E-19-6.31106E-19
 -1      1843 1.04350E-04-3.06154E-05-3.15951E-05-5.80348E-06-6.44073E-19-6.56180E-19
 -1      1844 1.04040E-04-3.01888E-05-3.16666E-05-8.35361E-06-2.13780E-19-5.54376E-20
 -1      1845 1.03458E-04-3.03891E-05-3.12825E-05-5.10386E-06-8.13234E-19-8.84680E-19
 -1      1846 1.02148E-04-3.00357E-05-3.08992E-05-4.57288E-06-4.20931E-19-6.31675E-19
 -1      1847 1.02047E-04-2.95957E-05-3.10629E-05-6.78726E-06-6.85509E-19-2.59363E-19
 -1      1848 1.01432E-04-2.98801E-05-3.06349E-05-3.96175E-06-1.76214E-19-9.84030E-19
 -1      1849 1.00407E-04-2.96225E-05-3.03299E-05-3.51468E-06-4.48451E-19-1.32674E-18
 -1      1850 1.00463E-04-2.92498E-05-3.05298E-05-5.34044E-06-6.49039E-19-6.68444E-19
 -1      1851 9.98356E-05-2.95094E-05-3.01142E-05-3.01164E-06-7.38735E-19-1.26603E-18
 -1      1852 9.90491E-05-2.93208E-05-2.98776E-05-2.65348E-06-4.80349E-19-1.64417E-18
 -1      1853 9.92010E-05-2.90341E-05-3.00801E-05-4.10939E-06-7.42120E-19-7.11860E-19
 -1      1854 9.85983E-05-2.92359E-05-2.97061E-05-2.25364E-06-4.76413E-19-1.65859E-18
 -1      1855 9.80041E-05-2.90980E-05-2.95258E-05-1.97499E-06 5.49364E-20-2.07507E-18
 -1      1856 9.82031E-05-2.88896E-05-2.97131E-05-3.10963E-06-3.54950E-19-1.14402E-18
 -1      1857 9.76528E-05-2.90334E-05-2.93921E-05-1.66414E-06 5.23298E-19-1.63427E-18
 -1      1858 9.72100E-05-2.89332E-05-2.92569E-05-1.45131E-06 7.07757E-19-1.65974E-18
 -1      1859 9.74221E-05-2.87872E-05-2.94212E-05-2.32069E-06 3.71647E-19-4.40536E-19
 -1      1860 9.69401E-05-2.88842E-05-2.91544E-05-1.21330E-06 7.29998E-19-1.52537E-18
 -1      1861 9.66144E-05-2.88121E-05-2.90544E-05-1.05280E-06 4.74900E-19-1.03768E-18
 -1      1862 9.68185E-05-2.87127E-05-2.91934E-05-1.70983E-06 6.56224E-19-1.45995E-19
 -1      1863 9.64100E-05-2.87753E-05-2.89769E-05-8.72652E-07 1.88731E-19-8.90968E-20
 -1      1864 9.61737E-05-2.87243E-05-2.89039E-05-7.52845E-07 2.69541E-19-2.01501E-19
 -1      1865 9.63583E-05-2.86581E-05-2.90186E-05-1.24329E-06 7.70971E-19-2.12811E-20
 -1      1866 9.60213E-05-2.86972E-05-2.88462E-05-6.17858E-07 2.09455E-20 7.95825E-20
 -1      1867 9.58525E-05-2.86617E-05-2.87936E-05-5.29266E-07 1.10003E-19 1.10114E-19
 -1      1868 9.60124E-05-2.86186E-05-2.88865E-05-8.90876E-07 4.17462E-19 6.01360E-19
 -1      1869 9.57406E-05-2.86422E-05-2.87513E-05-4.29118E-07 1.44441E-19-7.50897E-20
 -1      1870 9.56223E-05-2.86182E-05-2.87141E-05-3.64263E-07 3.09170E-19-1.21932E-19
 -1      1871 9.57566E-05-2.85909E-05-2.87880E-05-6.27348E-07 3.21109E-19 9.18512E-19
 -1      1872 9.55417E-05-2.86046E-05-2.86836E-05-2.90768E-07-3.76599E-20-3.33875E-19
 -1      1873 9.54607E-05-2.85890E-05-2.86578E-05-2.43842E-07-3.65602E-19-5.07630E-19
 -1      1874 9.55707E-05-2.85723E-05-2.87157E-05-4.32332E-07-4.65732E-20-1.57871E-19
 -1      1875 9.54039E-05-2.85798E-05-2.86362E-05-1.90587E-07-1.06869E-19-5.50933E-19
 -1      1876 9.53500E-05-2.85702E-05-2.86188E-05-1.57115E-07 1.04633E-19-4.55493E-19
 -1      1877 9.54383E-05-2.85604E-05-2.86635E-05-2.89690E-07-5.06907E-19 1.17472E-19
 -1      1878 9.53110E-05-2.85643E-05-2.86038E-05-1.19115E-07-2.76266E-19-4.42745E-19
 -1      1879 9.52768E-05-2.85588E-05-2.85926E-05-9.56633E-08-3.29696E-19-9.23007E-19
 -1      1880 9.53462E-05-2.85537E-05-2.86266E-05-1.86778E-07 8.94396E-20 3.49081E-19
 -1      1881 9.52509E-05-2.85553E-05-2.85825E-05-6.90625E-08 2.64132E-19-1.03947E-18
 -1      1882 9.52304E-05-2.85528E-05-2.85755E-05-5.30087E-08 1.07737E-18-8.45984E-19
 -1      1883 9.52841E-05-2.85505E-05-2.86010E-05-1.13762E-07-1.08754E-21-9.64814E-20
 -1      1884 9.52141E-05-2.85509E-05-2.85690E-05-3.48395E-08 1.45565E-18-5.25990E-19
 -1      1885 9.52031E-05-2.85503E-05-2.85651E-05-2.41854E-08 1.02563E-18-1.39436E-19
 -1      1886 9.52439E-05-2.85498E-05-2.85839E-05-6.30323E-08 1.33257E-18-2.34177E-19
 -1      1887 9.51935E-05-2.85496E-05-2.85611E-05-1.21760E-08-2.82317E-19-4.53380E-19
 -1      1888 9.51890E-05-2.85501E-05-2.85592E-05-5.40801E-09-6.55876E-19-7.60547E-19
 -1      1889 9.52194E-05-2.85506E-05-2.85728E-05-2.87302E-08 3.04807E-19-2.36446E-19
 -1      1890 9.51840E-05-2.85501E-05-2.85570E-05 2.16956E-09-3.72693E-19-2.57150E-19
 -1      1891 9.51836E-05-2.85513E-05-2.85565E-05 6.19006E-09-1.62245E-19-2.33899E-20
 -1      1892 9.52058E-05-2.85524E-05-2.85661E-05-6.37578E-09-4.55310E-19-4.06779E-19
 -1      1893 9.51817E-05-2.85518E-05-2.85555E-05 1.06391E-08-7.86354E-19 1.60733E-19
 -1      1894 9.51838E-05-2.85533E-05-2.85558E-05 1.27612E-08-1.14879E-18-2.71800E-19
 -1      1895 9.51997E-05-2.85547E-05-2.85624E-05 7.43275E-09-3.52537E-19 2.50274E-19
 -1      1896 9.51839E-05-2.85540E-05-2.85555E-05 1.50547E-08-4.74578E-19-6.09851E-19
 -1      1897 9.51873E-05-2.85556E-05-2.85563E-05 1.59043E-08 9.99389E-19 3.07543E-19
 -1      1898 9.51984E-05-2.85571E-05-2.85607E-05 1.52543E-08-7.04899E-19-3.57145E-19
 -1      1899 9.51886E-05-2.85565E-05-2.85566E-05 1.67593E-08 6.16502E-19-2.78122E-19
 -1      1900 9.51927E-05-2.85580E-05-2.85576E-05 1.67912E-08 2.62216E-19-9.07142E-19
 -1      1901 9.52002E-05-2.85594E-05-2.85604E-05 1.89920E-08 3.47784E-19-8.11129E-19
 -1      1902 9.51946E-05-2.85589E-05-2.85582E-05 1.67282E-08-4.38854E-19-1.85927E-18
 -1      1903 9.51988E-05-2.85603E-05-2.85593E-05 1.62668E-08-2.19184E-18-2.18092E-18
 -1      1904 9.52036E-05-2.85616E-05-2.85609E-05 2.00420E-08-6.95898E-19-1.97427E-18
 -1      1905 9.52009E-05-2.85611E-05-2.85600E-05 1.56565E-08-2.74118E-18-1.50516E-18
 -1      1906 9.52049E-05-2.85624E-05-2.85610E-05 1.49282E-08-1.67618E-18-1.30146E-18
 -1      1907 9.52078E-05-2.85635E-05-2.85619E-05 1.94114E-08-1.58086E-18-1.18029E-18
 -1      1908 9.52071E-05-2.85631E-05-2.85618E-05 1.40281E-08-4.01624E-20-6.14543E-19
 -1      1909 9.52107E-05-2.85642E-05-2.85628E-05 1.31860E-08 7.67656E-19-1.60265E-20
 -1      1910 9.52123E-05-2.85651E-05-2.85631E-05 1.78117E-08-1.74572E-19 5.91656E-19
 -1      1911 9.52128E-05-2.85649E-05-2.85634E-05 1.21696E-08 9.65406E-19-9.26149E-20
 -1      1912 9.52159E-05-2.85658E-05-2.85643E-05 1.13132E-08 1.06231E-18-1.19965E-18
 -1      1913 9.52166E-05-2.85665E-05-2.85643E-05 1.57324E-08 5.75143E-19 1.42874E-18
 -1      1914 9.52178E-05-2.85663E-05-2.85650E-05 1.02921E-08 1.32688E-18-6.02841E-19
 -1      1915 9.52205E-05-2.85671E-05-2.85658E-05 9.48197E-09 4.97775E-19-8.86742E-19
 -1      1916 9.52205E-05-2.85677E-05-2.85655E-05 1.34983E-08 1.00241E-18 7.30624E-19
 -1      1917 9.52221E-05-2.85675E-05-2.85663E-05 8.52320E-09 4.57529E-20-4.83249E-19
 -1      1918 9.52243E-05-2.85681E-05-2.85670E-05 7.79241E-09 6.11450E-19 1.69905E-19
 -1      1919 9.52240E-05-2.85686E-05-2.85666E-05 1.13141E-08 9.31137E-19 1.15746E-18
 -1      1920 9.52257E-05-2.85685E-05-2.85674E-05 6.93130E-09 2.32098E-19 9.76544E-19
 -1      1921 9.52276E-05-2.85690E-05-2.85680E-05 6.29342E-09 5.43577E-20 1.44223E-18
 -1      1922 9.52270E-05-2.85693E-05-2.85676E-05 9.29817E-09 7.17007E-19 2.36166E-18
 -1      1923 9.52287E-05-2.85693E-05-2.85684E-05 5.54308E-09 1.09109E-18 1.23774E-18
 -1      1924 9.52302E-05-2.85697E-05-2.85688E-05 4.99825E-09 1.92457E-18 1.33170E-18
 -1      1925 9.52295E-05-2.85699E-05-2.85684E-05 7.50773E-09 6.00299E-19 2.99874E-18
 -1      1926 9.52311E-05-2.85699E-05-2.85691E-05 4.35642E-09 1.53612E-18 1.41767E-18
 -1      1927 9.52323E-05-2.85702E-05-2.85695E-05 3.89539E-09 1.77713E-18 2.34312E-18
 -1      1928 9.52315E-05-2.85704E-05-2.85691E-05 5.95733E-09 9.85076E-19 3.15095E-18
 -1      1929 9.52330E-05-2.85704E-05-2.85697E-05 3.34925E-09 1.21308E-18 1.73433E-18
 -1      1930 9.52339E-05-2.85706E-05-2.85700E-05 2.95611E-09 6.09104E-19 1.96438E-18
 -1      1931 9.52332E-05-2.85707E-05-2.85696E-05 4.63228E-09 1.51354E-18 1.57983E-18
 -1      1932 9.52345E-05-2.85708E-05-2.85702E-05 2.48618E-09-2.53779E-19 1.45119E-18
 -1      1933 9.52352E-05-2.85709E-05-2.85704E-05 2.14101E-09-3.23414E-19 7.84061E-19
 -1      1934 9.52345E-05-2.85710E-05-2.85701E-05 3.49843E-09-1.86547E-19 1.12437E-18
 -1      1935 9.52356E-05-2.85711E-05-2.85705E-05 1.72453E-09 3.91741E-20 3.96156E-20
 -1      1936 9.52361E-05-2.85712E-05-2.85707E-05 1.40822E-09 8.61808E-19 4.55176E-19
 -1      1937 9.52355E-05-2.85713E-05-2.85704E-05 2.51279E-09-2.62356E-19 5.08347E-19
 -1      1938 9.52364E-05-2.85713E-05-2.85708E-05 1.05141E-09 8.52709E-19 2.66394E-19
 -1      1939 9.52367E-05-2.85713E-05-2.85709E-05 7.68118E-10 7.20902E-19 2.51921E-19
 -1      1940 9.52368E-05-2.85715E-05-2.85708E-05 9.20862E-10-5.92358E-19-4.29208E-19
 -1      1941 9.52363E-05-2.85714E-05-2.85706E-05 1.65489E-09 2.62245E-19 2.53772E-19
 -1      1942 9.77983E-05-2.86304E-05-2.96029E-05 6.56295E-06 1.97992E-18 3.25095E-18
 -1      1943 1.00633E-04-2.93678E-05-3.04825E-05 7.56631E-06 2.22637E-18 3.99121E-18
 -1      1944 1.02586E-04-2.92894E-05-3.14044E-05 1.01150E-05 2.75724E-18 2.65768E-18
 -1      1945 9.39463E-05-2.73615E-05-2.84979E-05 4.52080E-06 1.50187E-18 2.28001E-18
 -1      1946 9.59343E-05-2.80205E-05-2.90420E-05 5.41249E-06 1.62368E-18 2.88391E-18
 -1      1947 9.83382E-05-2.83541E-05-2.99979E-05 7.30474E-06 2.04567E-18 1.73951E-18
 -1      1948 9.15154E-05-2.64285E-05-2.78707E-05 2.08000E-06 1.09749E-18 1.26107E-18
 -1      1949 9.26824E-05-2.68370E-05-2.81662E-05 3.18066E-06 1.29544E-18 1.91316E-18
 -1      1950 9.51540E-05-2.71911E-05-2.91507E-05 4.49036E-06 1.60122E-18 9.71055E-19
 -1      1951 9.07526E-05-2.61840E-05-2.76615E-05-6.30082E-07 1.10756E-18 5.31976E-20
 -1      1952 9.10293E-05-2.62239E-05-2.77270E-05 6.00218E-07 1.05878E-18 7.68689E-19
 -1      1953 9.33788E-05-2.64825E-05-2.87029E-05 1.27191E-06 1.48270E-18 2.56178E-20
 -1      1954 9.16228E-05-2.67028E-05-2.78184E-05-3.01675E-06 9.40700E-19-3.82621E-19
 -1      1955 9.10500E-05-2.63746E-05-2.76786E-05-1.93240E-06 9.48035E-19-3.07638E-19
 -1      1956 9.31769E-05-2.65701E-05-2.85756E-05-1.93505E-06 1.29474E-18-9.03668E-19
 -1      1957 9.36858E-05-2.77605E-05-2.82486E-05-4.49218E-06 8.05328E-19-1.15693E-18
 -1      1958 9.24881E-05-2.71884E-05-2.79586E-05-3.81294E-06 9.40299E-19-6.94554E-19
 -1      1959 9.43353E-05-2.74090E-05-2.87003E-05-4.39584E-06 1.16609E-18-1.11485E-18
 -1      1960 9.62489E-05-2.89742E-05-2.88221E-05-4.81908E-06 1.10470E-18-1.89365E-18
 -1      1961 9.47732E-05-2.83397E-05-2.84606E-05-4.64264E-06 9.76456E-19-1.46336E-18
 -1      1962 9.62931E-05-2.86487E-05-2.89952E-05-5.58210E-06 1.23906E-18-1.87066E-18
 -1      1963 9.86446E-05-3.00033E-05-2.94039E-05-4.17042E-06 6.43285E-19-2.35011E-18
 -1      1964 9.72359E-05-2.94615E-05-2.90507E-05-4.41724E-06 8.95706E-19-1.92289E-18
 -1      1965 9.83853E-05-2.98546E-05-2.93673E-05-5.44290E-06 1.03450E-18-2.27933E-18
 -1      1966 1.00436E-04-3.06688E-05-2.98860E-05-2.96027E-06 2.31703E-19-2.49451E-18
 -1      1967 9.93360E-05-3.03015E-05-2.96017E-05-3.45132E-06 4.79619E-19-2.31606E-18
 -1      1968 1.00095E-04-3.07195E-05-2.97280E-05-4.33912E-06 5.27983E-19-2.40078E-18
 -1      1969 1.01466E-04-3.09556E-05-3.02073E-05-1.61710E-06 1.75223E-19-2.87173E-18
 -1      1970 1.00779E-04-3.07731E-05-3.00228E-05-2.17049E-06 2.96905E-19-2.51991E-18
 -1      1971 1.01172E-04-3.11434E-05-3.00094E-05-2.79319E-06 3.87531E-19-2.68497E-18
 -1      1972 1.01788E-04-3.09445E-05-3.03542E-05-4.41303E-07 1.14852E-18-3.64335E-18
 -1      1973 1.01503E-04-3.09134E-05-3.02726E-05-9.29999E-07 6.19631E-19-3.05280E-18
 -1      1974 1.01596E-04-3.11864E-05-3.01750E-05-1.25637E-06 8.68000E-19-3.03842E-18
 -1      1975 1.01564E-04-3.07429E-05-3.03483E-05 4.25874E-07 3.43442E-19-3.17702E-18
 -1      1976 1.01602E-04-3.08153E-05-3.03536E-05 6.22679E-08 5.80085E-19-3.32943E-18
 -1      1977 1.01486E-04-3.09766E-05-3.02192E-05-2.65060E-09 7.21479E-19-2.89987E-18
 -1      1978 1.00981E-04-3.04450E-05-3.02290E-05 9.65763E-07-1.70749E-19-2.65843E-18
 -1      1979 1.01241E-04-3.05760E-05-3.02966E-05 7.36530E-07 3.62858E-19-2.67992E-18
 -1      1980 1.01006E-04-3.06386E-05-3.01589E-05 8.66679E-07 1.53682E-19-2.55163E-18
 -1      1981 1.00207E-04-3.01179E-05-3.00392E-05 1.22816E-06-6.68185E-19-3.06466E-18
 -1      1982 1.00593E-04-3.02730E-05-3.01439E-05 1.11384E-06-5.74416E-19-2.83321E-18
 -1      1983 1.00314E-04-3.02635E-05-3.00229E-05 1.36735E-06-3.25708E-19-2.25598E-18
 -1      1984 9.93712E-05-2.98028E-05-2.98166E-05 1.28742E-06 7.11328E-19-2.76891E-18
 -1      1985 9.98067E-05-2.99591E-05-2.99373E-05 1.25795E-06-3.91670E-22-3.05055E-18
 -1      1986 9.95332E-05-2.99055E-05-2.98417E-05 1.57274E-06-5.95944E-20-2.38873E-18
 -1      1987 9.85599E-05-2.95217E-05-2.95894E-05 1.21606E-06 5.94992E-19-2.84134E-18
 -1      1988 9.89914E-05-2.96655E-05-2.97108E-05 1.24176E-06 9.58089E-19-2.43490E-18
 -1      1989 9.87537E-05-2.95914E-05-2.96422E-05 1.57119E-06 7.80860E-19-2.04627E-18
 -1      1990 9.78256E-05-2.92834E-05-2.93765E-05 1.07285E-06-2.02936E-19-2.63858E-18
 -1      1991 9.82203E-05-2.94080E-05-2.94889E-05 1.12943E-06 3.57497E-19-2.49030E-18
 -1      1992 9.80309E-05-2.93299E-05-2.94444E-05 1.44256E-06 4.61739E-19-1.60625E-18
 -1      1993 9.71935E-05-2.90892E-05-2.91885E-05 9.00079E-07-1.10504E-18-2.69039E-18
 -1      1994 9.75348E-05-2.91923E-05-2.92865E-05 9.69927E-07-8.71938E-19-2.88703E-18
 -1      1995 9.73952E-05-2.91203E-05-2.92618E-05 1.24897E-06-6.72302E-19-1.35746E-18
 -1      1996 9.66708E-05-2.89358E-05-2.90299E-05 7.25219E-07-6.49500E-19-2.27870E-18
 -1      1997 9.69533E-05-2.90181E-05-2.91116E-05 7.96769E-07-9.79198E-19-2.28324E-18
 -1      1998 9.68583E-05-2.89571E-05-2.91016E-05 1.03378E-06-1.09168E-18-1.54896E-18
 -1      1999 9.62527E-05-2.88180E-05-2.89009E-05 5.64216E-07-5.51961E-20-2.21610E-18
 -1      2000 9.64782E-05-2.88817E-05-2.89666E-05 6.30657E-07-2.36706E-19-2.15286E-18
 -1      2001 9.64199E-05-2.88332E-05-2.89668E-05 8.24328E-07-3.85708E-19-1.39614E-18
 -1      2002 9.59283E-05-2.87300E-05-2.87993E-05 4.24860E-07-7.88431E-19-1.84010E-18
 -1      2003 9.61025E-05-2.87777E-05-2.88504E-05 4.82772E-07-4.24172E-19-2.01515E-18
 -1      2004 9.60725E-05-2.87414E-05-2.88572E-05 6.35840E-07-4.80820E-19-1.29794E-18
 -1      2005 9.56838E-05-2.86661E-05-2.87218E-05 3.09615E-07-5.93496E-19-2.33399E-18
 -1      2006 9.58143E-05-2.87008E-05-2.87603E-05 3.57816E-07-3.79821E-19-1.91738E-18
 -1      2007 9.58047E-05-2.86750E-05-2.87708E-05 4.75151E-07-5.21345E-19-1.37278E-18
 -1      2008 9.55049E-05-2.86210E-05-2.86643E-05 2.17757E-07 4.18486E-19-2.21407E-18
 -1      2009 9.55996E-05-2.86454E-05-2.86925E-05 2.56421E-07-6.04789E-19-2.56400E-18
 -1      2010 9.56036E-05-2.86282E-05-2.87046E-05 3.43714E-07-3.38070E-19-2.16213E-18
 -1      2011 9.53781E-05-2.85905E-05-2.86230E-05 1.46857E-07 6.08302E-19-2.24513E-18
 -1      2012 9.54444E-05-2.86069E-05-2.86429E-05 1.76898E-07 1.16716E-18-1.83093E-18
 -1      2013 9.54569E-05-2.85964E-05-2.86552E-05 2.39841E-07 5.48807E-19-1.87250E-18
 -1      2014 9.52917E-05-2.85707E-05-2.85944E-05 9.37629E-08 6.15039E-19-2.58717E-18
 -1      2015 9.53362E-05-2.85812E-05-2.86079E-05 1.16423E-07 3.05385E-19-2.80696E-18
 -1      2016 9.53532E-05-2.85756E-05-2.86196E-05 1.60242E-07 9.82187E-19-1.75124E-18
 -1      2017 9.52354E-05-2.85587E-05-2.85755E-05 5.51992E-08 7.32880E-19-3.06647E-18
 -1      2018 9.52637E-05-2.85650E-05-2.85842E-05 7.17960E-08 8.18953E-19-2.43612E-18
 -1      2019 9.52825E-05-2.85628E-05-2.85947E-05 1.01021E-07 6.97112E-19-1.98222E-18
 -1      2020 9.52014E-05-2.85523E-05-2.85637E-05 2.81069E-08 1.03226E-19-2.91963E-18
 -1      2021 9.52179E-05-2.85555E-05-2.85689E-05 3.98856E-08 4.56048E-19-2.65453E-18
 -1      2022 9.52365E-05-2.85556E-05-2.85779E-05 5.82835E-08 1.71681E-19-6.14007E-19
 -1      2023 9.51829E-05-2.85496E-05-2.85569E-05 9.80873E-09 5.67867E-19-2.39520E-18
 -1      2024 9.51912E-05-2.85508E-05-2.85597E-05 1.78689E-08 1.90564E-19-2.74801E-18
 -1      2025 9.52086E-05-2.85523E-05-2.85673E-05 2.84691E-08 4.19270E-19-3.92963E-19
 -1      2026 9.51752E-05-2.85494E-05-2.85538E-05-1.93414E-09-3.54355E-19-2.13755E-18
 -1      2027 9.51780E-05-2.85492E-05-2.85548E-05 3.33387E-09-2.71746E-19-2.26789E-18
 -1      2028 9.51935E-05-2.85516E-05-2.85611E-05 8.50149E-09-1.04654E-19-3.37102E-19
 -1      2029 9.51745E-05-2.85506E-05-2.85530E-05-8.92840E-09 2.63834E-19-3.53281E-18
 -1      2030 9.51737E-05-2.85497E-05-2.85529E-05-5.69982E-09 1.20521E-19-2.66574E-18
 -1      2031 9.51871E-05-2.85523E-05-2.85580E-05-4.16734E-09 1.33165E-19-1.72584E-18
 -1      2032 9.51781E-05-2.85527E-05-2.85536E-05-1.25894E-08-3.19378E-19-3.60256E-18
 -1      2033 9.51752E-05-2.85514E-05-2.85530E-05-1.08067E-08-6.18722E-19-3.33230E-18
 -1      2034 9.51865E-05-2.85540E-05-2.85569E-05-1.15792E-08-5.89165E-19-2.10012E-18
 -1      2035 9.51841E-05-2.85551E-05-2.85552E-05-1.39965E-08-3.90622E-19-3.58550E-18
 -1      2036 9.51801E-05-2.85537E-05-2.85541E-05-1.32038E-08 2.35608E-19-3.35047E-18
 -1      2037 9.51893E-05-2.85562E-05-2.85572E-05-1.53244E-08 2.39945E-19-3.01358E-18
 -1      2038 9.51911E-05-2.85577E-05-2.85571E-05-1.39517E-08 9.58364E-19-4.69616E-18
 -1      2039 9.51868E-05-2.85562E-05-2.85559E-05-1.38080E-08-1.88432E-19-3.89280E-18
 -1      2040 9.51941E-05-2.85584E-05-2.85583E-05-1.66096E-08 1.76440E-19-3.15878E-18
 -1      2041 9.51984E-05-2.85600E-05-2.85592E-05-1.30353E-08-9.01060E-19-5.22486E-18
 -1      2042 9.51940E-05-2.85586E-05-2.85580E-05-1.32916E-08 5.62863E-19-4.91362E-18
 -1      2043 9.51998E-05-2.85606E-05-2.85597E-05-1.63267E-08 3.17693E-19-2.94081E-18
 -1      2044 9.52052E-05-2.85622E-05-2.85613E-05-1.16544E-08-1.60540E-18-3.96770E-18
 -1      2045 9.52012E-05-2.85609E-05-2.85601E-05-1.21344E-08-1.36878E-18-4.95151E-18
 -1      2046 9.52057E-05-2.85626E-05-2.85614E-05-1.51179E-08-1.36461E-18-3.34113E-18
 -1      2047 9.52115E-05-2.85641E-05-2.85631E-05-1.00851E-08-1.71651E-19-2.92948E-18
 -1      2048 9.52079E-05-2.85630E-05-2.85621E-05-1.06678E-08-1.04074E-18-3.85419E-18
 -1      2049 9.52112E-05-2.85643E-05-2.85630E-05-1.34312E-08-1.46606E-18-2.71416E-18
 -1      2050 9.52169E-05-2.85657E-05-2.85648E-05-8.50554E-09-1.68738E-19-2.79008E-18
 -1      2051 9.52138E-05-2.85648E-05-2.85639E-05-9.11139E-09 4.36682E-20-2.42845E-18
 -1      2052 9.52163E-05-2.85658E-05-2.85645E-05-1.15676E-08-4.82005E-19-2.35875E-18
 -1      2053 9.52216E-05-2.85670E-05-2.85662E-05-7.02282E-09-4.92018E-19-2.72291E-18
 -1      2054 9.52189E-05-2.85663E-05-2.85655E-05-7.60284E-09-6.27404E-20-2.60299E-18
 -1      2055 9.52207E-05-2.85671E-05-2.85658E-05-9.71959E-09 9.13180E-20-2.23055E-18
 -1      2056 9.52254E-05-2.85681E-05-2.85674E-05-5.69346E-09-7.92404E-19-2.18960E-18
 -1      2057 9.52233E-05-2.85675E-05-2.85668E-05-6.22057E-09-8.06896E-19-2.49480E-18
 -1      2058 9.52245E-05-2.85681E-05-2.85670E-05-8.00035E-09-7.29766E-19-2.22132E-18
 -1      2059 9.52286E-05-2.85690E-05-2.85684E-05-4.53836E-09 7.33984E-19-2.67824E-18
 -1      2060 9.52268E-05-2.85685E-05-2.85679E-05-5.00120E-09-1.83802E-19-2.21844E-18
 -1      2061 9.52277E-05-2.85690E-05-2.85680E-05-6.46694E-09-2.18731E-19-2.72209E-18
 -1      2062 9.52311E-05-2.85697E-05-2.85692E-05-3.55396E-09 8.91545E-19-2.59836E-18
 -1      2063 9.52297E-05-2.85693E-05-2.85688E-05-3.95219E-09 8.95730E-19-2.42674E-18
 -1      2064 9.52303E-05-2.85697E-05-2.85688E-05-5.13700E-09 9.40390E-19-2.49702E-18
 -1      2065 9.52331E-05-2.85702E-05-2.85698E-05-2.71884E-09-7.23240E-19-1.34284E-18
 -1      2066 9.52320E-05-2.85699E-05-2.85695E-05-3.06063E-09-1.16455E-19-8.53707E-19
 -1      2067 9.52323E-05-2.85702E-05-2.85695E-05-4.00087E-09-8.96615E-19-1.45937E-18
 -1      2068 9.52346E-05-2.85707E-05-2.85703E-05-2.00104E-09-8.92539E-19-5.80977E-19
 -1      2069 9.52338E-05-2.85704E-05-2.85700E-05-2.29970E-09-5.21300E-19-6.05408E-19
 -1      2070 9.52339E-05-2.85706E-05-2.85700E-05-3.02950E-09-7.64322E-19 3.22519E-19
 -1      2071 9.52358E-05-2.85710E-05-2.85706E-05-1.36202E-09-5.63593E-20-2.35241E-19
 -1      2072 9.52352E-05-2.85708E-05-2.85705E-05-1.63518E-09 6.11077E-20-1.19034E-19
 -1      2073 9.52352E-05-2.85709E-05-2.85704E-05-2.18471E-09-1.84453E-19 6.91134E-19
 -1      2074 9.52365E-05-2.85712E-05-2.85709E-05-7.72389E-10-8.23502E-19-1.77039E-18
 -1      2075 9.52361E-05-2.85711E-05-2.85708E-05-1.03194E-09-9.95577E-19-1.34582E-18
 -1      2076 9.52361E-05-2.85712E-05-2.85707E-05-1.42585E-09-3.24109E-19-3.59218E-19
 -1      2077 9.52369E-05-2.85713E-05-2.85710E-05-3.69609E-10 9.86824E-19-1.34932E-18
 -1      2078 9.52367E-05-2.85713E-05-2.85709E-05-5.99158E-10 4.23652E-19-1.42021E-18
 -1      2079 9.52367E-05-2.85713E-05-2.85708E-05-8.69797E-10 3.45768E-19-1.16393E-18
 -1      2080 9.52370E-05-2.85714E-05-2.85710E-05-4.93972E-10 1.36564E-19 6.65012E-19
 -1      2081 9.52378E-05-2.85735E-05-2.85704E-05-1.66608E-09-1.62558E-18 1.30810E-18
 -1      2082 9.52376E-05-2.85730E-05-2.85705E-05-1.60168E-09-2.33326E-18 2.10219E-18
 -1      2083 9.52374E-05-2.85726E-05-2.85706E-05-1.45693E-09-2.00305E-18 1.94571E-18
 -1      2084 9.52372E-05-2.85722E-05-2.85707E-05-1.26934E-09-9.32179E-19 9.17687E-19
 -1      2085 9.52374E-05-2.85729E-05-2.85705E-05-1.98211E-09-1.80515E-18 1.53095E-18
 -1      2086 9.52371E-05-2.85719E-05-2.85708E-05-1.02164E-09-4.67722E-19 4.77860E-19
 -1      2087 9.52370E-05-2.85716E-05-2.85709E-05-7.73711E-10-4.05656E-19 3.08193E-19
 -1      2088 9.52369E-05-2.85716E-05-2.85708E-05-9.69197E-10 8.03726E-19-1.02356E-18
 -1      2089 9.52371E-05-2.85721E-05-2.85707E-05-1.53300E-09-1.13937E-19 4.66975E-19
 -1      2090 9.52382E-05-2.85743E-05-2.85702E-05-1.60904E-09-2.92815E-18-4.89828E-18
 -1      2091 9.52380E-05-2.85739E-05-2.85703E-05-1.66232E-09-2.85932E-18-7.12338E-19
 -1      2092 9.52379E-05-2.85737E-05-2.85704E-05-2.12927E-09-3.10212E-18-1.24160E-18
 -1      2093 9.52385E-05-2.85750E-05-2.85701E-05-1.30109E-09-4.05358E-19-8.33096E-19
 -1      2094 9.52384E-05-2.85747E-05-2.85702E-05-1.46084E-09-1.96129E-18-1.89068E-18
 -1      2095 9.52383E-05-2.85745E-05-2.85702E-05-1.95359E-09-2.19433E-18-2.08187E-18
 -1      2096 9.52388E-05-2.85755E-05-2.85699E-05-7.97631E-10 8.26913E-20-1.55051E-20
 -1      2097 9.52387E-05-2.85753E-05-2.85700E-05-1.03455E-09 4.48326E-19 1.57449E-19
 -1      2098 9.52387E-05-2.85752E-05-2.85701E-05-1.48219E-09 3.08371E-19 2.27054E-19
 -1      2099 9.52389E-05-2.85758E-05-2.85699E-05-1.78067E-10-8.97122E-19 1.32329E-18
 -1      2100 9.52388E-05-2.85757E-05-2.85699E-05-4.55368E-10-1.10045E-18 4.69710E-19
 -1      2101 9.52390E-05-2.85756E-05-2.85700E-05-7.94257E-10-4.92095E-19-1.17821E-18
 -1      2102 9.52388E-05-2.85757E-05-2.85699E-05 4.66950E-10-5.04555E-19 5.73053E-19
 -1      2103 9.52389E-05-2.85758E-05-2.85699E-05 1.90039E-10-9.67863E-19 2.01371E-18
 -1      2104 9.52390E-05-2.85758E-05-2.85700E-05 7.46913E-12-2.07356E-18 1.81614E-18
 -1      2105 9.52386E-05-2.85753E-05-2.85700E-05 1.04401E-09-5.45290E-19 6.38712E-19
 -1      2106 9.52388E-05-2.85755E-05-2.85699E-05 8.08386E-10-6.24580E-19 7.11605E-19
 -1      2107 9.52390E-05-2.85756E-05-2.85700E-05 8.08252E-10-1.75721E-18 2.56393E-19
 -1      2108 9.52384E-05-2.85747E-05-2.85702E-05 1.46108E-09-5.85517E-19-2.71024E-18
 -1      2109 9.52385E-05-2.85750E-05-2.85701E-05 1.30498E-09-4.20051E-19-7.18549E-19
 -1      2110 9.52387E-05-2.85752E-05-2.85701E-05 1.48880E-09-9.12582E-19-4.36613E-20
 -1      2111 9.52380E-05-2.85739E-05-2.85703E-05 1.66315E-09-4.73406E-20-3.58587E-19
 -1      2112 9.52382E-05-2.85743E-05-2.85702E-05 1.60970E-09 6.37291E-19-1.27536E-18
 -1      2113 9.52383E-05-2.85745E-05-2.85702E-05 1.95394E-09-3.25232E-19-1.12117E-18
 -1      2114 9.52376E-05-2.85730E-05-2.85705E-05 1.59810E-09 1.11329E-18-1.02363E-18
 -1      2115 9.52378E-05-2.85734E-05-2.85704E-05 1.66601E-09 6.33119E-19-1.20636E-18
 -1      2116 9.52379E-05-2.85737E-05-2.85704E-05 2.13014E-09 6.99180E-19 3.46517E-19
 -1      2117 9.52372E-05-2.85722E-05-2.85707E-05 1.26454E-09-8.40929E-19-1.88335E-18
 -1      2118 9.52374E-05-2.85726E-05-2.85706E-05 1.44981E-09-4.73572E-19-1.31414E-18
 -1      2119 9.52374E-05-2.85728E-05-2.85705E-05 1.97357E-09-1.05292E-19-2.55955E-18
 -1      2120 5.63696E-05-3.33276E-05-1.02867E-05 4.33858E-05 2.01679E-18 6.78161E-18
 -1      2121 4.11268E-05-3.45771E-05-4.12581E-06 3.49892E-05 9.04208E-19 7.20539E-18
 -1      2122 1.16371E-05-2.59791E-05 4.93171E-06 8.42438E-06 2.26581E-20 7.14811E-18
 -1      2123 1.17224E-05-2.75909E-05 5.38889E-06-2.15173E-06-1.82874E-18 7.36114E-18
 -1      2124 2.79428E-05-2.93267E-05-3.46909E-07 2.99844E-05 1.31332E-18 7.43907E-18
 -1      2125 1.93578E-05-2.85676E-05 2.77309E-06 2.13364E-05-6.77838E-19 6.91179E-18
 -1      2126 4.25387E-05-2.97130E-05-5.81235E-06 3.88183E-05-1.95940E-18 6.90459E-18
 -1      2127 9.81011E-05-4.03569E-05-2.47638E-05 4.53153E-05 3.08786E-18 4.62141E-18
 -1      2128 7.74379E-05-4.01221E-05-1.67964E-05 4.19843E-05 2.16332E-18 5.58237E-18
 -1      2129 1.35133E-04-3.77766E-05-4.09787E-05 3.68688E-05 6.04379E-18 2.03330E-18
 -1      2130 1.17039E-04-4.08843E-05-3.29522E-05 3.56764E-05 4.49457E-18 2.48054E-18
 -1      2131 6.87627E-05-6.00840E-06-2.70619E-05 3.41097E-06 3.02550E-20-3.46939E-18
 -1      2132 8.14355E-05-1.03725E-05-3.02744E-05 1.68332E-06-2.95932E-19-2.35795E-18
 -1      2133 9.16311E-05-1.91804E-05-3.11175E-05 1.45562E-06-1.91906E-19-1.26136E-18
 -1      2134 6.34069E-05-5.70101E-06-2.46327E-05 6.08005E-06 1.93679E-19-4.25105E-18
 -1      2135 1.73699E-04-2.58848E-05-6.22731E-05 1.38756E-05 7.67115E-18-1.79169E-18
 -1      2136 1.63771E-04-2.58920E-05-5.84687E-05 2.02202E-05 7.87592E-18-2.96038E-19
 -1      2137 1.76693E-04-2.23808E-05-6.52489E-05 2.68171E-06 8.22045E-18-3.91472E-18
 -1      2138 1.76538E-04-2.33553E-05-6.45805E-05 1.12887E-05 7.97143E-18-1.95495E-18
 -1      2139 1.56085E-04-1.54072E-05-5.91049E-05 3.72303E-06 8.28441E-18-3.08955E-18
 -1      2140 1.67042E-04-2.30416E-05-6.12659E-05-7.14519E-06 9.05245E-18-5.71493E-18
 -1      2141 1.73462E-04-2.25806E-05-6.37828E-05-1.23725E-07 8.65625E-18-4.12505E-18
 -1      2142 1.53122E-04-2.79071E-05-5.34937E-05-2.21370E-05 9.50302E-18-7.86301E-18
 -1      2143 1.66295E-04-2.85488E-05-5.83352E-05-1.46466E-05 9.09279E-18-6.38790E-18
 -1      2144 1.27611E-04-2.99716E-05-4.21656E-05-2.97109E-05 8.45085E-18-7.60720E-18
 -1      2145 1.46351E-04-3.07902E-05-4.88184E-05-2.93645E-05 9.09385E-18-8.14380E-18
 -1      2146 1.46571E-04-3.05373E-05-4.90622E-05-9.57830E-06 7.25965E-18-3.44277E-18
 -1      2147 8.98960E-05-2.65076E-05-2.78501E-05-3.95116E-05 7.24933E-18-8.99697E-18
 -1      2148 1.11240E-04-2.99193E-05-3.48346E-05-3.92863E-05 7.30227E-18-8.05698E-18
 -1      2149 6.00256E-05-2.20469E-05-1.68264E-05-3.96626E-05 3.66215E-18-8.30410E-18
 -1      2150 7.52579E-05-2.27652E-05-2.26571E-05-4.35845E-05 6.45947E-18-9.36035E-18
 -1      2151 9.42687E-05-3.31574E-05-2.60899E-05-3.70351E-05 1.57845E-18-5.88360E-18
 -1      2152 2.48043E-05-1.46159E-05-5.43655E-06-2.95731E-05 2.61818E-18-9.35188E-18
 -1      2153 3.74448E-05-1.34291E-05-1.06915E-05-3.80517E-05 3.74092E-18-9.37602E-18
 -1      2154 8.58081E-06-7.96130E-06-8.37190E-07-1.74419E-05-1.21772E-18-9.63754E-18
 -1      2155 1.48964E-05-1.01992E-05-2.69699E-06-2.46656E-05 2.13685E-18-9.76608E-18
 -1      2156 2.38746E-05-7.65765E-06-7.17651E-06-3.17298E-05-1.02131E-18-1.00071E-17
 -1      2157 8.07533E-06-1.07261E-05 2.94759E-07 2.55486E-06-3.61789E-18-1.00952E-17
 -1      2158 5.22698E-06-5.57768E-06-2.18846E-07-6.00509E-06-9.83035E-19-9.80144E-18
 -1      2159 2.60179E-05-1.47255E-05-5.13849E-06 2.12315E-05-4.47445E-18-1.00829E-17
 -1      2160 1.51213E-05-1.41318E-05-1.45665E-06 1.09288E-05-3.10533E-18-9.83681E-18
 -1      2161 1.64416E-05-3.97114E-06-5.41567E-06 9.90816E-06-1.35970E-18-1.07194E-17
 -1      2162 6.12503E-05-3.03505E-05-1.40624E-05 3.19817E-05-7.96126E-18-1.08967E-17
 -1      2163 4.42310E-05-2.62153E-05-8.83090E-06 2.67301E-05-5.18723E-18-9.58047E-18
 -1      2164 1.04029E-04-4.16187E-05-2.71434E-05 3.33762E-05-7.99430E-18-9.52277E-18
 -1      2165 7.95201E-05-3.73871E-05-1.94721E-05 3.01358E-05-7.82066E-18-1.01388E-17
 -1      2166 8.39136E-05-3.99186E-05-1.92076E-05 3.09020E-05-3.03153E-18-7.55307E-18
 -1      2167 1.48144E-04-4.66115E-05-4.30042E-05 2.28055E-05-9.21974E-18-8.11203E-18
 -1      2168 1.26087E-04-4.60867E-05-3.50083E-05 2.29406E-05-8.21918E-18-8.03792E-18
 -1      2169 1.76438E-04-4.19079E-05-5.65385E-05 1.18076E-05-9.84390E-18-6.62549E-18
 -1      2170 1.57791E-04-4.18228E-05-4.96706E-05 1.62759E-05-1.01578E-17-8.02987E-18
 -1      2171 1.84958E-04-3.20692E-05-6.44427E-05-3.47983E-06-9.80187E-18-2.48985E-18
 -1      2172 1.79312E-04-3.55683E-05-6.06023E-05 2.87767E-06-1.02317E-17-5.01613E-18
 -1      2173 1.93108E-04-2.86157E-05-6.85055E-05-8.58697E-06-1.00052E-17-8.25010E-19
 -1      2174 1.87361E-04-2.70556E-05-6.73697E-05-3.97506E-06-1.00445E-17-2.93243E-18
 -1      2175 1.84144E-04-2.94253E-05-6.50718E-05-1.41096E-05-1.01953E-17 1.22693E-18
 -1      2176 1.92874E-04-3.02721E-05-6.79381E-05-1.03420E-05-9.93061E-18-5.73018E-19
 -1      2177 1.71436E-04-1.90522E-05-6.36343E-05-3.63553E-06-1.07370E-17-1.08060E-18
 -1      2178 1.67250E-04-3.71499E-05-5.52521E-05-2.21851E-05-9.23081E-18 3.33350E-18
 -1      2179 1.79820E-04-3.54502E-05-6.05377E-05-1.73566E-05-9.35463E-18 1.55981E-18
 -1      2180 1.42658E-04-4.32465E-05-4.28096E-05-2.90533E-05-7.11465E-18 4.94371E-18
 -1      2181 1.61357E-04-4.16721E-05-5.02414E-05-2.92699E-05-8.24025E-18 4.24533E-18
 -1      2182 1.62115E-04-4.31166E-05-5.01153E-05-8.41689E-06-7.02280E-18-4.11234E-19
 -1      2183 1.04116E-04-4.39231E-05-2.67302E-05-3.88893E-05-5.72933E-18 7.43526E-18
 -1      2184 1.26240E-04-4.48643E-05-3.47494E-05-3.98230E-05-5.91949E-18 6.44126E-18
 -1      2185 6.83333E-05-4.07473E-05-1.31779E-05-3.85688E-05-4.48589E-18 7.37300E-18
 -1      2186 8.62005E-05-3.97741E-05-2.02561E-05-4.38816E-05-5.80556E-18 8.26281E-18
 -1      2187 3.71535E-05-3.50614E-05-2.34915E-06-3.01977E-05-3.01078E-18 7.08543E-18
 -1      2188 5.07674E-05-3.48729E-05-7.55927E-06-3.81334E-05-4.42024E-18 7.37776E-18
 -1      2189 1.59496E-05-3.01331E-05 4.49292E-06-1.28726E-05-1.46071E-18 7.69318E-18
 -1      2190 2.27798E-05-2.98074E-05 1.77836E-06-2.23287E-05-3.45081E-18 7.76708E-18
 -1      2191 1.60400E-04-3.14182E-05-5.41284E-05 2.75381E-05 7.47274E-18 3.37966E-19
 -1      2192 1.43324E-04-3.22898E-05-4.75289E-05 2.98183E-05 7.28792E-18 1.58988E-18
 -1      2193 1.42632E-04-4.16871E-05-4.27942E-05 1.95076E-05 4.39351E-18-2.11504E-18
 -1      2194 1.36926E-04-4.01919E-05-4.16583E-05-1.02161E-05-1.61222E-18 6.32380E-18
 -1      2195 1.53374E-04-2.74096E-05-5.30770E-05 8.85399E-06 6.91327E-18-3.20157E-18
 -1      2196 1.32899E-04-4.06091E-05-3.96518E-05-1.16625E-05-1.35042E-18 4.67802E-18
 -1      2197 1.94328E-05-2.05921E-05-1.31875E-09 1.80963E-05-1.31290E-18 7.65845E-18
 -1      2198 7.77909E-05-4.20726E-05-1.52929E-05 4.52255E-05-1.69449E-18 4.77723E-18
 -1      2199 9.52371E-05-2.85720E-05-2.85708E-05 1.19197E-09-1.15345E-18-2.64171E-18
 -1      2200 1.64556E-05-2.05325E-05 1.05489E-06-9.65266E-06-6.00864E-19 8.12050E-18
 -1      2201 1.17533E-04-4.93374E-05-2.90303E-05 3.54217E-05 5.67300E-19 6.82285E-19
 -1      2202 3.65048E-05-2.91378E-05-3.73182E-06-3.19608E-05-1.86135E-19 7.14981E-18
 -1      2203 7.10702E-05-4.22001E-05-1.27858E-05-4.18808E-05-5.45913E-19 5.90657E-18
 -1      2204 1.42620E-04-5.30489E-05-3.80318E-05-2.44875E-05-3.78666E-18 2.24040E-18
 -1      2205 1.70123E-04-2.89189E-05-5.91873E-05-1.77549E-06-9.79128E-18-9.48677E-19
 -1      2206 1.69468E-04-2.25985E-05-6.17673E-05-1.11939E-05-1.01466E-17-6.73603E-19
 -1      2207 1.68138E-04-3.67853E-05-5.51976E-05-7.66247E-06-9.23393E-18-1.07870E-18
 -1      2208 1.26061E-04-5.22376E-05-3.16476E-05 2.03984E-05-4.40330E-18-4.90284E-18
 -1      2209 4.34397E-05-2.03185E-05-1.02101E-05 2.58140E-05-1.59983E-18-9.32922E-18
 -1      2210 9.39930E-06-7.59574E-07-3.91376E-06-1.22786E-05-1.77157E-18-1.08048E-17
 -1      2211 5.65960E-05-2.06198E-05-1.54886E-05-4.09019E-05 3.20178E-19-8.06624E-18
 -1      2212 1.25547E-04-3.67471E-05-3.78236E-05-2.50908E-05 4.73460E-18-4.58668E-18
 -1      2213 1.55234E-04-1.24516E-05-6.03853E-05 4.82118E-06 9.01751E-18-2.87917E-18
 -1      2214 1.53149E-04-2.00174E-05-5.62774E-05 5.95249E-07 8.79432E-18-2.81363E-18
 -1      2215 1.55741E-04-4.95931E-05-4.50074E-05 3.35309E-06-6.94355E-18-2.57413E-18
 -1      2216 1.08527E-04-5.17349E-05-2.43522E-05-3.89697E-05-1.82112E-18 4.61040E-18
 -1      2217 1.03450E-04-2.88454E-05-3.19420E-05 1.14980E-05 2.69812E-18 1.32066E-18
 -1      2218 1.05730E-04-2.90470E-05-3.27980E-05 1.32049E-05 2.98693E-18 1.74332E-18
 -1      2219 2.76832E-05 1.02597E-05-1.58322E-05-1.53706E-05-2.86706E-18-8.14899E-18
 -1      2220 2.54136E-05 1.18089E-05-1.55813E-05-8.76023E-06-1.74975E-18-8.20680E-18
 -1      2221 3.03971E-05 8.61791E-06-1.65545E-05 1.75647E-06-7.48301E-19-7.61154E-18
 -1      2222 4.08074E-05 3.63335E-06-1.85234E-05 6.51111E-06 1.39033E-19-6.80400E-18
 -1      2223 7.54309E-05-1.58192E-05-2.51957E-05-2.30569E-05-4.23024E-18-4.63556E-18
 -1      2224 6.21131E-05-9.55188E-06-2.25910E-05-2.58736E-05-4.43819E-18-5.35304E-18
 -1      2225 9.53971E-05-2.46588E-05-3.02633E-05-1.14970E-05-2.89272E-18-3.19276E-18
 -1      2226 8.67123E-05-2.12863E-05-2.80434E-05-1.68739E-05-3.65026E-18-3.55682E-18
 -1      2227 8.45366E-05-2.28958E-05-2.64322E-05-2.20326E-05-3.90072E-18-3.65082E-18
 -1      2228 1.04928E-04-2.66155E-05-3.36894E-05 4.57984E-07-1.16973E-18-2.78912E-18
 -1      2229 1.01120E-04-2.58927E-05-3.22009E-05-4.57090E-06-2.09246E-18-2.78092E-18
 -1      2230 1.02122E-04-2.90374E-05-3.13327E-05-7.92518E-06-2.38623E-18-2.26207E-18
 -1      2231 1.07598E-04-2.50338E-05-3.55559E-05 9.36625E-06 4.80165E-19-2.76748E-18
 -1      2232 1.06767E-04-2.56780E-05-3.47392E-05 5.66289E-06-3.80493E-19-2.74347E-18
 -1      2233 1.09110E-04-2.91011E-05-3.42827E-05 4.26430E-06-6.11593E-19-2.01773E-18
 -1      2234 1.07350E-04-2.30886E-05-3.62816E-05 1.50756E-05 1.88033E-18-2.64258E-18
 -1      2235 1.07661E-04-2.38459E-05-3.59582E-05 1.25369E-05 1.07483E-18-2.71238E-18
 -1      2236 1.10029E-04-2.68115E-05-3.56316E-05 1.20835E-05 9.00909E-19-2.11291E-18
 -1      2237 1.06697E-04-2.25454E-05-3.62666E-05 1.84670E-05 3.07052E-18-1.84341E-18
 -1      2238 1.07039E-04-2.25771E-05-3.62556E-05 1.67772E-05 2.35542E-18-2.31583E-18
 -1      2239 1.08966E-04-2.50290E-05-3.59104E-05 1.63880E-05 2.17261E-18-1.84615E-18
 -1      2240 1.00037E-04-2.78458E-05-3.08822E-05 8.45337E-06 2.13030E-18 7.34989E-19
 -1      2241 1.01950E-04-2.85423E-05-3.13997E-05 9.90173E-06 2.39199E-18 1.23092E-18
 -1      2242 1.04586E-04-2.82313E-05-3.27190E-05 1.28177E-05 2.85245E-18 6.21484E-19
 -1      2243 1.36976E-04-4.87052E-05-3.76650E-05-1.15449E-05-5.20786E-19 4.67642E-18
 -1      2244 1.37920E-04-4.98461E-05-3.79170E-05-1.46542E-05-1.07804E-18 5.04478E-18
 -1      2245 1.45105E-04-2.43219E-05-5.22290E-05 5.84835E-07 6.46350E-18-4.44968E-18
 -1      2246 1.44424E-04-3.19777E-05-4.84035E-05 3.92395E-06 5.68846E-18-4.54581E-18
 -1      2247 1.42787E-04-4.98722E-05-3.99386E-05-1.97601E-05-1.92816E-18 5.72420E-18
 -1      2248 1.41034E-04-4.49160E-05-4.13984E-05-2.22579E-05-3.12730E-18 5.60757E-18
 -1      2249 1.40859E-04-5.21403E-05-3.81570E-05-1.36675E-05-1.33896E-18 4.83301E-18
 -1      2250 1.32958E-04-2.14117E-05-4.85790E-05-1.28656E-05-6.91835E-18 1.86488E-18
 -1      2251 1.31354E-04-1.91785E-05-4.86658E-05-3.26649E-06-7.41493E-18-2.02534E-19
 -1      2252 1.32678E-04-2.24061E-05-4.76212E-05 7.28728E-06-7.02529E-18-2.20562E-18
 -1      2253 1.35242E-04-3.01336E-05-4.57565E-05 1.35921E-05-5.57803E-18-3.53170E-18
 -1      2254 1.35779E-04-3.80493E-05-4.20922E-05 1.55034E-05-3.45357E-18-4.69352E-18
 -1      2255 1.37862E-04-4.57069E-05-3.98923E-05 1.43804E-05-1.44866E-18-4.66588E-18
 -1      2256 1.42617E-04-3.48808E-05-4.66031E-05 1.36791E-05-5.41858E-18-4.28779E-18
 -1      2257 1.34620E-04-4.89997E-05-3.68508E-05 8.67632E-06-1.87671E-20-4.50420E-18
 -1      2258 1.33128E-04-5.04399E-05-3.54707E-05 3.95388E-06 9.43846E-19-3.92576E-18
 -1      2259 1.27120E-04-4.82133E-05-3.39361E-05-1.43495E-06 9.95277E-19-2.86608E-18
 -1      2260 1.23933E-04-4.58985E-05-3.33092E-05-5.59146E-06 9.43806E-19-2.29465E-18
 -1      2261 1.30084E-04-5.18591E-05-3.36683E-05-2.98295E-06 1.49296E-18-3.96208E-18
 -1      2262 1.18555E-04-4.22219E-05-3.28016E-05-8.56063E-06 5.18371E-19-1.71966E-18
 -1      2263 1.15334E-04-3.92102E-05-3.25157E-05-1.08530E-05 7.96419E-19-1.30224E-18
 -1      2264 1.18511E-04-4.51602E-05-3.16135E-05-1.09950E-05 1.11647E-18-2.05453E-18
 -1      2265 1.11820E-04-3.63716E-05-3.23730E-05-1.17010E-05 5.73799E-19-1.20878E-18
 -1      2266 1.09256E-04-3.41134E-05-3.21419E-05-1.24503E-05 3.45146E-19-1.14749E-18
 -1      2267 1.09727E-04-3.75054E-05-3.10684E-05-1.40152E-05 6.59318E-19-1.39438E-18
 -1      2268 1.07246E-04-3.24325E-05-3.20676E-05-1.21641E-05 4.73164E-20-9.85970E-19
 -1      2269 1.05322E-04-3.10397E-05-3.18106E-05-1.19641E-05 1.99964E-19-7.29903E-19
 -1      2270 1.04355E-04-3.22489E-05-3.09640E-05-1.41224E-05 4.96833E-19-8.83270E-19
 -1      2271 1.04228E-04-3.02159E-05-3.17055E-05-1.11684E-05 1.95851E-19-5.46252E-19
 -1      2272 1.02778E-04-2.94461E-05-3.14221E-05-1.05051E-05 2.83064E-19-4.52209E-19
 -1      2273 1.01337E-04-2.93352E-05-3.08860E-05-1.28141E-05 1.80167E-19-7.62883E-19
 -1      2274 1.02158E-04-2.91218E-05-3.12781E-05-9.55899E-06 1.26606E-19-2.79942E-19
 -1      2275 1.01036E-04-2.87210E-05-3.09937E-05-8.74589E-06-4.25534E-19-1.72046E-19
 -1      2276 9.96608E-05-2.80124E-05-3.07169E-05-1.09546E-05 3.01344E-19-6.49791E-19
 -1      2277 1.00641E-04-2.86427E-05-3.08300E-05-7.82673E-06-6.70480E-19 5.40489E-19
 -1      2278 9.97532E-05-2.84394E-05-3.05668E-05-7.03336E-06-3.37296E-19 5.55943E-19
 -1      2279 9.86553E-05-2.75656E-05-3.04699E-05-9.01554E-06-4.07181E-19 1.07053E-19
 -1      2280 9.94613E-05-2.84632E-05-3.04027E-05-6.21912E-06-5.44252E-19 6.80075E-19
 -1      2281 9.87543E-05-2.83595E-05-3.01728E-05-5.52095E-06-6.62519E-19 3.93504E-19
 -1      2282 9.79668E-05-2.75331E-05-3.01866E-05-7.22353E-06-4.90574E-19 1.26526E-18
 -1      2283 9.85158E-05-2.84146E-05-3.00213E-05-4.83633E-06-6.02977E-19 4.21549E-19
 -1      2284 9.79538E-05-2.83597E-05-2.98289E-05-4.25601E-06-5.80318E-19 3.57987E-19
 -1      2285 9.74335E-05-2.76623E-05-2.99027E-05-5.67203E-06-6.05453E-19 1.26334E-18
 -1      2286 9.77509E-05-2.84160E-05-2.96965E-05-3.69904E-06-9.85843E-19 2.56739E-19
 -1      2287 9.73081E-05-2.83854E-05-2.95403E-05-3.23312E-06-3.09030E-19 5.58362E-19
 -1      2288 9.69908E-05-2.78316E-05-2.96410E-05-4.38225E-06-1.03654E-18 1.08559E-18
 -1      2289 9.71352E-05-2.84326E-05-2.94290E-05-2.79005E-06 4.15814E-19-2.00197E-19
 -1      2290 9.67903E-05-2.84146E-05-2.93052E-05-2.42437E-06 5.16531E-19 3.95775E-20
 -1      2291 9.66155E-05-2.79906E-05-2.94125E-05-3.33902E-06-4.45437E-19 7.54407E-19
 -1      2292 9.66453E-05-2.84512E-05-2.92143E-05-2.07759E-06 5.89569E-19-5.31377E-19
 -1      2293 9.63803E-05-2.84404E-05-2.91179E-05-1.79511E-06 8.68140E-19-5.65540E-19
 -1      2294 9.62996E-05-2.81231E-05-2.92206E-05-2.51162E-06 3.53755E-19-1.11401E-18
 -1      2295 9.62614E-05-2.84677E-05-2.90453E-05-1.52716E-06 1.05789E-18-4.22885E-19
 -1      2296 9.60606E-05-2.84615E-05-2.89714E-05-1.31160E-06 1.00260E-18-4.61973E-19
 -1      2297 9.60385E-05-2.82277E-05-2.90639E-05-1.86517E-06 9.41601E-19-8.32303E-19
 -1      2298 9.59654E-05-2.84816E-05-2.89146E-05-1.10684E-06 2.56800E-19-5.79424E-19
 -1      2299 9.58155E-05-2.84786E-05-2.88588E-05-9.44096E-07-1.26240E-19-1.97061E-19
 -1      2300 9.58275E-05-2.83084E-05-2.89387E-05-1.36630E-06 3.14575E-19-1.02916E-18
 -1      2301 9.57410E-05-2.84936E-05-2.88150E-05-7.89261E-07 3.75246E-20-1.24660E-19
 -1      2302 9.56310E-05-2.84929E-05-2.87735E-05-6.67655E-07 3.39019E-19-2.76473E-19
 -1      2303 9.56608E-05-2.83701E-05-2.88406E-05-9.85570E-07-2.93819E-19-1.56685E-18
 -1      2304 9.55740E-05-2.85042E-05-2.87402E-05-5.51847E-07-3.42010E-20-2.87816E-19
 -1      2305 9.54947E-05-2.85050E-05-2.87098E-05-4.61982E-07-3.89883E-19-2.88262E-19
 -1      2306 9.55321E-05-2.84173E-05-2.87650E-05-6.98173E-07-1.50747E-19-1.36675E-18
 -1      2307 9.54522E-05-2.85137E-05-2.86849E-05-3.76400E-07-2.09202E-19-1.68202E-19
 -1      2308 9.53963E-05-2.85156E-05-2.86631E-05-3.10826E-07-1.09814E-19 1.24024E-19
 -1      2309 9.54350E-05-2.84536E-05-2.87075E-05-4.83719E-07-4.00573E-19-1.54575E-18
 -1      2310 9.53653E-05-2.85223E-05-2.86448E-05-2.48450E-07 2.02187E-19 1.10117E-19
 -1      2311 9.53269E-05-2.85249E-05-2.86294E-05-2.01310E-07 5.54610E-19 4.17191E-19
 -1      2312 9.53634E-05-2.84817E-05-2.86646E-05-3.25736E-07 2.85793E-19-1.05822E-18
 -1      2313 9.53049E-05-2.85302E-05-2.86161E-05-1.56587E-07 1.46660E-20 5.60985E-19
 -1      2314 9.52794E-05-2.85331E-05-2.86055E-05-1.23312E-07 1.50148E-19 3.49988E-19
 -1      2315 9.53120E-05-2.85035E-05-2.86330E-05-2.11065E-07 1.56740E-19-3.08830E-19
 -1      2316 9.52643E-05-2.85373E-05-2.85962E-05-9.18806E-08 9.29784E-19 5.73681E-19
 -1      2317 9.52482E-05-2.85402E-05-2.85891E-05-6.89270E-08 1.44826E-18 3.45368E-19
 -1      2318 9.52761E-05-2.85204E-05-2.86102E-05-1.29286E-07 4.59797E-19 9.82715E-19
 -1      2319 9.52381E-05-2.85435E-05-2.85826E-05-4.73878E-08 1.10165E-18-4.14733E-19
 -1      2320 9.52287E-05-2.85463E-05-2.85781E-05-3.20230E-08 2.36491E-21 4.77904E-20
 -1      2321 9.52520E-05-2.85336E-05-2.85940E-05-7.22114E-08 6.67798E-19 4.47922E-19
 -1      2322 9.52224E-05-2.85489E-05-2.85738E-05-1.77453E-08-1.18006E-19 3.99772E-19
 -1      2323 9.52175E-05-2.85515E-05-2.85711E-05-7.87845E-09 6.61675E-19 1.40892E-18
 -1      2324 9.52365E-05-2.85437E-05-2.85829E-05-3.34614E-08 4.26479E-19 7.27391E-19
 -1      2325 9.52139E-05-2.85536E-05-2.85684E-05 1.15507E-09-5.27415E-19 1.07908E-18
 -1      2326 9.52121E-05-2.85559E-05-2.85669E-05 7.11072E-09-1.03205E-18 1.22818E-18
 -1      2327 9.52272E-05-2.85515E-05-2.85755E-05-8.10463E-09 2.79257E-20 2.04678E-18
 -1      2328 9.52103E-05-2.85575E-05-2.85653E-05 1.24314E-08-9.54752E-19-3.37623E-19
 -1      2329 9.52104E-05-2.85594E-05-2.85647E-05 1.56671E-08-2.25200E-19-2.36456E-19
 -1      2330 9.52222E-05-2.85574E-05-2.85708E-05 7.63341E-09-1.35843E-18 1.76961E-19
 -1      2331 9.52098E-05-2.85607E-05-2.85638E-05 1.84238E-08 8.51336E-20-6.78733E-19
 -1      2332 9.52112E-05-2.85624E-05-2.85638E-05 1.98229E-08-5.41481E-19-1.41619E-18
 -1      2333 9.52202E-05-2.85618E-05-2.85680E-05 1.66098E-08-3.97351E-19-6.78289E-19
 -1      2334 9.52113E-05-2.85633E-05-2.85634E-05 2.08653E-08-5.69713E-19-1.43346E-18
 -1      2335 9.52133E-05-2.85647E-05-2.85637E-05 2.10729E-08-2.00238E-19-9.84660E-19
 -1      2336 9.52201E-05-2.85650E-05-2.85665E-05 2.09598E-08-4.43811E-19-1.54830E-18
 -1      2337 9.52139E-05-2.85654E-05-2.85637E-05 2.10196E-08-1.41100E-18-1.23964E-18
 -1      2338 9.52161E-05-2.85665E-05-2.85641E-05 2.04985E-08-1.21995E-18-1.09366E-19
 -1      2339 9.52211E-05-2.85674E-05-2.85660E-05 2.22558E-08-6.10731E-19-1.29704E-18
 -1      2340 9.52170E-05-2.85670E-05-2.85643E-05 1.97903E-08-2.28280E-19 1.33911E-18
 -1      2341 9.52192E-05-2.85679E-05-2.85648E-05 1.88648E-08 4.88948E-19 1.70575E-18
 -1      2342 9.52228E-05-2.85690E-05-2.85659E-05 2.16350E-08 2.12625E-20 9.91821E-20
 -1      2343 9.52201E-05-2.85682E-05-2.85651E-05 1.78088E-08 9.37993E-19 2.04851E-18
 -1      2344 9.52222E-05-2.85689E-05-2.85657E-05 1.66997E-08 9.34933E-19 2.20476E-18
 -1      2345 9.52248E-05-2.85702E-05-2.85663E-05 1.99029E-08 9.89636E-19 1.77882E-18
 -1      2346 9.52232E-05-2.85692E-05-2.85660E-05 1.55025E-08 4.86741E-19 1.60488E-18
 -1      2347 9.52250E-05-2.85697E-05-2.85666E-05 1.43542E-08 6.00262E-19 1.53633E-18
 -1      2348 9.52267E-05-2.85709E-05-2.85668E-05 1.76144E-08 4.84813E-19 1.83410E-18
 -1      2349 9.52259E-05-2.85699E-05-2.85669E-05 1.31488E-08 1.01425E-18 1.53801E-18
 -1      2350 9.52275E-05-2.85703E-05-2.85674E-05 1.20501E-08 1.29196E-18 1.92786E-18
 -1      2351 9.52286E-05-2.85714E-05-2.85674E-05 1.51382E-08 5.77057E-19 1.86107E-18
 -1      2352 9.52283E-05-2.85704E-05-2.85677E-05 1.09160E-08 1.41539E-18 1.21436E-18
 -1      2353 9.52297E-05-2.85707E-05-2.85681E-05 9.91597E-09 1.02662E-18 2.14973E-18
 -1      2354 9.52303E-05-2.85717E-05-2.85680E-05 1.27068E-08 1.32402E-18 1.71171E-20
 -1      2355 9.52304E-05-2.85708E-05-2.85684E-05 8.89513E-09 2.99116E-19 3.04150E-18
 -1      2356 9.52315E-05-2.85710E-05-2.85688E-05 8.01466E-09 4.81905E-19 2.91835E-18
 -1      2357 9.52318E-05-2.85718E-05-2.85686E-05 1.04547E-08 1.24200E-18 1.11477E-18
 -1      2358 9.52321E-05-2.85711E-05-2.85690E-05 7.12218E-09-4.92271E-20 2.16368E-18
 -1      2359 9.52330E-05-2.85712E-05-2.85693E-05 6.36288E-09 3.61543E-19 1.60182E-18
 -1      2360 9.52331E-05-2.85719E-05-2.85691E-05 8.44681E-09-4.43635E-19 1.14511E-18
 -1      2361 9.52335E-05-2.85713E-05-2.85696E-05 5.59589E-09 7.08392E-19 6.95423E-19
 -1      2362 9.52342E-05-2.85714E-05-2.85698E-05 4.94634E-09 7.39343E-19-5.44889E-19
 -1      2363 9.52342E-05-2.85719E-05-2.85695E-05 6.69996E-09 2.56640E-20-8.82214E-19
 -1      2364 9.52347E-05-2.85714E-05-2.85700E-05 4.29007E-09 1.63297E-19-5.66197E-19
 -1      2365 9.52352E-05-2.85715E-05-2.85702E-05 3.73103E-09-5.11385E-19-2.76047E-19
 -1      2366 9.52351E-05-2.85719E-05-2.85699E-05 5.19912E-09 1.77090E-20-2.93807E-18
 -1      2367 9.52356E-05-2.85716E-05-2.85703E-05 3.16183E-09-7.02715E-19 6.85097E-19
 -1      2368 9.52360E-05-2.85717E-05-2.85704E-05 2.67421E-09-5.82180E-19 2.29257E-19
 -1      2369 9.52358E-05-2.85720E-05-2.85702E-05 3.90920E-09-2.89814E-19-2.82845E-18
 -1      2370 5.37526E-05-3.05413E-05-9.89968E-06 4.29462E-05-3.02772E-18 5.41127E-18
 -1      2371 4.05098E-05-2.44682E-05-6.58372E-06 3.56436E-05-3.12703E-18 5.81065E-18
 -1      2372 9.57695E-05-2.58691E-05-2.99154E-05 9.12932E-07 1.83101E-18-6.46823E-19
 -1      2373 9.62884E-05-2.60433E-05-3.00595E-05 2.73927E-06 1.75312E-18-2.29978E-19
 -1      2374 9.58318E-05-2.63761E-05-2.97519E-05-2.92046E-06 1.32904E-18-1.24885E-18
 -1      2375 9.55709E-05-2.59681E-05-2.97758E-05-1.31377E-06 1.71417E-18-8.64352E-19
 -1      2376 9.79564E-05-2.55189E-05-3.10883E-05 3.84955E-08 1.95807E-18-1.09607E-18
 -1      2377 9.71431E-05-2.78381E-05-2.97100E-05-5.58549E-06 1.35050E-18-1.81669E-18
 -1      2378 9.63141E-05-2.70228E-05-2.96443E-05-4.58496E-06 1.20379E-18-1.66578E-18
 -1      2379 9.83228E-05-2.65458E-05-3.07912E-05-4.17486E-06 1.57178E-18-2.06263E-18
 -1      2380 9.89912E-05-2.96091E-05-2.97521E-05-6.56121E-06 1.27880E-18-2.13929E-18
 -1      2381 9.79284E-05-2.87108E-05-2.96297E-05-6.31587E-06 1.51239E-18-1.81617E-18
 -1      2382 9.97183E-05-2.85232E-05-3.05168E-05-6.72673E-06 1.47929E-18-2.28627E-18
 -1      2383 1.00660E-04-3.10550E-05-2.98456E-05-5.97630E-06 7.31182E-19-2.18353E-18
 -1      2384 9.96794E-05-3.03510E-05-2.97024E-05-6.36760E-06 1.06430E-18-2.22706E-18
 -1      2385 1.01313E-04-3.06119E-05-3.02865E-05-7.25573E-06 1.19087E-18-2.16732E-18
 -1      2386 1.01719E-04-3.18483E-05-2.99531E-05-4.40684E-06 4.18772E-19-2.50999E-18
 -1      2387 1.01017E-04-3.14602E-05-2.98232E-05-5.16155E-06 8.48153E-19-2.38764E-18
 -1      2388 1.02433E-04-3.21030E-05-3.01222E-05-6.14338E-06 8.30062E-19-2.62567E-18
 -1      2389 1.02081E-04-3.20024E-05-3.00367E-05-2.51006E-06 6.04398E-19-2.84220E-18
 -1      2390 1.01718E-04-3.19084E-05-2.99453E-05-3.35343E-06 5.03589E-19-2.66253E-18
 -1      2391 1.02811E-04-3.27276E-05-3.00212E-05-4.15404E-06 6.51549E-19-2.86655E-18
 -1      2392 1.01876E-04-3.17135E-05-3.00687E-05-7.72994E-07 1.02496E-18-3.23668E-18
 -1      2393 1.01815E-04-3.18218E-05-3.00278E-05-1.51488E-06 8.17752E-19-3.00006E-18
 -1      2394 1.02528E-04-3.26081E-05-2.99588E-05-2.00993E-06 7.30362E-19-3.28785E-18
 -1      2395 1.01299E-04-3.12039E-05-3.00383E-05 5.55627E-07 2.93032E-19-2.73124E-18
 -1      2396 1.01464E-04-3.14171E-05-3.00472E-05 4.95819E-09 7.45889E-19-2.94432E-18
 -1      2397 1.01817E-04-3.20374E-05-2.99046E-05-1.76643E-07 6.70813E-19-3.25379E-18
 -1      2398 1.00531E-04-3.06412E-05-2.99498E-05 1.41794E-06-1.80461E-19-2.19101E-18
 -1      2399 1.00838E-04-3.08864E-05-2.99992E-05 1.07207E-06 7.44835E-20-2.41002E-18
 -1      2400 1.00908E-04-3.12950E-05-2.98364E-05 1.14845E-06 1.23664E-21-2.60808E-18
 -1      2401 9.97031E-05-3.01225E-05-2.98172E-05 1.86773E-06-5.54750E-19-1.96250E-18
 -1      2402 1.00080E-04-3.03561E-05-2.98941E-05 1.69743E-06-1.37281E-19-2.00605E-18
 -1      2403 9.99633E-05-3.05686E-05-2.97444E-05 1.95455E-06-3.53619E-19-1.94297E-18
 -1      2404 9.88981E-05-2.96894E-05-2.96582E-05 2.00419E-06 8.53247E-20-2.22660E-18
 -1      2405 9.92930E-05-2.98910E-05-2.97496E-05 1.96417E-06-3.43764E-19-2.08799E-18
 -1      2406 9.90777E-05-2.99522E-05-2.96295E-05 2.32743E-06-2.61589E-19-1.94809E-18
 -1      2407 9.81640E-05-2.93498E-05-2.94894E-05 1.93061E-06 5.90244E-19-1.59374E-18
 -1      2408 9.85417E-05-2.95135E-05-2.95846E-05 1.97582E-06 3.72417E-19-1.71231E-18
 -1      2409 9.82947E-05-2.94741E-05-2.94988E-05 2.38435E-06-7.99156E-20-1.57832E-18
 -1      2410 9.75232E-05-2.90950E-05-2.93243E-05 1.73442E-06-2.09620E-19-4.03561E-19
 -1      2411 9.78632E-05-2.92222E-05-2.94155E-05 1.82768E-06 3.86621E-19-9.10392E-19
 -1      2412 9.76278E-05-2.91263E-05-2.93617E-05 2.23726E-06-9.17873E-20-9.78390E-19
 -1      2413 9.69825E-05-2.89101E-05-2.91721E-05 1.48106E-06-9.00618E-19-5.99345E-19
 -1      2414 9.72750E-05-2.90058E-05-2.92544E-05 1.59509E-06-4.40414E-19-3.41072E-19
 -1      2415 9.70743E-05-2.88861E-05-2.92271E-05 1.97699E-06-4.70453E-19-3.01120E-20
 -1      2416 9.65388E-05-2.87796E-05-2.90381E-05 1.21487E-06-9.87943E-19-1.04956E-18
 -1      2417 9.67815E-05-2.88497E-05-2.91091E-05 1.33156E-06-1.15841E-18-7.99742E-19
 -1      2418 9.66242E-05-2.87278E-05-2.91017E-05 1.66965E-06-9.60802E-19 2.64752E-19
 -1      2419 9.61836E-05-2.86901E-05-2.89244E-05 9.63038E-07-4.64473E-19-9.85332E-19
 -1      2420 9.63788E-05-2.87399E-05-2.89834E-05 1.07159E-06-5.96353E-19-9.19639E-19
 -1      2421 9.62647E-05-2.86284E-05-2.89898E-05 1.35906E-06-9.33038E-19-6.39572E-19
 -1      2422 9.59057E-05-2.86303E-05-2.88312E-05 7.40080E-07-4.84434E-19-9.77543E-19
 -1      2423 9.60584E-05-2.86648E-05-2.88786E-05 8.34972E-07 6.77583E-20-9.14663E-19
 -1      2424 9.59822E-05-2.85697E-05-2.88935E-05 1.07138E-06-3.45428E-19-7.61167E-19
 -1      2425 9.56931E-05-2.85918E-05-2.87567E-05 5.51884E-07-3.83232E-19-1.89673E-18
 -1      2426 9.58094E-05-2.86149E-05-2.87939E-05 6.31140E-07-8.49069E-19-1.73770E-18
 -1      2427 9.57641E-05-2.85380E-05-2.88133E-05 8.19951E-07-2.09921E-19-1.45487E-18
 -1      2428 9.55343E-05-2.85682E-05-2.86990E-05 3.98899E-07-2.48317E-19-2.03410E-18
 -1      2429 9.56205E-05-2.85830E-05-2.87272E-05 4.62718E-07-2.45969E-19-1.90121E-18
 -1      2430 9.55986E-05-2.85235E-05-2.87482E-05 6.09508E-07-6.00758E-19-2.04251E-18
 -1      2431 9.54186E-05-2.85548E-05-2.86553E-05 2.78454E-07 3.44439E-19-1.63710E-18
 -1      2432 9.54806E-05-2.85637E-05-2.86761E-05 3.28247E-07-5.19667E-20-2.10053E-18
 -1      2433 9.54754E-05-2.85195E-05-2.86968E-05 4.39426E-07-1.17554E-19-1.51647E-18
 -1      2434 9.53366E-05-2.85481E-05-2.86231E-05 1.86350E-07 1.21814E-18-1.42132E-18
 -1      2435 9.53797E-05-2.85530E-05-2.86380E-05 2.24081E-07 9.12061E-19-8.68720E-19
 -1      2436 9.53856E-05-2.85214E-05-2.86572E-05 3.06070E-07-1.00830E-20-1.53282E-18
 -1      2437 9.52803E-05-2.85459E-05-2.86001E-05 1.17888E-07-7.02383E-20-1.57489E-19
 -1      2438 9.53092E-05-2.85479E-05-2.86104E-05 1.45663E-07 9.16779E-19-4.71799E-19
 -1      2439 9.53217E-05-2.85265E-05-2.86275E-05 2.04403E-07 8.12766E-20 5.47073E-19
 -1      2440 9.52434E-05-2.85463E-05-2.85842E-05 6.84753E-08-5.16520E-20 3.77057E-19
 -1      2441 9.52617E-05-2.85466E-05-2.85911E-05 8.83035E-08-2.50487E-19-2.05256E-20
 -1      2442 9.52777E-05-2.85328E-05-2.86057E-05 1.29004E-07-3.39544E-19 8.81169E-19
 -1      2443 9.52206E-05-2.85482E-05-2.85737E-05 3.39666E-08 3.69186E-19 6.61858E-19
 -1      2444 9.52313E-05-2.85474E-05-2.85780E-05 4.76329E-08 5.52496E-19 6.56821E-19
 -1      2445 9.52484E-05-2.85394E-05-2.85901E-05 7.46871E-08 3.27051E-20 2.90189E-19
 -1      2446 9.52079E-05-2.85509E-05-2.85671E-05 1.08045E-08 1.83752E-19-3.69645E-19
 -1      2447 9.52132E-05-2.85495E-05-2.85696E-05 1.98214E-08 2.07896E-19 4.97030E-19
 -1      2448 9.52300E-05-2.85455E-05-2.85795E-05 3.68140E-08 2.54185E-19 5.06766E-19
 -1      2449 9.52020E-05-2.85538E-05-2.85634E-05-3.94663E-09 5.41319E-19-1.11759E-18
 -1      2450 9.52037E-05-2.85522E-05-2.85646E-05 1.65656E-09 5.59099E-19-5.48219E-19
 -1      2451 9.52193E-05-2.85509E-05-2.85725E-05 1.14336E-08 7.81490E-19-6.93166E-20
 -1      2452 9.52007E-05-2.85567E-05-2.85616E-05-1.26346E-08-2.03657E-19-1.96563E-18
 -1      2453 9.52002E-05-2.85551E-05-2.85620E-05-9.46602E-09 3.05374E-19-1.13055E-18
 -1      2454 9.52139E-05-2.85555E-05-2.85681E-05-4.70125E-09 7.35792E-19-3.25938E-19
 -1      2455 9.52023E-05-2.85594E-05-2.85612E-05-1.70867E-08 3.81717E-19-2.44837E-18
 -1      2456 9.52004E-05-2.85578E-05-2.85610E-05-1.55974E-08-3.16538E-19-2.85845E-18
 -1      2457 9.52122E-05-2.85593E-05-2.85657E-05-1.41801E-08 7.80717E-20-1.39057E-18
 -1      2458 9.52054E-05-2.85618E-05-2.85615E-05-1.86895E-08 4.14059E-19-1.85953E-18
 -1      2459 9.52028E-05-2.85603E-05-2.85610E-05-1.83112E-08 4.69535E-19-2.00308E-18
 -1      2460 9.52127E-05-2.85624E-05-2.85645E-05-1.90145E-08-4.33056E-20-8.45709E-19
 -1      2461 9.52094E-05-2.85638E-05-2.85624E-05-1.84691E-08-4.68586E-19-5.31748E-19
 -1      2462 9.52066E-05-2.85626E-05-2.85617E-05-1.87852E-08 6.35009E-19-9.37722E-19
 -1      2463 9.52146E-05-2.85648E-05-2.85643E-05-2.07283E-08 1.07830E-19 7.55275E-19
 -1      2464 9.52136E-05-2.85655E-05-2.85635E-05-1.71647E-08-1.09027E-18-1.03342E-18
 -1      2465 9.52108E-05-2.85645E-05-2.85627E-05-1.78783E-08-1.46169E-18-8.19745E-19
 -1      2466 9.52172E-05-2.85666E-05-2.85646E-05-2.04483E-08-6.91016E-19 1.18669E-18
 -1      2467 9.52177E-05-2.85669E-05-2.85646E-05-1.52933E-08-1.23218E-18-1.69875E-18
 -1      2468 9.52150E-05-2.85660E-05-2.85639E-05-1.61992E-08-1.05515E-18-1.35745E-18
 -1      2469 9.52201E-05-2.85680E-05-2.85652E-05-1.89852E-08-6.60593E-19-5.17747E-19
 -1      2470 9.52214E-05-2.85680E-05-2.85657E-05-1.32032E-08-8.22988E-19-1.68682E-18
 -1      2471 9.52190E-05-2.85673E-05-2.85651E-05-1.41654E-08-1.27451E-18-1.69159E-18
 -1      2472 9.52229E-05-2.85691E-05-2.85659E-05-1.69056E-08-1.52784E-18-4.05222E-19
 -1      2473 9.52247E-05-2.85689E-05-2.85668E-05-1.11175E-08-4.10542E-19-8.54876E-19
 -1      2474 9.52227E-05-2.85683E-05-2.85662E-05-1.20511E-08-2.58597E-19-1.41317E-18
 -1      2475 9.52256E-05-2.85699E-05-2.85667E-05-1.45906E-08-1.22735E-18-3.74213E-20
 -1      2476 9.52275E-05-2.85696E-05-2.85677E-05-9.16841E-09-1.02540E-18-5.36652E-19
 -1      2477 9.52258E-05-2.85691E-05-2.85672E-05-1.00250E-08-5.58182E-19-3.29786E-19
 -1      2478 9.52279E-05-2.85704E-05-2.85675E-05-1.22837E-08-1.10924E-18 6.03450E-19
 -1      2479 9.52299E-05-2.85701E-05-2.85685E-05-7.42297E-09 6.52262E-19-1.78736E-18
 -1      2480 9.52285E-05-2.85698E-05-2.85680E-05-8.18060E-09-4.75805E-19-1.57113E-18
 -1      2481 9.52300E-05-2.85708E-05-2.85682E-05-1.01286E-08-4.47588E-19-6.30338E-19
 -1      2482 9.52319E-05-2.85705E-05-2.85691E-05-5.90258E-09 8.22434E-19-1.75950E-18
 -1      2483 9.52307E-05-2.85703E-05-2.85688E-05-6.55745E-09 1.68017E-18-1.78861E-18
 -1      2484 9.52317E-05-2.85711E-05-2.85688E-05-8.19759E-09 1.03371E-18-1.73175E-18
 -1      2485 9.52334E-05-2.85709E-05-2.85697E-05-4.59776E-09-1.57389E-18-2.27961E-18
 -1      2486 9.52325E-05-2.85707E-05-2.85694E-05-5.15871E-09-7.62892E-19-2.51527E-18
 -1      2487 9.52332E-05-2.85713E-05-2.85694E-05-6.51210E-09 2.39799E-19-1.14849E-18
 -1      2488 9.52347E-05-2.85711E-05-2.85701E-05-3.47460E-09-1.14433E-18-1.68975E-18
 -1      2489 9.52340E-05-2.85710E-05-2.85699E-05-3.96160E-09-1.86684E-18-2.52515E-18
 -1      2490 9.52343E-05-2.85715E-05-2.85698E-05-5.06957E-09-1.95090E-18-3.58265E-18
 -1      2491 9.52357E-05-2.85713E-05-2.85704E-05-2.49569E-09-4.32091E-19-6.93550E-19
 -1      2492 9.52351E-05-2.85712E-05-2.85703E-05-2.92894E-09-8.05892E-19-1.08446E-18
 -1      2493 9.52353E-05-2.85716E-05-2.85702E-05-3.82147E-09-1.85581E-18-3.75470E-18
 -1      2494 9.52364E-05-2.85715E-05-2.85707E-05-1.63134E-09 5.41995E-19-9.46206E-19
 -1      2495 9.52360E-05-2.85714E-05-2.85705E-05-2.02332E-09 3.96308E-19 4.37117E-19
 -1      2496 9.52361E-05-2.85717E-05-2.85704E-05-2.72783E-09-2.96955E-19-1.74633E-18
 -1      2497 9.52367E-05-2.85716E-05-2.85708E-05-1.17539E-09 2.15244E-19-6.28639E-19
 -1      2498 9.52387E-05-2.85748E-05-2.85702E-05-2.24272E-09-8.99206E-19-5.43081E-19
 -1      2499 9.52384E-05-2.85744E-05-2.85703E-05-2.42786E-09-1.77217E-18-2.29426E-18
 -1      2500 9.52391E-05-2.85754E-05-2.85701E-05-1.60056E-09 3.83257E-19 1.17082E-18
 -1      2501 9.52389E-05-2.85752E-05-2.85702E-05-1.92455E-09-9.15117E-20 1.16198E-18
 -1      2502 9.52390E-05-2.85751E-05-2.85702E-05-2.42106E-09-2.33815E-19 1.32922E-18
 -1      2503 9.52375E-05-2.85731E-05-2.85704E-05-2.51298E-09-2.61008E-18-4.61326E-19
 -1      2504 9.52372E-05-2.85727E-05-2.85705E-05-2.36533E-09-1.17938E-18 5.95703E-19
 -1      2505 9.52381E-05-2.85740E-05-2.85703E-05-2.56163E-09-3.37315E-18-1.94148E-18
 -1      2506 9.52378E-05-2.85736E-05-2.85704E-05-2.56832E-09-3.61032E-18-3.80517E-19
 -1      2507 9.52376E-05-2.85734E-05-2.85704E-05-2.98320E-09-2.45423E-18-1.89955E-18
 -1      2508 9.52383E-05-2.85743E-05-2.85703E-05-2.91679E-09-1.76585E-18-9.23574E-19
 -1      2509 9.52393E-05-2.85758E-05-2.85701E-05-7.35498E-10-1.71627E-18-1.44596E-18
 -1      2510 9.52392E-05-2.85757E-05-2.85701E-05-1.14922E-09-5.53636E-19-1.84723E-18
 -1      2511 9.52395E-05-2.85757E-05-2.85702E-05-1.59371E-09-1.27995E-18-1.28882E-18
 -1      2512 9.52394E-05-2.85759E-05-2.85701E-05 2.30713E-10-1.96962E-18 2.02285E-18
 -1      2513 9.52394E-05-2.85759E-05-2.85701E-05-2.13710E-10-1.77418E-18 1.50826E-18
 -1      2514 9.52397E-05-2.85760E-05-2.85702E-05-5.49705E-10-1.34384E-18 1.82498E-19
 -1      2515 9.52392E-05-2.85757E-05-2.85701E-05 1.16465E-09-1.14745E-18-2.44963E-20
 -1      2516 9.52393E-05-2.85758E-05-2.85701E-05 7.52100E-10-2.04739E-18 2.10603E-18
 -1      2517 9.52397E-05-2.85760E-05-2.85702E-05 5.68663E-10-1.43371E-18 2.33711E-18
 -1      2518 9.52389E-05-2.85752E-05-2.85702E-05 1.92536E-09-9.10267E-19-3.99299E-19
 -1      2519 9.52391E-05-2.85754E-05-2.85701E-05 1.60770E-09-6.99840E-19-1.14397E-18
 -1      2520 9.52395E-05-2.85757E-05-2.85702E-05 1.60315E-09-9.65576E-20 2.01023E-19
 -1      2521 9.52384E-05-2.85744E-05-2.85703E-05 2.42737E-09 4.12760E-19 3.54625E-19
 -1      2522 9.52387E-05-2.85748E-05-2.85702E-05 2.24287E-09-8.64777E-19-5.78119E-19
 -1      2523 9.52390E-05-2.85751E-05-2.85702E-05 2.42231E-09-8.85743E-19-7.31618E-19
 -1      2524 9.52378E-05-2.85736E-05-2.85704E-05 2.57780E-09 9.64665E-19 5.07850E-19
 -1      2525 9.52381E-05-2.85740E-05-2.85703E-05 2.56303E-09 3.82607E-19 1.22430E-18
 -1      2526 9.52383E-05-2.85743E-05-2.85703E-05 2.91447E-09-7.78462E-20 2.49817E-19
 -1      2527 9.52372E-05-2.85727E-05-2.85705E-05 2.34004E-09-1.67219E-18-3.72290E-18
 -1      2528 9.52375E-05-2.85731E-05-2.85704E-05 2.50509E-09 2.64283E-19-2.61698E-18
 -1      2529 9.52376E-05-2.85734E-05-2.85704E-05 2.99575E-09-3.88504E-19-1.88306E-18
 -1      2530 9.52369E-05-2.85720E-05-2.85707E-05 1.55972E-09-1.55240E-18-1.52881E-18
 -1      2531 1.85849E-05-1.35427E-05-2.01747E-06-4.23527E-06-2.38943E-19 6.79532E-18
 -1      2532 2.37840E-05-1.68293E-05-2.85243E-06-1.78000E-05 6.26804E-20 7.12164E-18
 -1      2533 9.72590E-05-2.65159E-05-3.02599E-05 4.95544E-06 1.83522E-18 3.39512E-20
 -1      2534 9.85546E-05-2.71488E-05-3.05600E-05 6.62366E-06 1.99003E-18 4.33443E-19
 -1      2535 9.91206E-05-2.58714E-05-3.14320E-05 4.86008E-06 2.15941E-18-5.82908E-19
 -1      2536 9.09612E-05-4.59201E-05-1.95547E-05 4.44638E-05-3.03894E-18 2.46704E-18
 -1      2537 7.22351E-05-3.90324E-05-1.39288E-05 4.39752E-05-3.65283E-18 4.04734E-18
 -1      2538 3.33422E-05-2.23588E-05-4.57820E-06-2.71701E-05 1.35102E-18 6.63100E-18
 -1      2539 4.73515E-05-2.82971E-05-8.17249E-06-3.69409E-05 1.29490E-18 5.50826E-18
 -1      2540 3.50933E-05-1.72706E-05-7.13048E-06-2.25284E-05 1.51037E-18 6.11770E-18
 -1      2541 1.23945E-04-3.67895E-05-3.72972E-05-6.93828E-06-6.93455E-19 2.60354E-18
 -1      2542 1.29529E-04-4.39299E-05-3.68672E-05-8.13084E-06-6.86705E-19 3.70615E-18
 -1      2543 1.28101E-04-4.59931E-05-3.51968E-05-5.75342E-06 1.12940E-19 3.02274E-18
 -1      2544 1.12681E-04-3.25097E-05-3.43595E-05-3.00374E-06-1.11358E-19 1.12557E-18
 -1      2545 1.27946E-04-5.24809E-05-3.26914E-05 2.75534E-05-1.66760E-19-2.77806E-18
 -1      2546 1.12090E-04-5.16638E-05-2.56086E-05 3.48203E-05-2.25565E-18-5.82759E-19
 -1      2547 1.52761E-04-1.81404E-05-5.85493E-05-8.08008E-06-9.71526E-18-2.81321E-19
 -1      2548 1.51654E-04-2.01045E-05-5.64716E-05-1.29183E-05-9.21148E-18 5.15420E-19
 -1      2549 1.38955E-04-9.21615E-06-5.60997E-05 5.32281E-06 8.69013E-18-2.18979E-18
 -1      2550 1.42379E-04-9.41558E-06-5.72926E-05 3.21545E-06 8.51416E-18-2.77657E-18
 -1      2551 4.80197E-05-1.12153E-06-1.95583E-05-2.59966E-05-4.30941E-18-6.76626E-18
 -1      2552 3.60872E-05 5.06924E-06-1.75448E-05-2.33301E-05-3.70635E-18-7.41006E-18
 -1      2553 5.62785E-05-8.83842E-06-2.00997E-05-2.97567E-05-4.37990E-18-6.22003E-18
 -1      2554 1.42952E-04-2.25336E-05-5.18828E-05 4.83263E-06 7.66120E-18-1.32455E-18
 -1      2555 1.40904E-04-1.56726E-05-5.42807E-05 8.26689E-06 8.27636E-18-1.17875E-18
 -1      2556 1.43122E-04-1.15603E-05-5.68329E-05 1.38035E-06 7.99557E-18-3.35107E-18
 -1      2557 1.41952E-04-1.44462E-05-5.49755E-05-2.89215E-07 7.39079E-18-3.60825E-18
 -1      2558 1.31357E-04-7.76603E-06-5.31985E-05 1.07224E-06 7.68852E-18-3.13404E-18
 -1      2559 1.57803E-04-4.87251E-05-4.70619E-05-7.37466E-06-6.40645E-18 8.02564E-19
 -1      2560 1.48937E-04-5.27204E-05-4.13914E-05-2.92038E-06-4.61802E-18 7.33107E-19
 -1      2561 1.38432E-04-3.24378E-05-4.56196E-05-3.41569E-06 5.53674E-18-1.24853E-18
 -1      2562 1.43340E-04-2.87019E-05-4.95782E-05 7.07208E-07 6.82338E-18-1.19262E-18
 -1      2563 1.36668E-04-2.40547E-05-4.83283E-05 9.24345E-06 6.14925E-18-1.32349E-19
 -1      2564 1.18532E-04-3.90995E-05-3.41357E-05-2.15145E-05 1.85246E-18-2.35136E-18
 -1      2565 1.32512E-04-3.87406E-05-4.05279E-05-1.36375E-05 3.78507E-18-1.77496E-18
 -1      2566 9.15192E-05-3.31072E-05-2.48804E-05-3.44324E-05-8.82820E-19-4.31685E-18
 -1      2567 1.05411E-04-3.73062E-05-2.93510E-05-3.15644E-05 6.14522E-19-3.52916E-18
 -1      2568 4.90014E-05-1.53532E-05-1.41659E-05-3.86258E-05-2.11801E-18-7.73807E-18
 -1      2569 6.96109E-05-2.38649E-05-1.96338E-05-4.06707E-05-1.40650E-18-6.12140E-18
 -1      2570 2.30925E-05-1.83324E-06-8.82440E-06-2.88057E-05-2.64888E-18-9.39974E-18
 -1      2571 3.38429E-05-7.44398E-06-1.11175E-05-3.62210E-05-1.89248E-18-8.91566E-18
 -1      2572 2.36407E-05-1.60449E-06-9.05806E-06 1.43132E-05-9.19031E-19-9.41795E-18
 -1      2573 1.53432E-05 3.24487E-06-7.41290E-06 3.69038E-06-8.03993E-19-1.00979E-17
 -1      2574 6.16226E-05-2.57842E-05-1.51588E-05 2.91580E-05-6.76991E-19-7.41323E-18
 -1      2575 4.10055E-05-1.31282E-05-1.16745E-05 2.27136E-05 1.37113E-19-8.03877E-18
 -1      2576 9.94270E-05-4.48520E-05-2.35445E-05 2.73413E-05-1.38299E-18-4.65643E-18
 -1      2577 8.01334E-05-3.64090E-05-1.88243E-05 2.80588E-05-5.55865E-19-5.69958E-18
 -1      2578 1.04226E-04-5.26121E-05-2.21521E-05-3.76097E-05 5.49936E-19 2.99193E-18
 -1      2579 1.20502E-04-5.63043E-05-2.78127E-05-3.37910E-05-1.05667E-19 1.93896E-18
 -1      2580 1.37880E-04-5.62401E-05-3.54127E-05 9.93082E-06-2.88245E-18-9.03572E-19
 -1      2581 1.18764E-04-5.18787E-05-2.86489E-05 1.81017E-05-1.42640E-18-2.77541E-18
 -1      2582 1.56834E-04-3.30898E-05-5.37954E-05-1.75650E-05-8.17937E-18 2.12986E-18
 -1      2583 1.57550E-04-4.06922E-05-5.02800E-05-1.39246E-05-7.37025E-18 1.35906E-18
 -1      2584 1.52365E-04-4.44243E-05-4.62774E-05-1.80419E-05-5.49756E-18 3.67803E-18
 -1      2585 1.52592E-04-2.96946E-05-5.31080E-05 6.14185E-06-8.32210E-18-2.52458E-18
 -1      2586 1.54126E-04-2.29788E-05-5.67236E-05 4.15383E-06-9.27205E-18-2.16015E-18
 -1      2587 1.53248E-04-4.80660E-05-4.53408E-05-1.62054E-06-4.73761E-18-2.52310E-18
 -1      2588 1.57007E-04-4.20336E-05-4.97165E-05 2.24838E-06-6.27503E-18-2.84031E-18
 -1      2589 1.35866E-04-5.75116E-05-3.36560E-05-2.14707E-05-6.77944E-19 6.09864E-20
 -1      2590 1.48845E-04-5.50016E-05-4.06031E-05-1.27574E-05-2.57906E-18-1.34170E-18
 -1      2591 6.85502E-05-3.87891E-05-1.25794E-05-4.07925E-05 1.46388E-18 4.74624E-18
 -1      2592 8.68781E-05-4.61196E-05-1.75391E-05-4.28269E-05 5.55018E-19 4.61948E-18
 -1      2593 1.01400E-04-5.09287E-05-2.12861E-05-3.75252E-05 2.11398E-18 2.31521E-18
 -1      2594 2.76537E-05-1.68259E-05-4.45723E-06 2.56911E-05-1.91726E-18 6.17953E-18
 -1      2595 2.02468E-05-1.35677E-05-2.59222E-06 1.06327E-05-1.40375E-18 6.90925E-18
 -1      2596 1.06213E-04-2.83985E-05-3.33886E-05 1.42829E-05 3.40724E-18 1.72917E-18
 -1      2597 1.08316E-04-2.72765E-05-3.47806E-05 1.71398E-05 3.64097E-18 1.98275E-18
 -1      2598 1.07229E-04-2.49810E-05-3.53402E-05 1.88314E-05 3.84480E-18 6.90835E-19
 -1      2599 1.06693E-04-2.78310E-05-3.38516E-05 1.56628E-05 3.40262E-18 6.45535E-19
 -1      2600 1.43876E-04-4.05655E-05-4.45652E-05 1.03701E-05 4.26817E-18-4.42024E-18
 -1      2601 1.36907E-04-4.62443E-05-3.88746E-05 1.51742E-05 2.21714E-18-3.97555E-18
 -1      2602 1.40315E-04-3.70471E-05-4.43375E-05 9.21265E-07 3.79524E-18-5.36786E-18
 -1      2603 2.45989E-05 8.58619E-06-1.37501E-05-2.12943E-06-1.26371E-18-8.75599E-18
 -1      2604 4.48798E-05-2.78577E-06-1.77070E-05 1.23736E-05 5.54701E-19-6.68256E-18
 -1      2605 5.34824E-05-4.26900E-06-2.11185E-05 1.08492E-05 6.91602E-19-5.42482E-18
 -1      2606 1.28369E-04-1.38802E-05-4.94360E-05 1.14088E-05 7.17384E-18-7.81811E-19
 -1      2607 1.34874E-04-1.16214E-05-5.31840E-05 8.73108E-06 8.07117E-18-1.55346E-18
 -1      2608 1.25354E-04-7.78232E-06-5.09790E-05 8.05601E-06 7.66247E-18-1.81506E-18
 -1      2609 1.01611E-04-2.71822E-05-3.19170E-05 9.21893E-06 2.44168E-18 1.18474E-19
 -1      2610 1.06813E-04-2.36687E-05-3.56802E-05 1.87200E-05 3.33122E-18-5.78074E-19
 -1      2611 2.63101E-05-1.11813E-05-5.90419E-06 3.39841E-06-7.90639E-19 6.40230E-18
 -1      2612 1.15150E-04-4.97703E-05-2.77468E-05 1.71685E-05 2.21287E-19-1.82911E-18
 -1      2613 6.96584E-05-1.18914E-05-2.43211E-05 1.01945E-05 8.27128E-19-4.05604E-18
 -1      2614 1.32917E-04-5.15372E-05-3.49442E-05 1.66405E-05-4.40616E-19-4.50219E-18
 -1      2615 7.77812E-05-3.12633E-05-1.96033E-05 2.51263E-05 1.18076E-18-5.37654E-18
 -1      2616 3.89122E-05-7.25920E-06-1.32046E-05 1.76754E-05 3.34154E-19-8.12940E-18
 -1      2617 1.38907E-04-2.96564E-05-4.71303E-05-2.10304E-05-6.09948E-18 3.74071E-18
 -1      2618 1.46509E-04-2.56674E-05-5.19542E-05-1.80028E-05-7.81346E-18 2.14278E-18
 -1      2619 1.42895E-04-3.91288E-05-4.50007E-05-2.42251E-05-4.79431E-18 4.97738E-18
 -1      2620 3.97261E-05-1.89635E-05-8.34657E-06 2.97097E-05-3.22413E-18 5.32233E-18
 -1      2621 1.40354E-04-5.04964E-05-3.87674E-05 8.60944E-06-5.66506E-19-5.34478E-18
 -1      2622 6.93557E-05-3.51145E-05-1.42152E-05 4.26398E-05-4.33533E-18 3.71826E-18
 -1      2623 9.52367E-05-2.85718E-05-2.85707E-05-1.74227E-09 5.68119E-19-9.27476E-19
 -1      2624 9.52368E-05-2.85721E-05-2.85706E-05-2.01991E-09 5.58683E-19-4.12818E-19
 -1      2625 1.65569E-05 2.95760E-06-7.80091E-06-2.31334E-05-2.08180E-18-1.01432E-17
 -1      2626 2.55788E-05 2.12500E-06-1.14860E-05-2.62686E-05-3.33403E-18-9.35463E-18
 -1      2627 9.52365E-05-2.85718E-05-2.85706E-05 1.94216E-09-1.37281E-18-1.26154E-18
 -1      2628 9.52369E-05-2.85723E-05-2.85705E-05 2.20837E-09-1.70799E-18-2.72730E-18
 -1      2629 9.52369E-05-2.85725E-05-2.85704E-05 2.78364E-09-1.06667E-18-4.11931E-18
 -1      2630 9.52362E-05-2.85717E-05-2.85705E-05 2.35065E-09-1.24573E-18 2.65109E-19
 -1      2631 4.70201E-05-1.10919E-05-1.51544E-05-3.67617E-05-3.43662E-18-7.73468E-18
 -1      2632 8.34409E-05-2.90237E-05-2.30819E-05-3.50681E-05-2.64105E-18-4.78773E-18
 -1      2633 1.07945E-04-2.55959E-05-3.52419E-05 1.79579E-05 3.12415E-18-5.08458E-19
 -1      2634 1.06364E-04-5.03984E-05-2.36312E-05 3.64896E-05-3.80530E-18-2.81056E-19
 -1      2635 1.33456E-04-3.64467E-05-4.16196E-05-1.95805E-06 3.18156E-18-5.59042E-20
 -1      2636 6.40853E-05-3.33263E-05-1.27586E-05-3.81649E-05 2.59658E-18 4.84693E-18
 -1      2637 1.32384E-04-5.93551E-05-3.10533E-05-2.22483E-05 1.13471E-18-7.89011E-19
 -1      2638 1.49015E-04-5.33875E-05-4.09432E-05-8.36253E-07-1.91600E-18-3.44997E-18
 -1      2639 1.43780E-04-5.55351E-05-3.78849E-05-2.35706E-06-2.21573E-18 1.92382E-18
 -1      2640 1.40757E-04-1.91376E-05-5.24040E-05 2.30594E-06-8.49743E-18-1.51772E-18
 -1      2641 1.36605E-04-1.87197E-05-5.07300E-05-3.60006E-06 6.17720E-18-4.46704E-18
 -1      2642 2.98877E-05 5.76472E-06-1.47665E-05-2.19109E-05-3.32561E-18-8.52221E-18
 -1      2643 8.57647E-05-2.10228E-05-2.78035E-05 7.52136E-06 8.88193E-19-2.01223E-18
 -1      2644 1.00432E-04-2.70777E-05-3.12238E-05 3.01930E-06 3.78888E-19-7.12699E-19
 -1      2645 1.08239E-04-3.53281E-05-3.12212E-05 3.53863E-06 5.86067E-19 2.69409E-19
 -1      2646 7.82761E-05-2.05961E-05-2.43846E-05 1.30983E-05 1.22354E-18-3.45237E-18
 -1      2647 1.16071E-04-3.98224E-05-3.24883E-05-1.98414E-05-4.68621E-19-1.51301E-18
 -1      2648 1.16455E-05 5.14729E-06-6.97803E-06-1.05087E-05-2.17476E-18-1.00759E-17
 -1      2649 1.52449E-04-1.69947E-05-5.82842E-05-3.82717E-06-9.86158E-18-7.35304E-19
 -1      2650 9.52363E-05-2.85720E-05-2.85704E-05 2.96449E-09-1.42551E-18-7.19159E-19
 -1      2651 9.52368E-05-2.85723E-05-2.85705E-05-2.60256E-09-3.58267E-19-1.57152E-18
 -1      2652 9.73113E-05-3.06320E-05-2.82789E-05-2.00270E-05-3.65026E-18-2.69628E-18
 -1      2653 8.44063E-05-2.50637E-05-2.53385E-05-2.67174E-05-4.34480E-18-3.59105E-18
 -1      2654 1.11585E-04-2.79721E-05-3.60014E-05 1.47212E-05 1.53872E-18-1.66005E-18
 -1      2655 1.12516E-04-2.92302E-05-3.57125E-05 1.21399E-05 6.80498E-19-1.58416E-18
 -1      2656 1.09491E-04-2.65974E-05-3.56709E-05 1.71814E-05 2.54784E-18-1.46648E-18
 -1      2657 1.10474E-04-2.70258E-05-3.58022E-05 1.60515E-05 1.88448E-18-1.64807E-18
 -1      2658 1.12338E-04-2.82748E-05-3.59508E-05 1.61848E-05 2.00117E-18-1.05630E-18
 -1      2659 1.05503E-04-2.76721E-05-3.33370E-05 1.32591E-05 2.67901E-18-3.69208E-20
 -1      2660 1.07092E-04-2.81817E-05-3.38267E-05 1.50766E-05 2.81485E-18 6.66220E-20
 -1      2661 1.14820E-04-5.28048E-05-2.67828E-05 2.99046E-05-3.67041E-18-2.35470E-18
 -1      2662 9.85887E-05-4.69427E-05-2.16264E-05 3.74063E-05-4.66800E-18 2.35164E-19
 -1      2663 1.35152E-04-3.35909E-05-4.41689E-05-4.16888E-06 3.79333E-18-5.38088E-18
 -1      2664 1.36103E-04-4.09713E-05-4.08579E-05-4.30854E-07 2.27248E-18-5.88243E-18
 -1      2665 1.48110E-04-4.47320E-05-4.46044E-05-2.12557E-05-4.53771E-18 4.76700E-18
 -1      2666 5.02360E-05-2.16355E-05-1.19830E-05 3.46788E-05-3.39681E-18 4.47699E-18
 -1      2667 3.91711E-05-1.40861E-05-1.01883E-05 2.37518E-05-2.62691E-18 4.43168E-18
 -1      2668 7.92306E-05-3.82435E-05-1.76774E-05 4.17705E-05-4.67552E-18 2.20949E-18
 -1      2669 6.40072E-05-2.96194E-05-1.41745E-05 3.90611E-05-4.37757E-18 3.57744E-18
 -1      2670 9.52371E-05-2.85730E-05-2.85703E-05-3.48570E-09-1.82707E-18-2.61679E-18
 -1      2671 9.52366E-05-2.85724E-05-2.85704E-05-3.15903E-09-7.51308E-19-1.91722E-18
 -1      2672 9.52363E-05-2.85723E-05-2.85703E-05-3.70440E-09-2.10853E-18-3.01060E-18
 -1      2673 1.16630E-04-4.69216E-05-2.98893E-05-1.52520E-05 1.90715E-18-2.27382E-18
 -1      2674 1.11259E-04-4.18733E-05-2.95402E-05-1.69632E-05 1.53593E-18-1.77383E-18
 -1      2675 1.06733E-04-3.75328E-05-2.96090E-05-1.65909E-05 1.14519E-18-1.16631E-18
 -1      2676 1.03142E-04-3.38937E-05-2.95649E-05-1.68183E-05 1.02951E-18-9.53746E-19
 -1      2677 1.03162E-04-3.82867E-05-2.79359E-05-2.00978E-05 1.76616E-18-1.18554E-18
 -1      2678 1.01052E-04-3.13420E-05-2.98268E-05-1.56637E-05 6.22635E-19-4.81287E-19
 -1      2679 9.89731E-05-2.92418E-05-2.98557E-05-1.51019E-05 2.53528E-19-5.51248E-19
 -1      2680 9.70643E-05-3.09165E-05-2.83773E-05-1.82738E-05 1.03280E-18-3.12357E-19
 -1      2681 9.82959E-05-2.80604E-05-3.00636E-05-1.37772E-05 3.86546E-19-4.73371E-19
 -1      2682 9.71621E-05-2.70611E-05-3.00449E-05-1.28826E-05 5.41730E-19-3.01119E-19
 -1      2683 9.45056E-05-2.69382E-05-2.89821E-05-1.52655E-05 4.66968E-19 2.36471E-19
 -1      2684 9.71080E-05-2.66960E-05-3.01500E-05-1.16608E-05 3.57474E-19-4.65375E-19
 -1      2685 9.64710E-05-2.63248E-05-3.00742E-05-1.06808E-05 1.46493E-19-6.15864E-19
 -1      2686 9.38980E-05-2.53468E-05-2.93818E-05-1.26209E-05 4.48526E-19 2.16069E-19
 -1      2687 9.66408E-05-2.63660E-05-3.00959E-05-9.60359E-06 4.04947E-19-3.28918E-19
 -1      2688 9.62376E-05-2.63075E-05-2.99836E-05-8.66740E-06 3.89461E-19 6.75601E-19
 -1      2689 9.40545E-05-2.50366E-05-2.95716E-05-1.03118E-05 4.55498E-19 1.98447E-19
 -1      2690 9.64424E-05-2.65130E-05-2.99511E-05-7.74387E-06-4.27299E-19 8.98567E-19
 -1      2691 9.61479E-05-2.65869E-05-2.98244E-05-6.91178E-06-7.80344E-19 1.03866E-18
 -1      2692 9.44351E-05-2.53298E-05-2.96070E-05-8.32737E-06 1.45526E-19 7.11001E-19
 -1      2693 9.63155E-05-2.68316E-05-2.97628E-05-6.13591E-06-8.69479E-19 1.08128E-18
 -1      2694 9.60769E-05-2.69467E-05-2.96377E-05-5.42924E-06-5.32579E-19 1.04982E-18
 -1      2695 9.48009E-05-2.58398E-05-2.95466E-05-6.64275E-06-5.86735E-19 8.38595E-19
 -1      2696 9.61911E-05-2.71745E-05-2.95648E-05-4.78895E-06-6.47721E-19 1.11962E-18
 -1      2697 9.59890E-05-2.72900E-05-2.94507E-05-4.20720E-06-1.08328E-18 1.17618E-18
 -1      2698 9.50737E-05-2.63752E-05-2.94364E-05-5.23285E-06-5.02203E-19 6.74729E-19
 -1      2699 9.60559E-05-2.74815E-05-2.93775E-05-3.68718E-06-1.52869E-18 1.13198E-18
 -1      2700 9.58841E-05-2.75821E-05-2.92786E-05-3.21891E-06-8.85297E-19 1.94385E-19
 -1      2701 9.52472E-05-2.68544E-05-2.93076E-05-4.07078E-06-1.25419E-18 7.16229E-19
 -1      2702 9.59164E-05-2.77348E-05-2.92112E-05-2.80256E-06-2.88501E-19-2.86219E-19
 -1      2703 9.57724E-05-2.78170E-05-2.91285E-05-2.43202E-06 5.08866E-19-4.09793E-19
 -1      2704 9.53412E-05-2.72524E-05-2.91790E-05-3.12725E-06-9.82482E-19 2.45758E-19
 -1      2705 9.57822E-05-2.79353E-05-2.90695E-05-2.10293E-06 1.37525E-18-8.81373E-19
 -1      2706 9.56642E-05-2.80004E-05-2.90022E-05-1.81375E-06 1.28028E-18-9.01429E-19
 -1      2707 9.53801E-05-2.75697E-05-2.90609E-05-2.37183E-06 7.68209E-19-4.98336E-19
 -1      2708 9.56609E-05-2.80906E-05-2.89525E-05-1.55671E-06 5.35996E-19-1.16369E-18
 -1      2709 9.55664E-05-2.81415E-05-2.88989E-05-1.33369E-06-3.66274E-19-1.44357E-18
 -1      2710 9.53851E-05-2.78170E-05-2.89578E-05-1.77480E-06 6.44085E-19-1.42299E-18
 -1      2711 9.55567E-05-2.82097E-05-2.88581E-05-1.13522E-06-5.59793E-19-1.61727E-18
 -1      2712 9.54827E-05-2.82493E-05-2.88162E-05-9.65180E-07-3.00011E-19-1.51266E-18
 -1      2713 9.53717E-05-2.80072E-05-2.88709E-05-1.30871E-06-3.86566E-19-1.45405E-18
 -1      2714 9.54707E-05-2.83006E-05-2.87834E-05-8.13721E-07-1.26074E-19-1.88708E-18
 -1      2715 9.54142E-05-2.83314E-05-2.87511E-05-6.85544E-07-2.11071E-19-1.67306E-18
 -1      2716 9.53503E-05-2.81525E-05-2.87996E-05-9.49206E-07-4.75456E-19-2.07140E-18
 -1      2717 9.54023E-05-2.83699E-05-2.87252E-05-5.71381E-07-3.34973E-19-2.16583E-18
 -1      2718 9.53600E-05-2.83938E-05-2.87007E-05-4.75948E-07-1.31126E-19-1.43603E-18
 -1      2719 9.53269E-05-2.82629E-05-2.87423E-05-6.75316E-07-3.83639E-19-1.64523E-18
 -1      2720 9.53494E-05-2.84226E-05-2.86807E-05-3.91055E-07 7.22859E-19-1.33465E-18
 -1      2721 9.53186E-05-2.84412E-05-2.86624E-05-3.20976E-07 6.57990E-19-7.70737E-19
 -1      2722 9.53051E-05-2.83464E-05-2.86972E-05-4.69371E-07 4.45003E-19-5.23325E-19
 -1      2723 9.53098E-05-2.84626E-05-2.86471E-05-2.58804E-07 4.45584E-19-2.68538E-19
 -1      2724 9.52879E-05-2.84770E-05-2.86337E-05-2.08161E-07 1.91085E-20-2.95281E-19
 -1      2725 9.52864E-05-2.84094E-05-2.86621E-05-3.16721E-07 8.40903E-19-3.78633E-20
 -1      2726 9.52809E-05-2.84929E-05-2.86222E-05-1.63429E-07-8.23881E-20-8.69092E-20
 -1      2727 9.52659E-05-2.85040E-05-2.86125E-05-1.27525E-07 9.10900E-19 3.18135E-19
 -1      2728 9.52713E-05-2.84565E-05-2.86354E-05-2.05394E-07 2.59292E-19-4.50461E-19
 -1      2729 9.52605E-05-2.85157E-05-2.86040E-05-9.60165E-08 8.51354E-19 2.22470E-19
 -1      2730 9.52506E-05-2.85242E-05-2.85972E-05-7.11575E-08 6.92533E-19 2.87519E-21
 -1      2731 9.52596E-05-2.84916E-05-2.86152E-05-1.25721E-07 6.17863E-19-7.91078E-19
 -1      2732 9.52467E-05-2.85327E-05-2.85911E-05-4.95422E-08 6.10566E-19-8.02479E-20
 -1      2733 9.52405E-05-2.85392E-05-2.85864E-05-3.28470E-08 7.47719E-19 4.84630E-19
 -1      2734 9.52509E-05-2.85174E-05-2.86004E-05-6.99872E-08 8.25277E-19-1.01904E-18
 -1      2735 9.52377E-05-2.85453E-05-2.85820E-05-1.85212E-08 5.17326E-19-1.75431E-19
 -1      2736 9.52341E-05-2.85501E-05-2.85789E-05-7.76509E-09-3.24959E-19-8.58656E-21
 -1      2737 9.52447E-05-2.85361E-05-2.85896E-05-3.20989E-08 1.91602E-19-1.60191E-18
 -1      2738 9.52323E-05-2.85544E-05-2.85759E-05 1.28366E-09-1.33529E-18 1.35059E-19
 -1      2739 9.52305E-05-2.85580E-05-2.85740E-05 7.80062E-09-1.64098E-18-6.14560E-19
 -1      2740 9.52404E-05-2.85495E-05-2.85820E-05-7.30138E-09-7.64662E-19-1.32297E-18
 -1      2741 9.52293E-05-2.85609E-05-2.85720E-05 1.31087E-08-1.05054E-18-4.96977E-19
 -1      2742 9.52288E-05-2.85636E-05-2.85708E-05 1.66697E-08-8.54898E-19-1.36667E-18
 -1      2743 9.52376E-05-2.85589E-05-2.85767E-05 8.07205E-09-1.67286E-18-4.37788E-19
 -1      2744 9.52280E-05-2.85655E-05-2.85695E-05 1.93942E-08-8.91195E-19-1.51827E-18
 -1      2745 9.52283E-05-2.85674E-05-2.85689E-05 2.09546E-08-4.62201E-19-1.05361E-18
 -1      2746 9.52359E-05-2.85654E-05-2.85732E-05 1.68119E-08-1.17232E-18-9.78599E-19
 -1      2747 9.52279E-05-2.85686E-05-2.85682E-05 2.19535E-08-6.22395E-19-1.92196E-18
 -1      2748 9.52285E-05-2.85699E-05-2.85680E-05 2.22132E-08-3.08248E-19-1.42978E-18
 -1      2749 9.52350E-05-2.85696E-05-2.85710E-05 2.10117E-08-1.09180E-18-7.35858E-19
 -1      2750 9.52284E-05-2.85707E-05-2.85676E-05 2.21116E-08 9.55177E-19-1.74862E-18
 -1      2751 9.52293E-05-2.85715E-05-2.85676E-05 2.15735E-08 1.15471E-18-8.26697E-19
 -1      2752 9.52346E-05-2.85722E-05-2.85696E-05 2.22162E-08 8.79783E-19-2.04789E-18
 -1      2753 9.52293E-05-2.85719E-05-2.85674E-05 2.08174E-08 1.15872E-18-9.12078E-20
 -1      2754 9.52302E-05-2.85725E-05-2.85676E-05 1.98345E-08 1.41416E-18-9.20402E-20
 -1      2755 9.52345E-05-2.85737E-05-2.85689E-05 2.15445E-08 1.89181E-18-1.74923E-18
 -1      2756 9.52303E-05-2.85726E-05-2.85676E-05 1.87338E-08 5.16246E-19 6.27813E-20
 -1      2757 9.52313E-05-2.85730E-05-2.85678E-05 1.75469E-08-1.10419E-19-1.59570E-19
 -1      2758 9.52346E-05-2.85745E-05-2.85687E-05 1.97888E-08 8.81830E-19-1.90863E-18
 -1      2759 9.52314E-05-2.85730E-05-2.85679E-05 1.63097E-08 3.25478E-19 4.70180E-19
 -1      2760 9.52323E-05-2.85732E-05-2.85682E-05 1.50760E-08 2.13578E-19-1.66965E-19
 -1      2761 9.52349E-05-2.85747E-05-2.85687E-05 1.74947E-08 1.38735E-19-1.27768E-18
 -1      2762 9.52324E-05-2.85731E-05-2.85683E-05 1.38359E-08 1.23346E-19 4.13154E-19
 -1      2763 9.52332E-05-2.85731E-05-2.85686E-05 1.26520E-08 1.66635E-18-5.86767E-19
 -1      2764 9.52352E-05-2.85746E-05-2.85688E-05 1.50238E-08 1.65662E-19-1.53319E-19
 -1      2765 9.52334E-05-2.85730E-05-2.85688E-05 1.14881E-08 2.32130E-18-7.73716E-19
 -1      2766 9.52341E-05-2.85730E-05-2.85690E-05 1.04074E-08 1.18573E-18-3.87289E-20
 -1      2767 9.52355E-05-2.85744E-05-2.85691E-05 1.26032E-08 1.69383E-18-1.91231E-19
 -1      2768 9.52342E-05-2.85729E-05-2.85692E-05 9.36081E-09-4.71159E-19-8.82321E-20
 -1      2769 9.52348E-05-2.85729E-05-2.85694E-05 8.40595E-09-1.06502E-18-5.80813E-19
 -1      2770 9.52358E-05-2.85740E-05-2.85693E-05 1.03634E-08 7.42103E-19-1.98789E-18
 -1      2771 9.52350E-05-2.85727E-05-2.85695E-05 7.49062E-09-1.33479E-18-1.26913E-18
 -1      2772 9.52354E-05-2.85727E-05-2.85697E-05 6.66331E-09-2.54803E-19-1.77982E-18
 -1      2773 9.52361E-05-2.85737E-05-2.85696E-05 8.36655E-09-1.42566E-18-7.23698E-19
 -1      2774 9.52356E-05-2.85726E-05-2.85699E-05 5.87589E-09 6.49612E-19-3.31635E-18
 -1      2775 9.52360E-05-2.85726E-05-2.85700E-05 5.16584E-09-8.91533E-19-3.95810E-18
 -1      2776 9.52364E-05-2.85733E-05-2.85699E-05 6.62655E-09-1.23051E-18-2.64759E-18
 -1      2777 9.52361E-05-2.85725E-05-2.85701E-05 4.48983E-09-8.23605E-19-4.34330E-18
 -1      2778 9.52364E-05-2.85725E-05-2.85703E-05 3.88145E-09 4.77530E-19-3.60014E-18
 -1      2779 9.52367E-05-2.85731E-05-2.85701E-05 5.13214E-09-5.21340E-19-3.25206E-18
 -1      2780 9.96804E-05-2.44228E-05-3.22474E-05-8.95353E-07 2.26082E-18-1.70422E-18
 -1      2781 9.98700E-05-2.41426E-05-3.24150E-05 1.60430E-06 2.36294E-18-1.41772E-18
 -1      2782 1.03761E-04-3.21132E-05-3.07413E-05-7.45945E-06 1.02830E-18-2.49709E-18
 -1      2783 1.03025E-04-3.08707E-05-3.08937E-05-7.71712E-06 1.37106E-18-2.34787E-18
 -1      2784 1.04384E-04-3.36467E-05-3.03281E-05-5.67226E-06 5.35272E-19-2.60851E-18
 -1      2785 1.03996E-04-3.29824E-05-3.04338E-05-6.57141E-06 8.36021E-19-2.37240E-18
 -1      2786 1.05833E-04-3.34835E-05-3.09797E-05-7.18779E-06 1.00413E-18-2.65033E-18
 -1      2787 1.04053E-04-3.39411E-05-3.00427E-05-3.25406E-06 4.63531E-19-2.61147E-18
 -1      2788 1.04044E-04-3.38395E-05-3.01077E-05-4.37245E-06 4.84945E-19-2.52096E-18
 -1      2789 1.05725E-04-3.48258E-05-3.03680E-05-4.82637E-06 5.91597E-19-2.31289E-18
 -1      2790 1.03073E-04-3.33657E-05-2.98599E-05-9.64977E-07 9.44733E-19-2.66395E-18
 -1      2791 1.03345E-04-3.36403E-05-2.99015E-05-1.99661E-06 8.46848E-19-2.45817E-18
 -1      2792 1.04646E-04-3.47517E-05-2.99528E-05-2.16843E-06 7.39353E-19-2.18588E-18
 -1      2793 1.01809E-04-3.23795E-05-2.97388E-05 8.09408E-07 1.48279E-19-2.39550E-18
 -1      2794 1.02236E-04-3.28248E-05-2.97738E-05 1.70210E-08 4.88712E-19-2.56327E-18
 -1      2795 1.03069E-04-3.37951E-05-2.96971E-05 1.02345E-07 5.92520E-19-1.90719E-18
 -1      2796 1.00532E-04-3.13292E-05-2.96434E-05 1.97389E-06-4.35155E-19-1.56830E-18
 -1      2797 1.01011E-04-3.17969E-05-2.96832E-05 1.45665E-06-1.03190E-19-1.97802E-18
 -1      2798 1.01412E-04-3.25017E-05-2.95454E-05 1.72086E-06-3.15516E-19-1.46034E-18
 -1      2799 9.93886E-05-3.04080E-05-2.95515E-05 2.59389E-06-4.50403E-19-1.43203E-18
 -1      2800 9.98551E-05-3.08176E-05-2.96004E-05 2.32151E-06-3.12540E-19-1.44909E-18
 -1      2801 9.99247E-05-3.12413E-05-2.94479E-05 2.68669E-06-7.26213E-19-9.36249E-19
 -1      2802 9.84315E-05-2.96888E-05-2.94531E-05 2.79721E-06-3.73314E-19-1.20599E-18
 -1      2803 9.88529E-05-3.00107E-05-2.95105E-05 2.71256E-06-1.71167E-19-1.11666E-18
 -1      2804 9.87060E-05-3.01975E-05-2.93711E-05 3.11944E-06-3.32748E-19-7.31314E-19
 -1      2805 9.76620E-05-2.91727E-05-2.93474E-05 2.71721E-06-1.59926E-19-1.04866E-18
 -1      2806 9.80258E-05-2.94070E-05-2.94101E-05 2.76027E-06-2.85520E-19-1.23503E-18
 -1      2807 9.77625E-05-2.94219E-05-2.92970E-05 3.16920E-06-3.43995E-19-9.73490E-19
 -1      2808 9.70577E-05-2.88282E-05-2.92382E-05 2.46725E-06-4.98214E-19-4.83295E-19
 -1      2809 9.73626E-05-2.89883E-05-2.93022E-05 2.58653E-06-3.13623E-19-1.14476E-18
 -1      2810 9.70572E-05-2.88942E-05-2.92189E-05 2.97296E-06-3.93008E-19-1.17075E-18
 -1      2811 9.65900E-05-2.86146E-05-2.91308E-05 2.13320E-06-6.87416E-19-1.32430E-19
 -1      2812 9.68399E-05-2.87176E-05-2.91923E-05 2.28952E-06-5.36599E-19-3.63216E-19
 -1      2813 9.65408E-05-2.85654E-05-2.91369E-05 2.63942E-06-6.55548E-19-4.56506E-19
 -1      2814 9.62313E-05-2.84940E-05-2.90296E-05 1.77454E-06-7.06714E-19-7.52075E-19
 -1      2815 9.64326E-05-2.85558E-05-2.90861E-05 1.94079E-06-3.93605E-19-3.29544E-19
 -1      2816 9.61668E-05-2.83823E-05-2.90541E-05 2.24731E-06-4.13717E-19-8.10500E-19
 -1      2817 9.59583E-05-2.84355E-05-2.89383E-05 1.42897E-06-6.59101E-19-1.12867E-18
 -1      2818 9.61177E-05-2.84691E-05-2.89880E-05 1.58805E-06-9.34582E-19-1.02852E-18
 -1      2819 9.58974E-05-2.82979E-05-2.89739E-05 1.84927E-06-4.91459E-19-1.76540E-18
 -1      2820 9.57520E-05-2.84159E-05-2.88585E-05 1.11772E-06-5.02762E-19-1.17313E-18
 -1      2821 9.58762E-05-2.84312E-05-2.89009E-05 1.26014E-06-7.01095E-19-1.29525E-18
 -1      2822 9.57035E-05-2.82761E-05-2.88996E-05 1.47740E-06-7.87380E-19-1.60431E-18
 -1      2823 9.55975E-05-2.84192E-05-2.87910E-05 8.50515E-07-1.19959E-19-1.28955E-18
 -1      2824 9.56926E-05-2.84232E-05-2.88261E-05 9.72079E-07-1.30820E-19-1.14814E-18
 -1      2825 9.55639E-05-2.82904E-05-2.88332E-05 1.14878E-06-3.67853E-19-9.71571E-19
 -1      2826 9.54829E-05-2.84344E-05-2.87354E-05 6.29545E-07-7.75172E-19-1.02647E-18
 -1      2827 9.55545E-05-2.84319E-05-2.87636E-05 7.29496E-07-4.89505E-19-1.00104E-18
 -1      2828 9.54634E-05-2.83233E-05-2.87758E-05 8.70192E-07-4.74764E-19-5.10831E-19
 -1      2829 9.53991E-05-2.84546E-05-2.86908E-05 4.52441E-07 1.21643E-19-7.29054E-19
 -1      2830 9.54519E-05-2.84488E-05-2.87129E-05 5.32071E-07-1.70985E-19-3.41554E-19
 -1      2831 9.53912E-05-2.83632E-05-2.87274E-05 6.41799E-07-5.84577E-19 4.92762E-19
 -1      2832 9.53387E-05-2.84758E-05-2.86557E-05 3.14398E-07-1.91669E-19 3.51419E-19
 -1      2833 9.53768E-05-2.84687E-05-2.86727E-05 3.76069E-07-1.56937E-21-2.67020E-19
 -1      2834 9.53395E-05-2.84034E-05-2.86878E-05 4.59878E-07 2.37771E-20 9.37589E-19
 -1      2835 9.52960E-05-2.84956E-05-2.86289E-05 2.09600E-07-8.66649E-19 9.24711E-19
 -1      2836 9.53228E-05-2.84884E-05-2.86416E-05 2.56090E-07-2.65680E-19 1.92463E-19
 -1      2837 9.53028E-05-2.84403E-05-2.86561E-05 3.18727E-07-5.17133E-19 1.35768E-18
 -1      2838 9.52666E-05-2.85130E-05-2.86088E-05 1.32117E-07 8.80405E-21 5.32656E-19
 -1      2839 9.52849E-05-2.85063E-05-2.86181E-05 1.66215E-07-3.84588E-19 6.73541E-19
 -1      2840 9.52769E-05-2.84720E-05-2.86313E-05 2.11940E-07-7.31494E-19 2.33351E-19
 -1      2841 9.52471E-05-2.85276E-05-2.85942E-05 7.64192E-08 3.15074E-19 9.92712E-20
 -1      2842 9.52590E-05-2.85217E-05-2.86007E-05 1.00698E-07 2.43502E-19 2.25306E-19
 -1      2843 9.52591E-05-2.84982E-05-2.86123E-05 1.33200E-07 5.38729E-19 4.35548E-19
 -1      2844 9.52347E-05-2.85393E-05-2.85838E-05 3.76430E-08 3.92937E-19-2.01028E-19
 -1      2845 9.52419E-05-2.85344E-05-2.85883E-05 5.43464E-08 7.06929E-20 1.22964E-19
 -1      2846 9.52471E-05-2.85191E-05-2.85981E-05 7.67250E-08 4.20304E-19 5.72154E-20
 -1      2847 9.52274E-05-2.85486E-05-2.85766E-05 1.16848E-08 4.91046E-19 5.98529E-20
 -1      2848 9.52314E-05-2.85446E-05-2.85796E-05 2.26914E-08 6.45675E-19-2.20101E-20
 -1      2849 9.52393E-05-2.85352E-05-2.85877E-05 3.74867E-08 5.28296E-19-1.12838E-19
 -1      2850 9.52235E-05-2.85556E-05-2.85720E-05-4.80628E-09 1.09942E-18-1.09399E-19
 -1      2851 9.52253E-05-2.85525E-05-2.85738E-05 2.02671E-09 1.12578E-18 6.96605E-19
 -1      2852 9.52345E-05-2.85474E-05-2.85804E-05 1.12715E-08 6.13065E-19 2.41387E-19
 -1      2853 9.52221E-05-2.85609E-05-2.85691E-05-1.44912E-08-3.94096E-19 2.32866E-19
 -1      2854 9.52224E-05-2.85585E-05-2.85701E-05-1.06304E-08 4.32784E-19 6.14241E-19
 -1      2855 9.52317E-05-2.85564E-05-2.85753E-05-5.34416E-09 8.14383E-19 1.36857E-18
 -1      2856 9.52222E-05-2.85648E-05-2.85675E-05-1.94311E-08-2.93810E-19 9.03804E-19
 -1      2857 9.52216E-05-2.85629E-05-2.85679E-05-1.76183E-08-6.08553E-19 4.08179E-19
 -1      2858 9.52304E-05-2.85627E-05-2.85720E-05-1.50700E-08-7.66578E-19 1.62365E-18
 -1      2859 9.52232E-05-2.85675E-05-2.85667E-05-2.11846E-08-3.73407E-19 1.80126E-18
 -1      2860 9.52221E-05-2.85661E-05-2.85668E-05-2.07262E-08-3.17506E-19 1.04621E-18
 -1      2861 9.52300E-05-2.85671E-05-2.85699E-05-1.99996E-08-3.04934E-19 7.61867E-19
 -1      2862 9.52247E-05-2.85694E-05-2.85666E-05-2.09024E-08-2.49135E-19 1.12949E-18
 -1      2863 9.52234E-05-2.85684E-05-2.85664E-05-2.12905E-08 1.97971E-19 2.41835E-18
 -1      2864 9.52303E-05-2.85700E-05-2.85687E-05-2.17136E-08-7.47766E-20 1.83475E-18
 -1      2865 9.52264E-05-2.85706E-05-2.85668E-05-1.94124E-08-7.32768E-19 2.75086E-19
 -1      2866 9.52250E-05-2.85699E-05-2.85665E-05-2.02849E-08-2.51203E-19 8.21492E-19
 -1      2867 9.52308E-05-2.85718E-05-2.85682E-05-2.13771E-08 3.27362E-19 1.89856E-18
 -1      2868 9.52282E-05-2.85714E-05-2.85672E-05-1.72923E-08-1.70431E-18 3.27636E-19
 -1      2869 9.52268E-05-2.85709E-05-2.85668E-05-1.83996E-08-1.35538E-18 4.87676E-19
 -1      2870 9.52316E-05-2.85729E-05-2.85680E-05-1.98272E-08-1.03496E-18 1.23252E-18
 -1      2871 9.52298E-05-2.85719E-05-2.85677E-05-1.49308E-08-1.33237E-18 6.82375E-20
 -1      2872 9.52286E-05-2.85715E-05-2.85673E-05-1.61075E-08-1.35878E-18-3.14924E-19
 -1      2873 9.52324E-05-2.85734E-05-2.85682E-05-1.76474E-08-1.34868E-18-2.43330E-19
 -1      2874 9.52313E-05-2.85721E-05-2.85682E-05-1.25761E-08-6.51295E-19-1.23046E-18
 -1      2875 9.52302E-05-2.85719E-05-2.85679E-05-1.37190E-08-4.47697E-19-6.32144E-19
 -1      2876 9.52332E-05-2.85736E-05-2.85684E-05-1.52296E-08-6.65138E-19-8.06231E-19
 -1      2877 9.52326E-05-2.85722E-05-2.85687E-05-1.03745E-08 1.06601E-20-1.45550E-18
 -1      2878 9.52316E-05-2.85721E-05-2.85684E-05-1.14253E-08-7.63024E-19-1.12172E-18
 -1      2879 9.52340E-05-2.85735E-05-2.85688E-05-1.28235E-08-3.93631E-19-1.29698E-18
 -1      2880 9.52337E-05-2.85722E-05-2.85692E-05-8.39936E-09 8.47213E-19-7.84190E-19
 -1      2881 9.52329E-05-2.85721E-05-2.85689E-05-9.33198E-09 3.49966E-19-1.47776E-18
 -1      2882 9.52346E-05-2.85733E-05-2.85691E-05-1.05757E-08-4.66835E-20-5.47632E-19
 -1      2883 9.52346E-05-2.85722E-05-2.85696E-05-6.67519E-09-1.23400E-19-8.78147E-19
 -1      2884 9.52340E-05-2.85721E-05-2.85694E-05-7.48484E-09 1.34774E-18-1.00287E-19
 -1      2885 9.52352E-05-2.85731E-05-2.85695E-05-8.56078E-09 5.19201E-19 1.63552E-19
 -1      2886 9.52354E-05-2.85721E-05-2.85699E-05-5.18320E-09-8.66739E-19-3.27962E-18
 -1      2887 9.52348E-05-2.85721E-05-2.85698E-05-5.87240E-09-6.03807E-19-1.64529E-18
 -1      2888 9.52358E-05-2.85729E-05-2.85698E-05-6.81284E-09 5.26441E-19 8.35163E-20
 -1      2889 9.52361E-05-2.85723E-05-2.85702E-05-4.12421E-09-2.19945E-18-3.41099E-18
 -1      2890 9.52357E-05-2.85722E-05-2.85701E-05-4.73309E-09-2.31287E-18-4.04222E-18
 -1      2891 9.52363E-05-2.85729E-05-2.85700E-05-5.50995E-09-5.88976E-19-1.54110E-18
 -1      2892 9.52368E-05-2.85730E-05-2.85702E-05-4.53448E-09-1.89479E-18-1.62190E-18
 -1      2893 9.52402E-05-2.85764E-05-2.85702E-05-3.34551E-10-5.97733E-19 1.96317E-18
 -1      2894 9.52402E-05-2.85763E-05-2.85702E-05-9.16748E-10-9.07194E-19-5.88599E-19
 -1      2895 9.52395E-05-2.85756E-05-2.85702E-05-2.58803E-09-7.63584E-19 1.38685E-18
 -1      2896 9.52391E-05-2.85752E-05-2.85703E-05-2.94800E-09-8.76355E-19 1.10764E-19
 -1      2897 9.52402E-05-2.85763E-05-2.85702E-05 9.36816E-10-9.05895E-19 2.00298E-18
 -1      2898 9.52402E-05-2.85764E-05-2.85702E-05 3.55251E-10-4.66896E-19 1.64898E-18
 -1      2899 9.52407E-05-2.85767E-05-2.85703E-05 1.11830E-11-6.27209E-20 1.68342E-18
 -1      2900 9.52400E-05-2.85761E-05-2.85702E-05-1.56274E-09-1.74761E-18-2.25815E-18
 -1      2901 9.52398E-05-2.85759E-05-2.85702E-05-2.06793E-09-1.47439E-18 2.08795E-19
 -1      2902 9.52400E-05-2.85760E-05-2.85703E-05-2.61740E-09-1.73581E-18-3.19093E-19
 -1      2903 9.52405E-05-2.85766E-05-2.85703E-05-1.39161E-09-6.50868E-19-7.48758E-21
 -1      2904 3.63799E-05-1.26276E-05-9.68428E-06-1.67041E-05 1.08240E-18 4.77981E-18
 -1      2905 4.51219E-05-1.82332E-05-1.11834E-05-2.71583E-05 1.99836E-18 5.04027E-18
 -1      2906 9.52368E-05-2.85725E-05-2.85704E-05 3.13505E-09-1.02614E-18-4.21135E-18
 -1      2907 9.52371E-05-2.85729E-05-2.85704E-05 3.27015E-09 4.91685E-21-5.75217E-18
 -1      2908 9.52366E-05-2.85725E-05-2.85703E-05 3.49267E-09-3.30413E-19-3.93140E-18
 -1      2909 9.52398E-05-2.85759E-05-2.85702E-05 2.06826E-09-8.87194E-19-1.84030E-19
 -1      2910 9.52400E-05-2.85761E-05-2.85702E-05 1.57179E-09-7.36381E-19 1.27024E-18
 -1      2911 9.52405E-05-2.85766E-05-2.85703E-05 1.40193E-09-1.44560E-18 2.24946E-18
 -1      2912 9.52391E-05-2.85752E-05-2.85703E-05 2.94837E-09-1.38400E-18-3.55358E-19
 -1      2913 9.52395E-05-2.85756E-05-2.85702E-05 2.58845E-09-1.22593E-18-9.08954E-19
 -1      2914 9.52400E-05-2.85760E-05-2.85703E-05 2.61714E-09-1.83846E-18-3.70647E-19
 -1      2915 9.52383E-05-2.85743E-05-2.85703E-05 3.42374E-09-7.99325E-19-4.07444E-19
 -1      2916 9.52387E-05-2.85747E-05-2.85703E-05 3.26987E-09-5.62168E-19 6.31252E-19
 -1      2917 9.52392E-05-2.85752E-05-2.85703E-05 3.51046E-09-1.53951E-18 3.17370E-19
 -1      2918 9.52375E-05-2.85734E-05-2.85703E-05 3.39888E-09-9.93307E-20-2.06000E-18
 -1      2919 9.52379E-05-2.85738E-05-2.85703E-05 3.46323E-09-6.05037E-19-2.14736E-19
 -1      2920 9.52383E-05-2.85743E-05-2.85703E-05 3.87390E-09-1.56650E-18-2.25427E-19
 -1      2921 9.52374E-05-2.85734E-05-2.85703E-05 3.77672E-09-4.42215E-19-1.93032E-18
 -1      2922 1.00499E-04-2.43870E-05-3.25777E-05 4.62504E-06 2.33006E-18-9.12868E-19
 -1      2923 1.01473E-04-2.50256E-05-3.27568E-05 7.10753E-06 2.50643E-18-5.85863E-19
 -1      2924 1.01891E-04-2.32147E-05-3.37456E-05 3.80750E-06 2.70371E-18-1.42420E-18
 -1      2925 1.23484E-04-5.14724E-05-3.10347E-05 9.25013E-06 4.07423E-19 5.41942E-19
 -1      2926 1.07051E-04-4.43026E-05-2.67195E-05 1.63098E-05 1.17907E-18-1.29821E-18
 -1      2927 1.23300E-04-7.52813E-06-5.02659E-05 2.67092E-06 7.35140E-18-2.83665E-18
 -1      2928 1.24414E-04-9.02813E-06-4.99204E-05-1.64160E-06 6.88151E-18-3.60889E-18
 -1      2929 1.07674E-04-2.67505E-05-3.46777E-05 1.66607E-05 2.96520E-18-5.76307E-19
 -1      2930 1.24838E-04-5.75465E-05-2.85594E-05-2.31686E-05 2.14691E-18-1.48702E-18
 -1      2931 1.36272E-04-5.89383E-05-3.34145E-05-1.27589E-05 1.42603E-18-3.11634E-18
 -1      2932 1.02808E-04-2.59956E-05-3.28714E-05 9.62005E-06 2.62475E-18-4.11035E-19
 -1      2933 1.04277E-04-2.69827E-05-3.31357E-05 1.16411E-05 2.64429E-18-5.65992E-20
 -1      2934 1.06519E-04-2.66064E-05-3.42336E-05 1.39901E-05 2.86148E-18-3.81396E-19
 -1      2935 1.03896E-04-2.46055E-05-3.39832E-05 9.70782E-06 2.82367E-18-7.22321E-19
 -1      2936 1.02249E-04-2.94267E-05-3.12586E-05-7.60332E-06 1.33265E-18-2.46028E-18
 -1      2937 1.01421E-04-2.79312E-05-3.14418E-05-6.84554E-06 1.43560E-18-2.63974E-18
 -1      2938 1.04758E-04-3.06101E-05-3.17613E-05-8.12711E-06 1.33170E-18-2.64924E-18
 -1      2939 1.00527E-04-2.64243E-05-3.17955E-05-5.37516E-06 1.77785E-18-2.59523E-18
 -1      2940 1.00015E-04-2.52603E-05-3.19795E-05-3.54197E-06 2.10416E-18-2.04695E-18
 -1      2941 1.02986E-04-2.69581E-05-3.25913E-05-6.59852E-06 1.67003E-18-2.63744E-18
 -1      2942 1.33891E-04-5.62543E-05-3.33325E-05-6.69662E-06 1.78398E-18-3.90165E-18
 -1      2943 1.27475E-04-5.34748E-05-3.15187E-05-1.13474E-05 2.37717E-18-3.11017E-18
 -1      2944 1.13250E-04-3.10589E-05-3.54218E-05 8.79640E-06 1.81335E-19-1.43557E-18
 -1      2945 1.12861E-04-3.21973E-05-3.44846E-05 4.18166E-06-8.19653E-19-1.34234E-18
 -1      2946 1.15246E-04-3.09845E-05-3.60420E-05 1.22426E-05 8.49878E-19-7.82496E-19
 -1      2947 5.85233E-05-2.66526E-05-1.31642E-05-3.39466E-05 2.72872E-18 4.70686E-18
 -1      2948 7.70590E-05-3.71890E-05-1.70198E-05-3.87043E-05 2.67377E-18 3.87221E-18
 -1      2949 5.93282E-05-2.24948E-05-1.51782E-05-2.85282E-05 2.28916E-18 4.41834E-18
 -1      2950 1.27474E-04-3.78621E-05-3.84619E-05-9.92592E-07 1.45764E-18 5.43266E-19
 -1      2951 1.31896E-04-3.33015E-05-4.27059E-05 6.72378E-06 3.51143E-18 6.49674E-19
 -1      2952 1.11292E-04-3.42246E-05-3.32451E-05-3.01050E-06-1.49156E-18-1.37340E-18
 -1      2953 1.05923E-04-3.30784E-05-3.11711E-05-1.03114E-05-2.56196E-18-1.71022E-18
 -1      2954 1.16922E-04-3.53970E-05-3.48313E-05 3.08621E-06-6.67353E-19-3.59605E-19
 -1      2955 1.34980E-04-4.91159E-05-3.72212E-05 8.02506E-06 4.27957E-19-5.42419E-18
 -1      2956 1.27795E-04-5.32058E-05-3.19042E-05 1.76245E-05-1.88825E-18-4.51495E-18
 -1      2957 1.31883E-04-2.69833E-05-4.51952E-05 1.11270E-05 4.83836E-18 4.15364E-19
 -1      2958 1.29783E-04-2.14956E-05-4.70806E-05 1.28023E-05 5.82378E-18 2.98579E-20
 -1      2959 1.78835E-05 6.97584E-06-1.01496E-05-6.21738E-06-1.67949E-18-9.79932E-18
 -1      2960 8.09412E-05-2.67399E-05-2.31117E-05-3.29463E-05-3.48745E-18-4.31815E-18
 -1      2961 1.00329E-04-3.55601E-05-2.77805E-05-2.72501E-05-2.56238E-18-2.62648E-18
 -1      2962 1.12107E-04-3.88651E-05-3.13413E-05-1.83977E-05-1.49713E-18-1.10257E-18
 -1      2963 1.23343E-04-4.13684E-05-3.54983E-05-1.03124E-05 1.45425E-19-2.70098E-19
 -1      2964 1.24482E-04-3.86905E-05-3.69962E-05-1.06989E-06 4.82590E-19 4.60362E-19
 -1      2965 1.49643E-04-5.22299E-05-4.18872E-05-1.64341E-05-3.10573E-18 4.50240E-18
 -1      2966 1.48003E-04-3.53179E-05-4.84375E-05 1.03942E-05-6.19403E-18-3.87560E-18
 -1      2967 1.44836E-04-5.45511E-05-3.89965E-05-8.33759E-06-2.11660E-18 3.47072E-18
 -1      2968 1.35140E-04-5.56902E-05-3.39193E-05 1.48857E-06-9.33854E-20 1.95855E-18
 -1      2969 1.28170E-04-5.15795E-05-3.26959E-05 2.28887E-06 6.59997E-19 1.74124E-18
 -1      2970 1.42112E-04-5.38793E-05-3.79962E-05-1.06184E-05-1.52061E-18 4.22156E-18
 -1      2971 1.26935E-04-1.45784E-05-4.88096E-05-5.38413E-06 6.11727E-18-4.31336E-18
 -1      2972 1.31157E-04-2.35086E-05-4.64644E-05-7.01290E-06 4.92581E-18-5.03032E-18
 -1      2973 9.60586E-05-4.68766E-05-2.06675E-05-3.62480E-05 2.65439E-18 2.03328E-18
 -1      2974 1.11047E-04-5.39126E-05-2.46676E-05-3.29017E-05 2.33008E-18 4.06470E-19
 -1      2975 3.18259E-05-9.29971E-06-9.25356E-06 1.01858E-05-1.41068E-18 5.11079E-18
 -1      2976 3.11433E-05-9.41624E-06-8.80089E-06-5.14972E-06-1.41084E-19 5.26727E-18
 -1      2977 4.17979E-05-1.09701E-05-1.25316E-05-9.89768E-06 3.48157E-19 4.44862E-18
 -1      2978 4.27549E-05-6.35689E-06-1.52691E-05 1.66926E-05 6.84509E-19-7.36855E-18
 -1      2979 5.94562E-05-1.51115E-05-1.85564E-05 2.02038E-05 1.22417E-18-5.80620E-18
 -1      2980 1.20085E-04-8.77931E-06-4.81392E-05 5.36519E-06 6.86181E-18-2.35192E-18
 -1      2981 8.93718E-05-4.07602E-05-2.04173E-05-3.42888E-05 2.97054E-18 2.47588E-18
 -1      2982 9.23168E-05-4.21309E-05-2.10979E-05 3.60737E-05-4.71691E-18 6.08620E-19
 -1      2983 1.32738E-04-4.55464E-05-3.75349E-05 1.57962E-06 4.62149E-19-5.49301E-18
 -1      2984 1.47606E-04-4.64396E-05-4.39061E-05 1.08312E-05-3.29988E-18-4.93587E-18
 -1      2985 1.93013E-05 8.42463E-06-1.16350E-05-2.84142E-06-1.38849E-18-9.19433E-18
 -1      2986 2.72359E-05 4.98997E-06-1.29131E-05 8.05855E-06-1.11173E-19-8.79178E-18
 -1      2987 6.25491E-05-2.51792E-05-1.54416E-05 3.40970E-05-3.81228E-18 3.34758E-18
 -1      2988 1.19467E-04-4.37354E-05-3.22456E-05 2.56740E-06 9.29936E-19 1.15125E-18
 -1      2989 1.27065E-04-4.95230E-05-3.32974E-05-1.77990E-07 4.67297E-19 2.30847E-18
 -1      2990 4.23999E-05-1.18390E-05-1.24272E-05 1.58076E-05-2.04823E-18 4.37736E-18
 -1      2991 1.28195E-04-3.05574E-05-4.19443E-05 1.13094E-05 3.07759E-18 5.85670E-19
 -1      2992 1.18085E-04-5.06135E-05-2.90124E-05-1.86718E-05 2.50597E-18-2.47985E-18
 -1      2993 9.52369E-05-2.85730E-05-2.85703E-05 4.04366E-09-6.25364E-19-3.73460E-18
 -1      2994 1.01647E-04-2.40388E-05-3.32938E-05-2.24129E-06 2.48554E-18-2.20991E-18
 -1      2995 3.74229E-05-1.35073E-06-1.46903E-05-3.11778E-05-4.04892E-18-8.26016E-18
 -1      2996 4.98658E-05-9.25672E-06-1.72331E-05-3.42485E-05-4.13956E-18-6.95880E-18
 -1      2997 2.90617E-05 3.86066E-06-1.37469E-05-2.55627E-05-3.60810E-18-8.47711E-18
 -1      2998 6.84049E-05-1.82959E-05-2.09764E-05-3.38186E-05-4.32029E-18-5.62170E-18
 -1      2999 7.82910E-05-2.48638E-05-2.25459E-05 1.79759E-05 1.53890E-18-3.66347E-18
 -1      3000 1.05946E-04-3.81975E-05-2.88747E-05 8.87958E-06 1.66058E-18-4.72724E-19
 -1      3001 1.95142E-05 9.29137E-06-1.16844E-05-1.68498E-05-2.50558E-18-9.48169E-18
 -1      3002 9.59044E-05-3.58632E-05-2.55122E-05 1.74276E-05 1.34477E-18-2.29387E-18
 -1      3003 1.28606E-04-2.87712E-05-4.30632E-05-7.38316E-06 3.60137E-18-5.15499E-18
 -1      3004 1.22653E-04-5.41445E-05-2.92991E-05 2.18002E-05-2.86366E-18-3.66882E-18
 -1      3005 1.14712E-04-5.12172E-05-2.71406E-05 2.46449E-05-3.54618E-18-2.60059E-18
 -1      3006 1.25649E-04-5.20966E-05-3.16142E-05 1.28561E-05-2.19940E-18-4.35984E-18
 -1      3007 9.52392E-05-2.85752E-05-2.85703E-05-3.50357E-09-5.77760E-19-8.27151E-19
 -1      3008 9.52387E-05-2.85747E-05-2.85703E-05-3.26834E-09-3.65108E-19-1.07333E-18
 -1      3009 9.52383E-05-2.85743E-05-2.85703E-05-3.45312E-09-3.13694E-19-5.27741E-19
 -1      3010 1.08577E-04-2.67080E-05-3.50933E-05 1.70074E-05 2.77175E-18-8.34602E-19
 -1      3011 1.09346E-04-2.74996E-05-3.50363E-05 1.63900E-05 2.60468E-18-8.47844E-19
 -1      3012 9.52376E-05-2.85735E-05-2.85703E-05-3.55217E-09-1.87292E-18-2.10254E-18
 -1      3013 1.20945E-04-1.40389E-05-4.61776E-05-4.55686E-06 5.78079E-18-4.07809E-18
 -1      3014 1.19246E-04-5.46286E-05-2.75351E-05-2.41008E-05 2.68689E-18-1.56601E-18
 -1      3015 1.40949E-04-5.74312E-05-3.58980E-05-3.22593E-06 1.03312E-18-4.00996E-18
 -1      3016 1.09349E-04-3.76555E-05-3.07695E-05-1.73830E-05-2.25141E-18-1.27993E-18
 -1      3017 1.37109E-04-5.34629E-05-3.57480E-05-6.66933E-06-1.66363E-20 3.57374E-18
 -1      3018 1.45170E-04-5.23727E-05-3.99289E-05 2.37624E-06-1.37701E-18-4.23675E-18
 -1      3019 1.07376E-04-3.46027E-05-3.12427E-05-1.26872E-05-2.45618E-18-1.37671E-18
 -1      3020 1.22850E-04-2.03520E-05-4.41486E-05 1.48216E-05 4.92274E-18-2.82168E-20
 -1      3021 1.26148E-04-1.72958E-05-4.69843E-05 1.36418E-05 6.08498E-18-3.30660E-19
 -1      3022 1.19651E-04-1.30912E-05-4.62246E-05 1.32294E-05 6.12130E-18-8.88511E-19
 -1      3023 1.16963E-04-1.06751E-05-4.59886E-05 9.54034E-06 6.20801E-18-1.70717E-18
 -1      3024 1.14533E-04-9.36047E-06-4.53740E-05 3.55290E-06 6.28753E-18-2.75348E-18
 -1      3025 1.11236E-04-2.71940E-05-3.60882E-05 1.68857E-05 2.52586E-18-1.03237E-18
 -1      3026 1.13372E-04-2.83981E-05-3.64402E-05 1.61392E-05 1.98611E-18-8.99895E-19
 -1      3027 1.07506E-04-3.25572E-05-3.21790E-05-8.38450E-06 1.01531E-18-2.95834E-18
 -1      3028 1.06632E-04-3.03226E-05-3.26656E-05-8.36975E-06 1.26889E-18-3.03335E-18
 -1      3029 7.09590E-05-2.86011E-05-1.81757E-05 3.44609E-05-4.10583E-18 1.89767E-18
 -1      3030 5.98272E-05-2.07297E-05-1.63376E-05 2.90524E-05-3.27196E-18 2.90204E-18
 -1      3031 5.05087E-05-1.40558E-05-1.54150E-05 2.11671E-05-2.47111E-18 3.43991E-18
 -1      3032 4.44857E-05-9.51427E-06-1.46668E-05 8.00856E-06-1.81052E-18 3.53319E-18
 -1      3033 9.18652E-05-2.89884E-05-2.69214E-05-1.94645E-05 1.39217E-18 6.62568E-19
 -1      3034 8.97165E-05-2.62076E-05-2.72233E-05-1.76537E-05 8.25929E-19 6.55776E-19
 -1      3035 9.02093E-05-2.50425E-05-2.78753E-05-1.56157E-05 5.67859E-19 4.35813E-19
 -1      3036 8.96019E-05-2.39238E-05-2.81808E-05-1.41967E-05 4.93737E-19 6.37019E-19
 -1      3037 8.48293E-05-2.30919E-05-2.64048E-05-1.66624E-05 6.21358E-19 9.99820E-19
 -1      3038 9.04847E-05-2.36477E-05-2.86080E-05-1.26188E-05-4.63180E-20 4.08138E-19
 -1      3039 9.04450E-05-2.33549E-05-2.87850E-05-1.14260E-05 1.15323E-19 9.73046E-20
 -1      3040 8.61890E-05-2.17754E-05-2.75827E-05-1.28777E-05 1.34150E-19 5.65447E-19
 -1      3041 9.13769E-05-2.35720E-05-2.90397E-05-1.02512E-05 5.60960E-19 2.89389E-19
 -1      3042 9.15584E-05-2.36854E-05-2.91157E-05-9.23404E-06 7.63366E-19 4.91226E-19
 -1      3043 8.80906E-05-2.19223E-05-2.83301E-05-1.02366E-05 4.80800E-19 5.55155E-19
 -1      3044 9.23750E-05-2.40967E-05-2.92502E-05-8.31210E-06 3.90692E-19 7.72552E-20
 -1      3045 9.25890E-05-2.43718E-05-2.92580E-05-7.44296E-06-1.81236E-19 4.76167E-21
 -1      3046 8.98569E-05-2.26776E-05-2.87657E-05-8.26014E-06 2.94872E-19-5.16938E-20
 -1      3047 9.32436E-05-2.48233E-05-2.93142E-05-6.69189E-06-3.84767E-19-1.93280E-19
 -1      3048 9.34188E-05-2.51344E-05-2.92822E-05-5.95443E-06-4.74954E-19 2.19876E-19
 -1      3049 9.13231E-05-2.36308E-05-2.89904E-05-6.68493E-06-4.07482E-19-1.17231E-18
 -1      3050 9.39153E-05-2.55527E-05-2.92909E-05-5.33252E-06-7.05045E-19-4.17562E-19
 -1      3051 9.40356E-05-2.58424E-05-2.92393E-05-4.71486E-06-6.26936E-19-4.66279E-19
 -1      3052 9.24631E-05-2.45724E-05-2.90805E-05-5.38303E-06-6.72928E-19-1.46052E-18
 -1      3053 9.43985E-05-2.61997E-05-2.92215E-05-4.19926E-06-1.05643E-18-5.38302E-19
 -1      3054 9.44703E-05-2.64470E-05-2.91633E-05-3.68972E-06-1.46524E-18-6.08635E-19
 -1      3055 9.33117E-05-2.54094E-05-2.90900E-05-4.29326E-06-8.14453E-19-1.68132E-18
 -1      3056 9.47284E-05-2.67386E-05-2.91326E-05-3.26537E-06-1.16974E-18 1.89103E-19
 -1      3057 9.47644E-05-2.69402E-05-2.90756E-05-2.85134E-06-2.14596E-19 3.78616E-20
 -1      3058 9.39245E-05-2.61120E-05-2.90550E-05-3.38323E-06-1.00452E-18-9.16375E-19
 -1      3059 9.49443E-05-2.71716E-05-2.90403E-05-2.50600E-06 1.91208E-19 2.83775E-20
 -1      3060 9.49569E-05-2.73316E-05-2.89883E-05-2.17435E-06 4.02026E-19-8.48083E-19
 -1      3061 9.43568E-05-2.66819E-05-2.89986E-05-2.63091E-06-2.64283E-19-2.11686E-19
 -1      3062 9.50802E-05-2.75121E-05-2.89533E-05-1.89683E-06-1.88836E-19-1.53002E-18
 -1      3063 9.50790E-05-2.76371E-05-2.89082E-05-1.63468E-06-5.13732E-19-2.37251E-18
 -1      3064 9.46565E-05-2.71342E-05-2.89350E-05-2.01706E-06-6.86116E-19-8.33070E-19
 -1      3065 9.51624E-05-2.77763E-05-2.88760E-05-1.41458E-06-4.45412E-19-2.24816E-18
 -1      3066 9.51542E-05-2.78731E-05-2.88381E-05-1.21002E-06-1.14872E-19-2.43850E-18
 -1      3067 9.48614E-05-2.74882E-05-2.88724E-05-1.52317E-06-6.68071E-19-2.41157E-18
 -1      3068 9.52100E-05-2.79796E-05-2.88099E-05-1.03782E-06-8.75643E-20-2.32409E-18
 -1      3069 9.51991E-05-2.80541E-05-2.87789E-05-8.80215E-07-1.96748E-19-1.68929E-18
 -1      3070 9.49998E-05-2.77624E-05-2.88149E-05-1.13148E-06-1.19314E-19-1.91049E-18
 -1      3071 9.52359E-05-2.81351E-05-2.87549E-05-7.47366E-07-5.09748E-19-9.61296E-19
 -1      3072 9.52247E-05-2.81921E-05-2.87301E-05-6.27528E-07-2.09869E-19-1.28737E-18
 -1      3073 9.50922E-05-2.79733E-05-2.87647E-05-8.25328E-07 3.39443E-19-1.04766E-18
 -1      3074 9.52487E-05-2.82533E-05-2.87103E-05-5.26521E-07-4.74950E-21-1.10122E-18
 -1      3075 9.52386E-05-2.82968E-05-2.86907E-05-4.36664E-07 5.36497E-19-9.15864E-19
 -1      3076 9.51531E-05-2.81343E-05-2.87221E-05-5.89565E-07 1.54880E-20-9.32883E-19
 -1      3077 9.52538E-05-2.83426E-05-2.86747E-05-3.61054E-07 1.04698E-18-9.49587E-19
 -1      3078 9.52454E-05-2.83755E-05-2.86595E-05-2.94701E-07 5.81252E-19-7.57013E-19
 -1      3079 9.51926E-05-2.82564E-05-2.86869E-05-4.10776E-07 3.86227E-19-1.28839E-18
 -1      3080 9.52548E-05-2.84096E-05-2.86467E-05-2.39063E-07-2.07078E-19-8.93122E-19
 -1      3081 9.52481E-05-2.84343E-05-2.86351E-05-1.90911E-07-3.93370E-19-1.54701E-18
 -1      3082 9.52178E-05-2.83483E-05-2.86584E-05-2.77395E-07 6.70208E-20-8.18672E-19
 -1      3083 9.52537E-05-2.84594E-05-2.86252E-05-1.50756E-07-3.96379E-20-1.73339E-18
 -1      3084 9.52486E-05-2.84778E-05-2.86165E-05-1.16517E-07 7.15171E-19-2.04122E-18
 -1      3085 9.52333E-05-2.84167E-05-2.86358E-05-1.79669E-07-2.18244E-19-2.00986E-18
 -1      3086 9.52516E-05-2.84961E-05-2.86088E-05-8.81917E-08 8.50357E-19-2.09360E-18
 -1      3087 9.52478E-05-2.85096E-05-2.86024E-05-6.44400E-08 8.61143E-19-2.11429E-18
 -1      3088 9.52423E-05-2.84671E-05-2.86181E-05-1.09521E-07 4.26030E-19-2.53310E-18
 -1      3089 9.52493E-05-2.85226E-05-2.85966E-05-4.50118E-08 7.05664E-19-2.59468E-18
 -1      3090 9.52466E-05-2.85324E-05-2.85920E-05-2.90469E-08-2.61335E-19-2.66787E-18
 -1      3091 9.52472E-05-2.85037E-05-2.86045E-05-6.03781E-08 5.62477E-19-2.58290E-18
 -1      3092 9.52470E-05-2.85416E-05-2.85877E-05-1.61966E-08-2.62297E-19-1.85854E-18
 -1      3093 9.52452E-05-2.85486E-05-2.85844E-05-5.91378E-09-4.65738E-19-1.92571E-18
 -1      3094 9.52493E-05-2.85298E-05-2.85942E-05-2.69730E-08 8.99305E-19-3.18001E-18
 -1      3095 9.52450E-05-2.85548E-05-2.85813E-05 2.16611E-09-9.71769E-19-1.44693E-18
 -1      3096 9.52438E-05-2.85596E-05-2.85790E-05 8.38544E-09-1.29860E-18-1.10611E-18
 -1      3097 9.52498E-05-2.85481E-05-2.85865E-05-5.15016E-09-2.61033E-19-2.17264E-18
 -1      3098 9.52432E-05-2.85638E-05-2.85768E-05 1.30828E-08-1.32574E-18-5.02473E-19
 -1      3099 9.52425E-05-2.85670E-05-2.85753E-05 1.64662E-08-1.10442E-18-7.23793E-19
 -1      3100 9.52492E-05-2.85605E-05-2.85810E-05 8.32028E-09-6.67996E-19-7.22854E-19
 -1      3101 9.52418E-05-2.85696E-05-2.85737E-05 1.88301E-08-1.00839E-18-2.48935E-19
 -1      3102 9.52414E-05-2.85717E-05-2.85727E-05 2.02941E-08-7.03702E-19 1.47258E-19
 -1      3103 9.52481E-05-2.85686E-05-2.85770E-05 1.59097E-08-7.72595E-19-1.02650E-18
 -1      3104 9.52407E-05-2.85732E-05-2.85717E-05 2.11041E-08 7.25510E-20 9.21617E-19
 -1      3105 9.52405E-05-2.85745E-05-2.85711E-05 2.13215E-08 1.71343E-18 6.00892E-19
 -1      3106 9.52467E-05-2.85737E-05-2.85742E-05 1.94785E-08 3.96337E-19 1.34992E-18
 -1      3107 9.52398E-05-2.85753E-05-2.85705E-05 2.11455E-08 1.90222E-18 4.77318E-19
 -1      3108 9.52397E-05-2.85760E-05-2.85702E-05 2.06001E-08 1.67917E-18 2.22233E-19
 -1      3109 9.52453E-05-2.85765E-05-2.85724E-05 2.04018E-08 1.28134E-18 2.16357E-18
 -1      3110 9.52390E-05-2.85762E-05-2.85698E-05 1.98430E-08 9.84851E-19-4.39314E-19
 -1      3111 9.52391E-05-2.85765E-05-2.85697E-05 1.88744E-08 2.34082E-19-5.05659E-19
 -1      3112 9.52439E-05-2.85779E-05-2.85712E-05 1.96761E-08 1.05537E-18 8.88609E-19
 -1      3113 9.52385E-05-2.85765E-05-2.85694E-05 1.78170E-08-1.04573E-19-6.94279E-19
 -1      3114 9.52386E-05-2.85765E-05-2.85694E-05 1.66562E-08 4.30521E-19-8.40641E-19
 -1      3115 9.52426E-05-2.85783E-05-2.85705E-05 1.80064E-08 1.27932E-19 8.71722E-19
 -1      3116 9.52381E-05-2.85763E-05-2.85693E-05 1.54862E-08 6.34167E-19-7.51263E-19
 -1      3117 9.52382E-05-2.85762E-05-2.85694E-05 1.42838E-08 7.51899E-19 9.52825E-21
 -1      3118 9.52415E-05-2.85781E-05-2.85701E-05 1.58768E-08 4.78533E-19-4.08059E-19
 -1      3119 9.52378E-05-2.85759E-05-2.85694E-05 1.31206E-08 1.32311E-18 2.25024E-20
 -1      3120 9.52379E-05-2.85757E-05-2.85695E-05 1.19687E-08 1.70956E-18-1.17089E-19
 -1      3121 9.52406E-05-2.85775E-05-2.85699E-05 1.36069E-08 8.70039E-19-9.38441E-19
 -1      3122 9.52376E-05-2.85753E-05-2.85696E-05 1.08828E-08 8.70658E-19-2.77012E-19
 -1      3123 9.52377E-05-2.85751E-05-2.85697E-05 9.83181E-09 8.57688E-20-3.32777E-19
 -1      3124 9.52398E-05-2.85768E-05-2.85699E-05 1.13961E-08 9.82306E-19 6.42107E-19
 -1      3125 9.52374E-05-2.85747E-05-2.85697E-05 8.85901E-09-1.58892E-18-4.64862E-19
 -1      3126 9.52375E-05-2.85745E-05-2.85699E-05 7.92978E-09-2.21070E-18-1.92309E-19
 -1      3127 9.52391E-05-2.85760E-05-2.85699E-05 9.35828E-09-9.33307E-19 7.87563E-19
 -1      3128 9.52373E-05-2.85742E-05-2.85699E-05 7.08270E-09-1.22256E-18-1.11308E-18
 -1      3129 9.52375E-05-2.85740E-05-2.85700E-05 6.27266E-09-9.96546E-19-8.30425E-19
 -1      3130 9.52386E-05-2.85752E-05-2.85700E-05 7.54979E-09-2.27430E-18-2.00793E-19
 -1      3131 9.52373E-05-2.85738E-05-2.85701E-05 5.54719E-09-1.45224E-18-1.44173E-18
 -1      3132 9.52374E-05-2.85736E-05-2.85702E-05 4.85503E-09-8.81904E-19-1.31566E-18
 -1      3133 9.52382E-05-2.85746E-05-2.85701E-05 5.98082E-09-1.60378E-18 1.24427E-18
 -1      3134 1.08115E-04-3.56107E-05-3.10928E-05-6.29555E-06 4.73577E-19-2.64540E-18
 -1      3135 1.07834E-04-3.43364E-05-3.14984E-05-7.30021E-06 7.72558E-19-2.78880E-18
 -1      3136 1.10028E-04-3.45273E-05-3.23236E-05-7.78487E-06 8.33156E-19-3.46421E-18
 -1      3137 1.02981E-04-3.41009E-05-2.94889E-05 1.62575E-06-1.80451E-19-9.89866E-19
 -1      3138 1.03828E-04-3.48370E-05-2.95915E-05 6.93074E-07 4.63491E-19-1.47541E-18
 -1      3139 1.00914E-04-3.24084E-05-2.93331E-05 2.91658E-06-5.11926E-19-7.03445E-19
 -1      3140 1.01726E-04-3.31827E-05-2.93915E-05 2.32699E-06-2.46410E-19-7.69201E-19
 -1      3141 1.02335E-04-3.41177E-05-2.92636E-05 2.96794E-06-2.04720E-19-2.09397E-19
 -1      3142 9.92243E-05-3.09288E-05-2.92499E-05 3.53983E-06-9.48344E-19-6.05355E-19
 -1      3143 9.99141E-05-3.15956E-05-2.92879E-05 3.24403E-06-8.44144E-19-4.97331E-19
 -1      3144 1.00079E-04-3.21788E-05-2.91249E-05 3.88525E-06-5.64063E-19 7.86012E-20
 -1      3145 9.79480E-05-2.97933E-05-2.91962E-05 3.68117E-06-3.66159E-19-7.46749E-19
 -1      3146 9.84937E-05-3.03016E-05-2.92283E-05 3.60403E-06-5.25219E-19-8.79063E-19
 -1      3147 9.83590E-05-3.05805E-05-2.90674E-05 4.18292E-06-4.10672E-19-7.02390E-19
 -1      3148 9.70352E-05-2.90039E-05-2.91487E-05 3.51053E-06-2.89987E-19-8.88369E-19
 -1      3149 9.74479E-05-2.93569E-05-2.91816E-05 3.57943E-06-2.90154E-19-7.15420E-19
 -1      3150 9.71417E-05-2.94095E-05-2.90421E-05 4.07521E-06-3.01528E-19-7.61700E-19
 -1      3151 9.64076E-05-2.85049E-05-2.90974E-05 3.16081E-06-7.84322E-19-6.11479E-19
 -1      3152 9.67115E-05-2.87291E-05-2.91329E-05 3.31611E-06-3.27918E-19-6.57043E-19
 -1      3153 9.63296E-05-2.86328E-05-2.90224E-05 3.72975E-06-5.60467E-19-5.11604E-19
 -1      3154 9.59887E-05-2.82246E-05-2.90405E-05 2.72761E-06-7.46441E-19-8.77488E-19
 -1      3155 9.62090E-05-2.83523E-05-2.90780E-05 2.92481E-06-9.34779E-19-9.26496E-19
 -1      3156 9.58162E-05-2.81711E-05-2.89969E-05 3.26564E-06-6.43771E-19-1.13043E-18
 -1      3157 9.57154E-05-2.80962E-05-2.89799E-05 2.27525E-06-5.06931E-19-9.49690E-19
 -1      3158 9.58740E-05-2.81570E-05-2.90177E-05 2.48358E-06-4.59493E-19-5.92386E-19
 -1      3159 9.55092E-05-2.79384E-05-2.89628E-05 2.76265E-06-5.91213E-19-8.22585E-19
 -1      3160 9.55401E-05-2.80655E-05-2.89187E-05 1.84391E-06-7.20325E-19-1.20774E-18
 -1      3161 9.56540E-05-2.80831E-05-2.89550E-05 2.04377E-06-5.64790E-19-1.43261E-18
 -1      3162 9.53373E-05-2.78593E-05-2.89216E-05 2.27122E-06-3.50393E-19-7.24869E-19
 -1      3163 9.54290E-05-2.80922E-05-2.88600E-05 1.45606E-06-8.26969E-19-1.37548E-18
 -1      3164 9.55109E-05-2.80843E-05-2.88934E-05 1.63629E-06-7.33193E-19-1.29740E-18
 -1      3165 9.52496E-05-2.78748E-05-2.88764E-05 1.82070E-06-6.71555E-19-7.95288E-19
 -1      3166 9.53591E-05-2.81485E-05-2.88060E-05 1.12191E-06-5.26220E-19-3.97287E-19
 -1      3167 9.54180E-05-2.81271E-05-2.88356E-05 1.27731E-06-1.04632E-18-9.61544E-19
 -1      3168 9.52113E-05-2.79425E-05-2.88304E-05 1.42580E-06-1.01229E-18-1.22124E-18
 -1      3169 9.53152E-05-2.82163E-05-2.87580E-05 8.43623E-07-9.30215E-19 2.62910E-19
 -1      3170 9.53576E-05-2.81893E-05-2.87835E-05 9.72961E-07-2.22018E-19-1.66849E-19
 -1      3171 9.52002E-05-2.80338E-05-2.87863E-05 1.09145E-06-7.18944E-19-3.47657E-21
 -1      3172 9.52876E-05-2.82845E-05-2.87167E-05 6.18407E-07-3.36379E-19 1.21174E-19
 -1      3173 9.53181E-05-2.82568E-05-2.87381E-05 7.22894E-07-6.49289E-19 7.73208E-20
 -1      3174 9.52027E-05-2.81304E-05-2.87457E-05 8.16434E-07-5.95427E-19 2.55350E-19
 -1      3175 9.52701E-05-2.83471E-05-2.86822E-05 4.40747E-07-4.78496E-19 7.99322E-19
 -1      3176 9.52919E-05-2.83213E-05-2.86996E-05 5.22948E-07-2.75038E-19 8.39493E-20
 -1      3177 9.52107E-05-2.82218E-05-2.87099E-05 5.95882E-07-2.14615E-19 1.10161E-19
 -1      3178 9.52588E-05-2.84011E-05-2.86540E-05 3.03930E-07-4.17961E-19-1.99099E-19
 -1      3179 9.52743E-05-2.83787E-05-2.86679E-05 3.67007E-07-1.44811E-19-7.32755E-20
 -1      3180 9.52198E-05-2.83025E-05-2.86792E-05 4.23084E-07 2.32879E-19-5.39722E-19
 -1      3181 9.52514E-05-2.84458E-05-2.86315E-05 2.01038E-07-6.13141E-20-1.04334E-18
 -1      3182 9.52622E-05-2.84271E-05-2.86424E-05 2.48261E-07-5.42975E-19-2.72530E-19
 -1      3183 9.52280E-05-2.83705E-05-2.86535E-05 2.90708E-07-1.25281E-19-9.35137E-19
 -1      3184 9.52465E-05-2.84816E-05-2.86139E-05 1.25546E-07 5.77820E-19-9.56535E-19
 -1      3185 9.52539E-05-2.84665E-05-2.86222E-05 1.59999E-07 1.73392E-19-1.01789E-18
 -1      3186 9.52345E-05-2.84256E-05-2.86326E-05 1.91569E-07 1.59635E-19-2.03884E-18
 -1      3187 9.52432E-05-2.85093E-05-2.86005E-05 7.16367E-08 5.31872E-19-6.14382E-19
 -1      3188 9.52481E-05-2.84975E-05-2.86067E-05 9.60664E-08 8.59691E-19-7.22205E-19
 -1      3189 9.52390E-05-2.84690E-05-2.86159E-05 1.19081E-07 7.32151E-19-1.48657E-18
 -1      3190 9.52409E-05-2.85303E-05-2.85905E-05 3.43371E-08 2.61106E-19 1.12286E-19
 -1      3191 9.52441E-05-2.85213E-05-2.85949E-05 5.10849E-08 3.03450E-19 3.73011E-21
 -1      3192 9.52420E-05-2.85022E-05-2.86029E-05 6.74736E-08 1.00636E-19-5.73272E-19
 -1      3193 9.52393E-05-2.85457E-05-2.85831E-05 9.52743E-09 4.29291E-19 5.41523E-19
 -1      3194 9.52412E-05-2.85390E-05-2.85863E-05 2.05270E-08-6.12902E-21 4.13309E-19
 -1      3195 9.52435E-05-2.85268E-05-2.85930E-05 3.18694E-08 1.42204E-19-6.92530E-20
 -1      3196 9.52382E-05-2.85566E-05-2.85779E-05-6.11203E-09-4.98784E-19 2.59511E-18
 -1      3197 9.52393E-05-2.85518E-05-2.85801E-05 6.91932E-10 4.33941E-19 2.35013E-18
 -1      3198 9.52441E-05-2.85447E-05-2.85856E-05 8.26054E-09-1.01815E-18 1.29290E-18
 -1      3199 9.52375E-05-2.85642E-05-2.85743E-05-1.51930E-08-1.90115E-19 1.97876E-18
 -1      3200 9.52380E-05-2.85608E-05-2.85757E-05-1.13681E-08 2.78329E-19 2.09043E-18
 -1      3201 9.52441E-05-2.85573E-05-2.85802E-05-6.56485E-09 5.70737E-20 2.55513E-18
 -1      3202 9.52370E-05-2.85692E-05-2.85719E-05-1.97242E-08-1.85431E-19 1.03963E-18
 -1      3203 9.52371E-05-2.85670E-05-2.85728E-05-1.79470E-08-4.30142E-19 1.38175E-18
 -1      3204 9.52436E-05-2.85657E-05-2.85763E-05-1.51232E-08 5.49534E-19 1.75442E-18
 -1      3205 9.52368E-05-2.85724E-05-2.85704E-05-2.12164E-08-5.42865E-19 2.17194E-18
 -1      3206 9.52366E-05-2.85709E-05-2.85709E-05-2.07902E-08-6.37161E-19 1.71810E-18
 -1      3207 9.52429E-05-2.85712E-05-2.85736E-05-1.93442E-08-9.41881E-19 1.63662E-18
 -1      3208 9.52366E-05-2.85742E-05-2.85696E-05-2.07798E-08 1.25718E-19 1.67913E-18
 -1      3209 9.52363E-05-2.85733E-05-2.85698E-05-2.11956E-08 4.19854E-19 1.97803E-18
 -1      3210 9.52420E-05-2.85745E-05-2.85718E-05-2.06753E-08-4.32636E-19 9.25039E-19
 -1      3211 9.52365E-05-2.85751E-05-2.85692E-05-1.92098E-08-9.58127E-19 5.49761E-19
 -1      3212 9.52362E-05-2.85746E-05-2.85692E-05-2.01058E-08 9.28499E-20 1.76630E-18
 -1      3213 9.52412E-05-2.85763E-05-2.85707E-05-2.01784E-08 2.25260E-19 1.26650E-18
 -1      3214 9.52365E-05-2.85754E-05-2.85691E-05-1.70592E-08-7.49118E-19-1.59696E-19
 -1      3215 9.52362E-05-2.85752E-05-2.85690E-05-1.81863E-08-1.25924E-18-6.08868E-20
 -1      3216 9.52405E-05-2.85770E-05-2.85701E-05-1.86125E-08-4.53007E-19 6.41722E-19
 -1      3217 9.52366E-05-2.85753E-05-2.85691E-05-1.46979E-08-1.09826E-18-1.20184E-19
 -1      3218 9.52362E-05-2.85752E-05-2.85690E-05-1.58916E-08-6.57683E-19-2.82621E-19
 -1      3219 9.52398E-05-2.85770E-05-2.85698E-05-1.65043E-08-1.04003E-18 9.38533E-19
 -1      3220 9.52366E-05-2.85749E-05-2.85693E-05-1.23604E-08-1.57378E-19 8.75200E-19
 -1      3221 9.52363E-05-2.85750E-05-2.85691E-05-1.35185E-08-6.44671E-19 4.36628E-19
 -1      3222 9.52392E-05-2.85767E-05-2.85697E-05-1.42052E-08-1.17036E-18 1.22334E-18
 -1      3223 9.52367E-05-2.85745E-05-2.85695E-05-1.01834E-08 6.18604E-19 3.73465E-19
 -1      3224 9.52364E-05-2.85746E-05-2.85693E-05-1.12482E-08 6.19673E-19 2.68184E-19
 -1      3225 9.52387E-05-2.85761E-05-2.85697E-05-1.19370E-08 5.56119E-19 4.49714E-19
 -1      3226 9.52368E-05-2.85741E-05-2.85697E-05-8.23625E-09 3.07925E-19 9.55873E-20
 -1      3227 9.52365E-05-2.85742E-05-2.85696E-05-9.17881E-09 5.86136E-19 2.30287E-19
 -1      3228 9.52383E-05-2.85755E-05-2.85698E-05-9.82764E-09 6.72780E-19-2.23337E-20
 -1      3229 9.52369E-05-2.85737E-05-2.85699E-05-6.56270E-09 5.38771E-19 2.70059E-19
 -1      3230 9.52367E-05-2.85738E-05-2.85698E-05-7.34213E-09 3.90311E-19-2.54460E-20
 -1      3231 9.52380E-05-2.85749E-05-2.85699E-05-7.93248E-09-1.40019E-19-6.07946E-19
 -1      3232 9.52379E-05-2.85739E-05-2.85703E-05-4.02156E-09-2.87923E-19-4.65044E-19
 -1      3233 9.52414E-05-2.85772E-05-2.85704E-05 3.83239E-10-4.41970E-20 1.32256E-18
 -1      3234 9.52414E-05-2.85772E-05-2.85704E-05-3.59955E-10 8.54146E-21 1.42554E-18
 -1      3235 1.03399E-04-2.32041E-05-3.44343E-05-3.78333E-06 2.50030E-18-2.32510E-18
 -1      3236 1.02962E-04-2.17998E-05-3.47648E-05-1.01123E-06 2.77386E-18-2.29932E-18
 -1      3237 9.52373E-05-2.85734E-05-2.85703E-05 4.17555E-09-9.16421E-19-1.67210E-18
 -1      3238 9.52393E-05-2.85753E-05-2.85703E-05 4.13722E-09-2.35392E-18 4.85895E-19
 -1      3239 9.52398E-05-2.85758E-05-2.85703E-05 3.77127E-09-2.13350E-18-3.36268E-19
 -1      3240 1.03014E-04-2.12290E-05-3.50363E-05 2.90130E-06 2.95689E-18-1.75535E-18
 -1      3241 1.03610E-04-2.15251E-05-3.51926E-05 6.02911E-06 3.07203E-18-1.48299E-18
 -1      3242 1.04520E-04-1.99107E-05-3.62820E-05 1.21986E-06 3.21869E-18-2.03397E-18
 -1      3243 8.30263E-05-3.48582E-05-2.03046E-05-3.21558E-05 3.13381E-18 2.59457E-18
 -1      3244 9.95040E-05-4.43564E-05-2.34800E-05-3.07565E-05 3.10988E-18 6.17646E-19
 -1      3245 1.14703E-04-1.28440E-05-4.41371E-05-2.64161E-06 5.66485E-18-3.51797E-18
 -1      3246 1.17744E-04-1.77110E-05-4.30500E-05-7.53633E-06 4.92243E-18-4.53610E-18
 -1      3247 1.07157E-04-3.64377E-05-3.02943E-05-3.28170E-06 3.50463E-19-2.08032E-18
 -1      3248 1.07482E-04-3.61677E-05-3.05806E-05-4.63652E-06 5.79671E-19-2.22953E-18
 -1      3249 1.09625E-04-3.71793E-05-3.10229E-05-4.81285E-06 3.01654E-19-2.98653E-18
 -1      3250 1.07920E-04-4.66426E-05-2.58766E-05-2.61396E-05 2.96377E-18-8.77976E-19
 -1      3251 9.52411E-05-2.85769E-05-2.85703E-05 1.90246E-09-9.18369E-19 2.03480E-18
 -1      3252 9.52413E-05-2.85771E-05-2.85704E-05 1.21830E-09-3.78438E-19 1.54699E-18
 -1      3253 9.52419E-05-2.85776E-05-2.85704E-05 8.78379E-10 1.93267E-19 8.93498E-19
 -1      3254 1.15675E-04-2.97277E-05-3.70151E-05 1.53932E-05 1.80831E-18-7.01886E-19
 -1      3255 1.17617E-04-3.18036E-05-3.69052E-05 1.24258E-05 1.10110E-18-3.54655E-19
 -1      3256 1.14668E-04-2.74874E-05-3.73142E-05 1.67038E-05 2.31098E-18-3.87484E-19
 -1      3257 1.09930E-04-2.71465E-05-3.55049E-05 1.64000E-05 2.58535E-18-7.09878E-19
 -1      3258 1.05460E-04-2.78195E-05-3.33882E-05-7.73208E-06 1.52264E-18-2.90094E-18
 -1      3259 1.04552E-04-2.54229E-05-3.38542E-05-6.29637E-06 2.04908E-18-2.80331E-18
 -1      3260 1.08218E-04-2.91695E-05-3.39137E-05-8.64660E-06 1.50771E-18-3.68996E-18
 -1      3261 9.52403E-05-2.85762E-05-2.85703E-05 3.21783E-09-1.46070E-18-5.45659E-19
 -1      3262 9.52407E-05-2.85766E-05-2.85703E-05 2.65293E-09-2.02948E-18 4.45493E-19
 -1      3263 9.52414E-05-2.85772E-05-2.85704E-05 2.52438E-09-7.71494E-19 5.09359E-19
 -1      3264 9.52405E-05-2.85764E-05-2.85703E-05 3.88249E-09-1.90257E-18-4.15554E-19
 -1      3265 5.72103E-05-1.78890E-05-1.64568E-05-2.34119E-05 2.01387E-18 3.99863E-18
 -1      3266 6.92049E-05-2.62507E-05-1.82521E-05-3.06358E-05 2.40489E-18 4.14284E-18
 -1      3267 1.05216E-04-3.56558E-05-2.97825E-05-4.64762E-07 7.08196E-19-1.85956E-18
 -1      3268 1.05925E-04-3.60791E-05-2.99611E-05-1.70865E-06 4.48415E-19-1.93384E-18
 -1      3269 1.07682E-04-3.74286E-05-3.01130E-05-1.47549E-06 3.06296E-19-1.88262E-18
 -1      3270 1.05003E-04-3.60836E-05-2.95597E-05 1.21293E-06 1.68969E-19-1.17174E-18
 -1      3271 1.21826E-04-2.54228E-05-4.18250E-05-9.01843E-06 3.45139E-18-4.86864E-18
 -1      3272 1.26898E-04-3.40379E-05-3.99225E-05-7.94203E-06 2.06676E-18-5.46410E-18
 -1      3273 1.25428E-04-3.25078E-05-3.97425E-05 1.19165E-05 2.01260E-18 7.48459E-19
 -1      3274 1.23739E-04-2.74219E-05-4.17620E-05 1.43982E-05 3.46934E-18 4.81565E-19
 -1      3275 1.28987E-04-4.11446E-05-3.80479E-05-3.95448E-06 9.69323E-19-5.67078E-18
 -1      3276 1.28696E-04-4.72637E-05-3.49808E-05 2.53233E-06-6.26434E-19-5.31976E-18
 -1      3277 1.24604E-04-3.77886E-05-3.73077E-05-6.59670E-06 7.29242E-19-5.09842E-18
 -1      3278 9.98503E-05-4.48781E-05-2.36415E-05 3.18299E-05-4.45952E-18-3.52127E-19
 -1      3279 8.48615E-05-3.64108E-05-2.02856E-05 3.50706E-05-4.52856E-18 1.06107E-18
 -1      3280 4.51647E-05-9.19405E-06-1.50565E-05-3.43997E-06-3.92545E-19 3.37098E-18
 -1      3281 4.98679E-05-1.24617E-05-1.57734E-05-1.49325E-05 5.85670E-19 3.28617E-18
 -1      3282 1.01246E-04-4.11071E-05-2.56225E-05-2.58456E-05 2.58517E-18-4.07529E-19
 -1      3283 1.08649E-04-2.58212E-05-3.54754E-05 1.47934E-05 2.83088E-18-7.92340E-19
 -1      3284 8.55844E-05-2.90615E-05-2.41278E-05-2.35798E-05 1.90932E-18 1.73507E-18
 -1      3285 7.74082E-05-2.34939E-05-2.28869E-05-2.21043E-05 1.49934E-18 2.69063E-18
 -1      3286 6.05689E-05-1.75522E-05-1.79889E-05 2.20181E-05-2.80431E-18 2.58043E-18
 -1      3287 5.25897E-05-1.05993E-05-1.75277E-05 2.42113E-06-1.29461E-18 2.64867E-18
 -1      3288 1.15349E-04-1.36425E-05-4.38475E-05 1.13592E-05 5.37215E-18-1.12984E-18
 -1      3289 9.52379E-05-2.85741E-05-2.85702E-05 4.55914E-09-1.66833E-18-6.58663E-19
 -1      3290 9.52388E-05-2.85748E-05-2.85703E-05-4.33178E-09 3.01402E-20-2.10664E-19
 -1      3291 9.52379E-05-2.85740E-05-2.85702E-05-4.49977E-09-8.06786E-19-8.75859E-19
 -1      3292 9.52377E-05-2.85740E-05-2.85702E-05-4.99777E-09-4.34734E-19 4.09116E-19
 -1      3293 1.06042E-04-2.37979E-05-3.52486E-05-5.48962E-06 2.38793E-18-2.95064E-18
 -1      3294 9.52377E-05-2.85741E-05-2.85701E-05-5.52995E-09-1.06117E-18 1.17115E-18
 -1      3295 9.52374E-05-2.85740E-05-2.85700E-05-6.06439E-09-7.70793E-21 1.04844E-18
 -1      3296 9.52389E-05-2.85751E-05-2.85702E-05-5.37739E-09-9.56678E-19-1.74095E-18
 -1      3297 9.52407E-05-2.85766E-05-2.85703E-05-2.65360E-09-1.65233E-18 1.67428E-19
 -1      3298 9.52403E-05-2.85762E-05-2.85703E-05-3.21547E-09-1.57947E-18-2.89660E-19
 -1      3299 1.26759E-04-5.01692E-05-3.29101E-05 6.54195E-06-1.56572E-18-4.87084E-18
 -1      3300 1.21519E-04-4.99584E-05-3.06957E-05 1.08056E-05-2.33942E-18-4.18471E-18
 -1      3301 1.24463E-04-4.61167E-05-3.36983E-05 4.53818E-07-1.09220E-18-5.00684E-18
 -1      3302 9.52399E-05-2.85758E-05-2.85703E-05-3.67672E-09-1.01542E-18-1.40048E-18
 -1      3303 9.52393E-05-2.85753E-05-2.85703E-05-4.02680E-09-3.35958E-19-9.85442E-19
 -1      3304 9.52394E-05-2.85755E-05-2.85703E-05-4.54079E-09-7.25229E-19-1.37934E-18
 -1      3305 9.52405E-05-2.85764E-05-2.85703E-05-3.77704E-09-9.50214E-19-1.81151E-18
 -1      3306 9.52413E-05-2.85771E-05-2.85704E-05-1.20915E-09 1.17147E-19 7.38640E-19
 -1      3307 9.52410E-05-2.85769E-05-2.85703E-05-1.90544E-09-1.06233E-18 1.53995E-19
 -1      3308 9.52419E-05-2.85776E-05-2.85704E-05-8.68692E-10-3.19294E-19 1.00893E-18
 -1      3309 9.52384E-05-2.85745E-05-2.85702E-05 4.51524E-09-2.05852E-18 1.15367E-18
 -1      3310 8.08876E-05-3.04668E-05-2.12754E-05-2.82075E-05 2.81342E-18 2.65860E-18
 -1      3311 1.17029E-04-2.36265E-05-4.01845E-05-8.25710E-06 3.54348E-18-4.71170E-18
 -1      3312 5.99346E-05-1.58427E-05-1.85169E-05-1.72567E-05 1.18197E-18 3.04958E-18
 -1      3313 1.19587E-04-3.25112E-05-3.76195E-05 1.20088E-05 1.29412E-18 8.37371E-20
 -1      3314 1.20690E-04-3.48624E-05-3.68539E-05 6.25888E-06 4.47210E-19 1.18955E-19
 -1      3315 1.05231E-04-2.23944E-05-3.54962E-05 1.00294E-05 3.10642E-18-1.10021E-18
 -1      3316 1.06629E-04-2.39548E-05-3.55311E-05 1.26546E-05 3.04823E-18-8.29573E-19
 -1      3317 1.10317E-04-2.42067E-05-3.68759E-05 1.55130E-05 2.94679E-18-7.63633E-19
 -1      3318 1.06326E-04-2.04044E-05-3.68352E-05 9.23939E-06 3.31027E-18-1.33879E-18
 -1      3319 9.52390E-05-2.85751E-05-2.85702E-05 4.89685E-09-2.53875E-18 8.47134E-19
 -1      3320 1.11918E-04-1.30372E-05-4.25404E-05 6.31866E-07 5.32847E-18-3.18580E-18
 -1      3321 1.14160E-04-4.93872E-05-2.77926E-05 2.01535E-05-3.28123E-18-2.81488E-18
 -1      3322 1.08566E-04-4.81010E-05-2.56395E-05 2.69976E-05-4.06380E-18-1.36223E-18
 -1      3323 1.00797E-04-4.32682E-05-2.46252E-05 2.76148E-05-3.82716E-18-3.70789E-19
 -1      3324 1.18200E-04-3.93945E-05-3.36696E-05-6.69145E-06-1.56092E-18-2.70415E-19
 -1      3325 1.21228E-04-2.36882E-05-4.19945E-05 1.59849E-05 3.81281E-18 4.95753E-19
 -1      3326 1.16624E-04-1.96774E-05-4.19163E-05 1.59704E-05 4.19625E-18-6.03643E-20
 -1      3327 1.18925E-04-2.61393E-05-3.98644E-05 1.59103E-05 2.91146E-18 3.71166E-19
 -1      3328 9.74034E-05-3.64371E-05-2.59185E-05-2.42786E-05 2.17623E-18 2.13016E-19
 -1      3329 1.21943E-04-3.76423E-05-3.64621E-05 1.19230E-06 7.45058E-20 4.17852E-19
 -1      3330 8.15129E-05-3.22224E-05-2.07951E-05 3.12032E-05-4.11594E-18 1.25943E-18
 -1      3331 6.85776E-05-2.13349E-05-2.02372E-05 2.41658E-05-2.92113E-18 1.83793E-18
 -1      3332 6.09500E-05-1.51556E-05-1.94973E-05 1.64089E-05-2.17435E-18 1.94219E-18
 -1      3333 1.12755E-04-3.75138E-05-3.22754E-05-6.37877E-06 1.57230E-19-3.68711E-18
 -1      3334 1.12489E-04-3.52406E-05-3.31083E-05-7.66943E-06 5.92156E-19-4.06788E-18
 -1      3335 8.20834E-05-1.98293E-05-2.66623E-05-1.16884E-05 5.71673E-20 8.17908E-19
 -1      3336 8.30797E-05-1.98466E-05-2.71660E-05-1.02787E-05-6.31635E-20 5.17706E-19
 -1      3337 8.50329E-05-2.03916E-05-2.76954E-05-9.23329E-06 8.45784E-20 1.59666E-19
 -1      3338 8.60120E-05-2.07766E-05-2.80040E-05-8.23801E-06 4.49443E-19 3.93043E-19
 -1      3339 8.14499E-05-1.86011E-05-2.68698E-05-8.05868E-06-2.41744E-19 1.69536E-19
 -1      3340 8.75362E-05-2.14358E-05-2.83284E-05-7.50764E-06 1.71480E-19-1.40399E-19
 -1      3341 8.83787E-05-2.19482E-05-2.85025E-05-6.73164E-06-2.95550E-19-7.59240E-19
 -1      3342 8.48840E-05-1.99985E-05-2.77599E-05-6.56329E-06-4.54598E-19-7.80042E-19
 -1      3343 8.95534E-05-2.26070E-05-2.86929E-05-6.16424E-06-8.42013E-19-1.24556E-18
 -1      3344 9.02235E-05-2.31280E-05-2.87787E-05-5.52254E-06-8.93399E-19-1.40214E-18
 -1      3345 8.75411E-05-2.14205E-05-2.83017E-05-5.46769E-06-7.31570E-19-1.29437E-18
 -1      3346 9.11172E-05-2.37274E-05-2.88825E-05-5.04929E-06-6.56669E-19-1.57660E-18
 -1      3347 9.16240E-05-2.42008E-05-2.89132E-05-4.50484E-06-7.11150E-19-1.67597E-18
 -1      3348 8.95742E-05-2.27404E-05-2.86167E-05-4.57128E-06-8.51247E-19-1.30907E-18
 -1      3349 9.22953E-05-2.47169E-05-2.89623E-05-4.09757E-06-6.70850E-19-1.73181E-18
 -1      3350 9.26655E-05-2.51220E-05-2.89607E-05-3.63431E-06-7.10387E-19-1.55095E-18
 -1      3351 9.11113E-05-2.38999E-05-2.87857E-05-3.79198E-06-7.77659E-19-1.04708E-18
 -1      3352 9.31641E-05-2.55508E-05-2.89763E-05-3.28279E-06-4.38879E-19-1.15839E-18
 -1      3353 9.34278E-05-2.58850E-05-2.89572E-05-2.89227E-06-2.76712E-19-3.72088E-19
 -1      3354 9.22603E-05-2.48819E-05-2.88627E-05-3.10278E-06-1.84318E-19-1.01411E-18
 -1      3355 9.37943E-05-2.62328E-05-2.89534E-05-2.59218E-06-6.40652E-19 3.71563E-19
 -1      3356 9.39785E-05-2.65021E-05-2.89264E-05-2.26765E-06-3.41259E-19-8.48542E-20
 -1      3357 9.31104E-05-2.56922E-05-2.88838E-05-2.49819E-06-1.06544E-19-2.64813E-20
 -1      3358 9.42456E-05-2.67794E-05-2.89122E-05-2.01561E-06-9.62470E-19-4.89850E-19
 -1      3359 9.43722E-05-2.69930E-05-2.88829E-05-1.75011E-06-1.12533E-18-8.69043E-19
 -1      3360 9.37336E-05-2.63484E-05-2.88726E-05-1.97722E-06-8.59745E-19-1.63007E-19
 -1      3361 9.45654E-05-2.72112E-05-2.88641E-05-1.54214E-06-9.87556E-19-8.66111E-19
 -1      3362 9.46513E-05-2.73788E-05-2.88357E-05-1.32834E-06-1.12645E-18-1.22999E-18
 -1      3363 9.41868E-05-2.68720E-05-2.88445E-05-1.53735E-06-1.26964E-18-3.90964E-19
 -1      3364 9.47901E-05-2.75491E-05-2.88157E-05-1.15988E-06-1.93660E-19-7.49119E-19
 -1      3365 9.48477E-05-2.76795E-05-2.87899E-05-9.90423E-07 3.82817E-19-1.36813E-19
 -1      3366 9.45141E-05-2.72855E-05-2.88091E-05-1.17360E-06-2.16119E-19 2.30790E-19
 -1      3367 9.49466E-05-2.78111E-05-2.87706E-05-8.56431E-07 4.15907E-19-3.42157E-19
 -1      3368 9.49848E-05-2.79118E-05-2.87482E-05-7.24200E-07 3.63378E-19-1.79644E-19
 -1      3369 9.47487E-05-2.76090E-05-2.87720E-05-8.78882E-07 3.85619E-19 7.72527E-19
 -1      3370 9.50545E-05-2.80128E-05-2.87307E-05-6.19511E-07-2.84733E-20-3.99319E-19
 -1      3371 9.50795E-05-2.80900E-05-2.87118E-05-5.17937E-07-3.41221E-20-5.91968E-19
 -1      3372 9.49154E-05-2.78598E-05-2.87367E-05-6.44704E-07 3.43717E-19 2.20405E-19
 -1      3373 9.51281E-05-2.81667E-05-2.86965E-05-4.37589E-07 7.54823E-20-9.11694E-19
 -1      3374 9.51441E-05-2.82254E-05-2.86809E-05-3.60822E-07 3.63233E-19-7.22100E-19
 -1      3375 9.50326E-05-2.80527E-05-2.87048E-05-4.62087E-07 2.32299E-19-3.89648E-19
 -1      3376 9.51775E-05-2.82832E-05-2.86679E-05-3.00280E-07 1.57961E-19-1.42585E-18
 -1      3377 9.51875E-05-2.83274E-05-2.86554E-05-2.43258E-07-2.46464E-19-1.39461E-18
 -1      3378 9.51139E-05-2.81995E-05-2.86771E-05-3.22311E-07-2.00425E-19-1.20230E-18
 -1      3379 9.52099E-05-2.83705E-05-2.86447E-05-1.98524E-07-4.03270E-19-1.70481E-18
 -1      3380 9.52159E-05-2.84034E-05-2.86347E-05-1.56971E-07-4.68667E-19-2.01520E-18
 -1      3381 9.51694E-05-2.83101E-05-2.86536E-05-2.17357E-07-4.54954E-19-1.37262E-18
 -1      3382 9.52305E-05-2.84350E-05-2.86260E-05-1.24625E-07 4.05631E-20-2.19177E-18
 -1      3383 9.52338E-05-2.84593E-05-2.86182E-05-9.50012E-08 5.92104E-19-2.13387E-18
 -1      3384 9.52063E-05-2.83924E-05-2.86343E-05-1.40142E-07-4.10505E-19-2.01577E-18
 -1      3385 9.52430E-05-2.84822E-05-2.86113E-05-7.21909E-08 3.34383E-19-2.08480E-18
 -1      3386 9.52446E-05-2.84997E-05-2.86053E-05-5.16176E-08 6.14376E-19-2.27437E-18
 -1      3387 9.52300E-05-2.84529E-05-2.86187E-05-8.46086E-08 2.96620E-19-2.29203E-18
 -1      3388 9.52499E-05-2.85160E-05-2.85999E-05-3.60128E-08 1.04402E-18-2.00461E-18
 -1      3389 9.52504E-05-2.85284E-05-2.85954E-05-2.21889E-08 8.20318E-19-1.42049E-18
 -1      3390 9.52445E-05-2.84965E-05-2.86063E-05-4.57082E-08 4.53353E-19-1.38975E-18
 -1      3391 9.52532E-05-2.85397E-05-2.85912E-05-1.19243E-08-4.70692E-19-1.09624E-18
 -1      3392 9.52531E-05-2.85484E-05-2.85879E-05-3.03913E-09-6.56071E-19-1.25034E-18
 -1      3393 9.52526E-05-2.85274E-05-2.85965E-05-1.93268E-08 2.60996E-19-1.58064E-18
 -1      3394 9.52541E-05-2.85560E-05-2.85847E-05 3.35142E-09-1.92454E-19-1.04406E-18
 -1      3395 9.52536E-05-2.85618E-05-2.85823E-05 8.69990E-09-5.59477E-19-5.15388E-19
 -1      3396 9.52565E-05-2.85487E-05-2.85891E-05-2.18049E-09-4.31795E-19-7.14698E-19
 -1      3397 9.52535E-05-2.85667E-05-2.85800E-05 1.23479E-08-6.30634E-19-4.79597E-19
 -1      3398 9.52529E-05-2.85704E-05-2.85782E-05 1.52280E-08-1.87051E-19-5.54024E-19
 -1      3399 9.52575E-05-2.85629E-05-2.85835E-05 8.30333E-09-4.88450E-19-8.28402E-19
 -1      3400 9.52522E-05-2.85734E-05-2.85765E-05 1.69910E-08 6.98913E-19-4.91777E-19
 -1      3401 9.52514E-05-2.85757E-05-2.85753E-05 1.82027E-08 1.54759E-18 6.61696E-19
 -1      3402 9.52568E-05-2.85720E-05-2.85793E-05 1.41027E-08 7.47579E-19-1.01838E-18
 -1      3403 9.52504E-05-2.85773E-05-2.85741E-05 1.87183E-08 1.31480E-18 6.53004E-19
 -1      3404 9.52496E-05-2.85785E-05-2.85733E-05 1.88495E-08 1.42997E-18 3.15701E-19
 -1      3405 9.52552E-05-2.85773E-05-2.85763E-05 1.67101E-08 1.55259E-18-2.20004E-18
 -1      3406 9.52484E-05-2.85792E-05-2.85725E-05 1.85818E-08 1.13544E-18-2.49235E-19
 -1      3407 9.52477E-05-2.85798E-05-2.85720E-05 1.80552E-08 7.38224E-19-6.64043E-19
 -1      3408 9.52530E-05-2.85802E-05-2.85741E-05 1.72299E-08 1.28911E-18-2.55351E-18
 -1      3409 9.52465E-05-2.85799E-05-2.85714E-05 1.73340E-08 1.80233E-19-1.14103E-20
 -1      3410 9.52459E-05-2.85799E-05-2.85711E-05 1.64462E-08-8.49335E-20-3.19155E-21
 -1      3411 9.52507E-05-2.85813E-05-2.85726E-05 1.64612E-08 3.61369E-19-2.19217E-18
 -1      3412 9.52448E-05-2.85797E-05-2.85707E-05 1.54992E-08 3.03866E-19 3.58132E-19
 -1      3413 9.52442E-05-2.85795E-05-2.85706E-05 1.44511E-08 6.77130E-19 1.08934E-19
 -1      3414 9.52484E-05-2.85813E-05-2.85716E-05 1.49678E-08 5.21473E-19-8.93449E-19
 -1      3415 9.52432E-05-2.85790E-05-2.85704E-05 1.34293E-08 8.13389E-19 5.38417E-19
 -1      3416 9.52428E-05-2.85787E-05-2.85703E-05 1.23514E-08 7.64102E-19-5.70763E-19
 -1      3417 9.52463E-05-2.85807E-05-2.85710E-05 1.31354E-08 7.21690E-19 8.99269E-19
 -1      3418 9.52419E-05-2.85781E-05-2.85702E-05 1.13497E-08 3.15380E-19 1.06083E-19
 -1      3419 9.52415E-05-2.85777E-05-2.85702E-05 1.03214E-08 1.09075E-18 1.52217E-19
 -1      3420 9.52444E-05-2.85797E-05-2.85706E-05 1.12160E-08 9.35747E-19 2.98014E-19
 -1      3421 9.52408E-05-2.85772E-05-2.85701E-05 9.39510E-09 1.28545E-19-1.55746E-19
 -1      3422 9.52405E-05-2.85768E-05-2.85701E-05 8.45953E-09-2.10117E-18-3.39584E-19
 -1      3423 9.52428E-05-2.85785E-05-2.85704E-05 9.36619E-09-3.20947E-19-1.19361E-18
 -1      3424 9.52399E-05-2.85762E-05-2.85701E-05 7.63276E-09-2.38168E-18 8.82641E-19
 -1      3425 9.52396E-05-2.85759E-05-2.85702E-05 6.80852E-09-1.58948E-18 2.02889E-18
 -1      3426 9.52414E-05-2.85774E-05-2.85703E-05 7.67729E-09-1.42406E-18 5.33143E-19
 -1      3427 9.52394E-05-2.85756E-05-2.85702E-05 6.16714E-09-1.45557E-18 1.90666E-18
 -1      3428 9.52392E-05-2.85753E-05-2.85702E-05 5.45412E-09-1.95204E-18 1.37524E-18
 -1      3429 9.52401E-05-2.85761E-05-2.85703E-05 5.00883E-09-1.91392E-18 2.36184E-19
 -1      3430 9.52406E-05-2.85766E-05-2.85703E-05 6.22493E-09-7.25944E-19 8.96010E-19
 -1      3431 9.90334E-05-3.15503E-05-2.88950E-05 4.96414E-06-3.74842E-19 5.52118E-20
 -1      3432 1.00048E-04-3.25417E-05-2.89327E-05 4.75768E-06-4.05857E-19-3.83398E-21
 -1      3433 1.01432E-04-3.37132E-05-2.89842E-05 4.58710E-06-3.61461E-19-3.93843E-19
 -1      3434 1.02707E-04-3.48763E-05-2.90812E-05 4.03513E-06-2.85282E-19-4.46179E-19
 -1      3435 1.00121E-04-3.31772E-05-2.87317E-05 5.83007E-06-3.26276E-19-5.71946E-19
 -1      3436 9.62314E-05-2.87925E-05-2.88937E-05 4.41237E-06-3.48165E-19-3.76325E-19
 -1      3437 9.67382E-05-2.92970E-05-2.88977E-05 4.57262E-06-2.32934E-19-3.09347E-19
 -1      3438 9.55569E-05-2.81037E-05-2.89048E-05 3.86237E-06-4.08807E-19-4.37143E-19
 -1      3439 9.58848E-05-2.84127E-05-2.89106E-05 4.09417E-06-1.70402E-19-4.57193E-19
 -1      3440 9.53730E-05-2.82720E-05-2.87708E-05 4.57788E-06-1.82702E-19 4.91569E-19
 -1      3441 9.51828E-05-2.77369E-05-2.89048E-05 3.27373E-06-6.63196E-19-5.62516E-19
 -1      3442 9.53836E-05-2.79009E-05-2.89155E-05 3.53298E-06-5.23996E-19-4.15762E-19
 -1      3443 9.48721E-05-2.76686E-05-2.88093E-05 3.88468E-06-2.16682E-19 6.08517E-19
 -1      3444 9.50037E-05-2.75925E-05-2.88917E-05 2.70257E-06-9.14131E-19-1.72702E-19
 -1      3445 9.51194E-05-2.76570E-05-2.89074E-05 2.96092E-06-1.11696E-18-8.26206E-19
 -1      3446 9.46480E-05-2.73849E-05-2.88313E-05 3.21654E-06-8.96666E-19 5.09283E-19
 -1      3447 9.49429E-05-2.75898E-05-2.88677E-05 2.18027E-06-3.98386E-19 1.26584E-20
 -1      3448 9.50046E-05-2.75914E-05-2.88870E-05 2.42075E-06-4.23212E-19-1.49431E-19
 -1      3449 9.45935E-05-2.73143E-05-2.88359E-05 2.60814E-06-9.94023E-19 2.38820E-19
 -1      3450 9.49482E-05-2.76687E-05-2.88365E-05 1.72195E-06-7.10070E-19-5.00166E-20
 -1      3451 9.49773E-05-2.76343E-05-2.88576E-05 1.93554E-06-3.13498E-19 1.92116E-19
 -1      3452 9.46336E-05-2.73740E-05-2.88262E-05 2.07494E-06-4.67571E-19 3.36992E-19
 -1      3453 9.49859E-05-2.77877E-05-2.88017E-05 1.33232E-06-1.27632E-18-6.77878E-19
 -1      3454 9.49965E-05-2.77356E-05-2.88229E-05 1.51537E-06-8.99676E-19-7.83482E-19
 -1      3455 9.47189E-05-2.75041E-05-2.88063E-05 1.62079E-06-5.40346E-19 1.76771E-19
 -1      3456 9.50355E-05-2.79194E-05-2.87662E-05 1.00977E-06-8.89793E-19 9.30499E-20
 -1      3457 9.50365E-05-2.78618E-05-2.87865E-05 1.16210E-06-1.35616E-18-6.39385E-19
 -1      3458 9.48191E-05-2.76641E-05-2.87804E-05 1.24301E-06-1.34226E-18 2.73082E-19
 -1      3459 9.50853E-05-2.80475E-05-2.87324E-05 7.48921E-07-7.01519E-19 3.08478E-19
 -1      3460 9.50820E-05-2.79915E-05-2.87508E-05 8.72491E-07-4.73381E-19 8.71221E-19
 -1      3461 9.49167E-05-2.78283E-05-2.87518E-05 9.35313E-07-1.26390E-18 3.71226E-19
 -1      3462 9.51295E-05-2.81630E-05-2.87015E-05 5.42460E-07 8.44148E-21 4.13589E-19
 -1      3463 9.51248E-05-2.81126E-05-2.87177E-05 6.40406E-07-5.08857E-19 6.10767E-19
 -1      3464 9.50029E-05-2.79816E-05-2.87230E-05 6.89531E-07-3.21057E-19 7.58581E-19
 -1      3465 9.51659E-05-2.82619E-05-2.86744E-05 3.82381E-07 1.75165E-19 4.48710E-19
 -1      3466 9.51613E-05-2.82187E-05-2.86882E-05 4.58330E-07 4.56147E-19 5.23074E-19
 -1      3467 9.50742E-05-2.81163E-05-2.86959E-05 4.96837E-07 3.37172E-19 9.29066E-19
 -1      3468 9.51940E-05-2.83433E-05-2.86513E-05 2.60794E-07 9.13198E-20-1.98932E-19
 -1      3469 9.51902E-05-2.83078E-05-2.86627E-05 3.18417E-07-1.97209E-20 9.24801E-20
 -1      3470 9.51304E-05-2.82297E-05-2.86715E-05 3.48545E-07 3.34951E-19 1.30050E-18
 -1      3471 9.52147E-05-2.84082E-05-2.86321E-05 1.70395E-07 2.55769E-20-1.04813E-18
 -1      3472 9.52119E-05-2.83799E-05-2.86414E-05 2.13143E-07 2.42838E-19-7.85064E-19
 -1      3473 9.51727E-05-2.83218E-05-2.86502E-05 2.36583E-07 6.62865E-19-2.70508E-19
 -1      3474 9.52292E-05-2.84586E-05-2.86165E-05 1.04727E-07 3.60872E-19 1.34925E-20
 -1      3475 9.52273E-05-2.84366E-05-2.86239E-05 1.35675E-07 2.34639E-19-8.03869E-19
 -1      3476 9.52033E-05-2.83946E-05-2.86322E-05 1.53754E-07-1.36151E-19-3.79273E-20
 -1      3477 9.52387E-05-2.84966E-05-2.86041E-05 5.82651E-08 7.09915E-20 4.50764E-19
 -1      3478 9.52376E-05-2.84800E-05-2.86099E-05 8.00556E-08 1.50847E-19 3.80947E-19
 -1      3479 9.52245E-05-2.84505E-05-2.86174E-05 9.38411E-08 1.23242E-19 1.59368E-18
 -1      3480 9.52445E-05-2.85245E-05-2.85945E-05 2.64178E-08-4.28948E-19 8.07967E-19
 -1      3481 9.52440E-05-2.85123E-05-2.85989E-05 4.12532E-08 3.11949E-19 3.08175E-19
 -1      3482 9.52383E-05-2.84924E-05-2.86054E-05 5.16191E-08 2.51550E-19 7.37564E-19
 -1      3483 9.52476E-05-2.85445E-05-2.85872E-05 5.45848E-09-2.11066E-18 1.15615E-18
 -1      3484 9.52475E-05-2.85358E-05-2.85905E-05 1.51268E-08-1.73046E-18 6.49325E-19
 -1      3485 9.52468E-05-2.85229E-05-2.85960E-05 2.27933E-08-1.18708E-18 1.45700E-18
 -1      3486 9.52488E-05-2.85583E-05-2.85817E-05-7.57213E-09 6.17108E-19 9.28414E-19
 -1      3487 9.52490E-05-2.85523E-05-2.85841E-05-1.65220E-09-1.49450E-19 1.17307E-18
 -1      3488 9.52513E-05-2.85445E-05-2.85886E-05 3.90801E-09-1.15753E-18 4.35109E-19
 -1      3489 9.52488E-05-2.85675E-05-2.85777E-05-1.49758E-08 5.89915E-20 1.81148E-18
 -1      3490 9.52491E-05-2.85635E-05-2.85794E-05-1.17024E-08 4.97124E-19 1.19318E-18
 -1      3491 9.52531E-05-2.85594E-05-2.85831E-05-7.76340E-09 4.95329E-19 9.35016E-19
 -1      3492 9.52480E-05-2.85733E-05-2.85749E-05-1.85069E-08-1.12869E-18 1.61313E-18
 -1      3493 9.52484E-05-2.85707E-05-2.85761E-05-1.70424E-08-1.49731E-19 2.26965E-18
 -1      3494 9.52532E-05-2.85691E-05-2.85790E-05-1.43317E-08-3.20363E-19 2.16972E-18
 -1      3495 9.52468E-05-2.85766E-05-2.85730E-05-1.94752E-08 4.26717E-19 8.24356E-19
 -1      3496 9.52473E-05-2.85751E-05-2.85737E-05-1.91963E-08-6.41118E-19 7.46011E-19
 -1      3497 9.52522E-05-2.85751E-05-2.85760E-05-1.73997E-08-8.26865E-20 1.83677E-18
 -1      3498 9.52455E-05-2.85783E-05-2.85717E-05-1.88368E-08-5.37323E-19 1.30393E-18
 -1      3499 9.52459E-05-2.85775E-05-2.85721E-05-1.92904E-08 4.28096E-19 1.03524E-18
 -1      3500 9.52506E-05-2.85784E-05-2.85739E-05-1.81602E-08-4.98591E-20 4.34290E-19
 -1      3501 9.52441E-05-2.85788E-05-2.85708E-05-1.72720E-08-4.56880E-19 1.09728E-18
 -1      3502 9.52445E-05-2.85785E-05-2.85711E-05-1.81376E-08-5.87661E-19 1.68291E-18
 -1      3503 9.52488E-05-2.85799E-05-2.85724E-05-1.74813E-08-2.97373E-19 1.22444E-18
 -1      3504 9.52428E-05-2.85786E-05-2.85704E-05-1.52506E-08-1.29120E-18 1.70339E-18
 -1      3505 9.52432E-05-2.85787E-05-2.85705E-05-1.63084E-08-3.46605E-19 7.02898E-19
 -1      3506 9.52469E-05-2.85803E-05-2.85714E-05-1.59794E-08-3.22728E-19 2.10695E-19
 -1      3507 9.52417E-05-2.85780E-05-2.85701E-05-1.30840E-08-9.70935E-19 5.65699E-19
 -1      3508 9.52420E-05-2.85783E-05-2.85702E-05-1.41901E-08-1.22442E-18 2.14968E-18
 -1      3509 9.52451E-05-2.85799E-05-2.85708E-05-1.40791E-08-1.17148E-18 3.64252E-19
 -1      3510 9.52407E-05-2.85772E-05-2.85700E-05-1.09666E-08 8.89946E-19 5.14720E-19
 -1      3511 9.52409E-05-2.85775E-05-2.85700E-05-1.20325E-08 2.03088E-19 2.00012E-19
 -1      3512 9.52435E-05-2.85791E-05-2.85705E-05-1.20601E-08 3.88317E-19-3.56637E-19
 -1      3513 9.52398E-05-2.85764E-05-2.85700E-05-9.01060E-09 4.49718E-19-6.79927E-19
 -1      3514 9.52400E-05-2.85767E-05-2.85700E-05-9.98873E-09 1.10143E-18 1.91461E-20
 -1      3515 9.52421E-05-2.85781E-05-2.85703E-05-1.00990E-08 1.15146E-18 1.60180E-20
 -1      3516 9.52392E-05-2.85756E-05-2.85701E-05-7.27020E-09-3.59692E-19-5.90083E-19
 -1      3517 9.52393E-05-2.85759E-05-2.85700E-05-8.13662E-09 1.58492E-19-8.03182E-19
 -1      3518 9.52409E-05-2.85771E-05-2.85702E-05-8.29593E-09 8.34340E-19-7.03420E-19
 -1      3519 9.52385E-05-2.85749E-05-2.85701E-05-6.49395E-09-7.78995E-19-1.38732E-19
 -1      3520 9.52414E-05-2.85772E-05-2.85704E-05-2.52817E-09-4.41915E-19 1.33242E-18
 -1      3521 1.09162E-04-2.17846E-05-3.76476E-05-6.67278E-06 3.21977E-18-3.95287E-18
 -1      3522 1.08066E-04-1.87654E-05-3.84031E-05-4.06998E-06 3.70466E-18-3.49808E-18
 -1      3523 1.20126E-04-2.94656E-05-3.87826E-05 1.57199E-05 2.11949E-18 3.41288E-19
 -1      3524 1.09343E-04-1.50885E-05-4.05277E-05 6.39794E-07 4.70484E-18-2.98512E-18
 -1      3525 1.05716E-04-1.76899E-05-3.77450E-05 1.51468E-06 3.68552E-18-2.22395E-18
 -1      3526 1.06035E-04-1.77241E-05-3.79684E-05 5.73778E-06 3.71674E-18-1.66055E-18
 -1      3527 1.09532E-04-1.36248E-05-4.14460E-05 6.96511E-06 4.89371E-18-1.84329E-18
 -1      3528 9.52426E-05-2.85781E-05-2.85705E-05 1.41120E-09 3.68833E-19 1.56614E-18
 -1      3529 9.52428E-05-2.85782E-05-2.85705E-05 5.30794E-10 1.36870E-19 4.21908E-20
 -1      3530 1.11220E-04-3.94256E-05-3.07486E-05-2.43523E-06-2.21217E-19-2.75675E-18
 -1      3531 1.11865E-04-3.87718E-05-3.13430E-05-4.18340E-06 3.94838E-20-3.00843E-18
 -1      3532 1.14476E-04-3.98274E-05-3.19749E-05-4.05309E-06-3.74944E-19-3.34225E-18
 -1      3533 1.14750E-04-1.68434E-05-4.21617E-05 1.41771E-05 4.56731E-18-5.20409E-19
 -1      3534 1.11437E-04-1.41195E-05-4.18982E-05 1.05364E-05 4.90009E-18-1.32089E-18
 -1      3535 1.09248E-04-1.61476E-05-3.99544E-05 9.52707E-06 4.14014E-18-1.40405E-18
 -1      3536 1.13930E-04-2.01646E-05-4.02498E-05 1.51432E-05 3.64351E-18-3.15004E-19
 -1      3537 9.73405E-05-2.99120E-05-2.88818E-05 4.82981E-06-3.09947E-19-4.67825E-19
 -1      3538 9.80815E-05-3.06553E-05-2.88932E-05 4.85274E-06-2.18134E-19 1.16511E-20
 -1      3539 9.78172E-05-3.09332E-05-2.86952E-05 5.71612E-06-3.92016E-19-2.95016E-19
 -1      3540 9.62956E-05-2.93198E-05-2.87248E-05 5.22911E-06-1.77659E-19 6.79152E-19
 -1      3541 7.87796E-05-2.05436E-05-2.50065E-05-1.57274E-05 3.77896E-19 1.62221E-18
 -1      3542 7.95433E-05-1.95266E-05-2.58162E-05-1.32942E-05 1.31719E-19 1.13722E-18
 -1      3543 7.71072E-05-1.75281E-05-2.54444E-05-1.03585E-05-2.02842E-19 1.45616E-18
 -1      3544 5.66506E-05-1.15601E-05-1.91990E-05 7.84883E-06-1.47300E-18 2.29175E-18
 -1      3545 5.67934E-05-1.11885E-05-1.95136E-05-2.93321E-06-5.78538E-19 1.74981E-18
 -1      3546 6.54694E-05-1.73479E-05-2.05680E-05-1.81058E-05 1.02366E-18 2.75190E-18
 -1      3547 7.47321E-05-1.92559E-05-2.37342E-05-1.59916E-05 3.63271E-19 2.09553E-18
 -1      3548 7.01142E-05-1.55644E-05-2.32205E-05-1.15257E-05-3.37556E-20 2.10128E-18
 -1      3549 5.97594E-05-1.25301E-05-1.99597E-05-9.68679E-06-5.24499E-20 1.58909E-18
 -1      3550 8.76084E-05-3.44040E-05-2.28394E-05 2.81971E-05-3.78650E-18 7.11375E-19
 -1      3551 7.67286E-05-2.68899E-05-2.11014E-05 2.72107E-05-3.61183E-18 1.19188E-18
 -1      3552 7.66393E-05-2.42109E-05-2.22452E-05 2.20062E-05-2.63066E-18 1.00778E-18
 -1      3553 1.20071E-04-3.46891E-05-3.68230E-05-8.50782E-06 1.07109E-18-4.52546E-18
 -1      3554 1.22869E-04-4.03264E-05-3.53590E-05-5.71463E-06-6.29187E-20-4.79561E-18
 -1      3555 9.52396E-05-2.85759E-05-2.85702E-05-6.66106E-09-9.31569E-19 8.66281E-20
 -1      3556 1.13333E-04-2.76353E-05-3.67605E-05-9.12860E-06 2.29570E-18-4.60531E-18
 -1      3557 1.16969E-04-2.61811E-05-3.90187E-05 1.66835E-05 2.65255E-18 1.37616E-19
 -1      3558 9.52428E-05-2.85782E-05-2.85705E-05-5.23208E-10-9.66522E-20-2.48454E-19
 -1      3559 9.52426E-05-2.85781E-05-2.85705E-05-1.41966E-09 5.45583E-19 9.79089E-19
 -1      3560 9.52435E-05-2.85788E-05-2.85706E-05-6.37631E-12 3.70901E-19-1.58765E-19
 -1      3561 9.52412E-05-2.85770E-05-2.85704E-05 4.94399E-09-1.92077E-18-4.04887E-19
 -1      3562 9.52409E-05-2.85767E-05-2.85704E-05 4.36319E-09-2.95321E-18-1.19498E-18
 -1      3563 9.52415E-05-2.85772E-05-2.85704E-05 3.76695E-09-2.37863E-18-1.80043E-18
 -1      3564 1.03322E-04-3.59509E-05-2.89233E-05 5.23628E-06-5.96669E-19-8.49851E-19
 -1      3565 1.04535E-04-3.62051E-05-2.92354E-05 3.39105E-06-4.60799E-19-7.68240E-19
 -1      3566 1.05941E-04-3.73046E-05-2.94400E-05 2.38358E-06-9.07061E-20-1.27135E-18
 -1      3567 1.10939E-04-3.02351E-05-3.45542E-05-8.62830E-06 1.50601E-18-4.51953E-18
 -1      3568 1.17478E-04-3.29906E-05-3.63499E-05-8.80698E-06 1.56994E-18-4.84694E-18
 -1      3569 1.21438E-04-4.31244E-05-3.36106E-05-2.12507E-06-7.91665E-19-4.39827E-18
 -1      3570 9.52397E-05-2.85757E-05-2.85703E-05-5.05643E-09-1.12407E-18-9.02191E-19
 -1      3571 9.52397E-05-2.85758E-05-2.85703E-05-5.64131E-09-1.90610E-18-8.30696E-19
 -1      3572 9.52403E-05-2.85762E-05-2.85703E-05-4.75502E-09-1.77304E-18-1.23277E-18
 -1      3573 1.19025E-04-4.78158E-05-3.05593E-05 7.93496E-06-2.04146E-18-4.73871E-18
 -1      3574 1.18244E-04-4.97532E-05-2.92828E-05 1.44285E-05-2.59138E-18-3.93747E-18
 -1      3575 1.11905E-04-4.69796E-05-2.78733E-05 1.74513E-05-2.64727E-18-3.04740E-18
 -1      3576 9.52415E-05-2.85772E-05-2.85704E-05-3.75423E-09-2.83864E-21-9.36046E-20
 -1      3577 9.52409E-05-2.85767E-05-2.85704E-05-4.24692E-09-5.28410E-19-1.65535E-18
 -1      3578 9.52412E-05-2.85770E-05-2.85704E-05-4.79348E-09-1.07761E-18-4.31782E-19
 -1      3579 1.09294E-04-3.90281E-05-3.01454E-05-4.22230E-07-1.60010E-19-2.23483E-18
 -1      3580 1.11425E-04-4.05818E-05-3.03695E-05 3.28990E-07-5.23585E-19-2.54005E-18
 -1      3581 1.08052E-04-3.84653E-05-2.97734E-05 1.06501E-06-9.12546E-20-2.00385E-18
 -1      3582 9.49008E-05-3.81585E-05-2.40765E-05 2.65859E-05-3.73318E-18 5.44814E-19
 -1      3583 8.98608E-05-3.34348E-05-2.41369E-05 2.40327E-05-3.11979E-18 6.62572E-19
 -1      3584 1.01548E-04-4.15877E-05-2.57248E-05 2.28392E-05-3.28881E-18-6.38028E-19
 -1      3585 1.13845E-04-2.51497E-05-3.81787E-05 1.65899E-05 2.81937E-18-5.22859E-19
 -1      3586 1.07688E-04-1.85296E-05-3.82408E-05 1.01564E-05 3.69108E-18-1.35853E-18
 -1      3587 1.11846E-04-2.19211E-05-3.85573E-05 1.51825E-05 3.28453E-18-4.45917E-19
 -1      3588 1.12081E-04-3.35293E-05-3.37074E-05-8.69368E-06 8.92635E-19-4.51074E-18
 -1      3589 6.33190E-05-1.29697E-05-2.13861E-05-4.51991E-06-5.64554E-19 1.12314E-18
 -1      3590 6.46109E-05-1.46805E-05-2.11346E-05 1.08126E-05-1.59960E-18 1.74952E-18
 -1      3591 9.52405E-05-2.85766E-05-2.85703E-05-6.33468E-09-8.08733E-19-1.21955E-18
 -1      3592 9.52424E-05-2.85779E-05-2.85705E-05-2.25740E-09 5.51729E-19 1.34687E-18
 -1      3593 9.52420E-05-2.85776E-05-2.85704E-05-3.05237E-09 5.68413E-19 1.32998E-19
 -1      3594 9.52424E-05-2.85780E-05-2.85705E-05-3.53003E-09 1.29281E-18 6.55829E-19
 -1      3595 9.52432E-05-2.85786E-05-2.85706E-05-1.94904E-09 8.80140E-19 6.03760E-19
 -1      3596 9.52420E-05-2.85776E-05-2.85704E-05 3.04551E-09-1.38365E-18-1.02639E-18
 -1      3597 9.52424E-05-2.85779E-05-2.85705E-05 2.25062E-09-9.29248E-20 1.66198E-19
 -1      3598 9.52432E-05-2.85786E-05-2.85706E-05 1.93903E-09-7.15706E-19-8.16533E-20
 -1      3599 9.52424E-05-2.85780E-05-2.85705E-05 3.53273E-09-2.29310E-18-2.39442E-18
 -1      3600 1.14899E-04-3.64175E-05-3.36247E-05-7.38991E-06 3.96752E-19-4.52908E-18
 -1      3601 7.31345E-05-1.58866E-05-2.44857E-05-7.50818E-06-5.48232E-19 1.06514E-18
 -1      3602 7.54738E-05-1.63824E-05-2.53897E-05-6.37439E-06-6.27360E-19 6.51587E-19
 -1      3603 8.26674E-05-1.90273E-05-2.72961E-05-4.96002E-06-6.05681E-19-2.86926E-19
 -1      3604 8.42238E-05-1.97873E-05-2.76526E-05-4.49045E-06-6.06198E-19-6.74168E-19
 -1      3605 8.58445E-05-2.06064E-05-2.79768E-05-4.31729E-06-9.70461E-19-6.77258E-19
 -1      3606 8.70355E-05-2.13127E-05-2.81917E-05-3.93618E-06-1.13090E-18-1.17890E-18
 -1      3607 8.41376E-05-1.96913E-05-2.75689E-05-2.83590E-06-1.05004E-18-4.47075E-20
 -1      3608 8.82585E-05-2.20408E-05-2.83917E-05-3.76110E-06-8.83672E-19-1.11717E-18
 -1      3609 8.91598E-05-2.26680E-05-2.85145E-05-3.42126E-06-7.98422E-19-7.80816E-19
 -1      3610 8.69162E-05-2.12524E-05-2.81058E-05-2.70606E-06-1.06323E-18-4.66793E-19
 -1      3611 9.00886E-05-2.32979E-05-2.86332E-05-3.23340E-06-8.25405E-19-8.21070E-19
 -1      3612 9.07643E-05-2.38366E-05-2.86969E-05-2.92052E-06-6.95792E-19-6.79039E-19
 -1      3613 8.90204E-05-2.26111E-05-2.84353E-05-2.49085E-06-6.12288E-19-1.11431E-18
 -1      3614 9.14691E-05-2.43695E-05-2.87625E-05-2.72726E-06-6.11046E-19-8.21178E-19
 -1      3615 9.19707E-05-2.48206E-05-2.87891E-05-2.44148E-06 9.01255E-21-9.00972E-19
 -1      3616 9.06217E-05-2.37778E-05-2.86286E-05-2.21541E-06-6.96028E-19-7.41737E-19
 -1      3617 9.25037E-05-2.52631E-05-2.88206E-05-2.25247E-06 9.02739E-20-1.10224E-18
 -1      3618 9.28727E-05-2.56337E-05-2.88250E-05-1.99752E-06-2.11286E-19-1.01302E-18
 -1      3619 9.18363E-05-2.47606E-05-2.87329E-05-1.90713E-06-1.25509E-19-1.14364E-18
 -1      3620 9.32736E-05-2.59949E-05-2.88353E-05-1.82161E-06-8.66664E-19-1.47031E-18
 -1      3621 9.35427E-05-2.62946E-05-2.88271E-05-1.59998E-06-1.03472E-18-1.55743E-18
 -1      3622 9.27538E-05-2.55759E-05-2.87805E-05-1.59426E-06-1.02012E-18-2.46990E-18
 -1      3623 9.38426E-05-2.65857E-05-2.88249E-05-1.44268E-06-8.41189E-19-1.05538E-18
 -1      3624 9.40373E-05-2.68252E-05-2.88103E-05-1.25482E-06-7.27570E-19-8.33411E-19
 -1      3625 9.34429E-05-2.62423E-05-2.87930E-05-1.29717E-06-8.26806E-19-2.38787E-18
 -1      3626 9.42603E-05-2.70573E-05-2.88012E-05-1.11914E-06-3.83654E-19-2.37395E-19
 -1      3627 9.44003E-05-2.72470E-05-2.87840E-05-9.63725E-07 4.92137E-19 3.74766E-19
 -1      3628 9.39574E-05-2.67805E-05-2.87849E-05-1.02902E-06-1.61488E-19-1.34805E-18
 -1      3629 9.45647E-05-2.74301E-05-2.87716E-05-8.50349E-07 4.30418E-19 2.99682E-19
 -1      3630 9.46646E-05-2.75788E-05-2.87542E-05-7.24589E-07 8.22661E-19 7.24358E-19
 -1      3631 9.43390E-05-2.72106E-05-2.87656E-05-7.97031E-07 3.51535E-19-4.87734E-19
 -1      3632 9.47846E-05-2.77218E-05-2.87406E-05-6.32358E-07 5.56271E-19 4.91092E-19
 -1      3633 9.48552E-05-2.78374E-05-2.87243E-05-5.32661E-07 4.54881E-21 1.95699E-19
 -1      3634 9.46194E-05-2.75506E-05-2.87411E-05-6.02977E-07 4.07995E-19 7.86558E-20
 -1      3635 9.49418E-05-2.79479E-05-2.87111E-05-4.59429E-07-2.25564E-19-3.73330E-19
 -1      3636 9.49911E-05-2.80368E-05-2.86965E-05-3.81931E-07 6.61074E-20-7.49337E-19
 -1      3637 9.48232E-05-2.78165E-05-2.87154E-05-4.45196E-07-8.85930E-19-7.10519E-20
 -1      3638 9.50527E-05-2.81213E-05-2.86843E-05-3.25098E-07-7.45247E-20-1.46685E-18
 -1      3639 9.50866E-05-2.81890E-05-2.86717E-05-2.66018E-07-5.27625E-19-1.63746E-18
 -1      3640 9.49697E-05-2.80220E-05-2.86906E-05-3.20123E-07-7.69836E-19-1.35474E-18
 -1      3641 9.51297E-05-2.82529E-05-2.86610E-05-2.22890E-07 1.32156E-19-1.52092E-18
 -1      3642 9.51525E-05-2.83038E-05-2.86504E-05-1.78742E-07-1.74287E-19-1.20940E-18
 -1      3643 9.50732E-05-2.81792E-05-2.86680E-05-2.23304E-07-1.40064E-20-1.58049E-18
 -1      3644 9.51820E-05-2.83514E-05-2.86412E-05-1.46758E-07-5.71835E-19-3.87050E-19
 -1      3645 9.51969E-05-2.83893E-05-2.86326E-05-1.14466E-07-1.61986E-19-4.42258E-19
 -1      3646 9.51450E-05-2.82978E-05-2.86483E-05-1.50072E-07 3.92749E-20-2.87792E-19
 -1      3647 9.52165E-05-2.84242E-05-2.86249E-05-9.13240E-08-4.35880E-19-3.59043E-19
 -1      3648 9.52258E-05-2.84519E-05-2.86179E-05-6.82628E-08 2.44310E-19-1.00801E-18
 -1      3649 9.51936E-05-2.83860E-05-2.86314E-05-9.59762E-08-5.47575E-19 1.03982E-18
 -1      3650 9.52383E-05-2.84771E-05-2.86116E-05-5.19796E-08 8.03622E-19-1.25787E-18
 -1      3651 9.52438E-05-2.84970E-05-2.86061E-05-3.59673E-08 1.01416E-18-6.23068E-19
 -1      3652 9.52252E-05-2.84506E-05-2.86175E-05-5.70245E-08 5.01464E-19-1.05031E-19
 -1      3653 9.52512E-05-2.85148E-05-2.86011E-05-2.48893E-08 7.82805E-19-1.89299E-18
 -1      3654 9.52540E-05-2.85287E-05-2.85968E-05-1.41551E-08 2.63953E-19-1.75080E-18
 -1      3655 9.52449E-05-2.84970E-05-2.86061E-05-2.97822E-08 2.93875E-19-5.93946E-19
 -1      3656 9.52580E-05-2.85410E-05-2.85928E-05-6.93980E-09-3.39826E-19-1.58482E-18
 -1      3657 9.52591E-05-2.85505E-05-2.85895E-05-7.54749E-11-5.28102E-19-1.32140E-18
 -1      3658 9.52562E-05-2.85296E-05-2.85971E-05-1.13926E-08-3.03516E-19-1.17004E-18
 -1      3659 9.52607E-05-2.85586E-05-2.85865E-05 4.34104E-09-3.07344E-19-1.01285E-18
 -1      3660 9.52607E-05-2.85649E-05-2.85840E-05 8.43350E-09 1.59936E-19-3.27729E-19
 -1      3661 9.52617E-05-2.85518E-05-2.85900E-05 4.55843E-10-1.66472E-19-1.46704E-18
 -1      3662 9.52608E-05-2.85700E-05-2.85817E-05 1.08764E-08-7.07870E-20-5.90696E-19
 -1      3663 9.52601E-05-2.85739E-05-2.85799E-05 1.30371E-08 9.88458E-19-7.24304E-19
 -1      3664 9.52634E-05-2.85663E-05-2.85845E-05 7.58891E-09 1.01210E-19 2.80064E-19
 -1      3665 9.52594E-05-2.85769E-05-2.85781E-05 1.41326E-08 1.23771E-18-1.64103E-18
 -1      3666 9.52583E-05-2.85792E-05-2.85768E-05 1.49920E-08 1.50681E-18-1.77823E-18
 -1      3667 9.52628E-05-2.85754E-05-2.85803E-05 1.14172E-08 2.67677E-19 4.65445E-20
 -1      3668 9.52570E-05-2.85807E-05-2.85755E-05 1.52055E-08 1.34049E-18-2.65914E-18
 -1      3669 9.52559E-05-2.85818E-05-2.85746E-05 1.52269E-08 6.38391E-19-2.17501E-18
 -1      3670 9.52607E-05-2.85806E-05-2.85772E-05 1.30070E-08 8.80446E-19-1.28436E-18
 -1      3671 9.52544E-05-2.85824E-05-2.85737E-05 1.48960E-08 8.98320E-19-1.90793E-18
 -1      3672 9.52532E-05-2.85827E-05-2.85730E-05 1.44123E-08 9.74513E-19-1.21619E-18
 -1      3673 9.52579E-05-2.85831E-05-2.85750E-05 1.31466E-08 9.33639E-19-1.70966E-18
 -1      3674 9.52516E-05-2.85826E-05-2.85724E-05 1.37756E-08 6.26986E-19-4.81317E-19
 -1      3675 9.52505E-05-2.85825E-05-2.85720E-05 1.30196E-08 7.43575E-19-7.61293E-20
 -1      3676 9.52549E-05-2.85838E-05-2.85734E-05 1.24050E-08 1.21414E-18-2.20024E-19
 -1      3677 9.52490E-05-2.85821E-05-2.85715E-05 1.22408E-08 5.49833E-19-6.02244E-19
 -1      3678 9.52480E-05-2.85816E-05-2.85713E-05 1.13698E-08 1.30961E-18-1.92644E-19
 -1      3679 9.52519E-05-2.85834E-05-2.85723E-05 1.11822E-08 5.21556E-19 1.45908E-20
 -1      3680 9.52467E-05-2.85810E-05-2.85710E-05 1.05555E-08 6.89640E-19-1.13412E-18
 -1      3681 9.52458E-05-2.85804E-05-2.85708E-05 9.67021E-09 1.07549E-19-7.85115E-19
 -1      3682 9.52492E-05-2.85824E-05-2.85715E-05 9.74977E-09 6.01050E-20-1.49356E-18
 -1      3683 9.52446E-05-2.85797E-05-2.85707E-05 8.88713E-09-9.92289E-20-1.74053E-18
 -1      3684 9.52439E-05-2.85791E-05-2.85706E-05 8.04994E-09-1.18956E-18-1.66441E-18
 -1      3685 9.52467E-05-2.85811E-05-2.85710E-05 8.28222E-09-1.16973E-18-1.62027E-18
 -1      3686 9.52429E-05-2.85785E-05-2.85705E-05 7.33163E-09-6.42493E-19-7.97605E-19
 -1      3687 9.52422E-05-2.85779E-05-2.85704E-05 6.58738E-09 3.77240E-19 2.62153E-20
 -1      3688 9.52445E-05-2.85796E-05-2.85707E-05 6.88932E-09 1.21527E-19-1.94368E-18
 -1      3689 9.52418E-05-2.85776E-05-2.85704E-05 6.05127E-09-2.77107E-19 7.79119E-21
 -1      3690 9.52416E-05-2.85773E-05-2.85704E-05 5.39916E-09-9.00178E-19-1.03036E-19
 -1      3691 9.52424E-05-2.85779E-05-2.85705E-05 4.71906E-09-1.63874E-18-2.05907E-18
 -1      3692 9.52432E-05-2.85786E-05-2.85705E-05 5.69266E-09 2.37893E-19-2.18990E-18
 -1      3693 9.84512E-05-3.20232E-05-2.84377E-05 7.06815E-06-6.51053E-19-4.61461E-19
 -1      3694 9.98607E-05-3.33956E-05-2.84733E-05 7.10441E-06-6.62674E-19-6.99832E-19
 -1      3695 9.41374E-05-2.71140E-05-2.87259E-05 3.77371E-06-6.03570E-19 1.32913E-18
 -1      3696 9.43118E-05-2.73099E-05-2.87059E-05 4.13087E-06-6.11066E-19 8.19399E-19
 -1      3697 9.44230E-05-2.75490E-05-2.86588E-05 4.60013E-06-3.08688E-19 6.73934E-19
 -1      3698 9.47724E-05-2.79406E-05-2.86305E-05 4.96995E-06 8.25282E-20 7.47442E-19
 -1      3699 9.36279E-05-2.69783E-05-2.85726E-05 4.49386E-06-5.92886E-19 7.57058E-19
 -1      3700 9.41744E-05-2.70094E-05-2.87886E-05 2.41364E-06-5.56109E-19 1.12748E-18
 -1      3701 9.41731E-05-2.69894E-05-2.87876E-05 2.70021E-06-9.07853E-19 1.26835E-18
 -1      3702 9.43231E-05-2.71534E-05-2.87907E-05 1.88640E-06-4.64986E-19 8.63373E-19
 -1      3703 9.42882E-05-2.70867E-05-2.87965E-05 2.13152E-06-3.33077E-19 8.45261E-19
 -1      3704 9.38655E-05-2.67743E-05-2.87529E-05 2.21184E-06-4.23081E-19 2.16317E-18
 -1      3705 9.44919E-05-2.73467E-05-2.87800E-05 1.45182E-06-3.58186E-19 7.86713E-19
 -1      3706 9.44431E-05-2.72583E-05-2.87903E-05 1.65687E-06-2.67678E-19 1.00164E-18
 -1      3707 9.41024E-05-2.69833E-05-2.87641E-05 1.70433E-06-3.39718E-19 1.63103E-18
 -1      3708 9.46557E-05-2.75535E-05-2.87611E-05 1.09948E-06-1.71719E-18 8.77813E-19
 -1      3709 9.46046E-05-2.74596E-05-2.87740E-05 1.26762E-06-8.99467E-19 8.03031E-19
 -1      3710 9.43363E-05-2.72251E-05-2.87604E-05 1.29630E-06-9.06201E-19 7.07130E-19
 -1      3711 9.48013E-05-2.77519E-05-2.87380E-05 8.18315E-07-1.27828E-18 9.78991E-19
 -1      3712 9.47543E-05-2.76622E-05-2.87518E-05 9.53660E-07-1.65104E-18 4.15955E-19
 -1      3713 9.45476E-05-2.74678E-05-2.87470E-05 9.72092E-07-1.63192E-18 1.19666E-18
 -1      3714 9.49232E-05-2.79299E-05-2.87135E-05 5.97383E-07-8.61859E-20 9.92153E-19
 -1      3715 9.48832E-05-2.78497E-05-2.87271E-05 7.04416E-07-7.04480E-19 9.97596E-19
 -1      3716 9.47277E-05-2.76924E-05-2.87281E-05 7.17510E-07-8.88749E-19 1.01938E-18
 -1      3717 9.50208E-05-2.80822E-05-2.86896E-05 4.26483E-07 3.81018E-19 1.51465E-18
 -1      3718 9.49886E-05-2.80139E-05-2.87023E-05 5.09652E-07 3.08809E-19 1.68012E-18
 -1      3719 9.48744E-05-2.78894E-05-2.87068E-05 5.20035E-07-3.06086E-19 1.23147E-18
 -1      3720 9.50959E-05-2.82080E-05-2.86675E-05 2.96430E-07 1.00808E-18 1.29685E-18
 -1      3721 9.50712E-05-2.81518E-05-2.86788E-05 3.59906E-07 6.93407E-19 1.82902E-18
 -1      3722 9.49896E-05-2.80554E-05-2.86852E-05 3.68866E-07 6.04473E-19 1.71357E-18
 -1      3723 9.51518E-05-2.83088E-05-2.86480E-05 1.99182E-07 7.05644E-19 6.01156E-19
 -1      3724 9.51336E-05-2.82639E-05-2.86577E-05 2.46720E-07 1.28252E-18 1.11678E-18
 -1      3725 9.50771E-05-2.81909E-05-2.86649E-05 2.54804E-07 1.37086E-18 1.59906E-18
 -1      3726 9.51918E-05-2.83874E-05-2.86312E-05 1.27855E-07-6.42833E-19 1.20267E-18
 -1      3727 9.51789E-05-2.83525E-05-2.86394E-05 1.62733E-07-3.02136E-19 8.87993E-19
 -1      3728 9.51414E-05-2.82984E-05-2.86466E-05 1.70116E-07 1.98069E-19 1.73613E-18
 -1      3729 9.52193E-05-2.84472E-05-2.86171E-05 7.66808E-08-1.16060E-19 1.30848E-18
 -1      3730 9.52107E-05-2.84207E-05-2.86238E-05 1.01683E-07-3.41813E-19 8.83584E-19
 -1      3731 9.51871E-05-2.83816E-05-2.86306E-05 1.08378E-07-4.21930E-19 8.29336E-19
 -1      3732 9.52373E-05-2.84916E-05-2.86057E-05 4.09112E-08-6.55029E-19 2.03237E-18
 -1      3733 9.52319E-05-2.84720E-05-2.86111E-05 5.83485E-08 2.20014E-20 1.90128E-18
 -1      3734 9.52184E-05-2.84445E-05-2.86172E-05 6.43228E-08-5.30646E-19 1.38403E-18
 -1      3735 9.52483E-05-2.85237E-05-2.85965E-05 1.67099E-08-9.47628E-19 1.71355E-18
 -1      3736 9.52452E-05-2.85095E-05-2.86008E-05 2.84627E-08-4.90520E-19 2.17465E-18
 -1      3737 9.52386E-05-2.84909E-05-2.86060E-05 3.36888E-08-8.32979E-19 2.46502E-18
 -1      3738 9.52543E-05-2.85461E-05-2.85894E-05 1.02897E-09-4.40290E-19 8.02291E-19
 -1      3739 9.52528E-05-2.85363E-05-2.85926E-05 8.59663E-09-1.04157E-18 1.08683E-18
 -1      3740 9.52508E-05-2.85242E-05-2.85971E-05 1.30747E-08-4.98737E-19 1.59426E-18
 -1      3741 9.52568E-05-2.85613E-05-2.85839E-05-8.51237E-09 5.03898E-19 1.54896E-18
 -1      3742 9.52564E-05-2.85547E-05-2.85863E-05-3.95594E-09 2.29770E-19 7.94052E-19
 -1      3743 9.52574E-05-2.85473E-05-2.85900E-05-1.96019E-10-3.92716E-19 7.19040E-19
 -1      3744 9.52570E-05-2.85711E-05-2.85797E-05-1.37418E-08-6.61373E-19 1.88877E-18
 -1      3745 9.52573E-05-2.85669E-05-2.85815E-05-1.12945E-08 1.90847E-19 1.89274E-18
 -1      3746 9.52600E-05-2.85629E-05-2.85845E-05-8.19865E-09 8.89415E-20 2.02805E-18
 -1      3747 9.52559E-05-2.85771E-05-2.85767E-05-1.60372E-08-1.77748E-19 1.46612E-18
 -1      3748 9.52566E-05-2.85745E-05-2.85780E-05-1.50192E-08 1.19745E-20 1.73906E-18
 -1      3749 9.52602E-05-2.85728E-05-2.85803E-05-1.25173E-08-3.90849E-19 7.82210E-19
 -1      3750 9.52540E-05-2.85802E-05-2.85745E-05-1.64178E-08 1.43115E-19 1.14368E-18
 -1      3751 9.52549E-05-2.85789E-05-2.85754E-05-1.63268E-08-2.17621E-19 1.13889E-18
 -1      3752 9.52588E-05-2.85787E-05-2.85772E-05-1.43408E-08 1.12675E-19 9.47958E-19
 -1      3753 9.52517E-05-2.85816E-05-2.85729E-05-1.56206E-08-9.93602E-20 4.13619E-19
 -1      3754 9.52527E-05-2.85810E-05-2.85735E-05-1.60939E-08 1.98853E-19 1.23972E-18
 -1      3755 9.52565E-05-2.85817E-05-2.85749E-05-1.45447E-08 2.80488E-19 1.13292E-18
 -1      3756 9.52494E-05-2.85817E-05-2.85719E-05-1.41653E-08-2.67443E-19 6.98749E-19
 -1      3757 9.52503E-05-2.85817E-05-2.85723E-05-1.49482E-08-3.26951E-20 7.20081E-19
 -1      3758 9.52538E-05-2.85828E-05-2.85733E-05-1.37601E-08 1.50870E-19 1.24359E-18
 -1      3759 9.52472E-05-2.85810E-05-2.85712E-05-1.24081E-08-1.03412E-18 1.25156E-19
 -1      3760 9.52480E-05-2.85813E-05-2.85714E-05-1.33270E-08-6.73741E-19-2.32575E-19
 -1      3761 9.52511E-05-2.85828E-05-2.85722E-05-1.24305E-08-4.35482E-19 5.99945E-19
 -1      3762 9.52452E-05-2.85800E-05-2.85708E-05-1.05830E-08 4.12132E-19-4.64583E-19
 -1      3763 9.52459E-05-2.85805E-05-2.85709E-05-1.15249E-08-1.77748E-19-5.09063E-19
 -1      3764 9.52486E-05-2.85819E-05-2.85714E-05-1.08602E-08-7.05583E-19-2.26525E-19
 -1      3765 9.52434E-05-2.85789E-05-2.85705E-05-8.83348E-09 1.57947E-18-3.55358E-19
 -1      3766 9.52441E-05-2.85794E-05-2.85706E-05-9.72255E-09 1.14174E-18-4.24537E-19
 -1      3767 9.52463E-05-2.85808E-05-2.85710E-05-9.24162E-09 2.45097E-19-6.39325E-19
 -1      3768 9.52419E-05-2.85777E-05-2.85704E-05-7.22736E-09 4.25673E-19 3.78634E-19
 -1      3769 9.52425E-05-2.85782E-05-2.85704E-05-8.03428E-09 1.68343E-18-6.23160E-20
 -1      3770 9.52443E-05-2.85795E-05-2.85707E-05-7.68064E-09 1.26662E-18-6.41403E-20
 -1      3771 6.95832E-05-1.71926E-05-2.24830E-05 1.35918E-05-1.71542E-18 1.35012E-18
 -1      3772 6.57647E-05-1.38301E-05-2.22763E-05 5.63308E-06-1.13307E-18 1.54270E-18
 -1      3773 6.85048E-05-1.42818E-05-2.32463E-05-6.98085E-06-6.36674E-19 8.08586E-19
 -1      3774 9.52416E-05-2.85773E-05-2.85704E-05-5.40153E-09-5.24131E-19-6.13997E-19
 -1      3775 9.52416E-05-2.85774E-05-2.85704E-05-6.50634E-09 2.47592E-19-1.48329E-19
 -1      3776 9.52430E-05-2.85785E-05-2.85705E-05-6.23150E-09 6.10130E-19 1.26943E-18
 -1      3777 9.52423E-05-2.85778E-05-2.85705E-05-4.85479E-09 7.59957E-19 1.15334E-18
 -1      3778 8.19607E-05-2.68805E-05-2.36663E-05 2.11972E-05-2.52957E-18 5.07452E-19
 -1      3779 7.53621E-05-2.16106E-05-2.29499E-05 1.81826E-05-2.16130E-18 5.95041E-19
 -1      3780 7.84867E-05-1.73831E-05-2.62060E-05-5.86357E-06-5.56888E-19 1.43915E-19
 -1      3781 8.04871E-05-1.81341E-05-2.67797E-05-5.18946E-06-7.57310E-19-4.24351E-19
 -1      3782 8.04278E-05-1.79154E-05-2.67149E-05-2.90400E-06-6.76952E-19-2.98893E-19
 -1      3783 9.40893E-05-2.69698E-05-2.87685E-05 3.04189E-06-1.00345E-18 1.25822E-18
 -1      3784 9.41529E-05-2.70329E-05-2.87586E-05 3.36782E-06-6.31332E-19 1.39877E-18
 -1      3785 9.36617E-05-2.66488E-05-2.87208E-05 2.83593E-06-6.32378E-19 2.28468E-18
 -1      3786 9.95031E-05-3.38949E-05-2.81824E-05 8.73062E-06-1.02649E-18-1.35630E-18
 -1      3787 1.01623E-04-3.49684E-05-2.85160E-05 7.29521E-06-8.55174E-19-1.11020E-18
 -1      3788 1.03497E-04-3.66301E-05-2.86585E-05 6.93635E-06-1.00904E-18-1.37816E-18
 -1      3789 9.73193E-05-3.08537E-05-2.84709E-05 6.61863E-06-5.85726E-19 4.01820E-20
 -1      3790 9.66899E-05-3.09783E-05-2.82042E-05 7.84154E-06-8.52975E-19 2.50214E-20
 -1      3791 9.63562E-05-2.98539E-05-2.84845E-05 6.36718E-06-6.53318E-19 2.93055E-19
 -1      3792 9.35511E-05-2.66818E-05-2.86620E-05 3.59288E-06-6.29219E-19 2.12769E-18
 -1      3793 6.67620E-05-1.32172E-05-2.28606E-05-5.41293E-07-8.78276E-19 8.92574E-19
 -1      3794 7.11493E-05-1.51041E-05-2.39458E-05 2.43092E-06-1.16010E-18 1.10850E-18
 -1      3795 8.69396E-05-2.98233E-05-2.43451E-05 2.11596E-05-2.47215E-18 4.92968E-19
 -1      3796 8.55131E-05-2.74573E-05-2.48796E-05 1.80473E-05-1.78543E-18 5.70103E-19
 -1      3797 9.24700E-05-3.35484E-05-2.53289E-05 2.02738E-05-2.46104E-18 2.92498E-19
 -1      3798 7.56486E-05-1.98635E-05-2.38067E-05 1.35029E-05-1.92086E-18 7.67428E-19
 -1      3799 1.17952E-04-4.02681E-05-3.33785E-05-4.78177E-06-4.57702E-19-3.81666E-18
 -1      3800 1.19975E-04-4.51633E-05-3.19906E-05 6.61564E-07-1.36202E-18-4.26173E-18
 -1      3801 1.11301E-04-4.17768E-05-2.97173E-05 3.99129E-06-7.31195E-19-2.55380E-18
 -1      3802 1.13278E-04-4.24873E-05-3.03701E-05 2.15286E-06-8.01521E-19-2.70105E-18
 -1      3803 1.16946E-04-4.53585E-05-3.07200E-05 4.38982E-06-1.69802E-18-3.79393E-18
 -1      3804 9.52445E-05-2.85795E-05-2.85707E-05 5.45373E-10 4.69304E-19 1.86570E-19
 -1      3805 9.52445E-05-2.85795E-05-2.85707E-05-5.62195E-10 6.76199E-19-7.05017E-19
 -1      3806 1.07296E-04-3.87818E-05-2.94077E-05 3.51588E-06-5.21163E-19-1.59300E-18
 -1      3807 9.50952E-05-2.84101E-05-2.85723E-05 5.49018E-06-1.82190E-19 7.64651E-19
 -1      3808 9.57033E-05-2.90710E-05-2.85429E-05 5.83573E-06-4.79524E-19 6.19158E-19
 -1      3809 9.49633E-05-2.89471E-05-2.83198E-05 6.68980E-06-7.69746E-19 2.62200E-19
 -1      3810 1.07016E-04-4.38530E-05-2.69383E-05 1.92093E-05-2.87423E-18-1.91305E-18
 -1      3811 1.00851E-04-3.94499E-05-2.63421E-05 1.93523E-05-2.70835E-18-1.10849E-18
 -1      3812 1.10298E-04-4.44621E-05-2.82574E-05 1.38050E-05-2.06849E-18-3.32060E-18
 -1      3813 1.17204E-04-3.80953E-05-3.39224E-05-6.76255E-06-1.19478E-19-4.26881E-18
 -1      3814 1.16347E-04-3.57319E-05-3.45344E-05-7.75096E-06 7.42543E-19-4.63189E-18
 -1      3815 1.15178E-04-4.18082E-05-3.14326E-05-1.80664E-06-9.04813E-19-2.90151E-18
 -1      3816 1.15962E-04-4.03869E-05-3.24260E-05-4.05967E-06-8.30670E-19-3.72855E-18
 -1      3817 1.09456E-04-1.98093E-05-3.86578E-05 1.31552E-05 3.48558E-18-1.01195E-18
 -1      3818 9.52440E-05-2.85792E-05-2.85707E-05 2.46057E-09-1.99593E-18-1.72208E-18
 -1      3819 9.52443E-05-2.85794E-05-2.85707E-05 1.59018E-09-4.63170E-19-3.99631E-19
 -1      3820 9.52453E-05-2.85801E-05-2.85708E-05 1.06288E-09-5.93556E-19-9.88674E-19
 -1      3821 9.52430E-05-2.85784E-05-2.85705E-05-4.07037E-09 1.38827E-18 4.86274E-19
 -1      3822 9.52434E-05-2.85787E-05-2.85706E-05-4.70791E-09 1.07498E-18 1.59422E-18
 -1      3823 9.52435E-05-2.85788E-05-2.85706E-05-3.33212E-09 1.21906E-18-1.94879E-19
 -1      3824 7.53837E-05-1.59202E-05-2.53672E-05-3.08789E-06-1.04007E-18 7.75540E-20
 -1      3825 1.15159E-04-4.33722E-05-3.07810E-05 1.97076E-06-1.09611E-18-3.16951E-18
 -1      3826 9.40319E-05-2.76758E-05-2.84542E-05 5.53733E-06-1.17584E-19 6.06999E-19
 -1      3827 9.52439E-05-2.85791E-05-2.85706E-05-5.34384E-09 1.38709E-19 1.92623E-18
 -1      3828 9.52444E-05-2.85794E-05-2.85707E-05-6.10156E-09-7.48219E-20 1.56171E-18
 -1      3829 9.52447E-05-2.85796E-05-2.85707E-05-4.55136E-09 3.02390E-20 9.21339E-19
 -1      3830 8.58716E-05-2.08774E-05-2.78839E-05-1.44974E-06-1.23231E-18 2.51711E-19
 -1      3831 8.71090E-05-2.15776E-05-2.80980E-05-1.44999E-06-7.68060E-19 2.95500E-19
 -1      3832 8.81759E-05-2.22348E-05-2.82792E-05-1.58624E-06-6.15305E-19 1.47697E-19
 -1      3833 8.91070E-05-2.28447E-05-2.84086E-05-1.52743E-06-9.23978E-19-1.79697E-19
 -1      3834 8.74594E-05-2.18522E-05-2.80888E-05-4.36378E-07-9.75720E-19 8.95803E-19
 -1      3835 8.99344E-05-2.34152E-05-2.85211E-05-1.56999E-06-1.00713E-18 4.35248E-20
 -1      3836 9.06397E-05-2.39372E-05-2.85954E-05-1.46896E-06-5.41584E-19-2.67985E-20
 -1      3837 8.93120E-05-2.30293E-05-2.83862E-05-7.44172E-07-7.39697E-19 7.97388E-19
 -1      3838 9.12836E-05-2.44272E-05-2.86613E-05-1.45126E-06-7.71985E-19-5.22899E-19
 -1      3839 9.18170E-05-2.48675E-05-2.86995E-05-1.32829E-06-1.07786E-18-1.34739E-18
 -1      3840 9.07559E-05-2.40577E-05-2.85688E-05-8.59514E-07-1.07021E-18 1.99453E-19
 -1      3841 9.23152E-05-2.52804E-05-2.87348E-05-1.27605E-06-1.06816E-18-1.30835E-18
 -1      3842 9.27167E-05-2.56455E-05-2.87504E-05-1.14708E-06-1.14066E-18-1.39371E-18
 -1      3843 9.18773E-05-2.49441E-05-2.86734E-05-8.56584E-07-1.07482E-18-7.34610E-19
 -1      3844 9.31001E-05-2.59879E-05-2.87660E-05-1.07769E-06-7.66514E-19-1.55906E-18
 -1      3845 9.34007E-05-2.62869E-05-2.87678E-05-9.53292E-07-5.97655E-19-1.40167E-18
 -1      3846 9.27441E-05-2.56932E-05-2.87273E-05-7.84631E-07-8.82494E-19-4.00857E-19
 -1      3847 9.36945E-05-2.65677E-05-2.87709E-05-8.79659E-07-3.50477E-19-1.06232E-18
 -1      3848 9.39182E-05-2.68100E-05-2.87645E-05-7.67117E-07 1.36983E-19-7.50272E-19
 -1      3849 9.34115E-05-2.63162E-05-2.87485E-05-6.75689E-07-3.17565E-19-6.69845E-19
 -1      3850 9.41409E-05-2.70369E-05-2.87601E-05-6.97359E-07-5.00608E-20-3.03487E-19
 -1      3851 9.43059E-05-2.72307E-05-2.87496E-05-5.99991E-07 4.87520E-19 5.46761E-20
 -1      3852 9.39208E-05-2.68283E-05-2.87491E-05-5.57506E-07 3.00607E-19-7.76567E-21
 -1      3853 9.44729E-05-2.74118E-05-2.87412E-05-5.37999E-07 5.96987E-19 1.30089E-19
 -1      3854 9.45935E-05-2.75650E-05-2.87289E-05-4.56679E-07 9.86208E-20 1.80190E-19
 -1      3855 9.43051E-05-2.72426E-05-2.87375E-05-4.43720E-07 2.32213E-19 5.64326E-19
 -1      3856 9.47172E-05-2.77077E-05-2.87187E-05-4.04155E-07-5.16924E-19-1.10440E-20
 -1      3857 9.48043E-05-2.78275E-05-2.87063E-05-3.38222E-07-1.23072E-18-1.18283E-19
 -1      3858 9.45920E-05-2.75733E-05-2.87197E-05-3.41898E-07-2.97139E-19 4.61917E-19
 -1      3859 9.48947E-05-2.79385E-05-2.86956E-05-2.95382E-07-1.54869E-18 1.45948E-19
 -1      3860 9.49568E-05-2.80310E-05-2.86840E-05-2.43310E-07-1.29774E-18-6.98317E-19
 -1      3861 9.48033E-05-2.78338E-05-2.86994E-05-2.55395E-07-1.24419E-18 1.25946E-19
 -1      3862 9.50218E-05-2.81162E-05-2.86738E-05-2.09482E-07-3.33953E-19-1.24608E-19
 -1      3863 9.50652E-05-2.81868E-05-2.86633E-05-1.69347E-07 8.31415E-20 1.01168E-19
 -1      3864 9.49567E-05-2.80362E-05-2.86789E-05-1.84803E-07-5.59763E-19 9.09877E-19
 -1      3865 9.51110E-05-2.82513E-05-2.86540E-05-1.43405E-07 1.61875E-19-6.07780E-20
 -1      3866 9.51408E-05-2.83044E-05-2.86450E-05-1.13199E-07 6.10653E-19 9.52405E-19
 -1      3867 9.50661E-05-2.81914E-05-2.86597E-05-1.29101E-07 2.48239E-19 1.11432E-18
 -1      3868 9.51722E-05-2.83525E-05-2.86369E-05-9.38608E-08 2.27262E-19 1.31226E-18
 -1      3869 9.51920E-05-2.83918E-05-2.86292E-05-7.16759E-08 1.34242E-19 1.97195E-18
 -1      3870 9.51423E-05-2.83085E-05-2.86424E-05-8.64534E-08 8.43877E-19 1.00268E-18
 -1      3871 9.52129E-05-2.84271E-05-2.86224E-05-5.76749E-08 5.38830E-20 1.14546E-18
 -1      3872 9.52255E-05-2.84557E-05-2.86160E-05-4.18084E-08 2.14123E-19 6.98576E-19
 -1      3873 9.51939E-05-2.83955E-05-2.86275E-05-5.47332E-08-1.20414E-19 1.52087E-18
 -1      3874 9.52387E-05-2.84810E-05-2.86103E-05-3.19939E-08 2.95179E-19 5.09937E-19
 -1      3875 9.52463E-05-2.85013E-05-2.86052E-05-2.09889E-08-1.42652E-20 2.00297E-19
 -1      3876 9.52276E-05-2.84589E-05-2.86149E-05-3.18346E-08-7.70930E-20 1.30993E-18
 -1      3877 9.52541E-05-2.85191E-05-2.86006E-05-1.43692E-08-5.15508E-19 1.99750E-20
 -1      3878 9.52581E-05-2.85332E-05-2.85966E-05-7.02007E-09-9.05132E-19 2.57574E-20
 -1      3879 9.52484E-05-2.85042E-05-2.86045E-05-1.58423E-08-2.13219E-19 8.34182E-19
 -1      3880 9.52622E-05-2.85453E-05-2.85929E-05-2.77435E-09-8.76401E-19 1.31657E-19
 -1      3881 9.52639E-05-2.85548E-05-2.85897E-05 1.88964E-09 1.30534E-19 2.88063E-21
 -1      3882 9.52602E-05-2.85357E-05-2.85961E-05-5.10793E-09-6.04522E-19 1.49082E-18
 -1      3883 9.52655E-05-2.85628E-05-2.85868E-05 4.41951E-09 3.33537E-19-2.72528E-19
 -1      3884 9.52656E-05-2.85689E-05-2.85844E-05 7.16119E-09 2.38463E-19 5.63615E-19
 -1      3885 9.52658E-05-2.85569E-05-2.85895E-05 1.73056E-09 2.07522E-19 1.06881E-18
 -1      3886 9.52656E-05-2.85738E-05-2.85822E-05 8.48851E-09-1.45833E-19 1.05543E-18
 -1      3887 9.52648E-05-2.85774E-05-2.85803E-05 9.89405E-09 2.14347E-19 7.59944E-19
 -1      3888 9.52673E-05-2.85706E-05-2.85843E-05 5.76260E-09 3.84306E-19 6.87780E-19
 -1      3889 9.52639E-05-2.85802E-05-2.85787E-05 1.04090E-08 2.09344E-19 8.40601E-19
 -1      3890 9.52626E-05-2.85822E-05-2.85773E-05 1.09191E-08 4.39662E-19-8.05166E-20
 -1      3891 9.52663E-05-2.85788E-05-2.85804E-05 7.83561E-09 6.61280E-20 1.42142E-18
 -1      3892 9.52611E-05-2.85835E-05-2.85761E-05 1.09110E-08 4.69238E-19-5.11335E-19
 -1      3893 9.52596E-05-2.85843E-05-2.85751E-05 1.08492E-08 7.53087E-19-8.67226E-19
 -1      3894 9.52637E-05-2.85833E-05-2.85774E-05 8.59189E-09 2.81943E-19 1.00331E-18
 -1      3895 9.52578E-05-2.85847E-05-2.85742E-05 1.05268E-08 1.73241E-18-1.03743E-18
 -1      3896 9.52563E-05-2.85847E-05-2.85735E-05 1.01252E-08 9.86836E-19-4.23317E-19
 -1      3897 9.52605E-05-2.85852E-05-2.85752E-05 8.50590E-09 1.24404E-18-3.64544E-19
 -1      3898 9.52545E-05-2.85845E-05-2.85728E-05 9.63444E-09 1.50584E-19-2.79084E-19
 -1      3899 9.52530E-05-2.85841E-05-2.85724E-05 9.05455E-09 7.34809E-19-5.15549E-19
 -1      3900 9.52570E-05-2.85854E-05-2.85736E-05 7.91830E-09 8.89377E-19-1.87123E-18
 -1      3901 9.52514E-05-2.85835E-05-2.85719E-05 8.49632E-09 2.93753E-19-2.15553E-19
 -1      3902 9.52500E-05-2.85829E-05-2.85716E-05 7.84713E-09-7.15613E-19-1.03115E-18
 -1      3903 9.52536E-05-2.85846E-05-2.85725E-05 7.06715E-09 2.54053E-19-3.55966E-19
 -1      3904 9.52485E-05-2.85821E-05-2.85713E-05 7.28100E-09-1.70169E-18-9.53191E-19
 -1      3905 9.52473E-05-2.85814E-05-2.85711E-05 6.63282E-09-1.50322E-18-1.82450E-18
 -1      3906 9.52504E-05-2.85833E-05-2.85717E-05 6.11777E-09-7.76077E-19-1.18228E-18
 -1      3907 9.52460E-05-2.85806E-05-2.85709E-05 6.10451E-09-6.25803E-19-1.83113E-18
 -1      3908 9.52450E-05-2.85799E-05-2.85708E-05 5.50005E-09 1.27689E-19-2.23797E-18
 -1      3909 9.52476E-05-2.85817E-05-2.85711E-05 5.16854E-09-1.33181E-18-1.79055E-18
 -1      3910 9.38960E-05-2.68369E-05-2.87445E-05 1.45022E-06-2.60756E-19 1.55909E-18
 -1      3911 9.37754E-05-2.67040E-05-2.87418E-05 1.67126E-06-1.26163E-20 1.76115E-18
 -1      3912 9.35680E-05-2.65513E-05-2.87270E-05 1.91693E-06-5.28778E-19 1.96287E-18
 -1      3913 9.34534E-05-2.64413E-05-2.87149E-05 2.19222E-06-6.63625E-19 1.74452E-18
 -1      3914 9.33815E-05-2.63881E-05-2.87086E-05 1.64237E-06-2.39569E-19 1.70957E-18
 -1      3915 9.44523E-05-2.74104E-05-2.87356E-05 8.02485E-07-1.70406E-18 1.19800E-18
 -1      3916 9.43533E-05-2.72820E-05-2.87434E-05 9.40892E-07-1.54048E-18 1.16027E-18
 -1      3917 9.46645E-05-2.76588E-05-2.87194E-05 5.84765E-07-6.31027E-19 1.21409E-18
 -1      3918 9.45823E-05-2.75448E-05-2.87293E-05 6.92617E-07-9.94467E-19 1.17266E-18
 -1      3919 9.44038E-05-2.73686E-05-2.87272E-05 6.58142E-07-1.16541E-18 1.02951E-18
 -1      3920 9.48337E-05-2.78712E-05-2.87003E-05 4.18768E-07-7.96438E-19 1.46517E-18
 -1      3921 9.47680E-05-2.77741E-05-2.87109E-05 5.01851E-07-6.60482E-19 1.11624E-18
 -1      3922 9.46354E-05-2.76342E-05-2.87130E-05 4.74364E-07-7.23625E-19 9.45470E-19
 -1      3923 9.49643E-05-2.80470E-05-2.86805E-05 2.93564E-07 8.43079E-19 1.76181E-18
 -1      3924 9.49136E-05-2.79669E-05-2.86909E-05 3.56756E-07-2.80454E-19 1.30060E-18
 -1      3925 9.48172E-05-2.78577E-05-2.86955E-05 3.36412E-07-9.23496E-20 4.24371E-19
 -1      3926 9.50624E-05-2.81883E-05-2.86615E-05 2.00309E-07 1.22281E-18 1.60114E-18
 -1      3927 9.50245E-05-2.81241E-05-2.86712E-05 2.47690E-07 1.56086E-18 1.49685E-18
 -1      3928 9.49560E-05-2.80405E-05-2.86770E-05 2.33724E-07 9.84289E-19 9.21721E-19
 -1      3929 9.51338E-05-2.82993E-05-2.86443E-05 1.31866E-07-1.19770E-19 1.12083E-18
 -1      3930 9.51064E-05-2.82491E-05-2.86528E-05 1.66820E-07 8.73381E-19 1.45626E-18
 -1      3931 9.50591E-05-2.81862E-05-2.86590E-05 1.58088E-07 8.74511E-19 1.09181E-18
 -1      3932 9.51841E-05-2.83843E-05-2.86291E-05 8.25035E-08-3.87655E-19 4.00571E-19
 -1      3933 9.51650E-05-2.83460E-05-2.86365E-05 1.07810E-07-3.86647E-19 8.65657E-19
 -1      3934 9.51335E-05-2.82997E-05-2.86425E-05 1.03103E-07-4.53151E-20-3.33698E-20
 -1      3935 9.52181E-05-2.84480E-05-2.86162E-05 4.76460E-08-1.18022E-18 1.45255E-18
 -1      3936 9.52055E-05-2.84194E-05-2.86224E-05 6.55639E-08-7.62803E-19 4.38044E-19
 -1      3937 9.51856E-05-2.83861E-05-2.86280E-05 6.37757E-08-9.21406E-19-1.15431E-20
 -1      3938 9.52401E-05-2.84946E-05-2.86055E-05 2.36723E-08-6.76133E-19 1.27243E-18
 -1      3939 9.52322E-05-2.84738E-05-2.86106E-05 3.60158E-08-1.09029E-18 1.28109E-18
 -1      3940 9.52205E-05-2.84504E-05-2.86155E-05 3.62142E-08-6.57821E-19 3.29015E-19
 -1      3941 9.52532E-05-2.85277E-05-2.85969E-05 7.74200E-09-4.89724E-19 3.07175E-19
 -1      3942 9.52487E-05-2.85130E-05-2.86009E-05 1.59489E-08-5.48017E-19 8.00010E-19
 -1      3943 9.52428E-05-2.84971E-05-2.86052E-05 1.73977E-08-1.58522E-19-7.28311E-19
 -1      3944 9.52602E-05-2.85505E-05-2.85900E-05-2.34838E-09 3.19615E-19-3.01093E-19
 -1      3945 9.52580E-05-2.85404E-05-2.85931E-05 2.84669E-09 4.58122E-20-1.96423E-19
 -1      3946 9.52560E-05-2.85301E-05-2.85967E-05 4.99298E-09 3.17378E-19-1.64439E-18
 -1      3947 9.52629E-05-2.85656E-05-2.85846E-05-8.28762E-09-3.18825E-19 2.88622E-19
 -1      3948 9.52623E-05-2.85590E-05-2.85870E-05-5.23731E-09 1.39835E-19-1.86532E-19
 -1      3949 9.52627E-05-2.85527E-05-2.85900E-05-2.78813E-09 2.96966E-19-1.48091E-18
 -1      3950 9.52628E-05-2.85751E-05-2.85805E-05-1.13521E-08 8.07213E-20 6.65667E-19
 -1      3951 9.52632E-05-2.85710E-05-2.85823E-05-9.78834E-09-1.57711E-19 9.83923E-19
 -1      3952 9.52651E-05-2.85675E-05-2.85847E-05-7.30286E-09-4.38157E-19-6.70436E-19
 -1      3953 9.52611E-05-2.85805E-05-2.85774E-05-1.24914E-08-2.21858E-19 1.49379E-18
 -1      3954 9.52621E-05-2.85782E-05-2.85788E-05-1.19231E-08-1.22843E-19 1.06952E-18
 -1      3955 9.52648E-05-2.85767E-05-2.85806E-05-9.56917E-09-1.50351E-19 1.07778E-18
 -1      3956 9.52585E-05-2.85832E-05-2.85752E-05-1.23993E-08-5.70321E-20 1.79770E-18
 -1      3957 9.52598E-05-2.85821E-05-2.85761E-05-1.24671E-08 1.43773E-19 1.78904E-18
 -1      3958 9.52628E-05-2.85819E-05-2.85776E-05-1.03398E-08-2.49765E-19 1.55334E-18
 -1      3959 9.52556E-05-2.85840E-05-2.85735E-05-1.15716E-08-3.64467E-19 2.30210E-18
 -1      3960 9.52570E-05-2.85837E-05-2.85742E-05-1.20184E-08-3.89270E-19 1.80987E-18
 -1      3961 9.52599E-05-2.85843E-05-2.85753E-05-1.01615E-08-3.84724E-19 2.07405E-18
 -1      3962 9.52526E-05-2.85836E-05-2.85724E-05-1.03528E-08-4.09210E-19 1.67778E-18
 -1      3963 9.52539E-05-2.85839E-05-2.85729E-05-1.09996E-08 4.04662E-19 1.81798E-18
 -1      3964 9.52566E-05-2.85849E-05-2.85737E-05-9.42269E-09-1.32023E-20 2.90089E-18
 -1      3965 9.52497E-05-2.85826E-05-2.85716E-05-8.97816E-09 2.72724E-19-1.17938E-19
 -1      3966 9.52510E-05-2.85831E-05-2.85719E-05-9.70250E-09-1.60016E-19 6.78416E-19
 -1      3967 9.52534E-05-2.85843E-05-2.85725E-05-8.38919E-09 6.96212E-19 1.70408E-18
 -1      3968 9.52472E-05-2.85813E-05-2.85711E-05-7.60916E-09 4.62649E-19 1.15444E-19
 -1      3969 9.52483E-05-2.85819E-05-2.85713E-05-8.33311E-09 3.78381E-19-1.76680E-19
 -1      3970 9.52503E-05-2.85831E-05-2.85717E-05-7.25411E-09 4.73432E-19 5.35929E-19
 -1      3971 9.52453E-05-2.85801E-05-2.85708E-05-6.75072E-09 3.14739E-19 7.12657E-19
 -1      3972 1.14492E-04-4.54977E-05-2.94765E-05 8.78239E-06-1.71536E-18-3.61522E-18
 -1      3973 9.28640E-05-2.67189E-05-2.83523E-05 5.34095E-06-6.21576E-19 5.80628E-19
 -1      3974 9.31880E-05-2.71569E-05-2.82799E-05 5.92026E-06-7.24314E-19 1.74723E-19
 -1      3975 9.52430E-05-2.85784E-05-2.85705E-05 4.02956E-09-2.04981E-18-2.52274E-18
 -1      3976 9.52435E-05-2.85788E-05-2.85706E-05 3.28982E-09-1.80738E-18-2.13483E-18
 -1      3977 9.52446E-05-2.85796E-05-2.85707E-05 2.98356E-09-7.60485E-19-2.06078E-18
 -1      3978 9.52435E-05-2.85788E-05-2.85706E-05 4.49116E-09-6.00317E-19-2.11871E-18
 -1      3979 1.06030E-04-3.84912E-05-2.88654E-05 6.49259E-06-1.05108E-18-1.69516E-18
 -1      3980 1.08152E-04-4.00935E-05-2.92008E-05 5.48784E-06-6.45267E-19-2.11365E-18
 -1      3981 1.09474E-04-4.17905E-05-2.90927E-05 7.53896E-06-9.18802E-19-2.65282E-18
 -1      3982 7.98063E-05-2.22903E-05-2.46894E-05 1.42894E-05-2.18851E-18 3.14951E-19
 -1      3983 7.50038E-05-1.82438E-05-2.43404E-05 1.00222E-05-1.81930E-18 1.00126E-18
 -1      3984 7.36068E-05-1.63767E-05-2.44508E-05 6.25516E-06-1.49836E-18 1.47819E-18
 -1      3985 7.37127E-05-1.58296E-05-2.48823E-05 5.97920E-07-1.35823E-18 8.24219E-19
 -1      3986 7.67906E-05-1.68545E-05-2.57228E-05 4.35089E-07-1.24352E-18 3.85172E-19
 -1      3987 7.76525E-05-1.86489E-05-2.52286E-05 7.43126E-06-1.76924E-18 6.28761E-19
 -1      3988 9.41950E-05-2.71319E-05-2.87455E-05 1.08542E-06-8.14403E-19 8.92434E-19
 -1      3989 9.40818E-05-2.69953E-05-2.87492E-05 1.26120E-06-4.56173E-19 1.35542E-18
 -1      3990 9.37745E-05-2.67302E-05-2.87304E-05 1.22183E-06-1.64756E-19 2.05288E-18
 -1      3991 9.52443E-05-2.85793E-05-2.85707E-05-1.56464E-09 9.83451E-19 3.71671E-19
 -1      3992 9.52440E-05-2.85791E-05-2.85707E-05-2.42851E-09 9.19309E-19 7.15021E-19
 -1      3993 9.52446E-05-2.85796E-05-2.85707E-05-2.97774E-09 1.39768E-18-2.28762E-19
 -1      3994 9.52452E-05-2.85801E-05-2.85708E-05-1.03899E-09 7.12950E-19-1.03620E-19
 -1      3995 9.27847E-05-2.62893E-05-2.85041E-05 4.19141E-06-1.06965E-18 1.24697E-18
 -1      3996 9.28952E-05-2.64881E-05-2.84465E-05 4.68739E-06-5.03956E-19 9.07127E-19
 -1      3997 9.19669E-05-2.59903E-05-2.82824E-05 5.02045E-06-7.98392E-19 6.20889E-19
 -1      3998 7.91344E-05-1.77761E-05-2.63570E-05-2.93001E-07-1.21105E-18 3.28339E-19
 -1      3999 8.13416E-05-1.86687E-05-2.68859E-05-4.53192E-07-1.10505E-18 2.72794E-20
 -1      4000 7.86470E-05-1.78073E-05-2.59879E-05 3.09319E-06-1.56151E-18 6.52886E-19
 -1      4001 9.32368E-05-2.63166E-05-2.86861E-05 2.50967E-06-8.98453E-19 1.70410E-18
 -1      4002 9.31517E-05-2.62597E-05-2.86612E-05 2.84961E-06-6.41006E-19 1.83511E-18
 -1      4003 9.29559E-05-2.60730E-05-2.86616E-05 2.19134E-06-7.50454E-19 1.36230E-18
 -1      4004 9.29501E-05-2.61982E-05-2.86142E-05 3.25722E-06-5.68220E-19 1.79863E-18
 -1      4005 9.29329E-05-2.62385E-05-2.85737E-05 3.67126E-06-1.08015E-18 1.47287E-18
 -1      4006 9.21682E-05-2.57706E-05-2.84571E-05 3.83327E-06-1.12616E-18 8.05796E-19
 -1      4007 8.29586E-05-1.94089E-05-2.72793E-05-1.02026E-06-8.32569E-19 1.55295E-19
 -1      4008 8.46048E-05-2.02012E-05-2.76187E-05-1.10287E-06-1.04792E-18 9.00585E-20
 -1      4009 8.51796E-05-2.05918E-05-2.76391E-05 2.18978E-07-1.09690E-18 2.65001E-19
 -1      4010 8.24027E-05-1.92890E-05-2.69873E-05 1.37775E-06-9.46616E-19-2.83311E-19
 -1      4011 1.09572E-04-4.30171E-05-2.85483E-05 1.10811E-05-1.45267E-18-2.90764E-18
 -1      4012 1.01512E-04-3.84228E-05-2.71487E-05 1.55135E-05-2.06188E-18-1.58946E-18
 -1      4013 9.73380E-05-3.61055E-05-2.61349E-05 1.85168E-05-2.60267E-18-3.28459E-19
 -1      4014 9.39901E-05-3.29215E-05-2.62024E-05 1.68612E-05-1.74656E-18-2.33986E-19
 -1      4015 9.45916E-05-2.93303E-05-2.79581E-05 8.30988E-06-1.34639E-18-6.72875E-19
 -1      4016 9.57326E-05-3.05618E-05-2.78995E-05 8.94602E-06-1.46245E-18-1.56531E-18
 -1      4017 1.06415E-04-4.06278E-05-2.80700E-05 1.19697E-05-1.59391E-18-2.48434E-18
 -1      4018 9.41173E-05-2.70639E-05-2.87345E-05 9.01388E-07-8.84973E-19 1.90765E-18
 -1      4019 9.52439E-05-2.85791E-05-2.85706E-05 4.99075E-09 1.20392E-19-1.55072E-18
 -1      4020 1.03816E-04-3.77649E-05-2.84022E-05 8.90559E-06-1.25596E-18-1.98050E-18
 -1      4021 9.52470E-05-2.85813E-05-2.85711E-05-5.94446E-09-1.51823E-19 1.01322E-18
 -1      4022 9.43922E-05-3.03001E-05-2.75130E-05 1.05646E-05-1.44748E-18-1.67875E-18
 -1      4023 9.69127E-05-3.19994E-05-2.77921E-05 9.96077E-06-1.18260E-18-1.37612E-18
 -1      4024 9.87584E-05-3.37534E-05-2.78139E-05 1.03639E-05-1.26350E-18-1.74669E-18
 -1      4025 9.52452E-05-2.85800E-05-2.85708E-05 4.22675E-09 2.71397E-19-1.77025E-18
 -1      4026 8.30685E-05-2.43967E-05-2.50271E-05 1.53315E-05-1.99255E-18 8.15166E-19
 -1      4027 8.17667E-05-2.25809E-05-2.54216E-05 1.24189E-05-1.98263E-18 7.83595E-19
 -1      4028 8.69532E-05-2.73555E-05-2.55643E-05 1.57638E-05-1.64533E-18 6.85099E-19
 -1      4029 9.25319E-05-2.58392E-05-2.85809E-05 2.90726E-06-8.87901E-19 8.43303E-19
 -1      4030 9.52465E-05-2.85809E-05-2.85710E-05-7.32529E-10-4.76213E-19-1.36378E-18
 -1      4031 9.52462E-05-2.85807E-05-2.85709E-05-1.76492E-09-4.22287E-19 3.99381E-19
 -1      4032 9.33731E-05-2.76578E-05-2.81633E-05 6.72279E-06-8.26959E-19-5.08871E-19
 -1      4033 9.40283E-05-2.84378E-05-2.80858E-05 7.36716E-06-1.03187E-18-5.76973E-19
 -1      4034 9.27666E-05-2.80088E-05-2.77858E-05 8.38874E-06-1.45771E-18-1.52395E-18
 -1      4035 9.52463E-05-2.85808E-05-2.85709E-05 1.60895E-09-6.50357E-19-1.00806E-18
 -1      4036 9.52465E-05-2.85809E-05-2.85710E-05 5.33667E-10-6.13847E-19-6.71460E-19
 -1      4037 9.52474E-05-2.85816E-05-2.85711E-05-2.02455E-10-8.89079E-19-9.37437E-19
 -1      4038 9.20853E-05-2.66570E-05-2.80556E-05 6.52325E-06-1.18779E-18-7.96893E-19
 -1      4039 1.02712E-04-3.78480E-05-2.77815E-05 1.20625E-05-1.60678E-18-2.00898E-18
 -1      4040 8.88663E-05-2.29119E-05-2.82897E-05 1.15795E-07-7.51997E-19 7.11372E-19
 -1      4041 8.97023E-05-2.34269E-05-2.84072E-05-3.07392E-08-8.44176E-19 3.05294E-19
 -1      4042 9.03672E-05-2.38985E-05-2.85007E-05-2.26846E-07-1.34606E-18 1.82837E-19
 -1      4043 9.10087E-05-2.43534E-05-2.85707E-05-2.90969E-07-1.42451E-18-1.96676E-19
 -1      4044 9.01107E-05-2.37588E-05-2.84200E-05 5.55638E-07-1.24216E-18-2.43381E-19
 -1      4045 9.15432E-05-2.47656E-05-2.86278E-05-3.95850E-07-1.54371E-18-3.46180E-19
 -1      4046 9.20382E-05-2.51584E-05-2.86667E-05-4.04370E-07-1.40033E-18-4.52675E-19
 -1      4047 9.12837E-05-2.45851E-05-2.85707E-05 1.86401E-07-1.80895E-18-4.36994E-19
 -1      4048 9.24591E-05-2.55132E-05-2.86988E-05-4.46733E-07-1.21344E-18-5.93405E-19
 -1      4049 9.28466E-05-2.58459E-05-2.87175E-05-4.19369E-07-9.20431E-19-4.69423E-19
 -1      4050 9.22109E-05-2.53122E-05-2.86594E-05-5.73868E-09-1.67093E-18-8.22400E-19
 -1      4051 9.31807E-05-2.61522E-05-2.87322E-05-4.32523E-07-2.03589E-19-5.22910E-19
 -1      4052 9.34783E-05-2.64304E-05-2.87376E-05-3.90263E-07 3.52599E-19-3.25173E-19
 -1      4053 9.29723E-05-2.59619E-05-2.87078E-05-1.11471E-07-4.68516E-19-9.23333E-19
 -1      4054 9.37385E-05-2.66849E-05-2.87412E-05-3.84504E-07 3.36169E-19-1.57038E-19
 -1      4055 9.39639E-05-2.69131E-05-2.87385E-05-3.37391E-07 3.60879E-19 2.47906E-20
 -1      4056 9.35646E-05-2.65130E-05-2.87275E-05-1.53571E-07 5.44776E-19-7.87863E-19
 -1      4057 9.41644E-05-2.71216E-05-2.87353E-05-3.22264E-07 2.12978E-19 2.15078E-19
 -1      4058 9.43334E-05-2.73061E-05-2.87280E-05-2.76388E-07 4.79857E-19 2.50453E-20
 -1      4059 9.40238E-05-2.69729E-05-2.87290E-05-1.57511E-07 5.93201E-19-1.42050E-18
 -1      4060 9.44858E-05-2.74742E-05-2.87210E-05-2.58058E-07-1.11759E-19 4.90142E-20
 -1      4061 9.46111E-05-2.76213E-05-2.87116E-05-2.16811E-07-5.90793E-19-1.12318E-19
 -1      4062 9.43754E-05-2.73500E-05-2.87198E-05-1.41908E-07 1.85266E-19-1.09278E-18
 -1      4063 9.47252E-05-2.77547E-05-2.87028E-05-1.98778E-07-9.60938E-19 5.40341E-19
 -1      4064 9.48168E-05-2.78703E-05-2.86926E-05-1.63656E-07-1.01738E-18 5.30435E-19
 -1      4065 9.46408E-05-2.76539E-05-2.87046E-05-1.18174E-07-2.86100E-20-8.65370E-19
 -1      4066 9.49006E-05-2.79746E-05-2.86833E-05-1.47683E-07-4.09639E-19 5.70326E-19
 -1      4067 9.49665E-05-2.80641E-05-2.86734E-05-1.18983E-07 3.37976E-19 1.23151E-18
 -1      4068 9.48379E-05-2.78948E-05-2.86869E-05-9.28893E-08-1.84130E-19 5.39043E-19
 -1      4069 9.50270E-05-2.81445E-05-2.86644E-05-1.05764E-07-8.40047E-20 9.77860E-19
 -1      4070 9.50735E-05-2.82127E-05-2.86553E-05-8.30939E-08 6.75848E-20 6.54247E-19
 -1      4071 9.49817E-05-2.80828E-05-2.86688E-05-6.95328E-08 2.81237E-19 8.62127E-19
 -1      4072 9.51161E-05-2.82736E-05-2.86471E-05-7.27017E-08 6.96003E-19 7.49944E-19
 -1      4073 9.51480E-05-2.83248E-05-2.86390E-05-5.53256E-08 7.76435E-19 7.25675E-19
 -1      4074 9.50843E-05-2.82269E-05-2.86517E-05-4.96595E-08 8.62310E-19 6.74716E-19
 -1      4075 9.51772E-05-2.83701E-05-2.86317E-05-4.75081E-08-5.32690E-20 8.67803E-19
 -1      4076 9.51985E-05-2.84079E-05-2.86249E-05-3.45660E-08-1.35169E-19 1.45992E-18
 -1      4077 9.51557E-05-2.83356E-05-2.86362E-05-3.36924E-08 5.07699E-19 2.33220E-19
 -1      4078 9.52177E-05-2.84410E-05-2.86186E-05-2.89285E-08-3.75910E-19 1.65004E-18
 -1      4079 9.52312E-05-2.84683E-05-2.86129E-05-1.95674E-08-3.06483E-19 1.69557E-18
 -1      4080 9.52039E-05-2.84161E-05-2.86227E-05-2.14393E-08 2.02236E-20 9.05700E-19
 -1      4081 9.52432E-05-2.84919E-05-2.86077E-05-1.56819E-08-6.39711E-19 1.51368E-18
 -1      4082 9.52513E-05-2.85112E-05-2.86030E-05-9.12548E-09-5.14990E-19 1.09519E-18
 -1      4083 9.52350E-05-2.84745E-05-2.86113E-05-1.24160E-08-4.02271E-19 1.11588E-18
 -1      4084 9.52582E-05-2.85276E-05-2.85988E-05-6.58978E-09-5.75528E-19 9.24640E-19
 -1      4085 9.52624E-05-2.85408E-05-2.85951E-05-2.17027E-09-2.58371E-19 1.15994E-18
 -1      4086 9.52538E-05-2.85158E-05-2.86018E-05-6.04023E-09-5.66457E-19 1.23332E-18
 -1      4087 9.52658E-05-2.85519E-05-2.85917E-05-6.35613E-10-5.54092E-19 1.38256E-18
 -1      4088 9.52675E-05-2.85606E-05-2.85887E-05 2.19866E-09-1.40210E-19 7.80043E-19
 -1      4089 9.52641E-05-2.85442E-05-2.85942E-05-1.73882E-09-2.06844E-19 1.33324E-18
 -1      4090 9.52685E-05-2.85677E-05-2.85860E-05 3.01846E-09 1.14469E-19 1.16453E-18
 -1      4091 9.52686E-05-2.85732E-05-2.85838E-05 4.70874E-09 5.99907E-19 6.79600E-19
 -1      4092 9.52685E-05-2.85631E-05-2.85881E-05 9.98335E-10 3.05329E-19 1.23662E-18
 -1      4093 9.52682E-05-2.85775E-05-2.85817E-05 5.03889E-09 5.87309E-19 1.18052E-18
 -1      4094 9.52672E-05-2.85806E-05-2.85800E-05 5.92847E-09 4.98749E-19 1.56886E-18
 -1      4095 9.52692E-05-2.85749E-05-2.85833E-05 2.59779E-09 8.30575E-19 1.29438E-18
 -1      4096 9.52659E-05-2.85829E-05-2.85784E-05 5.93998E-09 1.96852E-19 1.48822E-18
 -1      4097 9.52644E-05-2.85845E-05-2.85771E-05 6.28913E-09 3.43943E-19 9.33389E-19
 -1      4098 9.52675E-05-2.85818E-05-2.85797E-05 3.40031E-09 2.09074E-19 1.09409E-18
 -1      4099 9.52627E-05-2.85854E-05-2.85759E-05 6.10768E-09-3.69435E-19 7.95423E-19
 -1      4100 9.52610E-05-2.85859E-05-2.85750E-05 6.10871E-09 3.50569E-19-3.91972E-19
 -1      4101 9.52645E-05-2.85853E-05-2.85769E-05 3.66853E-09-2.05378E-19-7.47210E-19
 -1      4102 9.52591E-05-2.85860E-05-2.85742E-05 5.82348E-09 3.86059E-19-1.65706E-18
 -1      4103 9.52573E-05-2.85858E-05-2.85735E-05 5.61414E-09 3.27532E-19-2.12953E-18
 -1      4104 9.52609E-05-2.85864E-05-2.85749E-05 3.59903E-09-7.84224E-19-1.47182E-18
 -1      4105 9.52555E-05-2.85854E-05-2.85729E-05 5.28414E-09 4.95912E-19-2.38497E-18
 -1      4106 9.52538E-05-2.85848E-05-2.85724E-05 4.95893E-09 1.72581E-19-1.74374E-18
 -1      4107 9.52572E-05-2.85861E-05-2.85734E-05 3.33647E-09-1.89080E-19-2.31888E-18
 -1      4108 9.52521E-05-2.85841E-05-2.85720E-05 4.62058E-09-7.90026E-20-1.40100E-18
 -1      4109 9.52505E-05-2.85833E-05-2.85716E-05 4.23040E-09-1.38177E-18-1.93331E-18
 -1      4110 9.52536E-05-2.85849E-05-2.85723E-05 2.99149E-09 1.34496E-19-2.52621E-18
 -1      4111 9.52458E-05-2.85804E-05-2.85709E-05-2.73523E-09 5.09277E-19 1.01240E-18
 -1      4112 9.52453E-05-2.85801E-05-2.85708E-05-3.65858E-09 6.29274E-19 4.78289E-19
 -1      4113 9.52460E-05-2.85805E-05-2.85709E-05-4.36140E-09-1.53797E-18 1.52565E-18
 -1      4114 9.52470E-05-2.85813E-05-2.85710E-05-2.49517E-09-3.97341E-19 1.24376E-19
 -1      4115 8.69827E-05-2.18285E-05-2.79550E-05 7.20161E-07-6.67014E-19 9.40196E-20
 -1      4116 8.80665E-05-2.24034E-05-2.81415E-05 4.38994E-07-7.12413E-19 5.78956E-19
 -1      4117 8.86400E-05-2.28617E-05-2.81744E-05 1.20280E-06-5.84656E-19 1.35990E-19
 -1      4118 9.15668E-05-2.52474E-05-2.84332E-05 3.27137E-06-9.56277E-19-1.03850E-19
 -1      4119 9.14184E-05-2.52241E-05-2.83553E-05 3.78010E-06-7.85849E-19 6.33583E-20
 -1      4120 9.46204E-05-2.76423E-05-2.87079E-05 3.43939E-07-3.32165E-19 3.28266E-19
 -1      4121 9.45189E-05-2.75140E-05-2.87159E-05 4.18158E-07-5.06950E-19 5.32788E-19
 -1      4122 9.43734E-05-2.73657E-05-2.87214E-05 4.86209E-07-6.69597E-19 1.08723E-18
 -1      4123 9.42460E-05-2.72145E-05-2.87269E-05 5.84755E-07-8.48842E-19 1.25101E-18
 -1      4124 9.43794E-05-2.73617E-05-2.87162E-05 3.50282E-07-2.30465E-19-9.74246E-20
 -1      4125 9.49553E-05-2.80551E-05-2.86732E-05 1.63426E-07 1.15883E-18-8.10313E-20
 -1      4126 9.48962E-05-2.79702E-05-2.86823E-05 2.04760E-07 4.40224E-19 2.21189E-20
 -1      4127 9.50612E-05-2.82003E-05-2.86559E-05 1.08394E-07 6.96788E-19 3.75085E-19
 -1      4128 9.50179E-05-2.81337E-05-2.86645E-05 1.38823E-07 1.25111E-18 5.18173E-19
 -1      4129 9.49660E-05-2.80641E-05-2.86698E-05 1.11596E-07 7.00678E-19-4.84419E-19
 -1      4130 9.51369E-05-2.83123E-05-2.86400E-05 6.90678E-08-2.08070E-19 5.64148E-19
 -1      4131 9.51062E-05-2.82611E-05-2.86478E-05 9.11901E-08 5.57491E-19 1.01323E-18
 -1      4132 9.50705E-05-2.82092E-05-2.86531E-05 7.28751E-08 5.33694E-19 6.07747E-19
 -1      4133 9.51893E-05-2.83968E-05-2.86260E-05 4.13944E-08-6.15811E-19 3.30832E-20
 -1      4134 9.51683E-05-2.83583E-05-2.86327E-05 5.72249E-08-7.04710E-19 4.03140E-19
 -1      4135 9.51445E-05-2.83203E-05-2.86378E-05 4.56878E-08-1.81353E-19 6.19132E-19
 -1      4136 9.52241E-05-2.84591E-05-2.86140E-05 2.23133E-08-6.79198E-20-1.41006E-18
 -1      4137 9.52104E-05-2.84309E-05-2.86197E-05 3.34167E-08-1.15189E-19-7.84883E-20
 -1      4138 9.51954E-05-2.84037E-05-2.86243E-05 2.68466E-08 2.98626E-19-7.13742E-19
 -1      4139 9.52461E-05-2.85040E-05-2.86040E-05 9.51206E-09 1.80685E-19-1.49116E-18
 -1      4140 9.52377E-05-2.84838E-05-2.86087E-05 1.71012E-08 7.23238E-20-8.17076E-19
 -1      4141 9.52288E-05-2.84648E-05-2.86127E-05 1.40309E-08 1.57947E-19-1.75062E-18
 -1      4142 9.52588E-05-2.85355E-05-2.85959E-05 1.24637E-09 1.08913E-18-2.20019E-18
 -1      4143 9.52542E-05-2.85214E-05-2.85997E-05 6.25705E-09 5.65535E-19-1.93327E-18
 -1      4144 9.52496E-05-2.85086E-05-2.86030E-05 5.54225E-09 5.64871E-19-1.13901E-18
 -1      4145 9.52650E-05-2.85568E-05-2.85894E-05-3.79474E-09 2.67261E-19-1.17086E-18
 -1      4146 9.52630E-05-2.85473E-05-2.85924E-05-6.45253E-10 5.09113E-19-1.52125E-18
 -1      4147 9.52613E-05-2.85391E-05-2.85952E-05 1.33433E-10 3.23940E-19-1.32888E-18
 -1      4148 9.52670E-05-2.85705E-05-2.85843E-05-6.58981E-09-7.44080E-19-7.30478E-19
 -1      4149 9.52667E-05-2.85645E-05-2.85866E-05-4.75682E-09-2.60216E-19-1.31141E-18
 -1      4150 9.52668E-05-2.85595E-05-2.85889E-05-3.11224E-09-2.66919E-19-6.92778E-19
 -1      4151 9.52663E-05-2.85788E-05-2.85803E-05-7.86233E-09-4.98532E-19-5.01021E-19
 -1      4152 9.52670E-05-2.85753E-05-2.85821E-05-6.93692E-09-2.98947E-19-1.18874E-18
 -1      4153 9.52683E-05-2.85725E-05-2.85839E-05-4.86695E-09-7.75482E-19-1.70566E-18
 -1      4154 9.52640E-05-2.85833E-05-2.85774E-05-8.14051E-09-6.84458E-19-4.05228E-19
 -1      4155 9.52653E-05-2.85815E-05-2.85787E-05-7.82001E-09-9.56534E-19-7.51157E-19
 -1      4156 9.52671E-05-2.85803E-05-2.85801E-05-5.62084E-09-6.05993E-19-2.75320E-18
 -1      4157 9.52608E-05-2.85853E-05-2.85752E-05-7.80364E-09-5.30921E-19 2.10594E-19
 -1      4158 9.52624E-05-2.85846E-05-2.85762E-05-7.86799E-09-7.76402E-19 7.34352E-19
 -1      4159 9.52645E-05-2.85844E-05-2.85773E-05-5.72800E-09-1.24983E-18-1.48933E-18
 -1      4160 9.52573E-05-2.85855E-05-2.85736E-05-7.11781E-09 3.64222E-19 2.70018E-19
 -1      4161 9.52590E-05-2.85855E-05-2.85743E-05-7.41125E-09-2.00512E-19 7.99646E-19
 -1      4162 9.52611E-05-2.85860E-05-2.85751E-05-5.44132E-09-7.46520E-19-1.74259E-18
 -1      4163 9.52539E-05-2.85847E-05-2.85725E-05-6.26152E-09 6.77685E-19 2.53407E-19
 -1      4164 9.52555E-05-2.85852E-05-2.85730E-05-6.67842E-09 7.61879E-19 1.05483E-18
 -1      4165 9.52574E-05-2.85860E-05-2.85736E-05-4.93934E-09 1.03980E-19-1.48325E-18
 -1      4166 9.52507E-05-2.85833E-05-2.85717E-05-5.33833E-09 8.67856E-19 2.42942E-19
 -1      4167 9.52522E-05-2.85840E-05-2.85720E-05-5.80305E-09 5.71337E-19 3.21560E-19
 -1      4168 9.52540E-05-2.85850E-05-2.85725E-05-4.33493E-09 8.69734E-19-1.46209E-19
 -1      4169 1.00096E-04-3.55142E-05-2.76247E-05 1.19847E-05-1.64883E-18-1.73312E-18
 -1      4170 9.36788E-05-2.66721E-05-2.87235E-05 9.40562E-07-6.50574E-19 1.99986E-18
 -1      4171 9.34973E-05-2.64854E-05-2.87170E-05 1.11287E-06-8.65556E-20 1.66675E-18
 -1      4172 9.40617E-05-2.70408E-05-2.87282E-05 6.79271E-07-9.64813E-19 1.76629E-18
 -1      4173 9.39067E-05-2.68687E-05-2.87291E-05 8.09670E-07-5.48748E-19 2.35158E-18
 -1      4174 9.36563E-05-2.66291E-05-2.87174E-05 7.08937E-07-6.08153E-19 1.66517E-18
 -1      4175 9.52458E-05-2.85804E-05-2.85709E-05 3.36750E-09 8.94823E-20-1.14681E-18
 -1      4176 8.07867E-05-2.04696E-05-2.57579E-05 8.99724E-06-1.76576E-18 3.82659E-19
 -1      4177 7.90898E-05-1.89223E-05-2.58400E-05 5.84770E-06-1.69953E-18 5.75539E-19
 -1      4178 8.13140E-05-1.95907E-05-2.64431E-05 4.59151E-06-1.59633E-18 2.80561E-19
 -1      4179 9.48114E-05-2.78709E-05-2.86910E-05 2.39548E-07 4.23983E-19-2.78264E-19
 -1      4180 9.47328E-05-2.77652E-05-2.87001E-05 2.95144E-07 2.61480E-19 3.11973E-19
 -1      4181 9.48226E-05-2.78785E-05-2.86870E-05 1.66255E-07 5.17425E-19-4.78823E-19
 -1      4182 9.32223E-05-2.62725E-05-2.87008E-05 1.29395E-06 8.94367E-20 1.29926E-18
 -1      4183 9.30209E-05-2.60838E-05-2.86833E-05 1.52174E-06-2.31613E-19 1.73967E-18
 -1      4184 9.31660E-05-2.61907E-05-2.86942E-05 9.99389E-07-2.94983E-19 1.17639E-18
 -1      4185 9.10337E-05-2.51828E-05-2.82394E-05 4.42452E-06-8.51539E-19 7.37657E-20
 -1      4186 9.10243E-05-2.53243E-05-2.81333E-05 5.09143E-06-9.82602E-19-4.30880E-20
 -1      4187 9.04430E-05-2.45945E-05-2.82141E-05 3.86134E-06-7.20718E-19-3.76710E-19
 -1      4188 9.21395E-05-2.55067E-05-2.85661E-05 2.41399E-06-1.29678E-18 2.19104E-19
 -1      4189 9.19334E-05-2.53852E-05-2.85134E-05 2.80437E-06-1.16661E-18-2.33878E-19
 -1      4190 9.12124E-05-2.48698E-05-2.84221E-05 2.74424E-06-1.19499E-18-5.66263E-19
 -1      4191 9.07019E-05-2.54768E-05-2.79750E-05 5.95428E-06-1.12121E-18 6.05674E-20
 -1      4192 9.09124E-05-2.58823E-05-2.78403E-05 6.80018E-06-1.22399E-18-3.19901E-19
 -1      4193 8.97716E-05-2.45947E-05-2.79278E-05 5.35875E-06-1.03780E-18-3.08935E-20
 -1      4194 9.07339E-05-2.62717E-05-2.76381E-05 7.91138E-06-1.60660E-18-6.72091E-19
 -1      4195 9.12639E-05-2.70781E-05-2.74813E-05 8.99919E-06-1.75824E-18-9.17396E-19
 -1      4196 8.93367E-05-2.50712E-05-2.75463E-05 7.36768E-06-1.57757E-18 6.39073E-19
 -1      4197 9.26993E-05-2.58679E-05-2.86518E-05 1.77217E-06-7.46989E-19 6.87492E-19
 -1      4198 9.24877E-05-2.56962E-05-2.86191E-05 2.07334E-06-1.28473E-18 7.01047E-19
 -1      4199 9.25830E-05-2.57285E-05-2.86446E-05 1.40146E-06-7.73453E-19 4.48921E-19
 -1      4200 9.52470E-05-2.85813E-05-2.85710E-05 2.91179E-09-1.64931E-19-6.11395E-19
 -1      4201 9.52487E-05-2.85824E-05-2.85713E-05 4.85005E-10-3.76054E-19-8.38677E-19
 -1      4202 9.52488E-05-2.85824E-05-2.85713E-05-8.26201E-10-1.10520E-18-1.06476E-18
 -1      4203 9.52484E-05-2.85821E-05-2.85713E-05-2.04417E-09-1.10550E-18-2.80215E-19
 -1      4204 9.52479E-05-2.85818E-05-2.85712E-05-3.06323E-09-9.18655E-19 2.51546E-19
 -1      4205 9.52498E-05-2.85830E-05-2.85715E-05-1.38897E-09-1.48810E-18-3.26048E-19
 -1      4206 9.52490E-05-2.85825E-05-2.85714E-05 3.96187E-09-2.09083E-18-1.70793E-18
 -1      4207 9.52477E-05-2.85817E-05-2.85711E-05 3.57560E-09-7.94669E-19-1.69711E-18
 -1      4208 9.46306E-05-2.76461E-05-2.87033E-05 2.42971E-07 1.63126E-19-1.31167E-19
 -1      4209 9.19338E-05-2.52743E-05-2.85602E-05 1.95311E-06-1.47951E-18-1.34238E-19
 -1      4210 9.40581E-05-2.70222E-05-2.87225E-05 5.00097E-07-4.20061E-19 7.37724E-19
 -1      4211 9.67501E-05-3.34524E-05-2.71518E-05 1.34019E-05-1.65376E-18-1.19167E-18
 -1      4212 9.52493E-05-2.85826E-05-2.85714E-05-4.58569E-09 3.15421E-20 3.29644E-20
 -1      4213 9.52507E-05-2.85835E-05-2.85717E-05-3.23552E-09-2.73095E-19 8.82757E-20
 -1      4214 8.30854E-05-2.25068E-05-2.59962E-05 1.03146E-05-1.62358E-18 8.12427E-19
 -1      4215 8.61217E-05-2.13628E-05-2.77487E-05 1.26619E-06-6.62312E-19 2.47012E-19
 -1      4216 8.69621E-05-2.19924E-05-2.78219E-05 2.22074E-06-5.58257E-19 3.38915E-19
 -1      4217 8.48360E-05-2.08084E-05-2.74840E-05 1.79534E-06-8.52633E-19-2.24212E-19
 -1      4218 9.42013E-05-3.19113E-05-2.67016E-05 1.43358E-05-1.53870E-18-6.99406E-19
 -1      4219 9.03271E-05-2.93910E-05-2.60369E-05 1.56985E-05-1.45837E-18-1.21172E-19
 -1      4220 8.77999E-05-2.68576E-05-2.61473E-05 1.36023E-05-1.54320E-18 4.59782E-19
 -1      4221 9.31325E-05-3.02667E-05-2.69712E-05 1.25865E-05-1.24361E-18-9.65980E-19
 -1      4222 9.52474E-05-2.85814E-05-2.85711E-05-4.00348E-09-1.13363E-18 1.18621E-18
 -1      4223 8.23092E-05-1.98545E-05-2.68221E-05 3.46687E-06-1.28029E-18 3.95748E-20
 -1      4224 8.39310E-05-2.04379E-05-2.72047E-05 2.61652E-06-9.00648E-19 6.87883E-20
 -1      4225 8.51567E-05-2.12842E-05-2.73451E-05 3.74835E-06-9.08130E-19 6.24082E-19
 -1      4226 8.32012E-05-2.06925E-05-2.67001E-05 5.88628E-06-1.55633E-18 3.81678E-19
 -1      4227 9.52503E-05-2.85833E-05-2.85716E-05 2.57372E-09-1.17971E-18-2.12195E-18
 -1      4228 9.08998E-05-2.45749E-05-2.84387E-05 2.03218E-06-1.39774E-18-7.16721E-19
 -1      4229 9.04753E-05-2.43301E-05-2.83463E-05 2.48273E-06-1.01289E-18-4.56831E-19
 -1      4230 9.11209E-05-2.45658E-05-2.85348E-05 7.44737E-07-1.72937E-18-4.15206E-19
 -1      4231 9.16214E-05-2.49142E-05-2.85896E-05 5.83369E-07-1.80366E-18-5.99011E-19
 -1      4232 9.22734E-05-2.54595E-05-2.86440E-05 6.74447E-07-1.14588E-18 1.14310E-20
 -1      4233 9.26879E-05-2.57813E-05-2.86769E-05 5.62330E-07-7.92380E-19-1.09372E-19
 -1      4234 9.29716E-05-2.60383E-05-2.86956E-05 4.12646E-07-8.73255E-19 4.04437E-19
 -1      4235 9.33004E-05-2.63153E-05-2.87114E-05 3.52813E-07-2.77253E-19 2.82282E-19
 -1      4236 9.35373E-05-2.65461E-05-2.87187E-05 2.47524E-07 4.49147E-20-3.88508E-19
 -1      4237 9.37958E-05-2.67819E-05-2.87235E-05 2.18853E-07 4.36175E-19-6.90909E-19
 -1      4238 9.39876E-05-2.69815E-05-2.87234E-05 1.44666E-07 1.65310E-19-1.52478E-18
 -1      4239 9.41878E-05-2.71780E-05-2.87213E-05 1.34026E-07-2.46836E-19-1.38592E-18
 -1      4240 9.43393E-05-2.73458E-05-2.87165E-05 8.17715E-08 2.55903E-20-1.76189E-18
 -1      4241 9.44920E-05-2.75064E-05-2.87104E-05 8.10142E-08 4.55459E-19-1.66253E-18
 -1      4242 9.46090E-05-2.76440E-05-2.87030E-05 4.41756E-08 6.29566E-19-1.59659E-18
 -1      4243 9.47235E-05-2.77728E-05-2.86949E-05 4.82857E-08 3.24513E-19-6.21117E-19
 -1      4244 9.48120E-05-2.78833E-05-2.86865E-05 2.22959E-08 3.65679E-19-6.31642E-19
 -1      4245 9.48964E-05-2.79847E-05-2.86777E-05 2.83000E-08 8.35246E-20-3.74820E-19
 -1      4246 9.49617E-05-2.80717E-05-2.86692E-05 9.97392E-09 2.27273E-19 1.37021E-19
 -1      4247 9.50226E-05-2.81503E-05-2.86605E-05 1.62145E-08 6.81661E-19-2.76866E-19
 -1      4248 9.50696E-05-2.82173E-05-2.86524E-05 3.32836E-09 5.87122E-19-4.53160E-19
 -1      4249 9.51126E-05-2.82771E-05-2.86444E-05 8.97082E-09 9.80048E-19-2.70377E-19
 -1      4250 9.51455E-05-2.83278E-05-2.86371E-05-3.57162E-11 6.54645E-19-8.14979E-19
 -1      4251 9.51749E-05-2.83725E-05-2.86300E-05 4.66703E-09 5.45951E-19-6.45987E-19
 -1      4252 9.51972E-05-2.84101E-05-2.86237E-05-1.56336E-09 3.61536E-19-8.28076E-19
 -1      4253 9.52165E-05-2.84428E-05-2.86175E-05 2.13633E-09 1.15622E-19-9.28186E-19
 -1      4254 9.52309E-05-2.84700E-05-2.86122E-05-2.10548E-09 4.01831E-19-4.79465E-19
 -1      4255 9.52430E-05-2.84934E-05-2.86071E-05 6.70829E-10 2.01964E-19 2.58258E-19
 -1      4256 9.52516E-05-2.85126E-05-2.86026E-05-2.14955E-09 9.23686E-20 1.32686E-19
 -1      4257 9.52585E-05-2.85289E-05-2.85984E-05-1.55480E-10-6.74605E-20 6.03868E-19
 -1      4258 9.52632E-05-2.85421E-05-2.85949E-05-1.96590E-09-4.71145E-19 1.59446E-18
 -1      4259 9.52665E-05-2.85530E-05-2.85915E-05-5.97915E-10 2.64912E-20 1.10912E-18
 -1      4260 9.52684E-05-2.85617E-05-2.85886E-05-1.69834E-09-4.93927E-19 8.57923E-19
 -1      4261 9.52695E-05-2.85687E-05-2.85860E-05-8.09655E-10 9.64910E-20 2.27757E-19
 -1      4262 9.52696E-05-2.85741E-05-2.85838E-05-1.41905E-09 6.96377E-19-5.21709E-19
 -1      4263 9.52692E-05-2.85783E-05-2.85817E-05-8.83206E-10 5.76027E-20-2.98007E-19
 -1      4264 9.52682E-05-2.85814E-05-2.85800E-05-1.16104E-09-4.84891E-19-8.91241E-19
 -1      4265 9.52669E-05-2.85836E-05-2.85785E-05-8.75090E-10-5.96235E-19-1.30184E-18
 -1      4266 9.52653E-05-2.85851E-05-2.85772E-05-9.36869E-10-7.93936E-19-1.02371E-18
 -1      4267 9.52636E-05-2.85860E-05-2.85760E-05-8.20305E-10-8.89056E-19-1.71336E-18
 -1      4268 9.52618E-05-2.85864E-05-2.85751E-05-7.49400E-10-5.49725E-19-2.24750E-18
 -1      4269 9.52598E-05-2.85865E-05-2.85742E-05-7.40716E-10-5.99147E-19-2.54418E-18
 -1      4270 9.52580E-05-2.85862E-05-2.85736E-05-5.99298E-10-3.46414E-20-1.51114E-18
 -1      4271 9.52561E-05-2.85857E-05-2.85729E-05-6.53197E-10 5.77599E-19-1.69284E-18
 -1      4272 9.52543E-05-2.85851E-05-2.85725E-05-4.98310E-10 3.37670E-19-1.72809E-18
 -1      4273 9.52525E-05-2.85844E-05-2.85720E-05-5.44818E-10-4.63734E-19-1.39765E-18
 -1      4274 9.52482E-05-2.85820E-05-2.85712E-05 1.73199E-09-7.66481E-19-7.53959E-19
 -1      4275 8.62379E-05-2.47136E-05-2.63050E-05 1.15370E-05-1.72061E-18 6.55203E-19
 -1      4276 8.45250E-05-2.27226E-05-2.65537E-05 8.72701E-06-1.60681E-18 7.54832E-19
 -1      4277 9.15055E-05-2.79636E-05-2.72346E-05 1.04415E-05-1.52456E-18-9.07928E-19
 -1      4278 9.25497E-05-2.93247E-05-2.70760E-05 1.17494E-05-1.30966E-18-7.27816E-19
 -1      4279 9.52513E-05-2.85838E-05-2.85718E-05-2.01335E-09-8.00855E-19-6.91219E-19
 -1      4280 9.52495E-05-2.85828E-05-2.85714E-05 1.17363E-09-4.98277E-19-1.88524E-18
 -1      4281 8.92353E-05-2.61033E-05-2.70755E-05 9.95736E-06-1.74955E-18 4.26366E-19
 -1      4282 8.98200E-05-2.37012E-05-2.83419E-05 1.29864E-06-8.87711E-19 3.34154E-20
 -1      4283 9.04832E-05-2.41147E-05-2.84435E-05 9.96315E-07-1.23558E-18-9.44274E-20
 -1      4284 8.92329E-05-2.35511E-05-2.81660E-05 2.55172E-06-5.00502E-19-2.04153E-19
 -1      4285 8.88139E-05-2.33793E-05-2.80346E-05 3.14808E-06-4.08743E-19-2.21144E-19
 -1      4286 8.79931E-05-2.30869E-05-2.78416E-05 3.83549E-06-7.52616E-19 1.94778E-19
 -1      4287 8.76139E-05-2.30420E-05-2.76593E-05 4.67856E-06-1.04255E-18 4.70164E-19
 -1      4288 8.67337E-05-2.28557E-05-2.74013E-05 5.66538E-06-1.33713E-18 7.20235E-19
 -1      4289 8.63912E-05-2.30646E-05-2.71504E-05 6.79741E-06-1.75778E-18 4.86888E-19
 -1      4290 9.18845E-05-2.52060E-05-2.85832E-05 1.38828E-06-1.48423E-18-4.29571E-19
 -1      4291 9.15389E-05-2.49608E-05-2.85315E-05 1.68295E-06-1.66020E-18-3.57311E-19
 -1      4292 9.52511E-05-2.85837E-05-2.85717E-05 1.34408E-09-5.95953E-19-2.17697E-18
 -1      4293 8.53941E-05-2.27063E-05-2.68974E-05 7.36791E-06-1.59019E-18 7.23029E-19
 -1      4294 9.09472E-05-2.44875E-05-2.84746E-05 1.40161E-06-1.53382E-18-3.77430E-19
 -1      4295 9.00891E-05-2.79071E-05-2.66869E-05 1.24646E-05-1.40322E-18-2.35205E-19
 -1      4296 8.99800E-05-2.39306E-05-2.83078E-05 2.07775E-06-8.39020E-19-1.35163E-19
 -1      4297 9.19307E-05-2.51837E-05-2.86082E-05 8.73008E-07-1.71346E-18-5.48488E-19
 -1      4298 8.82896E-05-2.50703E-05-2.70749E-05 9.17867E-06-1.81475E-18 6.24366E-19
 -1      4299 8.85345E-05-2.59086E-05-2.68266E-05 1.05975E-05-1.45935E-18 7.37977E-19
 -1      4300 8.72423E-05-2.58900E-05-2.62925E-05 1.24998E-05-1.64948E-18 7.22474E-19
 -3
    1PSTEP                         4           1           1          
  100CL  101 1.000000000        4300                     0    1           1
 -4  ERROR       1    1
 -5  STR(%)      1    1    0    0
 -1         1 1.28269E+01
 -1         2 2.68056E+01
 -1         3 4.58779E-05
 -1         4 5.15174E-05
 -1         5 1.45380E+01
 -1         6 1.23642E+01
 -1         7 1.23642E+01
 -1         8 5.94795E+00
 -1         9 6.09195E+00
 -1        10 6.93158E+00
 -1        11 6.93158E+00
 -1        12 5.74109E+00
 -1        13 5.03676E+00
 -1        14 5.03676E+00
 -1        15 4.50215E+00
 -1        16 3.32528E+00
 -1        17 2.53883E+00
 -1        18 2.18166E+00
 -1        19 1.87565E+00
 -1        20 1.87119E+00
 -1        21 3.59942E+00
 -1        22 9.15926E+00
 -1        23 1.23642E+01
 -1        24 1.77697E+00
 -1        25 2.20798E+00
 -1        26 3.63415E+00
 -1        27 6.69513E+00
 -1        28 7.61081E+00
 -1        29 7.61081E+00
 -1        30 7.23113E+00
 -1        31 4.49982E+00
 -1        32 2.38217E+00
 -1        33 2.46409E+00
 -1        34 2.46409E+00
 -1        35 2.43375E+00
 -1        36 2.02276E+00
 -1        37 1.57000E+00
 -1        38 1.20565E+00
 -1        39 9.03414E-01
 -1        40 7.29694E-01
 -1        41 5.69082E-01
 -1        42 4.32633E-01
 -1        43 3.22400E-01
 -1        44 2.36167E-01
 -1        45 1.70178E-01
 -1        46 1.20497E-01
 -1        47 9.71982E-02
 -1        48 7.78481E-02
 -1        49 6.14570E-02
 -1        50 4.78399E-02
 -1        51 3.67122E-02
 -1        52 2.77533E-02
 -1        53 2.06421E-02
 -1        54 1.66600E-02
 -1        55 1.35474E-02
 -1        56 1.08193E-02
 -1        57 8.49286E-03
 -1        58 6.55381E-03
 -1        59 5.12473E-03
 -1        60 3.93952E-03
 -1        61 2.97353E-03
 -1        62 2.20016E-03
 -1        63 1.65204E-03
 -1        64 1.34262E-03
 -1        65 1.07425E-03
 -1        66 8.46949E-04
 -1        67 6.56729E-04
 -1        68 4.96131E-04
 -1        69 4.11269E-04
 -1        70 3.41222E-04
 -1        71 1.97190E-04
 -1        72 1.45380E+01
 -1        73 3.58827E+00
 -1        74 2.81818E+00
 -1        75 2.56524E+00
 -1        76 2.63633E+00
 -1        77 2.63633E+00
 -1        78 2.71408E+00
 -1        79 2.71408E+00
 -1        80 2.48361E+00
 -1        81 1.92625E+00
 -1        82 1.29894E+00
 -1        83 7.91276E-01
 -1        84 5.15161E-01
 -1        85 4.14561E-01
 -1        86 4.72954E-01
 -1        87 4.72954E-01
 -1        88 4.57560E-01
 -1        89 4.01242E-01
 -1        90 3.33229E-01
 -1        91 2.71336E-01
 -1        92 2.09621E-01
 -1        93 1.63108E-01
 -1        94 1.30228E-01
 -1        95 1.00247E-01
 -1        96 7.45191E-02
 -1        97 5.34345E-02
 -1        98 3.67986E-02
 -1        99 3.07643E-02
 -1       100 2.56423E-02
 -1       101 2.08288E-02
 -1       102 1.65351E-02
 -1       103 1.36659E-02
 -1       104 1.19962E-02
 -1       105 1.02073E-02
 -1       106 8.46505E-03
 -1       107 6.86585E-03
 -1       108 5.51923E-03
 -1       109 4.43033E-03
 -1       110 3.48828E-03
 -1       111 2.69542E-03
 -1       112 2.04307E-03
 -1       113 1.51637E-03
 -1       114 1.09756E-03
 -1       115 8.42062E-04
 -1       116 6.54007E-04
 -1       117 4.94751E-04
 -1       118 3.53577E-04
 -1       119 2.43892E-04
 -1       120 1.54404E-04
 -1       121 6.43347E-05
 -1       122 6.43347E-05
 -1       123 6.19055E-05
 -1       124 3.67833E-05
 -1       125 2.67627E-05
 -1       126 4.88899E-05
 -1       127 6.25084E-05
 -1       128 6.65520E-05
 -1       129 6.65520E-05
 -1       130 6.23226E-05
 -1       131 4.81272E-05
 -1       132 2.69352E-05
 -1       133 3.76898E-05
 -1       134 6.15044E-05
 -1       135 8.55774E-05
 -1       136 9.02855E-05
 -1       137 2.68056E+01
 -1       138 4.52673E+01
 -1       139 4.52673E+01
 -1       140 1.81301E+01
 -1       141 1.16493E+01
 -1       142 1.16493E+01
 -1       143 1.16266E+01
 -1       144 1.18154E+01
 -1       145 1.18154E+01
 -1       146 1.10424E+01
 -1       147 2.05131E+01
 -1       148 4.53859E+01
 -1       149 4.53859E+01
 -1       150 3.14859E+01
 -1       151 3.14859E+01
 -1       152 3.01793E+01
 -1       153 4.62502E+01
 -1       154 4.62502E+01
 -1       155 1.92372E+01
 -1       156 1.20144E+01
 -1       157 1.28269E+01
 -1       158 1.25571E+01
 -1       159 1.25571E+01
 -1       160 1.23617E+01
 -1       161 2.58925E+01
 -1       162 2.97307E+01
 -1       163 2.97307E+01
 -1       164 2.63841E+01
 -1       165 8.28127E+00
 -1       166 5.51907E+00
 -1       167 6.96104E+00
 -1       168 8.25992E+00
 -1       169 8.25992E+00
 -1       170 7.11914E+00
 -1       171 5.74973E+00
 -1       172 5.74973E+00
 -1       173 4.60632E+00
 -1       174 3.26642E+00
 -1       175 2.53883E+00
 -1       176 2.18166E+00
 -1       177 1.87565E+00
 -1       178 2.33415E+00
 -1       179 4.08479E+00
 -1       180 1.45380E+01
 -1       181 4.78738E+00
 -1       182 3.11466E+00
 -1       183 2.20798E+00
 -1       184 3.84483E+00
 -1       185 6.69513E+00
 -1       186 7.61081E+00
 -1       187 7.23113E+00
 -1       188 4.49982E+00
 -1       189 2.38217E+00
 -1       190 2.33488E+00
 -1       191 2.46409E+00
 -1       192 2.43375E+00
 -1       193 2.02276E+00
 -1       194 1.69677E+00
 -1       195 1.46927E+00
 -1       196 1.18292E+00
 -1       197 9.04476E-01
 -1       198 6.65267E-01
 -1       199 4.74169E-01
 -1       200 3.29977E-01
 -1       201 2.48757E-01
 -1       202 1.84619E-01
 -1       203 1.34974E-01
 -1       204 9.71982E-02
 -1       205 7.78481E-02
 -1       206 6.14570E-02
 -1       207 4.78399E-02
 -1       208 3.67122E-02
 -1       209 2.77533E-02
 -1       210 2.16309E-02
 -1       211 1.66600E-02
 -1       212 1.35474E-02
 -1       213 1.08193E-02
 -1       214 8.59678E-03
 -1       215 6.88851E-03
 -1       216 5.47326E-03
 -1       217 4.42585E-03
 -1       218 3.51153E-03
 -1       219 2.73473E-03
 -1       220 2.08931E-03
 -1       221 1.56311E-03
 -1       222 1.14118E-03
 -1       223 8.46949E-04
 -1       224 6.56729E-04
 -1       225 5.01469E-04
 -1       226 4.11269E-04
 -1       227 3.41222E-04
 -1       228 1.97190E-04
 -1       229 3.58827E+00
 -1       230 2.81818E+00
 -1       231 2.54776E+00
 -1       232 2.56524E+00
 -1       233 2.63633E+00
 -1       234 2.53001E+00
 -1       235 2.71408E+00
 -1       236 2.48361E+00
 -1       237 1.92625E+00
 -1       238 1.29894E+00
 -1       239 7.95256E-01
 -1       240 5.15161E-01
 -1       241 4.13966E-01
 -1       242 4.14561E-01
 -1       243 4.72954E-01
 -1       244 4.57560E-01
 -1       245 4.01242E-01
 -1       246 3.33229E-01
 -1       247 2.76147E-01
 -1       248 2.21360E-01
 -1       249 1.69136E-01
 -1       250 1.30228E-01
 -1       251 1.00247E-01
 -1       252 7.45191E-02
 -1       253 5.46939E-02
 -1       254 3.90623E-02
 -1       255 3.07643E-02
 -1       256 2.56423E-02
 -1       257 2.08288E-02
 -1       258 1.65351E-02
 -1       259 1.36659E-02
 -1       260 1.19962E-02
 -1       261 1.02073E-02
 -1       262 8.46505E-03
 -1       263 6.86585E-03
 -1       264 5.51923E-03
 -1       265 4.43033E-03
 -1       266 3.49790E-03
 -1       267 2.75458E-03
 -1       268 2.12776E-03
 -1       269 1.61071E-03
 -1       270 1.19188E-03
 -1       271 8.57553E-04
 -1       272 6.54007E-04
 -1       273 4.94751E-04
 -1       274 3.53577E-04
 -1       275 2.43892E-04
 -1       276 1.54404E-04
 -1       277 9.51525E-05
 -1       278 1.00746E-04
 -1       279 1.00746E-04
 -1       280 4.78744E-05
 -1       281 8.99620E-05
 -1       282 1.17865E-04
 -1       283 1.29328E-04
 -1       284 1.29328E-04
 -1       285 1.29293E-04
 -1       286 1.17131E-04
 -1       287 9.01388E-05
 -1       288 4.98173E-05
 -1       289 1.01371E-04
 -1       290 1.01371E-04
 -1       291 1.23479E-04
 -1       292 3.30517E+01
 -1       293 3.88668E+01
 -1       294 4.52673E+01
 -1       295 1.96126E+01
 -1       296 1.05465E+01
 -1       297 1.16493E+01
 -1       298 1.15125E+01
 -1       299 1.16266E+01
 -1       300 1.18154E+01
 -1       301 1.06348E+01
 -1       302 1.10424E+01
 -1       303 2.05131E+01
 -1       304 4.53859E+01
 -1       305 3.95670E+01
 -1       306 4.81764E+01
 -1       307 4.81764E+01
 -1       308 4.43155E+01
 -1       309 4.62502E+01
 -1       310 2.02016E+01
 -1       311 1.09537E+01
 -1       312 1.20144E+01
 -1       313 1.28269E+01
 -1       314 1.20444E+01
 -1       315 1.25571E+01
 -1       316 1.14119E+01
 -1       317 1.23617E+01
 -1       318 2.66970E+01
 -1       319 3.06028E+01
 -1       320 3.06028E+01
 -1       321 3.30517E+01
 -1       322 6.69840E+00
 -1       323 4.78738E+00
 -1       324 1.07008E+01
 -1       325 1.07008E+01
 -1       326 1.03365E+01
 -1       327 8.18001E+00
 -1       328 6.81918E+00
 -1       329 4.61652E+00
 -1       330 2.86337E+00
 -1       331 1.66577E+00
 -1       332 1.28338E+00
 -1       333 1.08462E+00
 -1       334 1.08059E+00
 -1       335 2.53390E+00
 -1       336 2.51074E+00
 -1       337 4.08267E+00
 -1       338 2.99124E+00
 -1       339 3.40366E+00
 -1       340 5.81118E+00
 -1       341 5.52912E+00
 -1       342 3.94100E+00
 -1       343 2.75067E+00
 -1       344 2.84852E+00
 -1       345 2.43578E+00
 -1       346 2.20199E+00
 -1       347 1.93840E+00
 -1       348 1.76772E+00
 -1       349 1.52190E+00
 -1       350 1.26046E+00
 -1       351 1.00155E+00
 -1       352 7.67278E-01
 -1       353 5.71657E-01
 -1       354 4.16302E-01
 -1       355 2.96998E-01
 -1       356 2.07562E-01
 -1       357 1.41768E-01
 -1       358 9.71272E-02
 -1       359 6.87615E-02
 -1       360 4.99208E-02
 -1       361 3.76977E-02
 -1       362 3.08544E-02
 -1       363 2.48064E-02
 -1       364 1.96133E-02
 -1       365 1.52571E-02
 -1       366 1.19889E-02
 -1       367 9.84250E-03
 -1       368 8.20777E-03
 -1       369 6.70197E-03
 -1       370 5.47506E-03
 -1       371 4.45652E-03
 -1       372 3.55755E-03
 -1       373 2.79592E-03
 -1       374 2.19682E-03
 -1       375 1.69190E-03
 -1       376 1.28377E-03
 -1       377 9.61321E-04
 -1       378 7.00909E-04
 -1       379 5.01469E-04
 -1       380 3.78874E-04
 -1       381 2.69594E-04
 -1       382 1.80845E-04
 -1       383 2.07824E+00
 -1       384 2.07824E+00
 -1       385 1.97981E+00
 -1       386 1.75885E+00
 -1       387 1.65774E+00
 -1       388 1.64788E+00
 -1       389 1.40451E+00
 -1       390 1.04737E+00
 -1       391 7.13937E-01
 -1       392 4.10030E-01
 -1       393 2.25228E-01
 -1       394 2.87174E-01
 -1       395 3.20788E-01
 -1       396 3.43364E-01
 -1       397 3.25592E-01
 -1       398 2.89422E-01
 -1       399 2.52971E-01
 -1       400 2.08999E-01
 -1       401 1.64641E-01
 -1       402 1.24453E-01
 -1       403 9.69675E-02
 -1       404 7.40132E-02
 -1       405 5.46939E-02
 -1       406 3.90623E-02
 -1       407 2.68337E-02
 -1       408 1.98816E-02
 -1       409 1.72193E-02
 -1       410 1.44966E-02
 -1       411 1.19105E-02
 -1       412 9.57426E-03
 -1       413 7.72790E-03
 -1       414 6.70180E-03
 -1       415 5.64906E-03
 -1       416 4.64822E-03
 -1       417 3.83480E-03
 -1       418 3.11896E-03
 -1       419 2.50323E-03
 -1       420 1.96967E-03
 -1       421 1.51937E-03
 -1       422 1.14731E-03
 -1       423 8.45223E-04
 -1       424 6.12793E-04
 -1       425 4.71920E-04
 -1       426 3.49106E-04
 -1       427 2.36000E-04
 -1       428 1.30390E-04
 -1       429 1.08383E-04
 -1       430 1.84547E-04
 -1       431 1.84547E-04
 -1       432 1.23173E-04
 -1       433 1.64482E-04
 -1       434 1.84464E-04
 -1       435 1.84464E-04
 -1       436 1.83969E-04
 -1       437 1.83969E-04
 -1       438 1.64833E-04
 -1       439 1.22744E-04
 -1       440 1.10504E-04
 -1       441 1.65918E-04
 -1       442 2.64622E+01
 -1       443 3.62624E+01
 -1       444 2.73221E+01
 -1       445 1.49415E+01
 -1       446 8.85373E+00
 -1       447 9.14357E+00
 -1       448 1.03601E+01
 -1       449 1.01900E+01
 -1       450 1.06267E+01
 -1       451 8.61152E+00
 -1       452 7.14178E+00
 -1       453 1.01030E+01
 -1       454 1.59948E+01
 -1       455 2.68252E+01
 -1       456 3.07973E+01
 -1       457 4.81764E+01
 -1       458 4.43155E+01
 -1       459 2.63050E+01
 -1       460 1.67162E+01
 -1       461 9.84925E+00
 -1       462 7.09995E+00
 -1       463 9.40940E+00
 -1       464 1.05367E+01
 -1       465 1.01486E+01
 -1       466 8.58658E+00
 -1       467 7.09591E+00
 -1       468 1.10879E+01
 -1       469 1.86447E+01
 -1       470 3.06028E+01
 -1       471 3.62624E+01
 -1       472 7.88121E+00
 -1       473 2.01443E+00
 -1       474 1.53008E+01
 -1       475 1.48083E+01
 -1       476 1.08168E+01
 -1       477 6.63868E+00
 -1       478 4.09421E+00
 -1       479 1.98892E+00
 -1       480 1.19272E+00
 -1       481 1.34693E+00
 -1       482 2.07824E+00
 -1       483 4.65947E+00
 -1       484 5.14775E+00
 -1       485 4.28946E+00
 -1       486 8.81565E+00
 -1       487 7.76806E+00
 -1       488 3.12802E+00
 -1       489 3.61786E+00
 -1       490 4.57393E+00
 -1       491 3.18251E+00
 -1       492 2.44083E+00
 -1       493 2.04081E+00
 -1       494 1.70599E+00
 -1       495 1.37498E+00
 -1       496 1.08003E+00
 -1       497 8.31195E-01
 -1       498 6.28828E-01
 -1       499 4.68507E-01
 -1       500 3.43997E-01
 -1       501 2.48839E-01
 -1       502 1.77111E-01
 -1       503 1.23725E-01
 -1       504 8.44835E-02
 -1       505 5.60178E-02
 -1       506 3.56742E-02
 -1       507 2.47753E-02
 -1       508 1.73720E-02
 -1       509 1.49942E-02
 -1       510 1.26052E-02
 -1       511 1.03649E-02
 -1       512 8.35751E-03
 -1       513 6.80622E-03
 -1       514 5.66672E-03
 -1       515 4.81387E-03
 -1       516 3.99245E-03
 -1       517 3.31771E-03
 -1       518 2.70216E-03
 -1       519 2.15612E-03
 -1       520 1.69909E-03
 -1       521 1.34563E-03
 -1       522 1.04254E-03
 -1       523 7.89061E-04
 -1       524 5.81965E-04
 -1       525 4.16650E-04
 -1       526 2.87181E-04
 -1       527 1.73435E+01
 -1       528 1.75885E+00
 -1       529 1.58027E+00
 -1       530 1.52957E+00
 -1       531 1.31697E+00
 -1       532 1.09792E+00
 -1       533 7.86780E-01
 -1       534 5.56689E-01
 -1       535 3.95387E-01
 -1       536 3.44376E-01
 -1       537 2.98284E-01
 -1       538 3.13429E-01
 -1       539 2.98702E-01
 -1       540 2.75730E-01
 -1       541 2.44964E-01
 -1       542 2.10889E-01
 -1       543 1.72938E-01
 -1       544 1.35973E-01
 -1       545 1.02793E-01
 -1       546 7.46878E-02
 -1       547 5.19446E-02
 -1       548 3.62843E-02
 -1       549 2.57667E-02
 -1       550 1.98816E-02
 -1       551 1.72193E-02
 -1       552 1.44966E-02
 -1       553 1.19105E-02
 -1       554 9.57426E-03
 -1       555 7.72790E-03
 -1       556 6.70180E-03
 -1       557 5.64906E-03
 -1       558 4.64822E-03
 -1       559 3.84243E-03
 -1       560 3.12159E-03
 -1       561 2.48296E-03
 -1       562 1.99066E-03
 -1       563 1.57067E-03
 -1       564 1.21194E-03
 -1       565 9.12887E-04
 -1       566 6.70177E-04
 -1       567 4.70755E-04
 -1       568 3.21172E-04
 -1       569 2.23160E-04
 -1       570 2.08990E-04
 -1       571 2.43175E-04
 -1       572 2.34404E-04
 -1       573 2.50124E-04
 -1       574 2.45543E-04
 -1       575 2.45543E-04
 -1       576 2.45339E-04
 -1       577 2.43767E-04
 -1       578 2.10120E-04
 -1       579 1.62613E-04
 -1       580 1.62613E-04
 -1       581 3.62624E+01
 -1       582 1.97981E+00
 -1       583 1.20301E+01
 -1       584 2.15391E+01
 -1       585 6.28989E+00
 -1       586 9.48496E+00
 -1       587 7.66058E+00
 -1       588 1.43505E+01
 -1       589 5.41274E+00
 -1       590 7.29226E+00
 -1       591 5.89766E+00
 -1       592 3.78963E+00
 -1       593 6.03693E+00
 -1       594 1.04688E+01
 -1       595 1.39580E+01
 -1       596 1.89348E+01
 -1       597 2.49673E+01
 -1       598 1.96749E+01
 -1       599 1.24228E+01
 -1       600 8.90616E+00
 -1       601 8.99544E+00
 -1       602 5.81118E+00
 -1       603 4.26674E+00
 -1       604 6.99997E+00
 -1       605 1.46642E+01
 -1       606 2.73221E+01
 -1       607 1.69957E+00
 -1       608 4.99838E+00
 -1       609 1.39945E+01
 -1       610 6.42853E+00
 -1       611 3.05311E+01
 -1       612 1.80845E-04
 -1       613 1.03016E+01
 -1       614 9.22935E+00
 -1       615 1.43169E+00
 -1       616 1.18646E+00
 -1       617 1.65899E+00
 -1       618 8.89013E+00
 -1       619 2.72829E+00
 -1       620 1.44131E+01
 -1       621 9.87362E+00
 -1       622 4.00948E-04
 -1       623 4.57393E+00
 -1       624 7.76047E+00
 -1       625 3.36488E+00
 -1       626 2.22746E+00
 -1       627 1.61307E+00
 -1       628 1.20709E+00
 -1       629 9.04926E-01
 -1       630 6.65317E-01
 -1       631 4.99479E-01
 -1       632 3.73134E-01
 -1       633 2.76315E-01
 -1       634 2.02281E-01
 -1       635 1.46009E-01
 -1       636 1.03603E-01
 -1       637 7.19830E-02
 -1       638 4.86973E-02
 -1       639 3.17959E-02
 -1       640 1.97362E-02
 -1       641 1.20995E-02
 -1       642 9.13963E-03
 -1       643 8.44185E-03
 -1       644 7.47613E-03
 -1       645 6.41469E-03
 -1       646 5.36491E-03
 -1       647 4.53144E-03
 -1       648 3.88997E-03
 -1       649 3.25475E-03
 -1       650 2.66210E-03
 -1       651 2.14111E-03
 -1       652 1.74693E-03
 -1       653 1.39375E-03
 -1       654 1.09211E-03
 -1       655 8.49403E-04
 -1       656 6.44354E-04
 -1       657 4.75905E-04
 -1       658 3.38451E-04
 -1       659 1.26638E+00
 -1       660 1.12221E+00
 -1       661 1.02861E+00
 -1       662 7.88152E-01
 -1       663 6.64855E-01
 -1       664 5.45012E-01
 -1       665 4.09710E-01
 -1       666 3.91242E-01
 -1       667 3.53534E-01
 -1       668 3.07267E-01
 -1       669 2.68698E-01
 -1       670 2.32615E-01
 -1       671 1.93167E-01
 -1       672 1.54816E-01
 -1       673 1.20148E-01
 -1       674 9.03888E-02
 -1       675 6.58542E-02
 -1       676 4.63035E-02
 -1       677 3.11950E-02
 -1       678 1.98590E-02
 -1       679 1.29694E-02
 -1       680 1.02072E-02
 -1       681 9.42318E-03
 -1       682 8.35012E-03
 -1       683 7.16595E-03
 -1       684 5.98843E-03
 -1       685 4.98426E-03
 -1       686 4.32595E-03
 -1       687 3.66059E-03
 -1       688 3.02344E-03
 -1       689 2.49344E-03
 -1       690 2.01008E-03
 -1       691 1.58534E-03
 -1       692 1.22266E-03
 -1       693 9.52079E-04
 -1       694 7.22825E-04
 -1       695 7.08643E-04
 -1       696 5.54419E-04
 -1       697 3.24208E-04
 -1       698 3.06685E-04
 -1       699 3.24274E-04
 -1       700 3.24208E-04
 -1       701 1.48104E+01
 -1       702 2.30454E-04
 -1       703 3.24274E-04
 -1       704 3.11635E-04
 -1       705 2.97051E-04
 -1       706 2.34861E-04
 -1       707 1.74424E+00
 -1       708 7.09727E+00
 -1       709 5.33643E+00
 -1       710 6.35685E+00
 -1       711 1.86087E+00
 -1       712 1.21856E+00
 -1       713 1.48212E+00
 -1       714 2.68239E+00
 -1       715 1.26993E+01
 -1       716 3.42362E+00
 -1       717 5.37899E+00
 -1       718 3.57968E+00
 -1       719 2.90505E+00
 -1       720 5.37899E+00
 -1       721 5.13563E+00
 -1       722 4.54189E+00
 -1       723 8.96605E+00
 -1       724 1.32733E+01
 -1       725 4.32100E+00
 -1       726 3.90023E-04
 -1       727 4.49460E+00
 -1       728 3.83375E+00
 -1       729 1.86087E+00
 -1       730 1.20037E+00
 -1       731 7.95616E+00
 -1       732 9.42031E+00
 -1       733 6.35798E+00
 -1       734 3.16807E+00
 -1       735 2.19242E+00
 -1       736 1.59764E+00
 -1       737 1.18456E+00
 -1       738 8.72985E-01
 -1       739 6.39086E-01
 -1       740 4.64153E-01
 -1       741 3.33816E-01
 -1       742 2.37240E-01
 -1       743 1.66165E-01
 -1       744 1.16828E-01
 -1       745 8.09010E-02
 -1       746 5.46893E-02
 -1       747 3.66686E-02
 -1       748 2.44788E-02
 -1       749 1.56203E-02
 -1       750 9.31797E-03
 -1       751 5.61974E-03
 -1       752 5.61258E-03
 -1       753 5.52033E-03
 -1       754 5.10701E-03
 -1       755 4.52915E-03
 -1       756 3.88997E-03
 -1       757 3.38225E-03
 -1       758 2.92072E-03
 -1       759 2.45381E-03
 -1       760 2.01297E-03
 -1       761 1.61537E-03
 -1       762 1.26855E-03
 -1       763 9.73795E-04
 -1       764 7.28229E-04
 -1       765 5.27224E-04
 -1       766 4.83745E-04
 -1       767 1.30997E+00
 -1       768 7.93998E-01
 -1       769 6.03867E-01
 -1       770 5.33183E-01
 -1       771 4.46905E-01
 -1       772 3.66805E-01
 -1       773 3.11247E-01
 -1       774 2.61272E-01
 -1       775 2.11956E-01
 -1       776 1.67918E-01
 -1       777 1.30094E-01
 -1       778 9.85515E-02
 -1       779 7.29427E-02
 -1       780 5.26369E-02
 -1       781 3.68871E-02
 -1       782 2.49330E-02
 -1       783 1.60613E-02
 -1       784 9.63690E-03
 -1       785 5.93229E-03
 -1       786 5.78452E-03
 -1       787 5.70210E-03
 -1       788 5.29047E-03
 -1       789 4.70274E-03
 -1       790 4.04457E-03
 -1       791 3.51577E-03
 -1       792 3.04747E-03
 -1       793 2.56659E-03
 -1       794 2.10844E-03
 -1       795 1.69288E-03
 -1       796 1.32920E-03
 -1       797 1.01960E-03
 -1       798 7.62562E-04
 -1       799 7.08643E-04
 -1       800 3.91830E-04
 -1       801 2.46253E+00
 -1       802 4.83745E-04
 -1       803 1.74424E+00
 -1       804 7.76047E+00
 -1       805 3.65325E+00
 -1       806 1.12480E+00
 -1       807 4.23113E-04
 -1       808 2.40702E+00
 -1       809 3.61917E+00
 -1       810 4.57752E-04
 -1       811 9.12057E+00
 -1       812 1.01598E+00
 -1       813 3.61917E+00
 -1       814 3.42362E+00
 -1       815 1.96911E+00
 -1       816 6.84300E+00
 -1       817 9.42031E+00
 -1       818 5.22553E-04
 -1       819 7.08643E-04
 -1       820 4.16849E-04
 -1       821 2.96432E+00
 -1       822 4.13196E-04
 -1       823 4.16849E-04
 -1       824 2.31457E+00
 -1       825 4.30847E+00
 -1       826 2.85424E+00
 -1       827 6.60017E+00
 -1       828 1.30997E+00
 -1       829 2.90558E+00
 -1       830 2.00458E+00
 -1       831 1.40343E+00
 -1       832 1.00821E+00
 -1       833 7.35431E-01
 -1       834 5.40142E-01
 -1       835 3.96729E-01
 -1       836 2.90031E-01
 -1       837 2.10195E-01
 -1       838 1.50572E-01
 -1       839 1.06202E-01
 -1       840 7.33985E-02
 -1       841 5.04086E-02
 -1       842 3.38544E-02
 -1       843 2.18725E-02
 -1       844 1.34360E-02
 -1       845 7.61749E-03
 -1       846 3.66173E-03
 -1       847 3.39677E-03
 -1       848 3.82641E-03
 -1       849 3.83557E-03
 -1       850 3.59301E-03
 -1       851 3.21515E-03
 -1       852 2.78009E-03
 -1       853 2.45512E-03
 -1       854 2.10339E-03
 -1       855 1.75436E-03
 -1       856 1.42871E-03
 -1       857 1.13737E-03
 -1       858 8.84633E-04
 -1       859 6.71974E-04
 -1       860 5.26371E-04
 -1       861 7.48325E-01
 -1       862 9.22913E-01
 -1       863 4.70318E-01
 -1       864 3.79710E-01
 -1       865 3.02645E-01
 -1       866 2.36667E-01
 -1       867 1.84861E-01
 -1       868 1.45777E-01
 -1       869 1.14125E-01
 -1       870 8.63864E-02
 -1       871 6.32057E-02
 -1       872 4.47003E-02
 -1       873 3.10612E-02
 -1       874 2.06335E-02
 -1       875 1.28843E-02
 -1       876 7.34548E-03
 -1       877 3.63551E-03
 -1       878 3.40309E-03
 -1       879 3.87092E-03
 -1       880 3.90962E-03
 -1       881 3.68333E-03
 -1       882 3.30972E-03
 -1       883 2.87781E-03
 -1       884 2.55775E-03
 -1       885 2.19845E-03
 -1       886 1.83797E-03
 -1       887 1.49921E-03
 -1       888 1.19485E-03
 -1       889 9.29672E-04
 -1       890 7.04362E-04
 -1       891 2.46253E+00
 -1       892 4.93495E-04
 -1       893 1.32000E+00
 -1       894 2.47201E+00
 -1       895 5.81103E-01
 -1       896 4.60551E+00
 -1       897 6.60017E+00
 -1       898 6.35798E+00
 -1       899 5.11014E+00
 -1       900 1.86727E+00
 -1       901 4.85039E-04
 -1       902 5.26371E-04
 -1       903 1.09314E+00
 -1       904 2.42572E+00
 -1       905 4.93207E-04
 -1       906 3.14975E+00
 -1       907 5.00385E-04
 -1       908 1.50234E+00
 -1       909 3.51262E+00
 -1       910 5.00385E-04
 -1       911 4.93495E-04
 -1       912 4.34895E+00
 -1       913 1.34815E+00
 -1       914 9.51476E-01
 -1       915 6.98485E-01
 -1       916 5.23688E-01
 -1       917 3.94316E-01
 -1       918 2.97135E-01
 -1       919 2.22290E-01
 -1       920 1.64788E-01
 -1       921 1.20585E-01
 -1       922 8.67151E-02
 -1       923 6.10875E-02
 -1       924 4.19385E-02
 -1       925 2.86570E-02
 -1       926 1.89729E-02
 -1       927 1.19576E-02
 -1       928 7.02081E-03
 -1       929 3.70288E-03
 -1       930 1.98112E-03
 -1       931 2.62093E-03
 -1       932 2.83507E-03
 -1       933 2.78041E-03
 -1       934 2.56781E-03
 -1       935 2.27371E-03
 -1       936 1.97159E-03
 -1       937 1.70662E-03
 -1       938 1.43559E-03
 -1       939 1.17763E-03
 -1       940 9.43302E-04
 -1       941 7.39348E-04
 -1       942 5.94436E-04
 -1       943 1.02820E+00
 -1       944 3.60063E-01
 -1       945 4.73415E-01
 -1       946 2.30166E-01
 -1       947 1.84861E-01
 -1       948 1.44606E-01
 -1       949 1.10300E-01
 -1       950 8.20031E-02
 -1       951 5.93484E-02
 -1       952 4.16631E-02
 -1       953 2.84534E-02
 -1       954 1.90567E-02
 -1       955 1.21199E-02
 -1       956 7.12627E-03
 -1       957 4.01357E-03
 -1       958 2.26549E-03
 -1       959 2.67757E-03
 -1       960 2.92552E-03
 -1       961 2.88861E-03
 -1       962 2.68074E-03
 -1       963 2.38215E-03
 -1       964 2.09597E-03
 -1       965 1.81941E-03
 -1       966 1.53402E-03
 -1       967 1.26025E-03
 -1       968 1.01058E-03
 -1       969 7.94302E-04
 -1       970 4.34895E+00
 -1       971 6.34985E-04
 -1       972 3.69408E+00
 -1       973 2.04036E+00
 -1       974 2.85646E-01
 -1       975 1.34077E+00
 -1       976 8.24006E-01
 -1       977 2.31496E+00
 -1       978 1.91790E+00
 -1       979 2.38654E+00
 -1       980 5.71172E-04
 -1       981 6.35973E-01
 -1       982 2.96145E+00
 -1       983 5.67105E-04
 -1       984 5.91993E-04
 -1       985 1.01774E-03
 -1       986 7.10120E-01
 -1       987 5.52614E-01
 -1       988 4.06552E-01
 -1       989 2.97945E-01
 -1       990 2.17740E-01
 -1       991 1.60043E-01
 -1       992 1.16685E-01
 -1       993 8.65146E-02
 -1       994 6.33733E-02
 -1       995 4.53408E-02
 -1       996 3.15360E-02
 -1       997 2.15826E-02
 -1       998 1.45286E-02
 -1       999 9.58673E-03
 -1      1000 6.11652E-03
 -1      1001 3.65111E-03
 -1      1002 1.94071E-03
 -1      1003 1.82792E-03
 -1      1004 2.09404E-03
 -1      1005 2.11881E-03
 -1      1006 1.99673E-03
 -1      1007 1.79396E-03
 -1      1008 1.55544E-03
 -1      1009 1.31129E-03
 -1      1010 1.10586E-03
 -1      1011 9.07370E-04
 -1      1012 7.26603E-04
 -1      1013 1.71601E-01
 -1      1014 2.23425E-01
 -1      1015 9.59822E-02
 -1      1016 6.98162E-02
 -1      1017 4.96886E-02
 -1      1018 3.44354E-02
 -1      1019 2.31038E-02
 -1      1020 1.54495E-02
 -1      1021 1.02033E-02
 -1      1022 6.62100E-03
 -1      1023 4.03041E-03
 -1      1024 2.26549E-03
 -1      1025 1.92832E-03
 -1      1026 2.22112E-03
 -1      1027 2.25615E-03
 -1      1028 2.13253E-03
 -1      1029 1.92052E-03
 -1      1030 1.66837E-03
 -1      1031 1.43553E-03
 -1      1032 1.21287E-03
 -1      1033 1.01774E-03
 -1      1034 6.27983E-01
 -1      1035 5.73328E-04
 -1      1036 2.16617E+00
 -1      1037 2.69029E+00
 -1      1038 2.69029E+00
 -1      1039 1.29517E-01
 -1      1040 5.74921E-04
 -1      1041 4.78292E-01
 -1      1042 1.56427E+00
 -1      1043 2.85646E-01
 -1      1044 3.60063E-01
 -1      1045 9.54655E-01
 -1      1046 2.16617E+00
 -1      1047 1.21929E+00
 -1      1048 1.68008E+00
 -1      1049 1.65295E+00
 -1      1050 6.96377E-04
 -1      1051 8.48340E-01
 -1      1052 6.42505E-04
 -1      1053 6.39184E-01
 -1      1054 3.27477E-01
 -1      1055 2.79216E-01
 -1      1056 2.07758E-01
 -1      1057 1.51631E-01
 -1      1058 1.09382E-01
 -1      1059 7.80025E-02
 -1      1060 5.58973E-02
 -1      1061 3.97168E-02
 -1      1062 2.75597E-02
 -1      1063 1.91604E-02
 -1      1064 1.30656E-02
 -1      1065 8.58087E-03
 -1      1066 5.34317E-03
 -1      1067 3.05776E-03
 -1      1068 1.48865E-03
 -1      1069 1.30597E-03
 -1      1070 1.64709E-03
 -1      1071 1.74898E-03
 -1      1072 1.69970E-03
 -1      1073 1.56123E-03
 -1      1074 1.37319E-03
 -1      1075 1.14095E-03
 -1      1076 9.02746E-04
 -1      1077 8.55918E-04
 -1      1078 9.01731E-01
 -1      1079 7.42088E-01
 -1      1080 7.80025E-02
 -1      1081 1.09382E-01
 -1      1082 3.77902E-02
 -1      1083 2.59936E-02
 -1      1084 1.74474E-02
 -1      1085 1.12686E-02
 -1      1086 6.86857E-03
 -1      1087 4.03041E-03
 -1      1088 2.20615E-03
 -1      1089 1.45693E-03
 -1      1090 1.69645E-03
 -1      1091 1.74898E-03
 -1      1092 1.74898E-03
 -1      1093 1.69970E-03
 -1      1094 1.56123E-03
 -1      1095 1.37319E-03
 -1      1096 1.14095E-03
 -1      1097 2.07758E-01
 -1      1098 1.51631E-01
 -1      1099 1.82308E+00
 -1      1100 5.48219E-02
 -1      1101 2.79216E-01
 -1      1102 9.95403E-01
 -1      1103 3.35965E-01
 -1      1104 1.30722E+00
 -1      1105 1.47639E+00
 -1      1106 2.79216E-01
 -1      1107 7.36421E-04
 -1      1108 1.01774E-03
 -1      1109 7.38052E-04
 -1      1110 1.22560E+00
 -1      1111 1.68008E+00
 -1      1112 1.47639E+00
 -1      1113 3.27477E-01
 -1      1114 3.00755E-01
 -1      1115 1.62919E+00
 -1      1116 1.32197E+00
 -1      1117 1.23642E+01
 -1      1118 9.15608E+00
 -1      1119 6.01995E+00
 -1      1120 6.51176E+00
 -1      1121 6.93158E+00
 -1      1122 6.33633E+00
 -1      1123 5.38893E+00
 -1      1124 5.03676E+00
 -1      1125 4.76945E+00
 -1      1126 3.91371E+00
 -1      1127 2.93205E+00
 -1      1128 2.36024E+00
 -1      1129 2.02865E+00
 -1      1130 1.87342E+00
 -1      1131 2.73531E+00
 -1      1132 6.37934E+00
 -1      1133 1.18487E+01
 -1      1134 1.23642E+01
 -1      1135 7.07059E+00
 -1      1136 1.99248E+00
 -1      1137 2.92107E+00
 -1      1138 5.16464E+00
 -1      1139 7.15297E+00
 -1      1140 7.61081E+00
 -1      1141 7.42097E+00
 -1      1142 5.86548E+00
 -1      1143 3.44099E+00
 -1      1144 2.42313E+00
 -1      1145 2.46409E+00
 -1      1146 2.44892E+00
 -1      1147 2.22825E+00
 -1      1148 1.79638E+00
 -1      1149 1.38782E+00
 -1      1150 1.05453E+00
 -1      1151 8.16554E-01
 -1      1152 6.49388E-01
 -1      1153 5.00857E-01
 -1      1154 3.77516E-01
 -1      1155 2.79284E-01
 -1      1156 2.03173E-01
 -1      1157 1.45338E-01
 -1      1158 1.08848E-01
 -1      1159 8.75232E-02
 -1      1160 6.96525E-02
 -1      1161 5.46484E-02
 -1      1162 4.22761E-02
 -1      1163 3.22328E-02
 -1      1164 2.41977E-02
 -1      1165 1.86511E-02
 -1      1166 1.51037E-02
 -1      1167 1.21834E-02
 -1      1168 9.65609E-03
 -1      1169 7.52333E-03
 -1      1170 5.83927E-03
 -1      1171 4.53213E-03
 -1      1172 3.45653E-03
 -1      1173 2.58685E-03
 -1      1174 1.92610E-03
 -1      1175 1.49733E-03
 -1      1176 1.20844E-03
 -1      1177 9.60600E-04
 -1      1178 7.51839E-04
 -1      1179 5.76430E-04
 -1      1180 4.53700E-04
 -1      1181 3.76246E-04
 -1      1182 2.69206E-04
 -1      1183 1.24354E-04
 -1      1184 1.45380E+01
 -1      1185 9.06316E+00
 -1      1186 3.20323E+00
 -1      1187 2.69171E+00
 -1      1188 2.60079E+00
 -1      1189 2.63633E+00
 -1      1190 2.67521E+00
 -1      1191 2.71408E+00
 -1      1192 2.59885E+00
 -1      1193 2.20493E+00
 -1      1194 1.61260E+00
 -1      1195 1.04511E+00
 -1      1196 6.53218E-01
 -1      1197 4.64861E-01
 -1      1198 4.43757E-01
 -1      1199 4.72954E-01
 -1      1200 4.65257E-01
 -1      1201 4.29401E-01
 -1      1202 3.67235E-01
 -1      1203 3.02282E-01
 -1      1204 2.40478E-01
 -1      1205 1.86365E-01
 -1      1206 1.46668E-01
 -1      1207 1.15237E-01
 -1      1208 8.73829E-02
 -1      1209 6.39768E-02
 -1      1210 4.51166E-02
 -1      1211 3.37815E-02
 -1      1212 2.82033E-02
 -1      1213 2.32355E-02
 -1      1214 1.86819E-02
 -1      1215 1.51005E-02
 -1      1216 1.28311E-02
 -1      1217 1.11018E-02
 -1      1218 9.33617E-03
 -1      1219 7.66545E-03
 -1      1220 6.19254E-03
 -1      1221 4.97478E-03
 -1      1222 3.95930E-03
 -1      1223 3.09185E-03
 -1      1224 2.36925E-03
 -1      1225 1.77972E-03
 -1      1226 1.30697E-03
 -1      1227 9.69812E-04
 -1      1228 7.48034E-04
 -1      1229 5.74379E-04
 -1      1230 4.24164E-04
 -1      1231 2.98735E-04
 -1      1232 1.99148E-04
 -1      1233 1.00141E-04
 -1      1234 5.51063E-05
 -1      1235 6.43347E-05
 -1      1236 6.31201E-05
 -1      1237 4.93444E-05
 -1      1238 3.17730E-05
 -1      1239 3.78263E-05
 -1      1240 5.56991E-05
 -1      1241 6.45302E-05
 -1      1242 6.65520E-05
 -1      1243 6.44373E-05
 -1      1244 5.52249E-05
 -1      1245 3.75312E-05
 -1      1246 3.23125E-05
 -1      1247 4.95971E-05
 -1      1248 7.35409E-05
 -1      1249 8.79315E-05
 -1      1250 7.09015E-05
 -1      1251 2.68056E+01
 -1      1252 3.60364E+01
 -1      1253 4.52673E+01
 -1      1254 3.16987E+01
 -1      1255 1.48897E+01
 -1      1256 1.16493E+01
 -1      1257 1.16380E+01
 -1      1258 1.17210E+01
 -1      1259 1.18154E+01
 -1      1260 1.14289E+01
 -1      1261 1.57778E+01
 -1      1262 3.29495E+01
 -1      1263 4.53859E+01
 -1      1264 3.84359E+01
 -1      1265 3.14859E+01
 -1      1266 3.08326E+01
 -1      1267 3.82148E+01
 -1      1268 4.62502E+01
 -1      1269 3.27437E+01
 -1      1270 1.56258E+01
 -1      1271 1.24206E+01
 -1      1272 1.28269E+01
 -1      1273 1.26920E+01
 -1      1274 1.25571E+01
 -1      1275 1.24594E+01
 -1      1276 1.91271E+01
 -1      1277 2.78116E+01
 -1      1278 2.97307E+01
 -1      1279 2.80574E+01
 -1      1280 2.65948E+01
 -1      1281 1.23642E+01
 -1      1282 7.11461E+00
 -1      1283 1.03227E+01
 -1      1284 5.80551E+00
 -1      1285 5.73351E+00
 -1      1286 6.90017E+00
 -1      1287 6.94631E+00
 -1      1288 6.52649E+00
 -1      1289 6.24005E+00
 -1      1290 7.59575E+00
 -1      1291 7.59575E+00
 -1      1292 7.61048E+00
 -1      1293 7.00051E+00
 -1      1294 7.59575E+00
 -1      1295 8.25992E+00
 -1      1296 6.07795E+00
 -1      1297 6.43011E+00
 -1      1298 7.68953E+00
 -1      1299 5.39324E+00
 -1      1300 5.39324E+00
 -1      1301 6.43443E+00
 -1      1302 5.12594E+00
 -1      1303 5.39324E+00
 -1      1304 5.74973E+00
 -1      1305 3.96580E+00
 -1      1306 4.55423E+00
 -1      1307 5.17802E+00
 -1      1308 2.90263E+00
 -1      1309 3.29585E+00
 -1      1310 3.93637E+00
 -1      1311 2.36024E+00
 -1      1312 2.53883E+00
 -1      1313 2.90263E+00
 -1      1314 2.02865E+00
 -1      1315 2.18166E+00
 -1      1316 2.36024E+00
 -1      1317 1.87342E+00
 -1      1318 1.87565E+00
 -1      1319 2.02865E+00
 -1      1320 2.96678E+00
 -1      1321 2.10267E+00
 -1      1322 2.10490E+00
 -1      1323 6.62203E+00
 -1      1324 3.84211E+00
 -1      1325 3.20947E+00
 -1      1326 1.45380E+01
 -1      1327 1.18487E+01
 -1      1328 9.31142E+00
 -1      1329 1.45380E+01
 -1      1330 8.57580E+00
 -1      1331 3.28218E+00
 -1      1332 2.44582E+00
 -1      1333 2.66132E+00
 -1      1334 3.95102E+00
 -1      1335 2.20798E+00
 -1      1336 2.92107E+00
 -1      1337 2.66132E+00
 -1      1338 3.73949E+00
 -1      1339 5.26998E+00
 -1      1340 3.02641E+00
 -1      1341 6.69513E+00
 -1      1342 7.15297E+00
 -1      1343 5.26998E+00
 -1      1344 7.61081E+00
 -1      1345 7.61081E+00
 -1      1346 7.15297E+00
 -1      1347 7.42097E+00
 -1      1348 7.23113E+00
 -1      1349 7.42097E+00
 -1      1350 5.86548E+00
 -1      1351 4.49982E+00
 -1      1352 5.86548E+00
 -1      1353 3.44099E+00
 -1      1354 2.38217E+00
 -1      1355 3.44099E+00
 -1      1356 2.35852E+00
 -1      1357 2.39948E+00
 -1      1358 2.35852E+00
 -1      1359 2.46409E+00
 -1      1360 2.46409E+00
 -1      1361 2.39948E+00
 -1      1362 2.44892E+00
 -1      1363 2.43375E+00
 -1      1364 2.44892E+00
 -1      1365 2.22825E+00
 -1      1366 2.02276E+00
 -1      1367 2.22825E+00
 -1      1368 1.85977E+00
 -1      1369 1.63338E+00
 -1      1370 1.85977E+00
 -1      1371 1.51963E+00
 -1      1372 1.33746E+00
 -1      1373 1.58302E+00
 -1      1374 1.19429E+00
 -1      1375 1.04317E+00
 -1      1376 1.32610E+00
 -1      1377 9.03945E-01
 -1      1378 8.17085E-01
 -1      1379 1.04370E+00
 -1      1380 6.97481E-01
 -1      1381 6.17175E-01
 -1      1382 7.84872E-01
 -1      1383 5.21625E-01
 -1      1384 4.53401E-01
 -1      1385 5.69718E-01
 -1      1386 3.81305E-01
 -1      1387 3.26188E-01
 -1      1388 4.02073E-01
 -1      1389 2.85578E-01
 -1      1390 2.42462E-01
 -1      1391 2.89367E-01
 -1      1392 2.10393E-01
 -1      1393 1.77398E-01
 -1      1394 2.16688E-01
 -1      1395 1.52576E-01
 -1      1396 1.27736E-01
 -1      1397 1.59796E-01
 -1      1398 1.08848E-01
 -1      1399 9.71982E-02
 -1      1400 1.16086E-01
 -1      1401 8.75232E-02
 -1      1402 7.78481E-02
 -1      1403 8.75232E-02
 -1      1404 6.96525E-02
 -1      1405 6.14570E-02
 -1      1406 6.96525E-02
 -1      1407 5.46484E-02
 -1      1408 4.78399E-02
 -1      1409 5.46484E-02
 -1      1410 4.22761E-02
 -1      1411 3.67122E-02
 -1      1412 4.22761E-02
 -1      1413 3.22328E-02
 -1      1414 2.77533E-02
 -1      1415 3.22328E-02
 -1      1416 2.46921E-02
 -1      1417 2.11365E-02
 -1      1418 2.46921E-02
 -1      1419 1.86511E-02
 -1      1420 1.66600E-02
 -1      1421 1.91455E-02
 -1      1422 1.51037E-02
 -1      1423 1.35474E-02
 -1      1424 1.51037E-02
 -1      1425 1.21834E-02
 -1      1426 1.08193E-02
 -1      1427 1.21834E-02
 -1      1428 9.70805E-03
 -1      1429 8.54482E-03
 -1      1430 9.70805E-03
 -1      1431 7.69068E-03
 -1      1432 6.72116E-03
 -1      1433 7.74264E-03
 -1      1434 6.01354E-03
 -1      1435 5.29900E-03
 -1      1436 6.18089E-03
 -1      1437 4.77529E-03
 -1      1438 4.18269E-03
 -1      1439 4.94956E-03
 -1      1440 3.72552E-03
 -1      1441 3.24253E-03
 -1      1442 3.96869E-03
 -1      1443 2.85413E-03
 -1      1444 2.46745E-03
 -1      1445 3.12313E-03
 -1      1446 2.14474E-03
 -1      1447 1.87068E-03
 -1      1448 2.41202E-03
 -1      1449 1.60758E-03
 -1      1450 1.45286E-03
 -1      1451 1.82621E-03
 -1      1452 1.24190E-03
 -1      1453 1.10771E-03
 -1      1454 1.35214E-03
 -1      1455 9.60600E-04
 -1      1456 8.46949E-04
 -1      1457 9.94064E-04
 -1      1458 7.51839E-04
 -1      1459 6.56729E-04
 -1      1460 7.51839E-04
 -1      1461 5.79099E-04
 -1      1462 4.98800E-04
 -1      1463 5.79099E-04
 -1      1464 4.53700E-04
 -1      1465 4.11269E-04
 -1      1466 4.56369E-04
 -1      1467 3.76246E-04
 -1      1468 3.41222E-04
 -1      1469 3.76246E-04
 -1      1470 2.69206E-04
 -1      1471 1.97190E-04
 -1      1472 2.69206E-04
 -1      1473 1.43738E-04
 -1      1474 1.43738E-04
 -1      1475 3.58827E+00
 -1      1476 9.06316E+00
 -1      1477 9.06316E+00
 -1      1478 2.81818E+00
 -1      1479 3.20323E+00
 -1      1480 3.20323E+00
 -1      1481 2.55650E+00
 -1      1482 2.68297E+00
 -1      1483 2.68297E+00
 -1      1484 2.60079E+00
 -1      1485 2.56524E+00
 -1      1486 2.55650E+00
 -1      1487 2.63633E+00
 -1      1488 2.63633E+00
 -1      1489 2.60079E+00
 -1      1490 2.62205E+00
 -1      1491 2.58317E+00
 -1      1492 2.58317E+00
 -1      1493 2.71408E+00
 -1      1494 2.71408E+00
 -1      1495 2.62205E+00
 -1      1496 2.48361E+00
 -1      1497 2.59885E+00
 -1      1498 2.59885E+00
 -1      1499 1.92625E+00
 -1      1500 2.20493E+00
 -1      1501 2.20493E+00
 -1      1502 1.29894E+00
 -1      1503 1.61260E+00
 -1      1504 1.61260E+00
 -1      1505 7.93266E-01
 -1      1506 1.04710E+00
 -1      1507 1.04710E+00
 -1      1508 5.15161E-01
 -1      1509 6.53218E-01
 -1      1510 6.55209E-01
 -1      1511 4.14263E-01
 -1      1512 4.64564E-01
 -1      1513 4.64564E-01
 -1      1514 4.43757E-01
 -1      1515 4.14561E-01
 -1      1516 4.14263E-01
 -1      1517 4.72954E-01
 -1      1518 4.72954E-01
 -1      1519 4.43757E-01
 -1      1520 4.57560E-01
 -1      1521 4.65257E-01
 -1      1522 4.65257E-01
 -1      1523 4.01242E-01
 -1      1524 4.29401E-01
 -1      1525 4.29401E-01
 -1      1526 3.33229E-01
 -1      1527 3.67235E-01
 -1      1528 3.67235E-01
 -1      1529 2.73741E-01
 -1      1530 3.04688E-01
 -1      1531 3.04688E-01
 -1      1532 2.15490E-01
 -1      1533 2.46348E-01
 -1      1534 2.48754E-01
 -1      1535 1.66122E-01
 -1      1536 1.89378E-01
 -1      1537 1.95248E-01
 -1      1538 1.30228E-01
 -1      1539 1.46668E-01
 -1      1540 1.49682E-01
 -1      1541 1.00247E-01
 -1      1542 1.15237E-01
 -1      1543 1.15237E-01
 -1      1544 7.45191E-02
 -1      1545 8.73829E-02
 -1      1546 8.73829E-02
 -1      1547 5.40642E-02
 -1      1548 6.46065E-02
 -1      1549 6.46065E-02
 -1      1550 3.79305E-02
 -1      1551 4.62484E-02
 -1      1552 4.68781E-02
 -1      1553 3.07643E-02
 -1      1554 3.37815E-02
 -1      1555 3.49133E-02
 -1      1556 2.56423E-02
 -1      1557 2.82033E-02
 -1      1558 2.82033E-02
 -1      1559 2.08288E-02
 -1      1560 2.32355E-02
 -1      1561 2.32355E-02
 -1      1562 1.65351E-02
 -1      1563 1.86819E-02
 -1      1564 1.86819E-02
 -1      1565 1.36659E-02
 -1      1566 1.51005E-02
 -1      1567 1.51005E-02
 -1      1568 1.19962E-02
 -1      1569 1.28311E-02
 -1      1570 1.28311E-02
 -1      1571 1.02073E-02
 -1      1572 1.11018E-02
 -1      1573 1.11018E-02
 -1      1574 8.46505E-03
 -1      1575 9.33617E-03
 -1      1576 9.33617E-03
 -1      1577 6.86585E-03
 -1      1578 7.66545E-03
 -1      1579 7.66545E-03
 -1      1580 5.51923E-03
 -1      1581 6.19254E-03
 -1      1582 6.19254E-03
 -1      1583 4.43033E-03
 -1      1584 4.97478E-03
 -1      1585 4.97478E-03
 -1      1586 3.49309E-03
 -1      1587 3.96411E-03
 -1      1588 3.96411E-03
 -1      1589 2.72500E-03
 -1      1590 3.12143E-03
 -1      1591 3.12624E-03
 -1      1592 2.08542E-03
 -1      1593 2.41159E-03
 -1      1594 2.44117E-03
 -1      1595 1.56354E-03
 -1      1596 1.82689E-03
 -1      1597 1.86924E-03
 -1      1598 1.14472E-03
 -1      1599 1.35413E-03
 -1      1600 1.40130E-03
 -1      1601 8.49807E-04
 -1      1602 9.77557E-04
 -1      1603 1.02472E-03
 -1      1604 6.54007E-04
 -1      1605 7.48034E-04
 -1      1606 7.55780E-04
 -1      1607 4.94751E-04
 -1      1608 5.74379E-04
 -1      1609 5.74379E-04
 -1      1610 3.53577E-04
 -1      1611 4.24164E-04
 -1      1612 4.24164E-04
 -1      1613 2.43892E-04
 -1      1614 2.98735E-04
 -1      1615 2.98735E-04
 -1      1616 1.54404E-04
 -1      1617 1.99148E-04
 -1      1618 1.99148E-04
 -1      1619 1.09369E-04
 -1      1620 7.97436E-05
 -1      1621 7.97436E-05
 -1      1622 8.13256E-05
 -1      1623 8.25402E-05
 -1      1624 9.79491E-05
 -1      1625 6.87645E-05
 -1      1626 8.13256E-05
 -1      1627 1.00746E-04
 -1      1628 3.73186E-05
 -1      1629 4.23288E-05
 -1      1630 7.43100E-05
 -1      1631 6.94260E-05
 -1      1632 5.83624E-05
 -1      1633 6.89182E-05
 -1      1634 9.01869E-05
 -1      1635 8.33777E-05
 -1      1636 1.03914E-04
 -1      1637 9.79402E-05
 -1      1638 9.59184E-05
 -1      1639 1.23597E-04
 -1      1640 9.79402E-05
 -1      1641 9.79402E-05
 -1      1642 1.29328E-04
 -1      1643 9.58078E-05
 -1      1644 9.79224E-05
 -1      1645 1.29311E-04
 -1      1646 8.26290E-05
 -1      1647 8.97267E-05
 -1      1648 1.23212E-04
 -1      1649 5.85370E-05
 -1      1650 6.91330E-05
 -1      1651 1.03635E-04
 -1      1652 4.37536E-05
 -1      1653 3.83763E-05
 -1      1654 6.99781E-05
 -1      1655 8.14376E-05
 -1      1656 6.95303E-05
 -1      1657 7.55941E-05
 -1      1658 9.34741E-05
 -1      1659 8.14376E-05
 -1      1660 1.01371E-04
 -1      1661 1.06882E-04
 -1      1662 1.04528E-04
 -1      1663 1.12425E-04
 -1      1664 1.60334E-04
 -1      1665 2.99287E+01
 -1      1666 2.99287E+01
 -1      1667 4.20670E+01
 -1      1668 3.28362E+01
 -1      1669 4.52673E+01
 -1      1670 4.52673E+01
 -1      1671 1.88713E+01
 -1      1672 3.24399E+01
 -1      1673 1.10979E+01
 -1      1674 1.43383E+01
 -1      1675 1.16493E+01
 -1      1676 1.16493E+01
 -1      1677 1.15696E+01
 -1      1678 1.15809E+01
 -1      1679 1.17210E+01
 -1      1680 1.16266E+01
 -1      1681 1.18154E+01
 -1      1682 1.18154E+01
 -1      1683 1.08386E+01
 -1      1684 1.12251E+01
 -1      1685 1.57778E+01
 -1      1686 1.10424E+01
 -1      1687 3.29495E+01
 -1      1688 2.05131E+01
 -1      1689 4.53859E+01
 -1      1690 4.53859E+01
 -1      1691 3.55265E+01
 -1      1692 4.24764E+01
 -1      1693 3.98312E+01
 -1      1694 3.98312E+01
 -1      1695 3.91779E+01
 -1      1696 3.98312E+01
 -1      1697 4.52829E+01
 -1      1698 3.72474E+01
 -1      1699 4.62502E+01
 -1      1700 4.62502E+01
 -1      1701 1.97194E+01
 -1      1702 3.32259E+01
 -1      1703 1.14840E+01
 -1      1704 1.50954E+01
 -1      1705 1.24206E+01
 -1      1706 1.20144E+01
 -1      1707 1.28269E+01
 -1      1708 1.28269E+01
 -1      1709 1.23008E+01
 -1      1710 1.24356E+01
 -1      1711 1.25571E+01
 -1      1712 1.25571E+01
 -1      1713 1.18868E+01
 -1      1714 1.19845E+01
 -1      1715 1.91271E+01
 -1      1716 1.23617E+01
 -1      1717 2.82139E+01
 -1      1718 2.62948E+01
 -1      1719 3.01668E+01
 -1      1720 3.01668E+01
 -1      1721 2.84934E+01
 -1      1722 3.01668E+01
 -1      1723 2.99287E+01
 -1      1724 2.97179E+01
 -1      1725 1.50796E+01
 -1      1726 3.24399E+01
 -1      1727 1.09369E-04
 -1      1728 1.24778E-04
 -1      1729 3.59592E+01
 -1      1730 4.20670E+01
 -1      1731 3.30517E+01
 -1      1732 1.10979E+01
 -1      1733 1.15809E+01
 -1      1734 1.15696E+01
 -1      1735 1.17210E+01
 -1      1736 1.12251E+01
 -1      1737 1.08386E+01
 -1      1738 1.57778E+01
 -1      1739 3.29495E+01
 -1      1740 4.24764E+01
 -1      1741 4.38717E+01
 -1      1742 4.81764E+01
 -1      1743 4.62460E+01
 -1      1744 4.52829E+01
 -1      1745 3.32259E+01
 -1      1746 1.55777E+01
 -1      1747 1.14840E+01
 -1      1748 1.24206E+01
 -1      1749 1.24356E+01
 -1      1750 1.23008E+01
 -1      1751 1.19845E+01
 -1      1752 1.18868E+01
 -1      1753 1.95294E+01
 -1      1754 2.86499E+01
 -1      1755 3.06028E+01
 -1      1756 3.18273E+01
 -1      1757 1.03227E+01
 -1      1758 6.82972E+00
 -1      1759 6.10873E+00
 -1      1760 5.15322E+00
 -1      1761 6.53433E+00
 -1      1762 5.74289E+00
 -1      1763 9.48037E+00
 -1      1764 9.48037E+00
 -1      1765 8.90998E+00
 -1      1766 9.48037E+00
 -1      1767 1.07008E+01
 -1      1768 8.04313E+00
 -1      1769 8.72783E+00
 -1      1770 1.05187E+01
 -1      1771 6.96487E+00
 -1      1772 6.96487E+00
 -1      1773 9.25827E+00
 -1      1774 5.71275E+00
 -1      1775 6.28446E+00
 -1      1776 7.49960E+00
 -1      1777 3.94147E+00
 -1      1778 4.61142E+00
 -1      1779 5.71785E+00
 -1      1780 2.70110E+00
 -1      1781 3.06490E+00
 -1      1782 3.73995E+00
 -1      1783 1.92372E+00
 -1      1784 2.10230E+00
 -1      1785 2.26457E+00
 -1      1786 1.57951E+00
 -1      1787 1.73252E+00
 -1      1788 1.47458E+00
 -1      1789 1.70939E+00
 -1      1790 1.48014E+00
 -1      1791 1.18400E+00
 -1      1792 2.58269E+00
 -1      1793 1.70737E+00
 -1      1794 1.08261E+00
 -1      1795 8.53597E+00
 -1      1796 3.30935E+00
 -1      1797 1.80725E+00
 -1      1798 3.06109E+00
 -1      1799 6.53433E+00
 -1      1800 2.66446E+00
 -1      1801 3.04951E+00
 -1      1802 2.52232E+00
 -1      1803 4.78738E+00
 -1      1804 3.59866E+00
 -1      1805 3.14532E+00
 -1      1806 2.59961E+00
 -1      1807 3.41804E+00
 -1      1808 3.53696E+00
 -1      1809 3.62425E+00
 -1      1810 5.04939E+00
 -1      1811 3.19745E+00
 -1      1812 6.25315E+00
 -1      1813 6.71099E+00
 -1      1814 4.60742E+00
 -1      1815 6.56996E+00
 -1      1816 6.38013E+00
 -1      1817 5.67015E+00
 -1      1818 5.58607E+00
 -1      1819 4.22041E+00
 -1      1820 4.73506E+00
 -1      1821 3.62524E+00
 -1      1822 2.56642E+00
 -1      1823 3.34584E+00
 -1      1824 2.61535E+00
 -1      1825 2.59170E+00
 -1      1826 2.79960E+00
 -1      1827 2.38533E+00
 -1      1828 2.44994E+00
 -1      1829 2.64215E+00
 -1      1830 2.33304E+00
 -1      1831 2.31787E+00
 -1      1832 2.31889E+00
 -1      1833 2.18607E+00
 -1      1834 1.98058E+00
 -1      1835 2.07020E+00
 -1      1836 1.89524E+00
 -1      1837 1.73224E+00
 -1      1838 1.85306E+00
 -1      1839 1.60934E+00
 -1      1840 1.49559E+00
 -1      1841 1.64481E+00
 -1      1842 1.36487E+00
 -1      1843 1.22169E+00
 -1      1844 1.39118E+00
 -1      1845 1.09224E+00
 -1      1846 9.53012E-01
 -1      1847 1.13100E+00
 -1      1848 8.35877E-01
 -1      1849 7.16273E-01
 -1      1850 8.84413E-01
 -1      1851 6.18462E-01
 -1      1852 5.22913E-01
 -1      1853 6.69467E-01
 -1      1854 4.45235E-01
 -1      1855 3.73139E-01
 -1      1856 4.93979E-01
 -1      1857 3.13487E-01
 -1      1858 2.72878E-01
 -1      1859 3.56650E-01
 -1      1860 2.28159E-01
 -1      1861 1.96090E-01
 -1      1862 2.52280E-01
 -1      1863 1.63193E-01
 -1      1864 1.38371E-01
 -1      1865 1.74665E-01
 -1      1866 1.16051E-01
 -1      1867 9.71627E-02
 -1      1868 1.19447E-01
 -1      1869 8.29799E-02
 -1      1870 7.33048E-02
 -1      1871 8.29444E-02
 -1      1872 6.38844E-02
 -1      1873 5.56889E-02
 -1      1874 5.93412E-02
 -1      1875 4.95773E-02
 -1      1876 4.27688E-02
 -1      1877 4.38093E-02
 -1      1878 3.93472E-02
 -1      1879 3.37833E-02
 -1      1880 3.42761E-02
 -1      1881 3.07593E-02
 -1      1882 2.62798E-02
 -1      1883 2.78304E-02
 -1      1884 2.36833E-02
 -1      1885 2.06221E-02
 -1      1886 2.22099E-02
 -1      1887 1.84440E-02
 -1      1888 1.59586E-02
 -1      1889 1.74352E-02
 -1      1890 1.43245E-02
 -1      1891 1.27682E-02
 -1      1892 1.36230E-02
 -1      1893 1.16950E-02
 -1      1894 1.03309E-02
 -1      1895 1.09157E-02
 -1      1896 9.51355E-03
 -1      1897 8.40227E-03
 -1      1898 9.02514E-03
 -1      1899 7.64937E-03
 -1      1900 6.79524E-03
 -1      1901 7.45487E-03
 -1      1902 6.18178E-03
 -1      1903 5.47416E-03
 -1      1904 6.08851E-03
 -1      1905 4.96489E-03
 -1      1906 4.44118E-03
 -1      1907 4.96579E-03
 -1      1908 3.99170E-03
 -1      1909 3.53454E-03
 -1      1910 4.00703E-03
 -1      1911 3.15373E-03
 -1      1912 2.76533E-03
 -1      1913 3.17674E-03
 -1      1914 2.46578E-03
 -1      1915 2.14307E-03
 -1      1916 2.49637E-03
 -1      1917 1.89060E-03
 -1      1918 1.62750E-03
 -1      1919 1.94436E-03
 -1      1920 1.42344E-03
 -1      1921 1.21247E-03
 -1      1922 1.48783E-03
 -1      1923 1.05125E-03
 -1      1924 9.04135E-04
 -1      1925 1.12254E-03
 -1      1926 7.73929E-04
 -1      1927 6.78819E-04
 -1      1928 8.31115E-04
 -1      1929 5.79099E-04
 -1      1930 5.01469E-04
 -1      1931 6.01189E-04
 -1      1932 4.40171E-04
 -1      1933 3.95071E-04
 -1      1934 4.40171E-04
 -1      1935 3.40431E-04
 -1      1936 3.05408E-04
 -1      1937 3.24234E-04
 -1      1938 2.61033E-04
 -1      1939 1.89017E-04
 -1      1940 1.52162E-04
 -1      1941 2.25219E-04
 -1      1942 2.31300E+00
 -1      1943 2.44821E+00
 -1      1944 2.29449E+00
 -1      1945 2.32174E+00
 -1      1946 2.31300E+00
 -1      1947 2.07824E+00
 -1      1948 2.30807E+00
 -1      1949 2.27253E+00
 -1      1950 2.02903E+00
 -1      1951 2.14443E+00
 -1      1952 2.19759E+00
 -1      1953 1.86933E+00
 -1      1954 2.18591E+00
 -1      1955 2.09387E+00
 -1      1956 1.70830E+00
 -1      1957 2.06575E+00
 -1      1958 2.18098E+00
 -1      1959 1.65281E+00
 -1      1960 1.66538E+00
 -1      1961 1.94406E+00
 -1      1962 1.52619E+00
 -1      1963 1.17315E+00
 -1      1964 1.48681E+00
 -1      1965 1.22594E+00
 -1      1966 7.54597E-01
 -1      1967 1.00644E+00
 -1      1968 8.80651E-01
 -1      1969 4.62596E-01
 -1      1970 6.02643E-01
 -1      1971 5.61984E-01
 -1      1972 3.19597E-01
 -1      1973 3.70195E-01
 -1      1974 3.17629E-01
 -1      1975 3.50867E-01
 -1      1976 3.50570E-01
 -1      1977 2.56201E-01
 -1      1978 3.96871E-01
 -1      1979 3.67674E-01
 -1      1980 3.03981E-01
 -1      1981 4.00462E-01
 -1      1982 4.08159E-01
 -1      1983 3.32076E-01
 -1      1984 3.63417E-01
 -1      1985 3.91576E-01
 -1      1986 3.34478E-01
 -1      1987 3.11325E-01
 -1      1988 3.45332E-01
 -1      1989 3.07507E-01
 -1      1990 2.64559E-01
 -1      1991 2.93100E-01
 -1      1992 2.71197E-01
 -1      1993 2.15179E-01
 -1      1994 2.42573E-01
 -1      1995 2.30985E-01
 -1      1996 1.66888E-01
 -1      1997 1.93000E-01
 -1      1998 1.86820E-01
 -1      1999 1.27341E-01
 -1      2000 1.46795E-01
 -1      2001 1.44547E-01
 -1      2002 9.86070E-02
 -1      2003 1.13598E-01
 -1      2004 1.10710E-01
 -1      2005 7.42662E-02
 -1      2006 8.71299E-02
 -1      2007 8.54903E-02
 -1      2008 5.46939E-02
 -1      2009 6.46065E-02
 -1      2010 6.43535E-02
 -1      2011 3.90623E-02
 -1      2012 4.68781E-02
 -1      2013 4.68781E-02
 -1      2014 2.87990E-02
 -1      2015 3.29480E-02
 -1      2016 3.29480E-02
 -1      2017 2.27620E-02
 -1      2018 2.53230E-02
 -1      2019 2.33577E-02
 -1      2020 1.90240E-02
 -1      2021 2.14308E-02
 -1      2022 1.85505E-02
 -1      2023 1.55158E-02
 -1      2024 1.76627E-02
 -1      2025 1.58579E-02
 -1      2026 1.27882E-02
 -1      2027 1.42228E-02
 -1      2028 1.32035E-02
 -1      2029 1.07853E-02
 -1      2030 1.16201E-02
 -1      2031 1.07424E-02
 -1      2032 8.96760E-03
 -1      2033 9.86207E-03
 -1      2034 8.65108E-03
 -1      2035 7.58342E-03
 -1      2036 8.45455E-03
 -1      2037 7.21485E-03
 -1      2038 6.25746E-03
 -1      2039 7.05705E-03
 -1      2040 6.17543E-03
 -1      2041 5.08373E-03
 -1      2042 5.75704E-03
 -1      2043 5.14864E-03
 -1      2044 4.13257E-03
 -1      2045 4.67702E-03
 -1      2046 4.24151E-03
 -1      2047 3.30843E-03
 -1      2048 3.77464E-03
 -1      2049 3.47688E-03
 -1      2050 2.62890E-03
 -1      2051 3.00056E-03
 -1      2052 2.81109E-03
 -1      2053 2.04872E-03
 -1      2054 2.36213E-03
 -1      2055 2.23645E-03
 -1      2056 1.56504E-03
 -1      2057 1.82356E-03
 -1      2058 1.74452E-03
 -1      2059 1.16959E-03
 -1      2060 1.37901E-03
 -1      2061 1.33334E-03
 -1      2062 8.51388E-04
 -1      2063 1.01855E-03
 -1      2064 9.96264E-04
 -1      2065 6.33400E-04
 -1      2066 7.35173E-04
 -1      2067 7.29008E-04
 -1      2068 4.83335E-04
 -1      2069 5.62964E-04
 -1      2070 5.42356E-04
 -1      2071 3.51342E-04
 -1      2072 4.21928E-04
 -1      2073 4.10513E-04
 -1      2074 2.39946E-04
 -1      2075 2.94788E-04
 -1      2076 2.92553E-04
 -1      2077 1.42397E-04
 -1      2078 1.87141E-04
 -1      2079 1.83195E-04
 -1      2080 1.12771E-04
 -1      2081 7.81284E-05
 -1      2082 1.04564E-04
 -1      2083 1.42646E-04
 -1      2084 1.42646E-04
 -1      2085 1.46465E-04
 -1      2086 1.42646E-04
 -1      2087 1.39850E-04
 -1      2088 1.57469E-04
 -1      2089 1.84547E-04
 -1      2090 1.06568E-04
 -1      2091 8.55237E-05
 -1      2092 1.15778E-04
 -1      2093 1.41174E-04
 -1      2094 1.27222E-04
 -1      2095 1.43828E-04
 -1      2096 1.56896E-04
 -1      2097 1.51165E-04
 -1      2098 1.74473E-04
 -1      2099 1.56896E-04
 -1      2100 1.56896E-04
 -1      2101 1.84464E-04
 -1      2102 1.56631E-04
 -1      2103 1.56649E-04
 -1      2104 1.84217E-04
 -1      2105 1.50550E-04
 -1      2106 1.56631E-04
 -1      2107 1.83969E-04
 -1      2108 1.27486E-04
 -1      2109 1.40982E-04
 -1      2110 1.74401E-04
 -1      2111 8.62807E-05
 -1      2112 1.06441E-04
 -1      2113 1.43788E-04
 -1      2114 1.05937E-04
 -1      2115 8.01606E-05
 -1      2116 1.16624E-04
 -1      2117 1.33644E-04
 -1      2118 1.33644E-04
 -1      2119 1.38211E-04
 -1      2120 3.58647E+01
 -1      2121 3.26645E+01
 -1      2122 3.46571E+01
 -1      2123 3.46571E+01
 -1      2124 3.30944E+01
 -1      2125 3.01869E+01
 -1      2126 2.68921E+01
 -1      2127 1.72770E+01
 -1      2128 3.01044E+01
 -1      2129 9.70012E+00
 -1      2130 1.42332E+01
 -1      2131 8.70175E+00
 -1      2132 8.05231E+00
 -1      2133 7.92098E+00
 -1      2134 9.92220E+00
 -1      2135 1.09363E+01
 -1      2136 1.10047E+01
 -1      2137 1.09083E+01
 -1      2138 1.08513E+01
 -1      2139 1.02751E+01
 -1      2140 1.12211E+01
 -1      2141 1.11267E+01
 -1      2142 9.62316E+00
 -1      2143 1.02135E+01
 -1      2144 9.09209E+00
 -1      2145 8.88828E+00
 -1      2146 7.87665E+00
 -1      2147 1.53081E+01
 -1      2148 1.05727E+01
 -1      2149 3.06903E+01
 -1      2150 1.82540E+01
 -1      2151 1.30489E+01
 -1      2152 3.31961E+01
 -1      2153 3.61056E+01
 -1      2154 3.94869E+01
 -1      2155 3.51821E+01
 -1      2156 2.88113E+01
 -1      2157 4.81764E+01
 -1      2158 4.81764E+01
 -1      2159 4.43155E+01
 -1      2160 4.62460E+01
 -1      2161 4.62460E+01
 -1      2162 3.62776E+01
 -1      2163 3.53103E+01
 -1      2164 1.84589E+01
 -1      2165 3.14832E+01
 -1      2166 2.15106E+01
 -1      2167 1.04015E+01
 -1      2168 1.50254E+01
 -1      2169 9.55718E+00
 -1      2170 9.02680E+00
 -1      2171 1.11181E+01
 -1      2172 1.07119E+01
 -1      2173 1.12906E+01
 -1      2174 1.16818E+01
 -1      2175 1.13529E+01
 -1      2176 1.10965E+01
 -1      2177 1.03427E+01
 -1      2178 9.99922E+00
 -1      2179 1.05719E+01
 -1      2180 9.72880E+00
 -1      2181 9.25389E+00
 -1      2182 7.84124E+00
 -1      2183 1.88925E+01
 -1      2184 1.17248E+01
 -1      2185 2.46238E+01
 -1      2186 2.26709E+01
 -1      2187 3.06028E+01
 -1      2188 3.06028E+01
 -1      2189 3.46571E+01
 -1      2190 3.34326E+01
 -1      2191 9.76525E+00
 -1      2192 9.21387E+00
 -1      2193 8.36747E+00
 -1      2194 3.95102E+00
 -1      2195 9.12066E+00
 -1      2196 4.43503E+00
 -1      2197 3.17922E+01
 -1      2198 2.07018E+01
 -1      2199 1.44698E-04
 -1      2200 3.62624E+01
 -1      2201 1.18976E+01
 -1      2202 3.34326E+01
 -1      2203 2.46238E+01
 -1      2204 9.09192E+00
 -1      2205 9.36760E+00
 -1      2206 9.97304E+00
 -1      2207 8.25467E+00
 -1      2208 1.32827E+01
 -1      2209 3.53103E+01
 -1      2210 3.94869E+01
 -1      2211 2.14100E+01
 -1      2212 8.62240E+00
 -1      2213 1.04084E+01
 -1      2214 9.61913E+00
 -1      2215 8.47460E+00
 -1      2216 1.48663E+01
 -1      2217 2.04634E+00
 -1      2218 2.26259E+00
 -1      2219 1.28187E+01
 -1      2220 1.30008E+01
 -1      2221 1.27545E+01
 -1      2222 1.27545E+01
 -1      2223 8.81800E+00
 -1      2224 9.49841E+00
 -1      2225 5.62760E+00
 -1      2226 6.72893E+00
 -1      2227 8.72775E+00
 -1      2228 3.47879E+00
 -1      2229 4.35536E+00
 -1      2230 5.36645E+00
 -1      2231 1.82735E+00
 -1      2232 2.42615E+00
 -1      2233 3.04157E+00
 -1      2234 1.23805E+00
 -1      2235 1.42925E+00
 -1      2236 1.59082E+00
 -1      2237 1.21578E+00
 -1      2238 1.31516E+00
 -1      2239 1.26983E+00
 -1      2240 2.07824E+00
 -1      2241 2.07824E+00
 -1      2242 2.04634E+00
 -1      2243 4.37107E+00
 -1      2244 3.82535E+00
 -1      2245 7.75393E+00
 -1      2246 6.51448E+00
 -1      2247 3.64035E+00
 -1      2248 3.84656E+00
 -1      2249 4.47446E+00
 -1      2250 7.31342E+00
 -1      2251 7.17239E+00
 -1      2252 6.64859E+00
 -1      2253 5.85453E+00
 -1      2254 3.53451E+00
 -1      2255 2.93935E+00
 -1      2256 5.44804E+00
 -1      2257 3.18427E+00
 -1      2258 3.23319E+00
 -1      2259 3.71123E+00
 -1      2260 3.50486E+00
 -1      2261 4.09590E+00
 -1      2262 2.80915E+00
 -1      2263 2.69225E+00
 -1      2264 3.87822E+00
 -1      2265 2.32141E+00
 -1      2266 2.18962E+00
 -1      2267 2.81167E+00
 -1      2268 1.98960E+00
 -1      2269 1.90426E+00
 -1      2270 2.24082E+00
 -1      2271 1.73685E+00
 -1      2272 1.61395E+00
 -1      2273 1.87340E+00
 -1      2274 1.44844E+00
 -1      2275 1.31772E+00
 -1      2276 1.54049E+00
 -1      2277 1.17025E+00
 -1      2278 1.04079E+00
 -1      2279 1.22751E+00
 -1      2280 9.16372E-01
 -1      2281 7.99237E-01
 -1      2282 9.55613E-01
 -1      2283 6.98053E-01
 -1      2284 6.00242E-01
 -1      2285 7.30012E-01
 -1      2286 5.20082E-01
 -1      2287 4.42404E-01
 -1      2288 5.48667E-01
 -1      2289 3.80149E-01
 -1      2290 3.20497E-01
 -1      2291 4.06252E-01
 -1      2292 2.72918E-01
 -1      2293 2.28200E-01
 -1      2294 2.96418E-01
 -1      2295 1.92337E-01
 -1      2296 1.59440E-01
 -1      2297 2.12975E-01
 -1      2298 1.32747E-01
 -1      2299 1.10426E-01
 -1      2300 1.50418E-01
 -1      2301 9.08054E-02
 -1      2302 7.66225E-02
 -1      2303 1.04104E-01
 -1      2304 6.23897E-02
 -1      2305 5.29693E-02
 -1      2306 7.02507E-02
 -1      2307 4.27975E-02
 -1      2308 3.66860E-02
 -1      2309 4.58460E-02
 -1      2310 3.12365E-02
 -1      2311 2.78149E-02
 -1      2312 3.02248E-02
 -1      2313 2.41132E-02
 -1      2314 2.10892E-02
 -1      2315 2.10737E-02
 -1      2316 1.99003E-02
 -1      2317 1.73038E-02
 -1      2318 1.61831E-02
 -1      2319 1.61093E-02
 -1      2320 1.39312E-02
 -1      2321 1.37997E-02
 -1      2322 1.28110E-02
 -1      2323 1.11769E-02
 -1      2324 1.14851E-02
 -1      2325 1.01732E-02
 -1      2326 9.10001E-03
 -1      2327 9.36122E-03
 -1      2328 8.32436E-03
 -1      2329 7.50700E-03
 -1      2330 7.58187E-03
 -1      2331 6.93725E-03
 -1      2332 6.18434E-03
 -1      2333 6.23647E-03
 -1      2334 5.75792E-03
 -1      2335 5.14446E-03
 -1      2336 5.24030E-03
 -1      2337 4.73375E-03
 -1      2338 4.22449E-03
 -1      2339 4.40316E-03
 -1      2340 3.88711E-03
 -1      2341 3.43763E-03
 -1      2342 3.65508E-03
 -1      2343 3.12985E-03
 -1      2344 2.74904E-03
 -1      2345 3.00993E-03
 -1      2346 2.47602E-03
 -1      2347 2.17647E-03
 -1      2348 2.42914E-03
 -1      2349 1.94796E-03
 -1      2350 1.69549E-03
 -1      2351 1.92760E-03
 -1      2352 1.51876E-03
 -1      2353 1.31470E-03
 -1      2354 1.52236E-03
 -1      2355 1.16316E-03
 -1      2356 1.00193E-03
 -1      2357 1.19408E-03
 -1      2358 8.75191E-04
 -1      2359 7.44985E-04
 -1      2360 9.15803E-04
 -1      2361 6.41437E-04
 -1      2362 5.41717E-04
 -1      2363 6.85513E-04
 -1      2364 4.59059E-04
 -1      2365 3.97762E-04
 -1      2366 4.99308E-04
 -1      2367 3.33027E-04
 -1      2368 2.78387E-04
 -1      2369 3.51916E-04
 -1      2370 2.19028E+01
 -1      2371 2.23328E+01
 -1      2372 1.75885E+00
 -1      2373 1.86933E+00
 -1      2374 1.61901E+00
 -1      2375 1.66956E+00
 -1      2376 1.66956E+00
 -1      2377 1.58872E+00
 -1      2378 1.59365E+00
 -1      2379 1.55492E+00
 -1      2380 1.36074E+00
 -1      2381 1.48243E+00
 -1      2382 1.42327E+00
 -1      2383 1.07264E+00
 -1      2384 1.25121E+00
 -1      2385 1.20745E+00
 -1      2386 7.50358E-01
 -1      2387 9.17072E-01
 -1      2388 9.42351E-01
 -1      2389 4.83359E-01
 -1      2390 6.35313E-01
 -1      2391 6.71734E-01
 -1      2392 3.10308E-01
 -1      2393 4.02709E-01
 -1      2394 4.76038E-01
 -1      2395 3.15775E-01
 -1      2396 2.84802E-01
 -1      2397 3.69882E-01
 -1      2398 3.09536E-01
 -1      2399 2.92729E-01
 -1      2400 3.21330E-01
 -1      2401 3.28397E-01
 -1      2402 3.17109E-01
 -1      2403 3.05857E-01
 -1      2404 3.12147E-01
 -1      2405 3.21033E-01
 -1      2406 3.06066E-01
 -1      2407 2.82576E-01
 -1      2408 3.00661E-01
 -1      2409 2.87216E-01
 -1      2410 2.48968E-01
 -1      2411 2.67193E-01
 -1      2412 2.60347E-01
 -1      2413 2.09944E-01
 -1      2414 2.31930E-01
 -1      2415 2.27927E-01
 -1      2416 1.68789E-01
 -1      2417 1.90968E-01
 -1      2418 1.91914E-01
 -1      2419 1.30213E-01
 -1      2420 1.50307E-01
 -1      2421 1.54455E-01
 -1      2422 9.98800E-02
 -1      2423 1.13623E-01
 -1      2424 1.19383E-01
 -1      2425 7.43505E-02
 -1      2426 8.58276E-02
 -1      2427 8.87402E-02
 -1      2428 5.33192E-02
 -1      2429 6.29789E-02
 -1      2430 6.33162E-02
 -1      2431 3.76733E-02
 -1      2432 4.54891E-02
 -1      2433 4.41144E-02
 -1      2434 2.63002E-02
 -1      2435 3.24145E-02
 -1      2436 3.10255E-02
 -1      2437 1.98816E-02
 -1      2438 2.33577E-02
 -1      2439 2.28242E-02
 -1      2440 1.72193E-02
 -1      2441 1.85505E-02
 -1      2442 1.85505E-02
 -1      2443 1.44966E-02
 -1      2444 1.58579E-02
 -1      2445 1.58579E-02
 -1      2446 1.19105E-02
 -1      2447 1.32035E-02
 -1      2448 1.32035E-02
 -1      2449 9.57426E-03
 -1      2450 1.07424E-02
 -1      2451 1.07424E-02
 -1      2452 7.72790E-03
 -1      2453 8.65108E-03
 -1      2454 8.65108E-03
 -1      2455 6.70180E-03
 -1      2456 7.21485E-03
 -1      2457 7.21485E-03
 -1      2458 5.64906E-03
 -1      2459 6.17543E-03
 -1      2460 6.17543E-03
 -1      2461 4.64822E-03
 -1      2462 5.14864E-03
 -1      2463 5.14864E-03
 -1      2464 3.83862E-03
 -1      2465 4.24533E-03
 -1      2466 4.24533E-03
 -1      2467 3.12027E-03
 -1      2468 3.47820E-03
 -1      2469 3.48201E-03
 -1      2470 2.49309E-03
 -1      2471 2.80096E-03
 -1      2472 2.80228E-03
 -1      2473 1.98017E-03
 -1      2474 2.24694E-03
 -1      2475 2.23681E-03
 -1      2476 1.54502E-03
 -1      2477 1.77017E-03
 -1      2478 1.78067E-03
 -1      2479 1.17962E-03
 -1      2480 1.36565E-03
 -1      2481 1.39131E-03
 -1      2482 8.79055E-04
 -1      2483 1.03010E-03
 -1      2484 1.06241E-03
 -1      2485 6.41485E-04
 -1      2486 7.57700E-04
 -1      2487 7.91532E-04
 -1      2488 4.71338E-04
 -1      2489 5.41774E-04
 -1      2490 5.70466E-04
 -1      2491 3.35139E-04
 -1      2492 3.96546E-04
 -1      2493 3.95964E-04
 -1      2494 2.29580E-04
 -1      2495 2.86133E-04
 -1      2496 2.72166E-04
 -1      2497 2.10273E-04
 -1      2498 1.86736E-04
 -1      2499 1.66082E-04
 -1      2500 2.13820E-04
 -1      2501 2.03829E-04
 -1      2502 2.26082E-04
 -1      2503 1.71393E-04
 -1      2504 2.09476E-04
 -1      2505 1.86648E-04
 -1      2506 1.79253E-04
 -1      2507 2.42264E-04
 -1      2508 2.29557E-04
 -1      2509 2.15003E-04
 -1      2510 2.15003E-04
 -1      2511 2.44359E-04
 -1      2512 2.14756E-04
 -1      2513 2.15003E-04
 -1      2514 2.45543E-04
 -1      2515 2.14654E-04
 -1      2516 2.14654E-04
 -1      2517 2.45441E-04
 -1      2518 2.04300E-04
 -1      2519 2.13868E-04
 -1      2520 2.44553E-04
 -1      2521 1.66432E-04
 -1      2522 1.87476E-04
 -1      2523 2.26944E-04
 -1      2524 1.36558E-04
 -1      2525 1.42678E-04
 -1      2526 1.86366E-04
 -1      2527 1.64265E-04
 -1      2528 1.36558E-04
 -1      2529 1.62613E-04
 -1      2530 1.73381E-04
 -1      2531 3.62624E+01
 -1      2532 3.62624E+01
 -1      2533 1.97981E+00
 -1      2534 2.02903E+00
 -1      2535 1.86933E+00
 -1      2536 1.34858E+01
 -1      2537 1.92461E+01
 -1      2538 2.89008E+01
 -1      2539 2.60710E+01
 -1      2540 2.89008E+01
 -1      2541 5.53864E+00
 -1      2542 5.18628E+00
 -1      2543 5.47468E+00
 -1      2544 6.49414E+00
 -1      2545 9.16935E+00
 -1      2546 1.22132E+01
 -1      2547 9.67617E+00
 -1      2548 9.11253E+00
 -1      2549 9.14365E+00
 -1      2550 8.92531E+00
 -1      2551 1.12652E+01
 -1      2552 1.23435E+01
 -1      2553 1.25836E+01
 -1      2554 7.01213E+00
 -1      2555 8.01974E+00
 -1      2556 8.74115E+00
 -1      2557 8.82618E+00
 -1      2558 7.47642E+00
 -1      2559 6.49880E+00
 -1      2560 7.87346E+00
 -1      2561 5.46571E+00
 -1      2562 6.20058E+00
 -1      2563 4.60119E+00
 -1      2564 8.06997E+00
 -1      2565 6.58935E+00
 -1      2566 1.32318E+01
 -1      2567 1.02859E+01
 -1      2568 2.03916E+01
 -1      2569 1.49764E+01
 -1      2570 2.48660E+01
 -1      2571 2.28800E+01
 -1      2572 3.46414E+01
 -1      2573 3.65718E+01
 -1      2574 2.29900E+01
 -1      2575 3.19952E+01
 -1      2576 1.45695E+01
 -1      2577 1.93639E+01
 -1      2578 1.37754E+01
 -1      2579 9.99704E+00
 -1      2580 9.42235E+00
 -1      2581 1.28558E+01
 -1      2582 7.61029E+00
 -1      2583 6.45556E+00
 -1      2584 5.85442E+00
 -1      2585 8.17732E+00
 -1      2586 8.95834E+00
 -1      2587 5.68132E+00
 -1      2588 6.42666E+00
 -1      2589 9.04395E+00
 -1      2590 7.04794E+00
 -1      2591 2.26335E+01
 -1      2592 1.66545E+01
 -1      2593 1.17852E+01
 -1      2594 2.73221E+01
 -1      2595 3.17922E+01
 -1      2596 2.10515E+00
 -1      2597 2.11673E+00
 -1      2598 1.39008E+00
 -1      2599 1.85700E+00
 -1      2600 6.43980E+00
 -1      2601 6.92606E+00
 -1      2602 5.07307E+00
 -1      2603 1.50545E+01
 -1      2604 1.44014E+01
 -1      2605 1.23476E+01
 -1      2606 5.92064E+00
 -1      2607 8.52763E+00
 -1      2608 7.04456E+00
 -1      2609 2.02903E+00
 -1      2610 1.39209E+00
 -1      2611 3.17922E+01
 -1      2612 1.07091E+01
 -1      2613 1.15690E+01
 -1      2614 7.24167E+00
 -1      2615 1.60488E+01
 -1      2616 2.23211E+01
 -1      2617 5.81118E+00
 -1      2618 7.31342E+00
 -1      2619 4.60742E+00
 -1      2620 2.23328E+01
 -1      2621 3.37294E+00
 -1      2622 1.46868E+01
 -1      2623 2.03854E-04
 -1      2624 2.03854E-04
 -1      2625 3.06642E+01
 -1      2626 2.47329E+01
 -1      2627 1.80845E-04
 -1      2628 1.73381E-04
 -1      2629 1.71729E-04
 -1      2630 2.25219E-04
 -1      2631 1.64464E+01
 -1      2632 1.22134E+01
 -1      2633 1.52325E+00
 -1      2634 1.07575E+01
 -1      2635 4.91328E+00
 -1      2636 1.81016E+01
 -1      2637 7.95307E+00
 -1      2638 5.63336E+00
 -1      2639 7.44655E+00
 -1      2640 8.29186E+00
 -1      2641 6.22000E+00
 -1      2642 1.48256E+01
 -1      2643 9.72259E+00
 -1      2644 8.50001E+00
 -1      2645 8.29575E+00
 -1      2646 1.21480E+01
 -1      2647 8.25285E+00
 -1      2648 3.93538E+01
 -1      2649 9.48214E+00
 -1      2650 2.34013E-04
 -1      2651 2.28782E-04
 -1      2652 7.93402E+00
 -1      2653 1.00231E+01
 -1      2654 1.31221E+00
 -1      2655 1.71031E+00
 -1      2656 1.26669E+00
 -1      2657 1.18959E+00
 -1      2658 1.30907E+00
 -1      2659 1.86862E+00
 -1      2660 1.83671E+00
 -1      2661 9.18755E+00
 -1      2662 1.04601E+01
 -1      2663 3.93802E+00
 -1      2664 3.86334E+00
 -1      2665 5.05032E+00
 -1      2666 1.58783E+01
 -1      2667 2.08676E+01
 -1      2668 1.09519E+01
 -1      2669 1.36086E+01
 -1      2670 3.17676E-04
 -1      2671 3.12054E-04
 -1      2672 3.61060E-04
 -1      2673 4.57393E+00
 -1      2674 3.87822E+00
 -1      2675 5.47149E+00
 -1      2676 5.10065E+00
 -1      2677 6.16720E+00
 -1      2678 2.90285E+00
 -1      2679 2.70284E+00
 -1      2680 5.56267E+00
 -1      2681 2.13413E+00
 -1      2682 1.96673E+00
 -1      2683 2.79617E+00
 -1      2684 1.65953E+00
 -1      2685 1.49402E+00
 -1      2686 1.92026E+00
 -1      2687 1.29104E+00
 -1      2688 1.14356E+00
 -1      2689 1.41008E+00
 -1      2690 9.92479E-01
 -1      2691 8.68061E-01
 -1      2692 1.05601E+00
 -1      2693 7.48256E-01
 -1      2694 6.47072E-01
 -1      2695 7.85121E-01
 -1      2696 5.64153E-01
 -1      2697 4.83993E-01
 -1      2698 5.82398E-01
 -1      2699 4.20820E-01
 -1      2700 3.58565E-01
 -1      2701 4.36306E-01
 -1      2702 3.10156E-01
 -1      2703 2.62577E-01
 -1      2704 3.24724E-01
 -1      2705 2.25560E-01
 -1      2706 1.89696E-01
 -1      2707 2.39298E-01
 -1      2708 1.61560E-01
 -1      2709 1.34867E-01
 -1      2710 1.74145E-01
 -1      2711 1.13664E-01
 -1      2712 9.40434E-02
 -1      2713 1.24806E-01
 -1      2714 7.82333E-02
 -1      2715 6.40004E-02
 -1      2716 8.77931E-02
 -1      2717 5.23575E-02
 -1      2718 4.21857E-02
 -1      2719 6.03402E-02
 -1      2720 3.37351E-02
 -1      2721 2.82856E-02
 -1      2722 4.02466E-02
 -1      2723 2.22558E-02
 -1      2724 1.85541E-02
 -1      2725 2.57661E-02
 -1      2726 1.47358E-02
 -1      2727 1.35469E-02
 -1      2728 1.59179E-02
 -1      2729 1.20669E-02
 -1      2730 1.08724E-02
 -1      2731 1.06196E-02
 -1      2732 1.05235E-02
 -1      2733 9.40339E-03
 -1      2734 8.79074E-03
 -1      2735 8.92053E-03
 -1      2736 7.91682E-03
 -1      2737 7.95899E-03
 -1      2738 7.38610E-03
 -1      2739 6.61046E-03
 -1      2740 6.94541E-03
 -1      2741 6.08557E-03
 -1      2742 5.51582E-03
 -1      2743 5.88980E-03
 -1      2744 5.09908E-03
 -1      2745 4.67266E-03
 -1      2746 4.94818E-03
 -1      2747 4.35192E-03
 -1      2748 3.94121E-03
 -1      2749 4.21070E-03
 -1      2750 3.62360E-03
 -1      2751 3.28623E-03
 -1      2752 3.57236E-03
 -1      2753 2.98991E-03
 -1      2754 2.68213E-03
 -1      2755 2.95843E-03
 -1      2756 2.42163E-03
 -1      2757 2.14861E-03
 -1      2758 2.40161E-03
 -1      2759 1.95152E-03
 -1      2760 1.72301E-03
 -1      2761 1.94402E-03
 -1      2762 1.54642E-03
 -1      2763 1.36969E-03
 -1      2764 1.57034E-03
 -1      2765 1.21887E-03
 -1      2766 1.06733E-03
 -1      2767 1.24293E-03
 -1      2768 9.45973E-04
 -1      2769 8.19232E-04
 -1      2770 9.70758E-04
 -1      2771 7.16708E-04
 -1      2772 6.13159E-04
 -1      2773 7.46878E-04
 -1      2774 5.28935E-04
 -1      2775 4.46277E-04
 -1      2776 5.60129E-04
 -1      2777 3.77550E-04
 -1      2778 3.12816E-04
 -1      2779 4.07178E-04
 -1      2780 1.42333E+00
 -1      2781 1.51262E+00
 -1      2782 1.11006E+00
 -1      2783 1.21959E+00
 -1      2784 9.07695E-01
 -1      2785 1.06327E+00
 -1      2786 1.07541E+00
 -1      2787 6.72421E-01
 -1      2788 7.87466E-01
 -1      2789 9.08382E-01
 -1      2790 5.30121E-01
 -1      2791 6.10772E-01
 -1      2792 7.26504E-01
 -1      2793 4.44694E-01
 -1      2794 4.70200E-01
 -1      2795 6.04933E-01
 -1      2796 3.53997E-01
 -1      2797 3.77043E-01
 -1      2798 4.77361E-01
 -1      2799 3.52336E-01
 -1      2800 3.44763E-01
 -1      2801 4.00476E-01
 -1      2802 3.26118E-01
 -1      2803 3.33482E-01
 -1      2804 3.72388E-01
 -1      2805 2.91498E-01
 -1      2806 3.02985E-01
 -1      2807 3.30400E-01
 -1      2808 2.56831E-01
 -1      2809 2.72214E-01
 -1      2810 2.87982E-01
 -1      2811 2.21752E-01
 -1      2812 2.38790E-01
 -1      2813 2.50657E-01
 -1      2814 1.83053E-01
 -1      2815 2.02028E-01
 -1      2816 2.12891E-01
 -1      2817 1.45394E-01
 -1      2818 1.63877E-01
 -1      2819 1.73991E-01
 -1      2820 1.11470E-01
 -1      2821 1.28060E-01
 -1      2822 1.37482E-01
 -1      2823 8.25383E-02
 -1      2824 9.65907E-02
 -1      2825 1.05268E-01
 -1      2826 5.88994E-02
 -1      2827 7.02710E-02
 -1      2828 7.81215E-02
 -1      2829 4.12939E-02
 -1      2830 4.91240E-02
 -1      2831 5.60788E-02
 -1      2832 2.84809E-02
 -1      2833 3.37396E-02
 -1      2834 3.87492E-02
 -1      2835 1.98703E-02
 -1      2836 2.28129E-02
 -1      2837 2.55270E-02
 -1      2838 1.50943E-02
 -1      2839 1.64255E-02
 -1      2840 1.64142E-02
 -1      2841 1.23519E-02
 -1      2842 1.37132E-02
 -1      2843 1.15883E-02
 -1      2844 1.06669E-02
 -1      2845 1.19599E-02
 -1      2846 9.81519E-03
 -1      2847 8.96219E-03
 -1      2848 1.01303E-02
 -1      2849 8.88665E-03
 -1      2850 7.44692E-03
 -1      2851 8.37011E-03
 -1      2852 7.75803E-03
 -1      2853 6.34511E-03
 -1      2854 6.85816E-03
 -1      2855 6.57719E-03
 -1      2856 5.31666E-03
 -1      2857 5.84303E-03
 -1      2858 5.48635E-03
 -1      2859 4.48709E-03
 -1      2860 4.98751E-03
 -1      2861 4.65511E-03
 -1      2862 3.75151E-03
 -1      2863 4.15441E-03
 -1      2864 3.99327E-03
 -1      2865 3.07251E-03
 -1      2866 3.43293E-03
 -1      2867 3.34201E-03
 -1      2868 2.48820E-03
 -1      2869 2.80752E-03
 -1      2870 2.75844E-03
 -1      2871 2.00037E-03
 -1      2872 2.24652E-03
 -1      2873 2.25176E-03
 -1      2874 1.57801E-03
 -1      2875 1.78800E-03
 -1      2876 1.79771E-03
 -1      2877 1.21730E-03
 -1      2878 1.39666E-03
 -1      2879 1.40400E-03
 -1      2880 9.32483E-04
 -1      2881 1.08201E-03
 -1      2882 1.08737E-03
 -1      2883 6.96501E-04
 -1      2884 8.17856E-04
 -1      2885 8.37452E-04
 -1      2886 5.89699E-04
 -1      2887 6.89410E-04
 -1      2888 7.15734E-04
 -1      2889 4.37795E-04
 -1      2890 5.12587E-04
 -1      2891 6.31531E-04
 -1      2892 4.77683E-04
 -1      2893 2.84875E-04
 -1      2894 2.84875E-04
 -1      2895 2.74930E-04
 -1      2896 2.57838E-04
 -1      2897 2.84807E-04
 -1      2898 2.84908E-04
 -1      2899 3.24241E-04
 -1      2900 2.84875E-04
 -1      2901 2.83692E-04
 -1      2902 3.15447E-04
 -1      2903 3.24208E-04
 -1      2904 2.55364E+01
 -1      2905 1.81748E+01
 -1      2906 2.05649E-04
 -1      2907 1.96533E-04
 -1      2908 2.58818E-04
 -1      2909 2.84021E-04
 -1      2910 2.84807E-04
 -1      2911 3.24274E-04
 -1      2912 2.60878E-04
 -1      2913 2.77701E-04
 -1      2914 3.17955E-04
 -1      2915 2.29832E-04
 -1      2916 2.53585E-04
 -1      2917 3.04343E-04
 -1      2918 1.98737E-04
 -1      2919 1.98737E-04
 -1      2920 2.65956E-04
 -1      2921 2.32658E-04
 -1      2922 1.75155E+00
 -1      2923 1.86203E+00
 -1      2924 1.50531E+00
 -1      2925 8.04636E+00
 -1      2926 9.76001E+00
 -1      2927 6.49850E+00
 -1      2928 6.31434E+00
 -1      2929 1.68068E+00
 -1      2930 7.63150E+00
 -1      2931 6.67841E+00
 -1      2932 1.92034E+00
 -1      2933 1.96955E+00
 -1      2934 1.75993E+00
 -1      2935 1.80256E+00
 -1      2936 1.26777E+00
 -1      2937 1.37406E+00
 -1      2938 1.17038E+00
 -1      2939 1.50584E+00
 -1      2940 1.53120E+00
 -1      2941 1.35034E+00
 -1      2942 4.98735E+00
 -1      2943 5.46539E+00
 -1      2944 2.33566E+00
 -1      2945 3.38830E+00
 -1      2946 2.05704E+00
 -1      2947 1.71192E+01
 -1      2948 1.36817E+01
 -1      2949 1.37548E+01
 -1      2950 4.73028E+00
 -1      2951 3.60663E+00
 -1      2952 4.73660E+00
 -1      2953 6.00884E+00
 -1      2954 4.03069E+00
 -1      2955 4.28903E+00
 -1      2956 6.53232E+00
 -1      2957 3.34734E+00
 -1      2958 4.15890E+00
 -1      2959 2.77492E+01
 -1      2960 1.15937E+01
 -1      2961 9.84905E+00
 -1      2962 7.92387E+00
 -1      2963 5.70796E+00
 -1      2964 4.40131E+00
 -1      2965 5.09356E+00
 -1      2966 6.01740E+00
 -1      2967 5.51665E+00
 -1      2968 7.06554E+00
 -1      2969 6.11645E+00
 -1      2970 4.71255E+00
 -1      2971 5.91707E+00
 -1      2972 4.84482E+00
 -1      2973 1.18151E+01
 -1      2974 8.93610E+00
 -1      2975 2.02977E+01
 -1      2976 2.47678E+01
 -1      2977 1.40419E+01
 -1      2978 1.72416E+01
 -1      2979 1.68347E+01
 -1      2980 5.88248E+00
 -1      2981 1.08327E+01
 -1      2982 9.38188E+00
 -1      2983 3.15399E+00
 -1      2984 3.69738E+00
 -1      2985 2.01340E+01
 -1      2986 1.98878E+01
 -1      2987 1.21434E+01
 -1      2988 6.69358E+00
 -1      2989 5.87837E+00
 -1      2990 1.38432E+01
 -1      2991 3.16434E+00
 -1      2992 5.46539E+00
 -1      2993 2.84452E-04
 -1      2994 1.37425E+00
 -1      2995 1.66426E+01
 -1      2996 1.41542E+01
 -1      2997 2.24408E+01
 -1      2998 1.23874E+01
 -1      2999 1.49882E+01
 -1      3000 8.69944E+00
 -1      3001 2.29159E+01
 -1      3002 1.13622E+01
 -1      3003 3.63509E+00
 -1      3004 6.90298E+00
 -1      3005 6.60557E+00
 -1      3006 3.95034E+00
 -1      3007 3.48354E-04
 -1      3008 2.99506E-04
 -1      3009 3.20073E-04
 -1      3010 1.50296E+00
 -1      3011 1.42273E+00
 -1      3012 3.25536E-04
 -1      3013 4.93916E+00
 -1      3014 7.66145E+00
 -1      3015 5.30892E+00
 -1      3016 7.30417E+00
 -1      3017 4.89755E+00
 -1      3018 5.06400E+00
 -1      3019 6.00884E+00
 -1      3020 3.69983E+00
 -1      3021 4.95367E+00
 -1      3022 5.46157E+00
 -1      3023 5.13114E+00
 -1      3024 4.58509E+00
 -1      3025 1.52366E+00
 -1      3026 1.64628E+00
 -1      3027 1.16129E+00
 -1      3028 1.20946E+00
 -1      3029 8.91489E+00
 -1      3030 1.11846E+01
 -1      3031 1.19167E+01
 -1      3032 1.13468E+01
 -1      3033 7.05923E+00
 -1      3034 4.86143E+00
 -1      3035 3.26647E+00
 -1      3036 2.69776E+00
 -1      3037 4.76302E+00
 -1      3038 2.20994E+00
 -1      3039 1.90274E+00
 -1      3040 2.68024E+00
 -1      3041 1.60535E+00
 -1      3042 1.40237E+00
 -1      3043 1.89503E+00
 -1      3044 1.19583E+00
 -1      3045 1.04474E+00
 -1      3046 1.39110E+00
 -1      3047 8.88955E-01
 -1      3048 7.69151E-01
 -1      3049 1.02877E+00
 -1      3050 6.52202E-01
 -1      3051 5.69282E-01
 -1      3052 7.56035E-01
 -1      3053 4.81816E-01
 -1      3054 4.18643E-01
 -1      3055 5.51620E-01
 -1      3056 3.53475E-01
 -1      3057 3.05065E-01
 -1      3058 3.98984E-01
 -1      3059 2.56778E-01
 -1      3060 2.19761E-01
 -1      3061 2.85528E-01
 -1      3062 1.84223E-01
 -1      3063 1.56087E-01
 -1      3064 2.01703E-01
 -1      3065 1.31418E-01
 -1      3066 1.10216E-01
 -1      3067 1.41497E-01
 -1      3068 9.22521E-02
 -1      3069 7.64420E-02
 -1      3070 9.88645E-02
 -1      3071 6.33362E-02
 -1      3072 5.16933E-02
 -1      3073 6.77952E-02
 -1      3074 4.26830E-02
 -1      3075 3.42323E-02
 -1      3076 4.56790E-02
 -1      3077 2.81374E-02
 -1      3078 2.21075E-02
 -1      3079 3.05737E-02
 -1      3080 1.76783E-02
 -1      3081 1.38599E-02
 -1      3082 2.00496E-02
 -1      3083 1.07088E-02
 -1      3084 9.22880E-03
 -1      3085 1.24691E-02
 -1      3086 7.37968E-03
 -1      3087 7.03079E-03
 -1      3088 7.46886E-03
 -1      3089 7.02721E-03
 -1      3090 6.54436E-03
 -1      3091 5.61616E-03
 -1      3092 6.49823E-03
 -1      3093 5.96751E-03
 -1      3094 5.56646E-03
 -1      3095 5.76085E-03
 -1      3096 5.23596E-03
 -1      3097 5.31367E-03
 -1      3098 4.94703E-03
 -1      3099 4.53029E-03
 -1      3100 4.81808E-03
 -1      3101 4.21070E-03
 -1      3102 3.88997E-03
 -1      3103 4.20956E-03
 -1      3104 3.63611E-03
 -1      3105 3.31850E-03
 -1      3106 3.63611E-03
 -1      3107 3.08773E-03
 -1      3108 2.79141E-03
 -1      3109 3.15149E-03
 -1      3110 2.55796E-03
 -1      3111 2.29746E-03
 -1      3112 2.68727E-03
 -1      3113 2.07704E-03
 -1      3114 1.87995E-03
 -1      3115 2.23339E-03
 -1      3116 1.68115E-03
 -1      3117 1.50456E-03
 -1      3118 1.81417E-03
 -1      3119 1.33115E-03
 -1      3120 1.18033E-03
 -1      3121 1.44196E-03
 -1      3122 1.03295E-03
 -1      3123 9.11599E-04
 -1      3124 1.12117E-03
 -1      3125 7.88816E-04
 -1      3126 6.86291E-04
 -1      3127 8.51012E-04
 -1      3128 5.85789E-04
 -1      3129 5.01565E-04
 -1      3130 6.27726E-04
 -1      3131 4.79825E-04
 -1      3132 4.11098E-04
 -1      3133 5.05484E-04
 -1      3134 1.16929E+00
 -1      3135 1.21609E+00
 -1      3136 1.25517E+00
 -1      3137 6.69505E-01
 -1      3138 7.29427E-01
 -1      3139 5.06789E-01
 -1      3140 5.74440E-01
 -1      3141 6.98933E-01
 -1      3142 4.62212E-01
 -1      3143 4.71446E-01
 -1      3144 5.68525E-01
 -1      3145 4.00220E-01
 -1      3146 4.19073E-01
 -1      3147 4.90044E-01
 -1      3148 3.37036E-01
 -1      3149 3.60170E-01
 -1      3150 4.06855E-01
 -1      3151 2.89973E-01
 -1      3152 3.09257E-01
 -1      3153 3.39026E-01
 -1      3154 2.46944E-01
 -1      3155 2.64985E-01
 -1      3156 2.86259E-01
 -1      3157 2.02562E-01
 -1      3158 2.22286E-01
 -1      3159 2.36614E-01
 -1      3160 1.61367E-01
 -1      3161 1.80542E-01
 -1      3162 1.89937E-01
 -1      3163 1.25121E-01
 -1      3164 1.42455E-01
 -1      3165 1.49006E-01
 -1      3166 9.44701E-02
 -1      3167 1.09350E-01
 -1      3168 1.14323E-01
 -1      3169 6.93984E-02
 -1      3170 8.16657E-02
 -1      3171 8.57471E-02
 -1      3172 4.94702E-02
 -1      3173 5.92455E-02
 -1      3174 6.27898E-02
 -1      3175 3.40411E-02
 -1      3176 4.15953E-02
 -1      3177 4.47620E-02
 -1      3178 2.23960E-02
 -1      3179 2.80640E-02
 -1      3180 3.09101E-02
 -1      3181 1.45153E-02
 -1      3182 1.79602E-02
 -1      3183 2.04972E-02
 -1      3184 9.92205E-03
 -1      3185 1.13031E-02
 -1      3186 1.28491E-02
 -1      3187 7.67774E-03
 -1      3188 8.06975E-03
 -1      3189 7.78459E-03
 -1      3190 7.06732E-03
 -1      3191 7.60385E-03
 -1      3192 5.85841E-03
 -1      3193 6.43402E-03
 -1      3194 7.02611E-03
 -1      3195 5.74331E-03
 -1      3196 5.63945E-03
 -1      3197 6.22821E-03
 -1      3198 5.49628E-03
 -1      3199 4.84350E-03
 -1      3200 5.34558E-03
 -1      3201 4.99660E-03
 -1      3202 4.18526E-03
 -1      3203 4.51442E-03
 -1      3204 4.37366E-03
 -1      3205 3.58818E-03
 -1      3206 3.92086E-03
 -1      3207 3.78017E-03
 -1      3208 3.03545E-03
 -1      3209 3.35403E-03
 -1      3210 3.28162E-03
 -1      3211 2.53002E-03
 -1      3212 2.79501E-03
 -1      3213 2.80703E-03
 -1      3214 2.05926E-03
 -1      3215 2.30094E-03
 -1      3216 2.33752E-03
 -1      3217 1.63911E-03
 -1      3218 1.85148E-03
 -1      3219 1.90066E-03
 -1      3220 1.27593E-03
 -1      3221 1.45727E-03
 -1      3222 1.51104E-03
 -1      3223 9.85837E-04
 -1      3224 1.12113E-03
 -1      3225 1.17440E-03
 -1      3226 7.42694E-04
 -1      3227 8.57320E-04
 -1      3228 8.91079E-04
 -1      3229 7.08643E-04
 -1      3230 7.15734E-04
 -1      3231 7.35603E-04
 -1      3232 3.95485E-04
 -1      3233 3.58052E-04
 -1      3234 3.58019E-04
 -1      3235 1.97232E+00
 -1      3236 1.86445E+00
 -1      3237 2.86656E-04
 -1      3238 3.90398E-04
 -1      3239 3.97690E-04
 -1      3240 1.50531E+00
 -1      3241 1.74424E+00
 -1      3242 2.10339E+00
 -1      3243 1.02299E+01
 -1      3244 8.36326E+00
 -1      3245 4.49484E+00
 -1      3246 4.09757E+00
 -1      3247 9.56477E-01
 -1      3248 1.07671E+00
 -1      3249 1.21738E+00
 -1      3250 6.76999E+00
 -1      3251 3.73694E-04
 -1      3252 3.73694E-04
 -1      3253 4.07472E-04
 -1      3254 1.91936E+00
 -1      3255 2.54471E+00
 -1      3256 2.13394E+00
 -1      3257 1.75993E+00
 -1      3258 2.41886E+00
 -1      3259 2.55064E+00
 -1      3260 2.40977E+00
 -1      3261 3.84693E-04
 -1      3262 3.91013E-04
 -1      3263 4.40433E-04
 -1      3264 4.70748E-04
 -1      3265 1.19655E+01
 -1      3266 1.09099E+01
 -1      3267 8.40416E-01
 -1      3268 9.02064E-01
 -1      3269 1.07039E+00
 -1      3270 9.04987E-01
 -1      3271 4.08053E+00
 -1      3272 3.17373E+00
 -1      3273 3.42362E+00
 -1      3274 3.16434E+00
 -1      3275 2.34870E+00
 -1      3276 2.77440E+00
 -1      3277 2.79414E+00
 -1      3278 7.86657E+00
 -1      3279 8.35831E+00
 -1      3280 1.13468E+01
 -1      3281 1.21154E+01
 -1      3282 6.16720E+00
 -1      3283 1.86087E+00
 -1      3284 8.44052E+00
 -1      3285 7.73927E+00
 -1      3286 8.68824E+00
 -1      3287 9.42031E+00
 -1      3288 4.16417E+00
 -1      3289 3.59303E-04
 -1      3290 4.56288E-04
 -1      3291 4.61750E-04
 -1      3292 5.38486E-04
 -1      3293 3.04085E+00
 -1      3294 6.31531E-04
 -1      3295 7.08643E-04
 -1      3296 6.15598E-04
 -1      3297 3.70529E-04
 -1      3298 3.61767E-04
 -1      3299 3.27200E+00
 -1      3300 3.64266E+00
 -1      3301 2.46672E+00
 -1      3302 3.59941E-04
 -1      3303 4.01609E-04
 -1      3304 4.67874E-04
 -1      3305 4.15023E-04
 -1      3306 3.70529E-04
 -1      3307 3.70529E-04
 -1      3308 4.04340E-04
 -1      3309 3.90398E-04
 -1      3310 8.44052E+00
 -1      3311 3.63621E+00
 -1      3312 9.27044E+00
 -1      3313 3.05301E+00
 -1      3314 4.40131E+00
 -1      3315 2.02941E+00
 -1      3316 2.08772E+00
 -1      3317 2.08772E+00
 -1      3318 2.02941E+00
 -1      3319 4.83745E-04
 -1      3320 3.74350E+00
 -1      3321 4.31474E+00
 -1      3322 6.59930E+00
 -1      3323 5.57574E+00
 -1      3324 5.37899E+00
 -1      3325 2.87965E+00
 -1      3326 3.67442E+00
 -1      3327 3.13893E+00
 -1      3328 7.76047E+00
 -1      3329 4.40131E+00
 -1      3330 7.39958E+00
 -1      3331 7.27817E+00
 -1      3332 8.01024E+00
 -1      3333 1.30997E+00
 -1      3334 1.25517E+00
 -1      3335 3.03682E+00
 -1      3336 2.54900E+00
 -1      3337 2.09850E+00
 -1      3338 1.80111E+00
 -1      3339 2.45508E+00
 -1      3340 1.50053E+00
 -1      3341 1.29400E+00
 -1      3342 1.70401E+00
 -1      3343 1.09639E+00
 -1      3344 9.40596E-01
 -1      3345 1.20582E+00
 -1      3346 8.04208E-01
 -1      3347 6.87259E-01
 -1      3348 8.71819E-01
 -1      3349 5.89614E-01
 -1      3350 5.02148E-01
 -1      3351 6.37787E-01
 -1      3352 4.30441E-01
 -1      3353 3.65273E-01
 -1      3354 4.68436E-01
 -1      3355 3.11923E-01
 -1      3356 2.63636E-01
 -1      3357 3.43380E-01
 -1      3358 2.23717E-01
 -1      3359 1.88180E-01
 -1      3360 2.50113E-01
 -1      3361 1.58369E-01
 -1      3362 1.33700E-01
 -1      3363 1.80384E-01
 -1      3364 1.11515E-01
 -1      3365 9.35515E-02
 -1      3366 1.28387E-01
 -1      3367 7.71498E-02
 -1      3368 6.40439E-02
 -1      3369 8.98002E-02
 -1      3370 5.25490E-02
 -1      3371 4.35386E-02
 -1      3372 6.19036E-02
 -1      3373 3.52615E-02
 -1      3374 2.91666E-02
 -1      3375 4.21315E-02
 -1      3376 2.31756E-02
 -1      3377 1.87464E-02
 -1      3378 2.78634E-02
 -1      3379 1.45282E-02
 -1      3380 1.13770E-02
 -1      3381 1.76542E-02
 -1      3382 8.46773E-03
 -1      3383 6.61861E-03
 -1      3384 1.05267E-02
 -1      3385 4.64073E-03
 -1      3386 4.63715E-03
 -1      3387 5.63961E-03
 -1      3388 4.50468E-03
 -1      3389 4.45855E-03
 -1      3390 3.52925E-03
 -1      3391 4.67337E-03
 -1      3392 4.46671E-03
 -1      3393 3.61159E-03
 -1      3394 4.47129E-03
 -1      3395 4.18236E-03
 -1      3396 3.83099E-03
 -1      3397 4.06107E-03
 -1      3398 3.74149E-03
 -1      3399 3.71429E-03
 -1      3400 3.55256E-03
 -1      3401 3.29870E-03
 -1      3402 3.40408E-03
 -1      3403 3.08117E-03
 -1      3404 2.85041E-03
 -1      3405 2.99762E-03
 -1      3406 2.68792E-03
 -1      3407 2.45447E-03
 -1      3408 2.61761E-03
 -1      3409 2.27860E-03
 -1      3410 2.05818E-03
 -1      3411 2.27925E-03
 -1      3412 1.88367E-03
 -1      3413 1.68486E-03
 -1      3414 1.92888E-03
 -1      3415 1.52204E-03
 -1      3416 1.34863E-03
 -1      3417 1.59154E-03
 -1      3418 1.20296E-03
 -1      3419 1.05558E-03
 -1      3420 1.28304E-03
 -1      3421 9.29214E-04
 -1      3422 8.06431E-04
 -1      3423 1.01100E-03
 -1      3424 7.00101E-04
 -1      3425 5.99599E-04
 -1      3426 7.78303E-04
 -1      3427 5.26797E-04
 -1      3428 5.05058E-04
 -1      3429 5.05058E-04
 -1      3430 5.99172E-04
 -1      3431 6.40754E-01
 -1      3432 6.76096E-01
 -1      3433 7.63390E-01
 -1      3434 8.58455E-01
 -1      3435 8.35619E-01
 -1      3436 4.18562E-01
 -1      3437 4.58612E-01
 -1      3438 3.45479E-01
 -1      3439 3.73258E-01
 -1      3440 4.25014E-01
 -1      3441 2.81959E-01
 -1      3442 3.06946E-01
 -1      3443 3.41178E-01
 -1      3444 2.24312E-01
 -1      3445 2.48969E-01
 -1      3446 2.69656E-01
 -1      3447 1.76389E-01
 -1      3448 1.98408E-01
 -1      3449 2.10764E-01
 -1      3450 1.37935E-01
 -1      3451 1.56847E-01
 -1      3452 1.65319E-01
 -1      3453 1.06338E-01
 -1      3454 1.22109E-01
 -1      3455 1.29951E-01
 -1      3456 7.96645E-02
 -1      3457 9.24689E-02
 -1      3458 1.00255E-01
 -1      3459 5.79213E-02
 -1      3460 6.80742E-02
 -1      3461 7.47960E-02
 -1      3462 4.07937E-02
 -1      3463 4.86686E-02
 -1      3464 5.39530E-02
 -1      3465 2.79971E-02
 -1      3466 3.39742E-02
 -1      3467 3.78808E-02
 -1      3468 1.83474E-02
 -1      3469 2.27832E-02
 -1      3470 2.58474E-02
 -1      3471 1.12606E-02
 -1      3472 1.44728E-02
 -1      3473 1.67589E-02
 -1      3474 6.63888E-03
 -1      3475 8.49119E-03
 -1      3476 1.01149E-02
 -1      3477 4.71002E-03
 -1      3478 4.78390E-03
 -1      3479 5.49049E-03
 -1      3480 4.55260E-03
 -1      3481 4.59381E-03
 -1      3482 3.51930E-03
 -1      3483 4.58070E-03
 -1      3484 4.78651E-03
 -1      3485 3.63701E-03
 -1      3486 4.30618E-03
 -1      3487 4.60005E-03
 -1      3488 3.89027E-03
 -1      3489 3.86395E-03
 -1      3490 4.19303E-03
 -1      3491 3.79648E-03
 -1      3492 3.41275E-03
 -1      3493 3.67715E-03
 -1      3494 3.49653E-03
 -1      3495 2.96264E-03
 -1      3496 3.19679E-03
 -1      3497 3.09377E-03
 -1      3498 2.56217E-03
 -1      3499 2.80261E-03
 -1      3500 2.71778E-03
 -1      3501 2.15345E-03
 -1      3502 2.38252E-03
 -1      3503 2.37810E-03
 -1      3504 1.76543E-03
 -1      3505 1.97321E-03
 -1      3506 2.01821E-03
 -1      3507 1.41421E-03
 -1      3508 1.59605E-03
 -1      3509 1.66859E-03
 -1      3510 1.10722E-03
 -1      3511 1.26203E-03
 -1      3512 1.34703E-03
 -1      3513 8.46117E-04
 -1      3514 9.74634E-04
 -1      3515 1.06226E-03
 -1      3516 7.06503E-04
 -1      3517 7.33462E-04
 -1      3518 8.17017E-04
 -1      3519 7.08643E-04
 -1      3520 4.16849E-04
 -1      3521 3.63621E+00
 -1      3522 3.05789E+00
 -1      3523 2.91532E+00
 -1      3524 3.05789E+00
 -1      3525 2.46253E+00
 -1      3526 2.10339E+00
 -1      3527 3.14814E+00
 -1      3528 4.58304E-04
 -1      3529 4.42662E-04
 -1      3530 1.22240E+00
 -1      3531 1.31498E+00
 -1      3532 1.31498E+00
 -1      3533 3.48330E+00
 -1      3534 3.15288E+00
 -1      3535 2.46727E+00
 -1      3536 2.66313E+00
 -1      3537 5.14004E-01
 -1      3538 5.57143E-01
 -1      3539 6.64714E-01
 -1      3540 5.25710E-01
 -1      3541 5.48174E+00
 -1      3542 3.88679E+00
 -1      3543 3.75554E+00
 -1      3544 8.01024E+00
 -1      3545 8.01024E+00
 -1      3546 7.73927E+00
 -1      3547 6.35798E+00
 -1      3548 5.48174E+00
 -1      3549 7.88915E+00
 -1      3550 5.97657E+00
 -1      3551 6.53315E+00
 -1      3552 5.85516E+00
 -1      3553 2.74322E+00
 -1      3554 1.91819E+00
 -1      3555 7.06503E-04
 -1      3556 3.61917E+00
 -1      3557 2.63063E+00
 -1      3558 4.38434E-04
 -1      3559 4.50944E-04
 -1      3560 4.89267E-04
 -1      3561 5.26371E-04
 -1      3562 5.05058E-04
 -1      3563 4.92061E-04
 -1      3564 1.00803E+00
 -1      3565 9.43572E-01
 -1      3566 1.05456E+00
 -1      3567 3.02245E+00
 -1      3568 3.02245E+00
 -1      3569 2.41580E+00
 -1      3570 5.07880E-04
 -1      3571 6.00925E-04
 -1      3572 4.53202E-04
 -1      3573 3.05704E+00
 -1      3574 3.73538E+00
 -1      3575 3.72911E+00
 -1      3576 4.58617E-04
 -1      3577 4.56790E-04
 -1      3578 4.96796E-04
 -1      3579 1.31357E+00
 -1      3580 1.41117E+00
 -1      3581 1.25916E+00
 -1      3582 5.17781E+00
 -1      3583 4.31138E+00
 -1      3584 3.91055E+00
 -1      3585 2.35755E+00
 -1      3586 2.38855E+00
 -1      3587 2.58441E+00
 -1      3588 1.81305E+00
 -1      3589 6.47908E+00
 -1      3590 6.60017E+00
 -1      3591 5.98784E-04
 -1      3592 4.58617E-04
 -1      3593 4.58617E-04
 -1      3594 5.00385E-04
 -1      3595 4.92712E-04
 -1      3596 4.75623E-04
 -1      3597 4.58304E-04
 -1      3598 4.93495E-04
 -1      3599 5.09933E-04
 -1      3600 1.86785E+00
 -1      3601 4.47723E+00
 -1      3602 3.62727E+00
 -1      3603 1.67637E+00
 -1      3604 1.37579E+00
 -1      3605 1.17745E+00
 -1      3606 9.79842E-01
 -1      3607 1.14981E+00
 -1      3608 8.53347E-01
 -1      3609 7.16958E-01
 -1      3610 8.24980E-01
 -1      3611 6.29560E-01
 -1      3612 5.31915E-01
 -1      3613 6.11087E-01
 -1      3614 4.67229E-01
 -1      3615 3.95523E-01
 -1      3616 4.59002E-01
 -1      3617 3.46932E-01
 -1      3618 2.93583E-01
 -1      3619 3.45725E-01
 -1      3620 2.56160E-01
 -1      3621 2.16242E-01
 -1      3622 2.59712E-01
 -1      3623 1.87491E-01
 -1      3624 1.57680E-01
 -1      3625 1.93539E-01
 -1      3626 1.35579E-01
 -1      3627 1.13394E-01
 -1      3628 1.42687E-01
 -1      3629 9.64585E-02
 -1      3630 8.00568E-02
 -1      3631 1.03650E-01
 -1      3632 6.72430E-02
 -1      3633 5.57481E-02
 -1      3634 7.39013E-02
 -1      3635 4.61735E-02
 -1      3636 3.78964E-02
 -1      3637 5.15130E-02
 -1      3638 3.12557E-02
 -1      3639 2.52647E-02
 -1      3640 3.52978E-02
 -1      3641 2.04227E-02
 -1      3642 1.62044E-02
 -1      3643 2.38150E-02
 -1      3644 1.26968E-02
 -1      3645 9.78753E-03
 -1      3646 1.54652E-02
 -1      3647 7.31915E-03
 -1      3648 5.34127E-03
 -1      3649 9.48919E-03
 -1      3650 3.68230E-03
 -1      3651 3.54983E-03
 -1      3652 5.36185E-03
 -1      3653 2.68895E-03
 -1      3654 2.90377E-03
 -1      3655 2.84200E-03
 -1      3656 3.22367E-03
 -1      3657 3.22825E-03
 -1      3658 2.30103E-03
 -1      3659 3.33532E-03
 -1      3660 3.21404E-03
 -1      3661 2.72800E-03
 -1      3662 3.18671E-03
 -1      3663 2.99778E-03
 -1      3664 2.80774E-03
 -1      3665 2.89148E-03
 -1      3666 2.67395E-03
 -1      3667 2.67411E-03
 -1      3668 2.52690E-03
 -1      3669 2.36442E-03
 -1      3670 2.42076E-03
 -1      3671 2.21336E-03
 -1      3672 2.03749E-03
 -1      3673 2.12265E-03
 -1      3674 1.90501E-03
 -1      3675 1.73049E-03
 -1      3676 1.83911E-03
 -1      3677 1.59498E-03
 -1      3678 1.43215E-03
 -1      3679 1.57111E-03
 -1      3680 1.30317E-03
 -1      3681 1.15750E-03
 -1      3682 1.30661E-03
 -1      3683 1.04034E-03
 -1      3684 9.13968E-04
 -1      3685 1.06047E-03
 -1      3686 8.11990E-04
 -1      3687 7.05661E-04
 -1      3688 8.41325E-04
 -1      3689 6.33205E-04
 -1      3690 5.60404E-04
 -1      3691 5.60404E-04
 -1      3692 6.66892E-04
 -1      3693 8.88261E-01
 -1      3694 9.75555E-01
 -1      3695 3.31354E-01
 -1      3696 3.69886E-01
 -1      3697 4.26563E-01
 -1      3698 4.71867E-01
 -1      3699 4.16739E-01
 -1      3700 2.07513E-01
 -1      3701 2.33417E-01
 -1      3702 1.65319E-01
 -1      3703 1.84861E-01
 -1      3704 2.07513E-01
 -1      3705 1.29365E-01
 -1      3706 1.45192E-01
 -1      3707 1.64733E-01
 -1      3708 9.83432E-02
 -1      3709 1.12212E-01
 -1      3710 1.27453E-01
 -1      3711 7.26044E-02
 -1      3712 8.41947E-02
 -1      3713 9.61515E-02
 -1      3714 5.20244E-02
 -1      3715 6.12771E-02
 -1      3716 7.06757E-02
 -1      3717 3.63622E-02
 -1      3718 4.31817E-02
 -1      3719 5.05058E-02
 -1      3720 2.45435E-02
 -1      3721 2.97573E-02
 -1      3722 3.50582E-02
 -1      3723 1.59705E-02
 -1      3724 1.98451E-02
 -1      3725 2.37550E-02
 -1      3726 9.73270E-03
 -1      3727 1.25021E-02
 -1      3728 1.55883E-02
 -1      3729 5.38089E-03
 -1      3730 7.23587E-03
 -1      3731 9.62310E-03
 -1      3732 3.70833E-03
 -1      3733 3.82454E-03
 -1      3734 5.56992E-03
 -1      3735 3.06820E-03
 -1      3736 2.83429E-03
 -1      3737 3.13953E-03
 -1      3738 3.29360E-03
 -1      3739 3.27425E-03
 -1      3740 2.47153E-03
 -1      3741 3.30443E-03
 -1      3742 3.41757E-03
 -1      3743 2.80154E-03
 -1      3744 3.09917E-03
 -1      3745 3.28597E-03
 -1      3746 2.90707E-03
 -1      3747 2.77927E-03
 -1      3748 2.99523E-03
 -1      3749 2.78467E-03
 -1      3750 2.46995E-03
 -1      3751 2.62998E-03
 -1      3752 2.53144E-03
 -1      3753 2.14721E-03
 -1      3754 2.32686E-03
 -1      3755 2.23906E-03
 -1      3756 1.82869E-03
 -1      3757 2.00893E-03
 -1      3758 1.95769E-03
 -1      3759 1.51661E-03
 -1      3760 1.68599E-03
 -1      3761 1.67671E-03
 -1      3762 1.22755E-03
 -1      3763 1.37973E-03
 -1      3764 1.39713E-03
 -1      3765 9.70126E-04
 -1      3766 1.10272E-03
 -1      3767 1.13541E-03
 -1      3768 7.49332E-04
 -1      3769 8.61987E-04
 -1      3770 9.02441E-04
 -1      3771 5.47456E+00
 -1      3772 5.47456E+00
 -1      3773 5.35347E+00
 -1      3774 5.64096E-04
 -1      3775 6.69673E-04
 -1      3776 7.14644E-04
 -1      3777 5.67685E-04
 -1      3778 4.40211E+00
 -1      3779 5.14713E+00
 -1      3780 2.47297E+00
 -1      3781 2.02247E+00
 -1      3782 1.69426E+00
 -1      3783 2.61156E-01
 -1      3784 2.94146E-01
 -1      3785 2.57906E-01
 -1      3786 1.18448E+00
 -1      3787 1.13184E+00
 -1      3788 1.21696E+00
 -1      3789 7.86165E-01
 -1      3790 9.26102E-01
 -1      3791 7.02554E-01
 -1      3792 3.22854E-01
 -1      3793 5.47456E+00
 -1      3794 4.34895E+00
 -1      3795 3.71255E+00
 -1      3796 3.00452E+00
 -1      3797 2.91379E+00
 -1      3798 4.02152E+00
 -1      3799 1.89259E+00
 -1      3800 2.44111E+00
 -1      3801 1.94444E+00
 -1      3802 1.85327E+00
 -1      3803 2.53383E+00
 -1      3804 5.32333E-04
 -1      3805 5.28105E-04
 -1      3806 1.29774E+00
 -1      3807 5.53145E-01
 -1      3808 6.08538E-01
 -1      3809 7.29989E-01
 -1      3810 3.63496E+00
 -1      3811 3.23703E+00
 -1      3812 3.05560E+00
 -1      3813 1.58862E+00
 -1      3814 2.14650E+00
 -1      3815 1.61895E+00
 -1      3816 1.61393E+00
 -1      3817 2.39329E+00
 -1      3818 5.30300E-04
 -1      3819 5.30300E-04
 -1      3820 5.69138E-04
 -1      3821 5.46189E-04
 -1      3822 6.13489E-04
 -1      3823 5.46189E-04
 -1      3824 3.19466E+00
 -1      3825 2.15222E+00
 -1      3826 5.54694E-01
 -1      3827 8.26362E-04
 -1      3828 9.06020E-04
 -1      3829 8.04866E-04
 -1      3830 8.30798E-01
 -1      3831 7.04302E-01
 -1      3832 6.25550E-01
 -1      3833 5.38151E-01
 -1      3834 6.31367E-01
 -1      3835 4.65120E-01
 -1      3836 4.00434E-01
 -1      3837 4.79583E-01
 -1      3838 3.46130E-01
 -1      3839 2.97540E-01
 -1      3840 3.52248E-01
 -1      3841 2.57438E-01
 -1      3842 2.20015E-01
 -1      3843 2.57843E-01
 -1      3844 1.91166E-01
 -1      3845 1.62416E-01
 -1      3846 1.88892E-01
 -1      3847 1.40736E-01
 -1      3848 1.18635E-01
 -1      3849 1.38364E-01
 -1      3850 1.03550E-01
 -1      3851 8.66149E-02
 -1      3852 1.01600E-01
 -1      3853 7.50442E-02
 -1      3854 6.22304E-02
 -1      3855 7.49439E-02
 -1      3856 5.32142E-02
 -1      3857 4.36397E-02
 -1      3858 5.43571E-02
 -1      3859 3.67372E-02
 -1      3860 3.00965E-02
 -1      3861 3.84384E-02
 -1      3862 2.51198E-02
 -1      3863 2.02777E-02
 -1      3864 2.65593E-02
 -1      3865 1.67507E-02
 -1      3866 1.32431E-02
 -1      3867 1.80556E-02
 -1      3868 1.07722E-02
 -1      3869 8.30377E-03
 -1      3870 1.20577E-02
 -1      3871 6.56866E-03
 -1      3872 4.90970E-03
 -1      3873 7.85162E-03
 -1      3874 3.67699E-03
 -1      3875 2.81612E-03
 -1      3876 4.88381E-03
 -1      3877 1.96092E-03
 -1      3878 2.28082E-03
 -1      3879 2.79591E-03
 -1      3880 2.22442E-03
 -1      3881 2.33150E-03
 -1      3882 1.88431E-03
 -1      3883 2.46456E-03
 -1      3884 2.43723E-03
 -1      3885 1.96098E-03
 -1      3886 2.44961E-03
 -1      3887 2.34331E-03
 -1      3888 2.10643E-03
 -1      3889 2.28227E-03
 -1      3890 2.13522E-03
 -1      3891 2.05777E-03
 -1      3892 2.03384E-03
 -1      3893 1.88278E-03
 -1      3894 1.89535E-03
 -1      3895 1.76351E-03
 -1      3896 1.63103E-03
 -1      3897 1.67470E-03
 -1      3898 1.50896E-03
 -1      3899 1.37344E-03
 -1      3900 1.43336E-03
 -1      3901 1.27073E-03
 -1      3902 1.14175E-03
 -1      3903 1.20858E-03
 -1      3904 1.04250E-03
 -1      3905 9.25336E-04
 -1      3906 1.00662E-03
 -1      3907 8.34953E-04
 -1      3908 7.32976E-04
 -1      3909 8.16987E-04
 -1      3910 1.58104E-01
 -1      3911 1.78231E-01
 -1      3912 2.04143E-01
 -1      3913 2.26796E-01
 -1      3914 1.97513E-01
 -1      3915 8.89926E-02
 -1      3916 1.03141E-01
 -1      3917 6.45823E-02
 -1      3918 7.59096E-02
 -1      3919 8.28992E-02
 -1      3920 4.56758E-02
 -1      3921 5.45185E-02
 -1      3922 5.97524E-02
 -1      3923 3.14444E-02
 -1      3924 3.80493E-02
 -1      3925 4.20620E-02
 -1      3926 2.10803E-02
 -1      3927 2.57786E-02
 -1      3928 2.87696E-02
 -1      3929 1.37847E-02
 -1      3930 1.72531E-02
 -1      3931 1.92767E-02
 -1      3932 8.66479E-03
 -1      3933 1.11616E-02
 -1      3934 1.28264E-02
 -1      3935 5.31728E-03
 -1      3936 6.87363E-03
 -1      3937 8.41215E-03
 -1      3938 3.14795E-03
 -1      3939 4.02199E-03
 -1      3940 5.32570E-03
 -1      3941 2.47153E-03
 -1      3942 2.26549E-03
 -1      3943 3.14795E-03
 -1      3944 2.42692E-03
 -1      3945 2.30294E-03
 -1      3946 2.09690E-03
 -1      3947 2.55487E-03
 -1      3948 2.57332E-03
 -1      3949 2.07472E-03
 -1      3950 2.46844E-03
 -1      3951 2.57238E-03
 -1      3952 2.23863E-03
 -1      3953 2.25734E-03
 -1      3954 2.40663E-03
 -1      3955 2.19434E-03
 -1      3956 2.00825E-03
 -1      3957 2.15134E-03
 -1      3958 2.02653E-03
 -1      3959 1.74389E-03
 -1      3960 1.88217E-03
 -1      3961 1.79445E-03
 -1      3962 1.48477E-03
 -1      3963 1.62747E-03
 -1      3964 1.55195E-03
 -1      3965 1.23656E-03
 -1      3966 1.37344E-03
 -1      3967 1.32420E-03
 -1      3968 1.01416E-03
 -1      3969 1.13899E-03
 -1      3970 1.11530E-03
 -1      3971 1.01416E-03
 -1      3972 2.76815E+00
 -1      3973 5.50699E-01
 -1      3974 6.31978E-01
 -1      3975 5.49850E-04
 -1      3976 5.33411E-04
 -1      3977 5.70216E-04
 -1      3978 5.83882E-04
 -1      3979 1.62966E+00
 -1      3980 1.83426E+00
 -1      3981 2.27635E+00
 -1      3982 3.19219E+00
 -1      3983 3.51962E+00
 -1      3984 3.51962E+00
 -1      3985 3.51962E+00
 -1      3986 2.36533E+00
 -1      3987 2.69029E+00
 -1      3988 1.19908E-01
 -1      3989 1.37062E-01
 -1      3990 1.50559E-01
 -1      3991 5.29980E-04
 -1      3992 5.37653E-04
 -1      3993 5.83457E-04
 -1      3994 5.73047E-04
 -1      3995 4.19178E-01
 -1      3996 4.75854E-01
 -1      3997 5.53137E-01
 -1      3998 1.80232E+00
 -1      3999 1.45621E+00
 -1      4000 2.12728E+00
 -1      4001 2.57906E-01
 -1      4002 2.85646E-01
 -1      4003 2.54536E-01
 -1      4004 3.22854E-01
 -1      4005 3.60063E-01
 -1      4006 4.19178E-01
 -1      4007 1.15140E+00
 -1      4008 9.53065E-01
 -1      4009 8.32387E-01
 -1      4010 1.25946E+00
 -1      4011 2.67399E+00
 -1      4012 2.56381E+00
 -1      4013 2.83939E+00
 -1      4014 2.24057E+00
 -1      4015 1.02165E+00
 -1      4016 1.12374E+00
 -1      4017 2.56381E+00
 -1      4018 1.12750E-01
 -1      4019 6.56338E-04
 -1      4020 1.75347E+00
 -1      4021 1.01774E-03
 -1      4022 1.44968E+00
 -1      4023 1.35414E+00
 -1      4024 1.51042E+00
 -1      4025 6.49966E-04
 -1      4026 2.67351E+00
 -1      4027 2.17162E+00
 -1      4028 1.98396E+00
 -1      4029 3.22854E-01
 -1      4030 6.33774E-04
 -1      4031 6.35649E-04
 -1      4032 7.42156E-01
 -1      4033 8.36173E-01
 -1      4034 1.03381E+00
 -1      4035 6.04805E-04
 -1      4036 6.06838E-04
 -1      4037 6.69441E-04
 -1      4038 7.38161E-01
 -1      4039 2.16617E+00
 -1      4040 5.95899E-01
 -1      4041 5.22868E-01
 -1      4042 3.67015E-01
 -1      4043 3.12711E-01
 -1      4044 4.83331E-01
 -1      4045 2.88581E-01
 -1      4046 2.48478E-01
 -1      4047 3.03347E-01
 -1      4048 2.12749E-01
 -1      4049 1.83901E-01
 -1      4050 2.43487E-01
 -1      4051 1.55837E-01
 -1      4052 1.34158E-01
 -1      4053 1.79695E-01
 -1      4054 1.13033E-01
 -1      4055 9.79483E-02
 -1      4056 1.30506E-01
 -1      4057 8.22586E-02
 -1      4058 7.06879E-02
 -1      4059 9.36923E-02
 -1      4060 5.96353E-02
 -1      4061 5.06191E-02
 -1      4062 6.69499E-02
 -1      4063 4.25288E-02
 -1      4064 3.56264E-02
 -1      4065 4.78071E-02
 -1      4066 2.95479E-02
 -1      4067 2.45712E-02
 -1      4068 3.36383E-02
 -1      4069 2.03715E-02
 -1      4070 1.68445E-02
 -1      4071 2.33600E-02
 -1      4072 1.37971E-02
 -1      4073 1.13261E-02
 -1      4074 1.61130E-02
 -1      4075 9.08380E-03
 -1      4076 7.34869E-03
 -1      4077 1.08232E-02
 -1      4078 5.72984E-03
 -1      4079 4.49714E-03
 -1      4080 6.96202E-03
 -1      4081 3.35444E-03
 -1      4082 2.49924E-03
 -1      4083 4.20047E-03
 -1      4084 1.71468E-03
 -1      4085 1.65828E-03
 -1      4086 2.27321E-03
 -1      4087 1.56695E-03
 -1      4088 1.70001E-03
 -1      4089 1.39731E-03
 -1      4090 1.87057E-03
 -1      4091 1.88295E-03
 -1      4092 1.47653E-03
 -1      4093 1.93389E-03
 -1      4094 1.87285E-03
 -1      4095 1.69804E-03
 -1      4096 1.84822E-03
 -1      4097 1.74683E-03
 -1      4098 1.72434E-03
 -1      4099 1.67760E-03
 -1      4100 1.55833E-03
 -1      4101 1.63047E-03
 -1      4102 1.46432E-03
 -1      4103 1.34224E-03
 -1      4104 1.46721E-03
 -1      4105 1.22612E-03
 -1      4106 1.12341E-03
 -1      4107 1.25707E-03
 -1      4108 1.00430E-03
 -1      4109 9.05058E-04
 -1      4110 1.02185E-03
 -1      4111 7.15419E-04
 -1      4112 7.23955E-04
 -1      4113 9.36828E-04
 -1      4114 7.76147E-04
 -1      4115 8.05925E-01
 -1      4116 7.27172E-01
 -1      4117 7.70458E-01
 -1      4118 5.51076E-01
 -1      4119 6.10190E-01
 -1      4120 6.38456E-02
 -1      4121 7.39094E-02
 -1      4122 8.95991E-02
 -1      4123 1.02682E-01
 -1      4124 9.36923E-02
 -1      4125 3.04470E-02
 -1      4126 3.61128E-02
 -1      4127 2.07216E-02
 -1      4128 2.45487E-02
 -1      4129 3.18919E-02
 -1      4130 1.38253E-02
 -1      4131 1.64484E-02
 -1      4132 2.17205E-02
 -1      4133 8.94478E-03
 -1      4134 1.07359E-02
 -1      4135 1.43580E-02
 -1      4136 5.44949E-03
 -1      4137 6.74478E-03
 -1      4138 9.06856E-03
 -1      4139 3.14795E-03
 -1      4140 4.03041E-03
 -1      4141 5.44949E-03
 -1      4142 2.06724E-03
 -1      4143 2.23582E-03
 -1      4144 3.11828E-03
 -1      4145 1.83903E-03
 -1      4146 1.69262E-03
 -1      4147 1.83154E-03
 -1      4148 1.97630E-03
 -1      4149 1.95878E-03
 -1      4150 1.57669E-03
 -1      4151 1.94075E-03
 -1      4152 2.00256E-03
 -1      4153 1.72271E-03
 -1      4154 1.83475E-03
 -1      4155 1.94075E-03
 -1      4156 1.74898E-03
 -1      4157 1.68404E-03
 -1      4158 1.81011E-03
 -1      4159 1.72434E-03
 -1      4160 1.49838E-03
 -1      4161 1.61480E-03
 -1      4162 1.63047E-03
 -1      4163 1.29303E-03
 -1      4164 1.40436E-03
 -1      4165 1.46721E-03
 -1      4166 1.07934E-03
 -1      4167 1.17691E-03
 -1      4168 1.25707E-03
 -1      4169 1.75347E+00
 -1      4170 1.68638E-01
 -1      4171 1.89680E-01
 -1      4172 1.23807E-01
 -1      4173 1.40574E-01
 -1      4174 1.79695E-01
 -1      4175 6.46854E-04
 -1      4176 2.25669E+00
 -1      4177 2.25669E+00
 -1      4178 1.69367E+00
 -1      4179 4.46286E-02
 -1      4180 5.22552E-02
 -1      4181 4.63060E-02
 -1      4182 2.25409E-01
 -1      4183 2.51321E-01
 -1      4184 2.43487E-01
 -1      4185 7.36848E-01
 -1      4186 8.11693E-01
 -1      4187 8.68746E-01
 -1      4188 3.10805E-01
 -1      4189 3.48014E-01
 -1      4190 5.39026E-01
 -1      4191 9.67602E-01
 -1      4192 1.07778E+00
 -1      4193 1.15131E+00
 -1      4194 1.16236E+00
 -1      4195 1.34784E+00
 -1      4196 1.39180E+00
 -1      4197 2.51321E-01
 -1      4198 2.82431E-01
 -1      4199 2.79216E-01
 -1      4200 6.84554E-04
 -1      4201 6.89463E-04
 -1      4202 7.16399E-04
 -1      4203 8.57058E-04
 -1      4204 9.36828E-04
 -1      4205 8.77079E-04
 -1      4206 8.22711E-04
 -1      4207 7.32328E-04
 -1      4208 6.64122E-02
 -1      4209 3.07591E-01
 -1      4210 1.30506E-01
 -1      4211 1.92313E+00
 -1      4212 1.01774E-03
 -1      4213 1.07934E-03
 -1      4214 1.73801E+00
 -1      4215 9.67861E-01
 -1      4216 1.06367E+00
 -1      4217 1.09013E+00
 -1      4218 1.92313E+00
 -1      4219 1.99752E+00
 -1      4220 1.66652E+00
 -1      4221 1.68008E+00
 -1      4222 1.01774E-03
 -1      4223 1.52033E+00
 -1      4224 1.21552E+00
 -1      4225 1.35099E+00
 -1      4226 1.64973E+00
 -1      4227 8.20399E-04
 -1      4228 3.31721E-01
 -1      4229 5.34783E-01
 -1      4230 3.14116E-01
 -1      4231 2.89986E-01
 -1      4232 2.79216E-01
 -1      4233 2.43487E-01
 -1      4234 2.07758E-01
 -1      4235 1.79695E-01
 -1      4236 1.51631E-01
 -1      4237 1.30506E-01
 -1      4238 1.09382E-01
 -1      4239 9.36923E-02
 -1      4240 7.80025E-02
 -1      4241 6.69499E-02
 -1      4242 5.53596E-02
 -1      4243 4.72694E-02
 -1      4244 3.87535E-02
 -1      4245 3.26749E-02
 -1      4246 2.67767E-02
 -1      4247 2.25770E-02
 -1      4248 1.83039E-02
 -1      4249 1.52565E-02
 -1      4250 1.21671E-02
 -1      4251 9.92471E-03
 -1      4252 7.72472E-03
 -1      4253 6.10587E-03
 -1      4254 4.68679E-03
 -1      4255 3.54408E-03
 -1      4256 2.63196E-03
 -1      4257 1.84740E-03
 -1      4258 1.47279E-03
 -1      4259 1.38145E-03
 -1      4260 1.50121E-03
 -1      4261 1.67177E-03
 -1      4262 1.69804E-03
 -1      4263 1.74898E-03
 -1      4264 1.74898E-03
 -1      4265 1.72434E-03
 -1      4266 1.69970E-03
 -1      4267 1.63047E-03
 -1      4268 1.56123E-03
 -1      4269 1.46721E-03
 -1      4270 1.37319E-03
 -1      4271 1.25707E-03
 -1      4272 1.14095E-03
 -1      4273 1.02185E-03
 -1      4274 6.90279E-04
 -1      4275 1.64107E+00
 -1      4276 1.72613E+00
 -1      4277 1.27063E+00
 -1      4278 1.50103E+00
 -1      4279 9.38686E-04
 -1      4280 7.37237E-04
 -1      4281 1.39918E+00
 -1      4282 4.83331E-01
 -1      4283 3.27477E-01
 -1      4284 8.21909E-01
 -1      4285 9.48567E-01
 -1      4286 1.11050E+00
 -1      4287 1.26641E+00
 -1      4288 1.39180E+00
 -1      4289 1.47639E+00
 -1      4290 2.89986E-01
 -1      4291 3.18360E-01
 -1      4292 8.19583E-04
 -1      4293 1.55279E+00
 -1      4294 3.14116E-01
 -1      4295 1.50103E+00
 -1      4296 6.90636E-01
 -1      4297 2.79216E-01
 -1      4298 1.55279E+00
 -1      4299 1.47558E+00
 -1      4300 1.48746E+00
 -3
 9999
