    1C
    1UUSER                                                              
    1UDATE              27.october.2022                                 
    1UTIME              00:48:31                                        
    1UHOST                                                              
    1UPGM               CalculiX                                        
    1UVERSION           Version 2.17                             
    1UCOMPILETIME       Thu Jul 23 21:43:50 CEST 2020                    
    1UDIR                                                               
    1UDBN                                                               
    1UMAT    1SOLIDMATERIAL                                             
    2C                          4211                                     1
 -1         1 9.81818E+01 1.68610E+01 0.00000E+00
 -1         2 1.11276E+02 1.34163E+01 0.00000E+00
 -1         3 1.50000E+02 0.00000E+00 0.00000E+00
 -1         4 1.50000E+02 5.00000E+01 0.00000E+00
 -1         5 0.00000E+00 0.00000E+00 0.00000E+00
 -1         6 0.00000E+00 5.00000E+01 0.00000E+00
 -1         7 0.00000E+00 4.70500E+01 0.00000E+00
 -1         8 0.00000E+00 4.41000E+01 0.00000E+00
 -1         9 0.00000E+00 4.11500E+01 0.00000E+00
 -1        10 0.00000E+00 3.82000E+01 0.00000E+00
 -1        11 0.00000E+00 3.52500E+01 0.00000E+00
 -1        12 0.00000E+00 3.23500E+01 0.00000E+00
 -1        13 0.00000E+00 2.94000E+01 0.00000E+00
 -1        14 0.00000E+00 2.64500E+01 0.00000E+00
 -1        15 0.00000E+00 2.35000E+01 0.00000E+00
 -1        16 0.00000E+00 2.05500E+01 0.00000E+00
 -1        17 0.00000E+00 1.76000E+01 0.00000E+00
 -1        18 0.00000E+00 1.47000E+01 0.00000E+00
 -1        19 0.00000E+00 1.17500E+01 0.00000E+00
 -1        20 0.00000E+00 8.80000E+00 0.00000E+00
 -1        21 0.00000E+00 5.85000E+00 0.00000E+00
 -1        22 0.00000E+00 2.90000E+00 0.00000E+00
 -1        23 3.15000E+00 5.00000E+01 0.00000E+00
 -1        24 6.15000E+00 5.00000E+01 0.00000E+00
 -1        25 9.15000E+00 5.00000E+01 0.00000E+00
 -1        26 1.21500E+01 5.00000E+01 0.00000E+00
 -1        27 1.51500E+01 5.00000E+01 0.00000E+00
 -1        28 1.81500E+01 5.00000E+01 0.00000E+00
 -1        29 2.11500E+01 5.00000E+01 0.00000E+00
 -1        30 2.41500E+01 5.00000E+01 0.00000E+00
 -1        31 2.71500E+01 5.00000E+01 0.00000E+00
 -1        32 3.01500E+01 5.00000E+01 0.00000E+00
 -1        33 3.31500E+01 5.00000E+01 0.00000E+00
 -1        34 3.61500E+01 5.00000E+01 0.00000E+00
 -1        35 3.91500E+01 5.00000E+01 0.00000E+00
 -1        36 4.21500E+01 5.00000E+01 0.00000E+00
 -1        37 4.51500E+01 5.00000E+01 0.00000E+00
 -1        38 4.81500E+01 5.00000E+01 0.00000E+00
 -1        39 5.11500E+01 5.00000E+01 0.00000E+00
 -1        40 5.41500E+01 5.00000E+01 0.00000E+00
 -1        41 5.71500E+01 5.00000E+01 0.00000E+00
 -1        42 6.01500E+01 5.00000E+01 0.00000E+00
 -1        43 6.31500E+01 5.00000E+01 0.00000E+00
 -1        44 6.61500E+01 5.00000E+01 0.00000E+00
 -1        45 6.91500E+01 5.00000E+01 0.00000E+00
 -1        46 7.21500E+01 5.00000E+01 0.00000E+00
 -1        47 7.51500E+01 5.00000E+01 0.00000E+00
 -1        48 7.81500E+01 5.00000E+01 0.00000E+00
 -1        49 8.11500E+01 5.00000E+01 0.00000E+00
 -1        50 8.41500E+01 5.00000E+01 0.00000E+00
 -1        51 8.71500E+01 5.00000E+01 0.00000E+00
 -1        52 9.01500E+01 5.00000E+01 0.00000E+00
 -1        53 9.31500E+01 5.00000E+01 0.00000E+00
 -1        54 9.61500E+01 5.00000E+01 0.00000E+00
 -1        55 9.91500E+01 5.00000E+01 0.00000E+00
 -1        56 1.02150E+02 5.00000E+01 0.00000E+00
 -1        57 1.05150E+02 5.00000E+01 0.00000E+00
 -1        58 1.08150E+02 5.00000E+01 0.00000E+00
 -1        59 1.11150E+02 5.00000E+01 0.00000E+00
 -1        60 1.14150E+02 5.00000E+01 0.00000E+00
 -1        61 1.17150E+02 5.00000E+01 0.00000E+00
 -1        62 1.20150E+02 5.00000E+01 0.00000E+00
 -1        63 1.23150E+02 5.00000E+01 0.00000E+00
 -1        64 1.26150E+02 5.00000E+01 0.00000E+00
 -1        65 1.29150E+02 5.00000E+01 0.00000E+00
 -1        66 1.32150E+02 5.00000E+01 0.00000E+00
 -1        67 1.35150E+02 5.00000E+01 0.00000E+00
 -1        68 1.38150E+02 5.00000E+01 0.00000E+00
 -1        69 1.41150E+02 5.00000E+01 0.00000E+00
 -1        70 1.44150E+02 5.00000E+01 0.00000E+00
 -1        71 1.47150E+02 5.00000E+01 0.00000E+00
 -1        72 3.00000E+00 0.00000E+00 0.00000E+00
 -1        73 6.00000E+00 0.00000E+00 0.00000E+00
 -1        74 9.00000E+00 0.00000E+00 0.00000E+00
 -1        75 1.20000E+01 0.00000E+00 0.00000E+00
 -1        76 1.50000E+01 0.00000E+00 0.00000E+00
 -1        77 1.80000E+01 0.00000E+00 0.00000E+00
 -1        78 2.10000E+01 0.00000E+00 0.00000E+00
 -1        79 2.38500E+01 0.00000E+00 0.00000E+00
 -1        80 2.68500E+01 0.00000E+00 0.00000E+00
 -1        81 2.98500E+01 0.00000E+00 0.00000E+00
 -1        82 3.28500E+01 0.00000E+00 0.00000E+00
 -1        83 3.58500E+01 0.00000E+00 0.00000E+00
 -1        84 3.88500E+01 0.00000E+00 0.00000E+00
 -1        85 4.18500E+01 0.00000E+00 0.00000E+00
 -1        86 4.48500E+01 0.00000E+00 0.00000E+00
 -1        87 4.77000E+01 0.00000E+00 0.00000E+00
 -1        88 5.07000E+01 0.00000E+00 0.00000E+00
 -1        89 5.37000E+01 0.00000E+00 0.00000E+00
 -1        90 5.67000E+01 0.00000E+00 0.00000E+00
 -1        91 5.97000E+01 0.00000E+00 0.00000E+00
 -1        92 6.27000E+01 0.00000E+00 0.00000E+00
 -1        93 6.57000E+01 0.00000E+00 0.00000E+00
 -1        94 6.87000E+01 0.00000E+00 0.00000E+00
 -1        95 7.15500E+01 0.00000E+00 0.00000E+00
 -1        96 7.45500E+01 0.00000E+00 0.00000E+00
 -1        97 7.75500E+01 0.00000E+00 0.00000E+00
 -1        98 8.05500E+01 0.00000E+00 0.00000E+00
 -1        99 8.35500E+01 0.00000E+00 0.00000E+00
 -1       100 8.65500E+01 0.00000E+00 0.00000E+00
 -1       101 8.95500E+01 0.00000E+00 0.00000E+00
 -1       102 9.25500E+01 0.00000E+00 0.00000E+00
 -1       103 9.54000E+01 0.00000E+00 0.00000E+00
 -1       104 9.84000E+01 0.00000E+00 0.00000E+00
 -1       105 1.00950E+02 0.00000E+00 0.00000E+00
 -1       106 1.03800E+02 0.00000E+00 0.00000E+00
 -1       107 1.06650E+02 0.00000E+00 0.00000E+00
 -1       108 1.09200E+02 0.00000E+00 0.00000E+00
 -1       109 1.11600E+02 0.00000E+00 0.00000E+00
 -1       110 1.14300E+02 0.00000E+00 0.00000E+00
 -1       111 1.17300E+02 0.00000E+00 0.00000E+00
 -1       112 1.20300E+02 0.00000E+00 0.00000E+00
 -1       113 1.23300E+02 0.00000E+00 0.00000E+00
 -1       114 1.26300E+02 0.00000E+00 0.00000E+00
 -1       115 1.29150E+02 0.00000E+00 0.00000E+00
 -1       116 1.32150E+02 0.00000E+00 0.00000E+00
 -1       117 1.35150E+02 0.00000E+00 0.00000E+00
 -1       118 1.38150E+02 0.00000E+00 0.00000E+00
 -1       119 1.41150E+02 0.00000E+00 0.00000E+00
 -1       120 1.44150E+02 0.00000E+00 0.00000E+00
 -1       121 1.47150E+02 0.00000E+00 0.00000E+00
 -1       122 1.50000E+02 2.95000E+00 0.00000E+00
 -1       123 1.50000E+02 5.90000E+00 0.00000E+00
 -1       124 1.50000E+02 8.85000E+00 0.00000E+00
 -1       125 1.50000E+02 1.18000E+01 0.00000E+00
 -1       126 1.50000E+02 1.47500E+01 0.00000E+00
 -1       127 1.50000E+02 1.76500E+01 0.00000E+00
 -1       128 1.50000E+02 2.06000E+01 0.00000E+00
 -1       129 1.50000E+02 2.35500E+01 0.00000E+00
 -1       130 1.50000E+02 2.65000E+01 0.00000E+00
 -1       131 1.50000E+02 2.94500E+01 0.00000E+00
 -1       132 1.50000E+02 3.24000E+01 0.00000E+00
 -1       133 1.50000E+02 3.53000E+01 0.00000E+00
 -1       134 1.50000E+02 3.82500E+01 0.00000E+00
 -1       135 1.50000E+02 4.12000E+01 0.00000E+00
 -1       136 1.50000E+02 4.41500E+01 0.00000E+00
 -1       137 1.50000E+02 4.71000E+01 0.00000E+00
 -1       138 1.11103E+02 1.18727E+01 0.00000E+00
 -1       139 1.10638E+02 1.04980E+01 0.00000E+00
 -1       140 1.09861E+02 9.19700E+00 0.00000E+00
 -1       141 1.08906E+02 8.16663E+00 0.00000E+00
 -1       142 1.07650E+02 7.28362E+00 0.00000E+00
 -1       143 1.06264E+02 6.70472E+00 0.00000E+00
 -1       144 1.04642E+02 6.42591E+00 0.00000E+00
 -1       145 1.03164E+02 6.50517E+00 0.00000E+00
 -1       146 1.01778E+02 6.87725E+00 0.00000E+00
 -1       147 1.00399E+02 7.58769E+00 0.00000E+00
 -1       148 9.92692E+01 8.52395E+00 0.00000E+00
 -1       149 9.83316E+01 9.71931E+00 0.00000E+00
 -1       150 9.77091E+01 1.09913E+01 0.00000E+00
 -1       151 9.73558E+01 1.23602E+01 0.00000E+00
 -1       152 9.72980E+01 1.39756E+01 0.00000E+00
 -1       153 9.75691E+01 1.54219E+01 0.00000E+00
 -1       154 9.89984E+01 1.80153E+01 0.00000E+00
 -1       155 1.00061E+02 1.90054E+01 0.00000E+00
 -1       156 1.01298E+02 1.97517E+01 0.00000E+00
 -1       157 1.02617E+02 2.02171E+01 0.00000E+00
 -1       158 1.04019E+02 2.04116E+01 0.00000E+00
 -1       159 1.05526E+02 2.03038E+01 0.00000E+00
 -1       160 1.06833E+02 1.99324E+01 0.00000E+00
 -1       161 1.08143E+02 1.92511E+01 0.00000E+00
 -1       162 1.09223E+02 1.83682E+01 0.00000E+00
 -1       163 1.10097E+02 1.73041E+01 0.00000E+00
 -1       164 1.10737E+02 1.61093E+01 0.00000E+00
 -1       165 1.11144E+02 1.47690E+01 0.00000E+00
 -1       166 2.59800E+00 4.55750E+01 0.00000E+00
 -1       167 2.59800E+00 4.26250E+01 0.00000E+00
 -1       168 2.59800E+00 3.96750E+01 0.00000E+00
 -1       169 2.59800E+00 3.67250E+01 0.00000E+00
 -1       170 2.59800E+00 3.38250E+01 0.00000E+00
 -1       171 2.59800E+00 3.08750E+01 0.00000E+00
 -1       172 2.59800E+00 2.79250E+01 0.00000E+00
 -1       173 2.59800E+00 2.49750E+01 0.00000E+00
 -1       174 2.59800E+00 2.20250E+01 0.00000E+00
 -1       175 2.59800E+00 1.90750E+01 0.00000E+00
 -1       176 2.59800E+00 1.61750E+01 0.00000E+00
 -1       177 2.59800E+00 1.32250E+01 0.00000E+00
 -1       178 2.59800E+00 1.02750E+01 0.00000E+00
 -1       179 2.59800E+00 7.32500E+00 0.00000E+00
 -1       180 2.59800E+00 4.37500E+00 0.00000E+00
 -1       181 4.65000E+00 4.74020E+01 0.00000E+00
 -1       182 7.65000E+00 4.74020E+01 0.00000E+00
 -1       183 1.06500E+01 4.74020E+01 0.00000E+00
 -1       184 1.36500E+01 4.74020E+01 0.00000E+00
 -1       185 1.66500E+01 4.74020E+01 0.00000E+00
 -1       186 1.96500E+01 4.74020E+01 0.00000E+00
 -1       187 2.26500E+01 4.74020E+01 0.00000E+00
 -1       188 2.56500E+01 4.74020E+01 0.00000E+00
 -1       189 2.86500E+01 4.74020E+01 0.00000E+00
 -1       190 3.16500E+01 4.74020E+01 0.00000E+00
 -1       191 3.46500E+01 4.74020E+01 0.00000E+00
 -1       192 3.76500E+01 4.74020E+01 0.00000E+00
 -1       193 4.06500E+01 4.74020E+01 0.00000E+00
 -1       194 4.36500E+01 4.74020E+01 0.00000E+00
 -1       195 4.66500E+01 4.74020E+01 0.00000E+00
 -1       196 4.96500E+01 4.74020E+01 0.00000E+00
 -1       197 5.26500E+01 4.74020E+01 0.00000E+00
 -1       198 5.56500E+01 4.74020E+01 0.00000E+00
 -1       199 5.86500E+01 4.74020E+01 0.00000E+00
 -1       200 6.16500E+01 4.74020E+01 0.00000E+00
 -1       201 6.46500E+01 4.74020E+01 0.00000E+00
 -1       202 6.76500E+01 4.74020E+01 0.00000E+00
 -1       203 7.06500E+01 4.74020E+01 0.00000E+00
 -1       204 7.36500E+01 4.74020E+01 0.00000E+00
 -1       205 7.66500E+01 4.74020E+01 0.00000E+00
 -1       206 7.96500E+01 4.74020E+01 0.00000E+00
 -1       207 8.26500E+01 4.74020E+01 0.00000E+00
 -1       208 8.56500E+01 4.74020E+01 0.00000E+00
 -1       209 8.86500E+01 4.74020E+01 0.00000E+00
 -1       210 9.16500E+01 4.74020E+01 0.00000E+00
 -1       211 9.46500E+01 4.74020E+01 0.00000E+00
 -1       212 9.76500E+01 4.74020E+01 0.00000E+00
 -1       213 1.00650E+02 4.74020E+01 0.00000E+00
 -1       214 1.03650E+02 4.74020E+01 0.00000E+00
 -1       215 1.06650E+02 4.74020E+01 0.00000E+00
 -1       216 1.09650E+02 4.74020E+01 0.00000E+00
 -1       217 1.12650E+02 4.74020E+01 0.00000E+00
 -1       218 1.15650E+02 4.74020E+01 0.00000E+00
 -1       219 1.18650E+02 4.74020E+01 0.00000E+00
 -1       220 1.21650E+02 4.74020E+01 0.00000E+00
 -1       221 1.24650E+02 4.74020E+01 0.00000E+00
 -1       222 1.27650E+02 4.74020E+01 0.00000E+00
 -1       223 1.30650E+02 4.74020E+01 0.00000E+00
 -1       224 1.33650E+02 4.74020E+01 0.00000E+00
 -1       225 1.36650E+02 4.74020E+01 0.00000E+00
 -1       226 1.39650E+02 4.74020E+01 0.00000E+00
 -1       227 1.42650E+02 4.74020E+01 0.00000E+00
 -1       228 1.45650E+02 4.74020E+01 0.00000E+00
 -1       229 4.50000E+00 2.59800E+00 0.00000E+00
 -1       230 7.50000E+00 2.59800E+00 0.00000E+00
 -1       231 1.05000E+01 2.59800E+00 0.00000E+00
 -1       232 1.35000E+01 2.59800E+00 0.00000E+00
 -1       233 1.65000E+01 2.59800E+00 0.00000E+00
 -1       234 1.95000E+01 2.59800E+00 0.00000E+00
 -1       235 2.23500E+01 2.59800E+00 0.00000E+00
 -1       236 2.53500E+01 2.59800E+00 0.00000E+00
 -1       237 2.83500E+01 2.59800E+00 0.00000E+00
 -1       238 3.13500E+01 2.59800E+00 0.00000E+00
 -1       239 3.43500E+01 2.59800E+00 0.00000E+00
 -1       240 3.73500E+01 2.59800E+00 0.00000E+00
 -1       241 4.03500E+01 2.59800E+00 0.00000E+00
 -1       242 4.33500E+01 2.59800E+00 0.00000E+00
 -1       243 4.62000E+01 2.59800E+00 0.00000E+00
 -1       244 4.92000E+01 2.59800E+00 0.00000E+00
 -1       245 5.22000E+01 2.59800E+00 0.00000E+00
 -1       246 5.52000E+01 2.59800E+00 0.00000E+00
 -1       247 5.82000E+01 2.59800E+00 0.00000E+00
 -1       248 6.12000E+01 2.59800E+00 0.00000E+00
 -1       249 6.42000E+01 2.59800E+00 0.00000E+00
 -1       250 6.72000E+01 2.59800E+00 0.00000E+00
 -1       251 7.00500E+01 2.59800E+00 0.00000E+00
 -1       252 7.30500E+01 2.59800E+00 0.00000E+00
 -1       253 7.60500E+01 2.59800E+00 0.00000E+00
 -1       254 7.90500E+01 2.59800E+00 0.00000E+00
 -1       255 8.20500E+01 2.59800E+00 0.00000E+00
 -1       256 8.50500E+01 2.59800E+00 0.00000E+00
 -1       257 8.80500E+01 2.59800E+00 0.00000E+00
 -1       258 9.10500E+01 2.59800E+00 0.00000E+00
 -1       259 9.39000E+01 2.59800E+00 0.00000E+00
 -1       260 9.69000E+01 2.59800E+00 0.00000E+00
 -1       261 9.94500E+01 2.59800E+00 0.00000E+00
 -1       262 1.02300E+02 2.59800E+00 0.00000E+00
 -1       263 1.05150E+02 2.59800E+00 0.00000E+00
 -1       264 1.07700E+02 2.59800E+00 0.00000E+00
 -1       265 1.10100E+02 2.59800E+00 0.00000E+00
 -1       266 1.12800E+02 2.59800E+00 0.00000E+00
 -1       267 1.15800E+02 2.59800E+00 0.00000E+00
 -1       268 1.18800E+02 2.59800E+00 0.00000E+00
 -1       269 1.21800E+02 2.59800E+00 0.00000E+00
 -1       270 1.24800E+02 2.59800E+00 0.00000E+00
 -1       271 1.27650E+02 2.59800E+00 0.00000E+00
 -1       272 1.30650E+02 2.59800E+00 0.00000E+00
 -1       273 1.33650E+02 2.59800E+00 0.00000E+00
 -1       274 1.36650E+02 2.59800E+00 0.00000E+00
 -1       275 1.39650E+02 2.59800E+00 0.00000E+00
 -1       276 1.42650E+02 2.59800E+00 0.00000E+00
 -1       277 1.45650E+02 2.59800E+00 0.00000E+00
 -1       278 1.47402E+02 4.42500E+00 0.00000E+00
 -1       279 1.47402E+02 7.37500E+00 0.00000E+00
 -1       280 1.47402E+02 1.03250E+01 0.00000E+00
 -1       281 1.47402E+02 1.32750E+01 0.00000E+00
 -1       282 1.47402E+02 1.61750E+01 0.00000E+00
 -1       283 1.47402E+02 1.91250E+01 0.00000E+00
 -1       284 1.47402E+02 2.20750E+01 0.00000E+00
 -1       285 1.47402E+02 2.50250E+01 0.00000E+00
 -1       286 1.47402E+02 2.79750E+01 0.00000E+00
 -1       287 1.47402E+02 3.09250E+01 0.00000E+00
 -1       288 1.47402E+02 3.38250E+01 0.00000E+00
 -1       289 1.47402E+02 3.67750E+01 0.00000E+00
 -1       290 1.47402E+02 3.97250E+01 0.00000E+00
 -1       291 1.47402E+02 4.26750E+01 0.00000E+00
 -1       292 1.46526E+02 4.50385E+01 0.00000E+00
 -1       293 1.12478E+02 1.25007E+01 0.00000E+00
 -1       294 1.12019E+02 1.07968E+01 0.00000E+00
 -1       295 1.11434E+02 9.13978E+00 0.00000E+00
 -1       296 1.10273E+02 7.85763E+00 0.00000E+00
 -1       297 1.09024E+02 6.66490E+00 0.00000E+00
 -1       298 1.07457E+02 5.79808E+00 0.00000E+00
 -1       299 1.05687E+02 5.20528E+00 0.00000E+00
 -1       300 1.03833E+02 5.17121E+00 0.00000E+00
 -1       301 1.02135E+02 5.43932E+00 0.00000E+00
 -1       302 1.00495E+02 6.08032E+00 0.00000E+00
 -1       303 9.90072E+01 7.05771E+00 0.00000E+00
 -1       304 9.77146E+01 8.26994E+00 0.00000E+00
 -1       305 9.69313E+01 9.82240E+00 0.00000E+00
 -1       306 9.63585E+01 1.13727E+01 0.00000E+00
 -1       307 9.57803E+01 1.31126E+01 0.00000E+00
 -1       308 9.61595E+01 1.49375E+01 0.00000E+00
 -1       309 9.66058E+01 1.66820E+01 0.00000E+00
 -1       310 9.76003E+01 1.81383E+01 0.00000E+00
 -1       311 9.85891E+01 1.95201E+01 0.00000E+00
 -1       312 1.00010E+02 2.04885E+01 0.00000E+00
 -1       313 1.01554E+02 2.11277E+01 0.00000E+00
 -1       314 1.03151E+02 2.15152E+01 0.00000E+00
 -1       315 1.04871E+02 2.17342E+01 0.00000E+00
 -1       316 1.06511E+02 2.12843E+01 0.00000E+00
 -1       317 1.08086E+02 2.07416E+01 0.00000E+00
 -1       318 1.09503E+02 1.98133E+01 0.00000E+00
 -1       319 1.10597E+02 1.86054E+01 0.00000E+00
 -1       320 1.11486E+02 1.72793E+01 0.00000E+00
 -1       321 1.12181E+02 1.58156E+01 0.00000E+00
 -1       322 1.12416E+02 1.42103E+01 0.00000E+00
 -1       323 5.19600E+00 4.11500E+01 0.00000E+00
 -1       324 5.19600E+00 4.41000E+01 0.00000E+00
 -1       325 5.19600E+00 3.52750E+01 0.00000E+00
 -1       326 5.19600E+00 3.23250E+01 0.00000E+00
 -1       327 5.19600E+00 2.93750E+01 0.00000E+00
 -1       328 5.19600E+00 2.64250E+01 0.00000E+00
 -1       329 5.19600E+00 2.34750E+01 0.00000E+00
 -1       330 5.19600E+00 2.05250E+01 0.00000E+00
 -1       331 5.19600E+00 1.76250E+01 0.00000E+00
 -1       332 5.19600E+00 1.46750E+01 0.00000E+00
 -1       333 5.19600E+00 1.17250E+01 0.00000E+00
 -1       334 5.19600E+00 8.77500E+00 0.00000E+00
 -1       335 5.19600E+00 5.82500E+00 0.00000E+00
 -1       336 1.11938E+02 7.51592E+00 0.00000E+00
 -1       337 9.15000E+00 4.48040E+01 0.00000E+00
 -1       338 1.21500E+01 4.48040E+01 0.00000E+00
 -1       339 1.51500E+01 4.48040E+01 0.00000E+00
 -1       340 1.81500E+01 4.48040E+01 0.00000E+00
 -1       341 2.11500E+01 4.48040E+01 0.00000E+00
 -1       342 2.41500E+01 4.48040E+01 0.00000E+00
 -1       343 2.71500E+01 4.48040E+01 0.00000E+00
 -1       344 3.01500E+01 4.48040E+01 0.00000E+00
 -1       345 3.31500E+01 4.48040E+01 0.00000E+00
 -1       346 3.61500E+01 4.48040E+01 0.00000E+00
 -1       347 3.91500E+01 4.48040E+01 0.00000E+00
 -1       348 4.21500E+01 4.48040E+01 0.00000E+00
 -1       349 4.51500E+01 4.48040E+01 0.00000E+00
 -1       350 4.81500E+01 4.48040E+01 0.00000E+00
 -1       351 5.11500E+01 4.48040E+01 0.00000E+00
 -1       352 5.41500E+01 4.48040E+01 0.00000E+00
 -1       353 5.71500E+01 4.48040E+01 0.00000E+00
 -1       354 6.01500E+01 4.48040E+01 0.00000E+00
 -1       355 6.31500E+01 4.48040E+01 0.00000E+00
 -1       356 6.61500E+01 4.48040E+01 0.00000E+00
 -1       357 6.91500E+01 4.48040E+01 0.00000E+00
 -1       358 7.21500E+01 4.48040E+01 0.00000E+00
 -1       359 7.51500E+01 4.48040E+01 0.00000E+00
 -1       360 7.81500E+01 4.48040E+01 0.00000E+00
 -1       361 8.11500E+01 4.48040E+01 0.00000E+00
 -1       362 8.41500E+01 4.48040E+01 0.00000E+00
 -1       363 8.71500E+01 4.48040E+01 0.00000E+00
 -1       364 9.01500E+01 4.48040E+01 0.00000E+00
 -1       365 9.31500E+01 4.48040E+01 0.00000E+00
 -1       366 9.61500E+01 4.48040E+01 0.00000E+00
 -1       367 9.91500E+01 4.48040E+01 0.00000E+00
 -1       368 1.02150E+02 4.48040E+01 0.00000E+00
 -1       369 1.05150E+02 4.48040E+01 0.00000E+00
 -1       370 1.08150E+02 4.48040E+01 0.00000E+00
 -1       371 1.11150E+02 4.48040E+01 0.00000E+00
 -1       372 1.14150E+02 4.48040E+01 0.00000E+00
 -1       373 1.17150E+02 4.48040E+01 0.00000E+00
 -1       374 1.20150E+02 4.48040E+01 0.00000E+00
 -1       375 1.23150E+02 4.48040E+01 0.00000E+00
 -1       376 1.26150E+02 4.48040E+01 0.00000E+00
 -1       377 1.29150E+02 4.48040E+01 0.00000E+00
 -1       378 1.32150E+02 4.48040E+01 0.00000E+00
 -1       379 1.35150E+02 4.48040E+01 0.00000E+00
 -1       380 1.38150E+02 4.48040E+01 0.00000E+00
 -1       381 1.41150E+02 4.48040E+01 0.00000E+00
 -1       382 1.43838E+02 4.49212E+01 0.00000E+00
 -1       383 1.20000E+01 5.19600E+00 0.00000E+00
 -1       384 9.00000E+00 5.19600E+00 0.00000E+00
 -1       385 1.50000E+01 5.19600E+00 0.00000E+00
 -1       386 1.80000E+01 5.19600E+00 0.00000E+00
 -1       387 2.08500E+01 5.19600E+00 0.00000E+00
 -1       388 2.38500E+01 5.19600E+00 0.00000E+00
 -1       389 2.68500E+01 5.19600E+00 0.00000E+00
 -1       390 2.98500E+01 5.19600E+00 0.00000E+00
 -1       391 3.28500E+01 5.19600E+00 0.00000E+00
 -1       392 3.58500E+01 5.19600E+00 0.00000E+00
 -1       393 3.88500E+01 5.19600E+00 0.00000E+00
 -1       394 4.18500E+01 5.19600E+00 0.00000E+00
 -1       395 4.47000E+01 5.19600E+00 0.00000E+00
 -1       396 4.77000E+01 5.19600E+00 0.00000E+00
 -1       397 5.07000E+01 5.19600E+00 0.00000E+00
 -1       398 5.37000E+01 5.19600E+00 0.00000E+00
 -1       399 5.67000E+01 5.19600E+00 0.00000E+00
 -1       400 5.97000E+01 5.19600E+00 0.00000E+00
 -1       401 6.27000E+01 5.19600E+00 0.00000E+00
 -1       402 6.57000E+01 5.19600E+00 0.00000E+00
 -1       403 6.85500E+01 5.19600E+00 0.00000E+00
 -1       404 7.15500E+01 5.19600E+00 0.00000E+00
 -1       405 7.45500E+01 5.19600E+00 0.00000E+00
 -1       406 7.75500E+01 5.19600E+00 0.00000E+00
 -1       407 8.05500E+01 5.19600E+00 0.00000E+00
 -1       408 8.35500E+01 5.19600E+00 0.00000E+00
 -1       409 8.65500E+01 5.19600E+00 0.00000E+00
 -1       410 8.95500E+01 5.19600E+00 0.00000E+00
 -1       411 9.24000E+01 5.19600E+00 0.00000E+00
 -1       412 9.54000E+01 5.19600E+00 0.00000E+00
 -1       413 1.00875E+02 4.48068E+00 0.00000E+00
 -1       414 1.08900E+02 4.64825E+00 0.00000E+00
 -1       415 1.11600E+02 4.64825E+00 0.00000E+00
 -1       416 1.14600E+02 4.64825E+00 0.00000E+00
 -1       417 1.17600E+02 4.64825E+00 0.00000E+00
 -1       418 1.20600E+02 4.64825E+00 0.00000E+00
 -1       419 1.23600E+02 4.64825E+00 0.00000E+00
 -1       420 1.26450E+02 4.64825E+00 0.00000E+00
 -1       421 1.29450E+02 4.64825E+00 0.00000E+00
 -1       422 1.32450E+02 4.64825E+00 0.00000E+00
 -1       423 1.35450E+02 4.64825E+00 0.00000E+00
 -1       424 1.38450E+02 4.64825E+00 0.00000E+00
 -1       425 1.41450E+02 4.64825E+00 0.00000E+00
 -1       426 1.13662E+02 1.12685E+01 0.00000E+00
 -1       427 1.44804E+02 1.18000E+01 0.00000E+00
 -1       428 1.44804E+02 8.85000E+00 0.00000E+00
 -1       429 1.44804E+02 5.90000E+00 0.00000E+00
 -1       430 1.44804E+02 1.47000E+01 0.00000E+00
 -1       431 1.44804E+02 1.76500E+01 0.00000E+00
 -1       432 1.44804E+02 2.06000E+01 0.00000E+00
 -1       433 1.44804E+02 2.35500E+01 0.00000E+00
 -1       434 1.44804E+02 2.65000E+01 0.00000E+00
 -1       435 1.44804E+02 2.94500E+01 0.00000E+00
 -1       436 1.44804E+02 3.23500E+01 0.00000E+00
 -1       437 1.44804E+02 3.53000E+01 0.00000E+00
 -1       438 1.44804E+02 3.82500E+01 0.00000E+00
 -1       439 1.44804E+02 4.12000E+01 0.00000E+00
 -1       440 1.13077E+02 9.61145E+00 0.00000E+00
 -1       441 1.14161E+02 1.34170E+01 0.00000E+00
 -1       442 5.19600E+00 3.82125E+01 0.00000E+00
 -1       443 9.89010E+01 5.27573E+00 0.00000E+00
 -1       444 9.73023E+01 6.53501E+00 0.00000E+00
 -1       445 9.60909E+01 8.42459E+00 0.00000E+00
 -1       446 9.53505E+01 1.01193E+01 0.00000E+00
 -1       447 9.47723E+01 1.18592E+01 0.00000E+00
 -1       448 9.47009E+01 1.42888E+01 0.00000E+00
 -1       449 9.47210E+01 1.62348E+01 0.00000E+00
 -1       450 9.60326E+01 1.81412E+01 0.00000E+00
 -1       451 9.69043E+01 1.96810E+01 0.00000E+00
 -1       452 9.84755E+01 2.12139E+01 0.00000E+00
 -1       453 1.00255E+02 2.20831E+01 0.00000E+00
 -1       454 1.02028E+02 2.26625E+01 0.00000E+00
 -1       455 1.03837E+02 2.29936E+01 0.00000E+00
 -1       456 1.06100E+02 2.30017E+01 0.00000E+00
 -1       457 1.07676E+02 2.24590E+01 0.00000E+00
 -1       458 1.09551E+02 2.14318E+01 0.00000E+00
 -1       459 1.11073E+02 2.01356E+01 0.00000E+00
 -1       460 1.12327E+02 1.88036E+01 0.00000E+00
 -1       461 1.13080E+02 1.71394E+01 0.00000E+00
 -1       462 1.13925E+02 1.50222E+01 0.00000E+00
 -1       463 1.10689E+02 6.32318E+00 0.00000E+00
 -1       464 1.07098E+02 3.55594E+00 0.00000E+00
 -1       465 9.36928E+01 1.30353E+01 0.00000E+00
 -1       466 7.79400E+00 3.08500E+01 0.00000E+00
 -1       467 7.79400E+00 3.38000E+01 0.00000E+00
 -1       468 7.79400E+00 2.49500E+01 0.00000E+00
 -1       469 7.79400E+00 2.20000E+01 0.00000E+00
 -1       470 7.79400E+00 1.91000E+01 0.00000E+00
 -1       471 7.79400E+00 1.61500E+01 0.00000E+00
 -1       472 7.79400E+00 1.32000E+01 0.00000E+00
 -1       473 7.79400E+00 1.02500E+01 0.00000E+00
 -1       474 8.39700E+00 7.72300E+00 0.00000E+00
 -1       475 1.12383E+02 5.80044E+00 0.00000E+00
 -1       476 1.06500E+01 4.22060E+01 0.00000E+00
 -1       477 1.36500E+01 4.22060E+01 0.00000E+00
 -1       478 1.66500E+01 4.22060E+01 0.00000E+00
 -1       479 1.96500E+01 4.22060E+01 0.00000E+00
 -1       480 2.26500E+01 4.22060E+01 0.00000E+00
 -1       481 2.56500E+01 4.22060E+01 0.00000E+00
 -1       482 2.86500E+01 4.22060E+01 0.00000E+00
 -1       483 3.16500E+01 4.22060E+01 0.00000E+00
 -1       484 3.46500E+01 4.22060E+01 0.00000E+00
 -1       485 3.76500E+01 4.22060E+01 0.00000E+00
 -1       486 4.06500E+01 4.22060E+01 0.00000E+00
 -1       487 4.36500E+01 4.22060E+01 0.00000E+00
 -1       488 4.66500E+01 4.22060E+01 0.00000E+00
 -1       489 4.96500E+01 4.22060E+01 0.00000E+00
 -1       490 5.26500E+01 4.22060E+01 0.00000E+00
 -1       491 5.56500E+01 4.22060E+01 0.00000E+00
 -1       492 5.86500E+01 4.22060E+01 0.00000E+00
 -1       493 6.16500E+01 4.22060E+01 0.00000E+00
 -1       494 6.46500E+01 4.22060E+01 0.00000E+00
 -1       495 6.76500E+01 4.22060E+01 0.00000E+00
 -1       496 7.06500E+01 4.22060E+01 0.00000E+00
 -1       497 7.36500E+01 4.22060E+01 0.00000E+00
 -1       498 7.66500E+01 4.22060E+01 0.00000E+00
 -1       499 7.96500E+01 4.22060E+01 0.00000E+00
 -1       500 8.26500E+01 4.22060E+01 0.00000E+00
 -1       501 8.56500E+01 4.22060E+01 0.00000E+00
 -1       502 8.86500E+01 4.22060E+01 0.00000E+00
 -1       503 9.16500E+01 4.22060E+01 0.00000E+00
 -1       504 9.46500E+01 4.22060E+01 0.00000E+00
 -1       505 9.76500E+01 4.22060E+01 0.00000E+00
 -1       506 1.00650E+02 4.22060E+01 0.00000E+00
 -1       507 1.03650E+02 4.22060E+01 0.00000E+00
 -1       508 1.06650E+02 4.22060E+01 0.00000E+00
 -1       509 1.09650E+02 4.22060E+01 0.00000E+00
 -1       510 1.12650E+02 4.22060E+01 0.00000E+00
 -1       511 1.15650E+02 4.22060E+01 0.00000E+00
 -1       512 1.18650E+02 4.22060E+01 0.00000E+00
 -1       513 1.21650E+02 4.22060E+01 0.00000E+00
 -1       514 1.24650E+02 4.22060E+01 0.00000E+00
 -1       515 1.27650E+02 4.22060E+01 0.00000E+00
 -1       516 1.30650E+02 4.22060E+01 0.00000E+00
 -1       517 1.33650E+02 4.22060E+01 0.00000E+00
 -1       518 1.36650E+02 4.22060E+01 0.00000E+00
 -1       519 1.39650E+02 4.22060E+01 0.00000E+00
 -1       520 1.13970E+01 7.72300E+00 0.00000E+00
 -1       521 1.94250E+01 7.79400E+00 0.00000E+00
 -1       522 2.24250E+01 7.79400E+00 0.00000E+00
 -1       523 2.54250E+01 7.79400E+00 0.00000E+00
 -1       524 2.84250E+01 7.79400E+00 0.00000E+00
 -1       525 3.14250E+01 7.79400E+00 0.00000E+00
 -1       526 3.44250E+01 7.79400E+00 0.00000E+00
 -1       527 3.74250E+01 7.79400E+00 0.00000E+00
 -1       528 4.04250E+01 7.79400E+00 0.00000E+00
 -1       529 4.32750E+01 7.79400E+00 0.00000E+00
 -1       530 4.62750E+01 7.79400E+00 0.00000E+00
 -1       531 4.92750E+01 7.79400E+00 0.00000E+00
 -1       532 5.22750E+01 7.79400E+00 0.00000E+00
 -1       533 5.52750E+01 7.79400E+00 0.00000E+00
 -1       534 5.82750E+01 7.79400E+00 0.00000E+00
 -1       535 6.12750E+01 7.79400E+00 0.00000E+00
 -1       536 6.42750E+01 7.79400E+00 0.00000E+00
 -1       537 6.71250E+01 7.79400E+00 0.00000E+00
 -1       538 7.01250E+01 7.79400E+00 0.00000E+00
 -1       539 7.31250E+01 7.79400E+00 0.00000E+00
 -1       540 7.61250E+01 7.79400E+00 0.00000E+00
 -1       541 7.91250E+01 7.79400E+00 0.00000E+00
 -1       542 8.21250E+01 7.79400E+00 0.00000E+00
 -1       543 8.51250E+01 7.79400E+00 0.00000E+00
 -1       544 8.81250E+01 7.79400E+00 0.00000E+00
 -1       545 9.09750E+01 7.79400E+00 0.00000E+00
 -1       546 9.39000E+01 7.24625E+00 0.00000E+00
 -1       547 1.15500E+02 1.19737E+01 0.00000E+00
 -1       548 1.19100E+02 7.24625E+00 0.00000E+00
 -1       549 1.22100E+02 7.24625E+00 0.00000E+00
 -1       550 1.24950E+02 7.24625E+00 0.00000E+00
 -1       551 1.27950E+02 7.24625E+00 0.00000E+00
 -1       552 1.30950E+02 7.24625E+00 0.00000E+00
 -1       553 1.33950E+02 7.24625E+00 0.00000E+00
 -1       554 1.36950E+02 7.24625E+00 0.00000E+00
 -1       555 1.39950E+02 7.24625E+00 0.00000E+00
 -1       556 1.13941E+02 7.78477E+00 0.00000E+00
 -1       557 1.42206E+02 1.32500E+01 0.00000E+00
 -1       558 1.42206E+02 1.91250E+01 0.00000E+00
 -1       559 1.42206E+02 2.20750E+01 0.00000E+00
 -1       560 1.42206E+02 2.50250E+01 0.00000E+00
 -1       561 1.42206E+02 2.79750E+01 0.00000E+00
 -1       562 1.42206E+02 3.08750E+01 0.00000E+00
 -1       563 1.42206E+02 3.38250E+01 0.00000E+00
 -1       564 1.42206E+02 3.67750E+01 0.00000E+00
 -1       565 1.42206E+02 3.97250E+01 0.00000E+00
 -1       566 1.14987E+02 9.86910E+00 0.00000E+00
 -1       567 9.31635E+01 1.52778E+01 0.00000E+00
 -1       568 1.64250E+01 7.79400E+00 0.00000E+00
 -1       569 1.42377E+02 8.04813E+00 0.00000E+00
 -1       570 1.15017E+02 1.66859E+01 0.00000E+00
 -1       571 1.15491E+02 1.44323E+01 0.00000E+00
 -1       572 1.04961E+02 2.50479E+01 0.00000E+00
 -1       573 9.43026E+01 8.65238E+00 0.00000E+00
 -1       574 1.42292E+02 1.06491E+01 0.00000E+00
 -1       575 1.42206E+02 1.61875E+01 0.00000E+00
 -1       576 7.79400E+00 2.79000E+01 0.00000E+00
 -1       577 1.39110E+01 7.75850E+00 0.00000E+00
 -1       578 9.35928E+01 1.05012E+01 0.00000E+00
 -1       579 1.11315E+02 2.19620E+01 0.00000E+00
 -1       580 9.41019E+01 1.80652E+01 0.00000E+00
 -1       581 9.49736E+01 1.96050E+01 0.00000E+00
 -1       582 9.64922E+01 2.16751E+01 0.00000E+00
 -1       583 9.86489E+01 2.31143E+01 0.00000E+00
 -1       584 1.00660E+02 2.38438E+01 0.00000E+00
 -1       585 1.02654E+02 2.43503E+01 0.00000E+00
 -1       586 1.07447E+02 2.43519E+01 0.00000E+00
 -1       587 1.09437E+02 2.34496E+01 0.00000E+00
 -1       588 1.12888E+02 2.05878E+01 0.00000E+00
 -1       589 1.14265E+02 1.83502E+01 0.00000E+00
 -1       590 7.92300E+00 4.16780E+01 0.00000E+00
 -1       591 7.79400E+00 3.67375E+01 0.00000E+00
 -1       592 9.53639E+01 7.26801E+00 0.00000E+00
 -1       593 1.41678E+02 4.22645E+01 0.00000E+00
 -1       594 1.16100E+02 7.03365E+00 0.00000E+00
 -1       595 9.25443E+01 1.71082E+01 0.00000E+00
 -1       596 7.85850E+00 3.92077E+01 0.00000E+00
 -1       597 9.25133E+01 1.16774E+01 0.00000E+00
 -1       598 1.03920E+01 2.05500E+01 0.00000E+00
 -1       599 1.03920E+01 2.35000E+01 0.00000E+00
 -1       600 1.03920E+01 1.46750E+01 0.00000E+00
 -1       601 1.03920E+01 1.17250E+01 0.00000E+00
 -1       602 1.08945E+01 9.72400E+00 0.00000E+00
 -1       603 1.40178E+02 3.96665E+01 0.00000E+00
 -1       604 1.39865E+02 9.84719E+00 0.00000E+00
 -1       605 1.17443E+02 9.35222E+00 0.00000E+00
 -1       606 1.51500E+01 3.96080E+01 0.00000E+00
 -1       607 1.81500E+01 3.96080E+01 0.00000E+00
 -1       608 2.11500E+01 3.96080E+01 0.00000E+00
 -1       609 2.41500E+01 3.96080E+01 0.00000E+00
 -1       610 2.71500E+01 3.96080E+01 0.00000E+00
 -1       611 3.01500E+01 3.96080E+01 0.00000E+00
 -1       612 3.31500E+01 3.96080E+01 0.00000E+00
 -1       613 3.61500E+01 3.96080E+01 0.00000E+00
 -1       614 3.91500E+01 3.96080E+01 0.00000E+00
 -1       615 4.21500E+01 3.96080E+01 0.00000E+00
 -1       616 4.51500E+01 3.96080E+01 0.00000E+00
 -1       617 4.81500E+01 3.96080E+01 0.00000E+00
 -1       618 5.11500E+01 3.96080E+01 0.00000E+00
 -1       619 5.41500E+01 3.96080E+01 0.00000E+00
 -1       620 5.71500E+01 3.96080E+01 0.00000E+00
 -1       621 6.01500E+01 3.96080E+01 0.00000E+00
 -1       622 6.31500E+01 3.96080E+01 0.00000E+00
 -1       623 6.61500E+01 3.96080E+01 0.00000E+00
 -1       624 6.91500E+01 3.96080E+01 0.00000E+00
 -1       625 7.21500E+01 3.96080E+01 0.00000E+00
 -1       626 7.51500E+01 3.96080E+01 0.00000E+00
 -1       627 7.81500E+01 3.96080E+01 0.00000E+00
 -1       628 8.11500E+01 3.96080E+01 0.00000E+00
 -1       629 8.41500E+01 3.96080E+01 0.00000E+00
 -1       630 8.71500E+01 3.96080E+01 0.00000E+00
 -1       631 9.01500E+01 3.96080E+01 0.00000E+00
 -1       632 9.31500E+01 3.96080E+01 0.00000E+00
 -1       633 9.61500E+01 3.96080E+01 0.00000E+00
 -1       634 9.91500E+01 3.96080E+01 0.00000E+00
 -1       635 1.02150E+02 3.96080E+01 0.00000E+00
 -1       636 1.05150E+02 3.96080E+01 0.00000E+00
 -1       637 1.08150E+02 3.96080E+01 0.00000E+00
 -1       638 1.11150E+02 3.96080E+01 0.00000E+00
 -1       639 1.14150E+02 3.96080E+01 0.00000E+00
 -1       640 1.17150E+02 3.96080E+01 0.00000E+00
 -1       641 1.20150E+02 3.96080E+01 0.00000E+00
 -1       642 1.23150E+02 3.96080E+01 0.00000E+00
 -1       643 1.26150E+02 3.96080E+01 0.00000E+00
 -1       644 1.29150E+02 3.96080E+01 0.00000E+00
 -1       645 1.32150E+02 3.96080E+01 0.00000E+00
 -1       646 1.35150E+02 3.96080E+01 0.00000E+00
 -1       647 1.37664E+02 3.96372E+01 0.00000E+00
 -1       648 2.39250E+01 1.03920E+01 0.00000E+00
 -1       649 2.09250E+01 1.03920E+01 0.00000E+00
 -1       650 2.99250E+01 1.03920E+01 0.00000E+00
 -1       651 3.29250E+01 1.03920E+01 0.00000E+00
 -1       652 3.59250E+01 1.03920E+01 0.00000E+00
 -1       653 3.89250E+01 1.03920E+01 0.00000E+00
 -1       654 4.17750E+01 1.03920E+01 0.00000E+00
 -1       655 4.47750E+01 1.03920E+01 0.00000E+00
 -1       656 4.77750E+01 1.03920E+01 0.00000E+00
 -1       657 5.07750E+01 1.03920E+01 0.00000E+00
 -1       658 5.37750E+01 1.03920E+01 0.00000E+00
 -1       659 5.67750E+01 1.03920E+01 0.00000E+00
 -1       660 5.97750E+01 1.03920E+01 0.00000E+00
 -1       661 6.27750E+01 1.03920E+01 0.00000E+00
 -1       662 6.56250E+01 1.03920E+01 0.00000E+00
 -1       663 6.86250E+01 1.03920E+01 0.00000E+00
 -1       664 7.16250E+01 1.03920E+01 0.00000E+00
 -1       665 7.46250E+01 1.03920E+01 0.00000E+00
 -1       666 7.76250E+01 1.03920E+01 0.00000E+00
 -1       667 8.06250E+01 1.03920E+01 0.00000E+00
 -1       668 8.36250E+01 1.03920E+01 0.00000E+00
 -1       669 8.66250E+01 1.03920E+01 0.00000E+00
 -1       670 8.94750E+01 1.03920E+01 0.00000E+00
 -1       671 1.17546E+02 1.32106E+01 0.00000E+00
 -1       672 9.15958E+01 1.37241E+01 0.00000E+00
 -1       673 1.03920E+01 3.23250E+01 0.00000E+00
 -1       674 1.23525E+02 9.84425E+00 0.00000E+00
 -1       675 1.20525E+02 9.84425E+00 0.00000E+00
 -1       676 1.29450E+02 9.84425E+00 0.00000E+00
 -1       677 1.32450E+02 9.84425E+00 0.00000E+00
 -1       678 1.35450E+02 9.84425E+00 0.00000E+00
 -1       679 1.17032E+02 1.11060E+01 0.00000E+00
 -1       680 1.05855E+01 3.97357E+01 0.00000E+00
 -1       681 1.39608E+02 2.06000E+01 0.00000E+00
 -1       682 1.39608E+02 2.94250E+01 0.00000E+00
 -1       683 1.39608E+02 3.23750E+01 0.00000E+00
 -1       684 1.39608E+02 3.53250E+01 0.00000E+00
 -1       685 1.16933E+02 1.59121E+01 0.00000E+00
 -1       686 1.79250E+01 1.03920E+01 0.00000E+00
 -1       687 1.16357E+02 1.82938E+01 0.00000E+00
 -1       688 1.14980E+02 2.05315E+01 0.00000E+00
 -1       689 1.13451E+02 2.28187E+01 0.00000E+00
 -1       690 1.03311E+02 2.63408E+01 0.00000E+00
 -1       691 1.39608E+02 2.64750E+01 0.00000E+00
 -1       692 1.39608E+02 2.35375E+01 0.00000E+00
 -1       693 9.42149E+01 2.17537E+01 0.00000E+00
 -1       694 1.26488E+02 9.84425E+00 0.00000E+00
 -1       695 1.06712E+02 2.65128E+01 0.00000E+00
 -1       696 1.01318E+02 2.58343E+01 0.00000E+00
 -1       697 1.09219E+02 2.56155E+01 0.00000E+00
 -1       698 2.69250E+01 1.03920E+01 0.00000E+00
 -1       699 9.63395E+01 2.42395E+01 0.00000E+00
 -1       700 9.31181E+01 1.96387E+01 0.00000E+00
 -1       701 9.90699E+01 2.50914E+01 0.00000E+00
 -1       702 1.28678E+01 3.96719E+01 0.00000E+00
 -1       703 1.03920E+01 1.76125E+01 0.00000E+00
 -1       704 1.11573E+02 2.43064E+01 0.00000E+00
 -1       705 9.22839E+01 9.14761E+00 0.00000E+00
 -1       706 1.03920E+01 2.64500E+01 0.00000E+00
 -1       707 1.34085E+01 9.75950E+00 0.00000E+00
 -1       708 1.03920E+01 3.52625E+01 0.00000E+00
 -1       709 1.56667E+01 1.00758E+01 0.00000E+00
 -1       710 1.05062E+02 2.78058E+01 0.00000E+00
 -1       711 1.39608E+02 1.47188E+01 0.00000E+00
 -1       712 1.03920E+01 2.93875E+01 0.00000E+00
 -1       713 1.39608E+02 1.76563E+01 0.00000E+00
 -1       714 1.39736E+02 1.22830E+01 0.00000E+00
 -1       715 9.09767E+01 1.55544E+01 0.00000E+00
 -1       716 1.29060E+01 1.17605E+01 0.00000E+00
 -1       717 1.96500E+01 3.70100E+01 0.00000E+00
 -1       718 2.26500E+01 3.70100E+01 0.00000E+00
 -1       719 2.56500E+01 3.70100E+01 0.00000E+00
 -1       720 2.86500E+01 3.70100E+01 0.00000E+00
 -1       721 3.16500E+01 3.70100E+01 0.00000E+00
 -1       722 3.46500E+01 3.70100E+01 0.00000E+00
 -1       723 3.76500E+01 3.70100E+01 0.00000E+00
 -1       724 4.06500E+01 3.70100E+01 0.00000E+00
 -1       725 4.36500E+01 3.70100E+01 0.00000E+00
 -1       726 4.66500E+01 3.70100E+01 0.00000E+00
 -1       727 4.96500E+01 3.70100E+01 0.00000E+00
 -1       728 5.26500E+01 3.70100E+01 0.00000E+00
 -1       729 5.56500E+01 3.70100E+01 0.00000E+00
 -1       730 5.86500E+01 3.70100E+01 0.00000E+00
 -1       731 6.16500E+01 3.70100E+01 0.00000E+00
 -1       732 6.46500E+01 3.70100E+01 0.00000E+00
 -1       733 6.76500E+01 3.70100E+01 0.00000E+00
 -1       734 7.06500E+01 3.70100E+01 0.00000E+00
 -1       735 7.36500E+01 3.70100E+01 0.00000E+00
 -1       736 7.66500E+01 3.70100E+01 0.00000E+00
 -1       737 7.96500E+01 3.70100E+01 0.00000E+00
 -1       738 8.26500E+01 3.70100E+01 0.00000E+00
 -1       739 8.56500E+01 3.70100E+01 0.00000E+00
 -1       740 8.86500E+01 3.70100E+01 0.00000E+00
 -1       741 9.16500E+01 3.70100E+01 0.00000E+00
 -1       742 9.46500E+01 3.70100E+01 0.00000E+00
 -1       743 9.76500E+01 3.70100E+01 0.00000E+00
 -1       744 1.00650E+02 3.70100E+01 0.00000E+00
 -1       745 1.03650E+02 3.70100E+01 0.00000E+00
 -1       746 1.06650E+02 3.70100E+01 0.00000E+00
 -1       747 1.09650E+02 3.70100E+01 0.00000E+00
 -1       748 1.12650E+02 3.70100E+01 0.00000E+00
 -1       749 1.15650E+02 3.70100E+01 0.00000E+00
 -1       750 1.18650E+02 3.70100E+01 0.00000E+00
 -1       751 1.21650E+02 3.70100E+01 0.00000E+00
 -1       752 1.24650E+02 3.70100E+01 0.00000E+00
 -1       753 1.27650E+02 3.70100E+01 0.00000E+00
 -1       754 1.30650E+02 3.70100E+01 0.00000E+00
 -1       755 1.33650E+02 3.70100E+01 0.00000E+00
 -1       756 3.74250E+01 1.29900E+01 0.00000E+00
 -1       757 3.44250E+01 1.29900E+01 0.00000E+00
 -1       758 3.14250E+01 1.29900E+01 0.00000E+00
 -1       759 4.02750E+01 1.29900E+01 0.00000E+00
 -1       760 4.32750E+01 1.29900E+01 0.00000E+00
 -1       761 4.62750E+01 1.29900E+01 0.00000E+00
 -1       762 4.92750E+01 1.29900E+01 0.00000E+00
 -1       763 5.22750E+01 1.29900E+01 0.00000E+00
 -1       764 5.52750E+01 1.29900E+01 0.00000E+00
 -1       765 5.82750E+01 1.29900E+01 0.00000E+00
 -1       766 6.12750E+01 1.29900E+01 0.00000E+00
 -1       767 6.41250E+01 1.29900E+01 0.00000E+00
 -1       768 6.71250E+01 1.29900E+01 0.00000E+00
 -1       769 7.01250E+01 1.29900E+01 0.00000E+00
 -1       770 7.31250E+01 1.29900E+01 0.00000E+00
 -1       771 7.61250E+01 1.29900E+01 0.00000E+00
 -1       772 7.91250E+01 1.29900E+01 0.00000E+00
 -1       773 8.21250E+01 1.29900E+01 0.00000E+00
 -1       774 8.51250E+01 1.29900E+01 0.00000E+00
 -1       775 8.79750E+01 1.29900E+01 0.00000E+00
 -1       776 1.19075E+02 1.49782E+01 0.00000E+00
 -1       777 1.18637E+02 1.75851E+01 0.00000E+00
 -1       778 1.11659E+02 2.72314E+01 0.00000E+00
 -1       779 1.22025E+02 1.22296E+01 0.00000E+00
 -1       780 1.13537E+02 2.57437E+01 0.00000E+00
 -1       781 1.33950E+02 1.24423E+01 0.00000E+00
 -1       782 1.30950E+02 1.24423E+01 0.00000E+00
 -1       783 1.37010E+02 3.38500E+01 0.00000E+00
 -1       784 1.36843E+02 1.23626E+01 0.00000E+00
 -1       785 9.37187E+01 2.43287E+01 0.00000E+00
 -1       786 1.37010E+02 3.09000E+01 0.00000E+00
 -1       787 1.94250E+01 1.29900E+01 0.00000E+00
 -1       788 2.54250E+01 1.29900E+01 0.00000E+00
 -1       789 1.37337E+02 3.67436E+01 0.00000E+00
 -1       790 9.95505E+01 2.74096E+01 0.00000E+00
 -1       791 1.37010E+02 2.79500E+01 0.00000E+00
 -1       792 1.37010E+02 1.61875E+01 0.00000E+00
 -1       793 1.19036E+02 1.15274E+01 0.00000E+00
 -1       794 1.17271E+02 2.03993E+01 0.00000E+00
 -1       795 1.08769E+02 2.83101E+01 0.00000E+00
 -1       796 1.01544E+02 2.79161E+01 0.00000E+00
 -1       797 1.04888E+01 3.74991E+01 0.00000E+00
 -1       798 9.19952E+01 2.15629E+01 0.00000E+00
 -1       799 9.68202E+01 2.65577E+01 0.00000E+00
 -1       800 1.66500E+01 3.70100E+01 0.00000E+00
 -1       801 9.11586E+01 1.87527E+01 0.00000E+00
 -1       802 1.37010E+02 1.91313E+01 0.00000E+00
 -1       803 1.16059E+02 2.29076E+01 0.00000E+00
 -1       804 1.29900E+01 2.20250E+01 0.00000E+00
 -1       805 2.24250E+01 1.29900E+01 0.00000E+00
 -1       806 2.84250E+01 1.29900E+01 0.00000E+00
 -1       807 8.95909E+01 1.71989E+01 0.00000E+00
 -1       808 1.29900E+01 1.61437E+01 0.00000E+00
 -1       809 1.29900E+01 3.37938E+01 0.00000E+00
 -1       810 1.29900E+01 1.90812E+01 0.00000E+00
 -1       811 1.71667E+01 1.26737E+01 0.00000E+00
 -1       812 1.03294E+02 2.93810E+01 0.00000E+00
 -1       813 9.41993E+01 2.66469E+01 0.00000E+00
 -1       814 1.27988E+02 1.24423E+01 0.00000E+00
 -1       815 1.27710E+01 3.74352E+01 0.00000E+00
 -1       816 1.29900E+01 3.08563E+01 0.00000E+00
 -1       817 1.37010E+02 2.20688E+01 0.00000E+00
 -1       818 1.37010E+02 2.50125E+01 0.00000E+00
 -1       819 1.07119E+02 2.96031E+01 0.00000E+00
 -1       820 1.25025E+02 1.24423E+01 0.00000E+00
 -1       821 1.29900E+01 2.49750E+01 0.00000E+00
 -1       822 2.11500E+01 3.44120E+01 0.00000E+00
 -1       823 2.69250E+01 1.55880E+01 0.00000E+00
 -1       824 8.97724E+01 2.06950E+01 0.00000E+00
 -1       825 1.81500E+01 3.44120E+01 0.00000E+00
 -1       826 2.41500E+01 3.44120E+01 0.00000E+00
 -1       827 2.71500E+01 3.44120E+01 0.00000E+00
 -1       828 3.01500E+01 3.44120E+01 0.00000E+00
 -1       829 3.31500E+01 3.44120E+01 0.00000E+00
 -1       830 3.61500E+01 3.44120E+01 0.00000E+00
 -1       831 3.91500E+01 3.44120E+01 0.00000E+00
 -1       832 4.21500E+01 3.44120E+01 0.00000E+00
 -1       833 4.51500E+01 3.44120E+01 0.00000E+00
 -1       834 4.81500E+01 3.44120E+01 0.00000E+00
 -1       835 5.11500E+01 3.44120E+01 0.00000E+00
 -1       836 5.41500E+01 3.44120E+01 0.00000E+00
 -1       837 5.71500E+01 3.44120E+01 0.00000E+00
 -1       838 6.01500E+01 3.44120E+01 0.00000E+00
 -1       839 6.31500E+01 3.44120E+01 0.00000E+00
 -1       840 6.61500E+01 3.44120E+01 0.00000E+00
 -1       841 6.91500E+01 3.44120E+01 0.00000E+00
 -1       842 7.21500E+01 3.44120E+01 0.00000E+00
 -1       843 7.51500E+01 3.44120E+01 0.00000E+00
 -1       844 7.81500E+01 3.44120E+01 0.00000E+00
 -1       845 8.11500E+01 3.44120E+01 0.00000E+00
 -1       846 8.41500E+01 3.44120E+01 0.00000E+00
 -1       847 8.71500E+01 3.44120E+01 0.00000E+00
 -1       848 9.01500E+01 3.44120E+01 0.00000E+00
 -1       849 9.31500E+01 3.44120E+01 0.00000E+00
 -1       850 9.61500E+01 3.44120E+01 0.00000E+00
 -1       851 9.91500E+01 3.44120E+01 0.00000E+00
 -1       852 1.02150E+02 3.44120E+01 0.00000E+00
 -1       853 1.05150E+02 3.44120E+01 0.00000E+00
 -1       854 1.08150E+02 3.44120E+01 0.00000E+00
 -1       855 1.11150E+02 3.44120E+01 0.00000E+00
 -1       856 1.14150E+02 3.44120E+01 0.00000E+00
 -1       857 1.17150E+02 3.44120E+01 0.00000E+00
 -1       858 1.20150E+02 3.44120E+01 0.00000E+00
 -1       859 1.23150E+02 3.44120E+01 0.00000E+00
 -1       860 1.26150E+02 3.44120E+01 0.00000E+00
 -1       861 1.29150E+02 3.44120E+01 0.00000E+00
 -1       862 1.32150E+02 3.44120E+01 0.00000E+00
 -1       863 4.17750E+01 1.55880E+01 0.00000E+00
 -1       864 3.89250E+01 1.55880E+01 0.00000E+00
 -1       865 3.29250E+01 1.55880E+01 0.00000E+00
 -1       866 4.47750E+01 1.55880E+01 0.00000E+00
 -1       867 4.77750E+01 1.55880E+01 0.00000E+00
 -1       868 5.07750E+01 1.55880E+01 0.00000E+00
 -1       869 5.37750E+01 1.55880E+01 0.00000E+00
 -1       870 5.67750E+01 1.55880E+01 0.00000E+00
 -1       871 5.97750E+01 1.55880E+01 0.00000E+00
 -1       872 6.26250E+01 1.55880E+01 0.00000E+00
 -1       873 6.56250E+01 1.55880E+01 0.00000E+00
 -1       874 6.86250E+01 1.55880E+01 0.00000E+00
 -1       875 7.16250E+01 1.55880E+01 0.00000E+00
 -1       876 7.46250E+01 1.55880E+01 0.00000E+00
 -1       877 7.76250E+01 1.55880E+01 0.00000E+00
 -1       878 8.06250E+01 1.55880E+01 0.00000E+00
 -1       879 8.36250E+01 1.55880E+01 0.00000E+00
 -1       880 8.64750E+01 1.55880E+01 0.00000E+00
 -1       881 1.55880E+01 1.76125E+01 0.00000E+00
 -1       882 1.29900E+01 2.79188E+01 0.00000E+00
 -1       883 1.14211E+02 2.85241E+01 0.00000E+00
 -1       884 1.34117E+02 1.62671E+01 0.00000E+00
 -1       885 1.34412E+02 3.23750E+01 0.00000E+00
 -1       886 1.55455E+01 1.39023E+01 0.00000E+00
 -1       887 8.93448E+01 1.55306E+01 0.00000E+00
 -1       888 2.39250E+01 1.55880E+01 0.00000E+00
 -1       889 1.34412E+02 2.94250E+01 0.00000E+00
 -1       890 1.16739E+02 2.60521E+01 0.00000E+00
 -1       891 9.11169E+01 2.40301E+01 0.00000E+00
 -1       892 1.20713E+02 1.65936E+01 0.00000E+00
 -1       893 1.19799E+02 1.98875E+01 0.00000E+00
 -1       894 1.31117E+02 1.62671E+01 0.00000E+00
 -1       895 1.18813E+02 2.26916E+01 0.00000E+00
 -1       896 1.00001E+02 2.98123E+01 0.00000E+00
 -1       897 1.11122E+02 3.02047E+01 0.00000E+00
 -1       898 1.55700E+01 3.26341E+01 0.00000E+00
 -1       899 9.72706E+01 2.89604E+01 0.00000E+00
 -1       900 1.23341E+02 1.49274E+01 0.00000E+00
 -1       901 1.55880E+01 2.05562E+01 0.00000E+00
 -1       902 2.09250E+01 1.55880E+01 0.00000E+00
 -1       903 3.59250E+01 1.55880E+01 0.00000E+00
 -1       904 2.99250E+01 1.55880E+01 0.00000E+00
 -1       905 1.34412E+02 2.64875E+01 0.00000E+00
 -1       906 8.82048E+01 1.91412E+01 0.00000E+00
 -1       907 1.34412E+02 2.06000E+01 0.00000E+00
 -1       908 1.79251E+01 1.55880E+01 0.00000E+00
 -1       909 9.46497E+01 2.90496E+01 0.00000E+00
 -1       910 1.28154E+02 1.62671E+01 0.00000E+00
 -1       911 8.67212E+01 1.72563E+01 0.00000E+00
 -1       912 1.33550E+02 3.35375E+01 0.00000E+00
 -1       913 9.15975E+01 2.63483E+01 0.00000E+00
 -1       914 8.88941E+01 2.31622E+01 0.00000E+00
 -1       915 1.25748E+02 1.55973E+01 0.00000E+00
 -1       916 1.55880E+01 2.35063E+01 0.00000E+00
 -1       917 1.34412E+02 2.35438E+01 0.00000E+00
 -1       918 1.31412E+02 2.06000E+01 0.00000E+00
 -1       919 1.96500E+01 3.18140E+01 0.00000E+00
 -1       920 2.26500E+01 3.18140E+01 0.00000E+00
 -1       921 2.56500E+01 3.18140E+01 0.00000E+00
 -1       922 2.86500E+01 3.18140E+01 0.00000E+00
 -1       923 3.16500E+01 3.18140E+01 0.00000E+00
 -1       924 3.46500E+01 3.18140E+01 0.00000E+00
 -1       925 3.76500E+01 3.18140E+01 0.00000E+00
 -1       926 4.06500E+01 3.18140E+01 0.00000E+00
 -1       927 4.36500E+01 3.18140E+01 0.00000E+00
 -1       928 4.66500E+01 3.18140E+01 0.00000E+00
 -1       929 4.96500E+01 3.18140E+01 0.00000E+00
 -1       930 5.26500E+01 3.18140E+01 0.00000E+00
 -1       931 5.56500E+01 3.18140E+01 0.00000E+00
 -1       932 5.86500E+01 3.18140E+01 0.00000E+00
 -1       933 6.16500E+01 3.18140E+01 0.00000E+00
 -1       934 6.46500E+01 3.18140E+01 0.00000E+00
 -1       935 6.76500E+01 3.18140E+01 0.00000E+00
 -1       936 7.06500E+01 3.18140E+01 0.00000E+00
 -1       937 7.36500E+01 3.18140E+01 0.00000E+00
 -1       938 7.66500E+01 3.18140E+01 0.00000E+00
 -1       939 7.96500E+01 3.18140E+01 0.00000E+00
 -1       940 8.26500E+01 3.18140E+01 0.00000E+00
 -1       941 8.56500E+01 3.18140E+01 0.00000E+00
 -1       942 8.86500E+01 3.18140E+01 0.00000E+00
 -1       943 9.16500E+01 3.18140E+01 0.00000E+00
 -1       944 9.46500E+01 3.18140E+01 0.00000E+00
 -1       945 1.00650E+02 3.18140E+01 0.00000E+00
 -1       946 1.15650E+02 3.18140E+01 0.00000E+00
 -1       947 1.18650E+02 3.18140E+01 0.00000E+00
 -1       948 1.21650E+02 3.18140E+01 0.00000E+00
 -1       949 1.24650E+02 3.18140E+01 0.00000E+00
 -1       950 1.27650E+02 3.18140E+01 0.00000E+00
 -1       951 1.30650E+02 3.18140E+01 0.00000E+00
 -1       952 4.62750E+01 1.81860E+01 0.00000E+00
 -1       953 1.94251E+01 1.81860E+01 0.00000E+00
 -1       954 4.32750E+01 1.81860E+01 0.00000E+00
 -1       955 5.22750E+01 1.81860E+01 0.00000E+00
 -1       956 5.52750E+01 1.81860E+01 0.00000E+00
 -1       957 5.82750E+01 1.81860E+01 0.00000E+00
 -1       958 6.11250E+01 1.81860E+01 0.00000E+00
 -1       959 6.41250E+01 1.81860E+01 0.00000E+00
 -1       960 6.71250E+01 1.81860E+01 0.00000E+00
 -1       961 7.01250E+01 1.81860E+01 0.00000E+00
 -1       962 7.31250E+01 1.81860E+01 0.00000E+00
 -1       963 7.61250E+01 1.81860E+01 0.00000E+00
 -1       964 7.91250E+01 1.81860E+01 0.00000E+00
 -1       965 8.21250E+01 1.81860E+01 0.00000E+00
 -1       966 8.44231E+01 1.77211E+01 0.00000E+00
 -1       967 1.55700E+01 2.96966E+01 0.00000E+00
 -1       968 2.54250E+01 1.81860E+01 0.00000E+00
 -1       969 3.44250E+01 1.81860E+01 0.00000E+00
 -1       970 1.23215E+02 1.76337E+01 0.00000E+00
 -1       971 2.84250E+01 1.81860E+01 0.00000E+00
 -1       972 4.92750E+01 1.81860E+01 0.00000E+00
 -1       973 1.55880E+01 2.64500E+01 0.00000E+00
 -1       974 4.04250E+01 1.81860E+01 0.00000E+00
 -1       975 1.81860E+01 1.90844E+01 0.00000E+00
 -1       976 9.79752E+01 3.15036E+01 0.00000E+00
 -1       977 2.24250E+01 1.81860E+01 0.00000E+00
 -1       978 3.74250E+01 1.81860E+01 0.00000E+00
 -1       979 3.14250E+01 1.81860E+01 0.00000E+00
 -1       980 1.21757E+02 2.21514E+01 0.00000E+00
 -1       981 1.19987E+02 2.57361E+01 0.00000E+00
 -1       982 8.73265E+01 2.16084E+01 0.00000E+00
 -1       983 1.81860E+01 2.20344E+01 0.00000E+00
 -1       984 1.28449E+02 2.06000E+01 0.00000E+00
 -1       985 9.20479E+01 2.87511E+01 0.00000E+00
 -1       986 8.93748E+01 2.54804E+01 0.00000E+00
 -1       987 1.31814E+02 3.09000E+01 0.00000E+00
 -1       988 1.17695E+02 2.89330E+01 0.00000E+00
 -1       989 1.31814E+02 2.79625E+01 0.00000E+00
 -1       990 2.41500E+01 2.92160E+01 0.00000E+00
 -1       991 2.71500E+01 2.92160E+01 0.00000E+00
 -1       992 3.01500E+01 2.92160E+01 0.00000E+00
 -1       993 3.31500E+01 2.92160E+01 0.00000E+00
 -1       994 3.61500E+01 2.92160E+01 0.00000E+00
 -1       995 3.91500E+01 2.92160E+01 0.00000E+00
 -1       996 4.21500E+01 2.92160E+01 0.00000E+00
 -1       997 4.51500E+01 2.92160E+01 0.00000E+00
 -1       998 4.81500E+01 2.92160E+01 0.00000E+00
 -1       999 5.11500E+01 2.92160E+01 0.00000E+00
 -1      1000 5.41500E+01 2.92160E+01 0.00000E+00
 -1      1001 5.71500E+01 2.92160E+01 0.00000E+00
 -1      1002 6.01500E+01 2.92160E+01 0.00000E+00
 -1      1003 6.31500E+01 2.92160E+01 0.00000E+00
 -1      1004 6.61500E+01 2.92160E+01 0.00000E+00
 -1      1005 6.91500E+01 2.92160E+01 0.00000E+00
 -1      1006 7.21500E+01 2.92160E+01 0.00000E+00
 -1      1007 7.51500E+01 2.92160E+01 0.00000E+00
 -1      1008 7.81500E+01 2.92160E+01 0.00000E+00
 -1      1009 8.11500E+01 2.92160E+01 0.00000E+00
 -1      1010 8.41500E+01 2.92160E+01 0.00000E+00
 -1      1011 8.71500E+01 2.92160E+01 0.00000E+00
 -1      1012 1.23150E+02 2.92160E+01 0.00000E+00
 -1      1013 1.26150E+02 2.92160E+01 0.00000E+00
 -1      1014 5.67750E+01 2.07840E+01 0.00000E+00
 -1      1015 5.37750E+01 2.07840E+01 0.00000E+00
 -1      1016 6.26250E+01 2.07840E+01 0.00000E+00
 -1      1017 6.56250E+01 2.07840E+01 0.00000E+00
 -1      1018 6.86250E+01 2.07840E+01 0.00000E+00
 -1      1019 7.16250E+01 2.07840E+01 0.00000E+00
 -1      1020 7.46250E+01 2.07840E+01 0.00000E+00
 -1      1021 7.76250E+01 2.07840E+01 0.00000E+00
 -1      1022 8.06250E+01 2.07840E+01 0.00000E+00
 -1      1023 1.24756E+02 2.06251E+01 0.00000E+00
 -1      1024 8.58428E+01 1.97235E+01 0.00000E+00
 -1      1025 5.97000E+01 2.07840E+01 0.00000E+00
 -1      1026 4.47750E+01 2.07840E+01 0.00000E+00
 -1      1027 3.89250E+01 2.07840E+01 0.00000E+00
 -1      1028 1.26455E+02 1.84461E+01 0.00000E+00
 -1      1029 1.29732E+02 2.98883E+01 0.00000E+00
 -1      1030 3.59250E+01 2.07840E+01 0.00000E+00
 -1      1031 1.31092E+02 2.39262E+01 0.00000E+00
 -1      1032 2.69250E+01 2.07840E+01 0.00000E+00
 -1      1033 1.81860E+01 2.49781E+01 0.00000E+00
 -1      1034 2.11500E+01 2.92160E+01 0.00000E+00
 -1      1035 4.18500E+01 2.07840E+01 0.00000E+00
 -1      1036 2.99250E+01 2.07840E+01 0.00000E+00
 -1      1037 1.20819E+02 2.87751E+01 0.00000E+00
 -1      1038 3.29250E+01 2.07840E+01 0.00000E+00
 -1      1039 1.23201E+02 2.50938E+01 0.00000E+00
 -1      1040 1.83690E+01 2.78330E+01 0.00000E+00
 -1      1041 8.63131E+01 2.41985E+01 0.00000E+00
 -1      1042 4.77750E+01 2.07840E+01 0.00000E+00
 -1      1043 2.39250E+01 2.07840E+01 0.00000E+00
 -1      1044 5.07750E+01 2.07840E+01 0.00000E+00
 -1      1045 1.26201E+02 2.35676E+01 0.00000E+00
 -1      1046 8.36249E+01 2.07840E+01 0.00000E+00
 -1      1047 2.03055E+01 2.01102E+01 0.00000E+00
 -1      1048 5.52750E+01 2.33820E+01 0.00000E+00
 -1      1049 2.86500E+01 2.66180E+01 0.00000E+00
 -1      1050 3.16500E+01 2.66180E+01 0.00000E+00
 -1      1051 3.46500E+01 2.66180E+01 0.00000E+00
 -1      1052 3.76500E+01 2.66180E+01 0.00000E+00
 -1      1053 4.06500E+01 2.66180E+01 0.00000E+00
 -1      1054 4.36500E+01 2.66180E+01 0.00000E+00
 -1      1055 4.66500E+01 2.66180E+01 0.00000E+00
 -1      1056 4.96500E+01 2.66180E+01 0.00000E+00
 -1      1057 5.26500E+01 2.66180E+01 0.00000E+00
 -1      1058 5.56500E+01 2.66180E+01 0.00000E+00
 -1      1059 5.86500E+01 2.66180E+01 0.00000E+00
 -1      1060 6.16500E+01 2.66180E+01 0.00000E+00
 -1      1061 6.46500E+01 2.66180E+01 0.00000E+00
 -1      1062 6.76500E+01 2.66180E+01 0.00000E+00
 -1      1063 7.06500E+01 2.66180E+01 0.00000E+00
 -1      1064 7.36500E+01 2.66180E+01 0.00000E+00
 -1      1065 7.66500E+01 2.66180E+01 0.00000E+00
 -1      1066 7.96500E+01 2.66180E+01 0.00000E+00
 -1      1067 8.26500E+01 2.66180E+01 0.00000E+00
 -1      1068 2.09670E+01 2.63611E+01 0.00000E+00
 -1      1069 1.28896E+02 2.64016E+01 0.00000E+00
 -1      1070 3.44250E+01 2.33820E+01 0.00000E+00
 -1      1071 6.71250E+01 2.33820E+01 0.00000E+00
 -1      1072 6.41250E+01 2.33820E+01 0.00000E+00
 -1      1073 7.31250E+01 2.33820E+01 0.00000E+00
 -1      1074 7.61250E+01 2.33820E+01 0.00000E+00
 -1      1075 7.91250E+01 2.33820E+01 0.00000E+00
 -1      1076 3.14250E+01 2.33820E+01 0.00000E+00
 -1      1077 8.96185E+01 2.81363E+01 0.00000E+00
 -1      1078 2.09670E+01 2.34174E+01 0.00000E+00
 -1      1079 3.74250E+01 2.33820E+01 0.00000E+00
 -1      1080 2.84250E+01 2.33820E+01 0.00000E+00
 -1      1081 7.01250E+01 2.33820E+01 0.00000E+00
 -1      1082 2.39670E+01 2.63611E+01 0.00000E+00
 -1      1083 2.63085E+01 2.64896E+01 0.00000E+00
 -1      1084 8.21249E+01 2.33820E+01 0.00000E+00
 -1      1085 8.49690E+01 2.24913E+01 0.00000E+00
 -1      1086 1.26175E+02 2.63918E+01 0.00000E+00
 -1      1087 2.54250E+01 2.33820E+01 0.00000E+00
 -1      1088 5.82000E+01 2.33820E+01 0.00000E+00
 -1      1089 5.22750E+01 2.33820E+01 0.00000E+00
 -1      1090 6.12000E+01 2.33820E+01 0.00000E+00
 -1      1091 4.62750E+01 2.33820E+01 0.00000E+00
 -1      1092 4.03500E+01 2.33820E+01 0.00000E+00
 -1      1093 4.33125E+01 2.33820E+01 0.00000E+00
 -1      1094 4.92750E+01 2.33820E+01 0.00000E+00
 -1      1095 0.00000E+00 4.85250E+01 0.00000E+00
 -1      1096 0.00000E+00 4.55750E+01 0.00000E+00
 -1      1097 0.00000E+00 4.26250E+01 0.00000E+00
 -1      1098 0.00000E+00 3.96750E+01 0.00000E+00
 -1      1099 0.00000E+00 3.67250E+01 0.00000E+00
 -1      1100 0.00000E+00 3.38000E+01 0.00000E+00
 -1      1101 0.00000E+00 3.08750E+01 0.00000E+00
 -1      1102 0.00000E+00 2.79250E+01 0.00000E+00
 -1      1103 0.00000E+00 2.49750E+01 0.00000E+00
 -1      1104 0.00000E+00 2.20250E+01 0.00000E+00
 -1      1105 0.00000E+00 1.90750E+01 0.00000E+00
 -1      1106 0.00000E+00 1.61500E+01 0.00000E+00
 -1      1107 0.00000E+00 1.32250E+01 0.00000E+00
 -1      1108 0.00000E+00 1.02750E+01 0.00000E+00
 -1      1109 0.00000E+00 7.32500E+00 0.00000E+00
 -1      1110 0.00000E+00 4.37500E+00 0.00000E+00
 -1      1111 0.00000E+00 1.45000E+00 0.00000E+00
 -1      1112 1.57500E+00 5.00000E+01 0.00000E+00
 -1      1113 4.65000E+00 5.00000E+01 0.00000E+00
 -1      1114 7.65000E+00 5.00000E+01 0.00000E+00
 -1      1115 1.06500E+01 5.00000E+01 0.00000E+00
 -1      1116 1.36500E+01 5.00000E+01 0.00000E+00
 -1      1117 1.66500E+01 5.00000E+01 0.00000E+00
 -1      1118 1.96500E+01 5.00000E+01 0.00000E+00
 -1      1119 2.26500E+01 5.00000E+01 0.00000E+00
 -1      1120 2.56500E+01 5.00000E+01 0.00000E+00
 -1      1121 2.86500E+01 5.00000E+01 0.00000E+00
 -1      1122 3.16500E+01 5.00000E+01 0.00000E+00
 -1      1123 3.46500E+01 5.00000E+01 0.00000E+00
 -1      1124 3.76500E+01 5.00000E+01 0.00000E+00
 -1      1125 4.06500E+01 5.00000E+01 0.00000E+00
 -1      1126 4.36500E+01 5.00000E+01 0.00000E+00
 -1      1127 4.66500E+01 5.00000E+01 0.00000E+00
 -1      1128 4.96500E+01 5.00000E+01 0.00000E+00
 -1      1129 5.26500E+01 5.00000E+01 0.00000E+00
 -1      1130 5.56500E+01 5.00000E+01 0.00000E+00
 -1      1131 5.86500E+01 5.00000E+01 0.00000E+00
 -1      1132 6.16500E+01 5.00000E+01 0.00000E+00
 -1      1133 6.46500E+01 5.00000E+01 0.00000E+00
 -1      1134 6.76500E+01 5.00000E+01 0.00000E+00
 -1      1135 7.06500E+01 5.00000E+01 0.00000E+00
 -1      1136 7.36500E+01 5.00000E+01 0.00000E+00
 -1      1137 7.66500E+01 5.00000E+01 0.00000E+00
 -1      1138 7.96500E+01 5.00000E+01 0.00000E+00
 -1      1139 8.26500E+01 5.00000E+01 0.00000E+00
 -1      1140 8.56500E+01 5.00000E+01 0.00000E+00
 -1      1141 8.86500E+01 5.00000E+01 0.00000E+00
 -1      1142 9.16500E+01 5.00000E+01 0.00000E+00
 -1      1143 9.46500E+01 5.00000E+01 0.00000E+00
 -1      1144 9.76500E+01 5.00000E+01 0.00000E+00
 -1      1145 1.00650E+02 5.00000E+01 0.00000E+00
 -1      1146 1.03650E+02 5.00000E+01 0.00000E+00
 -1      1147 1.06650E+02 5.00000E+01 0.00000E+00
 -1      1148 1.09650E+02 5.00000E+01 0.00000E+00
 -1      1149 1.12650E+02 5.00000E+01 0.00000E+00
 -1      1150 1.15650E+02 5.00000E+01 0.00000E+00
 -1      1151 1.18650E+02 5.00000E+01 0.00000E+00
 -1      1152 1.21650E+02 5.00000E+01 0.00000E+00
 -1      1153 1.24650E+02 5.00000E+01 0.00000E+00
 -1      1154 1.27650E+02 5.00000E+01 0.00000E+00
 -1      1155 1.30650E+02 5.00000E+01 0.00000E+00
 -1      1156 1.33650E+02 5.00000E+01 0.00000E+00
 -1      1157 1.36650E+02 5.00000E+01 0.00000E+00
 -1      1158 1.39650E+02 5.00000E+01 0.00000E+00
 -1      1159 1.42650E+02 5.00000E+01 0.00000E+00
 -1      1160 1.45650E+02 5.00000E+01 0.00000E+00
 -1      1161 1.48575E+02 5.00000E+01 0.00000E+00
 -1      1162 1.50000E+00 0.00000E+00 0.00000E+00
 -1      1163 4.50000E+00 0.00000E+00 0.00000E+00
 -1      1164 7.50000E+00 0.00000E+00 0.00000E+00
 -1      1165 1.05000E+01 0.00000E+00 0.00000E+00
 -1      1166 1.35000E+01 0.00000E+00 0.00000E+00
 -1      1167 1.65000E+01 0.00000E+00 0.00000E+00
 -1      1168 1.95000E+01 0.00000E+00 0.00000E+00
 -1      1169 2.24250E+01 0.00000E+00 0.00000E+00
 -1      1170 2.53500E+01 0.00000E+00 0.00000E+00
 -1      1171 2.83500E+01 0.00000E+00 0.00000E+00
 -1      1172 3.13500E+01 0.00000E+00 0.00000E+00
 -1      1173 3.43500E+01 0.00000E+00 0.00000E+00
 -1      1174 3.73500E+01 0.00000E+00 0.00000E+00
 -1      1175 4.03500E+01 0.00000E+00 0.00000E+00
 -1      1176 4.33500E+01 0.00000E+00 0.00000E+00
 -1      1177 4.62750E+01 0.00000E+00 0.00000E+00
 -1      1178 4.92000E+01 0.00000E+00 0.00000E+00
 -1      1179 5.22000E+01 0.00000E+00 0.00000E+00
 -1      1180 5.52000E+01 0.00000E+00 0.00000E+00
 -1      1181 5.82000E+01 0.00000E+00 0.00000E+00
 -1      1182 6.12000E+01 0.00000E+00 0.00000E+00
 -1      1183 6.42000E+01 0.00000E+00 0.00000E+00
 -1      1184 6.72000E+01 0.00000E+00 0.00000E+00
 -1      1185 7.01250E+01 0.00000E+00 0.00000E+00
 -1      1186 7.30500E+01 0.00000E+00 0.00000E+00
 -1      1187 7.60500E+01 0.00000E+00 0.00000E+00
 -1      1188 7.90500E+01 0.00000E+00 0.00000E+00
 -1      1189 8.20500E+01 0.00000E+00 0.00000E+00
 -1      1190 8.50500E+01 0.00000E+00 0.00000E+00
 -1      1191 8.80500E+01 0.00000E+00 0.00000E+00
 -1      1192 9.10500E+01 0.00000E+00 0.00000E+00
 -1      1193 9.39750E+01 0.00000E+00 0.00000E+00
 -1      1194 9.69000E+01 0.00000E+00 0.00000E+00
 -1      1195 9.96750E+01 0.00000E+00 0.00000E+00
 -1      1196 1.02375E+02 0.00000E+00 0.00000E+00
 -1      1197 1.05225E+02 0.00000E+00 0.00000E+00
 -1      1198 1.07925E+02 0.00000E+00 0.00000E+00
 -1      1199 1.10400E+02 0.00000E+00 0.00000E+00
 -1      1200 1.12950E+02 0.00000E+00 0.00000E+00
 -1      1201 1.15800E+02 0.00000E+00 0.00000E+00
 -1      1202 1.18800E+02 0.00000E+00 0.00000E+00
 -1      1203 1.21800E+02 0.00000E+00 0.00000E+00
 -1      1204 1.24800E+02 0.00000E+00 0.00000E+00
 -1      1205 1.27725E+02 0.00000E+00 0.00000E+00
 -1      1206 1.30650E+02 0.00000E+00 0.00000E+00
 -1      1207 1.33650E+02 0.00000E+00 0.00000E+00
 -1      1208 1.36650E+02 0.00000E+00 0.00000E+00
 -1      1209 1.39650E+02 0.00000E+00 0.00000E+00
 -1      1210 1.42650E+02 0.00000E+00 0.00000E+00
 -1      1211 1.45650E+02 0.00000E+00 0.00000E+00
 -1      1212 1.48575E+02 0.00000E+00 0.00000E+00
 -1      1213 1.50000E+02 1.47500E+00 0.00000E+00
 -1      1214 1.50000E+02 4.42500E+00 0.00000E+00
 -1      1215 1.50000E+02 7.37500E+00 0.00000E+00
 -1      1216 1.50000E+02 1.03250E+01 0.00000E+00
 -1      1217 1.50000E+02 1.32750E+01 0.00000E+00
 -1      1218 1.50000E+02 1.62000E+01 0.00000E+00
 -1      1219 1.50000E+02 1.91250E+01 0.00000E+00
 -1      1220 1.50000E+02 2.20750E+01 0.00000E+00
 -1      1221 1.50000E+02 2.50250E+01 0.00000E+00
 -1      1222 1.50000E+02 2.79750E+01 0.00000E+00
 -1      1223 1.50000E+02 3.09250E+01 0.00000E+00
 -1      1224 1.50000E+02 3.38500E+01 0.00000E+00
 -1      1225 1.50000E+02 3.67750E+01 0.00000E+00
 -1      1226 1.50000E+02 3.97250E+01 0.00000E+00
 -1      1227 1.50000E+02 4.26750E+01 0.00000E+00
 -1      1228 1.50000E+02 4.56250E+01 0.00000E+00
 -1      1229 1.50000E+02 4.85500E+01 0.00000E+00
 -1      1230 1.11232E+02 1.26397E+01 0.00000E+00
 -1      1231 1.10907E+02 1.11733E+01 0.00000E+00
 -1      1232 1.10285E+02 9.82640E+00 0.00000E+00
 -1      1233 1.09409E+02 8.65779E+00 0.00000E+00
 -1      1234 1.08303E+02 7.69061E+00 0.00000E+00
 -1      1235 1.06973E+02 6.95687E+00 0.00000E+00
 -1      1236 1.05461E+02 6.51744E+00 0.00000E+00
 -1      1237 1.03901E+02 6.42639E+00 0.00000E+00
 -1      1238 1.02461E+02 6.65558E+00 0.00000E+00
 -1      1239 1.01069E+02 7.19418E+00 0.00000E+00
 -1      1240 9.98096E+01 8.02612E+00 0.00000E+00
 -1      1241 9.87678E+01 9.09611E+00 0.00000E+00
 -1      1242 9.79881E+01 1.03395E+01 0.00000E+00
 -1      1243 9.74978E+01 1.16668E+01 0.00000E+00
 -1      1244 9.72801E+01 1.31662E+01 0.00000E+00
 -1      1245 9.73954E+01 1.47059E+01 0.00000E+00
 -1      1246 9.78351E+01 1.61586E+01 0.00000E+00
 -1      1247 9.85609E+01 1.74588E+01 0.00000E+00
 -1      1248 9.95040E+01 1.85380E+01 0.00000E+00
 -1      1249 1.00660E+02 1.94106E+01 0.00000E+00
 -1      1250 1.01946E+02 2.00174E+01 0.00000E+00
 -1      1251 1.03313E+02 2.03499E+01 0.00000E+00
 -1      1252 1.04775E+02 2.03985E+01 0.00000E+00
 -1      1253 1.06189E+02 2.01499E+01 0.00000E+00
 -1      1254 1.07506E+02 1.96264E+01 0.00000E+00
 -1      1255 1.08705E+02 1.88366E+01 0.00000E+00
 -1      1256 1.09686E+02 1.78577E+01 0.00000E+00
 -1      1257 1.10446E+02 1.67222E+01 0.00000E+00
 -1      1258 1.10974E+02 1.54493E+01 0.00000E+00
 -1      1259 1.11243E+02 1.40959E+01 0.00000E+00
 -1      1260 1.57500E+00 4.85250E+01 0.00000E+00
 -1      1261 1.29900E+00 4.48375E+01 0.00000E+00
 -1      1262 1.29900E+00 4.63125E+01 0.00000E+00
 -1      1263 1.29900E+00 4.18875E+01 0.00000E+00
 -1      1264 1.29900E+00 4.33625E+01 0.00000E+00
 -1      1265 2.59800E+00 4.41000E+01 0.00000E+00
 -1      1266 1.29900E+00 3.89375E+01 0.00000E+00
 -1      1267 1.29900E+00 4.04125E+01 0.00000E+00
 -1      1268 2.59800E+00 4.11500E+01 0.00000E+00
 -1      1269 1.29900E+00 3.59875E+01 0.00000E+00
 -1      1270 1.29900E+00 3.74625E+01 0.00000E+00
 -1      1271 2.59800E+00 3.82000E+01 0.00000E+00
 -1      1272 1.29900E+00 3.30875E+01 0.00000E+00
 -1      1273 1.29900E+00 3.45375E+01 0.00000E+00
 -1      1274 2.59800E+00 3.52750E+01 0.00000E+00
 -1      1275 1.29900E+00 3.01375E+01 0.00000E+00
 -1      1276 1.29900E+00 3.16125E+01 0.00000E+00
 -1      1277 2.59800E+00 3.23500E+01 0.00000E+00
 -1      1278 1.29900E+00 2.71875E+01 0.00000E+00
 -1      1279 1.29900E+00 2.86625E+01 0.00000E+00
 -1      1280 2.59800E+00 2.94000E+01 0.00000E+00
 -1      1281 1.29900E+00 2.42375E+01 0.00000E+00
 -1      1282 1.29900E+00 2.57125E+01 0.00000E+00
 -1      1283 2.59800E+00 2.64500E+01 0.00000E+00
 -1      1284 1.29900E+00 2.12875E+01 0.00000E+00
 -1      1285 1.29900E+00 2.27625E+01 0.00000E+00
 -1      1286 2.59800E+00 2.35000E+01 0.00000E+00
 -1      1287 1.29900E+00 1.83375E+01 0.00000E+00
 -1      1288 1.29900E+00 1.98125E+01 0.00000E+00
 -1      1289 2.59800E+00 2.05500E+01 0.00000E+00
 -1      1290 1.29900E+00 1.54375E+01 0.00000E+00
 -1      1291 1.29900E+00 1.68875E+01 0.00000E+00
 -1      1292 2.59800E+00 1.76250E+01 0.00000E+00
 -1      1293 1.29900E+00 1.24875E+01 0.00000E+00
 -1      1294 1.29900E+00 1.39625E+01 0.00000E+00
 -1      1295 2.59800E+00 1.47000E+01 0.00000E+00
 -1      1296 1.29900E+00 9.53750E+00 0.00000E+00
 -1      1297 1.29900E+00 1.10125E+01 0.00000E+00
 -1      1298 2.59800E+00 1.17500E+01 0.00000E+00
 -1      1299 1.29900E+00 6.58750E+00 0.00000E+00
 -1      1300 1.29900E+00 8.06250E+00 0.00000E+00
 -1      1301 2.59800E+00 8.80000E+00 0.00000E+00
 -1      1302 1.29900E+00 3.63750E+00 0.00000E+00
 -1      1303 1.29900E+00 5.11250E+00 0.00000E+00
 -1      1304 2.59800E+00 5.85000E+00 0.00000E+00
 -1      1305 1.50000E+00 1.45000E+00 0.00000E+00
 -1      1306 3.90000E+00 4.87010E+01 0.00000E+00
 -1      1307 5.40000E+00 4.87010E+01 0.00000E+00
 -1      1308 6.90000E+00 4.87010E+01 0.00000E+00
 -1      1309 8.40000E+00 4.87010E+01 0.00000E+00
 -1      1310 6.15000E+00 4.74020E+01 0.00000E+00
 -1      1311 9.90000E+00 4.87010E+01 0.00000E+00
 -1      1312 1.14000E+01 4.87010E+01 0.00000E+00
 -1      1313 9.15000E+00 4.74020E+01 0.00000E+00
 -1      1314 1.29000E+01 4.87010E+01 0.00000E+00
 -1      1315 1.44000E+01 4.87010E+01 0.00000E+00
 -1      1316 1.21500E+01 4.74020E+01 0.00000E+00
 -1      1317 1.59000E+01 4.87010E+01 0.00000E+00
 -1      1318 1.74000E+01 4.87010E+01 0.00000E+00
 -1      1319 1.51500E+01 4.74020E+01 0.00000E+00
 -1      1320 1.89000E+01 4.87010E+01 0.00000E+00
 -1      1321 2.04000E+01 4.87010E+01 0.00000E+00
 -1      1322 1.81500E+01 4.74020E+01 0.00000E+00
 -1      1323 2.19000E+01 4.87010E+01 0.00000E+00
 -1      1324 2.34000E+01 4.87010E+01 0.00000E+00
 -1      1325 2.11500E+01 4.74020E+01 0.00000E+00
 -1      1326 2.49000E+01 4.87010E+01 0.00000E+00
 -1      1327 2.64000E+01 4.87010E+01 0.00000E+00
 -1      1328 2.41500E+01 4.74020E+01 0.00000E+00
 -1      1329 2.79000E+01 4.87010E+01 0.00000E+00
 -1      1330 2.94000E+01 4.87010E+01 0.00000E+00
 -1      1331 2.71500E+01 4.74020E+01 0.00000E+00
 -1      1332 3.09000E+01 4.87010E+01 0.00000E+00
 -1      1333 3.24000E+01 4.87010E+01 0.00000E+00
 -1      1334 3.01500E+01 4.74020E+01 0.00000E+00
 -1      1335 3.39000E+01 4.87010E+01 0.00000E+00
 -1      1336 3.54000E+01 4.87010E+01 0.00000E+00
 -1      1337 3.31500E+01 4.74020E+01 0.00000E+00
 -1      1338 3.69000E+01 4.87010E+01 0.00000E+00
 -1      1339 3.84000E+01 4.87010E+01 0.00000E+00
 -1      1340 3.61500E+01 4.74020E+01 0.00000E+00
 -1      1341 3.99000E+01 4.87010E+01 0.00000E+00
 -1      1342 4.14000E+01 4.87010E+01 0.00000E+00
 -1      1343 3.91500E+01 4.74020E+01 0.00000E+00
 -1      1344 4.29000E+01 4.87010E+01 0.00000E+00
 -1      1345 4.44000E+01 4.87010E+01 0.00000E+00
 -1      1346 4.21500E+01 4.74020E+01 0.00000E+00
 -1      1347 4.59000E+01 4.87010E+01 0.00000E+00
 -1      1348 4.74000E+01 4.87010E+01 0.00000E+00
 -1      1349 4.51500E+01 4.74020E+01 0.00000E+00
 -1      1350 4.89000E+01 4.87010E+01 0.00000E+00
 -1      1351 5.04000E+01 4.87010E+01 0.00000E+00
 -1      1352 4.81500E+01 4.74020E+01 0.00000E+00
 -1      1353 5.19000E+01 4.87010E+01 0.00000E+00
 -1      1354 5.34000E+01 4.87010E+01 0.00000E+00
 -1      1355 5.11500E+01 4.74020E+01 0.00000E+00
 -1      1356 5.49000E+01 4.87010E+01 0.00000E+00
 -1      1357 5.64000E+01 4.87010E+01 0.00000E+00
 -1      1358 5.41500E+01 4.74020E+01 0.00000E+00
 -1      1359 5.79000E+01 4.87010E+01 0.00000E+00
 -1      1360 5.94000E+01 4.87010E+01 0.00000E+00
 -1      1361 5.71500E+01 4.74020E+01 0.00000E+00
 -1      1362 6.09000E+01 4.87010E+01 0.00000E+00
 -1      1363 6.24000E+01 4.87010E+01 0.00000E+00
 -1      1364 6.01500E+01 4.74020E+01 0.00000E+00
 -1      1365 6.39000E+01 4.87010E+01 0.00000E+00
 -1      1366 6.54000E+01 4.87010E+01 0.00000E+00
 -1      1367 6.31500E+01 4.74020E+01 0.00000E+00
 -1      1368 6.69000E+01 4.87010E+01 0.00000E+00
 -1      1369 6.84000E+01 4.87010E+01 0.00000E+00
 -1      1370 6.61500E+01 4.74020E+01 0.00000E+00
 -1      1371 6.99000E+01 4.87010E+01 0.00000E+00
 -1      1372 7.14000E+01 4.87010E+01 0.00000E+00
 -1      1373 6.91500E+01 4.74020E+01 0.00000E+00
 -1      1374 7.29000E+01 4.87010E+01 0.00000E+00
 -1      1375 7.44000E+01 4.87010E+01 0.00000E+00
 -1      1376 7.21500E+01 4.74020E+01 0.00000E+00
 -1      1377 7.59000E+01 4.87010E+01 0.00000E+00
 -1      1378 7.74000E+01 4.87010E+01 0.00000E+00
 -1      1379 7.51500E+01 4.74020E+01 0.00000E+00
 -1      1380 7.89000E+01 4.87010E+01 0.00000E+00
 -1      1381 8.04000E+01 4.87010E+01 0.00000E+00
 -1      1382 7.81500E+01 4.74020E+01 0.00000E+00
 -1      1383 8.19000E+01 4.87010E+01 0.00000E+00
 -1      1384 8.34000E+01 4.87010E+01 0.00000E+00
 -1      1385 8.11500E+01 4.74020E+01 0.00000E+00
 -1      1386 8.49000E+01 4.87010E+01 0.00000E+00
 -1      1387 8.64000E+01 4.87010E+01 0.00000E+00
 -1      1388 8.41500E+01 4.74020E+01 0.00000E+00
 -1      1389 8.79000E+01 4.87010E+01 0.00000E+00
 -1      1390 8.94000E+01 4.87010E+01 0.00000E+00
 -1      1391 8.71500E+01 4.74020E+01 0.00000E+00
 -1      1392 9.09000E+01 4.87010E+01 0.00000E+00
 -1      1393 9.24000E+01 4.87010E+01 0.00000E+00
 -1      1394 9.01500E+01 4.74020E+01 0.00000E+00
 -1      1395 9.39000E+01 4.87010E+01 0.00000E+00
 -1      1396 9.54000E+01 4.87010E+01 0.00000E+00
 -1      1397 9.31500E+01 4.74020E+01 0.00000E+00
 -1      1398 9.69000E+01 4.87010E+01 0.00000E+00
 -1      1399 9.84000E+01 4.87010E+01 0.00000E+00
 -1      1400 9.61500E+01 4.74020E+01 0.00000E+00
 -1      1401 9.99000E+01 4.87010E+01 0.00000E+00
 -1      1402 1.01400E+02 4.87010E+01 0.00000E+00
 -1      1403 9.91500E+01 4.74020E+01 0.00000E+00
 -1      1404 1.02900E+02 4.87010E+01 0.00000E+00
 -1      1405 1.04400E+02 4.87010E+01 0.00000E+00
 -1      1406 1.02150E+02 4.74020E+01 0.00000E+00
 -1      1407 1.05900E+02 4.87010E+01 0.00000E+00
 -1      1408 1.07400E+02 4.87010E+01 0.00000E+00
 -1      1409 1.05150E+02 4.74020E+01 0.00000E+00
 -1      1410 1.08900E+02 4.87010E+01 0.00000E+00
 -1      1411 1.10400E+02 4.87010E+01 0.00000E+00
 -1      1412 1.08150E+02 4.74020E+01 0.00000E+00
 -1      1413 1.11900E+02 4.87010E+01 0.00000E+00
 -1      1414 1.13400E+02 4.87010E+01 0.00000E+00
 -1      1415 1.11150E+02 4.74020E+01 0.00000E+00
 -1      1416 1.14900E+02 4.87010E+01 0.00000E+00
 -1      1417 1.16400E+02 4.87010E+01 0.00000E+00
 -1      1418 1.14150E+02 4.74020E+01 0.00000E+00
 -1      1419 1.17900E+02 4.87010E+01 0.00000E+00
 -1      1420 1.19400E+02 4.87010E+01 0.00000E+00
 -1      1421 1.17150E+02 4.74020E+01 0.00000E+00
 -1      1422 1.20900E+02 4.87010E+01 0.00000E+00
 -1      1423 1.22400E+02 4.87010E+01 0.00000E+00
 -1      1424 1.20150E+02 4.74020E+01 0.00000E+00
 -1      1425 1.23900E+02 4.87010E+01 0.00000E+00
 -1      1426 1.25400E+02 4.87010E+01 0.00000E+00
 -1      1427 1.23150E+02 4.74020E+01 0.00000E+00
 -1      1428 1.26900E+02 4.87010E+01 0.00000E+00
 -1      1429 1.28400E+02 4.87010E+01 0.00000E+00
 -1      1430 1.26150E+02 4.74020E+01 0.00000E+00
 -1      1431 1.29900E+02 4.87010E+01 0.00000E+00
 -1      1432 1.31400E+02 4.87010E+01 0.00000E+00
 -1      1433 1.29150E+02 4.74020E+01 0.00000E+00
 -1      1434 1.32900E+02 4.87010E+01 0.00000E+00
 -1      1435 1.34400E+02 4.87010E+01 0.00000E+00
 -1      1436 1.32150E+02 4.74020E+01 0.00000E+00
 -1      1437 1.35900E+02 4.87010E+01 0.00000E+00
 -1      1438 1.37400E+02 4.87010E+01 0.00000E+00
 -1      1439 1.35150E+02 4.74020E+01 0.00000E+00
 -1      1440 1.38900E+02 4.87010E+01 0.00000E+00
 -1      1441 1.40400E+02 4.87010E+01 0.00000E+00
 -1      1442 1.38150E+02 4.74020E+01 0.00000E+00
 -1      1443 1.41900E+02 4.87010E+01 0.00000E+00
 -1      1444 1.43400E+02 4.87010E+01 0.00000E+00
 -1      1445 1.41150E+02 4.74020E+01 0.00000E+00
 -1      1446 1.44900E+02 4.87010E+01 0.00000E+00
 -1      1447 1.46400E+02 4.87010E+01 0.00000E+00
 -1      1448 1.44150E+02 4.74020E+01 0.00000E+00
 -1      1449 1.48575E+02 4.85500E+01 0.00000E+00
 -1      1450 1.47825E+02 4.72510E+01 0.00000E+00
 -1      1451 5.25000E+00 1.29900E+00 0.00000E+00
 -1      1452 3.75000E+00 1.29900E+00 0.00000E+00
 -1      1453 8.25000E+00 1.29900E+00 0.00000E+00
 -1      1454 6.75000E+00 1.29900E+00 0.00000E+00
 -1      1455 6.00000E+00 2.59800E+00 0.00000E+00
 -1      1456 1.12500E+01 1.29900E+00 0.00000E+00
 -1      1457 9.75000E+00 1.29900E+00 0.00000E+00
 -1      1458 9.00000E+00 2.59800E+00 0.00000E+00
 -1      1459 1.42500E+01 1.29900E+00 0.00000E+00
 -1      1460 1.27500E+01 1.29900E+00 0.00000E+00
 -1      1461 1.20000E+01 2.59800E+00 0.00000E+00
 -1      1462 1.72500E+01 1.29900E+00 0.00000E+00
 -1      1463 1.57500E+01 1.29900E+00 0.00000E+00
 -1      1464 1.50000E+01 2.59800E+00 0.00000E+00
 -1      1465 2.02500E+01 1.29900E+00 0.00000E+00
 -1      1466 1.87500E+01 1.29900E+00 0.00000E+00
 -1      1467 1.80000E+01 2.59800E+00 0.00000E+00
 -1      1468 2.31000E+01 1.29900E+00 0.00000E+00
 -1      1469 2.16750E+01 1.29900E+00 0.00000E+00
 -1      1470 2.09250E+01 2.59800E+00 0.00000E+00
 -1      1471 2.61000E+01 1.29900E+00 0.00000E+00
 -1      1472 2.46000E+01 1.29900E+00 0.00000E+00
 -1      1473 2.38500E+01 2.59800E+00 0.00000E+00
 -1      1474 2.91000E+01 1.29900E+00 0.00000E+00
 -1      1475 2.76000E+01 1.29900E+00 0.00000E+00
 -1      1476 2.68500E+01 2.59800E+00 0.00000E+00
 -1      1477 3.21000E+01 1.29900E+00 0.00000E+00
 -1      1478 3.06000E+01 1.29900E+00 0.00000E+00
 -1      1479 2.98500E+01 2.59800E+00 0.00000E+00
 -1      1480 3.51000E+01 1.29900E+00 0.00000E+00
 -1      1481 3.36000E+01 1.29900E+00 0.00000E+00
 -1      1482 3.28500E+01 2.59800E+00 0.00000E+00
 -1      1483 3.81000E+01 1.29900E+00 0.00000E+00
 -1      1484 3.66000E+01 1.29900E+00 0.00000E+00
 -1      1485 3.58500E+01 2.59800E+00 0.00000E+00
 -1      1486 4.11000E+01 1.29900E+00 0.00000E+00
 -1      1487 3.96000E+01 1.29900E+00 0.00000E+00
 -1      1488 3.88500E+01 2.59800E+00 0.00000E+00
 -1      1489 4.41000E+01 1.29900E+00 0.00000E+00
 -1      1490 4.26000E+01 1.29900E+00 0.00000E+00
 -1      1491 4.18500E+01 2.59800E+00 0.00000E+00
 -1      1492 4.69500E+01 1.29900E+00 0.00000E+00
 -1      1493 4.55250E+01 1.29900E+00 0.00000E+00
 -1      1494 4.47750E+01 2.59800E+00 0.00000E+00
 -1      1495 4.99500E+01 1.29900E+00 0.00000E+00
 -1      1496 4.84500E+01 1.29900E+00 0.00000E+00
 -1      1497 4.77000E+01 2.59800E+00 0.00000E+00
 -1      1498 5.29500E+01 1.29900E+00 0.00000E+00
 -1      1499 5.14500E+01 1.29900E+00 0.00000E+00
 -1      1500 5.07000E+01 2.59800E+00 0.00000E+00
 -1      1501 5.59500E+01 1.29900E+00 0.00000E+00
 -1      1502 5.44500E+01 1.29900E+00 0.00000E+00
 -1      1503 5.37000E+01 2.59800E+00 0.00000E+00
 -1      1504 5.89500E+01 1.29900E+00 0.00000E+00
 -1      1505 5.74500E+01 1.29900E+00 0.00000E+00
 -1      1506 5.67000E+01 2.59800E+00 0.00000E+00
 -1      1507 6.19500E+01 1.29900E+00 0.00000E+00
 -1      1508 6.04500E+01 1.29900E+00 0.00000E+00
 -1      1509 5.97000E+01 2.59800E+00 0.00000E+00
 -1      1510 6.49500E+01 1.29900E+00 0.00000E+00
 -1      1511 6.34500E+01 1.29900E+00 0.00000E+00
 -1      1512 6.27000E+01 2.59800E+00 0.00000E+00
 -1      1513 6.79500E+01 1.29900E+00 0.00000E+00
 -1      1514 6.64500E+01 1.29900E+00 0.00000E+00
 -1      1515 6.57000E+01 2.59800E+00 0.00000E+00
 -1      1516 7.08000E+01 1.29900E+00 0.00000E+00
 -1      1517 6.93750E+01 1.29900E+00 0.00000E+00
 -1      1518 6.86250E+01 2.59800E+00 0.00000E+00
 -1      1519 7.38000E+01 1.29900E+00 0.00000E+00
 -1      1520 7.23000E+01 1.29900E+00 0.00000E+00
 -1      1521 7.15500E+01 2.59800E+00 0.00000E+00
 -1      1522 7.68000E+01 1.29900E+00 0.00000E+00
 -1      1523 7.53000E+01 1.29900E+00 0.00000E+00
 -1      1524 7.45500E+01 2.59800E+00 0.00000E+00
 -1      1525 7.98000E+01 1.29900E+00 0.00000E+00
 -1      1526 7.83000E+01 1.29900E+00 0.00000E+00
 -1      1527 7.75500E+01 2.59800E+00 0.00000E+00
 -1      1528 8.28000E+01 1.29900E+00 0.00000E+00
 -1      1529 8.13000E+01 1.29900E+00 0.00000E+00
 -1      1530 8.05500E+01 2.59800E+00 0.00000E+00
 -1      1531 8.58000E+01 1.29900E+00 0.00000E+00
 -1      1532 8.43000E+01 1.29900E+00 0.00000E+00
 -1      1533 8.35500E+01 2.59800E+00 0.00000E+00
 -1      1534 8.88000E+01 1.29900E+00 0.00000E+00
 -1      1535 8.73000E+01 1.29900E+00 0.00000E+00
 -1      1536 8.65500E+01 2.59800E+00 0.00000E+00
 -1      1537 9.18000E+01 1.29900E+00 0.00000E+00
 -1      1538 9.03000E+01 1.29900E+00 0.00000E+00
 -1      1539 8.95500E+01 2.59800E+00 0.00000E+00
 -1      1540 9.46500E+01 1.29900E+00 0.00000E+00
 -1      1541 9.32250E+01 1.29900E+00 0.00000E+00
 -1      1542 9.24750E+01 2.59800E+00 0.00000E+00
 -1      1543 9.76500E+01 1.29900E+00 0.00000E+00
 -1      1544 9.61500E+01 1.29900E+00 0.00000E+00
 -1      1545 9.54000E+01 2.59800E+00 0.00000E+00
 -1      1546 1.00200E+02 1.29900E+00 0.00000E+00
 -1      1547 9.89250E+01 1.29900E+00 0.00000E+00
 -1      1548 9.81750E+01 2.59800E+00 0.00000E+00
 -1      1549 1.03050E+02 1.29900E+00 0.00000E+00
 -1      1550 1.01625E+02 1.29900E+00 0.00000E+00
 -1      1551 1.00875E+02 2.59800E+00 0.00000E+00
 -1      1552 1.05900E+02 1.29900E+00 0.00000E+00
 -1      1553 1.04475E+02 1.29900E+00 0.00000E+00
 -1      1554 1.03725E+02 2.59800E+00 0.00000E+00
 -1      1555 1.08450E+02 1.29900E+00 0.00000E+00
 -1      1556 1.07175E+02 1.29900E+00 0.00000E+00
 -1      1557 1.06425E+02 2.59800E+00 0.00000E+00
 -1      1558 1.10850E+02 1.29900E+00 0.00000E+00
 -1      1559 1.09650E+02 1.29900E+00 0.00000E+00
 -1      1560 1.08900E+02 2.59800E+00 0.00000E+00
 -1      1561 1.13550E+02 1.29900E+00 0.00000E+00
 -1      1562 1.12200E+02 1.29900E+00 0.00000E+00
 -1      1563 1.11450E+02 2.59800E+00 0.00000E+00
 -1      1564 1.16550E+02 1.29900E+00 0.00000E+00
 -1      1565 1.15050E+02 1.29900E+00 0.00000E+00
 -1      1566 1.14300E+02 2.59800E+00 0.00000E+00
 -1      1567 1.19550E+02 1.29900E+00 0.00000E+00
 -1      1568 1.18050E+02 1.29900E+00 0.00000E+00
 -1      1569 1.17300E+02 2.59800E+00 0.00000E+00
 -1      1570 1.22550E+02 1.29900E+00 0.00000E+00
 -1      1571 1.21050E+02 1.29900E+00 0.00000E+00
 -1      1572 1.20300E+02 2.59800E+00 0.00000E+00
 -1      1573 1.25550E+02 1.29900E+00 0.00000E+00
 -1      1574 1.24050E+02 1.29900E+00 0.00000E+00
 -1      1575 1.23300E+02 2.59800E+00 0.00000E+00
 -1      1576 1.28400E+02 1.29900E+00 0.00000E+00
 -1      1577 1.26975E+02 1.29900E+00 0.00000E+00
 -1      1578 1.26225E+02 2.59800E+00 0.00000E+00
 -1      1579 1.31400E+02 1.29900E+00 0.00000E+00
 -1      1580 1.29900E+02 1.29900E+00 0.00000E+00
 -1      1581 1.29150E+02 2.59800E+00 0.00000E+00
 -1      1582 1.34400E+02 1.29900E+00 0.00000E+00
 -1      1583 1.32900E+02 1.29900E+00 0.00000E+00
 -1      1584 1.32150E+02 2.59800E+00 0.00000E+00
 -1      1585 1.37400E+02 1.29900E+00 0.00000E+00
 -1      1586 1.35900E+02 1.29900E+00 0.00000E+00
 -1      1587 1.35150E+02 2.59800E+00 0.00000E+00
 -1      1588 1.40400E+02 1.29900E+00 0.00000E+00
 -1      1589 1.38900E+02 1.29900E+00 0.00000E+00
 -1      1590 1.38150E+02 2.59800E+00 0.00000E+00
 -1      1591 1.43400E+02 1.29900E+00 0.00000E+00
 -1      1592 1.41900E+02 1.29900E+00 0.00000E+00
 -1      1593 1.41150E+02 2.59800E+00 0.00000E+00
 -1      1594 1.46400E+02 1.29900E+00 0.00000E+00
 -1      1595 1.44900E+02 1.29900E+00 0.00000E+00
 -1      1596 1.44150E+02 2.59800E+00 0.00000E+00
 -1      1597 1.48575E+02 1.47500E+00 0.00000E+00
 -1      1598 1.48701E+02 5.16250E+00 0.00000E+00
 -1      1599 1.48701E+02 3.68750E+00 0.00000E+00
 -1      1600 1.48701E+02 8.11250E+00 0.00000E+00
 -1      1601 1.48701E+02 6.63750E+00 0.00000E+00
 -1      1602 1.47402E+02 5.90000E+00 0.00000E+00
 -1      1603 1.48701E+02 1.10625E+01 0.00000E+00
 -1      1604 1.48701E+02 9.58750E+00 0.00000E+00
 -1      1605 1.47402E+02 8.85000E+00 0.00000E+00
 -1      1606 1.48701E+02 1.40125E+01 0.00000E+00
 -1      1607 1.48701E+02 1.25375E+01 0.00000E+00
 -1      1608 1.47402E+02 1.18000E+01 0.00000E+00
 -1      1609 1.48701E+02 1.69125E+01 0.00000E+00
 -1      1610 1.48701E+02 1.54625E+01 0.00000E+00
 -1      1611 1.47402E+02 1.47250E+01 0.00000E+00
 -1      1612 1.48701E+02 1.98625E+01 0.00000E+00
 -1      1613 1.48701E+02 1.83875E+01 0.00000E+00
 -1      1614 1.47402E+02 1.76500E+01 0.00000E+00
 -1      1615 1.48701E+02 2.28125E+01 0.00000E+00
 -1      1616 1.48701E+02 2.13375E+01 0.00000E+00
 -1      1617 1.47402E+02 2.06000E+01 0.00000E+00
 -1      1618 1.48701E+02 2.57625E+01 0.00000E+00
 -1      1619 1.48701E+02 2.42875E+01 0.00000E+00
 -1      1620 1.47402E+02 2.35500E+01 0.00000E+00
 -1      1621 1.48701E+02 2.87125E+01 0.00000E+00
 -1      1622 1.48701E+02 2.72375E+01 0.00000E+00
 -1      1623 1.47402E+02 2.65000E+01 0.00000E+00
 -1      1624 1.48701E+02 3.16625E+01 0.00000E+00
 -1      1625 1.48701E+02 3.01875E+01 0.00000E+00
 -1      1626 1.47402E+02 2.94500E+01 0.00000E+00
 -1      1627 1.48701E+02 3.45625E+01 0.00000E+00
 -1      1628 1.48701E+02 3.31125E+01 0.00000E+00
 -1      1629 1.47402E+02 3.23750E+01 0.00000E+00
 -1      1630 1.48701E+02 3.75125E+01 0.00000E+00
 -1      1631 1.48701E+02 3.60375E+01 0.00000E+00
 -1      1632 1.47402E+02 3.53000E+01 0.00000E+00
 -1      1633 1.48701E+02 4.04625E+01 0.00000E+00
 -1      1634 1.48701E+02 3.89875E+01 0.00000E+00
 -1      1635 1.47402E+02 3.82500E+01 0.00000E+00
 -1      1636 1.48701E+02 4.34125E+01 0.00000E+00
 -1      1637 1.48701E+02 4.19375E+01 0.00000E+00
 -1      1638 1.47402E+02 4.12000E+01 0.00000E+00
 -1      1639 1.48263E+02 4.60692E+01 0.00000E+00
 -1      1640 1.48263E+02 4.45942E+01 0.00000E+00
 -1      1641 1.46964E+02 4.38568E+01 0.00000E+00
 -1      1642 1.46088E+02 4.62202E+01 0.00000E+00
 -1      1643 1.11790E+02 1.21867E+01 0.00000E+00
 -1      1644 1.11877E+02 1.29585E+01 0.00000E+00
 -1      1645 1.11329E+02 1.06474E+01 0.00000E+00
 -1      1646 1.11561E+02 1.13348E+01 0.00000E+00
 -1      1647 1.10648E+02 9.16839E+00 0.00000E+00
 -1      1648 1.11036E+02 9.81889E+00 0.00000E+00
 -1      1649 1.09589E+02 8.01213E+00 0.00000E+00
 -1      1650 1.10067E+02 8.52732E+00 0.00000E+00
 -1      1651 1.08337E+02 6.97426E+00 0.00000E+00
 -1      1652 1.08965E+02 7.41576E+00 0.00000E+00
 -1      1653 1.06860E+02 6.25140E+00 0.00000E+00
 -1      1654 1.07554E+02 6.54085E+00 0.00000E+00
 -1      1655 1.05164E+02 5.81559E+00 0.00000E+00
 -1      1656 1.05975E+02 5.95500E+00 0.00000E+00
 -1      1657 1.03499E+02 5.83819E+00 0.00000E+00
 -1      1658 1.04237E+02 5.79856E+00 0.00000E+00
 -1      1659 1.01956E+02 6.15829E+00 0.00000E+00
 -1      1660 1.02649E+02 5.97225E+00 0.00000E+00
 -1      1661 1.00447E+02 6.83400E+00 0.00000E+00
 -1      1662 1.01136E+02 6.47878E+00 0.00000E+00
 -1      1663 9.91382E+01 7.79083E+00 0.00000E+00
 -1      1664 9.97032E+01 7.32270E+00 0.00000E+00
 -1      1665 9.80231E+01 8.99462E+00 0.00000E+00
 -1      1666 9.84919E+01 8.39694E+00 0.00000E+00
 -1      1667 9.73202E+01 1.04069E+01 0.00000E+00
 -1      1668 9.76314E+01 9.77085E+00 0.00000E+00
 -1      1669 9.68571E+01 1.18665E+01 0.00000E+00
 -1      1670 9.70338E+01 1.11820E+01 0.00000E+00
 -1      1671 9.65392E+01 1.35441E+01 0.00000E+00
 -1      1672 9.65680E+01 1.27364E+01 0.00000E+00
 -1      1673 9.68643E+01 1.51797E+01 0.00000E+00
 -1      1674 9.67288E+01 1.44566E+01 0.00000E+00
 -1      1675 9.73938E+01 1.67715E+01 0.00000E+00
 -1      1676 9.70874E+01 1.60519E+01 0.00000E+00
 -1      1677 9.82993E+01 1.80768E+01 0.00000E+00
 -1      1678 9.78911E+01 1.74996E+01 0.00000E+00
 -1      1679 9.93251E+01 1.92628E+01 0.00000E+00
 -1      1680 9.87937E+01 1.87677E+01 0.00000E+00
 -1      1681 1.00654E+02 2.01201E+01 0.00000E+00
 -1      1682 1.00036E+02 1.97470E+01 0.00000E+00
 -1      1683 1.02086E+02 2.06724E+01 0.00000E+00
 -1      1684 1.01426E+02 2.04397E+01 0.00000E+00
 -1      1685 1.03585E+02 2.09634E+01 0.00000E+00
 -1      1686 1.02884E+02 2.08662E+01 0.00000E+00
 -1      1687 1.05198E+02 2.10190E+01 0.00000E+00
 -1      1688 1.04445E+02 2.10729E+01 0.00000E+00
 -1      1689 1.06672E+02 2.06084E+01 0.00000E+00
 -1      1690 1.06018E+02 2.07941E+01 0.00000E+00
 -1      1691 1.08115E+02 1.99964E+01 0.00000E+00
 -1      1692 1.07460E+02 2.03370E+01 0.00000E+00
 -1      1693 1.09363E+02 1.90908E+01 0.00000E+00
 -1      1694 1.08823E+02 1.95322E+01 0.00000E+00
 -1      1695 1.10347E+02 1.79547E+01 0.00000E+00
 -1      1696 1.09910E+02 1.84868E+01 0.00000E+00
 -1      1697 1.11111E+02 1.66943E+01 0.00000E+00
 -1      1698 1.10791E+02 1.72917E+01 0.00000E+00
 -1      1699 1.11662E+02 1.52923E+01 0.00000E+00
 -1      1700 1.11459E+02 1.59624E+01 0.00000E+00
 -1      1701 1.11846E+02 1.38133E+01 0.00000E+00
 -1      1702 1.11780E+02 1.44897E+01 0.00000E+00
 -1      1703 2.79900E+00 2.18750E+00 0.00000E+00
 -1      1704 1.10854E+02 8.49871E+00 0.00000E+00
 -1      1705 1.47825E+02 2.77400E+00 0.00000E+00
 -1      1706 1.12248E+02 1.16488E+01 0.00000E+00
 -1      1707 1.11727E+02 9.96831E+00 0.00000E+00
 -1      1708 1.12447E+02 1.33555E+01 0.00000E+00
 -1      1709 1.09648E+02 7.26127E+00 0.00000E+00
 -1      1710 1.08240E+02 6.23149E+00 0.00000E+00
 -1      1711 1.06572E+02 5.50168E+00 0.00000E+00
 -1      1712 1.04760E+02 5.18825E+00 0.00000E+00
 -1      1713 1.02984E+02 5.30527E+00 0.00000E+00
 -1      1714 1.01315E+02 5.75982E+00 0.00000E+00
 -1      1715 9.97509E+01 6.56901E+00 0.00000E+00
 -1      1716 9.83609E+01 7.66383E+00 0.00000E+00
 -1      1717 9.73229E+01 9.04617E+00 0.00000E+00
 -1      1718 9.66449E+01 1.05976E+01 0.00000E+00
 -1      1719 9.60694E+01 1.22427E+01 0.00000E+00
 -1      1720 9.59699E+01 1.40251E+01 0.00000E+00
 -1      1721 9.63827E+01 1.58098E+01 0.00000E+00
 -1      1722 9.71030E+01 1.74102E+01 0.00000E+00
 -1      1723 9.80947E+01 1.88292E+01 0.00000E+00
 -1      1724 9.92997E+01 2.00043E+01 0.00000E+00
 -1      1725 1.00782E+02 2.08081E+01 0.00000E+00
 -1      1726 1.02353E+02 2.13215E+01 0.00000E+00
 -1      1727 1.04011E+02 2.16247E+01 0.00000E+00
 -1      1728 1.05691E+02 2.15093E+01 0.00000E+00
 -1      1729 1.07299E+02 2.10130E+01 0.00000E+00
 -1      1730 1.08795E+02 2.02775E+01 0.00000E+00
 -1      1731 1.10050E+02 1.92094E+01 0.00000E+00
 -1      1732 1.11041E+02 1.79423E+01 0.00000E+00
 -1      1733 1.11833E+02 1.65474E+01 0.00000E+00
 -1      1734 1.12298E+02 1.50130E+01 0.00000E+00
 -1      1735 2.87400E+00 4.77875E+01 0.00000E+00
 -1      1736 3.89700E+00 4.04125E+01 0.00000E+00
 -1      1737 3.89700E+00 4.18875E+01 0.00000E+00
 -1      1738 3.89700E+00 4.33625E+01 0.00000E+00
 -1      1739 3.89700E+00 4.48375E+01 0.00000E+00
 -1      1740 5.19600E+00 4.26250E+01 0.00000E+00
 -1      1741 3.89700E+00 3.45500E+01 0.00000E+00
 -1      1742 3.89700E+00 3.60000E+01 0.00000E+00
 -1      1743 3.89700E+00 3.16000E+01 0.00000E+00
 -1      1744 3.89700E+00 3.30750E+01 0.00000E+00
 -1      1745 5.19600E+00 3.38000E+01 0.00000E+00
 -1      1746 3.89700E+00 2.86500E+01 0.00000E+00
 -1      1747 3.89700E+00 3.01250E+01 0.00000E+00
 -1      1748 5.19600E+00 3.08500E+01 0.00000E+00
 -1      1749 3.89700E+00 2.57000E+01 0.00000E+00
 -1      1750 3.89700E+00 2.71750E+01 0.00000E+00
 -1      1751 5.19600E+00 2.79000E+01 0.00000E+00
 -1      1752 3.89700E+00 2.27500E+01 0.00000E+00
 -1      1753 3.89700E+00 2.42250E+01 0.00000E+00
 -1      1754 5.19600E+00 2.49500E+01 0.00000E+00
 -1      1755 3.89700E+00 1.98000E+01 0.00000E+00
 -1      1756 3.89700E+00 2.12750E+01 0.00000E+00
 -1      1757 5.19600E+00 2.20000E+01 0.00000E+00
 -1      1758 3.89700E+00 1.69000E+01 0.00000E+00
 -1      1759 3.89700E+00 1.83500E+01 0.00000E+00
 -1      1760 5.19600E+00 1.90750E+01 0.00000E+00
 -1      1761 3.89700E+00 1.39500E+01 0.00000E+00
 -1      1762 3.89700E+00 1.54250E+01 0.00000E+00
 -1      1763 5.19600E+00 1.61500E+01 0.00000E+00
 -1      1764 3.89700E+00 1.10000E+01 0.00000E+00
 -1      1765 3.89700E+00 1.24750E+01 0.00000E+00
 -1      1766 5.19600E+00 1.32000E+01 0.00000E+00
 -1      1767 3.89700E+00 8.05000E+00 0.00000E+00
 -1      1768 3.89700E+00 9.52500E+00 0.00000E+00
 -1      1769 5.19600E+00 1.02500E+01 0.00000E+00
 -1      1770 3.89700E+00 5.10000E+00 0.00000E+00
 -1      1771 3.89700E+00 6.57500E+00 0.00000E+00
 -1      1772 5.19600E+00 7.30000E+00 0.00000E+00
 -1      1773 1.11106E+02 7.68678E+00 0.00000E+00
 -1      1774 1.11686E+02 8.32785E+00 0.00000E+00
 -1      1775 3.62400E+00 4.64885E+01 0.00000E+00
 -1      1776 3.54900E+00 3.48650E+00 0.00000E+00
 -1      1777 8.40000E+00 4.61030E+01 0.00000E+00
 -1      1778 9.90000E+00 4.61030E+01 0.00000E+00
 -1      1779 1.14000E+01 4.61030E+01 0.00000E+00
 -1      1780 1.29000E+01 4.61030E+01 0.00000E+00
 -1      1781 1.06500E+01 4.48040E+01 0.00000E+00
 -1      1782 1.44000E+01 4.61030E+01 0.00000E+00
 -1      1783 1.59000E+01 4.61030E+01 0.00000E+00
 -1      1784 1.36500E+01 4.48040E+01 0.00000E+00
 -1      1785 1.74000E+01 4.61030E+01 0.00000E+00
 -1      1786 1.89000E+01 4.61030E+01 0.00000E+00
 -1      1787 1.66500E+01 4.48040E+01 0.00000E+00
 -1      1788 2.04000E+01 4.61030E+01 0.00000E+00
 -1      1789 2.19000E+01 4.61030E+01 0.00000E+00
 -1      1790 1.96500E+01 4.48040E+01 0.00000E+00
 -1      1791 2.34000E+01 4.61030E+01 0.00000E+00
 -1      1792 2.49000E+01 4.61030E+01 0.00000E+00
 -1      1793 2.26500E+01 4.48040E+01 0.00000E+00
 -1      1794 2.64000E+01 4.61030E+01 0.00000E+00
 -1      1795 2.79000E+01 4.61030E+01 0.00000E+00
 -1      1796 2.56500E+01 4.48040E+01 0.00000E+00
 -1      1797 2.94000E+01 4.61030E+01 0.00000E+00
 -1      1798 3.09000E+01 4.61030E+01 0.00000E+00
 -1      1799 2.86500E+01 4.48040E+01 0.00000E+00
 -1      1800 3.24000E+01 4.61030E+01 0.00000E+00
 -1      1801 3.39000E+01 4.61030E+01 0.00000E+00
 -1      1802 3.16500E+01 4.48040E+01 0.00000E+00
 -1      1803 3.54000E+01 4.61030E+01 0.00000E+00
 -1      1804 3.69000E+01 4.61030E+01 0.00000E+00
 -1      1805 3.46500E+01 4.48040E+01 0.00000E+00
 -1      1806 3.84000E+01 4.61030E+01 0.00000E+00
 -1      1807 3.99000E+01 4.61030E+01 0.00000E+00
 -1      1808 3.76500E+01 4.48040E+01 0.00000E+00
 -1      1809 4.14000E+01 4.61030E+01 0.00000E+00
 -1      1810 4.29000E+01 4.61030E+01 0.00000E+00
 -1      1811 4.06500E+01 4.48040E+01 0.00000E+00
 -1      1812 4.44000E+01 4.61030E+01 0.00000E+00
 -1      1813 4.59000E+01 4.61030E+01 0.00000E+00
 -1      1814 4.36500E+01 4.48040E+01 0.00000E+00
 -1      1815 4.74000E+01 4.61030E+01 0.00000E+00
 -1      1816 4.89000E+01 4.61030E+01 0.00000E+00
 -1      1817 4.66500E+01 4.48040E+01 0.00000E+00
 -1      1818 5.04000E+01 4.61030E+01 0.00000E+00
 -1      1819 5.19000E+01 4.61030E+01 0.00000E+00
 -1      1820 4.96500E+01 4.48040E+01 0.00000E+00
 -1      1821 5.34000E+01 4.61030E+01 0.00000E+00
 -1      1822 5.49000E+01 4.61030E+01 0.00000E+00
 -1      1823 5.26500E+01 4.48040E+01 0.00000E+00
 -1      1824 5.64000E+01 4.61030E+01 0.00000E+00
 -1      1825 5.79000E+01 4.61030E+01 0.00000E+00
 -1      1826 5.56500E+01 4.48040E+01 0.00000E+00
 -1      1827 5.94000E+01 4.61030E+01 0.00000E+00
 -1      1828 6.09000E+01 4.61030E+01 0.00000E+00
 -1      1829 5.86500E+01 4.48040E+01 0.00000E+00
 -1      1830 6.24000E+01 4.61030E+01 0.00000E+00
 -1      1831 6.39000E+01 4.61030E+01 0.00000E+00
 -1      1832 6.16500E+01 4.48040E+01 0.00000E+00
 -1      1833 6.54000E+01 4.61030E+01 0.00000E+00
 -1      1834 6.69000E+01 4.61030E+01 0.00000E+00
 -1      1835 6.46500E+01 4.48040E+01 0.00000E+00
 -1      1836 6.84000E+01 4.61030E+01 0.00000E+00
 -1      1837 6.99000E+01 4.61030E+01 0.00000E+00
 -1      1838 6.76500E+01 4.48040E+01 0.00000E+00
 -1      1839 7.14000E+01 4.61030E+01 0.00000E+00
 -1      1840 7.29000E+01 4.61030E+01 0.00000E+00
 -1      1841 7.06500E+01 4.48040E+01 0.00000E+00
 -1      1842 7.44000E+01 4.61030E+01 0.00000E+00
 -1      1843 7.59000E+01 4.61030E+01 0.00000E+00
 -1      1844 7.36500E+01 4.48040E+01 0.00000E+00
 -1      1845 7.74000E+01 4.61030E+01 0.00000E+00
 -1      1846 7.89000E+01 4.61030E+01 0.00000E+00
 -1      1847 7.66500E+01 4.48040E+01 0.00000E+00
 -1      1848 8.04000E+01 4.61030E+01 0.00000E+00
 -1      1849 8.19000E+01 4.61030E+01 0.00000E+00
 -1      1850 7.96500E+01 4.48040E+01 0.00000E+00
 -1      1851 8.34000E+01 4.61030E+01 0.00000E+00
 -1      1852 8.49000E+01 4.61030E+01 0.00000E+00
 -1      1853 8.26500E+01 4.48040E+01 0.00000E+00
 -1      1854 8.64000E+01 4.61030E+01 0.00000E+00
 -1      1855 8.79000E+01 4.61030E+01 0.00000E+00
 -1      1856 8.56500E+01 4.48040E+01 0.00000E+00
 -1      1857 8.94000E+01 4.61030E+01 0.00000E+00
 -1      1858 9.09000E+01 4.61030E+01 0.00000E+00
 -1      1859 8.86500E+01 4.48040E+01 0.00000E+00
 -1      1860 9.24000E+01 4.61030E+01 0.00000E+00
 -1      1861 9.39000E+01 4.61030E+01 0.00000E+00
 -1      1862 9.16500E+01 4.48040E+01 0.00000E+00
 -1      1863 9.54000E+01 4.61030E+01 0.00000E+00
 -1      1864 9.69000E+01 4.61030E+01 0.00000E+00
 -1      1865 9.46500E+01 4.48040E+01 0.00000E+00
 -1      1866 9.84000E+01 4.61030E+01 0.00000E+00
 -1      1867 9.99000E+01 4.61030E+01 0.00000E+00
 -1      1868 9.76500E+01 4.48040E+01 0.00000E+00
 -1      1869 1.01400E+02 4.61030E+01 0.00000E+00
 -1      1870 1.02900E+02 4.61030E+01 0.00000E+00
 -1      1871 1.00650E+02 4.48040E+01 0.00000E+00
 -1      1872 1.04400E+02 4.61030E+01 0.00000E+00
 -1      1873 1.05900E+02 4.61030E+01 0.00000E+00
 -1      1874 1.03650E+02 4.48040E+01 0.00000E+00
 -1      1875 1.07400E+02 4.61030E+01 0.00000E+00
 -1      1876 1.08900E+02 4.61030E+01 0.00000E+00
 -1      1877 1.06650E+02 4.48040E+01 0.00000E+00
 -1      1878 1.10400E+02 4.61030E+01 0.00000E+00
 -1      1879 1.11900E+02 4.61030E+01 0.00000E+00
 -1      1880 1.09650E+02 4.48040E+01 0.00000E+00
 -1      1881 1.13400E+02 4.61030E+01 0.00000E+00
 -1      1882 1.14900E+02 4.61030E+01 0.00000E+00
 -1      1883 1.12650E+02 4.48040E+01 0.00000E+00
 -1      1884 1.16400E+02 4.61030E+01 0.00000E+00
 -1      1885 1.17900E+02 4.61030E+01 0.00000E+00
 -1      1886 1.15650E+02 4.48040E+01 0.00000E+00
 -1      1887 1.19400E+02 4.61030E+01 0.00000E+00
 -1      1888 1.20900E+02 4.61030E+01 0.00000E+00
 -1      1889 1.18650E+02 4.48040E+01 0.00000E+00
 -1      1890 1.22400E+02 4.61030E+01 0.00000E+00
 -1      1891 1.23900E+02 4.61030E+01 0.00000E+00
 -1      1892 1.21650E+02 4.48040E+01 0.00000E+00
 -1      1893 1.25400E+02 4.61030E+01 0.00000E+00
 -1      1894 1.26900E+02 4.61030E+01 0.00000E+00
 -1      1895 1.24650E+02 4.48040E+01 0.00000E+00
 -1      1896 1.28400E+02 4.61030E+01 0.00000E+00
 -1      1897 1.29900E+02 4.61030E+01 0.00000E+00
 -1      1898 1.27650E+02 4.48040E+01 0.00000E+00
 -1      1899 1.31400E+02 4.61030E+01 0.00000E+00
 -1      1900 1.32900E+02 4.61030E+01 0.00000E+00
 -1      1901 1.30650E+02 4.48040E+01 0.00000E+00
 -1      1902 1.34400E+02 4.61030E+01 0.00000E+00
 -1      1903 1.35900E+02 4.61030E+01 0.00000E+00
 -1      1904 1.33650E+02 4.48040E+01 0.00000E+00
 -1      1905 1.37400E+02 4.61030E+01 0.00000E+00
 -1      1906 1.38900E+02 4.61030E+01 0.00000E+00
 -1      1907 1.36650E+02 4.48040E+01 0.00000E+00
 -1      1908 1.40400E+02 4.61030E+01 0.00000E+00
 -1      1909 1.41900E+02 4.61030E+01 0.00000E+00
 -1      1910 1.39650E+02 4.48040E+01 0.00000E+00
 -1      1911 1.43244E+02 4.61616E+01 0.00000E+00
 -1      1912 1.44744E+02 4.61616E+01 0.00000E+00
 -1      1913 1.45182E+02 4.49799E+01 0.00000E+00
 -1      1914 1.42494E+02 4.48626E+01 0.00000E+00
 -1      1915 1.27500E+01 3.89700E+00 0.00000E+00
 -1      1916 1.12500E+01 3.89700E+00 0.00000E+00
 -1      1917 9.75000E+00 3.89700E+00 0.00000E+00
 -1      1918 8.25000E+00 3.89700E+00 0.00000E+00
 -1      1919 1.05000E+01 5.19600E+00 0.00000E+00
 -1      1920 1.57500E+01 3.89700E+00 0.00000E+00
 -1      1921 1.42500E+01 3.89700E+00 0.00000E+00
 -1      1922 1.35000E+01 5.19600E+00 0.00000E+00
 -1      1923 1.87500E+01 3.89700E+00 0.00000E+00
 -1      1924 1.72500E+01 3.89700E+00 0.00000E+00
 -1      1925 1.65000E+01 5.19600E+00 0.00000E+00
 -1      1926 2.16000E+01 3.89700E+00 0.00000E+00
 -1      1927 2.01750E+01 3.89700E+00 0.00000E+00
 -1      1928 1.94250E+01 5.19600E+00 0.00000E+00
 -1      1929 2.46000E+01 3.89700E+00 0.00000E+00
 -1      1930 2.31000E+01 3.89700E+00 0.00000E+00
 -1      1931 2.23500E+01 5.19600E+00 0.00000E+00
 -1      1932 2.76000E+01 3.89700E+00 0.00000E+00
 -1      1933 2.61000E+01 3.89700E+00 0.00000E+00
 -1      1934 2.53500E+01 5.19600E+00 0.00000E+00
 -1      1935 3.06000E+01 3.89700E+00 0.00000E+00
 -1      1936 2.91000E+01 3.89700E+00 0.00000E+00
 -1      1937 2.83500E+01 5.19600E+00 0.00000E+00
 -1      1938 3.36000E+01 3.89700E+00 0.00000E+00
 -1      1939 3.21000E+01 3.89700E+00 0.00000E+00
 -1      1940 3.13500E+01 5.19600E+00 0.00000E+00
 -1      1941 3.66000E+01 3.89700E+00 0.00000E+00
 -1      1942 3.51000E+01 3.89700E+00 0.00000E+00
 -1      1943 3.43500E+01 5.19600E+00 0.00000E+00
 -1      1944 3.96000E+01 3.89700E+00 0.00000E+00
 -1      1945 3.81000E+01 3.89700E+00 0.00000E+00
 -1      1946 3.73500E+01 5.19600E+00 0.00000E+00
 -1      1947 4.26000E+01 3.89700E+00 0.00000E+00
 -1      1948 4.11000E+01 3.89700E+00 0.00000E+00
 -1      1949 4.03500E+01 5.19600E+00 0.00000E+00
 -1      1950 4.54500E+01 3.89700E+00 0.00000E+00
 -1      1951 4.40250E+01 3.89700E+00 0.00000E+00
 -1      1952 4.32750E+01 5.19600E+00 0.00000E+00
 -1      1953 4.84500E+01 3.89700E+00 0.00000E+00
 -1      1954 4.69500E+01 3.89700E+00 0.00000E+00
 -1      1955 4.62000E+01 5.19600E+00 0.00000E+00
 -1      1956 5.14500E+01 3.89700E+00 0.00000E+00
 -1      1957 4.99500E+01 3.89700E+00 0.00000E+00
 -1      1958 4.92000E+01 5.19600E+00 0.00000E+00
 -1      1959 5.44500E+01 3.89700E+00 0.00000E+00
 -1      1960 5.29500E+01 3.89700E+00 0.00000E+00
 -1      1961 5.22000E+01 5.19600E+00 0.00000E+00
 -1      1962 5.74500E+01 3.89700E+00 0.00000E+00
 -1      1963 5.59500E+01 3.89700E+00 0.00000E+00
 -1      1964 5.52000E+01 5.19600E+00 0.00000E+00
 -1      1965 6.04500E+01 3.89700E+00 0.00000E+00
 -1      1966 5.89500E+01 3.89700E+00 0.00000E+00
 -1      1967 5.82000E+01 5.19600E+00 0.00000E+00
 -1      1968 6.34500E+01 3.89700E+00 0.00000E+00
 -1      1969 6.19500E+01 3.89700E+00 0.00000E+00
 -1      1970 6.12000E+01 5.19600E+00 0.00000E+00
 -1      1971 6.64500E+01 3.89700E+00 0.00000E+00
 -1      1972 6.49500E+01 3.89700E+00 0.00000E+00
 -1      1973 6.42000E+01 5.19600E+00 0.00000E+00
 -1      1974 6.93000E+01 3.89700E+00 0.00000E+00
 -1      1975 6.78750E+01 3.89700E+00 0.00000E+00
 -1      1976 6.71250E+01 5.19600E+00 0.00000E+00
 -1      1977 7.23000E+01 3.89700E+00 0.00000E+00
 -1      1978 7.08000E+01 3.89700E+00 0.00000E+00
 -1      1979 7.00500E+01 5.19600E+00 0.00000E+00
 -1      1980 7.53000E+01 3.89700E+00 0.00000E+00
 -1      1981 7.38000E+01 3.89700E+00 0.00000E+00
 -1      1982 7.30500E+01 5.19600E+00 0.00000E+00
 -1      1983 7.83000E+01 3.89700E+00 0.00000E+00
 -1      1984 7.68000E+01 3.89700E+00 0.00000E+00
 -1      1985 7.60500E+01 5.19600E+00 0.00000E+00
 -1      1986 8.13000E+01 3.89700E+00 0.00000E+00
 -1      1987 7.98000E+01 3.89700E+00 0.00000E+00
 -1      1988 7.90500E+01 5.19600E+00 0.00000E+00
 -1      1989 8.43000E+01 3.89700E+00 0.00000E+00
 -1      1990 8.28000E+01 3.89700E+00 0.00000E+00
 -1      1991 8.20500E+01 5.19600E+00 0.00000E+00
 -1      1992 8.73000E+01 3.89700E+00 0.00000E+00
 -1      1993 8.58000E+01 3.89700E+00 0.00000E+00
 -1      1994 8.50500E+01 5.19600E+00 0.00000E+00
 -1      1995 9.03000E+01 3.89700E+00 0.00000E+00
 -1      1996 8.88000E+01 3.89700E+00 0.00000E+00
 -1      1997 8.80500E+01 5.19600E+00 0.00000E+00
 -1      1998 9.31500E+01 3.89700E+00 0.00000E+00
 -1      1999 9.17250E+01 3.89700E+00 0.00000E+00
 -1      2000 9.09750E+01 5.19600E+00 0.00000E+00
 -1      2001 9.61500E+01 3.89700E+00 0.00000E+00
 -1      2002 9.46500E+01 3.89700E+00 0.00000E+00
 -1      2003 9.39000E+01 5.19600E+00 0.00000E+00
 -1      2004 1.01588E+02 3.53934E+00 0.00000E+00
 -1      2005 1.00162E+02 3.53934E+00 0.00000E+00
 -1      2006 1.04492E+02 3.88461E+00 0.00000E+00
 -1      2007 1.03067E+02 3.88461E+00 0.00000E+00
 -1      2008 1.09500E+02 3.62313E+00 0.00000E+00
 -1      2009 1.08300E+02 3.62313E+00 0.00000E+00
 -1      2010 1.12200E+02 3.62313E+00 0.00000E+00
 -1      2011 1.10850E+02 3.62313E+00 0.00000E+00
 -1      2012 1.10250E+02 4.64825E+00 0.00000E+00
 -1      2013 1.15200E+02 3.62313E+00 0.00000E+00
 -1      2014 1.13700E+02 3.62313E+00 0.00000E+00
 -1      2015 1.13100E+02 4.64825E+00 0.00000E+00
 -1      2016 1.18200E+02 3.62313E+00 0.00000E+00
 -1      2017 1.16700E+02 3.62313E+00 0.00000E+00
 -1      2018 1.16100E+02 4.64825E+00 0.00000E+00
 -1      2019 1.21200E+02 3.62313E+00 0.00000E+00
 -1      2020 1.19700E+02 3.62313E+00 0.00000E+00
 -1      2021 1.19100E+02 4.64825E+00 0.00000E+00
 -1      2022 1.24200E+02 3.62313E+00 0.00000E+00
 -1      2023 1.22700E+02 3.62313E+00 0.00000E+00
 -1      2024 1.22100E+02 4.64825E+00 0.00000E+00
 -1      2025 1.27050E+02 3.62313E+00 0.00000E+00
 -1      2026 1.25625E+02 3.62313E+00 0.00000E+00
 -1      2027 1.25025E+02 4.64825E+00 0.00000E+00
 -1      2028 1.30050E+02 3.62313E+00 0.00000E+00
 -1      2029 1.28550E+02 3.62313E+00 0.00000E+00
 -1      2030 1.27950E+02 4.64825E+00 0.00000E+00
 -1      2031 1.33050E+02 3.62313E+00 0.00000E+00
 -1      2032 1.31550E+02 3.62313E+00 0.00000E+00
 -1      2033 1.30950E+02 4.64825E+00 0.00000E+00
 -1      2034 1.36050E+02 3.62313E+00 0.00000E+00
 -1      2035 1.34550E+02 3.62313E+00 0.00000E+00
 -1      2036 1.33950E+02 4.64825E+00 0.00000E+00
 -1      2037 1.39050E+02 3.62313E+00 0.00000E+00
 -1      2038 1.37550E+02 3.62313E+00 0.00000E+00
 -1      2039 1.36950E+02 4.64825E+00 0.00000E+00
 -1      2040 1.42050E+02 3.62313E+00 0.00000E+00
 -1      2041 1.40550E+02 3.62313E+00 0.00000E+00
 -1      2042 1.39950E+02 4.64825E+00 0.00000E+00
 -1      2043 1.12841E+02 1.10327E+01 0.00000E+00
 -1      2044 1.13070E+02 1.18846E+01 0.00000E+00
 -1      2045 1.46103E+02 1.25375E+01 0.00000E+00
 -1      2046 1.46103E+02 1.10625E+01 0.00000E+00
 -1      2047 1.46103E+02 9.58750E+00 0.00000E+00
 -1      2048 1.46103E+02 8.11250E+00 0.00000E+00
 -1      2049 1.44804E+02 1.03250E+01 0.00000E+00
 -1      2050 1.46526E+02 3.51150E+00 0.00000E+00
 -1      2051 1.46103E+02 6.63750E+00 0.00000E+00
 -1      2052 1.46103E+02 5.16250E+00 0.00000E+00
 -1      2053 1.44804E+02 7.37500E+00 0.00000E+00
 -1      2054 1.46103E+02 1.54375E+01 0.00000E+00
 -1      2055 1.46103E+02 1.39875E+01 0.00000E+00
 -1      2056 1.44804E+02 1.32500E+01 0.00000E+00
 -1      2057 1.46103E+02 1.83875E+01 0.00000E+00
 -1      2058 1.46103E+02 1.69125E+01 0.00000E+00
 -1      2059 1.44804E+02 1.61750E+01 0.00000E+00
 -1      2060 1.46103E+02 2.13375E+01 0.00000E+00
 -1      2061 1.46103E+02 1.98625E+01 0.00000E+00
 -1      2062 1.44804E+02 1.91250E+01 0.00000E+00
 -1      2063 1.46103E+02 2.42875E+01 0.00000E+00
 -1      2064 1.46103E+02 2.28125E+01 0.00000E+00
 -1      2065 1.44804E+02 2.20750E+01 0.00000E+00
 -1      2066 1.46103E+02 2.72375E+01 0.00000E+00
 -1      2067 1.46103E+02 2.57625E+01 0.00000E+00
 -1      2068 1.44804E+02 2.50250E+01 0.00000E+00
 -1      2069 1.46103E+02 3.01875E+01 0.00000E+00
 -1      2070 1.46103E+02 2.87125E+01 0.00000E+00
 -1      2071 1.44804E+02 2.79750E+01 0.00000E+00
 -1      2072 1.46103E+02 3.30875E+01 0.00000E+00
 -1      2073 1.46103E+02 3.16375E+01 0.00000E+00
 -1      2074 1.44804E+02 3.09000E+01 0.00000E+00
 -1      2075 1.46103E+02 3.60375E+01 0.00000E+00
 -1      2076 1.46103E+02 3.45625E+01 0.00000E+00
 -1      2077 1.44804E+02 3.38250E+01 0.00000E+00
 -1      2078 1.46103E+02 3.89875E+01 0.00000E+00
 -1      2079 1.46103E+02 3.75125E+01 0.00000E+00
 -1      2080 1.44804E+02 3.67750E+01 0.00000E+00
 -1      2081 1.46103E+02 4.19375E+01 0.00000E+00
 -1      2082 1.46103E+02 4.04625E+01 0.00000E+00
 -1      2083 1.44804E+02 3.97250E+01 0.00000E+00
 -1      2084 1.12256E+02 9.37561E+00 0.00000E+00
 -1      2085 1.12548E+02 1.02041E+01 0.00000E+00
 -1      2086 1.13369E+02 1.04400E+01 0.00000E+00
 -1      2087 1.13319E+02 1.29589E+01 0.00000E+00
 -1      2088 1.13289E+02 1.38137E+01 0.00000E+00
 -1      2089 1.05418E+02 3.90164E+00 0.00000E+00
 -1      2090 3.89700E+00 3.74688E+01 0.00000E+00
 -1      2091 3.89700E+00 3.89437E+01 0.00000E+00
 -1      2092 5.19600E+00 3.96813E+01 0.00000E+00
 -1      2093 5.19600E+00 3.67438E+01 0.00000E+00
 -1      2094 1.08178E+02 5.22317E+00 0.00000E+00
 -1      2095 1.08962E+02 5.65657E+00 0.00000E+00
 -1      2096 1.00685E+02 5.28050E+00 0.00000E+00
 -1      2097 1.01505E+02 4.96000E+00 0.00000E+00
 -1      2098 9.89541E+01 6.16672E+00 0.00000E+00
 -1      2099 9.96978E+01 5.67802E+00 0.00000E+00
 -1      2100 9.75084E+01 7.40247E+00 0.00000E+00
 -1      2101 9.81547E+01 6.79636E+00 0.00000E+00
 -1      2102 9.65111E+01 9.12350E+00 0.00000E+00
 -1      2103 9.69027E+01 8.34726E+00 0.00000E+00
 -1      2104 9.58545E+01 1.07460E+01 0.00000E+00
 -1      2105 9.61409E+01 9.97085E+00 0.00000E+00
 -1      2106 9.52763E+01 1.24859E+01 0.00000E+00
 -1      2107 9.55654E+01 1.16160E+01 0.00000E+00
 -1      2108 9.50614E+01 1.09892E+01 0.00000E+00
 -1      2109 9.54302E+01 1.46131E+01 0.00000E+00
 -1      2110 9.52406E+01 1.37007E+01 0.00000E+00
 -1      2111 9.56634E+01 1.64584E+01 0.00000E+00
 -1      2112 9.54403E+01 1.55862E+01 0.00000E+00
 -1      2113 9.68165E+01 1.81397E+01 0.00000E+00
 -1      2114 9.63192E+01 1.74116E+01 0.00000E+00
 -1      2115 9.77467E+01 1.96005E+01 0.00000E+00
 -1      2116 9.72523E+01 1.89097E+01 0.00000E+00
 -1      2117 9.92429E+01 2.08512E+01 0.00000E+00
 -1      2118 9.85323E+01 2.03670E+01 0.00000E+00
 -1      2119 1.00905E+02 2.16054E+01 0.00000E+00
 -1      2120 1.00132E+02 2.12858E+01 0.00000E+00
 -1      2121 1.02590E+02 2.20889E+01 0.00000E+00
 -1      2122 1.01791E+02 2.18951E+01 0.00000E+00
 -1      2123 1.04354E+02 2.23639E+01 0.00000E+00
 -1      2124 1.03494E+02 2.22544E+01 0.00000E+00
 -1      2125 1.06306E+02 2.21430E+01 0.00000E+00
 -1      2126 1.05486E+02 2.23679E+01 0.00000E+00
 -1      2127 1.07881E+02 2.16003E+01 0.00000E+00
 -1      2128 1.07093E+02 2.18717E+01 0.00000E+00
 -1      2129 1.06888E+02 2.27303E+01 0.00000E+00
 -1      2130 1.09527E+02 2.06226E+01 0.00000E+00
 -1      2131 1.08819E+02 2.10867E+01 0.00000E+00
 -1      2132 1.10835E+02 1.93705E+01 0.00000E+00
 -1      2133 1.10288E+02 1.99745E+01 0.00000E+00
 -1      2134 1.11906E+02 1.80415E+01 0.00000E+00
 -1      2135 1.11462E+02 1.87045E+01 0.00000E+00
 -1      2136 1.12630E+02 1.64775E+01 0.00000E+00
 -1      2137 1.12283E+02 1.72093E+01 0.00000E+00
 -1      2138 1.13171E+02 1.46163E+01 0.00000E+00
 -1      2139 1.13053E+02 1.54189E+01 0.00000E+00
 -1      2140 1.14043E+02 1.42196E+01 0.00000E+00
 -1      2141 4.84800E+00 4.21150E+00 0.00000E+00
 -1      2142 1.09857E+02 6.49404E+00 0.00000E+00
 -1      2143 1.10481E+02 7.09041E+00 0.00000E+00
 -1      2144 1.11314E+02 6.91955E+00 0.00000E+00
 -1      2145 4.92300E+00 4.57510E+01 0.00000E+00
 -1      2146 1.45227E+02 4.24900E+00 0.00000E+00
 -1      2147 1.43727E+02 4.24900E+00 0.00000E+00
 -1      2148 1.12508E+02 8.56368E+00 0.00000E+00
 -1      2149 6.42300E+00 4.57510E+01 0.00000E+00
 -1      2150 1.09795E+02 5.48571E+00 0.00000E+00
 -1      2151 7.17300E+00 4.44520E+01 0.00000E+00
 -1      2152 7.09800E+00 5.51050E+00 0.00000E+00
 -1      2153 6.34800E+00 4.21150E+00 0.00000E+00
 -1      2154 9.71011E+01 4.56650E+00 0.00000E+00
 -1      2155 9.63511E+01 5.86550E+00 0.00000E+00
 -1      2156 1.02217E+02 4.01866E+00 0.00000E+00
 -1      2157 9.91755E+01 3.93686E+00 0.00000E+00
 -1      2158 9.79005E+01 3.93686E+00 0.00000E+00
 -1      2159 1.13911E+02 1.23428E+01 0.00000E+00
 -1      2160 1.43127E+02 5.27413E+00 0.00000E+00
 -1      2161 9.81016E+01 5.90537E+00 0.00000E+00
 -1      2162 1.45665E+02 4.31193E+01 0.00000E+00
 -1      2163 1.06124E+02 3.07697E+00 0.00000E+00
 -1      2164 1.06392E+02 4.38061E+00 0.00000E+00
 -1      2165 1.13502E+02 1.60808E+01 0.00000E+00
 -1      2166 1.12703E+02 1.79715E+01 0.00000E+00
 -1      2167 1.11700E+02 1.94696E+01 0.00000E+00
 -1      2168 1.08613E+02 2.19454E+01 0.00000E+00
 -1      2169 1.04969E+02 2.29976E+01 0.00000E+00
 -1      2170 1.02932E+02 2.28281E+01 0.00000E+00
 -1      2171 1.01141E+02 2.23728E+01 0.00000E+00
 -1      2172 9.93651E+01 2.16485E+01 0.00000E+00
 -1      2173 9.76899E+01 2.04475E+01 0.00000E+00
 -1      2174 9.64685E+01 1.89111E+01 0.00000E+00
 -1      2175 9.53768E+01 1.71880E+01 0.00000E+00
 -1      2176 9.47366E+01 1.30740E+01 0.00000E+00
 -1      2177 9.42326E+01 1.24473E+01 0.00000E+00
 -1      2178 9.41968E+01 1.36620E+01 0.00000E+00
 -1      2179 9.57207E+01 9.27195E+00 0.00000E+00
 -1      2180 9.66966E+01 7.47980E+00 0.00000E+00
 -1      2181 9.98880E+01 4.87821E+00 0.00000E+00
 -1      2182 1.07277E+02 4.67701E+00 0.00000E+00
 -1      2183 9.47109E+01 1.52618E+01 0.00000E+00
 -1      2184 1.10312E+02 2.07837E+01 0.00000E+00
 -1      2185 6.49500E+00 3.01125E+01 0.00000E+00
 -1      2186 6.49500E+00 3.15875E+01 0.00000E+00
 -1      2187 6.49500E+00 3.30625E+01 0.00000E+00
 -1      2188 6.49500E+00 3.45375E+01 0.00000E+00
 -1      2189 7.79400E+00 3.23250E+01 0.00000E+00
 -1      2190 6.49500E+00 2.42125E+01 0.00000E+00
 -1      2191 6.49500E+00 2.56875E+01 0.00000E+00
 -1      2192 6.49500E+00 2.12625E+01 0.00000E+00
 -1      2193 6.49500E+00 2.27375E+01 0.00000E+00
 -1      2194 7.79400E+00 2.34750E+01 0.00000E+00
 -1      2195 6.49500E+00 1.83625E+01 0.00000E+00
 -1      2196 6.49500E+00 1.98125E+01 0.00000E+00
 -1      2197 7.79400E+00 2.05500E+01 0.00000E+00
 -1      2198 6.49500E+00 1.54125E+01 0.00000E+00
 -1      2199 6.49500E+00 1.68875E+01 0.00000E+00
 -1      2200 7.79400E+00 1.76250E+01 0.00000E+00
 -1      2201 6.49500E+00 1.24625E+01 0.00000E+00
 -1      2202 6.49500E+00 1.39375E+01 0.00000E+00
 -1      2203 7.79400E+00 1.46750E+01 0.00000E+00
 -1      2204 6.49500E+00 9.51250E+00 0.00000E+00
 -1      2205 6.49500E+00 1.09875E+01 0.00000E+00
 -1      2206 7.79400E+00 1.17250E+01 0.00000E+00
 -1      2207 6.79650E+00 6.77400E+00 0.00000E+00
 -1      2208 6.79650E+00 8.24900E+00 0.00000E+00
 -1      2209 8.09550E+00 8.98650E+00 0.00000E+00
 -1      2210 8.69850E+00 6.45950E+00 0.00000E+00
 -1      2211 1.11536E+02 6.06181E+00 0.00000E+00
 -1      2212 1.12161E+02 6.65818E+00 0.00000E+00
 -1      2213 9.90000E+00 4.35050E+01 0.00000E+00
 -1      2214 1.14000E+01 4.35050E+01 0.00000E+00
 -1      2215 1.29000E+01 4.35050E+01 0.00000E+00
 -1      2216 1.44000E+01 4.35050E+01 0.00000E+00
 -1      2217 1.21500E+01 4.22060E+01 0.00000E+00
 -1      2218 1.59000E+01 4.35050E+01 0.00000E+00
 -1      2219 1.74000E+01 4.35050E+01 0.00000E+00
 -1      2220 1.51500E+01 4.22060E+01 0.00000E+00
 -1      2221 1.89000E+01 4.35050E+01 0.00000E+00
 -1      2222 2.04000E+01 4.35050E+01 0.00000E+00
 -1      2223 1.81500E+01 4.22060E+01 0.00000E+00
 -1      2224 2.19000E+01 4.35050E+01 0.00000E+00
 -1      2225 2.34000E+01 4.35050E+01 0.00000E+00
 -1      2226 2.11500E+01 4.22060E+01 0.00000E+00
 -1      2227 2.49000E+01 4.35050E+01 0.00000E+00
 -1      2228 2.64000E+01 4.35050E+01 0.00000E+00
 -1      2229 2.41500E+01 4.22060E+01 0.00000E+00
 -1      2230 2.79000E+01 4.35050E+01 0.00000E+00
 -1      2231 2.94000E+01 4.35050E+01 0.00000E+00
 -1      2232 2.71500E+01 4.22060E+01 0.00000E+00
 -1      2233 3.09000E+01 4.35050E+01 0.00000E+00
 -1      2234 3.24000E+01 4.35050E+01 0.00000E+00
 -1      2235 3.01500E+01 4.22060E+01 0.00000E+00
 -1      2236 3.39000E+01 4.35050E+01 0.00000E+00
 -1      2237 3.54000E+01 4.35050E+01 0.00000E+00
 -1      2238 3.31500E+01 4.22060E+01 0.00000E+00
 -1      2239 3.69000E+01 4.35050E+01 0.00000E+00
 -1      2240 3.84000E+01 4.35050E+01 0.00000E+00
 -1      2241 3.61500E+01 4.22060E+01 0.00000E+00
 -1      2242 3.99000E+01 4.35050E+01 0.00000E+00
 -1      2243 4.14000E+01 4.35050E+01 0.00000E+00
 -1      2244 3.91500E+01 4.22060E+01 0.00000E+00
 -1      2245 4.29000E+01 4.35050E+01 0.00000E+00
 -1      2246 4.44000E+01 4.35050E+01 0.00000E+00
 -1      2247 4.21500E+01 4.22060E+01 0.00000E+00
 -1      2248 4.59000E+01 4.35050E+01 0.00000E+00
 -1      2249 4.74000E+01 4.35050E+01 0.00000E+00
 -1      2250 4.51500E+01 4.22060E+01 0.00000E+00
 -1      2251 4.89000E+01 4.35050E+01 0.00000E+00
 -1      2252 5.04000E+01 4.35050E+01 0.00000E+00
 -1      2253 4.81500E+01 4.22060E+01 0.00000E+00
 -1      2254 5.19000E+01 4.35050E+01 0.00000E+00
 -1      2255 5.34000E+01 4.35050E+01 0.00000E+00
 -1      2256 5.11500E+01 4.22060E+01 0.00000E+00
 -1      2257 5.49000E+01 4.35050E+01 0.00000E+00
 -1      2258 5.64000E+01 4.35050E+01 0.00000E+00
 -1      2259 5.41500E+01 4.22060E+01 0.00000E+00
 -1      2260 5.79000E+01 4.35050E+01 0.00000E+00
 -1      2261 5.94000E+01 4.35050E+01 0.00000E+00
 -1      2262 5.71500E+01 4.22060E+01 0.00000E+00
 -1      2263 6.09000E+01 4.35050E+01 0.00000E+00
 -1      2264 6.24000E+01 4.35050E+01 0.00000E+00
 -1      2265 6.01500E+01 4.22060E+01 0.00000E+00
 -1      2266 6.39000E+01 4.35050E+01 0.00000E+00
 -1      2267 6.54000E+01 4.35050E+01 0.00000E+00
 -1      2268 6.31500E+01 4.22060E+01 0.00000E+00
 -1      2269 6.69000E+01 4.35050E+01 0.00000E+00
 -1      2270 6.84000E+01 4.35050E+01 0.00000E+00
 -1      2271 6.61500E+01 4.22060E+01 0.00000E+00
 -1      2272 6.99000E+01 4.35050E+01 0.00000E+00
 -1      2273 7.14000E+01 4.35050E+01 0.00000E+00
 -1      2274 6.91500E+01 4.22060E+01 0.00000E+00
 -1      2275 7.29000E+01 4.35050E+01 0.00000E+00
 -1      2276 7.44000E+01 4.35050E+01 0.00000E+00
 -1      2277 7.21500E+01 4.22060E+01 0.00000E+00
 -1      2278 7.59000E+01 4.35050E+01 0.00000E+00
 -1      2279 7.74000E+01 4.35050E+01 0.00000E+00
 -1      2280 7.51500E+01 4.22060E+01 0.00000E+00
 -1      2281 7.89000E+01 4.35050E+01 0.00000E+00
 -1      2282 8.04000E+01 4.35050E+01 0.00000E+00
 -1      2283 7.81500E+01 4.22060E+01 0.00000E+00
 -1      2284 8.19000E+01 4.35050E+01 0.00000E+00
 -1      2285 8.34000E+01 4.35050E+01 0.00000E+00
 -1      2286 8.11500E+01 4.22060E+01 0.00000E+00
 -1      2287 8.49000E+01 4.35050E+01 0.00000E+00
 -1      2288 8.64000E+01 4.35050E+01 0.00000E+00
 -1      2289 8.41500E+01 4.22060E+01 0.00000E+00
 -1      2290 8.79000E+01 4.35050E+01 0.00000E+00
 -1      2291 8.94000E+01 4.35050E+01 0.00000E+00
 -1      2292 8.71500E+01 4.22060E+01 0.00000E+00
 -1      2293 9.09000E+01 4.35050E+01 0.00000E+00
 -1      2294 9.24000E+01 4.35050E+01 0.00000E+00
 -1      2295 9.01500E+01 4.22060E+01 0.00000E+00
 -1      2296 9.39000E+01 4.35050E+01 0.00000E+00
 -1      2297 9.54000E+01 4.35050E+01 0.00000E+00
 -1      2298 9.31500E+01 4.22060E+01 0.00000E+00
 -1      2299 9.69000E+01 4.35050E+01 0.00000E+00
 -1      2300 9.84000E+01 4.35050E+01 0.00000E+00
 -1      2301 9.61500E+01 4.22060E+01 0.00000E+00
 -1      2302 9.99000E+01 4.35050E+01 0.00000E+00
 -1      2303 1.01400E+02 4.35050E+01 0.00000E+00
 -1      2304 9.91500E+01 4.22060E+01 0.00000E+00
 -1      2305 1.02900E+02 4.35050E+01 0.00000E+00
 -1      2306 1.04400E+02 4.35050E+01 0.00000E+00
 -1      2307 1.02150E+02 4.22060E+01 0.00000E+00
 -1      2308 1.05900E+02 4.35050E+01 0.00000E+00
 -1      2309 1.07400E+02 4.35050E+01 0.00000E+00
 -1      2310 1.05150E+02 4.22060E+01 0.00000E+00
 -1      2311 1.08900E+02 4.35050E+01 0.00000E+00
 -1      2312 1.10400E+02 4.35050E+01 0.00000E+00
 -1      2313 1.08150E+02 4.22060E+01 0.00000E+00
 -1      2314 1.11900E+02 4.35050E+01 0.00000E+00
 -1      2315 1.13400E+02 4.35050E+01 0.00000E+00
 -1      2316 1.11150E+02 4.22060E+01 0.00000E+00
 -1      2317 1.14900E+02 4.35050E+01 0.00000E+00
 -1      2318 1.16400E+02 4.35050E+01 0.00000E+00
 -1      2319 1.14150E+02 4.22060E+01 0.00000E+00
 -1      2320 1.17900E+02 4.35050E+01 0.00000E+00
 -1      2321 1.19400E+02 4.35050E+01 0.00000E+00
 -1      2322 1.17150E+02 4.22060E+01 0.00000E+00
 -1      2323 1.20900E+02 4.35050E+01 0.00000E+00
 -1      2324 1.22400E+02 4.35050E+01 0.00000E+00
 -1      2325 1.20150E+02 4.22060E+01 0.00000E+00
 -1      2326 1.23900E+02 4.35050E+01 0.00000E+00
 -1      2327 1.25400E+02 4.35050E+01 0.00000E+00
 -1      2328 1.23150E+02 4.22060E+01 0.00000E+00
 -1      2329 1.26900E+02 4.35050E+01 0.00000E+00
 -1      2330 1.28400E+02 4.35050E+01 0.00000E+00
 -1      2331 1.26150E+02 4.22060E+01 0.00000E+00
 -1      2332 1.29900E+02 4.35050E+01 0.00000E+00
 -1      2333 1.31400E+02 4.35050E+01 0.00000E+00
 -1      2334 1.29150E+02 4.22060E+01 0.00000E+00
 -1      2335 1.32900E+02 4.35050E+01 0.00000E+00
 -1      2336 1.34400E+02 4.35050E+01 0.00000E+00
 -1      2337 1.32150E+02 4.22060E+01 0.00000E+00
 -1      2338 1.35900E+02 4.35050E+01 0.00000E+00
 -1      2339 1.37400E+02 4.35050E+01 0.00000E+00
 -1      2340 1.35150E+02 4.22060E+01 0.00000E+00
 -1      2341 1.38900E+02 4.35050E+01 0.00000E+00
 -1      2342 1.40400E+02 4.35050E+01 0.00000E+00
 -1      2343 1.38150E+02 4.22060E+01 0.00000E+00
 -1      2344 1.16985E+01 6.45950E+00 0.00000E+00
 -1      2345 1.01985E+01 6.45950E+00 0.00000E+00
 -1      2346 9.89700E+00 7.72300E+00 0.00000E+00
 -1      2347 2.01375E+01 6.49500E+00 0.00000E+00
 -1      2348 1.87125E+01 6.49500E+00 0.00000E+00
 -1      2349 2.31375E+01 6.49500E+00 0.00000E+00
 -1      2350 2.16375E+01 6.49500E+00 0.00000E+00
 -1      2351 2.09250E+01 7.79400E+00 0.00000E+00
 -1      2352 2.61375E+01 6.49500E+00 0.00000E+00
 -1      2353 2.46375E+01 6.49500E+00 0.00000E+00
 -1      2354 2.39250E+01 7.79400E+00 0.00000E+00
 -1      2355 2.91375E+01 6.49500E+00 0.00000E+00
 -1      2356 2.76375E+01 6.49500E+00 0.00000E+00
 -1      2357 2.69250E+01 7.79400E+00 0.00000E+00
 -1      2358 3.21375E+01 6.49500E+00 0.00000E+00
 -1      2359 3.06375E+01 6.49500E+00 0.00000E+00
 -1      2360 2.99250E+01 7.79400E+00 0.00000E+00
 -1      2361 3.51375E+01 6.49500E+00 0.00000E+00
 -1      2362 3.36375E+01 6.49500E+00 0.00000E+00
 -1      2363 3.29250E+01 7.79400E+00 0.00000E+00
 -1      2364 3.81375E+01 6.49500E+00 0.00000E+00
 -1      2365 3.66375E+01 6.49500E+00 0.00000E+00
 -1      2366 3.59250E+01 7.79400E+00 0.00000E+00
 -1      2367 4.11375E+01 6.49500E+00 0.00000E+00
 -1      2368 3.96375E+01 6.49500E+00 0.00000E+00
 -1      2369 3.89250E+01 7.79400E+00 0.00000E+00
 -1      2370 4.39875E+01 6.49500E+00 0.00000E+00
 -1      2371 4.25625E+01 6.49500E+00 0.00000E+00
 -1      2372 4.18500E+01 7.79400E+00 0.00000E+00
 -1      2373 4.69875E+01 6.49500E+00 0.00000E+00
 -1      2374 4.54875E+01 6.49500E+00 0.00000E+00
 -1      2375 4.47750E+01 7.79400E+00 0.00000E+00
 -1      2376 4.99875E+01 6.49500E+00 0.00000E+00
 -1      2377 4.84875E+01 6.49500E+00 0.00000E+00
 -1      2378 4.77750E+01 7.79400E+00 0.00000E+00
 -1      2379 5.29875E+01 6.49500E+00 0.00000E+00
 -1      2380 5.14875E+01 6.49500E+00 0.00000E+00
 -1      2381 5.07750E+01 7.79400E+00 0.00000E+00
 -1      2382 5.59875E+01 6.49500E+00 0.00000E+00
 -1      2383 5.44875E+01 6.49500E+00 0.00000E+00
 -1      2384 5.37750E+01 7.79400E+00 0.00000E+00
 -1      2385 5.89875E+01 6.49500E+00 0.00000E+00
 -1      2386 5.74875E+01 6.49500E+00 0.00000E+00
 -1      2387 5.67750E+01 7.79400E+00 0.00000E+00
 -1      2388 6.19875E+01 6.49500E+00 0.00000E+00
 -1      2389 6.04875E+01 6.49500E+00 0.00000E+00
 -1      2390 5.97750E+01 7.79400E+00 0.00000E+00
 -1      2391 6.49875E+01 6.49500E+00 0.00000E+00
 -1      2392 6.34875E+01 6.49500E+00 0.00000E+00
 -1      2393 6.27750E+01 7.79400E+00 0.00000E+00
 -1      2394 6.78375E+01 6.49500E+00 0.00000E+00
 -1      2395 6.64125E+01 6.49500E+00 0.00000E+00
 -1      2396 6.57000E+01 7.79400E+00 0.00000E+00
 -1      2397 7.08375E+01 6.49500E+00 0.00000E+00
 -1      2398 6.93375E+01 6.49500E+00 0.00000E+00
 -1      2399 6.86250E+01 7.79400E+00 0.00000E+00
 -1      2400 7.38375E+01 6.49500E+00 0.00000E+00
 -1      2401 7.23375E+01 6.49500E+00 0.00000E+00
 -1      2402 7.16250E+01 7.79400E+00 0.00000E+00
 -1      2403 7.68375E+01 6.49500E+00 0.00000E+00
 -1      2404 7.53375E+01 6.49500E+00 0.00000E+00
 -1      2405 7.46250E+01 7.79400E+00 0.00000E+00
 -1      2406 7.98375E+01 6.49500E+00 0.00000E+00
 -1      2407 7.83375E+01 6.49500E+00 0.00000E+00
 -1      2408 7.76250E+01 7.79400E+00 0.00000E+00
 -1      2409 8.28375E+01 6.49500E+00 0.00000E+00
 -1      2410 8.13375E+01 6.49500E+00 0.00000E+00
 -1      2411 8.06250E+01 7.79400E+00 0.00000E+00
 -1      2412 8.58375E+01 6.49500E+00 0.00000E+00
 -1      2413 8.43375E+01 6.49500E+00 0.00000E+00
 -1      2414 8.36250E+01 7.79400E+00 0.00000E+00
 -1      2415 8.88375E+01 6.49500E+00 0.00000E+00
 -1      2416 8.73375E+01 6.49500E+00 0.00000E+00
 -1      2417 8.66250E+01 7.79400E+00 0.00000E+00
 -1      2418 9.16875E+01 6.49500E+00 0.00000E+00
 -1      2419 9.02625E+01 6.49500E+00 0.00000E+00
 -1      2420 8.95500E+01 7.79400E+00 0.00000E+00
 -1      2421 9.46500E+01 6.22113E+00 0.00000E+00
 -1      2422 9.31500E+01 6.22113E+00 0.00000E+00
 -1      2423 1.14581E+02 1.16211E+01 0.00000E+00
 -1      2424 1.14831E+02 1.26953E+01 0.00000E+00
 -1      2425 1.07578E+02 4.19804E+00 0.00000E+00
 -1      2426 1.19850E+02 5.94725E+00 0.00000E+00
 -1      2427 1.18350E+02 5.94725E+00 0.00000E+00
 -1      2428 1.22850E+02 5.94725E+00 0.00000E+00
 -1      2429 1.21350E+02 5.94725E+00 0.00000E+00
 -1      2430 1.20600E+02 7.24625E+00 0.00000E+00
 -1      2431 1.25700E+02 5.94725E+00 0.00000E+00
 -1      2432 1.24275E+02 5.94725E+00 0.00000E+00
 -1      2433 1.23525E+02 7.24625E+00 0.00000E+00
 -1      2434 1.28700E+02 5.94725E+00 0.00000E+00
 -1      2435 1.27200E+02 5.94725E+00 0.00000E+00
 -1      2436 1.26450E+02 7.24625E+00 0.00000E+00
 -1      2437 1.31700E+02 5.94725E+00 0.00000E+00
 -1      2438 1.30200E+02 5.94725E+00 0.00000E+00
 -1      2439 1.29450E+02 7.24625E+00 0.00000E+00
 -1      2440 1.34700E+02 5.94725E+00 0.00000E+00
 -1      2441 1.33200E+02 5.94725E+00 0.00000E+00
 -1      2442 1.32450E+02 7.24625E+00 0.00000E+00
 -1      2443 1.37700E+02 5.94725E+00 0.00000E+00
 -1      2444 1.36200E+02 5.94725E+00 0.00000E+00
 -1      2445 1.35450E+02 7.24625E+00 0.00000E+00
 -1      2446 1.40700E+02 5.94725E+00 0.00000E+00
 -1      2447 1.39200E+02 5.94725E+00 0.00000E+00
 -1      2448 1.38450E+02 7.24625E+00 0.00000E+00
 -1      2449 1.12940E+02 7.65034E+00 0.00000E+00
 -1      2450 1.13509E+02 8.69811E+00 0.00000E+00
 -1      2451 1.43505E+02 1.39750E+01 0.00000E+00
 -1      2452 1.43505E+02 1.25250E+01 0.00000E+00
 -1      2453 1.43505E+02 1.98625E+01 0.00000E+00
 -1      2454 1.43505E+02 1.83875E+01 0.00000E+00
 -1      2455 1.43505E+02 2.28125E+01 0.00000E+00
 -1      2456 1.43505E+02 2.13375E+01 0.00000E+00
 -1      2457 1.42206E+02 2.06000E+01 0.00000E+00
 -1      2458 1.43505E+02 2.57625E+01 0.00000E+00
 -1      2459 1.43505E+02 2.42875E+01 0.00000E+00
 -1      2460 1.42206E+02 2.35500E+01 0.00000E+00
 -1      2461 1.43505E+02 2.87125E+01 0.00000E+00
 -1      2462 1.43505E+02 2.72375E+01 0.00000E+00
 -1      2463 1.42206E+02 2.65000E+01 0.00000E+00
 -1      2464 1.43505E+02 3.16125E+01 0.00000E+00
 -1      2465 1.43505E+02 3.01625E+01 0.00000E+00
 -1      2466 1.42206E+02 2.94250E+01 0.00000E+00
 -1      2467 1.43505E+02 3.45625E+01 0.00000E+00
 -1      2468 1.43505E+02 3.30875E+01 0.00000E+00
 -1      2469 1.42206E+02 3.23500E+01 0.00000E+00
 -1      2470 1.43505E+02 3.75125E+01 0.00000E+00
 -1      2471 1.43505E+02 3.60375E+01 0.00000E+00
 -1      2472 1.42206E+02 3.53000E+01 0.00000E+00
 -1      2473 1.43505E+02 4.04625E+01 0.00000E+00
 -1      2474 1.43505E+02 3.89875E+01 0.00000E+00
 -1      2475 1.42206E+02 3.82500E+01 0.00000E+00
 -1      2476 1.14032E+02 9.74027E+00 0.00000E+00
 -1      2477 1.14324E+02 1.05688E+01 0.00000E+00
 -1      2478 9.39423E+01 1.57563E+01 0.00000E+00
 -1      2479 9.39322E+01 1.47833E+01 0.00000E+00
 -1      2480 1.72125E+01 6.49500E+00 0.00000E+00
 -1      2481 1.57125E+01 6.49500E+00 0.00000E+00
 -1      2482 1.79250E+01 7.79400E+00 0.00000E+00
 -1      2483 1.43590E+02 6.97406E+00 0.00000E+00
 -1      2484 1.41913E+02 6.34819E+00 0.00000E+00
 -1      2485 1.41163E+02 7.64719E+00 0.00000E+00
 -1      2486 1.43590E+02 8.44906E+00 0.00000E+00
 -1      2487 1.14471E+02 1.58541E+01 0.00000E+00
 -1      2488 1.14049E+02 1.69127E+01 0.00000E+00
 -1      2489 1.14826E+02 1.39246E+01 0.00000E+00
 -1      2490 1.14708E+02 1.47272E+01 0.00000E+00
 -1      2491 1.05531E+02 2.40248E+01 0.00000E+00
 -1      2492 1.04399E+02 2.40208E+01 0.00000E+00
 -1      2493 9.48265E+01 9.38584E+00 0.00000E+00
 -1      2494 9.51967E+01 8.53848E+00 0.00000E+00
 -1      2495 1.43548E+02 1.12245E+01 0.00000E+00
 -1      2496 1.43548E+02 9.74953E+00 0.00000E+00
 -1      2497 1.42334E+02 9.34859E+00 0.00000E+00
 -1      2498 1.42249E+02 1.19495E+01 0.00000E+00
 -1      2499 1.43505E+02 1.69188E+01 0.00000E+00
 -1      2500 1.43505E+02 1.54438E+01 0.00000E+00
 -1      2501 1.42206E+02 1.47188E+01 0.00000E+00
 -1      2502 1.42206E+02 1.76563E+01 0.00000E+00
 -1      2503 6.49500E+00 2.71625E+01 0.00000E+00
 -1      2504 6.49500E+00 2.86375E+01 0.00000E+00
 -1      2505 7.79400E+00 2.93750E+01 0.00000E+00
 -1      2506 7.79400E+00 2.64250E+01 0.00000E+00
 -1      2507 1.44555E+01 6.47725E+00 0.00000E+00
 -1      2508 1.29555E+01 6.47725E+00 0.00000E+00
 -1      2509 1.26540E+01 7.74075E+00 0.00000E+00
 -1      2510 1.51680E+01 7.77625E+00 0.00000E+00
 -1      2511 1.44321E+02 4.30606E+01 0.00000E+00
 -1      2512 9.41826E+01 1.11802E+01 0.00000E+00
 -1      2513 9.44716E+01 1.03103E+01 0.00000E+00
 -1      2514 1.11194E+02 2.10488E+01 0.00000E+00
 -1      2515 1.10433E+02 2.16969E+01 0.00000E+00
 -1      2516 9.50673E+01 1.81032E+01 0.00000E+00
 -1      2517 9.44115E+01 1.71500E+01 0.00000E+00
 -1      2518 9.59390E+01 1.96430E+01 0.00000E+00
 -1      2519 9.55031E+01 1.88731E+01 0.00000E+00
 -1      2520 9.45377E+01 1.88351E+01 0.00000E+00
 -1      2521 9.74838E+01 2.14445E+01 0.00000E+00
 -1      2522 9.66983E+01 2.06781E+01 0.00000E+00
 -1      2523 9.94518E+01 2.25987E+01 0.00000E+00
 -1      2524 9.85622E+01 2.21641E+01 0.00000E+00
 -1      2525 1.01344E+02 2.32532E+01 0.00000E+00
 -1      2526 1.00457E+02 2.29635E+01 0.00000E+00
 -1      2527 1.03245E+02 2.36720E+01 0.00000E+00
 -1      2528 1.02341E+02 2.35064E+01 0.00000E+00
 -1      2529 1.07561E+02 2.34054E+01 0.00000E+00
 -1      2530 1.06773E+02 2.36768E+01 0.00000E+00
 -1      2531 1.09494E+02 2.24407E+01 0.00000E+00
 -1      2532 1.08556E+02 2.29543E+01 0.00000E+00
 -1      2533 1.12607E+02 1.96957E+01 0.00000E+00
 -1      2534 1.11980E+02 2.03617E+01 0.00000E+00
 -1      2535 1.13672E+02 1.77448E+01 0.00000E+00
 -1      2536 1.13296E+02 1.85769E+01 0.00000E+00
 -1      2537 1.14641E+02 1.75181E+01 0.00000E+00
 -1      2538 6.55950E+00 4.28890E+01 0.00000E+00
 -1      2539 8.53650E+00 4.32410E+01 0.00000E+00
 -1      2540 9.28650E+00 4.19420E+01 0.00000E+00
 -1      2541 6.55950E+00 4.14140E+01 0.00000E+00
 -1      2542 7.79400E+00 3.52687E+01 0.00000E+00
 -1      2543 6.49500E+00 3.60062E+01 0.00000E+00
 -1      2544 6.49500E+00 3.74750E+01 0.00000E+00
 -1      2545 1.11145E+02 5.48571E+00 0.00000E+00
 -1      2546 1.13162E+02 6.79260E+00 0.00000E+00
 -1      2547 9.39477E+01 9.57680E+00 0.00000E+00
 -1      2548 1.12102E+02 2.12749E+01 0.00000E+00
 -1      2549 9.24375E+01 7.52013E+00 0.00000E+00
 -1      2550 1.15496E+02 1.32030E+01 0.00000E+00
 -1      2551 1.14464E+02 8.82693E+00 0.00000E+00
 -1      2552 1.15254E+02 1.55591E+01 0.00000E+00
 -1      2553 9.63331E+01 6.90151E+00 0.00000E+00
 -1      2554 9.53820E+01 6.23200E+00 0.00000E+00
 -1      2555 1.15244E+02 1.09214E+01 0.00000E+00
 -1      2556 1.06204E+02 2.46999E+01 0.00000E+00
 -1      2557 1.42758E+02 4.35929E+01 0.00000E+00
 -1      2558 1.43241E+02 4.17323E+01 0.00000E+00
 -1      2559 1.41942E+02 4.09948E+01 0.00000E+00
 -1      2560 1.41414E+02 4.35342E+01 0.00000E+00
 -1      2561 9.46320E+01 7.25713E+00 0.00000E+00
 -1      2562 9.34282E+01 1.41566E+01 0.00000E+00
 -1      2563 1.03807E+02 2.46991E+01 0.00000E+00
 -1      2564 9.48333E+01 7.96019E+00 0.00000E+00
 -1      2565 9.57274E+01 7.84630E+00 0.00000E+00
 -1      2566 1.13576E+02 1.94690E+01 0.00000E+00
 -1      2567 1.10376E+02 2.27058E+01 0.00000E+00
 -1      2568 1.08442E+02 2.39008E+01 0.00000E+00
 -1      2569 1.01657E+02 2.40971E+01 0.00000E+00
 -1      2570 9.96547E+01 2.34790E+01 0.00000E+00
 -1      2571 1.16850E+02 5.84095E+00 0.00000E+00
 -1      2572 1.15350E+02 5.84095E+00 0.00000E+00
 -1      2573 1.13491E+02 5.22434E+00 0.00000E+00
 -1      2574 1.11991E+02 5.22434E+00 0.00000E+00
 -1      2575 1.40664E+02 4.22352E+01 0.00000E+00
 -1      2576 1.17600E+02 7.13995E+00 0.00000E+00
 -1      2577 9.57329E+01 2.06401E+01 0.00000E+00
 -1      2578 9.36327E+01 1.66715E+01 0.00000E+00
 -1      2579 9.28539E+01 1.61930E+01 0.00000E+00
 -1      2580 9.33231E+01 1.75867E+01 0.00000E+00
 -1      2581 6.52725E+00 3.87101E+01 0.00000E+00
 -1      2582 6.52725E+00 4.01789E+01 0.00000E+00
 -1      2583 7.89075E+00 4.04429E+01 0.00000E+00
 -1      2584 7.82625E+00 3.79726E+01 0.00000E+00
 -1      2585 9.36428E+01 1.17683E+01 0.00000E+00
 -1      2586 9.30531E+01 1.10893E+01 0.00000E+00
 -1      2587 9.31031E+01 1.23563E+01 0.00000E+00
 -1      2588 9.75706E+01 2.23947E+01 0.00000E+00
 -1      2589 1.15021E+02 7.40921E+00 0.00000E+00
 -1      2590 1.14271E+02 6.21651E+00 0.00000E+00
 -1      2591 9.09300E+00 1.98250E+01 0.00000E+00
 -1      2592 9.09300E+00 2.12750E+01 0.00000E+00
 -1      2593 9.09300E+00 2.27500E+01 0.00000E+00
 -1      2594 9.09300E+00 2.42250E+01 0.00000E+00
 -1      2595 1.03920E+01 2.20250E+01 0.00000E+00
 -1      2596 9.09300E+00 1.39375E+01 0.00000E+00
 -1      2597 9.09300E+00 1.54125E+01 0.00000E+00
 -1      2598 9.09300E+00 1.09875E+01 0.00000E+00
 -1      2599 9.09300E+00 1.24625E+01 0.00000E+00
 -1      2600 1.03920E+01 1.32000E+01 0.00000E+00
 -1      2601 9.64575E+00 8.72350E+00 0.00000E+00
 -1      2602 9.34425E+00 9.98700E+00 0.00000E+00
 -1      2603 1.06433E+01 1.07245E+01 0.00000E+00
 -1      2604 1.11458E+01 8.72350E+00 0.00000E+00
 -1      2605 1.39914E+02 4.09362E+01 0.00000E+00
 -1      2606 1.40928E+02 4.09655E+01 0.00000E+00
 -1      2607 1.41192E+02 3.96958E+01 0.00000E+00
 -1      2608 1.41121E+02 8.94766E+00 0.00000E+00
 -1      2609 1.39907E+02 8.54672E+00 0.00000E+00
 -1      2610 1.41078E+02 1.02481E+01 0.00000E+00
 -1      2611 1.18272E+02 8.29924E+00 0.00000E+00
 -1      2612 1.16772E+02 8.19293E+00 0.00000E+00
 -1      2613 1.44000E+01 4.09070E+01 0.00000E+00
 -1      2614 1.59000E+01 4.09070E+01 0.00000E+00
 -1      2615 1.74000E+01 4.09070E+01 0.00000E+00
 -1      2616 1.89000E+01 4.09070E+01 0.00000E+00
 -1      2617 1.66500E+01 3.96080E+01 0.00000E+00
 -1      2618 2.04000E+01 4.09070E+01 0.00000E+00
 -1      2619 2.19000E+01 4.09070E+01 0.00000E+00
 -1      2620 1.96500E+01 3.96080E+01 0.00000E+00
 -1      2621 2.34000E+01 4.09070E+01 0.00000E+00
 -1      2622 2.49000E+01 4.09070E+01 0.00000E+00
 -1      2623 2.26500E+01 3.96080E+01 0.00000E+00
 -1      2624 2.64000E+01 4.09070E+01 0.00000E+00
 -1      2625 2.79000E+01 4.09070E+01 0.00000E+00
 -1      2626 2.56500E+01 3.96080E+01 0.00000E+00
 -1      2627 2.94000E+01 4.09070E+01 0.00000E+00
 -1      2628 3.09000E+01 4.09070E+01 0.00000E+00
 -1      2629 2.86500E+01 3.96080E+01 0.00000E+00
 -1      2630 3.24000E+01 4.09070E+01 0.00000E+00
 -1      2631 3.39000E+01 4.09070E+01 0.00000E+00
 -1      2632 3.16500E+01 3.96080E+01 0.00000E+00
 -1      2633 3.54000E+01 4.09070E+01 0.00000E+00
 -1      2634 3.69000E+01 4.09070E+01 0.00000E+00
 -1      2635 3.46500E+01 3.96080E+01 0.00000E+00
 -1      2636 3.84000E+01 4.09070E+01 0.00000E+00
 -1      2637 3.99000E+01 4.09070E+01 0.00000E+00
 -1      2638 3.76500E+01 3.96080E+01 0.00000E+00
 -1      2639 4.14000E+01 4.09070E+01 0.00000E+00
 -1      2640 4.29000E+01 4.09070E+01 0.00000E+00
 -1      2641 4.06500E+01 3.96080E+01 0.00000E+00
 -1      2642 4.44000E+01 4.09070E+01 0.00000E+00
 -1      2643 4.59000E+01 4.09070E+01 0.00000E+00
 -1      2644 4.36500E+01 3.96080E+01 0.00000E+00
 -1      2645 4.74000E+01 4.09070E+01 0.00000E+00
 -1      2646 4.89000E+01 4.09070E+01 0.00000E+00
 -1      2647 4.66500E+01 3.96080E+01 0.00000E+00
 -1      2648 5.04000E+01 4.09070E+01 0.00000E+00
 -1      2649 5.19000E+01 4.09070E+01 0.00000E+00
 -1      2650 4.96500E+01 3.96080E+01 0.00000E+00
 -1      2651 5.34000E+01 4.09070E+01 0.00000E+00
 -1      2652 5.49000E+01 4.09070E+01 0.00000E+00
 -1      2653 5.26500E+01 3.96080E+01 0.00000E+00
 -1      2654 5.64000E+01 4.09070E+01 0.00000E+00
 -1      2655 5.79000E+01 4.09070E+01 0.00000E+00
 -1      2656 5.56500E+01 3.96080E+01 0.00000E+00
 -1      2657 5.94000E+01 4.09070E+01 0.00000E+00
 -1      2658 6.09000E+01 4.09070E+01 0.00000E+00
 -1      2659 5.86500E+01 3.96080E+01 0.00000E+00
 -1      2660 6.24000E+01 4.09070E+01 0.00000E+00
 -1      2661 6.39000E+01 4.09070E+01 0.00000E+00
 -1      2662 6.16500E+01 3.96080E+01 0.00000E+00
 -1      2663 6.54000E+01 4.09070E+01 0.00000E+00
 -1      2664 6.69000E+01 4.09070E+01 0.00000E+00
 -1      2665 6.46500E+01 3.96080E+01 0.00000E+00
 -1      2666 6.84000E+01 4.09070E+01 0.00000E+00
 -1      2667 6.99000E+01 4.09070E+01 0.00000E+00
 -1      2668 6.76500E+01 3.96080E+01 0.00000E+00
 -1      2669 7.14000E+01 4.09070E+01 0.00000E+00
 -1      2670 7.29000E+01 4.09070E+01 0.00000E+00
 -1      2671 7.06500E+01 3.96080E+01 0.00000E+00
 -1      2672 7.44000E+01 4.09070E+01 0.00000E+00
 -1      2673 7.59000E+01 4.09070E+01 0.00000E+00
 -1      2674 7.36500E+01 3.96080E+01 0.00000E+00
 -1      2675 7.74000E+01 4.09070E+01 0.00000E+00
 -1      2676 7.89000E+01 4.09070E+01 0.00000E+00
 -1      2677 7.66500E+01 3.96080E+01 0.00000E+00
 -1      2678 8.04000E+01 4.09070E+01 0.00000E+00
 -1      2679 8.19000E+01 4.09070E+01 0.00000E+00
 -1      2680 7.96500E+01 3.96080E+01 0.00000E+00
 -1      2681 8.34000E+01 4.09070E+01 0.00000E+00
 -1      2682 8.49000E+01 4.09070E+01 0.00000E+00
 -1      2683 8.26500E+01 3.96080E+01 0.00000E+00
 -1      2684 8.64000E+01 4.09070E+01 0.00000E+00
 -1      2685 8.79000E+01 4.09070E+01 0.00000E+00
 -1      2686 8.56500E+01 3.96080E+01 0.00000E+00
 -1      2687 8.94000E+01 4.09070E+01 0.00000E+00
 -1      2688 9.09000E+01 4.09070E+01 0.00000E+00
 -1      2689 8.86500E+01 3.96080E+01 0.00000E+00
 -1      2690 9.24000E+01 4.09070E+01 0.00000E+00
 -1      2691 9.39000E+01 4.09070E+01 0.00000E+00
 -1      2692 9.16500E+01 3.96080E+01 0.00000E+00
 -1      2693 9.54000E+01 4.09070E+01 0.00000E+00
 -1      2694 9.69000E+01 4.09070E+01 0.00000E+00
 -1      2695 9.46500E+01 3.96080E+01 0.00000E+00
 -1      2696 9.84000E+01 4.09070E+01 0.00000E+00
 -1      2697 9.99000E+01 4.09070E+01 0.00000E+00
 -1      2698 9.76500E+01 3.96080E+01 0.00000E+00
 -1      2699 1.01400E+02 4.09070E+01 0.00000E+00
 -1      2700 1.02900E+02 4.09070E+01 0.00000E+00
 -1      2701 1.00650E+02 3.96080E+01 0.00000E+00
 -1      2702 1.04400E+02 4.09070E+01 0.00000E+00
 -1      2703 1.05900E+02 4.09070E+01 0.00000E+00
 -1      2704 1.03650E+02 3.96080E+01 0.00000E+00
 -1      2705 1.07400E+02 4.09070E+01 0.00000E+00
 -1      2706 1.08900E+02 4.09070E+01 0.00000E+00
 -1      2707 1.06650E+02 3.96080E+01 0.00000E+00
 -1      2708 1.10400E+02 4.09070E+01 0.00000E+00
 -1      2709 1.11900E+02 4.09070E+01 0.00000E+00
 -1      2710 1.09650E+02 3.96080E+01 0.00000E+00
 -1      2711 1.13400E+02 4.09070E+01 0.00000E+00
 -1      2712 1.14900E+02 4.09070E+01 0.00000E+00
 -1      2713 1.12650E+02 3.96080E+01 0.00000E+00
 -1      2714 1.16400E+02 4.09070E+01 0.00000E+00
 -1      2715 1.17900E+02 4.09070E+01 0.00000E+00
 -1      2716 1.15650E+02 3.96080E+01 0.00000E+00
 -1      2717 1.19400E+02 4.09070E+01 0.00000E+00
 -1      2718 1.20900E+02 4.09070E+01 0.00000E+00
 -1      2719 1.18650E+02 3.96080E+01 0.00000E+00
 -1      2720 1.22400E+02 4.09070E+01 0.00000E+00
 -1      2721 1.23900E+02 4.09070E+01 0.00000E+00
 -1      2722 1.21650E+02 3.96080E+01 0.00000E+00
 -1      2723 1.25400E+02 4.09070E+01 0.00000E+00
 -1      2724 1.26900E+02 4.09070E+01 0.00000E+00
 -1      2725 1.24650E+02 3.96080E+01 0.00000E+00
 -1      2726 1.28400E+02 4.09070E+01 0.00000E+00
 -1      2727 1.29900E+02 4.09070E+01 0.00000E+00
 -1      2728 1.27650E+02 3.96080E+01 0.00000E+00
 -1      2729 1.31400E+02 4.09070E+01 0.00000E+00
 -1      2730 1.32900E+02 4.09070E+01 0.00000E+00
 -1      2731 1.30650E+02 3.96080E+01 0.00000E+00
 -1      2732 1.34400E+02 4.09070E+01 0.00000E+00
 -1      2733 1.35900E+02 4.09070E+01 0.00000E+00
 -1      2734 1.33650E+02 3.96080E+01 0.00000E+00
 -1      2735 1.37157E+02 4.09216E+01 0.00000E+00
 -1      2736 1.38657E+02 4.09216E+01 0.00000E+00
 -1      2737 1.38921E+02 3.96519E+01 0.00000E+00
 -1      2738 1.36407E+02 3.96226E+01 0.00000E+00
 -1      2739 9.41013E+01 7.94932E+00 0.00000E+00
 -1      2740 2.46750E+01 9.09300E+00 0.00000E+00
 -1      2741 2.31750E+01 9.09300E+00 0.00000E+00
 -1      2742 2.16750E+01 9.09300E+00 0.00000E+00
 -1      2743 2.01750E+01 9.09300E+00 0.00000E+00
 -1      2744 2.24250E+01 1.03920E+01 0.00000E+00
 -1      2745 3.06750E+01 9.09300E+00 0.00000E+00
 -1      2746 2.91750E+01 9.09300E+00 0.00000E+00
 -1      2747 3.36750E+01 9.09300E+00 0.00000E+00
 -1      2748 3.21750E+01 9.09300E+00 0.00000E+00
 -1      2749 3.14250E+01 1.03920E+01 0.00000E+00
 -1      2750 3.66750E+01 9.09300E+00 0.00000E+00
 -1      2751 3.51750E+01 9.09300E+00 0.00000E+00
 -1      2752 3.44250E+01 1.03920E+01 0.00000E+00
 -1      2753 3.96750E+01 9.09300E+00 0.00000E+00
 -1      2754 3.81750E+01 9.09300E+00 0.00000E+00
 -1      2755 3.74250E+01 1.03920E+01 0.00000E+00
 -1      2756 4.25250E+01 9.09300E+00 0.00000E+00
 -1      2757 4.11000E+01 9.09300E+00 0.00000E+00
 -1      2758 4.03500E+01 1.03920E+01 0.00000E+00
 -1      2759 4.55250E+01 9.09300E+00 0.00000E+00
 -1      2760 4.40250E+01 9.09300E+00 0.00000E+00
 -1      2761 4.32750E+01 1.03920E+01 0.00000E+00
 -1      2762 4.85250E+01 9.09300E+00 0.00000E+00
 -1      2763 4.70250E+01 9.09300E+00 0.00000E+00
 -1      2764 4.62750E+01 1.03920E+01 0.00000E+00
 -1      2765 5.15250E+01 9.09300E+00 0.00000E+00
 -1      2766 5.00250E+01 9.09300E+00 0.00000E+00
 -1      2767 4.92750E+01 1.03920E+01 0.00000E+00
 -1      2768 5.45250E+01 9.09300E+00 0.00000E+00
 -1      2769 5.30250E+01 9.09300E+00 0.00000E+00
 -1      2770 5.22750E+01 1.03920E+01 0.00000E+00
 -1      2771 5.75250E+01 9.09300E+00 0.00000E+00
 -1      2772 5.60250E+01 9.09300E+00 0.00000E+00
 -1      2773 5.52750E+01 1.03920E+01 0.00000E+00
 -1      2774 6.05250E+01 9.09300E+00 0.00000E+00
 -1      2775 5.90250E+01 9.09300E+00 0.00000E+00
 -1      2776 5.82750E+01 1.03920E+01 0.00000E+00
 -1      2777 6.35250E+01 9.09300E+00 0.00000E+00
 -1      2778 6.20250E+01 9.09300E+00 0.00000E+00
 -1      2779 6.12750E+01 1.03920E+01 0.00000E+00
 -1      2780 6.63750E+01 9.09300E+00 0.00000E+00
 -1      2781 6.49500E+01 9.09300E+00 0.00000E+00
 -1      2782 6.42000E+01 1.03920E+01 0.00000E+00
 -1      2783 6.93750E+01 9.09300E+00 0.00000E+00
 -1      2784 6.78750E+01 9.09300E+00 0.00000E+00
 -1      2785 6.71250E+01 1.03920E+01 0.00000E+00
 -1      2786 7.23750E+01 9.09300E+00 0.00000E+00
 -1      2787 7.08750E+01 9.09300E+00 0.00000E+00
 -1      2788 7.01250E+01 1.03920E+01 0.00000E+00
 -1      2789 7.53750E+01 9.09300E+00 0.00000E+00
 -1      2790 7.38750E+01 9.09300E+00 0.00000E+00
 -1      2791 7.31250E+01 1.03920E+01 0.00000E+00
 -1      2792 7.83750E+01 9.09300E+00 0.00000E+00
 -1      2793 7.68750E+01 9.09300E+00 0.00000E+00
 -1      2794 7.61250E+01 1.03920E+01 0.00000E+00
 -1      2795 8.13750E+01 9.09300E+00 0.00000E+00
 -1      2796 7.98750E+01 9.09300E+00 0.00000E+00
 -1      2797 7.91250E+01 1.03920E+01 0.00000E+00
 -1      2798 8.43750E+01 9.09300E+00 0.00000E+00
 -1      2799 8.28750E+01 9.09300E+00 0.00000E+00
 -1      2800 8.21250E+01 1.03920E+01 0.00000E+00
 -1      2801 8.73750E+01 9.09300E+00 0.00000E+00
 -1      2802 8.58750E+01 9.09300E+00 0.00000E+00
 -1      2803 8.51250E+01 1.03920E+01 0.00000E+00
 -1      2804 9.02250E+01 9.09300E+00 0.00000E+00
 -1      2805 8.88000E+01 9.09300E+00 0.00000E+00
 -1      2806 8.80500E+01 1.03920E+01 0.00000E+00
 -1      2807 1.16523E+02 1.25921E+01 0.00000E+00
 -1      2808 1.16519E+02 1.38214E+01 0.00000E+00
 -1      2809 9.23797E+01 1.45009E+01 0.00000E+00
 -1      2810 9.26443E+01 1.33797E+01 0.00000E+00
 -1      2811 9.09300E+00 3.15875E+01 0.00000E+00
 -1      2812 9.09300E+00 3.30625E+01 0.00000E+00
 -1      2813 1.24238E+02 8.54525E+00 0.00000E+00
 -1      2814 1.22813E+02 8.54525E+00 0.00000E+00
 -1      2815 1.07399E+02 3.07697E+00 0.00000E+00
 -1      2816 1.21313E+02 8.54525E+00 0.00000E+00
 -1      2817 1.19813E+02 8.54525E+00 0.00000E+00
 -1      2818 1.22025E+02 9.84425E+00 0.00000E+00
 -1      2819 1.30200E+02 8.54525E+00 0.00000E+00
 -1      2820 1.28700E+02 8.54525E+00 0.00000E+00
 -1      2821 1.33200E+02 8.54525E+00 0.00000E+00
 -1      2822 1.31700E+02 8.54525E+00 0.00000E+00
 -1      2823 1.30950E+02 9.84425E+00 0.00000E+00
 -1      2824 1.36200E+02 8.54525E+00 0.00000E+00
 -1      2825 1.34700E+02 8.54525E+00 0.00000E+00
 -1      2826 1.33950E+02 9.84425E+00 0.00000E+00
 -1      2827 1.38407E+02 8.54672E+00 0.00000E+00
 -1      2828 1.16010E+02 1.04876E+01 0.00000E+00
 -1      2829 1.16266E+02 1.15398E+01 0.00000E+00
 -1      2830 1.17289E+02 1.21583E+01 0.00000E+00
 -1      2831 9.25425E+00 4.07069E+01 0.00000E+00
 -1      2832 1.06178E+01 4.09709E+01 0.00000E+00
 -1      2833 9.22200E+00 3.94717E+01 0.00000E+00
 -1      2834 1.40907E+02 2.13375E+01 0.00000E+00
 -1      2835 1.40907E+02 1.98625E+01 0.00000E+00
 -1      2836 1.40907E+02 3.01500E+01 0.00000E+00
 -1      2837 1.40907E+02 2.87000E+01 0.00000E+00
 -1      2838 1.40907E+02 3.31000E+01 0.00000E+00
 -1      2839 1.40907E+02 3.16250E+01 0.00000E+00
 -1      2840 1.39608E+02 3.09000E+01 0.00000E+00
 -1      2841 1.40907E+02 3.60500E+01 0.00000E+00
 -1      2842 1.40907E+02 3.45750E+01 0.00000E+00
 -1      2843 1.39608E+02 3.38500E+01 0.00000E+00
 -1      2844 1.41192E+02 3.82207E+01 0.00000E+00
 -1      2845 1.16212E+02 1.51722E+01 0.00000E+00
 -1      2846 1.15975E+02 1.62990E+01 0.00000E+00
 -1      2847 1.86750E+01 9.09300E+00 0.00000E+00
 -1      2848 1.71750E+01 9.09300E+00 0.00000E+00
 -1      2849 1.94250E+01 1.03920E+01 0.00000E+00
 -1      2850 1.15687E+02 1.74899E+01 0.00000E+00
 -1      2851 1.15311E+02 1.83220E+01 0.00000E+00
 -1      2852 1.14622E+02 1.94408E+01 0.00000E+00
 -1      2853 1.13934E+02 2.05596E+01 0.00000E+00
 -1      2854 1.15668E+02 1.94126E+01 0.00000E+00
 -1      2855 1.13169E+02 2.17033E+01 0.00000E+00
 -1      2856 1.12383E+02 2.23904E+01 0.00000E+00
 -1      2857 1.04136E+02 2.56944E+01 0.00000E+00
 -1      2858 1.02982E+02 2.53456E+01 0.00000E+00
 -1      2859 1.40907E+02 2.72250E+01 0.00000E+00
 -1      2860 1.40907E+02 2.57500E+01 0.00000E+00
 -1      2861 1.39608E+02 2.79500E+01 0.00000E+00
 -1      2862 1.40907E+02 2.42813E+01 0.00000E+00
 -1      2863 1.40907E+02 2.28062E+01 0.00000E+00
 -1      2864 1.39608E+02 2.20688E+01 0.00000E+00
 -1      2865 1.39608E+02 2.50063E+01 0.00000E+00
 -1      2866 9.53535E+01 2.17144E+01 0.00000E+00
 -1      2867 9.45942E+01 2.06793E+01 0.00000E+00
 -1      2868 1.27219E+02 8.54525E+00 0.00000E+00
 -1      2869 1.25719E+02 8.54525E+00 0.00000E+00
 -1      2870 1.25006E+02 9.84425E+00 0.00000E+00
 -1      2871 1.27969E+02 9.84425E+00 0.00000E+00
 -1      2872 1.07079E+02 2.54324E+01 0.00000E+00
 -1      2873 1.05836E+02 2.57804E+01 0.00000E+00
 -1      2874 1.01986E+02 2.50923E+01 0.00000E+00
 -1      2875 1.00989E+02 2.48391E+01 0.00000E+00
 -1      2876 1.02315E+02 2.60876E+01 0.00000E+00
 -1      2877 1.09328E+02 2.45326E+01 0.00000E+00
 -1      2878 1.08333E+02 2.49837E+01 0.00000E+00
 -1      2879 2.76750E+01 9.09300E+00 0.00000E+00
 -1      2880 2.61750E+01 9.09300E+00 0.00000E+00
 -1      2881 2.84250E+01 1.03920E+01 0.00000E+00
 -1      2882 9.74942E+01 2.36769E+01 0.00000E+00
 -1      2883 9.64159E+01 2.29573E+01 0.00000E+00
 -1      2884 9.40458E+01 1.96219E+01 0.00000E+00
 -1      2885 9.36100E+01 1.88519E+01 0.00000E+00
 -1      2886 9.98651E+01 2.44676E+01 0.00000E+00
 -1      2887 9.88594E+01 2.41028E+01 0.00000E+00
 -1      2888 1.17589E+01 4.09389E+01 0.00000E+00
 -1      2889 1.32589E+01 4.09389E+01 0.00000E+00
 -1      2890 1.40089E+01 3.96399E+01 0.00000E+00
 -1      2891 1.17266E+01 3.97038E+01 0.00000E+00
 -1      2892 9.09300E+00 1.68813E+01 0.00000E+00
 -1      2893 9.09300E+00 1.83563E+01 0.00000E+00
 -1      2894 1.03920E+01 1.90812E+01 0.00000E+00
 -1      2895 1.03920E+01 1.61437E+01 0.00000E+00
 -1      2896 1.11444E+02 2.31342E+01 0.00000E+00
 -1      2897 1.10505E+02 2.38780E+01 0.00000E+00
 -1      2898 1.12512E+02 2.35626E+01 0.00000E+00
 -1      2899 9.32933E+01 8.89999E+00 0.00000E+00
 -1      2900 9.30920E+01 8.19693E+00 0.00000E+00
 -1      2901 9.16295E+01 8.47080E+00 0.00000E+00
 -1      2902 9.29384E+01 9.82441E+00 0.00000E+00
 -1      2903 1.03920E+01 2.49750E+01 0.00000E+00
 -1      2904 9.09300E+00 2.57000E+01 0.00000E+00
 -1      2905 9.09300E+00 2.71750E+01 0.00000E+00
 -1      2906 1.24028E+01 8.74125E+00 0.00000E+00
 -1      2907 1.21515E+01 9.74175E+00 0.00000E+00
 -1      2908 1.36597E+01 8.75900E+00 0.00000E+00
 -1      2909 1.18984E+02 9.59824E+00 0.00000E+00
 -1      2910 9.09300E+00 3.45313E+01 0.00000E+00
 -1      2911 9.09300E+00 3.60000E+01 0.00000E+00
 -1      2912 1.03920E+01 3.37938E+01 0.00000E+00
 -1      2913 1.16645E+02 1.71030E+01 0.00000E+00
 -1      2914 2.54250E+01 1.03920E+01 0.00000E+00
 -1      2915 9.08795E+01 9.76980E+00 0.00000E+00
 -1      2916 1.17239E+02 1.45613E+01 0.00000E+00
 -1      2917 9.20546E+01 1.27007E+01 0.00000E+00
 -1      2918 1.60459E+01 8.93487E+00 0.00000E+00
 -1      2919 1.47889E+01 8.91712E+00 0.00000E+00
 -1      2920 1.45376E+01 9.91763E+00 0.00000E+00
 -1      2921 1.67959E+01 1.02339E+01 0.00000E+00
 -1      2922 1.05887E+02 2.71593E+01 0.00000E+00
 -1      2923 1.05011E+02 2.64268E+01 0.00000E+00
 -1      2924 1.04186E+02 2.70733E+01 0.00000E+00
 -1      2925 1.37657E+02 9.84572E+00 0.00000E+00
 -1      2926 1.16215E+02 9.61066E+00 0.00000E+00
 -1      2927 1.17238E+02 1.02291E+01 0.00000E+00
 -1      2928 1.40907E+02 1.54531E+01 0.00000E+00
 -1      2929 1.40907E+02 1.39844E+01 0.00000E+00
 -1      2930 9.09300E+00 2.86437E+01 0.00000E+00
 -1      2931 9.09300E+00 3.01187E+01 0.00000E+00
 -1      2932 1.03920E+01 3.08563E+01 0.00000E+00
 -1      2933 1.03920E+01 2.79188E+01 0.00000E+00
 -1      2934 9.52772E+01 2.29966E+01 0.00000E+00
 -1      2935 1.39893E+02 3.74958E+01 0.00000E+00
 -1      2936 1.07965E+02 2.60642E+01 0.00000E+00
 -1      2937 1.40907E+02 1.83906E+01 0.00000E+00
 -1      2938 1.40907E+02 1.69219E+01 0.00000E+00
 -1      2939 1.39608E+02 1.61875E+01 0.00000E+00
 -1      2940 1.15543E+02 8.45137E+00 0.00000E+00
 -1      2941 1.14215E+02 2.16751E+01 0.00000E+00
 -1      2942 1.00194E+02 2.54629E+01 0.00000E+00
 -1      2943 9.36665E+01 2.06962E+01 0.00000E+00
 -1      2944 1.40971E+02 1.27665E+01 0.00000E+00
 -1      2945 1.41014E+02 1.14660E+01 0.00000E+00
 -1      2946 1.39800E+02 1.10651E+01 0.00000E+00
 -1      2947 1.39672E+02 1.35009E+01 0.00000E+00
 -1      2948 1.10396E+02 2.49610E+01 0.00000E+00
 -1      2949 9.28312E+01 1.83735E+01 0.00000E+00
 -1      2950 9.23986E+01 1.04125E+01 0.00000E+00
 -1      2951 9.17605E+01 1.63313E+01 0.00000E+00
 -1      2952 9.20701E+01 1.54161E+01 0.00000E+00
 -1      2953 9.12863E+01 1.46392E+01 0.00000E+00
 -1      2954 9.77047E+01 2.46654E+01 0.00000E+00
 -1      2955 1.39608E+02 1.91281E+01 0.00000E+00
 -1      2956 1.19003E+01 1.07423E+01 0.00000E+00
 -1      2957 1.16490E+01 1.17428E+01 0.00000E+00
 -1      2958 1.31573E+01 1.07600E+01 0.00000E+00
 -1      2959 1.16490E+01 1.32177E+01 0.00000E+00
 -1      2960 1.89000E+01 3.83090E+01 0.00000E+00
 -1      2961 2.04000E+01 3.83090E+01 0.00000E+00
 -1      2962 2.19000E+01 3.83090E+01 0.00000E+00
 -1      2963 2.34000E+01 3.83090E+01 0.00000E+00
 -1      2964 2.11500E+01 3.70100E+01 0.00000E+00
 -1      2965 2.49000E+01 3.83090E+01 0.00000E+00
 -1      2966 2.64000E+01 3.83090E+01 0.00000E+00
 -1      2967 2.41500E+01 3.70100E+01 0.00000E+00
 -1      2968 2.79000E+01 3.83090E+01 0.00000E+00
 -1      2969 2.94000E+01 3.83090E+01 0.00000E+00
 -1      2970 2.71500E+01 3.70100E+01 0.00000E+00
 -1      2971 3.09000E+01 3.83090E+01 0.00000E+00
 -1      2972 3.24000E+01 3.83090E+01 0.00000E+00
 -1      2973 3.01500E+01 3.70100E+01 0.00000E+00
 -1      2974 3.39000E+01 3.83090E+01 0.00000E+00
 -1      2975 3.54000E+01 3.83090E+01 0.00000E+00
 -1      2976 3.31500E+01 3.70100E+01 0.00000E+00
 -1      2977 3.69000E+01 3.83090E+01 0.00000E+00
 -1      2978 3.84000E+01 3.83090E+01 0.00000E+00
 -1      2979 3.61500E+01 3.70100E+01 0.00000E+00
 -1      2980 3.99000E+01 3.83090E+01 0.00000E+00
 -1      2981 4.14000E+01 3.83090E+01 0.00000E+00
 -1      2982 3.91500E+01 3.70100E+01 0.00000E+00
 -1      2983 4.29000E+01 3.83090E+01 0.00000E+00
 -1      2984 4.44000E+01 3.83090E+01 0.00000E+00
 -1      2985 4.21500E+01 3.70100E+01 0.00000E+00
 -1      2986 4.59000E+01 3.83090E+01 0.00000E+00
 -1      2987 4.74000E+01 3.83090E+01 0.00000E+00
 -1      2988 4.51500E+01 3.70100E+01 0.00000E+00
 -1      2989 4.89000E+01 3.83090E+01 0.00000E+00
 -1      2990 5.04000E+01 3.83090E+01 0.00000E+00
 -1      2991 4.81500E+01 3.70100E+01 0.00000E+00
 -1      2992 5.19000E+01 3.83090E+01 0.00000E+00
 -1      2993 5.34000E+01 3.83090E+01 0.00000E+00
 -1      2994 5.11500E+01 3.70100E+01 0.00000E+00
 -1      2995 5.49000E+01 3.83090E+01 0.00000E+00
 -1      2996 5.64000E+01 3.83090E+01 0.00000E+00
 -1      2997 5.41500E+01 3.70100E+01 0.00000E+00
 -1      2998 5.79000E+01 3.83090E+01 0.00000E+00
 -1      2999 5.94000E+01 3.83090E+01 0.00000E+00
 -1      3000 5.71500E+01 3.70100E+01 0.00000E+00
 -1      3001 6.09000E+01 3.83090E+01 0.00000E+00
 -1      3002 6.24000E+01 3.83090E+01 0.00000E+00
 -1      3003 6.01500E+01 3.70100E+01 0.00000E+00
 -1      3004 6.39000E+01 3.83090E+01 0.00000E+00
 -1      3005 6.54000E+01 3.83090E+01 0.00000E+00
 -1      3006 6.31500E+01 3.70100E+01 0.00000E+00
 -1      3007 6.69000E+01 3.83090E+01 0.00000E+00
 -1      3008 6.84000E+01 3.83090E+01 0.00000E+00
 -1      3009 6.61500E+01 3.70100E+01 0.00000E+00
 -1      3010 6.99000E+01 3.83090E+01 0.00000E+00
 -1      3011 7.14000E+01 3.83090E+01 0.00000E+00
 -1      3012 6.91500E+01 3.70100E+01 0.00000E+00
 -1      3013 7.29000E+01 3.83090E+01 0.00000E+00
 -1      3014 7.44000E+01 3.83090E+01 0.00000E+00
 -1      3015 7.21500E+01 3.70100E+01 0.00000E+00
 -1      3016 7.59000E+01 3.83090E+01 0.00000E+00
 -1      3017 7.74000E+01 3.83090E+01 0.00000E+00
 -1      3018 7.51500E+01 3.70100E+01 0.00000E+00
 -1      3019 7.89000E+01 3.83090E+01 0.00000E+00
 -1      3020 8.04000E+01 3.83090E+01 0.00000E+00
 -1      3021 7.81500E+01 3.70100E+01 0.00000E+00
 -1      3022 8.19000E+01 3.83090E+01 0.00000E+00
 -1      3023 8.34000E+01 3.83090E+01 0.00000E+00
 -1      3024 8.11500E+01 3.70100E+01 0.00000E+00
 -1      3025 8.49000E+01 3.83090E+01 0.00000E+00
 -1      3026 8.64000E+01 3.83090E+01 0.00000E+00
 -1      3027 8.41500E+01 3.70100E+01 0.00000E+00
 -1      3028 8.79000E+01 3.83090E+01 0.00000E+00
 -1      3029 8.94000E+01 3.83090E+01 0.00000E+00
 -1      3030 8.71500E+01 3.70100E+01 0.00000E+00
 -1      3031 9.09000E+01 3.83090E+01 0.00000E+00
 -1      3032 9.24000E+01 3.83090E+01 0.00000E+00
 -1      3033 9.01500E+01 3.70100E+01 0.00000E+00
 -1      3034 9.39000E+01 3.83090E+01 0.00000E+00
 -1      3035 9.54000E+01 3.83090E+01 0.00000E+00
 -1      3036 9.31500E+01 3.70100E+01 0.00000E+00
 -1      3037 9.69000E+01 3.83090E+01 0.00000E+00
 -1      3038 9.84000E+01 3.83090E+01 0.00000E+00
 -1      3039 9.61500E+01 3.70100E+01 0.00000E+00
 -1      3040 9.99000E+01 3.83090E+01 0.00000E+00
 -1      3041 1.01400E+02 3.83090E+01 0.00000E+00
 -1      3042 9.91500E+01 3.70100E+01 0.00000E+00
 -1      3043 1.02900E+02 3.83090E+01 0.00000E+00
 -1      3044 1.04400E+02 3.83090E+01 0.00000E+00
 -1      3045 1.02150E+02 3.70100E+01 0.00000E+00
 -1      3046 1.05900E+02 3.83090E+01 0.00000E+00
 -1      3047 1.07400E+02 3.83090E+01 0.00000E+00
 -1      3048 1.05150E+02 3.70100E+01 0.00000E+00
 -1      3049 1.08900E+02 3.83090E+01 0.00000E+00
 -1      3050 1.10400E+02 3.83090E+01 0.00000E+00
 -1      3051 1.08150E+02 3.70100E+01 0.00000E+00
 -1      3052 1.11900E+02 3.83090E+01 0.00000E+00
 -1      3053 1.13400E+02 3.83090E+01 0.00000E+00
 -1      3054 1.11150E+02 3.70100E+01 0.00000E+00
 -1      3055 1.14900E+02 3.83090E+01 0.00000E+00
 -1      3056 1.16400E+02 3.83090E+01 0.00000E+00
 -1      3057 1.14150E+02 3.70100E+01 0.00000E+00
 -1      3058 1.17900E+02 3.83090E+01 0.00000E+00
 -1      3059 1.19400E+02 3.83090E+01 0.00000E+00
 -1      3060 1.17150E+02 3.70100E+01 0.00000E+00
 -1      3061 1.20900E+02 3.83090E+01 0.00000E+00
 -1      3062 1.22400E+02 3.83090E+01 0.00000E+00
 -1      3063 1.20150E+02 3.70100E+01 0.00000E+00
 -1      3064 1.23900E+02 3.83090E+01 0.00000E+00
 -1      3065 1.25400E+02 3.83090E+01 0.00000E+00
 -1      3066 1.23150E+02 3.70100E+01 0.00000E+00
 -1      3067 1.26900E+02 3.83090E+01 0.00000E+00
 -1      3068 1.28400E+02 3.83090E+01 0.00000E+00
 -1      3069 1.26150E+02 3.70100E+01 0.00000E+00
 -1      3070 1.29900E+02 3.83090E+01 0.00000E+00
 -1      3071 1.31400E+02 3.83090E+01 0.00000E+00
 -1      3072 1.29150E+02 3.70100E+01 0.00000E+00
 -1      3073 1.32900E+02 3.83090E+01 0.00000E+00
 -1      3074 1.34400E+02 3.83090E+01 0.00000E+00
 -1      3075 1.32150E+02 3.70100E+01 0.00000E+00
 -1      3076 3.81750E+01 1.16910E+01 0.00000E+00
 -1      3077 3.66750E+01 1.16910E+01 0.00000E+00
 -1      3078 3.51750E+01 1.16910E+01 0.00000E+00
 -1      3079 3.36750E+01 1.16910E+01 0.00000E+00
 -1      3080 3.59250E+01 1.29900E+01 0.00000E+00
 -1      3081 3.21750E+01 1.16910E+01 0.00000E+00
 -1      3082 3.06750E+01 1.16910E+01 0.00000E+00
 -1      3083 3.29250E+01 1.29900E+01 0.00000E+00
 -1      3084 4.10250E+01 1.16910E+01 0.00000E+00
 -1      3085 3.96000E+01 1.16910E+01 0.00000E+00
 -1      3086 3.88500E+01 1.29900E+01 0.00000E+00
 -1      3087 4.40250E+01 1.16910E+01 0.00000E+00
 -1      3088 4.25250E+01 1.16910E+01 0.00000E+00
 -1      3089 4.17750E+01 1.29900E+01 0.00000E+00
 -1      3090 4.70250E+01 1.16910E+01 0.00000E+00
 -1      3091 4.55250E+01 1.16910E+01 0.00000E+00
 -1      3092 4.47750E+01 1.29900E+01 0.00000E+00
 -1      3093 5.00250E+01 1.16910E+01 0.00000E+00
 -1      3094 4.85250E+01 1.16910E+01 0.00000E+00
 -1      3095 4.77750E+01 1.29900E+01 0.00000E+00
 -1      3096 5.30250E+01 1.16910E+01 0.00000E+00
 -1      3097 5.15250E+01 1.16910E+01 0.00000E+00
 -1      3098 5.07750E+01 1.29900E+01 0.00000E+00
 -1      3099 5.60250E+01 1.16910E+01 0.00000E+00
 -1      3100 5.45250E+01 1.16910E+01 0.00000E+00
 -1      3101 5.37750E+01 1.29900E+01 0.00000E+00
 -1      3102 5.90250E+01 1.16910E+01 0.00000E+00
 -1      3103 5.75250E+01 1.16910E+01 0.00000E+00
 -1      3104 5.67750E+01 1.29900E+01 0.00000E+00
 -1      3105 6.20250E+01 1.16910E+01 0.00000E+00
 -1      3106 6.05250E+01 1.16910E+01 0.00000E+00
 -1      3107 5.97750E+01 1.29900E+01 0.00000E+00
 -1      3108 6.48750E+01 1.16910E+01 0.00000E+00
 -1      3109 6.34500E+01 1.16910E+01 0.00000E+00
 -1      3110 6.27000E+01 1.29900E+01 0.00000E+00
 -1      3111 6.78750E+01 1.16910E+01 0.00000E+00
 -1      3112 6.63750E+01 1.16910E+01 0.00000E+00
 -1      3113 6.56250E+01 1.29900E+01 0.00000E+00
 -1      3114 7.08750E+01 1.16910E+01 0.00000E+00
 -1      3115 6.93750E+01 1.16910E+01 0.00000E+00
 -1      3116 6.86250E+01 1.29900E+01 0.00000E+00
 -1      3117 7.38750E+01 1.16910E+01 0.00000E+00
 -1      3118 7.23750E+01 1.16910E+01 0.00000E+00
 -1      3119 7.16250E+01 1.29900E+01 0.00000E+00
 -1      3120 7.68750E+01 1.16910E+01 0.00000E+00
 -1      3121 7.53750E+01 1.16910E+01 0.00000E+00
 -1      3122 7.46250E+01 1.29900E+01 0.00000E+00
 -1      3123 7.98750E+01 1.16910E+01 0.00000E+00
 -1      3124 7.83750E+01 1.16910E+01 0.00000E+00
 -1      3125 7.76250E+01 1.29900E+01 0.00000E+00
 -1      3126 8.28750E+01 1.16910E+01 0.00000E+00
 -1      3127 8.13750E+01 1.16910E+01 0.00000E+00
 -1      3128 8.06250E+01 1.29900E+01 0.00000E+00
 -1      3129 8.58750E+01 1.16910E+01 0.00000E+00
 -1      3130 8.43750E+01 1.16910E+01 0.00000E+00
 -1      3131 8.36250E+01 1.29900E+01 0.00000E+00
 -1      3132 8.87250E+01 1.16910E+01 0.00000E+00
 -1      3133 8.73000E+01 1.16910E+01 0.00000E+00
 -1      3134 8.65500E+01 1.29900E+01 0.00000E+00
 -1      3135 1.18311E+02 1.40944E+01 0.00000E+00
 -1      3136 1.18004E+02 1.54451E+01 0.00000E+00
 -1      3137 1.17785E+02 1.67486E+01 0.00000E+00
 -1      3138 1.17497E+02 1.79395E+01 0.00000E+00
 -1      3139 1.11616E+02 2.57689E+01 0.00000E+00
 -1      3140 1.10439E+02 2.64235E+01 0.00000E+00
 -1      3141 1.22775E+02 1.10369E+01 0.00000E+00
 -1      3142 1.21275E+02 1.10369E+01 0.00000E+00
 -1      3143 1.13494E+02 2.42812E+01 0.00000E+00
 -1      3144 1.12555E+02 2.50251E+01 0.00000E+00
 -1      3145 1.12598E+02 2.64875E+01 0.00000E+00
 -1      3146 1.34700E+02 1.11433E+01 0.00000E+00
 -1      3147 1.33200E+02 1.11433E+01 0.00000E+00
 -1      3148 1.31700E+02 1.11433E+01 0.00000E+00
 -1      3149 1.30200E+02 1.11433E+01 0.00000E+00
 -1      3150 1.32450E+02 1.24423E+01 0.00000E+00
 -1      3151 1.38309E+02 3.45875E+01 0.00000E+00
 -1      3152 1.38309E+02 3.31125E+01 0.00000E+00
 -1      3153 1.38354E+02 1.11049E+01 0.00000E+00
 -1      3154 1.36147E+02 1.11034E+01 0.00000E+00
 -1      3155 1.35397E+02 1.24024E+01 0.00000E+00
 -1      3156 1.38290E+02 1.23228E+01 0.00000E+00
 -1      3157 9.50291E+01 2.42841E+01 0.00000E+00
 -1      3158 9.39668E+01 2.30412E+01 0.00000E+00
 -1      3159 1.38309E+02 3.16375E+01 0.00000E+00
 -1      3160 1.38309E+02 3.01625E+01 0.00000E+00
 -1      3161 1.37010E+02 3.23750E+01 0.00000E+00
 -1      3162 2.01750E+01 1.16910E+01 0.00000E+00
 -1      3163 1.86750E+01 1.16910E+01 0.00000E+00
 -1      3164 2.61750E+01 1.16910E+01 0.00000E+00
 -1      3165 2.46750E+01 1.16910E+01 0.00000E+00
 -1      3166 1.38758E+02 3.82051E+01 0.00000E+00
 -1      3167 1.38473E+02 3.60343E+01 0.00000E+00
 -1      3168 1.37173E+02 3.52968E+01 0.00000E+00
 -1      3169 1.37501E+02 3.81904E+01 0.00000E+00
 -1      3170 1.00434E+02 2.66219E+01 0.00000E+00
 -1      3171 9.93102E+01 2.62505E+01 0.00000E+00
 -1      3172 1.38309E+02 2.86875E+01 0.00000E+00
 -1      3173 1.38309E+02 2.72125E+01 0.00000E+00
 -1      3174 1.37010E+02 2.94250E+01 0.00000E+00
 -1      3175 1.38309E+02 1.69219E+01 0.00000E+00
 -1      3176 1.38309E+02 1.54531E+01 0.00000E+00
 -1      3177 1.18239E+02 1.04398E+01 0.00000E+00
 -1      3178 1.18034E+02 1.13167E+01 0.00000E+00
 -1      3179 1.18291E+02 1.23690E+01 0.00000E+00
 -1      3180 1.19780E+02 1.06858E+01 0.00000E+00
 -1      3181 1.16814E+02 1.93466E+01 0.00000E+00
 -1      3182 1.16126E+02 2.04654E+01 0.00000E+00
 -1      3183 1.08994E+02 2.69628E+01 0.00000E+00
 -1      3184 1.07740E+02 2.74115E+01 0.00000E+00
 -1      3185 1.02428E+02 2.71285E+01 0.00000E+00
 -1      3186 1.01431E+02 2.68752E+01 0.00000E+00
 -1      3187 1.00547E+02 2.76628E+01 0.00000E+00
 -1      3188 9.14137E+00 3.71183E+01 0.00000E+00
 -1      3189 9.17362E+00 3.83534E+01 0.00000E+00
 -1      3190 1.05371E+01 3.86174E+01 0.00000E+00
 -1      3191 1.04404E+01 3.63808E+01 0.00000E+00
 -1      3192 9.31050E+01 2.16583E+01 0.00000E+00
 -1      3193 9.25566E+01 2.06008E+01 0.00000E+00
 -1      3194 9.79450E+01 2.58245E+01 0.00000E+00
 -1      3195 9.65799E+01 2.53986E+01 0.00000E+00
 -1      3196 9.81854E+01 2.69836E+01 0.00000E+00
 -1      3197 1.59000E+01 3.83090E+01 0.00000E+00
 -1      3198 1.74000E+01 3.83090E+01 0.00000E+00
 -1      3199 1.81500E+01 3.70100E+01 0.00000E+00
 -1      3200 9.21383E+01 1.91957E+01 0.00000E+00
 -1      3201 9.18515E+01 1.79304E+01 0.00000E+00
 -1      3202 9.09942E+01 1.10347E+01 0.00000E+00
 -1      3203 1.38309E+02 1.98656E+01 0.00000E+00
 -1      3204 1.38309E+02 1.83937E+01 0.00000E+00
 -1      3205 1.37010E+02 1.76594E+01 0.00000E+00
 -1      3206 1.15519E+02 2.17195E+01 0.00000E+00
 -1      3207 1.14755E+02 2.28632E+01 0.00000E+00
 -1      3208 1.16910E+01 2.12875E+01 0.00000E+00
 -1      3209 1.16910E+01 2.27625E+01 0.00000E+00
 -1      3210 2.31750E+01 1.16910E+01 0.00000E+00
 -1      3211 2.16750E+01 1.16910E+01 0.00000E+00
 -1      3212 2.39250E+01 1.29900E+01 0.00000E+00
 -1      3213 2.91750E+01 1.16910E+01 0.00000E+00
 -1      3214 2.76750E+01 1.16910E+01 0.00000E+00
 -1      3215 2.99250E+01 1.29900E+01 0.00000E+00
 -1      3216 9.05354E+01 1.20580E+01 0.00000E+00
 -1      3217 8.97854E+01 1.33570E+01 0.00000E+00
 -1      3218 9.03747E+01 1.79758E+01 0.00000E+00
 -1      3219 9.10676E+01 1.71536E+01 0.00000E+00
 -1      3220 9.02838E+01 1.63767E+01 0.00000E+00
 -1      3221 1.16910E+01 1.54094E+01 0.00000E+00
 -1      3222 1.16910E+01 1.68781E+01 0.00000E+00
 -1      3223 2.69250E+01 1.29900E+01 0.00000E+00
 -1      3224 1.16910E+01 3.30594E+01 0.00000E+00
 -1      3225 1.16910E+01 3.45281E+01 0.00000E+00
 -1      3226 1.36243E+02 3.81758E+01 0.00000E+00
 -1      3227 1.18856E+02 1.62816E+01 0.00000E+00
 -1      3228 1.19056E+02 1.32528E+01 0.00000E+00
 -1      3229 1.17954E+02 1.89922E+01 0.00000E+00
 -1      3230 1.16910E+01 1.83469E+01 0.00000E+00
 -1      3231 1.16910E+01 1.98156E+01 0.00000E+00
 -1      3232 1.29900E+01 1.76125E+01 0.00000E+00
 -1      3233 1.75459E+01 1.15329E+01 0.00000E+00
 -1      3234 1.64167E+01 1.13748E+01 0.00000E+00
 -1      3235 1.82959E+01 1.28319E+01 0.00000E+00
 -1      3236 1.10214E+02 2.77707E+01 0.00000E+00
 -1      3237 1.20530E+02 1.18785E+01 0.00000E+00
 -1      3238 1.04178E+02 2.85934E+01 0.00000E+00
 -1      3239 1.03303E+02 2.78609E+01 0.00000E+00
 -1      3240 1.02419E+02 2.86485E+01 0.00000E+00
 -1      3241 9.52694E+01 2.54432E+01 0.00000E+00
 -1      3242 9.39590E+01 2.54878E+01 0.00000E+00
 -1      3243 9.55098E+01 2.66023E+01 0.00000E+00
 -1      3244 1.29469E+02 1.24423E+01 0.00000E+00
 -1      3245 1.28719E+02 1.11433E+01 0.00000E+00
 -1      3246 1.27238E+02 1.11433E+01 0.00000E+00
 -1      3247 1.16299E+01 3.74672E+01 0.00000E+00
 -1      3248 1.16783E+01 3.85855E+01 0.00000E+00
 -1      3249 1.28194E+01 3.85536E+01 0.00000E+00
 -1      3250 1.14798E+02 2.43256E+01 0.00000E+00
 -1      3251 9.28569E+01 2.29458E+01 0.00000E+00
 -1      3252 1.16910E+01 3.01219E+01 0.00000E+00
 -1      3253 1.16910E+01 3.15906E+01 0.00000E+00
 -1      3254 1.29900E+01 3.23250E+01 0.00000E+00
 -1      3255 1.38309E+02 2.28031E+01 0.00000E+00
 -1      3256 1.38309E+02 2.13344E+01 0.00000E+00
 -1      3257 1.37010E+02 2.06000E+01 0.00000E+00
 -1      3258 2.09250E+01 1.29900E+01 0.00000E+00
 -1      3259 1.35493E+02 3.68768E+01 0.00000E+00
 -1      3260 9.15769E+01 2.01578E+01 0.00000E+00
 -1      3261 1.29900E+01 2.05531E+01 0.00000E+00
 -1      3262 1.37010E+02 2.64813E+01 0.00000E+00
 -1      3263 1.38309E+02 2.57437E+01 0.00000E+00
 -1      3264 1.38309E+02 2.42750E+01 0.00000E+00
 -1      3265 1.38226E+02 1.35407E+01 0.00000E+00
 -1      3266 1.36927E+02 1.42751E+01 0.00000E+00
 -1      3267 1.29480E+01 1.39521E+01 0.00000E+00
 -1      3268 1.07944E+02 2.89566E+01 0.00000E+00
 -1      3269 1.06915E+02 2.80579E+01 0.00000E+00
 -1      3270 1.06090E+02 2.87044E+01 0.00000E+00
 -1      3271 1.25756E+02 1.11433E+01 0.00000E+00
 -1      3272 1.24275E+02 1.11433E+01 0.00000E+00
 -1      3273 1.26506E+02 1.24423E+01 0.00000E+00
 -1      3274 1.23525E+02 1.23359E+01 0.00000E+00
 -1      3275 1.16665E+02 2.16534E+01 0.00000E+00
 -1      3276 1.29900E+01 2.35000E+01 0.00000E+00
 -1      3277 1.16910E+01 2.42375E+01 0.00000E+00
 -1      3278 1.16910E+01 2.57125E+01 0.00000E+00
 -1      3279 1.39605E+01 3.85216E+01 0.00000E+00
 -1      3280 1.47105E+01 3.72226E+01 0.00000E+00
 -1      3281 2.04000E+01 3.57110E+01 0.00000E+00
 -1      3282 2.19000E+01 3.57110E+01 0.00000E+00
 -1      3283 2.76750E+01 1.42890E+01 0.00000E+00
 -1      3284 2.61750E+01 1.42890E+01 0.00000E+00
 -1      3285 9.08838E+01 2.11289E+01 0.00000E+00
 -1      3286 9.04655E+01 1.97238E+01 0.00000E+00
 -1      3287 1.74000E+01 3.57110E+01 0.00000E+00
 -1      3288 1.89000E+01 3.57110E+01 0.00000E+00
 -1      3289 1.96500E+01 3.44120E+01 0.00000E+00
 -1      3290 2.34000E+01 3.57110E+01 0.00000E+00
 -1      3291 2.49000E+01 3.57110E+01 0.00000E+00
 -1      3292 2.26500E+01 3.44120E+01 0.00000E+00
 -1      3293 2.64000E+01 3.57110E+01 0.00000E+00
 -1      3294 2.79000E+01 3.57110E+01 0.00000E+00
 -1      3295 2.56500E+01 3.44120E+01 0.00000E+00
 -1      3296 2.94000E+01 3.57110E+01 0.00000E+00
 -1      3297 3.09000E+01 3.57110E+01 0.00000E+00
 -1      3298 2.86500E+01 3.44120E+01 0.00000E+00
 -1      3299 3.24000E+01 3.57110E+01 0.00000E+00
 -1      3300 3.39000E+01 3.57110E+01 0.00000E+00
 -1      3301 3.16500E+01 3.44120E+01 0.00000E+00
 -1      3302 3.54000E+01 3.57110E+01 0.00000E+00
 -1      3303 3.69000E+01 3.57110E+01 0.00000E+00
 -1      3304 3.46500E+01 3.44120E+01 0.00000E+00
 -1      3305 3.84000E+01 3.57110E+01 0.00000E+00
 -1      3306 3.99000E+01 3.57110E+01 0.00000E+00
 -1      3307 3.76500E+01 3.44120E+01 0.00000E+00
 -1      3308 4.14000E+01 3.57110E+01 0.00000E+00
 -1      3309 4.29000E+01 3.57110E+01 0.00000E+00
 -1      3310 4.06500E+01 3.44120E+01 0.00000E+00
 -1      3311 4.44000E+01 3.57110E+01 0.00000E+00
 -1      3312 4.59000E+01 3.57110E+01 0.00000E+00
 -1      3313 4.36500E+01 3.44120E+01 0.00000E+00
 -1      3314 4.74000E+01 3.57110E+01 0.00000E+00
 -1      3315 4.89000E+01 3.57110E+01 0.00000E+00
 -1      3316 4.66500E+01 3.44120E+01 0.00000E+00
 -1      3317 5.04000E+01 3.57110E+01 0.00000E+00
 -1      3318 5.19000E+01 3.57110E+01 0.00000E+00
 -1      3319 4.96500E+01 3.44120E+01 0.00000E+00
 -1      3320 5.34000E+01 3.57110E+01 0.00000E+00
 -1      3321 5.49000E+01 3.57110E+01 0.00000E+00
 -1      3322 5.26500E+01 3.44120E+01 0.00000E+00
 -1      3323 5.64000E+01 3.57110E+01 0.00000E+00
 -1      3324 5.79000E+01 3.57110E+01 0.00000E+00
 -1      3325 5.56500E+01 3.44120E+01 0.00000E+00
 -1      3326 5.94000E+01 3.57110E+01 0.00000E+00
 -1      3327 6.09000E+01 3.57110E+01 0.00000E+00
 -1      3328 5.86500E+01 3.44120E+01 0.00000E+00
 -1      3329 6.24000E+01 3.57110E+01 0.00000E+00
 -1      3330 6.39000E+01 3.57110E+01 0.00000E+00
 -1      3331 6.16500E+01 3.44120E+01 0.00000E+00
 -1      3332 6.54000E+01 3.57110E+01 0.00000E+00
 -1      3333 6.69000E+01 3.57110E+01 0.00000E+00
 -1      3334 6.46500E+01 3.44120E+01 0.00000E+00
 -1      3335 6.84000E+01 3.57110E+01 0.00000E+00
 -1      3336 6.99000E+01 3.57110E+01 0.00000E+00
 -1      3337 6.76500E+01 3.44120E+01 0.00000E+00
 -1      3338 7.14000E+01 3.57110E+01 0.00000E+00
 -1      3339 7.29000E+01 3.57110E+01 0.00000E+00
 -1      3340 7.06500E+01 3.44120E+01 0.00000E+00
 -1      3341 7.44000E+01 3.57110E+01 0.00000E+00
 -1      3342 7.59000E+01 3.57110E+01 0.00000E+00
 -1      3343 7.36500E+01 3.44120E+01 0.00000E+00
 -1      3344 7.74000E+01 3.57110E+01 0.00000E+00
 -1      3345 7.89000E+01 3.57110E+01 0.00000E+00
 -1      3346 7.66500E+01 3.44120E+01 0.00000E+00
 -1      3347 8.04000E+01 3.57110E+01 0.00000E+00
 -1      3348 8.19000E+01 3.57110E+01 0.00000E+00
 -1      3349 7.96500E+01 3.44120E+01 0.00000E+00
 -1      3350 8.34000E+01 3.57110E+01 0.00000E+00
 -1      3351 8.49000E+01 3.57110E+01 0.00000E+00
 -1      3352 8.26500E+01 3.44120E+01 0.00000E+00
 -1      3353 8.64000E+01 3.57110E+01 0.00000E+00
 -1      3354 8.79000E+01 3.57110E+01 0.00000E+00
 -1      3355 8.56500E+01 3.44120E+01 0.00000E+00
 -1      3356 8.94000E+01 3.57110E+01 0.00000E+00
 -1      3357 9.09000E+01 3.57110E+01 0.00000E+00
 -1      3358 8.86500E+01 3.44120E+01 0.00000E+00
 -1      3359 9.24000E+01 3.57110E+01 0.00000E+00
 -1      3360 9.39000E+01 3.57110E+01 0.00000E+00
 -1      3361 9.16500E+01 3.44120E+01 0.00000E+00
 -1      3362 9.54000E+01 3.57110E+01 0.00000E+00
 -1      3363 9.69000E+01 3.57110E+01 0.00000E+00
 -1      3364 9.46500E+01 3.44120E+01 0.00000E+00
 -1      3365 9.84000E+01 3.57110E+01 0.00000E+00
 -1      3366 9.99000E+01 3.57110E+01 0.00000E+00
 -1      3367 9.76500E+01 3.44120E+01 0.00000E+00
 -1      3368 1.01400E+02 3.57110E+01 0.00000E+00
 -1      3369 1.02900E+02 3.57110E+01 0.00000E+00
 -1      3370 1.00650E+02 3.44120E+01 0.00000E+00
 -1      3371 1.04400E+02 3.57110E+01 0.00000E+00
 -1      3372 1.05900E+02 3.57110E+01 0.00000E+00
 -1      3373 1.03650E+02 3.44120E+01 0.00000E+00
 -1      3374 1.07400E+02 3.57110E+01 0.00000E+00
 -1      3375 1.08900E+02 3.57110E+01 0.00000E+00
 -1      3376 1.06650E+02 3.44120E+01 0.00000E+00
 -1      3377 1.10400E+02 3.57110E+01 0.00000E+00
 -1      3378 1.11900E+02 3.57110E+01 0.00000E+00
 -1      3379 1.09650E+02 3.44120E+01 0.00000E+00
 -1      3380 1.13400E+02 3.57110E+01 0.00000E+00
 -1      3381 1.14900E+02 3.57110E+01 0.00000E+00
 -1      3382 1.12650E+02 3.44120E+01 0.00000E+00
 -1      3383 1.16400E+02 3.57110E+01 0.00000E+00
 -1      3384 1.17900E+02 3.57110E+01 0.00000E+00
 -1      3385 1.15650E+02 3.44120E+01 0.00000E+00
 -1      3386 1.19400E+02 3.57110E+01 0.00000E+00
 -1      3387 1.20900E+02 3.57110E+01 0.00000E+00
 -1      3388 1.18650E+02 3.44120E+01 0.00000E+00
 -1      3389 1.22400E+02 3.57110E+01 0.00000E+00
 -1      3390 1.23900E+02 3.57110E+01 0.00000E+00
 -1      3391 1.21650E+02 3.44120E+01 0.00000E+00
 -1      3392 1.25400E+02 3.57110E+01 0.00000E+00
 -1      3393 1.26900E+02 3.57110E+01 0.00000E+00
 -1      3394 1.24650E+02 3.44120E+01 0.00000E+00
 -1      3395 1.28400E+02 3.57110E+01 0.00000E+00
 -1      3396 1.29900E+02 3.57110E+01 0.00000E+00
 -1      3397 1.27650E+02 3.44120E+01 0.00000E+00
 -1      3398 1.31400E+02 3.57110E+01 0.00000E+00
 -1      3399 1.32900E+02 3.57110E+01 0.00000E+00
 -1      3400 1.30650E+02 3.44120E+01 0.00000E+00
 -1      3401 4.25250E+01 1.42890E+01 0.00000E+00
 -1      3402 4.10250E+01 1.42890E+01 0.00000E+00
 -1      3403 3.96000E+01 1.42890E+01 0.00000E+00
 -1      3404 3.81750E+01 1.42890E+01 0.00000E+00
 -1      3405 4.03500E+01 1.55880E+01 0.00000E+00
 -1      3406 3.36750E+01 1.42890E+01 0.00000E+00
 -1      3407 3.21750E+01 1.42890E+01 0.00000E+00
 -1      3408 4.55250E+01 1.42890E+01 0.00000E+00
 -1      3409 4.40250E+01 1.42890E+01 0.00000E+00
 -1      3410 4.32750E+01 1.55880E+01 0.00000E+00
 -1      3411 4.85250E+01 1.42890E+01 0.00000E+00
 -1      3412 4.70250E+01 1.42890E+01 0.00000E+00
 -1      3413 4.62750E+01 1.55880E+01 0.00000E+00
 -1      3414 5.15250E+01 1.42890E+01 0.00000E+00
 -1      3415 5.00250E+01 1.42890E+01 0.00000E+00
 -1      3416 4.92750E+01 1.55880E+01 0.00000E+00
 -1      3417 5.45250E+01 1.42890E+01 0.00000E+00
 -1      3418 5.30250E+01 1.42890E+01 0.00000E+00
 -1      3419 5.22750E+01 1.55880E+01 0.00000E+00
 -1      3420 5.75250E+01 1.42890E+01 0.00000E+00
 -1      3421 5.60250E+01 1.42890E+01 0.00000E+00
 -1      3422 5.52750E+01 1.55880E+01 0.00000E+00
 -1      3423 6.05250E+01 1.42890E+01 0.00000E+00
 -1      3424 5.90250E+01 1.42890E+01 0.00000E+00
 -1      3425 5.82750E+01 1.55880E+01 0.00000E+00
 -1      3426 6.33750E+01 1.42890E+01 0.00000E+00
 -1      3427 6.19500E+01 1.42890E+01 0.00000E+00
 -1      3428 6.12000E+01 1.55880E+01 0.00000E+00
 -1      3429 6.63750E+01 1.42890E+01 0.00000E+00
 -1      3430 6.48750E+01 1.42890E+01 0.00000E+00
 -1      3431 6.41250E+01 1.55880E+01 0.00000E+00
 -1      3432 6.93750E+01 1.42890E+01 0.00000E+00
 -1      3433 6.78750E+01 1.42890E+01 0.00000E+00
 -1      3434 6.71250E+01 1.55880E+01 0.00000E+00
 -1      3435 7.23750E+01 1.42890E+01 0.00000E+00
 -1      3436 7.08750E+01 1.42890E+01 0.00000E+00
 -1      3437 7.01250E+01 1.55880E+01 0.00000E+00
 -1      3438 7.53750E+01 1.42890E+01 0.00000E+00
 -1      3439 7.38750E+01 1.42890E+01 0.00000E+00
 -1      3440 7.31250E+01 1.55880E+01 0.00000E+00
 -1      3441 7.83750E+01 1.42890E+01 0.00000E+00
 -1      3442 7.68750E+01 1.42890E+01 0.00000E+00
 -1      3443 7.61250E+01 1.55880E+01 0.00000E+00
 -1      3444 8.13750E+01 1.42890E+01 0.00000E+00
 -1      3445 7.98750E+01 1.42890E+01 0.00000E+00
 -1      3446 7.91250E+01 1.55880E+01 0.00000E+00
 -1      3447 8.43750E+01 1.42890E+01 0.00000E+00
 -1      3448 8.28750E+01 1.42890E+01 0.00000E+00
 -1      3449 8.21250E+01 1.55880E+01 0.00000E+00
 -1      3450 8.72250E+01 1.42890E+01 0.00000E+00
 -1      3451 8.58000E+01 1.42890E+01 0.00000E+00
 -1      3452 8.50500E+01 1.55880E+01 0.00000E+00
 -1      3453 1.42890E+01 1.68781E+01 0.00000E+00
 -1      3454 1.42890E+01 1.83469E+01 0.00000E+00
 -1      3455 1.16910E+01 2.71844E+01 0.00000E+00
 -1      3456 1.16910E+01 2.86531E+01 0.00000E+00
 -1      3457 1.29900E+01 2.93875E+01 0.00000E+00
 -1      3458 1.13874E+02 2.71339E+01 0.00000E+00
 -1      3459 1.12935E+02 2.78777E+01 0.00000E+00
 -1      3460 1.15815E+01 3.63489E+01 0.00000E+00
 -1      3461 1.35480E+02 1.43149E+01 0.00000E+00
 -1      3462 1.34033E+02 1.43547E+01 0.00000E+00
 -1      3463 1.35563E+02 1.62273E+01 0.00000E+00
 -1      3464 1.35711E+02 3.31125E+01 0.00000E+00
 -1      3465 1.35711E+02 3.16375E+01 0.00000E+00
 -1      3466 1.42258E+01 1.28314E+01 0.00000E+00
 -1      3467 1.42678E+01 1.50230E+01 0.00000E+00
 -1      3468 1.28805E+01 3.56145E+01 0.00000E+00
 -1      3469 9.04703E+01 1.46273E+01 0.00000E+00
 -1      3470 8.86599E+01 1.42603E+01 0.00000E+00
 -1      3471 1.35330E+02 3.54300E+01 0.00000E+00
 -1      3472 2.46750E+01 1.42890E+01 0.00000E+00
 -1      3473 2.31750E+01 1.42890E+01 0.00000E+00
 -1      3474 2.54250E+01 1.55880E+01 0.00000E+00
 -1      3475 1.35711E+02 3.01625E+01 0.00000E+00
 -1      3476 1.35711E+02 2.86875E+01 0.00000E+00
 -1      3477 1.34412E+02 3.09000E+01 0.00000E+00
 -1      3478 1.16399E+02 2.44798E+01 0.00000E+00
 -1      3479 1.15138E+02 2.58979E+01 0.00000E+00
 -1      3480 9.24178E+01 2.41794E+01 0.00000E+00
 -1      3481 9.15560E+01 2.27965E+01 0.00000E+00
 -1      3482 1.19894E+02 1.57859E+01 0.00000E+00
 -1      3483 1.19675E+02 1.70894E+01 0.00000E+00
 -1      3484 1.19218E+02 1.87363E+01 0.00000E+00
 -1      3485 1.18535E+02 2.01434E+01 0.00000E+00
 -1      3486 1.32533E+02 1.43547E+01 0.00000E+00
 -1      3487 1.31033E+02 1.43547E+01 0.00000E+00
 -1      3488 1.32617E+02 1.62671E+01 0.00000E+00
 -1      3489 1.48200E+01 3.54019E+01 0.00000E+00
 -1      3490 1.18042E+02 2.15455E+01 0.00000E+00
 -1      3491 1.17436E+02 2.27996E+01 0.00000E+00
 -1      3492 1.20550E+02 1.36039E+01 0.00000E+00
 -1      3493 1.00772E+02 2.88642E+01 0.00000E+00
 -1      3494 9.97757E+01 2.86109E+01 0.00000E+00
 -1      3495 1.11391E+02 2.87180E+01 0.00000E+00
 -1      3496 1.09946E+02 2.92574E+01 0.00000E+00
 -1      3497 1.42800E+01 3.32139E+01 0.00000E+00
 -1      3498 1.61100E+01 3.48221E+01 0.00000E+00
 -1      3499 1.68600E+01 3.35231E+01 0.00000E+00
 -1      3500 1.42800E+01 3.17452E+01 0.00000E+00
 -1      3501 9.84106E+01 2.81850E+01 0.00000E+00
 -1      3502 9.70454E+01 2.77591E+01 0.00000E+00
 -1      3503 9.86358E+01 2.93864E+01 0.00000E+00
 -1      3504 1.24183E+02 1.36848E+01 0.00000E+00
 -1      3505 1.22683E+02 1.35785E+01 0.00000E+00
 -1      3506 1.42890E+01 1.98188E+01 0.00000E+00
 -1      3507 1.42890E+01 2.12906E+01 0.00000E+00
 -1      3508 1.55880E+01 1.90844E+01 0.00000E+00
 -1      3509 2.16750E+01 1.42890E+01 0.00000E+00
 -1      3510 2.01750E+01 1.42890E+01 0.00000E+00
 -1      3511 2.24250E+01 1.55880E+01 0.00000E+00
 -1      3512 3.66750E+01 1.42890E+01 0.00000E+00
 -1      3513 3.51750E+01 1.42890E+01 0.00000E+00
 -1      3514 3.74250E+01 1.55880E+01 0.00000E+00
 -1      3515 1.42864E+01 1.09181E+01 0.00000E+00
 -1      3516 1.35563E+02 1.76992E+01 0.00000E+00
 -1      3517 3.06750E+01 1.42890E+01 0.00000E+00
 -1      3518 2.91750E+01 1.42890E+01 0.00000E+00
 -1      3519 3.14250E+01 1.55880E+01 0.00000E+00
 -1      3520 9.01607E+01 1.55425E+01 0.00000E+00
 -1      3521 8.79099E+01 1.55593E+01 0.00000E+00
 -1      3522 1.21208E+02 1.49528E+01 0.00000E+00
 -1      3523 8.94678E+01 1.63648E+01 0.00000E+00
 -1      3524 1.34412E+02 2.79562E+01 0.00000E+00
 -1      3525 1.35711E+02 2.72188E+01 0.00000E+00
 -1      3526 1.35711E+02 2.57500E+01 0.00000E+00
 -1      3527 1.05207E+02 2.94920E+01 0.00000E+00
 -1      3528 8.89886E+01 1.99181E+01 0.00000E+00
 -1      3529 8.96817E+01 1.89469E+01 0.00000E+00
 -1      3530 8.88979E+01 1.81701E+01 0.00000E+00
 -1      3531 1.35711E+02 2.13344E+01 0.00000E+00
 -1      3532 1.35711E+02 1.98656E+01 0.00000E+00
 -1      3533 1.34264E+02 1.84336E+01 0.00000E+00
 -1      3534 1.56061E+01 1.19890E+01 0.00000E+00
 -1      3535 3.44250E+01 1.55880E+01 0.00000E+00
 -1      3536 1.94250E+01 1.55880E+01 0.00000E+00
 -1      3537 1.86750E+01 1.42890E+01 0.00000E+00
 -1      3538 1.55668E+01 1.57574E+01 0.00000E+00
 -1      3539 1.75459E+01 1.41309E+01 0.00000E+00
 -1      3540 1.15475E+02 2.72881E+01 0.00000E+00
 -1      3541 9.57350E+01 2.78036E+01 0.00000E+00
 -1      3542 9.44245E+01 2.78482E+01 0.00000E+00
 -1      3543 9.59602E+01 2.90050E+01 0.00000E+00
 -1      3544 1.29552E+02 1.43547E+01 0.00000E+00
 -1      3545 1.28071E+02 1.43547E+01 0.00000E+00
 -1      3546 1.29636E+02 1.62671E+01 0.00000E+00
 -1      3547 2.84250E+01 1.55880E+01 0.00000E+00
 -1      3548 1.17776E+02 2.43719E+01 0.00000E+00
 -1      3549 1.12667E+02 2.93644E+01 0.00000E+00
 -1      3550 1.37010E+02 2.35406E+01 0.00000E+00
 -1      3551 1.20256E+02 1.82405E+01 0.00000E+00
 -1      3552 8.80330E+01 1.63935E+01 0.00000E+00
 -1      3553 8.65981E+01 1.64221E+01 0.00000E+00
 -1      3554 8.81560E+01 1.72276E+01 0.00000E+00
 -1      3555 1.33600E+02 3.52737E+01 0.00000E+00
 -1      3556 1.35280E+02 3.36937E+01 0.00000E+00
 -1      3557 9.26581E+01 2.53385E+01 0.00000E+00
 -1      3558 9.13572E+01 2.51892E+01 0.00000E+00
 -1      3559 9.28984E+01 2.64976E+01 0.00000E+00
 -1      3560 9.00055E+01 2.35961E+01 0.00000E+00
 -1      3561 9.04446E+01 2.23625E+01 0.00000E+00
 -1      3562 8.93333E+01 2.19286E+01 0.00000E+00
 -1      3563 1.01648E+02 2.95967E+01 0.00000E+00
 -1      3564 1.29900E+01 2.64469E+01 0.00000E+00
 -1      3565 1.19306E+02 2.12895E+01 0.00000E+00
 -1      3566 1.26868E+02 1.40198E+01 0.00000E+00
 -1      3567 1.25386E+02 1.40198E+01 0.00000E+00
 -1      3568 1.24545E+02 1.52624E+01 0.00000E+00
 -1      3569 1.26951E+02 1.59322E+01 0.00000E+00
 -1      3570 1.55880E+01 2.20313E+01 0.00000E+00
 -1      3571 1.42890E+01 2.27656E+01 0.00000E+00
 -1      3572 1.42890E+01 2.42406E+01 0.00000E+00
 -1      3573 1.35711E+02 2.28062E+01 0.00000E+00
 -1      3574 1.34412E+02 2.20719E+01 0.00000E+00
 -1      3575 1.35711E+02 2.42781E+01 0.00000E+00
 -1      3576 1.32912E+02 2.06000E+01 0.00000E+00
 -1      3577 1.32764E+02 1.84336E+01 0.00000E+00
 -1      3578 1.31264E+02 1.84336E+01 0.00000E+00
 -1      3579 1.89000E+01 3.31130E+01 0.00000E+00
 -1      3580 2.04000E+01 3.31130E+01 0.00000E+00
 -1      3581 2.19000E+01 3.31130E+01 0.00000E+00
 -1      3582 2.34000E+01 3.31130E+01 0.00000E+00
 -1      3583 2.11500E+01 3.18140E+01 0.00000E+00
 -1      3584 2.49000E+01 3.31130E+01 0.00000E+00
 -1      3585 2.64000E+01 3.31130E+01 0.00000E+00
 -1      3586 2.41500E+01 3.18140E+01 0.00000E+00
 -1      3587 2.79000E+01 3.31130E+01 0.00000E+00
 -1      3588 2.94000E+01 3.31130E+01 0.00000E+00
 -1      3589 2.71500E+01 3.18140E+01 0.00000E+00
 -1      3590 3.09000E+01 3.31130E+01 0.00000E+00
 -1      3591 3.24000E+01 3.31130E+01 0.00000E+00
 -1      3592 3.01500E+01 3.18140E+01 0.00000E+00
 -1      3593 3.39000E+01 3.31130E+01 0.00000E+00
 -1      3594 3.54000E+01 3.31130E+01 0.00000E+00
 -1      3595 3.31500E+01 3.18140E+01 0.00000E+00
 -1      3596 3.69000E+01 3.31130E+01 0.00000E+00
 -1      3597 3.84000E+01 3.31130E+01 0.00000E+00
 -1      3598 3.61500E+01 3.18140E+01 0.00000E+00
 -1      3599 3.99000E+01 3.31130E+01 0.00000E+00
 -1      3600 4.14000E+01 3.31130E+01 0.00000E+00
 -1      3601 3.91500E+01 3.18140E+01 0.00000E+00
 -1      3602 4.29000E+01 3.31130E+01 0.00000E+00
 -1      3603 4.44000E+01 3.31130E+01 0.00000E+00
 -1      3604 4.21500E+01 3.18140E+01 0.00000E+00
 -1      3605 4.59000E+01 3.31130E+01 0.00000E+00
 -1      3606 4.74000E+01 3.31130E+01 0.00000E+00
 -1      3607 4.51500E+01 3.18140E+01 0.00000E+00
 -1      3608 4.89000E+01 3.31130E+01 0.00000E+00
 -1      3609 5.04000E+01 3.31130E+01 0.00000E+00
 -1      3610 4.81500E+01 3.18140E+01 0.00000E+00
 -1      3611 5.19000E+01 3.31130E+01 0.00000E+00
 -1      3612 5.34000E+01 3.31130E+01 0.00000E+00
 -1      3613 5.11500E+01 3.18140E+01 0.00000E+00
 -1      3614 5.49000E+01 3.31130E+01 0.00000E+00
 -1      3615 5.64000E+01 3.31130E+01 0.00000E+00
 -1      3616 5.41500E+01 3.18140E+01 0.00000E+00
 -1      3617 5.79000E+01 3.31130E+01 0.00000E+00
 -1      3618 5.94000E+01 3.31130E+01 0.00000E+00
 -1      3619 5.71500E+01 3.18140E+01 0.00000E+00
 -1      3620 6.09000E+01 3.31130E+01 0.00000E+00
 -1      3621 6.24000E+01 3.31130E+01 0.00000E+00
 -1      3622 6.01500E+01 3.18140E+01 0.00000E+00
 -1      3623 6.39000E+01 3.31130E+01 0.00000E+00
 -1      3624 6.54000E+01 3.31130E+01 0.00000E+00
 -1      3625 6.31500E+01 3.18140E+01 0.00000E+00
 -1      3626 6.69000E+01 3.31130E+01 0.00000E+00
 -1      3627 6.84000E+01 3.31130E+01 0.00000E+00
 -1      3628 6.61500E+01 3.18140E+01 0.00000E+00
 -1      3629 6.99000E+01 3.31130E+01 0.00000E+00
 -1      3630 7.14000E+01 3.31130E+01 0.00000E+00
 -1      3631 6.91500E+01 3.18140E+01 0.00000E+00
 -1      3632 7.29000E+01 3.31130E+01 0.00000E+00
 -1      3633 7.44000E+01 3.31130E+01 0.00000E+00
 -1      3634 7.21500E+01 3.18140E+01 0.00000E+00
 -1      3635 7.59000E+01 3.31130E+01 0.00000E+00
 -1      3636 7.74000E+01 3.31130E+01 0.00000E+00
 -1      3637 7.51500E+01 3.18140E+01 0.00000E+00
 -1      3638 7.89000E+01 3.31130E+01 0.00000E+00
 -1      3639 8.04000E+01 3.31130E+01 0.00000E+00
 -1      3640 7.81500E+01 3.18140E+01 0.00000E+00
 -1      3641 8.19000E+01 3.31130E+01 0.00000E+00
 -1      3642 8.34000E+01 3.31130E+01 0.00000E+00
 -1      3643 8.11500E+01 3.18140E+01 0.00000E+00
 -1      3644 8.49000E+01 3.31130E+01 0.00000E+00
 -1      3645 8.64000E+01 3.31130E+01 0.00000E+00
 -1      3646 8.41500E+01 3.18140E+01 0.00000E+00
 -1      3647 8.79000E+01 3.31130E+01 0.00000E+00
 -1      3648 8.94000E+01 3.31130E+01 0.00000E+00
 -1      3649 8.71500E+01 3.18140E+01 0.00000E+00
 -1      3650 9.09000E+01 3.31130E+01 0.00000E+00
 -1      3651 9.24000E+01 3.31130E+01 0.00000E+00
 -1      3652 9.01500E+01 3.18140E+01 0.00000E+00
 -1      3653 9.39000E+01 3.31130E+01 0.00000E+00
 -1      3654 9.54000E+01 3.31130E+01 0.00000E+00
 -1      3655 9.31500E+01 3.18140E+01 0.00000E+00
 -1      3656 9.99000E+01 3.31130E+01 0.00000E+00
 -1      3657 1.01400E+02 3.31130E+01 0.00000E+00
 -1      3658 1.02722E+02 3.18965E+01 0.00000E+00
 -1      3659 1.04222E+02 3.18965E+01 0.00000E+00
 -1      3660 1.06134E+02 3.20075E+01 0.00000E+00
 -1      3661 1.07634E+02 3.20075E+01 0.00000E+00
 -1      3662 1.09636E+02 3.23083E+01 0.00000E+00
 -1      3663 1.11136E+02 3.23083E+01 0.00000E+00
 -1      3664 1.12636E+02 3.23083E+01 0.00000E+00
 -1      3665 1.14900E+02 3.31130E+01 0.00000E+00
 -1      3666 1.16400E+02 3.31130E+01 0.00000E+00
 -1      3667 1.17900E+02 3.31130E+01 0.00000E+00
 -1      3668 1.19400E+02 3.31130E+01 0.00000E+00
 -1      3669 1.17150E+02 3.18140E+01 0.00000E+00
 -1      3670 1.20900E+02 3.31130E+01 0.00000E+00
 -1      3671 1.22400E+02 3.31130E+01 0.00000E+00
 -1      3672 1.20150E+02 3.18140E+01 0.00000E+00
 -1      3673 1.23900E+02 3.31130E+01 0.00000E+00
 -1      3674 1.25400E+02 3.31130E+01 0.00000E+00
 -1      3675 1.23150E+02 3.18140E+01 0.00000E+00
 -1      3676 1.26900E+02 3.31130E+01 0.00000E+00
 -1      3677 1.28400E+02 3.31130E+01 0.00000E+00
 -1      3678 1.26150E+02 3.18140E+01 0.00000E+00
 -1      3679 1.29900E+02 3.31130E+01 0.00000E+00
 -1      3680 1.31400E+02 3.31130E+01 0.00000E+00
 -1      3681 1.29150E+02 3.18140E+01 0.00000E+00
 -1      3682 4.70250E+01 1.68870E+01 0.00000E+00
 -1      3683 4.55250E+01 1.68870E+01 0.00000E+00
 -1      3684 2.01750E+01 1.68870E+01 0.00000E+00
 -1      3685 1.86751E+01 1.68870E+01 0.00000E+00
 -1      3686 4.40250E+01 1.68870E+01 0.00000E+00
 -1      3687 4.25250E+01 1.68870E+01 0.00000E+00
 -1      3688 4.47750E+01 1.81860E+01 0.00000E+00
 -1      3689 5.30250E+01 1.68870E+01 0.00000E+00
 -1      3690 5.15250E+01 1.68870E+01 0.00000E+00
 -1      3691 5.60250E+01 1.68870E+01 0.00000E+00
 -1      3692 5.45250E+01 1.68870E+01 0.00000E+00
 -1      3693 5.37750E+01 1.81860E+01 0.00000E+00
 -1      3694 5.90250E+01 1.68870E+01 0.00000E+00
 -1      3695 5.75250E+01 1.68870E+01 0.00000E+00
 -1      3696 5.67750E+01 1.81860E+01 0.00000E+00
 -1      3697 6.18750E+01 1.68870E+01 0.00000E+00
 -1      3698 6.04500E+01 1.68870E+01 0.00000E+00
 -1      3699 5.97000E+01 1.81860E+01 0.00000E+00
 -1      3700 6.48750E+01 1.68870E+01 0.00000E+00
 -1      3701 6.33750E+01 1.68870E+01 0.00000E+00
 -1      3702 6.26250E+01 1.81860E+01 0.00000E+00
 -1      3703 6.78750E+01 1.68870E+01 0.00000E+00
 -1      3704 6.63750E+01 1.68870E+01 0.00000E+00
 -1      3705 6.56250E+01 1.81860E+01 0.00000E+00
 -1      3706 7.08750E+01 1.68870E+01 0.00000E+00
 -1      3707 6.93750E+01 1.68870E+01 0.00000E+00
 -1      3708 6.86250E+01 1.81860E+01 0.00000E+00
 -1      3709 7.38750E+01 1.68870E+01 0.00000E+00
 -1      3710 7.23750E+01 1.68870E+01 0.00000E+00
 -1      3711 7.16250E+01 1.81860E+01 0.00000E+00
 -1      3712 7.68750E+01 1.68870E+01 0.00000E+00
 -1      3713 7.53750E+01 1.68870E+01 0.00000E+00
 -1      3714 7.46250E+01 1.81860E+01 0.00000E+00
 -1      3715 7.98750E+01 1.68870E+01 0.00000E+00
 -1      3716 7.83750E+01 1.68870E+01 0.00000E+00
 -1      3717 7.76250E+01 1.81860E+01 0.00000E+00
 -1      3718 8.28750E+01 1.68870E+01 0.00000E+00
 -1      3719 8.13750E+01 1.68870E+01 0.00000E+00
 -1      3720 8.06250E+01 1.81860E+01 0.00000E+00
 -1      3721 8.54490E+01 1.66546E+01 0.00000E+00
 -1      3722 8.40240E+01 1.66546E+01 0.00000E+00
 -1      3723 8.32740E+01 1.79536E+01 0.00000E+00
 -1      3724 8.55721E+01 1.74887E+01 0.00000E+00
 -1      3725 1.22027E+02 1.57605E+01 0.00000E+00
 -1      3726 1.42800E+01 2.88077E+01 0.00000E+00
 -1      3727 1.42800E+01 3.02764E+01 0.00000E+00
 -1      3728 1.55700E+01 3.11654E+01 0.00000E+00
 -1      3729 1.32850E+02 3.39747E+01 0.00000E+00
 -1      3730 2.61750E+01 1.68870E+01 0.00000E+00
 -1      3731 2.46750E+01 1.68870E+01 0.00000E+00
 -1      3732 1.14930E+02 3.01690E+01 0.00000E+00
 -1      3733 1.13386E+02 3.10093E+01 0.00000E+00
 -1      3734 3.51750E+01 1.68870E+01 0.00000E+00
 -1      3735 3.36750E+01 1.68870E+01 0.00000E+00
 -1      3736 1.23278E+02 1.62806E+01 0.00000E+00
 -1      3737 1.21964E+02 1.71136E+01 0.00000E+00
 -1      3738 2.91750E+01 1.68870E+01 0.00000E+00
 -1      3739 2.76750E+01 1.68870E+01 0.00000E+00
 -1      3740 2.69250E+01 1.81860E+01 0.00000E+00
 -1      3741 5.00250E+01 1.68870E+01 0.00000E+00
 -1      3742 4.85250E+01 1.68870E+01 0.00000E+00
 -1      3743 4.77750E+01 1.81860E+01 0.00000E+00
 -1      3744 5.07750E+01 1.81860E+01 0.00000E+00
 -1      3745 1.09121E+02 2.99039E+01 0.00000E+00
 -1      3746 1.42890E+01 2.57125E+01 0.00000E+00
 -1      3747 1.42890E+01 2.71844E+01 0.00000E+00
 -1      3748 1.55880E+01 2.49781E+01 0.00000E+00
 -1      3749 1.63561E+01 1.32880E+01 0.00000E+00
 -1      3750 4.11000E+01 1.68870E+01 0.00000E+00
 -1      3751 3.96750E+01 1.68870E+01 0.00000E+00
 -1      3752 4.18500E+01 1.81860E+01 0.00000E+00
 -1      3753 1.68870E+01 1.83484E+01 0.00000E+00
 -1      3754 1.68870E+01 1.98203E+01 0.00000E+00
 -1      3755 9.89881E+01 3.06579E+01 0.00000E+00
 -1      3756 9.76229E+01 3.02320E+01 0.00000E+00
 -1      3757 2.31750E+01 1.68870E+01 0.00000E+00
 -1      3758 2.16750E+01 1.68870E+01 0.00000E+00
 -1      3759 2.09250E+01 1.81860E+01 0.00000E+00
 -1      3760 2.39250E+01 1.81860E+01 0.00000E+00
 -1      3761 3.81750E+01 1.68870E+01 0.00000E+00
 -1      3762 3.66750E+01 1.68870E+01 0.00000E+00
 -1      3763 3.89250E+01 1.81860E+01 0.00000E+00
 -1      3764 3.21750E+01 1.68870E+01 0.00000E+00
 -1      3765 3.06750E+01 1.68870E+01 0.00000E+00
 -1      3766 3.29250E+01 1.81860E+01 0.00000E+00
 -1      3767 1.20778E+02 2.10194E+01 0.00000E+00
 -1      3768 1.20285E+02 2.24215E+01 0.00000E+00
 -1      3769 1.19400E+02 2.42139E+01 0.00000E+00
 -1      3770 1.18363E+02 2.58941E+01 0.00000E+00
 -1      3771 1.21507E+02 1.87606E+01 0.00000E+00
 -1      3772 1.67353E+01 1.47452E+01 0.00000E+00
 -1      3773 1.67565E+01 1.66003E+01 0.00000E+00
 -1      3774 8.85495E+01 2.11517E+01 0.00000E+00
 -1      3775 8.77656E+01 2.03748E+01 0.00000E+00
 -1      3776 8.81103E+01 2.23853E+01 0.00000E+00
 -1      3777 1.32912E+02 2.20719E+01 0.00000E+00
 -1      3778 1.76100E+01 3.22241E+01 0.00000E+00
 -1      3779 9.63126E+01 3.16588E+01 0.00000E+00
 -1      3780 9.70626E+01 3.29578E+01 0.00000E+00
 -1      3781 9.85626E+01 3.29578E+01 0.00000E+00
 -1      3782 1.81860E+01 2.05594E+01 0.00000E+00
 -1      3783 1.68870E+01 2.12953E+01 0.00000E+00
 -1      3784 1.68870E+01 2.27703E+01 0.00000E+00
 -1      3785 1.55790E+01 2.80733E+01 0.00000E+00
 -1      3786 1.34412E+02 2.50156E+01 0.00000E+00
 -1      3787 2.99250E+01 1.81860E+01 0.00000E+00
 -1      3788 9.59603E+01 3.03872E+01 0.00000E+00
 -1      3789 9.46499E+01 3.04318E+01 0.00000E+00
 -1      3790 8.74630E+01 1.81987E+01 0.00000E+00
 -1      3791 1.29783E+02 1.84336E+01 0.00000E+00
 -1      3792 1.28302E+02 1.84336E+01 0.00000E+00
 -1      3793 1.29931E+02 2.06000E+01 0.00000E+00
 -1      3794 1.32100E+02 3.26757E+01 0.00000E+00
 -1      3795 1.33981E+02 3.29562E+01 0.00000E+00
 -1      3796 9.33488E+01 2.89003E+01 0.00000E+00
 -1      3797 9.31236E+01 2.76990E+01 0.00000E+00
 -1      3798 9.18227E+01 2.75497E+01 0.00000E+00
 -1      3799 1.80555E+01 1.73362E+01 0.00000E+00
 -1      3800 9.04862E+01 2.59143E+01 0.00000E+00
 -1      3801 9.02458E+01 2.47552E+01 0.00000E+00
 -1      3802 8.91345E+01 2.43213E+01 0.00000E+00
 -1      3803 1.24481E+02 1.66155E+01 0.00000E+00
 -1      3804 1.33113E+02 3.16375E+01 0.00000E+00
 -1      3805 1.33113E+02 3.01625E+01 0.00000E+00
 -1      3806 3.59250E+01 1.81860E+01 0.00000E+00
 -1      3807 1.20872E+02 2.39437E+01 0.00000E+00
 -1      3808 1.15953E+02 2.87285E+01 0.00000E+00
 -1      3809 1.16672E+02 3.03735E+01 0.00000E+00
 -1      3810 1.18172E+02 3.03735E+01 0.00000E+00
 -1      3811 1.17217E+02 2.74926E+01 0.00000E+00
 -1      3812 1.01972E+02 3.05975E+01 0.00000E+00
 -1      3813 1.31814E+02 2.94312E+01 0.00000E+00
 -1      3814 1.33113E+02 2.86938E+01 0.00000E+00
 -1      3815 1.33113E+02 2.72250E+01 0.00000E+00
 -1      3816 1.00325E+02 3.08132E+01 0.00000E+00
 -1      3817 9.93126E+01 3.16588E+01 0.00000E+00
 -1      3818 1.22486E+02 1.98925E+01 0.00000E+00
 -1      3819 1.18841E+02 2.73346E+01 0.00000E+00
 -1      3820 1.32682E+02 3.22187E+01 0.00000E+00
 -1      3821 2.34000E+01 3.05150E+01 0.00000E+00
 -1      3822 2.49000E+01 3.05150E+01 0.00000E+00
 -1      3823 2.64000E+01 3.05150E+01 0.00000E+00
 -1      3824 2.79000E+01 3.05150E+01 0.00000E+00
 -1      3825 2.56500E+01 2.92160E+01 0.00000E+00
 -1      3826 2.94000E+01 3.05150E+01 0.00000E+00
 -1      3827 3.09000E+01 3.05150E+01 0.00000E+00
 -1      3828 2.86500E+01 2.92160E+01 0.00000E+00
 -1      3829 3.24000E+01 3.05150E+01 0.00000E+00
 -1      3830 3.39000E+01 3.05150E+01 0.00000E+00
 -1      3831 3.16500E+01 2.92160E+01 0.00000E+00
 -1      3832 3.54000E+01 3.05150E+01 0.00000E+00
 -1      3833 3.69000E+01 3.05150E+01 0.00000E+00
 -1      3834 3.46500E+01 2.92160E+01 0.00000E+00
 -1      3835 3.84000E+01 3.05150E+01 0.00000E+00
 -1      3836 3.99000E+01 3.05150E+01 0.00000E+00
 -1      3837 3.76500E+01 2.92160E+01 0.00000E+00
 -1      3838 4.14000E+01 3.05150E+01 0.00000E+00
 -1      3839 4.29000E+01 3.05150E+01 0.00000E+00
 -1      3840 4.06500E+01 2.92160E+01 0.00000E+00
 -1      3841 4.44000E+01 3.05150E+01 0.00000E+00
 -1      3842 4.59000E+01 3.05150E+01 0.00000E+00
 -1      3843 4.36500E+01 2.92160E+01 0.00000E+00
 -1      3844 4.74000E+01 3.05150E+01 0.00000E+00
 -1      3845 4.89000E+01 3.05150E+01 0.00000E+00
 -1      3846 4.66500E+01 2.92160E+01 0.00000E+00
 -1      3847 5.04000E+01 3.05150E+01 0.00000E+00
 -1      3848 5.19000E+01 3.05150E+01 0.00000E+00
 -1      3849 4.96500E+01 2.92160E+01 0.00000E+00
 -1      3850 5.34000E+01 3.05150E+01 0.00000E+00
 -1      3851 5.49000E+01 3.05150E+01 0.00000E+00
 -1      3852 5.26500E+01 2.92160E+01 0.00000E+00
 -1      3853 5.64000E+01 3.05150E+01 0.00000E+00
 -1      3854 5.79000E+01 3.05150E+01 0.00000E+00
 -1      3855 5.56500E+01 2.92160E+01 0.00000E+00
 -1      3856 5.94000E+01 3.05150E+01 0.00000E+00
 -1      3857 6.09000E+01 3.05150E+01 0.00000E+00
 -1      3858 5.86500E+01 2.92160E+01 0.00000E+00
 -1      3859 6.24000E+01 3.05150E+01 0.00000E+00
 -1      3860 6.39000E+01 3.05150E+01 0.00000E+00
 -1      3861 6.16500E+01 2.92160E+01 0.00000E+00
 -1      3862 6.54000E+01 3.05150E+01 0.00000E+00
 -1      3863 6.69000E+01 3.05150E+01 0.00000E+00
 -1      3864 6.46500E+01 2.92160E+01 0.00000E+00
 -1      3865 6.84000E+01 3.05150E+01 0.00000E+00
 -1      3866 6.99000E+01 3.05150E+01 0.00000E+00
 -1      3867 6.76500E+01 2.92160E+01 0.00000E+00
 -1      3868 7.14000E+01 3.05150E+01 0.00000E+00
 -1      3869 7.29000E+01 3.05150E+01 0.00000E+00
 -1      3870 7.06500E+01 2.92160E+01 0.00000E+00
 -1      3871 7.44000E+01 3.05150E+01 0.00000E+00
 -1      3872 7.59000E+01 3.05150E+01 0.00000E+00
 -1      3873 7.36500E+01 2.92160E+01 0.00000E+00
 -1      3874 7.74000E+01 3.05150E+01 0.00000E+00
 -1      3875 7.89000E+01 3.05150E+01 0.00000E+00
 -1      3876 7.66500E+01 2.92160E+01 0.00000E+00
 -1      3877 8.04000E+01 3.05150E+01 0.00000E+00
 -1      3878 8.19000E+01 3.05150E+01 0.00000E+00
 -1      3879 7.96500E+01 2.92160E+01 0.00000E+00
 -1      3880 8.34000E+01 3.05150E+01 0.00000E+00
 -1      3881 8.49000E+01 3.05150E+01 0.00000E+00
 -1      3882 8.26500E+01 2.92160E+01 0.00000E+00
 -1      3883 8.64000E+01 3.05150E+01 0.00000E+00
 -1      3884 8.79000E+01 3.05150E+01 0.00000E+00
 -1      3885 8.56500E+01 2.92160E+01 0.00000E+00
 -1      3886 9.03490E+01 3.02825E+01 0.00000E+00
 -1      3887 9.18490E+01 3.02825E+01 0.00000E+00
 -1      3888 9.33490E+01 3.02825E+01 0.00000E+00
 -1      3889 1.31232E+02 3.13570E+01 0.00000E+00
 -1      3890 1.22400E+02 3.05150E+01 0.00000E+00
 -1      3891 1.23900E+02 3.05150E+01 0.00000E+00
 -1      3892 1.25400E+02 3.05150E+01 0.00000E+00
 -1      3893 1.26900E+02 3.05150E+01 0.00000E+00
 -1      3894 1.24650E+02 2.92160E+01 0.00000E+00
 -1      3895 5.75250E+01 1.94850E+01 0.00000E+00
 -1      3896 5.60250E+01 1.94850E+01 0.00000E+00
 -1      3897 5.45250E+01 1.94850E+01 0.00000E+00
 -1      3898 5.30250E+01 1.94850E+01 0.00000E+00
 -1      3899 5.52750E+01 2.07840E+01 0.00000E+00
 -1      3900 6.33750E+01 1.94850E+01 0.00000E+00
 -1      3901 6.18750E+01 1.94850E+01 0.00000E+00
 -1      3902 6.63750E+01 1.94850E+01 0.00000E+00
 -1      3903 6.48750E+01 1.94850E+01 0.00000E+00
 -1      3904 6.41250E+01 2.07840E+01 0.00000E+00
 -1      3905 6.93750E+01 1.94850E+01 0.00000E+00
 -1      3906 6.78750E+01 1.94850E+01 0.00000E+00
 -1      3907 6.71250E+01 2.07840E+01 0.00000E+00
 -1      3908 7.23750E+01 1.94850E+01 0.00000E+00
 -1      3909 7.08750E+01 1.94850E+01 0.00000E+00
 -1      3910 7.01250E+01 2.07840E+01 0.00000E+00
 -1      3911 7.53750E+01 1.94850E+01 0.00000E+00
 -1      3912 7.38750E+01 1.94850E+01 0.00000E+00
 -1      3913 7.31250E+01 2.07840E+01 0.00000E+00
 -1      3914 7.83750E+01 1.94850E+01 0.00000E+00
 -1      3915 7.68750E+01 1.94850E+01 0.00000E+00
 -1      3916 7.61250E+01 2.07840E+01 0.00000E+00
 -1      3917 8.13750E+01 1.94850E+01 0.00000E+00
 -1      3918 7.98750E+01 1.94850E+01 0.00000E+00
 -1      3919 7.91250E+01 2.07840E+01 0.00000E+00
 -1      3920 1.23985E+02 1.91294E+01 0.00000E+00
 -1      3921 1.23256E+02 2.13882E+01 0.00000E+00
 -1      3922 8.70238E+01 1.94324E+01 0.00000E+00
 -1      3923 8.62820E+01 1.84899E+01 0.00000E+00
 -1      3924 8.65847E+01 2.06660E+01 0.00000E+00
 -1      3925 6.04125E+01 1.94850E+01 0.00000E+00
 -1      3926 5.89875E+01 1.94850E+01 0.00000E+00
 -1      3927 5.82375E+01 2.07840E+01 0.00000E+00
 -1      3928 6.11625E+01 2.07840E+01 0.00000E+00
 -1      3929 4.55250E+01 1.94850E+01 0.00000E+00
 -1      3930 4.40250E+01 1.94850E+01 0.00000E+00
 -1      3931 3.96750E+01 1.94850E+01 0.00000E+00
 -1      3932 3.81750E+01 1.94850E+01 0.00000E+00
 -1      3933 1.76100E+01 3.07553E+01 0.00000E+00
 -1      3934 1.26101E+02 1.70217E+01 0.00000E+00
 -1      3935 1.24835E+02 1.80399E+01 0.00000E+00
 -1      3936 1.25605E+02 1.95356E+01 0.00000E+00
 -1      3937 1.27305E+02 1.73566E+01 0.00000E+00
 -1      3938 1.30191E+02 3.08511E+01 0.00000E+00
 -1      3939 1.30773E+02 3.03941E+01 0.00000E+00
 -1      3940 1.30773E+02 2.89254E+01 0.00000E+00
 -1      3941 1.28691E+02 3.08511E+01 0.00000E+00
 -1      3942 3.66750E+01 1.94850E+01 0.00000E+00
 -1      3943 3.51750E+01 1.94850E+01 0.00000E+00
 -1      3944 3.74250E+01 2.07840E+01 0.00000E+00
 -1      3945 1.32752E+02 2.37350E+01 0.00000E+00
 -1      3946 1.31252E+02 2.22631E+01 0.00000E+00
 -1      3947 2.76750E+01 1.94850E+01 0.00000E+00
 -1      3948 2.61750E+01 1.94850E+01 0.00000E+00
 -1      3949 1.68870E+01 2.42422E+01 0.00000E+00
 -1      3950 1.68870E+01 2.57141E+01 0.00000E+00
 -1      3951 1.81860E+01 2.35063E+01 0.00000E+00
 -1      3952 2.04000E+01 3.05150E+01 0.00000E+00
 -1      3953 2.19000E+01 3.05150E+01 0.00000E+00
 -1      3954 2.26500E+01 2.92160E+01 0.00000E+00
 -1      3955 1.32752E+02 2.52069E+01 0.00000E+00
 -1      3956 4.25625E+01 1.94850E+01 0.00000E+00
 -1      3957 4.11375E+01 1.94850E+01 0.00000E+00
 -1      3958 4.03875E+01 2.07840E+01 0.00000E+00
 -1      3959 4.33125E+01 2.07840E+01 0.00000E+00
 -1      3960 3.06750E+01 1.94850E+01 0.00000E+00
 -1      3961 2.91750E+01 1.94850E+01 0.00000E+00
 -1      3962 2.84250E+01 2.07840E+01 0.00000E+00
 -1      3963 1.19257E+02 2.88541E+01 0.00000E+00
 -1      3964 1.19734E+02 3.02945E+01 0.00000E+00
 -1      3965 1.21234E+02 3.02945E+01 0.00000E+00
 -1      3966 1.20403E+02 2.72556E+01 0.00000E+00
 -1      3967 3.36750E+01 1.94850E+01 0.00000E+00
 -1      3968 3.21750E+01 1.94850E+01 0.00000E+00
 -1      3969 3.44250E+01 2.07840E+01 0.00000E+00
 -1      3970 1.22479E+02 2.36226E+01 0.00000E+00
 -1      3971 1.21594E+02 2.54150E+01 0.00000E+00
 -1      3972 1.69695E+01 2.87648E+01 0.00000E+00
 -1      3973 1.90095E+01 2.98235E+01 0.00000E+00
 -1      3974 1.97595E+01 2.85245E+01 0.00000E+00
 -1      3975 1.69785E+01 2.71415E+01 0.00000E+00
 -1      3976 8.95990E+01 2.89835E+01 0.00000E+00
 -1      3977 1.82775E+01 2.64056E+01 0.00000E+00
 -1      3978 1.21984E+02 2.89955E+01 0.00000E+00
 -1      3979 8.76036E+01 2.36804E+01 0.00000E+00
 -1      3980 8.68198E+01 2.29035E+01 0.00000E+00
 -1      3981 1.31453E+02 2.59444E+01 0.00000E+00
 -1      3982 1.27941E+02 2.95521E+01 0.00000E+00
 -1      3983 4.70250E+01 1.94850E+01 0.00000E+00
 -1      3984 4.62750E+01 2.07840E+01 0.00000E+00
 -1      3985 4.85250E+01 1.94850E+01 0.00000E+00
 -1      3986 1.22010E+02 2.69344E+01 0.00000E+00
 -1      3987 2.46750E+01 1.94850E+01 0.00000E+00
 -1      3988 2.31750E+01 1.94850E+01 0.00000E+00
 -1      3989 2.54250E+01 2.07840E+01 0.00000E+00
 -1      3990 1.88055E+01 1.86352E+01 0.00000E+00
 -1      3991 5.22750E+01 2.07840E+01 0.00000E+00
 -1      3992 5.15250E+01 1.94850E+01 0.00000E+00
 -1      3993 5.00250E+01 1.94850E+01 0.00000E+00
 -1      3994 1.25478E+02 2.20963E+01 0.00000E+00
 -1      3995 1.23979E+02 2.28595E+01 0.00000E+00
 -1      3996 1.24701E+02 2.43307E+01 0.00000E+00
 -1      3997 8.28750E+01 1.94850E+01 0.00000E+00
 -1      3998 8.21250E+01 2.07840E+01 0.00000E+00
 -1      3999 8.40240E+01 1.92526E+01 0.00000E+00
 -1      4000 8.51330E+01 1.87223E+01 0.00000E+00
 -1      4001 1.29771E+02 2.22631E+01 0.00000E+00
 -1      4002 3.14250E+01 2.07840E+01 0.00000E+00
 -1      4003 1.27452E+02 1.95231E+01 0.00000E+00
 -1      4004 1.98653E+01 1.91481E+01 0.00000E+00
 -1      4005 1.92458E+01 1.95973E+01 0.00000E+00
 -1      4006 1.92458E+01 2.10723E+01 0.00000E+00
 -1      4007 2.13653E+01 1.91481E+01 0.00000E+00
 -1      4008 8.78440E+01 2.48394E+01 0.00000E+00
 -1      4009 5.60250E+01 2.20830E+01 0.00000E+00
 -1      4010 5.45250E+01 2.20830E+01 0.00000E+00
 -1      4011 2.79000E+01 2.79170E+01 0.00000E+00
 -1      4012 2.94000E+01 2.79170E+01 0.00000E+00
 -1      4013 3.09000E+01 2.79170E+01 0.00000E+00
 -1      4014 3.24000E+01 2.79170E+01 0.00000E+00
 -1      4015 3.01500E+01 2.66180E+01 0.00000E+00
 -1      4016 3.39000E+01 2.79170E+01 0.00000E+00
 -1      4017 3.54000E+01 2.79170E+01 0.00000E+00
 -1      4018 3.31500E+01 2.66180E+01 0.00000E+00
 -1      4019 3.69000E+01 2.79170E+01 0.00000E+00
 -1      4020 3.84000E+01 2.79170E+01 0.00000E+00
 -1      4021 3.61500E+01 2.66180E+01 0.00000E+00
 -1      4022 3.99000E+01 2.79170E+01 0.00000E+00
 -1      4023 4.14000E+01 2.79170E+01 0.00000E+00
 -1      4024 3.91500E+01 2.66180E+01 0.00000E+00
 -1      4025 4.29000E+01 2.79170E+01 0.00000E+00
 -1      4026 4.44000E+01 2.79170E+01 0.00000E+00
 -1      4027 4.21500E+01 2.66180E+01 0.00000E+00
 -1      4028 4.59000E+01 2.79170E+01 0.00000E+00
 -1      4029 4.74000E+01 2.79170E+01 0.00000E+00
 -1      4030 4.51500E+01 2.66180E+01 0.00000E+00
 -1      4031 4.89000E+01 2.79170E+01 0.00000E+00
 -1      4032 5.04000E+01 2.79170E+01 0.00000E+00
 -1      4033 4.81500E+01 2.66180E+01 0.00000E+00
 -1      4034 5.19000E+01 2.79170E+01 0.00000E+00
 -1      4035 5.34000E+01 2.79170E+01 0.00000E+00
 -1      4036 5.11500E+01 2.66180E+01 0.00000E+00
 -1      4037 5.49000E+01 2.79170E+01 0.00000E+00
 -1      4038 5.64000E+01 2.79170E+01 0.00000E+00
 -1      4039 5.41500E+01 2.66180E+01 0.00000E+00
 -1      4040 5.79000E+01 2.79170E+01 0.00000E+00
 -1      4041 5.94000E+01 2.79170E+01 0.00000E+00
 -1      4042 5.71500E+01 2.66180E+01 0.00000E+00
 -1      4043 6.09000E+01 2.79170E+01 0.00000E+00
 -1      4044 6.24000E+01 2.79170E+01 0.00000E+00
 -1      4045 6.01500E+01 2.66180E+01 0.00000E+00
 -1      4046 6.39000E+01 2.79170E+01 0.00000E+00
 -1      4047 6.54000E+01 2.79170E+01 0.00000E+00
 -1      4048 6.31500E+01 2.66180E+01 0.00000E+00
 -1      4049 6.69000E+01 2.79170E+01 0.00000E+00
 -1      4050 6.84000E+01 2.79170E+01 0.00000E+00
 -1      4051 6.61500E+01 2.66180E+01 0.00000E+00
 -1      4052 6.99000E+01 2.79170E+01 0.00000E+00
 -1      4053 7.14000E+01 2.79170E+01 0.00000E+00
 -1      4054 6.91500E+01 2.66180E+01 0.00000E+00
 -1      4055 7.29000E+01 2.79170E+01 0.00000E+00
 -1      4056 7.44000E+01 2.79170E+01 0.00000E+00
 -1      4057 7.21500E+01 2.66180E+01 0.00000E+00
 -1      4058 7.59000E+01 2.79170E+01 0.00000E+00
 -1      4059 7.74000E+01 2.79170E+01 0.00000E+00
 -1      4060 7.51500E+01 2.66180E+01 0.00000E+00
 -1      4061 7.89000E+01 2.79170E+01 0.00000E+00
 -1      4062 8.04000E+01 2.79170E+01 0.00000E+00
 -1      4063 7.81500E+01 2.66180E+01 0.00000E+00
 -1      4064 8.19000E+01 2.79170E+01 0.00000E+00
 -1      4065 8.34000E+01 2.79170E+01 0.00000E+00
 -1      4066 8.11500E+01 2.66180E+01 0.00000E+00
 -1      4067 8.52316E+01 2.67073E+01 0.00000E+00
 -1      4068 8.67316E+01 2.67073E+01 0.00000E+00
 -1      4069 1.95765E+01 2.56696E+01 0.00000E+00
 -1      4070 1.96680E+01 2.70971E+01 0.00000E+00
 -1      4071 2.10585E+01 2.77886E+01 0.00000E+00
 -1      4072 1.30355E+02 2.71820E+01 0.00000E+00
 -1      4073 1.29994E+02 2.51639E+01 0.00000E+00
 -1      4074 3.51750E+01 2.20830E+01 0.00000E+00
 -1      4075 3.36750E+01 2.20830E+01 0.00000E+00
 -1      4076 6.78750E+01 2.20830E+01 0.00000E+00
 -1      4077 6.63750E+01 2.20830E+01 0.00000E+00
 -1      4078 6.48750E+01 2.20830E+01 0.00000E+00
 -1      4079 6.33750E+01 2.20830E+01 0.00000E+00
 -1      4080 6.56250E+01 2.33820E+01 0.00000E+00
 -1      4081 7.38750E+01 2.20830E+01 0.00000E+00
 -1      4082 7.23750E+01 2.20830E+01 0.00000E+00
 -1      4083 7.68750E+01 2.20830E+01 0.00000E+00
 -1      4084 7.53750E+01 2.20830E+01 0.00000E+00
 -1      4085 7.46250E+01 2.33820E+01 0.00000E+00
 -1      4086 7.98750E+01 2.20830E+01 0.00000E+00
 -1      4087 7.83750E+01 2.20830E+01 0.00000E+00
 -1      4088 7.76250E+01 2.33820E+01 0.00000E+00
 -1      4089 8.47339E+01 2.02538E+01 0.00000E+00
 -1      4090 1.28646E+02 2.37469E+01 0.00000E+00
 -1      4091 1.27325E+02 2.20838E+01 0.00000E+00
 -1      4092 3.21750E+01 2.20830E+01 0.00000E+00
 -1      4093 3.06750E+01 2.20830E+01 0.00000E+00
 -1      4094 3.29250E+01 2.33820E+01 0.00000E+00
 -1      4095 9.06080E+01 2.72423E+01 0.00000E+00
 -1      4096 8.94967E+01 2.68083E+01 0.00000E+00
 -1      4097 1.23176E+02 2.71549E+01 0.00000E+00
 -1      4098 1.95765E+01 2.27259E+01 0.00000E+00
 -1      4099 1.95765E+01 2.41978E+01 0.00000E+00
 -1      4100 2.09670E+01 2.48892E+01 0.00000E+00
 -1      4101 3.81750E+01 2.20830E+01 0.00000E+00
 -1      4102 3.66750E+01 2.20830E+01 0.00000E+00
 -1      4103 3.59250E+01 2.33820E+01 0.00000E+00
 -1      4104 1.29314E+02 2.81449E+01 0.00000E+00
 -1      4105 2.91750E+01 2.20830E+01 0.00000E+00
 -1      4106 2.76750E+01 2.20830E+01 0.00000E+00
 -1      4107 2.99250E+01 2.33820E+01 0.00000E+00
 -1      4108 7.08750E+01 2.20830E+01 0.00000E+00
 -1      4109 6.93750E+01 2.20830E+01 0.00000E+00
 -1      4110 6.86250E+01 2.33820E+01 0.00000E+00
 -1      4111 2.25585E+01 2.77886E+01 0.00000E+00
 -1      4112 2.40585E+01 2.77886E+01 0.00000E+00
 -1      4113 2.24670E+01 2.63611E+01 0.00000E+00
 -1      4114 2.52292E+01 2.78528E+01 0.00000E+00
 -1      4115 2.67292E+01 2.78528E+01 0.00000E+00
 -1      4116 2.74792E+01 2.65538E+01 0.00000E+00
 -1      4117 2.51378E+01 2.64253E+01 0.00000E+00
 -1      4118 8.82624E+01 2.73482E+01 0.00000E+00
 -1      4119 1.26603E+02 2.06126E+01 0.00000E+00
 -1      4120 8.28749E+01 2.20830E+01 0.00000E+00
 -1      4121 8.13750E+01 2.20830E+01 0.00000E+00
 -1      4122 8.06250E+01 2.33820E+01 0.00000E+00
 -1      4123 8.61478E+01 2.20498E+01 0.00000E+00
 -1      4124 8.54059E+01 2.11074E+01 0.00000E+00
 -1      4125 8.42970E+01 2.16377E+01 0.00000E+00
 -1      4126 8.56411E+01 2.33449E+01 0.00000E+00
 -1      4127 1.24688E+02 2.57428E+01 0.00000E+00
 -1      4128 1.24663E+02 2.78039E+01 0.00000E+00
 -1      4129 1.26163E+02 2.78039E+01 0.00000E+00
 -1      4130 1.26188E+02 2.49797E+01 0.00000E+00
 -1      4131 8.44816E+01 2.54083E+01 0.00000E+00
 -1      4132 2.69250E+01 2.33820E+01 0.00000E+00
 -1      4133 2.61750E+01 2.20830E+01 0.00000E+00
 -1      4134 2.46750E+01 2.20830E+01 0.00000E+00
 -1      4135 5.74875E+01 2.20830E+01 0.00000E+00
 -1      4136 5.67375E+01 2.33820E+01 0.00000E+00
 -1      4137 5.89500E+01 2.20830E+01 0.00000E+00
 -1      4138 7.16250E+01 2.33820E+01 0.00000E+00
 -1      4139 4.92750E+01 2.07840E+01 0.00000E+00
 -1      4140 5.30250E+01 2.20830E+01 0.00000E+00
 -1      4141 5.15250E+01 2.20830E+01 0.00000E+00
 -1      4142 5.37750E+01 2.33820E+01 0.00000E+00
 -1      4143 1.27536E+02 2.63967E+01 0.00000E+00
 -1      4144 1.27523E+02 2.78088E+01 0.00000E+00
 -1      4145 6.26625E+01 2.33820E+01 0.00000E+00
 -1      4146 6.19125E+01 2.20830E+01 0.00000E+00
 -1      4147 6.04500E+01 2.20830E+01 0.00000E+00
 -1      4148 8.35470E+01 2.29367E+01 0.00000E+00
 -1      4149 4.70250E+01 2.20830E+01 0.00000E+00
 -1      4150 4.55250E+01 2.20830E+01 0.00000E+00
 -1      4151 9.08332E+01 2.84437E+01 0.00000E+00
 -1      4152 2.21153E+01 2.04471E+01 0.00000E+00
 -1      4153 2.06363E+01 2.17638E+01 0.00000E+00
 -1      4154 3.96375E+01 2.20830E+01 0.00000E+00
 -1      4155 3.88875E+01 2.33820E+01 0.00000E+00
 -1      4156 4.11000E+01 2.20830E+01 0.00000E+00
 -1      4157 4.40438E+01 2.20830E+01 0.00000E+00
 -1      4158 4.25812E+01 2.20830E+01 0.00000E+00
 -1      4159 4.18312E+01 2.33820E+01 0.00000E+00
 -1      4160 4.47938E+01 2.33820E+01 0.00000E+00
 -1      4161 3.30375E+01 2.50000E+01 0.00000E+00
 -1      4162 3.45375E+01 2.50000E+01 0.00000E+00
 -1      4163 3.60375E+01 2.50000E+01 0.00000E+00
 -1      4164 3.75375E+01 2.50000E+01 0.00000E+00
 -1      4165 3.90000E+01 2.50000E+01 0.00000E+00
 -1      4166 4.05000E+01 2.50000E+01 0.00000E+00
 -1      4167 4.19813E+01 2.50000E+01 0.00000E+00
 -1      4168 4.34813E+01 2.50000E+01 0.00000E+00
 -1      4169 4.49625E+01 2.50000E+01 0.00000E+00
 -1      4170 4.64625E+01 2.50000E+01 0.00000E+00
 -1      4171 4.79625E+01 2.50000E+01 0.00000E+00
 -1      4172 5.09625E+01 2.50000E+01 0.00000E+00
 -1      4173 5.24625E+01 2.50000E+01 0.00000E+00
 -1      4174 5.39625E+01 2.50000E+01 0.00000E+00
 -1      4175 5.54625E+01 2.50000E+01 0.00000E+00
 -1      4176 5.69250E+01 2.50000E+01 0.00000E+00
 -1      4177 5.84250E+01 2.50000E+01 0.00000E+00
 -1      4178 5.99250E+01 2.50000E+01 0.00000E+00
 -1      4179 6.14250E+01 2.50000E+01 0.00000E+00
 -1      4180 6.28875E+01 2.50000E+01 0.00000E+00
 -1      4181 6.43875E+01 2.50000E+01 0.00000E+00
 -1      4182 6.58875E+01 2.50000E+01 0.00000E+00
 -1      4183 6.73875E+01 2.50000E+01 0.00000E+00
 -1      4184 6.88875E+01 2.50000E+01 0.00000E+00
 -1      4185 7.03875E+01 2.50000E+01 0.00000E+00
 -1      4186 7.18875E+01 2.50000E+01 0.00000E+00
 -1      4187 7.33875E+01 2.50000E+01 0.00000E+00
 -1      4188 7.48875E+01 2.50000E+01 0.00000E+00
 -1      4189 7.63875E+01 2.50000E+01 0.00000E+00
 -1      4190 7.78875E+01 2.50000E+01 0.00000E+00
 -1      4191 7.93875E+01 2.50000E+01 0.00000E+00
 -1      4192 8.08875E+01 2.50000E+01 0.00000E+00
 -1      4193 8.23875E+01 2.50000E+01 0.00000E+00
 -1      4194 1.27548E+02 2.49846E+01 0.00000E+00
 -1      4195 3.15375E+01 2.50000E+01 0.00000E+00
 -1      4196 8.38095E+01 2.45546E+01 0.00000E+00
 -1      4197 3.00375E+01 2.50000E+01 0.00000E+00
 -1      4198 2.24670E+01 2.48892E+01 0.00000E+00
 -1      4199 2.85375E+01 2.50000E+01 0.00000E+00
 -1      4200 5.00250E+01 2.20830E+01 0.00000E+00
 -1      4201 4.85250E+01 2.20830E+01 0.00000E+00
 -1      4202 4.77750E+01 2.33820E+01 0.00000E+00
 -1      4203 5.07750E+01 2.33820E+01 0.00000E+00
 -1      4204 2.73668E+01 2.49358E+01 0.00000E+00
 -1      4205 2.24460E+01 2.21007E+01 0.00000E+00
 -1      4206 2.39460E+01 2.35726E+01 0.00000E+00
 -1      4207 4.94625E+01 2.50000E+01 0.00000E+00
 -1      4208 5.97000E+01 2.33820E+01 0.00000E+00
 -1      4209 2.58668E+01 2.49358E+01 0.00000E+00
 -1      4210 8.83843E+01 2.86762E+01 0.00000E+00
 -1      4211 2.51168E+01 2.36368E+01 0.00000E+00
 -3
    3C                          2023                                     1
 -1       166    8    0    1
 -2         6         7        23      1095      1260      1112
 -1       167    8    0    1
 -2         7         8       166      1096      1261      1262
 -1       168    8    0    1
 -2         8         9       167      1097      1263      1264
 -1       169    8    0    1
 -2         8       167       166      1264      1265      1261
 -1       170    8    0    1
 -2         9        10       168      1098      1266      1267
 -1       171    8    0    1
 -2         9       168       167      1267      1268      1263
 -1       172    8    0    1
 -2        10        11       169      1099      1269      1270
 -1       173    8    0    1
 -2        10       169       168      1270      1271      1266
 -1       174    8    0    1
 -2        11        12       170      1100      1272      1273
 -1       175    8    0    1
 -2        11       170       169      1273      1274      1269
 -1       176    8    0    1
 -2        12        13       171      1101      1275      1276
 -1       177    8    0    1
 -2        12       171       170      1276      1277      1272
 -1       178    8    0    1
 -2        13        14       172      1102      1278      1279
 -1       179    8    0    1
 -2        13       172       171      1279      1280      1275
 -1       180    8    0    1
 -2        14        15       173      1103      1281      1282
 -1       181    8    0    1
 -2        14       173       172      1282      1283      1278
 -1       182    8    0    1
 -2        15        16       174      1104      1284      1285
 -1       183    8    0    1
 -2        15       174       173      1285      1286      1281
 -1       184    8    0    1
 -2        16        17       175      1105      1287      1288
 -1       185    8    0    1
 -2        16       175       174      1288      1289      1284
 -1       186    8    0    1
 -2        17        18       176      1106      1290      1291
 -1       187    8    0    1
 -2        17       176       175      1291      1292      1287
 -1       188    8    0    1
 -2        18        19       177      1107      1293      1294
 -1       189    8    0    1
 -2        18       177       176      1294      1295      1290
 -1       190    8    0    1
 -2        19        20       178      1108      1296      1297
 -1       191    8    0    1
 -2        19       178       177      1297      1298      1293
 -1       192    8    0    1
 -2        20        21       179      1109      1299      1300
 -1       193    8    0    1
 -2        20       179       178      1300      1301      1296
 -1       194    8    0    1
 -2        21        22       180      1110      1302      1303
 -1       195    8    0    1
 -2        21       180       179      1303      1304      1299
 -1       196    8    0    1
 -2        22         5        72      1111      1162      1305
 -1       197    8    0    1
 -2        24        23       181      1113      1306      1307
 -1       198    8    0    1
 -2        25        24       182      1114      1308      1309
 -1       199    8    0    1
 -2        24       181       182      1307      1310      1308
 -1       200    8    0    1
 -2        26        25       183      1115      1311      1312
 -1       201    8    0    1
 -2        25       182       183      1309      1313      1311
 -1       202    8    0    1
 -2        27        26       184      1116      1314      1315
 -1       203    8    0    1
 -2        26       183       184      1312      1316      1314
 -1       204    8    0    1
 -2        28        27       185      1117      1317      1318
 -1       205    8    0    1
 -2        27       184       185      1315      1319      1317
 -1       206    8    0    1
 -2        29        28       186      1118      1320      1321
 -1       207    8    0    1
 -2        28       185       186      1318      1322      1320
 -1       208    8    0    1
 -2        30        29       187      1119      1323      1324
 -1       209    8    0    1
 -2        29       186       187      1321      1325      1323
 -1       210    8    0    1
 -2        31        30       188      1120      1326      1327
 -1       211    8    0    1
 -2        30       187       188      1324      1328      1326
 -1       212    8    0    1
 -2        32        31       189      1121      1329      1330
 -1       213    8    0    1
 -2        31       188       189      1327      1331      1329
 -1       214    8    0    1
 -2        33        32       190      1122      1332      1333
 -1       215    8    0    1
 -2        32       189       190      1330      1334      1332
 -1       216    8    0    1
 -2        34        33       191      1123      1335      1336
 -1       217    8    0    1
 -2        33       190       191      1333      1337      1335
 -1       218    8    0    1
 -2        35        34       192      1124      1338      1339
 -1       219    8    0    1
 -2        34       191       192      1336      1340      1338
 -1       220    8    0    1
 -2        36        35       193      1125      1341      1342
 -1       221    8    0    1
 -2        35       192       193      1339      1343      1341
 -1       222    8    0    1
 -2        37        36       194      1126      1344      1345
 -1       223    8    0    1
 -2        36       193       194      1342      1346      1344
 -1       224    8    0    1
 -2        38        37       195      1127      1347      1348
 -1       225    8    0    1
 -2        37       194       195      1345      1349      1347
 -1       226    8    0    1
 -2        39        38       196      1128      1350      1351
 -1       227    8    0    1
 -2        38       195       196      1348      1352      1350
 -1       228    8    0    1
 -2        40        39       197      1129      1353      1354
 -1       229    8    0    1
 -2        39       196       197      1351      1355      1353
 -1       230    8    0    1
 -2        41        40       198      1130      1356      1357
 -1       231    8    0    1
 -2        40       197       198      1354      1358      1356
 -1       232    8    0    1
 -2        42        41       199      1131      1359      1360
 -1       233    8    0    1
 -2        41       198       199      1357      1361      1359
 -1       234    8    0    1
 -2        43        42       200      1132      1362      1363
 -1       235    8    0    1
 -2        42       199       200      1360      1364      1362
 -1       236    8    0    1
 -2        44        43       201      1133      1365      1366
 -1       237    8    0    1
 -2        43       200       201      1363      1367      1365
 -1       238    8    0    1
 -2        45        44       202      1134      1368      1369
 -1       239    8    0    1
 -2        44       201       202      1366      1370      1368
 -1       240    8    0    1
 -2        46        45       203      1135      1371      1372
 -1       241    8    0    1
 -2        45       202       203      1369      1373      1371
 -1       242    8    0    1
 -2        47        46       204      1136      1374      1375
 -1       243    8    0    1
 -2        46       203       204      1372      1376      1374
 -1       244    8    0    1
 -2        48        47       205      1137      1377      1378
 -1       245    8    0    1
 -2        47       204       205      1375      1379      1377
 -1       246    8    0    1
 -2        49        48       206      1138      1380      1381
 -1       247    8    0    1
 -2        48       205       206      1378      1382      1380
 -1       248    8    0    1
 -2        50        49       207      1139      1383      1384
 -1       249    8    0    1
 -2        49       206       207      1381      1385      1383
 -1       250    8    0    1
 -2        51        50       208      1140      1386      1387
 -1       251    8    0    1
 -2        50       207       208      1384      1388      1386
 -1       252    8    0    1
 -2        52        51       209      1141      1389      1390
 -1       253    8    0    1
 -2        51       208       209      1387      1391      1389
 -1       254    8    0    1
 -2        53        52       210      1142      1392      1393
 -1       255    8    0    1
 -2        52       209       210      1390      1394      1392
 -1       256    8    0    1
 -2        54        53       211      1143      1395      1396
 -1       257    8    0    1
 -2        53       210       211      1393      1397      1395
 -1       258    8    0    1
 -2        55        54       212      1144      1398      1399
 -1       259    8    0    1
 -2        54       211       212      1396      1400      1398
 -1       260    8    0    1
 -2        56        55       213      1145      1401      1402
 -1       261    8    0    1
 -2        55       212       213      1399      1403      1401
 -1       262    8    0    1
 -2        57        56       214      1146      1404      1405
 -1       263    8    0    1
 -2        56       213       214      1402      1406      1404
 -1       264    8    0    1
 -2        58        57       215      1147      1407      1408
 -1       265    8    0    1
 -2        57       214       215      1405      1409      1407
 -1       266    8    0    1
 -2        59        58       216      1148      1410      1411
 -1       267    8    0    1
 -2        58       215       216      1408      1412      1410
 -1       268    8    0    1
 -2        60        59       217      1149      1413      1414
 -1       269    8    0    1
 -2        59       216       217      1411      1415      1413
 -1       270    8    0    1
 -2        61        60       218      1150      1416      1417
 -1       271    8    0    1
 -2        60       217       218      1414      1418      1416
 -1       272    8    0    1
 -2        62        61       219      1151      1419      1420
 -1       273    8    0    1
 -2        61       218       219      1417      1421      1419
 -1       274    8    0    1
 -2        63        62       220      1152      1422      1423
 -1       275    8    0    1
 -2        62       219       220      1420      1424      1422
 -1       276    8    0    1
 -2        64        63       221      1153      1425      1426
 -1       277    8    0    1
 -2        63       220       221      1423      1427      1425
 -1       278    8    0    1
 -2        65        64       222      1154      1428      1429
 -1       279    8    0    1
 -2        64       221       222      1426      1430      1428
 -1       280    8    0    1
 -2        66        65       223      1155      1431      1432
 -1       281    8    0    1
 -2        65       222       223      1429      1433      1431
 -1       282    8    0    1
 -2        67        66       224      1156      1434      1435
 -1       283    8    0    1
 -2        66       223       224      1432      1436      1434
 -1       284    8    0    1
 -2        68        67       225      1157      1437      1438
 -1       285    8    0    1
 -2        67       224       225      1435      1439      1437
 -1       286    8    0    1
 -2        69        68       226      1158      1440      1441
 -1       287    8    0    1
 -2        68       225       226      1438      1442      1440
 -1       288    8    0    1
 -2        70        69       227      1159      1443      1444
 -1       289    8    0    1
 -2        69       226       227      1441      1445      1443
 -1       290    8    0    1
 -2        71        70       228      1160      1446      1447
 -1       291    8    0    1
 -2        70       227       228      1444      1448      1446
 -1       292    8    0    1
 -2         4        71       137      1161      1449      1229
 -1       293    8    0    1
 -2       137        71       228      1449      1447      1450
 -1       294    8    0    1
 -2        72        73       229      1163      1451      1452
 -1       295    8    0    1
 -2        73        74       230      1164      1453      1454
 -1       296    8    0    1
 -2        73       230       229      1454      1455      1451
 -1       297    8    0    1
 -2        74        75       231      1165      1456      1457
 -1       298    8    0    1
 -2        74       231       230      1457      1458      1453
 -1       299    8    0    1
 -2        75        76       232      1166      1459      1460
 -1       300    8    0    1
 -2        75       232       231      1460      1461      1456
 -1       301    8    0    1
 -2        76        77       233      1167      1462      1463
 -1       302    8    0    1
 -2        76       233       232      1463      1464      1459
 -1       303    8    0    1
 -2        77        78       234      1168      1465      1466
 -1       304    8    0    1
 -2        77       234       233      1466      1467      1462
 -1       305    8    0    1
 -2        78        79       235      1169      1468      1469
 -1       306    8    0    1
 -2        78       235       234      1469      1470      1465
 -1       307    8    0    1
 -2        79        80       236      1170      1471      1472
 -1       308    8    0    1
 -2        79       236       235      1472      1473      1468
 -1       309    8    0    1
 -2        80        81       237      1171      1474      1475
 -1       310    8    0    1
 -2        80       237       236      1475      1476      1471
 -1       311    8    0    1
 -2        81        82       238      1172      1477      1478
 -1       312    8    0    1
 -2        81       238       237      1478      1479      1474
 -1       313    8    0    1
 -2        82        83       239      1173      1480      1481
 -1       314    8    0    1
 -2        82       239       238      1481      1482      1477
 -1       315    8    0    1
 -2        83        84       240      1174      1483      1484
 -1       316    8    0    1
 -2        83       240       239      1484      1485      1480
 -1       317    8    0    1
 -2        84        85       241      1175      1486      1487
 -1       318    8    0    1
 -2        84       241       240      1487      1488      1483
 -1       319    8    0    1
 -2        85        86       242      1176      1489      1490
 -1       320    8    0    1
 -2        85       242       241      1490      1491      1486
 -1       321    8    0    1
 -2        86        87       243      1177      1492      1493
 -1       322    8    0    1
 -2        86       243       242      1493      1494      1489
 -1       323    8    0    1
 -2        87        88       244      1178      1495      1496
 -1       324    8    0    1
 -2        87       244       243      1496      1497      1492
 -1       325    8    0    1
 -2        88        89       245      1179      1498      1499
 -1       326    8    0    1
 -2        88       245       244      1499      1500      1495
 -1       327    8    0    1
 -2        89        90       246      1180      1501      1502
 -1       328    8    0    1
 -2        89       246       245      1502      1503      1498
 -1       329    8    0    1
 -2        90        91       247      1181      1504      1505
 -1       330    8    0    1
 -2        90       247       246      1505      1506      1501
 -1       331    8    0    1
 -2        91        92       248      1182      1507      1508
 -1       332    8    0    1
 -2        91       248       247      1508      1509      1504
 -1       333    8    0    1
 -2        92        93       249      1183      1510      1511
 -1       334    8    0    1
 -2        92       249       248      1511      1512      1507
 -1       335    8    0    1
 -2        93        94       250      1184      1513      1514
 -1       336    8    0    1
 -2        93       250       249      1514      1515      1510
 -1       337    8    0    1
 -2        94        95       251      1185      1516      1517
 -1       338    8    0    1
 -2        94       251       250      1517      1518      1513
 -1       339    8    0    1
 -2        95        96       252      1186      1519      1520
 -1       340    8    0    1
 -2        95       252       251      1520      1521      1516
 -1       341    8    0    1
 -2        96        97       253      1187      1522      1523
 -1       342    8    0    1
 -2        96       253       252      1523      1524      1519
 -1       343    8    0    1
 -2        97        98       254      1188      1525      1526
 -1       344    8    0    1
 -2        97       254       253      1526      1527      1522
 -1       345    8    0    1
 -2        98        99       255      1189      1528      1529
 -1       346    8    0    1
 -2        98       255       254      1529      1530      1525
 -1       347    8    0    1
 -2        99       100       256      1190      1531      1532
 -1       348    8    0    1
 -2        99       256       255      1532      1533      1528
 -1       349    8    0    1
 -2       100       101       257      1191      1534      1535
 -1       350    8    0    1
 -2       100       257       256      1535      1536      1531
 -1       351    8    0    1
 -2       101       102       258      1192      1537      1538
 -1       352    8    0    1
 -2       101       258       257      1538      1539      1534
 -1       353    8    0    1
 -2       102       103       259      1193      1540      1541
 -1       354    8    0    1
 -2       102       259       258      1541      1542      1537
 -1       355    8    0    1
 -2       103       104       260      1194      1543      1544
 -1       356    8    0    1
 -2       103       260       259      1544      1545      1540
 -1       357    8    0    1
 -2       104       105       261      1195      1546      1547
 -1       358    8    0    1
 -2       104       261       260      1547      1548      1543
 -1       359    8    0    1
 -2       105       106       262      1196      1549      1550
 -1       360    8    0    1
 -2       105       262       261      1550      1551      1546
 -1       361    8    0    1
 -2       106       107       263      1197      1552      1553
 -1       362    8    0    1
 -2       106       263       262      1553      1554      1549
 -1       363    8    0    1
 -2       107       108       264      1198      1555      1556
 -1       364    8    0    1
 -2       107       264       263      1556      1557      1552
 -1       365    8    0    1
 -2       108       109       265      1199      1558      1559
 -1       366    8    0    1
 -2       108       265       264      1559      1560      1555
 -1       367    8    0    1
 -2       109       110       266      1200      1561      1562
 -1       368    8    0    1
 -2       109       266       265      1562      1563      1558
 -1       369    8    0    1
 -2       110       111       267      1201      1564      1565
 -1       370    8    0    1
 -2       110       267       266      1565      1566      1561
 -1       371    8    0    1
 -2       111       112       268      1202      1567      1568
 -1       372    8    0    1
 -2       111       268       267      1568      1569      1564
 -1       373    8    0    1
 -2       112       113       269      1203      1570      1571
 -1       374    8    0    1
 -2       112       269       268      1571      1572      1567
 -1       375    8    0    1
 -2       113       114       270      1204      1573      1574
 -1       376    8    0    1
 -2       113       270       269      1574      1575      1570
 -1       377    8    0    1
 -2       114       115       271      1205      1576      1577
 -1       378    8    0    1
 -2       114       271       270      1577      1578      1573
 -1       379    8    0    1
 -2       115       116       272      1206      1579      1580
 -1       380    8    0    1
 -2       115       272       271      1580      1581      1576
 -1       381    8    0    1
 -2       116       117       273      1207      1582      1583
 -1       382    8    0    1
 -2       116       273       272      1583      1584      1579
 -1       383    8    0    1
 -2       117       118       274      1208      1585      1586
 -1       384    8    0    1
 -2       117       274       273      1586      1587      1582
 -1       385    8    0    1
 -2       118       119       275      1209      1588      1589
 -1       386    8    0    1
 -2       118       275       274      1589      1590      1585
 -1       387    8    0    1
 -2       119       120       276      1210      1591      1592
 -1       388    8    0    1
 -2       119       276       275      1592      1593      1588
 -1       389    8    0    1
 -2       120       121       277      1211      1594      1595
 -1       390    8    0    1
 -2       120       277       276      1595      1596      1591
 -1       391    8    0    1
 -2       121         3       122      1212      1213      1597
 -1       392    8    0    1
 -2       122       123       278      1214      1598      1599
 -1       393    8    0    1
 -2       123       124       279      1215      1600      1601
 -1       394    8    0    1
 -2       123       279       278      1601      1602      1598
 -1       395    8    0    1
 -2       124       125       280      1216      1603      1604
 -1       396    8    0    1
 -2       124       280       279      1604      1605      1600
 -1       397    8    0    1
 -2       125       126       281      1217      1606      1607
 -1       398    8    0    1
 -2       125       281       280      1607      1608      1603
 -1       399    8    0    1
 -2       126       127       282      1218      1609      1610
 -1       400    8    0    1
 -2       126       282       281      1610      1611      1606
 -1       401    8    0    1
 -2       127       128       283      1219      1612      1613
 -1       402    8    0    1
 -2       127       283       282      1613      1614      1609
 -1       403    8    0    1
 -2       128       129       284      1220      1615      1616
 -1       404    8    0    1
 -2       128       284       283      1616      1617      1612
 -1       405    8    0    1
 -2       129       130       285      1221      1618      1619
 -1       406    8    0    1
 -2       129       285       284      1619      1620      1615
 -1       407    8    0    1
 -2       130       131       286      1222      1621      1622
 -1       408    8    0    1
 -2       130       286       285      1622      1623      1618
 -1       409    8    0    1
 -2       131       132       287      1223      1624      1625
 -1       410    8    0    1
 -2       131       287       286      1625      1626      1621
 -1       411    8    0    1
 -2       132       133       288      1224      1627      1628
 -1       412    8    0    1
 -2       132       288       287      1628      1629      1624
 -1       413    8    0    1
 -2       133       134       289      1225      1630      1631
 -1       414    8    0    1
 -2       133       289       288      1631      1632      1627
 -1       415    8    0    1
 -2       134       135       290      1226      1633      1634
 -1       416    8    0    1
 -2       134       290       289      1634      1635      1630
 -1       417    8    0    1
 -2       135       136       291      1227      1636      1637
 -1       418    8    0    1
 -2       135       291       290      1637      1638      1633
 -1       419    8    0    1
 -2       136       137       292      1228      1639      1640
 -1       420    8    0    1
 -2       291       136       292      1636      1640      1641
 -1       421    8    0    1
 -2       137       228       292      1450      1642      1639
 -1       422    8    0    1
 -2         2       138       293      1230      1643      1644
 -1       423    8    0    1
 -2       138       139       294      1231      1645      1646
 -1       424    8    0    1
 -2       139       140       295      1232      1647      1648
 -1       425    8    0    1
 -2       140       141       296      1233      1649      1650
 -1       426    8    0    1
 -2       141       142       297      1234      1651      1652
 -1       427    8    0    1
 -2       142       143       298      1235      1653      1654
 -1       428    8    0    1
 -2       143       144       299      1236      1655      1656
 -1       429    8    0    1
 -2       144       145       300      1237      1657      1658
 -1       430    8    0    1
 -2       145       146       301      1238      1659      1660
 -1       431    8    0    1
 -2       146       147       302      1239      1661      1662
 -1       432    8    0    1
 -2       147       148       303      1240      1663      1664
 -1       433    8    0    1
 -2       148       149       304      1241      1665      1666
 -1       434    8    0    1
 -2       149       150       305      1242      1667      1668
 -1       435    8    0    1
 -2       150       151       306      1243      1669      1670
 -1       436    8    0    1
 -2       151       152       307      1244      1671      1672
 -1       437    8    0    1
 -2       152       153       308      1245      1673      1674
 -1       438    8    0    1
 -2       153         1       309      1246      1675      1676
 -1       439    8    0    1
 -2         1       154       310      1247      1677      1678
 -1       440    8    0    1
 -2       154       155       311      1248      1679      1680
 -1       441    8    0    1
 -2       155       156       312      1249      1681      1682
 -1       442    8    0    1
 -2       156       157       313      1250      1683      1684
 -1       443    8    0    1
 -2       157       158       314      1251      1685      1686
 -1       444    8    0    1
 -2       158       159       315      1252      1687      1688
 -1       445    8    0    1
 -2       159       160       316      1253      1689      1690
 -1       446    8    0    1
 -2       160       161       317      1254      1691      1692
 -1       447    8    0    1
 -2       161       162       318      1255      1693      1694
 -1       448    8    0    1
 -2       162       163       319      1256      1695      1696
 -1       449    8    0    1
 -2       163       164       320      1257      1697      1698
 -1       450    8    0    1
 -2       164       165       321      1258      1699      1700
 -1       451    8    0    1
 -2       165         2       322      1259      1701      1702
 -1       452    8    0    1
 -2        22        72       180      1305      1703      1302
 -1       453    8    0    1
 -2       295       140       296      1647      1650      1704
 -1       454    8    0    1
 -2       121       122       277      1597      1705      1594
 -1       455    8    0    1
 -2       293       138       294      1643      1646      1706
 -1       456    8    0    1
 -2       294       139       295      1645      1648      1707
 -1       457    8    0    1
 -2         2       293       322      1644      1708      1701
 -1       458    8    0    1
 -2       141       297       296      1652      1709      1649
 -1       459    8    0    1
 -2       142       298       297      1654      1710      1651
 -1       460    8    0    1
 -2       143       299       298      1656      1711      1653
 -1       461    8    0    1
 -2       144       300       299      1658      1712      1655
 -1       462    8    0    1
 -2       145       301       300      1660      1713      1657
 -1       463    8    0    1
 -2       146       302       301      1662      1714      1659
 -1       464    8    0    1
 -2       147       303       302      1664      1715      1661
 -1       465    8    0    1
 -2       148       304       303      1666      1716      1663
 -1       466    8    0    1
 -2       149       305       304      1668      1717      1665
 -1       467    8    0    1
 -2       150       306       305      1670      1718      1667
 -1       468    8    0    1
 -2       151       307       306      1672      1719      1669
 -1       469    8    0    1
 -2       152       308       307      1674      1720      1671
 -1       470    8    0    1
 -2       153       309       308      1676      1721      1673
 -1       471    8    0    1
 -2         1       310       309      1678      1722      1675
 -1       472    8    0    1
 -2       154       311       310      1680      1723      1677
 -1       473    8    0    1
 -2       155       312       311      1682      1724      1679
 -1       474    8    0    1
 -2       156       313       312      1684      1725      1681
 -1       475    8    0    1
 -2       157       314       313      1686      1726      1683
 -1       476    8    0    1
 -2       158       315       314      1688      1727      1685
 -1       477    8    0    1
 -2       159       316       315      1690      1728      1687
 -1       478    8    0    1
 -2       160       317       316      1692      1729      1689
 -1       479    8    0    1
 -2       161       318       317      1694      1730      1691
 -1       480    8    0    1
 -2       162       319       318      1696      1731      1693
 -1       481    8    0    1
 -2       163       320       319      1698      1732      1695
 -1       482    8    0    1
 -2       164       321       320      1700      1733      1697
 -1       483    8    0    1
 -2       165       322       321      1702      1734      1699
 -1       484    8    0    1
 -2        23         7       166      1260      1262      1735
 -1       485    8    0    1
 -2       167       168       323      1268      1736      1737
 -1       486    8    0    1
 -2       166       167       324      1265      1738      1739
 -1       487    8    0    1
 -2       167       323       324      1737      1740      1738
 -1       488    8    0    1
 -2       169       170       325      1274      1741      1742
 -1       489    8    0    1
 -2       170       171       326      1277      1743      1744
 -1       490    8    0    1
 -2       170       326       325      1744      1745      1741
 -1       491    8    0    1
 -2       171       172       327      1280      1746      1747
 -1       492    8    0    1
 -2       171       327       326      1747      1748      1743
 -1       493    8    0    1
 -2       172       173       328      1283      1749      1750
 -1       494    8    0    1
 -2       172       328       327      1750      1751      1746
 -1       495    8    0    1
 -2       173       174       329      1286      1752      1753
 -1       496    8    0    1
 -2       173       329       328      1753      1754      1749
 -1       497    8    0    1
 -2       174       175       330      1289      1755      1756
 -1       498    8    0    1
 -2       174       330       329      1756      1757      1752
 -1       499    8    0    1
 -2       175       176       331      1292      1758      1759
 -1       500    8    0    1
 -2       175       331       330      1759      1760      1755
 -1       501    8    0    1
 -2       176       177       332      1295      1761      1762
 -1       502    8    0    1
 -2       176       332       331      1762      1763      1758
 -1       503    8    0    1
 -2       177       178       333      1298      1764      1765
 -1       504    8    0    1
 -2       177       333       332      1765      1766      1761
 -1       505    8    0    1
 -2       178       179       334      1301      1767      1768
 -1       506    8    0    1
 -2       178       334       333      1768      1769      1764
 -1       507    8    0    1
 -2       179       180       335      1304      1770      1771
 -1       508    8    0    1
 -2       179       335       334      1771      1772      1767
 -1       509    8    0    1
 -2       295       296       336      1704      1773      1774
 -1       510    8    0    1
 -2       181        23       166      1306      1735      1775
 -1       511    8    0    1
 -2        72       229       180      1452      1776      1703
 -1       512    8    0    1
 -2       183       182       337      1313      1777      1778
 -1       513    8    0    1
 -2       184       183       338      1316      1779      1780
 -1       514    8    0    1
 -2       183       337       338      1778      1781      1779
 -1       515    8    0    1
 -2       185       184       339      1319      1782      1783
 -1       516    8    0    1
 -2       184       338       339      1780      1784      1782
 -1       517    8    0    1
 -2       186       185       340      1322      1785      1786
 -1       518    8    0    1
 -2       185       339       340      1783      1787      1785
 -1       519    8    0    1
 -2       187       186       341      1325      1788      1789
 -1       520    8    0    1
 -2       186       340       341      1786      1790      1788
 -1       521    8    0    1
 -2       188       187       342      1328      1791      1792
 -1       522    8    0    1
 -2       187       341       342      1789      1793      1791
 -1       523    8    0    1
 -2       189       188       343      1331      1794      1795
 -1       524    8    0    1
 -2       188       342       343      1792      1796      1794
 -1       525    8    0    1
 -2       190       189       344      1334      1797      1798
 -1       526    8    0    1
 -2       189       343       344      1795      1799      1797
 -1       527    8    0    1
 -2       191       190       345      1337      1800      1801
 -1       528    8    0    1
 -2       190       344       345      1798      1802      1800
 -1       529    8    0    1
 -2       192       191       346      1340      1803      1804
 -1       530    8    0    1
 -2       191       345       346      1801      1805      1803
 -1       531    8    0    1
 -2       193       192       347      1343      1806      1807
 -1       532    8    0    1
 -2       192       346       347      1804      1808      1806
 -1       533    8    0    1
 -2       194       193       348      1346      1809      1810
 -1       534    8    0    1
 -2       193       347       348      1807      1811      1809
 -1       535    8    0    1
 -2       195       194       349      1349      1812      1813
 -1       536    8    0    1
 -2       194       348       349      1810      1814      1812
 -1       537    8    0    1
 -2       196       195       350      1352      1815      1816
 -1       538    8    0    1
 -2       195       349       350      1813      1817      1815
 -1       539    8    0    1
 -2       197       196       351      1355      1818      1819
 -1       540    8    0    1
 -2       196       350       351      1816      1820      1818
 -1       541    8    0    1
 -2       198       197       352      1358      1821      1822
 -1       542    8    0    1
 -2       197       351       352      1819      1823      1821
 -1       543    8    0    1
 -2       199       198       353      1361      1824      1825
 -1       544    8    0    1
 -2       198       352       353      1822      1826      1824
 -1       545    8    0    1
 -2       200       199       354      1364      1827      1828
 -1       546    8    0    1
 -2       199       353       354      1825      1829      1827
 -1       547    8    0    1
 -2       201       200       355      1367      1830      1831
 -1       548    8    0    1
 -2       200       354       355      1828      1832      1830
 -1       549    8    0    1
 -2       202       201       356      1370      1833      1834
 -1       550    8    0    1
 -2       201       355       356      1831      1835      1833
 -1       551    8    0    1
 -2       203       202       357      1373      1836      1837
 -1       552    8    0    1
 -2       202       356       357      1834      1838      1836
 -1       553    8    0    1
 -2       204       203       358      1376      1839      1840
 -1       554    8    0    1
 -2       203       357       358      1837      1841      1839
 -1       555    8    0    1
 -2       205       204       359      1379      1842      1843
 -1       556    8    0    1
 -2       204       358       359      1840      1844      1842
 -1       557    8    0    1
 -2       206       205       360      1382      1845      1846
 -1       558    8    0    1
 -2       205       359       360      1843      1847      1845
 -1       559    8    0    1
 -2       207       206       361      1385      1848      1849
 -1       560    8    0    1
 -2       206       360       361      1846      1850      1848
 -1       561    8    0    1
 -2       208       207       362      1388      1851      1852
 -1       562    8    0    1
 -2       207       361       362      1849      1853      1851
 -1       563    8    0    1
 -2       209       208       363      1391      1854      1855
 -1       564    8    0    1
 -2       208       362       363      1852      1856      1854
 -1       565    8    0    1
 -2       210       209       364      1394      1857      1858
 -1       566    8    0    1
 -2       209       363       364      1855      1859      1857
 -1       567    8    0    1
 -2       211       210       365      1397      1860      1861
 -1       568    8    0    1
 -2       210       364       365      1858      1862      1860
 -1       569    8    0    1
 -2       212       211       366      1400      1863      1864
 -1       570    8    0    1
 -2       211       365       366      1861      1865      1863
 -1       571    8    0    1
 -2       213       212       367      1403      1866      1867
 -1       572    8    0    1
 -2       212       366       367      1864      1868      1866
 -1       573    8    0    1
 -2       214       213       368      1406      1869      1870
 -1       574    8    0    1
 -2       213       367       368      1867      1871      1869
 -1       575    8    0    1
 -2       215       214       369      1409      1872      1873
 -1       576    8    0    1
 -2       214       368       369      1870      1874      1872
 -1       577    8    0    1
 -2       216       215       370      1412      1875      1876
 -1       578    8    0    1
 -2       215       369       370      1873      1877      1875
 -1       579    8    0    1
 -2       217       216       371      1415      1878      1879
 -1       580    8    0    1
 -2       216       370       371      1876      1880      1878
 -1       581    8    0    1
 -2       218       217       372      1418      1881      1882
 -1       582    8    0    1
 -2       217       371       372      1879      1883      1881
 -1       583    8    0    1
 -2       219       218       373      1421      1884      1885
 -1       584    8    0    1
 -2       218       372       373      1882      1886      1884
 -1       585    8    0    1
 -2       220       219       374      1424      1887      1888
 -1       586    8    0    1
 -2       219       373       374      1885      1889      1887
 -1       587    8    0    1
 -2       221       220       375      1427      1890      1891
 -1       588    8    0    1
 -2       220       374       375      1888      1892      1890
 -1       589    8    0    1
 -2       222       221       376      1430      1893      1894
 -1       590    8    0    1
 -2       221       375       376      1891      1895      1893
 -1       591    8    0    1
 -2       223       222       377      1433      1896      1897
 -1       592    8    0    1
 -2       222       376       377      1894      1898      1896
 -1       593    8    0    1
 -2       224       223       378      1436      1899      1900
 -1       594    8    0    1
 -2       223       377       378      1897      1901      1899
 -1       595    8    0    1
 -2       225       224       379      1439      1902      1903
 -1       596    8    0    1
 -2       224       378       379      1900      1904      1902
 -1       597    8    0    1
 -2       226       225       380      1442      1905      1906
 -1       598    8    0    1
 -2       225       379       380      1903      1907      1905
 -1       599    8    0    1
 -2       227       226       381      1445      1908      1909
 -1       600    8    0    1
 -2       226       380       381      1906      1910      1908
 -1       601    8    0    1
 -2       228       227       382      1448      1911      1912
 -1       602    8    0    1
 -2       292       228       382      1642      1912      1913
 -1       603    8    0    1
 -2       227       381       382      1909      1914      1911
 -1       604    8    0    1
 -2       231       232       383      1461      1915      1916
 -1       605    8    0    1
 -2       230       231       384      1458      1917      1918
 -1       606    8    0    1
 -2       231       383       384      1916      1919      1917
 -1       607    8    0    1
 -2       232       233       385      1464      1920      1921
 -1       608    8    0    1
 -2       232       385       383      1921      1922      1915
 -1       609    8    0    1
 -2       233       234       386      1467      1923      1924
 -1       610    8    0    1
 -2       233       386       385      1924      1925      1920
 -1       611    8    0    1
 -2       234       235       387      1470      1926      1927
 -1       612    8    0    1
 -2       234       387       386      1927      1928      1923
 -1       613    8    0    1
 -2       235       236       388      1473      1929      1930
 -1       614    8    0    1
 -2       235       388       387      1930      1931      1926
 -1       615    8    0    1
 -2       236       237       389      1476      1932      1933
 -1       616    8    0    1
 -2       236       389       388      1933      1934      1929
 -1       617    8    0    1
 -2       237       238       390      1479      1935      1936
 -1       618    8    0    1
 -2       237       390       389      1936      1937      1932
 -1       619    8    0    1
 -2       238       239       391      1482      1938      1939
 -1       620    8    0    1
 -2       238       391       390      1939      1940      1935
 -1       621    8    0    1
 -2       239       240       392      1485      1941      1942
 -1       622    8    0    1
 -2       239       392       391      1942      1943      1938
 -1       623    8    0    1
 -2       240       241       393      1488      1944      1945
 -1       624    8    0    1
 -2       240       393       392      1945      1946      1941
 -1       625    8    0    1
 -2       241       242       394      1491      1947      1948
 -1       626    8    0    1
 -2       241       394       393      1948      1949      1944
 -1       627    8    0    1
 -2       242       243       395      1494      1950      1951
 -1       628    8    0    1
 -2       242       395       394      1951      1952      1947
 -1       629    8    0    1
 -2       243       244       396      1497      1953      1954
 -1       630    8    0    1
 -2       243       396       395      1954      1955      1950
 -1       631    8    0    1
 -2       244       245       397      1500      1956      1957
 -1       632    8    0    1
 -2       244       397       396      1957      1958      1953
 -1       633    8    0    1
 -2       245       246       398      1503      1959      1960
 -1       634    8    0    1
 -2       245       398       397      1960      1961      1956
 -1       635    8    0    1
 -2       246       247       399      1506      1962      1963
 -1       636    8    0    1
 -2       246       399       398      1963      1964      1959
 -1       637    8    0    1
 -2       247       248       400      1509      1965      1966
 -1       638    8    0    1
 -2       247       400       399      1966      1967      1962
 -1       639    8    0    1
 -2       248       249       401      1512      1968      1969
 -1       640    8    0    1
 -2       248       401       400      1969      1970      1965
 -1       641    8    0    1
 -2       249       250       402      1515      1971      1972
 -1       642    8    0    1
 -2       249       402       401      1972      1973      1968
 -1       643    8    0    1
 -2       250       251       403      1518      1974      1975
 -1       644    8    0    1
 -2       250       403       402      1975      1976      1971
 -1       645    8    0    1
 -2       251       252       404      1521      1977      1978
 -1       646    8    0    1
 -2       251       404       403      1978      1979      1974
 -1       647    8    0    1
 -2       252       253       405      1524      1980      1981
 -1       648    8    0    1
 -2       252       405       404      1981      1982      1977
 -1       649    8    0    1
 -2       253       254       406      1527      1983      1984
 -1       650    8    0    1
 -2       253       406       405      1984      1985      1980
 -1       651    8    0    1
 -2       254       255       407      1530      1986      1987
 -1       652    8    0    1
 -2       254       407       406      1987      1988      1983
 -1       653    8    0    1
 -2       255       256       408      1533      1989      1990
 -1       654    8    0    1
 -2       255       408       407      1990      1991      1986
 -1       655    8    0    1
 -2       256       257       409      1536      1992      1993
 -1       656    8    0    1
 -2       256       409       408      1993      1994      1989
 -1       657    8    0    1
 -2       257       258       410      1539      1995      1996
 -1       658    8    0    1
 -2       257       410       409      1996      1997      1992
 -1       659    8    0    1
 -2       258       259       411      1542      1998      1999
 -1       660    8    0    1
 -2       258       411       410      1999      2000      1995
 -1       661    8    0    1
 -2       259       260       412      1545      2001      2002
 -1       662    8    0    1
 -2       259       412       411      2002      2003      1998
 -1       663    8    0    1
 -2       261       262       413      1551      2004      2005
 -1       664    8    0    1
 -2       262       263       300      1554      2006      2007
 -1       665    8    0    1
 -2       264       265       414      1560      2008      2009
 -1       666    8    0    1
 -2       265       266       415      1563      2010      2011
 -1       667    8    0    1
 -2       265       415       414      2011      2012      2008
 -1       668    8    0    1
 -2       266       267       416      1566      2013      2014
 -1       669    8    0    1
 -2       266       416       415      2014      2015      2010
 -1       670    8    0    1
 -2       267       268       417      1569      2016      2017
 -1       671    8    0    1
 -2       267       417       416      2017      2018      2013
 -1       672    8    0    1
 -2       268       269       418      1572      2019      2020
 -1       673    8    0    1
 -2       268       418       417      2020      2021      2016
 -1       674    8    0    1
 -2       269       270       419      1575      2022      2023
 -1       675    8    0    1
 -2       269       419       418      2023      2024      2019
 -1       676    8    0    1
 -2       270       271       420      1578      2025      2026
 -1       677    8    0    1
 -2       270       420       419      2026      2027      2022
 -1       678    8    0    1
 -2       271       272       421      1581      2028      2029
 -1       679    8    0    1
 -2       271       421       420      2029      2030      2025
 -1       680    8    0    1
 -2       272       273       422      1584      2031      2032
 -1       681    8    0    1
 -2       272       422       421      2032      2033      2028
 -1       682    8    0    1
 -2       273       274       423      1587      2034      2035
 -1       683    8    0    1
 -2       273       423       422      2035      2036      2031
 -1       684    8    0    1
 -2       274       275       424      1590      2037      2038
 -1       685    8    0    1
 -2       274       424       423      2038      2039      2034
 -1       686    8    0    1
 -2       275       276       425      1593      2040      2041
 -1       687    8    0    1
 -2       275       425       424      2041      2042      2037
 -1       688    8    0    1
 -2       293       294       426      1706      2043      2044
 -1       689    8    0    1
 -2       280       281       427      1608      2045      2046
 -1       690    8    0    1
 -2       279       280       428      1605      2047      2048
 -1       691    8    0    1
 -2       280       427       428      2046      2049      2047
 -1       692    8    0    1
 -2       122       278       277      1599      2050      1705
 -1       693    8    0    1
 -2       278       279       429      1602      2051      2052
 -1       694    8    0    1
 -2       279       428       429      2048      2053      2051
 -1       695    8    0    1
 -2       281       282       430      1611      2054      2055
 -1       696    8    0    1
 -2       281       430       427      2055      2056      2045
 -1       697    8    0    1
 -2       282       283       431      1614      2057      2058
 -1       698    8    0    1
 -2       282       431       430      2058      2059      2054
 -1       699    8    0    1
 -2       283       284       432      1617      2060      2061
 -1       700    8    0    1
 -2       283       432       431      2061      2062      2057
 -1       701    8    0    1
 -2       284       285       433      1620      2063      2064
 -1       702    8    0    1
 -2       284       433       432      2064      2065      2060
 -1       703    8    0    1
 -2       285       286       434      1623      2066      2067
 -1       704    8    0    1
 -2       285       434       433      2067      2068      2063
 -1       705    8    0    1
 -2       286       287       435      1626      2069      2070
 -1       706    8    0    1
 -2       286       435       434      2070      2071      2066
 -1       707    8    0    1
 -2       287       288       436      1629      2072      2073
 -1       708    8    0    1
 -2       287       436       435      2073      2074      2069
 -1       709    8    0    1
 -2       288       289       437      1632      2075      2076
 -1       710    8    0    1
 -2       288       437       436      2076      2077      2072
 -1       711    8    0    1
 -2       289       290       438      1635      2078      2079
 -1       712    8    0    1
 -2       289       438       437      2079      2080      2075
 -1       713    8    0    1
 -2       290       291       439      1638      2081      2082
 -1       714    8    0    1
 -2       290       439       438      2082      2083      2078
 -1       715    8    0    1
 -2       294       295       440      1707      2084      2085
 -1       716    8    0    1
 -2       294       440       426      2085      2086      2043
 -1       717    8    0    1
 -2       322       293       441      1708      2087      2088
 -1       718    8    0    1
 -2       300       263       299      2006      2089      1712
 -1       719    8    0    1
 -2       168       169       442      1271      2090      2091
 -1       720    8    0    1
 -2       323       168       442      1736      2091      2092
 -1       721    8    0    1
 -2       169       325       442      1742      2093      2090
 -1       722    8    0    1
 -2       297       298       414      1710      2094      2095
 -1       723    8    0    1
 -2       301       302       413      1714      2096      2097
 -1       724    8    0    1
 -2       302       303       443      1715      2098      2099
 -1       725    8    0    1
 -2       303       304       444      1716      2100      2101
 -1       726    8    0    1
 -2       304       305       445      1717      2102      2103
 -1       727    8    0    1
 -2       305       306       446      1718      2104      2105
 -1       728    8    0    1
 -2       306       307       447      1719      2106      2107
 -1       729    8    0    1
 -2       306       447       446      2107      2108      2104
 -1       730    8    0    1
 -2       307       308       448      1720      2109      2110
 -1       731    8    0    1
 -2       308       309       449      1721      2111      2112
 -1       732    8    0    1
 -2       309       310       450      1722      2113      2114
 -1       733    8    0    1
 -2       310       311       451      1723      2115      2116
 -1       734    8    0    1
 -2       311       312       452      1724      2117      2118
 -1       735    8    0    1
 -2       312       313       453      1725      2119      2120
 -1       736    8    0    1
 -2       313       314       454      1726      2121      2122
 -1       737    8    0    1
 -2       314       315       455      1727      2123      2124
 -1       738    8    0    1
 -2       315       316       456      1728      2125      2126
 -1       739    8    0    1
 -2       316       317       457      1729      2127      2128
 -1       740    8    0    1
 -2       316       457       456      2128      2129      2125
 -1       741    8    0    1
 -2       317       318       458      1730      2130      2131
 -1       742    8    0    1
 -2       318       319       459      1731      2132      2133
 -1       743    8    0    1
 -2       319       320       460      1732      2134      2135
 -1       744    8    0    1
 -2       320       321       461      1733      2136      2137
 -1       745    8    0    1
 -2       321       322       462      1734      2138      2139
 -1       746    8    0    1
 -2       322       441       462      2088      2140      2138
 -1       747    8    0    1
 -2       180       229       335      1776      2141      1770
 -1       748    8    0    1
 -2       296       297       463      1709      2142      2143
 -1       749    8    0    1
 -2       296       463       336      2143      2144      1773
 -1       750    8    0    1
 -2       181       166       324      1775      1739      2145
 -1       751    8    0    1
 -2       277       278       429      2050      2052      2146
 -1       752    8    0    1
 -2       277       429       276      2146      2147      1596
 -1       753    8    0    1
 -2       295       336       440      1774      2148      2084
 -1       754    8    0    1
 -2       181       324       182      2145      2149      1310
 -1       755    8    0    1
 -2       297       414       463      2095      2150      2142
 -1       756    8    0    1
 -2       337       182       324      1777      2149      2151
 -1       757    8    0    1
 -2       230       384       335      1918      2152      2153
 -1       758    8    0    1
 -2       229       230       335      1455      2153      2141
 -1       759    8    0    1
 -2       412       260       444      2001      2154      2155
 -1       760    8    0    1
 -2       413       262       301      2004      2156      2097
 -1       761    8    0    1
 -2       260       261       443      1548      2157      2158
 -1       762    8    0    1
 -2       262       300       301      2007      1713      2156
 -1       763    8    0    1
 -2       293       426       441      2044      2159      2087
 -1       764    8    0    1
 -2       425       276       429      2040      2147      2160
 -1       765    8    0    1
 -2       443       303       444      2098      2101      2161
 -1       766    8    0    1
 -2       439       291       292      2081      1641      2162
 -1       767    8    0    1
 -2       299       263       464      2089      2163      2164
 -1       768    8    0    1
 -2       461       321       462      2136      2139      2165
 -1       769    8    0    1
 -2       460       320       461      2134      2137      2166
 -1       770    8    0    1
 -2       459       319       460      2132      2135      2167
 -1       771    8    0    1
 -2       457       317       458      2127      2131      2168
 -1       772    8    0    1
 -2       455       315       456      2123      2126      2169
 -1       773    8    0    1
 -2       454       314       455      2121      2124      2170
 -1       774    8    0    1
 -2       453       313       454      2119      2122      2171
 -1       775    8    0    1
 -2       452       312       453      2117      2120      2172
 -1       776    8    0    1
 -2       451       311       452      2115      2118      2173
 -1       777    8    0    1
 -2       450       310       451      2113      2116      2174
 -1       778    8    0    1
 -2       449       309       450      2111      2114      2175
 -1       779    8    0    1
 -2       447       307       465      2106      2176      2177
 -1       780    8    0    1
 -2       307       448       465      2110      2178      2176
 -1       781    8    0    1
 -2       445       305       446      2102      2105      2179
 -1       782    8    0    1
 -2       444       304       445      2100      2103      2180
 -1       783    8    0    1
 -2       413       302       443      2096      2099      2181
 -1       784    8    0    1
 -2       298       299       464      1711      2164      2182
 -1       785    8    0    1
 -2       448       308       449      2109      2112      2183
 -1       786    8    0    1
 -2       458       318       459      2130      2133      2184
 -1       787    8    0    1
 -2       443       261       413      2157      2005      2181
 -1       788    8    0    1
 -2       326       327       466      1748      2185      2186
 -1       789    8    0    1
 -2       325       326       467      1745      2187      2188
 -1       790    8    0    1
 -2       326       466       467      2186      2189      2187
 -1       791    8    0    1
 -2       328       329       468      1754      2190      2191
 -1       792    8    0    1
 -2       329       330       469      1757      2192      2193
 -1       793    8    0    1
 -2       329       469       468      2193      2194      2190
 -1       794    8    0    1
 -2       330       331       470      1760      2195      2196
 -1       795    8    0    1
 -2       330       470       469      2196      2197      2192
 -1       796    8    0    1
 -2       331       332       471      1763      2198      2199
 -1       797    8    0    1
 -2       331       471       470      2199      2200      2195
 -1       798    8    0    1
 -2       332       333       472      1766      2201      2202
 -1       799    8    0    1
 -2       332       472       471      2202      2203      2198
 -1       800    8    0    1
 -2       333       334       473      1769      2204      2205
 -1       801    8    0    1
 -2       333       473       472      2205      2206      2201
 -1       802    8    0    1
 -2       334       335       474      1772      2207      2208
 -1       803    8    0    1
 -2       473       334       474      2204      2208      2209
 -1       804    8    0    1
 -2       335       384       474      2152      2210      2207
 -1       805    8    0    1
 -2       336       463       475      2144      2211      2212
 -1       806    8    0    1
 -2       338       337       476      1781      2213      2214
 -1       807    8    0    1
 -2       339       338       477      1784      2215      2216
 -1       808    8    0    1
 -2       338       476       477      2214      2217      2215
 -1       809    8    0    1
 -2       340       339       478      1787      2218      2219
 -1       810    8    0    1
 -2       339       477       478      2216      2220      2218
 -1       811    8    0    1
 -2       341       340       479      1790      2221      2222
 -1       812    8    0    1
 -2       340       478       479      2219      2223      2221
 -1       813    8    0    1
 -2       342       341       480      1793      2224      2225
 -1       814    8    0    1
 -2       341       479       480      2222      2226      2224
 -1       815    8    0    1
 -2       343       342       481      1796      2227      2228
 -1       816    8    0    1
 -2       342       480       481      2225      2229      2227
 -1       817    8    0    1
 -2       344       343       482      1799      2230      2231
 -1       818    8    0    1
 -2       343       481       482      2228      2232      2230
 -1       819    8    0    1
 -2       345       344       483      1802      2233      2234
 -1       820    8    0    1
 -2       344       482       483      2231      2235      2233
 -1       821    8    0    1
 -2       346       345       484      1805      2236      2237
 -1       822    8    0    1
 -2       345       483       484      2234      2238      2236
 -1       823    8    0    1
 -2       347       346       485      1808      2239      2240
 -1       824    8    0    1
 -2       346       484       485      2237      2241      2239
 -1       825    8    0    1
 -2       348       347       486      1811      2242      2243
 -1       826    8    0    1
 -2       347       485       486      2240      2244      2242
 -1       827    8    0    1
 -2       349       348       487      1814      2245      2246
 -1       828    8    0    1
 -2       348       486       487      2243      2247      2245
 -1       829    8    0    1
 -2       350       349       488      1817      2248      2249
 -1       830    8    0    1
 -2       349       487       488      2246      2250      2248
 -1       831    8    0    1
 -2       351       350       489      1820      2251      2252
 -1       832    8    0    1
 -2       350       488       489      2249      2253      2251
 -1       833    8    0    1
 -2       352       351       490      1823      2254      2255
 -1       834    8    0    1
 -2       351       489       490      2252      2256      2254
 -1       835    8    0    1
 -2       353       352       491      1826      2257      2258
 -1       836    8    0    1
 -2       352       490       491      2255      2259      2257
 -1       837    8    0    1
 -2       354       353       492      1829      2260      2261
 -1       838    8    0    1
 -2       353       491       492      2258      2262      2260
 -1       839    8    0    1
 -2       355       354       493      1832      2263      2264
 -1       840    8    0    1
 -2       354       492       493      2261      2265      2263
 -1       841    8    0    1
 -2       356       355       494      1835      2266      2267
 -1       842    8    0    1
 -2       355       493       494      2264      2268      2266
 -1       843    8    0    1
 -2       357       356       495      1838      2269      2270
 -1       844    8    0    1
 -2       356       494       495      2267      2271      2269
 -1       845    8    0    1
 -2       358       357       496      1841      2272      2273
 -1       846    8    0    1
 -2       357       495       496      2270      2274      2272
 -1       847    8    0    1
 -2       359       358       497      1844      2275      2276
 -1       848    8    0    1
 -2       358       496       497      2273      2277      2275
 -1       849    8    0    1
 -2       360       359       498      1847      2278      2279
 -1       850    8    0    1
 -2       359       497       498      2276      2280      2278
 -1       851    8    0    1
 -2       361       360       499      1850      2281      2282
 -1       852    8    0    1
 -2       360       498       499      2279      2283      2281
 -1       853    8    0    1
 -2       362       361       500      1853      2284      2285
 -1       854    8    0    1
 -2       361       499       500      2282      2286      2284
 -1       855    8    0    1
 -2       363       362       501      1856      2287      2288
 -1       856    8    0    1
 -2       362       500       501      2285      2289      2287
 -1       857    8    0    1
 -2       364       363       502      1859      2290      2291
 -1       858    8    0    1
 -2       363       501       502      2288      2292      2290
 -1       859    8    0    1
 -2       365       364       503      1862      2293      2294
 -1       860    8    0    1
 -2       364       502       503      2291      2295      2293
 -1       861    8    0    1
 -2       366       365       504      1865      2296      2297
 -1       862    8    0    1
 -2       365       503       504      2294      2298      2296
 -1       863    8    0    1
 -2       367       366       505      1868      2299      2300
 -1       864    8    0    1
 -2       366       504       505      2297      2301      2299
 -1       865    8    0    1
 -2       368       367       506      1871      2302      2303
 -1       866    8    0    1
 -2       367       505       506      2300      2304      2302
 -1       867    8    0    1
 -2       369       368       507      1874      2305      2306
 -1       868    8    0    1
 -2       368       506       507      2303      2307      2305
 -1       869    8    0    1
 -2       370       369       508      1877      2308      2309
 -1       870    8    0    1
 -2       369       507       508      2306      2310      2308
 -1       871    8    0    1
 -2       371       370       509      1880      2311      2312
 -1       872    8    0    1
 -2       370       508       509      2309      2313      2311
 -1       873    8    0    1
 -2       372       371       510      1883      2314      2315
 -1       874    8    0    1
 -2       371       509       510      2312      2316      2314
 -1       875    8    0    1
 -2       373       372       511      1886      2317      2318
 -1       876    8    0    1
 -2       372       510       511      2315      2319      2317
 -1       877    8    0    1
 -2       374       373       512      1889      2320      2321
 -1       878    8    0    1
 -2       373       511       512      2318      2322      2320
 -1       879    8    0    1
 -2       375       374       513      1892      2323      2324
 -1       880    8    0    1
 -2       374       512       513      2321      2325      2323
 -1       881    8    0    1
 -2       376       375       514      1895      2326      2327
 -1       882    8    0    1
 -2       375       513       514      2324      2328      2326
 -1       883    8    0    1
 -2       377       376       515      1898      2329      2330
 -1       884    8    0    1
 -2       376       514       515      2327      2331      2329
 -1       885    8    0    1
 -2       378       377       516      1901      2332      2333
 -1       886    8    0    1
 -2       377       515       516      2330      2334      2332
 -1       887    8    0    1
 -2       379       378       517      1904      2335      2336
 -1       888    8    0    1
 -2       378       516       517      2333      2337      2335
 -1       889    8    0    1
 -2       380       379       518      1907      2338      2339
 -1       890    8    0    1
 -2       379       517       518      2336      2340      2338
 -1       891    8    0    1
 -2       381       380       519      1910      2341      2342
 -1       892    8    0    1
 -2       380       518       519      2339      2343      2341
 -1       893    8    0    1
 -2       384       383       520      1919      2344      2345
 -1       894    8    0    1
 -2       384       520       474      2345      2346      2210
 -1       895    8    0    1
 -2       386       387       521      1928      2347      2348
 -1       896    8    0    1
 -2       387       388       522      1931      2349      2350
 -1       897    8    0    1
 -2       387       522       521      2350      2351      2347
 -1       898    8    0    1
 -2       388       389       523      1934      2352      2353
 -1       899    8    0    1
 -2       388       523       522      2353      2354      2349
 -1       900    8    0    1
 -2       389       390       524      1937      2355      2356
 -1       901    8    0    1
 -2       389       524       523      2356      2357      2352
 -1       902    8    0    1
 -2       390       391       525      1940      2358      2359
 -1       903    8    0    1
 -2       390       525       524      2359      2360      2355
 -1       904    8    0    1
 -2       391       392       526      1943      2361      2362
 -1       905    8    0    1
 -2       391       526       525      2362      2363      2358
 -1       906    8    0    1
 -2       392       393       527      1946      2364      2365
 -1       907    8    0    1
 -2       392       527       526      2365      2366      2361
 -1       908    8    0    1
 -2       393       394       528      1949      2367      2368
 -1       909    8    0    1
 -2       393       528       527      2368      2369      2364
 -1       910    8    0    1
 -2       394       395       529      1952      2370      2371
 -1       911    8    0    1
 -2       394       529       528      2371      2372      2367
 -1       912    8    0    1
 -2       395       396       530      1955      2373      2374
 -1       913    8    0    1
 -2       395       530       529      2374      2375      2370
 -1       914    8    0    1
 -2       396       397       531      1958      2376      2377
 -1       915    8    0    1
 -2       396       531       530      2377      2378      2373
 -1       916    8    0    1
 -2       397       398       532      1961      2379      2380
 -1       917    8    0    1
 -2       397       532       531      2380      2381      2376
 -1       918    8    0    1
 -2       398       399       533      1964      2382      2383
 -1       919    8    0    1
 -2       398       533       532      2383      2384      2379
 -1       920    8    0    1
 -2       399       400       534      1967      2385      2386
 -1       921    8    0    1
 -2       399       534       533      2386      2387      2382
 -1       922    8    0    1
 -2       400       401       535      1970      2388      2389
 -1       923    8    0    1
 -2       400       535       534      2389      2390      2385
 -1       924    8    0    1
 -2       401       402       536      1973      2391      2392
 -1       925    8    0    1
 -2       401       536       535      2392      2393      2388
 -1       926    8    0    1
 -2       402       403       537      1976      2394      2395
 -1       927    8    0    1
 -2       402       537       536      2395      2396      2391
 -1       928    8    0    1
 -2       403       404       538      1979      2397      2398
 -1       929    8    0    1
 -2       403       538       537      2398      2399      2394
 -1       930    8    0    1
 -2       404       405       539      1982      2400      2401
 -1       931    8    0    1
 -2       404       539       538      2401      2402      2397
 -1       932    8    0    1
 -2       405       406       540      1985      2403      2404
 -1       933    8    0    1
 -2       405       540       539      2404      2405      2400
 -1       934    8    0    1
 -2       406       407       541      1988      2406      2407
 -1       935    8    0    1
 -2       406       541       540      2407      2408      2403
 -1       936    8    0    1
 -2       407       408       542      1991      2409      2410
 -1       937    8    0    1
 -2       407       542       541      2410      2411      2406
 -1       938    8    0    1
 -2       408       409       543      1994      2412      2413
 -1       939    8    0    1
 -2       408       543       542      2413      2414      2409
 -1       940    8    0    1
 -2       409       410       544      1997      2415      2416
 -1       941    8    0    1
 -2       409       544       543      2416      2417      2412
 -1       942    8    0    1
 -2       410       411       545      2000      2418      2419
 -1       943    8    0    1
 -2       410       545       544      2419      2420      2415
 -1       944    8    0    1
 -2       411       412       546      2003      2421      2422
 -1       945    8    0    1
 -2       441       426       547      2159      2423      2424
 -1       946    8    0    1
 -2       264       414       298      2009      2094      2425
 -1       947    8    0    1
 -2       417       418       548      2021      2426      2427
 -1       948    8    0    1
 -2       418       419       549      2024      2428      2429
 -1       949    8    0    1
 -2       418       549       548      2429      2430      2426
 -1       950    8    0    1
 -2       419       420       550      2027      2431      2432
 -1       951    8    0    1
 -2       419       550       549      2432      2433      2428
 -1       952    8    0    1
 -2       420       421       551      2030      2434      2435
 -1       953    8    0    1
 -2       420       551       550      2435      2436      2431
 -1       954    8    0    1
 -2       421       422       552      2033      2437      2438
 -1       955    8    0    1
 -2       421       552       551      2438      2439      2434
 -1       956    8    0    1
 -2       422       423       553      2036      2440      2441
 -1       957    8    0    1
 -2       422       553       552      2441      2442      2437
 -1       958    8    0    1
 -2       423       424       554      2039      2443      2444
 -1       959    8    0    1
 -2       423       554       553      2444      2445      2440
 -1       960    8    0    1
 -2       424       425       555      2042      2446      2447
 -1       961    8    0    1
 -2       424       555       554      2447      2448      2443
 -1       962    8    0    1
 -2       440       336       556      2148      2449      2450
 -1       963    8    0    1
 -2       427       430       557      2056      2451      2452
 -1       964    8    0    1
 -2       431       432       558      2062      2453      2454
 -1       965    8    0    1
 -2       432       433       559      2065      2455      2456
 -1       966    8    0    1
 -2       432       559       558      2456      2457      2453
 -1       967    8    0    1
 -2       433       434       560      2068      2458      2459
 -1       968    8    0    1
 -2       433       560       559      2459      2460      2455
 -1       969    8    0    1
 -2       434       435       561      2071      2461      2462
 -1       970    8    0    1
 -2       434       561       560      2462      2463      2458
 -1       971    8    0    1
 -2       435       436       562      2074      2464      2465
 -1       972    8    0    1
 -2       435       562       561      2465      2466      2461
 -1       973    8    0    1
 -2       436       437       563      2077      2467      2468
 -1       974    8    0    1
 -2       436       563       562      2468      2469      2464
 -1       975    8    0    1
 -2       437       438       564      2080      2470      2471
 -1       976    8    0    1
 -2       437       564       563      2471      2472      2467
 -1       977    8    0    1
 -2       438       439       565      2083      2473      2474
 -1       978    8    0    1
 -2       438       565       564      2474      2475      2470
 -1       979    8    0    1
 -2       426       440       566      2086      2476      2477
 -1       980    8    0    1
 -2       444       260       443      2154      2158      2161
 -1       981    8    0    1
 -2       448       449       567      2183      2478      2479
 -1       982    8    0    1
 -2       385       386       568      1925      2480      2481
 -1       983    8    0    1
 -2       386       521       568      2348      2482      2480
 -1       984    8    0    1
 -2       425       429       569      2160      2483      2484
 -1       985    8    0    1
 -2       555       425       569      2446      2484      2485
 -1       986    8    0    1
 -2       429       428       569      2053      2486      2483
 -1       987    8    0    1
 -2       461       462       570      2165      2487      2488
 -1       988    8    0    1
 -2       462       441       571      2140      2489      2490
 -1       989    8    0    1
 -2       455       456       572      2169      2491      2492
 -1       990    8    0    1
 -2       445       446       573      2179      2493      2494
 -1       991    8    0    1
 -2       428       427       574      2049      2495      2496
 -1       992    8    0    1
 -2       569       428       574      2486      2496      2497
 -1       993    8    0    1
 -2       427       557       574      2452      2498      2495
 -1       994    8    0    1
 -2       430       431       575      2059      2499      2500
 -1       995    8    0    1
 -2       557       430       575      2451      2500      2501
 -1       996    8    0    1
 -2       431       558       575      2454      2502      2499
 -1       997    8    0    1
 -2       327       328       576      1751      2503      2504
 -1       998    8    0    1
 -2       466       327       576      2185      2504      2505
 -1       999    8    0    1
 -2       328       468       576      2191      2506      2503
 -1      1000    8    0    1
 -2       383       385       577      1922      2507      2508
 -1      1001    8    0    1
 -2       520       383       577      2344      2508      2509
 -1      1002    8    0    1
 -2       385       568       577      2481      2510      2507
 -1      1003    8    0    1
 -2       439       292       382      2162      1913      2511
 -1      1004    8    0    1
 -2       446       447       578      2108      2512      2513
 -1      1005    8    0    1
 -2       458       459       579      2184      2514      2515
 -1      1006    8    0    1
 -2       449       450       580      2175      2516      2517
 -1      1007    8    0    1
 -2       450       451       581      2174      2518      2519
 -1      1008    8    0    1
 -2       450       581       580      2519      2520      2516
 -1      1009    8    0    1
 -2       451       452       582      2173      2521      2522
 -1      1010    8    0    1
 -2       452       453       583      2172      2523      2524
 -1      1011    8    0    1
 -2       453       454       584      2171      2525      2526
 -1      1012    8    0    1
 -2       454       455       585      2170      2527      2528
 -1      1013    8    0    1
 -2       456       457       586      2129      2529      2530
 -1      1014    8    0    1
 -2       457       458       587      2168      2531      2532
 -1      1015    8    0    1
 -2       459       460       588      2167      2533      2534
 -1      1016    8    0    1
 -2       460       461       589      2166      2535      2536
 -1      1017    8    0    1
 -2       461       570       589      2488      2537      2535
 -1      1018    8    0    1
 -2       337       324       590      2151      2538      2539
 -1      1019    8    0    1
 -2       476       337       590      2213      2539      2540
 -1      1020    8    0    1
 -2       324       323       590      1740      2541      2538
 -1      1021    8    0    1
 -2       325       467       591      2188      2542      2543
 -1      1022    8    0    1
 -2       325       591       442      2543      2544      2093
 -1      1023    8    0    1
 -2       463       414       415      2150      2012      2545
 -1      1024    8    0    1
 -2       336       475       556      2212      2546      2449
 -1      1025    8    0    1
 -2       446       578       573      2513      2547      2493
 -1      1026    8    0    1
 -2       579       459       588      2514      2534      2548
 -1      1027    8    0    1
 -2       411       546       545      2422      2549      2418
 -1      1028    8    0    1
 -2       441       547       571      2424      2550      2489
 -1      1029    8    0    1
 -2       440       556       566      2450      2551      2476
 -1      1030    8    0    1
 -2       570       462       571      2487      2490      2552
 -1      1031    8    0    1
 -2       412       444       592      2155      2553      2554
 -1      1032    8    0    1
 -2       426       566       547      2477      2555      2423
 -1      1033    8    0    1
 -2       572       456       586      2491      2530      2556
 -1      1034    8    0    1
 -2       439       382       593      2511      2557      2558
 -1      1035    8    0    1
 -2       565       439       593      2473      2558      2559
 -1      1036    8    0    1
 -2       382       381       593      1914      2560      2557
 -1      1037    8    0    1
 -2       412       592       546      2554      2561      2421
 -1      1038    8    0    1
 -2       448       567       465      2479      2562      2178
 -1      1039    8    0    1
 -2       455       572       585      2492      2563      2527
 -1      1040    8    0    1
 -2       445       573       592      2494      2564      2565
 -1      1041    8    0    1
 -2       588       460       589      2533      2536      2566
 -1      1042    8    0    1
 -2       587       458       579      2531      2515      2567
 -1      1043    8    0    1
 -2       586       457       587      2529      2532      2568
 -1      1044    8    0    1
 -2       445       592       444      2565      2553      2180
 -1      1045    8    0    1
 -2       584       454       585      2525      2528      2569
 -1      1046    8    0    1
 -2       583       453       584      2523      2526      2570
 -1      1047    8    0    1
 -2       416       417       594      2018      2571      2572
 -1      1048    8    0    1
 -2       415       416       475      2015      2573      2574
 -1      1049    8    0    1
 -2       463       415       475      2545      2574      2211
 -1      1050    8    0    1
 -2       593       381       519      2560      2342      2575
 -1      1051    8    0    1
 -2       594       417       548      2571      2427      2576
 -1      1052    8    0    1
 -2       581       451       582      2518      2522      2577
 -1      1053    8    0    1
 -2       567       449       595      2478      2578      2579
 -1      1054    8    0    1
 -2       449       580       595      2517      2580      2578
 -1      1055    8    0    1
 -2       323       442       596      2092      2581      2582
 -1      1056    8    0    1
 -2       590       323       596      2541      2582      2583
 -1      1057    8    0    1
 -2       442       591       596      2544      2584      2581
 -1      1058    8    0    1
 -2       578       447       597      2512      2585      2586
 -1      1059    8    0    1
 -2       447       465       597      2177      2587      2585
 -1      1060    8    0    1
 -2       582       452       583      2521      2524      2588
 -1      1061    8    0    1
 -2       416       594       556      2572      2589      2590
 -1      1062    8    0    1
 -2       416       556       475      2590      2546      2573
 -1      1063    8    0    1
 -2       469       470       598      2197      2591      2592
 -1      1064    8    0    1
 -2       468       469       599      2194      2593      2594
 -1      1065    8    0    1
 -2       469       598       599      2592      2595      2593
 -1      1066    8    0    1
 -2       471       472       600      2203      2596      2597
 -1      1067    8    0    1
 -2       472       473       601      2206      2598      2599
 -1      1068    8    0    1
 -2       472       601       600      2599      2600      2596
 -1      1069    8    0    1
 -2       473       474       602      2209      2601      2602
 -1      1070    8    0    1
 -2       601       473       602      2598      2602      2603
 -1      1071    8    0    1
 -2       474       520       602      2346      2604      2601
 -1      1072    8    0    1
 -2       593       519       603      2575      2605      2606
 -1      1073    8    0    1
 -2       593       603       565      2606      2607      2559
 -1      1074    8    0    1
 -2       555       569       604      2485      2608      2609
 -1      1075    8    0    1
 -2       569       574       604      2497      2610      2608
 -1      1076    8    0    1
 -2       594       548       605      2576      2611      2612
 -1      1077    8    0    1
 -2       478       477       606      2220      2613      2614
 -1      1078    8    0    1
 -2       479       478       607      2223      2615      2616
 -1      1079    8    0    1
 -2       478       606       607      2614      2617      2615
 -1      1080    8    0    1
 -2       480       479       608      2226      2618      2619
 -1      1081    8    0    1
 -2       479       607       608      2616      2620      2618
 -1      1082    8    0    1
 -2       481       480       609      2229      2621      2622
 -1      1083    8    0    1
 -2       480       608       609      2619      2623      2621
 -1      1084    8    0    1
 -2       482       481       610      2232      2624      2625
 -1      1085    8    0    1
 -2       481       609       610      2622      2626      2624
 -1      1086    8    0    1
 -2       483       482       611      2235      2627      2628
 -1      1087    8    0    1
 -2       482       610       611      2625      2629      2627
 -1      1088    8    0    1
 -2       484       483       612      2238      2630      2631
 -1      1089    8    0    1
 -2       483       611       612      2628      2632      2630
 -1      1090    8    0    1
 -2       485       484       613      2241      2633      2634
 -1      1091    8    0    1
 -2       484       612       613      2631      2635      2633
 -1      1092    8    0    1
 -2       486       485       614      2244      2636      2637
 -1      1093    8    0    1
 -2       485       613       614      2634      2638      2636
 -1      1094    8    0    1
 -2       487       486       615      2247      2639      2640
 -1      1095    8    0    1
 -2       486       614       615      2637      2641      2639
 -1      1096    8    0    1
 -2       488       487       616      2250      2642      2643
 -1      1097    8    0    1
 -2       487       615       616      2640      2644      2642
 -1      1098    8    0    1
 -2       489       488       617      2253      2645      2646
 -1      1099    8    0    1
 -2       488       616       617      2643      2647      2645
 -1      1100    8    0    1
 -2       490       489       618      2256      2648      2649
 -1      1101    8    0    1
 -2       489       617       618      2646      2650      2648
 -1      1102    8    0    1
 -2       491       490       619      2259      2651      2652
 -1      1103    8    0    1
 -2       490       618       619      2649      2653      2651
 -1      1104    8    0    1
 -2       492       491       620      2262      2654      2655
 -1      1105    8    0    1
 -2       491       619       620      2652      2656      2654
 -1      1106    8    0    1
 -2       493       492       621      2265      2657      2658
 -1      1107    8    0    1
 -2       492       620       621      2655      2659      2657
 -1      1108    8    0    1
 -2       494       493       622      2268      2660      2661
 -1      1109    8    0    1
 -2       493       621       622      2658      2662      2660
 -1      1110    8    0    1
 -2       495       494       623      2271      2663      2664
 -1      1111    8    0    1
 -2       494       622       623      2661      2665      2663
 -1      1112    8    0    1
 -2       496       495       624      2274      2666      2667
 -1      1113    8    0    1
 -2       495       623       624      2664      2668      2666
 -1      1114    8    0    1
 -2       497       496       625      2277      2669      2670
 -1      1115    8    0    1
 -2       496       624       625      2667      2671      2669
 -1      1116    8    0    1
 -2       498       497       626      2280      2672      2673
 -1      1117    8    0    1
 -2       497       625       626      2670      2674      2672
 -1      1118    8    0    1
 -2       499       498       627      2283      2675      2676
 -1      1119    8    0    1
 -2       498       626       627      2673      2677      2675
 -1      1120    8    0    1
 -2       500       499       628      2286      2678      2679
 -1      1121    8    0    1
 -2       499       627       628      2676      2680      2678
 -1      1122    8    0    1
 -2       501       500       629      2289      2681      2682
 -1      1123    8    0    1
 -2       500       628       629      2679      2683      2681
 -1      1124    8    0    1
 -2       502       501       630      2292      2684      2685
 -1      1125    8    0    1
 -2       501       629       630      2682      2686      2684
 -1      1126    8    0    1
 -2       503       502       631      2295      2687      2688
 -1      1127    8    0    1
 -2       502       630       631      2685      2689      2687
 -1      1128    8    0    1
 -2       504       503       632      2298      2690      2691
 -1      1129    8    0    1
 -2       503       631       632      2688      2692      2690
 -1      1130    8    0    1
 -2       505       504       633      2301      2693      2694
 -1      1131    8    0    1
 -2       504       632       633      2691      2695      2693
 -1      1132    8    0    1
 -2       506       505       634      2304      2696      2697
 -1      1133    8    0    1
 -2       505       633       634      2694      2698      2696
 -1      1134    8    0    1
 -2       507       506       635      2307      2699      2700
 -1      1135    8    0    1
 -2       506       634       635      2697      2701      2699
 -1      1136    8    0    1
 -2       508       507       636      2310      2702      2703
 -1      1137    8    0    1
 -2       507       635       636      2700      2704      2702
 -1      1138    8    0    1
 -2       509       508       637      2313      2705      2706
 -1      1139    8    0    1
 -2       508       636       637      2703      2707      2705
 -1      1140    8    0    1
 -2       510       509       638      2316      2708      2709
 -1      1141    8    0    1
 -2       509       637       638      2706      2710      2708
 -1      1142    8    0    1
 -2       511       510       639      2319      2711      2712
 -1      1143    8    0    1
 -2       510       638       639      2709      2713      2711
 -1      1144    8    0    1
 -2       512       511       640      2322      2714      2715
 -1      1145    8    0    1
 -2       511       639       640      2712      2716      2714
 -1      1146    8    0    1
 -2       513       512       641      2325      2717      2718
 -1      1147    8    0    1
 -2       512       640       641      2715      2719      2717
 -1      1148    8    0    1
 -2       514       513       642      2328      2720      2721
 -1      1149    8    0    1
 -2       513       641       642      2718      2722      2720
 -1      1150    8    0    1
 -2       515       514       643      2331      2723      2724
 -1      1151    8    0    1
 -2       514       642       643      2721      2725      2723
 -1      1152    8    0    1
 -2       516       515       644      2334      2726      2727
 -1      1153    8    0    1
 -2       515       643       644      2724      2728      2726
 -1      1154    8    0    1
 -2       517       516       645      2337      2729      2730
 -1      1155    8    0    1
 -2       516       644       645      2727      2731      2729
 -1      1156    8    0    1
 -2       518       517       646      2340      2732      2733
 -1      1157    8    0    1
 -2       517       645       646      2730      2734      2732
 -1      1158    8    0    1
 -2       519       518       647      2343      2735      2736
 -1      1159    8    0    1
 -2       603       519       647      2605      2736      2737
 -1      1160    8    0    1
 -2       518       646       647      2733      2738      2735
 -1      1161    8    0    1
 -2       546       592       573      2561      2564      2739
 -1      1162    8    0    1
 -2       522       523       648      2354      2740      2741
 -1      1163    8    0    1
 -2       521       522       649      2351      2742      2743
 -1      1164    8    0    1
 -2       522       648       649      2741      2744      2742
 -1      1165    8    0    1
 -2       524       525       650      2360      2745      2746
 -1      1166    8    0    1
 -2       525       526       651      2363      2747      2748
 -1      1167    8    0    1
 -2       525       651       650      2748      2749      2745
 -1      1168    8    0    1
 -2       526       527       652      2366      2750      2751
 -1      1169    8    0    1
 -2       526       652       651      2751      2752      2747
 -1      1170    8    0    1
 -2       527       528       653      2369      2753      2754
 -1      1171    8    0    1
 -2       527       653       652      2754      2755      2750
 -1      1172    8    0    1
 -2       528       529       654      2372      2756      2757
 -1      1173    8    0    1
 -2       528       654       653      2757      2758      2753
 -1      1174    8    0    1
 -2       529       530       655      2375      2759      2760
 -1      1175    8    0    1
 -2       529       655       654      2760      2761      2756
 -1      1176    8    0    1
 -2       530       531       656      2378      2762      2763
 -1      1177    8    0    1
 -2       530       656       655      2763      2764      2759
 -1      1178    8    0    1
 -2       531       532       657      2381      2765      2766
 -1      1179    8    0    1
 -2       531       657       656      2766      2767      2762
 -1      1180    8    0    1
 -2       532       533       658      2384      2768      2769
 -1      1181    8    0    1
 -2       532       658       657      2769      2770      2765
 -1      1182    8    0    1
 -2       533       534       659      2387      2771      2772
 -1      1183    8    0    1
 -2       533       659       658      2772      2773      2768
 -1      1184    8    0    1
 -2       534       535       660      2390      2774      2775
 -1      1185    8    0    1
 -2       534       660       659      2775      2776      2771
 -1      1186    8    0    1
 -2       535       536       661      2393      2777      2778
 -1      1187    8    0    1
 -2       535       661       660      2778      2779      2774
 -1      1188    8    0    1
 -2       536       537       662      2396      2780      2781
 -1      1189    8    0    1
 -2       536       662       661      2781      2782      2777
 -1      1190    8    0    1
 -2       537       538       663      2399      2783      2784
 -1      1191    8    0    1
 -2       537       663       662      2784      2785      2780
 -1      1192    8    0    1
 -2       538       539       664      2402      2786      2787
 -1      1193    8    0    1
 -2       538       664       663      2787      2788      2783
 -1      1194    8    0    1
 -2       539       540       665      2405      2789      2790
 -1      1195    8    0    1
 -2       539       665       664      2790      2791      2786
 -1      1196    8    0    1
 -2       540       541       666      2408      2792      2793
 -1      1197    8    0    1
 -2       540       666       665      2793      2794      2789
 -1      1198    8    0    1
 -2       541       542       667      2411      2795      2796
 -1      1199    8    0    1
 -2       541       667       666      2796      2797      2792
 -1      1200    8    0    1
 -2       542       543       668      2414      2798      2799
 -1      1201    8    0    1
 -2       542       668       667      2799      2800      2795
 -1      1202    8    0    1
 -2       543       544       669      2417      2801      2802
 -1      1203    8    0    1
 -2       543       669       668      2802      2803      2798
 -1      1204    8    0    1
 -2       544       545       670      2420      2804      2805
 -1      1205    8    0    1
 -2       544       670       669      2805      2806      2801
 -1      1206    8    0    1
 -2       571       547       671      2550      2807      2808
 -1      1207    8    0    1
 -2       465       567       672      2562      2809      2810
 -1      1208    8    0    1
 -2       467       466       673      2189      2811      2812
 -1      1209    8    0    1
 -2       549       550       674      2433      2813      2814
 -1      1210    8    0    1
 -2       263       264       464      1557      2815      2163
 -1      1211    8    0    1
 -2       548       549       675      2430      2816      2817
 -1      1212    8    0    1
 -2       549       674       675      2814      2818      2816
 -1      1213    8    0    1
 -2       551       552       676      2439      2819      2820
 -1      1214    8    0    1
 -2       552       553       677      2442      2821      2822
 -1      1215    8    0    1
 -2       552       677       676      2822      2823      2819
 -1      1216    8    0    1
 -2       553       554       678      2445      2824      2825
 -1      1217    8    0    1
 -2       553       678       677      2825      2826      2821
 -1      1218    8    0    1
 -2       554       555       604      2448      2609      2827
 -1      1219    8    0    1
 -2       547       566       679      2555      2828      2829
 -1      1220    8    0    1
 -2       547       679       671      2829      2830      2807
 -1      1221    8    0    1
 -2       476       590       680      2540      2831      2832
 -1      1222    8    0    1
 -2       590       596       680      2583      2833      2831
 -1      1223    8    0    1
 -2       558       559       681      2457      2834      2835
 -1      1224    8    0    1
 -2       561       562       682      2466      2836      2837
 -1      1225    8    0    1
 -2       562       563       683      2469      2838      2839
 -1      1226    8    0    1
 -2       562       683       682      2839      2840      2836
 -1      1227    8    0    1
 -2       563       564       684      2472      2841      2842
 -1      1228    8    0    1
 -2       563       684       683      2842      2843      2838
 -1      1229    8    0    1
 -2       564       565       603      2475      2607      2844
 -1      1230    8    0    1
 -2       570       571       685      2552      2845      2846
 -1      1231    8    0    1
 -2       568       521       686      2482      2847      2848
 -1      1232    8    0    1
 -2       521       649       686      2743      2849      2847
 -1      1233    8    0    1
 -2       589       570       687      2537      2850      2851
 -1      1234    8    0    1
 -2       588       589       688      2566      2852      2853
 -1      1235    8    0    1
 -2       589       687       688      2851      2854      2852
 -1      1236    8    0    1
 -2       579       588       689      2548      2855      2856
 -1      1237    8    0    1
 -2       585       572       690      2563      2857      2858
 -1      1238    8    0    1
 -2       560       561       691      2463      2859      2860
 -1      1239    8    0    1
 -2       561       682       691      2837      2861      2859
 -1      1240    8    0    1
 -2       559       560       692      2460      2862      2863
 -1      1241    8    0    1
 -2       681       559       692      2834      2863      2864
 -1      1242    8    0    1
 -2       560       691       692      2860      2865      2862
 -1      1243    8    0    1
 -2       581       582       693      2577      2866      2867
 -1      1244    8    0    1
 -2       550       551       694      2436      2868      2869
 -1      1245    8    0    1
 -2       674       550       694      2813      2869      2870
 -1      1246    8    0    1
 -2       551       676       694      2820      2871      2868
 -1      1247    8    0    1
 -2       572       586       695      2556      2872      2873
 -1      1248    8    0    1
 -2       584       585       696      2569      2874      2875
 -1      1249    8    0    1
 -2       585       690       696      2858      2876      2874
 -1      1250    8    0    1
 -2       586       587       697      2568      2877      2878
 -1      1251    8    0    1
 -2       523       524       698      2357      2879      2880
 -1      1252    8    0    1
 -2       524       650       698      2746      2881      2879
 -1      1253    8    0    1
 -2       582       583       699      2588      2882      2883
 -1      1254    8    0    1
 -2       580       581       700      2520      2884      2885
 -1      1255    8    0    1
 -2       583       584       701      2570      2886      2887
 -1      1256    8    0    1
 -2       477       476       702      2217      2888      2889
 -1      1257    8    0    1
 -2       606       477       702      2613      2889      2890
 -1      1258    8    0    1
 -2       476       680       702      2832      2891      2888
 -1      1259    8    0    1
 -2       470       471       703      2200      2892      2893
 -1      1260    8    0    1
 -2       598       470       703      2591      2893      2894
 -1      1261    8    0    1
 -2       471       600       703      2597      2895      2892
 -1      1262    8    0    1
 -2       587       579       704      2567      2896      2897
 -1      1263    8    0    1
 -2       579       689       704      2856      2898      2896
 -1      1264    8    0    1
 -2       546       573       705      2739      2899      2900
 -1      1265    8    0    1
 -2       545       546       705      2549      2900      2901
 -1      1266    8    0    1
 -2       573       578       705      2547      2902      2899
 -1      1267    8    0    1
 -2       468       599       706      2594      2903      2904
 -1      1268    8    0    1
 -2       468       706       576      2904      2905      2506
 -1      1269    8    0    1
 -2       602       520       707      2604      2906      2907
 -1      1270    8    0    1
 -2       520       577       707      2509      2908      2906
 -1      1271    8    0    1
 -2       605       548       675      2611      2817      2909
 -1      1272    8    0    1
 -2       591       467       708      2542      2910      2911
 -1      1273    8    0    1
 -2       467       673       708      2812      2912      2910
 -1      1274    8    0    1
 -2       570       685       687      2846      2913      2850
 -1      1275    8    0    1
 -2       648       523       698      2740      2880      2914
 -1      1276    8    0    1
 -2       545       705       670      2901      2915      2804
 -1      1277    8    0    1
 -2       571       671       685      2808      2916      2845
 -1      1278    8    0    1
 -2       465       672       597      2810      2917      2587
 -1      1279    8    0    1
 -2       577       568       709      2510      2918      2919
 -1      1280    8    0    1
 -2       707       577       709      2908      2919      2920
 -1      1281    8    0    1
 -2       568       686       709      2848      2921      2918
 -1      1282    8    0    1
 -2       264       298       464      2425      2182      2815
 -1      1283    8    0    1
 -2       572       695       710      2873      2922      2923
 -1      1284    8    0    1
 -2       572       710       690      2923      2924      2857
 -1      1285    8    0    1
 -2       678       554       604      2824      2827      2925
 -1      1286    8    0    1
 -2       679       566       605      2828      2926      2927
 -1      1287    8    0    1
 -2       557       575       711      2501      2928      2929
 -1      1288    8    0    1
 -2       466       576       712      2505      2930      2931
 -1      1289    8    0    1
 -2       673       466       712      2811      2931      2932
 -1      1290    8    0    1
 -2       576       706       712      2905      2933      2930
 -1      1291    8    0    1
 -2       693       582       699      2866      2883      2934
 -1      1292    8    0    1
 -2       684       564       603      2841      2844      2935
 -1      1293    8    0    1
 -2       695       586       697      2872      2878      2936
 -1      1294    8    0    1
 -2       575       558       713      2502      2937      2938
 -1      1295    8    0    1
 -2       575       713       711      2938      2939      2928
 -1      1296    8    0    1
 -2       566       556       594      2551      2589      2940
 -1      1297    8    0    1
 -2       588       688       689      2853      2941      2855
 -1      1298    8    0    1
 -2       701       584       696      2886      2875      2942
 -1      1299    8    0    1
 -2       700       581       693      2884      2867      2943
 -1      1300    8    0    1
 -2       574       557       714      2498      2944      2945
 -1      1301    8    0    1
 -2       604       574       714      2610      2945      2946
 -1      1302    8    0    1
 -2       557       711       714      2929      2947      2944
 -1      1303    8    0    1
 -2       594       605       566      2612      2926      2940
 -1      1304    8    0    1
 -2       587       704       697      2897      2948      2877
 -1      1305    8    0    1
 -2       595       580       700      2580      2885      2949
 -1      1306    8    0    1
 -2       578       597       705      2586      2950      2902
 -1      1307    8    0    1
 -2       567       595       715      2579      2951      2952
 -1      1308    8    0    1
 -2       567       715       672      2952      2953      2809
 -1      1309    8    0    1
 -2       699       583       701      2882      2887      2954
 -1      1310    8    0    1
 -2       558       681       713      2835      2955      2937
 -1      1311    8    0    1
 -2       601       602       716      2603      2956      2957
 -1      1312    8    0    1
 -2       602       707       716      2907      2958      2956
 -1      1313    8    0    1
 -2       600       601       716      2600      2957      2959
 -1      1314    8    0    1
 -2       608       607       717      2620      2960      2961
 -1      1315    8    0    1
 -2       609       608       718      2623      2962      2963
 -1      1316    8    0    1
 -2       608       717       718      2961      2964      2962
 -1      1317    8    0    1
 -2       610       609       719      2626      2965      2966
 -1      1318    8    0    1
 -2       609       718       719      2963      2967      2965
 -1      1319    8    0    1
 -2       611       610       720      2629      2968      2969
 -1      1320    8    0    1
 -2       610       719       720      2966      2970      2968
 -1      1321    8    0    1
 -2       612       611       721      2632      2971      2972
 -1      1322    8    0    1
 -2       611       720       721      2969      2973      2971
 -1      1323    8    0    1
 -2       613       612       722      2635      2974      2975
 -1      1324    8    0    1
 -2       612       721       722      2972      2976      2974
 -1      1325    8    0    1
 -2       614       613       723      2638      2977      2978
 -1      1326    8    0    1
 -2       613       722       723      2975      2979      2977
 -1      1327    8    0    1
 -2       615       614       724      2641      2980      2981
 -1      1328    8    0    1
 -2       614       723       724      2978      2982      2980
 -1      1329    8    0    1
 -2       616       615       725      2644      2983      2984
 -1      1330    8    0    1
 -2       615       724       725      2981      2985      2983
 -1      1331    8    0    1
 -2       617       616       726      2647      2986      2987
 -1      1332    8    0    1
 -2       616       725       726      2984      2988      2986
 -1      1333    8    0    1
 -2       618       617       727      2650      2989      2990
 -1      1334    8    0    1
 -2       617       726       727      2987      2991      2989
 -1      1335    8    0    1
 -2       619       618       728      2653      2992      2993
 -1      1336    8    0    1
 -2       618       727       728      2990      2994      2992
 -1      1337    8    0    1
 -2       620       619       729      2656      2995      2996
 -1      1338    8    0    1
 -2       619       728       729      2993      2997      2995
 -1      1339    8    0    1
 -2       621       620       730      2659      2998      2999
 -1      1340    8    0    1
 -2       620       729       730      2996      3000      2998
 -1      1341    8    0    1
 -2       622       621       731      2662      3001      3002
 -1      1342    8    0    1
 -2       621       730       731      2999      3003      3001
 -1      1343    8    0    1
 -2       623       622       732      2665      3004      3005
 -1      1344    8    0    1
 -2       622       731       732      3002      3006      3004
 -1      1345    8    0    1
 -2       624       623       733      2668      3007      3008
 -1      1346    8    0    1
 -2       623       732       733      3005      3009      3007
 -1      1347    8    0    1
 -2       625       624       734      2671      3010      3011
 -1      1348    8    0    1
 -2       624       733       734      3008      3012      3010
 -1      1349    8    0    1
 -2       626       625       735      2674      3013      3014
 -1      1350    8    0    1
 -2       625       734       735      3011      3015      3013
 -1      1351    8    0    1
 -2       627       626       736      2677      3016      3017
 -1      1352    8    0    1
 -2       626       735       736      3014      3018      3016
 -1      1353    8    0    1
 -2       628       627       737      2680      3019      3020
 -1      1354    8    0    1
 -2       627       736       737      3017      3021      3019
 -1      1355    8    0    1
 -2       629       628       738      2683      3022      3023
 -1      1356    8    0    1
 -2       628       737       738      3020      3024      3022
 -1      1357    8    0    1
 -2       630       629       739      2686      3025      3026
 -1      1358    8    0    1
 -2       629       738       739      3023      3027      3025
 -1      1359    8    0    1
 -2       631       630       740      2689      3028      3029
 -1      1360    8    0    1
 -2       630       739       740      3026      3030      3028
 -1      1361    8    0    1
 -2       632       631       741      2692      3031      3032
 -1      1362    8    0    1
 -2       631       740       741      3029      3033      3031
 -1      1363    8    0    1
 -2       633       632       742      2695      3034      3035
 -1      1364    8    0    1
 -2       632       741       742      3032      3036      3034
 -1      1365    8    0    1
 -2       634       633       743      2698      3037      3038
 -1      1366    8    0    1
 -2       633       742       743      3035      3039      3037
 -1      1367    8    0    1
 -2       635       634       744      2701      3040      3041
 -1      1368    8    0    1
 -2       634       743       744      3038      3042      3040
 -1      1369    8    0    1
 -2       636       635       745      2704      3043      3044
 -1      1370    8    0    1
 -2       635       744       745      3041      3045      3043
 -1      1371    8    0    1
 -2       637       636       746      2707      3046      3047
 -1      1372    8    0    1
 -2       636       745       746      3044      3048      3046
 -1      1373    8    0    1
 -2       638       637       747      2710      3049      3050
 -1      1374    8    0    1
 -2       637       746       747      3047      3051      3049
 -1      1375    8    0    1
 -2       639       638       748      2713      3052      3053
 -1      1376    8    0    1
 -2       638       747       748      3050      3054      3052
 -1      1377    8    0    1
 -2       640       639       749      2716      3055      3056
 -1      1378    8    0    1
 -2       639       748       749      3053      3057      3055
 -1      1379    8    0    1
 -2       641       640       750      2719      3058      3059
 -1      1380    8    0    1
 -2       640       749       750      3056      3060      3058
 -1      1381    8    0    1
 -2       642       641       751      2722      3061      3062
 -1      1382    8    0    1
 -2       641       750       751      3059      3063      3061
 -1      1383    8    0    1
 -2       643       642       752      2725      3064      3065
 -1      1384    8    0    1
 -2       642       751       752      3062      3066      3064
 -1      1385    8    0    1
 -2       644       643       753      2728      3067      3068
 -1      1386    8    0    1
 -2       643       752       753      3065      3069      3067
 -1      1387    8    0    1
 -2       645       644       754      2731      3070      3071
 -1      1388    8    0    1
 -2       644       753       754      3068      3072      3070
 -1      1389    8    0    1
 -2       646       645       755      2734      3073      3074
 -1      1390    8    0    1
 -2       645       754       755      3071      3075      3073
 -1      1391    8    0    1
 -2       652       653       756      2755      3076      3077
 -1      1392    8    0    1
 -2       651       652       757      2752      3078      3079
 -1      1393    8    0    1
 -2       652       756       757      3077      3080      3078
 -1      1394    8    0    1
 -2       650       651       758      2749      3081      3082
 -1      1395    8    0    1
 -2       651       757       758      3079      3083      3081
 -1      1396    8    0    1
 -2       653       654       759      2758      3084      3085
 -1      1397    8    0    1
 -2       653       759       756      3085      3086      3076
 -1      1398    8    0    1
 -2       654       655       760      2761      3087      3088
 -1      1399    8    0    1
 -2       654       760       759      3088      3089      3084
 -1      1400    8    0    1
 -2       655       656       761      2764      3090      3091
 -1      1401    8    0    1
 -2       655       761       760      3091      3092      3087
 -1      1402    8    0    1
 -2       656       657       762      2767      3093      3094
 -1      1403    8    0    1
 -2       656       762       761      3094      3095      3090
 -1      1404    8    0    1
 -2       657       658       763      2770      3096      3097
 -1      1405    8    0    1
 -2       657       763       762      3097      3098      3093
 -1      1406    8    0    1
 -2       658       659       764      2773      3099      3100
 -1      1407    8    0    1
 -2       658       764       763      3100      3101      3096
 -1      1408    8    0    1
 -2       659       660       765      2776      3102      3103
 -1      1409    8    0    1
 -2       659       765       764      3103      3104      3099
 -1      1410    8    0    1
 -2       660       661       766      2779      3105      3106
 -1      1411    8    0    1
 -2       660       766       765      3106      3107      3102
 -1      1412    8    0    1
 -2       661       662       767      2782      3108      3109
 -1      1413    8    0    1
 -2       661       767       766      3109      3110      3105
 -1      1414    8    0    1
 -2       662       663       768      2785      3111      3112
 -1      1415    8    0    1
 -2       662       768       767      3112      3113      3108
 -1      1416    8    0    1
 -2       663       664       769      2788      3114      3115
 -1      1417    8    0    1
 -2       663       769       768      3115      3116      3111
 -1      1418    8    0    1
 -2       664       665       770      2791      3117      3118
 -1      1419    8    0    1
 -2       664       770       769      3118      3119      3114
 -1      1420    8    0    1
 -2       665       666       771      2794      3120      3121
 -1      1421    8    0    1
 -2       665       771       770      3121      3122      3117
 -1      1422    8    0    1
 -2       666       667       772      2797      3123      3124
 -1      1423    8    0    1
 -2       666       772       771      3124      3125      3120
 -1      1424    8    0    1
 -2       667       668       773      2800      3126      3127
 -1      1425    8    0    1
 -2       667       773       772      3127      3128      3123
 -1      1426    8    0    1
 -2       668       669       774      2803      3129      3130
 -1      1427    8    0    1
 -2       668       774       773      3130      3131      3126
 -1      1428    8    0    1
 -2       669       670       775      2806      3132      3133
 -1      1429    8    0    1
 -2       669       775       774      3133      3134      3129
 -1      1430    8    0    1
 -2       685       671       776      2916      3135      3136
 -1      1431    8    0    1
 -2       687       685       777      2913      3137      3138
 -1      1432    8    0    1
 -2       697       704       778      2948      3139      3140
 -1      1433    8    0    1
 -2       675       674       779      2818      3141      3142
 -1      1434    8    0    1
 -2       704       689       780      2898      3143      3144
 -1      1435    8    0    1
 -2       704       780       778      3144      3145      3139
 -1      1436    8    0    1
 -2       677       678       781      2826      3146      3147
 -1      1437    8    0    1
 -2       676       677       782      2823      3148      3149
 -1      1438    8    0    1
 -2       677       781       782      3147      3150      3148
 -1      1439    8    0    1
 -2       683       684       783      2843      3151      3152
 -1      1440    8    0    1
 -2       678       604       784      2925      3153      3154
 -1      1441    8    0    1
 -2       781       678       784      3146      3154      3155
 -1      1442    8    0    1
 -2       604       714       784      2946      3156      3153
 -1      1443    8    0    1
 -2       693       699       785      2934      3157      3158
 -1      1444    8    0    1
 -2       682       683       786      2840      3159      3160
 -1      1445    8    0    1
 -2       683       783       786      3152      3161      3159
 -1      1446    8    0    1
 -2       686       649       787      2849      3162      3163
 -1      1447    8    0    1
 -2       648       698       788      2914      3164      3165
 -1      1448    8    0    1
 -2       684       603       789      2935      3166      3167
 -1      1449    8    0    1
 -2       783       684       789      3151      3167      3168
 -1      1450    8    0    1
 -2       603       647       789      2737      3169      3166
 -1      1451    8    0    1
 -2       701       696       790      2942      3170      3171
 -1      1452    8    0    1
 -2       691       682       791      2861      3172      3173
 -1      1453    8    0    1
 -2       682       786       791      3160      3174      3172
 -1      1454    8    0    1
 -2       711       713       792      2939      3175      3176
 -1      1455    8    0    1
 -2       679       605       793      2927      3177      3178
 -1      1456    8    0    1
 -2       671       679       793      2830      3178      3179
 -1      1457    8    0    1
 -2       605       675       793      2909      3180      3177
 -1      1458    8    0    1
 -2       688       687       794      2854      3181      3182
 -1      1459    8    0    1
 -2       695       697       795      2936      3183      3184
 -1      1460    8    0    1
 -2       696       690       796      2876      3185      3186
 -1      1461    8    0    1
 -2       696       796       790      3186      3187      3170
 -1      1462    8    0    1
 -2       596       591       797      2584      3188      3189
 -1      1463    8    0    1
 -2       680       596       797      2833      3189      3190
 -1      1464    8    0    1
 -2       591       708       797      2911      3191      3188
 -1      1465    8    0    1
 -2       700       693       798      2943      3192      3193
 -1      1466    8    0    1
 -2       699       701       799      2954      3194      3195
 -1      1467    8    0    1
 -2       701       790       799      3171      3196      3194
 -1      1468    8    0    1
 -2       607       606       800      2617      3197      3198
 -1      1469    8    0    1
 -2       607       800       717      3198      3199      2960
 -1      1470    8    0    1
 -2       595       700       801      2949      3200      3201
 -1      1471    8    0    1
 -2       670       705       597      2915      2950      3202
 -1      1472    8    0    1
 -2       713       681       802      2955      3203      3204
 -1      1473    8    0    1
 -2       713       802       792      3204      3205      3175
 -1      1474    8    0    1
 -2       689       688       803      2941      3206      3207
 -1      1475    8    0    1
 -2       599       598       804      2595      3208      3209
 -1      1476    8    0    1
 -2       649       648       805      2744      3210      3211
 -1      1477    8    0    1
 -2       648       788       805      3165      3212      3210
 -1      1478    8    0    1
 -2       698       650       806      2881      3213      3214
 -1      1479    8    0    1
 -2       650       758       806      3082      3215      3213
 -1      1480    8    0    1
 -2       670       597       672      3202      2917      3216
 -1      1481    8    0    1
 -2       670       672       775      3216      3217      3132
 -1      1482    8    0    1
 -2       595       801       807      3201      3218      3219
 -1      1483    8    0    1
 -2       595       807       715      3219      3220      2951
 -1      1484    8    0    1
 -2       703       600       808      2895      3221      3222
 -1      1485    8    0    1
 -2       788       698       806      3164      3214      3223
 -1      1486    8    0    1
 -2       708       673       809      2912      3224      3225
 -1      1487    8    0    1
 -2       647       646       789      2738      3226      3169
 -1      1488    8    0    1
 -2       685       776       777      3136      3227      3137
 -1      1489    8    0    1
 -2       776       671       793      3135      3179      3228
 -1      1490    8    0    1
 -2       687       777       794      3138      3229      3181
 -1      1491    8    0    1
 -2       598       703       810      2894      3230      3231
 -1      1492    8    0    1
 -2       703       808       810      3222      3232      3230
 -1      1493    8    0    1
 -2       709       686       811      2921      3233      3234
 -1      1494    8    0    1
 -2       686       787       811      3163      3235      3233
 -1      1495    8    0    1
 -2       697       778       795      3140      3236      3183
 -1      1496    8    0    1
 -2       675       779       793      3142      3237      3180
 -1      1497    8    0    1
 -2       690       710       812      2924      3238      3239
 -1      1498    8    0    1
 -2       690       812       796      3239      3240      3185
 -1      1499    8    0    1
 -2       785       699       813      3157      3241      3242
 -1      1500    8    0    1
 -2       699       799       813      3195      3243      3241
 -1      1501    8    0    1
 -2       676       782       814      3149      3244      3245
 -1      1502    8    0    1
 -2       676       814       694      3245      3246      2871
 -1      1503    8    0    1
 -2       680       797       815      3190      3247      3248
 -1      1504    8    0    1
 -2       680       815       702      3248      3249      2891
 -1      1505    8    0    1
 -2       780       689       803      3143      3207      3250
 -1      1506    8    0    1
 -2       798       693       785      3192      3158      3251
 -1      1507    8    0    1
 -2       673       712       816      2932      3252      3253
 -1      1508    8    0    1
 -2       673       816       809      3253      3254      3224
 -1      1509    8    0    1
 -2       681       692       817      2864      3255      3256
 -1      1510    8    0    1
 -2       681       817       802      3256      3257      3203
 -1      1511    8    0    1
 -2       787       649       805      3162      3211      3258
 -1      1512    8    0    1
 -2       646       755       789      3074      3259      3226
 -1      1513    8    0    1
 -2       700       798       801      3193      3260      3200
 -1      1514    8    0    1
 -2       804       598       810      3208      3231      3261
 -1      1515    8    0    1
 -2       691       791       818      3173      3262      3263
 -1      1516    8    0    1
 -2       691       818       692      3263      3264      2865
 -1      1517    8    0    1
 -2       714       711       784      2947      3265      3156
 -1      1518    8    0    1
 -2       784       711       792      3265      3176      3266
 -1      1519    8    0    1
 -2       600       716       808      2959      3267      3221
 -1      1520    8    0    1
 -2       695       795       819      3184      3268      3269
 -1      1521    8    0    1
 -2       695       819       710      3269      3270      2922
 -1      1522    8    0    1
 -2       674       694       820      2870      3271      3272
 -1      1523    8    0    1
 -2       694       814       820      3246      3273      3271
 -1      1524    8    0    1
 -2       674       820       779      3272      3274      3141
 -1      1525    8    0    1
 -2       688       794       803      3182      3275      3206
 -1      1526    8    0    1
 -2       599       804       821      3209      3276      3277
 -1      1527    8    0    1
 -2       599       821       706      3277      3278      2903
 -1      1528    8    0    1
 -2       606       702       815      2890      3249      3279
 -1      1529    8    0    1
 -2       606       815       800      3279      3280      3197
 -1      1530    8    0    1
 -2       718       717       822      2964      3281      3282
 -1      1531    8    0    1
 -2       788       806       823      3223      3283      3284
 -1      1532    8    0    1
 -2       801       798       824      3260      3285      3286
 -1      1533    8    0    1
 -2       717       800       825      3199      3287      3288
 -1      1534    8    0    1
 -2       717       825       822      3288      3289      3281
 -1      1535    8    0    1
 -2       719       718       826      2967      3290      3291
 -1      1536    8    0    1
 -2       718       822       826      3282      3292      3290
 -1      1537    8    0    1
 -2       720       719       827      2970      3293      3294
 -1      1538    8    0    1
 -2       719       826       827      3291      3295      3293
 -1      1539    8    0    1
 -2       721       720       828      2973      3296      3297
 -1      1540    8    0    1
 -2       720       827       828      3294      3298      3296
 -1      1541    8    0    1
 -2       722       721       829      2976      3299      3300
 -1      1542    8    0    1
 -2       721       828       829      3297      3301      3299
 -1      1543    8    0    1
 -2       723       722       830      2979      3302      3303
 -1      1544    8    0    1
 -2       722       829       830      3300      3304      3302
 -1      1545    8    0    1
 -2       724       723       831      2982      3305      3306
 -1      1546    8    0    1
 -2       723       830       831      3303      3307      3305
 -1      1547    8    0    1
 -2       725       724       832      2985      3308      3309
 -1      1548    8    0    1
 -2       724       831       832      3306      3310      3308
 -1      1549    8    0    1
 -2       726       725       833      2988      3311      3312
 -1      1550    8    0    1
 -2       725       832       833      3309      3313      3311
 -1      1551    8    0    1
 -2       727       726       834      2991      3314      3315
 -1      1552    8    0    1
 -2       726       833       834      3312      3316      3314
 -1      1553    8    0    1
 -2       728       727       835      2994      3317      3318
 -1      1554    8    0    1
 -2       727       834       835      3315      3319      3317
 -1      1555    8    0    1
 -2       729       728       836      2997      3320      3321
 -1      1556    8    0    1
 -2       728       835       836      3318      3322      3320
 -1      1557    8    0    1
 -2       730       729       837      3000      3323      3324
 -1      1558    8    0    1
 -2       729       836       837      3321      3325      3323
 -1      1559    8    0    1
 -2       731       730       838      3003      3326      3327
 -1      1560    8    0    1
 -2       730       837       838      3324      3328      3326
 -1      1561    8    0    1
 -2       732       731       839      3006      3329      3330
 -1      1562    8    0    1
 -2       731       838       839      3327      3331      3329
 -1      1563    8    0    1
 -2       733       732       840      3009      3332      3333
 -1      1564    8    0    1
 -2       732       839       840      3330      3334      3332
 -1      1565    8    0    1
 -2       734       733       841      3012      3335      3336
 -1      1566    8    0    1
 -2       733       840       841      3333      3337      3335
 -1      1567    8    0    1
 -2       735       734       842      3015      3338      3339
 -1      1568    8    0    1
 -2       734       841       842      3336      3340      3338
 -1      1569    8    0    1
 -2       736       735       843      3018      3341      3342
 -1      1570    8    0    1
 -2       735       842       843      3339      3343      3341
 -1      1571    8    0    1
 -2       737       736       844      3021      3344      3345
 -1      1572    8    0    1
 -2       736       843       844      3342      3346      3344
 -1      1573    8    0    1
 -2       738       737       845      3024      3347      3348
 -1      1574    8    0    1
 -2       737       844       845      3345      3349      3347
 -1      1575    8    0    1
 -2       739       738       846      3027      3350      3351
 -1      1576    8    0    1
 -2       738       845       846      3348      3352      3350
 -1      1577    8    0    1
 -2       740       739       847      3030      3353      3354
 -1      1578    8    0    1
 -2       739       846       847      3351      3355      3353
 -1      1579    8    0    1
 -2       741       740       848      3033      3356      3357
 -1      1580    8    0    1
 -2       740       847       848      3354      3358      3356
 -1      1581    8    0    1
 -2       742       741       849      3036      3359      3360
 -1      1582    8    0    1
 -2       741       848       849      3357      3361      3359
 -1      1583    8    0    1
 -2       743       742       850      3039      3362      3363
 -1      1584    8    0    1
 -2       742       849       850      3360      3364      3362
 -1      1585    8    0    1
 -2       744       743       851      3042      3365      3366
 -1      1586    8    0    1
 -2       743       850       851      3363      3367      3365
 -1      1587    8    0    1
 -2       745       744       852      3045      3368      3369
 -1      1588    8    0    1
 -2       744       851       852      3366      3370      3368
 -1      1589    8    0    1
 -2       746       745       853      3048      3371      3372
 -1      1590    8    0    1
 -2       745       852       853      3369      3373      3371
 -1      1591    8    0    1
 -2       747       746       854      3051      3374      3375
 -1      1592    8    0    1
 -2       746       853       854      3372      3376      3374
 -1      1593    8    0    1
 -2       748       747       855      3054      3377      3378
 -1      1594    8    0    1
 -2       747       854       855      3375      3379      3377
 -1      1595    8    0    1
 -2       749       748       856      3057      3380      3381
 -1      1596    8    0    1
 -2       748       855       856      3378      3382      3380
 -1      1597    8    0    1
 -2       750       749       857      3060      3383      3384
 -1      1598    8    0    1
 -2       749       856       857      3381      3385      3383
 -1      1599    8    0    1
 -2       751       750       858      3063      3386      3387
 -1      1600    8    0    1
 -2       750       857       858      3384      3388      3386
 -1      1601    8    0    1
 -2       752       751       859      3066      3389      3390
 -1      1602    8    0    1
 -2       751       858       859      3387      3391      3389
 -1      1603    8    0    1
 -2       753       752       860      3069      3392      3393
 -1      1604    8    0    1
 -2       752       859       860      3390      3394      3392
 -1      1605    8    0    1
 -2       754       753       861      3072      3395      3396
 -1      1606    8    0    1
 -2       753       860       861      3393      3397      3395
 -1      1607    8    0    1
 -2       755       754       862      3075      3398      3399
 -1      1608    8    0    1
 -2       754       861       862      3396      3400      3398
 -1      1609    8    0    1
 -2       759       760       863      3089      3401      3402
 -1      1610    8    0    1
 -2       756       759       864      3086      3403      3404
 -1      1611    8    0    1
 -2       759       863       864      3402      3405      3403
 -1      1612    8    0    1
 -2       758       757       865      3083      3406      3407
 -1      1613    8    0    1
 -2       760       761       866      3092      3408      3409
 -1      1614    8    0    1
 -2       760       866       863      3409      3410      3401
 -1      1615    8    0    1
 -2       761       762       867      3095      3411      3412
 -1      1616    8    0    1
 -2       761       867       866      3412      3413      3408
 -1      1617    8    0    1
 -2       762       763       868      3098      3414      3415
 -1      1618    8    0    1
 -2       762       868       867      3415      3416      3411
 -1      1619    8    0    1
 -2       763       764       869      3101      3417      3418
 -1      1620    8    0    1
 -2       763       869       868      3418      3419      3414
 -1      1621    8    0    1
 -2       764       765       870      3104      3420      3421
 -1      1622    8    0    1
 -2       764       870       869      3421      3422      3417
 -1      1623    8    0    1
 -2       765       766       871      3107      3423      3424
 -1      1624    8    0    1
 -2       765       871       870      3424      3425      3420
 -1      1625    8    0    1
 -2       766       767       872      3110      3426      3427
 -1      1626    8    0    1
 -2       766       872       871      3427      3428      3423
 -1      1627    8    0    1
 -2       767       768       873      3113      3429      3430
 -1      1628    8    0    1
 -2       767       873       872      3430      3431      3426
 -1      1629    8    0    1
 -2       768       769       874      3116      3432      3433
 -1      1630    8    0    1
 -2       768       874       873      3433      3434      3429
 -1      1631    8    0    1
 -2       769       770       875      3119      3435      3436
 -1      1632    8    0    1
 -2       769       875       874      3436      3437      3432
 -1      1633    8    0    1
 -2       770       771       876      3122      3438      3439
 -1      1634    8    0    1
 -2       770       876       875      3439      3440      3435
 -1      1635    8    0    1
 -2       771       772       877      3125      3441      3442
 -1      1636    8    0    1
 -2       771       877       876      3442      3443      3438
 -1      1637    8    0    1
 -2       772       773       878      3128      3444      3445
 -1      1638    8    0    1
 -2       772       878       877      3445      3446      3441
 -1      1639    8    0    1
 -2       773       774       879      3131      3447      3448
 -1      1640    8    0    1
 -2       773       879       878      3448      3449      3444
 -1      1641    8    0    1
 -2       774       775       880      3134      3450      3451
 -1      1642    8    0    1
 -2       774       880       879      3451      3452      3447
 -1      1643    8    0    1
 -2       810       808       881      3232      3453      3454
 -1      1644    8    0    1
 -2       712       706       882      2933      3455      3456
 -1      1645    8    0    1
 -2       712       882       816      3456      3457      3252
 -1      1646    8    0    1
 -2       778       780       883      3145      3458      3459
 -1      1647    8    0    1
 -2       815       797       708      3247      3191      3460
 -1      1648    8    0    1
 -2       781       784       884      3155      3461      3462
 -1      1649    8    0    1
 -2       784       792       884      3266      3463      3461
 -1      1650    8    0    1
 -2       786       783       885      3161      3464      3465
 -1      1651    8    0    1
 -2       808       716       886      3267      3466      3467
 -1      1652    8    0    1
 -2       708       809       815      3225      3468      3460
 -1      1653    8    0    1
 -2       775       672       887      3217      3469      3470
 -1      1654    8    0    1
 -2       783       789       755      3168      3259      3471
 -1      1655    8    0    1
 -2       805       788       888      3212      3472      3473
 -1      1656    8    0    1
 -2       788       823       888      3284      3474      3472
 -1      1657    8    0    1
 -2       791       786       889      3174      3475      3476
 -1      1658    8    0    1
 -2       786       885       889      3465      3477      3475
 -1      1659    8    0    1
 -2       780       803       890      3250      3478      3479
 -1      1660    8    0    1
 -2       798       785       891      3251      3480      3481
 -1      1661    8    0    1
 -2       777       776       892      3227      3482      3483
 -1      1662    8    0    1
 -2       794       777       893      3229      3484      3485
 -1      1663    8    0    1
 -2       782       781       894      3150      3486      3487
 -1      1664    8    0    1
 -2       781       884       894      3462      3488      3486
 -1      1665    8    0    1
 -2       800       815       809      3280      3468      3489
 -1      1666    8    0    1
 -2       803       794       895      3275      3490      3491
 -1      1667    8    0    1
 -2       793       779       776      3237      3492      3228
 -1      1668    8    0    1
 -2       790       796       896      3187      3493      3494
 -1      1669    8    0    1
 -2       795       778       897      3236      3495      3496
 -1      1670    8    0    1
 -2       800       809       898      3489      3497      3498
 -1      1671    8    0    1
 -2       825       800       898      3287      3498      3499
 -1      1672    8    0    1
 -2       809       816       898      3254      3500      3497
 -1      1673    8    0    1
 -2       799       790       899      3196      3501      3502
 -1      1674    8    0    1
 -2       790       896       899      3494      3503      3501
 -1      1675    8    0    1
 -2       779       820       900      3274      3504      3505
 -1      1676    8    0    1
 -2       804       810       901      3261      3506      3507
 -1      1677    8    0    1
 -2       810       881       901      3454      3508      3506
 -1      1678    8    0    1
 -2       787       805       902      3258      3509      3510
 -1      1679    8    0    1
 -2       805       888       902      3473      3511      3509
 -1      1680    8    0    1
 -2       757       756       903      3080      3512      3513
 -1      1681    8    0    1
 -2       756       864       903      3404      3514      3512
 -1      1682    8    0    1
 -2       716       707       709      2958      2920      3515
 -1      1683    8    0    1
 -2       792       802       884      3205      3516      3463
 -1      1684    8    0    1
 -2       806       758       904      3215      3517      3518
 -1      1685    8    0    1
 -2       758       865       904      3407      3519      3517
 -1      1686    8    0    1
 -2       672       715       887      2953      3520      3469
 -1      1687    8    0    1
 -2       775       887       880      3470      3521      3450
 -1      1688    8    0    1
 -2       776       779       900      3492      3505      3522
 -1      1689    8    0    1
 -2       887       715       807      3520      3220      3523
 -1      1690    8    0    1
 -2       791       889       905      3476      3524      3525
 -1      1691    8    0    1
 -2       791       905       818      3525      3526      3262
 -1      1692    8    0    1
 -2       710       819       812      3270      3527      3238
 -1      1693    8    0    1
 -2       801       824       906      3286      3528      3529
 -1      1694    8    0    1
 -2       801       906       807      3529      3530      3218
 -1      1695    8    0    1
 -2       802       817       907      3257      3531      3532
 -1      1696    8    0    1
 -2       802       907       884      3532      3533      3516
 -1      1697    8    0    1
 -2       716       709       886      3515      3534      3466
 -1      1698    8    0    1
 -2       865       757       903      3406      3513      3535
 -1      1699    8    0    1
 -2       787       902       908      3510      3536      3537
 -1      1700    8    0    1
 -2       881       808       886      3453      3467      3538
 -1      1701    8    0    1
 -2       811       787       908      3235      3537      3539
 -1      1702    8    0    1
 -2       883       780       890      3458      3479      3540
 -1      1703    8    0    1
 -2       813       799       909      3243      3541      3542
 -1      1704    8    0    1
 -2       799       899       909      3502      3543      3541
 -1      1705    8    0    1
 -2       814       782       910      3244      3544      3545
 -1      1706    8    0    1
 -2       782       894       910      3487      3546      3544
 -1      1707    8    0    1
 -2       806       904       823      3518      3547      3283
 -1      1708    8    0    1
 -2       803       895       890      3491      3548      3478
 -1      1709    8    0    1
 -2       778       883       897      3459      3549      3495
 -1      1710    8    0    1
 -2       817       692       818      3255      3264      3550
 -1      1711    8    0    1
 -2       893       777       892      3484      3483      3551
 -1      1712    8    0    1
 -2       880       887       911      3521      3552      3553
 -1      1713    8    0    1
 -2       887       807       911      3523      3554      3552
 -1      1714    8    0    1
 -2       783       755       912      3471      3555      3556
 -1      1715    8    0    1
 -2       891       785       913      3480      3557      3558
 -1      1716    8    0    1
 -2       785       813       913      3242      3559      3557
 -1      1717    8    0    1
 -2       798       891       914      3481      3560      3561
 -1      1718    8    0    1
 -2       798       914       824      3561      3562      3285
 -1      1719    8    0    1
 -2       796       812       896      3240      3563      3493
 -1      1720    8    0    1
 -2       882       706       821      3455      3278      3564
 -1      1721    8    0    1
 -2       794       893       895      3485      3565      3490
 -1      1722    8    0    1
 -2       820       814       915      3273      3566      3567
 -1      1723    8    0    1
 -2       900       820       915      3504      3567      3568
 -1      1724    8    0    1
 -2       814       910       915      3545      3569      3566
 -1      1725    8    0    1
 -2       804       901       916      3507      3570      3571
 -1      1726    8    0    1
 -2       804       916       821      3571      3572      3276
 -1      1727    8    0    1
 -2       907       817       917      3531      3573      3574
 -1      1728    8    0    1
 -2       817       818       917      3550      3575      3573
 -1      1729    8    0    1
 -2       884       907       918      3533      3576      3577
 -1      1730    8    0    1
 -2       884       918       894      3577      3578      3488
 -1      1731    8    0    1
 -2       822       825       919      3289      3579      3580
 -1      1732    8    0    1
 -2       826       822       920      3292      3581      3582
 -1      1733    8    0    1
 -2       822       919       920      3580      3583      3581
 -1      1734    8    0    1
 -2       827       826       921      3295      3584      3585
 -1      1735    8    0    1
 -2       826       920       921      3582      3586      3584
 -1      1736    8    0    1
 -2       828       827       922      3298      3587      3588
 -1      1737    8    0    1
 -2       827       921       922      3585      3589      3587
 -1      1738    8    0    1
 -2       829       828       923      3301      3590      3591
 -1      1739    8    0    1
 -2       828       922       923      3588      3592      3590
 -1      1740    8    0    1
 -2       830       829       924      3304      3593      3594
 -1      1741    8    0    1
 -2       829       923       924      3591      3595      3593
 -1      1742    8    0    1
 -2       831       830       925      3307      3596      3597
 -1      1743    8    0    1
 -2       830       924       925      3594      3598      3596
 -1      1744    8    0    1
 -2       832       831       926      3310      3599      3600
 -1      1745    8    0    1
 -2       831       925       926      3597      3601      3599
 -1      1746    8    0    1
 -2       833       832       927      3313      3602      3603
 -1      1747    8    0    1
 -2       832       926       927      3600      3604      3602
 -1      1748    8    0    1
 -2       834       833       928      3316      3605      3606
 -1      1749    8    0    1
 -2       833       927       928      3603      3607      3605
 -1      1750    8    0    1
 -2       835       834       929      3319      3608      3609
 -1      1751    8    0    1
 -2       834       928       929      3606      3610      3608
 -1      1752    8    0    1
 -2       836       835       930      3322      3611      3612
 -1      1753    8    0    1
 -2       835       929       930      3609      3613      3611
 -1      1754    8    0    1
 -2       837       836       931      3325      3614      3615
 -1      1755    8    0    1
 -2       836       930       931      3612      3616      3614
 -1      1756    8    0    1
 -2       838       837       932      3328      3617      3618
 -1      1757    8    0    1
 -2       837       931       932      3615      3619      3617
 -1      1758    8    0    1
 -2       839       838       933      3331      3620      3621
 -1      1759    8    0    1
 -2       838       932       933      3618      3622      3620
 -1      1760    8    0    1
 -2       840       839       934      3334      3623      3624
 -1      1761    8    0    1
 -2       839       933       934      3621      3625      3623
 -1      1762    8    0    1
 -2       841       840       935      3337      3626      3627
 -1      1763    8    0    1
 -2       840       934       935      3624      3628      3626
 -1      1764    8    0    1
 -2       842       841       936      3340      3629      3630
 -1      1765    8    0    1
 -2       841       935       936      3627      3631      3629
 -1      1766    8    0    1
 -2       843       842       937      3343      3632      3633
 -1      1767    8    0    1
 -2       842       936       937      3630      3634      3632
 -1      1768    8    0    1
 -2       844       843       938      3346      3635      3636
 -1      1769    8    0    1
 -2       843       937       938      3633      3637      3635
 -1      1770    8    0    1
 -2       845       844       939      3349      3638      3639
 -1      1771    8    0    1
 -2       844       938       939      3636      3640      3638
 -1      1772    8    0    1
 -2       846       845       940      3352      3641      3642
 -1      1773    8    0    1
 -2       845       939       940      3639      3643      3641
 -1      1774    8    0    1
 -2       847       846       941      3355      3644      3645
 -1      1775    8    0    1
 -2       846       940       941      3642      3646      3644
 -1      1776    8    0    1
 -2       848       847       942      3358      3647      3648
 -1      1777    8    0    1
 -2       847       941       942      3645      3649      3647
 -1      1778    8    0    1
 -2       849       848       943      3361      3650      3651
 -1      1779    8    0    1
 -2       848       942       943      3648      3652      3650
 -1      1780    8    0    1
 -2       850       849       944      3364      3653      3654
 -1      1781    8    0    1
 -2       849       943       944      3651      3655      3653
 -1      1782    8    0    1
 -2       852       851       945      3370      3656      3657
 -1      1783    8    0    1
 -2       853       852       812      3373      3658      3659
 -1      1784    8    0    1
 -2       854       853       819      3376      3660      3661
 -1      1785    8    0    1
 -2       855       854       897      3379      3662      3663
 -1      1786    8    0    1
 -2       856       855       897      3382      3663      3664
 -1      1787    8    0    1
 -2       857       856       946      3385      3665      3666
 -1      1788    8    0    1
 -2       858       857       947      3388      3667      3668
 -1      1789    8    0    1
 -2       857       946       947      3666      3669      3667
 -1      1790    8    0    1
 -2       859       858       948      3391      3670      3671
 -1      1791    8    0    1
 -2       858       947       948      3668      3672      3670
 -1      1792    8    0    1
 -2       860       859       949      3394      3673      3674
 -1      1793    8    0    1
 -2       859       948       949      3671      3675      3673
 -1      1794    8    0    1
 -2       861       860       950      3397      3676      3677
 -1      1795    8    0    1
 -2       860       949       950      3674      3678      3676
 -1      1796    8    0    1
 -2       862       861       951      3400      3679      3680
 -1      1797    8    0    1
 -2       861       950       951      3677      3681      3679
 -1      1798    8    0    1
 -2       866       867       952      3413      3682      3683
 -1      1799    8    0    1
 -2       908       902       953      3536      3684      3685
 -1      1800    8    0    1
 -2       863       866       954      3410      3686      3687
 -1      1801    8    0    1
 -2       866       952       954      3683      3688      3686
 -1      1802    8    0    1
 -2       868       869       955      3419      3689      3690
 -1      1803    8    0    1
 -2       869       870       956      3422      3691      3692
 -1      1804    8    0    1
 -2       869       956       955      3692      3693      3689
 -1      1805    8    0    1
 -2       870       871       957      3425      3694      3695
 -1      1806    8    0    1
 -2       870       957       956      3695      3696      3691
 -1      1807    8    0    1
 -2       871       872       958      3428      3697      3698
 -1      1808    8    0    1
 -2       871       958       957      3698      3699      3694
 -1      1809    8    0    1
 -2       872       873       959      3431      3700      3701
 -1      1810    8    0    1
 -2       872       959       958      3701      3702      3697
 -1      1811    8    0    1
 -2       873       874       960      3434      3703      3704
 -1      1812    8    0    1
 -2       873       960       959      3704      3705      3700
 -1      1813    8    0    1
 -2       874       875       961      3437      3706      3707
 -1      1814    8    0    1
 -2       874       961       960      3707      3708      3703
 -1      1815    8    0    1
 -2       875       876       962      3440      3709      3710
 -1      1816    8    0    1
 -2       875       962       961      3710      3711      3706
 -1      1817    8    0    1
 -2       876       877       963      3443      3712      3713
 -1      1818    8    0    1
 -2       876       963       962      3713      3714      3709
 -1      1819    8    0    1
 -2       877       878       964      3446      3715      3716
 -1      1820    8    0    1
 -2       877       964       963      3716      3717      3712
 -1      1821    8    0    1
 -2       878       879       965      3449      3718      3719
 -1      1822    8    0    1
 -2       878       965       964      3719      3720      3715
 -1      1823    8    0    1
 -2       879       880       966      3452      3721      3722
 -1      1824    8    0    1
 -2       965       879       966      3718      3722      3723
 -1      1825    8    0    1
 -2       880       911       966      3553      3724      3721
 -1      1826    8    0    1
 -2       776       900       892      3522      3725      3482
 -1      1827    8    0    1
 -2       816       882       967      3457      3726      3727
 -1      1828    8    0    1
 -2       816       967       898      3727      3728      3500
 -1      1829    8    0    1
 -2       912       755       862      3555      3399      3729
 -1      1830    8    0    1
 -2       888       823       968      3474      3730      3731
 -1      1831    8    0    1
 -2       812       819       853      3527      3660      3659
 -1      1832    8    0    1
 -2       897       883       946      3549      3732      3733
 -1      1833    8    0    1
 -2       865       903       969      3535      3734      3735
 -1      1834    8    0    1
 -2       892       900       970      3725      3736      3737
 -1      1835    8    0    1
 -2       823       904       971      3547      3738      3739
 -1      1836    8    0    1
 -2       823       971       968      3739      3740      3730
 -1      1837    8    0    1
 -2       867       868       972      3416      3741      3742
 -1      1838    8    0    1
 -2       952       867       972      3682      3742      3743
 -1      1839    8    0    1
 -2       868       955       972      3690      3744      3741
 -1      1840    8    0    1
 -2       819       795       897      3268      3496      3745
 -1      1841    8    0    1
 -2       882       821       973      3564      3746      3747
 -1      1842    8    0    1
 -2       821       916       973      3572      3748      3746
 -1      1843    8    0    1
 -2       709       811       886      3234      3749      3534
 -1      1844    8    0    1
 -2       864       863       974      3405      3750      3751
 -1      1845    8    0    1
 -2       863       954       974      3687      3752      3750
 -1      1846    8    0    1
 -2       901       881       975      3508      3753      3754
 -1      1847    8    0    1
 -2       899       896       976      3503      3755      3756
 -1      1848    8    0    1
 -2       902       888       977      3511      3757      3758
 -1      1849    8    0    1
 -2       953       902       977      3684      3758      3759
 -1      1850    8    0    1
 -2       888       968       977      3731      3760      3757
 -1      1851    8    0    1
 -2       903       864       978      3514      3761      3762
 -1      1852    8    0    1
 -2       864       974       978      3751      3763      3761
 -1      1853    8    0    1
 -2       904       865       979      3519      3764      3765
 -1      1854    8    0    1
 -2       865       969       979      3735      3766      3764
 -1      1855    8    0    1
 -2       895       893       980      3565      3767      3768
 -1      1856    8    0    1
 -2       890       895       981      3548      3769      3770
 -1      1857    8    0    1
 -2       893       892       970      3551      3737      3771
 -1      1858    8    0    1
 -2       854       819       897      3661      3745      3662
 -1      1859    8    0    1
 -2       856       897       946      3664      3733      3665
 -1      1860    8    0    1
 -2       886       811       908      3749      3539      3772
 -1      1861    8    0    1
 -2       886       908       881      3772      3773      3538
 -1      1862    8    0    1
 -2       906       824       982      3528      3774      3775
 -1      1863    8    0    1
 -2       824       914       982      3562      3776      3774
 -1      1864    8    0    1
 -2       918       907       917      3576      3574      3777
 -1      1865    8    0    1
 -2       919       825       898      3579      3499      3778
 -1      1866    8    0    1
 -2       850       944       976      3654      3779      3780
 -1      1867    8    0    1
 -2       851       850       976      3367      3780      3781
 -1      1868    8    0    1
 -2       901       975       983      3754      3782      3783
 -1      1869    8    0    1
 -2       901       983       916      3783      3784      3570
 -1      1870    8    0    1
 -2       967       882       973      3726      3747      3785
 -1      1871    8    0    1
 -2       818       905       917      3526      3786      3575
 -1      1872    8    0    1
 -2       971       904       979      3738      3765      3787
 -1      1873    8    0    1
 -2       909       899       944      3543      3788      3789
 -1      1874    8    0    1
 -2       807       906       911      3530      3790      3554
 -1      1875    8    0    1
 -2       910       894       984      3546      3791      3792
 -1      1876    8    0    1
 -2       894       918       984      3578      3793      3791
 -1      1877    8    0    1
 -2       912       862       951      3729      3680      3794
 -1      1878    8    0    1
 -2       885       783       912      3464      3556      3795
 -1      1879    8    0    1
 -2       813       909       985      3542      3796      3797
 -1      1880    8    0    1
 -2       813       985       913      3797      3798      3559
 -1      1881    8    0    1
 -2       881       908       975      3773      3799      3753
 -1      1882    8    0    1
 -2       891       913       986      3558      3800      3801
 -1      1883    8    0    1
 -2       891       986       914      3801      3802      3560
 -1      1884    8    0    1
 -2       970       900       915      3736      3568      3803
 -1      1885    8    0    1
 -2       889       885       987      3477      3804      3805
 -1      1886    8    0    1
 -2       969       903       978      3734      3762      3806
 -1      1887    8    0    1
 -2       895       980       981      3768      3807      3769
 -1      1888    8    0    1
 -2       946       883       988      3732      3808      3809
 -1      1889    8    0    1
 -2       947       946       988      3669      3809      3810
 -1      1890    8    0    1
 -2       883       890       988      3540      3811      3808
 -1      1891    8    0    1
 -2       812       852       945      3658      3657      3812
 -1      1892    8    0    1
 -2       889       987       989      3805      3813      3814
 -1      1893    8    0    1
 -2       889       989       905      3814      3815      3524
 -1      1894    8    0    1
 -2       976       896       945      3755      3816      3817
 -1      1895    8    0    1
 -2       899       976       944      3756      3779      3788
 -1      1896    8    0    1
 -2       980       893       970      3767      3771      3818
 -1      1897    8    0    1
 -2       890       981       988      3770      3819      3811
 -1      1898    8    0    1
 -2       896       812       945      3563      3812      3816
 -1      1899    8    0    1
 -2       851       976       945      3781      3817      3656
 -1      1900    8    0    1
 -2       885       912       987      3795      3820      3804
 -1      1901    8    0    1
 -2       921       920       990      3586      3821      3822
 -1      1902    8    0    1
 -2       922       921       991      3589      3823      3824
 -1      1903    8    0    1
 -2       921       990       991      3822      3825      3823
 -1      1904    8    0    1
 -2       923       922       992      3592      3826      3827
 -1      1905    8    0    1
 -2       922       991       992      3824      3828      3826
 -1      1906    8    0    1
 -2       924       923       993      3595      3829      3830
 -1      1907    8    0    1
 -2       923       992       993      3827      3831      3829
 -1      1908    8    0    1
 -2       925       924       994      3598      3832      3833
 -1      1909    8    0    1
 -2       924       993       994      3830      3834      3832
 -1      1910    8    0    1
 -2       926       925       995      3601      3835      3836
 -1      1911    8    0    1
 -2       925       994       995      3833      3837      3835
 -1      1912    8    0    1
 -2       927       926       996      3604      3838      3839
 -1      1913    8    0    1
 -2       926       995       996      3836      3840      3838
 -1      1914    8    0    1
 -2       928       927       997      3607      3841      3842
 -1      1915    8    0    1
 -2       927       996       997      3839      3843      3841
 -1      1916    8    0    1
 -2       929       928       998      3610      3844      3845
 -1      1917    8    0    1
 -2       928       997       998      3842      3846      3844
 -1      1918    8    0    1
 -2       930       929       999      3613      3847      3848
 -1      1919    8    0    1
 -2       929       998       999      3845      3849      3847
 -1      1920    8    0    1
 -2       931       930      1000      3616      3850      3851
 -1      1921    8    0    1
 -2       930       999      1000      3848      3852      3850
 -1      1922    8    0    1
 -2       932       931      1001      3619      3853      3854
 -1      1923    8    0    1
 -2       931      1000      1001      3851      3855      3853
 -1      1924    8    0    1
 -2       933       932      1002      3622      3856      3857
 -1      1925    8    0    1
 -2       932      1001      1002      3854      3858      3856
 -1      1926    8    0    1
 -2       934       933      1003      3625      3859      3860
 -1      1927    8    0    1
 -2       933      1002      1003      3857      3861      3859
 -1      1928    8    0    1
 -2       935       934      1004      3628      3862      3863
 -1      1929    8    0    1
 -2       934      1003      1004      3860      3864      3862
 -1      1930    8    0    1
 -2       936       935      1005      3631      3865      3866
 -1      1931    8    0    1
 -2       935      1004      1005      3863      3867      3865
 -1      1932    8    0    1
 -2       937       936      1006      3634      3868      3869
 -1      1933    8    0    1
 -2       936      1005      1006      3866      3870      3868
 -1      1934    8    0    1
 -2       938       937      1007      3637      3871      3872
 -1      1935    8    0    1
 -2       937      1006      1007      3869      3873      3871
 -1      1936    8    0    1
 -2       939       938      1008      3640      3874      3875
 -1      1937    8    0    1
 -2       938      1007      1008      3872      3876      3874
 -1      1938    8    0    1
 -2       940       939      1009      3643      3877      3878
 -1      1939    8    0    1
 -2       939      1008      1009      3875      3879      3877
 -1      1940    8    0    1
 -2       941       940      1010      3646      3880      3881
 -1      1941    8    0    1
 -2       940      1009      1010      3878      3882      3880
 -1      1942    8    0    1
 -2       942       941      1011      3649      3883      3884
 -1      1943    8    0    1
 -2       941      1010      1011      3881      3885      3883
 -1      1944    8    0    1
 -2       943       942       985      3652      3886      3887
 -1      1945    8    0    1
 -2       944       943       985      3655      3887      3888
 -1      1946    8    0    1
 -2       987       912       951      3820      3794      3889
 -1      1947    8    0    1
 -2       949       948      1012      3675      3890      3891
 -1      1948    8    0    1
 -2       950       949      1013      3678      3892      3893
 -1      1949    8    0    1
 -2       949      1012      1013      3891      3894      3892
 -1      1950    8    0    1
 -2       956       957      1014      3696      3895      3896
 -1      1951    8    0    1
 -2       955       956      1015      3693      3897      3898
 -1      1952    8    0    1
 -2       956      1014      1015      3896      3899      3897
 -1      1953    8    0    1
 -2       958       959      1016      3702      3900      3901
 -1      1954    8    0    1
 -2       959       960      1017      3705      3902      3903
 -1      1955    8    0    1
 -2       959      1017      1016      3903      3904      3900
 -1      1956    8    0    1
 -2       960       961      1018      3708      3905      3906
 -1      1957    8    0    1
 -2       960      1018      1017      3906      3907      3902
 -1      1958    8    0    1
 -2       961       962      1019      3711      3908      3909
 -1      1959    8    0    1
 -2       961      1019      1018      3909      3910      3905
 -1      1960    8    0    1
 -2       962       963      1020      3714      3911      3912
 -1      1961    8    0    1
 -2       962      1020      1019      3912      3913      3908
 -1      1962    8    0    1
 -2       963       964      1021      3717      3914      3915
 -1      1963    8    0    1
 -2       963      1021      1020      3915      3916      3911
 -1      1964    8    0    1
 -2       964       965      1022      3720      3917      3918
 -1      1965    8    0    1
 -2       964      1022      1021      3918      3919      3914
 -1      1966    8    0    1
 -2       980       970      1023      3818      3920      3921
 -1      1967    8    0    1
 -2       911       906      1024      3790      3922      3923
 -1      1968    8    0    1
 -2       906       982      1024      3775      3924      3922
 -1      1969    8    0    1
 -2       957       958      1025      3699      3925      3926
 -1      1970    8    0    1
 -2      1014       957      1025      3895      3926      3927
 -1      1971    8    0    1
 -2       958      1016      1025      3901      3928      3925
 -1      1972    8    0    1
 -2       954       952      1026      3688      3929      3930
 -1      1973    8    0    1
 -2       978       974      1027      3763      3931      3932
 -1      1974    8    0    1
 -2       898       967       919      3728      3933      3778
 -1      1975    8    0    1
 -2       970       915      1028      3803      3934      3935
 -1      1976    8    0    1
 -2      1023       970      1028      3920      3935      3936
 -1      1977    8    0    1
 -2       915       910      1028      3569      3937      3934
 -1      1978    8    0    1
 -2       987       951      1029      3889      3938      3939
 -1      1979    8    0    1
 -2       989       987      1029      3813      3939      3940
 -1      1980    8    0    1
 -2       951       950      1029      3681      3941      3938
 -1      1981    8    0    1
 -2       969       978      1030      3806      3942      3943
 -1      1982    8    0    1
 -2       978      1027      1030      3932      3944      3942
 -1      1983    8    0    1
 -2       918       917      1031      3777      3945      3946
 -1      1984    8    0    1
 -2       968       971      1032      3740      3947      3948
 -1      1985    8    0    1
 -2       973       916      1033      3748      3949      3950
 -1      1986    8    0    1
 -2       916       983      1033      3784      3951      3949
 -1      1987    8    0    1
 -2       920       919      1034      3583      3952      3953
 -1      1988    8    0    1
 -2       920      1034       990      3953      3954      3821
 -1      1989    8    0    1
 -2       917       905      1031      3786      3955      3945
 -1      1990    8    0    1
 -2       974       954      1035      3752      3956      3957
 -1      1991    8    0    1
 -2      1027       974      1035      3931      3957      3958
 -1      1992    8    0    1
 -2       954      1026      1035      3930      3959      3956
 -1      1993    8    0    1
 -2       971       979      1036      3787      3960      3961
 -1      1994    8    0    1
 -2       971      1036      1032      3961      3962      3947
 -1      1995    8    0    1
 -2       947       988      1037      3810      3963      3964
 -1      1996    8    0    1
 -2       948       947      1037      3672      3964      3965
 -1      1997    8    0    1
 -2       988       981      1037      3819      3966      3963
 -1      1998    8    0    1
 -2       979       969      1038      3766      3967      3968
 -1      1999    8    0    1
 -2       969      1030      1038      3943      3969      3967
 -1      2000    8    0    1
 -2       981       980      1039      3807      3970      3971
 -1      2001    8    0    1
 -2       909       944       985      3789      3888      3796
 -1      2002    8    0    1
 -2       919       967      1040      3933      3972      3973
 -1      2003    8    0    1
 -2      1034       919      1040      3952      3973      3974
 -1      2004    8    0    1
 -2       967       973      1040      3785      3975      3972
 -1      2005    8    0    1
 -2       942      1011       985      3884      3976      3886
 -1      2006    8    0    1
 -2      1040       973      1033      3975      3950      3977
 -1      2007    8    0    1
 -2      1012       948      1037      3890      3965      3978
 -1      2008    8    0    1
 -2       982       914      1041      3776      3979      3980
 -1      2009    8    0    1
 -2      1031       905       989      3955      3815      3981
 -1      2010    8    0    1
 -2       950      1013      1029      3893      3982      3941
 -1      2011    8    0    1
 -2      1026       952      1042      3929      3983      3984
 -1      2012    8    0    1
 -2       952       972      1042      3743      3985      3983
 -1      2013    8    0    1
 -2       981      1039      1037      3971      3986      3966
 -1      2014    8    0    1
 -2       977       968      1043      3760      3987      3988
 -1      2015    8    0    1
 -2       968      1032      1043      3948      3989      3987
 -1      2016    8    0    1
 -2       908       953       975      3685      3990      3799
 -1      2017    8    0    1
 -2       955      1015      1044      3898      3991      3992
 -1      2018    8    0    1
 -2       955      1044       972      3992      3993      3744
 -1      2019    8    0    1
 -2       980      1023      1045      3921      3994      3995
 -1      2020    8    0    1
 -2       980      1045      1039      3995      3996      3970
 -1      2021    8    0    1
 -2      1022       965      1046      3917      3997      3998
 -1      2022    8    0    1
 -2       965       966      1046      3723      3999      3997
 -1      2023    8    0    1
 -2       966       911      1024      3724      3923      4000
 -1      2024    8    0    1
 -2       984       918      1031      3793      3946      4001
 -1      2025    8    0    1
 -2      1036       979      1038      3960      3968      4002
 -1      2026    8    0    1
 -2       910       984      1028      3792      4003      3937
 -1      2027    8    0    1
 -2       975       953      1047      3990      4004      4005
 -1      2028    8    0    1
 -2       983       975      1047      3782      4005      4006
 -1      2029    8    0    1
 -2       953       977      1047      3759      4007      4004
 -1      2030    8    0    1
 -2      1041       914       986      3979      3802      4008
 -1      2031    8    0    1
 -2      1015      1014      1048      3899      4009      4010
 -1      2032    8    0    1
 -2       992       991      1049      3828      4011      4012
 -1      2033    8    0    1
 -2       993       992      1050      3831      4013      4014
 -1      2034    8    0    1
 -2       992      1049      1050      4012      4015      4013
 -1      2035    8    0    1
 -2       994       993      1051      3834      4016      4017
 -1      2036    8    0    1
 -2       993      1050      1051      4014      4018      4016
 -1      2037    8    0    1
 -2       995       994      1052      3837      4019      4020
 -1      2038    8    0    1
 -2       994      1051      1052      4017      4021      4019
 -1      2039    8    0    1
 -2       996       995      1053      3840      4022      4023
 -1      2040    8    0    1
 -2       995      1052      1053      4020      4024      4022
 -1      2041    8    0    1
 -2       997       996      1054      3843      4025      4026
 -1      2042    8    0    1
 -2       996      1053      1054      4023      4027      4025
 -1      2043    8    0    1
 -2       998       997      1055      3846      4028      4029
 -1      2044    8    0    1
 -2       997      1054      1055      4026      4030      4028
 -1      2045    8    0    1
 -2       999       998      1056      3849      4031      4032
 -1      2046    8    0    1
 -2       998      1055      1056      4029      4033      4031
 -1      2047    8    0    1
 -2      1000       999      1057      3852      4034      4035
 -1      2048    8    0    1
 -2       999      1056      1057      4032      4036      4034
 -1      2049    8    0    1
 -2      1001      1000      1058      3855      4037      4038
 -1      2050    8    0    1
 -2      1000      1057      1058      4035      4039      4037
 -1      2051    8    0    1
 -2      1002      1001      1059      3858      4040      4041
 -1      2052    8    0    1
 -2      1001      1058      1059      4038      4042      4040
 -1      2053    8    0    1
 -2      1003      1002      1060      3861      4043      4044
 -1      2054    8    0    1
 -2      1002      1059      1060      4041      4045      4043
 -1      2055    8    0    1
 -2      1004      1003      1061      3864      4046      4047
 -1      2056    8    0    1
 -2      1003      1060      1061      4044      4048      4046
 -1      2057    8    0    1
 -2      1005      1004      1062      3867      4049      4050
 -1      2058    8    0    1
 -2      1004      1061      1062      4047      4051      4049
 -1      2059    8    0    1
 -2      1006      1005      1063      3870      4052      4053
 -1      2060    8    0    1
 -2      1005      1062      1063      4050      4054      4052
 -1      2061    8    0    1
 -2      1007      1006      1064      3873      4055      4056
 -1      2062    8    0    1
 -2      1006      1063      1064      4053      4057      4055
 -1      2063    8    0    1
 -2      1008      1007      1065      3876      4058      4059
 -1      2064    8    0    1
 -2      1007      1064      1065      4056      4060      4058
 -1      2065    8    0    1
 -2      1009      1008      1066      3879      4061      4062
 -1      2066    8    0    1
 -2      1008      1065      1066      4059      4063      4061
 -1      2067    8    0    1
 -2      1010      1009      1067      3882      4064      4065
 -1      2068    8    0    1
 -2      1009      1066      1067      4062      4066      4064
 -1      2069    8    0    1
 -2      1011      1010      1041      3885      4067      4068
 -1      2070    8    0    1
 -2      1040      1033      1068      3977      4069      4070
 -1      2071    8    0    1
 -2      1040      1068      1034      4070      4071      3974
 -1      2072    8    0    1
 -2      1031       989      1069      3981      4072      4073
 -1      2073    8    0    1
 -2      1038      1030      1070      3969      4074      4075
 -1      2074    8    0    1
 -2      1017      1018      1071      3907      4076      4077
 -1      2075    8    0    1
 -2      1016      1017      1072      3904      4078      4079
 -1      2076    8    0    1
 -2      1017      1071      1072      4077      4080      4078
 -1      2077    8    0    1
 -2      1019      1020      1073      3913      4081      4082
 -1      2078    8    0    1
 -2      1020      1021      1074      3916      4083      4084
 -1      2079    8    0    1
 -2      1020      1074      1073      4084      4085      4081
 -1      2080    8    0    1
 -2      1021      1022      1075      3919      4086      4087
 -1      2081    8    0    1
 -2      1021      1075      1074      4087      4088      4083
 -1      2082    8    0    1
 -2       966      1024      1046      4000      4089      3999
 -1      2083    8    0    1
 -2       984      1031      1045      4001      4090      4091
 -1      2084    8    0    1
 -2      1036      1038      1076      4002      4092      4093
 -1      2085    8    0    1
 -2      1038      1070      1076      4075      4094      4092
 -1      2086    8    0    1
 -2       986       913      1077      3800      4095      4096
 -1      2087    8    0    1
 -2      1037      1039      1012      3986      4097      3978
 -1      2088    8    0    1
 -2      1033       983      1078      3951      4098      4099
 -1      2089    8    0    1
 -2      1033      1078      1068      4099      4100      4069
 -1      2090    8    0    1
 -2      1030      1027      1079      3944      4101      4102
 -1      2091    8    0    1
 -2      1030      1079      1070      4102      4103      4074
 -1      2092    8    0    1
 -2       989      1029      1069      3940      4104      4072
 -1      2093    8    0    1
 -2      1032      1036      1080      3962      4105      4106
 -1      2094    8    0    1
 -2      1036      1076      1080      4093      4107      4105
 -1      2095    8    0    1
 -2      1018      1019      1081      3910      4108      4109
 -1      2096    8    0    1
 -2      1018      1081      1071      4109      4110      4076
 -1      2097    8    0    1
 -2       990      1034      1082      3954      4111      4112
 -1      2098    8    0    1
 -2      1034      1068      1082      4071      4113      4111
 -1      2099    8    0    1
 -2       991       990      1083      3825      4114      4115
 -1      2100    8    0    1
 -2      1049       991      1083      4011      4115      4116
 -1      2101    8    0    1
 -2       990      1082      1083      4112      4117      4114
 -1      2102    8    0    1
 -2      1041       986      1011      4008      4118      4068
 -1      2103    8    0    1
 -2      1023      1028       984      3936      4003      4119
 -1      2104    8    0    1
 -2      1022      1046      1084      3998      4120      4121
 -1      2105    8    0    1
 -2      1022      1084      1075      4121      4122      4086
 -1      2106    8    0    1
 -2      1024       982      1085      3924      4123      4124
 -1      2107    8    0    1
 -2      1046      1024      1085      4089      4124      4125
 -1      2108    8    0    1
 -2       982      1041      1085      3980      4126      4123
 -1      2109    8    0    1
 -2      1023       984      1045      4119      4091      3994
 -1      2110    8    0    1
 -2      1012      1039      1086      4097      4127      4128
 -1      2111    8    0    1
 -2      1013      1012      1086      3894      4128      4129
 -1      2112    8    0    1
 -2      1039      1045      1086      3996      4130      4127
 -1      2113    8    0    1
 -2      1041      1010      1067      4067      4065      4131
 -1      2114    8    0    1
 -2      1032      1080      1087      4106      4132      4133
 -1      2115    8    0    1
 -2      1032      1087      1043      4133      4134      3989
 -1      2116    8    0    1
 -2      1048      1014      1088      4009      4135      4136
 -1      2117    8    0    1
 -2      1014      1025      1088      3927      4137      4135
 -1      2118    8    0    1
 -2      1019      1073      1081      4082      4138      4108
 -1      2119    8    0    1
 -2      1042       972      1044      3985      3993      4139
 -1      2120    8    0    1
 -2      1044      1015      1089      3991      4140      4141
 -1      2121    8    0    1
 -2      1015      1048      1089      4010      4142      4140
 -1      2122    8    0    1
 -2      1013      1086      1069      4129      4143      4144
 -1      2123    8    0    1
 -2      1016      1072      1090      4079      4145      4146
 -1      2124    8    0    1
 -2      1016      1090      1025      4146      4147      3928
 -1      2125    8    0    1
 -2      1046      1085      1084      4125      4148      4120
 -1      2126    8    0    1
 -2      1026      1042      1091      3984      4149      4150
 -1      2127    8    0    1
 -2      1069      1029      1013      4104      3982      4144
 -1      2128    8    0    1
 -2      1077       913       985      4095      3798      4151
 -1      2129    8    0    1
 -2      1047       977      1043      4007      3988      4152
 -1      2130    8    0    1
 -2      1078       983      1047      4098      4006      4153
 -1      2131    8    0    1
 -2      1079      1027      1092      4101      4154      4155
 -1      2132    8    0    1
 -2      1027      1035      1092      3958      4156      4154
 -1      2133    8    0    1
 -2      1035      1026      1093      3959      4157      4158
 -1      2134    8    0    1
 -2      1092      1035      1093      4156      4158      4159
 -1      2135    8    0    1
 -2      1026      1091      1093      4150      4160      4157
 -1      2136    8    0    1
 -2      1051      1050      1070      4018      4161      4162
 -1      2137    8    0    1
 -2      1052      1051      1079      4021      4163      4164
 -1      2138    8    0    1
 -2      1053      1052      1092      4024      4165      4166
 -1      2139    8    0    1
 -2      1054      1053      1093      4027      4167      4168
 -1      2140    8    0    1
 -2      1055      1054      1091      4030      4169      4170
 -1      2141    8    0    1
 -2      1056      1055      1091      4033      4170      4171
 -1      2142    8    0    1
 -2      1057      1056      1089      4036      4172      4173
 -1      2143    8    0    1
 -2      1058      1057      1048      4039      4174      4175
 -1      2144    8    0    1
 -2      1059      1058      1088      4042      4176      4177
 -1      2145    8    0    1
 -2      1060      1059      1090      4045      4178      4179
 -1      2146    8    0    1
 -2      1061      1060      1072      4048      4180      4181
 -1      2147    8    0    1
 -2      1062      1061      1071      4051      4182      4183
 -1      2148    8    0    1
 -2      1063      1062      1081      4054      4184      4185
 -1      2149    8    0    1
 -2      1064      1063      1073      4057      4186      4187
 -1      2150    8    0    1
 -2      1065      1064      1074      4060      4188      4189
 -1      2151    8    0    1
 -2      1066      1065      1075      4063      4190      4191
 -1      2152    8    0    1
 -2      1067      1066      1084      4066      4192      4193
 -1      2153    8    0    1
 -2      1071      1061      1072      4182      4181      4080
 -1      2154    8    0    1
 -2      1072      1060      1090      4180      4179      4145
 -1      2155    8    0    1
 -2      1075      1065      1074      4190      4189      4088
 -1      2156    8    0    1
 -2      1069      1086      1045      4143      4130      4194
 -1      2157    8    0    1
 -2      1069      1045      1031      4194      4090      4073
 -1      2158    8    0    1
 -2      1073      1074      1064      4085      4188      4187
 -1      2159    8    0    1
 -2      1076      1070      1050      4094      4161      4195
 -1      2160    8    0    1
 -2      1081      1073      1063      4138      4186      4185
 -1      2161    8    0    1
 -2      1071      1081      1062      4110      4184      4183
 -1      2162    8    0    1
 -2      1084      1085      1067      4148      4196      4193
 -1      2163    8    0    1
 -2      1048      1057      1089      4174      4173      4142
 -1      2164    8    0    1
 -2      1070      1079      1051      4103      4163      4162
 -1      2165    8    0    1
 -2      1091      1054      1093      4169      4168      4160
 -1      2166    8    0    1
 -2      1050      1049      1076      4015      4197      4195
 -1      2167    8    0    1
 -2      1068      1078      1082      4100      4198      4113
 -1      2168    8    0    1
 -2      1080      1076      1049      4107      4197      4199
 -1      2169    8    0    1
 -2      1041      1067      1085      4131      4196      4126
 -1      2170    8    0    1
 -2      1042      1044      1094      4139      4200      4201
 -1      2171    8    0    1
 -2      1091      1042      1094      4149      4201      4202
 -1      2172    8    0    1
 -2      1044      1089      1094      4141      4203      4200
 -1      2173    8    0    1
 -2      1080      1049      1083      4199      4116      4204
 -1      2174    8    0    1
 -2      1047      1043      1078      4152      4205      4153
 -1      2175    8    0    1
 -2      1084      1066      1075      4192      4191      4122
 -1      2176    8    0    1
 -2      1052      1079      1092      4164      4155      4165
 -1      2177    8    0    1
 -2      1058      1048      1088      4175      4136      4176
 -1      2178    8    0    1
 -2      1082      1078      1043      4198      4205      4206
 -1      2179    8    0    1
 -2      1053      1092      1093      4166      4159      4167
 -1      2180    8    0    1
 -2      1056      1091      1094      4171      4202      4207
 -1      2181    8    0    1
 -2      1089      1056      1094      4172      4207      4203
 -1      2182    8    0    1
 -2      1059      1088      1090      4177      4208      4178
 -1      2183    8    0    1
 -2      1087      1080      1083      4132      4204      4209
 -1      2184    8    0    1
 -2      1088      1025      1090      4137      4147      4208
 -1      2185    8    0    1
 -2       986      1077      1011      4096      4210      4118
 -1      2186    8    0    1
 -2      1011      1077       985      4210      4151      3976
 -1      2187    8    0    1
 -2      1082      1043      1083      4206      4211      4117
 -1      2188    8    0    1
 -2      1043      1087      1083      4134      4209      4211
 -3
    1PSTEP                         1           1           1          
  100CL  101 1.000000000        4211                     0    1           1
 -4  DISP        4    1
 -5  D1          1    2    1    0
 -5  D2          1    2    2    0
 -5  D3          1    2    3    0
 -5  ALL         1    2    0    0    1ALL
 -1         1 8.58574E-03 2.62263E-04-6.94181E-14
 -1         2 1.32600E-02 1.09795E-03-8.66983E-14
 -1         3 1.68381E-02 3.49865E-03-1.44300E-13
 -1         4 1.37471E-02 2.15829E-03-1.45760E-13
 -1         5 0.00000E+00 0.00000E+00 0.00000E+00
 -1         6 0.00000E+00 0.00000E+00 0.00000E+00
 -1         7 0.00000E+00 0.00000E+00 0.00000E+00
 -1         8 0.00000E+00 0.00000E+00 0.00000E+00
 -1         9 0.00000E+00 0.00000E+00 0.00000E+00
 -1        10 0.00000E+00 0.00000E+00 0.00000E+00
 -1        11 0.00000E+00 0.00000E+00 0.00000E+00
 -1        12 0.00000E+00 0.00000E+00 0.00000E+00
 -1        13 0.00000E+00 0.00000E+00 0.00000E+00
 -1        14 0.00000E+00 0.00000E+00 0.00000E+00
 -1        15 0.00000E+00 0.00000E+00 0.00000E+00
 -1        16 0.00000E+00 0.00000E+00 0.00000E+00
 -1        17 0.00000E+00 0.00000E+00 0.00000E+00
 -1        18 0.00000E+00 0.00000E+00 0.00000E+00
 -1        19 0.00000E+00 0.00000E+00 0.00000E+00
 -1        20 0.00000E+00 0.00000E+00 0.00000E+00
 -1        21 0.00000E+00 0.00000E+00 0.00000E+00
 -1        22 0.00000E+00 0.00000E+00 0.00000E+00
 -1        23 4.11516E-04-2.60854E-04 4.70510E-17
 -1        24 7.03578E-04-4.01209E-04-7.69072E-17
 -1        25 9.73696E-04-4.98690E-04-3.67870E-16
 -1        26 1.23822E-03-5.67530E-04-8.23228E-16
 -1        27 1.50178E-03-6.16870E-04-1.44000E-15
 -1        28 1.76646E-03-6.52093E-04-2.21381E-15
 -1        29 2.03323E-03-6.76903E-04-3.14198E-15
 -1        30 2.30245E-03-6.93992E-04-4.21947E-15
 -1        31 2.57420E-03-7.05379E-04-5.44369E-15
 -1        32 2.84832E-03-7.12586E-04-6.81614E-15
 -1        33 3.12462E-03-7.16765E-04-8.33306E-15
 -1        34 3.40283E-03-7.18777E-04-9.98868E-15
 -1        35 3.68268E-03-7.19258E-04-1.17822E-14
 -1        36 3.96395E-03-7.18672E-04-1.37075E-14
 -1        37 4.24643E-03-7.17353E-04-1.57582E-14
 -1        38 4.52998E-03-7.15541E-04-1.79310E-14
 -1        39 4.81448E-03-7.13420E-04-2.02206E-14
 -1        40 5.09988E-03-7.11145E-04-2.26279E-14
 -1        41 5.38616E-03-7.08872E-04-2.51548E-14
 -1        42 5.67335E-03-7.06783E-04-2.77937E-14
 -1        43 5.96144E-03-7.05110E-04-3.05404E-14
 -1        44 6.25041E-03-7.04154E-04-3.33949E-14
 -1        45 6.54013E-03-7.04277E-04-3.63528E-14
 -1        46 6.83029E-03-7.05879E-04-3.94186E-14
 -1        47 7.12031E-03-7.09325E-04-4.25785E-14
 -1        48 7.40926E-03-7.14817E-04-4.58311E-14
 -1        49 7.69576E-03-7.22181E-04-4.91799E-14
 -1        50 7.97796E-03-7.30598E-04-5.26255E-14
 -1        51 8.25373E-03-7.38292E-04-5.61690E-14
 -1        52 8.52088E-03-7.42272E-04-5.97990E-14
 -1        53 8.77768E-03-7.38262E-04-6.35008E-14
 -1        54 9.02343E-03-7.20962E-04-6.72766E-14
 -1        55 9.25899E-03-6.84730E-04-7.11199E-14
 -1        56 9.48698E-03-6.24614E-04-7.50303E-14
 -1        57 9.71151E-03-5.37455E-04-7.90190E-14
 -1        58 9.93741E-03-4.22673E-04-8.30839E-14
 -1        59 1.01692E-02-2.82419E-04-8.72327E-14
 -1        60 1.04101E-02-1.21013E-04-9.14527E-14
 -1        61 1.06618E-02 5.60747E-05-9.57429E-14
 -1        62 1.09240E-02 2.43340E-04-1.00100E-13
 -1        63 1.11954E-02 4.36091E-04-1.04525E-13
 -1        64 1.14737E-02 6.30891E-04-1.09017E-13
 -1        65 1.17569E-02 8.25614E-04-1.13564E-13
 -1        66 1.20428E-02 1.01924E-03-1.18156E-13
 -1        67 1.23299E-02 1.21158E-03-1.22774E-13
 -1        68 1.26171E-02 1.40291E-03-1.27399E-13
 -1        69 1.29038E-02 1.59377E-03-1.32038E-13
 -1        70 1.31900E-02 1.78472E-03-1.36681E-13
 -1        71 1.34757E-02 1.97610E-03-1.41328E-13
 -1        72 3.95526E-04 2.52363E-04 6.78372E-17
 -1        73 6.89788E-04 3.95558E-04-1.37423E-17
 -1        74 9.60441E-04 4.94754E-04-2.50783E-16
 -1        75 1.22512E-03 5.64758E-04-6.43908E-16
 -1        76 1.48867E-03 6.14931E-04-1.19135E-15
 -1        77 1.75327E-03 6.50769E-04-1.89245E-15
 -1        78 2.01991E-03 6.76037E-04-2.74468E-15
 -1        79 2.27549E-03 6.92754E-04-3.69304E-15
 -1        80 2.54697E-03 7.04647E-04-4.83545E-15
 -1        81 2.82084E-03 7.12222E-04-6.12748E-15
 -1        82 3.09690E-03 7.16658E-04-7.56338E-15
 -1        83 3.37487E-03 7.18835E-04-9.14256E-15
 -1        84 3.65449E-03 7.19393E-04-1.08638E-14
 -1        85 3.93551E-03 7.18788E-04-1.27228E-14
 -1        86 4.21773E-03 7.17328E-04-1.47193E-14
 -1        87 4.48680E-03 7.15323E-04-1.67346E-14
 -1        88 4.77096E-03 7.12660E-04-1.89810E-14
 -1        89 5.05607E-03 7.09462E-04-2.13588E-14
 -1        90 5.34220E-03 7.05706E-04-2.38574E-14
 -1        91 5.62958E-03 7.01332E-04-2.64686E-14
 -1        92 5.91864E-03 6.96262E-04-2.91889E-14
 -1        93 6.21006E-03 6.90437E-04-3.20168E-14
 -1        94 6.50495E-03 6.83874E-04-3.49582E-14
 -1        95 6.78990E-03 6.77180E-04-3.78487E-14
 -1        96 7.09749E-03 6.70289E-04-4.09779E-14
 -1        97 7.41699E-03 6.65164E-04-4.41917E-14
 -1        98 7.75470E-03 6.65342E-04-4.74944E-14
 -1        99 8.11981E-03 6.78121E-04-5.08803E-14
 -1       100 8.52466E-03 7.17777E-04-5.43389E-14
 -1       101 8.98263E-03 8.10224E-04-5.78560E-14
 -1       102 9.49951E-03 9.96306E-04-6.14427E-14
 -1       103 1.00262E-02 1.30155E-03-6.49227E-14
 -1       104 1.05509E-02 1.76459E-03-6.86624E-14
 -1       105 1.08987E-02 2.18669E-03-7.19163E-14
 -1       106 1.11603E-02 2.49184E-03-7.56441E-14
 -1       107 1.13952E-02 2.46768E-03-7.94668E-14
 -1       108 1.16991E-02 2.23534E-03-8.29748E-14
 -1       109 1.20850E-02 1.98456E-03-8.63569E-14
 -1       110 1.25787E-02 1.78753E-03-9.02301E-14
 -1       111 1.31215E-02 1.71316E-03-9.45897E-14
 -1       112 1.36124E-02 1.75940E-03-9.90192E-14
 -1       113 1.40447E-02 1.87967E-03-1.03512E-13
 -1       114 1.44290E-02 2.03952E-03-1.08047E-13
 -1       115 1.47619E-02 2.20937E-03-1.12377E-13
 -1       116 1.50890E-02 2.39637E-03-1.16951E-13
 -1       117 1.53999E-02 2.58608E-03-1.21526E-13
 -1       118 1.57000E-02 2.77547E-03-1.26113E-13
 -1       119 1.59929E-02 2.96288E-03-1.30704E-13
 -1       120 1.62811E-02 3.14734E-03-1.35318E-13
 -1       121 1.65669E-02 3.32858E-03-1.39928E-13
 -1       122 1.66625E-02 3.41407E-03-1.44431E-13
 -1       123 1.64891E-02 3.33003E-03-1.44576E-13
 -1       124 1.63180E-02 3.24827E-03-1.44752E-13
 -1       125 1.61478E-02 3.16991E-03-1.44924E-13
 -1       126 1.59763E-02 3.09489E-03-1.45079E-13
 -1       127 1.58048E-02 3.02349E-03-1.45204E-13
 -1       128 1.56265E-02 2.95190E-03-1.45304E-13
 -1       129 1.54442E-02 2.87994E-03-1.45371E-13
 -1       130 1.52583E-02 2.80649E-03-1.45408E-13
 -1       131 1.50698E-02 2.73089E-03-1.45435E-13
 -1       132 1.48798E-02 2.65296E-03-1.45485E-13
 -1       133 1.46923E-02 2.57425E-03-1.45564E-13
 -1       134 1.45016E-02 2.49245E-03-1.45633E-13
 -1       135 1.43113E-02 2.40938E-03-1.45676E-13
 -1       136 1.41216E-02 2.32548E-03-1.45710E-13
 -1       137 1.39325E-02 2.24121E-03-1.45733E-13
 -1       138 1.32928E-02 1.30141E-03-8.63678E-14
 -1       139 1.32148E-02 1.49536E-03-8.56290E-14
 -1       140 1.30174E-02 1.69866E-03-8.44587E-14
 -1       141 1.27288E-02 1.88641E-03-8.30739E-14
 -1       142 1.23012E-02 2.07375E-03-8.13009E-14
 -1       143 1.17843E-02 2.20848E-03-7.93891E-14
 -1       144 1.11449E-02 2.25497E-03-7.71987E-14
 -1       145 1.05445E-02 2.17987E-03-7.52456E-14
 -1       146 9.98467E-03 2.01077E-03-7.34538E-14
 -1       147 9.44268E-03 1.76211E-03-7.17079E-14
 -1       148 9.01590E-03 1.50335E-03-7.03074E-14
 -1       149 8.67495E-03 1.24081E-03-6.91757E-14
 -1       150 8.45541E-03 1.01153E-03-6.84591E-14
 -1       151 8.33224E-03 8.00990E-04-6.80953E-14
 -1       152 8.30801E-03 5.88904E-04-6.81253E-14
 -1       153 8.39186E-03 4.16474E-04-6.85560E-14
 -1       154 8.84586E-03 1.49568E-04-7.05140E-14
 -1       155 9.18582E-03 6.44953E-05-7.19226E-14
 -1       156 9.58507E-03 1.34156E-05-7.35633E-14
 -1       157 1.00159E-02-1.64067E-06-7.53128E-14
 -1       158 1.04807E-02 1.84781E-05-7.71744E-14
 -1       159 1.09871E-02 7.87422E-05-7.91803E-14
 -1       160 1.14395E-02 1.64285E-04-8.09267E-14
 -1       161 1.19056E-02 2.87346E-04-8.26716E-14
 -1       162 1.23067E-02 4.26933E-04-8.41061E-14
 -1       163 1.26511E-02 5.81522E-04-8.52561E-14
 -1       164 1.29276E-02 7.45507E-04-8.60796E-14
 -1       165 1.31379E-02 9.21828E-04-8.65803E-14
 -1       166 2.40450E-04-1.25591E-04-3.00358E-17
 -1       167 2.25296E-04-9.46930E-05-5.37256E-17
 -1       168 2.19543E-04-7.28636E-05-6.65294E-17
 -1       169 2.16722E-04-5.51933E-05-7.35225E-17
 -1       170 2.15221E-04-4.00642E-05-7.69614E-17
 -1       171 2.14380E-04-2.60260E-05-7.83810E-17
 -1       172 2.13956E-04-1.27724E-05-7.88893E-17
 -1       173 2.13828E-04 1.21463E-07-7.85200E-17
 -1       174 2.13962E-04 1.30191E-05-7.74120E-17
 -1       175 2.14394E-04 2.62847E-05-7.53351E-17
 -1       176 2.15226E-04 4.00975E-05-7.18115E-17
 -1       177 2.16762E-04 5.55089E-05-6.61600E-17
 -1       178 2.19616E-04 7.32373E-05-5.70189E-17
 -1       179 2.25443E-04 9.51742E-05-4.16503E-17
 -1       180 2.40766E-04 1.26321E-04-1.52974E-17
 -1       181 4.68733E-04-2.63707E-04-8.26670E-17
 -1       182 7.66930E-04-3.82410E-04-3.23133E-16
 -1       183 1.05082E-03-4.65393E-04-7.19887E-16
 -1       184 1.32824E-03-5.24257E-04-1.27319E-15
 -1       185 1.60286E-03-5.66023E-04-1.98142E-15
 -1       186 1.87677E-03-5.95371E-04-2.84198E-15
 -1       187 2.15110E-03-6.15602E-04-3.85173E-15
 -1       188 2.42645E-03-6.29135E-04-5.00804E-15
 -1       189 2.70309E-03-6.37778E-04-6.30926E-15
 -1       190 2.98109E-03-6.42888E-04-7.75424E-15
 -1       191 3.26041E-03-6.45477E-04-9.33904E-15
 -1       192 3.54097E-03-6.46291E-04-1.10604E-14
 -1       193 3.82264E-03-6.45872E-04-1.29164E-14
 -1       194 4.10530E-03-6.44608E-04-1.48995E-14
 -1       195 4.38885E-03-6.42772E-04-1.70084E-14
 -1       196 4.67320E-03-6.40562E-04-1.92365E-14
 -1       197 4.95832E-03-6.38135E-04-2.15822E-14
 -1       198 5.24417E-03-6.35632E-04-2.40449E-14
 -1       199 5.53074E-03-6.33215E-04-2.66232E-14
 -1       200 5.81803E-03-6.31089E-04-2.93089E-14
 -1       201 6.10602E-03-6.29528E-04-3.21057E-14
 -1       202 6.39463E-03-6.28885E-04-3.50089E-14
 -1       203 6.68368E-03-6.29586E-04-3.80141E-14
 -1       204 6.97285E-03-6.32084E-04-4.11208E-14
 -1       205 7.26160E-03-6.36763E-04-4.43200E-14
 -1       206 7.54910E-03-6.43764E-04-4.76154E-14
 -1       207 7.83428E-03-6.52731E-04-5.10058E-14
 -1       208 8.11579E-03-6.62480E-04-5.44937E-14
 -1       209 8.39218E-03-6.70668E-04-5.80715E-14
 -1       210 8.66214E-03-6.73564E-04-6.17312E-14
 -1       211 8.92486E-03-6.66094E-04-6.54634E-14
 -1       212 9.18039E-03-6.42328E-04-6.92673E-14
 -1       213 9.42990E-03-5.96414E-04-7.31404E-14
 -1       214 9.67565E-03-5.23815E-04-7.70832E-14
 -1       215 9.92068E-03-4.22427E-04-8.11052E-14
 -1       216 1.01682E-02-2.93140E-04-8.52099E-14
 -1       217 1.04207E-02-1.39590E-04-8.93871E-14
 -1       218 1.06800E-02 3.27820E-05-9.36365E-14
 -1       219 1.09464E-02 2.17968E-04-9.79526E-14
 -1       220 1.12195E-02 4.10506E-04-1.02338E-13
 -1       221 1.14981E-02 6.06159E-04-1.06787E-13
 -1       222 1.17806E-02 8.02137E-04-1.11292E-13
 -1       223 1.20658E-02 9.96964E-04-1.15849E-13
 -1       224 1.23523E-02 1.19017E-03-1.20444E-13
 -1       225 1.26393E-02 1.38196E-03-1.25059E-13
 -1       226 1.29262E-02 1.57286E-03-1.29691E-13
 -1       227 1.32127E-02 1.76355E-03-1.34331E-13
 -1       228 1.34988E-02 1.95458E-03-1.38979E-13
 -1       229 4.53621E-04 2.56815E-04-4.23381E-17
 -1       230 7.52515E-04 3.77570E-04-2.39595E-16
 -1       231 1.03690E-03 4.62044E-04-5.83551E-16
 -1       232 1.31454E-03 5.21922E-04-1.07723E-15
 -1       233 1.58924E-03 5.64421E-04-1.72139E-15
 -1       234 1.86315E-03 5.94312E-04-2.51511E-15
 -1       235 2.12370E-03 6.14098E-04-3.40616E-15
 -1       236 2.39892E-03 6.28222E-04-4.48758E-15
 -1       237 2.67541E-03 6.37298E-04-5.71426E-15
 -1       238 2.95326E-03 6.42717E-04-7.08572E-15
 -1       239 3.23243E-03 6.45514E-04-8.59926E-15
 -1       240 3.51283E-03 6.46449E-04-1.02534E-14
 -1       241 3.79434E-03 6.46062E-04-1.20461E-14
 -1       242 4.07685E-03 6.44724E-04-1.39736E-14
 -1       243 4.34607E-03 6.42786E-04-1.59282E-14
 -1       244 4.63029E-03 6.40171E-04-1.81111E-14
 -1       245 4.91534E-03 6.37013E-04-2.04209E-14
 -1       246 5.20129E-03 6.33290E-04-2.28556E-14
 -1       247 5.48828E-03 6.28928E-04-2.54079E-14
 -1       248 5.77660E-03 6.23815E-04-2.80740E-14
 -1       249 6.06667E-03 6.17816E-04-3.08467E-14
 -1       250 6.35919E-03 6.10815E-04-3.37295E-14
 -1       251 6.64027E-03 6.03219E-04-3.65660E-14
 -1       252 6.94092E-03 5.94427E-04-3.96464E-14
 -1       253 7.24856E-03 5.85609E-04-4.28144E-14
 -1       254 7.56621E-03 5.78777E-04-4.60670E-14
 -1       255 7.89799E-03 5.78505E-04-4.94057E-14
 -1       256 8.24921E-03 5.94415E-04-5.28213E-14
 -1       257 8.62619E-03 6.45394E-04-5.63047E-14
 -1       258 9.03528E-03 7.65034E-04-5.98504E-14
 -1       259 9.45746E-03 9.87565E-04-6.32849E-14
 -1       260 9.93284E-03 1.38008E-03-6.69821E-14
 -1       261 1.03515E-02 1.82151E-03-7.01914E-14
 -1       262 1.08086E-02 2.27991E-03-7.38645E-14
 -1       263 1.12505E-02 2.44455E-03-7.76355E-14
 -1       264 1.16546E-02 2.28337E-03-8.10942E-14
 -1       265 1.20432E-02 2.00799E-03-8.44278E-14
 -1       266 1.24822E-02 1.74252E-03-8.82579E-14
 -1       267 1.29466E-02 1.60128E-03-9.25851E-14
 -1       268 1.33753E-02 1.60720E-03-9.69721E-14
 -1       269 1.37689E-02 1.70836E-03-1.01416E-13
 -1       270 1.41328E-02 1.86141E-03-1.05907E-13
 -1       271 1.44569E-02 2.03038E-03-1.10211E-13
 -1       272 1.47809E-02 2.21896E-03-1.14766E-13
 -1       273 1.50920E-02 2.41120E-03-1.19341E-13
 -1       274 1.53940E-02 2.60335E-03-1.23927E-13
 -1       275 1.56895E-02 2.79350E-03-1.28521E-13
 -1       276 1.59805E-02 2.98060E-03-1.33126E-13
 -1       277 1.62686E-02 3.16406E-03-1.37747E-13
 -1       278 1.63281E-02 3.21777E-03-1.40525E-13
 -1       279 1.61566E-02 3.13576E-03-1.40668E-13
 -1       280 1.59871E-02 3.05605E-03-1.40816E-13
 -1       281 1.58172E-02 2.97877E-03-1.40958E-13
 -1       282 1.56479E-02 2.90470E-03-1.41085E-13
 -1       283 1.54719E-02 2.83042E-03-1.41189E-13
 -1       284 1.52914E-02 2.75623E-03-1.41272E-13
 -1       285 1.51068E-02 2.68122E-03-1.41338E-13
 -1       286 1.49190E-02 2.60479E-03-1.41391E-13
 -1       287 1.47290E-02 2.52664E-03-1.41446E-13
 -1       288 1.45413E-02 2.44815E-03-1.41508E-13
 -1       289 1.43501E-02 2.36682E-03-1.41569E-13
 -1       290 1.41592E-02 2.28432E-03-1.41619E-13
 -1       291 1.39691E-02 2.20098E-03-1.41654E-13
 -1       292 1.37338E-02 2.07787E-03-1.40318E-13
 -1       293 1.33237E-02 1.20918E-03-8.83749E-14
 -1       294 1.32668E-02 1.32065E-03-8.76303E-14
 -1       295 1.30599E-02 1.45479E-03-8.67085E-14
 -1       296 1.27466E-02 1.65745E-03-8.49884E-14
 -1       297 1.23340E-02 1.89352E-03-8.31717E-14
 -1       298 1.18716E-02 2.14947E-03-8.09595E-14
 -1       299 1.13916E-02 2.33345E-03-7.85245E-14
 -1       300 1.09215E-02 2.32964E-03-7.60470E-14
 -1       301 1.04681E-02 2.13898E-03-7.38337E-14
 -1       302 9.96731E-03 1.82074E-03-7.17503E-14
 -1       303 9.45978E-03 1.46762E-03-6.99084E-14
 -1       304 9.00345E-03 1.15287E-03-6.83489E-14
 -1       305 8.62247E-03 9.42949E-04-6.74580E-14
 -1       306 8.38464E-03 7.84412E-04-6.68375E-14
 -1       307 8.27228E-03 6.51361E-04-6.62349E-14
 -1       308 8.32423E-03 5.57685E-04-6.68060E-14
 -1       309 8.51606E-03 4.55340E-04-6.74592E-14
 -1       310 8.80364E-03 3.22084E-04-6.87772E-14
 -1       311 9.15588E-03 1.94796E-04-7.00961E-14
 -1       312 9.52590E-03 6.02614E-05-7.19552E-14
 -1       313 9.89736E-03-3.47967E-05-7.39776E-14
 -1       314 1.02710E-02-7.05128E-05-7.60855E-14
 -1       315 1.06566E-02-3.62197E-05-7.83760E-14
 -1       316 1.10637E-02 8.66912E-05-8.05577E-14
 -1       317 1.14685E-02 2.63173E-04-8.26717E-14
 -1       318 1.19017E-02 4.75106E-04-8.45733E-14
 -1       319 1.23254E-02 6.70881E-04-8.60325E-14
 -1       320 1.27004E-02 8.47516E-04-8.72107E-14
 -1       321 1.30111E-02 1.00050E-03-8.81203E-14
 -1       322 1.32274E-02 1.10633E-03-8.83741E-14
 -1       323 4.55337E-04-1.64909E-04-2.27601E-16
 -1       324 4.74328E-04-2.13143E-04-1.89020E-16
 -1       325 4.40452E-04-9.42035E-05-2.64091E-16
 -1       326 4.37473E-04-6.51218E-05-2.71122E-16
 -1       327 4.35838E-04-3.81449E-05-2.74310E-16
 -1       328 4.35114E-04-1.22936E-05-2.74567E-16
 -1       329 4.35127E-04 1.32106E-05-2.72480E-16
 -1       330 4.35883E-04 3.90893E-05-2.67520E-16
 -1       331 4.37519E-04 6.56534E-05-2.59538E-16
 -1       332 4.40531E-04 9.47912E-05-2.46951E-16
 -1       333 4.45856E-04 1.27494E-04-2.27909E-16
 -1       334 4.55681E-04 1.66073E-04-1.98626E-16
 -1       335 4.75052E-04 2.14799E-04-1.53557E-16
 -1       336 1.28570E-02 1.49822E-03-8.73417E-14
 -1       337 8.63401E-04-3.57712E-04-5.98951E-16
 -1       338 1.14978E-03-4.26563E-04-1.09416E-15
 -1       339 1.43259E-03-4.75814E-04-1.74066E-15
 -1       340 1.71333E-03-5.10614E-04-2.53714E-15
 -1       341 1.99313E-03-5.34750E-04-3.48148E-15
 -1       342 2.27276E-03-5.51043E-04-4.57138E-15
 -1       343 2.55268E-03-5.61604E-04-5.80433E-15
 -1       344 2.83316E-03-5.68018E-04-7.17928E-15
 -1       345 3.11433E-03-5.71469E-04-8.69424E-15
 -1       346 3.39623E-03-5.72835E-04-1.03464E-14
 -1       347 3.67884E-03-5.72752E-04-1.21315E-14
 -1       348 3.96212E-03-5.71676E-04-1.40489E-14
 -1       349 4.24603E-03-5.69927E-04-1.60917E-14
 -1       350 4.53052E-03-5.67730E-04-1.82585E-14
 -1       351 4.81557E-03-5.65247E-04-2.05430E-14
 -1       352 5.10117E-03-5.62615E-04-2.29437E-14
 -1       353 5.38731E-03-5.59974E-04-2.54580E-14
 -1       354 5.67402E-03-5.57493E-04-2.80854E-14
 -1       355 5.96131E-03-5.55404E-04-3.08245E-14
 -1       356 6.24918E-03-5.54019E-04-3.36712E-14
 -1       357 6.53763E-03-5.53740E-04-3.66200E-14
 -1       358 6.82657E-03-5.55040E-04-3.96710E-14
 -1       359 7.11580E-03-5.58402E-04-4.28186E-14
 -1       360 7.40498E-03-5.64199E-04-4.60597E-14
 -1       361 7.69359E-03-5.72477E-04-4.93960E-14
 -1       362 7.98082E-03-5.82657E-04-5.28279E-14
 -1       363 8.26566E-03-5.93157E-04-5.63556E-14
 -1       364 8.54694E-03-6.01030E-04-5.99661E-14
 -1       365 8.82356E-03-6.01774E-04-6.36561E-14
 -1       366 9.09485E-03-5.89505E-04-6.74195E-14
 -1       367 9.36093E-03-5.57691E-04-7.12544E-14
 -1       368 9.62297E-03-5.00404E-04-7.51583E-14
 -1       369 9.88312E-03-4.13780E-04-7.91340E-14
 -1       370 1.01440E-02-2.97109E-04-8.31914E-14
 -1       371 1.04081E-02-1.53039E-04-8.73276E-14
 -1       372 1.06769E-02 1.31973E-05-9.15387E-14
 -1       373 1.09510E-02 1.95164E-04-9.58161E-14
 -1       374 1.12300E-02 3.86625E-04-1.00160E-13
 -1       375 1.15129E-02 5.82516E-04-1.04571E-13
 -1       376 1.17984E-02 7.79347E-04-1.09041E-13
 -1       377 1.20856E-02 9.75141E-04-1.13564E-13
 -1       378 1.23734E-02 1.16912E-03-1.18127E-13
 -1       379 1.26613E-02 1.36133E-03-1.22722E-13
 -1       380 1.29489E-02 1.55227E-03-1.27341E-13
 -1       381 1.32359E-02 1.74266E-03-1.31980E-13
 -1       382 1.34850E-02 1.91001E-03-1.36143E-13
 -1       383 1.13564E-03 4.23776E-04-9.44120E-16
 -1       384 8.49076E-04 3.53829E-04-4.99190E-16
 -1       385 1.41858E-03 4.73882E-04-1.53525E-15
 -1       386 1.69940E-03 5.09318E-04-2.27306E-15
 -1       387 1.96524E-03 5.32907E-04-3.10928E-15
 -1       388 2.24486E-03 5.49890E-04-4.13096E-15
 -1       389 2.52473E-03 5.60958E-04-5.29617E-15
 -1       390 2.80515E-03 5.67738E-04-6.60407E-15
 -1       391 3.08624E-03 5.71443E-04-8.05360E-15
 -1       392 3.36806E-03 5.72971E-04-9.64293E-15
 -1       393 3.65059E-03 5.72964E-04-1.13703E-14
 -1       394 3.93381E-03 5.71872E-04-1.32319E-14
 -1       395 4.20346E-03 5.70096E-04-1.51243E-14
 -1       396 4.48790E-03 5.67618E-04-1.72445E-14
 -1       397 4.77295E-03 5.64593E-04-1.94904E-14
 -1       398 5.05864E-03 5.61025E-04-2.18606E-14
 -1       399 5.34503E-03 5.56854E-04-2.43545E-14
 -1       400 5.63225E-03 5.51975E-04-2.69628E-14
 -1       401 5.92046E-03 5.46251E-04-2.96804E-14
 -1       402 6.20994E-03 5.39542E-04-3.25063E-14
 -1       403 6.48643E-03 5.32173E-04-3.52909E-14
 -1       404 6.77943E-03 5.23424E-04-3.83201E-14
 -1       405 7.07495E-03 5.14080E-04-4.14404E-14
 -1       406 7.37351E-03 5.05362E-04-4.46478E-14
 -1       407 7.67571E-03 5.00113E-04-4.79410E-14
 -1       408 7.98223E-03 5.04310E-04-5.13120E-14
 -1       409 8.29451E-03 5.29658E-04-5.47572E-14
 -1       410 8.61675E-03 5.97558E-04-5.82661E-14
 -1       411 8.94277E-03 7.34778E-04-6.16596E-14
 -1       412 9.32850E-03 1.00721E-03-6.53063E-14
 -1       413 1.03534E-02 1.97979E-03-7.21416E-14
 -1       414 1.20026E-02 2.03002E-03-8.28840E-14
 -1       415 1.24577E-02 1.71659E-03-8.66834E-14
 -1       416 1.28943E-02 1.52891E-03-9.09843E-14
 -1       417 1.32742E-02 1.50520E-03-9.53416E-14
 -1       418 1.36209E-02 1.58790E-03-9.97516E-14
 -1       419 1.39492E-02 1.73064E-03-1.04211E-13
 -1       420 1.42506E-02 1.89485E-03-1.08490E-13
 -1       421 1.45598E-02 2.08166E-03-1.13026E-13
 -1       422 1.48627E-02 2.27393E-03-1.17590E-13
 -1       423 1.51605E-02 2.46707E-03-1.22175E-13
 -1       424 1.54543E-02 2.65872E-03-1.26767E-13
 -1       425 1.57449E-02 2.84759E-03-1.31371E-13
 -1       426 1.33295E-02 1.26178E-03-9.00158E-14
 -1       427 1.56571E-02 2.86054E-03-1.36857E-13
 -1       428 1.58253E-02 2.93880E-03-1.36725E-13
 -1       429 1.59944E-02 3.01956E-03-1.36595E-13
 -1       430 1.54901E-02 2.78557E-03-1.36979E-13
 -1       431 1.53165E-02 2.71045E-03-1.37086E-13
 -1       432 1.51381E-02 2.63548E-03-1.37176E-13
 -1       433 1.49550E-02 2.55977E-03-1.37253E-13
 -1       434 1.47679E-02 2.48270E-03-1.37326E-13
 -1       435 1.45782E-02 2.40401E-03-1.37394E-13
 -1       436 1.43902E-02 2.32508E-03-1.37456E-13
 -1       437 1.41986E-02 2.24343E-03-1.37513E-13
 -1       438 1.40073E-02 2.16073E-03-1.37561E-13
 -1       439 1.38166E-02 2.07731E-03-1.37602E-13
 -1       440 1.32032E-02 1.32909E-03-8.90892E-14
 -1       441 1.33104E-02 1.21596E-03-9.08390E-14
 -1       442 4.45704E-04-1.26662E-04-2.50701E-16
 -1       443 9.85536E-03 1.55534E-03-6.96726E-14
 -1       444 9.35635E-03 1.18428E-03-6.77412E-14
 -1       445 8.83919E-03 8.99643E-04-6.63541E-14
 -1       446 8.51289E-03 7.47722E-04-6.55458E-14
 -1       447 8.31502E-03 6.52234E-04-6.49438E-14
 -1       448 8.26691E-03 5.85270E-04-6.49979E-14
 -1       449 8.38639E-03 5.28823E-04-6.51328E-14
 -1       450 8.68539E-03 4.24263E-04-6.68405E-14
 -1       451 8.98842E-03 3.07413E-04-6.80018E-14
 -1       452 9.39642E-03 1.35427E-04-7.00481E-14
 -1       453 9.76053E-03-6.57246E-06-7.23544E-14
 -1       454 1.00936E-02-9.13653E-05-7.46740E-14
 -1       455 1.04097E-02-1.00136E-04-7.70657E-14
 -1       456 1.07967E-02 8.36045E-06-8.00860E-14
 -1       457 1.11145E-02 1.63871E-04-8.21947E-14
 -1       458 1.15685E-02 4.21401E-04-8.47200E-14
 -1       459 1.20274E-02 6.75066E-04-8.67754E-14
 -1       460 1.24366E-02 8.87227E-04-8.84766E-14
 -1       461 1.28160E-02 1.03492E-03-8.94672E-14
 -1       462 1.31682E-02 1.16663E-03-9.05777E-14
 -1       463 1.25219E-02 1.69448E-03-8.54947E-14
 -1       464 1.15898E-02 2.30013E-03-8.03344E-14
 -1       465 8.24577E-03 5.84330E-04-6.37094E-14
 -1       466 6.65808E-04-7.54717E-05-5.81478E-16
 -1       467 6.69786E-04-1.16198E-04-5.71754E-16
 -1       468 6.63090E-04 6.70737E-07-5.83226E-16
 -1       469 6.63776E-04 3.82608E-05-5.76531E-16
 -1       470 6.65870E-04 7.62212E-05-5.64361E-16
 -1       471 6.69895E-04 1.17004E-04-5.45435E-16
 -1       472 6.76816E-04 1.61445E-04-5.17459E-16
 -1       473 6.88598E-04 2.11591E-04-4.77066E-16
 -1       474 7.62675E-04 2.77464E-04-4.99499E-16
 -1       475 1.26945E-02 1.57476E-03-8.78723E-14
 -1       476 9.76395E-04-3.28996E-04-9.06268E-16
 -1       477 1.26231E-03-3.83948E-04-1.49378E-15
 -1       478 1.54736E-03-4.23780E-04-2.22862E-15
 -1       479 1.83150E-03-4.51889E-04-3.10950E-15
 -1       480 2.11506E-03-4.71179E-04-4.13474E-15
 -1       481 2.39835E-03-4.83937E-04-5.30192E-15
 -1       482 2.68163E-03-4.91927E-04-6.60887E-15
 -1       483 2.96506E-03-4.96487E-04-8.05447E-15
 -1       484 3.24873E-03-4.98619E-04-9.63746E-15
 -1       485 3.53270E-03-4.99056E-04-1.13558E-14
 -1       486 3.81699E-03-4.98329E-04-1.32047E-14
 -1       487 4.10159E-03-4.96809E-04-1.51818E-14
 -1       488 4.38651E-03-4.94753E-04-1.72829E-14
 -1       489 4.67175E-03-4.92340E-04-1.95072E-14
 -1       490 4.95730E-03-4.89703E-04-2.18465E-14
 -1       491 5.24320E-03-4.86958E-04-2.43015E-14
 -1       492 5.52949E-03-4.84238E-04-2.68692E-14
 -1       493 5.81623E-03-4.81718E-04-2.95498E-14
 -1       494 6.10350E-03-4.79643E-04-3.23403E-14
 -1       495 6.39144E-03-4.78345E-04-3.52363E-14
 -1       496 6.68015E-03-4.78255E-04-3.82327E-14
 -1       497 6.96976E-03-4.79876E-04-4.13272E-14
 -1       498 7.26035E-03-4.83719E-04-4.45151E-14
 -1       499 7.55186E-03-4.90162E-04-4.77991E-14
 -1       500 7.84404E-03-4.99209E-04-5.11752E-14
 -1       501 8.13628E-03-5.10136E-04-5.46471E-14
 -1       502 8.42759E-03-5.21037E-04-5.82092E-14
 -1       503 8.71660E-03-5.28379E-04-6.18540E-14
 -1       504 9.00191E-03-5.26775E-04-6.55765E-14
 -1       505 9.28251E-03-5.09287E-04-6.93704E-14
 -1       506 9.55850E-03-4.68515E-04-7.32358E-14
 -1       507 9.83133E-03-3.98375E-04-7.71691E-14
 -1       508 1.01035E-02-2.95951E-04-8.11818E-14
 -1       509 1.03779E-02-1.62494E-04-8.52736E-14
 -1       510 1.06564E-02-2.95993E-06-8.94427E-14
 -1       511 1.09397E-02 1.75572E-04-9.36863E-14
 -1       512 1.12271E-02 3.65815E-04-9.79923E-14
 -1       513 1.15174E-02 5.61704E-04-1.02363E-13
 -1       514 1.18090E-02 7.59019E-04-1.06798E-13
 -1       515 1.21007E-02 9.55336E-04-1.11290E-13
 -1       516 1.23919E-02 1.14965E-03-1.15827E-13
 -1       517 1.26821E-02 1.34189E-03-1.20394E-13
 -1       518 1.29712E-02 1.53256E-03-1.24998E-13
 -1       519 1.32592E-02 1.72237E-03-1.29625E-13
 -1       520 1.04845E-03 3.46240E-04-9.39759E-16
 -1       521 1.81029E-03 4.50287E-04-2.82639E-15
 -1       522 2.09388E-03 4.70163E-04-3.79424E-15
 -1       523 2.37719E-03 4.83357E-04-4.90333E-15
 -1       524 2.66046E-03 4.91664E-04-6.15353E-15
 -1       525 2.94388E-03 4.96448E-04-7.54362E-15
 -1       526 3.22755E-03 4.98728E-04-9.07293E-15
 -1       527 3.51151E-03 4.99245E-04-1.07393E-14
 -1       528 3.79580E-03 4.98526E-04-1.25400E-14
 -1       529 4.06618E-03 4.97023E-04-1.43735E-14
 -1       530 4.35110E-03 4.94793E-04-1.64343E-14
 -1       531 4.63635E-03 4.92018E-04-1.86218E-14
 -1       532 4.92192E-03 4.88737E-04-2.09332E-14
 -1       533 5.20782E-03 4.84929E-04-2.33672E-14
 -1       534 5.49405E-03 4.80528E-04-2.59207E-14
 -1       535 5.78059E-03 4.75441E-04-2.85860E-14
 -1       536 6.06739E-03 4.69582E-04-3.13593E-14
 -1       537 6.33998E-03 4.63263E-04-3.40919E-14
 -1       538 6.62678E-03 4.55911E-04-3.70713E-14
 -1       539 6.91289E-03 4.48218E-04-4.01464E-14
 -1       540 7.19735E-03 4.41131E-04-4.33104E-14
 -1       541 7.47853E-03 4.36650E-04-4.65614E-14
 -1       542 7.75408E-03 4.38604E-04-4.98932E-14
 -1       543 8.02106E-03 4.53813E-04-5.32985E-14
 -1       544 8.27728E-03 4.93735E-04-5.67737E-14
 -1       545 8.51292E-03 5.72515E-04-6.01331E-14
 -1       546 8.83777E-03 7.49820E-04-6.36096E-14
 -1       547 1.33806E-02 1.27594E-03-9.27032E-14
 -1       548 1.35101E-02 1.46027E-03-9.76898E-14
 -1       549 1.37760E-02 1.58816E-03-1.02111E-13
 -1       550 1.40341E-02 1.74147E-03-1.06355E-13
 -1       551 1.43123E-02 1.92072E-03-1.10864E-13
 -1       552 1.45951E-02 2.10879E-03-1.15411E-13
 -1       553 1.48806E-02 2.30013E-03-1.19982E-13
 -1       554 1.51671E-02 2.49157E-03-1.24568E-13
 -1       555 1.54539E-02 2.68143E-03-1.29172E-13
 -1       556 1.30860E-02 1.38669E-03-9.02267E-14
 -1       557 1.53303E-02 2.66435E-03-1.32891E-13
 -1       558 1.49851E-02 2.51594E-03-1.33094E-13
 -1       559 1.48035E-02 2.44065E-03-1.33181E-13
 -1       560 1.46172E-02 2.36366E-03-1.33256E-13
 -1       561 1.44274E-02 2.28465E-03-1.33329E-13
 -1       562 1.42391E-02 2.20510E-03-1.33396E-13
 -1       563 1.40469E-02 2.12263E-03-1.33456E-13
 -1       564 1.38550E-02 2.03910E-03-1.33504E-13
 -1       565 1.36638E-02 1.95497E-03-1.33549E-13
 -1       566 1.33158E-02 1.30513E-03-9.18549E-14
 -1       567 8.26516E-03 5.35565E-04-6.31971E-14
 -1       568 1.52609E-03 4.21404E-04-2.00173E-15
 -1       569 1.56403E-02 2.81122E-03-1.32943E-13
 -1       570 1.29940E-02 1.17796E-03-9.22202E-14
 -1       571 1.32660E-02 1.24596E-03-9.28057E-14
 -1       572 1.05148E-02-8.01577E-05-7.86505E-14
 -1       573 8.66675E-03 7.21524E-04-6.41868E-14
 -1       574 1.54857E-02 2.73674E-03-1.32920E-13
 -1       575 1.51603E-02 2.59001E-03-1.32998E-13
 -1       576 6.63724E-04-3.69006E-05-5.84941E-16
 -1       577 1.28757E-03 3.89067E-04-1.42000E-15
 -1       578 8.39967E-03 6.23220E-04-6.34414E-14
 -1       579 1.17436E-02 6.04960E-04-8.71962E-14
 -1       580 8.52653E-03 4.63224E-04-6.44767E-14
 -1       581 8.76709E-03 3.80994E-04-6.56170E-14
 -1       582 9.16330E-03 2.15776E-04-6.75896E-14
 -1       583 9.58034E-03 3.78171E-05-7.03614E-14
 -1       584 9.91058E-03-7.65471E-05-7.29628E-14
 -1       585 1.02079E-02-1.24798E-04-7.55721E-14
 -1       586 1.09020E-02 9.60371E-05-8.19656E-14
 -1       587 1.12762E-02 3.23070E-04-8.46522E-14
 -1       588 1.21697E-02 8.45376E-04-8.93493E-14
 -1       589 1.26894E-02 1.07293E-03-9.12127E-14
 -1       590 7.12745E-04-2.52141E-04-5.10415E-16
 -1       591 6.76608E-04-1.60347E-04-5.54197E-16
 -1       592 8.98256E-03 8.81629E-04-6.53948E-14
 -1       593 1.34495E-02 1.84894E-03-1.32764E-13
 -1       594 1.32284E-02 1.40119E-03-9.33033E-14
 -1       595 8.34176E-03 4.82392E-04-6.25477E-14
 -1       596 6.91853E-04-2.03166E-04-5.38371E-16
 -1       597 8.27123E-03 5.59780E-04-6.22145E-14
 -1       598 8.99594E-04 7.34390E-05-9.83873E-16
 -1       599 8.97558E-04 2.45913E-05-9.98577E-16
 -1       600 9.11454E-04 1.77307E-04-9.25265E-16
 -1       601 9.23721E-04 2.35710E-04-8.75829E-16
 -1       602 9.83505E-04 2.88582E-04-9.14037E-16
 -1       603 1.34734E-02 1.82902E-03-1.30406E-13
 -1       604 1.53020E-02 2.60705E-03-1.29145E-13
 -1       605 1.34346E-02 1.36427E-03-9.53873E-14
 -1       606 1.38337E-03-3.37569E-04-1.91943E-15
 -1       607 1.66956E-03-3.68544E-04-2.73809E-15
 -1       608 1.95578E-03-3.90360E-04-3.69960E-15
 -1       609 2.24183E-03-4.05165E-04-4.80189E-15
 -1       610 2.52768E-03-4.14740E-04-6.04273E-15
 -1       611 2.81340E-03-4.20497E-04-7.42164E-15
 -1       612 3.09902E-03-4.23519E-04-8.93675E-15
 -1       613 3.38460E-03-4.24617E-04-1.05861E-14
 -1       614 3.67016E-03-4.24381E-04-1.23691E-14
 -1       615 3.95573E-03-4.23231E-04-1.42803E-14
 -1       616 4.24134E-03-4.21456E-04-1.63161E-14
 -1       617 4.52699E-03-4.19252E-04-1.84767E-14
 -1       618 4.81271E-03-4.16752E-04-2.07564E-14
 -1       619 5.09856E-03-4.14054E-04-2.31510E-14
 -1       620 5.38457E-03-4.11251E-04-2.56616E-14
 -1       621 5.67086E-03-4.08455E-04-2.82849E-14
 -1       622 5.95755E-03-4.05825E-04-3.10188E-14
 -1       623 6.24486E-03-4.03594E-04-3.38599E-14
 -1       624 6.53307E-03-4.02091E-04-3.68022E-14
 -1       625 6.82252E-03-4.01753E-04-3.98429E-14
 -1       626 7.11364E-03-4.03114E-04-4.29793E-14
 -1       627 7.40685E-03-4.06754E-04-4.62109E-14
 -1       628 7.70243E-03-4.13154E-04-4.95350E-14
 -1       629 8.00036E-03-4.22440E-04-5.29530E-14
 -1       630 8.30008E-03-4.33939E-04-5.64630E-14
 -1       631 8.60026E-03-4.45560E-04-6.00590E-14
 -1       632 8.89893E-03-4.53117E-04-6.37389E-14
 -1       633 9.19388E-03-4.49929E-04-6.74928E-14
 -1       634 9.48368E-03-4.27328E-04-7.13165E-14
 -1       635 9.76863E-03-3.76449E-04-7.52091E-14
 -1       636 1.00511E-02-2.91016E-04-7.91772E-14
 -1       637 1.03346E-02-1.69864E-04-8.32266E-14
 -1       638 1.06222E-02-1.73801E-05-8.73553E-14
 -1       639 1.09152E-02 1.58343E-04-9.15586E-14
 -1       640 1.12125E-02 3.48232E-04-9.58297E-14
 -1       641 1.15123E-02 5.44692E-04-1.00168E-13
 -1       642 1.18124E-02 7.42567E-04-1.04570E-13
 -1       643 1.21111E-02 9.39059E-04-1.09027E-13
 -1       644 1.24075E-02 1.13311E-03-1.13534E-13
 -1       645 1.27014E-02 1.32474E-03-1.18079E-13
 -1       646 1.29929E-02 1.51452E-03-1.22659E-13
 -1       647 1.32338E-02 1.67189E-03-1.26524E-13
 -1       648 2.22046E-03 4.04436E-04-4.47659E-15
 -1       649 1.93440E-03 3.89161E-04-3.42487E-15
 -1       650 2.79208E-03 4.20369E-04-6.99555E-15
 -1       651 3.07773E-03 4.23565E-04-8.46270E-15
 -1       652 3.36334E-03 4.24772E-04-1.00659E-14
 -1       653 3.64893E-03 4.24584E-04-1.18041E-14
 -1       654 3.92026E-03 4.23495E-04-1.35769E-14
 -1       655 4.20589E-03 4.21655E-04-1.55736E-14
 -1       656 4.49155E-03 4.19270E-04-1.77000E-14
 -1       657 4.77722E-03 4.16424E-04-1.99508E-14
 -1       658 5.06287E-03 4.13146E-04-2.23231E-14
 -1       659 5.34843E-03 4.09423E-04-2.48177E-14
 -1       660 5.63378E-03 4.05231E-04-2.74266E-14
 -1       661 5.91869E-03 4.00566E-04-3.01465E-14
 -1       662 6.18860E-03 3.95749E-04-3.28277E-14
 -1       663 6.47131E-03 3.90475E-04-3.57516E-14
 -1       664 6.75159E-03 3.85448E-04-3.87753E-14
 -1       665 7.02780E-03 3.81600E-04-4.18934E-14
 -1       666 7.29747E-03 3.80619E-04-4.50995E-14
 -1       667 7.55690E-03 3.85340E-04-4.83901E-14
 -1       668 7.80094E-03 4.00172E-04-5.17582E-14
 -1       669 8.02286E-03 4.31392E-04-5.51994E-14
 -1       670 8.20625E-03 4.83830E-04-5.85264E-14
 -1       671 1.34080E-02 1.32880E-03-9.57261E-14
 -1       672 8.18300E-03 5.14943E-04-6.12365E-14
 -1       673 9.03825E-04-1.22631E-04-9.93803E-16
 -1       674 1.38555E-02 1.61753E-03-1.04351E-13
 -1       675 1.36384E-02 1.47207E-03-9.99196E-14
 -1       676 1.43462E-02 1.95741E-03-1.13241E-13
 -1       677 1.46142E-02 2.14236E-03-1.17794E-13
 -1       678 1.48895E-02 2.33027E-03-1.22374E-13
 -1       679 1.34371E-02 1.32851E-03-9.48789E-14
 -1       680 9.50456E-04-2.70406E-04-9.48762E-16
 -1       681 1.46535E-02 2.32288E-03-1.29120E-13
 -1       682 1.40864E-02 2.08744E-03-1.29343E-13
 -1       683 1.38932E-02 2.00388E-03-1.29405E-13
 -1       684 1.37004E-02 1.91900E-03-1.29457E-13
 -1       685 1.31818E-02 1.27785E-03-9.49550E-14
 -1       686 1.64817E-03 3.66731E-04-2.51327E-15
 -1       687 1.28612E-02 1.19242E-03-9.42175E-14
 -1       688 1.24189E-02 1.01488E-03-9.23258E-14
 -1       689 1.19199E-02 7.66390E-04-9.02346E-14
 -1       690 1.02610E-02-1.36445E-04-7.65177E-14
 -1       691 1.42790E-02 2.16887E-03-1.29276E-13
 -1       692 1.44684E-02 2.24728E-03-1.29199E-13
 -1       693 8.87545E-03 2.74966E-04-6.47831E-14
 -1       694 1.40927E-02 1.78140E-03-1.08775E-13
 -1       695 1.06785E-02 4.94144E-06-8.10529E-14
 -1       696 1.00144E-02-1.32396E-04-7.38963E-14
 -1       697 1.10575E-02 2.26081E-04-8.44353E-14
 -1       698 2.50634E-03 4.14360E-04-5.66674E-15
 -1       699 9.30392E-03 7.96922E-05-6.75054E-14
 -1       700 8.58514E-03 3.93518E-04-6.33576E-14
 -1       701 9.70817E-03-5.63917E-05-7.09818E-14
 -1       702 1.16644E-03-3.07959E-04-1.39146E-15
 -1       703 9.03971E-04 1.23836E-04-9.60139E-16
 -1       704 1.14948E-02 5.08192E-04-8.76485E-14
 -1       705 8.47099E-03 5.92176E-04-6.17839E-14
 -1       706 8.97537E-04-2.36771E-05-1.00522E-15
 -1       707 1.22221E-03 3.30243E-04-1.38762E-15
 -1       708 9.11239E-04-1.76020E-04-9.73363E-16
 -1       709 1.43502E-03 3.52045E-04-1.90890E-15
 -1       710 1.04274E-02-9.56027E-05-7.88867E-14
 -1       711 1.50050E-02 2.46863E-03-1.28933E-13
 -1       712 8.99514E-04-7.22914E-05-1.00390E-15
 -1       713 1.48328E-02 2.39634E-03-1.29029E-13
 -1       714 1.51547E-02 2.53692E-03-1.29040E-13
 -1       715 8.18429E-03 4.79374E-04-6.05959E-14
 -1       716 1.16083E-03 2.74583E-04-1.34186E-15
 -1       717 1.79733E-03-3.10106E-04-3.26965E-15
 -1       718 2.08498E-03-3.26214E-04-4.30690E-15
 -1       719 2.37276E-03-3.36983E-04-5.48259E-15
 -1       720 2.66043E-03-3.43759E-04-6.79565E-15
 -1       721 2.94790E-03-3.47624E-04-8.24463E-15
 -1       722 3.23511E-03-3.49410E-04-9.82739E-15
 -1       723 3.52206E-03-3.49739E-04-1.15427E-14
 -1       724 3.80876E-03-3.49061E-04-1.33884E-14
 -1       725 4.09523E-03-3.47687E-04-1.53597E-14
 -1       726 4.38150E-03-3.45825E-04-1.74548E-14
 -1       727 4.66759E-03-3.43611E-04-1.96722E-14
 -1       728 4.95355E-03-3.41127E-04-2.20062E-14
 -1       729 5.23945E-03-3.38429E-04-2.44589E-14
 -1       730 5.52538E-03-3.35570E-04-2.70271E-14
 -1       731 5.81150E-03-3.32620E-04-2.97070E-14
 -1       732 6.09806E-03-3.29693E-04-3.24927E-14
 -1       733 6.38539E-03-3.26976E-04-3.53808E-14
 -1       734 6.67401E-03-3.24763E-04-3.83686E-14
 -1       735 6.96455E-03-3.23484E-04-4.14547E-14
 -1       736 7.25780E-03-3.23735E-04-4.46354E-14
 -1       737 7.55462E-03-3.26257E-04-4.79093E-14
 -1       738 7.85569E-03-3.31838E-04-5.12725E-14
 -1       739 8.16123E-03-3.41017E-04-5.47283E-14
 -1       740 8.47054E-03-3.53491E-04-5.82740E-14
 -1       741 8.78169E-03-3.67152E-04-6.19051E-14
 -1       742 9.09153E-03-3.76847E-04-6.56179E-14
 -1       743 9.39671E-03-3.73641E-04-6.94032E-14
 -1       744 9.69537E-03-3.45821E-04-7.32561E-14
 -1       745 9.98875E-03-2.82211E-04-7.71784E-14
 -1       746 1.02811E-02-1.76920E-04-8.11841E-14
 -1       747 1.05772E-02-3.25759E-05-8.52701E-14
 -1       748 1.08798E-02 1.41414E-04-8.94346E-14
 -1       749 1.11883E-02 3.32926E-04-9.36711E-14
 -1       750 1.14995E-02 5.31642E-04-9.79784E-14
 -1       751 1.18101E-02 7.30920E-04-1.02348E-13
 -1       752 1.21176E-02 9.27580E-04-1.06775E-13
 -1       753 1.24207E-02 1.12081E-03-1.11253E-13
 -1       754 1.27194E-02 1.31102E-03-1.15775E-13
 -1       755 1.30142E-02 1.49910E-03-1.20330E-13
 -1       756 3.50074E-03 3.49923E-04-1.10718E-14
 -1       757 3.21373E-03 3.49516E-04-9.39626E-15
 -1       758 2.92647E-03 3.47601E-04-7.85462E-15
 -1       759 3.77316E-03 3.49330E-04-1.27859E-14
 -1       760 4.05969E-03 3.47976E-04-1.47188E-14
 -1       761 4.34597E-03 3.46081E-04-1.67829E-14
 -1       762 4.63198E-03 3.43770E-04-1.89732E-14
 -1       763 4.91769E-03 3.41116E-04-2.12861E-14
 -1       764 5.20300E-03 3.38161E-04-2.37199E-14
 -1       765 5.48773E-03 3.34948E-04-2.62726E-14
 -1       766 5.77162E-03 3.31550E-04-2.89367E-14
 -1       767 6.04012E-03 3.28294E-04-3.15678E-14
 -1       768 6.32082E-03 3.25141E-04-3.44382E-14
 -1       769 6.59847E-03 3.22827E-04-3.74095E-14
 -1       770 6.87145E-03 3.22336E-04-4.04801E-14
 -1       771 7.13734E-03 3.25270E-04-4.36411E-14
 -1       772 7.39267E-03 3.34082E-04-4.68877E-14
 -1       773 7.63252E-03 3.52268E-04-5.02161E-14
 -1       774 7.85004E-03 3.84288E-04-5.36245E-14
 -1       775 8.02720E-03 4.31961E-04-5.69229E-14
 -1       776 1.33689E-02 1.37063E-03-9.80345E-14
 -1       777 1.31081E-02 1.31104E-03-9.74981E-14
 -1       778 1.12658E-02 3.87317E-04-8.78666E-14
 -1       779 1.36794E-02 1.51636E-03-1.02242E-13
 -1       780 1.16252E-02 6.15931E-04-9.04563E-14
 -1       781 1.46173E-02 2.17701E-03-1.20175E-13
 -1       782 1.43543E-02 1.99633E-03-1.15610E-13
 -1       783 1.35467E-02 1.80216E-03-1.25427E-13
 -1       784 1.48833E-02 2.35630E-03-1.24597E-13
 -1       785 8.95986E-03 1.39326E-04-6.42681E-14
 -1       786 1.37409E-02 1.88885E-03-1.25372E-13
 -1       787 1.77583E-03 3.08806E-04-3.05315E-15
 -1       788 2.35126E-03 3.36505E-04-5.17978E-15
 -1       789 1.33894E-02 1.73669E-03-1.25978E-13
 -1       790 9.77794E-03-1.36175E-04-7.16788E-14
 -1       791 1.39362E-02 1.97358E-03-1.25311E-13
 -1       792 1.46823E-02 2.27609E-03-1.24984E-13
 -1       793 1.35278E-02 1.39463E-03-9.78174E-14
 -1       794 1.26701E-02 1.15656E-03-9.56181E-14
 -1       795 1.08433E-02 1.18278E-04-8.39073E-14
 -1       796 1.00132E-02-1.65348E-04-7.42640E-14
 -1       797 9.28944E-04-2.21275E-04-9.66241E-16
 -1       798 8.60723E-03 2.98986E-04-6.20802E-14
 -1       799 9.42665E-03-4.26208E-05-6.81872E-14
 -1       800 1.51026E-03-2.87101E-04-2.37122E-15
 -1       801 8.35001E-03 4.08694E-04-6.09637E-14
 -1       802 1.45057E-02 2.20564E-03-1.25075E-13
 -1       803 1.22362E-02 9.62576E-04-9.39534E-14
 -1       804 1.13808E-03 5.83263E-05-1.51501E-15
 -1       805 2.06347E-03 3.25377E-04-4.04777E-15
 -1       806 2.63896E-03 3.43547E-04-6.44819E-15
 -1       807 8.16107E-03 4.18500E-04-5.90328E-14
 -1       808 1.14945E-03 1.78063E-04-1.44925E-15
 -1       809 1.14917E-03-1.76570E-04-1.50614E-15
 -1       810 1.14213E-03 1.17118E-04-1.48877E-15
 -1       811 1.56140E-03 2.99926E-04-2.38596E-15
 -1       812 1.01781E-02-1.65483E-04-7.65940E-14
 -1       813 9.09034E-03 1.26555E-05-6.49238E-14
 -1       814 1.41071E-02 1.82436E-03-1.11134E-13
 -1       815 1.14351E-03-2.54073E-04-1.41291E-15
 -1       816 1.14198E-03-1.15733E-04-1.52626E-15
 -1       817 1.43209E-02 2.13232E-03-1.25160E-13
 -1       818 1.41299E-02 2.05484E-03-1.25240E-13
 -1       819 1.05952E-02-1.53556E-05-8.16999E-14
 -1       820 1.38776E-02 1.66267E-03-1.06696E-13
 -1       821 1.13677E-03 5.43969E-07-1.52984E-15
 -1       822 1.92951E-03-2.48439E-04-3.82157E-15
 -1       823 2.48572E-03 2.66562E-04-5.90346E-15
 -1       824 8.33511E-03 3.18489E-04-5.93900E-14
 -1       825 1.64158E-03-2.32361E-04-2.84834E-15
 -1       826 2.21828E-03-2.59548E-04-4.93142E-15
 -1       827 2.50731E-03-2.66828E-04-6.17840E-15
 -1       828 2.79626E-03-2.71246E-04-7.56143E-15
 -1       829 3.08494E-03-2.73582E-04-9.07871E-15
 -1       830 3.37323E-03-2.74437E-04-1.07270E-14
 -1       831 3.66110E-03-2.74255E-04-1.25056E-14
 -1       832 3.94853E-03-2.73350E-04-1.44124E-14
 -1       833 4.23553E-03-2.71932E-04-1.64432E-14
 -1       834 4.52214E-03-2.70133E-04-1.85977E-14
 -1       835 4.80838E-03-2.68022E-04-2.08710E-14
 -1       836 5.09431E-03-2.65629E-04-2.32620E-14
 -1       837 5.38002E-03-2.62954E-04-2.57735E-14
 -1       838 5.66564E-03-2.59988E-04-2.83987E-14
 -1       839 5.95139E-03-2.56729E-04-3.11322E-14
 -1       840 6.23761E-03-2.53209E-04-3.39689E-14
 -1       841 6.52481E-03-2.49526E-04-3.69045E-14
 -1       842 6.81372E-03-2.45905E-04-3.99387E-14
 -1       843 7.10535E-03-2.42762E-04-4.30688E-14
 -1       844 7.40094E-03-2.40804E-04-4.62924E-14
 -1       845 7.70190E-03-2.41098E-04-4.96065E-14
 -1       846 8.00945E-03-2.45054E-04-5.30100E-14
 -1       847 8.32416E-03-2.54076E-04-5.65015E-14
 -1       848 8.64517E-03-2.68762E-04-6.00833E-14
 -1       849 8.96951E-03-2.87096E-04-6.37491E-14
 -1       850 9.29220E-03-3.02272E-04-6.74928E-14
 -1       851 9.60830E-03-3.01094E-04-7.13089E-14
 -1       852 9.91592E-03-2.66333E-04-7.51893E-14
 -1       853 1.02186E-02-1.83960E-04-7.91494E-14
 -1       854 1.05235E-02-5.10560E-05-8.31907E-14
 -1       855 1.08357E-02 1.21482E-04-8.73150E-14
 -1       856 1.11568E-02 3.17992E-04-9.15174E-14
 -1       857 1.14814E-02 5.22050E-04-9.57895E-14
 -1       858 1.18047E-02 7.24622E-04-1.00132E-13
 -1       859 1.21227E-02 9.21941E-04-1.04529E-13
 -1       860 1.24337E-02 1.11387E-03-1.08978E-13
 -1       861 1.27378E-02 1.30172E-03-1.13476E-13
 -1       862 1.30360E-02 1.48708E-03-1.18012E-13
 -1       863 3.91284E-03 2.73665E-04-1.38709E-14
 -1       864 3.63972E-03 2.74468E-04-1.20914E-14
 -1       865 3.06343E-03 2.73639E-04-8.73118E-15
 -1       866 4.19988E-03 2.72313E-04-1.58720E-14
 -1       867 4.48644E-03 2.70590E-04-1.79994E-14
 -1       868 4.77247E-03 2.68604E-04-2.02539E-14
 -1       869 5.05789E-03 2.66437E-04-2.26281E-14
 -1       870 5.34253E-03 2.64178E-04-2.51234E-14
 -1       871 5.62614E-03 2.61961E-04-2.77334E-14
 -1       872 5.89424E-03 2.60094E-04-3.03132E-14
 -1       873 6.17446E-03 2.58746E-04-3.31309E-14
 -1       874 6.45178E-03 2.58638E-04-3.60502E-14
 -1       875 6.72488E-03 2.60756E-04-3.90698E-14
 -1       876 6.99195E-03 2.66598E-04-4.21826E-14
 -1       877 7.25050E-03 2.78334E-04-4.53866E-14
 -1       878 7.49718E-03 2.98894E-04-4.86748E-14
 -1       879 7.72760E-03 3.31859E-04-5.20433E-14
 -1       880 7.92650E-03 3.77714E-04-5.53126E-14
 -1       881 1.39040E-03 1.66391E-04-2.08617E-15
 -1       882 1.13801E-03-5.71057E-05-1.53364E-15
 -1       883 1.14970E-02 5.41860E-04-9.14869E-14
 -1       884 1.44184E-02 2.10285E-03-1.20559E-13
 -1       885 1.33920E-02 1.68829E-03-1.21423E-13
 -1       886 1.40031E-03 2.54268E-04-1.99713E-15
 -1       887 8.09957E-03 4.39767E-04-5.86641E-14
 -1       888 2.19667E-03 2.59024E-04-4.69417E-15
 -1       889 1.35891E-02 1.77723E-03-1.21364E-13
 -1       890 1.20013E-02 8.48060E-04-9.50213E-14
 -1       891 8.63136E-03 1.77258E-04-6.10999E-14
 -1       892 1.33392E-02 1.41368E-03-1.00495E-13
 -1       893 1.29581E-02 1.29721E-03-9.92722E-14
 -1       894 1.41579E-02 1.93055E-03-1.15995E-13
 -1       895 1.25676E-02 1.14020E-03-9.79224E-14
 -1       896 9.79853E-03-1.95888E-04-7.23254E-14
 -1       897 1.10263E-02 2.41060E-04-8.71982E-14
 -1       898 1.38940E-03-1.71929E-04-2.14096E-15
 -1       899 9.48829E-03-1.41910E-04-6.88218E-14
 -1       900 1.36309E-02 1.55000E-03-1.04298E-13
 -1       901 1.38394E-03 9.91270E-05-2.12762E-15
 -1       902 1.90794E-03 2.47571E-04-3.61969E-15
 -1       903 3.35179E-03 2.74587E-04-1.03457E-14
 -1       904 2.77471E-03 2.71169E-04-7.24949E-15
 -1       905 1.37870E-02 1.86279E-03-1.21298E-13
 -1       906 8.13163E-03 3.43657E-04-5.74814E-14
 -1       907 1.41774E-02 2.01916E-03-1.21137E-13
 -1       908 1.62012E-03 2.31089E-04-2.68235E-15
 -1       909 9.17052E-03-1.01910E-04-6.55374E-14
 -1       910 1.39117E-02 1.76858E-03-1.11525E-13
 -1       911 7.96593E-03 3.56775E-04-5.56736E-14
 -1       912 1.32310E-02 1.60021E-03-1.20126E-13
 -1       913 8.76214E-03 6.10320E-05-6.17369E-14
 -1       914 8.35329E-03 2.10074E-04-5.84267E-14
 -1       915 1.37638E-02 1.65602E-03-1.07897E-13
 -1       916 1.38084E-03 3.31933E-05-2.15407E-15
 -1       917 1.39846E-02 1.94384E-03-1.21221E-13
 -1       918 1.39079E-02 1.85098E-03-1.16576E-13
 -1       919 1.77671E-03-1.73396E-04-3.34823E-15
 -1       920 2.06547E-03-1.83571E-04-4.39273E-15
 -1       921 2.35513E-03-1.90496E-04-5.57319E-15
 -1       922 2.64506E-03-1.94907E-04-6.88900E-15
 -1       923 2.93486E-03-1.97450E-04-8.34000E-15
 -1       924 3.22430E-03-1.98642E-04-9.92236E-15
 -1       925 3.51323E-03-1.98873E-04-1.16341E-14
 -1       926 3.80161E-03-1.98428E-04-1.34742E-14
 -1       927 4.08939E-03-1.97498E-04-1.54406E-14
 -1       928 4.37660E-03-1.96200E-04-1.75322E-14
 -1       929 4.66325E-03-1.94591E-04-1.97437E-14
 -1       930 4.94937E-03-1.92679E-04-2.20753E-14
 -1       931 5.23502E-03-1.90429E-04-2.45271E-14
 -1       932 5.52028E-03-1.87772E-04-2.70959E-14
 -1       933 5.80531E-03-1.84611E-04-2.97769E-14
 -1       934 6.09037E-03-1.80837E-04-3.25624E-14
 -1       935 6.37587E-03-1.76350E-04-3.54478E-14
 -1       936 6.66248E-03-1.71112E-04-3.84333E-14
 -1       937 6.95117E-03-1.65228E-04-4.15138E-14
 -1       938 7.24334E-03-1.59092E-04-4.46851E-14
 -1       939 7.54078E-03-1.53578E-04-4.79504E-14
 -1       940 7.84567E-03-1.50297E-04-5.13038E-14
 -1       941 8.16015E-03-1.51741E-04-5.47464E-14
 -1       942 8.48536E-03-1.60770E-04-5.82746E-14
 -1       943 8.82045E-03-1.80243E-04-6.18888E-14
 -1       944 9.16094E-03-2.07788E-04-6.55849E-14
 -1       945 9.82747E-03-2.35976E-04-7.32037E-14
 -1       946 1.14612E-02 5.14749E-04-9.36018E-14
 -1       947 1.17997E-02 7.23872E-04-9.79144E-14
 -1       948 1.21300E-02 9.23051E-04-1.02288E-13
 -1       949 1.24496E-02 1.11328E-03-1.06711E-13
 -1       950 1.27590E-02 1.29762E-03-1.11184E-13
 -1       951 1.30601E-02 1.47900E-03-1.15699E-13
 -1       952 4.34083E-03 1.96774E-04-1.70340E-14
 -1       953 1.75515E-03 1.72622E-04-3.19565E-15
 -1       954 4.05361E-03 1.97902E-04-1.49677E-14
 -1       955 4.91316E-03 1.94041E-04-2.15409E-14
 -1       956 5.19807E-03 1.92655E-04-2.39784E-14
 -1       957 5.48191E-03 1.91454E-04-2.65327E-14
 -1       958 5.75029E-03 1.90709E-04-2.90618E-14
 -1       959 6.03103E-03 1.90716E-04-3.18270E-14
 -1       960 6.30934E-03 1.92122E-04-3.46947E-14
 -1       961 6.58436E-03 1.95832E-04-3.76638E-14
 -1       962 6.85499E-03 2.03153E-04-4.07289E-14
 -1       963 7.11983E-03 2.15885E-04-4.38858E-14
 -1       964 7.37729E-03 2.36334E-04-4.71317E-14
 -1       965 7.62582E-03 2.67075E-04-5.04611E-14
 -1       966 7.80260E-03 3.08088E-04-5.30454E-14
 -1       967 1.38261E-03-1.04603E-04-2.15859E-15
 -1       968 2.33345E-03 1.90230E-04-5.36286E-15
 -1       969 3.20273E-03 1.98758E-04-9.62385E-15
 -1       970 1.34335E-02 1.50214E-03-1.04211E-13
 -1       971 2.62339E-03 1.94809E-04-6.64909E-15
 -1       972 4.62737E-03 1.95452E-04-1.92262E-14
 -1       973 1.38082E-03-3.20994E-05-2.16626E-15
 -1       974 3.78016E-03 1.98687E-04-1.31232E-14
 -1       975 1.63414E-03 1.44779E-04-2.83223E-15
 -1       976 9.54034E-03-2.26869E-04-6.97698E-14
 -1       977 2.04383E-03 1.83081E-04-4.21191E-15
 -1       978 3.49173E-03 1.99062E-04-1.13088E-14
 -1       979 2.91323E-03 1.97476E-04-8.06971E-15
 -1       980 1.29156E-02 1.31362E-03-1.02213E-13
 -1       981 1.24051E-02 1.07327E-03-9.97174E-14
 -1       982 8.14241E-03 2.53137E-04-5.65380E-14
 -1       983 1.62903E-03 7.22242E-05-2.87406E-15
 -1       984 1.36457E-02 1.69229E-03-1.12110E-13
 -1       985 8.85602E-03-5.51494E-05-6.23307E-14
 -1       986 8.48069E-03 1.10153E-04-5.90530E-14
 -1       987 1.32368E-02 1.57801E-03-1.17443E-13
 -1       988 1.18852E-02 7.79833E-04-9.64728E-14
 -1       989 1.34376E-02 1.66937E-03-1.17381E-13
 -1       990 2.20477E-03-1.15695E-04-4.98270E-15
 -1       991 2.49511E-03-1.19278E-04-6.23070E-15
 -1       992 2.78561E-03-1.21472E-04-7.61306E-15
 -1       993 3.07589E-03-1.22647E-04-9.12843E-15
 -1       994 3.36569E-03-1.23083E-04-1.07738E-14
 -1       995 3.65489E-03-1.22990E-04-1.25476E-14
 -1       996 3.94342E-03-1.22514E-04-1.44487E-14
 -1       997 4.23125E-03-1.21741E-04-1.64757E-14
 -1       998 4.51837E-03-1.20709E-04-1.86245E-14
 -1       999 4.80480E-03-1.19405E-04-2.08970E-14
 -1      1000 5.09056E-03-1.17775E-04-2.32889E-14
 -1      1001 5.37567E-03-1.15713E-04-2.58010E-14
 -1      1002 5.66020E-03-1.13065E-04-2.84263E-14
 -1      1003 5.94429E-03-1.09619E-04-3.11596E-14
 -1      1004 6.22818E-03-1.05117E-04-3.39959E-14
 -1      1005 6.51234E-03-9.92755E-05-3.69323E-14
 -1      1006 6.79750E-03-9.18485E-05-3.99645E-14
 -1      1007 7.08485E-03-8.27569E-05-4.30877E-14
 -1      1008 7.37617E-03-7.23216E-05-4.63026E-14
 -1      1009 7.67396E-03-6.16354E-05-4.96100E-14
 -1      1010 7.98114E-03-5.31244E-05-5.30074E-14
 -1      1011 8.30248E-03-5.07790E-05-5.64845E-14
 -1      1012 1.24735E-02 1.12005E-03-1.04448E-13
 -1      1013 1.27869E-02 1.29931E-03-1.08896E-13
 -1      1014 5.33860E-03 1.19889E-04-2.53347E-14
 -1      1015 5.05422E-03 1.20251E-04-2.28375E-14
 -1      1016 5.88936E-03 1.20926E-04-3.05277E-14
 -1      1017 6.16924E-03 1.23210E-04-3.33437E-14
 -1      1018 6.44683E-03 1.27606E-04-3.62612E-14
 -1      1019 6.72160E-03 1.35165E-04-3.92776E-14
 -1      1020 6.99306E-03 1.47266E-04-4.23890E-14
 -1      1021 7.26089E-03 1.65560E-04-4.55882E-14
 -1      1022 7.52530E-03 1.91728E-04-4.88738E-14
 -1      1023 1.33209E-02 1.50553E-03-1.06593E-13
 -1      1024 7.95490E-03 2.87106E-04-5.47522E-14
 -1      1025 5.61469E-03 1.20007E-04-2.78802E-14
 -1      1026 4.19538E-03 1.22291E-04-1.60763E-14
 -1      1027 3.63333E-03 1.23221E-04-1.22865E-14
 -1      1028 1.36292E-02 1.63969E-03-1.09052E-13
 -1      1029 1.31004E-02 1.48715E-03-1.14277E-13
 -1      1030 3.34407E-03 1.23244E-04-1.05322E-14
 -1      1031 1.36502E-02 1.74677E-03-1.16185E-13
 -1      1032 2.47338E-03 1.19209E-04-6.05429E-15
 -1      1033 1.62735E-03 5.91622E-07-2.89804E-15
 -1      1034 1.91520E-03-1.10291E-04-3.86912E-15
 -1      1035 3.91470E-03 1.22861E-04-1.41202E-14
 -1      1036 2.76389E-03 1.21502E-04-7.41419E-15
 -1      1037 1.22524E-02 9.93269E-04-1.01010E-13
 -1      1038 3.05421E-03 1.22747E-04-8.90772E-15
 -1      1039 1.28013E-02 1.28234E-03-1.04423E-13
 -1      1040 1.64638E-03-6.92395E-05-2.96054E-15
 -1      1041 8.11898E-03 1.48350E-04-5.54291E-14
 -1      1042 4.48251E-03 1.21590E-04-1.82052E-14
 -1      1043 2.18307E-03 1.15503E-04-4.82854E-15
 -1      1044 4.76881E-03 1.20872E-04-2.04597E-14
 -1      1045 1.32185E-02 1.49381E-03-1.08833E-13
 -1      1046 7.78791E-03 2.26820E-04-5.22453E-14
 -1      1047 1.83521E-03 1.25974E-04-3.51743E-15
 -1      1048 5.19590E-03 4.72743E-05-2.41419E-14
 -1      1049 2.63787E-03-4.62051E-05-6.90041E-15
 -1      1050 2.92862E-03-4.68502E-05-8.34724E-15
 -1      1051 3.21900E-03-4.71499E-05-9.92556E-15
 -1      1052 3.50882E-03-4.71979E-05-1.16330E-14
 -1      1053 3.79795E-03-4.70562E-05-1.34679E-14
 -1      1054 4.08634E-03-4.67570E-05-1.54292E-14
 -1      1055 4.37394E-03-4.63017E-05-1.75152E-14
 -1      1056 4.66075E-03-4.56636E-05-1.97244E-14
 -1      1057 4.94676E-03-4.47714E-05-2.20585E-14
 -1      1058 5.23193E-03-4.35099E-05-2.45114E-14
 -1      1059 5.51627E-03-4.17010E-05-2.70812E-14
 -1      1060 5.79977E-03-3.90876E-05-2.97607E-14
 -1      1061 6.08249E-03-3.53212E-05-3.25458E-14
 -1      1062 6.36460E-03-2.99512E-05-3.54328E-14
 -1      1063 6.64647E-03-2.24467E-05-3.84167E-14
 -1      1064 6.92882E-03-1.22652E-05-4.14944E-14
 -1      1065 7.21291E-03 9.75091E-07-4.46634E-14
 -1      1066 7.50086E-03 1.71528E-05-4.79226E-14
 -1      1067 7.79612E-03 3.50929E-05-5.12714E-14
 -1      1068 1.89449E-03-3.53575E-05-3.80538E-15
 -1      1069 1.32650E-02 1.55150E-03-1.12939E-13
 -1      1070 3.19728E-03 4.73005E-05-9.76126E-15
 -1      1071 6.31020E-03 5.66757E-05-3.48618E-14
 -1      1072 6.03013E-03 5.22254E-05-3.19951E-14
 -1      1073 6.86573E-03 7.41524E-05-4.08924E-14
 -1      1074 7.14171E-03 8.92197E-05-4.40470E-14
 -1      1075 7.41778E-03 1.09795E-04-4.72883E-14
 -1      1076 2.90685E-03 4.69673E-05-8.19728E-15
 -1      1077 8.56461E-03-1.05216E-05-5.93926E-14
 -1      1078 1.89460E-03 4.12598E-05-3.78593E-15
 -1      1079 3.48715E-03 4.73948E-05-1.14550E-14
 -1      1080 2.61608E-03 4.62898E-05-6.76542E-15
 -1      1081 6.58871E-03 6.36623E-05-3.78289E-14
 -1      1082 2.18407E-03-3.71656E-05-4.90922E-15
 -1      1083 2.41086E-03-4.17807E-05-5.86393E-15
 -1      1084 7.69625E-03 1.36069E-04-5.06202E-14
 -1      1085 7.94595E-03 1.94262E-04-5.38315E-14
 -1      1086 1.29980E-02 1.40019E-03-1.08868E-13
 -1      1087 2.32536E-03 4.51354E-05-5.46731E-15
 -1      1088 5.47280E-03 4.80402E-05-2.66337E-14
 -1      1089 4.91087E-03 4.69599E-05-2.17035E-14
 -1      1090 5.75564E-03 4.95829E-05-2.92980E-14
 -1      1091 4.33805E-03 4.70368E-05-1.71939E-14
 -1      1092 3.76912E-03 4.73376E-05-1.32303E-14
 -1      1093 4.05397E-03 4.71968E-05-1.51506E-14
 -1      1094 4.62490E-03 4.69249E-05-1.93858E-14
 -1      1095 0.00000E+00 0.00000E+00 0.00000E+00
 -1      1096 0.00000E+00 0.00000E+00 0.00000E+00
 -1      1097 0.00000E+00 0.00000E+00 0.00000E+00
 -1      1098 0.00000E+00 0.00000E+00 0.00000E+00
 -1      1099 0.00000E+00 0.00000E+00 0.00000E+00
 -1      1100 0.00000E+00 0.00000E+00 0.00000E+00
 -1      1101 0.00000E+00 0.00000E+00 0.00000E+00
 -1      1102 0.00000E+00 0.00000E+00 0.00000E+00
 -1      1103 0.00000E+00 0.00000E+00 0.00000E+00
 -1      1104 0.00000E+00 0.00000E+00 0.00000E+00
 -1      1105 0.00000E+00 0.00000E+00 0.00000E+00
 -1      1106 0.00000E+00 0.00000E+00 0.00000E+00
 -1      1107 0.00000E+00 0.00000E+00 0.00000E+00
 -1      1108 0.00000E+00 0.00000E+00 0.00000E+00
 -1      1109 0.00000E+00 0.00000E+00 0.00000E+00
 -1      1110 0.00000E+00 0.00000E+00 0.00000E+00
 -1      1111 0.00000E+00 0.00000E+00 0.00000E+00
 -1      1112 2.11734E-04-1.48386E-04 2.04643E-17
 -1      1113 5.51798E-04-3.37673E-04-3.77167E-17
 -1      1114 8.33676E-04-4.59271E-04-2.41913E-16
 -1      1115 1.10329E-03-5.41046E-04-6.15962E-16
 -1      1116 1.36873E-03-5.98378E-04-1.15294E-15
 -1      1117 1.63357E-03-6.39158E-04-1.84881E-15
 -1      1118 1.89965E-03-6.68031E-04-2.69988E-15
 -1      1119 2.16782E-03-6.88112E-04-3.70201E-15
 -1      1120 2.43840E-03-7.01684E-04-4.85285E-15
 -1      1121 2.71139E-03-7.10469E-04-6.15077E-15
 -1      1122 2.98662E-03-7.15769E-04-7.59513E-15
 -1      1123 3.26387E-03-7.18566E-04-9.18121E-15
 -1      1124 3.54290E-03-7.19588E-04-1.09051E-14
 -1      1125 3.82345E-03-7.19369E-04-1.27649E-14
 -1      1126 4.10532E-03-7.18291E-04-1.47519E-14
 -1      1127 4.38832E-03-7.16630E-04-1.68632E-14
 -1      1128 4.67234E-03-7.14586E-04-1.90941E-14
 -1      1129 4.95728E-03-7.12318E-04-2.14415E-14
 -1      1130 5.24312E-03-7.09971E-04-2.39071E-14
 -1      1131 5.52985E-03-7.07707E-04-2.64896E-14
 -1      1132 5.81747E-03-7.05729E-04-2.91838E-14
 -1      1133 6.10598E-03-7.04304E-04-3.19852E-14
 -1      1134 6.39528E-03-7.03773E-04-3.48901E-14
 -1      1135 6.68516E-03-7.04538E-04-3.79008E-14
 -1      1136 6.97516E-03-7.07025E-04-4.10130E-14
 -1      1137 7.26455E-03-7.11578E-04-4.42193E-14
 -1      1138 7.55215E-03-7.18292E-04-4.75193E-14
 -1      1139 7.83638E-03-7.26763E-04-5.09162E-14
 -1      1140 8.11527E-03-7.35775E-04-5.44128E-14
 -1      1141 8.38669E-03-7.42974E-04-5.79982E-14
 -1      1142 8.64868E-03-7.44672E-04-6.16597E-14
 -1      1143 8.90003E-03-7.35907E-04-6.53998E-14
 -1      1144 9.14081E-03-7.10926E-04-6.92094E-14
 -1      1145 9.37275E-03-6.64097E-04-7.30845E-14
 -1      1146 9.59920E-03-5.91074E-04-7.70347E-14
 -1      1147 9.82460E-03-4.89848E-04-8.10616E-14
 -1      1148 1.00536E-02-3.61265E-04-8.51677E-14
 -1      1149 1.02901E-02-2.08802E-04-8.93530E-14
 -1      1150 1.05365E-02-3.76848E-05-9.36105E-14
 -1      1151 1.07935E-02 1.46283E-04-9.79305E-14
 -1      1152 1.10602E-02 3.37780E-04-1.02321E-13
 -1      1153 1.13350E-02 5.32636E-04-1.06781E-13
 -1      1154 1.16157E-02 7.28072E-04-1.11303E-13
 -1      1155 1.19001E-02 9.22580E-04-1.15871E-13
 -1      1156 1.21865E-02 1.11565E-03-1.20470E-13
 -1      1157 1.24736E-02 1.30741E-03-1.25085E-13
 -1      1158 1.27605E-02 1.49838E-03-1.29718E-13
 -1      1159 1.30469E-02 1.68916E-03-1.34363E-13
 -1      1160 1.33328E-02 1.88028E-03-1.39008E-13
 -1      1161 1.36113E-02 2.06710E-03-1.43551E-13
 -1      1162 2.03101E-04 1.43184E-04 2.94496E-17
 -1      1163 5.37253E-04 3.30609E-04 6.51877E-18
 -1      1164 8.20076E-04 4.54502E-04-1.50365E-16
 -1      1165 1.09003E-03 5.37770E-04-4.66993E-16
 -1      1166 1.35558E-03 5.96098E-04-9.38445E-16
 -1      1167 1.62039E-03 6.37590E-04-1.56320E-15
 -1      1168 1.88638E-03 6.66987E-04-2.34083E-15
 -1      1169 2.14770E-03 6.87036E-04-3.24274E-15
 -1      1170 2.41130E-03 7.00761E-04-4.28521E-15
 -1      1171 2.68403E-03 7.09969E-04-5.50200E-15
 -1      1172 2.95901E-03 7.15574E-04-6.86648E-15
 -1      1173 3.23603E-03 7.18579E-04-8.37323E-15
 -1      1174 3.51482E-03 7.19723E-04-1.00225E-14
 -1      1175 3.79514E-03 7.19539E-04-1.18124E-14
 -1      1176 4.07675E-03 7.18395E-04-1.37410E-14
 -1      1177 4.35241E-03 7.16583E-04-1.57484E-14
 -1      1178 4.62902E-03 7.14214E-04-1.78779E-14
 -1      1179 4.91367E-03 7.11259E-04-2.01886E-14
 -1      1180 5.19932E-03 7.07768E-04-2.26266E-14
 -1      1181 5.48614E-03 7.03687E-04-2.51812E-14
 -1      1182 5.77444E-03 6.98930E-04-2.78462E-14
 -1      1183 6.06481E-03 6.93397E-04-3.06175E-14
 -1      1184 6.35815E-03 6.87014E-04-3.35026E-14
 -1      1185 6.64840E-03 6.80002E-04-3.64176E-14
 -1      1186 6.94494E-03 6.72446E-04-3.94276E-14
 -1      1187 7.25891E-03 6.64961E-04-4.25986E-14
 -1      1188 7.58793E-03 6.59746E-04-4.58559E-14
 -1      1189 7.93952E-03 6.61370E-04-4.92001E-14
 -1      1190 8.32404E-03 6.79611E-04-5.26189E-14
 -1      1191 8.75405E-03 7.34219E-04-5.61060E-14
 -1      1192 9.24013E-03 8.61253E-04-5.96582E-14
 -1      1193 9.76431E-03 1.10514E-03-6.31946E-14
 -1      1194 1.02995E-02 1.50746E-03-6.68072E-14
 -1      1195 1.07413E-02 1.99672E-03-7.03070E-14
 -1      1196 1.10442E-02 2.41335E-03-7.37941E-14
 -1      1197 1.12698E-02 2.56465E-03-7.75708E-14
 -1      1198 1.15300E-02 2.39165E-03-8.12365E-14
 -1      1199 1.18804E-02 2.10533E-03-8.46832E-14
 -1      1200 1.23267E-02 1.85090E-03-8.83080E-14
 -1      1201 1.28505E-02 1.70436E-03-9.24211E-14
 -1      1202 1.33675E-02 1.69931E-03-9.68116E-14
 -1      1203 1.38274E-02 1.79519E-03-1.01273E-13
 -1      1204 1.42347E-02 1.94532E-03-1.05788E-13
 -1      1205 1.45929E-02 2.11680E-03-1.10223E-13
 -1      1206 1.49235E-02 2.29892E-03-1.14673E-13
 -1      1207 1.52430E-02 2.48958E-03-1.19239E-13
 -1      1208 1.55489E-02 2.68044E-03-1.23815E-13
 -1      1209 1.58457E-02 2.86958E-03-1.28410E-13
 -1      1210 1.61365E-02 3.05589E-03-1.33014E-13
 -1      1211 1.64236E-02 3.23877E-03-1.37625E-13
 -1      1212 1.67020E-02 3.41415E-03-1.42108E-13
 -1      1213 1.67497E-02 3.45681E-03-1.44364E-13
 -1      1214 1.65751E-02 3.37234E-03-1.44494E-13
 -1      1215 1.64031E-02 3.28933E-03-1.44655E-13
 -1      1216 1.62330E-02 3.20922E-03-1.44834E-13
 -1      1217 1.60627E-02 3.13251E-03-1.45008E-13
 -1      1218 1.58917E-02 3.05927E-03-1.45143E-13
 -1      1219 1.57170E-02 2.98772E-03-1.45253E-13
 -1      1220 1.55367E-02 2.91588E-03-1.45341E-13
 -1      1221 1.53524E-02 2.84311E-03-1.45392E-13
 -1      1222 1.51649E-02 2.76854E-03-1.45420E-13
 -1      1223 1.49753E-02 2.69175E-03-1.45448E-13
 -1      1224 1.47862E-02 2.61342E-03-1.45518E-13
 -1      1225 1.45969E-02 2.53319E-03-1.45601E-13
 -1      1226 1.44063E-02 2.45078E-03-1.45657E-13
 -1      1227 1.42163E-02 2.36733E-03-1.45688E-13
 -1      1228 1.40269E-02 2.28326E-03-1.45720E-13
 -1      1229 1.38397E-02 2.19966E-03-1.45753E-13
 -1      1230 1.33397E-02 1.18598E-03-8.65925E-14
 -1      1231 1.33031E-02 1.35771E-03-8.60447E-14
 -1      1232 1.31401E-02 1.54372E-03-8.50904E-14
 -1      1233 1.28661E-02 1.74735E-03-8.38110E-14
 -1      1234 1.24881E-02 1.96574E-03-8.22442E-14
 -1      1235 1.20097E-02 2.17174E-03-8.03972E-14
 -1      1236 1.14471E-02 2.30049E-03-7.83400E-14
 -1      1237 1.08522E-02 2.29326E-03-7.62552E-14
 -1      1238 1.02940E-02 2.14844E-03-7.43674E-14
 -1      1239 9.74880E-03 1.89898E-03-7.25803E-14
 -1      1240 9.25304E-03 1.60305E-03-7.09987E-14
 -1      1241 8.84109E-03 1.31913E-03-6.97170E-14
 -1      1242 8.53184E-03 1.07340E-03-6.87862E-14
 -1      1243 8.33862E-03 8.72277E-04-6.82388E-14
 -1      1244 8.25559E-03 6.89524E-04-6.80559E-14
 -1      1245 8.29918E-03 5.25929E-04-6.83008E-14
 -1      1246 8.46282E-03 3.78796E-04-6.89524E-14
 -1      1247 8.72106E-03 2.45138E-04-6.99504E-14
 -1      1248 9.04411E-03 1.29974E-04-7.12063E-14
 -1      1249 9.42440E-03 3.57234E-05-7.27446E-14
 -1      1250 9.83435E-03-2.34270E-05-7.44596E-14
 -1      1251 1.02634E-02-3.78425E-05-7.62735E-14
 -1      1252 1.07240E-02 4.05537E-07-7.82095E-14
 -1      1253 1.11820E-02 8.67279E-05-8.00954E-14
 -1      1254 1.16319E-02 2.15208E-04-8.18574E-14
 -1      1255 1.20706E-02 3.74063E-04-8.34446E-14
 -1      1256 1.24625E-02 5.40964E-04-8.47360E-14
 -1      1257 1.27995E-02 7.07506E-04-8.57205E-14
 -1      1258 1.30702E-02 8.69718E-04-8.63790E-14
 -1      1259 1.32548E-02 1.02521E-03-8.66858E-14
 -1      1260 1.66743E-04-1.10384E-04-3.56431E-18
 -1      1261 1.12559E-04-5.70052E-05-3.22279E-17
 -1      1262 1.17645E-04-6.76134E-05-2.43132E-17
 -1      1263 1.08427E-04-4.35266E-05-4.52112E-17
 -1      1264 1.10293E-04-4.96369E-05-4.12810E-17
 -1      1265 2.26355E-04-1.07690E-04-9.70768E-17
 -1      1266 1.06855E-04-3.36593E-05-5.21366E-17
 -1      1267 1.07700E-04-3.83828E-05-5.01037E-17
 -1      1268 2.19119E-04-8.25457E-05-1.20143E-16
 -1      1269 1.06072E-04-2.53931E-05-5.64327E-17
 -1      1270 1.06507E-04-2.94232E-05-5.54027E-17
 -1      1271 2.15895E-04-6.33657E-05-1.33628E-16
 -1      1272 1.05661E-04-1.81412E-05-5.85334E-17
 -1      1273 1.05892E-04-2.17061E-05-5.81539E-17
 -1      1274 2.14220E-04-4.72787E-05-1.41583E-16
 -1      1275 1.05439E-04-1.12965E-05-5.97395E-17
 -1      1276 1.05563E-04-1.46780E-05-5.95769E-17
 -1      1277 2.13294E-04-3.28573E-05-1.45757E-16
 -1      1278 1.05337E-04-4.75569E-06-6.01326E-17
 -1      1279 1.05391E-04-8.00418E-06-6.01326E-17
 -1      1280 2.12793E-04-1.93096E-05-1.47817E-16
 -1      1281 1.05323E-04 1.66403E-06-5.97666E-17
 -1      1282 1.05323E-04-1.54282E-06-5.99157E-17
 -1      1283 2.12574E-04-6.29943E-06-1.48116E-16
 -1      1284 1.05393E-04 8.12818E-06-5.89670E-17
 -1      1285 1.05338E-04 4.87775E-06-5.92110E-17
 -1      1286 2.12576E-04 6.54282E-06-1.46923E-16
 -1      1287 1.05568E-04 1.48089E-05-5.74085E-17
 -1      1288 1.05442E-04 1.14232E-05-5.78828E-17
 -1      1289 2.12801E-04 1.95605E-05-1.44375E-16
 -1      1290 1.05899E-04 2.17864E-05-5.45489E-17
 -1      1291 1.05666E-04 1.82173E-05-5.54027E-17
 -1      1292 2.13303E-04 3.30062E-05-1.39591E-16
 -1      1293 1.06522E-04 2.95838E-05-5.04290E-17
 -1      1294 1.06083E-04 2.55434E-05-5.18655E-17
 -1      1295 2.14233E-04 4.74437E-05-1.32273E-16
 -1      1296 1.07730E-04 3.85705E-05-4.39780E-17
 -1      1297 1.06874E-04 3.38299E-05-4.64581E-17
 -1      1298 2.15936E-04 6.37012E-05-1.21498E-16
 -1      1299 1.10354E-04 4.98781E-05-3.35967E-17
 -1      1300 1.08464E-04 4.37367E-05-3.81504E-17
 -1      1301 2.19196E-04 8.29565E-05-1.05073E-16
 -1      1302 1.17778E-04 6.79415E-05-1.53415E-17
 -1      1303 1.12622E-04 5.72853E-05-2.37576E-17
 -1      1304 2.26508E-04 1.08256E-04-7.87944E-17
 -1      1305 1.59213E-04 1.05707E-04 7.03376E-18
 -1      1306 4.21648E-04-2.61861E-04-5.75034E-17
 -1      1307 5.74778E-04-3.36976E-04-1.25551E-16
 -1      1308 7.21993E-04-3.97632E-04-2.37684E-16
 -1      1309 8.65184E-04-4.46977E-04-3.90706E-16
 -1      1310 6.12198E-04-3.31091E-04-2.26259E-16
 -1      1311 1.00523E-03-4.88097E-04-5.83138E-16
 -1      1312 1.14309E-03-5.22130E-04-8.15700E-16
 -1      1313 9.05476E-04-4.31891E-04-5.44554E-16
 -1      1314 1.27960E-03-5.50945E-04-1.08781E-15
 -1      1315 1.41526E-03-5.75020E-04-1.40014E-15
 -1      1316 1.18794E-03-5.01402E-04-1.01964E-15
 -1      1317 1.55051E-03-5.95420E-04-1.75086E-15
 -1      1318 1.68562E-03-6.12478E-04-2.14049E-15
 -1      1319 1.46490E-03-5.50252E-04-1.65037E-15
 -1      1320 1.82081E-03-6.26821E-04-2.56831E-15
 -1      1321 1.95621E-03-6.38741E-04-3.03346E-15
 -1      1322 1.73961E-03-5.84618E-04-2.43475E-15
 -1      1323 2.09193E-03-6.48640E-04-3.53596E-15
 -1      1324 2.22803E-03-6.56768E-04-4.07610E-15
 -1      1325 2.01394E-03-6.08473E-04-3.36938E-15
 -1      1326 2.36455E-03-6.63398E-04-4.65285E-15
 -1      1327 2.50151E-03-6.68736E-04-5.26628E-15
 -1      1328 2.28889E-03-6.24628E-04-4.45213E-15
 -1      1329 2.63892E-03-6.72975E-04-5.91623E-15
 -1      1330 2.77678E-03-6.76280E-04-6.60195E-15
 -1      1331 2.56493E-03-6.35151E-04-5.68089E-15
 -1      1332 2.91508E-03-6.78790E-04-7.32341E-15
 -1      1333 3.05380E-03-6.80633E-04-8.08124E-15
 -1      1334 2.84227E-03-6.41591E-04-7.05325E-15
 -1      1335 3.19293E-03-6.81906E-04-8.87379E-15
 -1      1336 3.33243E-03-6.82710E-04-9.70067E-15
 -1      1337 3.12093E-03-6.45106E-04-8.56723E-15
 -1      1338 3.47231E-03-6.83113E-04-1.05621E-14
 -1      1339 3.61252E-03-6.83190E-04-1.14573E-14
 -1      1340 3.40087E-03-6.46553E-04-1.02203E-14
 -1      1341 3.75305E-03-6.82987E-04-1.23861E-14
 -1      1342 3.89389E-03-6.82561E-04-1.33471E-14
 -1      1343 3.68197E-03-6.46560E-04-1.20089E-14
 -1      1344 4.03500E-03-6.81942E-04-1.43386E-14
 -1      1345 4.17637E-03-6.81173E-04-1.53622E-14
 -1      1346 3.96412E-03-6.45576E-04-1.39280E-14
 -1      1347 4.31800E-03-6.80272E-04-1.64174E-14
 -1      1348 4.45985E-03-6.79273E-04-1.75028E-14
 -1      1349 4.24721E-03-6.43918E-04-1.59731E-14
 -1      1350 4.60194E-03-6.78188E-04-1.86165E-14
 -1      1351 4.74424E-03-6.77044E-04-1.97602E-14
 -1      1352 4.53115E-03-6.41811E-04-1.81409E-14
 -1      1353 4.88675E-03-6.75850E-04-2.09337E-14
 -1      1354 5.02946E-03-6.74631E-04-2.21362E-14
 -1      1355 4.81588E-03-6.39420E-04-2.04269E-14
 -1      1356 5.17238E-03-6.73400E-04-2.33688E-14
 -1      1357 5.31550E-03-6.72180E-04-2.46295E-14
 -1      1358 5.10136E-03-6.36885E-04-2.28308E-14
 -1      1359 5.45883E-03-6.70989E-04-2.59191E-14
 -1      1360 5.60235E-03-6.69856E-04-2.72362E-14
 -1      1361 5.38756E-03-6.34350E-04-2.53501E-14
 -1      1362 5.74607E-03-6.68808E-04-2.85811E-14
 -1      1363 5.88999E-03-6.67878E-04-2.99559E-14
 -1      1364 5.67448E-03-6.31992E-04-2.79827E-14
 -1      1365 6.03410E-03-6.67110E-04-3.13547E-14
 -1      1366 6.17839E-03-6.66539E-04-3.27787E-14
 -1      1367 5.96210E-03-6.30047E-04-3.07240E-14
 -1      1368 6.32283E-03-6.66226E-04-3.42308E-14
 -1      1369 6.46740E-03-6.66209E-04-3.57087E-14
 -1      1370 6.25037E-03-6.28833E-04-3.35738E-14
 -1      1371 6.61207E-03-6.66565E-04-3.72129E-14
 -1      1372 6.75679E-03-6.67327E-04-3.87427E-14
 -1      1373 6.53915E-03-6.28756E-04-3.65271E-14
 -1      1374 6.90148E-03-6.68581E-04-4.02958E-14
 -1      1375 7.04607E-03-6.70342E-04-4.18738E-14
 -1      1376 6.82818E-03-6.30284E-04-3.95821E-14
 -1      1377 7.19046E-03-6.72691E-04-4.34766E-14
 -1      1378 7.33451E-03-6.75602E-04-4.51013E-14
 -1      1379 7.11702E-03-6.33886E-04-4.27345E-14
 -1      1380 7.47809E-03-6.79122E-04-4.67505E-14
 -1      1381 7.62104E-03-6.83157E-04-4.84231E-14
 -1      1382 7.40501E-03-6.39895E-04-4.59829E-14
 -1      1383 7.76316E-03-6.87676E-04-5.01187E-14
 -1      1384 7.90426E-03-6.92483E-04-5.18417E-14
 -1      1385 7.69120E-03-6.48290E-04-4.93256E-14
 -1      1386 8.04411E-03-6.97415E-04-5.35881E-14
 -1      1387 8.18252E-03-7.02141E-04-5.53563E-14
 -1      1388 7.97440E-03-6.58394E-04-5.27644E-14
 -1      1389 8.31926E-03-7.06314E-04-5.71458E-14
 -1      1390 8.45414E-03-7.09450E-04-5.89556E-14
 -1      1391 8.25323E-03-6.68508E-04-5.62963E-14
 -1      1392 8.58701E-03-7.10993E-04-6.07860E-14
 -1      1393 8.71775E-03-7.10316E-04-6.26344E-14
 -1      1394 8.52636E-03-6.75593E-04-5.99131E-14
 -1      1395 8.84630E-03-7.06681E-04-6.45021E-14
 -1      1396 8.97267E-03-6.99377E-04-6.63900E-14
 -1      1397 8.79273E-03-6.75141E-04-6.36087E-14
 -1      1398 9.09696E-03-6.87582E-04-6.82914E-14
 -1      1399 9.21934E-03-6.70608E-04-7.02104E-14
 -1      1400 9.05198E-03-6.61419E-04-6.73755E-14
 -1      1401 9.34009E-03-6.47713E-04-7.21493E-14
 -1      1402 9.45953E-03-6.18370E-04-7.41044E-14
 -1      1403 9.30470E-03-6.28210E-04-7.12135E-14
 -1      1404 9.57808E-03-5.82097E-04-7.60787E-14
 -1      1405 9.69618E-03-5.38650E-04-7.80720E-14
 -1      1406 9.55257E-03-5.69982E-04-7.51241E-14
 -1      1407 9.81431E-03-4.87942E-04-8.00843E-14
 -1      1408 9.93293E-03-4.30075E-04-8.21156E-14
 -1      1409 9.79823E-03-4.83177E-04-7.91070E-14
 -1      1410 1.00525E-02-3.65379E-04-8.41672E-14
 -1      1411 1.01734E-02-2.94274E-04-8.62389E-14
 -1      1412 1.00447E-02-3.67145E-04-8.31685E-14
 -1      1413 1.02959E-02-2.17415E-04-8.83298E-14
 -1      1414 1.04204E-02-1.35438E-04-9.04407E-14
 -1      1415 1.02950E-02-2.24315E-04-8.73097E-14
 -1      1416 1.05469E-02-4.91514E-05-9.25666E-14
 -1      1417 1.06756E-02 4.07322E-05-9.47069E-14
 -1      1418 1.05511E-02-5.95378E-05-9.15232E-14
 -1      1419 1.08063E-02 1.33428E-04-9.68675E-14
 -1      1420 1.09392E-02 2.28271E-04-9.90446E-14
 -1      1421 1.08140E-02 1.21117E-04-9.58060E-14
 -1      1422 1.10740E-02 3.24629E-04-1.01237E-13
 -1      1423 1.12105E-02 4.21966E-04-1.03447E-13
 -1      1424 1.10837E-02 3.11637E-04-1.00155E-13
 -1      1425 1.13486E-02 5.19861E-04-1.05674E-13
 -1      1426 1.14880E-02 6.17933E-04-1.07917E-13
 -1      1427 1.13595E-02 5.07011E-04-1.04572E-13
 -1      1428 1.16286E-02 7.15966E-04-1.10174E-13
 -1      1429 1.17701E-02 8.13729E-04-1.12444E-13
 -1      1430 1.16399E-02 7.03684E-04-1.09050E-13
 -1      1431 1.19122E-02 9.11165E-04-1.14724E-13
 -1      1432 1.20549E-02 1.00817E-03-1.17012E-13
 -1      1433 1.19236E-02 8.99567E-04-1.13581E-13
 -1      1434 1.21980E-02 1.10478E-03-1.19308E-13
 -1      1435 1.23413E-02 1.20098E-03-1.21611E-13
 -1      1436 1.22093E-02 1.09377E-03-1.18153E-13
 -1      1437 1.24847E-02 1.29687E-03-1.23920E-13
 -1      1438 1.26282E-02 1.39248E-03-1.26231E-13
 -1      1439 1.24959E-02 1.28626E-03-1.22754E-13
 -1      1440 1.27716E-02 1.48793E-03-1.28547E-13
 -1      1441 1.29149E-02 1.58328E-03-1.30866E-13
 -1      1442 1.27828E-02 1.47750E-03-1.27376E-13
 -1      1443 1.30581E-02 1.67863E-03-1.33187E-13
 -1      1444 1.32012E-02 1.77403E-03-1.35509E-13
 -1      1445 1.30695E-02 1.66816E-03-1.32012E-13
 -1      1446 1.33442E-02 1.86956E-03-1.37834E-13
 -1      1447 1.34872E-02 1.96524E-03-1.40160E-13
 -1      1448 1.33558E-02 1.85892E-03-1.36658E-13
 -1      1449 1.37040E-02 2.10852E-03-1.43535E-13
 -1      1450 1.37157E-02 2.09766E-03-1.42358E-13
 -1      1451 5.59888E-04 3.30513E-04-7.13541E-17
 -1      1452 4.06180E-04 2.53886E-04-2.23075E-17
 -1      1453 8.51140E-04 4.42616E-04-2.88601E-16
 -1      1454 7.07583E-04 3.92333E-04-1.60896E-16
 -1      1455 5.97396E-04 3.25306E-04-1.62495E-16
 -1      1456 1.12947E-03 5.19115E-04-6.56905E-16
 -1      1457 9.91433E-04 4.84479E-04-4.53508E-16
 -1      1458 8.91246E-04 4.27877E-04-4.33085E-16
 -1      1459 1.40179E-03 5.72937E-04-1.17742E-15
 -1      1460 1.26608E-03 5.48440E-04-8.98289E-16
 -1      1461 1.17408E-03 4.98629E-04-8.52386E-16
 -1      1462 1.67218E-03 6.11060E-04-1.84978E-15
 -1      1463 1.53708E-03 5.93697E-04-1.49457E-15
 -1      1464 1.45120E-03 5.48348E-04-1.42173E-15
 -1      1465 1.94273E-03 6.37817E-04-2.67276E-15
 -1      1466 1.80736E-03 6.25668E-04-2.24236E-15
 -1      1467 1.72597E-03 5.83340E-04-2.14096E-15
 -1      1468 2.20085E-03 6.55453E-04-3.59105E-15
 -1      1469 2.07163E-03 6.47452E-04-3.11543E-15
 -1      1470 1.99343E-03 6.07155E-04-2.98474E-15
 -1      1471 2.47414E-03 6.67959E-04-4.70220E-15
 -1      1472 2.33728E-03 6.62374E-04-4.12836E-15
 -1      1473 2.26142E-03 6.23484E-04-3.96875E-15
 -1      1474 2.74921E-03 6.75896E-04-5.96069E-15
 -1      1475 2.61146E-03 6.72411E-04-5.31336E-15
 -1      1476 2.53733E-03 6.34508E-04-5.12260E-15
 -1      1477 3.02603E-03 6.80526E-04-7.36370E-15
 -1      1478 2.88741E-03 6.78557E-04-6.64405E-15
 -1      1479 2.81451E-03 6.41309E-04-6.42109E-15
 -1      1480 3.30447E-03 6.82789E-04-8.90953E-15
 -1      1481 3.16506E-03 6.81903E-04-8.11894E-15
 -1      1482 3.09302E-03 6.45076E-04-7.86335E-15
 -1      1483 3.58436E-03 6.83369E-04-1.05956E-14
 -1      1484 3.44425E-03 6.83252E-04-9.73544E-15
 -1      1485 3.37280E-03 6.46686E-04-9.44709E-15
 -1      1486 3.86553E-03 6.82753E-04-1.24210E-14
 -1      1487 3.72480E-03 6.83184E-04-1.14908E-14
 -1      1488 3.65375E-03 6.46773E-04-1.11700E-14
 -1      1489 4.14782E-03 6.81269E-04-1.43822E-14
 -1      1490 4.00654E-03 6.82102E-04-1.33851E-14
 -1      1491 3.93575E-03 6.45777E-04-1.30297E-14
 -1      1492 4.41692E-03 6.79243E-04-1.63668E-14
 -1      1493 4.28226E-03 6.80320E-04-1.53601E-14
 -1      1494 4.21162E-03 6.44042E-04-1.49722E-14
 -1      1495 4.70110E-03 6.76563E-04-1.85817E-14
 -1      1496 4.55890E-03 6.77966E-04-1.74583E-14
 -1      1497 4.48832E-03 6.41716E-04-1.70395E-14
 -1      1498 4.98621E-03 6.73354E-04-2.09227E-14
 -1      1499 4.84354E-03 6.75021E-04-1.97369E-14
 -1      1500 4.77296E-03 6.38792E-04-1.92858E-14
 -1      1501 5.27234E-03 6.69583E-04-2.33888E-14
 -1      1502 5.12914E-03 6.71537E-04-2.21406E-14
 -1      1503 5.05849E-03 6.35329E-04-2.16572E-14
 -1      1504 5.55968E-03 6.65169E-04-2.59695E-14
 -1      1505 5.41584E-03 6.67455E-04-2.46649E-14
 -1      1506 5.34500E-03 6.31269E-04-2.41507E-14
 -1      1507 5.84862E-03 6.59994E-04-2.86609E-14
 -1      1508 5.70392E-03 6.62673E-04-2.73023E-14
 -1      1509 5.63273E-03 6.26502E-04-2.67583E-14
 -1      1510 6.13974E-03 6.53925E-04-3.14612E-14
 -1      1511 5.99386E-03 6.57063E-04-3.00476E-14
 -1      1512 5.92203E-03 6.20882E-04-2.94774E-14
 -1      1513 6.43400E-03 6.46851E-04-3.43714E-14
 -1      1514 6.28640E-03 6.50493E-04-3.29024E-14
 -1      1515 6.21350E-03 6.14243E-04-3.23044E-14
 -1      1516 6.71775E-03 6.39187E-04-3.72308E-14
 -1      1517 6.57526E-03 6.43097E-04-3.57898E-14
 -1      1518 6.50058E-03 6.06654E-04-3.51632E-14
 -1      1519 7.02294E-03 6.30384E-04-4.03351E-14
 -1      1520 6.86935E-03 6.34798E-04-3.87711E-14
 -1      1521 6.79174E-03 5.97927E-04-3.81195E-14
 -1      1522 7.33790E-03 6.21684E-04-4.35271E-14
 -1      1523 7.17894E-03 6.25858E-04-4.19212E-14
 -1      1524 7.09636E-03 5.88074E-04-4.12434E-14
 -1      1525 7.66718E-03 6.15348E-04-4.68036E-14
 -1      1526 7.50039E-03 6.17911E-04-4.51531E-14
 -1      1527 7.40960E-03 5.78302E-04-4.44545E-14
 -1      1528 8.01699E-03 6.16594E-04-5.01630E-14
 -1      1529 7.83904E-03 6.14437E-04-4.84744E-14
 -1      1530 7.73492E-03 5.71261E-04-4.77495E-14
 -1      1531 8.39511E-03 6.36717E-04-5.35965E-14
 -1      1532 8.20196E-03 6.23190E-04-5.18712E-14
 -1      1533 8.07674E-03 5.73110E-04-5.11251E-14
 -1      1534 8.80978E-03 6.98533E-04-5.70964E-14
 -1      1535 8.59741E-03 6.60379E-04-5.53377E-14
 -1      1536 8.44035E-03 5.97098E-04-5.45731E-14
 -1      1537 9.26629E-03 8.43105E-04-6.06658E-14
 -1      1538 9.03282E-03 7.57100E-04-5.88724E-14
 -1      1539 8.83170E-03 6.69487E-04-5.80872E-14
 -1      1540 9.73416E-03 1.10985E-03-6.41265E-14
 -1      1541 9.49731E-03 9.57151E-04-6.23876E-14
 -1      1542 9.24607E-03 8.30117E-04-6.15818E-14
 -1      1543 1.02373E-02 1.56302E-03-6.78471E-14
 -1      1544 9.98805E-03 1.31491E-03-6.59754E-14
 -1      1545 9.69682E-03 1.13665E-03-6.51474E-14
 -1      1546 1.06356E-02 2.03555E-03-7.10795E-14
 -1      1547 1.04432E-02 1.79737E-03-6.94564E-14
 -1      1548 1.01517E-02 1.58718E-03-6.86032E-14
 -1      1549 1.10125E-02 2.45275E-03-7.47818E-14
 -1      1550 1.08324E-02 2.27812E-03-7.29176E-14
 -1      1551 1.05943E-02 2.09901E-03-7.20427E-14
 -1      1552 1.13503E-02 2.51567E-03-7.85806E-14
 -1      1553 1.11781E-02 2.53582E-03-7.66686E-14
 -1      1554 1.10328E-02 2.46435E-03-7.57660E-14
 -1      1555 1.16915E-02 2.28072E-03-8.20648E-14
 -1      1556 1.15128E-02 2.42067E-03-8.03143E-14
 -1      1557 1.14401E-02 2.43500E-03-7.93863E-14
 -1      1558 1.20648E-02 1.98432E-03-8.54198E-14
 -1      1559 1.18733E-02 2.12995E-03-8.37322E-14
 -1      1560 1.18361E-02 2.16044E-03-8.27842E-14
 -1      1561 1.25170E-02 1.73260E-03-8.92640E-14
 -1      1562 1.22902E-02 1.84123E-03-8.73327E-14
 -1      1563 1.22571E-02 1.84510E-03-8.63611E-14
 -1      1564 1.30115E-02 1.62271E-03-9.36033E-14
 -1      1565 1.27679E-02 1.65639E-03-9.14256E-14
 -1      1566 1.27145E-02 1.62140E-03-9.04338E-14
 -1      1567 1.34701E-02 1.65680E-03-9.80085E-14
 -1      1568 1.32462E-02 1.62553E-03-9.57991E-14
 -1      1569 1.31610E-02 1.56080E-03-9.47871E-14
 -1      1570 1.38865E-02 1.77676E-03-1.02475E-13
 -1      1571 1.36835E-02 1.70911E-03-1.00234E-13
 -1      1572 1.35702E-02 1.62803E-03-9.92020E-14
 -1      1573 1.42655E-02 1.94033E-03-1.06986E-13
 -1      1574 1.40802E-02 1.85495E-03-1.04725E-13
 -1      1575 1.39479E-02 1.76682E-03-1.03669E-13
 -1      1576 1.45982E-02 2.11416E-03-1.11302E-13
 -1      1577 1.44347E-02 2.02592E-03-1.09141E-13
 -1      1578 1.42916E-02 1.93581E-03-1.08064E-13
 -1      1579 1.49273E-02 2.30483E-03-1.15864E-13
 -1      1580 1.47650E-02 2.20903E-03-1.13581E-13
 -1      1581 1.46163E-02 2.11918E-03-1.12493E-13
 -1      1582 1.52409E-02 2.49748E-03-1.20434E-13
 -1      1583 1.50857E-02 2.40119E-03-1.18150E-13
 -1      1584 1.49345E-02 2.31250E-03-1.17056E-13
 -1      1585 1.55437E-02 2.68921E-03-1.25019E-13
 -1      1586 1.53934E-02 2.59362E-03-1.22724E-13
 -1      1587 1.52416E-02 2.50636E-03-1.21634E-13
 -1      1588 1.58391E-02 2.87854E-03-1.29617E-13
 -1      1589 1.56921E-02 2.78427E-03-1.27316E-13
 -1      1590 1.55408E-02 2.69847E-03-1.26224E-13
 -1      1591 1.61296E-02 3.06456E-03-1.34227E-13
 -1      1592 1.59849E-02 2.97203E-03-1.31921E-13
 -1      1593 1.58344E-02 2.88765E-03-1.30825E-13
 -1      1594 1.64171E-02 3.24684E-03-1.38831E-13
 -1      1595 1.62736E-02 3.15620E-03-1.36530E-13
 -1      1596 1.61241E-02 3.07319E-03-1.35436E-13
 -1      1597 1.66140E-02 3.37203E-03-1.42178E-13
 -1      1598 1.64082E-02 3.27488E-03-1.42542E-13
 -1      1599 1.64948E-02 3.31652E-03-1.42474E-13
 -1      1600 1.62372E-02 3.19313E-03-1.42702E-13
 -1      1601 1.63224E-02 3.23371E-03-1.42621E-13
 -1      1602 1.62416E-02 3.17698E-03-1.40589E-13
 -1      1603 1.60677E-02 3.11398E-03-1.42864E-13
 -1      1604 1.61524E-02 3.15321E-03-1.42782E-13
 -1      1605 1.60716E-02 3.09609E-03-1.40737E-13
 -1      1606 1.58974E-02 3.03747E-03-1.43016E-13
 -1      1607 1.59828E-02 3.07541E-03-1.42944E-13
 -1      1608 1.59025E-02 3.01759E-03-1.40886E-13
 -1      1609 1.57273E-02 2.96425E-03-1.43137E-13
 -1      1610 1.58128E-02 3.00066E-03-1.43081E-13
 -1      1611 1.57335E-02 2.94189E-03-1.41021E-13
 -1      1612 1.55502E-02 2.89083E-03-1.43243E-13
 -1      1613 1.56393E-02 2.92747E-03-1.43194E-13
 -1      1614 1.55612E-02 2.86764E-03-1.41137E-13
 -1      1615 1.53688E-02 2.81736E-03-1.43321E-13
 -1      1616 1.54600E-02 2.85416E-03-1.43284E-13
 -1      1617 1.53830E-02 2.79332E-03-1.41231E-13
 -1      1618 1.51833E-02 2.74291E-03-1.43374E-13
 -1      1619 1.52765E-02 2.78031E-03-1.43353E-13
 -1      1620 1.52004E-02 2.71863E-03-1.41306E-13
 -1      1621 1.49949E-02 2.66684E-03-1.43414E-13
 -1      1622 1.50894E-02 2.70511E-03-1.43396E-13
 -1      1623 1.50139E-02 2.64285E-03-1.41367E-13
 -1      1624 1.48047E-02 2.58888E-03-1.43463E-13
 -1      1625 1.49000E-02 2.62810E-03-1.43435E-13
 -1      1626 1.48246E-02 2.56552E-03-1.41418E-13
 -1      1627 1.46169E-02 2.51044E-03-1.43529E-13
 -1      1628 1.47108E-02 2.54987E-03-1.43495E-13
 -1      1629 1.46355E-02 2.48718E-03-1.41473E-13
 -1      1630 1.44258E-02 2.42907E-03-1.43598E-13
 -1      1631 1.45213E-02 2.46993E-03-1.43563E-13
 -1      1632 1.44458E-02 2.40729E-03-1.41536E-13
 -1      1633 1.42352E-02 2.34647E-03-1.43642E-13
 -1      1634 1.43304E-02 2.38790E-03-1.43624E-13
 -1      1635 1.42546E-02 2.32541E-03-1.41590E-13
 -1      1636 1.40452E-02 2.26302E-03-1.43677E-13
 -1      1637 1.41401E-02 2.30483E-03-1.43662E-13
 -1      1638 1.40640E-02 2.24253E-03-1.41632E-13
 -1      1639 1.38330E-02 2.15938E-03-1.43026E-13
 -1      1640 1.39276E-02 2.20139E-03-1.43010E-13
 -1      1641 1.38513E-02 2.13931E-03-1.40984E-13
 -1      1642 1.36162E-02 2.01614E-03-1.39651E-13
 -1      1643 1.33600E-02 1.21499E-03-8.73717E-14
 -1      1644 1.33499E-02 1.16355E-03-8.75384E-14
 -1      1645 1.32696E-02 1.33996E-03-8.66278E-14
 -1      1646 1.33293E-02 1.28025E-03-8.69957E-14
 -1      1647 1.30282E-02 1.49695E-03-8.55838E-14
 -1      1648 1.31565E-02 1.41460E-03-8.61686E-14
 -1      1649 1.26972E-02 1.71491E-03-8.40463E-14
 -1      1650 1.28614E-02 1.61385E-03-8.47339E-14
 -1      1651 1.22597E-02 1.97101E-03-8.22637E-14
 -1      1652 1.24711E-02 1.84437E-03-8.31521E-14
 -1      1653 1.17853E-02 2.22265E-03-8.02095E-14
 -1      1654 1.20044E-02 2.11362E-03-8.11674E-14
 -1      1655 1.12743E-02 2.37494E-03-7.79001E-14
 -1      1656 1.15126E-02 2.32525E-03-7.89960E-14
 -1      1657 1.07852E-02 2.32715E-03-7.56832E-14
 -1      1658 1.10043E-02 2.37254E-03-7.66621E-14
 -1      1659 1.03040E-02 2.11056E-03-7.36771E-14
 -1      1660 1.05258E-02 2.22741E-03-7.45745E-14
 -1      1661 9.78291E-03 1.77317E-03-7.17589E-14
 -1      1662 1.00279E-02 1.93948E-03-7.26288E-14
 -1      1663 9.28567E-03 1.43010E-03-7.01342E-14
 -1      1664 9.50730E-03 1.58271E-03-7.08305E-14
 -1      1665 8.84462E-03 1.12880E-03-6.87839E-14
 -1      1666 9.04212E-03 1.25718E-03-6.93475E-14
 -1      1667 8.50544E-03 9.26975E-04-6.79715E-14
 -1      1668 8.64104E-03 1.01588E-03-6.83285E-14
 -1      1669 8.30313E-03 7.74907E-04-6.74742E-14
 -1      1670 8.38085E-03 8.38625E-04-6.76565E-14
 -1      1671 8.23305E-03 6.47278E-04-6.71867E-14
 -1      1672 8.24490E-03 6.97270E-04-6.71726E-14
 -1      1673 8.32441E-03 5.42491E-04-6.76879E-14
 -1      1674 8.26554E-03 5.89349E-04-6.74741E-14
 -1      1675 8.55306E-03 4.26915E-04-6.84542E-14
 -1      1676 8.43114E-03 4.83776E-04-6.80239E-14
 -1      1677 8.85666E-03 2.88955E-04-6.96641E-14
 -1      1678 8.70922E-03 3.49670E-04-6.91187E-14
 -1      1679 9.22514E-03 1.56395E-04-7.10298E-14
 -1      1680 9.05355E-03 2.21888E-04-7.03277E-14
 -1      1681 9.60710E-03 2.58416E-05-7.27857E-14
 -1      1682 9.42818E-03 8.19480E-05-7.19646E-14
 -1      1683 9.98684E-03-5.91955E-05-7.46802E-14
 -1      1684 9.81118E-03-2.64342E-05-7.38049E-14
 -1      1685 1.03717E-02-8.16262E-05-7.66623E-14
 -1      1686 1.01935E-02-7.98645E-05-7.57370E-14
 -1      1687 1.07772E-02-2.84966E-05-7.88057E-14
 -1      1688 1.05871E-02-6.56919E-05-7.78064E-14
 -1      1689 1.11863E-02 9.95649E-05-8.07737E-14
 -1      1690 1.10043E-02 3.55199E-05-7.98967E-14
 -1      1691 1.16124E-02 2.84807E-04-8.27042E-14
 -1      1692 1.14077E-02 1.92027E-04-8.18290E-14
 -1      1693 1.20445E-02 4.91394E-04-8.43644E-14
 -1      1694 1.18486E-02 3.96428E-04-8.36495E-14
 -1      1695 1.24601E-02 6.82235E-04-8.56661E-14
 -1      1696 1.22751E-02 5.94075E-04-8.50880E-14
 -1      1697 1.28208E-02 8.51286E-04-8.66590E-14
 -1      1698 1.26617E-02 7.77284E-04-8.62468E-14
 -1      1699 1.31118E-02 9.96263E-04-8.73544E-14
 -1      1700 1.29862E-02 9.36072E-04-8.71060E-14
 -1      1701 1.32983E-02 1.10375E-03-8.75395E-14
 -1      1702 1.32277E-02 1.05520E-03-8.74795E-14
 -1      1703 2.78156E-04 1.72809E-04-2.97478E-17
 -1      1704 1.29077E-02 1.49544E-03-8.58523E-14
 -1      1705 1.64653E-02 3.29025E-03-1.41089E-13
 -1      1706 1.33528E-02 1.23354E-03-8.80039E-14
 -1      1707 1.31999E-02 1.33560E-03-8.71676E-14
 -1      1708 1.33361E-02 1.16057E-03-8.83788E-14
 -1      1709 1.25155E-02 1.73412E-03-8.40976E-14
 -1      1710 1.20620E-02 2.02118E-03-8.20943E-14
 -1      1711 1.15955E-02 2.29280E-03-7.97753E-14
 -1      1712 1.11506E-02 2.41252E-03-7.73179E-14
 -1      1713 1.07169E-02 2.30353E-03-7.49719E-14
 -1      1714 1.02570E-02 2.01181E-03-7.28194E-14
 -1      1715 9.75094E-03 1.62677E-03-7.08523E-14
 -1      1716 9.24570E-03 1.25861E-03-6.91483E-14
 -1      1717 8.79508E-03 9.88973E-04-6.79192E-14
 -1      1718 8.45886E-03 8.16566E-04-6.71572E-14
 -1      1719 8.26678E-03 6.92886E-04-6.65440E-14
 -1      1720 8.23845E-03 6.22516E-04-6.65283E-14
 -1      1721 8.38268E-03 5.45290E-04-6.71454E-14
 -1      1722 8.65326E-03 4.37385E-04-6.81357E-14
 -1      1723 9.00398E-03 2.97374E-04-6.94560E-14
 -1      1724 9.38160E-03 1.42764E-04-7.10459E-14
 -1      1725 9.75389E-03-1.24783E-06-7.29917E-14
 -1      1726 1.01137E-02-9.01735E-05-7.50611E-14
 -1      1727 1.04721E-02-1.01764E-04-7.72589E-14
 -1      1728 1.08338E-02-1.65651E-05-7.94936E-14
 -1      1729 1.12268E-02 1.52764E-04-8.16423E-14
 -1      1730 1.16413E-02 3.75897E-04-8.36486E-14
 -1      1731 1.20816E-02 6.05384E-04-8.53259E-14
 -1      1732 1.25059E-02 8.05796E-04-8.66390E-14
 -1      1733 1.28772E-02 9.70253E-04-8.76743E-14
 -1      1734 1.31654E-02 1.08168E-03-8.82524E-14
 -1      1735 2.85307E-04-1.76309E-04-5.40339E-17
 -1      1736 3.32175E-04-1.16907E-04-1.91443E-16
 -1      1737 3.36284E-04-1.33106E-04-1.78934E-16
 -1      1738 3.42244E-04-1.52106E-04-1.63403E-16
 -1      1739 3.51819E-04-1.74115E-04-1.41692E-16
 -1      1740 4.58348E-04-1.88217E-04-2.59517E-16
 -1      1741 3.24565E-04-6.55191E-05-2.18467E-16
 -1      1742 3.25717E-04-7.68051E-05-2.14265E-16
 -1      1743 3.23069E-04-4.40456E-05-2.23779E-16
 -1      1744 3.23725E-04-5.45237E-05-2.21462E-16
 -1      1745 4.36505E-04-7.94793E-05-3.24949E-16
 -1      1746 3.22279E-04-2.39538E-05-2.26056E-16
 -1      1747 3.22614E-04-3.38532E-05-2.25243E-16
 -1      1748 4.34501E-04-5.15344E-05-3.31156E-16
 -1      1749 3.21977E-04-4.55352E-06-2.25785E-16
 -1      1750 3.22078E-04-1.41877E-05-2.26205E-16
 -1      1751 4.33471E-04-2.51766E-05-3.33487E-16
 -1      1752 3.22088E-04 1.47190E-05-2.23535E-16
 -1      1753 3.21980E-04 5.08090E-06-2.24958E-16
 -1      1754 4.33161E-04 4.57667E-07-3.32457E-16
 -1      1755 3.22638E-04 3.44051E-05-2.18860E-16
 -1      1756 3.22295E-04 2.44932E-05-2.21448E-16
 -1      1757 4.33497E-04 2.61055E-05-3.28229E-16
 -1      1758 3.23744E-04 5.47527E-05-2.10945E-16
 -1      1759 3.23093E-04 4.44392E-05-2.15539E-16
 -1      1760 4.34546E-04 5.22767E-05-3.20490E-16
 -1      1761 3.25769E-04 7.72629E-05-1.99439E-16
 -1      1762 3.24588E-04 6.57601E-05-2.05931E-16
 -1      1763 4.36561E-04 8.00355E-05-3.08686E-16
 -1      1764 3.29428E-04 1.02862E-04-1.81794E-16
 -1      1765 3.27285E-04 8.96480E-05-1.91741E-16
 -1      1766 4.40148E-04 1.10821E-04-2.90891E-16
 -1      1767 3.36502E-04 1.33919E-04-1.54865E-16
 -1      1768 3.32333E-04 1.17622E-04-1.70030E-16
 -1      1769 4.46583E-04 1.46263E-04-2.64112E-16
 -1      1770 3.52298E-04 1.75293E-04-1.13109E-16
 -1      1771 3.42562E-04 1.53100E-04-1.37097E-16
 -1      1772 4.58846E-04 1.89604E-04-2.24294E-16
 -1      1773 1.27790E-02 1.51215E-03-8.61733E-14
 -1      1774 1.29510E-02 1.41771E-03-8.70306E-14
 -1      1775 3.40087E-04-1.91007E-04-1.00167E-16
 -1      1776 3.32923E-04 1.87941E-04-6.99581E-17
 -1      1777 8.07365E-04-3.74378E-04-5.01064E-16
 -1      1778 9.52650E-04-4.15608E-04-7.05274E-16
 -1      1779 1.09551E-03-4.50334E-04-9.47511E-16
 -1      1780 1.23719E-03-4.79267E-04-1.22837E-15
 -1      1781 1.00407E-03-3.98243E-04-8.72295E-16
 -1      1782 1.37761E-03-5.03787E-04-1.54743E-15
 -1      1783 1.51731E-03-5.24190E-04-1.90467E-15
 -1      1784 1.28977E-03-4.56280E-04-1.44241E-15
 -1      1785 1.65649E-03-5.41393E-04-2.29976E-15
 -1      1786 1.79534E-03-5.55637E-04-2.73218E-15
 -1      1787 1.57221E-03-4.97288E-04-2.16331E-15
 -1      1788 1.93408E-03-5.67528E-04-3.20168E-15
 -1      1789 2.07275E-03-5.77267E-04-3.70780E-15
 -1      1790 1.85285E-03-5.25870E-04-3.03319E-15
 -1      1791 2.21151E-03-5.85274E-04-4.25079E-15
 -1      1792 2.35037E-03-5.91718E-04-4.83028E-15
 -1      1793 2.13278E-03-5.45358E-04-4.04951E-15
 -1      1794 2.48944E-03-5.96895E-04-5.44555E-15
 -1      1795 2.62868E-03-6.00944E-04-6.09698E-15
 -1      1796 2.41268E-03-5.58202E-04-5.21074E-15
 -1      1797 2.76818E-03-6.04076E-04-6.78373E-15
 -1      1798 2.90789E-03-6.06404E-04-7.50512E-15
 -1      1799 2.69296E-03-5.66228E-04-6.51416E-15
 -1      1800 3.04787E-03-6.08078E-04-8.26233E-15
 -1      1801 3.18807E-03-6.09186E-04-9.05404E-15
 -1      1802 2.97383E-03-5.70801E-04-7.95855E-15
 -1      1803 3.32854E-03-6.09834E-04-9.87994E-15
 -1      1804 3.46922E-03-6.10089E-04-1.07400E-14
 -1      1805 3.25538E-03-5.72931E-04-9.54132E-15
 -1      1806 3.61015E-03-6.10026E-04-1.16336E-14
 -1      1807 3.75128E-03-6.09693E-04-1.25603E-14
 -1      1808 3.53765E-03-5.73360E-04-1.12600E-14
 -1      1809 3.89264E-03-6.09142E-04-1.35184E-14
 -1      1810 4.03418E-03-6.08410E-04-1.45083E-14
 -1      1811 3.82059E-03-5.72619E-04-1.31104E-14
 -1      1812 4.17593E-03-6.07529E-04-1.55309E-14
 -1      1813 4.31785E-03-6.06527E-04-1.65841E-14
 -1      1814 4.10418E-03-5.71085E-04-1.50900E-14
 -1      1815 4.45996E-03-6.05426E-04-1.76666E-14
 -1      1816 4.60223E-03-6.04248E-04-1.87793E-14
 -1      1817 4.38838E-03-5.69017E-04-1.71938E-14
 -1      1818 4.74467E-03-6.03009E-04-1.99224E-14
 -1      1819 4.88727E-03-6.01726E-04-2.10943E-14
 -1      1820 4.67315E-03-5.66600E-04-1.94188E-14
 -1      1821 5.03004E-03-6.00415E-04-2.22949E-14
 -1      1822 5.17296E-03-5.99094E-04-2.35246E-14
 -1      1823 4.95847E-03-5.63973E-04-2.17605E-14
 -1      1824 5.31605E-03-5.97782E-04-2.47842E-14
 -1      1825 5.45929E-03-5.96498E-04-2.60705E-14
 -1      1826 5.24433E-03-5.61267E-04-2.42185E-14
 -1      1827 5.60269E-03-5.95271E-04-2.73846E-14
 -1      1828 5.74625E-03-5.94125E-04-2.87274E-14
 -1      1829 5.53074E-03-5.58629E-04-2.67899E-14
 -1      1830 5.88997E-03-5.93102E-04-3.00972E-14
 -1      1831 6.03384E-03-5.92232E-04-3.14945E-14
 -1      1832 5.81772E-03-5.56257E-04-2.94717E-14
 -1      1833 6.17786E-03-5.91573E-04-3.29183E-14
 -1      1834 6.32200E-03-5.91161E-04-3.43682E-14
 -1      1835 6.10527E-03-5.54424E-04-3.22645E-14
 -1      1836 6.46628E-03-5.91072E-04-3.58439E-14
 -1      1837 6.61064E-03-5.91346E-04-3.73449E-14
 -1      1838 6.39339E-03-5.53495E-04-3.51620E-14
 -1      1839 6.75509E-03-5.92070E-04-3.88709E-14
 -1      1840 6.89953E-03-5.93281E-04-4.04203E-14
 -1      1841 6.68202E-03-5.53929E-04-3.81609E-14
 -1      1842 7.04399E-03-5.95067E-04-4.19955E-14
 -1      1843 7.18832E-03-5.97446E-04-4.35950E-14
 -1      1844 6.97102E-03-5.56239E-04-4.12600E-14
 -1      1845 7.33253E-03-6.00480E-04-4.52172E-14
 -1      1846 7.47643E-03-6.04150E-04-4.68629E-14
 -1      1847 7.26015E-03-5.60909E-04-4.44544E-14
 -1      1848 7.62004E-03-6.08451E-04-4.85335E-14
 -1      1849 7.76309E-03-6.13295E-04-5.02266E-14
 -1      1850 7.54897E-03-5.68224E-04-4.77433E-14
 -1      1851 7.90561E-03-6.18556E-04-5.19442E-14
 -1      1852 8.04727E-03-6.24040E-04-5.36869E-14
 -1      1853 7.83684E-03-5.78004E-04-5.11272E-14
 -1      1854 8.18811E-03-6.29442E-04-5.54502E-14
 -1      1855 8.32780E-03-6.34423E-04-5.72348E-14
 -1      1856 8.12288E-03-5.89249E-04-5.46052E-14
 -1      1857 8.46635E-03-6.38460E-04-5.90421E-14
 -1      1858 8.60351E-03-6.41047E-04-6.08682E-14
 -1      1859 8.40600E-03-5.99738E-04-5.81725E-14
 -1      1860 8.73926E-03-6.41440E-04-6.27145E-14
 -1      1861 8.87349E-03-6.38988E-04-6.45798E-14
 -1      1862 8.68506E-03-6.05712E-04-6.18227E-14
 -1      1863 9.00618E-03-6.32798E-04-6.64623E-14
 -1      1864 9.13746E-03-6.22148E-04-6.83612E-14
 -1      1865 8.95914E-03-6.01821E-04-6.55492E-14
 -1      1866 9.26727E-03-6.06140E-04-7.02789E-14
 -1      1867 9.39602E-03-5.84126E-04-7.22159E-14
 -1      1868 9.22792E-03-5.81579E-04-6.93466E-14
 -1      1869 9.52366E-03-5.55398E-04-7.41681E-14
 -1      1870 9.65082E-03-5.19534E-04-7.61400E-14
 -1      1871 9.49200E-03-5.38404E-04-7.32154E-14
 -1      1872 9.77745E-03-4.76205E-04-7.81322E-14
 -1      1873 9.90430E-03-4.25333E-04-8.01413E-14
 -1      1874 9.75305E-03-4.67083E-04-7.71561E-14
 -1      1875 1.00313E-02-3.67058E-04-8.21713E-14
 -1      1876 1.01592E-02-3.01669E-04-8.42202E-14
 -1      1877 1.00135E-02-3.65171E-04-8.11758E-14
 -1      1878 1.02879E-02-2.29735E-04-8.62899E-14
 -1      1879 1.04179E-02-1.51828E-04-8.83785E-14
 -1      1880 1.02760E-02-2.33707E-04-8.52728E-14
 -1      1881 1.05492E-02-6.87908E-05-9.04831E-14
 -1      1882 1.06821E-02 1.86703E-05-9.26059E-14
 -1      1883 1.05425E-02-7.68983E-05-8.94442E-14
 -1      1884 1.08163E-02 1.09641E-04-9.47455E-14
 -1      1885 1.09521E-02 2.03432E-04-9.69023E-14
 -1      1886 1.08140E-02 9.90697E-05-9.36877E-14
 -1      1887 1.10892E-02 2.99231E-04-9.90766E-14
 -1      1888 1.12276E-02 3.96474E-04-1.01266E-13
 -1      1889 1.10907E-02 2.87538E-04-9.79975E-14
 -1      1890 1.13672E-02 4.94553E-04-1.03473E-13
 -1      1891 1.15076E-02 5.93071E-04-1.05695E-13
 -1      1892 1.13717E-02 4.82647E-04-1.02377E-13
 -1      1893 1.16491E-02 6.91652E-04-1.07930E-13
 -1      1894 1.17911E-02 7.90061E-04-1.10182E-13
 -1      1895 1.16560E-02 6.80036E-04-1.06815E-13
 -1      1896 1.19337E-02 8.88125E-04-1.12444E-13
 -1      1897 1.20766E-02 9.85735E-04-1.14717E-13
 -1      1898 1.19423E-02 8.76986E-04-1.11310E-13
 -1      1899 1.22199E-02 1.08287E-03-1.17002E-13
 -1      1900 1.23634E-02 1.17952E-03-1.19291E-13
 -1      1901 1.22298E-02 1.07219E-03-1.15852E-13
 -1      1902 1.25069E-02 1.27574E-03-1.21589E-13
 -1      1903 1.26505E-02 1.37157E-03-1.23895E-13
 -1      1904 1.25176E-02 1.26538E-03-1.20430E-13
 -1      1905 1.27941E-02 1.46714E-03-1.26205E-13
 -1      1906 1.29375E-02 1.56249E-03-1.28520E-13
 -1      1907 1.28052E-02 1.45690E-03-1.25034E-13
 -1      1908 1.30809E-02 1.65776E-03-1.30838E-13
 -1      1909 1.32242E-02 1.75300E-03-1.33159E-13
 -1      1910 1.30925E-02 1.64745E-03-1.29664E-13
 -1      1911 1.33487E-02 1.83672E-03-1.35239E-13
 -1      1912 1.34918E-02 1.93216E-03-1.37566E-13
 -1      1913 1.36094E-02 1.99375E-03-1.38230E-13
 -1      1914 1.33605E-02 1.82621E-03-1.34064E-13
 -1      1915 1.22318E-03 4.76746E-04-1.05490E-15
 -1      1916 1.08137E-03 4.47295E-04-8.01754E-16
 -1      1917 9.38388E-04 4.11952E-04-5.85713E-16
 -1      1918 7.92916E-04 3.69965E-04-4.06251E-16
 -1      1919 9.89816E-04 3.94965E-04-7.46419E-16
 -1      1920 1.50345E-03 5.22456E-04-1.67206E-15
 -1      1921 1.36368E-03 5.01688E-04-1.34491E-15
 -1      1922 1.27567E-03 4.53999E-04-1.26425E-15
 -1      1923 1.78154E-03 5.54492E-04-2.43734E-15
 -1      1924 1.64266E-03 5.39977E-04-2.03600E-15
 -1      1925 1.55822E-03 4.95724E-04-1.92828E-15
 -1      1926 2.04508E-03 5.75642E-04-3.29992E-15
 -1      1927 1.91335E-03 5.66061E-04-2.85228E-15
 -1      1928 1.83192E-03 5.24245E-04-2.71669E-15
 -1      1929 2.32265E-03 5.90729E-04-4.35052E-15
 -1      1930 2.18382E-03 5.83993E-04-3.80705E-15
 -1      1931 2.10487E-03 5.43925E-04-3.64331E-15
 -1      1932 2.60087E-03 6.00418E-04-5.54605E-15
 -1      1933 2.46168E-03 5.96157E-04-4.93018E-15
 -1      1934 2.38475E-03 5.57357E-04-4.73668E-15
 -1      1935 2.87997E-03 6.06211E-04-6.88456E-15
 -1      1936 2.74031E-03 6.03731E-04-6.19769E-15
 -1      1937 2.66497E-03 5.65810E-04-5.97283E-15
 -1      1938 3.16004E-03 6.09221E-04-8.36589E-15
 -1      1939 3.01989E-03 6.08011E-04-7.60759E-15
 -1      1940 2.94577E-03 5.70685E-04-7.35135E-15
 -1      1941 3.44108E-03 6.10266E-04-9.98642E-15
 -1      1942 3.30045E-03 6.09950E-04-9.15851E-15
 -1      1943 3.22725E-03 5.73020E-04-8.87029E-15
 -1      1944 3.72303E-03 6.09927E-04-1.17453E-14
 -1      1945 3.58195E-03 6.10241E-04-1.08490E-14
 -1      1946 3.50944E-03 5.73568E-04-1.05275E-14
 -1      1947 4.00583E-03 6.08605E-04-1.36396E-14
 -1      1948 3.86433E-03 6.09370E-04-1.26758E-14
 -1      1949 3.79232E-03 5.72862E-04-1.23223E-14
 -1      1950 4.27522E-03 6.06672E-04-1.55624E-14
 -1      1951 4.14044E-03 6.07710E-04-1.45864E-14
 -1      1952 4.06876E-03 5.71310E-04-1.42010E-14
 -1      1953 4.55953E-03 6.04064E-04-1.77135E-14
 -1      1954 4.41728E-03 6.05434E-04-1.66217E-14
 -1      1955 4.34580E-03 5.69115E-04-1.62054E-14
 -1      1956 4.84458E-03 6.00920E-04-1.99898E-14
 -1      1957 4.70196E-03 6.02555E-04-1.88360E-14
 -1      1958 4.63057E-03 5.66309E-04-1.83877E-14
 -1      1959 5.13044E-03 5.97222E-04-2.23918E-14
 -1      1960 4.98740E-03 5.99140E-04-2.11758E-14
 -1      1961 4.91596E-03 5.62974E-04-2.06952E-14
 -1      1962 5.41720E-03 5.92891E-04-2.49127E-14
 -1      1963 5.27369E-03 5.95137E-04-2.36374E-14
 -1      1964 5.20203E-03 5.59070E-04-2.31265E-14
 -1      1965 5.70509E-03 5.87797E-04-2.75477E-14
 -1      1966 5.56098E-03 5.90441E-04-2.62159E-14
 -1      1967 5.48889E-03 5.54503E-04-2.56755E-14
 -1      1968 5.99442E-03 5.81772E-04-3.02933E-14
 -1      1969 5.84954E-03 5.84901E-04-2.89078E-14
 -1      1970 5.77668E-03 5.49130E-04-2.83386E-14
 -1      1971 6.28568E-03 5.74638E-04-3.31474E-14
 -1      1972 6.13975E-03 5.78340E-04-3.17072E-14
 -1      1973 6.06565E-03 5.42781E-04-3.11101E-14
 -1      1974 6.56478E-03 5.66700E-04-3.59546E-14
 -1      1975 6.42485E-03 5.70800E-04-3.45392E-14
 -1      1976 6.34881E-03 5.35489E-04-3.39158E-14
 -1      1977 6.86201E-03 5.57123E-04-3.90062E-14
 -1      1978 6.71281E-03 5.62041E-04-3.74683E-14
 -1      1979 6.63375E-03 5.27002E-04-3.68191E-14
 -1      1980 7.16401E-03 5.46662E-04-4.21506E-14
 -1      1981 7.01219E-03 5.51941E-04-4.05663E-14
 -1      1982 6.92828E-03 5.17144E-04-3.98917E-14
 -1      1983 7.47241E-03 5.36568E-04-4.53807E-14
 -1      1984 7.31709E-03 5.41438E-04-4.37560E-14
 -1      1985 7.22562E-03 5.06672E-04-4.30561E-14
 -1      1986 7.78923E-03 5.30010E-04-4.86937E-14
 -1      1987 7.62933E-03 5.32572E-04-4.70265E-14
 -1      1988 7.52622E-03 4.97189E-04-4.63061E-14
 -1      1989 8.11693E-03 5.34131E-04-5.20859E-14
 -1      1990 7.95115E-03 5.30154E-04-5.03815E-14
 -1      1991 7.83047E-03 4.92459E-04-4.96375E-14
 -1      1992 8.45884E-03 5.63784E-04-5.55467E-14
 -1      1993 8.28546E-03 5.44523E-04-5.38076E-14
 -1      1994 8.13898E-03 5.00463E-04-5.30444E-14
 -1      1995 8.82107E-03 6.47422E-04-5.90767E-14
 -1      1996 8.63679E-03 5.96254E-04-5.73032E-14
 -1      1997 8.45414E-03 5.36879E-04-5.65217E-14
 -1      1998 9.19539E-03 8.20227E-04-6.24947E-14
 -1      1999 9.00436E-03 7.18182E-04-6.07772E-14
 -1      2000 8.77582E-03 6.27107E-04-5.99761E-14
 -1      2001 9.64155E-03 1.16088E-03-6.61663E-14
 -1      2002 9.41283E-03 9.64386E-04-6.43201E-14
 -1      2003 9.13194E-03 8.17575E-04-6.34954E-14
 -1      2004 1.06279E-02 2.17654E-03-7.30306E-14
 -1      2005 1.03773E-02 1.91498E-03-7.11944E-14
 -1      2006 1.11187E-02 2.46223E-03-7.68733E-14
 -1      2007 1.08535E-02 2.37437E-03-7.49874E-14
 -1      2008 1.19937E-02 2.01511E-03-8.36885E-14
 -1      2009 1.17823E-02 2.17774E-03-8.20229E-14
 -1      2010 1.24520E-02 1.70141E-03-8.74941E-14
 -1      2011 1.22310E-02 1.84390E-03-8.55803E-14
 -1      2012 1.22117E-02 1.84513E-03-8.48026E-14
 -1      2013 1.29077E-02 1.53199E-03-9.18003E-14
 -1      2014 1.26892E-02 1.59493E-03-8.96388E-14
 -1      2015 1.26737E-02 1.56807E-03-8.88450E-14
 -1      2016 1.33130E-02 1.52813E-03-9.61712E-14
 -1      2017 1.31168E-02 1.51413E-03-9.39783E-14
 -1      2018 1.30875E-02 1.46964E-03-9.31718E-14
 -1      2019 1.36835E-02 1.62792E-03-1.00596E-13
 -1      2020 1.35017E-02 1.56862E-03-9.83771E-14
 -1      2021 1.34494E-02 1.51315E-03-9.75550E-14
 -1      2022 1.40310E-02 1.78289E-03-1.05070E-13
 -1      2023 1.38593E-02 1.70062E-03-1.02827E-13
 -1      2024 1.37845E-02 1.63802E-03-1.01989E-13
 -1      2025 1.43456E-02 1.95442E-03-1.09358E-13
 -1      2026 1.41897E-02 1.86668E-03-1.07209E-13
 -1      2027 1.40980E-02 1.80019E-03-1.06358E-13
 -1      2028 1.46643E-02 2.14562E-03-1.13904E-13
 -1      2029 1.45061E-02 2.04920E-03-1.11628E-13
 -1      2030 1.44032E-02 1.98090E-03-1.10764E-13
 -1      2031 1.49730E-02 2.34008E-03-1.18470E-13
 -1      2032 1.48196E-02 2.24272E-03-1.16185E-13
 -1      2033 1.47095E-02 2.17391E-03-1.15315E-13
 -1      2034 1.52743E-02 2.53407E-03-1.23050E-13
 -1      2035 1.51243E-02 2.43728E-03-1.20759E-13
 -1      2036 1.50102E-02 2.36870E-03-1.19884E-13
 -1      2037 1.55699E-02 2.72580E-03-1.27647E-13
 -1      2038 1.54226E-02 2.63030E-03-1.25347E-13
 -1      2039 1.53064E-02 2.56234E-03-1.24471E-13
 -1      2040 1.58614E-02 2.91426E-03-1.32254E-13
 -1      2041 1.57160E-02 2.82049E-03-1.29947E-13
 -1      2042 1.55989E-02 2.75337E-03-1.29070E-13
 -1      2043 1.33339E-02 1.24256E-03-8.88250E-14
 -1      2044 1.33713E-02 1.22036E-03-8.92003E-14
 -1      2045 1.57376E-02 2.92025E-03-1.38906E-13
 -1      2046 1.58220E-02 2.95894E-03-1.38838E-13
 -1      2047 1.59063E-02 2.99817E-03-1.38768E-13
 -1      2048 1.59906E-02 3.03796E-03-1.38699E-13
 -1      2049 1.57413E-02 2.89960E-03-1.36793E-13
 -1      2050 1.62977E-02 3.19145E-03-1.39128E-13
 -1      2051 1.60753E-02 3.07841E-03-1.38628E-13
 -1      2052 1.61607E-02 3.11938E-03-1.38557E-13
 -1      2053 1.59093E-02 2.97913E-03-1.36660E-13
 -1      2054 1.55696E-02 2.84546E-03-1.39027E-13
 -1      2055 1.56540E-02 2.88270E-03-1.38967E-13
 -1      2056 1.55743E-02 2.82303E-03-1.36920E-13
 -1      2057 1.53949E-02 2.77041E-03-1.39138E-13
 -1      2058 1.54829E-02 2.80789E-03-1.39086E-13
 -1      2059 1.54044E-02 2.74801E-03-1.37035E-13
 -1      2060 1.52155E-02 2.69550E-03-1.39225E-13
 -1      2061 1.53058E-02 2.73302E-03-1.39184E-13
 -1      2062 1.52286E-02 2.67299E-03-1.37138E-13
 -1      2063 1.50316E-02 2.61988E-03-1.39301E-13
 -1      2064 1.51241E-02 2.65784E-03-1.39263E-13
 -1      2065 1.50478E-02 2.59764E-03-1.37222E-13
 -1      2066 1.48440E-02 2.54298E-03-1.39365E-13
 -1      2067 1.49382E-02 2.58163E-03-1.39334E-13
 -1      2068 1.48625E-02 2.52122E-03-1.37296E-13
 -1      2069 1.46540E-02 2.46453E-03-1.39419E-13
 -1      2070 1.47493E-02 2.50396E-03-1.39391E-13
 -1      2071 1.46738E-02 2.44330E-03-1.37362E-13
 -1      2072 1.44660E-02 2.38589E-03-1.39479E-13
 -1      2073 1.45601E-02 2.42539E-03-1.39448E-13
 -1      2074 1.44847E-02 2.36444E-03-1.37422E-13
 -1      2075 1.42745E-02 2.30452E-03-1.39538E-13
 -1      2076 1.43702E-02 2.34535E-03-1.39511E-13
 -1      2077 1.42946E-02 2.28414E-03-1.37481E-13
 -1      2078 1.40833E-02 2.22207E-03-1.39586E-13
 -1      2079 1.41788E-02 2.26341E-03-1.39563E-13
 -1      2080 1.41030E-02 2.20195E-03-1.37535E-13
 -1      2081 1.38928E-02 2.13884E-03-1.39624E-13
 -1      2082 1.39879E-02 2.18053E-03-1.39607E-13
 -1      2083 1.39118E-02 2.11890E-03-1.37580E-13
 -1      2084 1.31463E-02 1.32528E-03-8.78984E-14
 -1      2085 1.32602E-02 1.27911E-03-8.83600E-14
 -1      2086 1.33072E-02 1.25447E-03-8.95574E-14
 -1      2087 1.33621E-02 1.19811E-03-8.96147E-14
 -1      2088 1.33125E-02 1.18210E-03-8.96135E-14
 -1      2089 1.12802E-02 2.45298E-03-7.81160E-14
 -1      2090 3.27221E-04-8.91020E-05-2.08668E-16
 -1      2091 3.29334E-04-1.02273E-04-2.00889E-16
 -1      2092 4.46368E-04-1.45289E-04-2.92707E-16
 -1      2093 4.40054E-04-1.10126E-04-3.13090E-16
 -1      2094 1.18938E-02 2.09895E-03-8.19546E-14
 -1      2095 1.21000E-02 1.94472E-03-8.30625E-14
 -1      2096 1.02250E-02 1.91090E-03-7.19767E-14
 -1      2097 1.04405E-02 2.09690E-03-7.30180E-14
 -1      2098 9.71668E-03 1.47920E-03-6.98162E-14
 -1      2099 9.95743E-03 1.67651E-03-7.07344E-14
 -1      2100 9.20968E-03 1.11198E-03-6.80689E-14
 -1      2101 9.44585E-03 1.27401E-03-6.88437E-14
 -1      2102 8.72444E-03 8.64031E-04-6.69239E-14
 -1      2103 8.92652E-03 9.58106E-04-6.73686E-14
 -1      2104 8.41433E-03 7.29440E-04-6.62034E-14
 -1      2105 8.54613E-03 7.83361E-04-6.65123E-14
 -1      2106 8.24555E-03 6.46941E-04-6.56004E-14
 -1      2107 8.30970E-03 6.80305E-04-6.59010E-14
 -1      2108 8.36687E-03 6.65218E-04-6.52575E-14
 -1      2109 8.25768E-03 6.04021E-04-6.59114E-14
 -1      2110 8.22398E-03 6.19266E-04-6.56277E-14
 -1      2111 8.43518E-03 5.47354E-04-6.63093E-14
 -1      2112 8.32890E-03 5.76825E-04-6.59819E-14
 -1      2113 8.75955E-03 4.29266E-04-6.78248E-14
 -1      2114 8.60192E-03 4.88218E-04-6.71686E-14
 -1      2115 9.10794E-03 2.92106E-04-6.90652E-14
 -1      2116 8.93151E-03 3.64526E-04-6.84094E-14
 -1      2117 9.51007E-03 1.10690E-04-7.10236E-14
 -1      2118 9.33352E-03 1.93505E-04-7.00966E-14
 -1      2119 9.86961E-03-3.84527E-05-7.31939E-14
 -1      2120 9.70677E-03 2.66855E-05-7.21817E-14
 -1      2121 1.01988E-02-1.20349E-04-7.54110E-14
 -1      2122 1.00481E-02-9.00700E-05-7.43588E-14
 -1      2123 1.05175E-02-1.12333E-04-7.77485E-14
 -1      2124 1.03669E-02-1.28771E-04-7.66072E-14
 -1      2125 1.08823E-02 1.42033E-05-8.03518E-14
 -1      2126 1.07204E-02-5.53238E-05-7.92592E-14
 -1      2127 1.12278E-02 2.03855E-04-8.24624E-14
 -1      2128 1.10536E-02 9.90867E-05-8.14037E-14
 -1      2129 1.09239E-02 5.70849E-05-8.11649E-14
 -1      2130 1.16742E-02 4.68789E-04-8.46739E-14
 -1      2131 1.14716E-02 3.45653E-04-8.37213E-14
 -1      2132 1.21324E-02 7.16764E-04-8.64284E-14
 -1      2133 1.19224E-02 6.07612E-04-8.56969E-14
 -1      2134 1.25512E-02 9.20505E-04-8.78635E-14
 -1      2135 1.23552E-02 8.33138E-04-8.72740E-14
 -1      2136 1.29279E-02 1.06059E-03-8.88053E-14
 -1      2137 1.27598E-02 9.98756E-04-8.83517E-14
 -1      2138 1.32337E-02 1.15659E-03-8.94858E-14
 -1      2139 1.31211E-02 1.12980E-03-8.93572E-14
 -1      2140 1.32847E-02 1.20506E-03-9.07220E-14
 -1      2141 4.52213E-04 2.34627E-04-1.40865E-16
 -1      2142 1.23891E-02 1.75434E-03-8.43560E-14
 -1      2143 1.25937E-02 1.62444E-03-8.52623E-14
 -1      2144 1.26777E-02 1.54498E-03-8.64328E-14
 -1      2145 4.59036E-04-2.36861E-04-1.83406E-16
 -1      2146 1.61303E-02 3.09196E-03-1.37167E-13
 -1      2147 1.59864E-02 3.00021E-03-1.34863E-13
 -1      2148 1.30554E-02 1.35414E-03-8.82198E-14
 -1      2149 6.07983E-04-2.98327E-04-3.01164E-16
 -1      2150 1.22273E-02 1.83948E-03-8.42145E-14
 -1      2151 6.63699E-04-2.92640E-04-4.10154E-16
 -1      2152 6.57001E-04 2.91208E-04-3.43841E-16
 -1      2153 6.01295E-04 2.96705E-04-2.40937E-16
 -1      2154 9.69685E-03 1.25602E-03-6.73919E-14
 -1      2155 9.36518E-03 1.04902E-03-6.65444E-14
 -1      2156 1.06922E-02 2.26097E-03-7.38824E-14
 -1      2157 1.01498E-02 1.68977E-03-6.99602E-14
 -1      2158 9.93167E-03 1.44496E-03-6.83514E-14
 -1      2159 1.33789E-02 1.22203E-03-9.04378E-14
 -1      2160 1.58694E-02 2.93426E-03-1.33981E-13
 -1      2161 9.63075E-03 1.33273E-03-6.87270E-14
 -1      2162 1.37750E-02 2.07744E-03-1.38959E-13
 -1      2163 1.13931E-02 2.43821E-03-7.90095E-14
 -1      2164 1.14777E-02 2.37056E-03-7.94620E-14
 -1      2165 1.30317E-02 1.13916E-03-9.00368E-14
 -1      2166 1.26308E-02 1.00532E-03-8.89892E-14
 -1      2167 1.22131E-02 8.20099E-04-8.76466E-14
 -1      2168 1.12987E-02 2.83195E-04-8.34791E-14
 -1      2169 1.05965E-02-9.31598E-05-7.85976E-14
 -1      2170 1.02699E-02-1.36851E-04-7.58954E-14
 -1      2171 9.96289E-03-7.37698E-05-7.35390E-14
 -1      2172 9.61929E-03 6.48368E-05-7.12217E-14
 -1      2173 9.22459E-03 2.48215E-04-6.90418E-14
 -1      2174 8.84925E-03 4.08061E-04-6.74375E-14
 -1      2175 8.51158E-03 5.23793E-04-6.60000E-14
 -1      2176 8.22183E-03 6.15860E-04-6.49826E-14
 -1      2177 8.23873E-03 6.03177E-04-6.43400E-14
 -1      2178 8.21535E-03 5.94155E-04-6.43665E-14
 -1      2179 8.64823E-03 7.71211E-04-6.59649E-14
 -1      2180 9.09531E-03 9.84526E-04-6.70665E-14
 -1      2181 1.01391E-02 1.77299E-03-7.09293E-14
 -1      2182 1.16659E-02 2.25445E-03-8.06834E-14
 -1      2183 8.28534E-03 5.81363E-04-6.50799E-14
 -1      2184 1.17601E-02 5.67508E-04-8.57689E-14
 -1      2185 5.47762E-04-5.55874E-05-4.71669E-16
 -1      2186 5.48805E-04-7.22867E-05-4.68755E-16
 -1      2187 5.50230E-04-8.95945E-05-4.64648E-16
 -1      2188 5.52104E-04-1.07558E-04-4.58861E-16
 -1      2189 6.65267E-04-9.58088E-05-6.32835E-16
 -1      2190 5.46342E-04 8.47186E-06-4.70896E-16
 -1      2191 5.46333E-04-7.33620E-06-4.72712E-16
 -1      2192 5.47070E-04 4.04094E-05-4.64106E-16
 -1      2193 5.46584E-04 2.43744E-05-4.68186E-16
 -1      2194 6.61250E-04 1.94602E-05-6.36372E-16
 -1      2195 5.48859E-04 7.29327E-05-4.52682E-16
 -1      2196 5.47816E-04 5.64937E-05-4.59105E-16
 -1      2197 6.62539E-04 5.72304E-05-6.26344E-16
 -1      2198 5.52194E-04 1.08264E-04-4.35036E-16
 -1      2199 5.50301E-04 9.02673E-05-4.44740E-16
 -1      2200 6.65348E-04 9.65861E-05-6.09755E-16
 -1      2201 5.57989E-04 1.47392E-04-4.08785E-16
 -1      2202 5.54719E-04 1.27282E-04-4.23205E-16
 -1      2203 6.70360E-04 1.39200E-04-5.84697E-16
 -1      2204 5.68213E-04 1.92673E-04-3.70540E-16
 -1      2205 5.62413E-04 1.69154E-04-3.91682E-16
 -1      2206 6.78895E-04 1.86556E-04-5.48647E-16
 -1      2207 6.14132E-04 2.52943E-04-3.47405E-16
 -1      2208 6.03343E-04 2.23693E-04-3.78658E-16
 -1      2209 7.20672E-04 2.44601E-04-5.37520E-16
 -1      2210 8.00217E-04 3.16896E-04-5.46722E-16
 -1      2211 1.25865E-02 1.58789E-03-8.67014E-14
 -1      2212 1.27562E-02 1.49055E-03-8.76198E-14
 -1      2213 9.15296E-04-3.46682E-04-7.94490E-16
 -1      2214 1.05940E-03-3.80050E-04-1.04640E-15
 -1      2215 1.20266E-03-4.08470E-04-1.33560E-15
 -1      2216 1.34547E-03-4.32380E-04-1.66227E-15
 -1      2217 1.11708E-03-3.60896E-04-1.22755E-15
 -1      2218 1.48766E-03-4.52620E-04-2.02595E-15
 -1      2219 1.62945E-03-4.69481E-04-2.42672E-15
 -1      2220 1.40341E-03-4.07715E-04-1.88784E-15
 -1      2221 1.77087E-03-4.83630E-04-2.86411E-15
 -1      2222 1.91206E-03-4.95276E-04-3.33808E-15
 -1      2223 1.68855E-03-4.40997E-04-2.69470E-15
 -1      2224 2.05310E-03-5.04916E-04-3.84787E-15
 -1      2225 2.19403E-03-5.12724E-04-4.39419E-15
 -1      2226 1.97275E-03-4.64057E-04-3.64666E-15
 -1      2227 2.33494E-03-5.19062E-04-4.97562E-15
 -1      2228 2.47584E-03-5.24070E-04-5.59318E-15
 -1      2229 2.25640E-03-4.79532E-04-4.74151E-15
 -1      2230 2.61680E-03-5.28012E-04-6.24587E-15
 -1      2231 2.75782E-03-5.31000E-04-6.93328E-15
 -1      2232 2.53983E-03-4.89453E-04-5.97821E-15
 -1      2233 2.89894E-03-5.33226E-04-7.65599E-15
 -1      2234 3.04015E-03-5.34779E-04-8.41296E-15
 -1      2235 2.82328E-03-4.95362E-04-7.35432E-15
 -1      2236 3.18149E-03-5.35794E-04-9.20412E-15
 -1      2237 3.32293E-03-5.36340E-04-1.00294E-14
 -1      2238 3.10689E-03-4.98419E-04-8.86845E-15
 -1      2239 3.46450E-03-5.36514E-04-1.08882E-14
 -1      2240 3.60619E-03-5.36366E-04-1.17806E-14
 -1      2241 3.39075E-03-4.99478E-04-1.05183E-14
 -1      2242 3.74801E-03-5.35963E-04-1.27050E-14
 -1      2243 3.88994E-03-5.35343E-04-1.36616E-14
 -1      2244 3.67491E-03-4.99159E-04-1.23011E-14
 -1      2245 4.03199E-03-5.34549E-04-1.46504E-14
 -1      2246 4.17415E-03-5.33609E-04-1.56711E-14
 -1      2247 3.95937E-03-4.97903E-04-1.42135E-14
 -1      2248 4.31643E-03-5.32552E-04-1.67231E-14
 -1      2249 4.45882E-03-5.31399E-04-1.78043E-14
 -1      2250 4.24413E-03-4.96013E-04-1.62521E-14
 -1      2251 4.60132E-03-5.30169E-04-1.89151E-14
 -1      2252 4.74393E-03-5.28878E-04-2.00570E-14
 -1      2253 4.52921E-03-4.93697E-04-1.84141E-14
 -1      2254 4.88665E-03-5.27542E-04-2.12275E-14
 -1      2255 5.02947E-03-5.26175E-04-2.24261E-14
 -1      2256 4.81460E-03-4.91103E-04-2.06950E-14
 -1      2257 5.17241E-03-5.24795E-04-2.36543E-14
 -1      2258 5.31547E-03-5.23415E-04-2.49116E-14
 -1      2259 5.10032E-03-4.88347E-04-2.30920E-14
 -1      2260 5.45864E-03-5.22060E-04-2.61960E-14
 -1      2261 5.60193E-03-5.20748E-04-2.75080E-14
 -1      2262 5.38640E-03-4.85548E-04-2.56034E-14
 -1      2263 5.74536E-03-5.19512E-04-2.88491E-14
 -1      2264 5.88891E-03-5.18378E-04-3.02179E-14
 -1      2265 5.67289E-03-4.82855E-04-2.82284E-14
 -1      2266 6.03261E-03-5.17392E-04-3.16131E-14
 -1      2267 6.17645E-03-5.16590E-04-3.30349E-14
 -1      2268 5.95987E-03-4.80476E-04-3.09633E-14
 -1      2269 6.32045E-03-5.16034E-04-3.44827E-14
 -1      2270 6.46460E-03-5.15768E-04-3.59559E-14
 -1      2271 6.24743E-03-4.78704E-04-3.38060E-14
 -1      2272 6.60892E-03-5.15868E-04-3.74549E-14
 -1      2273 6.75338E-03-5.16387E-04-3.89779E-14
 -1      2274 6.53569E-03-4.77931E-04-3.67500E-14
 -1      2275 6.89801E-03-5.17405E-04-4.05258E-14
 -1      2276 7.04276E-03-5.18978E-04-4.20980E-14
 -1      2277 6.82479E-03-4.78648E-04-3.97945E-14
 -1      2278 7.18767E-03-5.21172E-04-4.36947E-14
 -1      2279 7.33262E-03-5.24029E-04-4.53145E-14
 -1      2280 7.11484E-03-4.81401E-04-4.29367E-14
 -1      2281 7.47770E-03-5.27576E-04-4.69568E-14
 -1      2282 7.62270E-03-5.31809E-04-4.86235E-14
 -1      2283 7.40587E-03-4.86692E-04-4.61736E-14
 -1      2284 7.76771E-03-5.36673E-04-5.03139E-14
 -1      2285 7.91247E-03-5.42079E-04-5.20277E-14
 -1      2286 7.69774E-03-4.94792E-04-4.95028E-14
 -1      2287 8.05704E-03-5.47832E-04-5.37640E-14
 -1      2288 8.20113E-03-5.53706E-04-5.55236E-14
 -1      2289 7.99006E-03-5.05431E-04-5.29260E-14
 -1      2290 8.34476E-03-5.59315E-04-5.73063E-14
 -1      2291 8.48760E-03-5.64235E-04-5.91094E-14
 -1      2292 8.28205E-03-5.17380E-04-5.64423E-14
 -1      2293 8.62965E-03-5.67859E-04-6.09326E-14
 -1      2294 8.77064E-03-5.69541E-04-6.27761E-14
 -1      2295 8.57249E-03-5.27962E-04-6.00445E-14
 -1      2296 8.91051E-03-5.68469E-04-6.46362E-14
 -1      2297 9.04918E-03-5.63808E-04-6.65165E-14
 -1      2298 8.85992E-03-5.32658E-04-6.37260E-14
 -1      2299 9.18653E-03-5.54645E-04-6.84143E-14
 -1      2300 9.32276E-03-5.40087E-04-7.03293E-14
 -1      2301 9.14301E-03-5.25099E-04-6.74826E-14
 -1      2302 9.45776E-03-5.19293E-04-7.22639E-14
 -1      2303 9.59202E-03-4.91535E-04-7.42146E-14
 -1      2304 9.42121E-03-4.97754E-04-7.13120E-14
 -1      2305 9.72545E-03-4.56257E-04-7.61840E-14
 -1      2306 9.85877E-03-4.13109E-04-7.81731E-14
 -1      2307 9.69526E-03-4.43459E-04-7.52138E-14
 -1      2308 9.99190E-03-3.61991E-04-8.01810E-14
 -1      2309 1.01256E-02-3.03051E-04-8.22082E-14
 -1      2310 9.96728E-03-3.57392E-04-7.91870E-14
 -1      2311 1.02598E-02-2.36672E-04-8.42550E-14
 -1      2312 1.03950E-02-1.63446E-04-8.63221E-14
 -1      2313 1.02401E-02-2.38661E-04-8.32398E-14
 -1      2314 1.05313E-02-8.41238E-05-8.84071E-14
 -1      2315 1.06688E-02 4.49025E-07-9.05097E-14
 -1      2316 1.05164E-02-9.06011E-05-8.73706E-14
 -1      2317 1.08076E-02 8.93641E-05-9.26290E-14
 -1      2318 1.09475E-02 1.81741E-04-9.47666E-14
 -1      2319 1.07973E-02 8.03738E-05-9.15736E-14
 -1      2320 1.10885E-02 2.76716E-04-9.69233E-14
 -1      2321 1.12305E-02 3.73558E-04-9.90949E-14
 -1      2322 1.10829E-02 2.66673E-04-9.58483E-14
 -1      2323 1.13733E-02 4.71579E-04-1.01282E-13
 -1      2324 1.15167E-02 5.70271E-04-1.03484E-13
 -1      2325 1.13720E-02 4.61340E-04-1.00190E-13
 -1      2326 1.16607E-02 6.69171E-04-1.05703E-13
 -1      2327 1.18050E-02 7.67989E-04-1.07936E-13
 -1      2328 1.16632E-02 6.59120E-04-1.04593E-13
 -1      2329 1.19495E-02 8.66476E-04-1.10181E-13
 -1      2330 1.20941E-02 9.64509E-04-1.12439E-13
 -1      2331 1.19550E-02 8.56694E-04-1.09055E-13
 -1      2332 1.22387E-02 1.06200E-03-1.14706E-13
 -1      2333 1.23832E-02 1.15895E-03-1.16984E-13
 -1      2334 1.22466E-02 1.05242E-03-1.13564E-13
 -1      2335 1.25277E-02 1.25538E-03-1.19273E-13
 -1      2336 1.26720E-02 1.35135E-03-1.21565E-13
 -1      2337 1.25373E-02 1.24586E-03-1.18115E-13
 -1      2338 1.28162E-02 1.44693E-03-1.23866E-13
 -1      2339 1.29602E-02 1.54222E-03-1.26175E-13
 -1      2340 1.28269E-02 1.43731E-03-1.22700E-13
 -1      2341 1.31040E-02 1.63733E-03-1.28490E-13
 -1      2342 1.32475E-02 1.73235E-03-1.30809E-13
 -1      2343 1.31154E-02 1.62746E-03-1.27317E-13
 -1      2344 1.08846E-03 3.87180E-04-9.89009E-16
 -1      2345 9.44428E-04 3.54809E-04-7.49590E-16
 -1      2346 9.02231E-04 3.16319E-04-7.46731E-16
 -1      2347 1.88744E-03 4.93560E-04-3.01126E-15
 -1      2348 1.75329E-03 4.82172E-04-2.58962E-15
 -1      2349 2.16944E-03 5.11655E-04-4.00519E-15
 -1      2350 2.02850E-03 5.03550E-04-3.49022E-15
 -1      2351 1.95153E-03 4.62792E-04-3.33484E-15
 -1      2352 2.45125E-03 5.23474E-04-5.14165E-15
 -1      2353 2.31035E-03 5.18248E-04-4.55549E-15
 -1      2354 2.23521E-03 4.78773E-04-4.37294E-15
 -1      2355 2.73320E-03 5.30746E-04-6.41995E-15
 -1      2356 2.59220E-03 5.27601E-04-5.76321E-15
 -1      2357 2.51866E-03 4.89065E-04-5.55200E-15
 -1      2358 3.01550E-03 5.34764E-04-7.83941E-15
 -1      2359 2.87431E-03 5.33104E-04-7.11212E-15
 -1      2360 2.80210E-03 4.95240E-04-6.87180E-15
 -1      2361 3.29825E-03 5.36482E-04-9.39770E-15
 -1      2362 3.15682E-03 5.35868E-04-8.60148E-15
 -1      2363 3.08571E-03 4.98480E-04-8.33148E-15
 -1      2364 3.58148E-03 5.36589E-04-1.10926E-14
 -1      2365 3.43981E-03 5.36706E-04-1.02281E-14
 -1      2366 3.36957E-03 4.99653E-04-9.92842E-15
 -1      2367 3.86520E-03 5.35566E-04-1.29239E-14
 -1      2368 3.72328E-03 5.36197E-04-1.19916E-14
 -1      2369 3.65372E-03 4.99381E-04-1.16613E-14
 -1      2370 4.13519E-03 5.33837E-04-1.47877E-14
 -1      2371 4.00015E-03 5.34781E-04-1.38410E-14
 -1      2372 3.93108E-03 4.98136E-04-1.34808E-14
 -1      2373 4.41986E-03 5.31407E-04-1.68763E-14
 -1      2374 4.27747E-03 5.32692E-04-1.58155E-14
 -1      2375 4.20874E-03 4.96187E-04-1.54259E-14
 -1      2376 4.70500E-03 5.28441E-04-1.90909E-14
 -1      2377 4.56237E-03 5.29987E-04-1.79676E-14
 -1      2378 4.49385E-03 4.93615E-04-1.75486E-14
 -1      2379 4.99064E-03 5.24952E-04-2.14320E-14
 -1      2380 4.84776E-03 5.26761E-04-2.02460E-14
 -1      2381 4.77928E-03 4.90534E-04-1.97973E-14
 -1      2382 5.27681E-03 5.20888E-04-2.38934E-14
 -1      2383 5.13365E-03 5.22993E-04-2.26483E-14
 -1      2384 5.06505E-03 4.86943E-04-2.21697E-14
 -1      2385 5.56357E-03 5.16148E-04-2.64725E-14
 -1      2386 5.42010E-03 5.18606E-04-2.51691E-14
 -1      2387 5.35115E-03 4.82785E-04-2.46628E-14
 -1      2388 5.85100E-03 5.10594E-04-2.91627E-14
 -1      2389 5.70718E-03 5.13477E-04-2.78034E-14
 -1      2390 5.63760E-03 4.77964E-04-2.72706E-14
 -1      2391 6.13920E-03 5.04073E-04-3.19634E-14
 -1      2392 5.99498E-03 5.07458E-04-3.05499E-14
 -1      2393 5.92436E-03 4.72365E-04-2.99900E-14
 -1      2394 6.41377E-03 4.96871E-04-3.47202E-14
 -1      2395 6.27635E-03 5.00595E-04-3.33300E-14
 -1      2396 6.20417E-03 4.66057E-04-3.27446E-14
 -1      2397 6.70363E-03 4.88213E-04-3.77205E-14
 -1      2398 6.55853E-03 4.92675E-04-3.62080E-14
 -1      2399 6.48399E-03 4.58876E-04-3.55973E-14
 -1      2400 6.99423E-03 4.78702E-04-4.08154E-14
 -1      2401 6.84876E-03 4.83544E-04-3.92562E-14
 -1      2402 6.77060E-03 4.50737E-04-3.86218E-14
 -1      2403 7.28517E-03 4.69185E-04-4.40023E-14
 -1      2404 7.13955E-03 4.73895E-04-4.23974E-14
 -1      2405 7.05601E-03 4.42311E-04-4.17401E-14
 -1      2406 7.57559E-03 4.61722E-04-4.72721E-14
 -1      2407 7.43029E-03 4.65086E-04-4.56277E-14
 -1      2408 7.33881E-03 4.34822E-04-4.49473E-14
 -1      2409 7.86416E-03 4.60676E-04-5.06235E-14
 -1      2410 7.71987E-03 4.60154E-04-4.89381E-14
 -1      2411 7.61678E-03 4.30818E-04-4.82390E-14
 -1      2412 8.14961E-03 4.74557E-04-5.40438E-14
 -1      2413 8.00687E-03 4.65216E-04-5.23248E-14
 -1      2414 7.88684E-03 4.35110E-04-5.16063E-14
 -1      2415 8.43315E-03 5.18920E-04-5.75373E-14
 -1      2416 8.29074E-03 4.91700E-04-5.57820E-14
 -1      2417 8.14583E-03 4.56086E-04-5.50455E-14
 -1      2418 8.70938E-03 6.14094E-04-6.09178E-14
 -1      2419 8.56884E-03 5.57661E-04-5.92198E-14
 -1      2420 8.38747E-03 5.05769E-04-5.84650E-14
 -1      2421 9.07378E-03 8.30384E-04-6.44779E-14
 -1      2422 8.89810E-03 7.06105E-04-6.26565E-14
 -1      2423 1.33891E-02 1.24238E-03-9.13658E-14
 -1      2424 1.33846E-02 1.24357E-03-9.17799E-14
 -1      2425 1.16871E-02 2.24146E-03-8.10672E-14
 -1      2426 1.35587E-02 1.50038E-03-9.87322E-14
 -1      2427 1.34062E-02 1.44954E-03-9.65306E-14
 -1      2428 1.38559E-02 1.64278E-03-1.03173E-13
 -1      2429 1.37074E-02 1.56618E-03-1.00947E-13
 -1      2430 1.36474E-02 1.50126E-03-9.99077E-14
 -1      2431 1.41360E-02 1.80687E-03-1.07434E-13
 -1      2432 1.39956E-02 1.72227E-03-1.05299E-13
 -1      2433 1.39064E-02 1.65076E-03-1.04244E-13
 -1      2434 1.44307E-02 1.99401E-03-1.11954E-13
 -1      2435 1.42831E-02 1.89914E-03-1.09689E-13
 -1      2436 1.41729E-02 1.82229E-03-1.08620E-13
 -1      2437 1.47247E-02 2.18702E-03-1.16508E-13
 -1      2438 1.45776E-02 2.09009E-03-1.14227E-13
 -1      2439 1.44528E-02 2.00964E-03-1.13144E-13
 -1      2440 1.50174E-02 2.38115E-03-1.21080E-13
 -1      2441 1.48711E-02 2.28412E-03-1.18793E-13
 -1      2442 1.47368E-02 2.20169E-03-1.17700E-13
 -1      2443 1.53085E-02 2.57394E-03-1.25672E-13
 -1      2444 1.51630E-02 2.47780E-03-1.23373E-13
 -1      2445 1.50230E-02 2.39458E-03-1.22280E-13
 -1      2446 1.55979E-02 2.76411E-03-1.30275E-13
 -1      2447 1.54533E-02 2.66943E-03-1.27972E-13
 -1      2448 1.53099E-02 2.58620E-03-1.26873E-13
 -1      2449 1.29747E-02 1.38204E-03-8.87922E-14
 -1      2450 1.31519E-02 1.31193E-03-8.96669E-14
 -1      2451 1.54106E-02 2.72520E-03-1.34935E-13
 -1      2452 1.54937E-02 2.76253E-03-1.34878E-13
 -1      2453 1.50622E-02 2.57557E-03-1.35139E-13
 -1      2454 1.51514E-02 2.61308E-03-1.35092E-13
 -1      2455 1.48798E-02 2.49986E-03-1.35220E-13
 -1      2456 1.49716E-02 2.53789E-03-1.35182E-13
 -1      2457 1.48956E-02 2.47839E-03-1.33145E-13
 -1      2458 1.46931E-02 2.42268E-03-1.35297E-13
 -1      2459 1.47869E-02 2.46150E-03-1.35259E-13
 -1      2460 1.47115E-02 2.40230E-03-1.33226E-13
 -1      2461 1.45032E-02 2.34374E-03-1.35363E-13
 -1      2462 1.45985E-02 2.38344E-03-1.35331E-13
 -1      2463 1.45232E-02 2.32429E-03-1.33300E-13
 -1      2464 1.43150E-02 2.26449E-03-1.35424E-13
 -1      2465 1.44092E-02 2.30430E-03-1.35394E-13
 -1      2466 1.43338E-02 2.24494E-03-1.33367E-13
 -1      2467 1.41230E-02 2.18248E-03-1.35483E-13
 -1      2468 1.42190E-02 2.22363E-03-1.35454E-13
 -1      2469 1.41433E-02 2.16386E-03-1.33428E-13
 -1      2470 1.39313E-02 2.09946E-03-1.35532E-13
 -1      2471 1.40270E-02 2.14106E-03-1.35509E-13
 -1      2472 1.39510E-02 2.08080E-03-1.33483E-13
 -1      2473 1.37403E-02 2.01581E-03-1.35575E-13
 -1      2474 1.38357E-02 2.05769E-03-1.35553E-13
 -1      2475 1.37594E-02 1.99693E-03-1.33530E-13
 -1      2476 1.32810E-02 1.26923E-03-9.04738E-14
 -1      2477 1.33490E-02 1.25389E-03-9.09416E-14
 -1      2478 8.29758E-03 5.62070E-04-6.41785E-14
 -1      2479 8.23866E-03 5.74868E-04-6.41113E-14
 -1      2480 1.61182E-03 4.67694E-04-2.18108E-15
 -1      2481 1.46999E-03 4.50445E-04-1.80871E-15
 -1      2482 1.66728E-03 4.39057E-04-2.43927E-15
 -1      2483 1.58165E-02 2.91562E-03-1.34771E-13
 -1      2484 1.56917E-02 2.82896E-03-1.32160E-13
 -1      2485 1.55469E-02 2.74642E-03-1.31060E-13
 -1      2486 1.57327E-02 2.87542E-03-1.34836E-13
 -1      2487 1.31044E-02 1.19675E-03-9.14150E-14
 -1      2488 1.29204E-02 1.14852E-03-9.08568E-14
 -1      2489 1.33217E-02 1.23477E-03-9.18342E-14
 -1      2490 1.32477E-02 1.22589E-03-9.17038E-14
 -1      2491 1.06286E-02-7.10866E-05-7.93943E-14
 -1      2492 1.04716E-02-1.26934E-04-7.78851E-14
 -1      2493 8.57477E-03 6.92630E-04-6.48813E-14
 -1      2494 8.74263E-03 7.54097E-04-6.52852E-14
 -1      2495 1.55716E-02 2.79898E-03-1.34890E-13
 -1      2496 1.56551E-02 2.83792E-03-1.34827E-13
 -1      2497 1.55628E-02 2.77365E-03-1.32938E-13
 -1      2498 1.54084E-02 2.70025E-03-1.32913E-13
 -1      2499 1.52389E-02 2.65029E-03-1.35044E-13
 -1      2500 1.53255E-02 2.68776E-03-1.34990E-13
 -1      2501 1.52463E-02 2.62697E-03-1.32952E-13
 -1      2502 1.50740E-02 2.55294E-03-1.33053E-13
 -1      2503 5.46557E-04-2.32304E-05-4.73417E-16
 -1      2504 5.47023E-04-3.92489E-05-4.73105E-16
 -1      2505 6.62479E-04-5.61696E-05-6.40018E-16
 -1      2506 6.61226E-04-1.81098E-05-6.40885E-16
 -1      2507 1.35103E-03 4.33840E-04-1.52360E-15
 -1      2508 1.20824E-03 4.10058E-04-1.21790E-15
 -1      2509 1.16587E-03 3.71396E-04-1.21130E-15
 -1      2510 1.40539E-03 4.08593E-04-1.74193E-15
 -1      2511 1.36506E-02 1.99363E-03-1.36873E-13
 -1      2512 8.32515E-03 6.15567E-04-6.42062E-14
 -1      2513 8.42982E-03 6.43302E-04-6.45043E-14
 -1      2514 1.18405E-02 6.64542E-04-8.70095E-14
 -1      2515 1.16199E-02 5.29609E-04-8.59786E-14
 -1      2516 8.60610E-03 4.90076E-04-6.56715E-14
 -1      2517 8.44539E-03 5.29372E-04-6.48219E-14
 -1      2518 8.89370E-03 3.86018E-04-6.68231E-14
 -1      2519 8.74356E-03 4.43896E-04-6.62466E-14
 -1      2520 8.64515E-03 4.57385E-04-6.50628E-14
 -1      2521 9.31250E-03 1.99359E-04-6.88361E-14
 -1      2522 9.11586E-03 2.91695E-04-6.78161E-14
 -1      2523 9.70772E-03 1.42949E-05-7.13805E-14
 -1      2524 9.53909E-03 9.41499E-05-7.02296E-14
 -1      2525 1.00271E-02-1.06733E-04-7.38444E-14
 -1      2526 9.88297E-03-5.58710E-05-7.26841E-14
 -1      2527 1.03124E-02-1.47664E-04-7.63443E-14
 -1      2528 1.01821E-02-1.38835E-04-7.51525E-14
 -1      2529 1.09665E-02 1.10344E-04-8.21086E-14
 -1      2530 1.08301E-02 2.63229E-05-8.10526E-14
 -1      2531 1.13691E-02 3.73961E-04-8.47123E-14
 -1      2532 1.11630E-02 2.34575E-04-8.34457E-14
 -1      2533 1.22772E-02 9.03425E-04-8.89363E-14
 -1      2534 1.20715E-02 7.96623E-04-8.80825E-14
 -1      2535 1.27514E-02 1.09332E-03-9.03576E-14
 -1      2536 1.25615E-02 1.02589E-03-8.98613E-14
 -1      2537 1.28584E-02 1.15869E-03-9.17349E-14
 -1      2538 5.88587E-04-2.38196E-04-3.79850E-16
 -1      2539 7.81396E-04-3.05117E-04-6.05107E-16
 -1      2540 8.40854E-04-2.93894E-04-7.41730E-16
 -1      2541 5.79010E-04-2.10374E-04-4.04611E-16
 -1      2542 6.70212E-04-1.38253E-04-6.17887E-16
 -1      2543 5.54591E-04-1.26448E-04-4.51042E-16
 -1      2544 5.57809E-04-1.46414E-04-4.40782E-16
 -1      2545 1.24543E-02 1.66956E-03-8.61141E-14
 -1      2546 1.28994E-02 1.42610E-03-8.90636E-14
 -1      2547 8.50055E-03 6.33036E-04-6.38288E-14
 -1      2548 1.19329E-02 7.49608E-04-8.82921E-14
 -1      2549 8.65900E-03 6.14541E-04-6.18844E-14
 -1      2550 1.33749E-02 1.25998E-03-9.27654E-14
 -1      2551 1.32310E-02 1.29916E-03-9.10511E-14
 -1      2552 1.31692E-02 1.23403E-03-9.25282E-14
 -1      2553 9.17133E-03 9.73528E-04-6.65841E-14
 -1      2554 9.16479E-03 9.02473E-04-6.53731E-14
 -1      2555 1.33910E-02 1.26473E-03-9.22870E-14
 -1      2556 1.06885E-02-3.04453E-05-8.03265E-14
 -1      2557 1.34672E-02 1.87926E-03-1.34457E-13
 -1      2558 1.36331E-02 1.96296E-03-1.35182E-13
 -1      2559 1.35566E-02 1.90188E-03-1.33159E-13
 -1      2560 1.33426E-02 1.79574E-03-1.32375E-13
 -1      2561 8.90715E-03 7.68791E-04-6.45206E-14
 -1      2562 8.20987E-03 5.66271E-04-6.34698E-14
 -1      2563 1.03712E-02-1.43655E-04-7.71301E-14
 -1      2564 8.81021E-03 7.51294E-04-6.48069E-14
 -1      2565 8.91599E-03 8.40120E-04-6.58946E-14
 -1      2566 1.24285E-02 9.97175E-04-9.03000E-14
 -1      2567 1.14727E-02 4.66566E-04-8.59424E-14
 -1      2568 1.10567E-02 1.90783E-04-8.33292E-14
 -1      2569 1.00832E-02-1.31236E-04-7.42863E-14
 -1      2570 9.77844E-03-3.20618E-05-7.16800E-14
 -1      2571 1.32433E-02 1.42179E-03-9.43339E-14
 -1      2572 1.30735E-02 1.42075E-03-9.21565E-14
 -1      2573 1.27812E-02 1.50686E-03-8.94394E-14
 -1      2574 1.25614E-02 1.60938E-03-8.72972E-14
 -1      2575 1.33544E-02 1.78556E-03-1.31199E-13
 -1      2576 1.33796E-02 1.39356E-03-9.55020E-14
 -1      2577 8.98251E-03 3.28985E-04-6.66193E-14
 -1      2578 8.35523E-03 5.36140E-04-6.38520E-14
 -1      2579 8.28179E-03 5.28681E-04-6.28888E-14
 -1      2580 8.41915E-03 5.03238E-04-6.35254E-14
 -1      2581 5.64313E-04-1.65176E-04-4.33776E-16
 -1      2582 5.69756E-04-1.88238E-04-4.17662E-16
 -1      2583 6.97882E-04-2.28028E-04-5.76010E-16
 -1      2584 6.80731E-04-1.81941E-04-5.99266E-16
 -1      2585 8.26642E-03 5.85453E-04-6.35892E-14
 -1      2586 8.30262E-03 5.67480E-04-6.28398E-14
 -1      2587 8.22444E-03 5.64329E-04-6.29749E-14
 -1      2588 9.40373E-03 1.36946E-04-6.89905E-14
 -1      2589 1.31589E-02 1.35043E-03-9.17735E-14
 -1      2590 1.29765E-02 1.41826E-03-9.06222E-14
 -1      2591 7.80032E-04 7.66857E-05-8.13653E-16
 -1      2592 7.78797E-04 5.48737E-05-8.21852E-16
 -1      2593 7.77973E-04 3.30064E-05-8.28168E-16
 -1      2594 7.77570E-04 1.13817E-05-8.32613E-16
 -1      2595 8.96348E-04 4.90455E-05-1.04529E-15
 -1      2596 7.91194E-04 1.72187E-04-7.57098E-16
 -1      2597 7.87236E-04 1.46869E-04-7.75557E-16
 -1      2598 8.02920E-04 2.27196E-04-7.09461E-16
 -1      2599 7.96393E-04 1.98910E-04-7.35333E-16
 -1      2600 9.14446E-04 2.06804E-04-9.51523E-16
 -1      2601 8.69530E-04 2.87240E-04-7.38098E-16
 -1      2602 8.32219E-04 2.52883E-04-7.25060E-16
 -1      2603 9.50370E-04 2.62924E-04-9.43202E-16
 -1      2604 1.01265E-03 3.18832E-04-9.73722E-16
 -1      2605 1.33663E-02 1.77564E-03-1.30022E-13
 -1      2606 1.34615E-02 1.83874E-03-1.31587E-13
 -1      2607 1.35688E-02 1.89184E-03-1.31979E-13
 -1      2608 1.54704E-02 2.70882E-03-1.31048E-13
 -1      2609 1.53775E-02 2.64349E-03-1.29163E-13
 -1      2610 1.53939E-02 2.67189E-03-1.31037E-13
 -1      2611 1.34778E-02 1.38819E-03-9.65471E-14
 -1      2612 1.33594E-02 1.34720E-03-9.43552E-14
 -1      2613 1.32022E-03-3.63197E-04-1.74937E-15
 -1      2614 1.46344E-03-3.82222E-04-2.11944E-15
 -1      2615 1.60648E-03-3.98337E-04-2.52503E-15
 -1      2616 1.74942E-03-4.11763E-04-2.96734E-15
 -1      2617 1.52503E-03-3.55924E-04-2.35638E-15
 -1      2618 1.89219E-03-4.22976E-04-3.44558E-15
 -1      2619 2.03485E-03-4.32167E-04-3.95907E-15
 -1      2620 1.81171E-03-3.81859E-04-3.24498E-15
 -1      2621 2.17741E-03-4.39709E-04-4.50825E-15
 -1      2622 2.31988E-03-4.45753E-04-5.09235E-15
 -1      2623 2.09817E-03-3.99711E-04-4.27566E-15
 -1      2624 2.46230E-03-4.50589E-04-5.71140E-15
 -1      2625 2.60467E-03-4.54336E-04-6.36562E-15
 -1      2626 2.38435E-03-4.11493E-04-5.44629E-15
 -1      2627 2.74703E-03-4.57211E-04-7.05456E-15
 -1      2628 2.88937E-03-4.59308E-04-7.77766E-15
 -1      2629 2.67030E-03-4.18814E-04-6.75591E-15
 -1      2630 3.03173E-03-4.60788E-04-8.53487E-15
 -1      2631 3.17409E-03-4.61720E-04-9.32560E-15
 -1      2632 2.95608E-03-4.22921E-04-8.20318E-15
 -1      2633 3.31649E-03-4.62223E-04-1.01501E-14
 -1      2634 3.45890E-03-4.62347E-04-1.10088E-14
 -1      2635 3.24175E-03-4.24755E-04-9.78459E-15
 -1      2636 3.60135E-03-4.62176E-04-1.18998E-14
 -1      2637 3.74383E-03-4.61746E-04-1.28232E-14
 -1      2638 3.52738E-03-4.25008E-04-1.15003E-14
 -1      2639 3.88635E-03-4.61116E-04-1.37789E-14
 -1      2640 4.02891E-03-4.60311E-04-1.47659E-14
 -1      2641 3.81298E-03-4.24178E-04-1.33465E-14
 -1      2642 4.17151E-03-4.59370E-04-1.57845E-14
 -1      2643 4.31415E-03-4.58311E-04-1.68345E-14
 -1      2644 4.09859E-03-4.22609E-04-1.53199E-14
 -1      2645 4.45684E-03-4.57159E-04-1.79144E-14
 -1      2646 4.59957E-03-4.55927E-04-1.90241E-14
 -1      2647 4.38422E-03-4.20537E-04-1.74162E-14
 -1      2648 4.74235E-03-4.54634E-04-2.01641E-14
 -1      2649 4.88519E-03-4.53289E-04-2.13331E-14
 -1      2650 4.66992E-03-4.18118E-04-1.96354E-14
 -1      2651 5.02808E-03-4.51908E-04-2.25316E-14
 -1      2652 5.17103E-03-4.50501E-04-2.37586E-14
 -1      2653 4.95570E-03-4.15460E-04-2.19721E-14
 -1      2654 5.31406E-03-4.49085E-04-2.50135E-14
 -1      2655 5.45716E-03-4.47672E-04-2.62970E-14
 -1      2656 5.24161E-03-4.12653E-04-2.44252E-14
 -1      2657 5.60035E-03-4.46286E-04-2.76089E-14
 -1      2658 5.74364E-03-4.44946E-04-2.89489E-14
 -1      2659 5.52774E-03-4.09793E-04-2.69920E-14
 -1      2660 5.88706E-03-4.43683E-04-3.03157E-14
 -1      2661 6.03061E-03-4.42528E-04-3.17096E-14
 -1      2662 5.81420E-03-4.07015E-04-2.96704E-14
 -1      2663 6.17433E-03-4.41522E-04-3.31305E-14
 -1      2664 6.31822E-03-4.40710E-04-3.45764E-14
 -1      2665 6.10115E-03-4.04512E-04-3.24572E-14
 -1      2666 6.46234E-03-4.40146E-04-3.60473E-14
 -1      2667 6.60669E-03-4.39890E-04-3.75437E-14
 -1      2668 6.38885E-03-4.02569E-04-3.53475E-14
 -1      2669 6.75134E-03-4.40005E-04-3.90663E-14
 -1      2670 6.89628E-03-4.40566E-04-4.06114E-14
 -1      2671 6.67761E-03-4.01581E-04-3.83384E-14
 -1      2672 7.04159E-03-4.41638E-04-4.21809E-14
 -1      2673 7.18724E-03-4.43305E-04-4.37747E-14
 -1      2674 6.96785E-03-4.02056E-04-4.14285E-14
 -1      2675 7.33334E-03-4.45613E-04-4.53912E-14
 -1      2676 7.47980E-03-4.48639E-04-4.70312E-14
 -1      2677 7.25999E-03-4.04587E-04-4.46113E-14
 -1      2678 7.62672E-03-4.52383E-04-4.86948E-14
 -1      2679 7.77396E-03-4.56876E-04-5.03819E-14
 -1      2680 7.55444E-03-4.09768E-04-4.78897E-14
 -1      2681 7.92161E-03-4.62031E-04-5.20925E-14
 -1      2682 8.06942E-03-4.67770E-04-5.38244E-14
 -1      2683 7.85137E-03-4.17991E-04-5.12603E-14
 -1      2684 8.21745E-03-4.73864E-04-5.55806E-14
 -1      2685 8.36535E-03-4.80046E-04-5.73597E-14
 -1      2686 8.15052E-03-4.29096E-04-5.47233E-14
 -1      2687 8.51311E-03-4.85889E-04-5.91595E-14
 -1      2688 8.66033E-03-4.90837E-04-6.09791E-14
 -1      2689 8.45095E-03-4.41824E-04-5.82762E-14
 -1      2690 8.80692E-03-4.94231E-04-6.28185E-14
 -1      2691 8.95255E-03-4.95184E-04-6.46762E-14
 -1      2692 8.75091E-03-4.53109E-04-6.19119E-14
 -1      2693 9.09705E-03-4.92828E-04-6.65533E-14
 -1      2694 9.24033E-03-4.86021E-04-6.84484E-14
 -1      2695 9.04812E-03-4.57443E-04-6.56256E-14
 -1      2696 9.38221E-03-4.73820E-04-7.03615E-14
 -1      2697 9.52298E-03-4.55054E-04-7.22925E-14
 -1      2698 9.34052E-03-4.46846E-04-6.94131E-14
 -1      2699 9.66251E-03-4.28925E-04-7.42424E-14
 -1      2700 9.80148E-03-3.94639E-04-7.62096E-14
 -1      2701 9.62736E-03-4.12002E-04-7.32718E-14
 -1      2702 9.93984E-03-3.51797E-04-7.81971E-14
 -1      2703 1.00785E-02-3.00248E-04-8.02032E-14
 -1      2704 9.91008E-03-3.44755E-04-7.72063E-14
 -1      2705 1.02173E-02-2.40168E-04-8.22263E-14
 -1      2706 1.03572E-02-1.72112E-04-8.42713E-14
 -1      2707 1.01920E-02-2.41078E-04-8.12158E-14
 -1      2708 1.04980E-02-9.67416E-05-8.63365E-14
 -1      2709 1.06402E-02-1.51043E-05-8.84196E-14
 -1      2710 1.04768E-02-1.02727E-04-8.53025E-14
 -1      2711 1.07836E-02 7.18914E-05-9.05223E-14
 -1      2712 1.09283E-02 1.63036E-04-9.26393E-14
 -1      2713 1.07669E-02 6.35749E-05-8.94685E-14
 -1      2714 1.10740E-02 2.57414E-04-9.47748E-14
 -1      2715 1.12207E-02 3.54020E-04-9.69305E-14
 -1      2716 1.10623E-02 2.48639E-04-9.37060E-14
 -1      2717 1.13680E-02 4.52107E-04-9.90991E-14
 -1      2718 1.15156E-02 5.50989E-04-1.01284E-13
 -1      2719 1.13614E-02 4.43696E-04-9.80108E-14
 -1      2720 1.16635E-02 6.50154E-04-1.03485E-13
 -1      2721 1.18113E-02 7.49235E-04-1.05701E-13
 -1      2722 1.16619E-02 6.42221E-04-1.02380E-13
 -1      2723 1.19591E-02 8.47941E-04-1.07930E-13
 -1      2724 1.21064E-02 9.46143E-04-1.10171E-13
 -1      2725 1.19616E-02 8.40257E-04-1.06808E-13
 -1      2726 1.22535E-02 1.04372E-03-1.12424E-13
 -1      2727 1.24001E-02 1.14069E-03-1.14687E-13
 -1      2728 1.22594E-02 1.03599E-03-1.11287E-13
 -1      2729 1.25463E-02 1.23704E-03-1.16964E-13
 -1      2730 1.26920E-02 1.33286E-03-1.19247E-13
 -1      2731 1.25547E-02 1.22902E-03-1.15815E-13
 -1      2732 1.28373E-02 1.42821E-03-1.21540E-13
 -1      2733 1.29822E-02 1.52322E-03-1.23839E-13
 -1      2734 1.28474E-02 1.41973E-03-1.20379E-13
 -1      2735 1.31024E-02 1.60220E-03-1.25769E-13
 -1      2736 1.32466E-02 1.69682E-03-1.28083E-13
 -1      2737 1.33538E-02 1.75036E-03-1.28470E-13
 -1      2738 1.31136E-02 1.59321E-03-1.24601E-13
 -1      2739 8.74469E-03 6.95995E-04-6.39176E-14
 -1      2740 2.29859E-03 4.45115E-04-4.73146E-15
 -1      2741 2.15611E-03 4.38861E-04-4.17434E-15
 -1      2742 2.01354E-03 4.31073E-04-3.65253E-15
 -1      2743 1.87086E-03 4.21599E-04-3.16531E-15
 -1      2744 2.07677E-03 3.98781E-04-3.97524E-15
 -1      2745 2.86812E-03 4.59242E-04-7.31091E-15
 -1      2746 2.72577E-03 4.57036E-04-6.61365E-15
 -1      2747 3.15285E-03 4.61815E-04-8.80776E-15
 -1      2748 3.01049E-03 4.60810E-04-8.04210E-15
 -1      2749 2.93476E-03 4.22903E-04-7.75313E-15
 -1      2750 3.43768E-03 4.62537E-04-1.04415E-14
 -1      2751 3.29526E-03 4.62373E-04-9.60793E-15
 -1      2752 3.22047E-03 4.24876E-04-9.28752E-15
 -1      2753 3.72264E-03 4.61967E-04-1.22096E-14
 -1      2754 3.58014E-03 4.62389E-04-1.13087E-14
 -1      2755 3.50613E-03 4.25208E-04-1.09574E-14
 -1      2756 3.99349E-03 4.60578E-04-1.40146E-14
 -1      2757 3.85805E-03 4.61361E-04-1.30973E-14
 -1      2758 3.78464E-03 4.24426E-04-1.27147E-14
 -1      2759 4.27876E-03 4.58461E-04-1.60415E-14
 -1      2760 4.13611E-03 4.59594E-04-1.50114E-14
 -1      2761 4.06315E-03 4.22871E-04-1.45982E-14
 -1      2762 4.56421E-03 4.55810E-04-1.81954E-14
 -1      2763 4.42147E-03 4.57197E-04-1.71027E-14
 -1      2764 4.34882E-03 4.20678E-04-1.66582E-14
 -1      2765 4.84982E-03 4.52679E-04-2.04764E-14
 -1      2766 4.70700E-03 4.54302E-04-1.93206E-14
 -1      2767 4.63451E-03 4.18000E-04-1.88453E-14
 -1      2768 5.13559E-03 4.49064E-04-2.28789E-14
 -1      2769 4.99269E-03 4.50933E-04-2.16624E-14
 -1      2770 4.92020E-03 4.14882E-04-2.11564E-14
 -1      2771 5.42147E-03 4.44914E-04-2.54008E-14
 -1      2772 5.27852E-03 4.47059E-04-2.41252E-14
 -1      2773 5.20585E-03 4.11321E-04-2.35891E-14
 -1      2774 5.70739E-03 4.40155E-04-2.80358E-14
 -1      2775 5.56443E-03 4.42615E-04-2.67050E-14
 -1      2776 5.49135E-03 4.07285E-04-2.61400E-14
 -1      2777 5.99319E-03 4.34718E-04-3.07832E-14
 -1      2778 5.85031E-03 4.37526E-04-2.93955E-14
 -1      2779 5.77654E-03 4.02740E-04-2.88034E-14
 -1      2780 6.26432E-03 4.28904E-04-3.34889E-14
 -1      2781 6.12880E-03 4.31893E-04-3.21244E-14
 -1      2782 6.05401E-03 3.97818E-04-3.15047E-14
 -1      2783 6.54883E-03 4.22191E-04-3.64378E-14
 -1      2784 6.40669E-03 4.25624E-04-3.49517E-14
 -1      2785 6.33043E-03 3.92496E-04-3.43060E-14
 -1      2786 6.83153E-03 4.15210E-04-3.94848E-14
 -1      2787 6.69042E-03 4.18729E-04-3.79493E-14
 -1      2788 6.61201E-03 3.86888E-04-3.72789E-14
 -1      2789 7.11094E-03 4.08773E-04-4.26240E-14
 -1      2790 6.97168E-03 4.11908E-04-4.10428E-14
 -1      2791 6.89028E-03 3.81733E-04-4.03482E-14
 -1      2792 7.38470E-03 4.04526E-04-4.58526E-14
 -1      2793 7.24859E-03 4.06345E-04-4.42274E-14
 -1      2794 7.16311E-03 3.78216E-04-4.35083E-14
 -1      2795 7.64923E-03 4.05483E-04-4.91628E-14
 -1      2796 7.51820E-03 4.04302E-04-4.74974E-14
 -1      2797 7.42721E-03 3.78442E-04-4.67565E-14
 -1      2798 7.89973E-03 4.16707E-04-5.25464E-14
 -1      2799 7.77629E-03 4.09735E-04-5.08456E-14
 -1      2800 7.67778E-03 3.85851E-04-5.00841E-14
 -1      2801 8.13079E-03 4.46039E-04-5.60020E-14
 -1      2802 8.01752E-03 4.28991E-04-5.42654E-14
 -1      2803 7.90830E-03 4.05530E-04-5.34875E-14
 -1      2804 8.32929E-03 5.00770E-04-5.93488E-14
 -1      2805 8.23181E-03 4.69982E-04-5.76684E-14
 -1      2806 8.10630E-03 4.42872E-04-5.68726E-14
 -1      2807 1.34229E-02 1.29174E-03-9.42226E-14
 -1      2808 1.33652E-02 1.29226E-03-9.42761E-14
 -1      2809 8.19108E-03 5.36674E-04-6.22309E-14
 -1      2810 8.18868E-03 5.46741E-04-6.24846E-14
 -1      2811 7.81707E-04-9.83476E-05-8.29144E-16
 -1      2812 7.84024E-04-1.21686E-04-8.22489E-16
 -1      2813 1.39462E-02 1.66769E-03-1.05368E-13
 -1      2814 1.38289E-02 1.58918E-03-1.03248E-13
 -1      2815 1.16031E-02 2.32147E-03-8.07466E-14
 -1      2816 1.37109E-02 1.51314E-03-1.01027E-13
 -1      2817 1.35961E-02 1.44380E-03-9.88185E-14
 -1      2818 1.37520E-02 1.53132E-03-1.02145E-13
 -1      2819 1.44691E-02 2.02767E-03-1.14333E-13
 -1      2820 1.43333E-02 1.93372E-03-1.12062E-13
 -1      2821 1.47458E-02 2.21782E-03-1.18894E-13
 -1      2822 1.46066E-02 2.12235E-03-1.16611E-13
 -1      2823 1.44798E-02 2.04640E-03-1.15522E-13
 -1      2824 1.50270E-02 2.40893E-03-1.23477E-13
 -1      2825 1.48859E-02 2.31335E-03-1.21184E-13
 -1      2826 1.47513E-02 2.23437E-03-1.20088E-13
 -1      2827 1.52353E-02 2.54887E-03-1.26859E-13
 -1      2828 1.34076E-02 1.28578E-03-9.33745E-14
 -1      2829 1.34325E-02 1.28748E-03-9.38005E-14
 -1      2830 1.34575E-02 1.31817E-03-9.53146E-14
 -1      2831 8.28079E-04-2.65591E-04-7.62343E-16
 -1      2832 9.59709E-04-3.00889E-04-9.77300E-16
 -1      2833 8.17473E-04-2.38962E-04-7.78931E-16
 -1      2834 1.47290E-02 2.38156E-03-1.31157E-13
 -1      2835 1.48201E-02 2.41907E-03-1.31113E-13
 -1      2836 1.41631E-02 2.14580E-03-1.31372E-13
 -1      2837 1.42577E-02 2.18598E-03-1.31341E-13
 -1      2838 1.39703E-02 2.06279E-03-1.31434E-13
 -1      2839 1.40667E-02 2.10447E-03-1.31405E-13
 -1      2840 1.39901E-02 2.04583E-03-1.29384E-13
 -1      2841 1.37779E-02 1.97862E-03-1.31484E-13
 -1      2842 1.38740E-02 2.02080E-03-1.31457E-13
 -1      2843 1.37969E-02 1.96148E-03-1.29439E-13
 -1      2844 1.36642E-02 1.93417E-03-1.31960E-13
 -1      2845 1.32470E-02 1.27317E-03-9.38907E-14
 -1      2846 1.31093E-02 1.25085E-03-9.35973E-14
 -1      2847 1.72807E-03 4.10058E-04-2.71384E-15
 -1      2848 1.58511E-03 3.96256E-04-2.29770E-15
 -1      2849 1.79029E-03 3.80384E-04-2.99499E-15
 -1      2850 1.29343E-02 1.20938E-03-9.32344E-14
 -1      2851 1.27813E-02 1.16357E-03-9.27294E-14
 -1      2852 1.25433E-02 1.07312E-03-9.17885E-14
 -1      2853 1.22852E-02 9.61534E-04-9.08522E-14
 -1      2854 1.26492E-02 1.13318E-03-9.32849E-14
 -1      2855 1.20149E-02 8.26904E-04-8.98160E-14
 -1      2856 1.18078E-02 7.06504E-04-8.87332E-14
 -1      2857 1.03832E-02-1.38790E-04-7.76056E-14
 -1      2858 1.02497E-02-1.57508E-04-7.60706E-14
 -1      2859 1.43536E-02 2.22634E-03-1.31305E-13
 -1      2860 1.44490E-02 2.26614E-03-1.31272E-13
 -1      2861 1.41834E-02 2.12845E-03-1.29317E-13
 -1      2862 1.45432E-02 2.30515E-03-1.31233E-13
 -1      2863 1.46369E-02 2.34375E-03-1.31196E-13
 -1      2864 1.45623E-02 2.28537E-03-1.29169E-13
 -1      2865 1.43748E-02 2.20842E-03-1.29245E-13
 -1      2866 9.03523E-03 2.71347E-04-6.62003E-14
 -1      2867 8.84405E-03 3.54078E-04-6.52203E-14
 -1      2868 1.42018E-02 1.84291E-03-1.09830E-13
 -1      2869 1.40711E-02 1.75279E-03-1.07579E-13
 -1      2870 1.39760E-02 1.69071E-03-1.06571E-13
 -1      2871 1.42198E-02 1.86375E-03-1.11013E-13
 -1      2872 1.07643E-02 2.75507E-05-8.15362E-14
 -1      2873 1.05920E-02-6.40598E-05-7.98743E-14
 -1      2874 1.01238E-02-1.52123E-04-7.47570E-14
 -1      2875 9.99326E-03-1.25467E-04-7.34532E-14
 -1      2876 1.01506E-02-1.62763E-04-7.52247E-14
 -1      2877 1.11307E-02 2.65010E-04-8.45688E-14
 -1      2878 1.09595E-02 1.47256E-04-8.32234E-14
 -1      2879 2.58340E-03 4.54031E-04-5.95117E-15
 -1      2880 2.44102E-03 4.50131E-04-5.32396E-15
 -1      2881 2.64896E-03 4.18586E-04-6.35504E-15
 -1      2882 9.46789E-03 6.76457E-05-6.89509E-14
 -1      2883 9.27200E-03 1.58470E-04-6.75689E-14
 -1      2884 8.68015E-03 4.18916E-04-6.45006E-14
 -1      2885 8.55997E-03 4.56444E-04-6.39339E-14
 -1      2886 9.83372E-03-7.67541E-05-7.19913E-14
 -1      2887 9.68214E-03-1.59155E-05-7.06939E-14
 -1      2888 1.06822E-03-3.22011E-04-1.18583E-15
 -1      2889 1.21152E-03-3.47277E-04-1.49150E-15
 -1      2890 1.27293E-03-3.25273E-04-1.69206E-15
 -1      2891 1.05587E-03-2.91808E-04-1.20752E-15
 -1      2892 7.84151E-04 1.22690E-04-7.90763E-16
 -1      2893 7.81804E-04 9.93182E-05-8.03462E-16
 -1      2894 8.99400E-04 9.87118E-05-1.02540E-15
 -1      2895 9.05043E-04 1.50719E-04-9.95203E-16
 -1      2896 1.15788E-02 5.64452E-04-8.74468E-14
 -1      2897 1.13600E-02 4.19439E-04-8.61699E-14
 -1      2898 1.16846E-02 6.47088E-04-8.89601E-14
 -1      2899 8.54978E-03 6.15345E-04-6.29990E-14
 -1      2900 8.62679E-03 6.27408E-04-6.27145E-14
 -1      2901 8.48289E-03 5.54901E-04-6.09775E-14
 -1      2902 8.41716E-03 5.79799E-04-6.26283E-14
 -1      2903 8.95370E-04 4.57016E-07-1.05634E-15
 -1      2904 7.77558E-04-1.02005E-05-8.35486E-16
 -1      2905 7.77937E-04-3.18174E-05-8.36679E-16
 -1      2906 1.13250E-03 3.41499E-04-1.19918E-15
 -1      2907 1.10040E-03 3.12421E-04-1.18384E-15
 -1      2908 1.25248E-03 3.61326E-04-1.45005E-15
 -1      2909 1.35502E-02 1.39527E-03-9.76587E-14
 -1      2910 7.87079E-04-1.45823E-04-8.13572E-16
 -1      2911 7.90969E-04-1.70983E-04-8.01456E-16
 -1      2912 9.04858E-04-1.49472E-04-1.03713E-15
 -1      2913 1.30457E-02 1.25749E-03-9.45966E-14
 -1      2914 2.36298E-03 4.10969E-04-5.09557E-15
 -1      2915 8.31398E-03 5.09225E-04-6.01670E-14
 -1      2916 1.33353E-02 1.31228E-03-9.53515E-14
 -1      2917 8.18923E-03 5.28999E-04-6.17396E-14
 -1      2918 1.47874E-03 3.88321E-04-2.00146E-15
 -1      2919 1.35890E-03 3.73224E-04-1.70237E-15
 -1      2920 1.32678E-03 3.43809E-04-1.68257E-15
 -1      2921 1.54018E-03 3.61767E-04-2.24495E-15
 -1      2922 1.05419E-02-6.98056E-05-7.99900E-14
 -1      2923 1.04658E-02-1.09759E-04-7.87952E-14
 -1      2924 1.03487E-02-1.41608E-04-7.77215E-14
 -1      2925 1.50949E-02 2.46802E-03-1.25759E-13
 -1      2926 1.33883E-02 1.30311E-03-9.36241E-14
 -1      2927 1.34593E-02 1.32656E-03-9.51437E-14
 -1      2928 1.50831E-02 2.52930E-03-1.30966E-13
 -1      2929 1.51677E-02 2.56601E-03-1.30914E-13
 -1      2930 7.78730E-04-5.35750E-05-8.35974E-16
 -1      2931 7.79960E-04-7.57405E-05-8.33548E-16
 -1      2932 8.99291E-04-9.75348E-05-1.05307E-15
 -1      2933 8.96301E-04-4.80159E-05-1.05908E-15
 -1      2934 9.11287E-03 1.92332E-04-6.61579E-14
 -1      2935 1.35867E-02 1.87383E-03-1.29939E-13
 -1      2936 1.08464E-02 9.08439E-05-8.27608E-14
 -1      2937 1.49094E-02 2.45605E-03-1.31066E-13
 -1      2938 1.49970E-02 2.49275E-03-1.31017E-13
 -1      2939 1.49203E-02 2.43226E-03-1.28986E-13
 -1      2940 1.32828E-02 1.31836E-03-9.25873E-14
 -1      2941 1.21563E-02 9.13866E-04-9.12957E-14
 -1      2942 9.88477E-03-1.15157E-04-7.24537E-14
 -1      2943 8.73635E-03 3.59808E-04-6.40868E-14
 -1      2944 1.52428E-02 2.60060E-03-1.30968E-13
 -1      2945 1.53199E-02 2.63641E-03-1.30986E-13
 -1      2946 1.52286E-02 2.57132E-03-1.29098E-13
 -1      2947 1.50807E-02 2.50225E-03-1.28991E-13
 -1      2948 1.12484E-02 3.58764E-04-8.60592E-14
 -1      2949 8.45018E-03 4.66171E-04-6.29690E-14
 -1      2950 8.33513E-03 5.52321E-04-6.20163E-14
 -1      2951 8.23740E-03 4.99346E-04-6.15839E-14
 -1      2952 8.20803E-03 5.20521E-04-6.19082E-14
 -1      2953 8.15626E-03 5.03300E-04-6.09317E-14
 -1      2954 9.53028E-03 9.06584E-06-6.92534E-14
 -1      2955 1.47447E-02 2.35970E-03-1.29083E-13
 -1      2956 1.06944E-03 2.84426E-04-1.16510E-15
 -1      2957 1.03960E-03 2.57460E-04-1.14345E-15
 -1      2958 1.18901E-03 3.03555E-04-1.41192E-15
 -1      2959 1.03236E-03 2.25244E-04-1.17548E-15
 -1      2960 1.73170E-03-3.41024E-04-3.04573E-15
 -1      2961 1.87537E-03-3.51242E-04-3.52755E-15
 -1      2962 2.01903E-03-3.59735E-04-4.04441E-15
 -1      2963 2.16267E-03-3.66655E-04-4.59623E-15
 -1      2964 1.94016E-03-3.19949E-04-3.81498E-15
 -1      2965 2.30626E-03-3.72278E-04-5.18246E-15
 -1      2966 2.44980E-03-3.76729E-04-5.80329E-15
 -1      2967 2.22819E-03-3.33058E-04-4.92043E-15
 -1      2968 2.59329E-03-3.80229E-04-6.45901E-15
 -1      2969 2.73672E-03-3.82876E-04-7.14945E-15
 -1      2970 2.51614E-03-3.41532E-04-6.16422E-15
 -1      2971 2.88009E-03-3.84842E-04-7.87266E-15
 -1      2972 3.02341E-03-3.86198E-04-8.63022E-15
 -1      2973 2.80387E-03-3.46596E-04-7.54469E-15
 -1      2974 3.16668E-03-3.87075E-04-9.42159E-15
 -1      2975 3.30989E-03-3.87526E-04-1.02457E-14
 -1      2976 3.09133E-03-3.49210E-04-9.06000E-15
 -1      2977 3.45307E-03-3.87645E-04-1.11029E-14
 -1      2978 3.59621E-03-3.87470E-04-1.19931E-14
 -1      2979 3.37850E-03-3.50097E-04-1.07084E-14
 -1      2980 3.73931E-03-3.87069E-04-1.29156E-14
 -1      2981 3.88237E-03-3.86466E-04-1.38701E-14
 -1      2982 3.66538E-03-3.49789E-04-1.24873E-14
 -1      2983 4.02541E-03-3.85708E-04-1.48559E-14
 -1      2984 4.16841E-03-3.84812E-04-1.58731E-14
 -1      2985 3.95201E-03-3.48658E-04-1.43952E-14
 -1      2986 4.31140E-03-3.83808E-04-1.69216E-14
 -1      2987 4.45437E-03-3.82708E-04-1.79997E-14
 -1      2988 4.23840E-03-3.46960E-04-1.64277E-14
 -1      2989 4.59732E-03-3.81531E-04-1.91082E-14
 -1      2990 4.74026E-03-3.80284E-04-2.02462E-14
 -1      2991 4.52459E-03-3.44858E-04-1.85839E-14
 -1      2992 4.88321E-03-3.78982E-04-2.14148E-14
 -1      2993 5.02615E-03-3.77629E-04-2.26125E-14
 -1      2994 4.81062E-03-3.42456E-04-2.08594E-14
 -1      2995 5.16910E-03-3.76237E-04-2.38381E-14
 -1      2996 5.31208E-03-3.74812E-04-2.50932E-14
 -1      2997 5.09654E-03-3.39819E-04-2.32528E-14
 -1      2998 5.45510E-03-3.73369E-04-2.63762E-14
 -1      2999 5.59817E-03-3.71915E-04-2.76879E-14
 -1      3000 5.38244E-03-3.36995E-04-2.57617E-14
 -1      3001 5.74131E-03-3.70470E-04-2.90267E-14
 -1      3002 5.88456E-03-3.69051E-04-3.03927E-14
 -1      3003 5.66843E-03-3.34041E-04-2.83844E-14
 -1      3004 6.02794E-03-3.67683E-04-3.17857E-14
 -1      3005 6.17149E-03-3.66397E-04-3.32044E-14
 -1      3006 5.95472E-03-3.31046E-04-3.11157E-14
 -1      3007 6.31526E-03-3.65226E-04-3.46501E-14
 -1      3008 6.45928E-03-3.64222E-04-3.61190E-14
 -1      3009 6.24160E-03-3.28160E-04-3.39532E-14
 -1      3010 6.60365E-03-3.63423E-04-3.76138E-14
 -1      3011 6.74840E-03-3.62909E-04-3.91340E-14
 -1      3012 6.52950E-03-3.25623E-04-3.68921E-14
 -1      3013 6.89363E-03-3.62723E-04-4.06779E-14
 -1      3014 7.03939E-03-3.62975E-04-4.22449E-14
 -1      3015 6.81901E-03-3.23803E-04-3.99285E-14
 -1      3016 7.18581E-03-3.63707E-04-4.38347E-14
 -1      3017 7.33291E-03-3.65056E-04-4.54490E-14
 -1      3018 7.11086E-03-3.23230E-04-4.30612E-14
 -1      3019 7.48084E-03-3.67052E-04-4.70871E-14
 -1      3020 7.62954E-03-3.69839E-04-4.87486E-14
 -1      3021 7.40593E-03-3.24605E-04-4.62880E-14
 -1      3022 7.77920E-03-3.73409E-04-5.04324E-14
 -1      3023 7.92965E-03-3.77867E-04-5.21389E-14
 -1      3024 7.70503E-03-3.28760E-04-4.96075E-14
 -1      3025 8.08102E-03-3.83128E-04-5.38690E-14
 -1      3026 8.23300E-03-3.89156E-04-5.56207E-14
 -1      3027 8.00870E-03-3.36476E-04-5.30167E-14
 -1      3028 8.38565E-03-3.95724E-04-5.73942E-14
 -1      3029 8.53850E-03-4.02532E-04-5.91901E-14
 -1      3030 8.31675E-03-3.48041E-04-5.65168E-14
 -1      3031 8.69146E-03-4.09136E-04-6.10068E-14
 -1      3032 8.84396E-03-4.14766E-04-6.28428E-14
 -1      3033 8.62782E-03-3.62471E-04-6.01030E-14
 -1      3034 8.99580E-03-4.18697E-04-6.46995E-14
 -1      3035 9.14650E-03-4.19644E-04-6.65738E-14
 -1      3036 8.93917E-03-3.76288E-04-6.37737E-14
 -1      3037 9.29578E-03-4.16625E-04-6.84656E-14
 -1      3038 9.44355E-03-4.07981E-04-7.03763E-14
 -1      3039 9.24715E-03-3.82336E-04-6.75209E-14
 -1      3040 9.58960E-03-3.92674E-04-7.23050E-14
 -1      3041 9.73441E-03-3.69113E-04-7.42510E-14
 -1      3042 9.54873E-03-3.69756E-04-7.13398E-14
 -1      3043 9.87789E-03-3.36504E-04-7.62158E-14
 -1      3044 1.00211E-02-2.94142E-04-7.82015E-14
 -1      3045 9.84341E-03-3.26104E-04-7.52293E-14
 -1      3046 1.01642E-02-2.41862E-04-8.02055E-14
 -1      3047 1.03081E-02-1.79963E-04-8.22269E-14
 -1      3048 1.01343E-02-2.42010E-04-7.91952E-14
 -1      3049 1.04529E-02-1.09059E-04-8.42711E-14
 -1      3050 1.05994E-02-3.03784E-05-8.63350E-14
 -1      3051 1.04269E-02-1.15788E-04-8.32408E-14
 -1      3052 1.07473E-02 5.51370E-05-8.84155E-14
 -1      3053 1.08969E-02 1.45702E-04-9.05168E-14
 -1      3054 1.07255E-02 4.60160E-05-8.73650E-14
 -1      3055 1.10479E-02 2.40275E-04-9.26357E-14
 -1      3056 1.11999E-02 3.37395E-04-9.47704E-14
 -1      3057 1.10312E-02 2.31782E-04-9.15652E-14
 -1      3058 1.13526E-02 4.36230E-04-9.69235E-14
 -1      3059 1.15056E-02 5.35799E-04-9.90923E-14
 -1      3060 1.13418E-02 4.29315E-04-9.58365E-14
 -1      3061 1.16585E-02 6.35552E-04-1.01276E-13
 -1      3062 1.18110E-02 7.35020E-04-1.03475E-13
 -1      3063 1.16536E-02 6.29967E-04-1.00174E-13
 -1      3064 1.19631E-02 8.33909E-04-1.05689E-13
 -1      3065 1.21142E-02 9.32102E-04-1.07915E-13
 -1      3066 1.19634E-02 8.28876E-04-1.04569E-13
 -1      3067 1.22646E-02 1.02948E-03-1.10153E-13
 -1      3068 1.24141E-02 1.12612E-03-1.12403E-13
 -1      3069 1.22692E-02 1.02426E-03-1.09021E-13
 -1      3070 1.25627E-02 1.22201E-03-1.14664E-13
 -1      3071 1.27104E-02 1.31730E-03-1.16937E-13
 -1      3072 1.25704E-02 1.21611E-03-1.13519E-13
 -1      3073 1.28574E-02 1.41205E-03-1.19218E-13
 -1      3074 1.30036E-02 1.50640E-03-1.21508E-13
 -1      3075 1.28672E-02 1.40524E-03-1.18060E-13
 -1      3076 3.57494E-03 3.87677E-04-1.14765E-14
 -1      3077 3.43178E-03 3.87827E-04-1.06073E-14
 -1      3078 3.28858E-03 3.87669E-04-9.77068E-15
 -1      3079 3.14534E-03 3.87165E-04-8.96795E-15
 -1      3080 3.35715E-03 3.50257E-04-1.02576E-14
 -1      3081 3.00204E-03 3.86222E-04-8.19861E-15
 -1      3082 2.85871E-03 3.84782E-04-7.46377E-15
 -1      3083 3.06992E-03 3.49268E-04-8.64884E-15
 -1      3084 3.84685E-03 3.86751E-04-1.32208E-14
 -1      3085 3.71091E-03 3.87312E-04-1.23333E-14
 -1      3086 3.63693E-03 3.50020E-04-1.19541E-14
 -1      3087 4.13295E-03 3.85077E-04-1.51846E-14
 -1      3088 3.98992E-03 3.85993E-04-1.41863E-14
 -1      3089 3.91645E-03 3.48954E-04-1.37755E-14
 -1      3090 4.41892E-03 3.82868E-04-1.72770E-14
 -1      3091 4.27595E-03 3.84033E-04-1.62152E-14
 -1      3092 4.20289E-03 3.47246E-04-1.57730E-14
 -1      3093 4.70476E-03 3.80226E-04-1.94963E-14
 -1      3094 4.56186E-03 3.81598E-04-1.83708E-14
 -1      3095 4.48907E-03 3.45075E-04-1.78984E-14
 -1      3096 4.99043E-03 3.77195E-04-2.18385E-14
 -1      3097 4.84762E-03 3.78759E-04-2.06521E-14
 -1      3098 4.77497E-03 3.42532E-04-2.01490E-14
 -1      3099 5.27583E-03 3.73785E-04-2.43016E-14
 -1      3100 5.13317E-03 3.75539E-04-2.30555E-14
 -1      3101 5.06051E-03 3.39666E-04-2.25226E-14
 -1      3102 5.56082E-03 3.69994E-04-2.68806E-14
 -1      3103 5.41839E-03 3.71939E-04-2.55767E-14
 -1      3104 5.34557E-03 3.36507E-04-2.50150E-14
 -1      3105 5.84513E-03 3.65845E-04-2.95712E-14
 -1      3106 5.70307E-03 3.67966E-04-2.82118E-14
 -1      3107 5.62993E-03 3.33099E-04-2.76222E-14
 -1      3108 6.11417E-03 3.61659E-04-3.22267E-14
 -1      3109 5.97980E-03 3.63782E-04-3.08874E-14
 -1      3110 5.90616E-03 3.29627E-04-3.02706E-14
 -1      3111 6.39559E-03 3.57216E-04-3.51234E-14
 -1      3112 6.25515E-03 3.59437E-04-3.36620E-14
 -1      3113 6.18083E-03 3.26205E-04-3.30200E-14
 -1      3114 6.67406E-03 3.53218E-04-3.81187E-14
 -1      3115 6.53526E-03 3.55151E-04-3.66088E-14
 -1      3116 6.46004E-03 3.23140E-04-3.59397E-14
 -1      3117 6.94780E-03 3.50575E-04-4.12097E-14
 -1      3118 6.81162E-03 3.51708E-04-3.96527E-14
 -1      3119 6.73534E-03 3.21253E-04-3.89588E-14
 -1      3120 7.21411E-03 3.50868E-04-4.43931E-14
 -1      3121 7.08204E-03 3.50329E-04-4.27906E-14
 -1      3122 7.00464E-03 3.21787E-04-4.20733E-14
 -1      3123 7.46901E-03 3.56652E-04-4.76595E-14
 -1      3124 7.34323E-03 3.53056E-04-4.60152E-14
 -1      3125 7.26485E-03 3.26734E-04-4.52759E-14
 -1      3126 7.70675E-03 3.71721E-04-5.10076E-14
 -1      3127 7.59038E-03 3.63062E-04-4.93249E-14
 -1      3128 7.51151E-03 3.39082E-04-4.85632E-14
 -1      3129 7.91936E-03 4.01072E-04-5.44279E-14
 -1      3130 7.81670E-03 3.84830E-04-5.27083E-14
 -1      3131 7.73831E-03 3.62911E-04-5.19299E-14
 -1      3132 8.08848E-03 4.47224E-04-5.77413E-14
 -1      3133 8.00850E-03 4.22576E-04-5.60764E-14
 -1      3134 7.93200E-03 4.01761E-04-5.52814E-14
 -1      3135 1.34110E-02 1.34998E-03-9.68897E-14
 -1      3136 1.32949E-02 1.33267E-03-9.65001E-14
 -1      3137 1.31556E-02 1.30715E-03-9.62359E-14
 -1      3138 1.29983E-02 1.27045E-03-9.58670E-14
 -1      3139 1.13503E-02 4.44122E-04-8.77835E-14
 -1      3140 1.11458E-02 3.03791E-04-8.61692E-14
 -1      3141 1.37768E-02 1.55758E-03-1.03309E-13
 -1      3142 1.36786E-02 1.48402E-03-1.01094E-13
 -1      3143 1.17438E-02 6.97171E-04-9.03688E-14
 -1      3144 1.15416E-02 5.68732E-04-8.90719E-14
 -1      3145 1.14268E-02 4.99704E-04-8.91796E-14
 -1      3146 1.47535E-02 2.25123E-03-1.21282E-13
 -1      3147 1.46181E-02 2.15801E-03-1.18993E-13
 -1      3148 1.44851E-02 2.06569E-03-1.16711E-13
 -1      3149 1.43545E-02 1.97418E-03-1.14434E-13
 -1      3150 1.44857E-02 2.08439E-03-1.17897E-13
 -1      3151 1.36238E-02 1.86019E-03-1.27447E-13
 -1      3152 1.37204E-02 1.90321E-03-1.27423E-13
 -1      3153 1.50916E-02 2.48012E-03-1.26875E-13
 -1      3154 1.48877E-02 2.34226E-03-1.23491E-13
 -1      3155 1.47501E-02 2.26529E-03-1.22389E-13
 -1      3156 1.50188E-02 2.44599E-03-1.26821E-13
 -1      3157 9.14462E-03 1.22652E-04-6.58989E-14
 -1      3158 8.94103E-03 2.19854E-04-6.45483E-14
 -1      3159 1.38173E-02 1.94598E-03-1.27397E-13
 -1      3160 1.39144E-02 1.98833E-03-1.27364E-13
 -1      3161 1.36438E-02 1.84572E-03-1.25411E-13
 -1      3162 1.85389E-03 3.49990E-04-3.28263E-15
 -1      3163 1.71023E-03 3.39476E-04-2.82375E-15
 -1      3164 2.42837E-03 3.76310E-04-5.46491E-15
 -1      3165 2.28481E-03 3.71693E-04-4.86720E-15
 -1      3166 1.34316E-02 1.78229E-03-1.28197E-13
 -1      3167 1.35451E-02 1.82796E-03-1.27723E-13
 -1      3168 1.34679E-02 1.76935E-03-1.25712E-13
 -1      3169 1.33115E-02 1.70413E-03-1.26260E-13
 -1      3170 9.90945E-03-1.48013E-04-7.28051E-14
 -1      3171 9.76892E-03-1.09101E-04-7.13496E-14
 -1      3172 1.40116E-02 2.03016E-03-1.27330E-13
 -1      3173 1.41086E-02 2.07133E-03-1.27297E-13
 -1      3174 1.38389E-02 1.93164E-03-1.25351E-13
 -1      3175 1.47581E-02 2.33602E-03-1.27012E-13
 -1      3176 1.48440E-02 2.37146E-03-1.26962E-13
 -1      3177 1.35123E-02 1.35931E-03-9.66128E-14
 -1      3178 1.35012E-02 1.34652E-03-9.63582E-14
 -1      3179 1.34907E-02 1.35444E-03-9.67824E-14
 -1      3180 1.35963E-02 1.42027E-03-9.88810E-14
 -1      3181 1.27649E-02 1.19381E-03-9.49337E-14
 -1      3182 1.25451E-02 1.10891E-03-9.39834E-14
 -1      3183 1.09268E-02 1.58078E-04-8.41960E-14
 -1      3184 1.07516E-02 4.69432E-05-8.25003E-14
 -1      3185 1.01415E-02-1.72020E-04-7.54103E-14
 -1      3186 1.00293E-02-1.66668E-04-7.41034E-14
 -1      3187 9.90898E-03-1.69104E-04-7.29849E-14
 -1      3188 7.99233E-04-1.91906E-04-7.97837E-16
 -1      3189 8.07240E-04-2.15774E-04-7.87768E-16
 -1      3190 9.36517E-04-2.46606E-04-1.00819E-15
 -1      3191 9.17295E-04-1.99130E-04-1.02171E-15
 -1      3192 8.74596E-03 3.08289E-04-6.34448E-14
 -1      3193 8.60588E-03 3.65386E-04-6.27371E-14
 -1      3194 9.58551E-03-5.06957E-05-6.96008E-14
 -1      3195 9.39252E-03 1.64324E-05-6.78662E-14
 -1      3196 9.62135E-03-1.00713E-04-6.99430E-14
 -1      3197 1.44461E-03-3.14274E-04-2.18850E-15
 -1      3198 1.58811E-03-3.28764E-04-2.59924E-15
 -1      3199 1.65239E-03-3.00707E-04-2.84839E-15
 -1      3200 8.45899E-03 4.25315E-04-6.21715E-14
 -1      3201 8.34139E-03 4.64673E-04-6.17699E-14
 -1      3202 8.22673E-03 5.03925E-04-6.03790E-14
 -1      3203 1.45800E-02 2.26410E-03-1.27104E-13
 -1      3204 1.46700E-02 2.30034E-03-1.27057E-13
 -1      3205 1.45959E-02 2.24081E-03-1.25039E-13
 -1      3206 1.23103E-02 1.00605E-03-9.31592E-14
 -1      3207 1.20695E-02 8.83587E-04-9.21096E-14
 -1      3208 1.01638E-03 6.74939E-05-1.28757E-15
 -1      3209 1.01524E-03 4.05576E-05-1.29665E-15
 -1      3210 2.14120E-03 3.65879E-04-4.30421E-15
 -1      3211 1.99755E-03 3.58737E-04-3.77629E-15
 -1      3212 2.20666E-03 3.32426E-04-4.63923E-15
 -1      3213 2.71531E-03 3.82717E-04-6.76367E-15
 -1      3214 2.57187E-03 3.79951E-04-6.09701E-15
 -1      3215 2.78242E-03 3.46498E-04-7.17534E-15
 -1      3216 8.15953E-03 4.90378E-04-5.98975E-14
 -1      3217 8.09533E-03 4.67505E-04-5.90835E-14
 -1      3218 8.23971E-03 4.29900E-04-6.00092E-14
 -1      3219 8.24178E-03 4.66799E-04-6.07963E-14
 -1      3220 8.15967E-03 4.58843E-04-5.98278E-14
 -1      3221 1.02795E-03 1.80167E-04-1.22236E-15
 -1      3222 1.02384E-03 1.50902E-04-1.24367E-15
 -1      3223 2.49464E-03 3.41210E-04-5.83905E-15
 -1      3224 1.02364E-03-1.49556E-04-1.28928E-15
 -1      3225 1.02770E-03-1.78765E-04-1.27673E-15
 -1      3226 1.31910E-02 1.62594E-03-1.24329E-13
 -1      3227 1.32628E-02 1.35203E-03-9.77782E-14
 -1      3228 1.34876E-02 1.37993E-03-9.79395E-14
 -1      3229 1.29062E-02 1.25586E-03-9.65712E-14
 -1      3230 1.02059E-03 1.22481E-04-1.26132E-15
 -1      3231 1.01815E-03 9.47642E-05-1.27571E-15
 -1      3232 1.14343E-03 1.47823E-04-1.52031E-15
 -1      3233 1.60313E-03 3.34391E-04-2.49594E-15
 -1      3234 1.49612E-03 3.27905E-04-2.18841E-15
 -1      3235 1.66728E-03 3.06137E-04-2.75395E-15
 -1      3236 1.10365E-02 2.38751E-04-8.58995E-14
 -1      3237 1.36141E-02 1.44541E-03-1.00038E-13
 -1      3238 1.02999E-02-1.51218E-04-7.77600E-14
 -1      3239 1.02244E-02-1.68056E-04-7.65830E-14
 -1      3240 1.01043E-02-1.86065E-04-7.54480E-14
 -1      3241 9.21657E-03 5.29017E-05-6.62355E-14
 -1      3242 9.04323E-03 8.01179E-05-6.46180E-14
 -1      3243 9.27080E-03-1.22061E-05-6.65685E-14
 -1      3244 1.42312E-02 1.90689E-03-1.13378E-13
 -1      3245 1.42290E-02 1.88569E-03-1.12196E-13
 -1      3246 1.41073E-02 1.79873E-03-1.09967E-13
 -1      3247 1.03364E-03-2.39628E-04-1.22871E-15
 -1      3248 1.04418E-03-2.65248E-04-1.21963E-15
 -1      3249 1.15235E-03-2.82027E-04-1.45241E-15
 -1      3250 1.19138E-02 8.01303E-04-9.22192E-14
 -1      3251 8.79472E-03 2.36550E-04-6.31911E-14
 -1      3252 1.01804E-03-9.34875E-05-1.30442E-15
 -1      3253 1.02044E-03-1.21173E-04-1.29818E-15
 -1      3254 1.14325E-03-1.46384E-04-1.56847E-15
 -1      3255 1.43950E-02 2.18960E-03-1.27186E-13
 -1      3256 1.44883E-02 2.22728E-03-1.27145E-13
 -1      3257 1.44150E-02 2.16941E-03-1.25127E-13
 -1      3258 1.91864E-03 3.18901E-04-3.57661E-15
 -1      3259 1.32023E-02 1.61806E-03-1.23159E-13
 -1      3260 8.47477E-03 3.76310E-04-6.15391E-14
 -1      3261 1.13792E-03 8.78397E-05-1.55397E-15
 -1      3262 1.40339E-02 2.01480E-03-1.25284E-13
 -1      3263 1.42048E-02 2.11157E-03-1.27262E-13
 -1      3264 1.43003E-02 2.15099E-03-1.27225E-13
 -1      3265 1.49451E-02 2.41233E-03-1.26766E-13
 -1      3266 1.47855E-02 2.31557E-03-1.24799E-13
 -1      3267 1.15163E-03 2.26259E-04-1.44825E-15
 -1      3268 1.07079E-02 3.50506E-05-8.28225E-14
 -1      3269 1.06262E-02-1.94293E-05-8.14030E-14
 -1      3270 1.05091E-02-7.39024E-05-8.03113E-14
 -1      3271 1.39905E-02 1.71496E-03-1.07746E-13
 -1      3272 1.38792E-02 1.63378E-03-1.05539E-13
 -1      3273 1.39941E-02 1.73852E-03-1.08921E-13
 -1      3274 1.37828E-02 1.58289E-03-1.04476E-13
 -1      3275 1.24501E-02 1.07879E-03-9.48033E-14
 -1      3276 1.13532E-03 2.94711E-05-1.57487E-15
 -1      3277 1.01466E-03 1.38232E-05-1.30305E-15
 -1      3278 1.01465E-03-1.28161E-05-1.30715E-15
 -1      3279 1.26081E-03-2.96824E-04-1.70626E-15
 -1      3280 1.32464E-03-2.74044E-04-1.90947E-15
 -1      3281 1.86185E-03-2.80613E-04-3.58775E-15
 -1      3282 2.00606E-03-2.87951E-04-4.10704E-15
 -1      3283 2.56179E-03 3.05658E-04-6.21831E-15
 -1      3284 2.41748E-03 3.02475E-04-5.58154E-15
 -1      3285 8.46691E-03 3.26364E-04-6.07474E-14
 -1      3286 8.34446E-03 3.78047E-04-6.01925E-14
 -1      3287 1.57402E-03-2.61269E-04-2.65304E-15
 -1      3288 1.71782E-03-2.71763E-04-3.10304E-15
 -1      3289 1.78421E-03-2.41912E-04-3.36336E-15
 -1      3290 2.15036E-03-2.94007E-04-4.66086E-15
 -1      3291 2.29470E-03-2.98902E-04-5.24893E-15
 -1      3292 2.07292E-03-2.55268E-04-4.40360E-15
 -1      3293 2.43904E-03-3.02832E-04-5.87142E-15
 -1      3294 2.58334E-03-3.05893E-04-6.52854E-15
 -1      3295 2.36211E-03-2.64231E-04-5.58162E-15
 -1      3296 2.72758E-03-3.08248E-04-7.21841E-15
 -1      3297 2.87175E-03-3.09971E-04-7.94278E-15
 -1      3298 2.65132E-03-2.69869E-04-6.89504E-15
 -1      3299 3.01584E-03-3.11190E-04-8.70071E-15
 -1      3300 3.15984E-03-3.11959E-04-9.49224E-15
 -1      3301 2.94030E-03-2.73063E-04-8.34406E-15
 -1      3302 3.30375E-03-3.12376E-04-1.03166E-14
 -1      3303 3.44756E-03-3.12477E-04-1.11728E-14
 -1      3304 3.22890E-03-2.74507E-04-9.92648E-15
 -1      3305 3.59129E-03-3.12336E-04-1.20617E-14
 -1      3306 3.73491E-03-3.11976E-04-1.29834E-14
 -1      3307 3.51707E-03-2.74722E-04-1.16388E-14
 -1      3308 3.87845E-03-3.11450E-04-1.39368E-14
 -1      3309 4.02190E-03-3.10771E-04-1.49212E-14
 -1      3310 3.80478E-03-2.74083E-04-1.34806E-14
 -1      3311 4.16527E-03-3.09975E-04-1.59373E-14
 -1      3312 4.30855E-03-3.09070E-04-1.69844E-14
 -1      3313 4.09203E-03-2.72848E-04-1.54492E-14
 -1      3314 4.45177E-03-3.08080E-04-1.80612E-14
 -1      3315 4.59490E-03-3.07006E-04-1.91680E-14
 -1      3316 4.37886E-03-2.71183E-04-1.75410E-14
 -1      3317 4.73798E-03-3.05863E-04-2.03055E-14
 -1      3318 4.88100E-03-3.04651E-04-2.14729E-14
 -1      3319 4.66530E-03-2.69184E-04-1.97545E-14
 -1      3320 5.02396E-03-3.03379E-04-2.26693E-14
 -1      3321 5.16689E-03-3.02045E-04-2.38947E-14
 -1      3322 4.95139E-03-2.66896E-04-2.20873E-14
 -1      3323 5.30980E-03-3.00657E-04-2.51492E-14
 -1      3324 5.45269E-03-2.99212E-04-2.64327E-14
 -1      3325 5.23720E-03-2.64330E-04-2.45382E-14
 -1      3326 5.59560E-03-2.97717E-04-2.77437E-14
 -1      3327 5.73854E-03-2.96177E-04-2.90829E-14
 -1      3328 5.52283E-03-2.61478E-04-2.71047E-14
 -1      3329 5.88155E-03-2.94599E-04-3.04481E-14
 -1      3330 6.02467E-03-2.92996E-04-3.18405E-14
 -1      3331 5.80847E-03-2.58329E-04-2.97822E-14
 -1      3332 6.16796E-03-2.91379E-04-3.32592E-14
 -1      3333 6.31146E-03-2.89779E-04-3.47033E-14
 -1      3334 6.09439E-03-2.54894E-04-3.25670E-14
 -1      3335 6.45526E-03-2.88209E-04-3.61717E-14
 -1      3336 6.59942E-03-2.86729E-04-3.76650E-14
 -1      3337 6.38102E-03-2.51232E-04-3.54534E-14
 -1      3338 6.74407E-03-2.85357E-04-3.91826E-14
 -1      3339 6.88930E-03-2.84193E-04-4.07247E-14
 -1      3340 6.66898E-03-2.47497E-04-3.84391E-14
 -1      3341 7.03525E-03-2.83260E-04-4.22899E-14
 -1      3342 7.18202E-03-2.82713E-04-4.38786E-14
 -1      3343 6.95917E-03-2.44006E-04-4.15209E-14
 -1      3344 7.32982E-03-2.82580E-04-4.54908E-14
 -1      3345 7.47871E-03-2.83078E-04-4.71267E-14
 -1      3346 7.25275E-03-2.41324E-04-4.46961E-14
 -1      3347 7.62892E-03-2.84237E-04-4.87853E-14
 -1      3348 7.78046E-03-2.86321E-04-5.04656E-14
 -1      3349 7.55110E-03-2.40359E-04-4.79650E-14
 -1      3350 7.93354E-03-2.89344E-04-5.21687E-14
 -1      3351 8.08801E-03-2.93556E-04-5.38947E-14
 -1      3352 7.85564E-03-2.42428E-04-5.13234E-14
 -1      3353 8.24405E-03-2.98919E-04-5.56427E-14
 -1      3354 8.40124E-03-3.05490E-04-5.74127E-14
 -1      3355 8.16740E-03-2.49119E-04-5.47712E-14
 -1      3356 8.55962E-03-3.13100E-04-5.92044E-14
 -1      3357 8.71849E-03-3.21420E-04-6.10172E-14
 -1      3358 8.48629E-03-2.61696E-04-5.83087E-14
 -1      3359 8.87774E-03-3.29972E-04-6.28501E-14
 -1      3360 9.03640E-03-3.37642E-04-6.47043E-14
 -1      3361 8.81032E-03-2.79916E-04-6.19296E-14
 -1      3362 9.19412E-03-3.43588E-04-6.65753E-14
 -1      3363 9.35023E-03-3.45760E-04-6.84652E-14
 -1      3364 9.13517E-03-2.99701E-04-6.56320E-14
 -1      3365 9.50434E-03-3.42930E-04-7.03729E-14
 -1      3366 9.65642E-03-3.32612E-04-7.23000E-14
 -1      3367 9.45501E-03-3.10705E-04-6.94095E-14
 -1      3368 9.80633E-03-3.13511E-04-7.42448E-14
 -1      3369 9.95498E-03-2.83544E-04-7.62072E-14
 -1      3370 9.76576E-03-2.96808E-04-7.32594E-14
 -1      3371 1.01021E-02-2.41894E-04-7.81872E-14
 -1      3372 1.02501E-02-1.88456E-04-8.01883E-14
 -1      3373 1.00681E-02-2.40551E-04-7.71818E-14
 -1      3374 1.03983E-02-1.23555E-04-8.22117E-14
 -1      3375 1.05489E-02-4.83275E-05-8.42537E-14
 -1      3376 1.03683E-02-1.32135E-04-8.11836E-14
 -1      3377 1.07012E-02 3.59299E-05-8.63154E-14
 -1      3378 1.08558E-02 1.26874E-04-8.83960E-14
 -1      3379 1.06751E-02 2.40812E-05-8.52665E-14
 -1      3380 1.10123E-02 2.23066E-04-9.04957E-14
 -1      3381 1.11704E-02 3.22135E-04-9.26152E-14
 -1      3382 1.09918E-02 2.13321E-04-8.94274E-14
 -1      3383 1.13294E-02 4.23109E-04-9.47489E-14
 -1      3384 1.14886E-02 5.24510E-04-9.69026E-14
 -1      3385 1.13155E-02 4.16883E-04-9.36636E-14
 -1      3386 1.16477E-02 6.25724E-04-9.90723E-14
 -1      3387 1.18059E-02 7.26119E-04-1.01256E-13
 -1      3388 1.16409E-02 6.22468E-04-9.79699E-14
 -1      3389 1.19633E-02 8.25427E-04-1.03454E-13
 -1      3390 1.21191E-02 9.23600E-04-1.05666E-13
 -1      3391 1.19627E-02 8.23482E-04-1.02340E-13
 -1      3392 1.22736E-02 1.02056E-03-1.07891E-13
 -1      3393 1.24265E-02 1.11653E-03-1.10127E-13
 -1      3394 1.22780E-02 1.01844E-03-1.06763E-13
 -1      3395 1.25781E-02 1.21151E-03-1.12376E-13
 -1      3396 1.27282E-02 1.30580E-03-1.14635E-13
 -1      3397 1.25860E-02 1.20830E-03-1.11234E-13
 -1      3398 1.28771E-02 1.39944E-03-1.16903E-13
 -1      3399 1.30249E-02 1.49269E-03-1.19182E-13
 -1      3400 1.28874E-02 1.39475E-03-1.15750E-13
 -1      3401 3.98630E-03 3.11086E-04-1.43334E-14
 -1      3402 3.84282E-03 3.11744E-04-1.33664E-14
 -1      3403 3.70642E-03 3.12220E-04-1.24785E-14
 -1      3404 3.56994E-03 3.12538E-04-1.16201E-14
 -1      3405 3.77624E-03 2.74344E-04-1.30059E-14
 -1      3406 3.13840E-03 3.12047E-04-9.10345E-15
 -1      3407 2.99437E-03 3.11219E-04-8.33102E-15
 -1      3408 4.27299E-03 3.09403E-04-1.63637E-14
 -1      3409 4.12969E-03 3.10303E-04-1.53329E-14
 -1      3410 4.05638E-03 2.73196E-04-1.48938E-14
 -1      3411 4.55928E-03 3.07332E-04-1.85219E-14
 -1      3412 4.41619E-03 3.08412E-04-1.74276E-14
 -1      3413 4.34323E-03 2.71593E-04-1.69576E-14
 -1      3414 4.84515E-03 3.04959E-04-2.08042E-14
 -1      3415 4.70227E-03 3.06181E-04-1.96475E-14
 -1      3416 4.62956E-03 2.69680E-04-1.91479E-14
 -1      3417 5.13048E-03 3.02344E-04-2.32082E-14
 -1      3418 4.98789E-03 3.03681E-04-2.19909E-14
 -1      3419 4.91532E-03 2.67545E-04-2.14607E-14
 -1      3420 5.41512E-03 2.99547E-04-2.57296E-14
 -1      3421 5.27290E-03 3.00967E-04-2.44545E-14
 -1      3422 5.20038E-03 2.65264E-04-2.38948E-14
 -1      3423 5.69878E-03 2.96668E-04-2.83654E-14
 -1      3424 5.55709E-03 2.98115E-04-2.70342E-14
 -1      3425 5.48454E-03 2.62939E-04-2.64469E-14
 -1      3426 5.96694E-03 2.94026E-04-3.09697E-14
 -1      3427 5.83304E-03 2.95330E-04-2.96550E-14
 -1      3428 5.76040E-03 2.60785E-04-2.90417E-14
 -1      3429 6.24716E-03 2.91665E-04-3.38133E-14
 -1      3430 6.10736E-03 2.92779E-04-3.23790E-14
 -1      3431 6.03461E-03 2.59009E-04-3.17392E-14
 -1      3432 6.52425E-03 2.90320E-04-3.67573E-14
 -1      3433 6.38617E-03 2.90845E-04-3.52729E-14
 -1      3434 6.31339E-03 2.58046E-04-3.46070E-14
 -1      3435 6.79665E-03 2.90973E-04-3.97987E-14
 -1      3436 6.66114E-03 2.90364E-04-3.82662E-14
 -1      3437 6.58856E-03 2.58730E-04-3.75752E-14
 -1      3438 7.06210E-03 2.95184E-04-4.29357E-14
 -1      3439 6.93041E-03 2.92589E-04-4.13555E-14
 -1      3440 6.85851E-03 2.62295E-04-4.06396E-14
 -1      3441 7.31738E-03 3.05304E-04-4.61590E-14
 -1      3442 7.19127E-03 2.99457E-04-4.45376E-14
 -1      3443 7.12099E-03 2.70593E-04-4.37980E-14
 -1      3444 7.55798E-03 3.24636E-04-4.94670E-14
 -1      3445 7.43992E-03 3.13805E-04-4.78019E-14
 -1      3446 7.37292E-03 2.86279E-04-4.70432E-14
 -1      3447 7.77766E-03 3.57319E-04-5.28507E-14
 -1      3448 7.67106E-03 3.39411E-04-5.11502E-14
 -1      3449 7.61021E-03 3.12831E-04-5.03684E-14
 -1      3450 7.95935E-03 4.04642E-04-5.61349E-14
 -1      3451 7.87266E-03 3.79402E-04-5.44854E-14
 -1      3452 7.82248E-03 3.52919E-04-5.36876E-14
 -1      3453 1.26778E-03 1.74297E-04-1.80179E-15
 -1      3454 1.26389E-03 1.41765E-04-1.82474E-15
 -1      3455 1.01520E-03-3.94885E-05-1.30871E-15
 -1      3456 1.01630E-03-6.62970E-05-1.30783E-15
 -1      3457 1.13782E-03-8.65361E-05-1.58223E-15
 -1      3458 1.15435E-02 5.78275E-04-9.09953E-14
 -1      3459 1.13713E-02 4.65424E-04-8.96944E-14
 -1      3460 1.02410E-03-2.14972E-04-1.23495E-15
 -1      3461 1.46528E-02 2.22700E-03-1.22584E-13
 -1      3462 1.45219E-02 2.13908E-03-1.20377E-13
 -1      3463 1.45507E-02 2.18845E-03-1.22777E-13
 -1      3464 1.34696E-02 1.74489E-03-1.23432E-13
 -1      3465 1.35671E-02 1.78902E-03-1.23405E-13
 -1      3466 1.27826E-03 2.67411E-04-1.70058E-15
 -1      3467 1.27218E-03 2.16246E-04-1.76194E-15
 -1      3468 1.14343E-03-2.15701E-04-1.51238E-15
 -1      3469 8.12307E-03 4.80378E-04-5.99603E-14
 -1      3470 8.03834E-03 4.37071E-04-5.78061E-14
 -1      3471 1.32806E-02 1.65160E-03-1.22888E-13
 -1      3472 2.27313E-03 2.98403E-04-4.97910E-15
 -1      3473 2.12879E-03 2.93343E-04-4.41101E-15
 -1      3474 2.34049E-03 2.63854E-04-5.32502E-15
 -1      3475 1.36652E-02 1.83275E-03-1.23374E-13
 -1      3476 1.37637E-02 1.87585E-03-1.23343E-13
 -1      3477 1.34905E-02 1.73323E-03-1.21404E-13
 -1      3478 1.21006E-02 9.12350E-04-9.45118E-14
 -1      3479 1.18065E-02 7.42042E-04-9.27518E-14
 -1      3480 8.80036E-03 1.72308E-04-6.26968E-14
 -1      3481 8.63212E-03 2.49416E-04-6.16124E-14
 -1      3482 1.33658E-02 1.39649E-03-9.92730E-14
 -1      3483 1.32371E-02 1.37075E-03-9.90050E-14
 -1      3484 1.30375E-02 1.31593E-03-9.83986E-14
 -1      3485 1.28208E-02 1.24184E-03-9.74538E-14
 -1      3486 1.43908E-02 2.05024E-03-1.18092E-13
 -1      3487 1.42624E-02 1.96249E-03-1.15815E-13
 -1      3488 1.42887E-02 2.01529E-03-1.18283E-13
 -1      3489 1.32637E-03-2.31440E-04-1.96608E-15
 -1      3490 1.26112E-02 1.16040E-03-9.67878E-14
 -1      3491 1.24016E-02 1.06621E-03-9.59520E-14
 -1      3492 1.35446E-02 1.43957E-03-1.00143E-13
 -1      3493 9.91297E-03-1.93183E-04-7.33116E-14
 -1      3494 9.80273E-03-1.78821E-04-7.20194E-14
 -1      3495 1.11277E-02 3.05510E-04-8.75577E-14
 -1      3496 1.09266E-02 1.72596E-04-8.55710E-14
 -1      3497 1.26717E-03-1.76188E-04-1.85965E-15
 -1      3498 1.44678E-03-2.28846E-04-2.30741E-15
 -1      3499 1.51347E-03-2.02465E-04-2.53043E-15
 -1      3500 1.26323E-03-1.43613E-04-1.87116E-15
 -1      3501 9.64400E-03-1.45219E-04-7.02640E-14
 -1      3502 9.47667E-03-9.92725E-05-6.85236E-14
 -1      3503 9.65623E-03-1.82687E-04-7.05823E-14
 -1      3504 1.37649E-02 1.60247E-03-1.05507E-13
 -1      3505 1.36712E-02 1.53143E-03-1.03283E-13
 -1      3506 1.26088E-03 1.09774E-04-1.84394E-15
 -1      3507 1.25870E-03 7.82656E-05-1.85930E-15
 -1      3508 1.38511E-03 1.33006E-04-2.15657E-15
 -1      3509 1.98449E-03 2.87095E-04-3.87700E-15
 -1      3510 1.84029E-03 2.79539E-04-3.37714E-15
 -1      3511 2.05131E-03 2.54591E-04-4.18341E-15
 -1      3512 3.42618E-03 3.12651E-04-1.07483E-14
 -1      3513 3.28234E-03 3.12512E-04-9.90913E-15
 -1      3514 3.49566E-03 2.74910E-04-1.12422E-14
 -1      3515 1.29562E-03 3.15110E-04-1.65957E-15
 -1      3516 1.44631E-02 2.15452E-03-1.22823E-13
 -1      3517 2.85025E-03 3.09927E-04-7.59287E-15
 -1      3518 2.70606E-03 3.08117E-04-6.88871E-15
 -1      3519 2.91876E-03 2.73065E-04-8.01515E-15
 -1      3520 8.12681E-03 4.66402E-04-5.96404E-14
 -1      3521 8.00513E-03 4.09757E-04-5.69955E-14
 -1      3522 1.35028E-02 1.45654E-03-1.01167E-13
 -1      3523 8.11328E-03 4.38086E-04-5.88607E-14
 -1      3524 1.36884E-02 1.82082E-03-1.21342E-13
 -1      3525 1.38618E-02 1.91798E-03-1.23310E-13
 -1      3526 1.39598E-02 1.95911E-03-1.23275E-13
 -1      3527 1.03846E-02-1.21411E-04-7.91526E-14
 -1      3528 8.22501E-03 3.44038E-04-5.84502E-14
 -1      3529 8.23664E-03 3.88639E-04-5.92307E-14
 -1      3530 8.14092E-03 3.90611E-04-5.82725E-14
 -1      3531 1.42495E-02 2.07556E-03-1.23157E-13
 -1      3532 1.43429E-02 2.11185E-03-1.23116E-13
 -1      3533 1.43024E-02 2.06216E-03-1.20861E-13
 -1      3534 1.41477E-03 3.03677E-04-2.00374E-15
 -1      3535 3.20742E-03 2.74620E-04-9.56197E-15
 -1      3536 1.76266E-03 2.40840E-04-3.17860E-15
 -1      3537 1.69628E-03 2.70449E-04-2.91195E-15
 -1      3538 1.39279E-03 2.10609E-04-2.09198E-15
 -1      3539 1.58879E-03 2.66585E-04-2.58022E-15
 -1      3540 1.17351E-02 6.97571E-04-9.32716E-14
 -1      3541 9.31135E-03-7.14542E-05-6.68819E-14
 -1      3542 9.14587E-03-4.65630E-05-6.52546E-14
 -1      3543 9.33908E-03-1.25017E-04-6.71921E-14
 -1      3544 1.41389E-02 1.87821E-03-1.13573E-13
 -1      3545 1.40190E-02 1.79562E-03-1.11342E-13
 -1      3546 1.40360E-02 1.84779E-03-1.13767E-13
 -1      3547 2.62973E-03 2.69712E-04-6.60211E-15
 -1      3548 1.22769E-02 1.00732E-03-9.64902E-14
 -1      3549 1.12468E-02 3.83945E-04-8.93558E-14
 -1      3550 1.42267E-02 2.09419E-03-1.25209E-13
 -1      3551 1.31662E-02 1.36888E-03-9.98946E-14
 -1      3552 8.02658E-03 4.02628E-04-5.71798E-14
 -1      3553 7.93493E-03 3.70731E-04-5.55122E-14
 -1      3554 8.05629E-03 3.93101E-04-5.73623E-14
 -1      3555 1.31220E-02 1.54963E-03-1.20242E-13
 -1      3556 1.33895E-02 1.70111E-03-1.22781E-13
 -1      3557 8.87285E-03 1.07679E-04-6.30228E-14
 -1      3558 8.70720E-03 1.26006E-04-6.14422E-14
 -1      3559 8.93328E-03 4.34617E-05-6.33456E-14
 -1      3560 8.49252E-03 2.05098E-04-5.97762E-14
 -1      3561 8.48647E-03 2.66306E-04-6.02634E-14
 -1      3562 8.34901E-03 2.74453E-04-5.89264E-14
 -1      3563 9.99394E-03-2.03544E-04-7.44667E-14
 -1      3564 1.13529E-03-2.83152E-05-1.58421E-15
 -1      3565 1.27665E-02 1.23310E-03-9.86140E-14
 -1      3566 1.39433E-02 1.73607E-03-1.09524E-13
 -1      3567 1.38325E-02 1.65839E-03-1.07310E-13
 -1      3568 1.37017E-02 1.60143E-03-1.06105E-13
 -1      3569 1.38403E-02 1.71107E-03-1.09719E-13
 -1      3570 1.38041E-03 6.62719E-05-2.19144E-15
 -1      3571 1.25727E-03 4.70254E-05-1.87131E-15
 -1      3572 1.25656E-03 1.60001E-05-1.87991E-15
 -1      3573 1.41541E-02 2.03802E-03-1.23199E-13
 -1      3574 1.40827E-02 1.98241E-03-1.21194E-13
 -1      3575 1.40575E-02 1.99919E-03-1.23239E-13
 -1      3576 1.40434E-02 1.93429E-03-1.18864E-13
 -1      3577 1.41695E-02 1.97665E-03-1.18575E-13
 -1      3578 1.40387E-02 1.89278E-03-1.16300E-13
 -1      3579 1.70741E-03-2.04118E-04-3.14176E-15
 -1      3580 1.85158E-03-2.11146E-04-3.62858E-15
 -1      3581 1.99605E-03-2.17040E-04-4.14955E-15
 -1      3582 2.14073E-03-2.21899E-04-4.70480E-15
 -1      3583 1.91983E-03-1.79478E-04-3.89912E-15
 -1      3584 2.28552E-03-2.25874E-04-5.29442E-15
 -1      3585 2.43038E-03-2.29046E-04-5.91797E-15
 -1      3586 2.20938E-03-1.87877E-04-5.01071E-15
 -1      3587 2.57524E-03-2.31553E-04-6.57512E-15
 -1      3588 2.72006E-03-2.33462E-04-7.26574E-15
 -1      3589 2.49943E-03-1.93390E-04-6.25792E-15
 -1      3590 2.86482E-03-2.34887E-04-7.99031E-15
 -1      3591 3.00949E-03-2.35877E-04-8.74855E-15
 -1      3592 2.78950E-03-1.96726E-04-7.63999E-15
 -1      3593 3.15405E-03-2.36526E-04-9.53924E-15
 -1      3594 3.29850E-03-2.36864E-04-1.03631E-14
 -1      3595 3.07928E-03-1.98472E-04-9.15521E-15
 -1      3596 3.44281E-03-2.36964E-04-1.12191E-14
 -1      3597 3.58700E-03-2.36845E-04-1.21068E-14
 -1      3598 3.36858E-03-1.99085E-04-1.08013E-14
 -1      3599 3.73105E-03-2.36563E-04-1.30274E-14
 -1      3600 3.87497E-03-2.36126E-04-1.39792E-14
 -1      3601 3.65732E-03-1.98899E-04-1.25767E-14
 -1      3602 4.01876E-03-2.35573E-04-1.49626E-14
 -1      3603 4.16241E-03-2.34907E-04-1.59780E-14
 -1      3604 3.94547E-03-1.98150E-04-1.44791E-14
 -1      3605 4.30594E-03-2.34156E-04-1.70231E-14
 -1      3606 4.44934E-03-2.33315E-04-1.80984E-14
 -1      3607 4.23300E-03-1.96990E-04-1.65070E-14
 -1      3608 4.59262E-03-2.32403E-04-1.92052E-14
 -1      3609 4.73579E-03-2.31411E-04-2.03419E-14
 -1      3610 4.51996E-03-1.95504E-04-1.86582E-14
 -1      3611 4.87885E-03-2.30350E-04-2.15081E-14
 -1      3612 5.02180E-03-2.29210E-04-2.27041E-14
 -1      3613 4.80635E-03-1.93719E-04-2.09307E-14
 -1      3614 5.16467E-03-2.27994E-04-2.39297E-14
 -1      3615 5.30746E-03-2.26691E-04-2.51841E-14
 -1      3616 5.09223E-03-1.91620E-04-2.33227E-14
 -1      3617 5.45018E-03-2.25300E-04-2.64673E-14
 -1      3618 5.59287E-03-2.23810E-04-2.77786E-14
 -1      3619 5.37767E-03-1.89152E-04-2.58317E-14
 -1      3620 5.73554E-03-2.22217E-04-2.91182E-14
 -1      3621 5.87822E-03-2.20512E-04-3.04833E-14
 -1      3622 5.66278E-03-1.86228E-04-2.84547E-14
 -1      3623 6.02097E-03-2.18690E-04-3.18752E-14
 -1      3624 6.16383E-03-2.16752E-04-3.32939E-14
 -1      3625 5.94776E-03-1.82740E-04-3.11862E-14
 -1      3626 6.30688E-03-2.14689E-04-3.47368E-14
 -1      3627 6.45019E-03-2.12525E-04-3.62040E-14
 -1      3628 6.23296E-03-1.78574E-04-3.40212E-14
 -1      3629 6.59386E-03-2.10250E-04-3.76961E-14
 -1      3630 6.73802E-03-2.07925E-04-3.92133E-14
 -1      3631 6.51891E-03-1.73648E-04-3.69560E-14
 -1      3632 6.88281E-03-2.05542E-04-4.07536E-14
 -1      3633 7.02838E-03-2.03227E-04-4.23166E-14
 -1      3634 6.80644E-03-1.67976E-04-3.99880E-14
 -1      3635 7.17493E-03-2.00979E-04-4.39048E-14
 -1      3636 7.32265E-03-1.99018E-04-4.55144E-14
 -1      3637 7.09676E-03-1.61785E-04-4.31151E-14
 -1      3638 7.47180E-03-1.97363E-04-4.71470E-14
 -1      3639 7.62255E-03-1.96354E-04-4.88036E-14
 -1      3640 7.39153E-03-1.55689E-04-4.63331E-14
 -1      3641 7.77522E-03-1.96045E-04-5.04818E-14
 -1      3642 7.92989E-03-1.96906E-04-5.21819E-14
 -1      3643 7.69281E-03-1.50920E-04-4.96428E-14
 -1      3644 8.08689E-03-1.98998E-04-5.39046E-14
 -1      3645 8.24605E-03-2.02857E-04-5.56488E-14
 -1      3646 8.00292E-03-1.49622E-04-5.30410E-14
 -1      3647 8.40767E-03-2.08548E-04-5.74147E-14
 -1      3648 8.57115E-03-2.16349E-04-5.92027E-14
 -1      3649 8.32374E-03-1.54865E-04-5.65253E-14
 -1      3650 8.73659E-03-2.26075E-04-6.10124E-14
 -1      3651 8.90278E-03-2.37492E-04-6.28406E-14
 -1      3652 8.65562E-03-1.69676E-04-6.00962E-14
 -1      3653 9.06972E-03-2.50290E-04-6.46898E-14
 -1      3654 9.23560E-03-2.62327E-04-6.65572E-14
 -1      3655 8.99555E-03-1.95239E-04-6.37491E-14
 -1      3656 9.72098E-03-2.75699E-04-7.22725E-14
 -1      3657 9.87743E-03-2.62826E-04-7.42157E-14
 -1      3658 1.00474E-02-2.23291E-04-7.59246E-14
 -1      3659 1.02035E-02-1.85737E-04-7.78994E-14
 -1      3660 1.03967E-02-1.14340E-04-8.04508E-14
 -1      3661 1.05547E-02-3.99484E-05-8.24764E-14
 -1      3662 1.07572E-02 7.45750E-05-8.52157E-14
 -1      3663 1.09214E-02 1.73939E-04-8.72853E-14
 -1      3664 1.10880E-02 2.78048E-04-8.93744E-14
 -1      3665 1.13004E-02 4.11020E-04-9.25811E-14
 -1      3666 1.14672E-02 5.16366E-04-9.47164E-14
 -1      3667 1.16339E-02 6.20615E-04-9.68684E-14
 -1      3668 1.17990E-02 7.22997E-04-9.90400E-14
 -1      3669 1.16269E-02 6.19628E-04-9.57695E-14
 -1      3670 1.19627E-02 8.23384E-04-1.01224E-13
 -1      3671 1.21240E-02 9.21721E-04-1.03423E-13
 -1      3672 1.19633E-02 8.24997E-04-1.00109E-13
 -1      3673 1.22832E-02 1.01810E-03-1.05634E-13
 -1      3674 1.24401E-02 1.11305E-03-1.07858E-13
 -1      3675 1.22895E-02 1.01964E-03-1.04507E-13
 -1      3676 1.25948E-02 1.20661E-03-1.10093E-13
 -1      3677 1.27474E-02 1.29931E-03-1.12340E-13
 -1      3678 1.26046E-02 1.20658E-03-1.08954E-13
 -1      3679 1.28983E-02 1.39123E-03-1.14598E-13
 -1      3680 1.30475E-02 1.48278E-03-1.16865E-13
 -1      3681 1.29101E-02 1.38899E-03-1.13447E-13
 -1      3682 4.41362E-03 2.33841E-04-1.75534E-14
 -1      3683 4.27024E-03 2.34611E-04-1.64894E-14
 -1      3684 1.82999E-03 2.10311E-04-3.45173E-15
 -1      3685 1.68589E-03 2.03082E-04-2.98089E-15
 -1      3686 4.12670E-03 2.35307E-04-1.54572E-14
 -1      3687 3.98303E-03 2.35925E-04-1.44564E-14
 -1      3688 4.19725E-03 1.97461E-04-1.60231E-14
 -1      3689 4.98551E-03 2.30320E-04-2.21191E-14
 -1      3690 4.84281E-03 2.31248E-04-2.09316E-14
 -1      3691 5.27025E-03 2.28459E-04-2.45838E-14
 -1      3692 5.12800E-03 2.29390E-04-2.33370E-14
 -1      3693 5.05575E-03 1.93311E-04-2.27795E-14
 -1      3694 5.55391E-03 2.26710E-04-2.71641E-14
 -1      3695 5.41224E-03 2.27565E-04-2.58594E-14
 -1      3696 5.34015E-03 1.91947E-04-2.52739E-14
 -1      3697 5.82205E-03 2.25368E-04-2.97163E-14
 -1      3698 5.68817E-03 2.25991E-04-2.84284E-14
 -1      3699 5.61626E-03 1.90892E-04-2.78152E-14
 -1      3700 6.10236E-03 2.24659E-04-3.25074E-14
 -1      3701 5.96249E-03 2.24906E-04-3.10991E-14
 -1      3702 5.89085E-03 1.90395E-04-3.04606E-14
 -1      3703 6.37990E-03 2.25281E-04-3.54002E-14
 -1      3704 6.24154E-03 2.24775E-04-3.39411E-14
 -1      3705 6.17035E-03 1.90938E-04-3.32758E-14
 -1      3706 6.65357E-03 2.28196E-04-3.83923E-14
 -1      3707 6.51731E-03 2.26409E-04-3.68848E-14
 -1      3708 6.44697E-03 1.93289E-04-3.61942E-14
 -1      3709 6.92181E-03 2.34842E-04-4.14799E-14
 -1      3710 6.78850E-03 2.30992E-04-3.99242E-14
 -1      3711 6.71966E-03 1.98563E-04-3.92098E-14
 -1      3712 7.18261E-03 2.47279E-04-4.46594E-14
 -1      3713 7.05333E-03 2.40261E-04-4.30585E-14
 -1      3714 6.98712E-03 2.08355E-04-4.23199E-14
 -1      3715 7.43337E-03 2.68283E-04-4.79251E-14
 -1      3716 7.30952E-03 2.56627E-04-4.62822E-14
 -1      3717 7.24776E-03 2.24827E-04-4.55211E-14
 -1      3718 7.67098E-03 3.01265E-04-5.12719E-14
 -1      3719 7.55421E-03 2.83253E-04-4.95891E-14
 -1      3720 7.49985E-03 2.50733E-04-4.88074E-14
 -1      3721 7.85863E-03 3.45231E-04-5.41950E-14
 -1      3722 7.75610E-03 3.21666E-04-5.25648E-14
 -1      3723 7.71126E-03 2.88272E-04-5.17681E-14
 -1      3724 7.87970E-03 3.34541E-04-5.43735E-14
 -1      3725 1.34973E-02 1.48243E-03-1.02402E-13
 -1      3726 1.25796E-03-8.02038E-05-1.88418E-15
 -1      3727 1.26016E-03-1.11655E-04-1.87948E-15
 -1      3728 1.38394E-03-1.38536E-04-2.20059E-15
 -1      3729 1.31336E-02 1.54394E-03-1.19078E-13
 -1      3730 2.40873E-03 2.28778E-04-5.67580E-15
 -1      3731 2.26387E-03 2.25494E-04-5.06862E-15
 -1      3732 1.14692E-02 5.26353E-04-9.25683E-14
 -1      3733 1.12402E-02 3.77258E-04-9.04034E-14
 -1      3734 3.27699E-03 2.36999E-04-1.00242E-14
 -1      3735 3.13251E-03 2.36619E-04-9.21575E-15
 -1      3736 1.35450E-02 1.52928E-03-1.04268E-13
 -1      3737 1.33908E-02 1.46089E-03-1.02360E-13
 -1      3738 2.69844E-03 2.33374E-04-6.99100E-15
 -1      3739 2.55360E-03 2.31382E-04-6.31644E-15
 -1      3740 2.47774E-03 1.93218E-04-6.03199E-15
 -1      3741 4.69992E-03 2.32148E-04-1.97753E-14
 -1      3742 4.55685E-03 2.33019E-04-1.86492E-14
 -1      3743 4.48417E-03 1.96184E-04-1.81514E-14
 -1      3744 4.77037E-03 1.94767E-04-2.04047E-14
 -1      3745 1.08026E-02 9.63997E-05-8.44543E-14
 -1      3746 1.25655E-03-1.48982E-05-1.88521E-15
 -1      3747 1.25723E-03-4.58519E-05-1.88723E-15
 -1      3748 1.37887E-03 5.46251E-07-2.21103E-15
 -1      3749 1.47914E-03 2.78160E-04-2.23335E-15
 -1      3750 3.84640E-03 2.36411E-04-1.35365E-14
 -1      3751 3.70965E-03 2.36795E-04-1.26458E-14
 -1      3752 3.91686E-03 1.98469E-04-1.40699E-14
 -1      3753 1.51044E-03 1.57223E-04-2.49213E-15
 -1      3754 1.50709E-03 1.21919E-04-2.51581E-15
 -1      3755 9.67552E-03-2.19280E-04-7.10612E-14
 -1      3756 9.52703E-03-1.93268E-04-6.93134E-14
 -1      3757 2.11908E-03 2.21387E-04-4.49583E-15
 -1      3758 1.97442E-03 2.16377E-04-3.95690E-15
 -1      3759 1.89820E-03 1.78852E-04-3.73165E-15
 -1      3760 2.18769E-03 1.87516E-04-4.81432E-15
 -1      3761 3.56556E-03 2.37049E-04-1.17391E-14
 -1      3762 3.42134E-03 2.37135E-04-1.08652E-14
 -1      3763 3.63585E-03 1.99120E-04-1.22396E-14
 -1      3764 2.98792E-03 2.35920E-04-8.44070E-15
 -1      3765 2.84322E-03 2.34871E-04-7.69941E-15
 -1      3766 3.05767E-03 1.98550E-04-8.87108E-15
 -1      3767 1.29347E-02 1.31260E-03-1.00754E-13
 -1      3768 1.27459E-02 1.23687E-03-1.00078E-13
 -1      3769 1.24767E-02 1.11294E-03-9.88404E-14
 -1      3770 1.22023E-02 9.69983E-04-9.73803E-14
 -1      3771 1.32127E-02 1.40914E-03-1.01748E-13
 -1      3772 1.50840E-03 2.44717E-04-2.37363E-15
 -1      3773 1.50322E-03 1.98931E-04-2.42279E-15
 -1      3774 8.23882E-03 2.94465E-04-5.79759E-14
 -1      3775 8.13590E-03 3.07067E-04-5.70290E-14
 -1      3776 8.24488E-03 2.41101E-04-5.74974E-14
 -1      3777 1.39458E-02 1.89770E-03-1.18906E-13
 -1      3778 1.58102E-03-1.74871E-04-2.75971E-15
 -1      3779 9.35732E-03-2.23356E-04-6.76842E-14
 -1      3780 9.42057E-03-2.68853E-04-6.86490E-14
 -1      3781 9.58281E-03-2.73778E-04-7.05566E-14
 -1      3782 1.62976E-03 1.08716E-04-2.90200E-15
 -1      3783 1.50462E-03 8.69359E-05-2.53541E-15
 -1      3784 1.50300E-03 5.22317E-05-2.55060E-15
 -1      3785 1.37965E-03-6.84629E-05-2.21381E-15
 -1      3786 1.38868E-02 1.90434E-03-1.21272E-13
 -1      3787 2.76785E-03 1.96699E-04-7.38446E-15
 -1      3788 9.33142E-03-1.76289E-04-6.72198E-14
 -1      3789 9.17673E-03-1.59167E-04-6.55856E-14
 -1      3790 8.03640E-03 3.58493E-04-5.65943E-14
 -1      3791 1.39113E-02 1.81233E-03-1.14062E-13
 -1      3792 1.37862E-02 1.73396E-03-1.11830E-13
 -1      3793 1.37781E-02 1.77102E-03-1.14351E-13
 -1      3794 1.31457E-02 1.53926E-03-1.17919E-13
 -1      3795 1.33116E-02 1.64451E-03-1.20785E-13
 -1      3796 9.02066E-03-7.75379E-05-6.39501E-14
 -1      3797 8.98243E-03-1.85508E-05-6.36488E-14
 -1      3798 8.82025E-03 4.47406E-06-6.20595E-14
 -1      3799 1.62504E-03 1.88397E-04-2.80600E-15
 -1      3800 8.62473E-03 9.29409E-05-6.04122E-14
 -1      3801 8.56205E-03 1.50499E-04-6.00963E-14
 -1      3802 8.42173E-03 1.67568E-04-5.87603E-14
 -1      3803 1.36083E-02 1.57954E-03-1.06062E-13
 -1      3804 1.33146E-02 1.63288E-03-1.19438E-13
 -1      3805 1.34138E-02 1.67842E-03-1.19409E-13
 -1      3806 3.34704E-03 1.99240E-04-1.04900E-14
 -1      3807 1.26604E-02 1.20523E-03-1.00980E-13
 -1      3808 1.16865E-02 6.65205E-04-9.39904E-14
 -1      3809 1.16618E-02 6.45666E-04-9.50584E-14
 -1      3810 1.18353E-02 7.51202E-04-9.72147E-14
 -1      3811 1.19318E-02 8.15623E-04-9.57713E-14
 -1      3812 1.00036E-02-2.15483E-04-7.49127E-14
 -1      3813 1.33369E-02 1.62454E-03-1.17424E-13
 -1      3814 1.35135E-02 1.72314E-03-1.19382E-13
 -1      3815 1.36137E-02 1.76689E-03-1.19348E-13
 -1      3816 9.82083E-03-2.27312E-04-7.27806E-14
 -1      3817 9.69112E-03-2.43853E-04-7.14954E-14
 -1      3818 1.31908E-02 1.42257E-03-1.03227E-13
 -1      3819 1.21369E-02 9.32701E-04-9.81116E-14
 -1      3820 1.32335E-02 1.58884E-03-1.18793E-13
 -1      3821 2.13380E-03-1.50396E-04-4.73033E-15
 -1      3822 2.27886E-03-1.53219E-04-5.32030E-15
 -1      3823 2.42403E-03-1.55493E-04-5.94389E-15
 -1      3824 2.56925E-03-1.57279E-04-6.60106E-15
 -1      3825 2.34910E-03-1.17957E-04-5.63379E-15
 -1      3826 2.71446E-03-1.58660E-04-7.29214E-15
 -1      3827 2.85962E-03-1.59675E-04-8.01629E-15
 -1      3828 2.63976E-03-1.20760E-04-6.94757E-15
 -1      3829 3.00469E-03-1.60402E-04-8.77362E-15
 -1      3830 3.14964E-03-1.60863E-04-9.56365E-15
 -1      3831 2.93034E-03-1.22366E-04-8.39523E-15
 -1      3832 3.29447E-03-1.61120E-04-1.03865E-14
 -1      3833 3.43915E-03-1.61187E-04-1.12417E-14
 -1      3834 3.22052E-03-1.23104E-04-9.97470E-15
 -1      3835 3.58367E-03-1.61112E-04-1.21289E-14
 -1      3836 3.72803E-03-1.60900E-04-1.30475E-14
 -1      3837 3.51013E-03-1.23221E-04-1.16838E-14
 -1      3838 3.87223E-03-1.60588E-04-1.39989E-14
 -1      3839 4.01626E-03-1.60175E-04-1.49810E-14
 -1      3840 3.79908E-03-1.22895E-04-1.35205E-14
 -1      3841 4.16012E-03-1.59685E-04-1.59941E-14
 -1      3842 4.30382E-03-1.59114E-04-1.70383E-14
 -1      3843 4.08731E-03-1.22240E-04-1.54839E-14
 -1      3844 4.44735E-03-1.58478E-04-1.81135E-14
 -1      3845 4.59073E-03-1.57766E-04-1.92191E-14
 -1      3846 4.37483E-03-1.21316E-04-1.75711E-14
 -1      3847 4.73394E-03-1.56987E-04-2.03549E-14
 -1      3848 4.87701E-03-1.56126E-04-2.15213E-14
 -1      3849 4.66163E-03-1.20136E-04-1.97813E-14
 -1      3850 5.01992E-03-1.55186E-04-2.27171E-14
 -1      3851 5.16269E-03-1.54147E-04-2.39425E-14
 -1      3852 4.94773E-03-1.18665E-04-2.21133E-14
 -1      3853 5.30532E-03-1.53005E-04-2.51976E-14
 -1      3854 5.44784E-03-1.51736E-04-2.64810E-14
 -1      3855 5.23316E-03-1.16821E-04-2.45646E-14
 -1      3856 5.59024E-03-1.50329E-04-2.77923E-14
 -1      3857 5.73257E-03-1.48759E-04-2.91318E-14
 -1      3858 5.51795E-03-1.14472E-04-2.71323E-14
 -1      3859 5.87483E-03-1.47006E-04-3.04980E-14
 -1      3860 6.01708E-03-1.45045E-04-3.18895E-14
 -1      3861 5.80222E-03-1.11430E-04-2.98102E-14
 -1      3862 6.15935E-03-1.42849E-04-3.33061E-14
 -1      3863 6.30172E-03-1.40402E-04-3.47495E-14
 -1      3864 6.08614E-03-1.07454E-04-3.25935E-14
 -1      3865 6.44425E-03-1.37668E-04-3.62172E-14
 -1      3866 6.58707E-03-1.34654E-04-3.77085E-14
 -1      3867 6.37006E-03-1.02258E-04-3.54784E-14
 -1      3868 6.73027E-03-1.31319E-04-3.92245E-14
 -1      3869 6.87404E-03-1.27719E-04-4.07636E-14
 -1      3870 6.65458E-03-9.55526E-05-3.84614E-14
 -1      3871 7.01853E-03-1.23815E-04-4.23268E-14
 -1      3872 7.16400E-03-1.19754E-04-4.39124E-14
 -1      3873 6.94067E-03-8.71361E-05-4.15399E-14
 -1      3874 7.31067E-03-1.15511E-04-4.55210E-14
 -1      3875 7.45886E-03-1.11390E-04-4.71514E-14
 -1      3876 7.22986E-03-7.70714E-05-4.47091E-14
 -1      3877 7.60890E-03-1.07404E-04-4.88058E-14
 -1      3878 7.76111E-03-1.04061E-04-5.04824E-14
 -1      3879 7.52434E-03-6.60057E-05-4.79711E-14
 -1      3880 7.91596E-03-1.01466E-04-5.21787E-14
 -1      3881 8.07367E-03-1.00475E-04-5.38991E-14
 -1      3882 7.82703E-03-5.56097E-05-5.13212E-14
 -1      3883 8.23493E-03-1.01135E-04-5.56407E-14
 -1      3884 8.39936E-03-1.04594E-04-5.74011E-14
 -1      3885 8.14180E-03-4.90538E-05-5.47582E-14
 -1      3886 8.67458E-03-1.07264E-04-6.03211E-14
 -1      3887 8.84786E-03-1.19498E-04-6.21378E-14
 -1      3888 9.02341E-03-1.36325E-04-6.39732E-14
 -1      3889 1.31485E-02 1.52906E-03-1.16580E-13
 -1      3890 1.22978E-02 1.02324E-03-1.03378E-13
 -1      3891 1.24587E-02 1.11680E-03-1.05591E-13
 -1      3892 1.26164E-02 1.20818E-03-1.07816E-13
 -1      3893 1.27712E-02 1.29859E-03-1.10050E-13
 -1      3894 1.26306E-02 1.21170E-03-1.06676E-13
 -1      3895 5.41015E-03 1.55729E-04-2.59658E-14
 -1      3896 5.26826E-03 1.56094E-04-2.46894E-14
 -1      3897 5.12608E-03 1.56530E-04-2.34422E-14
 -1      3898 4.98363E-03 1.57029E-04-2.22239E-14
 -1      3899 5.19653E-03 1.19984E-04-2.41059E-14
 -1      3900 5.95992E-03 1.55866E-04-3.12048E-14
 -1      3901 5.81960E-03 1.55508E-04-2.98227E-14
 -1      3902 6.23887E-03 1.57731E-04-3.40466E-14
 -1      3903 6.09971E-03 1.56592E-04-3.26130E-14
 -1      3904 6.02940E-03 1.21723E-04-3.19509E-14
 -1      3905 6.51496E-03 1.61845E-04-3.69893E-14
 -1      3906 6.37733E-03 1.59461E-04-3.55058E-14
 -1      3907 6.30807E-03 1.24934E-04-3.48183E-14
 -1      3908 6.78737E-03 1.69426E-04-4.00285E-14
 -1      3909 6.65170E-03 1.65139E-04-3.84970E-14
 -1      3910 6.58413E-03 1.30779E-04-3.77849E-14
 -1      3911 7.05515E-03 1.82126E-04-4.31608E-14
 -1      3912 6.92194E-03 1.75054E-04-4.15833E-14
 -1      3913 6.85702E-03 1.40516E-04-4.08477E-14
 -1      3914 7.31734E-03 2.02041E-04-4.63813E-14
 -1      3915 7.18708E-03 1.91087E-04-4.47596E-14
 -1      3916 7.12629E-03 1.55756E-04-4.40009E-14
 -1      3917 7.57332E-03 2.31582E-04-4.96897E-14
 -1      3918 7.44628E-03 2.15499E-04-4.80256E-14
 -1      3919 7.39182E-03 1.78364E-04-4.72427E-14
 -1      3920 1.33798E-02 1.50874E-03-1.05417E-13
 -1      3921 1.31259E-02 1.41632E-03-1.04412E-13
 -1      3922 8.04015E-03 3.20728E-04-5.61304E-14
 -1      3923 7.95420E-03 3.28208E-04-5.52342E-14
 -1      3924 8.04195E-03 2.78069E-04-5.56630E-14
 -1      3925 5.68232E-03 1.55400E-04-2.85004E-14
 -1      3926 5.54817E-03 1.55497E-04-2.72363E-14
 -1      3927 5.47677E-03 1.19800E-04-2.66263E-14
 -1      3928 5.75214E-03 1.20236E-04-2.92199E-14
 -1      3929 4.26801E-03 1.59677E-04-1.65912E-14
 -1      3930 4.12430E-03 1.60146E-04-1.55582E-14
 -1      3931 3.70653E-03 1.61143E-04-1.27435E-14
 -1      3932 3.56214E-03 1.61319E-04-1.18352E-14
 -1      3933 1.57728E-03-1.38752E-04-2.77121E-15
 -1      3934 1.37037E-02 1.65008E-03-1.08490E-13
 -1      3935 1.35330E-02 1.57116E-03-1.06640E-13
 -1      3936 1.34818E-02 1.57590E-03-1.07838E-13
 -1      3937 1.37766E-02 1.70438E-03-1.10300E-13
 -1      3938 1.30797E-02 1.48336E-03-1.14999E-13
 -1      3939 1.31686E-02 1.53274E-03-1.15867E-13
 -1      3940 1.32698E-02 1.57966E-03-1.15840E-13
 -1      3941 1.29297E-02 1.39391E-03-1.12740E-13
 -1      3942 3.41758E-03 1.61360E-04-1.09593E-14
 -1      3943 3.27287E-03 1.61261E-04-1.01159E-14
 -1      3944 3.48854E-03 1.23412E-04-1.14325E-14
 -1      3945 1.38186E-02 1.84513E-03-1.18710E-13
 -1      3946 1.37816E-02 1.80085E-03-1.16394E-13
 -1      3947 2.54753E-03 1.57191E-04-6.39351E-15
 -1      3948 2.40231E-03 1.55337E-04-5.74890E-15
 -1      3949 1.50219E-03 1.77713E-05-2.56139E-15
 -1      3950 1.50217E-03-1.66323E-05-2.56822E-15
 -1      3951 1.62640E-03 3.64755E-05-2.93538E-15
 -1      3952 1.84438E-03-1.42778E-04-3.65212E-15
 -1      3953 1.98894E-03-1.46941E-04-4.17412E-15
 -1      3954 2.05885E-03-1.13546E-04-4.45396E-15
 -1      3955 1.37179E-02 1.80449E-03-1.18747E-13
 -1      3956 3.98401E-03 1.60547E-04-1.45825E-14
 -1      3957 3.84715E-03 1.60883E-04-1.36601E-14
 -1      3958 3.77393E-03 1.23169E-04-1.32273E-14
 -1      3959 4.05503E-03 1.22663E-04-1.51216E-14
 -1      3960 2.83793E-03 1.59700E-04-7.78278E-15
 -1      3961 2.69275E-03 1.58634E-04-7.07144E-15
 -1      3962 2.61801E-03 1.20749E-04-6.75981E-15
 -1      3963 1.20670E-02 8.91068E-04-9.87526E-14
 -1      3964 1.20188E-02 8.60269E-04-9.94757E-14
 -1      3965 1.21858E-02 9.58205E-04-1.01666E-13
 -1      3966 1.23213E-02 1.03560E-03-1.00382E-13
 -1      3967 3.12801E-03 1.60969E-04-9.30561E-15
 -1      3968 2.98302E-03 1.60471E-04-8.52753E-15
 -1      3969 3.19886E-03 1.23235E-04-9.74362E-15
 -1      3970 1.28539E-02 1.30262E-03-1.03331E-13
 -1      3971 1.26054E-02 1.18465E-03-1.02080E-13
 -1      3972 1.51253E-03-8.84897E-05-2.59378E-15
 -1      3973 1.70933E-03-1.20694E-04-3.20238E-15
 -1      3974 1.77920E-03-8.96456E-05-3.44733E-15
 -1      3975 1.51162E-03-5.02035E-05-2.59717E-15
 -1      3976 8.57806E-03-4.62535E-05-5.94052E-14
 -1      3977 1.63510E-03-3.42967E-05-2.97851E-15
 -1      3978 1.23618E-02 1.05908E-03-1.02738E-13
 -1      3979 8.23760E-03 1.84856E-04-5.69385E-14
 -1      3980 8.13388E-03 2.06546E-04-5.60030E-14
 -1      3981 1.35438E-02 1.70980E-03-1.16798E-13
 -1      3982 1.29444E-02 1.39384E-03-1.11589E-13
 -1      3983 4.41154E-03 1.59176E-04-1.76564E-14
 -1      3984 4.33898E-03 1.21990E-04-1.71630E-14
 -1      3985 4.55487E-03 1.58642E-04-1.87526E-14
 -1      3986 1.25240E-02 1.14567E-03-1.02730E-13
 -1      3987 2.25714E-03 1.52982E-04-5.13856E-15
 -1      3988 2.11210E-03 1.50079E-04-4.56158E-15
 -1      3989 2.32735E-03 1.17834E-04-5.46811E-15
 -1      3990 1.69324E-03 1.59116E-04-3.05722E-15
 -1      3991 4.91162E-03 1.20529E-04-2.16699E-14
 -1      3992 4.84093E-03 1.57554E-04-2.10360E-14
 -1      3993 4.69801E-03 1.58101E-04-1.98790E-14
 -1      3994 1.32692E-02 1.50322E-03-1.07725E-13
 -1      3995 1.30664E-02 1.40551E-03-1.05521E-13
 -1      3996 1.30139E-02 1.39299E-03-1.06634E-13
 -1      3997 7.69929E-03 2.50739E-04-5.13743E-14
 -1      3998 7.65442E-03 2.10130E-04-5.05730E-14
 -1      3999 7.79037E-03 2.72564E-04-5.26692E-14
 -1      4000 7.86997E-03 3.02484E-04-5.39181E-14
 -1      4001 1.36471E-02 1.72059E-03-1.14159E-13
 -1      4002 2.90862E-03 1.22434E-04-8.18556E-15
 -1      4003 1.36392E-02 1.66730E-03-1.10594E-13
 -1      4004 1.79375E-03 1.49968E-04-3.40107E-15
 -1      4005 1.73321E-03 1.36312E-04-3.21164E-15
 -1      4006 1.73049E-03 9.88663E-05-3.23561E-15
 -1      4007 1.93817E-03 1.54649E-04-3.90334E-15
 -1      4008 8.29767E-03 1.37992E-04-5.72510E-14
 -1      4009 5.26716E-03 8.36627E-05-2.47716E-14
 -1      4010 5.12495E-03 8.36359E-05-2.35239E-14
 -1      4011 2.56551E-03-8.31174E-05-6.60706E-15
 -1      4012 2.71094E-03-8.38670E-05-7.29692E-15
 -1      4013 2.85633E-03-8.44312E-05-8.02082E-15
 -1      4014 3.00164E-03-8.48236E-05-8.77713E-15
 -1      4015 2.78272E-03-4.66499E-05-7.64952E-15
 -1      4016 3.14684E-03-8.50836E-05-9.56602E-15
 -1      4017 3.29189E-03-8.52177E-05-1.03878E-14
 -1      4018 3.07346E-03-4.70975E-05-9.16129E-15
 -1      4019 3.43679E-03-8.52592E-05-1.12417E-14
 -1      4020 3.58152E-03-8.52079E-05-1.21276E-14
 -1      4021 3.36369E-03-4.72518E-05-1.08027E-14
 -1      4022 3.72608E-03-8.50908E-05-1.30452E-14
 -1      4023 3.87045E-03-8.49022E-05-1.39949E-14
 -1      4024 3.65327E-03-4.71906E-05-1.25734E-14
 -1      4025 4.01463E-03-8.46632E-05-1.49763E-14
 -1      4026 4.15862E-03-8.43635E-05-1.59879E-14
 -1      4027 3.94209E-03-4.69608E-05-1.44708E-14
 -1      4028 4.30242E-03-8.40176E-05-1.70317E-14
 -1      4029 4.44602E-03-8.36125E-05-1.81059E-14
 -1      4030 4.23014E-03-4.65801E-05-1.64948E-14
 -1      4031 4.58944E-03-8.31577E-05-1.92107E-14
 -1      4032 4.73266E-03-8.26307E-05-2.03469E-14
 -1      4033 4.51738E-03-4.60363E-05-1.86425E-14
 -1      4034 4.87569E-03-8.20366E-05-2.15119E-14
 -1      4035 5.01854E-03-8.13515E-05-2.27080E-14
 -1      4036 4.80381E-03-4.52781E-05-2.09128E-14
 -1      4037 5.16118E-03-8.05705E-05-2.39333E-14
 -1      4038 5.30365E-03-7.96625E-05-2.51886E-14
 -1      4039 5.08941E-03-4.42158E-05-2.33038E-14
 -1      4040 5.44592E-03-7.86147E-05-2.64738E-14
 -1      4041 5.58802E-03-7.73884E-05-2.77852E-14
 -1      4042 5.37416E-03-4.27023E-05-2.58149E-14
 -1      4043 5.72995E-03-7.59605E-05-2.91230E-14
 -1      4044 5.87173E-03-7.42843E-05-3.04887E-14
 -1      4045 5.65805E-03-4.05183E-05-2.84386E-14
 -1      4046 6.01338E-03-7.23245E-05-3.18815E-14
 -1      4047 6.15493E-03-7.00285E-05-3.32981E-14
 -1      4048 5.94111E-03-3.73568E-05-3.11688E-14
 -1      4049 6.29643E-03-6.73472E-05-3.47412E-14
 -1      4050 6.43794E-03-6.42303E-05-3.62092E-14
 -1      4051 6.22344E-03-3.28066E-05-3.40042E-14
 -1      4052 6.57953E-03-6.06141E-05-3.76999E-14
 -1      4053 6.72134E-03-5.64689E-05-3.92152E-14
 -1      4054 6.50530E-03-2.63566E-05-3.69384E-14
 -1      4055 6.86346E-03-5.17203E-05-4.07536E-14
 -1      4056 7.00613E-03-4.63962E-05-4.23154E-14
 -1      4057 6.78723E-03-1.74302E-05-3.99683E-14
 -1      4058 7.14950E-03-4.04208E-05-4.39003E-14
 -1      4059 7.29394E-03-3.39485E-05-4.55075E-14
 -1      4060 7.07022E-03-5.49716E-06-4.30920E-14
 -1      4061 7.43970E-03-2.69212E-05-4.71386E-14
 -1      4062 7.58730E-03-1.97487E-05-4.87916E-14
 -1      4063 7.35598E-03 9.68046E-06-4.63068E-14
 -1      4064 7.73709E-03-1.24328E-05-5.04655E-14
 -1      4065 7.88979E-03-5.72832E-06-5.21618E-14
 -1      4066 7.64733E-03 2.75404E-05-4.96105E-14
 -1      4067 8.06160E-03 4.86993E-05-5.42437E-14
 -1      4068 8.22039E-03 5.47276E-05-5.59849E-14
 -1      4069 1.75930E-03-1.68703E-05-3.38382E-15
 -1      4070 1.76885E-03-5.31365E-05-3.41774E-15
 -1      4071 1.90330E-03-7.29043E-05-3.88529E-15
 -1      4072 1.33511E-02 1.61045E-03-1.15167E-13
 -1      4073 1.34600E-02 1.65147E-03-1.14572E-13
 -1      4074 3.27021E-03 8.53680E-05-1.01856E-14
 -1      4075 3.12512E-03 8.52126E-05-9.37317E-15
 -1      4076 6.37818E-03 9.23351E-05-3.55894E-14
 -1      4077 6.23908E-03 8.98033E-05-3.41308E-14
 -1      4078 6.09944E-03 8.78446E-05-3.26975E-14
 -1      4079 5.95935E-03 8.63956E-05-3.12891E-14
 -1      4080 6.17015E-03 5.41244E-05-3.34445E-14
 -1      4081 6.92890E-03 1.11269E-04-4.16649E-14
 -1      4082 6.79215E-03 1.04917E-04-4.01109E-14
 -1      4083 7.20081E-03 1.28368E-04-4.48389E-14
 -1      4084 7.06518E-03 1.19040E-04-4.32409E-14
 -1      4085 7.00315E-03 8.13534E-05-4.24815E-14
 -1      4086 7.47124E-03 1.52469E-04-4.81044E-14
 -1      4087 7.33623E-03 1.39461E-04-4.64606E-14
 -1      4088 7.27878E-03 9.95267E-05-4.56792E-14
 -1      4089 7.86998E-03 2.59821E-04-5.35154E-14
 -1      4090 1.34358E-02 1.61974E-03-1.12508E-13
 -1      4091 1.34381E-02 1.59700E-03-1.10481E-13
 -1      4092 2.97990E-03 8.49262E-05-8.59287E-15
 -1      4093 2.83457E-03 8.45123E-05-7.84552E-15
 -1      4094 3.05169E-03 4.72299E-05-9.00374E-15
 -1      4095 8.66958E-03 2.84661E-05-6.05861E-14
 -1      4096 8.53037E-03 5.31702E-05-5.92476E-14
 -1      4097 1.26310E-02 1.20470E-03-1.04450E-13
 -1      4098 1.76023E-03 5.76317E-05-3.36160E-15
 -1      4099 1.75934E-03 2.03573E-05-3.37496E-15
 -1      4100 1.89298E-03 2.95304E-06-3.84392E-15
 -1      4101 3.55990E-03 8.54155E-05-1.19093E-14
 -1      4102 3.41514E-03 8.54374E-05-1.10311E-14
 -1      4103 3.34198E-03 4.74197E-05-1.06316E-14
 -1      4104 1.31811E-02 1.52043E-03-1.13621E-13
 -1      4105 2.68916E-03 8.39164E-05-7.13111E-15
 -1      4106 2.54373E-03 8.31397E-05-6.45023E-15
 -1      4107 2.76092E-03 4.67509E-05-7.50719E-15
 -1      4108 6.65473E-03 9.97376E-05-3.85791E-14
 -1      4109 6.51677E-03 9.56173E-05-3.70712E-14
 -1      4110 6.44933E-03 5.97715E-05-3.63596E-14
 -1      4111 2.04805E-03-7.48973E-05-4.42158E-15
 -1      4112 2.19312E-03-7.65419E-05-4.99247E-15
 -1      4113 2.03804E-03-3.64388E-05-4.38518E-15
 -1      4114 2.30656E-03-7.94070E-05-5.46129E-15
 -1      4115 2.45193E-03-8.05588E-05-6.09158E-15
 -1      4116 2.52365E-03-4.40976E-05-6.41466E-15
 -1      4117 2.29655E-03-3.95717E-05-5.41976E-15
 -1      4118 8.40105E-03 3.05967E-05-5.77931E-14
 -1      4119 1.34854E-02 1.59916E-03-1.09358E-13
 -1      4120 7.74227E-03 1.84374E-04-5.14552E-14
 -1      4121 7.60663E-03 1.67371E-04-4.97691E-14
 -1      4122 7.55553E-03 1.23806E-04-4.89652E-14
 -1      4123 8.04382E-03 2.28026E-04-5.51984E-14
 -1      4124 7.94948E-03 2.46501E-04-5.43141E-14
 -1      4125 7.86280E-03 2.15346E-04-5.30584E-14
 -1      4126 8.03057E-03 1.77160E-04-5.46476E-14
 -1      4127 1.28992E-02 1.34298E-03-1.06653E-13
 -1      4128 1.27366E-02 1.26537E-03-1.06664E-13
 -1      4129 1.28907E-02 1.35169E-03-1.08894E-13
 -1      4130 1.31082E-02 1.45013E-03-1.08862E-13
 -1      4131 7.96057E-03 9.26876E-05-5.33604E-14
 -1      4132 2.46995E-03 4.58750E-05-6.14279E-15
 -1      4133 2.39832E-03 8.21186E-05-5.80276E-15
 -1      4134 2.25299E-03 8.08327E-05-5.18949E-15
 -1      4135 5.40554E-03 8.38157E-05-2.60163E-14
 -1      4136 5.33444E-03 4.75417E-05-2.54071E-14
 -1      4137 5.54362E-03 8.41067E-05-2.72873E-14
 -1      4138 6.72692E-03 6.84828E-05-3.93741E-14
 -1      4139 4.62573E-03 1.21241E-04-1.93545E-14
 -1      4140 4.98246E-03 8.36911E-05-2.23052E-14
 -1      4141 4.83973E-03 8.38219E-05-2.11166E-14
 -1      4142 5.05348E-03 4.70427E-05-2.29424E-14
 -1      4143 1.31326E-02 1.47729E-03-1.10911E-13
 -1      4144 1.30274E-02 1.42912E-03-1.10926E-13
 -1      4145 5.89292E-03 5.06650E-05-3.06622E-14
 -1      4146 5.82232E-03 8.53467E-05-2.99404E-14
 -1      4147 5.68492E-03 8.46175E-05-2.86172E-14
 -1      4148 7.82058E-03 1.66983E-04-5.22387E-14
 -1      4149 4.41016E-03 8.44133E-05-1.77366E-14
 -1      4150 4.26653E-03 8.46399E-05-1.66712E-14
 -1      4151 8.71491E-03-2.96297E-05-6.08787E-14
 -1      4152 2.00781E-03 1.21745E-04-4.19291E-15
 -1      4153 1.86319E-03 8.40687E-05-3.69905E-15
 -1      4154 3.70087E-03 8.53417E-05-1.27957E-14
 -1      4155 3.62800E-03 4.74163E-05-1.23661E-14
 -1      4156 3.84167E-03 8.52094E-05-1.37135E-14
 -1      4157 4.12450E-03 8.48491E-05-1.56498E-14
 -1      4158 3.98408E-03 8.50459E-05-1.46727E-14
 -1      4159 3.91149E-03 4.72981E-05-1.42127E-14
 -1      4160 4.19601E-03 4.71271E-05-1.61943E-14
 -1      4161 3.06222E-03 7.09640E-08-9.08626E-15
 -1      4162 3.20745E-03 8.11839E-08-9.88733E-15
 -1      4163 3.35253E-03 8.04298E-08-1.07212E-14
 -1      4164 3.49745E-03 9.57154E-08-1.15872E-14
 -1      4165 3.63857E-03 1.03626E-07-1.24625E-14
 -1      4166 3.78312E-03 1.30129E-07-1.33916E-14
 -1      4167 3.92568E-03 1.54677E-07-1.43396E-14
 -1      4168 4.06984E-03 2.02615E-07-1.53316E-14
 -1      4169 4.21199E-03 2.56561E-07-1.63424E-14
 -1      4170 4.35574E-03 3.42533E-07-1.73962E-14
 -1      4171 4.49929E-03 4.60937E-07-1.84813E-14
 -1      4172 4.78573E-03 8.06835E-07-2.07435E-14
 -1      4173 4.92862E-03 1.07894E-06-2.19204E-14
 -1      4174 5.07128E-03 1.42413E-06-2.31278E-14
 -1      4175 5.21371E-03 1.88304E-06-2.43648E-14
 -1      4176 5.35233E-03 2.44694E-06-2.55985E-14
 -1      4177 5.49427E-03 3.19638E-06-2.68935E-14
 -1      4178 5.63595E-03 4.13630E-06-2.82146E-14
 -1      4179 5.77736E-03 5.33429E-06-2.95620E-14
 -1      4180 5.91496E-03 6.78138E-06-3.09028E-14
 -1      4181 6.05584E-03 8.63679E-06-3.23029E-14
 -1      4182 6.19642E-03 1.09171E-05-3.37286E-14
 -1      4183 6.33677E-03 1.37251E-05-3.51789E-14
 -1      4184 6.47686E-03 1.71365E-05-3.66531E-14
 -1      4185 6.61679E-03 2.12598E-05-3.81521E-14
 -1      4186 6.75654E-03 2.62020E-05-3.96753E-14
 -1      4187 6.89632E-03 3.20489E-05-4.12216E-14
 -1      4188 7.03612E-03 3.89442E-05-4.27897E-14
 -1      4189 7.17631E-03 4.68868E-05-4.43821E-14
 -1      4190 7.31691E-03 5.60628E-05-4.59972E-14
 -1      4191 7.45853E-03 6.62509E-05-4.76339E-14
 -1      4192 7.60128E-03 7.76700E-05-4.92920E-14
 -1      4193 7.74605E-03 8.96217E-05-5.09718E-14
 -1      4194 1.32396E-02 1.52350E-03-1.10894E-13
 -1      4195 2.91686E-03 7.59808E-08-8.31797E-15
 -1      4196 7.87701E-03 1.16957E-04-5.25762E-14
 -1      4197 2.77141E-03 6.78727E-08-7.58215E-15
 -1      4198 2.03771E-03 3.04472E-06-4.37690E-15
 -1      4199 2.62591E-03 7.38187E-08-6.87940E-15
 -1      4200 4.69676E-03 8.39911E-05-1.99594E-14
 -1      4201 4.55357E-03 8.41975E-05-1.88330E-14
 -1      4202 4.48152E-03 4.69692E-05-1.83123E-14
 -1      4203 4.76796E-03 4.69036E-05-2.05662E-14
 -1      4204 2.51233E-03 1.89002E-06-6.35322E-15
 -1      4205 2.03734E-03 7.78798E-05-4.33952E-15
 -1      4206 2.18116E-03 3.92135E-05-4.92308E-15
 -1      4207 4.64262E-03 6.10168E-07-1.95976E-14
 -1      4208 5.61430E-03 4.86343E-05-2.79817E-14
 -1      4209 2.36684E-03 1.88636E-06-5.71032E-15
 -1      4210 8.43598E-03-2.79306E-05-5.79566E-14
 -1      4211 2.29451E-03 3.80038E-05-5.38844E-15
 -3
    1PSTEP                         2           1           1          
  100CL  101 1.000000000        4211                     0    1           1
 -4  STRESS      6    1
 -5  SXX         1    4    1    1
 -5  SYY         1    4    2    2
 -5  SZZ         1    4    3    3
 -5  SXY         1    4    1    2
 -5  SYZ         1    4    2    3
 -5  SZX         1    4    3    1
 -1         1 4.68963E-01-9.92239E-01-1.52542E+00 4.88255E-01-1.47515E-12-7.35745E-13
 -1         2-7.18079E-01-2.73598E+01-3.50519E+00-2.75582E-01-4.79852E-13 4.47906E-14
 -1         3 1.99913E+01-9.26727E-03 2.31065E-02-9.18042E-03 5.17400E-13 1.35128E-13
 -1         4 1.99983E+01-1.47090E-03 4.40930E-03 1.52015E-03 2.30120E-13 2.95462E-14
 -1         5 3.60424E+01 1.23911E+01 5.26104E+00 8.76226E+00 1.59373E-13 3.56104E-12
 -1         6 3.57631E+01 1.22672E+01 5.12752E+00-8.64935E+00-1.98438E-13 3.24914E-12
 -1         7 2.08226E+01 6.10088E+00-1.28802E-01-4.72728E+00-2.95458E-14 6.29694E-13
 -1         8 1.96742E+01 5.93569E+00 5.06993E-02-3.27658E+00-3.73937E-14-1.86207E-13
 -1         9 1.91388E+01 5.77250E+00 4.89569E-02-2.52902E+00-3.40873E-14-6.26230E-13
 -1        10 1.88973E+01 5.69269E+00 5.12227E-02-1.95376E+00-2.28645E-14-8.40012E-13
 -1        11 1.87747E+01 5.65163E+00 5.03848E-02-1.45882E+00-1.66230E-14-9.40549E-13
 -1        12 1.87107E+01 5.62978E+00 4.87453E-02-1.01831E+00-9.28814E-15-9.71604E-13
 -1        13 1.86769E+01 5.61824E+00 4.73668E-02-5.99013E-01-3.57472E-15-9.82146E-13
 -1        14 1.86624E+01 5.61330E+00 4.66233E-02-1.95499E-01-7.06304E-16-9.78125E-13
 -1        15 1.86626E+01 5.61336E+00 4.66318E-02 2.03046E-01 4.39731E-15-9.60488E-13
 -1        16 1.86774E+01 5.61842E+00 4.73945E-02 6.06787E-01 8.96538E-15-9.36464E-13
 -1        17 1.87118E+01 5.63003E+00 4.88078E-02 1.02666E+00 1.61945E-14-8.92479E-13
 -1        18 1.87764E+01 5.65205E+00 5.03899E-02 1.46775E+00 2.09433E-14-8.08784E-13
 -1        19 1.89004E+01 5.69376E+00 5.12059E-02 1.96396E+00 3.02562E-14-6.62216E-13
 -1        20 1.91449E+01 5.77469E+00 4.87718E-02 2.54104E+00 4.11164E-14-4.01637E-13
 -1        21 1.96872E+01 5.94133E+00 5.01933E-02 3.29117E+00 4.16819E-14 1.12368E-13
 -1        22 2.08077E+01 6.12296E+00-1.31028E-01 4.73412E+00 2.18853E-14 9.88966E-13
 -1        23 2.30354E+01-1.37953E+00-9.38430E-01-7.11647E-01-1.34573E-13 2.55899E-12
 -1        24 1.93701E+01-9.95029E-02-3.09925E-01 6.31468E-02-3.54534E-14 1.93473E-12
 -1        25 1.86804E+01-5.63491E-02-6.88095E-02 6.07237E-02-1.43976E-14 1.34744E-12
 -1        26 1.84771E+01-2.21096E-02-6.45340E-03 3.29682E-02-7.28356E-15 8.87793E-13
 -1        27 1.84878E+01-1.18225E-02 1.58733E-03 2.25754E-02-1.22968E-14 5.64753E-13
 -1        28 1.86016E+01-6.26305E-03 1.77013E-03 1.62802E-02 5.36355E-16 3.88079E-13
 -1        29 1.87614E+01-3.11683E-03 1.69583E-03 1.21394E-02-5.92132E-15 2.05395E-13
 -1        30 1.89361E+01-1.26974E-03 1.87566E-03 9.18461E-03-2.11126E-14 8.01837E-14
 -1        31 1.91080E+01-1.88319E-04 2.02421E-03 6.96350E-03 8.22490E-15-5.58225E-14
 -1        32 1.92675E+01 4.17804E-04 2.03372E-03 5.24825E-03-4.42266E-14-1.92081E-13
 -1        33 1.94100E+01 7.17396E-04 1.91124E-03 3.91134E-03 3.47904E-14-3.43981E-13
 -1        34 1.95343E+01 8.16012E-04 1.69327E-03 2.87410E-03 1.12378E-16-3.89618E-13
 -1        35 1.96411E+01 7.83491E-04 1.41428E-03 2.08389E-03 1.09354E-14-5.25642E-13
 -1        36 1.97326E+01 6.68651E-04 1.10076E-03 1.50388E-03-1.42673E-14-4.45717E-13
 -1        37 1.98117E+01 5.08130E-04 7.73159E-04 1.10827E-03-2.82852E-14-3.80262E-13
 -1        38 1.98819E+01 3.32730E-04 4.50048E-04 8.79594E-04-8.39428E-15-4.88501E-13
 -1        39 1.99465E+01 1.72734E-04 1.53273E-04 8.06069E-04-8.87505E-15-4.26268E-13
 -1        40 2.00088E+01 6.27493E-05-8.58431E-05 8.77762E-04-1.01837E-14-5.42507E-13
 -1        41 2.00710E+01 4.59427E-05-2.19471E-04 1.08020E-03-1.25717E-14-7.79523E-13
 -1        42 2.01342E+01 1.76863E-04-1.76275E-04 1.38415E-03 2.18080E-14-9.13441E-13
 -1        43 2.01971E+01 5.21107E-04 1.43271E-04 1.73051E-03-2.71329E-14-7.40338E-13
 -1        44 2.02549E+01 1.14898E-03 8.64664E-04 2.01020E-03 3.62944E-14-5.38949E-13
 -1        45 2.02983E+01 2.11925E-03 2.12257E-03 2.04167E-03-6.19047E-14-4.59675E-13
 -1        46 2.03117E+01 3.44895E-03 4.01894E-03 1.55365E-03 1.39739E-14-5.76422E-13
 -1        47 2.02728E+01 5.06776E-03 6.54611E-03 1.89004E-04 3.13372E-14-3.66784E-13
 -1        48 2.01532E+01 6.76312E-03 9.47530E-03-2.44474E-03-3.39248E-14-3.35839E-13
 -1        49 1.99211E+01 8.13585E-03 1.22363E-02-6.64896E-03-1.10537E-14-5.03382E-13
 -1        50 1.95482E+01 8.60593E-03 1.38608E-02-1.24176E-02-1.46309E-14-7.01173E-13
 -1        51 1.90204E+01 7.51724E-03 1.30966E-02-1.91649E-02-2.92439E-14-4.27141E-13
 -1        52 1.83508E+01 4.37543E-03 8.81181E-03-2.55238E-02 3.36585E-14-2.12219E-13
 -1        53 1.75905E+01-8.19404E-04 6.66403E-04-2.94354E-02-9.01844E-14-5.22433E-13
 -1        54 1.68317E+01-7.30151E-03-1.02328E-02-2.87279E-02 8.61304E-14-4.74315E-13
 -1        55 1.61945E+01-1.35503E-02-2.11828E-02-2.21287E-02-8.72679E-14-2.10049E-14
 -1        56 1.57978E+01-1.77398E-02-2.87026E-02-1.02290E-02 2.27585E-14-1.73857E-13
 -1        57 1.57227E+01-1.84981E-02-3.00808E-02 4.30562E-03-1.79560E-14 3.11591E-14
 -1        58 1.59839E+01-1.55609E-02-2.47957E-02 1.76836E-02-5.46091E-15-2.54418E-13
 -1        59 1.65246E+01-9.90271E-03-1.47857E-02 2.66216E-02 2.17945E-14-4.98353E-13
 -1        60 1.72363E+01-3.25916E-03-3.40319E-03 2.96333E-02-7.23183E-14-4.36578E-13
 -1        61 1.79944E+01 2.63983E-03 6.17555E-03 2.72949E-02 4.53390E-14-2.96757E-13
 -1        62 1.86922E+01 6.68074E-03 1.21295E-02 2.15367E-02-1.09284E-13-4.78070E-13
 -1        63 1.92605E+01 8.55818E-03 1.42498E-02 1.45712E-02-5.76298E-14-8.71215E-13
 -1        64 1.96717E+01 8.59066E-03 1.34105E-02 8.09811E-03 2.14266E-14-1.09017E-12
 -1        65 1.99312E+01 7.38983E-03 1.08552E-02 3.03108E-03 3.54806E-14-6.97521E-13
 -1        66 2.00645E+01 5.57199E-03 7.65715E-03-3.83033E-04 1.25844E-13-1.49968E-13
 -1        67 2.01059E+01 3.60668E-03 4.50130E-03-2.28690E-03 6.24076E-14 2.98047E-15
 -1        68 2.00907E+01 1.78629E-03 1.68506E-03-2.94626E-03-5.54424E-14-2.74860E-13
 -1        69 2.00505E+01 2.93757E-04-6.64277E-04-2.55464E-03 3.07461E-14-6.73074E-13
 -1        70 2.00122E+01-4.98708E-04-2.01327E-03-9.57091E-04 6.58180E-14-3.45843E-13
 -1        71 1.99958E+01 4.78386E-04-4.00310E-04 1.19453E-03-2.31735E-14-1.57174E-13
 -1        72 2.32599E+01-1.33967E+00-9.29446E-01 8.03145E-01 1.11432E-13 2.98303E-12
 -1        73 1.94334E+01-1.08295E-01-3.29029E-01-6.58351E-02 3.62479E-14 2.42899E-12
 -1        74 1.87008E+01-5.80750E-02-7.48938E-02-6.16783E-02 2.78243E-14 1.81778E-12
 -1        75 1.84812E+01-2.29966E-02-8.10843E-03-3.36694E-02 2.07775E-14 1.40530E-12
 -1        76 1.84844E+01-1.21960E-02 1.36087E-03-2.29838E-02-1.14633E-15 1.12285E-12
 -1        77 1.85944E+01-6.50246E-03 1.75724E-03-1.65132E-02 3.75996E-15 9.35549E-13
 -1        78 1.87519E+01-3.20415E-03 1.67271E-03-1.24511E-02-1.22993E-14 8.53615E-13
 -1        79 1.89179E+01-1.34169E-03 1.90964E-03-9.36585E-03 2.58351E-14 7.74271E-13
 -1        80 1.90899E+01-2.62767E-04 2.03391E-03-7.14822E-03 4.27949E-15 5.46212E-13
 -1        81 1.92501E+01 3.87207E-04 2.07121E-03-5.36622E-03-9.43446E-15 3.18762E-13
 -1        82 1.93933E+01 7.11327E-04 1.97334E-03-3.97160E-03 1.79846E-15 2.21915E-13
 -1        83 1.95178E+01 8.20207E-04 1.77753E-03-2.86906E-03 2.41544E-14 1.20106E-13
 -1        84 1.96243E+01 7.80287E-04 1.51559E-03-1.99741E-03 8.77637E-15-3.60584E-15
 -1        85 1.97149E+01 6.33009E-04 1.20715E-03-1.31120E-03 2.00372E-14-2.23880E-13
 -1        86 1.97926E+01 3.80862E-04 8.40749E-04-7.56515E-04-7.56170E-15-2.27113E-13
 -1        87 1.98585E+01 1.00292E-04 4.92765E-04-3.69400E-04 4.38362E-14-3.43788E-13
 -1        88 1.99241E+01-3.41732E-04 1.56676E-05-4.29295E-05-1.10472E-14-3.09843E-13
 -1        89 1.99923E+01-9.07908E-04-5.74488E-04 1.92644E-04 3.47843E-14-3.49615E-13
 -1        90 2.00711E+01-1.68242E-03-1.37482E-03 3.25644E-04-3.45699E-14-3.18038E-13
 -1        91 2.01719E+01-2.77065E-03-2.53380E-03 3.11532E-04 5.99312E-15-2.23184E-13
 -1        92 2.03106E+01-4.33307E-03-4.29888E-03 3.88655E-05 1.66330E-14-1.76403E-13
 -1        93 2.05112E+01-6.69064E-03-7.10970E-03-6.91632E-04 1.69658E-14-3.63725E-13
 -1        94 2.08096E+01-9.28652E-03-1.14710E-02-3.22297E-03 6.95916E-14-6.25128E-13
 -1        95 2.12339E+01-1.46158E-02-1.86383E-02-5.68461E-03-3.45220E-14-6.90979E-13
 -1        96 2.19078E+01-2.06879E-02-3.03456E-02-1.30650E-02-9.42410E-15-3.96438E-13
 -1        97 2.29382E+01-2.87031E-02-4.87820E-02-2.71782E-02 6.91860E-14-2.81639E-13
 -1        98 2.45001E+01-3.68581E-02-7.42609E-02-5.38390E-02-7.51066E-14-1.07993E-13
 -1        99 2.68130E+01-4.00854E-02-9.78427E-02-1.00851E-01 9.65695E-14 2.56878E-14
 -1       100 3.00616E+01-2.65037E-02-8.37725E-02-1.72253E-01-8.30115E-14 8.45504E-14
 -1       101 3.41255E+01 2.20904E-02 4.81828E-02-2.42983E-01 6.62066E-14 2.32731E-13
 -1       102 3.79249E+01 9.44722E-02 3.61542E-01-1.78860E-01-6.24917E-14 1.74957E-13
 -1       103 3.88227E+01 1.49660E-01 6.73865E-01 1.94617E-01-3.20924E-15 1.18600E-13
 -1       104 3.33357E+01 9.65540E-02 2.36350E-01 1.06150E+00-4.67083E-14 4.60298E-13
 -1       105 2.35904E+01-1.12509E-01-1.03872E+00 1.34808E+00 1.10079E-13 4.24133E-13
 -1       106 1.58841E+01-1.44625E-01-2.24509E+00 2.75579E-01 5.88765E-14-1.07726E-13
 -1       107 1.98877E+01-1.56667E-01-1.56930E+00-1.19056E+00 1.22197E-13-1.94622E-13
 -1       108 2.96476E+01-8.77736E-02-1.88082E-01-1.22169E+00 1.02292E-14-8.50431E-13
 -1       109 3.67277E+01 1.65905E-01 5.75250E-01-5.85182E-01-4.73892E-14-1.00303E-12
 -1       110 3.89302E+01 1.54975E-01 5.60205E-01 3.18813E-03-9.31529E-14-4.50799E-13
 -1       111 3.63954E+01 6.27489E-02 2.02731E-01 2.40778E-01-3.81179E-14-2.94598E-13
 -1       112 3.22283E+01-4.80408E-03-2.91404E-02 2.15731E-01 6.91951E-14-8.12808E-13
 -1       113 2.84374E+01-3.43011E-02-9.67865E-02 1.39005E-01-7.45155E-14-9.30561E-13
 -1       114 2.55821E+01-3.60323E-02-8.62758E-02 7.63263E-02 4.01768E-14-9.09630E-13
 -1       115 2.36569E+01-3.39721E-02-6.36357E-02 4.34310E-02-1.21604E-14-2.07414E-13
 -1       116 2.22766E+01-2.42051E-02-4.00829E-02 2.26810E-02 7.74688E-14 3.17728E-13
 -1       117 2.13507E+01-1.75334E-02-2.49753E-02 1.21537E-02 3.77648E-14 4.44036E-13
 -1       118 2.07297E+01-1.27795E-02-1.64850E-02 6.99897E-03 5.32199E-14 6.99137E-15
 -1       119 2.03196E+01-1.03027E-02-1.30398E-02 4.08887E-03-4.07759E-14-3.09575E-13
 -1       120 2.00724E+01-7.36214E-03-1.19811E-02-7.19488E-04-6.95005E-14 1.02685E-13
 -1       121 1.99819E+01 4.38951E-05-1.71172E-03-7.56463E-03-1.72269E-13 7.87881E-13
 -1       122 1.99964E+01-9.79644E-03-1.73741E-03-1.04280E-02 6.38462E-13-3.25633E-13
 -1       123 1.99959E+01 8.02344E-02-1.05190E-02 4.73683E-03-5.70432E-13-1.28698E-14
 -1       124 1.99985E+01 2.95360E-01-4.21857E-03 1.08989E-02-1.06313E-12 2.23349E-13
 -1       125 2.00022E+01 5.45314E-01 3.20695E-03 1.08530E-02-1.64092E-12-1.30294E-13
 -1       126 2.00046E+01 7.56035E-01 7.95044E-03 7.44496E-03-6.26727E-13 3.83515E-14
 -1       127 2.00058E+01 8.78985E-01 9.56087E-03 3.08208E-03-1.21843E-13 8.95116E-14
 -1       128 2.00052E+01 9.01597E-01 8.42953E-03-1.22292E-03 4.60070E-13-5.99371E-14
 -1       129 2.00037E+01 8.31839E-01 5.68509E-03-4.22494E-03 1.10569E-12 1.79024E-13
 -1       130 2.00018E+01 6.98106E-01 2.45035E-03-5.58450E-03 1.76462E-12 1.15956E-13
 -1       131 2.00000E+01 5.34790E-01-3.62260E-04-5.48189E-03 1.73484E-12 1.33822E-13
 -1       132 1.99987E+01 3.72754E-01-2.21316E-03-4.38154E-03 2.35721E-13-7.75298E-14
 -1       133 1.99979E+01 2.35073E-01-3.04556E-03-2.98280E-03-8.28672E-13 1.09750E-13
 -1       134 1.99977E+01 1.27469E-01-3.06412E-03-1.60308E-03-1.78504E-13-2.65942E-14
 -1       135 1.99978E+01 5.36605E-02-2.83353E-03-6.62131E-04 3.17248E-13 7.27073E-14
 -1       136 1.99985E+01 1.16103E-02-2.02260E-03 3.62918E-05 1.80122E-13-1.62964E-13
 -1       137 1.99986E+01-1.99993E-03-6.18548E-05 3.01967E-03 6.92410E-14 4.52417E-14
 -1       138-1.86196E+00-2.52126E+01-3.60936E+00-5.27668E+00-5.03458E-13-6.00995E-14
 -1       139-3.31140E+00-1.49763E+01-3.25873E+00-6.16859E+00 3.62876E-13 8.39884E-14
 -1       140 9.63322E-02-1.93667E+00-2.39850E+00-1.62924E-01 1.48126E-12 1.25511E-12
 -1       141 1.22069E+01 7.48267E+00-8.69034E-01 9.79613E+00 2.04081E-12 2.22777E-12
 -1       142 3.69563E+01 9.97367E+00 1.63633E+00 1.86545E+01 1.33943E-12 2.47957E-12
 -1       143 6.58627E+01 5.97159E+00 4.46174E+00 1.78081E+01 6.84952E-13 1.86651E-12
 -1       144 8.45065E+01 1.83420E+00 6.36427E+00 4.24131E+00-6.07153E-15 3.58866E-13
 -1       145 7.88839E+01 3.04496E+00 5.78806E+00-1.16110E+01 1.58297E-13-8.26339E-13
 -1       146 5.55328E+01 7.87302E+00 3.44243E+00-1.95642E+01 4.98157E-13-1.41109E-12
 -1       147 2.62921E+01 9.88836E+00 5.50425E-01-1.60469E+01 1.14342E-12-1.86018E-12
 -1       148 6.50101E+00 4.46916E+00-1.56147E+00-5.82900E+00 1.86140E-12-1.72240E-12
 -1       149-2.37809E+00-7.21177E+00-2.83745E+00 3.51577E+00 2.15150E-12-1.45722E-12
 -1       150-2.94458E+00-1.94785E+01-3.43350E+00 6.61969E+00 1.24167E-12-4.62158E-13
 -1       151-1.32473E+00-2.69478E+01-3.58234E+00 3.60704E+00 1.98674E-13-1.42115E-13
 -1       152-9.10689E-01-2.53920E+01-3.31218E+00-1.41243E+00-9.49352E-13-3.12111E-14
 -1       153-1.57611E+00-1.52396E+01-2.64580E+00-3.81604E+00-1.74444E-12-4.89511E-13
 -1       154 8.73215E+00 9.28231E+00-2.18653E-01 9.03030E+00-7.92311E-13-7.24087E-13
 -1       155 2.45833E+01 1.27402E+01 1.12399E+00 1.73860E+01-1.02884E-12-1.47660E-12
 -1       156 4.45801E+01 9.70932E+00 2.33065E+00 2.00955E+01-9.54375E-13-2.12991E-12
 -1       157 6.18168E+01 4.13148E+00 3.17540E+00 1.45233E+01-3.90910E-13-1.32672E-12
 -1       158 7.01140E+01 9.54970E-01 3.56239E+00 2.26531E+00 5.35197E-14-3.77795E-13
 -1       159 6.54600E+01 2.75031E+00 3.35508E+00-1.11793E+01 1.34490E-13-3.22714E-13
 -1       160 5.06907E+01 7.96480E+00 2.65489E+00-1.91617E+01-1.28370E-13-2.74225E-14
 -1       161 3.03082E+01 1.23725E+01 1.51127E+00-1.89578E+01-1.08458E-12 1.44001E-12
 -1       162 1.31125E+01 1.12584E+01 2.08042E-01-1.20738E+01-1.67183E-12 1.60677E-12
 -1       163 2.50349E+00 3.45737E+00-1.07981E+00-3.23046E+00-1.91969E-12 1.28703E-12
 -1       164-1.27396E+00-8.74514E+00-2.18665E+00 2.72885E+00-1.81238E-12 8.38107E-13
 -1       165-1.23334E+00-2.07950E+01-3.02288E+00 3.58679E+00-6.39488E-13 6.82718E-14
 -1       166 2.10165E+01 3.69469E+00-5.74221E-02-3.61233E+00-4.70571E-13 1.98102E-13
 -1       167 1.99920E+01 4.20932E+00-4.59692E-02-2.81077E+00-4.40163E-13-3.09575E-13
 -1       168 1.95116E+01 4.47741E+00-3.13470E-02-2.19846E+00-3.54234E-13-5.90793E-13
 -1       169 1.92686E+01 4.61610E+00-2.34828E-02-1.67744E+00-2.64246E-13-7.34728E-13
 -1       170 1.91376E+01 4.69788E+00-1.95182E-02-1.22212E+00-1.88289E-13-7.88280E-13
 -1       171 1.90634E+01 4.74899E+00-1.74185E-02-7.95496E-01-1.05915E-13-8.14842E-13
 -1       172 1.90258E+01 4.77705E+00-1.63983E-02-3.90793E-01-2.63707E-14-8.11117E-13
 -1       173 1.90144E+01 4.78593E+00-1.60962E-02 3.72424E-03 4.22013E-14-8.11559E-13
 -1       174 1.90263E+01 4.77670E+00-1.64136E-02 3.98353E-01 1.11932E-13-7.87077E-13
 -1       175 1.90646E+01 4.74818E+00-1.74425E-02 8.03405E-01 1.75956E-13-7.62270E-13
 -1       176 1.91379E+01 4.69762E+00-1.95480E-02 1.22317E+00 2.49896E-13-6.97704E-13
 -1       177 1.92719E+01 4.61410E+00-2.36177E-02 1.68694E+00 3.37025E-13-5.95798E-13
 -1       178 1.95183E+01 4.47369E+00-3.15086E-02 2.20956E+00 4.19479E-13-4.12647E-13
 -1       179 2.00051E+01 4.20338E+00-4.60142E-02 2.82461E+00 4.72075E-13-7.01349E-14
 -1       180 2.10385E+01 3.68011E+00-5.43758E-02 3.63357E+00 4.70205E-13 4.79373E-13
 -1       181 2.19755E+01 8.58520E-01 6.93679E-04-1.96070E+00-4.08385E-13 7.99812E-13
 -1       182 2.04497E+01 1.90474E-01-9.92913E-03-7.65273E-01-3.41744E-13 5.94720E-13
 -1       183 1.96733E+01 1.01779E-01 1.36192E-02-2.86411E-01-2.72987E-13 4.21910E-13
 -1       184 1.93330E+01 4.72391E-02 1.00205E-02-6.84487E-02-2.12278E-13 2.34395E-13
 -1       185 1.92030E+01 2.26832E-02 5.17617E-03 3.90622E-02-1.23914E-13 1.01484E-13
 -1       186 1.91896E+01 9.66926E-03 2.43533E-03 9.20439E-02-1.24326E-13 6.08374E-14
 -1       187 1.92387E+01 2.29631E-03 1.13862E-03 1.14858E-01-1.11111E-13-2.95271E-14
 -1       188 1.93188E+01-1.88669E-03 5.09284E-04 1.20319E-01-1.04562E-13-8.72325E-14
 -1       189 1.94113E+01-4.10882E-03 1.79082E-04 1.15917E-01-7.76682E-14-1.03931E-13
 -1       190 1.95053E+01-5.07151E-03-1.70034E-06 1.06325E-01-7.86200E-14-1.01568E-13
 -1       191 1.95948E+01-5.20994E-03-9.59834E-05 9.45727E-02-5.26605E-14-2.01612E-13
 -1       192 1.96768E+01-4.81182E-03-1.35708E-04 8.26438E-02-6.31653E-14-2.58046E-13
 -1       193 1.97505E+01-4.07542E-03-1.40578E-04 7.18238E-02-1.60012E-14-2.70444E-13
 -1       194 1.98165E+01-3.14423E-03-1.24539E-04 6.29070E-02 1.33517E-14-2.91114E-13
 -1       195 1.98761E+01-2.13229E-03-9.86276E-05 5.63187E-02-6.28337E-14-3.02828E-13
 -1       196 1.99312E+01-1.14675E-03-7.27209E-05 5.21707E-02 1.73730E-14-2.68640E-13
 -1       197 1.99834E+01-3.10345E-04-5.68083E-05 5.02569E-02-4.91815E-14-2.90502E-13
 -1       198 2.00344E+01 2.15506E-04-6.18689E-05 4.99892E-02-1.13111E-13-2.87312E-13
 -1       199 2.00850E+01 2.08800E-04-1.00162E-04 5.02781E-02-1.31865E-13-2.95423E-13
 -1       200 2.01343E+01-6.28304E-04-1.84551E-04 4.93677E-02 4.62721E-14-4.71652E-13
 -1       201 2.01800E+01-2.66703E-03-3.26331E-04 4.46588E-02 1.06229E-13-4.33879E-13
 -1       202 2.02167E+01-6.31322E-03-5.31042E-04 3.25898E-02 3.02875E-14-4.33430E-13
 -1       203 2.02354E+01-1.19060E-02-7.92145E-04 8.69643E-03 3.69223E-14-2.45343E-13
 -1       204 2.02233E+01-1.95256E-02-1.08352E-03-3.19580E-02 5.34550E-14-2.38714E-13
 -1       205 2.01639E+01-2.86994E-02-1.35338E-03-9.37518E-02-3.22832E-15-3.06249E-13
 -1       206 2.00380E+01-3.80459E-02-1.52412E-03-1.78680E-01-1.14637E-13-2.66052E-13
 -1       207 1.98275E+01-4.50066E-02-1.50494E-03-2.83773E-01-3.78724E-14-3.55077E-13
 -1       208 1.95205E+01-4.59344E-02-1.21602E-03-3.98322E-01 1.24234E-13-1.92124E-13
 -1       209 1.91184E+01-3.69025E-02-6.28889E-04-5.02218E-01 4.14712E-14-9.51576E-14
 -1       210 1.86434E+01-1.54320E-02 2.05367E-04-5.67420E-01-1.58358E-13-2.60883E-13
 -1       211 1.81424E+01 1.72663E-02 1.15368E-03-5.64345E-01-1.78706E-14-1.04234E-13
 -1       212 1.76840E+01 5.48205E-02 2.02789E-03-4.72888E-01 9.49540E-14-3.89383E-13
 -1       213 1.73449E+01 8.66690E-02 2.66355E-03-2.94146E-01-5.40069E-14-3.70712E-13
 -1       214 1.71898E+01 1.02043E-01 2.94522E-03-5.60007E-02 1.63530E-13-1.97648E-13
 -1       215 1.72495E+01 9.52781E-02 2.82240E-03 1.92967E-01-8.32685E-14-1.83434E-13
 -1       216 1.75105E+01 6.88832E-02 2.31264E-03 4.00213E-01-1.22774E-13-9.58647E-14
 -1       217 1.79193E+01 3.20723E-02 1.50725E-03 5.27964E-01-7.27122E-14-2.07309E-13
 -1       218 1.84010E+01-3.91454E-03 5.60271E-04 5.64147E-01 3.00577E-14-7.78975E-14
 -1       219 1.88809E+01-3.06165E-02-3.44704E-04 5.21410E-01-1.16939E-13-2.85194E-13
 -1       220 1.93022E+01-4.46971E-02-1.03740E-03 4.27156E-01-1.67057E-13-2.65334E-13
 -1       221 1.96325E+01-4.73210E-02-1.43280E-03 3.11518E-01-1.61322E-13-3.65443E-13
 -1       222 1.98633E+01-4.20054E-02-1.52667E-03 1.98843E-01 3.44362E-13-2.17161E-13
 -1       223 2.00028E+01-3.25743E-02-1.38031E-03 1.04372E-01 2.35549E-13 7.64415E-14
 -1       224 2.00692E+01-2.19713E-02-1.08950E-03 3.49108E-02 1.03826E-13-9.05051E-14
 -1       225 2.00843E+01-1.19445E-02-7.47638E-04-8.65831E-03-1.49884E-13-3.11155E-13
 -1       226 2.00693E+01-3.27950E-03-4.44904E-04-2.87319E-02-1.16135E-13-2.44537E-13
 -1       227 2.00425E+01 3.83603E-03-2.05833E-04-2.93253E-02 7.30535E-14-2.82215E-13
 -1       228 2.00169E+01 8.35534E-03-2.02178E-05-1.61298E-02 1.51494E-13-1.92994E-13
 -1       229 2.20441E+01 9.19543E-01 2.85833E-04 2.03883E+00 3.95389E-13 1.08210E-12
 -1       230 2.04969E+01 2.07486E-01-1.14383E-02 8.02000E-01 3.67310E-13 8.86133E-13
 -1       231 1.96979E+01 1.06675E-01 1.31064E-02 3.02375E-01 2.67505E-13 7.04209E-13
 -1       232 1.93437E+01 4.94699E-02 1.02276E-02 7.62611E-02 2.03704E-13 5.27591E-13
 -1       233 1.92061E+01 2.35491E-02 5.35134E-03-3.50180E-02 1.28053E-13 4.05536E-13
 -1       234 1.91882E+01 1.01178E-02 2.54694E-03-9.01008E-02 5.71794E-14 3.34515E-13
 -1       235 1.92313E+01 2.76403E-03 1.18941E-03-1.13211E-01 5.86990E-14 2.97945E-13
 -1       236 1.93092E+01-1.63236E-03 5.54864E-04-1.19852E-01 1.29036E-13 2.33626E-13
 -1       237 1.94007E+01-4.03767E-03 2.00285E-04-1.16068E-01 1.39751E-13 1.99672E-13
 -1       238 1.94944E+01-5.12484E-03 1.00202E-05-1.06627E-01 7.05350E-14 9.11626E-14
 -1       239 1.95838E+01-5.34843E-03-8.79558E-05-9.47439E-02 8.04889E-14 3.01614E-14
 -1       240 1.96660E+01-4.99002E-03-1.24948E-04-8.25348E-02 7.55560E-14 7.43439E-15
 -1       241 1.97399E+01-4.22635E-03-1.18288E-04-7.14512E-02 8.05944E-14-3.50888E-14
 -1       242 1.98065E+01-3.13957E-03-8.25178E-05-6.25506E-02 7.93060E-14-8.21446E-14
 -1       243 1.98649E+01-1.86572E-03-7.09831E-06-5.68972E-02 8.88838E-14-2.35117E-13
 -1       244 1.99241E+01-1.95819E-04 8.89445E-05-5.47623E-02-3.29831E-14-1.30208E-13
 -1       245 1.99851E+01 1.93934E-03 2.31770E-04-5.76010E-02-1.23288E-14-1.19065E-13
 -1       246 2.00537E+01 4.77973E-03 4.31147E-04-6.69724E-02 1.13200E-14-9.48117E-14
 -1       247 2.01372E+01 8.73602E-03 7.12518E-04-8.52512E-02-6.26783E-14-1.30156E-13
 -1       248 2.02462E+01 1.44685E-02 1.11398E-03-1.16139E-01-2.61406E-14 2.13363E-14
 -1       249 2.03951E+01 2.30225E-02 1.69189E-03-1.65400E-01 1.35574E-13-4.73477E-15
 -1       250 2.06045E+01 3.60883E-02 2.45174E-03-2.42264E-01 1.02654E-13-4.44276E-14
 -1       251 2.08860E+01 5.44887E-02 3.49696E-03-3.52815E-01 1.33229E-14-2.54891E-14
 -1       252 2.13071E+01 8.36800E-02 4.66121E-03-5.26799E-01-1.47861E-13-1.36856E-13
 -1       253 2.19104E+01 1.26229E-01 5.57972E-03-7.87635E-01-1.11103E-13-3.64032E-15
 -1       254 2.27645E+01 1.83879E-01 5.33160E-03-1.16605E+00-1.52355E-13 1.20726E-13
 -1       255 2.39454E+01 2.48464E-01 2.65924E-03-1.68386E+00-7.14424E-14 1.82456E-13
 -1       256 2.55151E+01 2.81085E-01-2.08241E-03-2.30848E+00 7.02997E-15 4.22882E-13
 -1       257 2.74811E+01 1.69073E-01-2.23826E-03-2.84370E+00 1.83566E-14 2.28763E-13
 -1       258 2.97309E+01-3.12540E-01 1.46793E-02-2.74816E+00 5.95357E-15 2.37857E-13
 -1       259 3.18906E+01-1.26405E+00 4.51522E-02-1.19545E+00 1.24831E-14 3.70969E-13
 -1       260 3.38150E+01-2.27712E+00-1.33703E-02 2.56768E+00-1.33023E-13 4.72530E-13
 -1       261 3.39944E+01-1.14549E+00-1.74754E-01 5.65767E+00 1.36953E-13 3.73430E-13
 -1       262 3.31032E+01 2.57107E+00-3.65411E-01 4.57505E+00 3.87523E-13 2.70017E-13
 -1       263 3.28329E+01 3.68677E+00-3.75840E-01-2.16165E+00 2.74558E-13-2.94778E-13
 -1       264 3.39807E+01 3.56921E-01-2.59101E-01-6.17839E+00 3.88939E-13-4.00509E-13
 -1       265 3.39255E+01-1.85676E+00-7.63006E-02-4.47290E+00 2.35603E-13-4.95698E-13
 -1       266 3.29874E+01-1.94306E+00 2.44105E-02-7.66613E-01-3.04350E-13-5.32234E-13
 -1       267 3.09937E+01-8.33864E-01 3.58895E-02 2.07696E+00-1.89137E-13-3.61234E-13
 -1       268 2.86764E+01-4.24636E-02 8.11440E-03 2.92299E+00 1.58228E-13-3.89220E-14
 -1       269 2.65063E+01 2.43757E-01-3.13512E-03 2.64993E+00 9.86069E-14-3.45253E-14
 -1       270 2.46874E+01 2.73704E-01-4.22922E-04 2.04299E+00-7.21524E-14 1.71153E-13
 -1       271 2.33282E+01 2.24168E-01 3.20016E-03 1.48794E+00-1.62337E-13 2.56248E-13
 -1       272 2.22517E+01 1.60932E-01 5.17820E-03 1.03302E+00-2.18167E-13 6.55241E-14
 -1       273 2.14749E+01 1.09693E-01 5.07787E-03 7.07745E-01 2.60729E-14 5.06580E-14
 -1       274 2.09223E+01 7.44795E-02 4.19065E-03 4.82800E-01 2.51865E-13-1.87658E-13
 -1       275 2.05357E+01 5.40604E-02 3.24240E-03 3.23939E-01 7.97359E-14-2.69329E-13
 -1       276 2.02744E+01 4.44960E-02 2.33639E-03 2.03723E-01-4.24640E-13-1.58565E-13
 -1       277 2.01028E+01 4.66075E-02 1.11626E-03 9.49207E-02-2.21272E-13-2.31745E-13
 -1       278 2.00445E+01 1.07198E-01 1.94594E-03 9.93890E-02-1.40052E-14-6.50525E-13
 -1       279 2.00221E+01 2.46853E-01 3.92215E-06 1.68904E-01-1.28759E-13-1.82689E-13
 -1       280 1.99974E+01 4.13460E-01-2.35480E-04 1.89641E-01-2.69078E-13-2.89601E-13
 -1       281 1.99783E+01 5.65997E-01-5.09567E-04 1.57985E-01-3.28596E-13 1.62389E-13
 -1       282 1.99687E+01 6.69983E-01-7.66697E-04 9.28043E-02-3.71947E-13 3.82822E-13
 -1       283 1.99683E+01 7.11025E-01-8.86729E-04 1.45216E-02 4.44623E-14 2.35977E-13
 -1       284 1.99751E+01 6.85663E-01-8.36581E-04-5.58147E-02 3.83028E-13 4.22367E-13
 -1       285 1.99854E+01 6.07269E-01-6.34718E-04-1.04873E-01 5.84503E-13 5.96986E-13
 -1       286 1.99959E+01 4.96762E-01-3.54224E-04-1.27949E-01 7.32380E-13-3.61020E-14
 -1       287 2.00041E+01 3.76080E-01-6.95692E-05-1.27568E-01 3.12792E-13-7.94088E-13
 -1       288 2.00089E+01 2.64841E-01 1.67572E-04-1.11132E-01 7.90696E-14-6.59423E-13
 -1       289 2.00105E+01 1.70209E-01 3.16686E-04-8.62773E-02 9.30116E-14 3.91833E-13
 -1       290 2.00098E+01 9.89373E-02 3.71958E-04-6.00671E-02 9.79878E-14 2.80442E-13
 -1       291 2.00084E+01 5.01367E-02 2.93289E-04-3.59139E-02 1.61154E-13 4.57605E-14
 -1       292 2.00132E+01 2.63052E-02 3.70332E-04-2.72980E-02 8.95152E-14-1.51959E-13
 -1       293-1.64441E+00-1.20547E+01-1.00248E+00-4.66708E-01-5.88835E-14-1.02390E-13
 -1       294 1.09937E+00-1.11315E+01-1.05902E+00 1.49236E+00-1.85074E-13 3.65416E-13
 -1       295 8.74953E+00-7.86782E+00-7.80257E-01 4.36179E+00 1.12743E-13 8.75335E-13
 -1       296 1.86498E+01-4.44996E+00-5.59956E-01 5.63472E+00 2.16327E-13 1.01208E-12
 -1       297 3.27254E+01-1.37711E+00 7.42360E-02 5.43490E+00 5.91277E-13 8.32778E-13
 -1       298 4.58460E+01 2.45151E+00 9.52284E-01 2.51033E+00 7.05450E-13 4.41036E-13
 -1       299 5.28508E+01 6.22697E+00 1.50933E+00 4.19869E-01 6.86812E-13 1.87433E-13
 -1       300 5.46956E+01 7.55099E+00 1.75692E+00-1.08664E-01 5.74790E-13 1.32672E-14
 -1       301 5.11465E+01 4.82823E+00 1.37697E+00-1.55817E+00 4.60632E-13-2.51854E-13
 -1       302 4.10293E+01 1.00710E+00 5.53457E-01-4.21276E+00 4.60673E-13-3.90354E-13
 -1       303 2.74348E+01-2.73980E+00-2.13176E-01-5.70539E+00 6.05294E-13-5.14200E-13
 -1       304 1.50463E+01-6.17501E+00-6.21600E-01-5.30615E+00 6.34492E-13-3.13194E-13
 -1       305 4.63020E+00-9.30686E+00-9.96712E-01-2.87960E+00 5.78260E-13-1.00982E-12
 -1       306-3.40695E-01-1.18471E+01-1.07471E+00-6.91116E-01 1.99341E-13-5.76872E-13
 -1       307-1.43860E+00-9.96518E+00-6.64263E-01 1.27526E+00-4.33854E-14-5.73319E-13
 -1       308 5.61099E-01-1.01189E+01-7.90206E-01 3.49192E+00-4.40564E-13-5.28994E-13
 -1       309 6.54899E+00-6.65350E+00-5.23564E-01 5.97181E+00-5.88807E-13-2.49716E-13
 -1       310 1.42353E+01-2.16678E+00-2.55888E-01 7.50454E+00-7.17315E-13-2.83273E-13
 -1       311 2.49008E+01 9.40010E-01 1.12020E-01 8.35719E+00-3.00898E-13-1.05338E-12
 -1       312 3.46912E+01 4.35279E+00 4.64705E-01 8.12051E+00-3.88370E-13-9.25704E-13
 -1       313 4.35976E+01 6.34879E+00 8.29078E-01 6.60456E+00-6.28407E-13-6.41820E-13
 -1       314 4.90291E+01 7.08846E+00 1.01111E+00 3.00141E+00-5.09565E-13-2.43708E-13
 -1       315 4.80591E+01 7.64444E+00 8.66322E-01-1.31252E+00-1.73389E-13-8.57300E-14
 -1       316 4.56133E+01 6.62422E+00 8.78600E-01-5.54074E+00-2.35270E-13 1.28481E-13
 -1       317 3.75772E+01 5.06355E+00 5.76566E-01-7.65670E+00-7.88841E-13-5.65659E-14
 -1       318 2.78059E+01 2.34677E+00 2.32188E-01-8.60445E+00-7.54063E-13 2.98123E-13
 -1       319 1.75642E+01-7.72530E-01-1.31013E-01-8.05958E+00-7.11403E-13 6.94500E-13
 -1       320 9.07600E+00-4.91330E+00-4.81835E-01-6.30321E+00-6.96110E-13 7.52454E-13
 -1       321 2.97580E+00-8.65556E+00-7.15312E-01-4.61365E+00-4.38649E-13 6.99607E-13
 -1       322-8.35416E-01-1.16755E+01-9.46034E-01-2.45626E+00-4.85764E-13 3.18356E-13
 -1       323 2.01381E+01 3.00181E+00-2.19695E-02-2.09951E+00-4.60760E-13-3.04846E-13
 -1       324 2.07588E+01 2.20898E+00-1.76877E-02-2.36642E+00-4.96861E-13-1.58727E-15
 -1       325 1.95840E+01 3.69304E+00-1.55816E-02-1.31983E+00-2.78512E-13-5.73691E-13
 -1       326 1.94602E+01 3.85039E+00-1.36952E-02-9.26644E-01-1.91389E-13-6.12389E-13
 -1       327 1.93908E+01 3.94159E+00-1.26974E-02-5.47229E-01-7.49154E-14-6.08942E-13
 -1       328 1.93597E+01 3.98349E+00-1.22704E-02-1.76996E-01 1.96893E-14-6.29389E-13
 -1       329 1.93603E+01 3.98272E+00-1.22775E-02 1.90163E-01 9.82621E-14-6.08587E-13
 -1       330 1.93928E+01 3.93912E+00-1.27063E-02 5.60595E-01 1.80631E-13-5.89158E-13
 -1       331 1.94623E+01 3.84790E+00-1.36878E-02 9.34007E-01 2.62795E-13-5.53214E-13
 -1       332 1.95873E+01 3.68915E+00-1.55109E-02 1.32754E+00 3.62516E-13-4.69732E-13
 -1       333 1.97995E+01 3.42698E+00-1.85111E-02 1.73341E+00 4.48839E-13-3.40948E-13
 -1       334 2.01577E+01 2.98080E+00-2.15732E-02 2.11662E+00 5.16572E-13-1.35353E-13
 -1       335 2.07771E+01 2.17136E+00-1.81341E-02 2.36275E+00 5.14611E-13 2.20837E-13
 -1       336 2.05806E+01-6.84866E+00-8.71449E-02 5.69728E+00-1.82215E-13 6.67234E-13
 -1       337 2.04604E+01 6.75521E-01 1.25789E-02-1.02642E+00-3.88619E-13 4.00947E-14
 -1       338 2.00379E+01 3.37584E-01 7.19516E-03-4.58710E-01-3.38855E-13 4.44978E-15
 -1       339 1.97836E+01 1.76922E-01 4.14677E-03-1.49464E-01-2.33682E-13-2.76045E-14
 -1       340 1.96482E+01 9.10620E-02 1.87302E-03 2.23334E-02-1.75781E-13-1.25567E-13
 -1       341 1.95931E+01 4.20217E-02 7.88904E-04 1.14215E-01-1.42777E-13-1.40394E-13
 -1       342 1.95884E+01 1.32310E-02 2.79955E-04 1.58246E-01-1.26827E-13-1.52997E-13
 -1       343 1.96134E+01-3.46707E-03 2.80758E-05 1.73463E-01-7.37204E-14-1.08341E-13
 -1       344 1.96544E+01-1.25276E-02-1.01409E-04 1.71722E-01-8.81484E-14-1.43883E-13
 -1       345 1.97027E+01-1.66030E-02-1.62593E-04 1.60722E-01-9.70266E-14-1.35850E-13
 -1       346 1.97526E+01-1.73913E-02-1.81312E-04 1.45569E-01-9.79679E-14-1.74498E-13
 -1       347 1.98014E+01-1.60359E-02-1.72853E-04 1.29650E-01-9.23452E-14-2.17370E-13
 -1       348 1.98476E+01-1.33410E-02-1.47689E-04 1.15173E-01-2.56023E-14-1.99063E-13
 -1       349 1.98910E+01-9.90977E-03-1.13776E-04 1.03486E-01-7.72519E-14-2.79280E-13
 -1       350 1.99320E+01-6.24990E-03-7.79365E-05 9.52686E-02-3.25107E-14-2.84971E-13
 -1       351 1.99715E+01-2.86795E-03-4.69987E-05 9.06015E-02-3.65421E-14-2.07389E-13
 -1       352 2.00103E+01-3.60844E-04-2.87802E-05 8.89370E-02-8.37681E-14-2.58863E-13
 -1       353 2.00492E+01 4.97297E-04-3.28661E-05 8.89743E-02-1.09292E-13-1.89771E-13
 -1       354 2.00886E+01-1.31400E-03-7.09366E-05 8.84523E-02-1.90536E-13-1.96275E-13
 -1       355 2.01277E+01-7.08245E-03-1.56220E-04 8.38947E-02 6.28931E-14-3.28053E-13
 -1       356 2.01649E+01-1.82817E-02-3.01463E-04 7.03859E-02 1.50248E-13-3.23284E-13
 -1       357 2.01964E+01-3.63066E-02-5.14699E-04 4.15165E-02 1.20007E-13-2.15273E-13
 -1       358 2.02166E+01-6.19275E-02-7.92331E-04-1.02685E-02-9.28698E-15-2.91371E-13
 -1       359 2.02170E+01-9.43864E-02-1.11011E-03-9.25976E-02 2.46679E-14-2.87264E-13
 -1       360 2.01862E+01-1.30180E-01-1.41407E-03-2.11022E-01 5.95447E-14-3.80490E-13
 -1       361 2.01110E+01-1.61854E-01-1.61549E-03-3.65581E-01-1.04614E-13-2.63970E-13
 -1       362 1.99776E+01-1.77574E-01-1.60465E-03-5.46390E-01 8.50016E-14-2.45488E-13
 -1       363 1.97761E+01-1.62644E-01-1.26975E-03-7.29549E-01 2.57663E-14-3.32511E-13
 -1       364 1.95060E+01-1.04176E-01-5.65104E-04-8.75939E-01-1.04837E-13-4.24069E-13
 -1       365 1.91837E+01 1.14861E-03 4.51136E-04-9.36499E-01-8.66826E-14-3.37582E-13
 -1       366 1.88475E+01 1.39297E-01 1.60144E-03-8.66396E-01 3.16769E-14-1.63686E-13
 -1       367 1.85544E+01 2.77062E-01 2.59242E-03-6.45560E-01-3.64120E-14-1.15167E-13
 -1       368 1.83670E+01 3.71435E-01 3.22206E-03-2.96215E-01 1.14362E-13-2.56005E-13
 -1       369 1.83304E+01 3.88664E-01 3.34198E-03 1.15376E-01 5.55630E-14-3.44989E-13
 -1       370 1.84531E+01 3.22313E-01 2.91165E-03 4.99519E-01-4.33797E-14-3.88997E-13
 -1       371 1.87028E+01 1.96536E-01 2.03112E-03 7.77017E-01-3.36626E-14-8.56319E-14
 -1       372 1.90216E+01 5.27702E-02 8.99447E-04 9.06422E-01 4.31691E-14 3.31777E-14
 -1       373 1.93471E+01-6.97091E-02-2.23153E-04 8.91776E-01-1.30610E-13 1.69679E-13
 -1       374 1.96322E+01-1.48326E-01-1.06873E-03 7.70643E-01-5.51819E-14 1.90526E-13
 -1       375 1.98518E+01-1.79800E-01-1.54563E-03 5.93081E-01-2.88672E-13 1.63457E-13
 -1       376 2.00004E+01-1.73875E-01-1.66188E-03 4.04196E-01 2.15223E-14 1.90265E-13
 -1       377 2.00854E+01-1.45003E-01-1.50612E-03 2.35312E-01 4.58300E-13-7.84543E-14
 -1       378 2.01204E+01-1.06202E-01-1.18775E-03 1.02970E-01 1.34329E-13 6.28000E-14
 -1       379 2.01205E+01-6.64553E-02-8.12338E-04 1.22534E-02-2.67113E-13-1.10400E-13
 -1       380 2.00991E+01-3.05302E-02-4.31568E-04-3.89856E-02-2.43747E-13-1.78282E-13
 -1       381 2.00678E+01-1.04490E-03-2.07354E-04-5.62353E-02-4.35281E-14-1.17975E-13
 -1       382 2.00387E+01 1.77765E-02 1.94451E-04-4.80997E-02 2.88574E-13-3.71101E-14
 -1       383 2.00506E+01 3.55423E-01 8.09984E-03 4.81149E-01 3.12052E-13 2.14769E-13
 -1       384 2.04728E+01 7.05656E-01 1.29111E-02 1.05685E+00 4.08264E-13 2.59534E-13
 -1       385 1.97922E+01 1.85453E-01 4.63677E-03 1.61799E-01 2.38348E-13 1.64192E-13
 -1       386 1.96526E+01 9.38695E-02 1.90259E-03-1.57040E-02 1.68714E-13 9.20743E-14
 -1       387 1.95957E+01 4.57780E-02 8.25890E-04-1.07080E-01 8.09381E-14 1.83135E-14
 -1       388 1.95870E+01 1.53844E-02 3.22116E-04-1.54772E-01 1.01437E-13 1.41593E-14
 -1       389 1.96097E+01-2.37748E-03 4.48792E-05-1.72108E-01 1.20597E-13 4.55778E-14
 -1       390 1.96495E+01-1.21416E-02-9.29382E-05-1.71449E-01 1.26672E-13 8.50472E-14
 -1       391 1.96972E+01-1.66743E-02-1.59428E-04-1.60875E-01 1.11491E-13 5.13869E-14
 -1       392 1.97472E+01-1.76978E-02-1.80151E-04-1.45778E-01 7.68243E-14 1.06260E-14
 -1       393 1.97965E+01-1.63038E-02-1.68706E-04-1.29854E-01 1.34260E-13-3.24352E-14
 -1       394 1.98437E+01-1.31327E-02-1.37581E-04-1.15737E-01 1.13733E-13-3.34213E-14
 -1       395 1.98869E+01-8.81905E-03-8.29484E-05-1.05782E-01 1.37638E-13-6.79133E-14
 -1       396 1.99316E+01-2.87815E-03-1.18004E-05-1.00650E-01 3.67979E-14-6.05392E-14
 -1       397 1.99775E+01 4.77706E-03 8.60850E-05-1.02798E-01 2.92168E-15-5.02168E-14
 -1       398 2.00273E+01 1.48246E-02 2.19859E-04-1.14494E-01-1.77364E-14-4.02697E-14
 -1       399 2.00849E+01 2.84572E-02 4.06677E-04-1.38910E-01-2.90531E-14-3.36232E-14
 -1       400 2.01548E+01 4.75985E-02 6.75409E-04-1.80707E-01-7.48781E-14-1.37066E-13
 -1       401 2.02429E+01 7.52288E-02 1.07141E-03-2.46829E-01 7.63478E-14-7.50274E-14
 -1       402 2.03561E+01 1.15923E-01 1.64708E-03-3.47777E-01 1.07030E-13 9.83688E-14
 -1       403 2.04944E+01 1.72413E-01 2.44674E-03-4.89349E-01 2.62501E-14 3.02357E-13
 -1       404 2.06802E+01 2.58655E-01 3.61957E-03-7.06259E-01 9.46047E-14 2.35094E-13
 -1       405 2.09136E+01 3.82549E-01 5.07286E-03-1.02093E+00-7.01219E-14 1.36517E-14
 -1       406 2.11972E+01 5.50626E-01 6.59628E-03-1.46637E+00-1.38911E-13-5.68501E-14
 -1       407 2.15271E+01 7.52210E-01 7.59634E-03-2.07288E+00-1.68275E-13-2.30488E-14
 -1       408 2.19006E+01 9.22964E-01 7.69946E-03-2.84453E+00-9.97366E-14 7.16495E-14
 -1       409 2.23597E+01 8.68256E-01 9.27954E-03-3.70709E+00 8.83455E-14 2.41418E-13
 -1       410 2.31159E+01 1.43996E-01 1.86855E-02-4.41019E+00 2.15678E-14 3.39305E-13
 -1       411 2.46872E+01-1.72071E+00 5.11112E-02-4.40180E+00-8.16777E-14 4.75859E-13
 -1       412 2.81741E+01-4.65501E+00 3.76886E-02-2.88640E+00-1.26954E-13 5.53535E-13
 -1       413 4.01942E+01 8.50870E-01 4.57059E-02 3.30174E+00 3.60351E-13 2.07112E-13
 -1       414 3.76278E+01-2.30174E+00-3.64088E-02-2.65474E+00 3.66793E-13-4.52666E-13
 -1       415 3.18455E+01-4.92726E+00-2.14970E-02-1.05490E-03-2.01887E-13-2.23280E-13
 -1       416 2.76045E+01-2.99354E+00 5.07394E-02 3.22283E+00-3.01675E-13-4.02837E-14
 -1       417 2.49850E+01-5.85763E-01 3.25919E-02 4.23009E+00-9.40654E-14-4.87457E-15
 -1       418 2.36043E+01 5.18795E-01 9.46072E-03 3.92928E+00 1.46311E-13 1.44703E-13
 -1       419 2.27450E+01 7.84026E-01 6.61573E-03 3.15805E+00-1.73556E-13 3.58036E-13
 -1       420 2.21192E+01 7.09994E-01 7.32769E-03 2.39644E+00-2.26636E-13 3.32539E-13
 -1       421 2.15754E+01 5.41666E-01 7.23727E-03 1.72531E+00-1.43548E-15 3.43689E-13
 -1       422 2.11331E+01 3.84415E-01 6.12261E-03 1.21912E+00-1.59737E-13 5.08110E-14
 -1       423 2.07815E+01 2.66642E-01 4.66520E-03 8.53482E-01 3.26698E-13 5.24826E-14
 -1       424 2.05095E+01 1.90413E-01 3.55946E-03 5.92439E-01 2.96190E-13-1.48679E-13
 -1       425 2.03038E+01 1.48673E-01 2.93238E-03 3.97990E-01-1.57103E-14-4.26606E-13
 -1       426 2.79510E+00-4.85211E+00-4.14638E-02 2.93168E+00 2.52021E-14-9.15934E-16
 -1       427 1.99449E+01 4.90599E-01-4.49229E-04 2.99955E-01 2.60978E-14-7.00267E-14
 -1       428 2.00267E+01 3.49158E-01 2.07843E-04 3.27026E-01 5.38545E-14-1.69387E-13
 -1       429 2.01121E+01 1.90343E-01 1.57582E-03 2.70522E-01-4.99127E-14-6.33539E-13
 -1       430 1.98915E+01 5.87787E-01-8.34092E-04 2.06275E-01 2.87159E-14 1.66548E-13
 -1       431 1.98736E+01 6.28145E-01-1.00381E-03 7.61988E-02 1.88079E-13 6.44814E-13
 -1       432 1.98877E+01 6.08787E-01-9.88116E-04-5.32498E-02 3.35171E-13 3.85448E-13
 -1       433 1.99226E+01 5.41507E-01-7.62097E-04-1.54325E-01 2.14730E-13 6.02808E-13
 -1       434 1.99644E+01 4.45041E-01-4.42519E-04-2.12998E-01-9.09869E-14-4.62387E-14
 -1       435 2.00018E+01 3.39179E-01-1.19798E-04-2.28597E-01-2.14452E-13-6.64220E-13
 -1       436 2.00274E+01 2.41702E-01 1.47361E-04-2.10772E-01-6.82860E-14-7.93560E-13
 -1       437 2.00402E+01 1.59386E-01 3.12102E-04-1.72416E-01 3.02984E-13-1.05040E-13
 -1       438 2.00419E+01 9.79051E-02 4.30288E-04-1.27112E-01 1.20186E-13 3.82405E-13
 -1       439 2.00365E+01 5.59705E-02 4.52719E-04-8.45376E-02 1.83191E-13 2.49093E-13
 -1       440 8.50930E+00-6.06164E+00-1.22601E-01 5.62238E+00-3.01897E-13 6.84508E-13
 -1       441 1.29856E+00-3.45486E+00 6.33481E-02-1.90133E+00 8.33604E-14 5.14366E-13
 -1       442 1.97917E+01 3.43431E+00-1.86892E-02-1.72248E+00-3.70286E-13-4.91732E-13
 -1       443 3.57304E+01-4.25996E+00 4.79620E-03 8.08342E-01 2.35548E-13 1.90764E-13
 -1       444 2.73489E+01-6.67494E+00-4.52411E-02-3.75213E+00 1.77691E-13 1.70974E-13
 -1       445 1.47966E+01-6.68146E+00-1.23036E-01-6.19886E+00 6.55032E-14-2.02952E-13
 -1       446 6.24654E+00-5.88102E+00-1.21542E-01-4.86547E+00 2.64649E-14-7.98334E-13
 -1       447 1.73092E+00-4.55179E+00-3.35435E-02-1.70298E+00 7.36911E-14-7.27640E-13
 -1       448 1.74717E+00-4.44494E+00-1.97746E-02 3.91911E+00-6.06459E-14-5.64077E-13
 -1       449 7.35921E+00-4.43052E+00 5.94690E-02 7.45313E+00-6.20337E-15-4.30905E-13
 -1       450 1.52973E+01-5.28346E+00-1.86395E-02 8.28193E+00-3.80862E-13-1.50957E-13
 -1       451 2.33020E+01-4.31914E+00-1.60753E-02 7.05627E+00-4.08854E-13-7.11237E-13
 -1       452 3.08919E+01-1.03469E+00 1.26644E-02 3.97820E+00-1.65177E-13-4.48627E-13
 -1       453 3.54727E+01 3.47009E+00 4.77787E-02 1.82460E+00-3.77823E-13-4.96270E-14
 -1       454 3.79195E+01 7.14706E+00 7.35066E-02 5.27223E-01-5.53474E-13-2.31398E-13
 -1       455 3.83351E+01 9.00212E+00 5.63123E-02 9.59784E-03-4.75592E-13-4.29028E-13
 -1       456 3.70110E+01 7.85853E+00-1.80291E-03 7.28015E-02-2.13995E-13-1.63244E-13
 -1       457 3.62354E+01 4.87556E+00 3.59507E-02-8.64879E-01-3.93005E-13-1.05416E-13
 -1       458 3.24238E+01 2.65328E-01 2.04744E-02-3.44048E+00-6.78605E-13-4.18887E-13
 -1       459 2.59559E+01-3.33442E+00-3.13899E-03-6.27012E+00-2.30219E-13-1.71085E-13
 -1       460 1.86496E+01-5.14906E+00-1.82390E-03-8.03521E+00-1.20501E-13 2.60465E-13
 -1       461 1.05076E+01-5.40372E+00-1.23441E-02-8.08569E+00-1.35447E-13 5.90049E-13
 -1       462 3.46607E+00-4.30919E+00 1.67382E-02-5.43320E+00-2.08639E-13 3.65097E-13
 -1       463 2.93104E+01-6.21315E+00-1.36328E-01 3.05582E+00-6.24500E-14 4.65961E-13
 -1       464 3.65043E+01 1.90190E+00-4.67777E-01-4.23028E+00 2.67897E-13-5.77635E-13
 -1       465 2.90943E+00-1.66859E+00 1.43146E-01 1.05821E+00 7.42895E-14-8.41036E-13
 -1       466 1.97324E+01 3.10651E+00-5.40332E-03-6.36753E-01-1.27811E-13-5.24813E-13
 -1       467 1.98285E+01 2.93297E+00-6.01051E-03-9.53215E-01-2.26601E-13-5.21750E-13
 -1       468 1.96635E+01 3.23082E+00-5.01325E-03 5.65723E-03 4.87999E-14-5.64391E-13
 -1       469 1.96812E+01 3.19899E+00-5.08587E-03 3.27147E-01 1.32266E-13-5.45988E-13
 -1       470 1.97341E+01 3.10382E+00-5.39097E-03 6.42670E-01 2.13136E-13-5.20390E-13
 -1       471 1.98313E+01 2.92853E+00-5.95203E-03 9.59067E-01 3.09046E-13-4.54926E-13
 -1       472 1.99863E+01 2.64642E+00-6.58768E-03 1.25493E+00 3.94966E-13-3.56053E-13
 -1       473 2.02090E+01 2.20776E+00-6.76907E-03 1.48689E+00 4.46913E-13-2.24912E-13
 -1       474 2.04332E+01 1.46595E+00-3.18774E-03 1.40286E+00 4.38518E-13-3.29787E-14
 -1       475 2.77428E+01-5.81414E+00 4.62039E-02 3.25731E+00-4.25715E-13 3.88491E-13
 -1       476 2.03422E+01 9.74738E-01 2.89311E-03-9.40300E-01-3.57850E-13-1.79206E-13
 -1       477 2.01718E+01 5.47216E-01 2.28425E-03-4.68550E-01-2.99115E-13-1.72805E-13
 -1       478 2.00252E+01 3.04898E-01 9.64876E-04-1.66913E-01-2.42680E-13-1.84735E-13
 -1       479 1.99248E+01 1.62955E-01 4.31818E-04 1.55742E-02-1.75336E-13-1.69488E-13
 -1       480 1.98662E+01 7.69907E-02 1.56235E-04 1.19120E-01-1.46265E-13-1.95017E-13
 -1       481 1.98393E+01 2.48088E-02 2.61432E-05 1.71790E-01-1.07895E-13-2.33054E-13
 -1       482 1.98341E+01-5.94744E-03-3.99612E-05 1.92203E-01-8.49480E-14-2.59763E-13
 -1       483 1.98426E+01-2.26319E-02-7.26273E-05 1.93053E-01-8.43017E-14-2.61212E-13
 -1       484 1.98591E+01-2.99322E-02-8.48420E-05 1.83026E-01-1.39668E-13-2.32380E-13
 -1       485 1.98801E+01-3.09808E-02-8.36927E-05 1.68056E-01-5.95443E-14-2.01576E-13
 -1       486 1.99030E+01-2.79522E-02-7.39702E-05 1.52156E-01-5.44864E-14-1.18632E-13
 -1       487 1.99266E+01-2.24239E-02-5.92975E-05 1.37954E-01-1.12904E-13-1.84402E-13
 -1       488 1.99505E+01-1.56312E-02-4.26092E-05 1.27042E-01-7.01494E-14-1.16893E-13
 -1       489 1.99746E+01-8.67679E-03-2.66491E-05 1.20166E-01-7.19830E-15-1.20159E-13
 -1       490 1.99995E+01-2.72279E-03-1.44116E-05 1.17292E-01-1.47467E-13-1.73622E-13
 -1       491 2.00258E+01 8.25300E-04-9.56297E-06 1.17539E-01-7.82544E-14-2.02270E-13
 -1       492 2.00545E+01 1.56317E-04-1.67518E-05 1.19007E-01-1.22271E-13-2.60603E-13
 -1       493 2.00865E+01-7.04918E-03-4.16498E-05 1.18508E-01-8.43258E-14-9.75270E-14
 -1       494 2.01228E+01-2.35841E-02-9.05509E-05 1.11255E-01 6.77671E-14-1.41781E-13
 -1       495 2.01639E+01-5.24160E-02-1.69137E-04 9.06113E-02 1.45254E-13-1.89568E-13
 -1       496 2.02097E+01-9.59486E-02-2.80065E-04 4.80863E-02 5.73015E-14-3.15860E-13
 -1       497 2.02585E+01-1.54652E-01-4.19050E-04-2.61158E-02-1.81854E-14-3.04275E-13
 -1       498 2.03060E+01-2.24963E-01-5.70334E-04-1.41555E-01-3.74356E-15-2.63505E-13
 -1       499 2.03438E+01-2.96685E-01-7.01076E-04-3.04503E-01 5.60394E-14-2.30483E-13
 -1       500 2.03585E+01-3.50842E-01-7.53521E-04-5.13036E-01 5.90262E-14-1.13557E-13
 -1       501 2.03315E+01-3.59920E-01-6.75941E-04-7.50694E-01-3.54186E-14-9.91771E-14
 -1       502 2.02432E+01-2.93073E-01-3.99237E-04-9.80637E-01 7.61557E-15-1.99278E-13
 -1       503 2.00813E+01-1.28741E-01 4.72529E-05-1.14439E+00-9.65321E-14 3.32796E-14
 -1       504 1.98540E+01 1.26971E-01 5.74497E-04-1.17180E+00-1.85824E-16-1.25128E-14
 -1       505 1.96001E+01 4.26154E-01 1.05456E-03-1.00601E+00 7.17930E-14-1.76863E-13
 -1       506 1.93858E+01 6.83746E-01 1.23924E-03-6.36654E-01-4.32302E-14-8.40798E-14
 -1       507 1.92810E+01 8.09202E-01 1.30065E-03-1.22684E-01-2.85836E-14-1.03694E-13
 -1       508 1.93232E+01 7.53819E-01 1.31648E-03 4.17974E-01 1.01320E-13-1.26954E-13
 -1       509 1.94955E+01 5.39728E-01 1.20213E-03 8.56388E-01 1.57284E-13 1.92001E-13
 -1       510 1.97380E+01 2.44475E-01 8.15416E-04 1.10636E+00 6.76768E-14 1.59705E-13
 -1       511 1.99785E+01-3.93639E-02 1.98370E-04 1.14985E+00-1.18122E-13-1.05730E-13
 -1       512 2.01648E+01-2.45402E-01-2.91591E-04 1.02917E+00-5.22563E-14-1.80700E-13
 -1       513 2.02769E+01-3.51114E-01-6.27523E-04 8.13382E-01-1.16258E-13 3.63158E-14
 -1       514 2.03202E+01-3.68458E-01-7.66113E-04 5.68583E-01-6.52657E-14 5.64816E-13
 -1       515 2.03129E+01-3.25948E-01-7.45704E-04 3.41958E-01-2.26999E-14 3.81968E-13
 -1       516 2.02749E+01-2.52997E-01-6.24890E-04 1.59068E-01 2.30138E-13-9.68650E-14
 -1       517 2.02222E+01-1.71663E-01-4.44892E-04 2.85630E-02-1.65848E-13-1.51140E-13
 -1       518 2.01656E+01-9.54542E-02-3.30684E-04-5.09328E-02-6.45777E-14-4.12704E-15
 -1       519 2.01112E+01-2.96700E-02-2.52563E-05-8.65560E-02 6.80886E-14 1.65094E-13
 -1       520 2.02911E+01 8.30801E-01 2.55065E-03 7.96218E-01 3.49999E-13-4.68706E-14
 -1       521 1.99306E+01 1.71193E-01 4.88238E-04-4.63730E-03 1.30135E-13-7.57625E-14
 -1       522 1.98695E+01 8.18356E-02 1.61169E-04-1.12887E-01 8.21988E-14-7.00145E-14
 -1       523 1.98407E+01 2.75368E-02 2.39659E-05-1.68517E-01 9.68908E-14-5.20674E-14
 -1       524 1.98343E+01-4.63034E-03-4.14159E-05-1.90679E-01 1.04531E-13-1.89965E-14
 -1       525 1.98422E+01-2.22362E-02-7.39878E-05-1.92489E-01 8.45277E-14-6.31637E-15
 -1       526 1.98587E+01-3.00371E-02-8.60089E-05-1.82954E-01 1.32971E-13 6.39413E-14
 -1       527 1.98800E+01-3.11022E-02-8.32765E-05-1.68339E-01 9.38223E-14 5.36749E-14
 -1       528 1.99038E+01-2.73663E-02-7.32084E-05-1.53090E-01 1.48026E-13-8.29996E-15
 -1       529 1.99275E+01-2.04540E-02-5.21871E-05-1.40944E-01 1.61830E-13 2.67313E-15
 -1       530 1.99534E+01-1.00641E-02-2.40230E-05-1.33121E-01 6.14267E-14 9.03633E-14
 -1       531 1.99802E+01 3.69281E-03 1.24572E-05-1.32698E-01 3.56584E-14 1.22948E-13
 -1       532 2.00086E+01 2.16504E-02 6.18296E-05-1.42143E-01 2.17430E-14 1.57840E-14
 -1       533 2.00391E+01 4.54930E-02 1.29307E-04-1.64502E-01-2.35759E-14-7.71286E-14
 -1       534 2.00721E+01 7.80149E-02 2.24771E-04-2.03864E-01-6.72255E-15-3.61288E-14
 -1       535 2.01072E+01 1.23532E-01 3.63419E-04-2.65936E-01-5.78914E-14-1.18709E-13
 -1       536 2.01421E+01 1.88560E-01 5.78695E-04-3.58768E-01-8.47289E-14-1.34101E-14
 -1       537 2.01705E+01 2.76509E-01 8.43015E-04-4.85409E-01 1.03826E-15 1.11050E-13
 -1       538 2.01852E+01 4.07891E-01 1.28903E-03-6.72896E-01 2.04454E-13 4.94609E-14
 -1       539 2.01633E+01 5.93760E-01 1.85631E-03-9.34451E-01 5.27989E-14 1.69451E-14
 -1       540 2.00702E+01 8.46538E-01 2.52980E-03-1.29142E+00-2.69318E-14-8.43770E-14
 -1       541 1.98518E+01 1.16506E+00 3.22001E-03-1.76602E+00-9.41098E-14-2.30928E-13
 -1       542 1.94380E+01 1.50410E+00 4.38574E-03-2.37782E+00-1.17138E-13-3.19184E-13
 -1       543 1.87704E+01 1.71063E+00 9.81578E-03-3.14251E+00-1.57694E-13-3.41388E-13
 -1       544 1.78798E+01 1.40445E+00 3.09138E-02-4.09188E+00-5.85287E-14-2.29584E-13
 -1       545 1.71667E+01-3.85493E-02 9.64757E-02-5.12217E+00-1.05185E-13-1.53037E-14
 -1       546 1.94311E+01-3.56845E+00 9.58049E-02-5.78401E+00-2.11671E-13 1.88054E-13
 -1       547 5.03380E+00-5.74763E-01 2.13403E-01 1.38626E+00 2.25035E-13-1.03834E-13
 -1       548 1.86515E+01 7.13232E-01 4.44900E-02 4.69645E+00 7.30362E-14 3.44639E-13
 -1       549 1.91604E+01 1.48519E+00 1.41793E-02 3.71615E+00-6.54691E-14 3.08126E-13
 -1       550 1.96544E+01 1.48215E+00 6.35017E-03 2.88875E+00-1.87573E-14-7.77310E-14
 -1       551 2.00017E+01 1.21128E+00 4.39095E-03 2.16800E+00-1.76403E-13-5.36957E-14
 -1       552 2.01764E+01 9.02215E-01 3.54051E-03 1.60101E+00-1.52112E-13 2.88088E-14
 -1       553 2.02316E+01 6.46131E-01 2.89368E-03 1.17040E+00 2.87057E-13-4.73622E-14
 -1       554 2.02155E+01 4.60774E-01 1.51741E-03 8.43863E-01 3.39298E-13-2.03005E-13
 -1       555 2.01713E+01 3.46195E-01 1.58389E-03 6.01419E-01 8.00409E-14-1.71251E-13
 -1       556 1.78560E+01-4.63944E+00 1.03844E-01 6.23564E+00-2.40974E-13 6.42444E-13
 -1       557 1.98066E+01 5.84358E-01-4.85052E-04 3.40345E-01 1.09743E-13 2.82931E-14
 -1       558 1.97407E+01 6.07046E-01-5.05165E-04-2.33678E-02 2.11955E-13 5.67565E-13
 -1       559 1.98000E+01 5.26005E-01-3.91614E-04-1.81858E-01 4.11446E-13 4.09939E-13
 -1       560 1.98862E+01 4.13397E-01-2.70824E-04-2.83484E-01 2.13910E-13 3.93151E-14
 -1       561 1.99725E+01 2.94539E-01-1.20381E-04-3.22140E-01-1.04333E-13-5.12771E-13
 -1       562 2.00388E+01 1.90593E-01 2.19262E-05-3.08140E-01-3.25167E-14-7.39133E-13
 -1       563 2.00785E+01 1.09057E-01 1.12779E-04-2.59006E-01 2.38236E-13-2.36997E-13
 -1       564 2.00912E+01 5.48212E-02 1.62073E-04-1.94803E-01 3.10854E-13-7.51016E-14
 -1       565 2.00833E+01 2.50328E-02-6.86747E-05-1.32622E-01-2.12653E-14 4.42164E-13
 -1       566 9.51944E+00-2.07731E+00 1.72622E-01 5.17916E+00-1.41429E-13 4.45630E-13
 -1       567 6.56679E+00-1.40112E+00 1.99695E-01 5.46886E+00 8.63198E-14-5.16670E-13
 -1       568 2.00332E+01 3.21552E-01 1.13957E-03 1.85862E-01 2.33074E-13-9.72428E-14
 -1       569 2.00806E+01 3.37478E-01 4.99926E-04 4.56746E-01 3.39979E-16-1.35125E-13
 -1       570 1.00332E+01-2.85879E+00 1.64289E-01-7.42585E+00-1.14790E-13 5.82145E-13
 -1       571 5.16197E+00-9.56315E-01 1.93468E-01-3.87455E+00 8.44498E-14 1.03859E-12
 -1       572 3.05027E+01 8.16096E+00-2.06590E-01 5.44449E-01-3.03688E-13-3.74409E-13
 -1       573 1.38168E+01-3.82630E+00 1.30538E-01-6.20336E+00-2.19921E-13-2.71269E-13
 -1       574 1.99301E+01 4.82104E-01 1.32092E-04 4.38495E-01 9.08385E-14-4.43131E-13
 -1       575 1.97369E+01 6.31875E-01-3.75119E-04 1.64429E-01 1.54933E-13 6.26992E-13
 -1       576 1.96798E+01 3.20135E+00-5.10633E-03-3.15828E-01-3.36928E-14-5.44370E-13
 -1       577 2.01525E+01 5.17781E-01 1.75355E-03 4.35719E-01 3.13646E-13-1.02175E-13
 -1       578 7.43647E+00-1.89370E+00 1.72689E-01-4.16003E+00-8.16708E-14-6.26707E-13
 -1       579 2.92776E+01-3.22740E+00-4.51833E-02-2.84544E+00-2.10672E-13-4.82531E-13
 -1       580 1.46943E+01-4.19468E+00 1.22324E-01 8.16027E+00-2.99760E-14-2.88776E-13
 -1       581 2.07255E+01-5.29065E+00 4.44301E-02 7.38817E+00-2.17458E-13-2.92599E-13
 -1       582 2.77681E+01-4.24923E+00-2.81143E-02 3.82528E+00 6.84036E-14-2.47441E-13
 -1       583 3.14357E+01-4.99102E-02-8.87487E-02 1.98568E-01-2.65513E-13-1.14971E-13
 -1       584 3.24717E+01 4.51154E+00-1.43713E-01-1.21672E+00-2.81275E-13-6.57044E-14
 -1       585 3.22718E+01 7.73517E+00-1.83485E-01-9.61938E-01-4.45172E-13-7.99291E-14
 -1       586 3.16336E+01 5.34715E+00-1.76457E-01 1.56420E+00-3.22201E-13-2.04760E-13
 -1       587 3.16634E+01 1.08006E+00-1.11607E-01 4.95949E-01-3.85567E-13-2.76598E-13
 -1       588 2.44103E+01-5.20424E+00 3.51870E-02-6.02806E+00-4.69208E-14-2.52829E-13
 -1       589 1.58483E+01-4.65959E+00 9.27851E-02-8.19256E+00-1.96232E-14 3.16459E-13
 -1       590 2.03917E+01 1.75590E+00-5.26144E-03-1.52403E+00-4.26890E-13-2.27385E-13
 -1       591 1.99810E+01 2.65352E+00-6.51705E-03-1.24706E+00-3.20714E-13-4.72058E-13
 -1       592 2.05440E+01-5.69608E+00 2.76780E-02-5.61133E+00-7.22339E-14 9.00530E-14
 -1       593 2.00775E+01 5.80471E-03 1.76326E-05-8.95932E-02-9.71985E-14 3.54347E-13
 -1       594 1.95531E+01-1.73798E+00 1.02890E-01 5.59478E+00-3.34545E-13 4.45657E-13
 -1       595 1.20493E+01-2.08317E+00 1.38199E-01 7.09428E+00 4.81490E-14-3.18127E-13
 -1       596 2.01668E+01 2.28032E+00-5.77380E-03-1.43879E+00-3.83961E-13-3.71577E-13
 -1       597 6.62751E+00 5.77126E-02 1.76431E-01-1.83501E+00-1.02557E-14-5.69517E-13
 -1       598 1.99578E+01 2.45581E+00-1.56175E-03 3.92271E-01 1.48976E-13-4.63514E-13
 -1       599 1.99265E+01 2.52948E+00-1.50922E-03 1.33537E-01 7.82652E-14-4.74854E-13
 -1       600 2.01188E+01 2.05656E+00-1.46033E-03 8.52541E-01 3.22814E-13-3.45625E-13
 -1       601 2.02339E+01 1.70005E+00-2.52611E-05 1.00220E+00 3.78836E-13-2.67066E-13
 -1       602 2.03097E+01 1.26273E+00 9.01616E-04 9.43890E-01 3.71022E-13-1.88142E-13
 -1       603 2.01275E+01-2.53729E-02 1.86178E-04-1.38836E-01 2.82064E-13 4.18624E-13
 -1       604 1.99217E+01 5.18696E-01 3.19942E-04 5.89535E-01 9.68850E-14-1.15008E-13
 -1       605 1.32272E+01 5.21410E-01 1.17998E-01 4.44103E+00 1.71856E-13 3.34177E-13
 -1       606 2.02415E+01 6.70566E-01-6.66750E-04-3.97041E-01-2.59477E-13-2.07404E-13
 -1       607 2.01687E+01 3.93461E-01 2.39323E-04-1.39480E-01-2.17557E-13-2.03006E-13
 -1       608 2.01027E+01 2.14686E-01 5.10786E-05 2.29517E-02-1.72727E-13-2.14032E-13
 -1       609 2.00526E+01 1.01197E-01 7.14381E-06 1.19335E-01-1.48856E-13-2.41410E-13
 -1       610 2.00179E+01 3.05490E-02-1.32981E-05 1.69809E-01-1.23392E-13-2.66833E-13
 -1       611 1.99958E+01-1.13319E-02-2.35755E-05 1.90177E-01-3.33196E-14-2.67984E-13
 -1       612 1.99834E+01-3.36894E-02-2.81769E-05 1.91956E-01-4.48420E-14-1.75162E-13
 -1       613 1.99780E+01-4.27776E-02-2.86764E-05 1.83385E-01-5.44679E-14-8.37185E-14
 -1       614 1.99773E+01-4.29521E-02-2.61838E-05 1.70263E-01-6.54468E-14-9.12154E-14
 -1       615 1.99801E+01-3.73340E-02-2.17521E-05 1.56580E-01-5.41800E-14-7.74545E-14
 -1       616 1.99853E+01-2.82651E-02-1.63383E-05 1.44980E-01-4.89124E-14 1.18453E-14
 -1       617 1.99926E+01-1.76648E-02-1.07356E-05 1.37071E-01-4.46834E-14 2.06157E-14
 -1       618 2.00020E+01-7.34585E-03-5.76012E-06 1.33592E-01-1.77924E-13-8.41758E-14
 -1       619 2.00141E+01 6.87195E-04-2.37233E-06 1.34454E-01-1.86963E-13-1.86898E-13
 -1       620 2.00300E+01 3.95777E-03-1.86877E-06 1.38656E-01-1.25150E-13-1.94133E-13
 -1       621 2.00516E+01-7.16606E-04-5.92353E-06 1.44061E-01-7.82354E-15-2.26908E-13
 -1       622 2.00815E+01-1.73326E-02-1.67025E-05 1.47076E-01 8.63742E-14-1.25621E-13
 -1       623 2.01233E+01-5.05429E-02-3.66940E-05 1.42242E-01 2.15345E-14-8.39723E-14
 -1       624 2.01812E+01-1.05008E-01-6.82531E-05 1.21849E-01 3.06151E-14-2.13538E-13
 -1       625 2.02596E+01-1.83962E-01-1.12596E-04 7.57603E-02 4.18414E-14-2.19340E-13
 -1       626 2.03614E+01-2.86668E-01-1.67672E-04-8.18960E-03-1.68761E-14-2.04283E-13
 -1       627 2.04857E+01-4.04636E-01-2.28127E-04-1.42600E-01 6.73442E-14-1.49689E-13
 -1       628 2.06243E+01-5.17081E-01-2.76689E-04-3.36758E-01 1.84883E-13-8.48438E-14
 -1       629 2.07576E+01-5.87645E-01-2.50622E-04-5.89791E-01 6.79453E-14-7.07371E-14
 -1       630 2.08539E+01-5.66221E-01-1.67777E-04-8.80946E-01-5.12191E-14 3.33118E-14
 -1       631 2.08737E+01-4.00367E-01 7.59735E-05-1.15932E+00-4.87317E-14 3.12571E-14
 -1       632 2.07868E+01-6.25712E-02 3.22614E-04-1.34003E+00-1.55204E-14-3.64094E-14
 -1       633 2.05977E+01 4.13699E-01 4.55296E-04-1.32205E+00 1.15664E-14-2.75717E-14
 -1       634 2.03641E+01 9.14318E-01 5.33045E-04-1.03359E+00 7.68214E-14-1.40047E-13
 -1       635 2.01842E+01 1.26986E+00-2.04049E-04-4.87093E-01-1.13090E-13-1.38067E-13
 -1       636 2.01488E+01 1.33521E+00-4.42965E-04 1.92512E-01 4.61556E-15-3.30440E-14
 -1       637 2.02756E+01 1.08373E+00 2.77882E-04 8.12703E-01 7.25977E-14-7.03751E-14
 -1       638 2.04981E+01 6.21228E-01 7.65840E-04 1.21455E+00-6.12009E-14-4.13291E-13
 -1       639 2.07159E+01 1.12024E-01 2.33865E-04 1.33575E+00-9.17472E-14-4.90179E-13
 -1       640 2.08469E+01-2.93447E-01 1.28709E-05 1.21996E+00-7.31152E-14-3.67235E-13
 -1       641 2.08670E+01-5.30499E-01-2.08269E-04 9.64568E-01 7.65217E-14-2.60876E-13
 -1       642 2.07953E+01-6.04871E-01-3.04821E-04 6.65009E-01 1.26541E-13-2.51198E-13
 -1       643 2.06699E+01-5.62013E-01-3.11088E-04 3.87764E-01-1.13826E-14-1.30944E-13
 -1       644 2.05270E+01-4.54690E-01-2.65158E-04 1.66135E-01 1.70444E-14 3.61943E-14
 -1       645 2.03911E+01-3.24835E-01-2.29486E-04 9.09261E-03-3.29596E-14-1.64907E-13
 -1       646 2.02747E+01-1.98630E-01-2.16499E-05-8.72570E-02 2.70672E-14 2.87093E-13
 -1       647 2.01916E+01-1.04587E-01-5.04011E-04-1.28405E-01-9.76262E-15 4.43670E-13
 -1       648 2.00562E+01 1.07558E-01 3.17831E-06-1.13598E-01 6.64475E-14-1.53581E-13
 -1       649 2.01072E+01 2.25170E-01 3.16835E-05-1.31725E-02 8.93985E-14-1.74939E-13
 -1       650 1.99982E+01-9.55804E-03-2.45842E-05-1.88864E-01 1.20622E-13-1.64400E-13
 -1       651 1.99857E+01-3.30403E-02-2.90256E-05-1.91696E-01 8.06286E-14-1.57842E-13
 -1       652 1.99805E+01-4.25293E-02-2.83331E-05-1.83836E-01 1.05360E-13-1.31638E-13
 -1       653 1.99803E+01-4.21574E-02-2.81070E-05-1.71464E-01 1.31265E-13-1.35189E-13
 -1       654 1.99835E+01-3.51144E-02-2.37505E-05-1.59579E-01 9.72307E-14-8.27532E-15
 -1       655 1.99891E+01-2.20876E-02-1.37782E-05-1.50175E-01 5.38842E-14 1.28066E-13
 -1       656 1.99961E+01-3.72411E-03-5.06759E-06-1.46634E-01 4.06317E-14 8.70306E-14
 -1       657 2.00034E+01 2.04668E-02 7.20406E-06-1.51373E-01 8.55243E-14 5.13016E-14
 -1       658 2.00096E+01 5.20744E-02 2.31561E-05-1.66884E-01 5.28761E-14 1.60495E-13
 -1       659 2.00125E+01 9.39877E-02 4.47084E-05-1.96023E-01 1.54733E-14 1.82882E-14
 -1       660 2.00081E+01 1.50754E-01 7.38657E-05-2.42298E-01 9.12335E-15-8.80545E-14
 -1       661 1.99894E+01 2.29190E-01 1.34125E-04-3.10033E-01-4.50231E-14-8.80769E-14
 -1       662 1.99482E+01 3.32157E-01 1.66511E-04-3.99094E-01-9.87103E-14-9.25387E-14
 -1       663 1.98624E+01 4.82048E-01 2.73340E-04-5.24383E-01 7.12692E-14 2.30116E-14
 -1       664 1.97020E+01 6.89666E-01 3.89095E-04-6.87825E-01 7.91290E-14 2.39927E-13
 -1       665 1.94197E+01 9.69611E-01 5.07371E-04-8.93770E-01 3.76669E-14 1.02291E-13
 -1       666 1.89431E+01 1.32913E+00 6.28288E-04-1.14353E+00 8.70811E-14 2.08487E-14
 -1       667 1.81685E+01 1.75033E+00 1.10389E-03-1.43602E+00-2.58620E-14 8.86563E-15
 -1       668 1.69562E+01 2.15489E+00 4.82428E-03-1.77873E+00-5.67178E-14-9.77926E-15
 -1       669 1.51354E+01 2.33179E+00 2.54721E-02-2.22302E+00-1.67066E-13-2.52228E-13
 -1       670 1.26261E+01 2.00032E+00 1.12074E-01-2.92991E+00-1.58045E-13-2.83301E-13
 -1       671 8.01167E+00 1.45124E+00 1.50453E-01-9.56228E-01 4.34566E-14 6.63851E-13
 -1       672 7.22707E+00 1.00725E+00 1.72403E-01 1.93475E+00 1.62199E-13-6.15327E-13
 -1       673 2.00194E+01 2.30715E+00-1.61182E-03-6.31661E-01-1.35629E-13-4.47657E-13
 -1       674 1.66487E+01 2.17464E+00 9.46980E-03 2.32789E+00 2.58424E-14 1.56848E-13
 -1       675 1.47119E+01 2.06187E+00 3.55218E-02 2.96563E+00 4.11828E-14-1.05011E-13
 -1       676 1.88236E+01 1.46045E+00 7.48942E-04 1.47851E+00-1.25550E-13 1.48878E-13
 -1       677 1.93654E+01 1.08502E+00 2.25356E-04 1.15748E+00-6.64155E-15-2.15473E-13
 -1       678 1.96908E+01 7.88484E-01 8.12170E-05 8.93007E-01 5.04170E-13-5.40365E-14
 -1       679 9.14109E+00 8.91856E-01 1.81016E-01 2.57032E+00 2.95026E-13-2.34784E-13
 -1       680 2.02897E+01 1.42761E+00 1.41147E-04-9.95520E-01-3.42374E-13-2.95733E-13
 -1       681 1.96072E+01 5.73143E-01-3.16133E-05-2.03521E-01 3.22435E-13 5.74971E-13
 -1       682 2.00324E+01 1.27521E-01-4.61992E-06-4.19101E-01 1.22822E-13-7.95280E-13
 -1       683 2.01196E+01 2.98904E-02 3.23559E-05-3.55056E-01 1.44150E-13-5.61496E-13
 -1       684 2.01580E+01-2.51091E-02 2.78846E-04-2.65532E-01-7.80405E-14-1.10804E-13
 -1       685 9.89395E+00-3.39943E-01 1.53051E-01-5.34110E+00 2.79068E-13 6.21503E-13
 -1       686 2.01716E+01 4.12461E-01-1.13224E-04 1.56840E-01 1.60647E-13-1.94316E-13
 -1       687 1.52244E+01-2.65474E+00 1.09503E-01-7.12044E+00 2.45876E-13 1.80567E-13
 -1       688 2.15929E+01-4.73812E+00 4.80949E-02-6.34904E+00 1.97672E-13-2.82182E-13
 -1       689 2.67754E+01-4.33795E+00-5.62160E-03-2.98484E+00-4.49883E-14-6.23623E-13
 -1       690 2.80003E+01 7.04728E+00-1.57739E-01-7.64949E-01-2.03240E-13-1.83910E-13
 -1       691 1.99001E+01 2.63862E-01-4.10467E-05-4.28392E-01 5.44465E-14-3.77102E-13
 -1       692 1.97457E+01 4.21629E-01-1.10578E-04-3.59669E-01 2.98800E-13 4.50893E-16
 -1       693 2.45678E+01-4.84535E+00 1.36905E-02 4.78310E+00 1.46969E-13-1.17314E-13
 -1       694 1.79622E+01 1.86769E+00 2.59630E-03 1.85967E+00-1.27468E-13 3.69200E-13
 -1       695 2.78214E+01 5.74066E+00-1.39045E-01 1.69568E+00-4.14446E-13-3.98735E-13
 -1       696 2.88943E+01 5.36023E+00-1.53169E-01-1.87328E+00-3.60587E-13 3.55271E-15
 -1       697 2.89610E+01 2.26273E+00-1.11536E-01 2.00279E+00-1.97703E-13-1.31124E-13
 -1       698 2.00207E+01 3.41676E-02-1.51878E-05-1.66778E-01 9.04158E-14-1.39356E-13
 -1       699 2.84116E+01-2.69408E+00-5.05288E-02 4.70755E-01 3.19482E-15-1.79093E-13
 -1       700 1.90846E+01-4.12586E+00 8.96771E-02 7.08829E+00 1.71120E-13-5.50601E-14
 -1       701 2.95272E+01 1.67468E+00-1.13484E-01-1.73279E+00-3.60732E-13-1.95156E-14
 -1       702 2.02763E+01 9.92472E-01 3.85860E-04-6.59617E-01-2.95593E-13-2.68389E-13
 -1       703 2.00211E+01 2.30293E+00-1.56196E-03 6.36610E-01 2.45903E-13-4.05520E-13
 -1       704 2.89311E+01-1.93053E+00-7.07938E-02 8.55349E-02-1.03544E-13-4.27842E-13
 -1       705 1.28695E+01-6.03999E-01 1.86579E-01-5.17257E+00-6.93751E-14-2.41529E-13
 -1       706 1.99262E+01 2.53017E+00-1.50708E-03-1.28909E-01-1.63660E-14-5.01510E-13
 -1       707 2.02562E+01 8.33189E-01 4.40083E-04 5.76368E-01 3.22072E-13-1.61896E-13
 -1       708 2.01163E+01 2.06236E+00-1.08925E-03-8.45449E-01-2.32743E-13-4.06744E-13
 -1       709 2.02148E+01 5.87474E-01-2.92448E-04 3.38324E-01 2.39686E-13-1.76198E-13
 -1       710 2.60466E+01 6.16440E+00-8.56861E-02 5.52281E-01-2.66249E-13-2.49056E-13
 -1       711 1.95664E+01 7.05845E-01-9.67459E-04 2.84526E-01 2.42052E-13 1.82164E-13
 -1       712 1.99565E+01 2.45859E+00-1.55107E-03-3.86507E-01-7.47872E-14-4.46021E-13
 -1       713 1.95358E+01 6.78323E-01-3.23466E-04 2.93008E-02 3.26666E-13 8.21611E-13
 -1       714 1.97185E+01 6.45264E-01 1.48775E-03 4.76324E-01 3.47550E-13-2.49309E-13
 -1       715 1.01903E+01 3.43114E-01 1.53880E-01 4.49205E+00 2.36802E-13-6.10970E-13
 -1       716 2.02862E+01 1.16180E+00 6.94606E-04 6.67544E-01 2.98236E-13-2.49026E-13
 -1       717 2.02616E+01 4.36242E-01-6.80943E-06-9.38608E-02-1.74706E-13-2.35713E-13
 -1       718 2.02222E+01 2.38031E-01-3.10949E-06 3.73903E-02-1.72853E-13-2.11583E-13
 -1       719 2.01807E+01 1.08766E-01-9.50580E-06 1.16021E-01-1.49390E-13-2.19040E-13
 -1       720 2.01430E+01 2.74538E-02-8.82267E-06 1.57566E-01-5.87223E-14-2.28527E-13
 -1       721 2.01108E+01-2.04383E-02-8.44055E-06 1.74241E-01 1.38649E-14-2.14919E-13
 -1       722 2.00843E+01-4.50671E-02-8.19025E-06 1.75494E-01 2.70605E-14-1.01742E-13
 -1       723 2.00630E+01-5.36614E-02-7.38142E-06 1.68348E-01-7.58555E-14-9.72407E-14
 -1       724 2.00462E+01-5.14346E-02-6.22517E-06 1.57867E-01-5.69093E-14-4.06848E-14
 -1       725 2.00333E+01-4.22275E-02-4.65072E-06 1.47612E-01-5.43886E-14-1.05266E-13
 -1       726 2.00236E+01-2.90160E-02-3.08022E-06 1.40004E-01-2.80250E-14-1.50171E-13
 -1       727 2.00170E+01-1.43514E-02-1.58640E-06 1.36588E-01-1.99251E-13-1.33095E-13
 -1       728 2.00137E+01-7.77157E-04-2.86253E-07 1.38168E-01-2.37230E-13-1.07175E-13
 -1       729 2.00149E+01 8.77517E-03 6.02655E-07 1.44843E-01-1.80069E-13-6.86841E-14
 -1       730 2.00225E+01 1.06041E-02 8.62229E-07 1.55901E-01-9.97836E-14-4.74796E-14
 -1       731 2.00398E+01-6.68224E-05-1.18099E-07 1.69560E-01 5.84220E-14-1.99430E-13
 -1       732 2.00720E+01-2.91961E-02-3.23549E-06 1.82549E-01 1.29699E-13-2.32309E-13
 -1       733 2.01261E+01-8.36229E-02-9.72380E-06 1.89496E-01 3.44367E-14-1.31480E-13
 -1       734 2.02110E+01-1.70013E-01-2.11344E-05 1.82169E-01 2.95955E-14-1.17873E-13
 -1       735 2.03366E+01-2.92583E-01-3.86081E-05 1.48719E-01 1.85898E-14-7.28838E-17
 -1       736 2.05114E+01-4.49062E-01-6.04564E-05 7.33357E-02 7.58325E-14 1.51707E-14
 -1       737 2.07382E+01-6.24540E-01-9.54270E-05-6.27970E-02 1.27469E-13-9.99007E-14
 -1       738 2.10069E+01-7.83667E-01-1.29879E-04-2.77114E-01 1.32526E-13-1.12135E-13
 -1       739 2.12876E+01-8.65501E-01 1.44738E-05-5.75560E-01 8.56757E-14-1.44238E-14
 -1       740 2.15256E+01-7.87133E-01 2.10772E-05-9.36598E-01-4.26638E-14 1.64347E-13
 -1       741 2.16503E+01-4.63377E-01 3.40475E-04-1.28905E+00-1.79723E-13 1.99434E-13
 -1       742 2.16059E+01 1.34980E-01 3.12165E-04-1.50341E+00-1.14071E-13 6.02264E-14
 -1       743 2.14042E+01 9.14057E-01 3.31794E-05-1.42439E+00 6.34748E-14-1.53028E-14
 -1       744 2.11505E+01 1.64015E+00 2.17408E-04-9.62126E-01 4.91019E-14-5.97294E-14
 -1       745 2.09990E+01 2.01554E+00-2.32302E-03-1.86782E-01 1.10084E-13 1.27354E-13
 -1       746 2.10639E+01 1.85187E+00-1.15040E-03 6.48927E-01-7.14147E-14 5.49853E-14
 -1       747 2.12977E+01 1.23474E+00 1.06226E-03 1.25483E+00-2.65230E-13-1.28089E-13
 -1       748 2.15432E+01 4.32643E-01-2.37743E-04 1.49340E+00-2.06132E-13-3.24832E-13
 -1       749 2.16619E+01-2.63617E-01 9.49863E-05 1.37381E+00-3.17614E-14-4.21618E-13
 -1       750 2.16036E+01-7.03941E-01-2.70197E-04 1.05504E+00 1.03436E-13-1.37318E-14
 -1       751 2.14055E+01-8.75461E-01-2.92294E-04 6.79534E-01 1.43675E-13 7.00650E-14
 -1       752 2.11356E+01-8.45569E-01-2.48033E-04 3.44796E-01 3.76486E-14 1.04204E-13
 -1       753 2.08578E+01-7.02383E-01-1.33492E-04 9.14195E-02 1.27097E-14-1.25259E-13
 -1       754 2.06112E+01-5.16287E-01-1.11603E-04-7.65900E-02 9.13220E-14-2.15533E-13
 -1       755 2.04168E+01-3.34518E-01 8.87898E-05-1.74041E-01 1.93561E-13-1.32442E-14
 -1       756 2.00674E+01-5.26277E-02-1.13048E-05-1.69460E-01 2.33469E-14-9.13568E-14
 -1       757 2.00884E+01-4.40174E-02-7.25430E-06-1.75826E-01 9.89545E-14-1.51973E-13
 -1       758 2.01147E+01-1.83034E-02-7.91776E-06-1.73535E-01 6.63129E-14-1.54992E-13
 -1       759 2.00515E+01-4.92758E-02-1.32041E-06-1.60332E-01 4.78122E-14 1.33484E-14
 -1       760 2.00380E+01-3.67806E-02-3.61680E-06-1.51219E-01 2.20022E-14 3.40016E-14
 -1       761 2.00263E+01-1.64642E-02-2.60782E-06-1.45568E-01 5.64828E-14 1.23095E-13
 -1       762 2.00150E+01 1.12614E-02-9.20739E-07-1.45662E-01 1.05419E-13 5.49988E-14
 -1       763 2.00014E+01 4.73202E-02 1.09154E-06-1.53390E-01 5.08505E-14-2.16950E-14
 -1       764 1.99823E+01 9.39881E-02 3.32228E-06-1.70384E-01 2.36751E-14-1.40175E-13
 -1       765 1.99524E+01 1.55102E-01 4.30175E-06-1.98060E-01 9.75707E-15 1.64502E-16
 -1       766 1.99034E+01 2.36459E-01 2.30579E-05-2.37394E-01-4.39896E-14 7.81551E-14
 -1       767 1.98278E+01 3.39524E-01-2.50599E-07-2.85908E-01-8.45179E-14 2.47700E-14
 -1       768 1.96995E+01 4.84642E-01 1.49164E-05-3.47319E-01-7.47446E-14 1.52049E-13
 -1       769 1.94919E+01 6.79366E-01 1.27480E-05-4.14772E-01-4.06234E-14 2.22508E-13
 -1       770 1.91617E+01 9.35248E-01-2.02093E-05-4.78271E-01 1.32011E-13 1.24982E-13
 -1       771 1.86450E+01 1.25905E+00-9.10416E-05-5.19183E-01 1.13411E-13 1.92151E-13
 -1       772 1.78492E+01 1.64272E+00 4.81529E-05-5.07792E-01 1.83796E-14 1.44926E-13
 -1       773 1.66419E+01 2.04484E+00 1.77963E-03-4.03992E-01 6.46465E-15 2.18237E-14
 -1       774 1.48239E+01 2.35906E+00 1.33531E-02-1.66916E-01 6.41347E-14 2.94112E-14
 -1       775 1.22660E+01 2.36631E+00 5.00303E-02 1.99510E-01 2.24807E-14-2.48820E-13
 -1       776 1.10677E+01 1.47039E+00 9.92992E-02-2.88134E+00 2.60679E-13 6.95829E-13
 -1       777 1.41305E+01-5.11189E-01 6.01442E-02-5.35367E+00 2.59662E-13 1.96475E-13
 -1       778 2.67931E+01-3.13191E-01-4.33963E-02 1.59630E+00-2.83645E-14-4.98514E-13
 -1       779 1.39271E+01 2.49003E+00 3.22638E-02 7.55508E-01-6.06242E-15 4.13411E-13
 -1       780 2.69045E+01-2.64566E+00-1.86748E-02-1.59041E-01 1.22035E-13-3.72345E-13
 -1       781 1.90444E+01 1.09682E+00 1.35997E-03 6.69771E-01 2.52789E-13-3.31752E-13
 -1       782 1.84037E+01 1.44757E+00 1.14702E-03 7.38019E-01 2.53430E-13-2.96041E-13
 -1       783 2.02419E+01-1.39889E-01 4.39714E-04-3.55213E-01 1.48139E-13-4.81743E-13
 -1       784 1.94509E+01 8.31008E-01 3.77658E-04 5.80603E-01 2.61206E-13-2.54206E-13
 -1       785 2.58410E+01-3.72891E+00 5.79058E-03 2.03780E+00 1.28829E-13-3.07352E-13
 -1       786 2.01593E+01-7.04577E-02 6.14040E-05-4.80515E-01-4.43137E-14-5.66395E-13
 -1       787 2.02657E+01 4.54051E-01-1.49223E-04 1.06318E-01 1.29314E-13-2.10665E-13
 -1       788 2.01845E+01 1.16032E-01-1.54267E-05-1.11448E-01 8.07450E-14-2.76576E-13
 -1       789 2.02384E+01-1.37427E-01 8.15615E-05-2.27198E-01 6.69963E-15 1.93528E-13
 -1       790 2.68813E+01 2.77677E+00-7.72400E-02-2.19365E+00-2.57398E-13-8.43926E-14
 -1       791 1.99962E+01 6.48105E-02-9.83112E-06-5.66051E-01-1.19299E-13-5.52426E-13
 -1       792 1.92772E+01 8.22892E-01 2.44135E-03 1.10852E-01 1.69441E-13 8.07896E-13
 -1       793 1.12381E+01 2.09668E+00 1.12217E-01 1.59246E+00 1.23104E-13 1.87454E-13
 -1       794 1.94434E+01-3.15173E+00 4.83408E-02-5.89613E+00 3.75299E-13-2.64372E-14
 -1       795 2.59926E+01 2.99166E+00-6.10385E-02 2.09842E+00-2.25053E-13-6.03846E-13
 -1       796 2.61525E+01 4.83638E+00-9.43369E-02-1.64900E+00-2.93134E-13 6.34302E-15
 -1       797 2.02050E+01 1.78238E+00 2.39200E-05-9.55488E-01-3.05432E-13-3.92319E-13
 -1       798 2.18555E+01-3.89311E+00 3.30339E-02 5.19872E+00 2.47033E-13-9.22361E-14
 -1       799 2.72229E+01-6.81278E-01-4.99390E-02-1.29694E+00-1.58040E-13 4.11754E-14
 -1       800 2.02978E+01 7.25620E-01 4.43004E-04-2.94881E-01-2.12432E-13-2.55976E-13
 -1       801 1.62060E+01-2.12726E+00 6.58321E-02 6.36820E+00 2.00949E-13 1.43368E-13
 -1       802 1.93169E+01 6.92254E-01-1.88488E-03-2.23777E-01 1.98031E-13 5.44233E-13
 -1       803 2.39166E+01-4.15416E+00 6.43002E-03-3.86039E+00 2.11150E-13-6.11126E-13
 -1       804 2.01372E+01 1.89457E+00-3.13772E-04 1.98046E-01 1.04064E-13-4.10967E-13
 -1       805 2.02259E+01 2.49590E-01-2.35531E-05-2.94158E-02 6.69603E-14-2.54291E-13
 -1       806 2.01468E+01 3.16262E-02-9.97709E-06-1.55317E-01 8.56893E-14-2.33461E-13
 -1       807 1.37760E+01-3.37102E-02 6.82390E-02 4.90458E+00 3.19674E-13-2.51195E-13
 -1       808 2.02181E+01 1.59210E+00-5.18143E-04 5.37666E-01 2.31018E-13-3.13222E-13
 -1       809 2.02208E+01 1.59284E+00 1.99992E-05-5.36443E-01-1.42571E-13-3.56427E-13
 -1       810 2.01696E+01 1.78195E+00-2.71144E-04 3.81375E-01 1.71437E-13-3.69885E-13
 -1       811 2.02787E+01 6.54468E-01 6.52686E-04 2.51830E-01 1.74777E-13-1.97501E-13
 -1       812 2.46138E+01 5.06942E+00-5.57433E-02-6.13763E-01-4.74083E-14-1.43299E-13
 -1       813 2.59588E+01-2.45559E+00-1.32752E-02 3.64547E-02 5.66173E-14-9.33678E-14
 -1       814 1.74506E+01 1.84284E+00 1.15166E-03 7.54622E-01-1.65645E-14-3.06677E-14
 -1       815 2.02729E+01 1.28255E+00 2.56465E-04-6.72343E-01-2.38370E-13-3.40742E-13
 -1       816 2.01679E+01 1.78623E+00-2.64824E-04-3.78084E-01-8.65670E-14-4.12813E-13
 -1       817 1.95260E+01 4.80878E-01 1.50599E-04-4.56341E-01-4.14782E-14 3.75453E-13
 -1       818 1.97708E+01 2.57642E-01 1.59467E-04-5.69167E-01 5.22310E-14-1.96367E-13
 -1       819 2.46484E+01 4.08118E+00-4.58375E-02 1.55271E+00-2.21217E-13-3.77342E-13
 -1       820 1.60312E+01 2.21187E+00 3.32267E-03 6.86380E-01-1.15298E-13 1.62105E-13
 -1       821 2.01259E+01 1.93213E+00-2.97774E-04 1.83730E-03 1.66406E-14-4.20256E-13
 -1       822 2.03308E+01 4.34617E-01 1.69747E-06-4.50053E-02-1.39300E-13-2.27424E-13
 -1       823 2.02713E+01 1.07073E-01-6.32474E-06-1.03761E-01 5.00466E-14-3.13228E-13
 -1       824 1.91095E+01-2.22652E+00 2.86832E-02 5.02429E+00 3.40451E-13 1.25021E-13
 -1       825 2.03369E+01 7.27930E-01 1.59716E-04-1.91408E-01-1.71163E-13-2.61198E-13
 -1       826 2.03041E+01 2.32947E-01-1.84390E-05 4.94677E-02-1.35195E-13-1.69015E-13
 -1       827 2.02673E+01 9.95695E-02-6.05422E-06 1.06732E-01-1.10553E-13-1.32541E-13
 -1       828 2.02271E+01 1.57284E-02-3.67001E-06 1.36559E-01-6.03135E-15-1.33777E-13
 -1       829 2.01878E+01-3.25489E-02-3.41659E-06 1.47918E-01 3.53036E-14-1.25688E-13
 -1       830 2.01512E+01-5.56645E-02-2.72572E-06 1.48023E-01-5.73210E-15-1.19570E-13
 -1       831 2.01184E+01-6.12967E-02-2.12278E-06 1.42358E-01-6.00617E-14-1.32391E-13
 -1       832 2.00894E+01-5.51109E-02-1.69747E-06 1.34973E-01-1.17966E-13-1.71665E-13
 -1       833 2.00641E+01-4.13689E-02-5.59306E-07 1.28815E-01-4.90336E-14-1.68225E-13
 -1       834 2.00423E+01-2.34623E-02 4.91175E-09 1.26024E-01-8.95659E-14-2.08853E-13
 -1       835 2.00241E+01-4.43366E-03 2.08773E-07 1.28154E-01-1.69871E-13-1.78214E-13
 -1       836 2.00099E+01 1.25341E-02 1.36835E-07 1.36299E-01-1.23059E-13-7.31724E-14
 -1       837 2.00013E+01 2.36233E-02 5.54143E-07 1.51144E-01-1.38123E-13 8.29216E-14
 -1       838 2.00015E+01 2.38782E-02 1.14675E-06 1.72857E-01-9.60298E-14 7.34605E-14
 -1       839 2.00155E+01 6.81064E-03 1.60759E-06 2.00794E-01-4.10950E-14-2.08877E-14
 -1       840 2.00512E+01-3.57646E-02 1.59818E-06 2.32925E-01 1.61371E-13-2.22566E-13
 -1       841 2.01200E+01-1.13364E-01 4.09084E-07 2.64867E-01 6.65266E-14-1.00021E-13
 -1       842 2.02364E+01-2.35452E-01-2.66507E-06 2.88425E-01 1.37332E-13 2.57985E-14
 -1       843 2.04177E+01-4.08306E-01-6.65230E-06 2.89683E-01 1.09783E-14 7.44690E-14
 -1       844 2.06802E+01-6.29212E-01-1.76686E-06 2.47056E-01-4.87200E-14 6.71002E-14
 -1       845 2.10336E+01-8.76889E-01-3.07741E-05 1.30113E-01 9.85578E-14 9.79978E-14
 -1       846 2.14665E+01-1.09654E+00-8.10940E-05-9.50815E-02 1.35138E-13 2.52060E-14
 -1       847 2.19363E+01-1.19355E+00 6.19179E-04-4.50424E-01 3.74631E-14-6.80135E-14
 -1       848 2.23497E+01-1.02858E+00 9.74400E-05-9.22914E-01 2.12157E-14-4.15903E-14
 -1       849 2.25935E+01-4.73506E-01-6.21202E-04-1.40080E+00-1.52051E-13 3.46484E-15
 -1       850 2.25635E+01 5.11980E-01-9.78624E-05-1.67082E+00-1.64162E-13-1.01317E-13
 -1       851 2.22965E+01 1.70850E+00-2.88360E-03-1.49109E+00-1.30861E-14-2.12759E-13
 -1       852 2.20094E+01 2.60899E+00 4.13721E-03-7.44959E-01 1.23995E-13-1.89986E-13
 -1       853 2.18845E+01 2.83177E+00-2.65545E-03 3.10303E-01-3.92522E-14-2.00311E-13
 -1       854 2.21502E+01 2.16707E+00-1.87980E-03 1.23294E+00-7.99842E-14-5.08556E-14
 -1       855 2.25097E+01 1.00779E+00 8.66516E-03 1.66905E+00-2.86079E-13 3.50100E-13
 -1       856 2.26198E+01-1.49779E-01 1.50763E-03 1.51352E+00-2.34703E-13 2.86131E-13
 -1       857 2.25008E+01-8.76356E-01-7.75442E-04 1.10022E+00 9.46104E-14 4.93574E-14
 -1       858 2.21447E+01-1.19109E+00-9.88650E-04 6.01396E-01 1.22828E-13-2.98859E-13
 -1       859 2.16886E+01-1.18004E+00-5.01558E-04 1.85326E-01 1.18347E-13-3.28775E-13
 -1       860 2.12379E+01-9.90352E-01-1.95091E-04-9.75733E-02 1.31880E-13-1.98267E-13
 -1       861 2.08530E+01-7.34348E-01-9.54823E-05-2.58049E-01 2.64112E-15 1.12398E-13
 -1       862 2.05586E+01-4.78993E-01 9.30723E-04-3.25792E-01 8.41152E-14 1.00839E-13
 -1       863 2.00952E+01-5.10751E-02-7.86726E-07-1.37088E-01 5.72657E-14-9.55341E-14
 -1       864 2.01235E+01-5.91452E-02 3.52782E-06-1.43804E-01-1.06294E-14-8.21741E-14
 -1       865 2.01926E+01-3.01716E-02-5.63674E-07-1.47991E-01 3.02284E-14-2.04937E-13
 -1       866 2.00677E+01-3.21283E-02-4.91069E-07-1.30959E-01-3.08037E-14-1.03340E-13
 -1       867 2.00409E+01-3.96132E-03-7.92016E-07-1.27853E-01 7.13953E-14-2.32698E-14
 -1       868 2.00123E+01 3.31945E-02-1.27480E-06-1.29146E-01 1.21317E-13 1.87424E-14
 -1       869 1.99785E+01 8.05017E-02-1.86859E-06-1.35536E-01 8.58324E-14 5.57041E-14
 -1       870 1.99342E+01 1.40478E-01-4.83411E-06-1.46917E-01-2.04364E-14-6.19072E-15
 -1       871 1.98718E+01 2.17137E-01 4.15136E-06-1.61947E-01-8.80234E-14-6.92925E-14
 -1       872 1.97863E+01 3.10220E-01-2.15760E-05-1.77004E-01-8.92862E-14 3.44235E-14
 -1       873 1.96537E+01 4.35750E-01-2.11015E-05-1.87958E-01-1.07484E-13 6.05615E-14
 -1       874 1.94553E+01 5.96725E-01-3.24484E-05-1.83304E-01-8.85134E-14 8.94920E-14
 -1       875 1.91599E+01 7.98781E-01-6.37644E-05-1.45204E-01 8.17045E-14 1.06829E-13
 -1       876 1.87247E+01 1.04239E+00-1.17590E-04-4.47232E-02 5.55656E-14 8.41130E-14
 -1       877 1.80916E+01 1.31556E+00-5.78276E-05 1.62689E-01 1.04309E-13 8.88790E-14
 -1       878 1.71822E+01 1.58292E+00 1.12495E-03 5.41553E-01 6.88022E-14 1.20222E-13
 -1       879 1.59032E+01 1.74974E+00 4.06546E-03 1.18476E+00 5.71177E-14-7.44593E-14
 -1       880 1.42225E+01 1.68907E+00 2.21854E-02 2.12942E+00 3.22762E-13-2.49900E-13
 -1       881 2.02984E+01 1.21026E+00-8.46625E-05 3.04128E-01 1.71891E-13-3.06484E-13
 -1       882 2.01373E+01 1.89598E+00-2.19305E-04-1.94773E-01-4.23287E-14-4.38210E-13
 -1       883 2.53433E+01-1.60744E+00-1.49610E-02 8.55323E-01 1.58297E-13-4.68669E-13
 -1       884 1.88190E+01 1.01936E+00-7.31721E-04-1.72462E-02 1.82178E-13 8.47199E-13
 -1       885 2.03519E+01-2.92493E-01 5.26901E-04-4.74403E-01-1.47067E-13-4.93980E-13
 -1       886 2.03004E+01 9.56508E-01-1.61970E-04 3.81851E-01 2.02561E-13-2.49149E-13
 -1       887 1.18311E+01 1.19153E+00 7.60803E-02 3.43685E+00 2.91861E-13-4.77573E-13
 -1       888 2.03073E+01 2.45056E-01-6.56317E-07-4.38928E-02 1.16065E-13-3.15102E-13
 -1       889 2.01946E+01-1.92080E-01-2.48994E-05-6.56803E-01-7.58774E-14-4.30267E-13
 -1       890 2.46649E+01-3.15751E+00 1.33943E-03-1.44582E+00 1.82008E-13-4.83977E-13
 -1       891 2.33417E+01-3.35975E+00 4.24670E-03 3.04453E+00 3.19425E-13-3.16466E-13
 -1       892 1.39940E+01 9.43681E-01 2.44665E-02-3.41833E+00 4.14457E-13 3.00367E-13
 -1       893 1.77221E+01-1.32718E+00 2.72971E-02-4.85981E+00 4.05412E-13-1.28703E-13
 -1       894 1.81847E+01 1.25255E+00-7.00818E-04-2.63703E-01 1.51231E-13 4.41243E-13
 -1       895 2.14824E+01-2.90248E+00 1.05427E-02-4.04680E+00 3.36832E-13-4.17096E-13
 -1       896 2.47363E+01 2.97318E+00-4.61193E-02-1.93089E+00-2.48950E-13 3.01524E-13
 -1       897 2.46764E+01 8.98799E-01-2.96024E-02 1.98688E+00-5.39291E-14-6.62171E-13
 -1       898 2.02992E+01 1.19508E+00-7.19032E-04-3.10817E-01-1.31156E-13-3.27005E-13
 -1       899 2.55287E+01 5.95528E-01-2.95972E-02-1.90439E+00-1.78211E-13 2.71002E-13
 -1       900 1.48659E+01 1.96096E+00 1.12237E-02-1.17247E+00 1.72884E-13 3.86387E-13
 -1       901 2.02843E+01 1.34363E+00 6.46618E-06 1.96660E-01 1.25721E-13-3.40285E-13
 -1       902 2.03321E+01 4.52798E-01 5.49289E-06 5.46394E-02 1.44711E-13-2.83548E-13
 -1       903 2.01563E+01-5.41310E-02-8.73417E-07-1.48936E-01 2.46915E-15-1.22142E-13
 -1       904 2.02317E+01 2.00930E-02-1.15791E-06-1.35370E-01-9.30498E-15-2.34556E-13
 -1       905 1.99204E+01 5.88674E-03-1.87639E-04-7.72127E-01-2.12529E-13-4.32047E-13
 -1       906 1.68105E+01-6.40601E-01 3.06060E-02 4.54604E+00 3.50031E-13 2.19414E-13
 -1       907 1.91969E+01 6.03887E-01 2.23170E-03-5.90805E-01 1.33208E-13 1.46808E-13
 -1       908 2.03332E+01 7.58755E-01 1.56630E-04 2.01993E-01 1.53529E-13-2.85539E-13
 -1       909 2.51032E+01-1.15082E+00 1.53371E-03-1.12364E+00-1.71682E-13 2.48662E-13
 -1       910 1.73582E+01 1.44806E+00 9.55470E-04-6.92076E-01 6.04347E-14 1.16253E-13
 -1       911 1.52502E+01 8.78950E-01 2.05114E-02 3.20603E+00 3.33662E-13-2.74817E-13
 -1       912 2.04361E+01-3.71449E-01-6.76301E-04-4.00695E-01 1.08792E-15-1.40294E-13
 -1       913 2.44310E+01-2.97314E+00-5.56386E-03 1.30562E+00 2.21811E-13-1.87930E-13
 -1       914 2.13115E+01-2.52256E+00 1.67617E-03 3.61962E+00 4.14367E-13-3.30507E-13
 -1       915 1.63014E+01 1.73077E+00 8.07582E-03-9.21696E-01-1.49143E-13 1.66904E-13
 -1       916 2.02741E+01 1.41156E+00-2.18034E-05 6.84039E-02 6.15543E-14-3.46321E-13
 -1       917 1.95594E+01 2.88117E-01 5.81930E-05-7.61969E-01-1.59179E-13-3.72824E-14
 -1       918 1.88707E+01 5.92100E-01-1.58427E-03-9.94400E-01 1.82302E-14 8.76803E-14
 -1       919 2.03781E+01 6.74318E-01 3.49411E-05-1.03043E-01-1.13489E-13-2.34750E-13
 -1       920 2.03795E+01 3.98426E-01-6.43074E-05-8.84638E-03-7.63166E-14-1.69188E-13
 -1       921 2.03580E+01 2.04802E-01-1.30202E-05 5.27610E-02-9.25794E-14-1.39199E-13
 -1       922 2.03216E+01 7.68577E-02 2.59138E-07 8.91118E-02 2.74879E-16-5.85942E-15
 -1       923 2.02783E+01-2.25283E-03-5.83257E-07 1.07236E-01 3.02545E-14-8.94367E-15
 -1       924 2.02331E+01-4.57907E-02-1.57901E-06 1.13403E-01-1.61537E-14-7.58859E-14
 -1       925 2.01891E+01-6.39910E-02-1.30813E-06 1.12596E-01-4.49343E-14-8.43400E-14
 -1       926 2.01478E+01-6.45039E-02-1.10726E-06 1.08698E-01-1.31359E-13-9.37876E-14
 -1       927 2.01098E+01-5.30434E-02-1.48164E-06 1.04698E-01-6.63801E-14-1.11027E-13
 -1       928 2.00750E+01-3.39592E-02 1.09218E-06 1.02923E-01-5.76582E-14-1.35925E-13
 -1       929 2.00434E+01-1.07585E-02 2.21517E-06 1.05328E-01-1.42907E-13-1.81399E-13
 -1       930 2.00150E+01 1.32232E-02-2.15414E-08 1.13656E-01-9.67252E-14-9.41699E-14
 -1       931 1.99905E+01 3.44111E-02-1.85105E-07 1.29628E-01-5.99027E-14-1.46768E-13
 -1       932 1.99719E+01 4.82647E-02 8.38842E-07 1.55037E-01-1.31701E-14-2.01750E-14
 -1       933 1.99632E+01 4.86884E-02 2.22855E-06 1.91659E-01-5.91503E-14 1.03591E-13
 -1       934 1.99710E+01 2.74668E-02 4.78679E-06 2.40958E-01 2.01417E-14 8.99498E-14
 -1       935 2.00062E+01-2.61216E-02 8.63645E-06 3.03326E-01 1.25562E-13 1.05011E-13
 -1       936 2.00848E+01-1.25088E-01 1.45801E-05 3.76622E-01 1.72562E-13 1.16314E-15
 -1       937 2.02284E+01-2.83318E-01 2.37461E-05 4.53653E-01 1.34194E-13-3.11101E-14
 -1       938 2.04644E+01-5.11717E-01 4.44802E-05 5.18371E-01 2.56217E-14 5.65033E-14
 -1       939 2.08217E+01-8.10434E-01 4.46556E-05 5.41568E-01 1.10889E-13 9.45752E-14
 -1       940 2.13283E+01-1.15757E+00 7.45624E-05 4.73173E-01 5.87459E-14-8.15154E-14
 -1       941 2.19716E+01-1.46550E+00 4.60428E-04 2.48442E-01 1.82986E-13-4.21497E-14
 -1       942 2.26913E+01-1.61798E+00-3.16748E-04-1.82765E-01 1.74429E-14 1.39368E-13
 -1       943 2.33515E+01-1.29502E+00 1.39041E-03-8.35835E-01-1.38420E-13 2.44269E-13
 -1       944 2.37706E+01-4.19093E-01-2.36699E-03-1.52988E+00-2.31981E-13 1.80805E-13
 -1       945 2.33732E+01 2.93256E+00-9.74935E-03-1.47710E+00 3.88361E-14-1.45099E-13
 -1       946 2.35999E+01-1.07856E+00 3.04100E-04 1.11749E+00-8.22010E-14-1.75180E-14
 -1       947 2.30398E+01-1.58441E+00 7.53608E-04 4.11298E-01-1.52110E-13 7.44822E-14
 -1       948 2.23061E+01-1.57743E+00-5.48538E-04-1.27754E-01-5.42114E-14-1.23751E-13
 -1       949 2.16268E+01-1.31789E+00 3.43469E-04-4.39834E-01 3.26034E-13-1.65830E-13
 -1       950 2.10646E+01-9.61701E-01-8.27433E-05-5.69734E-01 2.49632E-13-1.00788E-13
 -1       951 2.06578E+01-6.22778E-01 7.42415E-05-5.77622E-01-5.58259E-14-2.56828E-13
 -1       952 2.00763E+01-2.20654E-02 6.56228E-08-1.00398E-01-4.58272E-14-5.31926E-14
 -1       953 2.03730E+01 7.05235E-01 1.70318E-04 1.11171E-01 1.35769E-13-2.99531E-13
 -1       954 2.01148E+01-4.76304E-02-1.62470E-06-1.04760E-01-3.87510E-14-1.18057E-13
 -1       955 1.99940E+01 5.80918E-02 1.41501E-06-9.66878E-02 5.97871E-14-3.75170E-14
 -1       956 1.99431E+01 1.13400E-01-6.05418E-07-9.64339E-02 6.09214E-14-1.64135E-14
 -1       957 1.98783E+01 1.81191E-01 1.04603E-05-9.44077E-02-1.92796E-14 1.86438E-14
 -1       958 1.97968E+01 2.59518E-01-1.81339E-05-8.67764E-02-1.05624E-13-5.03929E-14
 -1       959 1.96800E+01 3.59521E-01-1.03987E-05-6.52863E-02-8.33902E-14-8.58281E-14
 -1       960 1.95172E+01 4.79886E-01-9.37685E-06-1.75409E-02-6.52526E-14-3.31919E-14
 -1       961 1.92909E+01 6.20336E-01-1.63419E-05 7.59846E-02-2.51272E-14-9.46560E-14
 -1       962 1.89791E+01 7.74565E-01-3.50955E-05 2.44885E-01 1.03220E-13-3.06853E-14
 -1       963 1.85579E+01 9.24093E-01-6.61543E-05 5.32320E-01 1.14821E-14 3.38134E-14
 -1       964 1.80053E+01 1.02773E+00 3.16438E-05 9.99283E-01 1.79293E-13 4.71455E-14
 -1       965 1.73115E+01 1.01197E+00 4.23489E-03 1.72972E+00 2.96931E-13-6.82229E-14
 -1       966 1.64405E+01 1.00682E+00 8.50865E-03 2.38275E+00 3.71402E-13-3.25256E-13
 -1       967 2.02872E+01 1.33512E+00 2.05607E-04-2.08833E-01-4.49346E-14-3.74815E-13
 -1       968 2.03614E+01 2.16252E-01 2.52232E-05-4.98197E-02 8.62044E-14-2.19736E-13
 -1       969 2.02383E+01-4.33481E-02 5.86525E-06-1.14139E-01 1.57162E-15-2.46719E-13
 -1       970 1.60382E+01 9.24579E-01 1.12796E-02-2.74372E+00 1.60789E-13 3.50156E-13
 -1       971 2.03258E+01 8.40810E-02 6.01229E-06-8.76187E-02 5.73989E-15-2.23462E-13
 -1       972 2.00370E+01 1.32417E-02-1.05886E-06-9.76818E-02 7.37028E-14-3.88457E-14
 -1       973 2.02736E+01 1.41239E+00-1.42152E-04-6.68387E-02 1.80573E-14-3.88949E-13
 -1       974 2.01525E+01-6.14527E-02 1.01563E-05-1.09603E-01 1.01538E-14-1.97824E-13
 -1       975 2.03591E+01 8.93992E-01-2.71784E-04 1.44769E-01 1.15401E-13-3.01688E-13
 -1       976 2.38646E+01 1.37767E+00-1.37305E-02-1.89501E+00-1.81839E-13 1.53077E-13
 -1       977 2.03806E+01 4.14251E-01-3.48042E-04 1.43862E-02 1.09894E-13-2.46224E-13
 -1       978 2.01943E+01-6.20826E-02 5.44869E-06-1.13704E-01-4.08267E-14-2.51389E-13
 -1       979 2.02831E+01 2.01728E-03 5.47542E-06-1.07117E-01 3.96124E-14-2.66508E-13
 -1       980 1.97020E+01-1.43942E+00 8.52334E-03-3.57842E+00 1.60202E-13-1.34395E-13
 -1       981 2.26251E+01-2.58609E+00 4.90693E-03-2.23100E+00 5.65930E-14-3.58319E-13
 -1       982 1.93447E+01-1.40625E+00 8.90660E-03 3.83430E+00 2.96710E-13 1.07201E-13
 -1       983 2.03672E+01 9.75804E-01 2.06443E-04 7.88385E-02 6.59029E-14-2.84067E-13
 -1       984 1.85511E+01 4.87080E-01 3.22358E-03-1.58478E+00-2.07185E-13 2.80881E-13
 -1       985 2.43586E+01-2.14651E+00-9.79270E-03-5.96307E-02-3.54376E-14 7.57487E-14
 -1       986 2.28888E+01-2.72510E+00 6.52549E-03 2.24267E+00 3.07977E-13-3.62709E-13
 -1       987 2.04902E+01-4.85545E-01 1.91556E-04-6.50848E-01-1.85310E-13-4.69976E-13
 -1       988 2.39542E+01-2.24599E+00 5.02814E-03-2.33598E-01-1.23589E-13-3.00508E-13
 -1       989 2.02295E+01-3.43170E-01 8.63227E-05-9.15973E-01-7.52627E-14-4.06557E-13
 -1       990 2.04116E+01 3.37512E-01 1.22913E-04 1.17602E-02-4.66119E-14-1.53401E-13
 -1       991 2.03878E+01 1.60924E-01 9.59754E-05 4.34934E-02-1.10240E-14-9.70975E-14
 -1       992 2.03484E+01 4.54461E-02-2.45369E-05 6.17746E-02 5.27036E-15-1.17778E-13
 -1       993 2.03011E+01-2.30091E-02-1.78208E-05 7.03832E-02-3.39932E-14-1.12383E-13
 -1       994 2.02514E+01-5.78161E-02-1.20249E-05 7.27300E-02-3.45567E-14-1.15872E-13
 -1       995 2.02022E+01-6.85362E-02-7.58489E-06 7.18151E-02-4.91163E-14-7.80349E-14
 -1       996 2.01552E+01-6.23836E-02-6.20475E-06 7.00655E-02-8.88553E-14 6.16369E-14
 -1       997 2.01108E+01-4.47249E-02-9.22574E-06 6.95233E-02-1.57566E-13-3.65086E-14
 -1       998 2.00689E+01-1.96124E-02 4.84693E-06 7.19566E-02-1.18814E-13-1.51778E-13
 -1       999 2.00292E+01 9.53979E-03-3.54037E-06 7.93935E-02-1.23596E-13-2.00951E-13
 -1      1000 1.99914E+01 3.96046E-02-7.53948E-06 9.39268E-02-3.03048E-14-2.05581E-13
 -1      1001 1.99559E+01 6.68710E-02-8.23720E-06 1.18342E-01 9.34644E-14-7.52944E-14
 -1      1002 1.99248E+01 8.64141E-02-9.32962E-06 1.56083E-01 9.51919E-14-5.47117E-14
 -1      1003 1.99021E+01 9.13220E-02-8.92765E-06 2.11348E-01-1.02230E-14 1.12456E-13
 -1      1004 1.98957E+01 7.17394E-02-8.10654E-06 2.88890E-01 1.28383E-13 8.74839E-14
 -1      1005 1.99186E+01 1.41232E-02-1.34695E-06 3.93092E-01 3.00553E-14-5.45722E-14
 -1      1006 1.99914E+01-9.92095E-02 1.23808E-05 5.26054E-01 7.10606E-14-3.22400E-14
 -1      1007 2.01446E+01-2.89237E-01 3.56749E-05 6.83708E-01 7.52122E-14-2.30629E-13
 -1      1008 2.04199E+01-5.76275E-01 1.21478E-04 8.48961E-01 1.96974E-14-3.05531E-13
 -1      1009 2.08641E+01-9.66749E-01 3.50733E-04 9.82398E-01 3.80954E-14-2.73722E-13
 -1      1010 2.15495E+01-1.45629E+00-5.48984E-03 1.00203E+00 2.97236E-13-2.74547E-13
 -1      1011 2.24827E+01-1.93089E+00 4.07293E-03 8.26904E-01 3.12167E-13-1.18716E-13
 -1      1012 2.19505E+01-1.70498E+00-5.55246E-03-1.01687E+00-1.95086E-15-2.35260E-13
 -1      1013 2.11749E+01-1.18320E+00 4.14013E-04-1.05350E+00 2.79175E-13-5.50829E-13
 -1      1014 1.99069E+01 1.37852E-01-8.22333E-06-3.81285E-02-5.37280E-14 2.43112E-14
 -1      1015 1.99683E+01 8.03939E-02-6.18175E-06-4.97656E-02 4.14833E-14-8.78590E-14
 -1      1016 1.97418E+01 2.75804E-01-2.38785E-05 1.91395E-02-5.60288E-14-9.91151E-14
 -1      1017 1.96212E+01 3.58391E-01-2.32106E-05 8.51022E-02-1.15461E-13-2.63680E-13
 -1      1018 1.94667E+01 4.44031E-01-2.14044E-05 1.96806E-01-3.92716E-14-2.84303E-13
 -1      1019 1.92725E+01 5.21940E-01-1.52195E-05 3.78827E-01-6.80697E-14-1.92462E-13
 -1      1020 1.90377E+01 5.70480E-01-1.29077E-05 6.64685E-01-7.42735E-15-3.71317E-14
 -1      1021 1.87727E+01 5.50065E-01-2.21537E-05 1.09730E+00 1.14527E-13-1.28713E-13
 -1      1022 1.85112E+01 3.91072E-01-6.00294E-04 1.72682E+00 2.24990E-13-8.04899E-14
 -1      1023 1.82692E+01-4.68933E-03-2.20973E-03-2.62239E+00 7.32704E-15-4.61311E-14
 -1      1024 1.75427E+01-1.27615E-01 7.69600E-03 3.40782E+00 2.75898E-13 2.58516E-13
 -1      1025 1.98338E+01 2.02550E-01-1.56270E-05-1.76158E-02-7.72061E-14 5.65208E-14
 -1      1026 2.01150E+01-3.98367E-02-3.84152E-06-6.55054E-02-9.63431E-14-1.78360E-13
 -1      1027 2.02070E+01-6.67450E-02 2.93762E-07-7.24464E-02-4.85205E-14-1.79086E-13
 -1      1028 1.74775E+01 9.04811E-01-8.32559E-04-1.75156E+00-2.16670E-14 2.87855E-13
 -1      1029 2.06459E+01-6.87097E-01-1.39481E-04-8.34899E-01-6.27440E-14-5.36935E-13
 -1      1030 2.02564E+01-5.56626E-02-4.98177E-06-7.37256E-02-1.13433E-14-1.51894E-13
 -1      1031 1.95805E+01 3.86026E-02 1.46607E-04-1.18829E+00 1.05818E-14-3.28058E-13
 -1      1032 2.03904E+01 1.71002E-01-4.95264E-05-4.18963E-02 5.87221E-14-1.66451E-13
 -1      1033 2.03683E+01 1.00308E+00 1.19502E-04 6.29506E-04 4.10295E-14-3.46013E-13
 -1      1034 2.04100E+01 5.92885E-01 2.62813E-05-3.94245E-02-2.27612E-14-2.57074E-13
 -1      1035 2.01603E+01-5.98026E-02 1.88622E-06-6.93364E-02-8.54764E-14-1.43964E-13
 -1      1036 2.03526E+01 5.21037E-02-2.16592E-05-6.18147E-02 2.20803E-14-2.02827E-13
 -1      1037 2.27398E+01-2.10203E+00 1.93279E-03-9.39214E-01-1.50473E-13-2.79388E-14
 -1      1038 2.03060E+01-1.92312E-02-1.06516E-05-7.11058E-02 4.55342E-15-1.63280E-13
 -1      1039 2.09972E+01-1.58733E+00-1.67070E-03-2.32558E+00-9.74160E-14-1.36651E-13
 -1      1040 2.03716E+01 9.50883E-01-3.49137E-04-7.19712E-02-2.35176E-14-3.44806E-13
 -1      1041 2.09207E+01-1.73010E+00 7.64621E-03 2.72618E+00 2.04595E-13-3.69820E-13
 -1      1042 2.00688E+01-8.70335E-03-1.27279E-05-6.13625E-02 3.93304E-14-1.85418E-13
 -1      1043 2.04161E+01 3.54575E-01 9.99735E-05-9.08061E-03 8.65695E-14-1.83398E-13
 -1      1044 2.00209E+01 3.15931E-02-2.26201E-06-5.65430E-02 8.31814E-14-1.19762E-13
 -1      1045 1.97101E+01-5.47703E-01 5.90509E-04-2.08719E+00-1.32897E-13-7.01214E-14
 -1      1046 1.83604E+01-1.80150E-02 4.05592E-03 2.60414E+00 2.81471E-13 1.56064E-13
 -1      1047 2.03968E+01 6.67580E-01 3.02790E-04 6.41704E-02 7.32281E-14-2.50572E-13
 -1      1048 1.99450E+01 9.42219E-02-2.11002E-05 7.73865E-03-8.25397E-14 1.65205E-13
 -1      1049 2.03942E+01 1.07835E-01-5.13765E-05 2.04573E-02 3.51727E-14-1.79648E-13
 -1      1050 2.03503E+01 1.18677E-02 8.49961E-05 2.57004E-02-2.21189E-14-1.57820E-13
 -1      1051 2.02996E+01-4.22936E-02 6.62820E-05 2.77582E-02-5.91720E-14-2.07555E-13
 -1      1052 2.02469E+01-6.59451E-02 5.83380E-05 2.81674E-02-4.46769E-14-1.68174E-13
 -1      1053 2.01949E+01-6.78562E-02 4.22760E-05 2.81416E-02-1.02899E-14-1.44180E-13
 -1      1054 2.01449E+01-5.43327E-02 4.32234E-05 2.87961E-02-8.00919E-14-1.37230E-13
 -1      1055 2.00960E+01-2.96960E-02-2.32431E-05 3.14249E-02-1.49484E-13-1.87339E-15
 -1      1056 2.00498E+01 1.31533E-03 1.67575E-05 3.73036E-02-1.28647E-13 4.15017E-14
 -1      1057 2.00029E+01 3.74795E-02 2.44257E-05 4.88290E-02-1.14541E-13 1.01537E-13
 -1      1058 1.99556E+01 7.53379E-02 4.00388E-05 6.86590E-02 2.88627E-14-1.16026E-13
 -1      1059 1.99072E+01 1.11681E-01 5.28300E-05 1.00856E-01 9.87318E-14-1.54245E-13
 -1      1060 1.98587E+01 1.41775E-01 7.64140E-05 1.51065E-01 1.32333E-13-1.01954E-13
 -1      1061 1.98135E+01 1.58381E-01 9.81264E-05 2.26703E-01 3.24889E-14-1.65286E-13
 -1      1062 1.97788E+01 1.50386E-01 1.29254E-04 3.37025E-01-3.66754E-14-1.70855E-13
 -1      1063 1.97686E+01 1.01303E-01 1.56654E-04 4.92443E-01-4.21218E-14-2.44033E-13
 -1      1064 1.98070E+01-1.24671E-02 1.40274E-04 7.02294E-01-8.40795E-14-4.04090E-13
 -1      1065 1.99335E+01-2.22503E-01-3.53934E-05 9.70068E-01 1.14732E-13-4.00603E-13
 -1      1066 2.02100E+01-5.67148E-01-6.00131E-04 1.28414E+00 1.12413E-13-3.08594E-13
 -1      1067 2.07487E+01-1.07496E+00 1.62322E-03 1.59867E+00 1.04588E-13-2.88702E-13
 -1      1068 2.04181E+01 6.55075E-01 6.10356E-04-1.60099E-02 2.18414E-14-2.82566E-13
 -1      1069 2.02532E+01-5.55995E-01 4.12965E-04-1.33715E+00-1.93705E-14-4.47523E-13
 -1      1070 2.03041E+01-3.96704E-02-4.28742E-05-2.86698E-02-2.99993E-14-1.51664E-13
 -1      1071 1.96374E+01 2.93936E-01-5.99749E-05 2.45761E-01-2.21742E-14-1.92352E-13
 -1      1072 1.97318E+01 2.49949E-01-4.65468E-05 1.39903E-01-2.57125E-14-1.97214E-13
 -1      1073 1.94359E+01 2.97602E-01-1.00315E-04 6.49046E-01-7.59519E-14-1.80683E-13
 -1      1074 1.93651E+01 2.01878E-01-1.92041E-04 9.93358E-01 1.05048E-13-2.08790E-13
 -1      1075 1.93714E+01-2.22083E-02-4.80160E-04 1.46327E+00 1.34224E-13-3.15031E-13
 -1      1076 2.03545E+01 1.69074E-02-4.92958E-05-2.60180E-02-1.49815E-14-2.23794E-13
 -1      1077 2.33938E+01-2.37600E+00-1.18750E-02 8.79580E-01 1.51879E-13-2.33472E-13
 -1      1078 2.04209E+01 6.49043E-01 1.71805E-04 1.74147E-02 4.03049E-14-2.88332E-13
 -1      1079 2.02514E+01-6.49274E-02-4.49343E-05-2.89800E-02 1.34746E-14-9.73560E-14
 -1      1080 2.03981E+01 1.17145E-01 1.12907E-04-2.04798E-02 4.65951E-14-2.20457E-13
 -1      1081 1.95350E+01 3.16896E-01-7.43624E-05 4.08135E-01-8.90525E-14-2.07887E-13
 -1      1082 2.04332E+01 3.77807E-01-3.79739E-04 9.73273E-04 3.46887E-14-2.59665E-13
 -1      1083 2.04223E+01 2.21921E-01-1.69907E-04 1.08514E-02 2.74939E-14-2.60210E-13
 -1      1084 1.95399E+01-4.50158E-01-2.93326E-03 2.05389E+00 9.93572E-14-3.43391E-13
 -1      1085 1.95197E+01-8.94784E-01 5.77607E-03 2.87918E+00 1.69337E-13-1.37665E-13
 -1      1086 2.06653E+01-1.03143E+00-1.44582E-03-1.65280E+00 1.16603E-13-1.95954E-13
 -1      1087 2.04244E+01 2.76318E-01-5.03222E-05-1.09561E-02 7.91293E-14-2.12224E-13
 -1      1088 1.98843E+01 1.44726E-01-3.05552E-05 3.24050E-02 4.60014E-14 3.96506E-14
 -1      1089 2.00005E+01 4.67743E-02-1.09507E-05-7.36344E-03-5.07287E-14-7.48267E-15
 -1      1090 1.98127E+01 1.98728E-01-3.93561E-05 7.41515E-02 6.82676E-14-1.15013E-13
 -1      1091 2.01015E+01-2.94750E-02 3.15165E-06-2.19372E-02-5.35026E-14-1.72459E-13
 -1      1092 2.02005E+01-6.75961E-02-3.51103E-05-2.77920E-02-4.52273E-14-1.19895E-13
 -1      1093 2.01502E+01-5.43945E-02-2.48657E-05-2.54849E-02-2.14831E-14-1.99608E-13
 -1      1094 2.00513E+01 5.55308E-03-7.27522E-06-1.64046E-02-1.13666E-14-1.02041E-13
 -1      1095 2.79705E+01 9.08905E+00 2.32617E+00-6.70056E+00-5.57332E-14 1.90314E-12
 -1      1096 2.05508E+01 6.22813E+00 2.09623E-01-3.90592E+00-2.96985E-14 3.06609E-13
 -1      1097 1.94365E+01 5.85349E+00 7.50700E-02-2.89024E+00-2.06779E-14-3.87546E-13
 -1      1098 1.90276E+01 5.72639E+00 6.03009E-02-2.23780E+00-1.47000E-14-7.12580E-13
 -1      1099 1.88413E+01 5.66973E+00 5.77789E-02-1.70418E+00-9.88792E-15-8.72484E-13
 -1      1100 1.87467E+01 5.64068E+00 5.55154E-02-1.23720E+00-6.08541E-15-9.37716E-13
 -1      1101 1.86974E+01 5.62535E+00 5.37113E-02-8.07823E-01-3.49980E-15-9.60466E-13
 -1      1102 1.86731E+01 5.61766E+00 5.24447E-02-3.96852E-01-1.01460E-15-9.63824E-13
 -1      1103 1.86659E+01 5.61538E+00 5.20138E-02 3.76844E-03 1.07976E-15-9.49012E-13
 -1      1104 1.86734E+01 5.61777E+00 5.24633E-02 4.04502E-01 4.15271E-15-9.33116E-13
 -1      1105 1.86981E+01 5.62557E+00 5.37353E-02 8.15839E-01 6.64876E-15-8.95157E-13
 -1      1106 1.87484E+01 5.64126E+00 5.57486E-02 1.24589E+00 9.42042E-15-8.32840E-13
 -1      1107 1.88438E+01 5.67048E+00 5.78157E-02 1.71378E+00 1.30555E-14-7.17262E-13
 -1      1108 1.90323E+01 5.72776E+00 6.02273E-02 2.24892E+00 1.71252E-14-5.10217E-13
 -1      1109 1.94463E+01 5.85636E+00 7.48433E-02 2.90381E+00 2.25653E-14-1.28893E-13
 -1      1110 2.05743E+01 6.23543E+00 2.10397E-01 3.92191E+00 2.99483E-14 6.39190E-13
 -1      1111 2.80504E+01 9.12552E+00 2.36777E+00 6.74426E+00 3.50830E-14 2.23635E-12
 -1      1112 2.88213E+01 3.61768E+00 1.27206E+00-4.21862E+00-2.27068E-13 2.92344E-12
 -1      1113 2.02321E+01-1.77739E-01-6.16403E-01-1.10096E-01-8.09700E-14 2.38415E-12
 -1      1114 1.88359E+01-9.64238E-02-2.36450E-01 6.24935E-02-2.62620E-14 1.63778E-12
 -1      1115 1.85009E+01-4.81029E-02-5.96134E-02 4.05071E-02-1.46749E-14 1.12114E-12
 -1      1116 1.84451E+01-2.46507E-02-1.52048E-02 2.67761E-02-1.33593E-14 7.08270E-13
 -1      1117 1.85264E+01-1.30978E-02-5.00974E-03 1.90407E-02-1.65788E-14 4.97748E-13
 -1      1118 1.86731E+01-6.66937E-03-1.53361E-03 1.41057E-02-5.55664E-15 3.03813E-13
 -1      1119 1.88459E+01-2.90622E-03 4.90571E-04 1.06815E-02-1.29923E-14 1.36280E-13
 -1      1120 1.90224E+01-6.91970E-04 1.79105E-03 8.14752E-03-7.38931E-15 3.16969E-14
 -1      1121 1.91898E+01 5.74295E-04 2.50328E-03 6.19964E-03-1.54292E-14-1.21981E-13
 -1      1122 1.93416E+01 1.23314E-03 2.76280E-03 4.67739E-03-8.83981E-15-2.90500E-13
 -1      1123 1.94753E+01 1.49394E-03 2.70246E-03 3.48619E-03 1.45541E-14-3.53659E-13
 -1      1124 1.95906E+01 1.49309E-03 2.42919E-03 2.56491E-03 1.48828E-15-5.00366E-13
 -1      1125 1.96894E+01 1.32394E-03 2.02209E-03 1.87120E-03-1.09463E-14-4.88510E-13
 -1      1126 1.97741E+01 1.05393E-03 1.53969E-03 1.37494E-03-4.35794E-15-3.99234E-13
 -1      1127 1.98482E+01 7.36144E-04 1.02915E-03 1.05486E-03-2.28314E-14-4.54403E-13
 -1      1128 1.99150E+01 4.18832E-04 5.36041E-04 8.96016E-04 1.15479E-14-4.31482E-13
 -1      1129 1.99779E+01 1.53978E-04 1.14699E-04 8.86582E-04-1.69038E-14-4.69800E-13
 -1      1130 2.00399E+01 5.49309E-06-1.60540E-04 1.01270E-03-1.34771E-14-6.36955E-13
 -1      1131 2.01027E+01 5.62632E-05-1.84300E-04 1.25017E-03-2.96181E-15-8.35093E-13
 -1      1132 2.01663E+01 4.12058E-04 1.88091E-04 1.55194E-03 1.98695E-14-8.98563E-13
 -1      1133 2.02280E+01 1.19847E-03 1.14042E-03 1.83088E-03 6.09476E-15-6.36322E-13
 -1      1134 2.02810E+01 2.54479E-03 2.87737E-03 1.93933E-03-7.28535E-15-4.56042E-13
 -1      1135 2.03130E+01 4.54682E-03 5.57449E-03 1.65061E-03-3.84948E-14-5.61971E-13
 -1      1136 2.03051E+01 7.20097E-03 9.28148E-03 6.53984E-04 1.20510E-14-5.13696E-13
 -1      1137 2.02316E+01 1.03085E-02 1.37731E-02-1.41652E-03 3.27722E-15-3.10769E-13
 -1      1138 2.00613E+01 1.33671E-02 1.83697E-02-4.89340E-03 1.43429E-14-4.32154E-13
 -1      1139 1.97627E+01 1.54980E-02 2.18049E-02-9.90697E-03-3.86366E-14-6.45586E-13
 -1      1140 1.93125E+01 1.54988E-02 2.22810E-02-1.61473E-02-1.38715E-14-5.46235E-13
 -1      1141 1.87076E+01 1.21221E-02 1.78854E-02-2.26358E-02 1.95084E-14-3.85986E-13
 -1      1142 1.79790E+01 4.63871E-03 7.45284E-03-2.76748E-02-2.62065E-14-2.60486E-13
 -1      1143 1.71994E+01-6.45908E-03-8.36491E-03-2.91777E-02 7.16658E-17-6.64878E-13
 -1      1144 1.64786E+01-1.90270E-02-2.64427E-02-2.54532E-02 1.92947E-14-2.11605E-13
 -1      1145 1.59426E+01-2.95970E-02-4.17043E-02-1.61750E-02-3.92251E-14-1.06127E-13
 -1      1146 1.56975E+01-3.46776E-02-4.90528E-02-2.96307E-03 1.47473E-14-1.08571E-13
 -1      1147 1.57946E+01-3.24402E-02-4.58229E-02 1.09804E-02 1.37182E-14-1.91219E-14
 -1      1148 1.62113E+01-2.36925E-02-3.31860E-02 2.21494E-02-2.61468E-14-4.52641E-13
 -1      1149 1.68597E+01-1.14171E-02-1.54979E-02 2.81779E-02-1.23893E-14-4.47836E-13
 -1      1150 1.76166E+01 7.14933E-04 1.87592E-03 2.86045E-02-3.92357E-15-4.05533E-13
 -1      1151 1.83613E+01 9.88861E-03 1.48310E-02 2.46570E-02-3.60251E-14-3.73552E-13
 -1      1152 1.90035E+01 1.49312E-02 2.16916E-02 1.83755E-02-5.97382E-14-5.99711E-13
 -1      1153 1.94955E+01 1.61272E-02 2.29671E-02 1.16950E-02-1.28962E-14-1.05779E-12
 -1      1154 1.98279E+01 1.45698E-02 2.03510E-02 5.91777E-03 3.88405E-14-9.06549E-13
 -1      1155 2.00186E+01 1.15038E-02 1.57159E-02 1.63509E-03 5.89160E-14-3.76734E-13
 -1      1156 2.00994E+01 7.92880E-03 1.05083E-02-1.08383E-03 5.34086E-14-7.97651E-14
 -1      1157 2.01062E+01 4.48487E-03 5.57642E-03-2.42728E-03 1.02869E-15-9.02329E-14
 -1      1158 2.00730E+01 1.51099E-03 1.31017E-03-2.62087E-03-2.17817E-14-5.48335E-13
 -1      1159 2.00294E+01-7.65618E-04-1.89926E-03-1.74611E-03 7.59818E-14-5.27613E-13
 -1      1160 2.00001E+01-2.21165E-03-2.66908E-03 2.87901E-04-1.64573E-14-1.96421E-13
 -1      1161 1.99966E+01 1.21513E-03 2.24103E-03 1.07579E-03 9.36835E-14-5.48775E-14
 -1      1162 2.91306E+01 3.72142E+00 1.36642E+00 4.34246E+00 1.89709E-13 3.29864E-12
 -1      1163 2.03806E+01-1.75481E-01-6.28648E-01 1.39330E-01 6.91808E-14 2.85205E-12
 -1      1164 1.88690E+01-9.81986E-02-2.49532E-01-6.28735E-02 3.68369E-14 2.13039E-12
 -1      1165 1.85102E+01-4.99567E-02-6.42992E-02-4.12107E-02 2.69212E-14 1.61803E-12
 -1      1166 1.84441E+01-2.54729E-02-1.65464E-02-2.72412E-02 1.34042E-14 1.27984E-12
 -1      1167 1.85204E+01-1.34981E-02-5.32915E-03-1.93456E-02 1.10307E-15 1.03450E-12
 -1      1168 1.86647E+01-6.70214E-03-1.59799E-03-1.43030E-02 6.92914E-15 9.02018E-13
 -1      1169 1.88322E+01-3.21918E-03 4.70208E-04-1.08312E-02 8.52915E-15 8.33921E-13
 -1      1170 1.90039E+01-8.68070E-04 1.69066E-03-8.38817E-03 2.23464E-14 6.77666E-13
 -1      1171 1.91720E+01 5.01388E-04 2.49420E-03-6.34738E-03 3.17077E-15 4.09415E-13
 -1      1172 1.93246E+01 1.21503E-03 2.80851E-03-4.76540E-03-1.19358E-15 2.68409E-13
 -1      1173 1.94587E+01 1.50685E-03 2.78875E-03-3.51338E-03 1.64538E-14 1.78187E-13
 -1      1174 1.95741E+01 1.51312E-03 2.54014E-03-2.51960E-03 1.18035E-14 4.42450E-14
 -1      1175 1.96722E+01 1.31787E-03 2.13166E-03-1.73336E-03 3.07782E-14-7.75601E-14
 -1      1176 1.97557E+01 9.61824E-04 1.59754E-03-1.11408E-03-6.22226E-15-2.66593E-13
 -1      1177 1.98266E+01 5.50774E-04 1.00280E-03-6.04595E-04 2.10370E-14-2.38291E-13
 -1      1178 1.98913E+01-1.20349E-04 2.13072E-04-2.86199E-04 1.83304E-14-3.27978E-13
 -1      1179 1.99567E+01-9.41488E-04-7.67762E-04-1.99304E-05 4.68266E-15-3.46686E-13
 -1      1180 2.00283E+01-2.04095E-03-2.06685E-03 1.34721E-04-1.78863E-14-3.95584E-13
 -1      1181 2.01155E+01-3.55986E-03-3.88332E-03 1.43212E-04 9.14796E-16-2.53732E-13
 -1      1182 2.02314E+01-5.71904E-03-6.54227E-03-8.33370E-05 2.82641E-15-2.09960E-13
 -1      1183 2.03953E+01-8.84704E-03-1.05628E-02-7.40779E-04 1.29510E-14-2.10954E-13
 -1      1184 2.06362E+01-1.31089E-02-1.66869E-02-2.29758E-03 2.71415E-14-5.22342E-13
 -1      1185 2.09864E+01-2.01511E-02-2.62505E-02-5.61762E-03 3.74434E-14-7.12428E-13
 -1      1186 2.15157E+01-2.91863E-02-4.09875E-02-1.07550E-02-1.53775E-14-5.47007E-13
 -1      1187 2.23415E+01-4.21449E-02-6.37052E-02-2.19221E-02-8.67058E-15-3.00964E-13
 -1      1188 2.36034E+01-5.83215E-02-9.54150E-02-4.28049E-02-2.31213E-14-2.74489E-13
 -1      1189 2.55061E+01-7.42738E-02-1.30078E-01-7.97770E-02 3.10923E-14 4.80171E-15
 -1      1190 2.82794E+01-7.86613E-02-1.38836E-01-1.38195E-01-2.23519E-15-1.34892E-14
 -1      1191 3.20248E+01-4.44019E-02-4.65718E-02-2.07649E-01-1.45157E-14 2.71866E-13
 -1      1192 3.62619E+01 7.09693E-02 2.53505E-01-2.15865E-01 3.66547E-15 1.31284E-13
 -1      1193 3.90905E+01 2.78286E-01 7.13267E-01 1.46464E-03-1.35031E-14 1.50033E-13
 -1      1194 3.70820E+01 3.92281E-01 7.59148E-01 6.35042E-01-4.64732E-14 2.88158E-13
 -1      1195 2.86217E+01 2.20323E-01-3.16362E-01 1.21290E+00 2.79984E-14 6.00187E-13
 -1      1196 1.84989E+01-4.81554E-01-2.02161E+00 9.14955E-01 1.10023E-13 2.33147E-14
 -1      1197 1.63393E+01-6.77693E-01-2.41188E+00-5.20506E-01-1.23512E-15-1.09968E-13
 -1      1198 2.47141E+01-1.56355E-01-9.11780E-01-1.29452E+00 6.36574E-14-4.59854E-13
 -1      1199 3.40331E+01 3.63700E-01 4.84031E-01-8.65009E-01-4.60916E-15-1.11589E-12
 -1      1200 3.87791E+01 4.39716E-01 8.56242E-01-2.64245E-01-4.55989E-14-9.02667E-13
 -1      1201 3.81865E+01 1.85893E-01 5.08129E-01 1.30869E-01-1.38171E-14-2.69083E-13
 -1      1202 3.43805E+01 8.85629E-03 9.25630E-02 2.29992E-01 3.89164E-14-6.06903E-13
 -1      1203 3.02088E+01-6.45501E-02-1.03590E-01 1.79461E-01 1.22905E-14-9.35835E-13
 -1      1204 2.68473E+01-7.60905E-02-1.38621E-01 1.11495E-01-7.39192E-14-9.38652E-13
 -1      1205 2.44851E+01-6.97489E-02-1.16601E-01 6.00466E-02 3.18755E-14-6.69936E-13
 -1      1206 2.28672E+01-4.97424E-02-8.06147E-02 3.55485E-02 2.01410E-14 4.51097E-14
 -1      1207 2.17444E+01-3.55598E-02-5.31143E-02 1.91933E-02-1.61498E-14 5.75887E-13
 -1      1208 2.09924E+01-2.51624E-02-3.51216E-02 1.07826E-02 6.66359E-14 1.86939E-13
 -1      1209 2.04896E+01-1.87557E-02-2.53402E-02 6.17468E-03 1.90106E-14-6.83845E-14
 -1      1210 2.01666E+01-1.56968E-02-2.15697E-02 2.59897E-03-1.77816E-14-1.80234E-13
 -1      1211 2.00019E+01-1.52541E-02-1.61776E-02-4.84943E-03-6.85068E-14 3.97550E-13
 -1      1212 1.99838E+01 4.93730E-03 1.17687E-02-6.21298E-03 5.02084E-14 5.56802E-13
 -1      1213 2.00060E+01-1.57941E-02 1.16339E-02-4.73034E-03 6.55763E-13-1.50735E-13
 -1      1214 1.99903E+01 1.18091E-02-1.31880E-02-3.71014E-03 1.88782E-13-8.23088E-14
 -1      1215 1.99939E+01 1.75134E-01-1.11042E-02 8.02531E-03-1.11648E-12 2.31498E-14
 -1      1216 2.00012E+01 4.21651E-01 2.09597E-04 1.07631E-02-1.27767E-12-3.66809E-14
 -1      1217 2.00073E+01 6.63565E-01 9.81856E-03 9.13638E-03-1.17453E-12 9.80802E-14
 -1      1218 2.00107E+01 8.36248E-01 1.48725E-02 5.17657E-03-4.56833E-13-9.69468E-14
 -1      1219 2.00107E+01 9.09589E-01 1.51301E-02 9.97201E-04 1.47279E-13 3.66960E-14
 -1      1220 2.00085E+01 8.82136E-01 1.19389E-02-2.62119E-03 7.53924E-13-2.73665E-14
 -1      1221 2.00050E+01 7.74209E-01 6.96609E-03-4.80267E-03 1.58023E-12 1.14292E-13
 -1      1222 2.00014E+01 6.19265E-01 1.89765E-03-5.45715E-03 1.82074E-12 9.68561E-14
 -1      1223 1.99984E+01 4.51398E-01-2.07059E-03-4.90358E-03 9.84790E-13-1.43979E-13
 -1      1224 1.99967E+01 2.98478E-01-4.40764E-03-3.64421E-03-4.75343E-13 3.92894E-14
 -1      1225 1.99960E+01 1.74675E-01-5.16030E-03-2.32550E-03-6.35387E-13-3.21943E-15
 -1      1226 1.99962E+01 8.42238E-02-4.93874E-03-1.14076E-03 2.05680E-13 2.03324E-14
 -1      1227 1.99970E+01 2.58693E-02-4.43941E-03-4.81860E-04 2.03480E-13-8.18490E-14
 -1      1228 1.99967E+01 1.03718E-05-2.70340E-03 1.93757E-03 1.85975E-13-4.73564E-14
 -1      1229 2.00008E+01-3.35969E-03 2.19687E-03 1.18103E-03 9.52348E-14 5.47661E-14
 -1      1230-1.31791E+00-2.81333E+01-4.04961E+00-2.99730E+00-6.71269E-13-1.49623E-13
 -1      1231-2.86025E+00-2.16235E+01-3.92273E+00-6.51473E+00-1.15463E-13 3.49998E-14
 -1      1232-2.36779E+00-9.08227E+00-3.19282E+00-3.94296E+00 8.69083E-13 6.75460E-13
 -1      1233 5.19216E+00 2.87784E+00-1.86266E+00 4.33157E+00 1.95510E-12 1.82365E-12
 -1      1234 2.41753E+01 9.55270E+00 5.16200E-01 1.46360E+01 1.70441E-12 2.51843E-12
 -1      1235 5.28856E+01 8.84288E+00 3.71244E+00 1.94363E+01 1.02007E-12 2.30438E-12
 -1      1236 7.88900E+01 4.26026E+00 6.50529E+00 1.20068E+01 3.07934E-13 1.14375E-12
 -1      1237 8.60717E+01 2.79275E+00 7.40218E+00-4.08860E+00 4.68792E-14-3.88634E-13
 -1      1238 6.99289E+01 6.12118E+00 5.55903E+00-1.66649E+01 3.16303E-13-1.07514E-12
 -1      1239 4.14867E+01 9.72636E+00 2.38527E+00-1.88330E+01 9.04610E-13-1.66267E-12
 -1      1240 1.56032E+01 7.75744E+00-5.55818E-01-1.09419E+01 1.44973E-12-1.85274E-12
 -1      1241 1.14391E+00-1.49816E+00-2.46573E+00-5.02819E-01 2.17781E-12-1.69775E-12
 -1      1242-3.19742E+00-1.43631E+01-3.55075E+00 5.92357E+00 1.75016E-12-9.92983E-13
 -1      1243-2.32361E+00-2.50600E+01-4.07405E+00 5.75476E+00 8.05245E-13-2.52021E-13
 -1      1244-1.23977E+00-2.80659E+01-3.97263E+00 1.11441E+00-5.27633E-13-1.36224E-13
 -1      1245-1.38501E+00-2.21306E+01-3.52345E+00-3.22026E+00-1.29274E-12-3.02286E-13
 -1      1246-1.06708E+00-8.74067E+00-2.38894E+00-2.33777E+00-1.85674E-12-7.04659E-13
 -1      1247 4.06424E+00 4.44184E+00-9.35189E-01 4.44879E+00-1.01674E-12-6.94778E-13
 -1      1248 1.65088E+01 1.18294E+01 6.48845E-01 1.34569E+01-9.04166E-13-9.73444E-13
 -1      1249 3.51884E+01 1.20378E+01 2.12050E+00 1.95040E+01-1.08946E-12-2.04237E-12
 -1      1250 5.47444E+01 7.41494E+00 3.32351E+00 1.81165E+01-6.55143E-13-1.77813E-12
 -1      1251 6.83433E+01 2.71072E+00 4.08431E+00 8.85142E+00-1.49103E-13-8.30225E-13
 -1      1252 7.01212E+01 2.11953E+00 4.17419E+00-4.69609E+00 1.88391E-14-2.30371E-13
 -1      1253 6.00537E+01 5.77890E+00 3.68916E+00-1.59433E+01 6.81399E-14-3.72369E-13
 -1      1254 4.14200E+01 1.09153E+01 2.54365E+00-1.98959E+01-6.08069E-13 7.33413E-13
 -1      1255 2.17659E+01 1.26686E+01 1.12486E+00-1.59250E+01-1.48614E-12 1.69420E-12
 -1      1256 7.37651E+00 7.84193E+00-4.11409E-01-7.54726E+00-1.82543E-12 1.33871E-12
 -1      1257 1.05037E-01-2.90994E+00-1.84701E+00 2.96780E-01-1.98752E-12 1.09823E-12
 -1      1258-1.60422E+00-1.57891E+01-2.97751E+00 3.73916E+00-1.21547E-12 5.67879E-13
 -1      1259-1.06136E+00-2.57756E+01-3.76257E+00 1.99693E+00-4.50862E-13 3.64500E-14
 -1      1260 2.22718E+01 1.83853E+00-7.26043E-01-2.79186E+00-8.53206E-14 1.56475E-12
 -1      1261 2.03621E+01 4.69094E+00-4.88023E-02-3.30895E+00-2.40197E-13-1.73334E-14
 -1      1262 2.08703E+01 4.81168E+00-1.13450E-01-4.16330E+00-3.08087E-13 3.47430E-13
 -1      1263 1.95330E+01 4.99466E+00-1.97494E-02-2.65691E+00-2.43333E-13-5.33403E-13
 -1      1264 1.98315E+01 5.09117E+00-1.05368E-05-3.04765E+00-2.72796E-13-3.13478E-13
 -1      1265 2.05284E+01 3.95366E+00-2.60228E-02-3.07675E+00-4.23304E-13-1.30451E-14
 -1      1266 1.91864E+01 5.08479E+00-3.41120E-03-2.07343E+00-1.93432E-13-7.85417E-13
 -1      1267 1.93348E+01 5.14003E+00 1.04956E-02-2.36666E+00-2.23085E-13-6.72268E-13
 -1      1268 1.97565E+01 4.36799E+00-2.38881E-02-2.49300E+00-3.82569E-13-4.37927E-13
 -1      1269 1.90101E+01 5.13157E+00 3.46225E-03-1.56743E+00-1.43746E-13-9.08513E-13
 -1      1270 1.90884E+01 5.16133E+00 1.28059E-02-1.81727E+00-1.63702E-13-8.53144E-13
 -1      1271 1.93941E+01 4.55594E+00-1.94948E-02-1.93412E+00-2.93840E-13-6.55535E-13
 -1      1272 1.89160E+01 5.16123E+00 6.55079E-03-1.12022E+00-9.88550E-14-9.53005E-13
 -1      1273 1.89586E+01 5.17766E+00 1.27740E-02-1.34148E+00-1.18088E-13-9.30291E-13
 -1      1274 1.92063E+01 4.66235E+00-1.60328E-02-1.44768E+00-2.17319E-13-7.51760E-13
 -1      1275 1.88643E+01 5.18103E+00 8.16961E-03-6.97400E-01-5.16306E-14-9.67060E-13
 -1      1276 1.88874E+01 5.18994E+00 1.19998E-02-9.07379E-01-6.73151E-14-9.61058E-13
 -1      1277 1.91031E+01 4.72780E+00-1.39851E-02-1.00754E+00-1.40508E-13-8.00273E-13
 -1      1278 1.88400E+01 5.19299E+00 9.25874E-03-2.93279E-01-1.01192E-14-9.68579E-13
 -1      1279 1.88501E+01 5.19688E+00 1.10657E-02-4.95085E-01-2.12851E-14-9.67596E-13
 -1      1280 1.90470E+01 4.76691E+00-1.29147E-02-5.92466E-01-6.21679E-14-8.03493E-13
 -1      1281 1.88358E+01 5.19805E+00 1.01785E-02 1.03368E-01 2.85353E-14-9.56478E-13
 -1      1282 1.88357E+01 5.19799E+00 1.01534E-02-9.58801E-02 1.61695E-14-9.66217E-13
 -1      1283 1.90223E+01 4.78517E+00-1.24613E-02-1.93323E-01 5.86082E-15-8.05984E-13
 -1      1284 1.88506E+01 5.19681E+00 1.10948E-02 5.02754E-01 7.03946E-14-9.33552E-13
 -1      1285 1.88403E+01 5.19280E+00 9.23584E-03 3.00812E-01 5.77138E-14-9.46743E-13
 -1      1286 1.90226E+01 4.78497E+00-1.24762E-02 2.00811E-01 7.27867E-14-7.94947E-13
 -1      1287 1.88885E+01 5.18961E+00 1.19907E-02 9.15491E-01 1.09216E-13-8.95981E-13
 -1      1288 1.88651E+01 5.18068E+00 8.15625E-03 7.05203E-01 9.64227E-14-9.21870E-13
 -1      1289 1.90477E+01 4.76628E+00-1.29636E-02 6.00175E-01 1.40099E-13-7.68743E-13
 -1      1290 1.89596E+01 5.17757E+00 1.27425E-02 1.34638E+00 1.54042E-13-8.19804E-13
 -1      1291 1.89168E+01 5.16094E+00 6.50568E-03 1.12486E+00 1.37944E-13-8.63512E-13
 -1      1292 1.91041E+01 4.72719E+00-1.39885E-02 1.01204E+00 1.99083E-13-7.20674E-13
 -1      1293 1.90918E+01 5.16102E+00 1.28144E-02 1.82715E+00 2.08625E-13-6.90201E-13
 -1      1294 1.90125E+01 5.13069E+00 3.31593E-03 1.57660E+00 1.85247E-13-7.68099E-13
 -1      1295 1.92080E+01 4.66132E+00-1.60737E-02 1.45290E+00 2.78434E-13-6.39312E-13
 -1      1296 1.93411E+01 5.13971E+00 1.04386E-02 2.37825E+00 2.63966E-13-4.65464E-13
 -1      1297 1.91909E+01 5.08362E+00-3.60304E-03 2.08392E+00 2.34545E-13-6.02206E-13
 -1      1298 1.93991E+01 4.55335E+00-1.95137E-02 1.94424E+00 3.60876E-13-4.96908E-13
 -1      1299 1.98453E+01 5.09218E+00 3.56727E-04 3.06212E+00 2.93668E-13-3.89688E-14
 -1      1300 1.95420E+01 4.99285E+00-2.00699E-02 2.66955E+00 2.66447E-13-2.96270E-13
 -1      1301 1.97666E+01 4.36343E+00-2.37128E-02 2.50563E+00 4.26291E-13-2.27381E-13
 -1      1302 2.08998E+01 4.84005E+00-9.92786E-02 4.18805E+00 3.04312E-13 6.79089E-13
 -1      1303 2.03815E+01 4.68840E+00-4.88517E-02 3.32666E+00 2.46386E-13 2.80054E-13
 -1      1304 2.05504E+01 3.94290E+00-2.52005E-02 3.09292E+00 4.38559E-13 2.48690E-13
 -1      1305 2.23771E+01 1.87359E+00-7.17821E-01 2.85018E+00 6.43374E-14 1.94922E-12
 -1      1306 2.20054E+01 1.31387E-01-4.00951E-01-1.28680E+00-2.53270E-13 1.64857E-12
 -1      1307 2.06815E+01 3.06863E-01-1.64851E-01-8.06654E-01-2.37733E-13 1.35170E-12
 -1      1308 2.00832E+01 1.53593E-01-7.35407E-02-4.02759E-01-1.83652E-13 1.23098E-12
 -1      1309 1.96127E+01 9.12841E-02-1.49002E-02-3.30536E-01-1.73819E-13 9.65311E-13
 -1      1310 2.09751E+01 3.69505E-01-1.04199E-01-1.27544E+00-4.05925E-13 7.14130E-13
 -1      1311 1.92548E+01 6.45680E-02 3.06521E-03-1.35757E-01-1.46339E-13 8.65055E-13
 -1      1312 1.91000E+01 4.13202E-02 1.32589E-02-1.17928E-01-1.36960E-13 6.59424E-13
 -1      1313 1.99232E+01 1.34059E-01-3.51075E-02-5.04957E-01-3.06970E-13 5.18644E-13
 -1      1314 1.89393E+01 3.15575E-02 1.32685E-02-2.83137E-02-1.12111E-13 5.50979E-13
 -1      1315 1.89195E+01 1.94183E-02 1.10757E-02-1.89287E-02-1.05570E-13 3.89598E-13
 -1      1316 1.94451E+01 5.54841E-02-8.51940E-03-1.70686E-01-2.49122E-13 3.39825E-13
 -1      1317 1.88632E+01 1.60581E-02 8.79015E-03 2.48069E-02-6.80484E-14 3.29861E-13
 -1      1318 1.89053E+01 9.13836E-03 6.44620E-03 2.94657E-02-5.51182E-14 2.34507E-13
 -1      1319 1.92357E+01 2.44710E-02-3.50826E-03-1.16410E-02-1.74982E-13 1.75999E-13
 -1      1320 1.89053E+01 7.92107E-03 4.67894E-03 5.07716E-02-6.84831E-14 2.09026E-13
 -1      1321 1.89756E+01 3.57672E-03 3.64519E-03 5.26978E-02-6.72106E-14 1.25131E-13
 -1      1322 1.91786E+01 1.02861E-02-2.24018E-03 6.73307E-02-1.26843E-13 8.48644E-14
 -1      1323 1.90052E+01 3.26467E-03 2.44943E-03 6.16657E-02-5.09769E-14 8.61785E-14
 -1      1324 1.90859E+01 4.18242E-04 2.22174E-03 6.19735E-02-6.69008E-14 1.47590E-14
 -1      1325 1.92048E+01 2.89829E-03-1.34805E-03 1.04543E-01-1.11309E-13 2.75628E-14
 -1      1326 1.91299E+01 5.41287E-04 1.34358E-03 6.38703E-02-6.14494E-14-4.74620E-15
 -1      1327 1.92112E+01-1.34863E-03 1.45523E-03 6.32398E-02-5.12291E-14-6.83455E-14
 -1      1328 1.92744E+01-1.15974E-03-5.87769E-04 1.18274E-01-1.10908E-13-6.39519E-14
 -1      1329 1.92604E+01-1.00709E-03 7.60823E-04 6.11399E-02-4.11974E-14-9.17842E-14
 -1      1330 1.93370E+01-2.24960E-03 9.90497E-04 6.00113E-02-6.40418E-14-1.50345E-13
 -1      1331 1.93637E+01-3.31175E-03-3.73785E-05 1.18540E-01-9.70822E-14-1.03625E-13
 -1      1332 1.93862E+01-1.80417E-03 4.25167E-04 5.58308E-02-7.08065E-14-1.49256E-13
 -1      1333 1.94553E+01-2.59280E-03 6.82686E-04 5.44956E-02-2.45492E-14-2.26018E-13
 -1      1334 1.94587E+01-4.29418E-03 3.01841E-04 1.11366E-01-8.31383E-14-9.87014E-14
 -1      1335 1.95017E+01-2.10736E-03 2.20533E-04 4.94727E-02-1.52042E-14-2.69530E-13
 -1      1336 1.95624E+01-2.57302E-03 4.70484E-04 4.81251E-02-2.84834E-14-2.98198E-13
 -1      1337 1.95513E+01-4.52955E-03 4.74232E-04 1.00571E-01-6.07839E-14-1.57841E-13
 -1      1338 1.96046E+01-2.08379E-03 9.35947E-05 4.30696E-02-4.11244E-14-3.24078E-13
 -1      1339 1.96571E+01-2.32058E-03 3.22471E-04 4.18369E-02-3.40385E-14-4.03452E-13
 -1      1340 1.96375E+01-4.28294E-03 5.27777E-04 8.86454E-02-5.76798E-14-2.48389E-13
 -1      1341 1.96949E+01-1.84721E-03 1.49781E-05 3.72722E-02 9.30904E-15-3.93928E-13
 -1      1342 1.97401E+01-1.92623E-03 2.18718E-04 3.62351E-02-7.54491E-15-3.51772E-13
 -1      1343 1.97153E+01-3.73101E-03 5.00846E-04 7.72136E-02-3.15110E-14-2.91267E-13
 -1      1344 1.97738E+01-1.47867E-03-3.43540E-05 3.24835E-02 7.20306E-15-3.58726E-13
 -1      1345 1.98130E+01-1.45688E-03 1.44462E-04 3.16886E-02-7.74540E-15-3.58437E-13
 -1      1346 1.97850E+01-2.99739E-03 4.21926E-04 6.73085E-02-5.88399E-15-2.45259E-13
 -1      1347 1.98433E+01-1.04055E-03-6.81477E-05 2.89213E-02-4.19941E-14-3.47780E-13
 -1      1348 1.98783E+01-9.67529E-04 8.75448E-05 2.83884E-02-4.61331E-14-4.08682E-13
 -1      1349 1.98475E+01-2.17529E-03 3.12553E-04 5.95362E-02-2.27243E-14-3.14311E-13
 -1      1350 1.99062E+01-5.88208E-04-9.69531E-05 2.66477E-02-2.02231E-16-3.75277E-13
 -1      1351 1.99384E+01-5.12102E-04 3.71920E-05 2.63711E-02 1.75734E-15-3.73821E-13
 -1      1352 1.99044E+01-1.34580E-03 1.90556E-04 5.41641E-02-4.34238E-14-2.70915E-13
 -1      1353 1.99649E+01-1.81046E-04-1.28899E-04 2.55682E-02-3.87418E-14-3.71763E-13
 -1      1354 1.99959E+01-1.54067E-04-1.64329E-05 2.55131E-02-4.49937E-14-4.42428E-13
 -1      1355 1.99577E+01-5.95498E-04 7.32452E-05 5.11463E-02-8.13470E-16-2.80857E-13
 -1      1356 2.00218E+01 1.06114E-04-1.69512E-04 2.54009E-02-6.47157E-14-4.27057E-13
 -1      1357 2.00525E+01 2.30649E-05-8.19121E-05 2.54930E-02-7.98745E-14-5.16569E-13
 -1      1358 2.00091E+01-3.44960E-05-1.94069E-05 5.00896E-02-8.61031E-14-3.13258E-13
 -1      1359 2.00782E+01 1.71996E-04-2.20570E-04 2.56153E-02-6.00344E-14-5.59639E-13
 -1      1360 2.01092E+01-9.32660E-05-1.65300E-04 2.57256E-02-6.22311E-14-6.03017E-13
 -1      1361 2.00598E+01 1.85346E-04-6.15853E-05 5.01613E-02-1.18805E-13-2.78411E-13
 -1      1362 2.01344E+01-1.19850E-04-2.77919E-04 2.53479E-02 3.80319E-14-7.23276E-13
 -1      1363 2.01648E+01-6.48987E-04-2.67684E-04 2.52720E-02 3.26169E-16-6.49070E-13
 -1      1364 2.01101E+01-1.44754E-04-1.88029E-05 4.99460E-02-5.13365E-14-3.61154E-13
 -1      1365 2.01883E+01-9.42879E-04-3.28380E-04 2.33070E-02 2.41385E-14-5.64068E-13
 -1      1366 2.02156E+01-1.81702E-03-3.81620E-04 2.27444E-02 7.65850E-14-4.99303E-13
 -1      1367 2.01585E+01-1.29586E-03 1.53670E-04 4.72730E-02 5.67250E-14-4.98690E-13
 -1      1368 2.02346E+01-2.49456E-03-3.46510E-04 1.77019E-02 5.28701E-14-4.97288E-13
 -1      1369 2.02541E+01-3.77084E-03-4.87172E-04 1.62430E-02-6.80814E-15-4.59147E-13
 -1      1370 2.02011E+01-3.58451E-03 5.09338E-04 3.90631E-02 9.10182E-14-4.66557E-13
 -1      1371 2.02641E+01-4.95678E-03-2.93096E-04 6.25513E-03-2.95863E-14-3.88740E-13
 -1      1372 2.02682E+01-6.62599E-03-5.49603E-04 3.39312E-03 6.86473E-15-4.22922E-13
 -1      1373 2.02310E+01-7.31496E-03 1.10306E-03 2.12924E-02 2.23454E-14-3.36639E-13
 -1      1374 2.02625E+01-8.41592E-03-1.18922E-04-1.36045E-02 4.93554E-14-3.82959E-13
 -1      1375 2.02404E+01-1.03387E-02-5.22440E-04-1.84148E-02 5.51646E-14-2.88723E-13
 -1      1376 2.02373E+01-1.26580E-02 1.97367E-03-1.07732E-02 5.31018E-14-2.73809E-13
 -1      1377 2.02104E+01-1.27337E-02 2.21554E-04-4.42494E-02 2.06829E-14-3.15260E-13
 -1      1378 2.01485E+01-1.45633E-02-3.60641E-04-5.14546E-02-3.79675E-14-3.24700E-13
 -1      1379 2.02053E+01-1.94500E-02 3.11260E-03-6.18592E-02 2.56236E-14-2.73291E-13
 -1      1380 2.00842E+01-1.73804E-02 7.43198E-04-8.69492E-02-5.07545E-14-3.41367E-13
 -1      1381 1.99679E+01-1.84997E-02-4.73172E-05-9.66623E-02-4.09280E-14-4.36903E-13
 -1      1382 2.01165E+01-2.69272E-02 4.41798E-03-1.35261E-01-7.15704E-14-2.68305E-13
 -1      1383 1.98596E+01-2.12856E-02 1.39212E-03-1.40556E-01-3.46001E-14-4.12698E-13
 -1      1384 1.96763E+01-2.08142E-02 3.71164E-04-1.52238E-01-2.10806E-14-5.25878E-13
 -1      1385 1.99515E+01-3.34741E-02 5.64325E-03-2.30629E-01-8.55236E-14-3.29456E-13
 -1      1386 1.95176E+01-2.28211E-02 2.01482E-03-2.00029E-01 7.94169E-14-4.39986E-13
 -1      1387 1.92616E+01-1.97705E-02 7.57248E-04-2.12170E-01 6.36383E-14-2.79460E-13
 -1      1388 1.96940E+01-3.65648E-02 6.36749E-03-3.41252E-01 7.19078E-14-3.18457E-13
 -1      1389 1.90529E+01-2.00837E-02 2.36052E-03-2.55437E-01-1.96280E-14-2.48745E-13
 -1      1390 1.87318E+01-1.37201E-02 8.94789E-04-2.65443E-01 4.69204E-14-1.67649E-13
 -1      1391 1.93370E+01-3.31483E-02 6.03542E-03-4.51745E-01 4.64576E-14-1.21516E-13
 -1      1392 1.84845E+01-1.16057E-02 2.16119E-03-2.92485E-01-3.96522E-14-2.08854E-13
 -1      1393 1.81233E+01-1.97919E-03 5.73275E-04-2.97010E-01-1.14658E-13-3.55696E-13
 -1      1394 1.88914E+01-2.07086E-02 4.11610E-03-5.37850E-01-2.70005E-14-1.85935E-13
 -1      1395 1.78617E+01 2.60626E-03 1.28326E-03-2.95536E-01-6.89540E-14-2.86791E-13
 -1      1396 1.75040E+01 1.42005E-02-2.69443E-04-2.91467E-01 4.32256E-14-2.93132E-13
 -1      1397 1.83914E+01 1.14728E-03 4.07496E-04-5.70294E-01-1.24113E-13-1.48500E-13
 -1      1398 1.72641E+01 2.02152E-02-1.24176E-04-2.53180E-01 1.24315E-13-3.70768E-13
 -1      1399 1.69654E+01 3.12270E-02-1.41783E-03-2.39068E-01 1.22870E-14-2.38963E-13
 -1      1400 1.78965E+01 2.92723E-02-4.63447E-03-5.23587E-01 7.85288E-14-2.71617E-13
 -1      1401 1.67878E+01 3.66648E-02-1.59293E-03-1.64503E-01-9.79911E-14-2.16981E-13
 -1      1402 1.66025E+01 4.40087E-02-2.39788E-03-1.41781E-01-2.54471E-14-2.96114E-13
 -1      1403 1.74829E+01 5.68694E-02-9.78136E-03-3.87696E-01-2.59341E-16-4.47266E-13
 -1      1404 1.65212E+01 4.67032E-02-2.54421E-03-4.25632E-02 9.86260E-14-1.65392E-13
 -1      1405 1.64860E+01 4.80439E-02-2.69798E-03-1.56603E-02 6.25481E-14-9.14713E-14
 -1      1406 1.72259E+01 7.55613E-02-1.33515E-02-1.77085E-01 4.70891E-14-3.30639E-13
 -1      1407 1.65174E+01 4.68309E-02-2.61050E-03 8.80466E-02-7.15708E-14-3.52344E-14
 -1      1408 1.66391E+01 4.17237E-02-2.08421E-03 1.13110E-01-5.04475E-14-1.61829E-13
 -1      1409 1.71763E+01 7.89649E-02-1.40059E-02 6.93634E-02 4.60213E-14-2.07199E-13
 -1      1410 1.67760E+01 3.71217E-02-1.85602E-03 1.99507E-01-4.10934E-14-2.26718E-13
 -1      1411 1.70286E+01 2.72287E-02-7.65521E-04 2.17419E-01-2.65126E-14-3.07324E-13
 -1      1412 1.73437E+01 6.58496E-02-1.14900E-02 3.00039E-01-1.09289E-13-1.65837E-13
 -1      1413 1.72428E+01 2.11062E-02-7.09778E-04 2.70794E-01-7.98233E-15-3.52865E-13
 -1      1414 1.75771E+01 9.36316E-03 7.34223E-04 2.78816E-01-7.18152E-14-3.41281E-13
 -1      1415 1.76920E+01 4.07604E-02-6.76619E-03 4.68930E-01-1.00120E-13-1.42262E-13
 -1      1416 1.78290E+01 3.91478E-03 3.09887E-04 2.94088E-01-1.93305E-14-2.15819E-13
 -1      1417 1.81876E+01-6.76988E-03 1.87487E-03 2.92574E-01 5.17147E-14-1.90044E-13
 -1      1418 1.81529E+01 1.17092E-02-1.46254E-03 5.50853E-01-3.41819E-14-1.46157E-13
 -1      1419 1.84380E+01-1.00380E-02 8.66955E-04 2.74924E-01-3.28570E-14-2.57943E-13
 -1      1420 1.87710E+01-1.77942E-02 2.36185E-03 2.66493E-01-1.48388E-13-3.89959E-13
 -1      1421 1.86474E+01-1.35025E-02 2.92096E-03 5.46446E-01-1.46489E-14-2.05702E-13
 -1      1422 1.89900E+01-1.84912E-02 9.17260E-04 2.27282E-01-1.24408E-13-3.93996E-13
 -1      1423 1.92641E+01-2.27762E-02 2.22874E-03 2.15366E-01-1.06564E-13-6.10045E-13
 -1      1424 1.91073E+01-3.00577E-02 5.59805E-03 4.76381E-01-1.46510E-13-2.71606E-13
 -1      1425 1.94353E+01-2.14051E-02 6.28230E-04 1.67145E-01-1.21737E-13-6.63716E-13
 -1      1426 1.96363E+01-2.26799E-02 1.70655E-03 1.54769E-01-4.05006E-14-7.82211E-13
 -1      1427 1.94872E+01-3.69603E-02 6.52649E-03 3.69986E-01-1.90750E-13-3.13421E-13
 -1      1428 1.97553E+01-2.01204E-02 2.24695E-04 1.07719E-01 1.30366E-13-6.28845E-13
 -1      1429 1.98845E+01-1.93067E-02 1.06606E-03 9.69047E-02 1.69571E-13-4.70122E-13
 -1      1430 1.97677E+01-3.60041E-02 6.13415E-03 2.54797E-01 8.43613E-14-3.40961E-13
 -1      1431 1.99559E+01-1.63802E-02-1.23849E-04 5.74216E-02 1.22132E-13-2.61873E-13
 -1      1432 2.00247E+01-1.44150E-02 4.97655E-04 4.91592E-02 2.16221E-13-3.00486E-14
 -1      1433 1.99500E+01-3.01192E-02 4.98546E-03 1.50655E-01 2.99705E-13-9.18609E-15
 -1      1434 2.00582E+01-1.16682E-02-3.50905E-04 2.01127E-02 1.02818E-13-1.27524E-13
 -1      1435 2.00823E+01-9.27204E-03 7.82231E-05 1.46284E-02 5.46614E-14-5.37873E-14
 -1      1436 2.00488E+01-2.20459E-02 3.55464E-03 6.84834E-02 1.78160E-13-1.24130E-14
 -1      1437 2.00893E+01-6.95001E-03-4.75398E-04-3.58998E-03-2.12105E-14-1.00898E-13
 -1      1438 2.00853E+01-4.58731E-03-2.15266E-04-6.49498E-03-1.12550E-13-2.33680E-13
 -1      1439 2.00851E+01-1.36939E-02 2.14438E-03 1.19883E-02-3.40392E-14-2.37887E-13
 -1      1440 2.00770E+01-2.72830E-03-5.77576E-04-1.48820E-02-1.12362E-13-2.74888E-13
 -1      1441 2.00602E+01-6.72394E-04-4.38689E-04-1.55754E-02-6.20647E-14-4.18696E-13
 -1      1442 2.00810E+01-6.11391E-03 8.97469E-04-1.97007E-02-1.43188E-13-2.92575E-13
 -1      1443 2.00460E+01 7.81382E-04-7.10332E-04-1.57958E-02 4.74049E-14-3.96458E-13
 -1      1444 2.00290E+01 2.30079E-03-5.19212E-04-1.46600E-02 7.57397E-14-3.64085E-13
 -1      1445 2.00569E+01 3.43291E-04-7.28225E-05-2.98486E-02-4.56267E-14-1.81825E-13
 -1      1446 2.00160E+01 3.46466E-03-6.17903E-04-8.91578E-03 9.39103E-14-2.93067E-13
 -1      1447 2.00076E+01 3.45467E-03-3.49919E-05-6.76753E-03 8.12199E-14-1.99194E-13
 -1      1448 2.00289E+01 5.50450E-03-5.16009E-04-2.33072E-02 1.42631E-13-2.76404E-13
 -1      1449 1.99990E+01 6.48656E-04 4.39017E-04 9.92847E-04 1.25059E-14-4.22909E-14
 -1      1450 2.00059E+01 5.03931E-03-1.34581E-04-5.99926E-03 1.37508E-13-7.55314E-14
 -1      1451 2.07533E+01 3.27486E-01-1.76335E-01 8.49955E-01 2.29559E-13 1.73635E-12
 -1      1452 2.21405E+01 1.87743E-01-4.00715E-01 1.36311E+00 2.40516E-13 2.00898E-12
 -1      1453 1.96527E+01 9.39802E-02-1.84468E-02 3.46871E-01 1.95313E-13 1.34376E-12
 -1      1454 2.01458E+01 1.60416E-01-8.03998E-02 4.20229E-01 1.96225E-13 1.61535E-12
 -1      1455 2.10371E+01 4.14119E-01-1.02761E-01 1.33687E+00 4.05877E-13 9.98469E-13
 -1      1456 1.91158E+01 4.30974E-02 1.25900E-02 1.25260E-01 1.39264E-13 1.04315E-12
 -1      1457 1.92803E+01 6.74896E-02 1.11300E-03 1.44012E-01 1.53782E-13 1.23932E-12
 -1      1458 1.99597E+01 1.40862E-01-3.70086E-02 5.31839E-01 3.25753E-13 8.21100E-13
 -1      1459 1.89237E+01 2.02287E-02 1.12082E-02 2.24024E-02 9.55850E-14 8.12829E-13
 -1      1460 1.89480E+01 3.27173E-02 1.30312E-02 3.22239E-02 1.18797E-13 9.52970E-13
 -1      1461 1.94614E+01 5.85710E-02-9.08512E-03 1.82456E-01 2.41265E-13 6.25690E-13
 -1      1462 1.89035E+01 9.53933E-03 6.63618E-03-2.76510E-02 5.86354E-14 6.52416E-13
 -1      1463 1.88636E+01 1.65679E-02 8.96734E-03-2.28434E-02 6.24574E-14 7.43506E-13
 -1      1464 1.92418E+01 2.55751E-02-3.63369E-03 1.73747E-02 1.63538E-13 4.70122E-13
 -1      1465 1.89703E+01 3.90980E-03 3.75031E-03-5.17858E-02 2.14757E-14 5.76643E-13
 -1      1466 1.89012E+01 8.03037E-03 4.75383E-03-4.98338E-02 4.01482E-14 6.19751E-13
 -1      1467 1.91789E+01 1.09541E-02-2.25289E-03-6.43958E-02 1.02305E-13 3.75865E-13
 -1      1468 1.90730E+01 8.25993E-04 2.33624E-03-6.13257E-02 4.31260E-14 5.32971E-13
 -1      1469 1.89966E+01 3.34202E-03 2.44930E-03-6.10252E-02 2.46444E-14 5.69976E-13
 -1      1470 1.92005E+01 2.93562E-03-1.39838E-03-1.02665E-01 4.95600E-14 3.25692E-13
 -1      1471 1.91974E+01-1.24937E-03 1.51794E-03-6.31366E-02 5.77334E-14 3.96595E-13
 -1      1472 1.91161E+01 6.47709E-04 1.40359E-03-6.36984E-02 7.54154E-14 4.94402E-13
 -1      1473 1.92656E+01-8.00689E-04-6.38565E-04-1.17281E-01 1.03484E-13 2.65173E-13
 -1      1474 1.93229E+01-2.22630E-03 1.03133E-03-6.01510E-02 6.35430E-14 2.63963E-13
 -1      1475 1.92462E+01-9.29423E-04 8.09106E-04-6.12696E-02 8.27736E-14 3.63811E-13
 -1      1476 1.93534E+01-3.22539E-03-7.73360E-05-1.18422E-01 1.46348E-13 2.17370E-13
 -1      1477 1.94414E+01-2.62155E-03 7.17051E-04-5.46724E-02 3.68719E-14 1.48173E-13
 -1      1478 1.93721E+01-1.79749E-03 4.61054E-04-5.60244E-02 3.70987E-14 2.10268E-13
 -1      1479 1.94478E+01-4.32056E-03 2.82441E-04-1.11609E-01 9.53061E-14 1.45919E-13
 -1      1480 1.95486E+01-2.63268E-03 5.06678E-04-4.82012E-02 5.25528E-14 8.09422E-14
 -1      1481 1.94879E+01-2.15034E-03 2.54574E-04-4.95871E-02 4.10390E-14 1.21745E-13
 -1      1482 1.95403E+01-4.63793E-03 4.69799E-04-1.00818E-01 7.13349E-14 4.27969E-14
 -1      1483 1.96433E+01-2.38462E-03 3.69788E-04-4.17378E-02 4.44245E-14 7.20322E-15
 -1      1484 1.95910E+01-2.15440E-03 1.34730E-04-4.30205E-02 5.59470E-14 6.73793E-14
 -1      1485 1.96265E+01-4.44331E-03 5.31526E-04-8.86809E-02 8.09823E-14 2.34301E-14
 -1      1486 1.97260E+01-1.95468E-03 2.89124E-04-3.59693E-02 6.18354E-14-9.94041E-14
 -1      1487 1.96812E+01-1.91530E-03 7.31258E-05-3.70530E-02 4.99080E-14-1.93872E-14
 -1      1488 1.97046E+01-3.90282E-03 5.04356E-04-7.69679E-02 7.72155E-14-2.61904E-14
 -1      1489 1.97986E+01-1.38730E-03 2.38301E-04-3.13960E-02 2.32173E-14-1.76936E-13
 -1      1490 1.97599E+01-1.48931E-03 5.36728E-05-3.22102E-02 4.34820E-14-1.70587E-13
 -1      1491 1.97746E+01-3.11527E-03 4.10796E-04-6.69208E-02 9.15778E-14-4.63695E-14
 -1      1492 1.98613E+01-7.08720E-04 2.63882E-04-2.85469E-02 6.77714E-14-2.99482E-13
 -1      1493 1.98281E+01-9.69371E-04 4.91369E-05-2.90159E-02 3.86708E-14-2.45797E-13
 -1      1494 1.98365E+01-2.08611E-03 3.06003E-04-5.95993E-02 7.87759E-14-1.59838E-13
 -1      1495 1.99244E+01 1.73969E-04 3.19266E-04-2.75355E-02-3.36183E-14-2.16389E-13
 -1      1496 1.98911E+01-2.09023E-04 1.03599E-04-2.76198E-02 1.02485E-14-2.51923E-13
 -1      1497 1.98945E+01-9.57268E-04 8.46504E-05-5.56649E-02 4.88007E-14-1.73980E-13
 -1      1498 1.99899E+01 1.29615E-03 4.22612E-04-2.91199E-02-8.35429E-15-1.83615E-13
 -1      1499 1.99550E+01 7.42215E-04 1.63566E-04-2.86844E-02-2.75996E-14-1.97303E-13
 -1      1500 1.99536E+01 5.62536E-04-1.58763E-04-5.59613E-02-2.20943E-14-1.39785E-13
 -1      1501 2.00647E+01 2.79279E-03 5.86008E-04-3.41124E-02-3.95803E-14-2.21530E-13
 -1      1502 2.00241E+01 2.01586E-03 2.48728E-04-3.29925E-02 4.04545E-14-2.12659E-13
 -1      1503 2.00171E+01 2.54050E-03-4.74555E-04-6.19877E-02-2.37852E-15-9.87718E-14
 -1      1504 2.01584E+01 4.87902E-03 8.21859E-04-4.37711E-02-9.02853E-15-1.80870E-13
 -1      1505 2.01065E+01 3.78371E-03 3.54331E-04-4.17032E-02-2.97888E-14-1.96832E-13
 -1      1506 2.00913E+01 5.25478E-03-8.92923E-04-7.56947E-02-4.35478E-14-1.41633E-13
 -1      1507 2.02846E+01 7.89321E-03 1.14118E-03-6.00740E-02-1.44146E-14-1.08634E-13
 -1      1508 2.02131E+01 6.33003E-03 4.69978E-04-5.66359E-02-6.97630E-15-1.11221E-13
 -1      1509 2.01851E+01 9.15804E-03-1.46365E-03-1.00096E-01-3.60723E-14-8.94371E-14
 -1      1510 2.04626E+01 1.23832E-02 1.55490E-03-8.61208E-02 8.18623E-14-1.94027E-13
 -1      1511 2.03594E+01 1.01030E-02 5.64787E-04-8.06469E-02 8.36961E-14-1.11057E-13
 -1      1512 2.03105E+01 1.49776E-02-2.26137E-03-1.39895E-01 4.63648E-14 2.05840E-14
 -1      1513 2.07210E+01 1.92552E-02 1.90815E-03-1.26842E-01 6.59928E-14-3.37688E-13
 -1      1514 2.05681E+01 1.55606E-02 4.79187E-04-1.18158E-01 5.46568E-14-2.26322E-13
 -1      1515 2.04845E+01 2.39342E-02-3.37664E-03-2.02432E-01 1.24003E-13-3.83458E-14
 -1      1516 2.10806E+01 2.85861E-02 2.19669E-03-1.85729E-01-1.41376E-14-3.40158E-13
 -1      1517 2.08640E+01 2.40694E-02 2.01432E-04-1.73723E-01 7.50359E-14-3.29241E-13
 -1      1518 2.07239E+01 3.70845E-02-4.95102E-03-2.95922E-01 6.20112E-14-5.70590E-14
 -1      1519 2.16376E+01 4.28571E-02 1.61276E-03-2.79352E-01-7.37700E-14-2.87288E-13
 -1      1520 2.12951E+01 3.65523E-02-8.37464E-04-2.59026E-01-9.06293E-14-3.64785E-13
 -1      1521 2.10646E+01 5.74407E-02-7.39379E-03-4.36789E-01-6.83177E-14-5.93635E-14
 -1      1522 2.24664E+01 6.30781E-02-6.57447E-04-4.20419E-01-3.15182E-14-9.67074E-14
 -1      1523 2.19474E+01 5.55493E-02-3.44727E-03-3.89452E-01-8.93643E-14-1.77193E-13
 -1      1524 2.15643E+01 8.78687E-02-1.12501E-02-6.53130E-01-1.48814E-13-1.17679E-13
 -1      1525 2.36863E+01 8.85985E-02-6.04715E-03-6.26790E-01-1.50334E-13-3.94962E-14
 -1      1526 2.29084E+01 8.16291E-02-9.20798E-03-5.80638E-01-3.57058E-14-8.12787E-14
 -1      1527 2.22777E+01 1.31303E-01-1.68655E-02-9.71424E-01-9.36369E-14 8.60441E-14
 -1      1528 2.54359E+01 1.12545E-01-1.42787E-02-9.11275E-01 6.16174E-15 1.22236E-13
 -1      1529 2.43031E+01 1.12852E-01-1.92701E-02-8.46524E-01-6.78884E-14 5.67532E-14
 -1      1530 2.32807E+01 1.84854E-01-2.44283E-02-1.41921E+00-1.35994E-13 1.19186E-13
 -1      1531 2.78163E+01 1.10816E-01-1.75336E-02-1.25464E+00-4.69780E-14 2.51715E-13
 -1      1532 2.62635E+01 1.35940E-01-3.06773E-02-1.17628E+00 7.04384E-14 2.32703E-13
 -1      1533 2.46503E+01 2.27620E-01-3.15148E-02-1.99426E+00-2.05443E-14 2.95930E-13
 -1      1534 3.07333E+01 2.53586E-02 8.32137E-03-1.53651E+00 3.68483E-14 2.38171E-13
 -1      1535 2.88584E+01 1.09001E-01-2.69587E-02-1.47899E+00-5.88864E-14 1.78732E-13
 -1      1536 2.64359E+01 1.90415E-01-2.88039E-02-2.59051E+00-1.76126E-14 3.25920E-13
 -1      1537 3.35872E+01-2.40584E-01 9.06848E-02-1.41492E+00-5.17572E-14 2.28581E-13
 -1      1538 3.19187E+01-6.10730E-02 2.89362E-02-1.48458E+00 2.90983E-14 1.97578E-13
 -1      1539 2.86012E+01-7.87337E-02 2.41004E-03-2.85186E+00 5.29680E-14 2.44364E-13
 -1      1540 3.49622E+01-6.47883E-01 1.85308E-01-4.01379E-01 3.39589E-14 2.34673E-13
 -1      1541 3.46557E+01-4.47120E-01 1.59027E-01-7.15460E-01-1.37945E-14 2.70506E-13
 -1      1542 3.08917E+01-7.57105E-01 6.63248E-02-2.08091E+00-1.31839E-14 2.89210E-13
 -1      1543 3.33723E+01-8.66039E-01 4.46411E-02 1.80470E+00-1.24629E-13 3.31624E-13
 -1      1544 3.56805E+01-8.96432E-01 2.49375E-01 1.18216E+00-7.20327E-14 2.00673E-13
 -1      1545 3.28293E+01-1.64337E+00 7.65015E-02 5.41022E-01 6.90420E-15 4.02983E-13
 -1      1546 2.93418E+01-1.73544E-01-4.27651E-01 3.46237E+00 1.22125E-13 3.61711E-13
 -1      1547 3.33456E+01-6.73170E-01-6.62780E-03 3.21147E+00-6.57807E-15 3.35842E-13
 -1      1548 3.40443E+01-1.62041E+00 3.22510E-02 4.20896E+00-9.42024E-14 3.86525E-13
 -1      1549 2.54573E+01 1.36236E+00-9.57696E-01 2.17413E+00 2.76112E-13-7.78544E-15
 -1      1550 2.86404E+01 6.87347E-01-5.82660E-01 2.88974E+00 3.01120E-13 2.42806E-13
 -1      1551 3.37456E+01 5.04363E-01-2.58589E-01 5.44691E+00 3.34677E-13 3.32595E-13
 -1      1552 2.68123E+01 1.23634E+00-8.17309E-01-1.77645E+00 1.17573E-13-2.71450E-13
 -1      1553 2.52833E+01 1.54911E+00-1.01112E+00-8.00658E-01 7.58282E-14-9.41469E-14
 -1      1554 3.33966E+01 3.39091E+00-2.13118E-01 1.28749E+00 2.89102E-13-6.81399E-15
 -1      1555 3.12534E+01-1.29119E-01-2.74629E-01-3.39371E+00 1.94345E-13-5.44398E-13
 -1      1556 2.75351E+01 5.43637E-01-6.26374E-01-3.36026E+00 3.01370E-13-2.48024E-13
 -1      1557 3.36812E+01 1.83307E+00-2.99673E-01-4.41583E+00 3.68816E-13-3.27072E-13
 -1      1558 3.46232E+01-8.92220E-01 1.17905E-01-2.43709E+00 2.35419E-14-6.79401E-13
 -1      1559 3.16531E+01-6.56654E-01-1.56525E-01-2.88918E+00 1.24109E-13-6.30274E-13
 -1      1560 3.37220E+01-7.97168E-01-2.12382E-01-5.44787E+00 3.41088E-13-4.56149E-13
 -1      1561 3.55058E+01-7.88476E-01 2.02480E-01-3.33406E-01-2.74274E-13-4.80838E-13
 -1      1562 3.45010E+01-8.75472E-01 1.36542E-01-8.15090E-01-1.62419E-13-6.95333E-13
 -1      1563 3.36709E+01-1.79403E+00 8.28816E-02-2.61230E+00-9.55486E-15-5.63758E-13
 -1      1564 3.35658E+01-2.66569E-01 9.31138E-02 1.16400E+00-7.35939E-14-2.26832E-13
 -1      1565 3.46404E+01-4.67160E-01 1.52787E-01 9.52280E-01-1.24893E-13-3.08278E-13
 -1      1566 3.21592E+01-1.29923E+00 1.13255E-01 7.77268E-01-3.10849E-13-5.61362E-13
 -1      1567 3.05057E+01 4.03082E-02-1.53077E-03 1.55260E+00 9.97700E-14-3.58311E-13
 -1      1568 3.23764E+01-9.75386E-02 4.78973E-02 1.56021E+00 3.78586E-14-1.95524E-13
 -1      1569 2.98868E+01-4.09684E-01 4.58063E-02 2.58569E+00 2.62637E-14-1.98667E-13
 -1      1570 2.75814E+01 1.32516E-01-2.92829E-02 1.37397E+00-3.38445E-15-4.13752E-13
 -1      1571 2.93502E+01 7.32248E-02-1.05129E-02 1.44556E+00 4.72695E-14-3.98959E-13
 -1      1572 2.75663E+01 8.24357E-02-1.10179E-02 2.81458E+00 1.58723E-13-3.72688E-14
 -1      1573 2.52370E+01 1.30065E-01-2.27496E-02 1.04320E+00-4.51427E-14-3.42289E-13
 -1      1574 2.66052E+01 1.11867E-01-2.06090E-02 1.11398E+00-1.06463E-13-3.64583E-13
 -1      1575 2.55354E+01 2.27104E-01-2.81298E-02 2.34948E+00-7.82360E-15 5.99278E-14
 -1      1576 2.35748E+01 1.00984E-01-1.32008E-02 7.52865E-01-9.33975E-14-1.37494E-14
 -1      1577 2.45162E+01 1.02208E-01-1.21106E-02 8.02872E-01-1.36384E-14-3.62071E-13
 -1      1578 2.39415E+01 2.15999E-01-2.70723E-02 1.76071E+00-9.82409E-14 2.08777E-13
 -1      1579 2.23204E+01 7.07583E-02-5.64244E-03 5.18210E-01-1.34996E-14 1.56914E-13
 -1      1580 2.30028E+01 7.48283E-02-5.67064E-03 5.55141E-01-1.01854E-13 2.22010E-14
 -1      1581 2.27324E+01 1.68582E-01-1.76378E-02 1.25616E+00-2.11463E-13 1.72360E-13
 -1      1582 2.14510E+01 4.78488E-02-1.52395E-03 3.53106E-01-1.20685E-14 2.45642E-13
 -1      1583 2.19126E+01 5.25732E-02-7.33268E-04 3.77295E-01 1.03546E-14 2.67697E-13
 -1      1584 2.18197E+01 1.17306E-01-1.15140E-02 8.66751E-01-8.61741E-14 1.45033E-13
 -1      1585 2.08524E+01 3.27246E-02 7.75127E-05 2.39854E-01 1.75515E-13-1.15131E-13
 -1      1586 2.11630E+01 3.61187E-02 1.22316E-03 2.55893E-01 2.01501E-13 1.16740E-13
 -1      1587 2.11662E+01 7.92214E-02-7.47421E-03 5.92909E-01 1.54256E-13-1.29849E-13
 -1      1588 2.04470E+01 2.42168E-02 2.78187E-04 1.59758E-01 5.03794E-14-2.59102E-13
 -1      1589 2.06520E+01 2.60612E-02 1.44843E-03 1.71435E-01 7.40757E-14-1.24876E-13
 -1      1590 2.07047E+01 5.47358E-02-5.26246E-03 4.02182E-01 1.47980E-13-2.63336E-13
 -1      1591 2.01880E+01 2.09263E-02-3.15604E-04 9.60512E-02-2.39522E-13 6.10414E-14
 -1      1592 2.03116E+01 2.14490E-02 5.27028E-04 1.07183E-01-1.91373E-13-2.02251E-13
 -1      1593 2.03841E+01 4.15020E-02-4.88162E-03 2.63709E-01-1.16595E-13-2.05126E-13
 -1      1594 2.00491E+01 1.87303E-02 8.63666E-04 3.94011E-02-1.77504E-13 3.16839E-13
 -1      1595 2.01032E+01 2.27175E-02 1.46972E-04 5.10688E-02-1.89084E-13 6.86627E-14
 -1      1596 2.01759E+01 3.70437E-02-3.86570E-03 1.50296E-01-3.58956E-13-1.49446E-13
 -1      1597 2.00000E+01 4.94707E-03 3.07001E-03-3.38233E-03 1.96643E-13 1.95791E-13
 -1      1598 2.00176E+01 9.89615E-02-3.00123E-03 5.46432E-02-1.88461E-13-2.38787E-13
 -1      1599 2.00178E+01 4.86252E-02 6.40845E-05 3.97944E-02 2.75472E-13-3.86474E-13
 -1      1600 2.00067E+01 2.72349E-01-1.76670E-03 9.01686E-02-5.68962E-13 9.22635E-14
 -1      1601 2.00124E+01 1.72745E-01-2.05254E-03 8.38785E-02-3.56676E-13-1.57494E-13
 -1      1602 2.00276E+01 1.69335E-01-2.71989E-03 1.35488E-01-1.17161E-13-5.77327E-13
 -1      1603 1.99956E+01 4.74055E-01-1.82087E-04 9.83186E-02-8.59012E-13-2.67597E-13
 -1      1604 2.00016E+01 3.59062E-01-8.43444E-04 9.91538E-02-5.79154E-13-1.15199E-15
 -1      1605 2.00092E+01 3.28885E-01-6.17354E-04 1.82416E-01-2.23046E-13-7.98253E-14
 -1      1606 1.99877E+01 6.51758E-01 7.51951E-04 7.96029E-02-5.12994E-13 2.58234E-13
 -1      1607 1.99919E+01 5.53940E-01 2.08106E-04 8.54379E-02-9.28931E-13 7.09573E-14
 -1      1608 1.99911E+01 4.96300E-01 2.25969E-03 1.76195E-01-2.32106E-13-1.88862E-13
 -1      1609 1.99845E+01 7.64228E-01 1.02146E-03 4.45241E-02-2.32190E-13 2.99106E-13
 -1      1610 1.99861E+01 7.06197E-01 6.35151E-04 5.25612E-02-4.91693E-13 1.70492E-13
 -1      1611 1.99794E+01 6.30098E-01 4.24551E-03 1.26540E-01-5.05196E-13 2.85005E-13
 -1      1612 1.99854E+01 7.97714E-01 8.47969E-04 3.77712E-03 2.30026E-13 9.71510E-14
 -1      1613 1.99848E+01 7.85988E-01 6.55049E-04 1.19682E-02 4.33458E-14 2.28448E-13
 -1      1614 1.99751E+01 7.04768E-01 4.76994E-03 5.37700E-02-1.20658E-13 3.75883E-13
 -1      1615 1.99892E+01 7.53241E-01 4.34020E-04-3.18444E-02 7.19580E-13 2.53087E-13
 -1      1616 1.99871E+01 7.84723E-01 3.65040E-04-2.55333E-02 4.83106E-13 1.76708E-13
 -1      1617 1.99775E+01 7.11192E-01 4.13581E-03-2.14505E-02 1.81299E-13 3.27439E-13
 -1      1618 1.99944E+01 6.50631E-01 7.96701E-06-5.58989E-02 1.21833E-12 3.39772E-13
 -1      1619 1.99915E+01 7.12659E-01 3.16533E-05-5.23384E-02 9.11181E-13 4.31179E-13
 -1      1620 1.99841E+01 6.55592E-01 2.74457E-03-8.16039E-02 4.90780E-13 5.46789E-13
 -1      1621 1.99992E+01 5.16652E-01-3.00904E-04-6.64137E-02 1.20634E-12 1.01244E-13
 -1      1622 1.99965E+01 5.93458E-01-2.15218E-04-6.55888E-02 1.22716E-12 1.01427E-13
 -1      1623 1.99923E+01 5.56499E-01 1.14038E-03-1.17711E-01 7.23410E-13 2.82966E-13
 -1      1624 2.00027E+01 3.77193E-01-4.32665E-04-6.50604E-02 3.63741E-13-4.33619E-13
 -1      1625 2.00007E+01 4.54349E-01-3.16192E-04-6.63421E-02 9.50067E-13-2.52494E-13
 -1      1626 1.99998E+01 4.36608E-01-2.45901E-04-1.28802E-01 4.94126E-13-4.11835E-13
 -1      1627 2.00046E+01 2.53602E-01-4.07095E-04-5.58692E-02-2.81880E-13-1.93872E-13
 -1      1628 2.00035E+01 3.20024E-01-2.60904E-04-5.82648E-02 2.07341E-13-3.79800E-13
 -1      1629 2.00050E+01 3.17545E-01-1.17748E-03-1.19940E-01 1.79719E-13-8.35777E-13
 -1      1630 2.00050E+01 1.52435E-01-3.01723E-04-4.27672E-02-1.01988E-13 1.56496E-13
 -1      1631 2.00047E+01 2.05101E-01-1.51346E-04-4.55537E-02-3.24724E-13 2.32897E-13
 -1      1632 2.00075E+01 2.12931E-01-1.57680E-03-9.89480E-02 6.96563E-14 7.95262E-15
 -1      1633 2.00046E+01 7.95000E-02-1.87930E-04-2.93812E-02 1.22087E-13 1.75243E-13
 -1      1634 2.00046E+01 1.16133E-01-3.24532E-05-3.18568E-02-7.39860E-16 1.58748E-13
 -1      1635 2.00080E+01 1.29593E-01-1.58592E-03-7.30997E-02 9.28003E-14 4.24721E-13
 -1      1636 2.00043E+01 3.39379E-02 2.50979E-04-1.77642E-02 1.34709E-13-8.27454E-14
 -1      1637 2.00036E+01 5.49932E-02-1.23683E-04-1.94654E-02 2.29449E-13 2.83790E-15
 -1      1638 2.00075E+01 7.01866E-02-1.23782E-03-4.79429E-02 1.12689E-13 8.72604E-14
 -1      1639 2.00057E+01 1.32009E-02 6.07224E-04-1.08663E-02 1.52036E-13-5.33731E-14
 -1      1640 2.00058E+01 2.19148E-02-8.66787E-05-1.40266E-02 1.83993E-13-1.28441E-13
 -1      1641 2.00102E+01 3.63496E-02-3.99292E-04-3.13097E-02 6.98135E-14 1.94219E-14
 -1      1642 2.00144E+01 1.60291E-02-4.26479E-04-2.17494E-02 1.43709E-13-1.41155E-13
 -1      1643-1.22297E+00-1.80264E+01-1.94952E+00-2.48439E+00-3.09974E-13-1.21680E-13
 -1      1644-9.24357E-01-1.89185E+01-1.92938E+00-7.10730E-01-3.70995E-13-3.31402E-14
 -1      1645-3.70303E-01-1.26583E+01-1.79048E+00-2.13854E+00 5.38458E-14 2.33438E-13
 -1      1646-4.96894E-01-1.72346E+01-2.10285E+00-1.98989E+00-3.04423E-13 1.75679E-13
 -1      1647 5.32157E+00-4.82381E+00-1.23585E+00 2.04845E+00 7.16316E-13 1.01874E-12
 -1      1648 2.64191E+00-1.06312E+01-1.85163E+00-4.72985E-01 2.98317E-13 4.78784E-13
 -1      1649 1.56914E+01 1.75614E+00-5.01495E-01 7.34705E+00 1.13110E-12 1.54388E-12
 -1      1650 9.18105E+00-2.81509E+00-1.47559E+00 3.25472E+00 8.89955E-13 1.12843E-12
 -1      1651 3.41018E+01 4.45849E+00 7.71601E-01 1.16114E+01 9.94649E-13 1.62625E-12
 -1      1652 2.25001E+01 2.64212E+00-5.75908E-01 8.17155E+00 1.26721E-12 1.50924E-12
 -1      1653 5.36880E+01 4.32629E+00 2.16409E+00 1.05762E+01 7.28140E-13 1.24944E-12
 -1      1654 4.10932E+01 5.25881E+00 8.47089E-01 1.10905E+01 9.88765E-13 1.48948E-12
 -1      1655 6.66927E+01 3.78258E+00 3.25963E+00 3.13074E+00 3.94962E-13 3.09863E-13
 -1      1656 5.87185E+01 5.05413E+00 2.39225E+00 8.55514E+00 7.14373E-13 9.98757E-13
 -1      1657 6.56079E+01 4.24951E+00 3.04267E+00-5.09644E+00 3.60545E-13-4.07674E-13
 -1      1658 6.80321E+01 3.86487E+00 3.30492E+00 1.15969E+00 2.79943E-13 5.45050E-14
 -1      1659 5.29681E+01 5.31610E+00 1.91573E+00-1.04514E+01 4.73538E-13-7.94920E-13
 -1      1660 6.28843E+01 3.93253E+00 2.97538E+00-7.12906E+00 3.04076E-13-5.02820E-13
 -1      1661 3.37024E+01 4.68785E+00 2.56576E-01-1.03727E+01 8.12128E-13-1.07470E-12
 -1      1662 4.69830E+01 4.56122E+00 1.71229E+00-1.15832E+01 5.47340E-13-8.79519E-13
 -1      1663 1.69308E+01 7.92513E-01-9.85637E-01-6.33496E+00 1.17484E-12-1.11400E-12
 -1      1664 2.66679E+01 3.78092E+00 2.52111E-01-1.03757E+01 8.82405E-13-1.21214E-12
 -1      1665 6.28174E+00-6.22629E+00-1.65798E+00-1.48182E+00 1.32494E-12-9.27147E-13
 -1      1666 1.14104E+01-8.31875E-01-8.15920E-01-5.26840E+00 1.26077E-12-9.88098E-13
 -1      1667 6.36111E-01-1.35710E+01-2.05597E+00 1.72547E+00 9.08384E-13-7.96641E-13
 -1      1668 1.88601E+00-7.99739E+00-1.56740E+00 2.87271E-01 1.35247E-12-1.16751E-12
 -1      1669-7.48489E-01-1.83839E+01-2.01080E+00 1.60858E+00 2.07612E-13-3.12556E-13
 -1      1670-9.83681E-01-1.51623E+01-1.88579E+00 2.65622E+00 7.06435E-13-4.87659E-13
 -1      1671-8.22577E-01-1.68358E+01-1.59387E+00 3.29931E-01-4.60743E-13-2.66509E-13
 -1      1672-1.05486E+00-1.75326E+01-1.72889E+00 2.03652E+00 5.23956E-14-3.88245E-13
 -1      1673 1.28510E-01-1.22268E+01-1.35609E+00 9.95269E-02-1.01696E-12-4.52513E-13
 -1      1674-1.47345E-01-1.67279E+01-1.75511E+00 8.56586E-01-6.45706E-13-2.61346E-13
 -1      1675 4.20713E+00-3.81650E+00-7.59599E-01 3.18007E+00-1.03761E-12-4.47309E-13
 -1      1676 2.31590E+00-1.01194E+01-1.43631E+00 1.27925E+00-1.11866E-12-3.79197E-13
 -1      1677 1.16234E+01 3.63508E+00-1.24460E-01 7.91820E+00-7.38520E-13-5.13145E-13
 -1      1678 7.06219E+00-1.24322E+00-9.22533E-01 4.33693E+00-1.03961E-12-5.06262E-13
 -1      1679 2.44652E+01 6.77671E+00 5.76846E-01 1.23458E+01-6.45706E-13-1.17062E-12
 -1      1680 1.68302E+01 4.68534E+00-2.37981E-01 9.08549E+00-5.56333E-13-8.05800E-13
 -1      1681 3.88307E+01 7.19158E+00 1.24567E+00 1.37739E+01-7.21090E-13-1.49880E-12
 -1      1682 2.95183E+01 7.78896E+00 4.78057E-01 1.28415E+01-7.26308E-13-1.27609E-12
 -1      1683 5.16020E+01 5.32229E+00 1.71996E+00 1.06023E+01-4.99718E-13-1.03118E-12
 -1      1684 4.37253E+01 7.17188E+00 1.17785E+00 1.31338E+01-7.56256E-13-1.32649E-12
 -1      1685 5.83846E+01 3.75323E+00 1.85715E+00 3.00039E+00-2.18575E-13-3.63792E-13
 -1      1686 5.47274E+01 4.94956E+00 1.66731E+00 8.33212E+00-4.30878E-13-7.55174E-13
 -1      1687 5.58847E+01 4.58220E+00 1.64483E+00-5.69077E+00-1.41831E-14-1.41220E-13
 -1      1688 5.79583E+01 3.97298E+00 1.77607E+00 3.86469E-02-3.31957E-14-1.19661E-13
 -1      1689 4.76272E+01 6.48760E+00 1.33771E+00-1.20681E+01-2.02532E-13 2.22045E-14
 -1      1690 5.42815E+01 4.65839E+00 1.75165E+00-8.52937E+00-5.61079E-14-9.73666E-14
 -1      1691 3.37975E+01 7.86845E+00 6.96662E-01-1.33039E+01-8.76466E-13 5.74651E-13
 -1      1692 4.31519E+01 6.64543E+00 1.40039E+00-1.31822E+01-4.95715E-13 1.45439E-14
 -1      1693 2.03999E+01 6.26861E+00-1.03695E-02-1.06211E+01-1.14164E-12 9.47686E-13
 -1      1694 2.85617E+01 7.39289E+00 7.86854E-01-1.33074E+01-9.12603E-13 9.51017E-13
 -1      1695 9.81012E+00 1.38570E+00-7.06840E-01-6.00113E+00-1.25411E-12 9.01723E-13
 -1      1696 1.53706E+01 5.27793E+00 1.08012E-01-9.66712E+00-1.14064E-12 1.09557E-12
 -1      1697 3.68693E+00-6.27391E+00-1.27047E+00-2.03276E+00-1.18483E-12 6.58806E-13
 -1      1698 6.28020E+00-6.47328E-01-5.62534E-01-4.59987E+00-1.28408E-12 1.00431E-12
 -1      1699 7.79014E-01-1.38510E+01-1.66946E+00-5.45271E-01-5.48339E-13 3.99358E-13
 -1      1700 1.54774E+00-8.51474E+00-1.14825E+00-1.07168E+00-1.07070E-12 8.02775E-13
 -1      1701-6.63449E-01-1.86801E+01-1.95158E+00-1.04090E+00-4.27047E-13 2.42029E-13
 -1      1702-5.18525E-01-1.57301E+01-1.65490E+00 3.13604E-01-6.01075E-13 1.70808E-13
 -1      1703 2.29475E+01 1.98762E+00-2.67894E-02 2.77350E+00 2.90466E-13 1.61937E-12
 -1      1704 1.32735E+01-6.65719E+00-9.00391E-01 4.77421E+00 1.51767E-13 9.85489E-13
 -1      1705 2.00351E+01 2.93296E-02-1.42675E-03 3.85804E-02 1.39434E-13-3.11093E-13
 -1      1706-8.34125E-01-1.26414E+01-1.45374E+00 3.80046E-01-1.47660E-13 1.76470E-13
 -1      1707 4.41002E+00-1.00697E+01-1.21892E+00 2.87320E+00 1.15463E-14 6.74794E-13
 -1      1708-1.80215E+00-1.29325E+01-1.41306E+00-1.47822E+00-2.95819E-13 9.31477E-14
 -1      1709 2.58062E+01-2.85267E+00-1.89822E-01 5.75689E+00 4.49307E-13 9.52793E-13
 -1      1710 4.05068E+01 1.00986E+00 1.00691E+00 4.37453E+00 6.34381E-13 8.34888E-13
 -1      1711 5.11638E+01 5.14203E+00 1.93821E+00 1.57390E+00 7.58116E-13 4.60965E-13
 -1      1712 5.61934E+01 8.31807E+00 2.68895E+00 1.95333E-01 6.17506E-13 8.85403E-15
 -1      1713 5.49010E+01 7.45835E+00 2.48898E+00-7.11970E-01 4.74620E-13-4.96270E-14
 -1      1714 4.78608E+01 3.54092E+00 1.62669E+00-3.15408E+00 4.89865E-13-3.79918E-13
 -1      1715 3.46997E+01-6.58387E-01 3.57672E-01-5.09815E+00 5.65437E-13-5.05818E-13
 -1      1716 2.10730E+01-4.66083E+00-4.96761E-01-5.42102E+00 6.20171E-13-4.44089E-13
 -1      1717 9.41332E+00-8.08214E+00-1.02074E+00-4.09228E+00 6.71019E-13-6.74960E-13
 -1      1718 1.57799E+00-1.14184E+01-1.41466E+00-1.61022E+00 4.23106E-13-8.88234E-13
 -1      1719-1.45104E+00-1.19436E+01-1.27881E+00 3.33247E-01 3.09752E-14-6.03628E-13
 -1      1720-9.85787E-01-1.11770E+01-1.15170E+00 2.36055E+00-2.75890E-13-5.05596E-13
 -1      1721 3.09943E+00-9.01147E+00-9.55706E-01 4.70380E+00-5.33351E-13-4.73122E-13
 -1      1722 1.01265E+01-4.86038E+00-5.61866E-01 6.55571E+00-7.34079E-13-2.41696E-13
 -1      1723 1.97761E+01-3.98160E-01 3.50465E-02 8.12667E+00-4.77063E-13-6.14286E-13
 -1      1724 3.02055E+01 2.99911E+00 5.12743E-01 8.30741E+00-3.59768E-13-1.08735E-12
 -1      1725 3.99501E+01 5.92401E+00 1.03553E+00 7.55184E+00-5.49262E-13-7.39853E-13
 -1      1726 4.75793E+01 7.36886E+00 1.45440E+00 4.96913E+00-5.62800E-13-4.36484E-13
 -1      1727 4.99850E+01 8.04367E+00 1.52427E+00 8.11610E-01-3.08753E-13-1.33143E-13
 -1      1728 4.82646E+01 7.83484E+00 1.46248E+00-3.50385E+00-2.02838E-13-7.85483E-14
 -1      1729 4.25933E+01 6.49596E+00 1.19561E+00-6.77986E+00-5.45168E-13 9.73666E-14
 -1      1730 3.33082E+01 4.14330E+00 7.03814E-01-8.30331E+00-8.03524E-13 1.22236E-13
 -1      1731 2.29426E+01 1.05075E+00 1.95340E-01-8.48794E+00-7.39964E-13 4.93050E-13
 -1      1732 1.31706E+01-2.98099E+00-3.79819E-01-7.14527E+00-7.70273E-13 7.87148E-13
 -1      1733 5.70038E+00-7.40165E+00-8.49211E-01-5.29885E+00-5.42677E-13 7.40706E-13
 -1      1734 5.84864E-01-1.09673E+01-1.18818E+00-3.50736E+00-4.98268E-13 4.79283E-13
 -1      1735 2.28644E+01 1.98540E+00-2.35302E-02-2.72397E+00-3.05901E-13 1.27814E-12
 -1      1736 1.98235E+01 3.71945E+00-3.49149E-02-2.15752E+00-4.00603E-13-3.85171E-13
 -1      1737 2.00531E+01 3.56150E+00-4.29553E-02-2.44399E+00-4.61886E-13-2.50688E-13
 -1      1738 2.03672E+01 3.18315E+00-4.52363E-02-2.58729E+00-4.55147E-13-8.11504E-14
 -1      1739 2.05865E+01 2.81000E+00-1.42677E-01-2.85545E+00-4.84345E-13 1.56569E-13
 -1      1740 2.04319E+01 2.69207E+00-2.99978E-03-2.22368E+00-4.76805E-13-1.44426E-13
 -1      1741 1.93552E+01 4.19021E+00-2.01808E-02-1.27332E+00-2.33255E-13-6.11455E-13
 -1      1742 1.94288E+01 4.15045E+00-1.71564E-02-1.49761E+00-2.75896E-13-5.86923E-13
 -1      1743 1.92581E+01 4.29616E+00-1.67958E-02-8.62823E-01-1.47117E-13-6.46162E-13
 -1      1744 1.93010E+01 4.27216E+00-1.43366E-02-1.07340E+00-1.90562E-13-6.32744E-13
 -1      1745 1.95268E+01 3.78460E+00-9.27312E-03-1.12234E+00-2.33716E-13-5.96889E-13
 -1      1746 1.92061E+01 4.35686E+00-1.47910E-02-4.70386E-01-5.08533E-14-6.40153E-13
 -1      1747 1.92283E+01 4.34392E+00-1.33002E-02-6.70450E-01-9.22630E-14-6.43305E-13
 -1      1748 1.94291E+01 3.90525E+00-9.22034E-03-7.36351E-01-1.27926E-13-6.10581E-13
 -1      1749 1.91862E+01 4.38293E+00-1.36457E-02-8.77602E-02 3.29748E-14-6.47933E-13
 -1      1750 1.91929E+01 4.37885E+00-1.31788E-02-2.82892E-01-6.23042E-15-6.48433E-13
 -1      1751 1.93783E+01 3.97018E+00-9.15638E-03-3.61817E-01-2.94479E-14-6.23682E-13
 -1      1752 1.91936E+01 4.37837E+00-1.31302E-02 2.93305E-01 1.07226E-13-6.26613E-13
 -1      1753 1.91864E+01 4.38255E+00-1.36957E-02 9.81102E-02 7.29900E-14-6.40890E-13
 -1      1754 1.93629E+01 3.99027E+00-9.14061E-03 6.57488E-03 5.85882E-14-6.24022E-13
 -1      1755 1.92300E+01 4.34238E+00-1.32601E-02 6.81166E-01 1.84228E-13-6.03694E-13
 -1      1756 1.92073E+01 4.35556E+00-1.48292E-02 4.80913E-01 1.46517E-13-6.15868E-13
 -1      1757 1.93796E+01 3.96858E+00-9.18453E-03 3.75084E-01 1.33579E-13-6.01305E-13
 -1      1758 1.93023E+01 4.27104E+00-1.42766E-02 1.07770E+00 2.56034E-13-5.57486E-13
 -1      1759 1.92596E+01 4.29456E+00-1.68318E-02 8.70495E-01 2.16270E-13-5.84692E-13
 -1      1760 1.94313E+01 3.90269E+00-9.19977E-03 7.46689E-01 2.20614E-13-5.73515E-13
 -1      1761 1.94323E+01 4.14767E+00-1.70600E-02 1.50607E+00 3.55340E-13-4.70266E-13
 -1      1762 1.93568E+01 4.18834E+00-2.02272E-02 1.27777E+00 3.05011E-13-5.21855E-13
 -1      1763 1.95294E+01 3.78143E+00-9.25322E-03 1.12991E+00 3.04225E-13-5.15359E-13
 -1      1764 1.96584E+01 3.93738E+00-2.46003E-02 1.96853E+00 4.37980E-13-3.20823E-13
 -1      1765 1.95277E+01 4.01167E+00-2.61487E-02 1.71344E+00 3.89791E-13-4.10963E-13
 -1      1766 1.97004E+01 3.57876E+00-8.76382E-03 1.52933E+00 3.99003E-13-4.03720E-13
 -1      1767 2.00661E+01 3.54831E+00-4.35048E-02 2.45416E+00 5.00669E-13-5.60871E-14
 -1      1768 1.98324E+01 3.71004E+00-3.51011E-02 2.16819E+00 4.57231E-13-2.16684E-13
 -1      1769 1.99890E+01 3.24740E+00-5.20383E-03 1.92685E+00 4.74323E-13-2.34415E-13
 -1      1770 2.06120E+01 2.79370E+00-1.38135E-01 2.87016E+00 4.93130E-13 4.07653E-13
 -1      1771 2.03842E+01 3.16323E+00-4.57990E-02 2.59990E+00 4.78785E-13 1.42587E-13
 -1      1772 2.04694E+01 2.67022E+00 4.47875E-03 2.24078E+00 5.12701E-13 5.53793E-14
 -1      1773 1.99651E+01-5.73292E+00-2.02046E-01 5.66945E+00 8.88178E-16 7.78766E-13
 -1      1774 1.46164E+01-7.21584E+00-4.72940E-01 5.05289E+00-5.37348E-14 6.96415E-13
 -1      1775 2.18013E+01 2.45874E+00 9.09415E-02-3.05013E+00-4.15870E-13 5.65228E-13
 -1      1776 2.18341E+01 2.47484E+00 8.92693E-02 3.09030E+00 4.09190E-13 8.30905E-13
 -1      1777 2.05238E+01 5.01042E-01 3.24944E-02-9.22787E-01-3.49536E-13 3.15104E-13
 -1      1778 2.00920E+01 3.52337E-01 7.72841E-03-6.30753E-01-3.19850E-13 2.19804E-13
 -1      1779 1.98969E+01 2.57621E-01 2.74237E-02-3.92141E-01-3.08697E-13 2.10245E-13
 -1      1780 1.97058E+01 1.78332E-01 1.04432E-02-2.54092E-01-2.74601E-13 1.15432E-13
 -1      1781 2.02012E+01 4.83774E-01-5.92484E-03-7.23980E-01-3.66542E-13 2.51231E-14
 -1      1782 1.95837E+01 1.32867E-01 1.66633E-02-1.20471E-01-2.26884E-13 1.03180E-13
 -1      1783 1.95054E+01 9.33006E-02 6.99452E-03-4.95641E-02-1.77887E-13 3.62757E-14
 -1      1784 1.98750E+01 2.44312E-01-5.74144E-03-2.96439E-01-2.97233E-13-1.20732E-14
 -1      1785 1.94405E+01 6.86729E-02 8.69017E-03 2.41520E-02-1.49124E-13-6.42715E-16
 -1      1786 1.94259E+01 4.70074E-02 4.11269E-03 6.04900E-02-1.36467E-13-3.15993E-14
 -1      1787 1.96922E+01 1.25531E-01-4.67713E-03-5.92559E-02-2.07146E-13-5.71381E-14
 -1      1788 1.94000E+01 3.26764E-02 4.24406E-03 9.94327E-02-1.33545E-13-4.08469E-14
 -1      1789 1.94198E+01 2.02580E-02 2.45073E-03 1.16383E-01-1.27150E-13-8.95887E-14
 -1      1790 1.96057E+01 6.13826E-02-3.48462E-03 7.08264E-02-1.62623E-13-1.47026E-13
 -1      1791 1.94183E+01 1.16549E-02 1.86837E-03 1.34564E-01-1.26189E-13-1.01389E-13
 -1      1792 1.94556E+01 4.53611E-03 1.48127E-03 1.40214E-01-1.05768E-13-1.30750E-13
 -1      1793 1.95817E+01 2.45491E-02-2.35838E-03 1.37773E-01-1.41340E-13-1.35972E-13
 -1      1794 1.94685E+01-5.89823E-04 5.72420E-04 1.45955E-01-9.46227E-14-8.69149E-14
 -1      1795 1.95133E+01-4.47222E-03 8.83182E-04 1.45052E-01-6.83612E-14-9.61024E-14
 -1      1796 1.95958E+01 3.19077E-03-1.46112E-03 1.66786E-01-1.00832E-13-1.37856E-13
 -1      1797 1.95338E+01-7.36308E-03-1.43488E-04 1.43527E-01-8.47341E-14-9.66733E-14
 -1      1798 1.95801E+01-9.18455E-03 5.05861E-04 1.39048E-01-8.09861E-14-1.09546E-13
 -1      1799 1.96313E+01-8.79231E-03-8.21853E-04 1.73130E-01-8.38659E-14-1.33845E-13
 -1      1800 1.96041E+01-1.05914E-02-5.23301E-04 1.33608E-01-8.38067E-14-1.19509E-13
 -1      1801 1.96486E+01-1.10749E-02 2.76114E-04 1.27491E-01-6.51019E-14-1.49848E-13
 -1      1802 1.96775E+01-1.48028E-02-3.98369E-04 1.66497E-01-9.48022E-14-1.47256E-13
 -1      1803 1.96733E+01-1.14868E-02-6.96342E-04 1.20355E-01-6.88196E-14-1.66259E-13
 -1      1804 1.97144E+01-1.11036E-02 1.50613E-04 1.13875E-01-6.20102E-14-1.88855E-13
 -1      1805 1.97275E+01-1.69131E-02-1.36097E-04 1.53245E-01-9.64057E-14-1.64436E-13
 -1      1806 1.97385E+01-1.08553E-02-7.39689E-04 1.06513E-01-7.18926E-14-2.24673E-13
 -1      1807 1.97756E+01-9.92633E-03 9.90704E-05 1.00503E-01-5.90660E-14-2.44377E-13
 -1      1808 1.97774E+01-1.64717E-02 1.09381E-05 1.37591E-01-1.00297E-13-2.04800E-13
 -1      1809 1.97984E+01-9.25681E-03-7.03264E-04 9.38671E-02-4.97279E-14-2.43277E-13
 -1      1810 1.98318E+01-8.01145E-03 9.76712E-05 8.88477E-02-4.59883E-15-2.24137E-13
 -1      1811 1.98251E+01-1.44003E-02 7.76718E-05 1.22317E-01-6.60534E-14-2.22117E-13
 -1      1812 1.98531E+01-7.10237E-03-6.21088E-04 8.35188E-02-2.39611E-14-2.98536E-13
 -1      1813 1.98834E+01-5.71998E-03 1.25308E-04 7.97759E-02-5.76104E-14-2.68747E-13
 -1      1814 1.98699E+01-1.13642E-02 9.01942E-05 1.09191E-01-4.31623E-14-2.38391E-13
 -1      1815 1.99036E+01-4.72538E-03-5.17254E-04 7.60419E-02-4.96062E-14-2.97995E-13
 -1      1816 1.99315E+01-3.36986E-03 1.60427E-04 7.36643E-02 1.01761E-14-2.47301E-13
 -1      1817 1.99119E+01-7.88885E-03 6.84522E-05 9.92219E-02-6.58926E-14-2.84938E-13
 -1      1818 1.99509E+01-2.44333E-03-4.09651E-04 7.15508E-02 5.66831E-15-2.41084E-13
 -1      1819 1.99774E+01-1.29578E-03 1.78014E-04 7.04305E-02-3.48576E-14-2.32500E-13
 -1      1820 1.99520E+01-4.45613E-03 2.85929E-05 9.27880E-02-2.01135E-14-2.38051E-13
 -1      1821 1.99966E+01-6.16952E-04-3.12524E-04 6.96857E-02-4.40670E-14-2.56106E-13
 -1      1822 2.00224E+01 9.23273E-05 1.46816E-04 6.94840E-02-5.09155E-14-2.65656E-13
 -1      1823 1.99910E+01-1.59378E-03-1.50408E-05 8.96599E-02-9.01658E-14-2.33320E-13
 -1      1824 2.00417E+01 2.92507E-04-2.38276E-04 6.95204E-02-9.98395E-14-2.31212E-13
 -1      1825 2.00669E+01 2.54906E-04 2.73713E-05 6.96016E-02-1.19699E-13-2.15770E-13
 -1      1826 2.00298E+01 3.83632E-05-4.81711E-05 8.89212E-02-7.02888E-14-2.48610E-13
 -1      1827 2.00866E+01-3.25847E-04-1.98613E-04 6.94008E-02-1.78017E-13-2.18952E-13
 -1      1828 2.01110E+01-1.51612E-03-2.28047E-04 6.87413E-02-8.82552E-14-2.87483E-13
 -1      1829 2.00690E+01-4.27202E-04-5.50094E-05 8.88018E-02-1.60729E-13-1.79480E-13
 -1      1830 2.01307E+01-3.25723E-03-2.05032E-04 6.67365E-02 6.42718E-14-3.66593E-13
 -1      1831 2.01528E+01-6.09725E-03-6.71689E-04 6.38278E-02 9.83215E-14-3.58884E-13
 -1      1832 2.01086E+01-4.10919E-03-1.68628E-05 8.64450E-02-8.63671E-14-2.87136E-13
 -1      1833 2.01718E+01-9.43067E-03-2.68588E-04 5.78002E-02 1.27227E-13-3.51773E-13
 -1      1834 2.01887E+01-1.44542E-02-1.35024E-03 5.05865E-02 7.33632E-14-3.62553E-13
 -1      1835 2.01474E+01-1.23477E-02 8.88833E-05 7.76637E-02 1.11012E-13-3.33753E-13
 -1      1836 2.02054E+01-1.97853E-02-3.98917E-04 3.76375E-02 3.65562E-14-2.38886E-13
 -1      1837 2.02126E+01-2.74268E-02-2.28556E-03 2.35584E-02 7.73642E-14-1.82698E-13
 -1      1838 2.01829E+01-2.65344E-02 2.88967E-04 5.67924E-02 1.32888E-13-2.47466E-13
 -1      1839 2.02240E+01-3.49710E-02-6.02540E-04 2.66463E-04 1.62147E-14-1.89888E-13
 -1      1840 2.02151E+01-4.53139E-02-3.44482E-03-2.34917E-02 1.63775E-14-2.85745E-13
 -1      1841 2.02103E+01-4.77160E-02 6.12583E-04 1.68219E-02 4.85133E-14-2.18934E-13
 -1      1842 2.02170E+01-5.48258E-02-8.80328E-04-6.05842E-02 1.63342E-14-2.66023E-13
 -1      1843 2.01838E+01-6.72236E-02-4.70270E-03-9.64965E-02 2.24564E-14-2.80951E-13
 -1      1844 2.02226E+01-7.58841E-02 1.08562E-03-4.99079E-02 2.34644E-14-3.20830E-13
 -1      1845 2.01706E+01-7.76307E-02-1.22282E-03-1.49902E-01 3.22611E-14-3.05125E-13
 -1      1846 2.01040E+01-9.02566E-02-5.80743E-03-1.99068E-01-5.71188E-14-2.38279E-13
 -1      1847 2.02098E+01-1.08940E-01 1.71672E-03-1.50113E-01 3.55742E-14-3.41542E-13
 -1      1848 2.00686E+01-9.92941E-02-1.59987E-03-2.68790E-01-1.15348E-13-2.16630E-13
 -1      1849 1.99604E+01-1.08807E-01-6.37692E-03-3.29472E-01-8.16578E-14-3.10602E-13
 -1      1850 2.01592E+01-1.41520E-01 2.47043E-03-2.86777E-01-1.73897E-14-3.10857E-13
 -1      1851 1.98956E+01-1.12887E-01-1.94461E-03-4.10998E-01 7.34005E-15-2.84253E-13
 -1      1852 1.97409E+01-1.14560E-01-5.95850E-03-4.77049E-01 8.93877E-14-2.22716E-13
 -1      1853 2.00567E+01-1.64221E-01 3.22489E-03-4.55198E-01-1.55498E-14-2.56341E-13
 -1      1854 1.96409E+01-1.09223E-01-2.12052E-03-5.59515E-01 6.05664E-14-2.44941E-13
 -1      1855 1.94418E+01-9.79848E-02-4.18573E-03-6.19416E-01 6.11052E-14-2.11730E-13
 -1      1856 1.98896E+01-1.64181E-01 3.72821E-03-6.38654E-01 7.13912E-14-3.48727E-13
 -1      1857 1.93057E+01-7.93233E-02-1.90636E-03-6.85113E-01-4.11151E-14-2.92200E-13
 -1      1858 1.90742E+01-5.19685E-02-1.02694E-03-7.22771E-01-1.25766E-13-3.45603E-13
 -1      1859 1.96516E+01-1.28141E-01 3.58976E-03-8.05597E-01-7.61756E-14-3.42747E-13
 -1      1860 1.89098E+01-1.89931E-02-1.00621E-03-7.49620E-01-1.53258E-13-2.90890E-13
 -1      1861 1.86690E+01 2.29325E-02 3.00199E-03-7.47964E-01-7.01791E-14-1.96951E-13
 -1      1862 1.93499E+01-4.85452E-02 2.36283E-03-9.11503E-01-6.22907E-14-3.68412E-13
 -1      1863 1.84959E+01 6.58961E-02 8.27826E-04-7.15954E-01-8.62331E-15-1.87763E-13
 -1      1864 1.82782E+01 1.14193E-01 6.84031E-03-6.63261E-01 3.63839E-14-2.14665E-13
 -1      1865 1.90116E+01 6.90755E-02-1.57778E-04-9.08538E-01-4.31633E-14-2.60040E-13
 -1      1866 1.81263E+01 1.56918E-01 3.54135E-03-5.63626E-01-1.37152E-14-2.97448E-13
 -1      1867 1.79667E+01 1.97948E-01 9.25653E-03-4.60371E-01-1.66286E-14-2.38738E-13
 -1      1868 1.86861E+01 2.01750E-01-3.60351E-03-7.63186E-01-2.54885E-14-1.04937E-13
 -1      1869 1.78692E+01 2.27192E-01 6.61382E-03-3.03277E-01 5.36134E-14-2.20875E-13
 -1      1870 1.77965E+01 2.47009E-01 9.49313E-03-1.65517E-01 1.34639E-13-1.86634E-13
 -1      1871 1.84363E+01 3.12915E-01-6.89298E-03-4.75893E-01 5.37608E-14-1.66698E-13
 -1      1872 1.77775E+01 2.52355E-01 9.01871E-03 1.93506E-02 1.24669E-13-2.15559E-13
 -1      1873 1.78052E+01 2.43614E-01 7.68522E-03 1.63399E-01 2.51379E-14-2.76224E-13
 -1      1874 1.83196E+01 3.66238E-01-8.56654E-03-9.13363E-02 9.54445E-14-3.21353E-13
 -1      1875 1.78692E+01 2.23079E-01 9.67198E-03 3.36030E-01-3.81544E-14-3.16671E-13
 -1      1876 1.79914E+01 1.89033E-01 4.73204E-03 4.55831E-01-6.89219E-14-2.36497E-13
 -1      1877 1.83647E+01 3.42785E-01-7.81209E-03 3.10972E-01-1.76378E-14-3.58448E-13
 -1      1878 1.81213E+01 1.50070E-01 8.08572E-03 5.80808E-01-1.11147E-13-8.20015E-14
 -1      1879 1.83143E+01 1.02656E-01 1.73810E-03 6.54513E-01-9.03429E-14-9.41504E-14
 -1      1880 1.85589E+01 2.50840E-01-5.02998E-03 6.44876E-01-9.95948E-16-2.99583E-13
 -1      1881 1.84791E+01 5.80410E-02 4.68246E-03 7.13150E-01 3.78842E-15-4.78046E-14
 -1      1882 1.87091E+01 1.18031E-02-5.17876E-04 7.33901E-01 5.69598E-14 2.22322E-14
 -1      1883 1.88540E+01 1.21478E-01-1.46508E-03 8.49159E-01-2.50452E-14-1.79524E-14
 -1      1884 1.88759E+01-2.63796E-02 5.62255E-04 7.27771E-01-8.48940E-14 3.73729E-14
 -1      1885 1.91082E+01-6.05274E-02-1.80231E-03 7.03032E-01-1.32888E-13 1.86546E-14
 -1      1886 1.91862E+01-6.88036E-03 1.53284E-03 9.05300E-01-6.31585E-14 6.46646E-14
 -1      1887 1.92528E+01-8.53208E-02-3.06084E-03 6.48794E-01-8.27441E-14-6.37773E-14
 -1      1888 1.94598E+01-1.03099E-01-2.25126E-03 5.94446E-01-8.86589E-14 4.33195E-14
 -1      1889 1.94986E+01-1.04357E-01 3.29192E-03 8.35087E-01-9.05088E-14 1.56682E-13
 -1      1890 1.95695E+01-1.13477E-01-5.42070E-03 5.14565E-01-2.32750E-13-1.54494E-14
 -1      1891 1.97348E+01-1.16397E-01-2.16608E-03 4.47937E-01-1.92817E-13 7.42104E-15
 -1      1892 1.97544E+01-1.58129E-01 3.82863E-03 6.83356E-01-1.89944E-13 1.68427E-13
 -1      1893 1.98076E+01-1.15311E-01-6.34502E-03 3.62781E-01-1.11222E-13-5.67402E-14
 -1      1894 1.99255E+01-1.07915E-01-1.79821E-03 2.97833E-01 2.15056E-13 1.24297E-15
 -1      1895 1.99390E+01-1.70993E-01 3.51898E-03 4.98309E-01-1.16091E-13 1.60912E-13
 -1      1896 1.99657E+01-9.97508E-02-6.09243E-03 2.21616E-01 4.43594E-13-1.10009E-13
 -1      1897 2.00392E+01-8.69912E-02-1.30654E-03 1.67083E-01 3.82262E-13 1.05571E-14
 -1      1898 2.00543E+01-1.54483E-01 2.79485E-03 3.18347E-01 2.44248E-13 9.05863E-14
 -1      1899 2.00544E+01-7.56978E-02-5.10522E-03 1.07341E-01 1.49516E-13 8.84199E-14
 -1      1900 2.00916E+01-6.14217E-02-7.78569E-04 6.71459E-02 1.31909E-13 1.13871E-13
 -1      1901 2.01118E+01-1.21869E-01 1.97165E-03 1.67289E-01 3.61960E-13-6.79198E-16
 -1      1902 2.00895E+01-4.97335E-02-3.81817E-03 2.61969E-02-9.30009E-14-5.77324E-14
 -1      1903 2.01007E+01-3.62702E-02-2.56903E-04 8.58362E-04-2.06205E-13-2.53800E-13
 -1      1904 2.01266E+01-8.38645E-02 1.21522E-03 5.57340E-02-1.15534E-13 1.04976E-14
 -1      1905 2.00882E+01-2.56312E-02-2.53884E-03-2.22105E-02-2.42455E-13-2.61915E-13
 -1      1906 2.00838E+01-1.41188E-02 1.89512E-04-3.40404E-02-1.82751E-13-2.77308E-13
 -1      1907 2.01135E+01-4.71102E-02 6.36265E-04-1.50730E-02-2.08841E-13-1.35379E-13
 -1      1908 2.00669E+01-5.37347E-03-1.46736E-03-4.18461E-02-4.24612E-14-2.76765E-13
 -1      1909 2.00556E+01 3.73321E-03 4.92374E-04-4.26820E-02 8.57363E-14-2.33697E-13
 -1      1910 2.00852E+01-1.54831E-02 1.70873E-04-4.89831E-02-2.01740E-13-2.05695E-13
 -1      1911 2.00397E+01 8.97115E-03-7.21793E-04-3.84588E-02 1.60360E-13-1.72560E-13
 -1      1912 2.00286E+01 1.44789E-02 6.76578E-04-3.20559E-02 1.65574E-13-1.04800E-13
 -1      1913 2.00263E+01 2.10657E-02 4.84694E-05-3.84038E-02 1.63400E-13-1.25220E-13
 -1      1914 2.00539E+01 9.73953E-03 4.46399E-04-5.30690E-02 1.92418E-13-1.01426E-14
 -1      1915 1.97206E+01 1.84373E-01 1.07633E-02 2.68446E-01 2.58191E-13 3.74450E-13
 -1      1916 1.99150E+01 2.65515E-01 2.63384E-02 4.10155E-01 2.86785E-13 4.55711E-13
 -1      1917 2.01172E+01 3.68860E-01 8.07887E-03 6.57758E-01 3.32364E-13 4.77923E-13
 -1      1918 2.05493E+01 5.23201E-01 2.93472E-02 9.62542E-01 3.78451E-13 5.73380E-13
 -1      1919 2.02220E+01 5.08762E-01-3.02756E-03 7.51686E-01 3.60467E-13 2.34614E-13
 -1      1920 1.95119E+01 9.60806E-02 7.09149E-03 5.71758E-02 1.72647E-13 2.93660E-13
 -1      1921 1.95932E+01 1.37173E-01 1.67008E-02 1.29984E-01 2.10562E-13 3.52516E-13
 -1      1922 1.98891E+01 2.56293E-01-4.10646E-03 3.14623E-01 2.83772E-13 1.98766E-13
 -1      1923 1.94277E+01 4.90340E-02 4.34855E-03-5.61389E-02 1.10646E-13 2.08196E-13
 -1      1924 1.94446E+01 7.08394E-02 8.93428E-03-1.86375E-02 1.52964E-13 2.59040E-13
 -1      1925 1.96987E+01 1.29464E-01-4.71133E-03 6.83535E-02 2.06586E-13 1.39155E-13
 -1      1926 1.94177E+01 2.25253E-02 2.63718E-03-1.12030E-01 5.71392E-14 1.53933E-13
 -1      1927 1.94005E+01 3.46743E-02 4.36477E-03-9.50090E-02 6.33052E-14 1.89682E-13
 -1      1928 1.96091E+01 6.43420E-02-3.67384E-03-6.38274E-02 1.28789E-13 6.62810E-14
 -1      1929 1.94503E+01 5.66427E-03 1.56834E-03-1.38350E-01 1.19434E-13 1.21951E-13
 -1      1930 1.94143E+01 1.29845E-02 1.97078E-03-1.31946E-01 8.80123E-14 1.54464E-13
 -1      1931 1.95818E+01 2.75648E-02-2.38820E-03-1.32539E-01 8.99595E-14 8.11135E-15
 -1      1932 1.95061E+01-3.96464E-03 9.21795E-04-1.44513E-01 1.26583E-13 1.26683E-13
 -1      1933 1.94620E+01 2.06097E-04 6.66963E-04-1.44992E-01 1.25954E-13 1.43313E-13
 -1      1934 1.95929E+01 4.74250E-03-1.51651E-03-1.64394E-01 1.17925E-13 3.59140E-14
 -1      1935 1.95722E+01-9.06022E-03 5.30456E-04-1.39102E-01 9.30924E-14 1.01269E-13
 -1      1936 1.95261E+01-7.05036E-03-8.67826E-05-1.43422E-01 1.23813E-13 1.48946E-13
 -1      1937 1.96267E+01-8.11532E-03-8.75626E-04-1.72323E-01 1.17552E-13 6.24312E-14
 -1      1938 1.96404E+01-1.11961E-02 2.93539E-04-1.27681E-01 8.73875E-14 3.26531E-14
 -1      1939 1.95959E+01-1.05988E-02-4.88619E-04-1.33804E-01 8.86833E-14 6.97180E-14
 -1      1940 1.96721E+01-1.46991E-02-4.47231E-04-1.66441E-01 1.30729E-13 7.36216E-14
 -1      1941 1.97063E+01-1.13299E-02 1.72432E-04-1.13953E-01 7.25957E-14 1.74216E-14
 -1      1942 1.96651E+01-1.16785E-02-6.71722E-04-1.20520E-01 7.94667E-14 3.14724E-14
 -1      1943 1.97219E+01-1.71538E-02-1.83705E-04-1.53425E-01 8.16817E-14 2.57558E-14
 -1      1944 1.97679E+01-1.00668E-02 1.44500E-04-1.00460E-01 8.84250E-14-2.07889E-14
 -1      1945 1.97306E+01-1.10740E-02-7.14408E-04-1.06533E-01 9.53993E-14-2.49551E-14
 -1      1946 1.97720E+01-1.68179E-02-4.12335E-05-1.37787E-01 1.16007E-13-2.06421E-14
 -1      1947 1.98249E+01-7.77359E-03 1.73175E-04-8.90221E-02 1.01054E-13-5.05477E-14
 -1      1948 1.97912E+01-9.26911E-03-6.66096E-04-9.39177E-02 9.82243E-14-3.42729E-14
 -1      1949 1.98205E+01-1.45171E-02 1.24234E-05-1.22664E-01 1.24135E-13-1.47936E-14
 -1      1950 1.98760E+01-4.74986E-03 3.07870E-04-8.13664E-02 9.24405E-14-1.30505E-13
 -1      1951 1.98461E+01-6.65361E-03-5.71778E-04-8.44480E-02 9.87417E-14-7.80392E-14
 -1      1952 1.98656E+01-1.07759E-02 3.78033E-05-1.10564E-01 1.20957E-13-7.84200E-14
 -1      1953 1.99284E+01-6.44466E-04 5.40044E-04-7.79269E-02-1.51478E-14-8.78371E-14
 -1      1954 1.98980E+01-3.08645E-03-4.14926E-04-7.89081E-02 5.43519E-14-1.20682E-13
 -1      1955 1.99091E+01-5.86276E-03-6.68648E-05-1.02944E-01 9.22703E-14-6.82444E-14
 -1      1956 1.99824E+01 4.64940E-03 8.78194E-04-8.06950E-02 8.61439E-15-1.18856E-13
 -1      1957 1.99508E+01 1.51098E-03-2.39363E-04-7.87368E-02-1.16349E-14-1.01045E-13
 -1      1958 1.99539E+01 7.15453E-04-1.77665E-04-1.01368E-01 3.19660E-14-5.26803E-14
 -1      1959 2.00423E+01 1.16631E-02 1.38013E-03-9.16040E-02-5.32183E-15-7.81558E-14
 -1      1960 2.00067E+01 7.49814E-03-3.37483E-05-8.57725E-02 2.18781E-15-1.09416E-13
 -1      1961 2.00010E+01 9.26225E-03-3.29696E-04-1.08175E-01-7.73134E-15-2.46740E-14
 -1      1962 2.01139E+01 2.12888E-02 2.11838E-03-1.13467E-01-8.43308E-14-3.52430E-14
 -1      1963 2.00703E+01 1.55402E-02 1.99106E-04-1.02366E-01-2.96632E-15-4.85701E-14
 -1      1964 2.00536E+01 2.07022E-02-5.20541E-04-1.26066E-01-1.34837E-14-6.01527E-14
 -1      1965 2.02049E+01 3.49483E-02 3.20348E-03-1.50524E-01-7.52512E-14-3.34726E-14
 -1      1966 2.01478E+01 2.67390E-02 4.61216E-04-1.32011E-01-7.94759E-14-8.73766E-14
 -1      1967 2.01160E+01 3.65689E-02-7.45804E-04-1.58927E-01-5.52592E-14-7.19283E-14
 -1      1968 2.03253E+01 5.48343E-02 4.79594E-03-2.09218E-01 8.68565E-14 2.79616E-14
 -1      1969 2.02473E+01 4.28198E-02 7.51980E-04-1.80002E-01 2.43499E-14 7.55049E-15
 -1      1970 2.01934E+01 5.92807E-02-9.91664E-04-2.12517E-01-1.89517E-14-1.51670E-13
 -1      1971 2.04889E+01 8.40746E-02 6.92519E-03-2.99360E-01 1.04947E-13 5.29185E-14
 -1      1972 2.03797E+01 6.63256E-02 1.03305E-03-2.54316E-01 1.05022E-13 3.93418E-14
 -1      1973 2.02920E+01 9.25309E-02-1.21393E-03-2.95433E-01 9.52514E-14-1.54567E-14
 -1      1974 2.07024E+01 1.24882E-01 1.00310E-02-4.26962E-01-1.97112E-14 1.28804E-13
 -1      1975 2.05546E+01 1.00191E-01 1.33416E-03-3.63385E-01 5.38814E-14 1.36822E-13
 -1      1976 2.04160E+01 1.40647E-01-1.13861E-03-4.16308E-01 6.76078E-14 2.30484E-13
 -1      1977 2.10105E+01 1.87849E-01 1.45412E-02-6.25116E-01-3.43419E-14 4.78732E-14
 -1      1978 2.07902E+01 1.49668E-01 1.32795E-03-5.25286E-01 6.09105E-14 9.97349E-14
 -1      1979 2.05749E+01 2.10308E-01-1.29949E-03-5.94005E-01 7.07967E-14 2.64468E-13
 -1      1980 2.14337E+01 2.76891E-01 1.98674E-02-9.15695E-01-1.01727E-13-3.12416E-14
 -1      1981 2.11196E+01 2.23390E-01 1.02482E-03-7.68515E-01-1.14712E-13-6.60166E-14
 -1      1982 2.07822E+01 3.14054E-01-9.72953E-04-8.58496E-01 1.97889E-14 1.29692E-13
 -1      1983 2.20068E+01 3.95265E-01 2.54485E-02-1.33034E+00-1.29573E-13 5.52661E-14
 -1      1984 2.15648E+01 3.25405E-01-3.70370E-04-1.12033E+00-9.59016E-14-1.12458E-14
 -1      1985 2.10398E+01 4.59010E-01-1.12153E-04-1.23691E+00-1.08473E-13-4.07485E-14
 -1      1986 2.27639E+01 5.29148E-01 2.93142E-02-1.89380E+00-1.56281E-13 4.75028E-14
 -1      1987 2.21577E+01 4.53537E-01-3.35144E-03-1.61176E+00-1.75587E-13 4.41752E-14
 -1      1988 2.13484E+01 6.43841E-01 1.21727E-03-1.76166E+00-1.52164E-13-4.78690E-14
 -1      1989 2.37329E+01 6.16542E-01 2.88363E-02-2.58968E+00-7.20032E-14 2.74922E-13
 -1      1990 2.29354E+01 5.77475E-01-7.01533E-03-2.25593E+00-6.56992E-14 1.41244E-13
 -1      1991 2.17051E+01 8.32129E-01 2.54874E-03-2.45151E+00-1.33322E-13-1.34792E-14
 -1      1992 2.49412E+01 4.84634E-01 2.36113E-02-3.28240E+00 5.63142E-14 2.54713E-13
 -1      1993 2.39550E+01 5.93573E-01-4.50403E-03-2.99819E+00 4.22141E-14 3.25987E-13
 -1      1994 2.21220E+01 8.95020E-01 2.84182E-03-3.27498E+00-3.11938E-14 1.36398E-13
 -1      1995 2.64590E+01-2.15238E-01 1.79731E-02-3.58019E+00-7.96932E-15 2.62304E-13
 -1      1996 2.53449E+01 2.41499E-01 2.13041E-02-3.60869E+00 3.55445E-15 2.61978E-13
 -1      1997 2.26992E+01 5.13967E-01-4.86365E-04-4.07709E+00 7.07316E-14 2.98794E-13
 -1      1998 2.83941E+01-1.72887E+00 2.18066E-02-2.80753E+00-7.37466E-14 3.50135E-13
 -1      1999 2.73299E+01-8.41398E-01 9.00845E-02-3.51899E+00-2.52437E-14 2.96756E-13
 -1      2000 2.37702E+01-8.25996E-01-1.51574E-02-4.46495E+00-6.05072E-15 4.56600E-13
 -1      2001 3.16184E+01-3.59656E+00 3.95923E-02-8.49109E-02-8.00054E-14 5.56860E-13
 -1      2002 3.03389E+01-2.82039E+00 1.53572E-01-1.90613E+00-5.88418E-14 4.62609E-13
 -1      2003 2.60800E+01-3.22960E+00-2.40885E-02-3.73811E+00-1.37362E-13 4.43510E-13
 -1      2004 3.74956E+01 2.60357E+00 2.09982E-01 3.97769E+00 3.67151E-13 3.57936E-13
 -1      2005 3.70889E+01-6.14873E-01-1.06187E-01 4.30751E+00 3.01453E-13 4.06813E-13
 -1      2006 4.20616E+01 5.61318E+00 2.13869E-01-6.49936E-01 4.79172E-13-1.02668E-13
 -1      2007 4.19603E+01 4.82329E+00 1.82804E-01 2.01091E+00 4.24216E-13 2.11109E-13
 -1      2008 3.61970E+01-2.40556E+00 4.44143E-02-3.61142E+00 3.66887E-13-5.02376E-13
 -1      2009 3.67836E+01-2.42180E-01 2.07066E-01-4.46439E+00 4.11116E-13-5.33212E-13
 -1      2010 3.26680E+01-3.45638E+00 7.00878E-02-3.84425E-01-2.48079E-13-4.16084E-13
 -1      2011 3.32867E+01-3.37883E+00-2.84738E-02-2.15883E+00 8.29961E-14-4.72830E-13
 -1      2012 3.43293E+01-3.92587E+00-1.20507E-01-1.36686E+00 1.47868E-13-3.91381E-13
 -1      2013 2.94239E+01-1.71651E+00 1.23815E-01 2.60966E+00-3.20806E-13-3.06083E-13
 -1      2014 3.04156E+01-2.68488E+00 1.15972E-03 1.25096E+00-2.80345E-13-3.09044E-13
 -1      2015 2.94273E+01-4.05219E+00-2.29026E-02 1.67187E+00-2.65843E-13-1.17076E-13
 -1      2016 2.68821E+01-1.77001E-01 5.95194E-02 3.55207E+00 3.05034E-14-1.10145E-13
 -1      2017 2.79966E+01-9.03897E-01 6.50541E-03 3.15324E+00-1.75596E-13-2.23415E-13
 -1      2018 2.60855E+01-1.76747E+00-5.87229E-03 3.83008E+00-2.47857E-13-2.98372E-14
 -1      2019 2.50514E+01 4.38454E-01 5.13777E-03 3.26931E+00 1.58271E-13 1.24484E-14
 -1      2020 2.61363E+01 1.52929E-01 9.52627E-03 3.40808E+00 1.71422E-13 3.69513E-14
 -1      2021 2.42411E+01-5.16041E-02-4.72798E-03 4.11844E+00 7.27508E-14 1.80654E-14
 -1      2022 2.36976E+01 5.42199E-01-8.74111E-03 2.57913E+00-1.26685E-13 2.06576E-13
 -1      2023 2.46277E+01 5.02580E-01 1.79307E-02 2.89145E+00-4.63492E-14 1.30840E-13
 -1      2024 2.31685E+01 6.50874E-01 2.90255E-03 3.55231E+00-2.70984E-14 2.76464E-13
 -1      2025 2.27074E+01 4.62809E-01-8.10973E-03 1.92404E+00-2.61249E-13 3.18813E-13
 -1      2026 2.34187E+01 5.10903E-01 2.36975E-02 2.21740E+00-1.44402E-13 2.74061E-13
 -1      2027 2.24287E+01 7.43593E-01 3.62458E-03 2.77436E+00-2.10868E-13 3.77772E-13
 -1      2028 2.19014E+01 3.44256E-01-4.42409E-03 1.36453E+00-1.20859E-13 1.39308E-13
 -1      2029 2.24627E+01 4.07206E-01 2.26794E-02 1.60934E+00-5.25153E-14 3.37941E-13
 -1      2030 2.18401E+01 6.22921E-01 4.78009E-03 2.05505E+00-1.21125E-13 3.81975E-13
 -1      2031 2.12968E+01 2.40882E-01-1.54855E-03 9.52328E-01-4.88463E-14 6.61578E-14
 -1      2032 2.17046E+01 2.94724E-01 1.93886E-02 1.13057E+00-2.42041E-13-3.63083E-14
 -1      2033 2.13429E+01 4.59054E-01 3.01203E-03 1.46658E+00-8.58272E-14 1.16160E-13
 -1      2034 2.08483E+01 1.66573E-01 1.11372E-04 6.60014E-01 2.10124E-13 9.82938E-16
 -1      2035 2.11382E+01 2.05125E-01 1.48772E-02 7.85524E-01 1.85204E-13 3.20737E-14
 -1      2036 2.09445E+01 3.21427E-01 1.41843E-03 1.03198E+00 7.63660E-14 7.00919E-14
 -1      2037 2.05215E+01 1.20924E-01 1.31013E-03 4.51955E-01 1.35100E-13-2.48517E-13
 -1      2038 2.07236E+01 1.43997E-01 1.07251E-02 5.41844E-01 2.48412E-13-2.01415E-13
 -1      2039 2.06337E+01 2.24546E-01 4.18018E-04 7.20080E-01 3.51786E-13-7.16428E-14
 -1      2040 2.02938E+01 9.74179E-02 3.60618E-03 2.95807E-01-2.52296E-13-4.09853E-13
 -1      2041 2.04263E+01 1.08001E-01 7.53948E-03 3.62426E-01-2.00690E-14-3.09700E-13
 -1      2042 2.03947E+01 1.64997E-01-8.70948E-04 4.92745E-01 1.20027E-13-2.49876E-13
 -1      2043 2.29455E+00-7.78422E+00-3.91454E-01 2.49369E+00-7.21090E-14 1.69198E-13
 -1      2044 5.39226E-01-7.98407E+00-4.17742E-01 1.10922E+00 5.16531E-14-7.54952E-15
 -1      2045 1.99539E+01 5.22924E-01-3.03174E-03 2.25748E-01-6.46103E-14-1.32208E-13
 -1      2046 1.99775E+01 4.51512E-01 4.34206E-04 2.45333E-01-7.23843E-14-2.51931E-13
 -1      2047 2.00026E+01 3.77786E-01-2.55078E-03 2.56154E-01-2.35531E-13-2.33951E-13
 -1      2048 2.00327E+01 3.00382E-01 2.43300E-03 2.47029E-01-7.63875E-14-8.75945E-14
 -1      2049 1.99887E+01 4.26031E-01 2.43156E-03 3.17167E-01 1.06526E-14-1.16367E-13
 -1      2050 2.00735E+01 8.04649E-02 1.84524E-03 9.72522E-02-1.35950E-13-5.40014E-13
 -1      2051 2.00597E+01 2.17577E-01-1.18961E-03 2.17946E-01-2.00868E-13-4.17851E-13
 -1      2052 2.00813E+01 1.47257E-01 1.58665E-03 1.80101E-01-2.79791E-14-6.56958E-13
 -1      2053 2.00729E+01 2.73134E-01 2.34852E-03 3.01717E-01 6.48217E-14-2.93152E-13
 -1      2054 1.99254E+01 6.22826E-01-2.91208E-03 1.45933E-01-2.66064E-13 2.37351E-13
 -1      2055 1.99371E+01 5.73159E-01-1.67178E-03 1.84320E-01-1.02148E-13 1.25742E-13
 -1      2056 1.99221E+01 5.48607E-01 3.14731E-03 2.55471E-01 4.91774E-14-5.60556E-14
 -1      2057 1.99195E+01 6.64219E-01-2.27574E-03 4.21466E-02 1.11460E-13 3.52615E-13
 -1      2058 1.99196E+01 6.43388E-01-3.15380E-03 8.79354E-02-7.87721E-14 5.22125E-13
 -1      2059 1.98877E+01 6.19144E-01 3.62424E-03 1.42025E-01 2.41698E-14 5.10397E-13
 -1      2060 1.99327E+01 6.43477E-01-1.37850E-03-5.67689E-02 3.24688E-13 3.96728E-13
 -1      2061 1.99236E+01 6.53532E-01-3.79418E-03-1.58041E-02 1.76447E-13 3.24973E-13
 -1      2062 1.98855E+01 6.28909E-01 3.19895E-03 1.06403E-02 2.70889E-13 4.42153E-13
 -1      2063 1.99570E+01 5.72579E-01-4.70468E-04-1.30660E-01 3.01198E-13 5.96250E-13
 -1      2064 1.99433E+01 6.08032E-01-3.47135E-03-1.02163E-01 2.85752E-13 5.41470E-13
 -1      2065 1.99086E+01 5.82937E-01 2.16919E-03-1.05625E-01 3.55447E-13 4.34515E-13
 -1      2066 1.99837E+01 4.70853E-01 2.44220E-04-1.70471E-01 3.06487E-13-5.99608E-14
 -1      2067 1.99698E+01 5.22389E-01-2.47107E-03-1.57130E-01 2.35663E-13 3.18077E-13
 -1      2068 1.99452E+01 4.97494E-01 9.47782E-04-1.85802E-01 2.28568E-14 3.49782E-13
 -1      2069 2.00061E+01 3.58847E-01 6.69779E-04-1.77335E-01-1.39065E-14-7.68049E-13
 -1      2070 1.99952E+01 4.16307E-01-1.18498E-03-1.77677E-01 2.31495E-13-3.25869E-13
 -1      2071 1.99832E+01 3.92840E-01-1.40538E-04-2.22686E-01-1.25491E-13-3.26280E-13
 -1      2072 2.00203E+01 2.55146E-01 8.32803E-04-1.59815E-01-8.42139E-14-8.15061E-13
 -1      2073 2.00140E+01 3.09173E-01 3.85532E-05-1.69507E-01 6.22527E-14-7.67607E-13
 -1      2074 2.00135E+01 2.88501E-01-8.82275E-04-2.20915E-01-1.25688E-13-7.46926E-13
 -1      2075 2.00265E+01 1.66841E-01 8.07453E-04-1.28160E-01 2.12563E-13 1.53853E-13
 -1      2076 2.00244E+01 2.13631E-01 9.13187E-04-1.42809E-01 2.16719E-13-3.16037E-13
 -1      2077 2.00320E+01 1.96990E-01-1.26208E-03-1.92204E-01 1.91496E-13-5.38073E-13
 -1      2078 2.00262E+01 1.00187E-01 6.79236E-04-9.24922E-02 1.68407E-13 3.01346E-13
 -1      2079 2.00271E+01 1.36227E-01 1.39487E-03-1.07977E-01 2.31923E-13 3.36971E-13
 -1      2080 2.00392E+01 1.24668E-01-1.22346E-03-1.49815E-01 2.53401E-13 2.10873E-13
 -1      2081 2.00224E+01 5.38174E-02 3.48677E-04-5.95213E-02 1.76350E-13 2.08507E-13
 -1      2082 2.00243E+01 7.93714E-02 1.27704E-03-7.36432E-02 2.26326E-13 2.23279E-13
 -1      2083 2.00377E+01 7.32511E-02-9.69272E-04-1.05655E-01 1.02686E-13 2.99827E-13
 -1      2084 8.77084E+00-6.81775E+00-3.26938E-01 5.09538E+00-8.97060E-14 7.90173E-13
 -1      2085 4.78008E+00-8.33286E+00-5.76656E-01 3.47891E+00-1.97398E-13 4.44422E-13
 -1      2086 5.48342E+00-5.79797E+00-2.16191E-01 4.23673E+00-1.74194E-13 3.21632E-13
 -1      2087-7.93932E-03-7.23540E+00-3.00796E-01-9.43611E-01-1.26722E-14 1.28952E-13
 -1      2088 3.83802E-01-7.10381E+00-2.80790E-01-2.44454E+00-2.32647E-13 4.41813E-13
 -1      2089 4.12561E+01 4.83884E+00 5.04496E-02-1.46160E+00 4.47864E-13-1.33338E-13
 -1      2090 1.95238E+01 4.01699E+00-2.56425E-02-1.70343E+00-3.14417E-13-5.50893E-13
 -1      2091 1.96523E+01 3.94344E+00-2.43457E-02-1.95852E+00-3.67265E-13-4.79849E-13
 -1      2092 1.99745E+01 3.25414E+00-7.96638E-03-1.91164E+00-4.09050E-13-4.00773E-13
 -1      2093 1.96943E+01 3.58433E+00-9.25540E-03-1.52015E+00-3.16159E-13-5.35159E-13
 -1      2094 4.06260E+01-2.73509E-01 1.29522E-01-2.89695E-01 4.90174E-13-8.64864E-14
 -1      2095 3.51638E+01-2.13420E+00-1.93609E-01 8.78120E-01 3.76671E-13 2.06946E-13
 -1      2096 4.03571E+01 7.41984E-01 1.02001E-01 8.20587E-03 3.50525E-13-1.41664E-13
 -1      2097 4.48252E+01 2.62178E+00 4.59757E-01 1.04799E+00 4.40814E-13-3.85247E-14
 -1      2098 3.14006E+01-3.78211E+00-3.13826E-01-2.31360E+00 3.92464E-13-1.52101E-13
 -1      2099 3.80075E+01-1.74235E+00 2.55576E-01-1.78157E+00 3.41088E-13-1.63980E-13
 -1      2100 2.10553E+01-6.40818E+00-4.35636E-01-4.63098E+00 3.27072E-13-1.12077E-13
 -1      2101 2.72809E+01-4.72653E+00-8.25120E-02-4.80717E+00 3.48388E-13-2.52132E-13
 -1      2102 9.66119E+00-7.85743E+00-5.97600E-01-4.52508E+00 2.36922E-13-5.70849E-13
 -1      2103 1.50380E+01-6.32852E+00-2.72707E-01-5.79263E+00 3.79141E-13-1.75790E-13
 -1      2104 2.88479E+00-8.50159E+00-5.54902E-01-2.69728E+00 1.39444E-13-7.06768E-13
 -1      2105 5.79282E+00-7.46558E+00-4.00402E-01-4.06800E+00 2.82774E-13-8.68167E-13
 -1      2106 1.46490E-01-7.00423E+00-2.82820E-01-1.34238E-01 2.02963E-14-6.59195E-13
 -1      2107 8.91172E-01-8.18257E+00-4.86893E-01-1.46502E+00 1.78246E-13-6.15563E-13
 -1      2108 3.63857E+00-5.65301E+00-2.51132E-01-3.24192E+00 6.97775E-14-7.64777E-13
 -1      2109 1.23577E+00-7.20874E+00-3.53415E-01 3.94184E+00-2.62290E-13-5.21638E-13
 -1      2110 1.63746E-01-6.97556E+00-3.00378E-01 2.45937E+00-7.77850E-14-4.90719E-13
 -1      2111 7.14638E+00-5.43674E+00-9.76903E-02 6.94851E+00-3.03257E-13-3.29542E-13
 -1      2112 4.03463E+00-6.91619E+00-3.10536E-01 5.43293E+00-2.05724E-13-4.77202E-13
 -1      2113 1.49488E+01-3.72797E+00-5.16489E-02 7.94899E+00-5.95080E-13-1.98147E-13
 -1      2114 1.07842E+01-5.76012E+00-2.99238E-01 7.07494E+00-5.04152E-13-2.19241E-13
 -1      2115 2.39151E+01-1.68096E+00 5.67991E-02 7.68272E+00-3.41172E-13-9.09328E-13
 -1      2116 1.88669E+01-3.44636E+00-2.29699E-01 7.31199E+00-5.50338E-13-4.45199E-13
 -1      2117 3.25836E+01 1.67862E+00 2.44196E-01 6.02922E+00-2.77278E-13-7.14317E-13
 -1      2118 2.78438E+01-3.02764E-01-8.09919E-02 6.05031E+00-2.33813E-13-8.64642E-13
 -1      2119 3.91155E+01 4.97203E+00 3.83825E-01 4.26891E+00-4.92606E-13-3.72979E-13
 -1      2120 3.49019E+01 3.52611E+00 5.21981E-02 4.78641E+00-3.22305E-13-4.50751E-13
 -1      2121 4.28651E+01 7.04791E+00 3.80647E-01 1.96414E+00-5.93303E-13-2.47469E-13
 -1      2122 4.04510E+01 6.36866E+00 2.34335E-01 3.22547E+00-6.00048E-13-3.79696E-13
 -1      2123 4.26434E+01 8.09944E+00 2.41735E-01-3.31373E-01-3.30680E-13-2.30545E-13
 -1      2124 4.33271E+01 7.84021E+00 3.85475E-01 1.14154E+00-4.63074E-13-3.34732E-13
 -1      2125 4.09859E+01 6.87244E+00 2.40071E-01-2.33036E+00-1.95344E-13-5.86198E-14
 -1      2126 4.19237E+01 7.64735E+00 2.52717E-01-9.12512E-01-2.09943E-13-1.72862E-13
 -1      2127 3.67461E+01 4.57428E+00 9.56527E-02-3.98119E+00-5.98965E-13 4.00791E-14
 -1      2128 4.03671E+01 5.71426E+00 3.35516E-01-3.25426E+00-3.22298E-13 2.63678E-14
 -1      2129 3.72431E+01 6.75611E+00 3.10069E-01-4.03449E-01-3.13860E-13-2.19269E-13
 -1      2130 3.00158E+01 9.85373E-01-3.66886E-02-5.88940E+00-7.62473E-13-1.35669E-13
 -1      2131 3.46327E+01 2.69633E+00 2.55699E-01-5.57035E+00-7.18120E-13-2.39919E-13
 -1      2132 2.17442E+01-2.27187E+00-1.85840E-01-7.14570E+00-4.77451E-13 2.69618E-13
 -1      2133 2.67159E+01-4.48777E-01 1.34586E-01-7.40102E+00-4.86111E-13 4.96270E-14
 -1      2134 1.39272E+01-5.00989E+00-2.88503E-01-7.26692E+00-4.25437E-13 5.57276E-13
 -1      2135 1.82989E+01-3.02984E+00 2.27075E-02-8.05600E+00-4.19553E-13 5.06317E-13
 -1      2136 6.69539E+00-6.77020E+00-3.48093E-01-6.28900E+00-2.83495E-13 6.65135E-13
 -1      2137 1.00477E+01-5.06583E+00-1.26708E-01-7.33031E+00-4.27436E-13 7.30416E-13
 -1      2138 1.43637E+00-7.54604E+00-3.58753E-01-3.85581E+00-3.70426E-13 2.67397E-13
 -1      2139 3.34734E+00-6.25841E+00-2.05857E-01-5.25283E+00-3.22353E-13 4.34153E-13
 -1      2140 2.24327E+00-4.28417E+00-1.24552E-01-3.66943E+00-1.22680E-13 5.27078E-13
 -1      2141 2.15443E+01 1.75290E+00 7.77839E-02 2.36711E+00 4.45113E-13 6.47545E-13
 -1      2142 3.07185E+01-3.85876E+00-6.63123E-02 4.19932E+00 2.81553E-13 5.12923E-13
 -1      2143 2.39333E+01-5.47273E+00-4.63840E-01 4.26334E+00 3.17524E-14 6.55365E-13
 -1      2144 2.50239E+01-6.51180E+00-7.38243E-02 4.31696E+00-1.43663E-13 5.93553E-13
 -1      2145 2.15113E+01 1.74287E+00 7.95555E-02-2.33923E+00-4.43024E-13 3.97668E-13
 -1      2146 2.01138E+01 1.14996E-01 1.33079E-03 1.82917E-01-1.22368E-13-6.37358E-13
 -1      2147 2.01942E+01 1.20493E-01 3.77536E-03 2.45544E-01-3.03489E-13-6.09315E-13
 -1      2148 1.43703E+01-6.69634E+00-1.68929E-01 5.81401E+00-2.35978E-13 7.37202E-13
 -1      2149 2.07389E+01 1.10919E+00-2.05632E-02-1.61770E+00-4.18041E-13 2.86604E-13
 -1      2150 3.42522E+01-4.07344E+00 1.09402E-01 3.79703E-01 1.73916E-13 1.57929E-13
 -1      2151 2.06285E+01 1.33005E+00-1.88146E-02-1.67936E+00-4.51472E-13 4.17583E-14
 -1      2152 2.06358E+01 1.32629E+00-2.21662E-02 1.68691E+00 4.67735E-13 2.57259E-13
 -1      2153 2.07597E+01 1.10522E+00-2.34494E-02 1.62977E+00 4.39041E-13 5.37209E-13
 -1      2154 3.13595E+01-4.60939E+00-2.44824E-02-1.60396E-01 5.98549E-14 4.95867E-13
 -1      2155 2.77410E+01-5.91410E+00-7.94314E-02-3.03276E+00 1.33227E-14 4.89359E-13
 -1      2156 4.07997E+01 3.48970E+00 1.38748E-02 2.45600E+00 4.13058E-13 1.57929E-13
 -1      2157 3.48624E+01-2.46158E+00-1.42052E-01 3.27901E+00 1.77719E-13 3.82583E-13
 -1      2158 3.45639E+01-3.65200E+00-7.05641E-02 1.77573E+00-2.39392E-14 4.70346E-13
 -1      2159 1.66871E+00-4.61853E+00-1.64635E-01 4.62597E-01 5.99312E-14 2.01339E-13
 -1      2160 2.01893E+01 1.63985E-01-3.30338E-03 3.34317E-01-4.92820E-14-5.56058E-13
 -1      2161 3.19220E+01-5.42436E+00 9.52022E-02-1.38131E+00 2.66343E-13 8.72080E-14
 -1      2162 2.00244E+01 4.12248E-02 4.61533E-04-5.43734E-02 6.28731E-14-4.47304E-15
 -1      2163 3.56844E+01 3.73162E+00 6.87472E-02-3.32625E+00 3.43614E-13-3.96294E-13
 -1      2164 4.38759E+01 3.86617E+00 3.42358E-01-1.93858E+00 4.18943E-13-1.79523E-13
 -1      2165 6.70346E+00-5.25039E+00-1.14575E-01-6.79562E+00-1.62204E-13 5.31103E-13
 -1      2166 1.45280E+01-5.42814E+00-7.09056E-02-8.16916E+00-1.41276E-13 3.86770E-13
 -1      2167 2.24502E+01-4.30918E+00 3.91497E-02-7.12174E+00-1.61593E-13 3.25018E-14
 -1      2168 3.49295E+01 2.80620E+00 2.27998E-01-2.19964E+00-5.25607E-13-1.69642E-13
 -1      2169 3.84341E+01 8.82803E+00 2.99704E-01 3.45581E-02-3.00315E-13-1.96704E-13
 -1      2170 3.88569E+01 8.48788E+00 3.70883E-01 2.76473E-01-5.61162E-13-4.19109E-13
 -1      2171 3.72932E+01 5.64754E+00 3.06410E-01 1.21076E+00-4.59605E-13-1.31617E-13
 -1      2172 3.35500E+01 1.39588E+00 1.79772E-01 2.88265E+00-2.52985E-13-1.91680E-13
 -1      2173 2.74584E+01-2.66469E+00 9.98945E-02 5.60167E+00-2.52076E-13-6.95888E-13
 -1      2174 1.94169E+01-4.79778E+00 6.33866E-03 7.78388E+00-4.56857E-13-3.67276E-13
 -1      2175 1.10599E+01-5.32306E+00-9.93957E-02 7.86358E+00-1.45883E-13-2.96319E-13
 -1      2176 1.01801E+00-5.44818E+00-1.64301E-01 1.16634E+00 1.11994E-14-7.31748E-13
 -1      2177 2.25207E+00-3.11781E+00 2.39983E-02-2.45975E-01 2.98962E-14-7.99638E-13
 -1      2178 2.12441E+00-3.15377E+00-1.65165E-02 2.43372E+00 1.20043E-14-6.97664E-13
 -1      2179 1.03630E+01-6.51237E+00-2.10960E-01-5.53357E+00 2.38143E-14-5.59608E-13
 -1      2180 2.10018E+01-6.71634E+00-8.72681E-02-5.29693E+00 1.47438E-13 1.13104E-14
 -1      2181 3.86722E+01-1.56929E+00 2.56555E-01 2.17908E+00 3.19710E-13 1.29230E-13
 -1      2182 4.18699E+01 2.25594E+00 3.78727E-01-1.67995E+00 4.97047E-13-2.17049E-13
 -1      2183 4.34089E+00-4.63442E+00-7.72897E-02 5.74791E+00-4.92106E-14-5.16531E-13
 -1      2184 2.95390E+01-1.42359E+00 1.34548E-01-4.94531E+00-4.77368E-13-2.57072E-13
 -1      2185 1.95594E+01 3.51849E+00-1.11197E-02-5.94621E-01-9.74976E-14-5.68748E-13
 -1      2186 1.95951E+01 3.47245E+00-1.05080E-02-7.78853E-01-1.65224E-13-5.76547E-13
 -1      2187 1.96419E+01 3.38424E+00-1.28051E-02-9.43232E-01-2.05664E-13-5.70682E-13
 -1      2188 1.97031E+01 3.30351E+00-1.28471E-02-1.13224E+00-2.60209E-13-5.50681E-13
 -1      2189 1.97863E+01 3.03564E+00 1.51421E-04-7.95148E-01-1.74124E-13-5.24493E-13
 -1      2190 1.95108E+01 3.60253E+00-9.58736E-03 9.57822E-02 7.76802E-14-5.88563E-13
 -1      2191 1.95105E+01 3.60292E+00-9.59791E-03-8.35254E-02 3.15528E-14-5.99768E-13
 -1      2192 1.95361E+01 3.56439E+00-9.66202E-03 4.41589E-01 1.58151E-13-5.67748E-13
 -1      2193 1.95191E+01 3.58629E+00-1.00968E-02 2.60938E-01 1.09912E-13-5.79630E-13
 -1      2194 1.96766E+01 3.22603E+00-9.13179E-04 1.66387E-01 9.18833E-14-5.62010E-13
 -1      2195 1.95970E+01 3.46976E+00-1.05159E-02 7.85454E-01 2.48655E-13-5.40617E-13
 -1      2196 1.95612E+01 3.51571E+00-1.11493E-02 6.04159E-01 1.94499E-13-5.60698E-13
 -1      2197 1.97126E+01 3.16388E+00-5.22630E-04 4.84885E-01 1.68067E-13-5.33252E-13
 -1      2198 1.97061E+01 3.29920E+00-1.28106E-02 1.13896E+00 3.39302E-13-4.65242E-13
 -1      2199 1.96443E+01 3.38064E+00-1.28188E-02 9.49759E-01 2.81956E-13-5.14356E-13
 -1      2200 1.97886E+01 3.03227E+00 2.31231E-04 8.01022E-01 2.60525E-13-4.90657E-13
 -1      2201 1.98837E+01 3.01846E+00-1.79263E-02 1.48684E+00 4.27661E-13-3.52968E-13
 -1      2202 1.97852E+01 3.15650E+00-1.51207E-02 1.29589E+00 3.72441E-13-4.15990E-13
 -1      2203 1.99169E+01 2.81030E+00 1.98017E-03 1.10788E+00 3.47383E-13-4.01091E-13
 -1      2204 2.01608E+01 2.55532E+00-2.74821E-02 1.79114E+00 4.83027E-13-1.89945E-13
 -1      2205 2.00122E+01 2.80061E+00-1.63871E-02 1.61983E+00 4.44558E-13-2.86044E-13
 -1      2206 2.01094E+01 2.46124E+00 4.51296E-03 1.37554E+00 4.22722E-13-2.89058E-13
 -1      2207 2.05745E+01 1.76703E+00-1.91990E-02 1.82871E+00 4.78317E-13 8.65905E-14
 -1      2208 2.03312E+01 2.19256E+00-9.14723E-03 1.77773E+00 4.77191E-13-8.57040E-14
 -1      2209 2.03444E+01 1.87251E+00 7.12887E-03 1.46049E+00 4.43448E-13-1.29364E-13
 -1      2210 2.04278E+01 1.10831E+00 8.95025E-04 1.23675E+00 4.30112E-13 1.19495E-13
 -1      2211 2.82746E+01-6.02685E+00-7.37329E-02 3.16041E+00-2.47802E-13 4.44422E-13
 -1      2212 2.42325E+01-6.30388E+00-4.88204E-02 4.28085E+00-3.04479E-13 5.37015E-13
 -1      2213 2.04019E+01 8.54072E-01 1.24593E-02-1.00266E+00-3.66106E-13-6.75135E-14
 -1      2214 2.01921E+01 6.29107E-01-3.83566E-03-6.93008E-01-3.42205E-13-8.91976E-14
 -1      2215 2.01242E+01 4.69621E-01 1.55910E-02-4.75535E-01-3.12425E-13-7.16239E-14
 -1      2216 1.99850E+01 3.44957E-01 1.65797E-04-3.04102E-01-2.59597E-13-1.01231E-13
 -1      2217 2.02448E+01 7.48650E-01-1.29529E-03-6.93802E-01-3.38156E-13-1.77655E-13
 -1      2218 1.99208E+01 2.60110E-01 1.07315E-02-1.66792E-01-2.32123E-13-9.70172E-14
 -1      2219 1.98422E+01 1.88927E-01 6.73467E-04-6.92021E-02-2.11377E-13-1.40101E-13
 -1      2220 2.00817E+01 4.15762E-01-4.05771E-03-3.11249E-01-2.71238E-13-1.85423E-13
 -1      2221 1.97980E+01 1.39425E-01 6.38223E-03 1.33199E-02-1.81742E-13-1.43792E-13
 -1      2222 1.97630E+01 9.71124E-02 7.21112E-04 6.69415E-02-1.50542E-13-1.42408E-13
 -1      2223 1.99605E+01 2.28490E-01-3.68916E-03-7.14727E-02-2.16872E-13-1.62549E-13
 -1      2224 1.97372E+01 6.72903E-02 3.57556E-03 1.13020E-01-1.36191E-13-1.70122E-13
 -1      2225 1.97301E+01 4.18983E-02 6.44313E-04 1.39977E-01-1.30695E-13-1.66803E-13
 -1      2226 1.98849E+01 1.16071E-01-2.96180E-03 6.99900E-02-1.62480E-13-1.89051E-13
 -1      2227 1.97186E+01 2.38026E-02 1.86123E-03 1.62736E-01-1.16534E-13-1.80596E-13
 -1      2228 1.97282E+01 8.77124E-03 5.38794E-04 1.73390E-01-7.76528E-14-1.71357E-13
 -1      2229 1.98455E+01 4.83095E-02-2.14380E-03 1.47151E-01-1.33333E-13-1.94420E-13
 -1      2230 1.97265E+01-1.91243E-03 8.00740E-04 1.81474E-01-6.93355E-14-1.88495E-13
 -1      2231 1.97454E+01-1.02940E-02 4.38580E-04 1.82375E-01-7.56646E-14-2.03668E-13
 -1      2232 1.98320E+01 7.77677E-03-1.45757E-03 1.83050E-01-9.01519E-14-2.64517E-13
 -1      2233 1.97500E+01-1.61068E-02 1.50435E-04 1.81642E-01-8.45342E-14-2.01128E-13
 -1      2234 1.97733E+01-2.01109E-02 3.60683E-04 1.77081E-01-9.05546E-14-1.87672E-13
 -1      2235 1.98354E+01-1.52879E-02-9.43328E-04 1.93244E-01-8.82685E-14-2.61883E-13
 -1      2236 1.97816E+01-2.26670E-02-2.32890E-04 1.71526E-01-1.11179E-13-2.01087E-13
 -1      2237 1.98063E+01-2.37691E-02 3.10559E-04 1.64365E-01-1.13924E-13-2.25273E-13
 -1      2238 1.98491E+01-2.68388E-02-5.80979E-04 1.88356E-01-1.12083E-13-2.47170E-13
 -1      2239 1.98165E+01-2.41485E-02-4.39636E-04 1.56711E-01-7.67717E-14-2.17728E-13
 -1      2240 1.98410E+01-2.33477E-02 2.86896E-04 1.48861E-01-5.62671E-14-1.92959E-13
 -1      2241 1.98687E+01-3.07313E-02-3.38545E-04 1.75652E-01-1.06661E-13-2.54636E-13
 -1      2242 1.98520E+01-2.23027E-02-5.29599E-04 1.40941E-01-7.05172E-14-1.61377E-13
 -1      2243 1.98755E+01-2.03027E-02 2.84583E-04 1.33656E-01-2.74986E-14-1.48486E-13
 -1      2244 1.98911E+01-2.95756E-02-1.86296E-04 1.60081E-01-6.08804E-14-1.33036E-13
 -1      2245 1.98868E+01-1.83817E-02-5.43146E-04 1.26667E-01-6.61416E-14-1.93892E-13
 -1      2246 1.99090E+01-1.57076E-02 2.95840E-04 1.20722E-01-1.13017E-13-2.27304E-13
 -1      2247 1.99146E+01-2.52143E-02-1.00172E-04 1.44942E-01-8.04900E-14-1.53063E-13
 -1      2248 1.99204E+01-1.33428E-02-5.07146E-04 1.15383E-01-9.58906E-14-2.24486E-13
 -1      2249 1.99414E+01-1.04305E-02 3.09884E-04 1.11179E-01-5.30165E-14-2.09677E-13
 -1      2250 1.99385E+01-1.90285E-02-6.17299E-05 1.32335E-01-1.13586E-13-1.61624E-13
 -1      2251 1.99530E+01-8.01072E-03-4.38488E-04 1.07818E-01-2.93754E-14-2.06261E-13
 -1      2252 1.99732E+01-5.28560E-03 3.11670E-04 1.05429E-01-1.69446E-14-1.58415E-13
 -1      2253 1.99625E+01-1.21672E-02-5.72096E-05 1.23425E-01-2.29530E-14-1.23976E-13
 -1      2254 1.99852E+01-3.22351E-03-3.46334E-04 1.04009E-01-1.03718E-13-1.84709E-13
 -1      2255 2.00051E+01-1.17518E-03 2.80270E-04 1.03165E-01-1.49038E-13-2.38889E-13
 -1      2256 1.99869E+01-5.74747E-03-7.65737E-05 1.18568E-01-9.17848E-14-1.36268E-13
 -1      2257 2.00179E+01 2.77868E-05-2.33710E-04 1.03251E-01-9.34332E-14-2.49238E-13
 -1      2258 2.00376E+01 7.75421E-04 1.87337E-04 1.03282E-01-5.95992E-14-1.95600E-13
 -1      2259 2.00125E+01-1.04016E-03-1.12617E-04 1.17312E-01-1.13045E-13-2.02766E-13
 -1      2260 2.00519E+01 4.71676E-04-9.89542E-05 1.03951E-01-1.40377E-13-2.08739E-13
 -1      2261 2.00714E+01-8.95715E-04-3.54245E-06 1.03679E-01-1.47004E-13-2.17392E-13
 -1      2262 2.00399E+01 3.57929E-04-1.60028E-04 1.18275E-01-8.62731E-14-2.23271E-13
 -1      2263 2.00877E+01-3.53558E-03 6.23550E-05 1.03392E-01-1.24124E-13-1.65044E-13
 -1      2264 2.01067E+01-8.04175E-03-3.35366E-04 1.01008E-01-3.27629E-14-2.29830E-13
 -1      2265 2.00702E+01-3.60705E-03-2.13948E-04 1.18928E-01-1.12271E-13-1.95721E-13
 -1      2266 2.01255E+01-1.40145E-02 2.54100E-04 9.74545E-02 4.57511E-14-2.50906E-13
 -1      2267 2.01428E+01-2.28339E-02-8.52247E-04 9.03977E-02 1.22536E-13-2.61184E-13
 -1      2268 2.01044E+01-1.54784E-02-2.67620E-04 1.15297E-01-2.05741E-14-1.19063E-13
 -1      2269 2.01647E+01-3.31928E-02 4.73925E-04 8.03744E-02 1.57978E-13-2.72718E-13
 -1      2270 2.01784E+01-4.74528E-02-1.58740E-03 6.53144E-02 1.64207E-13-2.90281E-13
 -1      2271 2.01432E+01-3.81197E-02-3.08374E-04 1.01679E-01 1.09611E-13-1.63149E-13
 -1      2272 2.02034E+01-6.30359E-02 7.04111E-04 4.47252E-02 1.23517E-13-3.22456E-13
 -1      2273 2.02104E+01-8.34031E-02-2.54182E-03 1.77351E-02 5.03990E-14-3.12158E-13
 -1      2274 2.01870E+01-7.41929E-02-3.11395E-04 7.05039E-02 1.11041E-13-2.68409E-13
 -1      2275 2.02378E+01-1.04333E-01 8.99048E-04-1.81317E-02-2.08514E-15-3.37878E-13
 -1      2276 2.02339E+01-1.30320E-01-3.65190E-03-6.10292E-02 2.55286E-14-2.69676E-13
 -1      2277 2.02348E+01-1.25099E-01-2.31827E-04 1.25890E-02 1.43903E-14-3.28452E-13
 -1      2278 2.02613E+01-1.55244E-01 9.72110E-04-1.16734E-01-4.92792E-15-3.09644E-13
 -1      2279 2.02411E+01-1.84250E-01-4.74874E-03-1.78475E-01 1.90744E-14-3.11534E-13
 -1      2280 2.02838E+01-1.89241E-01 1.02933E-06-8.18365E-02-8.70124E-15-3.02158E-13
 -1      2281 2.02642E+01-2.09409E-01 7.92895E-04-2.56923E-01 1.01205E-13-3.40711E-13
 -1      2282 2.02215E+01-2.35728E-01-5.52234E-03-3.37642E-01 1.04775E-14-2.53225E-13
 -1      2283 2.03279E+01-2.59672E-01 4.77189E-04-2.20862E-01 2.62225E-14-2.26829E-13
 -1      2284 2.02326E+01-2.54211E-01 2.16849E-04-4.37699E-01-2.92135E-14-1.89223E-13
 -1      2285 2.01621E+01-2.68576E-01-5.52961E-03-5.32439E-01 8.18353E-14-1.36056E-13
 -1      2286 2.03560E+01-3.21767E-01 1.26923E-03-4.06925E-01 5.92567E-14-1.86670E-13
 -1      2287 2.01507E+01-2.70470E-01-8.50665E-04-6.45908E-01 4.79611E-14-1.77881E-13
 -1      2288 2.00491E+01-2.61058E-01-4.28483E-03-7.42437E-01 1.01550E-14-2.54149E-13
 -1      2289 2.03519E+01-3.52322E-01 2.34599E-03-6.31145E-01 4.98733E-15-8.01795E-14
 -1      2290 2.00039E+01-2.35388E-01-2.29581E-03-8.51376E-01-8.28493E-15-3.18768E-13
 -1      2291 1.98730E+01-1.91347E-01-1.49470E-03-9.29370E-01-4.42634E-14-3.10971E-13
 -1      2292 2.02960E+01-3.22433E-01 3.44829E-03-8.67116E-01-2.23325E-14-2.02613E-13
 -1      2293 1.97866E+01-1.30663E-01-3.68558E-03-1.00579E+00-1.18298E-13-2.58251E-13
 -1      2294 1.96357E+01-4.83975E-02 2.55943E-03-1.03932E+00-9.28275E-14-1.93633E-13
 -1      2295 2.01710E+01-2.06482E-01 3.99397E-03-1.06710E+00-3.79602E-14-4.24497E-14
 -1      2296 1.95123E+01 4.47397E-02-4.20725E-03-1.05025E+00-4.05208E-14-2.34223E-13
 -1      2297 1.93594E+01 1.54809E-01 6.80212E-03-1.01509E+00 3.92862E-14-1.45146E-13
 -1      2298 1.99732E+01 2.35172E-03 3.16136E-03-1.16600E+00-5.81213E-14 6.66650E-14
 -1      2299 1.92203E+01 2.62949E-01-2.98225E-03-9.34428E-01 4.07159E-14-2.14785E-13
 -1      2300 1.90901E+01 3.74207E-01 9.55773E-03-8.19093E-01-5.06106E-15-1.35841E-13
 -1      2301 1.97258E+01 2.76517E-01 5.11589E-04-1.09882E+00 4.89233E-14-1.24969E-13
 -1      2302 1.89721E+01 4.66866E-01 2.21910E-04-6.42880E-01-1.47024E-14-9.24261E-14
 -1      2303 1.88902E+01 5.43753E-01 9.42168E-03-4.58557E-01 2.57207E-14-2.18123E-13
 -1      2304 1.94828E+01 5.50286E-01-3.37363E-03-8.30313E-01 2.96974E-15-9.98660E-14
 -1      2305 1.88324E+01 5.88795E-01 4.68985E-03-2.14959E-01 6.48275E-14-2.14949E-13
 -1      2306 1.88163E+01 6.02864E-01 6.38629E-03 2.98617E-03 1.20359E-14-2.74606E-13
 -1      2307 1.93160E+01 7.37709E-01-6.77280E-03-3.84168E-01-2.36326E-14-8.50187E-14
 -1      2308 1.88398E+01 5.83009E-01 8.55976E-03 2.59002E-01 3.44160E-14-2.99776E-13
 -1      2309 1.88928E+01 5.28854E-01 1.94378E-03 4.62095E-01 1.23356E-14-2.49195E-13
 -1      2310 1.92833E+01 7.71957E-01-7.40836E-03 1.49653E-01 6.43908E-15-1.84138E-13
 -1      2311 1.89881E+01 4.51923E-01 9.96343E-03 6.70526E-01 3.70537E-15-8.17712E-14
 -1      2312 1.90976E+01 3.49946E-01-1.96697E-03 8.16261E-01 6.68758E-14 3.35618E-14
 -1      2313 1.93958E+01 6.40205E-01-4.91547E-03 6.44699E-01 1.61836E-13 9.20966E-14
 -1      2314 1.92311E+01 2.43504E-01 8.29031E-03 9.36449E-01 1.94344E-14 8.94955E-14
 -1      2315 1.93740E+01 1.28201E-01-4.07064E-03 1.00308E+00 1.50440E-14 1.08159E-13
 -1      2316 1.96119E+01 3.90199E-01-9.96388E-04 9.91376E-01 9.56225E-14 1.67762E-13
 -1      2317 1.95054E+01 2.52294E-02 4.40252E-03 1.02592E+00-1.71437E-14-6.28620E-16
 -1      2318 1.96555E+01-7.13556E-02-4.22696E-03 1.01640E+00-7.42513E-14 2.51549E-14
 -1      2319 1.98616E+01 1.04785E-01 2.32351E-03 1.13717E+00-1.71454E-14 5.48112E-14
 -1      2320 1.97561E+01-1.46889E-01 5.71481E-05 9.60797E-01-4.57236E-14-4.19914E-14
 -1      2321 1.98920E+01-2.07223E-01-3.06517E-03 8.95782E-01-4.55780E-14 1.21061E-14
 -1      2322 2.00797E+01-1.38165E-01 3.84597E-03 1.09553E+00-1.05125E-13-2.09761E-13
 -1      2323 1.99508E+01-2.46878E-01-3.33373E-03 7.93979E-01-1.41391E-13 6.20714E-14
 -1      2324 2.00597E+01-2.69342E-01-1.52513E-03 7.00118E-01-2.58454E-13 6.61557E-14
 -1      2325 2.02299E+01-2.93868E-01 3.78271E-03 9.23929E-01-9.63096E-14-3.30047E-14
 -1      2326 2.00803E+01-2.77062E-01-5.20858E-03 5.83518E-01-2.03529E-13 3.01310E-13
 -1      2327 2.01575E+01-2.70195E-01-2.07969E-04 4.84408E-01-2.97310E-15 2.96656E-13
 -1      2328 2.03063E+01-3.56249E-01 2.82371E-03 6.90982E-01-8.68202E-14 3.35801E-13
 -1      2329 2.01505E+01-2.56033E-01-5.66958E-03 3.75815E-01 2.24916E-14 3.25214E-13
 -1      2330 2.01980E+01-2.31664E-01 6.55917E-04 2.87600E-01 1.88572E-13 1.12144E-13
 -1      2331 2.03222E+01-3.44790E-01 1.67678E-03 4.53680E-01-3.08057E-14 5.25989E-13
 -1      2332 2.01747E+01-2.06161E-01-5.16388E-03 1.99594E-01 3.38815E-13-1.27237E-13
 -1      2333 2.01976E+01-1.74603E-01 1.11046E-03 1.30660E-01 2.52997E-13-1.32189E-13
 -1      2334 2.02974E+01-2.88053E-01 7.36809E-04 2.48251E-01 7.97426E-14 1.32266E-13
 -1      2335 2.01670E+01-1.45741E-01-4.16288E-03 6.76932E-02-7.13549E-14-1.75720E-13
 -1      2336 2.01719E+01-1.13946E-01 1.28058E-03 2.05316E-02-2.33878E-13-2.04051E-13
 -1      2337 2.02504E+01-2.11647E-01 1.20004E-04 9.14859E-02 5.56509E-14-1.41090E-13
 -1      2338 2.01400E+01-8.69533E-02-3.10547E-03-1.80416E-02-1.26966E-13-9.47783E-14
 -1      2339 2.01334E+01-5.85054E-02 1.27906E-03-4.49673E-02-8.33686E-14-9.69712E-14
 -1      2340 2.01947E+01-1.33551E-01-2.52214E-04-1.32114E-02-9.97049E-14-9.34144E-14
 -1      2341 2.01031E+01-3.47981E-02-2.00780E-03-6.20632E-02-6.56825E-14 8.91000E-15
 -1      2342 2.00901E+01-1.27007E-02 8.11939E-04-7.09268E-02-6.55552E-14 1.36040E-13
 -1      2343 2.01392E+01-6.15258E-02 2.50226E-04-7.08628E-02 2.99663E-15 1.42235E-14
 -1      2344 2.01656E+01 5.83526E-01-1.80852E-03 6.34959E-01 3.27243E-13 8.66464E-14
 -1      2345 2.03725E+01 7.82571E-01 8.08136E-03 9.33914E-01 3.68470E-13 1.13002E-13
 -1      2346 2.03632E+01 1.16267E+00 6.33923E-03 1.09806E+00 3.81785E-13-2.11455E-14
 -1      2347 1.97678E+01 1.03268E-01 8.26168E-04-5.77386E-02 1.02370E-13-2.29072E-14
 -1      2348 1.98034E+01 1.45122E-01 6.55560E-03-4.41260E-03 1.48142E-13 6.65754E-15
 -1      2349 1.97313E+01 4.53498E-02 6.40173E-04-1.35226E-01 7.31129E-14-3.13924E-14
 -1      2350 1.97405E+01 7.16750E-02 3.65947E-03-1.06188E-01 7.79363E-14-3.24474E-14
 -1      2351 1.98892E+01 1.22688E-01-2.98483E-03-6.13809E-02 1.04968E-13-7.13473E-14
 -1      2352 1.97272E+01 1.06309E-02 5.34830E-04-1.71157E-01 1.16462E-13-1.19969E-14
 -1      2353 1.97189E+01 2.64514E-02 1.97179E-03-1.59207E-01 9.67954E-14-1.38823E-14
 -1      2354 1.98476E+01 5.20543E-02-2.21003E-03-1.42435E-01 8.89502E-14-5.91618E-14
 -1      2355 1.97432E+01-9.46613E-03 4.49717E-04-1.81543E-01 9.52753E-14 2.45467E-14
 -1      2356 1.97251E+01-5.64916E-04 8.82288E-04-1.79918E-01 9.98601E-14 1.72862E-14
 -1      2357 1.98325E+01 9.74179E-03-1.52677E-03-1.80674E-01 1.12704E-13-3.32033E-14
 -1      2358 1.97706E+01-1.99486E-02 3.82306E-04-1.76932E-01 1.06930E-13 4.06848E-14
 -1      2359 1.97476E+01-1.56208E-02 2.11411E-04-1.81141E-01 1.10661E-13 4.59972E-14
 -1      2360 1.98351E+01-1.44925E-02-1.00829E-03-1.92216E-01 8.55398E-14-3.21072E-14
 -1      2361 1.98036E+01-2.39434E-02 3.44833E-04-1.64489E-01 1.00678E-13 2.51689E-14
 -1      2362 1.97789E+01-2.27020E-02-1.87085E-04-1.71507E-01 1.27066E-13 5.37318E-14
 -1      2363 1.98485E+01-2.67567E-02-6.42718E-04-1.88046E-01 1.22190E-13 3.27565E-14
 -1      2364 1.98387E+01-2.34593E-02 3.44845E-04-1.49168E-01 1.07059E-13-2.61949E-15
 -1      2365 1.98140E+01-2.43529E-02-4.05434E-04-1.56910E-01 8.66379E-14 2.24253E-14
 -1      2366 1.98683E+01-3.09123E-02-3.99859E-04-1.75756E-01 1.12817E-13 6.17803E-14
 -1      2367 1.98742E+01-1.97653E-02 3.61272E-04-1.34475E-01 1.18406E-13-1.11862E-14
 -1      2368 1.98502E+01-2.22065E-02-5.08107E-04-1.41461E-01 1.41064E-13-3.84492E-15
 -1      2369 1.98913E+01-2.94252E-02-2.50342E-04-1.60659E-01 1.16367E-13 3.06474E-14
 -1      2370 1.99077E+01-1.38866E-02 4.52271E-04-1.23489E-01 1.60963E-13-2.79769E-14
 -1      2371 1.98854E+01-1.74208E-02-5.41800E-04-1.28437E-01 1.39109E-13-1.34189E-14
 -1      2372 1.99153E+01-2.39764E-02-1.38606E-04-1.46861E-01 1.53727E-13-1.16499E-14
 -1      2373 1.99432E+01-5.41967E-03 6.13431E-04-1.17119E-01 4.45146E-14 1.96886E-14
 -1      2374 1.99200E+01-1.02821E-02-5.18375E-04-1.19508E-01 1.17475E-13 2.57980E-14
 -1      2375 1.99400E+01-1.53936E-02-1.47913E-04-1.36767E-01 1.12531E-13 1.05522E-14
 -1      2376 1.99799E+01 5.65369E-03 8.39436E-04-1.18126E-01 1.67920E-14 2.61184E-14
 -1      2377 1.99559E+01-6.33740E-04-4.88393E-04-1.16694E-01 6.56173E-14 3.22590E-14
 -1      2378 1.99663E+01-3.37635E-03-1.57636E-04-1.32549E-01 4.78067E-14 1.29338E-13
 -1      2379 2.00194E+01 2.01517E-02 1.17482E-03-1.28894E-01-2.17404E-14-1.09428E-14
 -1      2380 1.99931E+01 1.19221E-02-4.63648E-04-1.22419E-01-4.69628E-15-1.64991E-14
 -1      2381 1.99936E+01 1.23805E-02-1.86404E-04-1.36944E-01 3.26615E-14 7.82240E-14
 -1      2382 2.00640E+01 3.95811E-02 1.66182E-03-1.52537E-01-2.28197E-14-6.62324E-14
 -1      2383 2.00334E+01 2.85054E-02-4.69248E-04-1.39355E-01-1.16456E-14-2.10745E-14
 -1      2384 2.00228E+01 3.31505E-02-2.15654E-04-1.52697E-01 1.41031E-14-5.19774E-14
 -1      2385 2.01162E+01 6.63882E-02 2.36115E-03-1.93437E-01-2.18112E-14-1.20183E-13
 -1      2386 2.00788E+01 5.10265E-02-5.37191E-04-1.71144E-01 1.44561E-14-5.36972E-14
 -1      2387 2.00542E+01 6.11903E-02-2.15893E-04-1.83351E-01-1.95814E-14-6.88706E-14
 -1      2388 2.01787E+01 1.04317E-01 3.34939E-03-2.57927E-01 3.65105E-16-1.25903E-13
 -1      2389 2.01314E+01 8.24935E-02-7.11835E-04-2.22992E-01-4.33814E-14-1.20818E-13
 -1      2390 2.00881E+01 1.00084E-01-1.37709E-04-2.33772E-01-2.39084E-14-5.47982E-14
 -1      2391 2.02535E+01 1.58819E-01 4.57851E-03-3.55200E-01-3.36666E-15 6.45593E-14
 -1      2392 2.01929E+01 1.27467E-01-1.04965E-03-3.02378E-01-9.04192E-15-4.27402E-14
 -1      2393 2.01233E+01 1.55194E-01 1.00988E-04-3.10776E-01-9.22395E-14-1.00463E-13
 -1      2394 2.03380E+01 2.33249E-01 6.33875E-03-4.89534E-01 3.30471E-14 2.30838E-13
 -1      2395 2.02629E+01 1.90317E-01-1.64613E-03-4.16689E-01 6.10267E-14 1.39696E-13
 -1      2396 2.01560E+01 2.32539E-01 8.84948E-04-4.20208E-01-4.83743E-14 7.94046E-14
 -1      2397 2.04393E+01 3.45544E-01 8.97301E-03-6.92157E-01 1.34097E-13 1.48809E-13
 -1      2398 2.03387E+01 2.80964E-01-2.74551E-03-5.81061E-01 1.34743E-13 1.85062E-13
 -1      2399 2.01793E+01 3.41985E-01 1.70820E-03-5.76258E-01 1.20119E-13 8.62857E-14
 -1      2400 2.05450E+01 5.03893E-01 1.19220E-02-9.79993E-01 6.25324E-15 2.08934E-14
 -1      2401 2.04185E+01 4.13359E-01-4.46277E-03-8.21240E-01 9.37440E-14 1.05100E-13
 -1      2402 2.01797E+01 5.01945E-01 3.64703E-03-7.99951E-01 1.40240E-13 2.19869E-14
 -1      2403 2.06387E+01 7.17457E-01 1.51365E-02-1.37980E+00-8.90650E-14-1.10062E-13
 -1      2404 2.04849E+01 5.96958E-01-7.16962E-03-1.15872E+00-4.62221E-14-4.10621E-14
 -1      2405 2.01302E+01 7.23806E-01 6.91231E-03-1.10819E+00 4.26005E-15-2.45015E-14
 -1      2406 2.06909E+01 9.78746E-01 1.81707E-02-1.91707E+00-1.16294E-13-1.05324E-13
 -1      2407 2.05118E+01 8.35313E-01-1.10151E-02-1.62165E+00-1.37083E-13-1.50162E-13
 -1      2408 1.99879E+01 1.01419E+00 1.19409E-02-1.52300E+00-7.80131E-14-1.79669E-13
 -1      2409 2.06672E+01 1.23036E+00 2.14547E-02-2.60323E+00-1.45149E-13-1.05498E-13
 -1      2410 2.04636E+01 1.10255E+00-1.51760E-02-2.23504E+00-1.23706E-13-1.14461E-13
 -1      2411 1.96916E+01 1.35094E+00 1.90283E-02-2.06547E+00-8.17883E-14-2.86974E-13
 -1      2412 2.05687E+01 1.29553E+00 3.03369E-02-3.41169E+00-3.23838E-14-4.09898E-14
 -1      2413 2.03167E+01 1.29432E+00-1.49590E-02-3.00726E+00-9.07593E-14-8.00080E-14
 -1      2414 1.91730E+01 1.63499E+00 2.86590E-02-2.75323E+00-1.30750E-13-3.26947E-13
 -1      2415 2.05327E+01 7.50401E-01 5.38604E-02-4.24851E+00 2.72352E-14 9.70665E-14
 -1      2416 2.01330E+01 1.13168E+00 3.65160E-03-3.90668E+00 4.39891E-14 9.48026E-15
 -1      2417 1.84037E+01 1.60080E+00 4.28006E-02-3.60434E+00-1.28717E-13-3.22789E-13
 -1      2418 2.09567E+01-9.78880E-01 8.63351E-02-4.86665E+00-5.78704E-14 2.45179E-13
 -1      2419 2.02372E+01 1.19026E-01 7.08131E-02-4.75534E+00 7.26502E-15 1.80932E-13
 -1      2420 1.75601E+01 6.88036E-01 5.39644E-02-4.59646E+00-7.75768E-14-9.23359E-14
 -1      2421 2.38694E+01-4.28056E+00 5.78502E-02-4.45955E+00-1.81744E-13 3.92360E-13
 -1      2422 2.22901E+01-2.50631E+00 1.45526E-01-4.99594E+00-1.52808E-13 4.09048E-13
 -1      2423 4.03160E+00-2.68006E+00 1.09378E-01 2.26349E+00 8.11295E-14-3.66374E-14
 -1      2424 3.08905E+00-1.98107E+00 1.28705E-01-2.79075E-01 1.92384E-13 1.77525E-13
 -1      2425 3.96610E+01 1.24890E+00 1.75925E-01-2.82784E+00 4.65350E-13-2.49023E-13
 -1      2426 2.11870E+01 6.53744E-01 3.16841E-02 4.31754E+00 1.08639E-13 2.20723E-13
 -1      2427 2.18576E+01-1.01341E-02 5.79342E-02 4.50601E+00 2.13787E-14 2.91166E-13
 -1      2428 2.09610E+01 1.12432E+00-5.18849E-03 3.45502E+00-1.35523E-13 2.91575E-13
 -1      2429 2.13962E+01 9.87474E-01 3.28396E-02 3.82330E+00 2.50407E-15 3.31560E-13
 -1      2430 1.89331E+01 1.11637E+00 2.88383E-02 4.20068E+00 7.70217E-15 3.77108E-13
 -1      2431 2.08849E+01 1.07254E+00-1.19361E-02 2.65913E+00-1.42505E-13 4.75431E-14
 -1      2432 2.12079E+01 1.13971E+00 2.31036E-02 3.02399E+00-1.04111E-13 2.09575E-13
 -1      2433 1.94637E+01 1.50858E+00 2.73313E-02 3.29551E+00-4.26055E-14 1.29720E-13
 -1      2434 2.07852E+01 8.52642E-01-1.00129E-02 1.95761E+00-8.60952E-14 1.14171E-13
 -1      2435 2.10625E+01 9.76590E-01 1.94433E-02 2.28432E+00-8.79817E-14 1.41898E-13
 -1      2436 1.98759E+01 1.36600E+00 2.08464E-02 2.52130E+00-6.98352E-14-3.50774E-14
 -1      2437 2.06543E+01 6.24063E-01-6.38283E-03 1.41604E+00-7.49925E-14 1.16515E-13
 -1      2438 2.08824E+01 7.38619E-01 1.65851E-02 1.66728E+00-4.31721E-14 1.89391E-13
 -1      2439 2.01179E+01 1.06640E+00 1.35375E-02 1.87832E+00-1.94077E-13-1.04295E-13
 -1      2440 2.05084E+01 4.43219E-01-3.31463E-03 1.01476E+00 2.58388E-13-7.64856E-14
 -1      2441 2.06906E+01 5.29773E-01 1.34704E-02 1.19918E+00 5.59986E-14 7.40638E-14
 -1      2442 2.02178E+01 7.78195E-01 8.11119E-03 1.38029E+00 8.63298E-14 5.46976E-14
 -1      2443 2.03682E+01 3.16251E-01-1.57048E-03 7.21383E-01 3.80888E-13-1.96057E-13
 -1      2444 2.05077E+01 3.73260E-01 9.39010E-03 8.53284E-01 4.17962E-13-1.73325E-13
 -1      2445 2.02295E+01 5.56930E-01 4.90811E-03 1.00379E+00 3.08081E-13-1.22434E-13
 -1      2446 2.02471E+01 2.44679E-01 2.27699E-03 4.99293E-01 9.32052E-14-2.55126E-13
 -1      2447 2.03487E+01 2.75933E-01 7.56507E-03 5.98590E-01 2.32288E-13-7.11546E-14
 -1      2448 2.01957E+01 4.05321E-01 3.41607E-03 7.20085E-01 1.98505E-13-2.40818E-13
 -1      2449 1.89561E+01-5.79911E+00-2.80896E-02 6.05135E+00-1.95843E-13 6.81982E-13
 -1      2450 1.31989E+01-5.21353E+00-4.17759E-03 5.88018E+00-3.11418E-13 7.28362E-13
 -1      2451 1.98415E+01 5.80037E-01-3.66381E-03 2.69526E-01 8.78516E-14 7.80299E-14
 -1      2452 1.98812E+01 5.35179E-01-3.03210E-04 3.20551E-01-1.28093E-15-1.73038E-14
 -1      2453 1.98163E+01 6.05503E-01-6.06262E-04-3.99322E-02 2.76625E-13 4.17739E-13
 -1      2454 1.98032E+01 6.12052E-01-3.69061E-03 2.93777E-02 1.93941E-13 4.86915E-13
 -1      2455 1.98663E+01 5.33593E-01 7.98572E-04-1.68391E-01 3.64436E-13 5.20360E-13
 -1      2456 1.98370E+01 5.61842E-01-4.14754E-03-1.14801E-01 3.54638E-13 3.90127E-13
 -1      2457 1.97735E+01 5.73431E-01 2.48241E-03-1.04890E-01 2.65129E-13 5.06488E-13
 -1      2458 1.99314E+01 4.30694E-01 1.58894E-03-2.47571E-01 5.70049E-15-3.80572E-14
 -1      2459 1.98970E+01 4.73117E-01-3.56558E-03-2.16907E-01 1.69325E-13 3.46536E-13
 -1      2460 1.98444E+01 4.72935E-01 9.46087E-04-2.35622E-01 3.85944E-13 2.91685E-13
 -1      2461 1.99926E+01 3.19166E-01 1.77032E-03-2.74121E-01-2.08274E-13-6.03612E-13
 -1      2462 1.99623E+01 3.67275E-01-2.33347E-03-2.66578E-01-4.50349E-14-3.46466E-13
 -1      2463 1.99292E+01 3.53816E-01-3.67142E-04-3.05633E-01 1.57049E-13-2.41603E-13
 -1      2464 2.00370E+01 2.18566E-01 1.53244E-03-2.58047E-01-6.22729E-14-7.45174E-13
 -1      2465 2.00165E+01 2.64310E-01-9.05212E-04-2.68226E-01-9.41791E-14-7.97927E-13
 -1      2466 2.00042E+01 2.39985E-01-1.28412E-03-3.17141E-01-1.39286E-13-6.52973E-13
 -1      2467 2.00613E+01 1.36277E-01 1.03241E-03-2.14409E-01 2.94358E-13-2.20159E-13
 -1      2468 2.00515E+01 1.76313E-01 3.25505E-04-2.35507E-01 1.27401E-13-4.13742E-13
 -1      2469 2.00567E+01 1.45895E-01-1.68515E-03-2.84706E-01 6.38496E-14-4.07662E-13
 -1      2470 2.00667E+01 7.81816E-02 5.29732E-04-1.60433E-01 2.08658E-13 1.81840E-13
 -1      2471 2.00658E+01 1.09381E-01 1.11675E-03-1.84655E-01 2.81166E-13-1.55805E-13
 -1      2472 2.00823E+01 7.81618E-02-1.71499E-03-2.26926E-01 3.19211E-13-2.68673E-13
 -1      2473 2.00598E+01 4.28459E-02 5.37217E-04-1.08520E-01 6.69456E-14 3.77781E-13
 -1      2474 2.00641E+01 6.40255E-02 1.45437E-03-1.30376E-01-3.31757E-14 4.10531E-13
 -1      2475 2.00884E+01 3.79393E-02-1.26701E-04-1.63401E-01 1.88351E-13 1.53749E-13
 -1      2476 9.09893E+00-3.97942E+00 6.72248E-02 5.51651E+00-2.30926E-13 4.70179E-13
 -1      2477 6.23375E+00-3.28250E+00 9.65828E-02 3.98737E+00-7.95752E-14 6.47260E-14
 -1      2478 6.77630E+00-2.92887E+00 7.87314E-02 6.40943E+00 3.60822E-15-4.86444E-13
 -1      2479 4.40043E+00-2.91989E+00 1.35590E-01 4.61047E+00 1.18239E-14-5.69433E-13
 -1      2480 1.98492E+01 1.97071E-01 9.05365E-04 8.08216E-02 1.94677E-13-7.60489E-15
 -1      2481 1.99273E+01 2.69620E-01 9.58070E-03 1.82242E-01 2.33182E-13 2.35658E-14
 -1      2482 1.99682E+01 2.38335E-01-3.73919E-03 8.55515E-02 1.87744E-13-8.95267E-14
 -1      2483 2.01067E+01 2.66384E-01 3.81997E-03 3.61503E-01 1.31016E-14-3.08421E-13
 -1      2484 2.01947E+01 2.48760E-01 4.07540E-03 4.35908E-01 1.13464E-14-2.84532E-13
 -1      2485 2.01128E+01 3.31840E-01-5.23833E-03 5.28306E-01 2.34525E-14-1.51160E-13
 -1      2486 2.00415E+01 3.36386E-01-4.70500E-03 3.88432E-01 9.48925E-14-1.84757E-13
 -1      2487 6.79712E+00-3.43462E+00 1.14738E-01-6.40147E+00-1.01863E-13 5.76428E-13
 -1      2488 1.01890E+01-4.16908E+00 6.59619E-02-7.83307E+00-1.71196E-13 6.13121E-13
 -1      2489 3.36734E+00-2.15547E+00 1.47378E-01-2.79135E+00 1.06928E-13 7.66665E-13
 -1      2490 4.33729E+00-2.58892E+00 9.46946E-02-4.72338E+00-6.15619E-14 6.85341E-13
 -1      2491 3.35404E+01 7.99412E+00-1.80989E-01 4.88552E-01-2.67286E-13-2.96707E-13
 -1      2492 3.41016E+01 8.51393E+00-1.57280E-01 1.04375E-01-3.75644E-13-3.74707E-13
 -1      2493 1.01443E+01-4.73982E+00 1.86916E-02-5.50745E+00-1.21181E-13-5.11702E-13
 -1      2494 1.42396E+01-5.22707E+00 7.27064E-03-6.24203E+00-4.52971E-14-2.37921E-13
 -1      2495 1.99272E+01 4.79219E-01-4.33104E-03 3.65909E-01 5.67168E-14-1.34138E-13
 -1      2496 1.99869E+01 4.15055E-01 1.49240E-03 3.82575E-01 1.02301E-13-3.58448E-13
 -1      2497 2.00121E+01 4.18872E-01 4.78118E-03 4.50967E-01-1.52564E-14-3.44928E-13
 -1      2498 1.98732E+01 5.42613E-01 4.04401E-03 3.92553E-01 1.07827E-13-1.57472E-13
 -1      2499 1.98027E+01 6.25186E-01-2.27879E-03 1.17572E-01 1.92954E-13 7.27889E-13
 -1      2500 1.98149E+01 6.05682E-01-2.18177E-03 1.87824E-01 1.34420E-13 4.20070E-13
 -1      2501 1.97759E+01 6.19587E-01 4.30110E-03 2.54370E-01 1.53015E-13 3.28674E-13
 -1      2502 1.97433E+01 6.29108E-01 3.73428E-03 7.00601E-02 1.39596E-13 6.10820E-13
 -1      2503 1.95181E+01 3.58785E+00-1.00816E-02-2.48657E-01-3.09926E-15-5.91584E-13
 -1      2504 1.95345E+01 3.56689E+00-9.64595E-03-4.29225E-01-6.24607E-14-5.79544E-13
 -1      2505 1.97109E+01 3.16646E+00-5.92793E-04-4.76271E-01-8.21525E-14-5.32034E-13
 -1      2506 1.96759E+01 3.22715E+00-9.29956E-04-1.55084E-01 8.90905E-15-5.58788E-13
 -1      2507 1.99795E+01 3.39556E-01 9.93819E-04 2.94769E-01 2.83408E-13 2.40097E-14
 -1      2508 2.01134E+01 4.55194E-01 1.12149E-02 4.69466E-01 3.08572E-13 6.88278E-14
 -1      2509 2.02135E+01 6.76636E-01 1.57244E-03 6.12866E-01 3.39578E-13-6.64017E-14
 -1      2510 2.00792E+01 4.13670E-01-2.88141E-03 3.07169E-01 2.74776E-13-1.01321E-13
 -1      2511 2.00369E+01 3.33682E-02-5.43014E-04-6.54022E-02 2.47756E-13 1.02026E-13
 -1      2512 4.56206E+00-3.04906E+00 8.91301E-02-2.90979E+00-1.13798E-14-7.02549E-13
 -1      2513 6.88021E+00-3.85396E+00 4.25921E-02-4.60483E+00-2.22322E-14-7.03437E-13
 -1      2514 2.77006E+01-3.22601E+00-2.57635E-02-4.46477E+00-1.98369E-13-2.86909E-13
 -1      2515 3.05289E+01-1.62953E+00-9.92169E-02-3.20969E+00-4.61492E-13-4.66682E-13
 -1      2516 1.49558E+01-4.83870E+00 4.72413E-02 8.30908E+00-1.72418E-13-2.27568E-13
 -1      2517 1.10625E+01-4.19856E+00 9.79168E-02 7.84701E+00-2.63678E-15-3.49137E-13
 -1      2518 2.17092E+01-4.93393E+00-6.26162E-02 7.29681E+00-3.09780E-13-4.93869E-13
 -1      2519 1.81810E+01-5.20106E+00 3.65265E-02 7.74014E+00-2.98928E-13-2.33383E-13
 -1      2520 1.78074E+01-4.79785E+00 1.11327E-01 7.80690E+00-1.70919E-13-3.05048E-13
 -1      2521 2.89783E+01-2.83552E+00-1.10399E-01 3.99227E+00-6.57530E-14-3.14637E-13
 -1      2522 2.57633E+01-4.17817E+00 2.58059E-02 5.33666E+00-1.44385E-13-4.75425E-13
 -1      2523 3.31762E+01 1.56225E+00-9.58037E-02 1.08725E+00-3.46168E-13-4.32987E-14
 -1      2524 3.12092E+01-4.72438E-01-4.36437E-02 1.92086E+00-2.33303E-13-2.39198E-13
 -1      2525 3.48919E+01 5.71506E+00-1.16671E-01-2.36970E-01-3.75561E-13-2.04281E-13
 -1      2526 3.38871E+01 3.94928E+00-1.02336E-01 1.52306E-01-4.05426E-13-1.05527E-13
 -1      2527 3.49317E+01 8.27625E+00-1.69496E-01-3.78791E-01-4.73843E-13-3.31207E-13
 -1      2528 3.49461E+01 7.37332E+00-1.13345E-01-3.97649E-01-4.21219E-13-2.24681E-13
 -1      2529 3.37725E+01 5.05442E+00-1.18843E-01 5.26778E-01-3.08392E-13-1.82826E-13
 -1      2530 3.39385E+01 6.46663E+00-1.95624E-01 7.25306E-01-3.05755E-13-2.22794E-13
 -1      2531 3.21287E+01 6.71706E-01-5.72967E-02-1.27503E+00-4.91496E-13-3.70703E-13
 -1      2532 3.35661E+01 2.82557E+00-1.42979E-01-2.65364E-01-3.73840E-13-2.27096E-13
 -1      2533 2.17061E+01-5.06928E+00 5.47621E-02-6.94474E+00-4.37705E-14-1.45717E-14
 -1      2534 2.49792E+01-4.38179E+00-3.73441E-02-6.22659E+00-1.48020E-13-2.48968E-13
 -1      2535 1.33304E+01-4.92873E+00 6.74196E-02-8.00856E+00-1.76525E-14 4.18998E-13
 -1      2536 1.69501E+01-4.99335E+00-1.67414E-02-8.18406E+00-1.23568E-13 3.01897E-13
 -1      2537 1.30102E+01-3.83619E+00 1.37467E-01-7.81418E+00-8.84015E-14 4.16278E-13
 -1      2538 2.05483E+01 1.95618E+00-1.39194E-02-1.90359E+00-4.49810E-13-1.27119E-13
 -1      2539 2.04140E+01 1.21773E+00-5.70653E-03-1.28885E+00-4.15289E-13-9.95969E-14
 -1      2540 2.03739E+01 1.37354E+00 3.14041E-03-1.23150E+00-3.90373E-13-1.85370E-13
 -1      2541 2.02884E+01 2.36720E+00-7.48886E-03-1.82928E+00-4.33487E-13-2.61300E-13
 -1      2542 1.99122E+01 2.81615E+00 1.51167E-03-1.10159E+00-2.78082E-13-4.99982E-13
 -1      2543 1.97823E+01 3.16333E+00-1.46418E-02-1.28896E+00-2.93274E-13-5.33238E-13
 -1      2544 1.98789E+01 3.02633E+00-1.73746E-02-1.47832E+00-3.43122E-13-4.91596E-13
 -1      2545 3.08443E+01-5.67155E+00-4.84844E-02 1.33558E+00-1.08052E-13 1.89682E-13
 -1      2546 2.29146E+01-5.32802E+00 1.04111E-01 4.83291E+00-2.93376E-13 4.40358E-13
 -1      2547 1.06273E+01-3.01090E+00 1.35822E-01-5.23773E+00-1.81521E-13-4.23217E-13
 -1      2548 2.70121E+01-4.23140E+00 4.70694E-02-4.41202E+00-1.18655E-13-3.59657E-13
 -1      2549 1.80189E+01-1.78493E+00 3.97874E-02-5.53835E+00-1.54862E-13 5.89945E-14
 -1      2550 4.88993E+00-8.32410E-01 1.81318E-01-1.26956E+00 1.62433E-13 4.59521E-13
 -1      2551 1.35911E+01-3.43839E+00 1.33143E-01 5.73430E+00-2.82385E-13 6.95111E-13
 -1      2552 7.52688E+00-2.00337E+00 1.68675E-01-5.71021E+00 2.42861E-14 7.24698E-13
 -1      2553 2.37218E+01-6.19410E+00 2.48975E-02-4.73349E+00 4.16334E-14 1.92957E-13
 -1      2554 2.43856E+01-5.09386E+00 5.38986E-02-4.27733E+00-6.99718E-14 3.79502E-13
 -1      2555 7.13917E+00-1.48562E+00 1.50216E-01 3.29956E+00 4.31322E-14 3.86358E-14
 -1      2556 3.14515E+01 6.98696E+00-7.76863E-02 1.10739E+00-2.90878E-13-3.71286E-13
 -1      2557 2.00580E+01 1.43168E-02 7.00969E-04-6.86713E-02 1.83181E-13 1.30399E-13
 -1      2558 2.00585E+01 3.17387E-02 8.68388E-04-8.89500E-02 7.38459E-14 3.15111E-13
 -1      2559 2.00791E+01 1.26886E-02-1.13638E-03-1.10704E-01-6.15838E-14 4.07933E-13
 -1      2560 2.00708E+01-6.20904E-04-1.41281E-03-7.20446E-02-1.00296E-13 2.01547E-13
 -1      2561 1.99624E+01-4.75268E+00 1.01203E-02-5.71650E+00-1.30396E-13 1.72098E-13
 -1      2562 4.57864E+00-1.62347E+00 1.50732E-01 3.38943E+00 7.48845E-14-6.56919E-13
 -1      2563 3.16939E+01 8.19580E+00-8.03644E-02-2.16168E-01-4.24494E-13-2.14693E-13
 -1      2564 1.73055E+01-4.83342E+00 1.13479E-01-5.89564E+00-1.38944E-13-1.25455E-13
 -1      2565 1.78351E+01-6.17983E+00-2.75843E-02-5.82370E+00 1.42109E-14-8.35235E-14
 -1      2566 2.02440E+01-5.03590E+00 9.15857E-02-7.27795E+00-5.85643E-14 2.27995E-14
 -1      2567 3.08385E+01-1.03612E+00 6.11717E-03-1.18692E+00-3.47588E-13-3.84609E-13
 -1      2568 3.19422E+01 3.33995E+00-4.03194E-02 1.03173E+00-3.59102E-13-1.85046E-13
 -1      2569 3.27070E+01 6.31480E+00-3.88570E-02-1.11502E+00-3.09641E-13-7.92422E-14
 -1      2570 3.21999E+01 2.33666E+00-3.17190E-02-5.47188E-01-2.73989E-13-7.34135E-14
 -1      2571 2.24118E+01-1.06568E+00 1.07569E-01 4.80158E+00-2.14821E-13 2.37015E-13
 -1      2572 2.37004E+01-2.46999E+00 8.65937E-02 4.45151E+00-3.02439E-13 2.74270E-13
 -1      2573 2.76713E+01-4.44749E+00 5.26093E-02 3.18479E+00-3.56271E-13 1.23256E-13
 -1      2574 2.98260E+01-5.26428E+00 4.62890E-02 1.76199E+00-3.06033E-13 2.08264E-13
 -1      2575 2.00957E+01-1.09654E-02 6.44361E-04-8.87916E-02-7.19105E-14 3.92103E-13
 -1      2576 1.89604E+01-4.92824E-01 4.15794E-02 5.17783E+00-1.26808E-13 3.15643E-13
 -1      2577 2.44867E+01-4.84063E+00 5.83211E-02 5.75590E+00-6.48093E-14-2.66592E-13
 -1      2578 1.00678E+01-3.13003E+00 1.67401E-01 7.23791E+00 3.99680E-14-4.47670E-13
 -1      2579 9.32324E+00-1.73678E+00 1.58125E-01 6.36957E+00 5.46785E-14-4.24577E-13
 -1      2580 1.31203E+01-3.28390E+00 3.06802E-02 7.62388E+00 3.59435E-14-3.17468E-13
 -1      2581 1.99871E+01 2.84104E+00-1.48951E-02-1.58892E+00-3.71548E-13-4.33684E-13
 -1      2582 2.01327E+01 2.61323E+00-2.25224E-02-1.75480E+00-4.20015E-13-3.55271E-13
 -1      2583 2.02860E+01 2.05308E+00 3.97443E-03-1.48886E+00-4.10308E-13-3.00663E-13
 -1      2584 2.00859E+01 2.49585E+00 4.05843E-03-1.34571E+00-3.47358E-13-4.15488E-13
 -1      2585 4.48382E+00-2.07650E+00 1.42620E-01-1.73735E+00-2.72005E-15-6.85008E-13
 -1      2586 6.79248E+00-1.07602E+00 6.61934E-02-2.99254E+00-5.59414E-14-6.22613E-13
 -1      2587 4.63135E+00-7.13819E-01 1.41091E-01-4.48790E-01 4.21989E-14-6.72074E-13
 -1      2588 2.98996E+01-2.19951E+00 4.60910E-03 1.96117E+00-1.24029E-13-2.63733E-13
 -1      2589 1.88245E+01-3.21977E+00 9.92603E-02 5.90922E+00-2.76973E-13 5.47118E-13
 -1      2590 2.30414E+01-3.81719E+00 8.29322E-02 4.76037E+00-2.16077E-13 2.46976E-13
 -1      2591 1.98422E+01 2.77180E+00-6.22991E-03 5.13785E-01 1.82302E-13-4.87588E-13
 -1      2592 1.98178E+01 2.82068E+00-5.68435E-03 3.62797E-01 1.37852E-13-5.02466E-13
 -1      2593 1.98012E+01 2.85762E+00-5.57850E-03 2.27151E-01 1.12084E-13-5.16534E-13
 -1      2594 1.97930E+01 2.87389E+00-5.42153E-03 7.25409E-02 6.23836E-14-5.17953E-13
 -1      2595 1.99475E+01 2.50682E+00 3.63892E-03 2.63176E-01 1.11557E-13-4.82495E-13
 -1      2596 2.00380E+01 2.33524E+00-1.11216E-02 1.04369E+00 3.63817E-13-3.50767E-13
 -1      2597 1.99731E+01 2.48264E+00-6.98277E-03 9.09945E-01 3.11322E-13-3.95098E-13
 -1      2598 2.02060E+01 1.93422E+00-1.08687E-02 1.23194E+00 4.12764E-13-2.46255E-13
 -1      2599 2.01209E+01 2.15974E+00-4.48898E-03 1.13623E+00 3.80973E-13-3.09019E-13
 -1      2600 2.01913E+01 1.89914E+00 7.87307E-03 9.32888E-01 3.48946E-13-3.04239E-13
 -1      2601 2.03536E+01 1.35663E+00-8.02936E-03 1.16347E+00 3.97413E-13-1.03287E-13
 -1      2602 2.02759E+01 1.73033E+00 2.64142E-03 1.21882E+00 4.00856E-13-1.89114E-13
 -1      2603 2.02728E+01 1.49036E+00 2.27473E-03 9.74593E-01 3.77156E-13-2.32292E-13
 -1      2604 2.02929E+01 1.05075E+00-6.09066E-04 8.71412E-01 3.66093E-13-1.26685E-13
 -1      2605 2.01168E+01-3.09372E-02-1.56408E-03-1.11869E-01 1.43170E-13 3.28514E-13
 -1      2606 2.01026E+01-7.71429E-03 7.12144E-04-1.13082E-01 7.25745E-14 3.81742E-13
 -1      2607 2.01049E+01-1.17543E-03-2.83742E-04-1.36879E-01 1.75797E-13 4.12324E-13
 -1      2608 2.00112E+01 4.29476E-01 2.53255E-03 5.19961E-01 8.84275E-16-1.45623E-13
 -1      2609 2.00371E+01 4.37637E-01 4.14452E-04 5.99206E-01 5.71646E-15-2.26595E-13
 -1      2610 1.99148E+01 4.91982E-01-4.88966E-03 5.09074E-01 3.86296E-14-2.99117E-13
 -1      2611 1.59251E+01 6.37103E-01 5.93240E-02 4.54649E+00 5.32907E-14 3.24130E-13
 -1      2612 1.62921E+01-6.17112E-01 1.21183E-01 5.07588E+00-1.46966E-13 3.93879E-13
 -1      2613 2.02162E+01 6.26732E-01 7.13628E-03-4.40536E-01-2.76444E-13-1.98143E-13
 -1      2614 2.01329E+01 4.78657E-01-3.00783E-03-2.79822E-01-2.45332E-13-2.16078E-13
 -1      2615 2.01075E+01 3.64387E-01 6.70047E-03-1.58672E-01-2.28846E-13-1.94305E-13
 -1      2616 2.00482E+01 2.69461E-01-1.74716E-03-6.05744E-02-1.92891E-13-2.12222E-13
 -1      2617 2.01955E+01 5.31587E-01-1.65974E-03-2.61836E-01-2.45706E-13-1.88811E-13
 -1      2618 2.00219E+01 1.99345E-01 4.49219E-03 1.50680E-02-1.67504E-13-2.11608E-13
 -1      2619 1.99863E+01 1.40117E-01-8.11738E-04 7.22008E-02-1.58263E-13-2.09946E-13
 -1      2620 2.01274E+01 3.00660E-01-2.12346E-03-5.50034E-02-1.96355E-13-2.13576E-13
 -1      2621 1.99654E+01 9.62867E-02 2.89504E-03 1.16260E-01-1.39509E-13-1.96413E-13
 -1      2622 1.99475E+01 5.93954E-02-2.60533E-04 1.46422E-01-1.26722E-13-2.25643E-13
 -1      2623 2.00708E+01 1.55355E-01-1.90925E-03 7.35146E-02-1.61953E-13-2.22424E-13
 -1      2624 1.99327E+01 3.23652E-02 1.72510E-03 1.68771E-01-1.26610E-13-2.42889E-13
 -1      2625 1.99272E+01 1.01466E-02 5.11098E-05 1.81626E-01-1.09202E-13-2.65547E-13
 -1      2626 2.00299E+01 6.39159E-02-1.53183E-03 1.46143E-01-1.46276E-13-2.39630E-13
 -1      2627 1.99176E+01-5.75030E-03 9.13209E-04 1.89854E-01-5.98373E-14-2.62615E-13
 -1      2628 1.99202E+01-1.81438E-02 2.24147E-04 1.92055E-01-4.55070E-14-2.69514E-13
 -1      2629 2.00029E+01 8.19455E-03-1.15403E-03 1.80990E-01-7.41253E-14-2.88921E-13
 -1      2630 1.99146E+01-2.65348E-02 3.67101E-04 1.91665E-01-5.56649E-14-2.35576E-13
 -1      2631 1.99221E+01-3.22930E-02 3.19726E-04 1.87804E-01-8.45183E-14-1.93295E-13
 -1      2632 1.99868E+01-2.35013E-02-8.35914E-04 1.91654E-01-4.09174E-14-2.24093E-13
 -1      2633 1.99195E+01-3.56021E-02 1.29707E-05 1.82711E-01-1.13661E-13-1.46397E-13
 -1      2634 1.99296E+01-3.68971E-02 3.73127E-04 1.75951E-01-7.99213E-14-1.49868E-13
 -1      2635 1.99788E+01-3.89111E-02-5.90021E-04 1.87967E-01-4.36620E-14-1.25362E-13
 -1      2636 1.99291E+01-3.68020E-02-2.04574E-04 1.68898E-01-6.16835E-14-1.19320E-13
 -1      2637 1.99407E+01-3.51574E-02 4.03942E-04 1.61390E-01-4.33980E-14-1.12598E-13
 -1      2638 1.99763E+01-4.33203E-02-4.10087E-04 1.76919E-01-6.40561E-14-8.83087E-14
 -1      2639 1.99417E+01-3.28581E-02-3.25980E-04 1.54255E-01-7.01288E-14-1.10680E-13
 -1      2640 1.99538E+01-2.93831E-02 4.22257E-04 1.47420E-01-7.65713E-14-1.06845E-13
 -1      2641 1.99778E+01-4.04481E-02-2.85380E-04 1.63379E-01-6.98748E-14-1.07261E-13
 -1      2642 1.99559E+01-2.57815E-02-3.79189E-04 1.41442E-01-7.54443E-14-7.49594E-14
 -1      2643 1.99683E+01-2.13396E-02 4.31638E-04 1.36153E-01-6.17138E-14-3.40846E-14
 -1      2644 1.99821E+01-3.30102E-02-2.05955E-04 1.50650E-01-5.04174E-14-5.71922E-15
 -1      2645 1.99714E+01-1.71802E-02-3.81301E-04 1.32072E-01-4.78937E-14-2.61117E-14
 -1      2646 1.99840E+01-1.25305E-02 4.30092E-04 1.28756E-01-2.21536E-14-2.76614E-14
 -1      2647 1.99885E+01-2.31252E-02-1.64737E-04 1.40847E-01-3.71279E-14-9.72547E-15
 -1      2648 1.99882E+01-8.52346E-03-3.39828E-04 1.26899E-01-8.50720E-14-1.14925E-13
 -1      2649 2.00011E+01-4.45009E-03 4.10018E-04 1.25577E-01-1.38293E-13-1.33602E-13
 -1      2650 1.99969E+01-1.26522E-02-1.58177E-04 1.35138E-01-1.27550E-13-2.99924E-14
 -1      2651 2.00067E+01-1.38838E-03-2.53420E-04 1.25865E-01-1.42922E-13-1.77585E-13
 -1      2652 2.00203E+01 1.17571E-03 3.57611E-04 1.26124E-01-1.34539E-13-1.99722E-13
 -1      2653 2.00076E+01-3.49662E-03-1.86675E-04 1.33851E-01-1.71881E-13-1.24312E-13
 -1      2654 2.00280E+01 2.30684E-03-1.12461E-04 1.28026E-01-1.11329E-13-1.80468E-13
 -1      2655 2.00425E+01 2.16855E-03 2.51989E-04 1.28938E-01-9.11061E-14-2.36336E-13
 -1      2656 2.00215E+01 2.09894E-03-2.54848E-04 1.36447E-01-1.54557E-13-1.93563E-13
 -1      2657 2.00534E+01 1.02276E-04 9.98244E-05 1.31362E-01-6.03748E-14-2.37496E-13
 -1      2658 2.00692E+01-4.26779E-03 6.47884E-05 1.31353E-01-2.92637E-14-1.52606E-13
 -1      2659 2.00400E+01 1.29866E-03-3.70749E-04 1.41368E-01-6.48626E-14-2.32910E-13
 -1      2660 2.00847E+01-1.11160E-02 4.04471E-04 1.32472E-01 6.21440E-15-1.06376E-13
 -1      2661 2.01021E+01-2.15771E-02-2.39100E-04 1.29172E-01 7.26730E-14-1.17088E-13
 -1      2662 2.00654E+01-9.49653E-03-5.43674E-04 1.45766E-01 3.79208E-14-1.76719E-13
 -1      2663 2.01242E+01-3.50338E-02 8.20497E-04 1.26229E-01 5.62520E-14-8.16431E-14
 -1      2664 2.01433E+01-5.36071E-02-6.98066E-04 1.16342E-01 6.88749E-14-1.23926E-13
 -1      2665 2.01007E+01-3.46204E-02-7.79106E-04 1.45134E-01 7.41429E-14-8.48617E-14
 -1      2666 2.01743E+01-7.54630E-02 1.35292E-03 1.05461E-01 8.98820E-14-1.82516E-13
 -1      2667 2.01947E+01-1.03888E-01-1.34509E-03 8.47541E-02 4.33140E-14-2.72079E-13
 -1      2668 2.01499E+01-7.87303E-02-1.06881E-03 1.32904E-01-8.77816E-15-1.56890E-13
 -1      2669 2.02370E+01-1.35300E-01 1.97265E-03 6.08815E-02 2.94331E-14-2.59888E-13
 -1      2670 2.02577E+01-1.74184E-01-2.18971E-03 2.44323E-02 3.93687E-15-2.63770E-13
 -1      2671 2.02174E+01-1.45751E-01-1.37468E-03 1.00152E-01 6.23294E-14-2.49964E-13
 -1      2672 2.03128E+01-2.14637E-01 2.58765E-03-1.84203E-02-5.13168E-14-2.65073E-13
 -1      2673 2.03315E+01-2.62093E-01-3.18509E-03-7.54987E-02-1.37941E-14-2.59899E-13
 -1      2674 2.03069E+01-2.36865E-01-1.60661E-03 3.56978E-02-8.65151E-15-2.15720E-13
 -1      2675 2.03989E+01-3.07909E-01 3.00846E-03-1.43384E-01 3.13798E-14-2.16311E-13
 -1      2676 2.04116E+01-3.57763E-01-4.17397E-03-2.24485E-01 2.01076E-14-2.10103E-13
 -1      2677 2.04199E+01-3.47315E-01-1.60139E-03-7.29393E-02 4.87171E-14-1.63542E-13
 -1      2678 2.04865E+01-4.00388E-01 2.93460E-03-3.21572E-01 7.26416E-14-1.67851E-13
 -1      2679 2.04874E+01-4.40484E-01-4.82148E-03-4.26176E-01 1.11858E-13-1.42466E-13
 -1      2680 2.05522E+01-4.62220E-01-1.12172E-03-2.36923E-01 1.01477E-13-1.43997E-13
 -1      2681 2.05586E+01-4.65388E-01 2.01802E-03-5.51340E-01 7.61570E-14-1.30942E-13
 -1      2682 2.05403E+01-4.77271E-01-4.60745E-03-6.71781E-01 1.27526E-14-7.99435E-14
 -1      2683 2.06906E+01-5.52752E-01 7.51217E-05-4.60839E-01 1.40876E-13-1.08174E-13
 -1      2684 2.05899E+01-4.64987E-01-4.93367E-05-8.13934E-01-4.50833E-14-6.38754E-14
 -1      2685 2.05453E+01-4.26703E-01-2.91079E-03-9.32259E-01-1.37322E-14-6.51069E-14
 -1      2686 2.08094E+01-5.75464E-01 2.06047E-03-7.34365E-01 1.04439E-14-4.45309E-14
 -1      2687 2.05514E+01-3.57619E-01-3.12450E-03-1.06569E+00-5.65146E-15-5.86320E-14
 -1      2688 2.04773E+01-2.51925E-01 6.19051E-04-1.15243E+00-2.73154E-14 2.79597E-14
 -1      2689 2.08723E+01-4.79375E-01 4.42377E-03-1.02219E+00-6.20714E-14 6.84574E-14
 -1      2690 2.04232E+01-1.16860E-01-6.41740E-03-1.23586E+00-2.36893E-14 1.94746E-14
 -1      2691 2.03253E+01 5.52380E-02 5.35220E-03-1.25442E+00-2.27180E-14 3.33901E-14
 -1      2692 2.08421E+01-2.25482E-01 6.05506E-03-1.25635E+00-1.29831E-14-3.52187E-14
 -1      2693 2.02139E+01 2.41860E-01-8.27961E-03-1.24030E+00-2.32455E-14 3.01002E-14
 -1      2694 2.01092E+01 4.49079E-01 9.43941E-03-1.15969E+00 6.36486E-14-7.37224E-14
 -1      2695 2.07029E+01 1.81245E-01 5.24395E-03-1.34246E+00-3.55677E-14-1.09071E-15
 -1      2696 1.99736E+01 6.42754E-01-6.94098E-03-1.01568E+00 9.78718E-14-9.40938E-14
 -1      2697 1.98877E+01 8.24801E-01 1.03829E-02-8.28482E-01-2.01910E-14-7.61285E-14
 -1      2698 2.04845E+01 6.66025E-01 1.45977E-03-1.19137E+00 7.84711E-14-1.16718E-13
 -1      2699 1.97841E+01 9.61205E-01-2.33594E-03-5.62510E-01-5.57397E-14-5.52675E-14
 -1      2700 1.97428E+01 1.05092E+00 6.68034E-03-2.98496E-01-5.76141E-14-7.62702E-14
 -1      2701 2.02679E+01 1.08875E+00-4.05403E-03-7.70837E-01-3.34249E-14-1.10377E-13
 -1      2702 1.97225E+01 1.07602E+00 4.26691E-03 2.97116E-02-5.62267E-16-5.82858E-14
 -1      2703 1.97387E+01 1.03633E+00 2.29810E-04 3.07961E-01 5.96417E-14-2.31383E-14
 -1      2704 2.01540E+01 1.29471E+00-8.15720E-03-1.49213E-01-6.14524E-14-1.57069E-13
 -1      2705 1.98119E+01 9.39988E-01 9.47832E-03 6.08451E-01 1.26580E-13 5.24213E-14
 -1      2706 1.98797E+01 7.88016E-01-5.42812E-03 8.32190E-01 1.44376E-13 4.51935E-14
 -1      2707 2.02023E+01 1.20346E+00-6.40222E-03 5.10204E-01 7.38169E-14 3.47494E-14
 -1      2708 2.00087E+01 6.09599E-01 1.05203E-02 1.02977E+00 6.35419E-14-1.66877E-13
 -1      2709 2.01068E+01 4.03157E-01-8.21207E-03 1.15448E+00 4.41989E-14-1.82281E-13
 -1      2710 2.03861E+01 8.52286E-01-7.35982E-04 1.02638E+00-4.02873E-14-3.23605E-13
 -1      2711 2.02343E+01 2.04969E-01 7.36220E-03 1.21854E+00 2.78662E-14-1.95626E-13
 -1      2712 2.03353E+01 1.12880E-02-7.68550E-03 1.23597E+00-1.29446E-13-2.85457E-13
 -1      2713 2.06156E+01 3.71427E-01 4.16448E-03 1.28827E+00-2.84800E-14-4.39600E-13
 -1      2714 2.04144E+01-1.49265E-01 2.44097E-03 1.18476E+00-1.49124E-13-3.55083E-13
 -1      2715 2.04970E+01-2.84676E-01-4.72663E-03 1.11930E+00-5.96311E-14-3.46040E-13
 -1      2716 2.07935E+01-8.44885E-02 5.94726E-03 1.28656E+00-1.36564E-13-3.96963E-13
 -1      2717 2.05137E+01-3.81287E-01-1.70657E-03 9.98096E-01-1.44215E-15-1.95971E-13
 -1      2718 2.05675E+01-4.46079E-01-1.36225E-03 8.86134E-01 3.01771E-15-6.91276E-14
 -1      2719 2.08672E+01-4.07064E-01 5.12953E-03 1.09611E+00 2.27282E-14-2.70248E-13
 -1      2720 2.05320E+01-4.79337E-01-4.15097E-03 7.40789E-01 8.80522E-14-6.93771E-14
 -1      2721 2.05571E+01-4.84628E-01 1.24384E-03 6.16110E-01 8.24697E-14 1.91286E-13
 -1      2722 2.08368E+01-5.65238E-01 2.94461E-03 8.14816E-01 1.03270E-13-2.42588E-13
 -1      2723 2.04908E+01-4.71076E-01-4.91296E-03 4.79603E-01-4.18318E-14 2.18721E-13
 -1      2724 2.04933E+01-4.37938E-01 2.69286E-03 3.65555E-01-3.30454E-14 1.21292E-13
 -1      2725 2.07336E+01-5.83209E-01 7.42676E-04 5.24299E-01 6.72832E-14-2.07277E-13
 -1      2726 2.04164E+01-3.97764E-01-4.57351E-03 2.55150E-01-4.14135E-14 1.78899E-13
 -1      2727 2.04041E+01-3.46434E-01 3.15081E-03 1.63947E-01 8.00351E-14 2.09725E-14
 -1      2728 2.05963E+01-5.09442E-01-7.55402E-04 2.74096E-01-1.27623E-14-4.39744E-14
 -1      2729 2.03303E+01-2.96171E-01-3.73503E-03 8.48687E-02 1.01768E-13-6.45719E-14
 -1      2730 2.03101E+01-2.41063E-01 2.99525E-03 2.03255E-02-5.36078E-14-6.67507E-14
 -1      2731 2.04555E+01-3.91429E-01-1.50773E-03 8.48011E-02-6.72985E-16-6.13482E-14
 -1      2732 2.02463E+01-1.90580E-01-2.58938E-03-2.90011E-02-3.10381E-14 1.21186E-13
 -1      2733 2.02226E+01-1.40838E-01 2.41446E-03-6.70034E-02-3.90396E-14 1.86531E-13
 -1      2734 2.03286E+01-2.63270E-01-1.75928E-03-4.19779E-02 2.58197E-14-3.52267E-14
 -1      2735 2.01774E+01-1.05271E-01-2.25672E-03-8.92884E-02-8.83774E-14 2.33602E-13
 -1      2736 2.01530E+01-6.24457E-02 1.46468E-03-1.07096E-01 5.40810E-14 2.37702E-13
 -1      2737 2.01595E+01-6.01518E-02 1.12851E-03-1.34225E-01 1.31785E-13 5.31569E-13
 -1      2738 2.02313E+01-1.54858E-01-1.63708E-03-1.09009E-01-2.47830E-14 3.81349E-13
 -1      2739 1.66922E+01-3.58417E+00 1.50569E-01-5.92868E+00-1.84686E-13-8.36831E-14
 -1      2740 1.99500E+01 6.37974E-02-2.95883E-04-1.41955E-01 7.46869E-14-9.42509E-14
 -1      2741 1.99689E+01 1.02068E-01 2.98264E-03-1.10230E-01 8.75167E-14-1.04249E-13
 -1      2742 1.99901E+01 1.47594E-01-8.57550E-04-6.42091E-02 8.80289E-14-1.31175E-13
 -1      2743 2.00272E+01 2.08841E-01 4.57164E-03-4.64775E-03 1.11004E-13-1.18362E-13
 -1      2744 2.00747E+01 1.63710E-01-1.94992E-03-6.58416E-02 8.15095E-14-1.76493E-13
 -1      2745 1.99212E+01-1.71033E-02 2.22838E-04-1.91152E-01 8.18485E-14-9.62501E-14
 -1      2746 1.99190E+01-4.10035E-03 9.66881E-04-1.88390E-01 1.18275E-13-8.85457E-14
 -1      2747 1.99230E+01-3.20227E-02 3.31575E-04-1.87678E-01 1.04201E-13-4.99558E-14
 -1      2748 1.99156E+01-2.59423E-02 4.05272E-04-1.91209E-01 8.84284E-14-8.28275E-14
 -1      2749 1.99890E+01-2.23345E-02-8.72878E-04-1.90889E-01 1.01384E-13-1.66150E-13
 -1      2750 1.99309E+01-3.67818E-02 4.04227E-04-1.76366E-01 1.10123E-13-1.90235E-14
 -1      2751 1.99206E+01-3.54991E-02 3.59822E-05-1.82859E-01 1.14733E-13-1.51722E-14
 -1      2752 1.99810E+01-3.85064E-02-6.24882E-04-1.88072E-01 8.74803E-14-1.48273E-13
 -1      2753 1.99426E+01-3.43647E-02 4.42544E-04-1.62502E-01 1.26514E-13-6.89725E-14
 -1      2754 1.99307E+01-3.65064E-02-2.04949E-04-1.69596E-01 1.10562E-13-4.35253E-14
 -1      2755 1.99790E+01-4.28435E-02-4.41359E-04-1.77731E-01 1.28179E-13-1.54730E-13
 -1      2756 1.99561E+01-2.70795E-02 5.07287E-04-1.50490E-01 1.25341E-13 4.47219E-15
 -1      2757 1.99437E+01-3.15385E-02-3.56156E-04-1.56228E-01 1.41797E-13-3.24566E-14
 -1      2758 1.99809E+01-3.89406E-02-2.89911E-04-1.65457E-01 1.17577E-13-7.80545E-14
 -1      2759 1.99719E+01-1.50770E-02 6.03293E-04-1.41919E-01 5.03746E-14 8.53132E-14
 -1      2760 1.99583E+01-2.19359E-02-4.50979E-04-1.45498E-01 1.00290E-13 6.68462E-14
 -1      2761 1.99856E+01-2.88599E-02-2.20398E-04-1.54683E-01 6.82086E-14 7.01860E-14
 -1      2762 1.99889E+01 1.28028E-03 7.16064E-04-1.39986E-01 2.62086E-14 9.71677E-14
 -1      2763 1.99745E+01-7.85084E-03-5.36068E-04-1.39879E-01 7.58446E-14 1.03802E-13
 -1      2764 1.99921E+01-1.30947E-02-1.46423E-04-1.48108E-01 5.87883E-14 1.16044E-13
 -1      2765 2.00068E+01 2.27040E-02 8.75818E-04-1.47145E-01 7.23960E-14 7.30397E-14
 -1      2766 1.99915E+01 1.08067E-02-6.36893E-04-1.42079E-01 6.49466E-14 9.94853E-14
 -1      2767 1.99994E+01 8.23578E-03-7.14604E-05-1.48605E-01 5.38262E-14 3.90805E-14
 -1      2768 2.00253E+01 5.08664E-02 1.09474E-03-1.66153E-01 2.20684E-14 1.67270E-14
 -1      2769 2.00086E+01 3.52014E-02-7.86228E-04-1.54602E-01 7.00166E-14 9.24391E-14
 -1      2770 2.00063E+01 3.62011E-02 3.09851E-05-1.58619E-01 6.84078E-14 1.38801E-13
 -1      2771 2.00434E+01 8.86430E-02 1.38574E-03-2.00462E-01-2.67672E-14-1.62002E-14
 -1      2772 2.00250E+01 6.75503E-02-1.02718E-03-1.80428E-01-1.34831E-14-3.39913E-14
 -1      2773 2.00112E+01 7.30783E-02 2.01242E-04-1.80810E-01 2.87930E-14 8.78661E-14
 -1      2774 2.00587E+01 1.40474E-01 1.74966E-03-2.54642E-01 6.09320E-15-9.46477E-14
 -1      2775 2.00388E+01 1.11442E-01-1.41632E-03-2.23394E-01 1.72613E-14-3.29358E-14
 -1      2776 2.00112E+01 1.22643E-01 5.01943E-04-2.18344E-01 1.27862E-14-4.97145E-14
 -1      2777 2.00662E+01 2.12849E-01 2.08003E-03-3.34809E-01-6.44606E-14-9.77902E-14
 -1      2778 2.00463E+01 1.72358E-01-2.00357E-03-2.88576E-01-5.90364E-14-1.08846E-13
 -1      2779 2.00010E+01 1.90552E-01 1.02254E-03-2.75129E-01-3.30094E-15-9.00865E-14
 -1      2780 2.00591E+01 3.09076E-01 2.49052E-03-4.42178E-01-7.34653E-14-6.73329E-15
 -1      2781 2.00412E+01 2.55133E-01-2.94454E-03-3.80193E-01-7.56095E-14-6.94280E-14
 -1      2782 1.99734E+01 2.82678E-01 2.12215E-03-3.53384E-01-8.82691E-14-7.79633E-14
 -1      2783 2.00216E+01 4.50881E-01 3.08861E-03-5.97778E-01 1.17413E-13 7.38721E-14
 -1      2784 2.00105E+01 3.71648E-01-4.36879E-03-5.06857E-01 2.17336E-14 3.32501E-14
 -1      2785 1.99138E+01 4.09748E-01 3.42354E-03-4.60161E-01-1.21323E-14-8.84721E-14
 -1      2786 1.99267E+01 6.48078E-01 3.28102E-03-8.08498E-01 6.22612E-14 1.37325E-13
 -1      2787 1.99333E+01 5.38410E-01-6.53641E-03-6.84015E-01 1.60444E-13 1.42381E-13
 -1      2788 1.97974E+01 5.91006E-01 5.95806E-03-6.04307E-01 7.97237E-14 1.80845E-13
 -1      2789 1.97323E+01 9.14035E-01 2.96658E-03-1.08666E+00 2.86446E-14 5.31062E-14
 -1      2790 1.97746E+01 7.67685E-01-9.68342E-03-9.20505E-01 4.23290E-14 1.31094E-13
 -1      2791 1.95873E+01 8.38686E-01 9.95722E-03-7.88857E-01 5.11187E-14 1.82479E-13
 -1      2792 1.93741E+01 1.25147E+00 1.97901E-03-1.44328E+00 2.17764E-14-1.13052E-13
 -1      2793 1.94797E+01 1.06918E+00-1.41667E-02-1.22834E+00 5.00838E-14-6.20478E-15
 -1      2794 1.92258E+01 1.16470E+00 1.60973E-02-1.01676E+00 5.57203E-14 3.47201E-14
 -1      2795 1.87648E+01 1.62966E+00 1.32064E-03-1.88694E+00-4.54875E-14-1.43013E-13
 -1      2796 1.89689E+01 1.43273E+00-2.02095E-02-1.61892E+00-3.92876E-14-9.10632E-14
 -1      2797 1.86277E+01 1.56478E+00 2.53232E-02-1.28806E+00 3.06795E-14-1.98279E-14
 -1      2798 1.78074E+01 1.93645E+00 6.72892E-03-2.42975E+00-1.42982E-13-2.19149E-13
 -1      2799 1.81375E+01 1.79439E+00-2.65865E-02-2.10650E+00-4.01506E-14-1.62638E-13
 -1      2800 1.76748E+01 1.99193E+00 3.98487E-02-1.60499E+00-1.89594E-14 3.27754E-14
 -1      2801 1.64341E+01 1.88731E+00 3.51671E-02-3.11282E+00-1.15939E-13-2.90686E-13
 -1      2802 1.68763E+01 1.96967E+00-2.53782E-02-2.72390E+00-1.73975E-13-3.01564E-13
 -1      2803 1.62158E+01 2.30412E+00 6.72383E-02-1.99450E+00-1.31725E-13-1.38700E-13
 -1      2804 1.47652E+01 8.94341E-01 8.72410E-02-3.99380E+00-1.60639E-13-1.46723E-13
 -1      2805 1.51948E+01 1.59175E+00 1.71073E-02-3.55119E+00-1.17122E-13-2.61346E-13
 -1      2806 1.41721E+01 2.20534E+00 1.40863E-01-2.54065E+00-1.60247E-13-3.01065E-13
 -1      2807 6.54064E+00 5.29367E-01 1.78181E-01 1.87475E-01 1.81990E-13 2.82246E-13
 -1      2808 6.51578E+00 2.84752E-01 1.45351E-01-2.39941E+00 3.10724E-14 9.99034E-13
 -1      2809 6.74727E+00-2.49332E-01 1.62753E-01 3.66777E+00 1.85164E-13-5.42039E-13
 -1      2810 5.38454E+00-2.12641E-01 2.65647E-01 1.45445E+00 1.08195E-13-6.96027E-13
 -1      2811 1.98747E+01 2.69914E+00-6.14286E-03-6.37749E-01-1.31170E-13-4.86257E-13
 -1      2812 1.99176E+01 2.60947E+00-7.75310E-03-7.87245E-01-1.89030E-13-4.85204E-13
 -1      2813 1.80853E+01 1.78860E+00-2.68236E-02 2.64123E+00 3.30617E-14 3.94094E-14
 -1      2814 1.78601E+01 1.83866E+00 1.97263E-02 2.99639E+00 3.66283E-14 1.01980E-13
 -1      2815 3.48861E+01 5.00923E-01-6.60013E-01-5.41163E+00 3.13305E-13-4.42077E-13
 -1      2816 1.68852E+01 1.74110E+00-8.08233E-03 3.39968E+00-1.82181E-14 1.10145E-13
 -1      2817 1.66477E+01 1.40427E+00 6.49703E-02 3.83055E+00 1.73177E-14 9.76753E-14
 -1      2818 1.58323E+01 2.16949E+00 6.33099E-02 2.63451E+00 4.97154E-14 2.84460E-14
 -1      2819 1.94706E+01 1.15899E+00-1.65558E-02 1.55249E+00-1.75770E-13 5.25605E-14
 -1      2820 1.93881E+01 1.34226E+00 4.43985E-03 1.81072E+00-1.79932E-13 4.52432E-14
 -1      2821 1.97804E+01 8.48609E-01-1.13699E-02 1.17083E+00 1.57858E-13-8.60301E-14
 -1      2822 1.97583E+01 1.00069E+00 4.67848E-03 1.37264E+00-1.12986E-13-9.17359E-14
 -1      2823 1.91461E+01 1.29056E+00 1.83287E-02 1.31554E+00-5.10948E-14-6.28427E-14
 -1      2824 1.99411E+01 6.17899E-01-6.41189E-03 8.72664E-01 3.71741E-13-1.01606E-14
 -1      2825 1.99541E+01 7.25715E-01 4.64156E-03 1.02918E+00 4.20697E-13-1.04072E-13
 -1      2826 1.95567E+01 9.48426E-01 1.09737E-02 1.02247E+00 2.50395E-13-2.33251E-13
 -1      2827 2.00543E+01 4.89926E-01 9.51991E-04 7.08998E-01 1.92352E-13-1.88725E-13
 -1      2828 9.14512E+00-5.24783E-01 1.60139E-01 3.79496E+00 1.05013E-13 9.94205E-14
 -1      2829 7.18908E+00 1.94697E-01 2.05321E-01 1.92447E+00 1.99778E-13-1.17406E-13
 -1      2830 8.63943E+00 1.11273E+00 1.80256E-01 7.69060E-01 1.97736E-13 1.70308E-13
 -1      2831 2.03225E+01 1.58005E+00-8.99419E-03-1.24395E+00-3.82974E-13-2.65423E-13
 -1      2832 2.03062E+01 1.21509E+00 8.17920E-04-9.72402E-01-3.52499E-13-2.42592E-13
 -1      2833 2.02409E+01 1.84497E+00-4.46506E-04-1.22108E+00-3.55850E-13-3.22541E-13
 -1      2834 1.97108E+01 5.50447E-01 2.02884E-03-1.92243E-01 3.80262E-13 4.42117E-13
 -1      2835 1.96659E+01 5.83922E-01-4.59825E-03-1.10282E-01 2.94742E-13 6.08923E-13
 -1      2836 2.00417E+01 1.63060E-01 2.65227E-03-3.61509E-01 2.16602E-14-7.08353E-13
 -1      2837 1.99963E+01 2.10007E-01-1.73809E-03-3.70445E-01-1.99122E-14-6.88314E-13
 -1      2838 2.01021E+01 7.26579E-02 1.61950E-03-3.05442E-01 1.47711E-13-3.74247E-13
 -1      2839 2.00762E+01 1.11140E-01-1.69786E-04-3.32410E-01 7.14381E-14-5.50934E-13
 -1      2840 2.00733E+01 7.30449E-02-2.54412E-03-3.88926E-01 6.19456E-14-5.90875E-13
 -1      2841 2.01242E+01 1.50236E-02-2.03029E-05-2.28885E-01 8.25918E-14-7.28526E-14
 -1      2842 2.01184E+01 4.41780E-02 1.23741E-03-2.63908E-01 9.88342E-14-3.01692E-13
 -1      2843 2.01359E+01-2.45608E-03-2.14668E-03-3.11105E-01 7.37508E-14-4.01742E-13
 -1      2844 2.01123E+01 1.36730E-02 1.10469E-03-1.67946E-01 2.79182E-13 1.53124E-13
 -1      2845 7.59544E+00-6.00863E-01 1.78210E-01-4.57722E+00 2.37317E-13 8.61228E-13
 -1      2846 9.80922E+00-1.65437E+00 1.00584E-01-6.40026E+00 1.14075E-13 5.73652E-13
 -1      2847 2.00536E+01 2.82159E-01-1.63012E-03 7.39060E-02 1.43751E-13-1.31862E-13
 -1      2848 2.01107E+01 3.78224E-01 4.91875E-03 1.76439E-01 1.96923E-13-1.31746E-13
 -1      2849 2.01319E+01 3.13775E-01-2.29442E-03 6.74974E-02 1.28026E-13-1.74866E-13
 -1      2850 1.28062E+01-2.64961E+00 1.72379E-01-7.19138E+00 9.08995E-14 3.90105E-13
 -1      2851 1.53434E+01-3.71435E+00 2.43430E-02-7.70412E+00 1.76553E-13 2.40849E-13
 -1      2852 1.89397E+01-4.53715E+00 1.35003E-01-7.22424E+00 1.05305E-13-4.56093E-14
 -1      2853 2.26931E+01-5.14722E+00-6.99238E-02-6.27018E+00 5.85781E-14-3.05509E-13
 -1      2854 1.85049E+01-3.71958E+00 1.27192E-01-6.79477E+00 2.45276E-13 1.01585E-14
 -1      2855 2.57731E+01-4.60182E+00 7.67682E-02-4.36408E+00-4.78159E-14-3.82597E-13
 -1      2856 2.77062E+01-3.94973E+00-1.21524E-01-3.00338E+00-1.11147E-13-5.42844E-13
 -1      2857 2.92009E+01 7.63281E+00-1.94628E-01-1.41990E-01-2.13413E-13-2.88458E-13
 -1      2858 3.01347E+01 7.36709E+00-1.69938E-01-9.24275E-01-3.32817E-13-6.41640E-14
 -1      2859 1.99448E+01 2.83314E-01 3.25806E-03-3.73147E-01 2.66962E-14-4.39546E-13
 -1      2860 1.98844E+01 3.35366E-01-3.33523E-03-3.54778E-01 1.36259E-13-1.86692E-13
 -1      2861 1.99641E+01 1.91253E-01-2.00999E-03-4.26837E-01 1.29160E-13-6.19574E-13
 -1      2862 1.98251E+01 4.20704E-01 3.13393E-03-3.20039E-01 2.22564E-13 4.92331E-14
 -1      2863 1.97631E+01 4.68599E-01-4.47344E-03-2.68593E-01 4.41080E-13 1.81540E-13
 -1      2864 1.96774E+01 4.99943E-01 1.14805E-03-2.85625E-01 4.02807E-13 3.24201E-13
 -1      2865 1.98220E+01 3.41158E-01-7.55481E-04-3.98006E-01 4.86993E-14-1.50454E-13
 -1      2866 2.57917E+01-4.77127E+00-1.40839E-01 4.41518E+00 1.18336E-13-2.10235E-13
 -1      2867 2.29031E+01-4.86854E+00 1.20294E-01 5.98346E+00-1.22818E-14-1.95177E-13
 -1      2868 1.89361E+01 1.50955E+00-2.29232E-02 2.03471E+00-1.73132E-13 2.28652E-13
 -1      2869 1.87672E+01 1.68231E+00 6.50425E-03 2.35201E+00-6.56940E-15 1.36635E-13
 -1      2870 1.74256E+01 2.06696E+00 4.58151E-02 2.08675E+00-8.12213E-14 3.07391E-13
 -1      2871 1.84749E+01 1.69354E+00 2.93434E-02 1.66603E+00-1.52200E-13 2.88465E-13
 -1      2872 2.97622E+01 5.65559E+00-1.29644E-01 1.71750E+00-3.02341E-13-3.19605E-13
 -1      2873 2.90535E+01 6.89021E+00-2.08515E-01 1.09578E+00-3.11084E-13-3.61600E-13
 -1      2874 3.04237E+01 6.45100E+00-2.12338E-01-1.34710E+00-4.07702E-13 1.40860E-15
 -1      2875 3.06586E+01 5.02874E+00-1.37993E-01-1.63465E+00-2.76834E-13 5.08621E-14
 -1      2876 2.85992E+01 6.28320E+00-1.14730E-01-1.29968E+00-3.14110E-13-4.60118E-14
 -1      2877 3.03536E+01 1.79404E+00-7.03684E-02 1.35319E+00-2.25098E-13-1.61829E-13
 -1      2878 3.00971E+01 3.67275E+00-2.07409E-01 1.69849E+00-2.95042E-13-1.02363E-13
 -1      2879 1.99288E+01 1.25267E-02 3.62165E-05-1.79385E-01 1.11353E-13-7.26405E-14
 -1      2880 1.99348E+01 3.56762E-02 1.79509E-03-1.65571E-01 8.49091E-14-8.67792E-14
 -1      2881 2.00054E+01 1.08440E-02-1.19277E-03-1.78853E-01 1.18468E-13-1.58626E-13
 -1      2882 2.96238E+01-1.62705E+00-1.79231E-01 4.44641E-01-1.57811E-13-1.77164E-13
 -1      2883 2.83416E+01-3.22698E+00 5.53683E-02 1.96008E+00 6.07171E-14-2.92669E-13
 -1      2884 1.96166E+01-4.79656E+00-3.23978E-02 7.28117E+00-6.06182E-14-2.14440E-13
 -1      2885 1.71248E+01-4.04017E+00 1.84234E-01 7.53956E+00 8.29337E-14-2.45103E-13
 -1      2886 3.08049E+01 2.93792E+00-2.00000E-01-1.37908E+00-3.28571E-13 1.86101E-14
 -1      2887 3.04791E+01 1.00081E+00-6.59084E-02-8.62296E-01-3.06075E-13-5.05151E-15
 -1      2888 2.03063E+01 9.89731E-01 2.81890E-03-7.99002E-01-3.28499E-13-2.32167E-13
 -1      2889 2.02196E+01 7.61808E-01-3.69858E-03-5.62367E-01-3.07064E-13-2.33153E-13
 -1      2890 2.02527E+01 8.22226E-01-4.03782E-03-5.24221E-01-2.79158E-13-2.34386E-13
 -1      2891 2.02850E+01 1.21659E+00 3.25970E-03-8.30778E-01-3.14323E-13-2.74048E-13
 -1      2892 1.99202E+01 2.60480E+00-7.69008E-03 7.92663E-01 2.83713E-13-4.33617E-13
 -1      2893 1.98765E+01 2.69555E+00-6.11351E-03 6.43382E-01 2.23032E-13-4.65372E-13
 -1      2894 1.99957E+01 2.39567E+00 4.36700E-03 5.15308E-01 1.98879E-13-4.34313E-13
 -1      2895 2.00774E+01 2.20044E+00 6.15848E-03 7.46590E-01 2.83334E-13-3.72040E-13
 -1      2896 2.92423E+01-2.44747E+00-1.04876E-02-1.25366E+00-1.81785E-13-5.17086E-13
 -1      2897 3.00079E+01-6.31289E-01-1.91188E-01 1.96604E-01-2.78506E-13-3.61905E-13
 -1      2898 2.80871E+01-3.10918E+00 3.33048E-02-1.38388E+00-6.81434E-14-5.68087E-13
 -1      2899 1.32111E+01-2.32337E+00 9.18071E-02-5.70819E+00-1.57513E-13-2.66592E-13
 -1      2900 1.60396E+01-2.17600E+00 1.35392E-01-5.53958E+00-1.33615E-13-9.94899E-14
 -1      2901 1.50730E+01-2.52096E-01 1.61021E-01-5.03605E+00-8.94285E-14-7.68136E-14
 -1      2902 1.04152E+01-1.16654E+00 2.55756E-01-4.62889E+00-8.64447E-14-4.19387E-13
 -1      2903 1.99315E+01 2.54329E+00 3.43025E-03 2.33140E-03 2.66363E-14-4.79958E-13
 -1      2904 1.97927E+01 2.87424E+00-5.47109E-03-6.46202E-02 1.64403E-14-5.33696E-13
 -1      2905 1.98004E+01 2.85916E+00-5.54968E-03-2.19278E-01-2.33824E-14-5.27631E-13
 -1      2906 2.02730E+01 8.35585E-01 1.84028E-03 6.86255E-01 3.44385E-13-1.25716E-13
 -1      2907 2.02850E+01 1.05559E+00 4.33150E-03 7.60473E-01 3.48109E-13-1.77290E-13
 -1      2908 2.02007E+01 6.72339E-01-1.64856E-03 5.04003E-01 3.19901E-13-1.41417E-13
 -1      2909 1.40039E+01 1.35977E+00 8.54766E-02 3.68955E+00 1.06151E-13 6.93196E-14
 -1      2910 1.99717E+01 2.48843E+00-6.60089E-03-9.04746E-01-2.27777E-13-4.63892E-13
 -1      2911 2.00369E+01 2.34215E+00-1.01051E-02-1.03824E+00-2.89586E-13-4.36848E-13
 -1      2912 2.00748E+01 2.20542E+00 5.81853E-03-7.41221E-01-1.86745E-13-4.24543E-13
 -1      2913 1.25976E+01-1.51317E+00 1.57889E-01-6.31905E+00 2.14218E-13 3.76879E-13
 -1      2914 2.00330E+01 6.88495E-02-1.57310E-03-1.41807E-01 7.21957E-14-1.43650E-13
 -1      2915 1.24680E+01 7.43989E-01 7.04604E-02-3.99682E+00-1.14166E-13-2.32259E-13
 -1      2916 8.90449E+00 5.78113E-01 1.91318E-01-3.15308E+00 1.55126E-13 7.79876E-13
 -1      2917 6.56404E+00 4.89764E-01 9.11684E-02 1.52802E-01 1.30763E-14-5.87225E-13
 -1      2918 2.01239E+01 4.53335E-01-3.95100E-04 2.59942E-01 2.36131E-13-1.30604E-13
 -1      2919 2.01866E+01 5.63517E-01 4.33539E-03 3.90203E-01 2.66631E-13-1.39354E-13
 -1      2920 2.02273E+01 7.01366E-01-3.67572E-03 4.53743E-01 2.79594E-13-1.55534E-13
 -1      2921 2.01852E+01 5.02130E-01-1.07030E-03 2.44384E-01 2.03355E-13-1.87423E-13
 -1      2922 2.69665E+01 5.98665E+00-9.56351E-02 1.03090E+00-3.46251E-13-2.69888E-13
 -1      2923 2.82002E+01 6.97822E+00-1.50601E-01 5.56532E-01-2.65149E-13-2.74525E-13
 -1      2924 2.70073E+01 6.63275E+00-1.18447E-01-1.74232E-02-1.95302E-13-2.92444E-13
 -1      2925 1.98267E+01 6.50466E-01 4.96789E-03 7.38152E-01 3.57076E-13-1.94358E-14
 -1      2926 1.16625E+01-7.34252E-01 1.85923E-01 4.75667E+00 1.13520E-14 5.02931E-13
 -1      2927 1.10189E+01 6.41493E-01 8.68973E-02 3.60622E+00 3.10918E-13 2.99205E-14
 -1      2928 1.96494E+01 6.62520E-01-2.90933E-03 2.21346E-01 1.76713E-13 4.32966E-13
 -1      2929 1.96905E+01 6.42233E-01-1.57787E-03 3.15658E-01 1.96519E-13 1.91815E-13
 -1      2930 1.98163E+01 2.82329E+00-5.70667E-03-3.54314E-01-4.91706E-14-4.92999E-13
 -1      2931 1.98409E+01 2.77460E+00-6.19942E-03-5.07884E-01-9.99030E-14-4.81289E-13
 -1      2932 1.99942E+01 2.39935E+00 4.39265E-03-5.09680E-01-1.01282E-13-4.44175E-13
 -1      2933 1.99468E+01 2.50850E+00 3.64847E-03-2.58019E-01-4.63519E-14-4.77747E-13
 -1      2934 2.68042E+01-3.84608E+00 2.23574E-02 2.63659E+00 1.41616E-13-2.45713E-13
 -1      2935 2.01443E+01-2.94948E-02-7.26561E-04-2.00203E-01 8.63796E-14 1.02087E-13
 -1      2936 2.85586E+01 4.11171E+00-8.84000E-02 1.90153E+00-3.68372E-13-3.06415E-13
 -1      2937 1.96402E+01 6.40255E-01-3.36429E-04 8.90434E-04 2.51919E-13 7.25891E-13
 -1      2938 1.96336E+01 6.49601E-01-3.27956E-03 9.94382E-02 1.58386E-13 7.04221E-13
 -1      2939 1.95577E+01 7.01619E-01 4.23310E-03 1.57015E-01 3.03651E-13 4.88127E-13
 -1      2940 1.46124E+01-1.95216E+00 1.05334E-01 5.54883E+00-2.58599E-13 6.55032E-13
 -1      2941 2.43732E+01-4.66221E+00 3.60240E-02-4.76433E+00 7.05686E-14-4.70381E-13
 -1      2942 2.93720E+01 3.61004E+00-9.21751E-02-1.85014E+00-3.25198E-13-1.26010E-14
 -1      2943 2.19623E+01-4.51345E+00 8.21771E-02 5.97605E+00 1.23276E-13-2.98659E-14
 -1      2944 1.97537E+01 6.04968E-01-4.37702E-03 4.06075E-01 3.05074E-13-1.69531E-13
 -1      2945 1.98292E+01 5.59331E-01 1.62958E-05 4.57270E-01 3.09540E-13-3.62999E-13
 -1      2946 1.98249E+01 5.89940E-01 3.86336E-03 5.37566E-01 2.17577E-13-9.44438E-14
 -1      2947 1.96400E+01 6.84584E-01 2.83357E-03 3.83882E-01 2.33349E-13-2.68687E-14
 -1      2948 2.91498E+01 1.47568E-01-5.45346E-02 1.06057E+00-1.01530E-13-2.52492E-13
 -1      2949 1.55273E+01-3.16541E+00 1.12082E-01 7.23833E+00 1.50518E-13-2.11692E-13
 -1      2950 9.75968E+00-3.19071E-01 1.96707E-01-3.69893E+00-2.78527E-14-4.26020E-13
 -1      2951 1.09192E+01-8.50917E-01 1.25028E-01 5.69009E+00 1.48784E-13-4.47156E-13
 -1      2952 8.62113E+00-4.85696E-01 2.26356E-01 4.94429E+00 1.82770E-13-6.05821E-13
 -1      2953 8.67756E+00 5.72616E-01 1.41222E-01 3.36440E+00 2.32855E-13-6.15286E-13
 -1      2954 2.90756E+01-5.76877E-01-6.53204E-02-6.82312E-01-2.35287E-13-1.28689E-13
 -1      2955 1.95758E+01 6.34064E-01 3.89866E-03-8.97528E-02 2.79122E-13 6.45614E-13
 -1      2956 2.02922E+01 1.20868E+00-1.72069E-03 7.99840E-01 3.34488E-13-2.28460E-13
 -1      2957 2.02529E+01 1.42509E+00-2.35623E-03 8.31049E-01 3.46185E-13-2.52355E-13
 -1      2958 2.02750E+01 1.00221E+00 3.16617E-03 6.22294E-01 3.00573E-13-2.03732E-13
 -1      2959 2.02129E+01 1.60620E+00-3.30320E-04 7.74199E-01 3.12262E-13-2.94087E-13
 -1      2960 2.02219E+01 4.25179E-01 4.17873E-03-1.20282E-01-1.94014E-13-2.08979E-13
 -1      2961 2.01821E+01 3.17926E-01-2.29257E-03-3.49268E-02-1.77421E-13-2.19791E-13
 -1      2962 2.01681E+01 2.34660E-01 3.19652E-03 2.73156E-02-1.77348E-13-2.07413E-13
 -1      2963 2.01378E+01 1.64451E-01-1.29017E-03 7.88981E-02-1.70756E-13-2.45506E-13
 -1      2964 2.02377E+01 3.35456E-01-8.08759E-04-2.54367E-02-1.73257E-13-2.18221E-13
 -1      2965 2.01210E+01 1.10901E-01 2.22054E-03 1.15449E-01-1.62809E-13-2.32146E-13
 -1      2966 2.01000E+01 6.63255E-02-5.99364E-04 1.43455E-01-1.37327E-13-2.62896E-13
 -1      2967 2.01972E+01 1.71755E-01-1.00612E-03 7.85878E-02-1.65514E-13-1.97455E-13
 -1      2968 2.00836E+01 3.30166E-02 1.44134E-03 1.62039E-01-8.35411E-14-2.57876E-13
 -1      2969 2.00703E+01 6.06602E-03-1.54008E-04 1.74362E-01-5.34694E-14-2.53067E-13
 -1      2970 2.01581E+01 6.67097E-02-9.66323E-04 1.38086E-01-1.05021E-13-2.36391E-13
 -1      2971 2.00556E+01-1.33272E-02 8.47396E-04 1.81037E-01-2.11055E-14-2.22546E-13
 -1      2972 2.00480E+01-2.81011E-02 1.24921E-04 1.83528E-01-2.55234E-14-1.93601E-13
 -1      2973 2.01238E+01 2.36782E-03-8.37060E-04 1.66734E-01-3.06453E-14-2.10504E-13
 -1      2974 2.00354E+01-3.78978E-02 4.15652E-04 1.82922E-01-2.03221E-14-1.20663E-13
 -1      2975 2.00319E+01-4.42874E-02 2.95123E-04 1.79811E-01 1.82360E-15-8.15409E-14
 -1      2976 2.00951E+01-3.36536E-02-6.89332E-04 1.75352E-01 2.45474E-14-1.73174E-13
 -1      2977 2.00214E+01-4.75133E-02 1.14460E-04 1.75339E-01-6.08151E-14-9.74430E-14
 -1      2978 2.00209E+01-4.82097E-02 3.95664E-04 1.69627E-01-7.52586E-14-9.67937E-14
 -1      2979 2.00718E+01-5.00609E-02-5.50498E-04 1.72154E-01-3.75264E-14-1.00317E-13
 -1      2980 2.00123E+01-4.70278E-02-8.73238E-05 1.63738E-01-8.33517E-14-6.01250E-14
 -1      2981 2.00138E+01-4.39780E-02 4.52633E-04 1.57504E-01-4.34611E-14-4.66261E-14
 -1      2982 2.00532E+01-5.30781E-02-4.31456E-04 1.63162E-01-5.43475E-14-8.05968E-14
 -1      2983 2.00069E+01-3.99777E-02-2.14592E-04 1.51911E-01-4.08727E-14-6.83825E-14
 -1      2984 2.00099E+01-3.46429E-02 4.83326E-04 1.46546E-01-5.81194E-14-3.19759E-14
 -1      2985 2.00387E+01-4.72314E-02-3.36758E-04 1.52670E-01-4.77790E-14-4.88268E-14
 -1      2986 2.00045E+01-2.90603E-02-2.84391E-04 1.42400E-01-4.28233E-14-6.49458E-14
 -1      2987 2.00087E+01-2.26264E-02 4.98206E-04 1.38766E-01-2.20374E-14-6.66461E-14
 -1      2988 2.00276E+01-3.59272E-02-2.69280E-04 1.43658E-01-5.78062E-14-1.47360E-13
 -1      2989 2.00048E+01-1.65316E-02-3.04824E-04 1.36788E-01-1.27554E-13-6.68277E-14
 -1      2990 2.00101E+01-1.00996E-02 5.02142E-04 1.35306E-01-2.06114E-13-1.02742E-13
 -1      2991 2.00196E+01-2.19309E-02-2.34017E-04 1.38097E-01-8.90482E-14-1.39750E-13
 -1      2992 2.00079E+01-4.57234E-03-2.74891E-04 1.35848E-01-2.06894E-13-1.00989E-13
 -1      2993 2.00145E+01 6.61560E-04 4.94877E-04 1.36527E-01-2.19474E-13-1.45613E-13
 -1      2994 2.00147E+01-7.79449E-03-2.38688E-04 1.37159E-01-2.17034E-13-1.22840E-13
 -1      2995 2.00146E+01 4.36509E-03-1.83967E-04 1.39579E-01-1.93254E-13-1.19146E-13
 -1      2996 2.00231E+01 6.93617E-03 4.70350E-04 1.41980E-01-1.60713E-13-1.21122E-13
 -1      2997 2.00136E+01 3.73360E-03-2.96396E-04 1.41298E-01-2.10765E-13-9.40680E-14
 -1      2998 2.00266E+01 7.22763E-03-1.11422E-05 1.47110E-01-1.26950E-13-1.11761E-13
 -1      2999 2.00377E+01 5.24997E-03 4.15400E-04 1.50245E-01-4.73334E-14-1.27952E-13
 -1      3000 2.00177E+01 9.31812E-03-4.26340E-04 1.50213E-01-1.41385E-13-8.90391E-14
 -1      3001 2.00464E+01 9.12892E-05 2.74180E-04 1.56464E-01 4.15122E-14-1.88359E-13
 -1      3002 2.00614E+01-8.83201E-03 3.07477E-04 1.58642E-01 1.01359E-13-1.53074E-13
 -1      3003 2.00297E+01 4.69410E-03-6.53084E-04 1.62672E-01-2.91361E-14-1.29201E-13
 -1      3004 2.00781E+01-2.19508E-02 7.09406E-04 1.64183E-01 9.30980E-14-1.57611E-13
 -1      3005 2.00985E+01-4.06785E-02 1.11836E-04 1.62810E-01 6.39098E-14-1.46410E-13
 -1      3006 2.00536E+01-1.55385E-02-1.00362E-03 1.76170E-01 9.90366E-14-2.31511E-13
 -1      3007 2.01270E+01-6.45711E-02 1.33108E-03 1.64827E-01 8.56274E-15-1.19734E-13
 -1      3008 2.01546E+01-9.61098E-02-2.20829E-04 1.56205E-01 1.38053E-14-1.12001E-13
 -1      3009 2.00955E+01-5.78108E-02-1.49854E-03 1.86416E-01 6.35494E-14-2.00385E-13
 -1      3010 2.01995E+01-1.33387E-01 2.15820E-03 1.50416E-01 2.30629E-14-1.59576E-13
 -1      3011 2.02362E+01-1.80129E-01-7.52919E-04 1.29625E-01 4.45377E-14-1.56523E-13
 -1      3012 2.01634E+01-1.28893E-01-2.13473E-03 1.86644E-01 3.42601E-14-1.03808E-13
 -1      3013 2.03029E+01-2.32162E-01 3.16177E-03 1.09989E-01 2.82412E-15-1.10651E-13
 -1      3014 2.03497E+01-2.94461E-01-1.54677E-03 7.10200E-02 1.49413E-15-5.28981E-14
 -1      3015 2.02667E+01-2.34200E-01-2.85588E-03 1.66847E-01 2.09158E-14-9.68937E-14
 -1      3016 2.04424E+01-3.59627E-01 4.21564E-03 2.96698E-02 6.22756E-14-4.05607E-14
 -1      3017 2.04986E+01-4.33529E-01-2.62779E-03-3.39019E-02 1.02083E-13-3.31923E-14
 -1      3018 2.04150E+01-3.74595E-01-3.50978E-03 1.13203E-01 6.09349E-14 4.42168E-14
 -1      3019 2.06186E+01-5.04684E-01 5.01947E-03-1.05992E-01 9.53182E-14-7.03261E-14
 -1      3020 2.06801E+01-5.78871E-01-3.88066E-03-1.99329E-01 1.64748E-13-5.82072E-14
 -1      3021 2.06147E+01-5.41237E-01-3.80262E-03 8.33625E-03 9.49646E-14-5.58176E-14
 -1      3022 2.08216E+01-6.40435E-01 5.05944E-03-3.09919E-01 1.72325E-13-4.99973E-14
 -1      3023 2.08796E+01-6.93476E-01-4.89136E-03-4.33614E-01 8.66012E-14-7.46326E-14
 -1      3024 2.08631E+01-7.08445E-01-3.25538E-03-1.66183E-01 1.28718E-13-1.05402E-13
 -1      3025 2.10257E+01-7.19878E-01 3.74769E-03-5.84146E-01 5.71440E-14 2.34930E-14
 -1      3026 2.10667E+01-7.20114E-01-4.90100E-03-7.29271E-01-3.10700E-15 5.23396E-14
 -1      3027 2.11416E+01-8.27587E-01-1.34105E-03-4.22610E-01 1.40639E-13-1.06117E-13
 -1      3028 2.11871E+01-6.78246E-01 3.18736E-04-9.07013E-01-8.34967E-14 1.26789E-13
 -1      3029 2.11960E+01-5.89071E-01-2.85322E-03-1.04971E+00-6.54261E-14 1.24662E-13
 -1      3030 2.14084E+01-8.25857E-01 2.22330E-03-7.53974E-01 4.23180E-15 8.37886E-14
 -1      3031 2.12515E+01-4.47315E-01-4.91322E-03-1.21808E+00-1.30286E-13 1.38066E-13
 -1      3032 2.12181E+01-2.44279E-01 1.93105E-03-1.31594E+00-7.24313E-14 5.71591E-14
 -1      3033 2.15995E+01-6.20330E-01 6.46350E-03-1.11535E+00-1.16218E-13 1.98902E-13
 -1      3034 2.11790E+01 4.76652E-03-1.06132E-02-1.41156E+00-9.86606E-14-3.51791E-15
 -1      3035 2.11077E+01 3.07311E-01 8.05391E-03-1.41153E+00-4.47014E-14-8.53224E-15
 -1      3036 2.16476E+01-1.54170E-01 9.75583E-03-1.40612E+00-1.22544E-13 8.60631E-14
 -1      3037 2.09817E+01 6.22890E-01-1.34941E-02-1.36251E+00 4.75885E-14-5.36752E-14
 -1      3038 2.08960E+01 9.52705E-01 1.23305E-02-1.22420E+00 7.24390E-14-1.11747E-13
 -1      3039 2.15239E+01 5.34635E-01 8.12160E-03-1.48090E+00-3.75191E-14 9.02750E-15
 -1      3040 2.07441E+01 1.24141E+00-1.03727E-02-9.92064E-01 1.01988E-13-7.94259E-14
 -1      3041 2.06795E+01 1.48174E+00 1.04450E-02-7.18024E-01-4.52882E-14-6.81670E-14
 -1      3042 2.12861E+01 1.28048E+00 1.51595E-03-1.21225E+00 7.31181E-14-9.85167E-14
 -1      3043 2.05913E+01 1.62797E+00-3.14517E-03-3.38980E-01-5.58394E-14-8.50876E-14
 -1      3044 2.05793E+01 1.67246E+00 1.00516E-03 7.17073E-03 1.97923E-14-3.26266E-15
 -1      3045 2.10738E+01 1.82648E+00-5.14585E-03-5.86860E-01 3.44507E-14 3.79701E-14
 -1      3046 2.06177E+01 1.60811E+00 6.91453E-03 4.13315E-01-7.48815E-15 4.46921E-14
 -1      3047 2.06619E+01 1.43699E+00-8.40228E-03 7.28131E-01 1.10643E-14-2.68890E-14
 -1      3048 2.10298E+01 1.92656E+00-8.00336E-03 2.35746E-01 7.17412E-14 1.24613E-13
 -1      3049 2.07999E+01 1.19445E+00 1.28433E-02 1.02831E+00-9.15206E-14-1.23585E-13
 -1      3050 2.08792E+01 8.86979E-01-1.28098E-02 1.22676E+00-1.61291E-13-2.07369E-13
 -1      3051 2.11875E+01 1.54665E+00 3.55316E-04 9.70716E-01-2.01015E-13-1.13899E-13
 -1      3052 2.10301E+01 5.65038E-01 1.07380E-02 1.35166E+00-1.35140E-13-3.01729E-13
 -1      3053 2.11109E+01 2.34949E-01-1.27492E-02 1.40300E+00-1.33901E-13-4.74838E-13
 -1      3054 2.14351E+01 8.42794E-01 5.90389E-03 1.39378E+00-2.32993E-13-1.58390E-13
 -1      3055 2.11906E+01-5.08761E-02 4.18416E-03 1.35527E+00-9.65289E-14-5.00101E-13
 -1      3056 2.12404E+01-3.00566E-01-7.67269E-03 1.28902E+00-8.47747E-14-3.58819E-13
 -1      3057 2.16239E+01 9.44497E-02 9.49263E-03 1.44652E+00-1.18085E-13-4.14716E-13
 -1      3058 2.12227E+01-4.88670E-01-1.38169E-03 1.13929E+00 4.51402E-15-1.97813E-13
 -1      3059 2.12297E+01-6.24051E-01-1.96328E-03 1.00638E+00 7.98442E-14-1.77419E-13
 -1      3060 2.16479E+01-4.75974E-01 7.90947E-03 1.21973E+00 3.04435E-14-2.22987E-13
 -1      3061 2.11321E+01-7.04222E-01-4.51759E-03 8.23458E-01 1.01112E-13-1.84961E-13
 -1      3062 2.11015E+01-7.36069E-01 2.40998E-03 6.72692E-01 9.95049E-14-9.27217E-14
 -1      3063 2.15103E+01-7.87533E-01 3.62837E-03 8.66763E-01 1.22249E-13 1.38311E-14
 -1      3064 2.09621E+01-7.32227E-01-5.18347E-03 5.05377E-01 3.48408E-14-1.24722E-13
 -1      3065 2.09080E+01-6.94441E-01 4.65626E-03 3.68896E-01 5.74390E-14-1.14665E-14
 -1      3066 2.12673E+01-8.62523E-01-3.59889E-04 5.08777E-01 8.27497E-14 8.95399E-14
 -1      3067 2.07621E+01-6.40700E-01-4.42249E-03 2.39359E-01 2.12741E-14-1.64531E-13
 -1      3068 2.06992E+01-5.67963E-01 5.20275E-03 1.32157E-01 6.12874E-14-1.15289E-13
 -1      3069 2.09882E+01-7.77987E-01-2.75952E-03 2.14138E-01 1.85081E-14 2.06119E-14
 -1      3070 2.05687E+01-4.93335E-01-3.24830E-03 4.41322E-02 5.44599E-14-1.58076E-13
 -1      3071 2.05078E+01-4.11150E-01 4.64958E-03-3.05427E-02-1.10276E-14-1.79638E-13
 -1      3072 2.07244E+01-6.13957E-01-3.71963E-03 3.81239E-03 7.30653E-14-2.42135E-13
 -1      3073 2.04026E+01-3.34528E-01-2.16905E-03-8.24544E-02 3.57744E-14-7.05874E-14
 -1      3074 2.03499E+01-2.57533E-01 3.87449E-03-1.27845E-01 8.88122E-14 1.53350E-13
 -1      3075 2.05028E+01-4.28317E-01-3.70779E-03-1.27164E-01 1.00420E-13-8.42343E-14
 -1      3076 2.00246E+01-4.72326E-02 4.14170E-04-1.70809E-01 1.01774E-13-1.07424E-13
 -1      3077 2.00250E+01-4.68657E-02 1.21639E-04-1.76098E-01 7.11191E-14-1.19801E-13
 -1      3078 2.00353E+01-4.36350E-02 3.04970E-04-1.80230E-01 9.50012E-14-1.73105E-13
 -1      3079 2.00387E+01-3.69951E-02 4.41914E-04-1.82923E-01 9.05462E-14-1.53605E-13
 -1      3080 2.00759E+01-4.90485E-02-5.67739E-04-1.72887E-01 5.63507E-14-1.39996E-13
 -1      3081 2.00511E+01-2.67432E-02 1.19979E-04-1.83065E-01 7.05896E-14-1.40545E-13
 -1      3082 2.00588E+01-1.12819E-02 8.88362E-04-1.79986E-01 1.03671E-13-1.41816E-13
 -1      3083 2.00990E+01-3.20947E-02-7.10542E-04-1.75181E-01 8.71269E-14-1.58585E-13
 -1      3084 2.00182E+01-4.17062E-02 4.87971E-04-1.60260E-01 6.42596E-14-6.97347E-15
 -1      3085 2.00164E+01-4.55944E-02-1.13366E-04-1.65582E-01 1.03642E-13-5.18081E-14
 -1      3086 2.00580E+01-5.14719E-02-4.41694E-04-1.64919E-01 4.41126E-14-5.18072E-14
 -1      3087 2.00142E+01-2.86499E-02 5.48887E-04-1.50995E-01 3.64218E-14 5.48024E-14
 -1      3088 2.00110E+01-3.62921E-02-2.79880E-04-1.55203E-01 4.83267E-14 1.56925E-14
 -1      3089 2.00436E+01-4.34698E-02-3.15830E-04-1.55685E-01 3.87710E-14 4.08690E-14
 -1      3090 2.00119E+01-9.08018E-03 5.93622E-04-1.46372E-01 3.90130E-14 1.09617E-13
 -1      3091 2.00077E+01-1.99653E-02-4.24418E-04-1.47805E-01 6.55758E-14 1.14657E-13
 -1      3092 2.00314E+01-2.68946E-02-1.93880E-04-1.48197E-01 3.34296E-14 4.92897E-14
 -1      3093 2.00097E+01 1.70838E-02 6.37842E-04-1.48755E-01 8.78892E-14 7.24128E-15
 -1      3094 2.00052E+01 2.74602E-03-5.76789E-04-1.46196E-01 7.27129E-14 4.95778E-14
 -1      3095 2.00203E+01-2.73093E-03-5.46073E-05-1.45330E-01 9.65958E-14 9.75520E-14
 -1      3096 2.00060E+01 5.11084E-02 6.77937E-04-1.60313E-01 2.33078E-14 5.89146E-14
 -1      3097 2.00018E+01 3.25252E-02-7.62826E-04-1.52556E-01 4.59150E-14 1.79862E-14
 -1      3098 2.00083E+01 2.93348E-02 1.25874E-04-1.49166E-01 6.63820E-14 3.37336E-14
 -1      3099 1.99976E+01 9.55694E-02 7.01248E-04-1.83261E-01 4.22672E-14-3.59132E-14
 -1      3100 1.99949E+01 7.12589E-02-1.01854E-03-1.68976E-01 4.56157E-14 2.29541E-14
 -1      3101 1.99927E+01 7.09410E-02 3.85417E-04-1.61461E-01 4.90435E-14-9.94346E-14
 -1      3102 1.99799E+01 1.54611E-01 6.71485E-04-2.20003E-01-1.04197E-14-3.92949E-14
 -1      3103 1.99808E+01 1.22266E-01-1.38722E-03-1.97635E-01 4.68416E-14 1.37504E-14
 -1      3104 1.99692E+01 1.25202E-01 7.81127E-04-1.83735E-01 1.69269E-14-8.63825E-14
 -1      3105 1.99450E+01 2.34355E-01 4.82369E-04-2.73134E-01-2.34291E-14-5.06072E-14
 -1      3106 1.99531E+01 1.90718E-01-1.89199E-03-2.40866E-01-2.52061E-14-1.25714E-14
 -1      3107 1.99315E+01 1.96924E-01 1.38774E-03-2.17212E-01-8.04902E-15 9.08644E-14
 -1      3108 1.98850E+01 3.36986E-01 1.11451E-04-3.41132E-01-8.75333E-14-3.37662E-14
 -1      3109 1.99041E+01 2.80768E-01-2.67657E-03-2.99583E-01-4.27974E-14 5.60107E-15
 -1      3110 1.98716E+01 2.90528E-01 2.46763E-03-2.61136E-01-4.85231E-14 3.57138E-14
 -1      3111 1.97751E+01 4.83766E-01-4.95579E-04-4.33157E-01 7.75519E-15 5.07163E-14
 -1      3112 1.98175E+01 4.03645E-01-3.73880E-03-3.75824E-01-8.01737E-14 8.12441E-15
 -1      3113 1.97739E+01 4.15544E-01 3.80919E-03-3.16190E-01-1.00936E-13 7.26440E-14
 -1      3114 1.95863E+01 6.83017E-01-1.86885E-03-5.46329E-01 9.66360E-15 2.32206E-13
 -1      3115 1.96667E+01 5.74753E-01-5.33827E-03-4.73873E-01 4.62313E-14 1.35317E-13
 -1      3116 1.96124E+01 5.87960E-01 6.16860E-03-3.80891E-01-5.00163E-14 2.00466E-13
 -1      3117 1.92722E+01 9.47387E-01-4.31513E-03-6.77310E-01 7.83040E-14 1.32863E-13
 -1      3118 1.94156E+01 8.05129E-01-7.53873E-03-5.89977E-01 1.05147E-13 1.91829E-13
 -1      3119 1.93538E+01 8.16906E-01 9.70966E-03-4.46949E-01 4.38106E-14 1.66325E-13
 -1      3120 1.87631E+01 1.28338E+00-8.26219E-03-8.16704E-01 5.64830E-14 9.12562E-14
 -1      3121 1.90070E+01 1.10536E+00-1.06482E-02-7.17557E-01 6.35673E-14 5.77043E-14
 -1      3122 1.89460E+01 1.11231E+00 1.49962E-02-5.00206E-01 1.29988E-13 1.57109E-13
 -1      3123 1.79587E+01 1.67809E+00-1.37842E-02-9.48191E-01 7.20908E-15 4.76267E-14
 -1      3124 1.83569E+01 1.47442E+00-1.50817E-02-8.43261E-01 4.41162E-14 7.92336E-14
 -1      3125 1.83139E+01 1.47436E+00 2.29288E-02-5.16589E-01 4.71813E-14 1.90851E-13
 -1      3126 1.67188E+01 2.07395E+00-1.87878E-02-1.05404E+00-3.18794E-14 3.17689E-14
 -1      3127 1.73432E+01 1.88069E+00-2.12509E-02-9.48077E-01 1.03411E-14 6.88631E-15
 -1      3128 1.73491E+01 1.87961E+00 3.54768E-02-4.61200E-01 3.48695E-14 6.61853E-14
 -1      3129 1.48455E+01 2.31861E+00-1.31227E-02-1.14069E+00-6.84383E-14-8.30967E-14
 -1      3130 1.57889E+01 2.22930E+00-2.66221E-02-1.01909E+00-3.45644E-16-2.03223E-14
 -1      3131 1.58953E+01 2.25585E+00 5.84087E-02-2.92758E-01 1.59840E-14 4.29439E-14
 -1      3132 1.21788E+01 2.12556E+00 1.33262E-02-1.27983E+00-8.60917E-14-2.94820E-13
 -1      3133 1.34940E+01 2.29820E+00-2.29655E-02-1.08500E+00-7.41343E-14-2.30486E-13
 -1      3134 1.37802E+01 2.44634E+00 1.09736E-01 1.83224E-02 5.28657E-14-7.32071E-14
 -1      3135 9.53316E+00 1.47273E+00 1.34662E-01-1.95266E+00 1.22579E-13 6.64538E-13
 -1      3136 1.04097E+01 5.11342E-01 8.72495E-02-4.11984E+00 3.15956E-13 6.42097E-13
 -1      3137 1.21748E+01-3.63199E-01 1.33349E-01-5.29863E+00 2.38035E-13 3.43642E-13
 -1      3138 1.44233E+01-1.66353E+00-5.75421E-03-6.24813E+00 2.07619E-13 8.47100E-14
 -1      3139 2.78834E+01-9.40593E-01-1.34420E-02 9.04130E-01-8.44533E-14-3.71120E-13
 -1      3140 2.76898E+01 7.85104E-01-1.45449E-01 1.74018E+00-1.11973E-13-3.59376E-13
 -1      3141 1.52006E+01 2.24835E+00-2.94214E-02 1.59017E+00-3.86653E-14 3.44105E-13
 -1      3142 1.43062E+01 2.25248E+00 3.76837E-02 1.76804E+00-9.42779E-15 1.86986E-13
 -1      3143 2.70481E+01-3.28124E+00 7.33899E-02-1.41643E+00 1.71703E-14-5.42462E-13
 -1      3144 2.76419E+01-2.40986E+00-1.38867E-01-1.28448E-01-5.42968E-15-3.75405E-13
 -1      3145 2.69140E+01-1.46238E+00-1.60297E-02 7.29278E-01 1.71668E-14-3.92783E-13
 -1      3146 1.93492E+01 9.24637E-01-1.18213E-02 7.81680E-01 3.93422E-13-2.43887E-13
 -1      3147 1.91906E+01 1.07938E+00-4.20398E-03 8.94956E-01 1.18802E-13-2.92928E-13
 -1      3148 1.88608E+01 1.24243E+00-1.59531E-02 9.54898E-01 1.66223E-13-2.43907E-13
 -1      3149 1.85887E+01 1.43438E+00-8.53795E-03 1.08245E+00 1.00526E-13-9.85535E-14
 -1      3150 1.88064E+01 1.30362E+00 3.19575E-02 7.11305E-01 2.52716E-13-3.08514E-13
 -1      3151 2.01996E+01-8.19023E-02 1.23715E-04-3.09513E-01 4.65389E-14-3.61761E-13
 -1      3152 2.01792E+01-5.30786E-02 6.30254E-04-3.56015E-01 1.86492E-13-5.83890E-13
 -1      3153 1.97005E+01 6.62686E-01-3.17314E-03 5.90687E-01 2.37579E-13-3.75429E-14
 -1      3154 1.95700E+01 8.04018E-01-5.91816E-04 7.24197E-01 4.05289E-13-2.04530E-14
 -1      3155 1.92936E+01 9.86783E-01 1.98312E-02 6.29941E-01 2.46464E-13-2.64959E-13
 -1      3156 1.96017E+01 7.25986E-01 1.41836E-03 5.22602E-01 2.54657E-13-1.37766E-13
 -1      3157 2.68999E+01-3.34746E+00-9.65111E-02 1.33579E+00 1.11014E-13-2.03733E-13
 -1      3158 2.54791E+01-4.13511E+00 9.94446E-02 3.29228E+00 1.14067E-13-2.75710E-13
 -1      3159 2.01449E+01-1.56021E-02 2.75178E-03-4.15364E-01 4.82657E-14-5.69324E-13
 -1      3160 2.00910E+01 2.95393E-02-6.19904E-04-4.50764E-01 2.69439E-14-6.98865E-13
 -1      3161 2.01979E+01-1.12555E-01-2.99150E-03-4.17498E-01 8.17118E-14-4.85988E-13
 -1      3162 2.01861E+01 3.32617E-01-2.12533E-03 4.58622E-02 1.06055E-13-2.00138E-13
 -1      3163 2.02234E+01 4.42106E-01 3.02430E-03 1.34268E-01 1.38844E-13-2.07524E-13
 -1      3164 2.01034E+01 7.16574E-02-6.39984E-04-1.39661E-01 8.46574E-14-2.14060E-13
 -1      3165 2.01248E+01 1.17867E-01 2.28287E-03-1.10236E-01 6.46903E-14-2.14820E-13
 -1      3166 2.01818E+01-7.81936E-02 2.46769E-04-1.80307E-01 1.57409E-13 2.99028E-13
 -1      3167 2.02001E+01-7.63701E-02 2.19767E-03-2.44788E-01-8.82097E-14 1.32736E-13
 -1      3168 2.02450E+01-1.41628E-01 5.59361E-04-2.90336E-01 6.86655E-14-1.89754E-13
 -1      3169 2.02172E+01-1.21342E-01 1.54947E-04-1.76245E-01 1.66054E-14 2.42714E-13
 -1      3170 2.77688E+01 3.96835E+00-1.54180E-01-1.98744E+00-3.04007E-13-5.49005E-14
 -1      3171 2.82247E+01 2.39598E+00-5.09246E-02-2.02071E+00-2.70214E-13-4.73580E-14
 -1      3172 2.00238E+01 1.02549E-01 4.27296E-03-4.89237E-01 3.95729E-14-6.22340E-13
 -1      3173 1.99389E+01 1.63037E-01-2.66534E-03-4.97101E-01-1.80194E-14-4.57760E-13
 -1      3174 2.00736E+01-1.14327E-02-3.86619E-03-5.25954E-01-6.77039E-14-5.46958E-13
 -1      3175 1.94077E+01 7.44351E-01-5.39353E-04 6.99693E-02 2.87003E-13 8.61568E-13
 -1      3176 1.94175E+01 7.56268E-01-3.34065E-03 1.97161E-01 2.09531E-13 4.25867E-13
 -1      3177 1.21404E+01 1.34254E+00 1.28579E-01 2.99678E+00 2.73864E-13 1.91375E-13
 -1      3178 1.03928E+01 1.52699E+00 1.99296E-01 2.06268E+00 2.61843E-13-5.71765E-15
 -1      3179 9.52141E+00 1.67778E+00 6.97402E-02 3.45426E-01 6.74703E-14 4.01693E-13
 -1      3180 1.28565E+01 2.03619E+00 7.57373E-03 2.28405E+00 1.50210E-13-2.13718E-14
 -1      3181 1.75058E+01-2.82184E+00 1.33313E-01-6.44273E+00 2.69861E-13 5.02237E-14
 -1      3182 2.02133E+01-4.05483E+00-5.60863E-02-6.16760E+00 3.05041E-13-7.43919E-14
 -1      3183 2.74822E+01 2.77201E+00-4.49342E-02 2.11798E+00-2.39780E-13-4.12968E-13
 -1      3184 2.67913E+01 4.30674E+00-1.25673E-01 1.88341E+00-3.85705E-13-5.15317E-13
 -1      3185 2.70127E+01 5.94518E+00-1.32185E-01-1.21502E+00-2.90656E-13-3.68178E-14
 -1      3186 2.75067E+01 5.09993E+00-1.13724E-01-1.78759E+00-3.41158E-13 1.30590E-14
 -1      3187 2.65942E+01 3.79662E+00-7.68314E-02-1.91642E+00-2.90663E-13-2.08999E-14
 -1      3188 2.01004E+01 2.20299E+00-4.74137E-03-1.10545E+00-3.11225E-13-4.23367E-13
 -1      3189 2.01730E+01 2.01208E+00-1.03161E-02-1.18720E+00-3.44542E-13-3.77663E-13
 -1      3190 2.02490E+01 1.61866E+00 3.07589E-03-9.76184E-01-3.24181E-13-3.41854E-13
 -1      3191 2.01736E+01 1.93890E+00 7.04589E-03-9.03890E-01-2.70684E-13-4.00722E-13
 -1      3192 2.28296E+01-4.51214E+00-1.04456E-01 5.07675E+00 1.58477E-13-5.06973E-14
 -1      3193 2.07542E+01-3.86199E+00 1.65045E-01 6.02194E+00 1.82743E-13 6.55621E-14
 -1      3194 2.82575E+01 3.07990E-01-1.35415E-01-1.45334E+00-2.78791E-13 1.11300E-14
 -1      3195 2.78124E+01-1.47530E+00-1.31345E-02-4.66648E-01-1.12726E-13-1.99701E-14
 -1      3196 2.71813E+01 1.00485E+00-5.68487E-02-1.80751E+00-1.99299E-13-3.41324E-14
 -1      3197 2.02783E+01 7.16925E-01 7.81420E-03-3.47253E-01-2.43200E-13-2.38987E-13
 -1      3198 2.02279E+01 5.53077E-01-3.35892E-03-2.15522E-01-2.09753E-13-2.43835E-13
 -1      3199 2.02714E+01 5.81741E-01-6.60962E-04-1.89371E-01-1.90613E-13-2.37844E-13
 -1      3200 1.73365E+01-3.23677E+00-1.66336E-02 6.79638E+00 2.13302E-13 3.53606E-14
 -1      3201 1.42804E+01-2.01335E+00 1.48465E-01 6.67422E+00 9.74221E-14-1.47965E-13
 -1      3202 1.00505E+01 1.26421E+00 2.74140E-01-2.39533E+00-5.16670E-14-3.95656E-13
 -1      3203 1.94730E+01 6.34121E-01 2.15770E-03-2.13112E-01 2.37729E-13 5.54723E-13
 -1      3204 1.94187E+01 6.80320E-01-5.51824E-03-9.03661E-02 2.83343E-13 6.86203E-13
 -1      3205 1.93006E+01 7.67460E-01 4.61110E-03-5.29998E-02 2.06086E-13 6.66214E-13
 -1      3206 2.29877E+01-4.23854E+00 1.24025E-01-4.97736E+00 2.07476E-13-4.13666E-13
 -1      3207 2.50264E+01-4.47682E+00-1.29565E-01-3.51027E+00 3.07809E-14-5.98366E-13
 -1      3208 2.00430E+01 2.16683E+00-4.24170E-03 2.91184E-01 1.27594E-13-4.45848E-13
 -1      3209 2.00300E+01 2.20495E+00-3.32553E-03 1.69219E-01 8.18937E-14-4.49795E-13
 -1      3210 2.01415E+01 1.73300E-01-1.34725E-03-7.20739E-02 5.49503E-14-2.16729E-13
 -1      3211 2.01722E+01 2.45747E-01 3.20913E-03-1.83988E-02 7.32100E-14-2.08871E-13
 -1      3212 2.02009E+01 1.81146E-01-1.03238E-03-7.23917E-02 6.43269E-14-2.62941E-13
 -1      3213 2.00734E+01 8.96769E-03-1.74796E-04-1.72595E-01 1.07890E-13-1.89055E-13
 -1      3214 2.00871E+01 3.70417E-02 1.49635E-03-1.59353E-01 9.34080E-14-1.91272E-13
 -1      3215 2.01276E+01 5.48809E-03-8.58577E-04-1.65283E-01 7.50908E-14-1.79356E-13
 -1      3216 9.74302E+00 1.51890E+00 1.14794E-01-7.40319E-01-2.21489E-14-4.42868E-13
 -1      3217 1.00926E+01 1.86568E+00 1.93352E-01 1.00851E+00 8.88777E-14-4.36401E-13
 -1      3218 1.49668E+01-1.04913E+00 8.97164E-02 5.57905E+00 2.17777E-13-5.64965E-14
 -1      3219 1.29063E+01-9.80942E-01 1.06609E-01 5.96243E+00 1.58512E-13-2.62818E-13
 -1      3220 1.19187E+01 1.64880E-01 8.48094E-02 4.71153E+00 2.89369E-13-4.50959E-13
 -1      3221 2.01575E+01 1.81166E+00-7.09744E-03 6.88318E-01 2.85459E-13-3.38850E-13
 -1      3222 2.01210E+01 1.93823E+00-2.65389E-03 5.89436E-01 2.37798E-13-3.53824E-13
 -1      3223 2.01619E+01 7.24063E-02-9.83858E-04-1.34719E-01 9.57042E-14-2.63196E-13
 -1      3224 2.01175E+01 1.94415E+00-2.95706E-03-5.85645E-01-1.32189E-13-4.01316E-13
 -1      3225 2.01540E+01 1.81707E+00-7.22018E-03-6.80545E-01-1.89652E-13-3.93755E-13
 -1      3226 2.02588E+01-1.73463E-01-7.06301E-04-1.60436E-01 1.83326E-14 2.45342E-13
 -1      3227 1.26660E+01 4.52773E-01 1.11509E-01-4.18916E+00 3.05891E-13 4.50633E-13
 -1      3228 1.08830E+01 1.81791E+00 9.86519E-02-6.70306E-01 6.99545E-14 5.27550E-13
 -1      3229 1.68127E+01-1.82106E+00 9.58893E-02-5.71634E+00 2.58411E-13 3.86670E-14
 -1      3230 2.00883E+01 2.03221E+00-5.29622E-03 5.04208E-01 2.15227E-13-3.86105E-13
 -1      3231 2.00632E+01 2.11162E+00-3.05417E-03 3.90310E-01 1.61189E-13-4.14020E-13
 -1      3232 2.02010E+01 1.70321E+00 6.11935E-03 4.59768E-01 2.02131E-13-3.36868E-13
 -1      3233 2.02232E+01 5.29283E-01-1.88101E-03 2.03218E-01 1.70291E-13-2.03026E-13
 -1      3234 2.02450E+01 6.23298E-01-8.87069E-04 2.96884E-01 2.09854E-13-2.01871E-13
 -1      3235 2.02680E+01 5.53305E-01-6.23179E-04 1.76081E-01 1.53976E-13-1.92531E-13
 -1      3236 2.65254E+01 1.29867E+00-4.30342E-02 1.91390E+00-7.72438E-14-6.44432E-13
 -1      3237 1.27222E+01 2.36995E+00 1.10014E-01 1.17099E+00 8.50708E-15 2.88033E-13
 -1      3238 2.53621E+01 5.70677E+00-5.57730E-02-7.96229E-03-1.58568E-13-1.89601E-13
 -1      3239 2.62552E+01 5.90168E+00-1.26285E-01-6.65171E-01-1.24720E-13-1.92853E-13
 -1      3240 2.54280E+01 5.05310E+00-4.96228E-02-1.12320E+00-1.32588E-13-7.63998E-14
 -1      3241 2.71183E+01-2.58585E+00-2.91292E-02 2.49063E-01 2.78163E-14-6.38864E-14
 -1      3242 2.58497E+01-3.05113E+00-1.83141E-02 1.04949E+00 1.17806E-13-9.45975E-14
 -1      3243 2.66101E+01-1.58236E+00-1.58712E-02-6.56795E-01-5.62831E-14-3.55341E-14
 -1      3244 1.80354E+01 1.69509E+00 4.26518E-02 7.54628E-01 9.15268E-14-2.38573E-13
 -1      3245 1.80939E+01 1.62920E+00-2.09810E-02 1.13800E+00-6.60383E-14 4.72673E-14
 -1      3246 1.76671E+01 1.83531E+00-9.67996E-03 1.28000E+00-3.47413E-14 2.09393E-13
 -1      3247 2.02330E+01 1.52702E+00-3.02192E-03-8.14640E-01-2.65867E-13-3.62320E-13
 -1      3248 2.02754E+01 1.35578E+00-1.42258E-03-8.29044E-01-2.88261E-13-3.20853E-13
 -1      3249 2.02799E+01 1.15304E+00 5.78613E-03-6.67180E-01-2.62598E-13-3.12253E-13
 -1      3250 2.56327E+01-3.53376E+00 8.60343E-03-2.01411E+00 1.46844E-13-5.19664E-13
 -1      3251 2.40382E+01-3.92030E+00 3.29387E-02 3.64630E+00 1.57187E-13-2.51877E-13
 -1      3252 2.00616E+01 2.11493E+00-3.12570E-03-3.85628E-01-7.89854E-14-4.27888E-13
 -1      3253 2.00871E+01 2.03630E+00-5.25757E-03-4.99342E-01-1.07224E-13-4.29055E-13
 -1      3254 2.02018E+01 1.71174E+00 7.88313E-03-4.59177E-01-1.15057E-13-3.78070E-13
 -1      3255 1.96486E+01 4.56438E-01 4.90232E-03-4.05927E-01 1.68307E-13 2.03415E-13
 -1      3256 1.95536E+01 5.20056E-01-5.75894E-03-3.27778E-01 1.52841E-13 5.27135E-13
 -1      3257 1.94258E+01 5.88450E-01 1.35008E-03-3.47065E-01 1.37043E-13 4.37316E-13
 -1      3258 2.02411E+01 3.49752E-01-9.42142E-04 3.52200E-02 1.09294E-13-2.29021E-13
 -1      3259 2.03185E+01-2.37491E-01-2.35325E-03-2.06312E-01 1.46457E-13 1.34318E-13
 -1      3260 1.90686E+01-3.06957E+00 5.54593E-02 5.90945E+00 2.38413E-13 9.70161E-14
 -1      3261 2.01595E+01 1.85373E+00 5.30836E-03 2.90494E-01 1.40768E-13-3.95778E-13
 -1      3262 1.98798E+01 1.54375E-01-2.99338E-03-5.72124E-01-4.27516E-14-4.18689E-13
 -1      3263 1.98478E+01 2.67530E-01 5.23229E-03-4.95205E-01 9.88847E-14-3.27294E-13
 -1      3264 1.97455E+01 3.35526E-01-4.60208E-03-4.62909E-01 1.65635E-13-1.76985E-13
 -1      3265 1.95003E+01 7.65936E-01-6.42918E-04 4.22812E-01 2.40464E-13-9.76118E-14
 -1      3266 1.93259E+01 8.38078E-01-3.79225E-03 3.46827E-01 1.98969E-13 1.38833E-13
 -1      3267 2.02569E+01 1.40331E+00 5.30191E-03 6.12577E-01 2.65325E-13-2.88438E-13
 -1      3268 2.54032E+01 3.64410E+00-3.20846E-03 1.82146E+00-2.30697E-13-4.17142E-13
 -1      3269 2.61919E+01 4.75645E+00-1.05577E-01 1.62271E+00-3.54328E-13-3.68150E-13
 -1      3270 2.53151E+01 5.10359E+00-9.08226E-02 1.04221E+00-2.96492E-13-3.01616E-13
 -1      3271 1.69242E+01 2.01133E+00-2.75705E-02 1.31521E+00-1.17661E-13 2.13404E-13
 -1      3272 1.62818E+01 2.18809E+00-1.50938E-03 1.46567E+00-6.53826E-14 2.49445E-13
 -1      3273 1.68934E+01 2.08515E+00 5.54263E-02 7.33441E-01-6.31502E-14 1.09093E-13
 -1      3274 1.51923E+01 2.40577E+00 8.19314E-02 7.23679E-01-7.76362E-14 3.41256E-13
 -1      3275 2.17958E+01-3.66903E+00 5.52126E-02-4.93989E+00 3.74575E-13-3.32447E-13
 -1      3276 2.01372E+01 1.92788E+00 4.97817E-03 1.00151E-01 5.18619E-14-4.08381E-13
 -1      3277 2.00231E+01 2.22338E+00-3.65235E-03 6.41638E-02 4.73434E-14-4.37440E-13
 -1      3278 2.00231E+01 2.22379E+00-3.59893E-03-5.99562E-02-1.86800E-15-4.58187E-13
 -1      3279 2.02554E+01 9.60554E-01-4.75968E-03-5.30828E-01-2.54895E-13-2.82018E-13
 -1      3280 2.02755E+01 9.86736E-01-4.49698E-03-4.71622E-01-2.42267E-13-3.00047E-13
 -1      3281 2.02998E+01 4.43186E-01 2.57262E-03-7.12233E-02-1.50610E-13-2.37890E-13
 -1      3282 2.02752E+01 3.30554E-01-2.15908E-03-3.92763E-03-1.54353E-13-2.18335E-13
 -1      3283 2.02094E+01 6.65692E-02-6.66078E-04-1.29895E-01 6.89658E-14-2.91028E-13
 -1      3284 2.02311E+01 1.16155E-01 1.63490E-03-1.05972E-01 7.25926E-14-3.12465E-13
 -1      3285 2.02997E+01-3.08899E+00-7.32397E-03 5.14935E+00 3.22402E-13-2.08895E-14
 -1      3286 1.77978E+01-2.13851E+00 7.84526E-02 5.69375E+00 2.76737E-13 2.19325E-13
 -1      3287 2.03137E+01 7.29965E-01-1.17596E-03-2.44169E-01-1.95048E-13-2.58249E-13
 -1      3288 2.02949E+01 5.75492E-01-3.30168E-03-1.41592E-01-1.73394E-13-2.58670E-13
 -1      3289 2.03320E+01 5.82731E-01 9.71551E-04-1.14317E-01-1.53816E-13-2.36944E-13
 -1      3290 2.02668E+01 2.41458E-01 2.09921E-03 4.15042E-02-1.52925E-13-1.87694E-13
 -1      3291 2.02423E+01 1.66745E-01-1.26942E-03 8.29762E-02-1.37701E-13-1.78558E-13
 -1      3292 2.03153E+01 3.32992E-01-7.83822E-05 3.94038E-03-1.42051E-13-1.93697E-13
 -1      3293 2.02271E+01 1.08637E-01 1.58624E-03 1.09763E-01-1.27958E-13-1.82932E-13
 -1      3294 2.02055E+01 6.08210E-02-6.29744E-04 1.32507E-01-8.10479E-14-1.72720E-13
 -1      3295 2.02831E+01 1.65282E-01-4.26034E-04 7.94903E-02-1.29824E-13-1.43723E-13
 -1      3296 2.01875E+01 2.47134E-02 1.09104E-03 1.45785E-01-3.82841E-14-1.70657E-13
 -1      3297 2.01696E+01-3.93262E-03-1.88981E-04 1.55811E-01-4.59029E-15-1.66217E-13
 -1      3298 2.02446E+01 5.66572E-02-5.68238E-04 1.22611E-01-5.54382E-14-1.28021E-13
 -1      3299 2.01511E+01-2.44698E-02 6.79295E-04 1.60108E-01 2.68108E-14-1.97162E-13
 -1      3300 2.01368E+01-3.95637E-02 1.02012E-04 1.62126E-01 4.11897E-14-1.52913E-13
 -1      3301 2.02050E+01-9.32548E-03-5.98662E-04 1.42853E-01 3.93023E-15-1.24909E-13
 -1      3302 2.01191E+01-4.91879E-02 3.60896E-04 1.61046E-01 8.80099E-15-1.37016E-13
 -1      3303 2.01079E+01-5.48339E-02 2.85942E-04 1.58587E-01-4.53088E-14-1.17697E-13
 -1      3304 2.01673E+01-4.49071E-02-5.66108E-04 1.48317E-01 2.27372E-14-1.43690E-13
 -1      3305 2.00916E+01-5.69315E-02 1.24050E-04 1.54851E-01-6.43002E-14-9.94823E-14
 -1      3306 2.00831E+01-5.61312E-02 3.97054E-04 1.50481E-01-5.29553E-14-1.12432E-13
 -1      3307 2.01330E+01-5.91513E-02-5.00600E-04 1.45338E-01-3.50661E-14-1.03229E-13
 -1      3308 2.00684E+01-5.31839E-02-4.75429E-05 1.46086E-01-9.58334E-14-1.06335E-13
 -1      3309 2.00621E+01-4.81593E-02 4.62416E-04 1.41625E-01-8.44655E-14-1.31714E-13
 -1      3310 2.01024E+01-5.87467E-02-4.23417E-04 1.38668E-01-9.02410E-14-1.46962E-13
 -1      3311 2.00490E+01-4.20346E-02-1.66992E-04 1.38009E-01-6.34135E-14-1.66899E-13
 -1      3312 2.00446E+01-3.44974E-02 5.02881E-04 1.34709E-01-3.57017E-14-1.80289E-13
 -1      3313 2.00756E+01-4.86681E-02-3.49013E-04 1.31792E-01-9.34738E-14-1.72952E-13
 -1      3314 2.00331E+01-2.66945E-02-2.43396E-04 1.32902E-01-5.16506E-14-1.79777E-13
 -1      3315 2.00303E+01-1.80899E-02 5.33365E-04 1.31583E-01-1.42390E-13-1.80821E-13
 -1      3316 2.00523E+01-3.27492E-02-2.89497E-04 1.27242E-01-4.45818E-14-1.95187E-13
 -1      3317 2.00205E+01-9.97181E-03-2.77494E-04 1.32313E-01-1.74992E-13-1.60779E-13
 -1      3318 2.00196E+01-1.71333E-03 5.65125E-04 1.33433E-01-1.84542E-13-1.21308E-13
 -1      3319 2.00324E+01-1.42220E-02-2.61699E-04 1.26857E-01-1.39489E-13-1.93510E-13
 -1      3320 2.00118E+01 5.27341E-03-2.61977E-04 1.37185E-01-2.12899E-13-6.61957E-14
 -1      3321 2.00132E+01 1.15801E-02 6.05903E-04 1.40868E-01-1.67052E-13-5.69868E-14
 -1      3322 2.00162E+01 3.78794E-03-2.82500E-04 1.31957E-01-1.54240E-13-1.24550E-13
 -1      3323 2.00083E+01 1.56904E-02-1.78470E-04 1.47892E-01-1.72766E-13 7.89802E-15
 -1      3324 2.00129E+01 1.80199E-02 6.58424E-04 1.53885E-01-1.18040E-13-5.97938E-15
 -1      3325 2.00047E+01 1.77535E-02-3.78515E-04 1.43431E-01-1.26876E-13 1.01370E-14
 -1      3326 2.00125E+01 1.70007E-02 4.16857E-06 1.64137E-01-1.06921E-13 2.00912E-14
 -1      3327 2.00219E+01 1.27089E-02 7.17045E-04 1.71697E-01-3.16738E-14-7.66954E-14
 -1      3328 2.00000E+01 2.32538E-02-5.84052E-04 1.61715E-01-1.23658E-13 7.24897E-14
 -1      3329 2.00288E+01 3.65224E-03 3.31055E-04 1.84671E-01-1.27438E-14-9.73254E-14
 -1      3330 2.00454E+01-1.06363E-02 7.62449E-04 1.92364E-01 7.95919E-14-1.64096E-13
 -1      3331 2.00063E+01 1.45187E-02-9.43509E-04 1.86585E-01-5.94786E-14 5.50889E-14
 -1      3332 2.00637E+01-3.13110E-02 8.61514E-04 2.06795E-01 1.67451E-13-2.29907E-13
 -1      3333 2.00908E+01-5.96282E-02 7.52245E-04 2.12199E-01 1.06928E-13-1.92360E-13
 -1      3334 2.00297E+01-1.58483E-02-1.50721E-03 2.16738E-01 6.51788E-14-1.62327E-13
 -1      3335 2.01265E+01-9.59198E-02 1.66284E-03 2.25582E-01 4.57194E-14-1.71630E-13
 -1      3336 2.01682E+01-1.42506E-01 6.08752E-04 2.24894E-01 5.70884E-14-1.34631E-13
 -1      3337 2.00799E+01-7.67619E-02-2.31987E-03 2.49016E-01 1.07734E-13-1.76797E-13
 -1      3338 2.02290E+01-1.98086E-01 2.79231E-03 2.32781E-01 9.17914E-14-5.80918E-14
 -1      3339 2.02898E+01-2.66294E-01 2.09355E-04 2.20395E-01 8.59183E-14 6.13740E-15
 -1      3340 2.01697E+01-1.77761E-01-3.39655E-03 2.77206E-01 1.16886E-13-6.97562E-15
 -1      3341 2.03847E+01-3.42971E-01 4.25728E-03 2.15529E-01 2.37934E-14 4.91929E-14
 -1      3342 2.04680E+01-4.33163E-01-6.07793E-04 1.83743E-01 3.29040E-14 4.20558E-14
 -1      3343 2.03151E+01-3.26706E-01-4.67565E-03 2.90347E-01 5.28453E-14 6.77458E-14
 -1      3344 2.06057E+01-5.28209E-01 5.94014E-03 1.55258E-01 9.46037E-15 3.71409E-14
 -1      3345 2.07120E+01-6.34304E-01-2.02883E-03 9.45721E-02 5.50085E-14-3.11789E-14
 -1      3346 2.05333E+01-5.25237E-01-5.94731E-03 2.70779E-01-1.78667E-14 6.36425E-14
 -1      3347 2.08972E+01-7.36419E-01 7.41332E-03 2.77709E-02 7.32372E-14-9.27780E-14
 -1      3348 2.10213E+01-8.40509E-01-3.99900E-03-7.14449E-02 1.00500E-13-3.82552E-14
 -1      3349 2.08384E+01-7.61101E-01-6.79006E-03 1.92612E-01 5.16080E-16 6.03396E-14
 -1      3350 2.12476E+01-9.24561E-01 7.84652E-03-1.91862E-01 1.62600E-13-1.03832E-13
 -1      3351 2.13752E+01-9.92428E-01-5.92654E-03-3.34431E-01 1.49051E-13-5.35488E-14
 -1      3352 2.12318E+01-9.95085E-01-6.25842E-03 2.29874E-02 1.41277E-13 6.98766E-14
 -1      3353 2.16182E+01-1.01736E+00 6.35373E-03-5.16855E-01 4.09713E-14-8.88315E-14
 -1      3354 2.17259E+01-9.97998E-01-6.53328E-03-6.94802E-01-1.02978E-14-6.58245E-15
 -1      3355 2.16886E+01-1.15154E+00-3.22959E-03-2.66489E-01 9.53126E-14-1.15951E-14
 -1      3356 2.19348E+01-9.08439E-01 7.33299E-04-9.27478E-01 7.43654E-15 2.52077E-16
 -1      3357 2.19939E+01-7.40571E-01-4.24467E-03-1.10813E+00-6.58849E-14 9.18004E-14
 -1      3358 2.21442E+01-1.11087E+00 3.50890E-03-6.82758E-01 1.54022E-14-7.40112E-14
 -1      3359 2.21057E+01-4.88990E-01-7.82563E-03-1.33462E+00-1.88139E-13 1.08436E-13
 -1      3360 2.20972E+01-1.39171E-01 2.84020E-03-1.45588E+00-8.17510E-14 7.52050E-14
 -1      3361 2.24875E+01-7.47116E-01 7.71709E-03-1.16268E+00-8.11791E-14 2.28426E-14
 -1      3362 2.20557E+01 2.78827E-01-1.75448E-02-1.57091E+00-1.60240E-13 3.83512E-14
 -1      3363 2.19919E+01 7.64806E-01 1.19492E-02-1.54692E+00-4.97647E-14 2.86576E-14
 -1      3364 2.26070E+01 4.00756E-02 1.38050E-02-1.55289E+00-1.43617E-13-2.67798E-14
 -1      3365 2.18231E+01 1.25167E+00-2.14275E-02-1.44228E+00 5.02270E-14-8.79811E-14
 -1      3366 2.17391E+01 1.72667E+00 1.57055E-02-1.22037E+00 1.10138E-14-1.40354E-13
 -1      3367 2.24589E+01 1.11463E+00 6.62281E-03-1.60905E+00-7.55461E-14-2.01253E-13
 -1      3368 2.15697E+01 2.09055E+00-1.45419E-02-8.51149E-01 5.52375E-14-1.27376E-13
 -1      3369 2.15185E+01 2.34807E+00 6.80437E-03-4.73078E-01 1.13294E-13 4.09221E-15
 -1      3370 2.21777E+01 2.18053E+00 8.97376E-04-1.14239E+00 4.89749E-14-1.58393E-13
 -1      3371 2.14702E+01 2.41095E+00-6.47102E-03 6.37628E-02 5.10928E-14 2.14285E-14
 -1      3372 2.14850E+01 2.30085E+00-1.75701E-02 4.67192E-01-8.25095E-14-7.12928E-14
 -1      3373 2.19875E+01 2.71761E+00 7.17137E-03-2.26660E-01 6.23520E-14-1.63692E-13
 -1      3374 2.16382E+01 2.03616E+00 1.24719E-02 9.41859E-01-1.53296E-13-3.17173E-14
 -1      3375 2.17001E+01 1.61933E+00-2.71501E-02 1.21914E+00-2.05896E-13-8.64196E-14
 -1      3376 2.20872E+01 2.52597E+00 2.12117E-02 8.13744E-01-8.89202E-14-1.88229E-13
 -1      3377 2.19024E+01 1.18334E+00 1.76817E-02 1.45780E+00-2.95691E-13 8.37335E-14
 -1      3378 2.19897E+01 6.62257E-01-1.82643E-02 1.56416E+00-2.74950E-13 6.48652E-14
 -1      3379 2.23600E+01 1.66600E+00 2.03192E-02 1.47805E+00-1.34754E-13 1.34593E-13
 -1      3380 2.20904E+01 1.84617E-01 5.64398E-03 1.50731E+00-2.04303E-13-4.50147E-14
 -1      3381 2.21215E+01-2.29975E-01-1.35568E-02 1.43382E+00-1.06991E-13-3.28770E-14
 -1      3382 2.25934E+01 3.90261E-01 8.40787E-03 1.60382E+00-2.69458E-13 3.42001E-13
 -1      3383 2.20765E+01-5.52561E-01-1.31029E-03 1.24119E+00 5.92299E-14-1.68414E-13
 -1      3384 2.20431E+01-7.97005E-01-2.98696E-03 1.07213E+00 1.38165E-13-3.89437E-14
 -1      3385 2.25832E+01-4.83332E-01 1.18722E-02 1.32164E+00-7.59146E-14 2.51803E-13
 -1      3386 2.18677E+01-9.50290E-01-6.90543E-03 8.30009E-01 1.20370E-13-1.41191E-13
 -1      3387 2.17787E+01-1.02436E+00 4.03757E-03 6.41905E-01 1.64382E-13-2.88223E-14
 -1      3388 2.23275E+01-1.03264E+00 3.49991E-03 8.47004E-01 1.22989E-13-2.68254E-13
 -1      3389 2.15436E+01-1.03844E+00-6.93806E-03 4.31935E-01 1.08017E-13-6.53749E-14
 -1      3390 2.14217E+01-9.97461E-01 7.23350E-03 2.70272E-01 9.27163E-14-5.44796E-14
 -1      3391 2.19075E+01-1.19212E+00-2.83011E-03 3.86875E-01 1.06377E-13-2.79214E-13
 -1      3392 2.11868E+01-9.29166E-01-4.96566E-03 1.21930E-01 8.91127E-14 3.63423E-14
 -1      3393 2.10595E+01-8.30884E-01 7.74263E-03 3.03955E-03 3.25525E-14-8.23148E-15
 -1      3394 2.14460E+01-1.09306E+00-5.76402E-03 3.78681E-02 1.51442E-13-3.25126E-13
 -1      3395 2.08579E+01-7.27334E-01-2.83629E-03-8.58619E-02-2.31171E-14 9.65357E-15
 -1      3396 2.07428E+01-6.12857E-01 6.47125E-03-1.62067E-01 5.79130E-14-6.43878E-14
 -1      3397 2.10263E+01-8.70856E-01-6.93453E-03-1.82599E-01 4.93591E-14-6.09548E-14
 -1      3398 2.05879E+01-5.04948E-01-1.09969E-03-2.05819E-01 8.66508E-14-6.71697E-14
 -1      3399 2.04938E+01-4.03000E-01 2.90575E-03-2.45009E-01 1.53227E-13-1.16653E-13
 -1      3400 2.06905E+01-6.14260E-01-5.38712E-03-2.95620E-01 3.98458E-14 1.68447E-13
 -1      3401 2.00673E+01-4.34197E-02 4.56635E-04-1.44492E-01 3.52452E-14 6.54469E-15
 -1      3402 2.00739E+01-5.01647E-02-8.10540E-05-1.48372E-01 3.62367E-14 7.74119E-15
 -1      3403 2.00884E+01-5.38871E-02 4.22366E-04-1.52444E-01 1.72277E-14-1.76596E-14
 -1      3404 2.00964E+01-5.53383E-02 1.29576E-04-1.56132E-01 4.11165E-15-6.49188E-14
 -1      3405 2.01079E+01-5.56321E-02-4.21872E-04-1.40408E-01 1.77179E-14-7.65025E-14
 -1      3406 2.01413E+01-3.78834E-02 9.50449E-05-1.62343E-01 5.34427E-14-1.59815E-13
 -1      3407 2.01556E+01-2.21480E-02 7.07767E-04-1.59760E-01 4.42689E-14-2.00955E-13
 -1      3408 2.00476E+01-2.35924E-02 4.69654E-04-1.38533E-01-5.05144E-15 2.49360E-14
 -1      3409 2.00530E+01-3.47771E-02-2.46554E-04-1.40905E-01-4.82297E-15-1.59975E-14
 -1      3410 2.00804E+01-4.20061E-02-2.65588E-04-1.33938E-01 3.30495E-14-1.09005E-13
 -1      3411 2.00283E+01 4.45715E-03 4.51280E-04-1.36937E-01 1.04325E-13 6.89810E-14
 -1      3412 2.00335E+01-1.08528E-02-4.07076E-04-1.36677E-01 9.13515E-14 5.64914E-14
 -1      3413 2.00538E+01-1.82456E-02-1.06056E-04-1.29242E-01 6.20268E-15-8.06924E-14
 -1      3414 2.00070E+01 4.10814E-02 3.90709E-04-1.41316E-01 8.06617E-14 2.88100E-14
 -1      3415 2.00132E+01 2.13101E-02-5.79980E-04-1.37532E-01 8.36384E-14 6.53977E-14
 -1      3416 2.00267E+01 1.46342E-02 1.00507E-04-1.28291E-01 1.02810E-13-2.36061E-15
 -1      3417 1.99801E+01 8.79713E-02 2.66412E-04-1.52803E-01 5.14843E-14-6.08232E-14
 -1      3418 1.99890E+01 6.27344E-02-7.86473E-04-1.44784E-01 1.09221E-13-8.68074E-15
 -1      3419 1.99962E+01 5.71500E-02 3.80442E-04-1.32115E-01 1.06718E-13 4.75973E-14
 -1      3420 1.99423E+01 1.48230E-01 3.14572E-05-1.72004E-01-3.16018E-14-2.90380E-14
 -1      3421 1.99567E+01 1.15808E-01-1.05011E-03-1.59232E-01-8.95887E-15-8.59203E-14
 -1      3422 1.99582E+01 1.11188E-01 7.75687E-04-1.41018E-01 3.88439E-14 4.23038E-14
 -1      3423 1.98854E+01 2.26619E-01-3.92568E-04-1.98698E-01-9.25168E-14 5.07142E-14
 -1      3424 1.99098E+01 1.84505E-01-1.36866E-03-1.81001E-01-6.03855E-14-2.67875E-14
 -1      3425 1.99065E+01 1.80012E-01 1.33730E-03-1.54324E-01-6.17934E-14-6.42921E-14
 -1      3426 1.98030E+01 3.23640E-01-1.10382E-03-2.29666E-01-9.42904E-14 2.51812E-14
 -1      3427 1.98410E+01 2.71553E-01-1.84057E-03-2.08595E-01-5.96072E-14 4.09281E-14
 -1      3428 1.98346E+01 2.65985E-01 2.21380E-03-1.69463E-01-7.83615E-14-2.35104E-14
 -1      3429 1.96698E+01 4.57176E-01-2.21948E-03-2.64492E-01-1.16185E-13 1.02010E-13
 -1      3430 1.97355E+01 3.85771E-01-2.37346E-03-2.39255E-01-1.40019E-13 6.32088E-14
 -1      3431 1.97291E+01 3.76187E-01 3.33422E-03-1.82850E-01-1.16252E-13 1.03007E-13
 -1      3432 1.94623E+01 6.31902E-01-4.13276E-03-2.93793E-01-7.46795E-14 1.83726E-13
 -1      3433 1.95693E+01 5.39016E-01-3.13568E-03-2.68866E-01-4.86378E-14 1.60515E-13
 -1      3434 1.95685E+01 5.21409E-01 5.13411E-03-1.86541E-01-8.92386E-14 3.01859E-14
 -1      3435 1.91426E+01 8.55816E-01-7.20220E-03-3.03256E-01 1.00474E-13 9.01882E-14
 -1      3436 1.93139E+01 7.38111E-01-4.02329E-03-2.85414E-01 7.44489E-15 1.62693E-13
 -1      3437 1.93290E+01 7.05635E-01 7.67358E-03-1.66122E-01-2.17301E-14 8.04666E-14
 -1      3438 1.86561E+01 1.13176E+00-1.19427E-02-2.68585E-01 9.65261E-14 1.36418E-13
 -1      3439 1.89254E+01 9.89301E-01-5.09139E-03-2.69720E-01 1.10118E-13 7.49876E-14
 -1      3440 1.89744E+01 9.32363E-01 1.12441E-02-9.83661E-02 8.74729E-14 1.55156E-13
 -1      3441 1.79260E+01 1.44901E+00-1.87859E-02-1.51839E-01 3.91753E-14 1.14777E-13
 -1      3442 1.83416E+01 1.29009E+00-6.38928E-03-1.90694E-01 1.22365E-13 1.57025E-13
 -1      3443 1.84556E+01 1.19625E+00 1.62620E-02 5.31941E-02 7.77747E-14 5.85569E-14
 -1      3444 1.68445E+01 1.76826E+00-2.73408E-02 1.00427E-01 3.41593E-14 3.83818E-14
 -1      3445 1.74751E+01 1.61813E+00-7.73185E-03-1.94913E-03 3.50885E-14 9.33752E-14
 -1      3446 1.77068E+01 1.47387E+00 2.37946E-02 3.43120E-01 8.73315E-14 8.42069E-14
 -1      3447 1.52640E+01 1.99869E+00-3.02491E-02 5.52065E-01 5.86380E-14-3.94389E-14
 -1      3448 1.62015E+01 1.91338E+00-7.70462E-03 3.57812E-01 3.58767E-14-4.40360E-14
 -1      3449 1.66368E+01 1.70961E+00 3.59594E-02 8.48527E-01 5.53872E-14 4.79765E-14
 -1      3450 1.30954E+01 1.95250E+00-1.38492E-02 1.24116E+00 1.80338E-13-2.55605E-13
 -1      3451 1.43925E+01 2.03649E+00-9.21887E-04 9.41711E-01 2.15738E-13-1.50713E-13
 -1      3452 1.51763E+01 1.76967E+00 5.20010E-02 1.64271E+00 1.90716E-13-1.21730E-13
 -1      3453 2.02468E+01 1.38885E+00-6.24620E-03 4.14531E-01 1.97719E-13-3.08473E-13
 -1      3454 2.02353E+01 1.48845E+00-1.46292E-03 3.45421E-01 1.63402E-13-3.40013E-13
 -1      3455 2.00294E+01 2.20596E+00-3.40139E-03-1.65091E-01-2.71275E-14-4.69409E-13
 -1      3456 2.00419E+01 2.16897E+00-4.28614E-03-2.86420E-01-6.66598E-14-4.45053E-13
 -1      3457 2.01592E+01 1.85657E+00 5.56971E-03-2.87877E-01-6.53497E-14-4.31986E-13
 -1      3458 2.61922E+01-1.93057E+00 5.99097E-02 4.27663E-01 1.62476E-13-4.33124E-13
 -1      3459 2.59191E+01-1.04761E+00-8.33751E-02 1.14629E+00 6.66203E-14-5.27379E-13
 -1      3460 2.02015E+01 1.66749E+00-1.20284E-03-7.70060E-01-2.24239E-13-3.68187E-13
 -1      3461 1.91103E+01 9.23792E-01-9.82301E-03 3.05100E-01 2.15018E-13 1.19995E-13
 -1      3462 1.88820E+01 1.04520E+00-1.54632E-02 3.18158E-01 1.57982E-13 1.98251E-13
 -1      3463 1.90841E+01 9.15547E-01 6.58757E-03 5.22605E-02 1.85300E-13 9.03777E-13
 -1      3464 2.02975E+01-2.09164E-01 2.69228E-03-4.10522E-01 9.82186E-15-3.75556E-13
 -1      3465 2.02532E+01-1.78156E-01 1.07514E-03-4.80281E-01-1.00416E-13-4.77229E-13
 -1      3466 2.02792E+01 1.05057E+00-5.79048E-03 5.16767E-01 2.56866E-13-2.64346E-13
 -1      3467 2.02701E+01 1.26991E+00 1.53589E-03 4.67247E-01 2.03039E-13-2.78893E-13
 -1      3468 2.02594E+01 1.46044E+00 8.39324E-03-6.11468E-01-1.88263E-13-3.46137E-13
 -1      3469 9.49134E+00 1.09227E+00 7.54121E-02 2.82497E+00 2.52819E-13-6.01075E-13
 -1      3470 1.19651E+01 1.81233E+00 6.76787E-02 1.73207E+00 1.39890E-13-3.31644E-13
 -1      3471 2.03335E+01-2.41296E-01 8.81755E-04-2.74479E-01 1.99933E-13-2.00284E-13
 -1      3472 2.02457E+01 1.76301E-01-1.32420E-03-7.78938E-02 8.75763E-14-2.99068E-13
 -1      3473 2.02703E+01 2.53439E-01 2.17565E-03-3.47417E-02 8.42037E-14-2.96961E-13
 -1      3474 2.02867E+01 1.75131E-01-3.94432E-04-7.52723E-02 9.30878E-14-3.09266E-13
 -1      3475 2.01851E+01-1.23838E-01 4.26487E-03-5.64859E-01-5.67202E-14-5.28956E-13
 -1      3476 2.00877E+01-6.22869E-02-1.24750E-03-6.13190E-01-6.61673E-14-5.34141E-13
 -1      3477 2.02688E+01-2.53030E-01-4.52896E-03-5.66427E-01-1.55544E-13-5.25752E-13
 -1      3478 2.45414E+01-3.46262E+00 1.06576E-01-2.53940E+00 2.37748E-13-5.66467E-13
 -1      3479 2.55425E+01-3.07909E+00-1.01042E-01-8.83321E-01 1.70308E-13-4.12092E-13
 -1      3480 2.44760E+01-3.65309E+00-3.86667E-02 2.59959E+00 2.01264E-13-3.40052E-13
 -1      3481 2.27374E+01-3.56743E+00 5.02170E-02 4.06038E+00 3.09128E-13-2.87567E-13
 -1      3482 1.26550E+01 1.18010E+00 6.44345E-02-3.17407E+00 3.43741E-13 4.84196E-13
 -1      3483 1.39197E+01 1.13070E-01-2.27232E-02-4.41090E+00 3.72716E-13 3.59601E-13
 -1      3484 1.60976E+01-8.36364E-01 1.01727E-01-5.07897E+00 4.01845E-13 1.00451E-13
 -1      3485 1.83776E+01-2.33528E+00-4.34850E-02-5.38137E+00 3.66498E-13-6.30468E-14
 -1      3486 1.85694E+01 1.16439E+00-1.80582E-02 2.32530E-01 2.51672E-13 2.37176E-14
 -1      3487 1.82176E+01 1.32429E+00-2.51647E-02 2.25214E-01 2.03365E-13 1.25533E-14
 -1      3488 1.85958E+01 1.18046E+00 3.54783E-02-1.18772E-01 1.31775E-13 6.92410E-13
 -1      3489 2.02699E+01 1.14137E+00-1.62793E-03-4.23943E-01-1.74407E-13-2.95423E-13
 -1      3490 2.06728E+01-2.87482E+00 1.09925E-01-4.86023E+00 4.30590E-13-2.76148E-13
 -1      3491 2.23710E+01-3.66571E+00-1.08704E-01-4.03018E+00 3.28378E-13-4.40585E-13
 -1      3492 1.22998E+01 2.03983E+00 2.61127E-02-9.11753E-01 1.39644E-13 5.48422E-13
 -1      3493 2.54016E+01 3.81059E+00-1.02169E-01-1.76306E+00-3.08503E-13 8.23300E-14
 -1      3494 2.58231E+01 2.98098E+00-2.26553E-02-2.06634E+00-2.89942E-13 1.64257E-13
 -1      3495 2.58222E+01 4.67952E-01 2.21676E-02 1.82207E+00 3.46945E-15-6.09304E-13
 -1      3496 2.52593E+01 1.74874E+00-1.16342E-01 2.00423E+00-1.45443E-13-6.29321E-13
 -1      3497 2.02525E+01 1.37953E+00-6.20867E-03-4.22162E-01-1.44731E-13-3.47390E-13
 -1      3498 2.03098E+01 9.77761E-01 4.83118E-03-3.12468E-01-1.71153E-13-2.80194E-13
 -1      3499 2.03192E+01 9.59192E-01-5.69836E-04-2.53828E-01-1.41859E-13-2.82714E-13
 -1      3500 2.02356E+01 1.48194E+00-2.20430E-03-3.49378E-01-1.06945E-13-3.77429E-13
 -1      3501 2.61338E+01 1.57341E+00-9.21058E-02-2.02461E+00-1.97536E-13 3.90764E-14
 -1      3502 2.64163E+01 8.42351E-02-7.40789E-03-1.62855E+00-1.56111E-13 8.62279E-14
 -1      3503 2.51946E+01 1.78465E+00-3.52435E-02-1.94577E+00-1.90046E-13 3.53670E-13
 -1      3504 1.52800E+01 2.05019E+00-3.92396E-02-2.27935E-01 3.25200E-14 3.15717E-13
 -1      3505 1.42710E+01 2.20531E+00-1.13167E-02-2.86358E-01 1.51712E-13 4.18873E-13
 -1      3506 2.02208E+01 1.55367E+00-4.11244E-03 2.84597E-01 1.52501E-13-3.60313E-13
 -1      3507 2.02100E+01 1.61229E+00-2.08507E-03 2.00780E-01 1.17672E-13-3.78326E-13
 -1      3508 2.02976E+01 1.29050E+00 5.21269E-03 2.50951E-01 1.54269E-13-3.23382E-13
 -1      3509 2.02780E+01 3.45334E-01-2.13639E-03 1.26544E-02 1.10122E-13-2.77119E-13
 -1      3510 2.03030E+01 4.60050E-01 2.50143E-03 8.20465E-02 1.29947E-13-2.48068E-13
 -1      3511 2.03176E+01 3.48094E-01-4.39075E-05 3.37574E-03 1.34046E-13-3.00529E-13
 -1      3512 2.01127E+01-5.35604E-02 2.84037E-04-1.59620E-01-9.88261E-15-9.20566E-14
 -1      3513 2.01237E+01-4.78569E-02 3.76080E-04-1.61641E-01 4.44761E-14-1.09805E-13
 -1      3514 2.01381E+01-5.73428E-02-4.92655E-04-1.46533E-01-4.33133E-15-8.69228E-14
 -1      3515 2.02593E+01 8.66347E-01 2.39946E-03 5.00322E-01 2.67267E-13-2.08328E-13
 -1      3516 1.90888E+01 8.50728E-01 3.24303E-03-1.30601E-01 2.16822E-13 7.89000E-13
 -1      3517 2.01739E+01-7.39325E-04-2.06853E-04-1.54874E-01 2.38941E-14-1.99053E-13
 -1      3518 2.01918E+01 2.90700E-02 1.12673E-03-1.44033E-01 3.63472E-14-2.46437E-13
 -1      3519 2.02097E+01-5.97404E-03-6.04419E-04-1.42315E-01 2.01846E-14-2.15287E-13
 -1      3520 1.10263E+01 7.23089E-01 1.00307E-01 4.01474E+00 2.77150E-13-5.61023E-13
 -1      3521 1.31559E+01 1.50535E+00 9.11677E-02 2.75970E+00 2.60863E-13-2.86545E-13
 -1      3522 1.32501E+01 1.77807E+00 8.50535E-02-1.93250E+00 2.11960E-13 5.57731E-13
 -1      3523 1.28335E+01 5.12592E-01 7.45162E-02 4.17787E+00 3.58503E-13-4.28470E-13
 -1      3524 2.00474E+01-1.04973E-01-6.36266E-03-7.19963E-01-1.30532E-13-3.98332E-13
 -1      3525 1.99707E+01 4.61420E-02 6.49902E-03-6.64592E-01-1.47574E-13-5.73824E-13
 -1      3526 1.98300E+01 1.28602E-01-4.63655E-03-6.70050E-01-1.00662E-13-2.68112E-13
 -1      3527 2.46830E+01 4.76254E+00-3.94377E-02 5.13793E-01-1.59688E-13-2.30534E-13
 -1      3528 1.79893E+01-1.43346E+00 5.00528E-02 4.78728E+00 3.28473E-13 1.66079E-13
 -1      3529 1.64838E+01-1.34460E+00 4.15752E-02 5.44242E+00 2.76217E-13 2.10706E-13
 -1      3530 1.52559E+01-3.44719E-01 2.86220E-02 4.72321E+00 3.52659E-13 9.45077E-15
 -1      3531 1.93830E+01 5.49244E-01 8.12014E-03-5.18346E-01 4.87178E-14 2.51544E-13
 -1      3532 1.92350E+01 6.37083E-01-9.00699E-03-4.11700E-01 1.33231E-13 3.21238E-13
 -1      3533 1.89592E+01 8.06088E-01-1.01378E-02-3.23217E-01 2.22462E-13 5.09778E-13
 -1      3534 2.02639E+01 7.80860E-01 1.83513E-03 3.65307E-01 2.33131E-13-2.23400E-13
 -1      3535 2.01723E+01-4.29697E-02-5.69568E-04-1.48825E-01 2.09487E-14-1.78762E-13
 -1      3536 2.03306E+01 6.03043E-01 1.45345E-05 1.25508E-01 1.41218E-13-2.74627E-13
 -1      3537 2.02989E+01 6.00933E-01-1.85650E-03 1.56057E-01 1.41630E-13-2.45517E-13
 -1      3538 2.03081E+01 1.09831E+00 5.31417E-03 3.46985E-01 1.80213E-13-2.70287E-13
 -1      3539 2.03081E+01 7.15788E-01 3.18767E-03 2.29369E-01 1.61751E-13-2.38883E-13
 -1      3540 2.50343E+01-2.46375E+00-2.84042E-02-2.89539E-01 1.17989E-13-4.28400E-13
 -1      3541 2.61030E+01-1.00515E+00-4.40324E-02-1.16782E+00-1.49126E-13 7.84546E-14
 -1      3542 2.55054E+01-1.74135E+00-7.84183E-03-5.35048E-01-6.19886E-14 2.06653E-14
 -1      3543 2.53587E+01-3.28444E-01-7.47241E-03-1.53452E+00-2.02621E-13 2.61990E-13
 -1      3544 1.77944E+01 1.45536E+00-2.10706E-02 7.46479E-02 1.39592E-13-2.87262E-14
 -1      3545 1.73075E+01 1.63461E+00-2.02869E-02 1.91426E-02 2.17777E-14-2.08492E-14
 -1      3546 1.78798E+01 1.41220E+00 4.45744E-02-4.56026E-01 8.92105E-14 2.59574E-13
 -1      3547 2.02488E+01 6.25705E-02-5.69432E-04-1.20551E-01 1.54111E-14-2.74476E-13
 -1      3548 2.32309E+01-3.10942E+00 2.30066E-02-2.78276E+00 2.99663E-13-4.28484E-13
 -1      3549 2.51128E+01-3.78553E-01-1.58497E-02 1.44047E+00 4.53279E-14-6.58116E-13
 -1      3550 1.96475E+01 3.66871E-01-4.92698E-04-5.18646E-01-2.80143E-14-1.48483E-15
 -1      3551 1.57720E+01-2.10278E-01 2.13812E-02-4.27478E+00 4.41643E-13 1.55063E-13
 -1      3552 1.35929E+01 1.01501E+00 2.82157E-02 3.32535E+00 3.14991E-13-3.09891E-13
 -1      3553 1.47899E+01 1.25509E+00 2.89971E-02 2.64013E+00 3.02612E-13-2.90036E-13
 -1      3554 1.45224E+01 4.45785E-01 3.95648E-02 4.03207E+00 3.53583E-13-1.79780E-13
 -1      3555 2.04359E+01-3.56916E-01 7.30585E-04-2.84312E-01 8.48819E-14-1.64372E-13
 -1      3556 2.03316E+01-2.54731E-01-1.41846E-03-3.78996E-01 2.79615E-14-3.26496E-13
 -1      3557 2.51276E+01-3.31261E+00 1.50842E-02 1.64419E+00 2.02696E-13-1.89133E-13
 -1      3558 2.38785E+01-3.21243E+00-2.33490E-02 2.20876E+00 2.60995E-13-1.81793E-13
 -1      3559 2.51954E+01-2.71481E+00-2.93732E-03 6.71352E-01 1.37519E-13-1.09943E-13
 -1      3560 2.23297E+01-2.93471E+00 1.54143E-02 3.32081E+00 3.89742E-13-3.72077E-13
 -1      3561 2.15735E+01-3.16264E+00 2.02562E-02 4.37556E+00 3.77663E-13-2.76107E-13
 -1      3562 2.02053E+01-2.39759E+00-6.98939E-03 4.34330E+00 3.93143E-13-1.17444E-13
 -1      3563 2.47325E+01 4.08559E+00-5.11498E-02-1.33804E+00-1.40221E-13 1.99736E-14
 -1      3564 2.01373E+01 1.92868E+00 5.09049E-03-9.65711E-02-1.04213E-14-4.29504E-13
 -1      3565 1.97267E+01-2.15419E+00 4.26276E-02-4.49248E+00 3.78288E-13-3.18442E-13
 -1      3566 1.67558E+01 1.76097E+00-3.48627E-02-5.15732E-02-7.84247E-14 1.20665E-13
 -1      3567 1.60604E+01 1.93410E+00-2.45424E-02-1.55803E-01-1.15567E-13 1.20283E-13
 -1      3568 1.57167E+01 1.91791E+00 7.29666E-02-1.03966E+00-2.01774E-14 2.10195E-13
 -1      3569 1.69832E+01 1.64693E+00 6.01016E-02-7.93271E-01-3.38015E-14 1.56016E-13
 -1      3570 2.02849E+01 1.39174E+00 5.07960E-03 1.33159E-01 9.09563E-14-3.39152E-13
 -1      3571 2.02016E+01 1.64519E+00-3.31275E-03 1.29380E-01 8.68441E-14-3.64582E-13
 -1      3572 2.01976E+01 1.66466E+00-2.67426E-03 3.85833E-02 3.50646E-14-3.83405E-13
 -1      3573 1.95200E+01 3.79743E-01-7.22323E-03-6.05815E-01-1.65109E-13 1.86988E-13
 -1      3574 1.93942E+01 4.48575E-01 5.98259E-03-6.74075E-01-2.18840E-14 8.83581E-15
 -1      3575 1.96793E+01 2.84473E-01 7.43116E-03-6.63002E-01-9.38375E-14 2.48083E-14
 -1      3576 1.90471E+01 6.14950E-01 7.09329E-03-7.82243E-01 1.19660E-13 1.16221E-13
 -1      3577 1.87773E+01 8.25211E-01-9.41527E-03-5.08824E-01 1.23533E-13 4.31455E-13
 -1      3578 1.84526E+01 8.83448E-01-2.76992E-02-6.63770E-01 2.47771E-14 3.43421E-13
 -1      3579 2.03620E+01 7.11585E-01 4.27820E-03-1.46907E-01-1.45812E-13-2.39282E-13
 -1      3580 2.03507E+01 5.51169E-01-2.57992E-03-7.42119E-02-1.31411E-13-2.33015E-13
 -1      3581 2.03575E+01 4.21404E-01 1.51609E-03-2.83322E-02-1.01712E-13-1.99030E-13
 -1      3582 2.03409E+01 3.11552E-01-1.69601E-03 2.01040E-02-9.45543E-14-1.80474E-13
 -1      3583 2.03768E+01 5.38489E-01 5.76104E-04-5.39431E-02-1.00218E-13-2.00197E-13
 -1      3584 2.03334E+01 2.22968E-01 1.31007E-03 4.98564E-02-1.08359E-13-1.62877E-13
 -1      3585 2.03124E+01 1.49233E-01-1.01744E-03 7.98386E-02-1.02820E-13-1.33827E-13
 -1      3586 2.03678E+01 3.01182E-01 2.32224E-04 2.31452E-02-8.62421E-14-1.55086E-13
 -1      3587 2.02965E+01 9.13311E-02 1.03715E-03 9.67727E-02-4.80417E-14-7.43363E-14
 -1      3588 2.02746E+01 4.43983E-02-4.96847E-04 1.13118E-01 5.97518E-15-7.17501E-14
 -1      3589 2.03381E+01 1.40139E-01-1.28914E-04 7.18322E-02-4.89667E-14-7.10210E-14
 -1      3590 2.02545E+01 8.94303E-03 7.46235E-04 1.20928E-01 2.30553E-14-7.36596E-14
 -1      3591 2.02336E+01-1.84411E-02-1.22313E-04 1.27967E-01 3.50889E-14-3.78001E-14
 -1      3592 2.02980E+01 3.65530E-02-3.35873E-04 9.88026E-02 1.10311E-14-4.19642E-15
 -1      3593 2.02118E+01-3.77326E-02 4.85637E-04 1.29873E-01 2.24626E-14-6.88327E-14
 -1      3594 2.01929E+01-5.11338E-02 1.30241E-04 1.31137E-01-6.90713E-15-7.66931E-14
 -1      3595 2.02536E+01-2.47882E-02-4.51448E-04 1.10709E-01 1.14903E-14-4.26854E-14
 -1      3596 2.01712E+01-5.90028E-02 2.69937E-04 1.29700E-01-1.95343E-14-8.77572E-14
 -1      3597 2.01545E+01-6.25954E-02 2.90763E-04 1.27894E-01-3.81645E-14-1.02709E-13
 -1      3598 2.02092E+01-5.56074E-02-4.78553E-04 1.13204E-01-4.14110E-14-1.01797E-13
 -1      3599 2.01338E+01-6.25549E-02 9.45619E-05 1.25080E-01-9.96092E-14-1.47190E-13
 -1      3600 2.01194E+01-5.94380E-02 3.89073E-04 1.22223E-01-1.19962E-13-1.25628E-13
 -1      3601 2.01668E+01-6.48740E-02-4.50464E-04 1.10708E-01-9.34093E-14-8.37443E-14
 -1      3602 2.01001E+01-5.41045E-02-4.68357E-05 1.19529E-01-1.15202E-13-1.77012E-13
 -1      3603 2.00877E+01-4.66070E-02 4.51416E-04 1.17106E-01-7.59143E-14-1.51084E-13
 -1      3604 2.01274E+01-5.92889E-02-3.92012E-04 1.06650E-01-1.08652E-13-7.43768E-14
 -1      3605 2.00698E+01-3.79834E-02-1.58561E-04 1.15685E-01-5.78423E-14-1.32226E-13
 -1      3606 2.00594E+01-2.79299E-02 5.01771E-04 1.14787E-01-7.41236E-14-1.82739E-13
 -1      3607 2.00913E+01-4.39069E-02-3.23536E-04 1.03677E-01-5.38824E-14-1.15328E-13
 -1      3608 2.00430E+01-1.76644E-02-2.46443E-04 1.15586E-01-1.22357E-13-1.86741E-13
 -1      3609 2.00345E+01-6.65951E-03 5.56994E-04 1.17035E-01-1.81667E-13-1.78348E-13
 -1      3610 2.00584E+01-2.26622E-02-2.60920E-04 1.03913E-01-8.90375E-14-1.81566E-13
 -1      3611 2.00195E+01 3.66311E-03-3.06676E-04 1.20879E-01-1.55250E-13-1.35736E-13
 -1      3612 2.00132E+01 1.39782E-02 6.35860E-04 1.25282E-01-8.48795E-14-9.38051E-14
 -1      3613 2.00286E+01 9.99062E-04-2.31430E-04 1.09212E-01-1.33561E-13-1.17157E-13
 -1      3614 2.00002E+01 2.26180E-02-3.28032E-04 1.32953E-01-6.04224E-14-1.13408E-13
 -1      3615 1.99969E+01 3.02978E-02 7.56937E-04 1.40751E-01-7.22302E-14-5.47036E-14
 -1      3616 2.00021E+01 2.35937E-02-2.61385E-04 1.21286E-01-7.66501E-14-9.55451E-14
 -1      3617 1.99868E+01 3.50546E-02-2.85564E-04 1.53024E-01-8.29702E-14 1.58162E-14
 -1      3618 1.99880E+01 3.75492E-02 9.32517E-04 1.64447E-01-7.87061E-14 1.31625E-14
 -1      3619 1.99803E+01 4.10344E-02-3.84488E-04 1.41899E-01-2.59822E-14-1.16547E-13
 -1      3620 1.99828E+01 3.55092E-02-1.40206E-04 1.82025E-01-6.55740E-14 6.89837E-14
 -1      3621 1.99912E+01 2.94124E-02 1.16690E-03 1.96966E-01-2.72932E-14 5.16990E-14
 -1      3622 1.99661E+01 4.79497E-02-6.52873E-04 1.72839E-01-4.66302E-14 2.49299E-14
 -1      3623 1.99945E+01 1.67426E-02 1.71241E-04 2.20308E-01-3.33307E-14 2.42610E-14
 -1      3624 2.00138E+01-2.39336E-03 1.44526E-03 2.38059E-01 8.22242E-14-4.80135E-14
 -1      3625 1.99644E+01 3.71111E-02-1.13513E-03 2.15743E-01-3.34109E-14 8.11899E-14
 -1      3626 2.00312E+01-3.05138E-02 7.41132E-04 2.66975E-01 1.09716E-13-6.88521E-14
 -1      3627 2.00668E+01-6.81459E-02 1.71518E-03 2.85761E-01 9.05291E-14-4.78965E-14
 -1      3628 1.99840E+01-1.04324E-03-1.91352E-03 2.71584E-01 8.48610E-14 1.09613E-13
 -1      3629 2.01068E+01-1.17252E-01 1.69189E-03 3.18668E-01 1.44514E-13-7.91243E-15
 -1      3630 2.01656E+01-1.79359E-01 1.85951E-03 3.34912E-01 1.79242E-13-1.69151E-14
 -1      3631 2.00379E+01-7.84958E-02-3.07793E-03 3.39565E-01 1.58758E-13 8.10208E-14
 -1      3632 2.02396E+01-2.54793E-01 3.16283E-03 3.67599E-01 1.22544E-13-3.52561E-15
 -1      3633 2.03294E+01-3.46516E-01 1.66852E-03 3.74915E-01 7.74892E-14 3.07901E-14
 -1      3634 2.01447E+01-2.08812E-01-4.69541E-03 4.15158E-01 1.55424E-13-5.25531E-14
 -1      3635 2.04517E+01-4.51387E-01 5.26322E-03 3.98752E-01 3.02869E-14 3.38924E-14
 -1      3636 2.05796E+01-5.74168E-01 8.56650E-04 3.86809E-01-1.41686E-14 3.69338E-14
 -1      3637 2.03289E+01-4.04458E-01-6.74303E-03 4.86945E-01 7.70070E-14 8.19955E-15
 -1      3638 2.07659E+01-7.05587E-01 7.97340E-03 3.86767E-01 2.58516E-14 9.34951E-14
 -1      3639 2.09346E+01-8.52515E-01-1.16248E-03 3.40681E-01 1.34276E-13 1.55915E-13
 -1      3640 2.06191E+01-6.70770E-01-8.99840E-03 5.32404E-01 8.05546E-14 9.01861E-14
 -1      3641 2.11980E+01-9.95319E-01 1.07588E-02 2.92307E-01 1.10930E-13 1.21099E-13
 -1      3642 2.14006E+01-1.14032E+00-4.38348E-03 1.93639E-01 7.27446E-14 4.81199E-14
 -1      3643 2.10433E+01-9.96346E-01-1.11842E-02 5.13456E-01 9.42947E-14 3.53547E-15
 -1      3644 2.17374E+01-1.25644E+00 1.24423E-02 6.71518E-02 1.42971E-13 2.69639E-14
 -1      3645 2.19531E+01-1.34692E+00-7.16980E-03-9.87547E-02 1.25539E-13 8.50231E-16
 -1      3646 2.16169E+01-1.32858E+00-1.17412E-02 3.68570E-01 9.75231E-14-1.47112E-13
 -1      3647 2.23282E+01-1.38115E+00 9.17525E-03-3.22426E-01 3.23413E-14 2.73449E-14
 -1      3648 2.25211E+01-1.33380E+00-9.61807E-03-5.57898E-01 7.10369E-15 4.78389E-14
 -1      3649 2.23075E+01-1.54537E+00-7.02818E-03 4.46302E-02 1.06657E-13 4.03159E-14
 -1      3650 2.28500E+01-1.16202E+00 2.69392E-03-8.75206E-01-7.90340E-14 9.67609E-14
 -1      3651 2.29603E+01-8.90824E-01-1.06281E-02-1.11195E+00-1.24360E-13 6.78537E-14
 -1      3652 2.30335E+01-1.45527E+00 1.06414E-02-5.15133E-01-8.28968E-14 2.16438E-13
 -1      3653 2.31635E+01-4.64716E-01-8.88284E-03-1.45252E+00-2.42124E-13 5.15677E-14
 -1      3654 2.31615E+01 1.08314E-01 7.28699E-03-1.59893E+00-2.02263E-13-2.26360E-14
 -1      3655 2.35777E+01-8.83816E-01-5.11064E-03-1.18421E+00-1.86869E-13 2.42125E-13
 -1      3656 2.28028E+01 2.24726E+00-2.98363E-02-1.46346E+00-1.94749E-14-1.51370E-13
 -1      3657 2.26643E+01 2.81881E+00 1.09824E-02-1.07816E+00 3.28123E-14-2.08930E-13
 -1      3658 2.32062E+01 3.72495E+00-2.61416E-02-6.67182E-01 8.91474E-15-1.75463E-13
 -1      3659 2.31229E+01 3.91763E+00-3.50015E-02-1.07352E-01-4.76268E-14-1.78410E-13
 -1      3660 2.31491E+01 3.53292E+00-2.08827E-02 8.61927E-01-8.44724E-14-3.20815E-13
 -1      3661 2.32924E+01 2.99153E+00-5.14353E-02 1.33816E+00-1.01889E-13-2.75576E-13
 -1      3662 2.33726E+01 1.72745E+00-4.91512E-03 1.63539E+00-9.93129E-15-3.17382E-13
 -1      3663 2.34998E+01 9.81666E-01-2.68038E-02 1.78820E+00-1.29525E-13-1.52217E-13
 -1      3664 2.35934E+01 2.84108E-01-1.13651E-02 1.69603E+00-1.59498E-13-1.83540E-13
 -1      3665 2.30821E+01-5.88702E-01-1.90525E-03 1.30777E+00-2.05076E-13 1.69088E-13
 -1      3666 2.30453E+01-9.77565E-01-2.97389E-03 1.10005E+00-2.72631E-14 1.08284E-13
 -1      3667 2.27477E+01-1.23264E+00-1.11644E-02 7.51445E-01-2.09563E-14 1.06853E-13
 -1      3668 2.25990E+01-1.36022E+00 1.15832E-02 5.12789E-01-1.27518E-14-1.33090E-13
 -1      3669 2.33027E+01-1.34191E+00-7.82818E-03 7.49368E-01-5.96717E-14 4.21124E-14
 -1      3670 2.22185E+01-1.40794E+00-1.18714E-02 2.29143E-01-3.39181E-14-2.47294E-13
 -1      3671 2.20126E+01-1.35375E+00 1.16436E-02 3.60981E-02 3.64556E-14-2.33438E-13
 -1      3672 2.26431E+01-1.61914E+00-1.47820E-02 1.24699E-01-1.32791E-13-2.82503E-14
 -1      3673 2.16607E+01-1.26465E+00-5.61586E-03-1.31153E-01 1.91278E-13-2.70523E-13
 -1      3674 2.14501E+01-1.13121E+00 1.12847E-02-2.58403E-01 2.17921E-13-2.69267E-13
 -1      3675 2.19322E+01-1.46159E+00-1.06126E-02-2.90982E-01 1.64338E-13-7.66092E-14
 -1      3676 2.11603E+01-9.87699E-01-1.95154E-03-3.39364E-01 2.26079E-13-1.75658E-13
 -1      3677 2.09752E+01-8.31770E-01 8.48281E-03-4.05710E-01 1.78240E-13-1.36029E-14
 -1      3678 2.13167E+01-1.15512E+00-1.08305E-02-5.11309E-01 2.70292E-13-1.35985E-13
 -1      3679 2.07637E+01-6.85596E-01 8.60327E-05-4.24475E-01 2.44162E-14-4.65515E-14
 -1      3680 2.06136E+01-5.46589E-01 2.61155E-03-4.46404E-01 3.95853E-15-1.32196E-14
 -1      3681 2.08406E+01-7.98517E-01-6.39372E-03-5.78958E-01 1.46463E-13-2.49247E-13
 -1      3682 2.00589E+01-1.25525E-02 3.06611E-04-1.14302E-01-1.08962E-14-5.10742E-14
 -1      3683 2.00721E+01-2.73407E-02-2.05157E-04-1.15530E-01-3.28035E-14-9.96375E-14
 -1      3684 2.03507E+01 5.74154E-01-2.06653E-03 8.30072E-02 1.48994E-13-2.98742E-13
 -1      3685 2.03523E+01 7.35352E-01 2.55917E-04 1.55576E-01 1.44959E-13-2.90276E-13
 -1      3686 2.00918E+01-3.94620E-02 3.52772E-04-1.18150E-01-1.56548E-14-1.28168E-13
 -1      3687 2.01055E+01-4.93332E-02-5.88786E-05-1.20633E-01 2.48196E-14-1.43390E-13
 -1      3688 2.00947E+01-3.51630E-02-1.85041E-04-1.02521E-01-3.12648E-14-8.82860E-14
 -1      3689 1.99858E+01 6.94280E-02 1.50368E-05-1.15901E-01 5.52126E-14 1.37656E-14
 -1      3690 2.00026E+01 4.50547E-02-4.87699E-04-1.13118E-01 1.09548E-13-2.72195E-15
 -1      3691 1.99374E+01 1.26596E-01-2.95052E-04-1.21127E-01 8.97056E-15 2.94799E-14
 -1      3692 1.99597E+01 9.63125E-02-6.39938E-04-1.16413E-01 5.59813E-14 4.16612E-14
 -1      3693 1.99700E+01 8.62920E-02 6.01872E-04-9.65558E-02 6.51298E-14-4.80406E-14
 -1      3694 1.98728E+01 1.97992E-01-7.77590E-04-1.27145E-01-4.28220E-14-3.06883E-14
 -1      3695 1.99046E+01 1.60276E-01-7.87582E-04-1.21421E-01-1.27116E-14 2.01204E-14
 -1      3696 1.99134E+01 1.48284E-01 1.05660E-03-9.55753E-02 1.88817E-14 2.86889E-15
 -1      3697 1.97878E+01 2.82436E-01-1.54167E-03-1.30180E-01-1.12656E-13-3.52117E-14
 -1      3698 1.98317E+01 2.38006E-01-9.69198E-04-1.25331E-01-7.41867E-14-5.57722E-14
 -1      3699 1.98418E+01 2.22161E-01 1.69460E-03-9.08979E-02-5.41643E-14 3.25479E-15
 -1      3700 1.96607E+01 3.93061E-01-2.72776E-03-1.23778E-01-5.11419E-14-2.20323E-14
 -1      3701 1.97297E+01 3.35157E-01-1.06490E-03-1.22816E-01-8.03729E-14-1.70666E-14
 -1      3702 1.97452E+01 3.11949E-01 2.45955E-03-7.68121E-02-9.98701E-14-7.08633E-14
 -1      3703 1.94766E+01 5.30432E-01-4.54698E-03-9.59585E-02-8.96159E-14-1.17412E-14
 -1      3704 1.95805E+01 4.59186E-01-1.13719E-03-1.05145E-01-3.39391E-14-3.11334E-15
 -1      3705 1.96086E+01 4.23473E-01 3.62221E-03-4.28228E-02-7.59909E-14-4.12567E-14
 -1      3706 1.92108E+01 6.96676E-01-7.28129E-03-2.78111E-02 1.93122E-14 6.13203E-15
 -1      3707 1.93661E+01 6.11818E-01-1.00147E-03-5.70949E-02-6.37370E-14-1.81843E-14
 -1      3708 1.94183E+01 5.55546E-01 5.10562E-03 2.68008E-02-5.96438E-14-9.87415E-14
 -1      3709 1.88304E+01 8.88257E-01-1.12710E-02 1.10165E-01 7.30041E-14 6.26147E-14
 -1      3710 1.90601E+01 7.93102E-01-5.20976E-04 4.49889E-02 1.14527E-13 5.23196E-14
 -1      3711 1.91549E+01 7.05062E-01 6.95993E-03 1.56487E-01 3.63431E-14-7.79674E-14
 -1      3712 1.82939E+01 1.08920E+00-1.68839E-02 3.62046E-01 6.98027E-14 5.35026E-14
 -1      3713 1.86286E+01 9.94537E-01 5.56366E-04 2.37034E-01 6.13281E-14 1.52002E-14
 -1      3714 1.87954E+01 8.59679E-01 9.13970E-03 3.82426E-01 8.06514E-14 1.21201E-14
 -1      3715 1.75500E+01 1.26061E+00-2.41246E-02 7.91495E-01 1.30191E-13 8.62574E-14
 -1      3716 1.80313E+01 1.19012E+00 2.69357E-03 5.71560E-01 1.13631E-13 9.25156E-14
 -1      3717 1.83161E+01 9.89746E-01 1.15488E-02 7.56233E-01 5.80607E-14 6.54427E-14
 -1      3718 1.65674E+01 1.32574E+00-2.38349E-02 1.49212E+00 1.54061E-13-8.62639E-14
 -1      3719 1.72235E+01 1.32135E+00 7.11186E-03 1.12277E+00 1.48115E-13 7.32304E-14
 -1      3720 1.77035E+01 1.03669E+00 1.58971E-02 1.34786E+00 2.33417E-13-4.42146E-14
 -1      3721 1.53332E+01 1.30464E+00-6.87151E-03 2.27186E+00 3.35390E-13-3.31383E-13
 -1      3722 1.61653E+01 1.38498E+00 1.04696E-02 1.75983E+00 2.24160E-13-2.26377E-13
 -1      3723 1.69396E+01 1.03337E+00 3.02073E-02 2.04511E+00 3.56531E-13-1.62074E-13
 -1      3724 1.59179E+01 9.48965E-01 3.64922E-02 2.78952E+00 3.12369E-13-3.34925E-13
 -1      3725 1.43937E+01 1.50319E+00 7.03799E-03-2.18701E+00 2.78956E-13 3.35933E-13
 -1      3726 2.02096E+01 1.61094E+00-2.18797E-03-2.05135E-01-3.63599E-14-4.11438E-13
 -1      3727 2.02195E+01 1.55034E+00-5.04660E-03-2.88309E-01-7.17121E-14-3.99699E-13
 -1      3728 2.03035E+01 1.27791E+00 6.21287E-03-2.60804E-01-9.39875E-14-3.51395E-13
 -1      3729 2.05000E+01-4.19924E-01 2.40653E-03-3.61498E-01 3.42844E-14 4.92192E-14
 -1      3730 2.03160E+01 1.58621E-01-1.06997E-03-7.68341E-02 6.78123E-14-2.58778E-13
 -1      3731 2.03367E+01 2.35033E-01 1.42108E-03-4.56428E-02 1.11794E-13-2.59598E-13
 -1      3732 2.45081E+01-1.27570E+00 2.73241E-02 1.01227E+00 4.38829E-14-2.83937E-13
 -1      3733 2.41575E+01-2.05472E-01-8.33933E-03 1.54280E+00-9.00720E-14-3.49909E-13
 -1      3734 2.01981E+01-4.91950E-02 1.14970E-04-1.31965E-01-1.52737E-16-2.15939E-13
 -1      3735 2.02169E+01-3.52647E-02 5.08478E-04-1.30257E-01 2.08852E-14-2.21641E-13
 -1      3736 1.54149E+01 1.37990E+00-7.01544E-03-1.97323E+00 1.52404E-13 3.64183E-13
 -1      3737 1.51965E+01 1.05170E+00 9.19394E-02-3.02885E+00 2.95472E-13 4.01831E-13
 -1      3738 2.02790E+01 5.01337E-02-5.23833E-04-1.11791E-01-1.39833E-14-2.31846E-13
 -1      3739 2.03007E+01 9.87361E-02 1.05211E-03-9.45202E-02 1.35405E-14-2.54383E-13
 -1      3740 2.03419E+01 1.49485E-01-8.81953E-05-6.95670E-02 4.45279E-14-2.14059E-13
 -1      3741 2.00247E+01 2.35952E-02 2.01212E-04-1.13431E-01 1.02455E-13 1.96627E-16
 -1      3742 2.00387E+01 4.19121E-03-3.44820E-04-1.12784E-01 5.01585E-14-6.01702E-14
 -1      3743 2.00564E+01-4.49979E-03 4.97963E-06-9.89581E-02 1.17286E-14-6.50220E-14
 -1      3744 2.00160E+01 3.58541E-02 2.61262E-04-9.71140E-02 6.56078E-14 1.30576E-14
 -1      3745 2.47569E+01 2.53134E+00-1.26875E-02 1.87753E+00-1.55567E-13-5.20254E-13
 -1      3746 2.01974E+01 1.66511E+00-2.68511E-03-3.58314E-02 2.76943E-14-4.12990E-13
 -1      3747 2.02017E+01 1.64627E+00-3.29729E-03-1.26673E-01-1.32895E-14-4.15081E-13
 -1      3748 2.02796E+01 1.42598E+00 5.04805E-03 7.47227E-04 3.59657E-14-3.67593E-13
 -1      3749 2.02909E+01 8.07145E-01 1.37282E-03 3.19226E-01 1.89319E-13-2.19260E-13
 -1      3750 2.01247E+01-5.59006E-02 3.65825E-04-1.23718E-01 5.02196E-14-1.74284E-13
 -1      3751 2.01388E+01-5.99429E-02 9.99208E-05-1.26252E-01 8.24509E-15-1.61139E-13
 -1      3752 2.01324E+01-5.49941E-02-3.45663E-04-1.07153E-01-8.44929E-15-1.44097E-13
 -1      3753 2.03230E+01 1.04362E+00-3.71482E-03 2.20190E-01 1.54319E-13-3.11358E-13
 -1      3754 2.03234E+01 1.11146E+00-1.17546E-03 1.73606E-01 1.17744E-13-3.17049E-13
 -1      3755 2.42634E+01 2.09993E+00-5.45860E-02-1.87880E+00-1.88825E-13 3.05515E-13
 -1      3756 2.47206E+01 1.07790E+00 2.92482E-03-1.91179E+00-1.79069E-13 2.63520E-13
 -1      3757 2.03427E+01 3.26102E-01-1.86451E-03-1.43816E-02 1.19328E-13-2.73401E-13
 -1      3758 2.03591E+01 4.39159E-01 1.59362E-03 3.57166E-02 1.32202E-13-2.72892E-13
 -1      3759 2.03766E+01 5.56978E-01 1.33462E-05 6.01132E-02 1.24161E-13-2.82473E-13
 -1      3760 2.03700E+01 3.16467E-01 4.51879E-04-1.91125E-02 1.07050E-13-2.22193E-13
 -1      3761 2.01597E+01-6.06334E-02 2.71924E-04-1.29172E-01-1.76862E-14-1.95455E-13
 -1      3762 2.01764E+01-5.72339E-02 2.82870E-04-1.30692E-01-6.67211E-15-1.92620E-13
 -1      3763 2.01718E+01-6.24196E-02-4.18582E-04-1.11742E-01-1.48119E-14-2.19218E-13
 -1      3764 2.02385E+01-1.51748E-02-1.40060E-04-1.27947E-01 4.06502E-14-2.25408E-13
 -1      3765 2.02592E+01 1.33257E-02 7.74983E-04-1.20252E-01 1.98997E-14-2.32624E-13
 -1      3766 2.02587E+01-2.14334E-02-4.38290E-04-1.11041E-01 3.05878E-14-2.57061E-13
 -1      3767 1.89274E+01-1.29261E+00 9.17150E-02-4.16895E+00 2.37398E-13-2.81470E-13
 -1      3768 2.03117E+01-2.26446E+00-9.14449E-02-3.85519E+00 2.20113E-13-3.20912E-13
 -1      3769 2.22569E+01-2.61561E+00 8.82286E-02-3.06869E+00 1.66135E-13-4.41519E-13
 -1      3770 2.34173E+01-2.98597E+00-8.06767E-02-1.89882E+00 1.52210E-13-3.61782E-13
 -1      3771 1.65631E+01-1.99126E-01-4.71412E-02-3.82277E+00 3.02018E-13 2.07334E-13
 -1      3772 2.03068E+01 8.51428E-01-3.94932E-03 2.86369E-01 1.77846E-13-2.68374E-13
 -1      3773 2.03202E+01 9.80107E-01 1.29164E-04 2.57738E-01 1.65087E-13-2.92020E-13
 -1      3774 1.92517E+01-1.81523E+00 2.14872E-02 4.42613E+00 3.02593E-13 7.68101E-14
 -1      3775 1.80601E+01-1.07107E+00-4.24980E-03 4.21087E+00 3.14890E-13 1.62405E-13
 -1      3776 2.03451E+01-1.94559E+00 2.12231E-02 3.71526E+00 3.28839E-13-1.12366E-13
 -1      3777 1.92478E+01 4.30554E-01 1.36544E-03-8.75404E-01-4.32349E-14-8.03709E-14
 -1      3778 2.03328E+01 9.22193E-01-3.24846E-03-1.98954E-01-1.20060E-13-2.80382E-13
 -1      3779 2.38510E+01 4.51867E-01 2.57372E-03-1.73829E+00-2.19122E-13 1.11825E-13
 -1      3780 2.31745E+01 8.64809E-01-2.87819E-02-1.76199E+00-1.79779E-13-7.35162E-14
 -1      3781 2.30810E+01 1.62056E+00 9.41315E-03-1.68333E+00-8.92186E-14-1.14472E-13
 -1      3782 2.03683E+01 9.44963E-01 3.80360E-03 1.12797E-01 7.87359E-14-2.86595E-13
 -1      3783 2.03208E+01 1.15210E+00-3.14207E-03 1.34288E-01 8.94165E-14-3.14113E-13
 -1      3784 2.03191E+01 1.18675E+00-1.99366E-03 7.71504E-02 6.18374E-14-3.23531E-13
 -1      3785 2.02845E+01 1.39239E+00 5.59191E-03-1.38553E-01-1.12238E-14-3.86849E-13
 -1      3786 1.97458E+01 1.42968E-01 6.98720E-04-7.75679E-01-1.64382E-13-2.29419E-13
 -1      3787 2.03025E+01 4.23222E-02-3.19939E-04-9.80280E-02 1.59405E-14-2.49054E-13
 -1      3788 2.45772E+01-1.41798E-02-3.75809E-02-1.65736E+00-2.02572E-13 2.54316E-13
 -1      3789 2.44629E+01-7.11438E-01 2.11097E-02-1.33638E+00-1.87574E-13 2.61901E-13
 -1      3790 1.59753E+01 1.44399E-01 3.48624E-02 3.87421E+00 3.75596E-13-5.17433E-14
 -1      3791 1.82864E+01 8.85442E-01-7.74497E-03-9.43369E-01-1.05557E-13 3.27771E-13
 -1      3792 1.78822E+01 9.19855E-01-2.54184E-02-1.19965E+00-1.20350E-13 2.23606E-13
 -1      3793 1.87498E+01 5.53745E-01 1.36186E-02-1.26838E+00-8.96711E-14 2.74977E-13
 -1      3794 2.05391E+01-4.94602E-01-2.03168E-03-4.86201E-01-7.60012E-14-1.16426E-13
 -1      3795 2.03982E+01-3.31907E-01 1.25262E-03-4.38101E-01-2.75210E-14-3.48923E-13
 -1      3796 2.47675E+01-1.66172E+00-4.30680E-03-6.06809E-01-1.03795E-13 1.66306E-13
 -1      3797 2.51469E+01-2.29340E+00-9.53807E-03-8.11295E-04 3.20317E-14-1.02564E-13
 -1      3798 2.43906E+01-2.51649E+00-6.57405E-03 6.19293E-01 1.01157E-13-8.83545E-14
 -1      3799 2.03501E+01 8.36693E-01 2.66026E-03 1.75270E-01 1.45675E-13-2.95604E-13
 -1      3800 2.36586E+01-2.86513E+00 1.41943E-03 1.78201E+00 2.59900E-13-2.76753E-13
 -1      3801 2.31495E+01-3.00495E+00 2.71908E-02 2.64398E+00 3.27209E-13-2.82517E-13
 -1      3802 2.20158E+01-2.66086E+00-2.83011E-02 2.97291E+00 3.55473E-13-3.50907E-13
 -1      3803 1.60941E+01 1.30251E+00-2.28691E-02-1.77061E+00-2.23810E-14 2.06628E-13
 -1      3804 2.04202E+01-3.85895E-01 9.10690E-04-5.59049E-01-2.32360E-13-5.65376E-13
 -1      3805 2.03403E+01-3.34579E-01 1.62730E-03-6.58922E-01-1.35815E-13-4.04054E-13
 -1      3806 2.02144E+01-5.34355E-02-4.62029E-04-1.14147E-01-2.88245E-14-2.50731E-13
 -1      3807 2.12270E+01-2.05135E+00 1.49276E-02-2.95299E+00 1.24943E-13-2.91775E-13
 -1      3808 2.45507E+01-1.98643E+00-3.44364E-02 2.65872E-01 1.44099E-14-3.78433E-13
 -1      3809 2.37806E+01-1.69031E+00-1.73570E-02 4.49323E-01-6.72153E-14-2.03277E-13
 -1      3810 2.35477E+01-1.83433E+00 3.72217E-02 1.24015E-01-1.35432E-13-1.57276E-13
 -1      3811 2.44234E+01-2.54790E+00 7.56840E-02-7.77282E-01-3.85924E-14-4.52748E-13
 -1      3812 2.39718E+01 3.95940E+00-4.24276E-02-1.10768E+00-3.49026E-14-1.82044E-13
 -1      3813 2.03574E+01-4.27157E-01-4.64307E-03-7.84904E-01-1.20261E-13-3.60139E-13
 -1      3814 2.02235E+01-2.55715E-01 6.74454E-03-7.80983E-01-8.97332E-14-3.39405E-13
 -1      3815 2.00609E+01-1.64851E-01-2.05178E-03-8.48692E-01-1.58644E-13-3.61467E-13
 -1      3816 2.40822E+01 3.01285E+00-5.61049E-03-1.71583E+00-4.36699E-14 7.55784E-14
 -1      3817 2.36622E+01 2.14295E+00-1.35629E-02-1.70723E+00-1.47556E-14 5.99416E-14
 -1      3818 1.77722E+01-2.71571E-01 8.85663E-03-3.30605E+00 1.70775E-13 9.26134E-14
 -1      3819 2.33352E+01-2.49350E+00-8.51137E-03-1.24140E+00-4.01740E-14-1.99134E-13
 -1      3820 2.04630E+01-4.30055E-01-1.56965E-03-5.20991E-01-1.18988E-13-3.13722E-13
 -1      3821 2.03957E+01 3.70320E-01 3.49755E-04 5.88807E-05-7.02468E-14-1.71380E-13
 -1      3822 2.03845E+01 2.68755E-01-8.61114E-04 3.19526E-02-7.05275E-14-1.43816E-13
 -1      3823 2.03739E+01 1.84967E-01 5.45050E-04 4.70958E-02-3.34297E-14-1.16703E-13
 -1      3824 2.03547E+01 1.17050E-01-5.79346E-04 6.64583E-02 6.83554E-15-6.37598E-14
 -1      3825 2.03991E+01 2.47430E-01 7.06005E-05 2.80083E-02-2.58409E-14-9.87669E-14
 -1      3826 2.03364E+01 6.30840E-02 5.67680E-04 7.46374E-02 6.12189E-15-7.29862E-14
 -1      3827 2.03137E+01 2.06042E-02-2.77446E-04 8.48212E-02 1.75039E-14-6.99716E-14
 -1      3828 2.03668E+01 1.02119E-01-1.16364E-04 5.31887E-02 1.18707E-15-1.26467E-13
 -1      3829 2.02910E+01-1.12100E-02 4.51037E-04 8.80677E-02-6.71480E-15-8.15526E-14
 -1      3830 2.02677E+01-3.48406E-02-1.72214E-07 9.22884E-02-3.06063E-14-1.05674E-13
 -1      3831 2.03230E+01 1.05222E-02-3.25418E-04 6.63885E-02-1.11486E-14-1.08178E-13
 -1      3832 2.02433E+01-5.08678E-02 3.14249E-04 9.24295E-02-3.14432E-14-1.11999E-13
 -1      3833 2.02210E+01-6.09307E-02 1.84450E-04 9.30881E-02-4.29780E-14-1.21155E-13
 -1      3834 2.02744E+01-4.11492E-02-4.39066E-04 7.17243E-02-4.19964E-14-9.94532E-14
 -1      3835 2.01965E+01-6.57437E-02 1.81972E-04 9.16919E-02-5.66171E-14-7.56888E-14
 -1      3836 2.01758E+01-6.62486E-02 2.99213E-04 9.06692E-02-9.02834E-14-7.93404E-14
 -1      3837 2.02250E+01-6.38712E-02-4.64038E-04 7.23350E-02-4.34062E-14-1.02994E-13
 -1      3838 2.01521E+01-6.32754E-02 5.61147E-05 8.89996E-02-1.06730E-13-2.20779E-14
 -1      3839 2.01332E+01-5.72185E-02 3.70086E-04 8.77559E-02-5.19090E-14 9.96587E-15
 -1      3840 2.01772E+01-6.60592E-02-4.28816E-04 7.09189E-02-7.06180E-14-1.58656E-14
 -1      3841 2.01107E+01-4.90245E-02-6.64950E-05 8.68544E-02-7.67405E-14-4.95945E-14
 -1      3842 2.00936E+01-3.86738E-02 4.20135E-04 8.65513E-02-9.82539E-14-9.20940E-14
 -1      3843 2.01318E+01-5.40238E-02-3.58664E-04 6.96933E-02-1.19695E-13 5.70897E-14
 -1      3844 2.00722E+01-2.72153E-02-1.76537E-04 8.73096E-02-1.06792E-13-1.57829E-13
 -1      3845 2.00569E+01-1.43209E-02 4.82088E-04 8.89347E-02-1.47038E-13-1.85729E-13
 -1      3846 2.00890E+01-3.25451E-02-2.76286E-04 7.05767E-02-1.35461E-13-1.00485E-13
 -1      3847 2.00363E+01-1.30002E-03-2.92283E-04 9.23491E-02-1.18001E-13-2.06551E-13
 -1      3848 2.00228E+01 1.24747E-02 5.66739E-04 9.67955E-02-9.16544E-14-1.56773E-13
 -1      3849 2.00485E+01-5.22897E-03-1.83541E-04 7.54407E-02-1.29908E-13-2.07707E-13
 -1      3850 2.00030E+01 2.54315E-02-4.08274E-04 1.03864E-01-8.42623E-14-1.78094E-13
 -1      3851 1.99918E+01 3.84053E-02 7.08605E-04 1.12074E-01-6.84948E-14-1.82452E-13
 -1      3852 2.00099E+01 2.44351E-02-1.52382E-04 8.63103E-02-7.42311E-14-1.99033E-13
 -1      3853 1.99730E+01 4.93709E-02-5.01788E-04 1.24107E-01 1.27909E-14-1.09071E-13
 -1      3854 1.99650E+01 5.93731E-02 9.34944E-04 1.37081E-01 6.54884E-14-3.26369E-14
 -1      3855 1.99733E+01 5.31368E-02-1.68543E-04 1.05660E-01 3.90414E-14-1.22966E-13
 -1      3856 1.99482E+01 6.58051E-02-5.54242E-04 1.55659E-01 4.61390E-14-1.30234E-14
 -1      3857 1.99456E+01 6.98844E-02 1.27251E-03 1.74462E-01-8.58219E-16 5.97813E-14
 -1      3858 1.99398E+01 7.64717E-02-2.94073E-04 1.36578E-01 8.80890E-14-8.87001E-14
 -1      3859 1.99328E+01 6.82971E-02-5.19003E-04 2.01459E-01-5.71844E-14 1.24030E-13
 -1      3860 1.99390E+01 6.23565E-02 1.74282E-03 2.27098E-01 1.99764E-14 1.12656E-13
 -1      3861 1.99122E+01 8.84601E-02-5.93491E-04 1.82885E-01 1.90231E-14 4.49346E-15
 -1      3862 1.99343E+01 4.79676E-02-3.11052E-04 2.64532E-01 7.24546E-14 1.13060E-13
 -1      3863 1.99547E+01 2.64065E-02 2.34411E-03 2.97611E-01 1.25609E-13 1.24191E-13
 -1      3864 1.98963E+01 8.06170E-02-1.16792E-03 2.49080E-01 7.37116E-14 1.38145E-13
 -1      3865 1.99648E+01-7.05076E-03 2.06930E-04 3.47139E-01 9.83455E-14 1.19996E-13
 -1      3866 2.00071E+01-5.14720E-02 3.02554E-03 3.87185E-01 7.47548E-14 2.81335E-14
 -1      3867 1.99020E+01 4.11003E-02-2.14466E-03 3.39775E-01 7.79743E-14-6.08710E-15
 -1      3868 2.00429E+01-1.11649E-01 1.24579E-03 4.49086E-01 9.47628E-14-5.89472E-15
 -1      3869 2.01176E+01-1.87515E-01 3.63258E-03 4.93317E-01 1.08965E-13-3.30551E-14
 -1      3870 1.99459E+01-4.58915E-02-3.68852E-03 4.58325E-01 5.05022E-14-3.90269E-14
 -1      3871 2.01952E+01-2.82573E-01 3.08996E-03 5.64516E-01 8.44492E-14-1.35947E-13
 -1      3872 2.03146E+01-3.98423E-01 3.83079E-03 6.05934E-01 4.05495E-14-8.83003E-14
 -1      3873 2.00528E+01-1.99933E-01-5.98275E-03 6.03959E-01 7.53119E-14-1.28710E-13
 -1      3874 2.04561E+01-5.34606E-01 6.04389E-03 6.76665E-01 1.16666E-14-8.49997E-14
 -1      3875 2.06327E+01-6.95289E-01 3.11757E-03 7.01555E-01 5.43161E-14-1.04836E-13
 -1      3876 2.02584E+01-4.41973E-01-9.13776E-03 7.66503E-01 4.04913E-14-2.75705E-13
 -1      3877 2.08642E+01-8.70818E-01 1.03431E-02 7.51468E-01 4.14924E-14-1.44298E-13
 -1      3878 2.11112E+01-1.07152E+00 1.70873E-03 7.37024E-01 5.64725E-14-1.90587E-13
 -1      3879 2.06082E+01-7.86582E-01-1.30387E-02 9.17731E-01 4.39166E-14-2.69522E-13
 -1      3880 2.14550E+01-1.27061E+00 1.44789E-02 7.35093E-01 1.92757E-13-2.22957E-13
 -1      3881 2.17709E+01-1.47684E+00-1.83006E-03 6.53180E-01 2.72121E-13-1.29130E-13
 -1      3882 2.11313E+01-1.22955E+00-2.44168E-02 9.99497E-01 1.58580E-13-3.10384E-13
 -1      3883 2.22682E+01-1.65130E+00 2.59365E-02 5.12953E-01 2.71571E-13 5.51577E-15
 -1      3884 2.25711E+01-1.80158E+00-8.38960E-03 3.31053E-01 1.85367E-13 7.37895E-14
 -1      3885 2.19698E+01-1.74690E+00-3.04564E-02 9.24404E-01 3.27487E-13-1.71403E-13
 -1      3886 2.34849E+01-1.85750E+00 5.47626E-03-1.00152E-01-3.52504E-14 1.29561E-13
 -1      3887 2.38619E+01-1.68638E+00-4.53032E-03-4.78780E-01-1.19579E-13 2.42672E-13
 -1      3888 2.41577E+01-1.27498E+00-7.75708E-03-8.73868E-01-1.20232E-13 2.33354E-13
 -1      3889 2.05805E+01-5.47812E-01 3.92799E-03-6.09898E-01-1.45427E-13-2.84290E-13
 -1      3890 2.21626E+01-1.65245E+00 1.00427E-03-5.65555E-01 4.46702E-15-1.95827E-13
 -1      3891 2.18138E+01-1.47507E+00 1.39916E-02-7.09913E-01 2.26657E-13-2.40349E-13
 -1      3892 2.14198E+01-1.26197E+00 1.35049E-03-7.51207E-01 3.49771E-13-3.66986E-13
 -1      3893 2.11336E+01-1.05567E+00 6.82500E-03-7.96579E-01 2.30035E-13-3.32493E-13
 -1      3894 2.15051E+01-1.44962E+00-1.63794E-02-1.04937E+00 1.62949E-13-4.31587E-13
 -1      3895 1.98907E+01 1.57997E-01-8.57234E-04-6.54116E-02-3.01764E-14-1.37305E-14
 -1      3896 1.99240E+01 1.25875E-01-2.93887E-04-6.77417E-02 3.91098E-14-4.28974E-14
 -1      3897 1.99547E+01 9.61748E-02-4.15789E-04-7.26347E-02 4.56853E-14-9.10610E-14
 -1      3898 1.99806E+01 6.92364E-02-2.66860E-04-7.34564E-02 4.21353E-14-1.09817E-13
 -1      3899 1.99393E+01 1.09766E-01 6.52450E-04-4.42377E-02-1.02520E-14-1.01825E-14
 -1      3900 1.97062E+01 3.12979E-01-2.52621E-03-2.08793E-02-1.00688E-13-7.49766E-14
 -1      3901 1.97675E+01 2.69227E-01-1.32083E-04-3.48060E-02-8.19237E-14-7.35516E-14
 -1      3902 1.95622E+01 4.11620E-01-3.97200E-03 3.70677E-02-1.00350E-13-1.25460E-13
 -1      3903 1.96482E+01 3.62005E-01 2.31750E-04 8.58638E-03-1.30871E-13-1.39748E-13
 -1      3904 1.96874E+01 3.19328E-01 2.06151E-03 5.06035E-02-1.12237E-13-1.56292E-13
 -1      3905 1.93687E+01 5.20639E-01-5.98022E-03 1.41112E-01-5.82720E-14-1.70341E-13
 -1      3906 1.94891E+01 4.67323E-01 9.27290E-04 8.79140E-02-6.35201E-14-1.59048E-13
 -1      3907 1.95517E+01 4.04271E-01 2.67733E-03 1.38566E-01-4.93780E-14-3.04265E-13
 -1      3908 1.91121E+01 6.31189E-01-8.68392E-03 3.18370E-01-1.24906E-15-1.08812E-13
 -1      3909 1.92786E+01 5.80001E-01 2.16510E-03 2.25284E-01-1.79608E-14-1.33411E-13
 -1      3910 1.93792E+01 4.86867E-01 3.22537E-03 2.84188E-01-5.27095E-14-2.66576E-13
 -1      3911 1.87801E+01 7.23049E-01-1.21270E-02 6.07087E-01-3.81421E-14 4.95745E-14
 -1      3912 1.90056E+01 6.86464E-01 4.24848E-03 4.52347E-01 2.08699E-14-9.16566E-15
 -1      3913 1.91659E+01 5.50782E-01 3.47187E-03 5.16445E-01-5.35797E-14-1.11591E-13
 -1      3914 1.83679E+01 7.56147E-01-1.60686E-02 1.05849E+00 1.58273E-13-5.95164E-14
 -1      3915 1.86641E+01 7.58006E-01 7.62063E-03 8.12351E-01 2.68619E-14-2.77356E-14
 -1      3916 1.89153E+01 5.65004E-01 2.93856E-03 8.73562E-01 7.22134E-14-4.76049E-14
 -1      3917 1.78826E+01 6.60882E-01-2.03092E-02 1.73480E+00 2.91908E-13-6.28872E-14
 -1      3918 1.82598E+01 7.38879E-01 1.21719E-02 1.36138E+00 2.56335E-13-1.15400E-14
 -1      3919 1.86472E+01 4.75433E-01 8.48309E-04 1.40202E+00 1.55624E-13-1.25949E-13
 -1      3920 1.72715E+01 4.59434E-01 3.17084E-02-2.73139E+00 6.65188E-14 6.00466E-14
 -1      3921 1.88672E+01-7.21905E-01-1.59300E-02-3.11782E+00 1.11993E-13-4.28546E-14
 -1      3922 1.72280E+01-3.58736E-01 3.77254E-02 3.95347E+00 2.81875E-13 2.85119E-13
 -1      3923 1.63228E+01 3.26345E-01-1.45862E-02 3.34092E+00 2.85591E-13-4.76589E-14
 -1      3924 1.84356E+01-7.47902E-01 2.06154E-02 3.62938E+00 3.22727E-13 2.01964E-13
 -1      3925 1.98122E+01 2.28356E-01-1.52672E-03-5.08363E-02-7.59762E-14-2.04043E-14
 -1      3926 1.98546E+01 1.92496E-01-2.95618E-04-5.66259E-02-3.69513E-14 2.03017E-14
 -1      3927 1.98731E+01 1.71238E-01 1.02712E-03-2.83728E-02-6.86589E-14 5.14509E-14
 -1      3928 1.97920E+01 2.40920E-01 1.54798E-03-1.35018E-04-5.03710E-14-2.37538E-14
 -1      3929 2.00960E+01-3.07170E-02 2.04333E-04-8.31554E-02-8.15928E-14-1.29874E-13
 -1      3930 2.01153E+01-4.36370E-02-1.45928E-05-8.48833E-02-8.52221E-14-1.41500E-13
 -1      3931 2.01804E+01-6.39877E-02 2.37522E-04-9.14050E-02-4.33049E-14-2.01279E-13
 -1      3932 2.02016E+01-6.38038E-02 2.16488E-04-9.25478E-02-4.70549E-14-2.27431E-13
 -1      3933 2.03378E+01 9.91878E-01-5.64779E-04-1.60470E-01-7.46594E-14-3.00908E-13
 -1      3934 1.68442E+01 1.27359E+00-2.08331E-02-1.39067E+00-1.11237E-13 2.38629E-13
 -1      3935 1.68771E+01 9.26514E-01 2.21454E-02-2.20126E+00 1.95662E-14 2.38629E-13
 -1      3936 1.79294E+01 4.68859E-01 2.05377E-02-2.15259E+00-5.83127E-15 1.83543E-13
 -1      3937 1.73384E+01 1.13124E+00-3.25048E-02-1.25468E+00 5.02202E-15 1.52206E-13
 -1      3938 2.06553E+01-6.53211E-01 1.20880E-03-7.03887E-01-3.98308E-14-4.04626E-13
 -1      3939 2.05643E+01-5.83511E-01-3.38061E-04-7.42061E-01-6.77369E-14-4.68330E-13
 -1      3940 2.04439E+01-5.04619E-01 5.21376E-03-8.74029E-01-8.65104E-14-4.52342E-13
 -1      3941 2.08655E+01-8.24061E-01 4.17153E-03-7.09424E-01 5.96608E-14-3.22343E-13
 -1      3942 2.02261E+01-5.89869E-02 1.45948E-04-9.41299E-02-3.82627E-14-2.14418E-13
 -1      3943 2.02485E+01-4.84876E-02 3.48376E-04-9.32821E-02 2.28554E-15-1.95078E-13
 -1      3944 2.02300E+01-6.18844E-02-4.39052E-04-7.32047E-02-2.03701E-14-1.95240E-13
 -1      3945 1.95435E+01 1.56581E-01-9.27000E-03-9.66542E-01-8.15226E-14-2.13738E-13
 -1      3946 1.92694E+01 3.21631E-01 1.31503E-02-1.09283E+00 4.14703E-14-1.05680E-13
 -1      3947 2.03580E+01 1.25672E-01-7.30229E-04-6.49151E-02 4.24692E-14-1.89327E-13
 -1      3948 2.03774E+01 1.95967E-01 6.74877E-04-4.49153E-02 7.00215E-14-1.94744E-13
 -1      3949 2.03181E+01 1.20053E+00-2.54977E-03 3.10094E-02 5.19145E-14-3.57576E-13
 -1      3950 2.03174E+01 1.19995E+00-2.96740E-03-3.01141E-02 2.91794E-14-3.63097E-13
 -1      3951 2.03732E+01 1.00164E+00 4.67619E-03 4.00591E-02 5.38909E-14-3.14822E-13
 -1      3952 2.03906E+01 6.35757E-01-1.39514E-03-7.23237E-02-6.99475E-14-2.40802E-13
 -1      3953 2.03932E+01 4.93355E-01-1.29899E-03-2.40623E-02-6.09325E-14-2.11841E-13
 -1      3954 2.04103E+01 4.63257E-01 1.72875E-04-1.29673E-02-3.80036E-14-2.23341E-13
 -1      3955 1.97756E+01 2.20735E-02 4.88175E-03-9.64939E-01-1.63718E-13-3.47650E-13
 -1      3956 2.01382E+01-5.34333E-02 2.61138E-04-8.73613E-02-6.23041E-14-1.36240E-13
 -1      3957 2.01570E+01-6.02963E-02 1.01013E-04-8.90803E-02-3.95525E-14-1.83224E-13
 -1      3958 2.01822E+01-6.38336E-02-3.91284E-04-7.09566E-02-7.82057E-14-1.58747E-13
 -1      3959 2.01365E+01-5.02339E-02-2.90013E-04-6.74259E-02-8.19939E-14-1.29274E-13
 -1      3960 2.03181E+01 2.59661E-02-3.29046E-04-8.47542E-02 1.76732E-14-2.45052E-13
 -1      3961 2.03407E+01 7.01794E-02 6.43713E-04-7.39320E-02 1.85880E-14-2.24809E-13
 -1      3962 2.03702E+01 1.11112E-01-2.14725E-05-5.25308E-02 4.93903E-14-1.82987E-13
 -1      3963 2.32279E+01-2.25342E+00-4.58500E-02-6.29908E-01-1.38186E-13-1.20644E-13
 -1      3964 2.29001E+01-1.88454E+00-1.17527E-02-2.67147E-01-1.80087E-13-7.40369E-14
 -1      3965 2.25590E+01-1.77424E+00 2.54708E-02-4.97369E-01-8.23664E-14-1.21945E-13
 -1      3966 2.28031E+01-2.23986E+00 6.18561E-02-1.53380E+00-1.00594E-13-1.70169E-13
 -1      3967 2.02727E+01-3.17971E-02-3.46669E-05-9.30114E-02 1.06387E-16-2.01316E-13
 -1      3968 2.02959E+01-7.09983E-03 4.87846E-04-8.83646E-02 2.36332E-14-2.36033E-13
 -1      3969 2.02793E+01-3.81520E-02-4.18003E-04-7.26387E-02-6.69254E-15-1.32805E-13
 -1      3970 2.04465E+01-1.46445E+00 3.06651E-02-2.88622E+00 7.64337E-14-1.50682E-13
 -1      3971 2.16370E+01-2.16638E+00-6.13515E-02-2.32727E+00-2.37993E-14-3.35491E-13
 -1      3972 2.03245E+01 1.13254E+00-4.10771E-03-1.37384E-01-3.91862E-14-3.56805E-13
 -1      3973 2.03802E+01 8.23536E-01 2.96021E-03-9.16602E-02-7.09393E-14-2.84665E-13
 -1      3974 2.03911E+01 7.74231E-01 8.47613E-04-5.99513E-02-2.54501E-14-2.93970E-13
 -1      3975 2.03230E+01 1.17462E+00-1.62189E-03-7.30671E-02 1.81762E-15-3.63793E-13
 -1      3976 2.33342E+01-2.08736E+00-6.95126E-03 4.56553E-01 1.24361E-13-7.40822E-14
 -1      3977 2.03756E+01 9.88933E-01 4.47223E-03-3.58801E-02 1.99390E-14-3.48661E-13
 -1      3978 2.22813E+01-1.95363E+00-3.31407E-02-9.79564E-01-7.33612E-14-5.01699E-14
 -1      3979 2.10981E+01-2.07912E+00 2.17101E-02 3.17387E+00 2.95469E-13-2.88635E-13
 -1      3980 2.00906E+01-1.57154E+00-8.17765E-03 3.27122E+00 1.99479E-13-1.05709E-13
 -1      3981 1.99112E+01-1.78146E-01-6.04271E-03-1.06431E+00-3.70732E-14-3.60091E-13
 -1      3982 2.08789E+01-9.38541E-01-8.46419E-03-9.45244E-01 8.45426E-14-5.12920E-13
 -1      3983 2.00726E+01-1.54175E-02-1.21347E-04-8.07678E-02-9.97658E-15-9.46041E-14
 -1      3984 2.00913E+01-2.44784E-02-1.27534E-04-6.34376E-02-4.03234E-14-2.00393E-13
 -1      3985 2.00530E+01 2.35901E-03 8.39505E-05-7.95690E-02 7.86322E-14-1.15694E-13
 -1      3986 2.19418E+01-1.89208E+00 9.77124E-03-1.67925E+00-1.35817E-13-1.17883E-14
 -1      3987 2.03867E+01 2.81462E-01-1.19818E-03-2.90226E-02 8.73926E-14-1.98162E-13
 -1      3988 2.04004E+01 3.89004E-01 2.16423E-03 3.18506E-03 9.62601E-14-2.15899E-13
 -1      3989 2.04012E+01 2.60705E-01 1.44289E-04-2.56328E-02 6.87012E-14-1.64452E-13
 -1      3990 2.03642E+01 8.00194E-01-6.87347E-04 1.30115E-01 1.22698E-13-2.94919E-13
 -1      3991 1.99954E+01 5.62904E-02 3.37189E-04-5.32858E-02 5.93538E-14-1.21606E-13
 -1      3992 2.00071E+01 4.46358E-02-1.07347E-04-7.64501E-02 7.01137E-14-9.42744E-14
 -1      3993 2.00287E+01 2.23230E-02-2.05090E-04-7.71580E-02 1.10156E-13-9.71401E-14
 -1      3994 1.89699E+01-3.10966E-01-2.14327E-02-2.38000E+00-7.09511E-14-5.96086E-14
 -1      3995 1.97339E+01-9.66305E-01 7.94710E-03-2.77522E+00 1.19735E-14-2.88502E-14
 -1      3996 2.03471E+01-1.02459E+00 1.59297E-02-2.18534E+00-1.10334E-13-7.55070E-14
 -1      3997 1.78072E+01 5.14264E-01 9.00557E-03 2.18345E+00 3.35444E-13 5.33206E-14
 -1      3998 1.84359E+01 1.88087E-01 1.00613E-03 2.15251E+00 2.41752E-13-1.66732E-14
 -1      3999 1.73595E+01 4.41333E-01-1.85463E-02 2.53611E+00 3.59201E-13-5.77489E-15
 -1      4000 1.69261E+01 4.49361E-01 1.16201E-03 2.90004E+00 3.13447E-13-3.22893E-14
 -1      4001 1.90831E+01 2.32448E-01-8.64585E-03-1.38361E+00 8.71200E-15 6.07104E-15
 -1      4002 2.03275E+01 1.57775E-02-2.93404E-04-6.68310E-02 1.37072E-14-2.02451E-13
 -1      4003 1.80733E+01 7.06211E-01 1.97563E-02-1.65320E+00-1.00450E-13 3.27593E-13
 -1      4004 2.03873E+01 6.93521E-01 2.99811E-03 8.76602E-02 9.82170E-14-2.76246E-13
 -1      4005 2.03748E+01 7.78650E-01-1.29651E-03 1.02465E-01 8.32824E-14-2.87392E-13
 -1      4006 2.03812E+01 8.17246E-01-1.51652E-03 7.50185E-02 6.11421E-14-2.65382E-13
 -1      4007 2.03856E+01 5.33383E-01-2.70573E-03 3.92199E-02 9.32520E-14-2.45205E-13
 -1      4008 2.18199E+01-2.26212E+00-1.03088E-02 2.55100E+00 2.87882E-13-3.68903E-13
 -1      4009 1.99245E+01 1.14682E-01-7.75783E-04-1.48275E-02-8.30751E-14 1.13909E-13
 -1      4010 1.99563E+01 8.82770E-02 1.19562E-04-2.12090E-02 3.86999E-15 7.24202E-14
 -1      4011 2.03913E+01 1.35188E-01 3.64316E-05 3.11807E-02-1.51012E-14-1.13146E-13
 -1      4012 2.03720E+01 7.63633E-02 2.86856E-05 4.14980E-02 4.19966E-15-1.27775E-13
 -1      4013 2.03497E+01 2.96203E-02 1.81972E-04 4.27580E-02-7.38385E-15-1.08384E-13
 -1      4014 2.03265E+01-5.51765E-03 1.90301E-04 4.86213E-02-1.39461E-14-1.20369E-13
 -1      4015 2.03700E+01 5.77489E-02-6.69951E-04 2.25238E-02 1.51866E-14-1.63265E-13
 -1      4016 2.03009E+01-3.19207E-02 1.88700E-04 4.82391E-02-4.78914E-14-1.35125E-13
 -1      4017 2.02763E+01-4.97734E-02 2.98338E-04 5.08806E-02-4.53327E-14-1.35471E-13
 -1      4018 2.03225E+01-1.70592E-02-7.47699E-04 2.62492E-02-5.01148E-14-1.88066E-13
 -1      4019 2.02497E+01-6.14003E-02 1.61162E-04 4.97732E-02-4.62956E-14-1.31112E-13
 -1      4020 2.02254E+01-6.68292E-02 3.50235E-04 5.05971E-02-4.55643E-14-1.26507E-13
 -1      4021 2.02709E+01-5.56917E-02-7.41313E-04 2.75678E-02-4.66655E-14-1.82606E-13
 -1      4022 2.01990E+01-6.79251E-02 1.05791E-04 4.94557E-02-2.45989E-14-1.08605E-13
 -1      4023 2.01758E+01-6.45870E-02 3.74314E-04 4.96397E-02-5.40361E-14-5.77207E-14
 -1      4024 2.02188E+01-6.81552E-02-6.64000E-04 2.78332E-02-2.08907E-14-1.47953E-13
 -1      4025 2.01503E+01-5.83292E-02 1.78702E-05 4.90361E-02-1.01704E-13-4.94496E-14
 -1      4026 2.01285E+01-4.88715E-02 3.94117E-04 4.95824E-02-1.33104E-13-6.36179E-14
 -1      4027 2.01682E+01-6.20773E-02-5.48143E-04 2.81824E-02-4.15870E-14-1.59870E-13
 -1      4028 2.01038E+01-3.76552E-02-1.19549E-04 5.01918E-02-1.73943E-13-2.84624E-14
 -1      4029 2.00832E+01-2.41382E-02 3.44711E-04 5.19794E-02-1.22073E-13-4.27258E-14
 -1      4030 2.01195E+01-4.27335E-02-3.32624E-04 2.98505E-02-1.18224E-13-5.79505E-14
 -1      4031 2.00593E+01-9.48630E-03-1.53327E-04 5.45610E-02-1.10463E-13-9.75136E-14
 -1      4032 2.00400E+01 6.48550E-03 4.74635E-04 5.86691E-02-1.57102E-13-1.07763E-13
 -1      4033 2.00724E+01-1.44161E-02-1.60788E-04 3.43607E-02-1.36887E-13-3.95856E-15
 -1      4034 2.00157E+01 2.27181E-02-3.82847E-04 6.40504E-02-1.22481E-13-4.13507E-14
 -1      4035 1.99977E+01 3.99255E-02 6.05069E-04 7.16223E-02-3.93678E-14-5.27211E-14
 -1      4036 2.00257E+01 1.89833E-02-2.32585E-04 4.26866E-02-1.20994E-13 8.82235E-14
 -1      4037 1.99728E+01 5.62950E-02-5.64543E-04 8.13027E-02 1.14953E-14-9.81183E-14
 -1      4038 1.99565E+01 7.30188E-02 8.26958E-04 9.37580E-02 6.56633E-14-1.01242E-13
 -1      4039 1.99789E+01 5.59496E-02-2.04249E-04 5.82200E-02-4.19910E-14 1.89912E-15
 -1      4040 1.99306E+01 8.76649E-02-7.62757E-04 1.09651E-01 5.95510E-14-1.15250E-13
 -1      4041 1.99170E+01 1.01752E-01 1.19062E-03 1.28864E-01 1.07012E-13-1.00545E-13
 -1      4042 1.99310E+01 9.29672E-02-2.63059E-04 8.40256E-02 4.39207E-14-1.76815E-13
 -1      4043 1.98905E+01 1.11977E-01-9.64444E-04 1.53587E-01 9.57547E-14-3.23426E-14
 -1      4044 1.98820E+01 1.20325E-01 1.73605E-03 1.81865E-01 3.31347E-14-1.52534E-15
 -1      4045 1.98822E+01 1.25822E-01-5.19307E-04 1.24949E-01 1.30182E-13-8.62752E-14
 -1      4046 1.98565E+01 1.22313E-01-1.10098E-03 2.18899E-01 9.64812E-15 1.12180E-14
 -1      4047 1.98571E+01 1.20249E-01 2.52345E-03 2.58999E-01 9.43422E-14-5.37038E-14
 -1      4048 1.98343E+01 1.48617E-01-1.01687E-03 1.87468E-01 7.68322E-14-1.40902E-13
 -1      4049 1.98363E+01 1.08330E-01-1.07867E-03 3.12475E-01 6.01401E-14-9.53931E-14
 -1      4050 1.98525E+01 8.91220E-02 3.57056E-03 3.67151E-01-7.36078E-15-1.44400E-13
 -1      4051 1.97920E+01 1.51690E-01-2.03215E-03 2.79974E-01 6.12227E-15-2.26988E-13
 -1      4052 1.98436E+01 5.54014E-02-6.95979E-04 4.41598E-01-2.36749E-15-1.66048E-13
 -1      4053 1.98857E+01 9.58654E-03 4.84665E-03 5.12729E-01 2.42536E-14-1.69681E-13
 -1      4054 1.97655E+01 1.21225E-01-3.74681E-03 4.12329E-01-3.77144E-14-1.57917E-13
 -1      4055 1.99014E+01-5.64584E-02 3.66731E-04 6.11788E-01-2.81929E-14-2.24036E-13
 -1      4056 1.99840E+01-1.41276E-01 6.17763E-03 6.98548E-01-3.41591E-15-2.99579E-13
 -1      4057 1.97727E+01 3.68332E-02-6.50855E-03 5.94535E-01-7.28022E-14-3.31279E-13
 -1      4058 2.00455E+01-2.52421E-01 2.61377E-03 8.22449E-01 1.16411E-13-3.56975E-13
 -1      4059 2.01877E+01-3.90708E-01 7.11333E-03 9.17962E-01 7.43650E-14-3.76194E-13
 -1      4060 1.98441E+01-1.29371E-01-1.07670E-02 8.33278E-01 1.92376E-14-4.57585E-13
 -1      4061 2.03286E+01-5.60262E-01 6.73724E-03 1.05842E+00 7.61799E-14-3.42943E-13
 -1      4062 2.05515E+01-7.63580E-01 6.75501E-03 1.14348E+00 9.46261E-14-2.74317E-13
 -1      4063 2.00289E+01-4.11994E-01-1.68367E-02 1.12504E+00 1.14474E-13-3.41810E-13
 -1      4064 2.08272E+01-1.00001E+00 1.49107E-02 1.27495E+00 5.02047E-14-2.53437E-13
 -1      4065 2.12020E+01-1.25304E+00 1.70350E-02 1.28787E+00 1.53595E-13-2.92732E-13
 -1      4066 2.04108E+01-8.43794E-01-2.12562E-02 1.44656E+00 1.07591E-13-2.75687E-13
 -1      4067 2.13500E+01-1.58497E+00 1.34766E-02 1.80247E+00 2.68004E-13-3.11884E-13
 -1      4068 2.18251E+01-1.91204E+00-1.46160E-04 1.78477E+00 3.04208E-13-3.29091E-13
 -1      4069 2.03932E+01 8.22253E-01-1.17804E-03-1.05743E-02 3.06660E-14-3.07063E-13
 -1      4070 2.03909E+01 7.95370E-01-2.83419E-03-4.05649E-02-3.79490E-15-3.14635E-13
 -1      4071 2.04158E+01 6.30943E-01 2.25855E-03-2.72731E-02 4.92969E-15-2.74732E-13
 -1      4072 2.02426E+01-4.47018E-01 4.31881E-04-1.11751E+00-4.98539E-14-4.76884E-13
 -1      4073 1.99183E+01-2.42283E-01 8.27661E-03-1.26834E+00 6.06139E-15-3.64362E-13
 -1      4074 2.02805E+01-4.75177E-02 4.13634E-05-5.18733E-02-2.23656E-14-1.19603E-13
 -1      4075 2.03062E+01-2.82208E-02 4.73268E-04-4.91036E-02-3.81726E-15-1.34580E-13
 -1      4076 1.95453E+01 3.60833E-01-4.22865E-03 2.23143E-01-2.13646E-15-2.20642E-13
 -1      4077 1.96287E+01 3.32882E-01 2.01146E-03 1.64855E-01-5.30209E-14-2.73717E-13
 -1      4078 1.96715E+01 2.98568E-01-2.98204E-03 1.13869E-01-8.39357E-14-2.30073E-13
 -1      4079 1.97360E+01 2.67066E-01 1.06332E-03 7.89426E-02-1.73857E-14-1.61996E-13
 -1      4080 1.96855E+01 2.71697E-01-1.67675E-04 1.90640E-01-4.85780E-14-2.21725E-13
 -1      4081 1.92270E+01 4.19351E-01-7.19975E-03 6.59471E-01-1.04123E-14-1.57420E-13
 -1      4082 1.93554E+01 4.24501E-01 5.61743E-03 5.14302E-01-5.19108E-14-1.96437E-13
 -1      4083 1.90594E+01 3.58253E-01-8.34445E-03 1.04767E+00 1.25347E-13-1.70833E-13
 -1      4084 1.92050E+01 4.06524E-01 8.75382E-03 8.30869E-01 6.96250E-14-1.61296E-13
 -1      4085 1.93894E+01 2.45628E-01-5.05584E-03 8.15335E-01-3.10358E-15-1.95195E-13
 -1      4086 1.89360E+01 1.66158E-01-8.51457E-03 1.59557E+00 1.79630E-13-2.51684E-13
 -1      4087 1.90804E+01 2.90233E-01 1.30380E-02 1.28509E+00 1.53515E-13-2.21554E-13
 -1      4088 1.93446E+01 8.22463E-02-9.61805E-03 1.22103E+00 1.38792E-13-2.63624E-13
 -1      4089 1.80189E+01-5.16179E-02 2.60681E-02 2.99036E+00 2.83312E-13 2.42465E-13
 -1      4090 1.96014E+01-2.27897E-01-4.35468E-03-1.62451E+00-2.00226E-14-2.59633E-13
 -1      4091 1.91488E+01-1.22551E-02 1.70306E-02-1.84969E+00-1.73625E-13 5.01526E-14
 -1      4092 2.03302E+01-1.27298E-03-1.58803E-04-4.93770E-02-8.10962E-15-1.74314E-13
 -1      4093 2.03548E+01 3.60461E-02 5.33916E-04-4.31726E-02-1.13441E-15-1.91391E-13
 -1      4094 2.03266E+01-1.28895E-02-8.77901E-04-2.83481E-02-2.75808E-14-1.89551E-13
 -1      4095 2.39132E+01-2.66192E+00-5.50768E-03 1.09903E+00 1.67161E-13-2.30247E-13
 -1      4096 2.31984E+01-2.56519E+00-1.36943E-03 1.54001E+00 1.85919E-13-3.10627E-13
 -1      4097 2.15625E+01-1.65480E+00 9.52189E-03-1.66665E+00-1.08609E-13-1.27900E-13
 -1      4098 2.03900E+01 8.08022E-01-1.77778E-03 4.42333E-02 6.39114E-14-2.88493E-13
 -1      4099 2.03906E+01 8.19673E-01-2.32952E-03 1.28123E-02 3.81591E-14-3.11782E-13
 -1      4100 2.04229E+01 6.60644E-01 3.36559E-03-3.90077E-04 3.72536E-14-2.69771E-13
 -1      4101 2.02296E+01-6.55467E-02 1.45281E-04-5.12458E-02-1.85377E-14-1.05415E-13
 -1      4102 2.02549E+01-5.93622E-02 3.74894E-04-5.06264E-02 9.74623E-16-1.03182E-13
 -1      4103 2.02751E+01-5.36620E-02-8.87421E-04-2.95793E-02 5.89033E-15-1.14001E-13
 -1      4104 2.04604E+01-6.31210E-01-1.45033E-03-1.08417E+00-7.95752E-14-5.19352E-13
 -1      4105 2.03746E+01 8.36021E-02-5.13359E-04-4.19870E-02 3.45130E-14-1.90947E-13
 -1      4106 2.03950E+01 1.45618E-01 4.54578E-04-3.08602E-02 5.06272E-14-1.95068E-13
 -1      4107 2.03740E+01 6.50259E-02-6.82116E-04-2.42279E-02 1.53154E-14-2.21399E-13
 -1      4108 1.93953E+01 4.08171E-01-5.68536E-03 3.95805E-01-7.81606E-14-2.24560E-13
 -1      4109 1.95008E+01 3.90620E-01 3.44526E-03 3.02147E-01-3.05339E-14-2.50822E-13
 -1      4110 1.95856E+01 3.04569E-01-9.16315E-04 3.23807E-01-4.13840E-14-1.70923E-13
 -1      4111 2.04222E+01 4.82096E-01-5.98555E-04-1.42416E-02 1.15570E-14-2.65955E-13
 -1      4112 2.04216E+01 3.61396E-01 4.94218E-04 8.83551E-03-5.56284E-15-2.19520E-13
 -1      4113 2.04246E+01 5.10593E-01-8.80220E-04-6.96253E-03 3.00247E-14-2.71907E-13
 -1      4114 2.04173E+01 2.78756E-01-9.11206E-06 1.22731E-02-4.13531E-15-1.89727E-13
 -1      4115 2.04043E+01 1.93224E-01 4.13573E-04 2.82855E-02-1.67969E-14-1.57850E-13
 -1      4116 2.04040E+01 1.64667E-01-6.65167E-04 1.55984E-02 3.06302E-14-1.98807E-13
 -1      4117 2.04254E+01 3.01226E-01-5.74657E-04 6.44459E-03 3.71127E-14-2.50504E-13
 -1      4118 2.27764E+01-2.26318E+00 3.25624E-02 1.48979E+00 2.78372E-13-2.65699E-13
 -1      4119 1.84282E+01 2.42677E-01-5.06638E-04-2.07974E+00-1.24868E-13 5.24598E-14
 -1      4120 1.89331E+01-2.62208E-01-1.57416E-02 2.31321E+00 1.75972E-13-1.49534E-13
 -1      4121 1.90377E+01 8.16352E-04 1.64645E-02 1.90633E+00 1.62275E-13-2.45170E-13
 -1      4122 1.94142E+01-2.45982E-01-1.56092E-02 1.75528E+00 9.05397E-14-3.46324E-13
 -1      4123 1.94226E+01-1.13916E+00 7.48956E-03 3.35011E+00 2.58966E-13 5.99364E-14
 -1      4124 1.85139E+01-5.52029E-01-1.30287E-02 3.16958E+00 2.58437E-13 9.18246E-14
 -1      4125 1.89505E+01-4.22093E-01 2.29989E-02 2.74559E+00 2.19645E-13 1.24456E-14
 -1      4126 2.02209E+01-1.26649E+00 2.66222E-02 2.78743E+00 1.23452E-13-2.39523E-13
 -1      4127 2.08130E+01-1.28815E+00-1.87750E-03-1.97976E+00 7.61435E-16-1.04779E-13
 -1      4128 2.13440E+01-1.35268E+00 1.51501E-02-1.35106E+00 2.94479E-14-1.99582E-13
 -1      4129 2.09485E+01-1.11178E+00 5.35645E-03-1.34264E+00 1.44846E-13-4.10498E-13
 -1      4130 2.01869E+01-8.08305E-01-5.66269E-03-1.87600E+00 4.83003E-14-1.62426E-13
 -1      4131 2.07741E+01-1.40624E+00-2.03444E-02 2.13121E+00 1.55380E-13-3.45203E-13
 -1      4132 2.04108E+01 1.95262E-01 1.90781E-04-1.65586E-02 6.77341E-14-2.06756E-13
 -1      4133 2.04068E+01 2.21859E-01-7.64684E-04-2.62721E-02 6.46228E-14-1.91624E-13
 -1      4134 2.04188E+01 3.17062E-01-3.79264E-04-1.01140E-02 8.48250E-14-1.84245E-13
 -1      4135 1.98951E+01 1.42864E-01 2.61108E-04-3.16093E-03-2.15208E-14 4.28119E-14
 -1      4136 1.99154E+01 1.19418E-01 1.16647E-04 1.94838E-02-2.11410E-14 1.10763E-13
 -1      4137 1.98567E+01 1.71342E-01-1.29046E-03 7.99688E-03-3.62235E-14 5.67431E-14
 -1      4138 1.94813E+01 3.05225E-01-2.38788E-03 5.24192E-01-7.30512E-14-2.10435E-13
 -1      4139 2.00449E+01 1.14256E-02 6.98033E-05-5.89840E-02 7.34122E-14-1.47747E-13
 -1      4140 1.99836E+01 6.28773E-02-4.13478E-04-2.84249E-02 3.39562E-15-2.13856E-14
 -1      4141 2.00106E+01 3.97904E-02 7.21027E-05-3.19913E-02 1.37101E-14-5.36482E-14
 -1      4142 1.99730E+01 7.03404E-02 3.78148E-06-2.41970E-04-8.20551E-14 9.37773E-14
 -1      4143 2.04209E+01-8.11143E-01-1.66370E-02-1.49822E+00 4.26722E-14-3.43235E-13
 -1      4144 2.07308E+01-8.62810E-01 1.10782E-02-1.22202E+00 1.03027E-13-4.92775E-13
 -1      4145 1.97736E+01 2.24351E-01 1.46157E-04 1.05639E-01 2.88204E-14-1.32823E-13
 -1      4146 1.97737E+01 2.33629E-01-2.01838E-03 4.76252E-02 8.32605E-15-1.26333E-13
 -1      4147 1.98225E+01 2.03265E-01 5.37146E-04 2.77814E-02-2.57508E-14-5.06717E-14
 -1      4148 1.95096E+01-7.02057E-01-1.43875E-02 2.45052E+00 1.20430E-13-3.01363E-13
 -1      4149 2.00852E+01-1.89105E-02 7.55122E-05-4.17694E-02-1.94900E-14-2.02941E-13
 -1      4150 2.01085E+01-3.41940E-02 1.18850E-04-4.33687E-02-6.28114E-14-1.95064E-13
 -1      4151 2.38500E+01-2.28517E+00-1.71432E-02 4.43619E-01 8.63667E-14-9.79696E-14
 -1      4152 2.04042E+01 5.03367E-01-8.49219E-04 2.45623E-02 8.75325E-14-2.13665E-13
 -1      4153 2.04134E+01 6.68392E-01 3.63613E-03 4.16858E-02 5.45723E-14-2.64974E-13
 -1      4154 2.02045E+01-6.64391E-02 2.87554E-04-4.94999E-02-5.25934E-14-1.20912E-13
 -1      4155 2.02236E+01-6.73845E-02-8.15892E-04-2.89465E-02-1.89920E-14-1.04112E-13
 -1      4156 2.01807E+01-6.34052E-02 1.71238E-04-4.89694E-02-8.54440E-14-1.30236E-13
 -1      4157 2.01329E+01-4.68688E-02 1.34835E-04-4.57884E-02-4.14465E-14-1.85419E-13
 -1      4158 2.01558E+01-5.65937E-02 1.93231E-04-4.69279E-02-5.58591E-14-1.57412E-13
 -1      4159 2.01734E+01-6.19260E-02-6.71346E-04-2.70377E-02-2.94811E-14-1.60150E-13
 -1      4160 2.01244E+01-4.25944E-02-4.97361E-04-2.40102E-02-4.30726E-14-2.08093E-13
 -1      4161 2.03294E+01-1.48028E-02 2.38730E-04-7.50805E-04-5.56118E-14-2.07000E-13
 -1      4162 2.03040E+01-3.89226E-02 8.05789E-04 4.55757E-04-4.74030E-14-2.13052E-13
 -1      4163 2.02775E+01-5.41420E-02 3.22309E-04-2.98310E-04-2.34664E-14-2.01906E-13
 -1      4164 2.02511E+01-6.38958E-02 6.73934E-04 3.32516E-04-1.75284E-14-1.57396E-13
 -1      4165 2.02254E+01-6.70687E-02 3.31419E-04 2.63667E-04-4.17886E-14-1.50586E-13
 -1      4166 2.01994E+01-6.66105E-02 5.46587E-04 7.58041E-04-2.02453E-14-1.22546E-13
 -1      4167 2.01740E+01-6.13618E-02 2.73729E-04 1.31776E-03-2.10902E-14-1.57071E-13
 -1      4168 2.01489E+01-5.34829E-02 4.53702E-04 2.12092E-03-4.33797E-14-1.76501E-13
 -1      4169 2.01240E+01-4.23248E-02 1.08962E-04 3.40578E-03-6.51448E-14-1.45228E-13
 -1      4170 2.00995E+01-2.90209E-02 2.41730E-04 4.87403E-03-6.76170E-14-8.28150E-14
 -1      4171 2.00755E+01-1.39734E-02-2.47474E-05 7.48650E-03-8.94495E-14-4.90972E-14
 -1      4172 2.00254E+01 2.32739E-02-1.34497E-04 1.53488E-02-7.30442E-14 5.21086E-14
 -1      4173 2.00024E+01 4.30680E-02 4.75726E-04 2.10189E-02-1.09517E-13 7.92731E-14
 -1      4174 1.99742E+01 6.47778E-02-2.23157E-04 2.89569E-02-1.33669E-13 1.21692E-13
 -1      4175 1.99512E+01 8.59980E-02 6.56104E-04 3.85337E-02-2.61933E-14 3.00887E-15
 -1      4176 1.99200E+01 1.08456E-01-3.82414E-04 5.15416E-02 3.48237E-14-6.39019E-14
 -1      4177 1.98970E+01 1.29917E-01 9.79422E-04 6.70590E-02 9.12779E-14-7.62954E-14
 -1      4178 1.98603E+01 1.52940E-01-5.29946E-04 8.88695E-02 1.05597E-13-1.11822E-13
 -1      4179 1.98379E+01 1.72616E-01 1.50791E-03 1.13326E-01 1.35077E-13-9.15279E-14
 -1      4180 1.97962E+01 1.92812E-01-6.28339E-04 1.47272E-01 6.70365E-14-1.62468E-13
 -1      4181 1.97764E+01 2.07513E-01 2.34358E-03 1.84434E-01 8.12259E-15-1.82364E-13
 -1      4182 1.97278E+01 2.22238E-01-5.86659E-04 2.38253E-01-8.28520E-15-1.93107E-13
 -1      4183 1.97147E+01 2.26660E-01 3.61060E-03 2.93303E-01-2.53032E-14-1.82858E-13
 -1      4184 1.96622E+01 2.29153E-01-1.78333E-04 3.74520E-01-8.08210E-14-1.66858E-13
 -1      4185 1.96631E+01 2.14740E-01 5.36779E-03 4.53384E-01-6.34669E-14-2.19836E-13
 -1      4186 1.96127E+01 1.95113E-01 8.25267E-04 5.71858E-01-8.12962E-14-2.08440E-13
 -1      4187 1.96399E+01 1.49024E-01 7.66737E-03 6.80537E-01-8.60568E-14-2.37915E-13
 -1      4188 1.96052E+01 9.21322E-02 2.82481E-03 8.46648E-01 3.57941E-14-2.66391E-13
 -1      4189 1.96783E+01-4.10733E-03 1.03438E-02 9.89171E-01 1.01677E-13-2.42468E-13
 -1      4190 1.96851E+01-1.20109E-01 6.25602E-03 1.21041E+00 1.12930E-13-2.73360E-13
 -1      4191 1.98329E+01-2.90945E-01 1.24616E-02 1.38526E+00 8.48430E-14-2.65308E-13
 -1      4192 1.99229E+01-4.96308E-01 9.87496E-03 1.65591E+00 1.01157E-13-2.89359E-13
 -1      4193 2.01962E+01-7.54354E-01 1.73371E-02 1.84658E+00 1.30652E-13-3.40464E-13
 -1      4194 1.99863E+01-5.51943E-01-3.61323E-03-1.67566E+00-5.18500E-14-3.01703E-13
 -1      4195 2.03547E+01 1.71393E-02 9.42488E-04 9.52495E-04-1.10045E-14-2.24294E-13
 -1      4196 2.01655E+01-1.00671E+00-5.45747E-03 2.21666E+00 1.43111E-13-2.72076E-13
 -1      4197 2.03765E+01 6.09795E-02 2.86012E-05-1.31241E-03 2.79640E-14-2.48661E-13
 -1      4198 2.04288E+01 5.09308E-01-8.93028E-04 3.80914E-03 3.71069E-14-2.67414E-13
 -1      4199 2.03984E+01 1.15898E-01 1.02750E-03 1.40106E-03 5.41299E-14-2.36083E-13
 -1      4200 2.00360E+01 1.81037E-02-1.49174E-04-3.64929E-02 2.56276E-14-6.70412E-14
 -1      4201 2.00602E+01-1.43644E-03-1.02767E-05-3.87310E-02 1.47198E-14-1.37901E-13
 -1      4202 2.00758E+01-1.19701E-02-6.14297E-05-1.90897E-02-3.98882E-14-1.43485E-13
 -1      4203 2.00259E+01 2.57711E-02-7.14080E-05-1.21375E-02-1.78697E-14-8.78450E-14
 -1      4204 2.04106E+01 1.67368E-01-4.80118E-04-2.35407E-03 4.49682E-14-2.59177E-13
 -1      4205 2.04182E+01 4.94596E-01-1.58264E-03 8.96801E-03 5.48575E-14-2.51807E-13
 -1      4206 2.04292E+01 3.78523E-01 1.76666E-03-5.20832E-03 6.11793E-14-2.25154E-13
 -1      4207 2.00511E+01 4.00350E-03 2.52236E-04 1.05393E-02-6.13620E-14-1.25488E-14
 -1      4208 1.98497E+01 1.71739E-01 1.79965E-04 5.23064E-02 6.12286E-14-4.44907E-14
 -1      4209 2.04268E+01 2.52174E-01 8.45238E-04-1.09571E-03 5.35821E-14-2.59347E-13
 -1      4210 2.28805E+01-2.11724E+00-2.09794E-03 8.63777E-01 2.17315E-13-1.99694E-13
 -1      4211 2.04230E+01 2.94977E-01 9.30337E-05-4.08657E-03 6.78530E-14-2.21949E-13
 -3
    1PSTEP                         3           1           1          
  100CL  101 1.000000000        4211                     0    1           1
 -4  TOSTRAIN    6    1
 -5  EXX         1    4    1    1
 -5  EYY         1    4    2    2
 -5  EZZ         1    4    3    3
 -5  EXY         1    4    1    2
 -5  EYZ         1    4    2    3
 -5  EZX         1    4    3    1
 -1         1 5.82981E-06-3.21573E-06-6.51634E-06 3.02253E-06-9.13144E-18-4.55492E-18
 -1         2 4.06734E-05-1.24251E-04 2.34199E-05-1.70599E-06-2.97076E-18 2.77350E-19
 -1         3 9.51768E-05-2.86361E-05-2.84357E-05-5.68312E-08 3.20295E-18 8.36511E-19
 -1         4 9.52260E-05-2.85824E-05-2.85460E-05 9.41046E-09 1.42455E-18 1.82906E-19
 -1         5 1.46413E-04 2.58462E-10-4.41382E-05 5.42426E-05 9.86688E-19 2.20449E-17
 -1         6 1.45451E-04 2.57635E-10-4.41980E-05-5.35436E-05-1.22735E-18 2.01153E-17
 -1         7 9.06238E-05-5.10807E-07-3.90755E-05-2.92641E-05-1.83383E-19 3.89815E-18
 -1         8 8.51347E-05 8.67411E-08-3.63441E-05-2.02836E-05-2.31478E-19-1.15270E-18
 -1         9 8.28208E-05 7.70065E-08-3.53544E-05-1.56558E-05-2.11083E-19-3.87664E-18
 -1        10 8.17815E-05 3.87346E-08-3.48846E-05-1.20947E-05-1.41560E-19-5.20006E-18
 -1        11 8.12577E-05 1.95073E-08-3.46548E-05-9.03077E-06-1.02898E-19-5.82244E-18
 -1        12 8.09865E-05 9.23776E-09-3.45400E-05-6.30385E-06-5.74891E-20-6.01470E-18
 -1        13 8.08437E-05 4.62286E-09-3.44817E-05-3.70817E-06-2.21287E-20-6.07995E-18
 -1        14 8.07832E-05 2.77394E-09-3.44576E-05-1.21023E-06-4.37186E-21-6.05505E-18
 -1        15 8.07838E-05 2.80114E-09-3.44579E-05 1.25695E-06 2.72211E-20-5.94588E-18
 -1        16 8.08458E-05 4.69679E-09-3.44826E-05 3.75630E-06 5.55022E-20-5.79717E-18
 -1        17 8.09911E-05 8.85484E-09-3.45416E-05 6.35553E-06 1.00253E-19-5.52488E-18
 -1        18 8.12651E-05 1.90819E-08-3.46578E-05 9.08607E-06 1.29652E-19-5.00677E-18
 -1        19 8.17947E-05 3.94714E-08-3.48907E-05 1.21578E-05 1.87320E-19-4.09941E-18
 -1        20 8.28470E-05 7.89684E-08-3.53672E-05 1.57302E-05 2.54441E-19-2.48632E-18
 -1        21 8.51894E-05 9.57510E-08-3.63732E-05 2.03739E-05 2.58080E-19 6.95616E-19
 -1        22 9.05243E-05-3.81118E-07-3.90963E-05 2.93064E-05 1.35525E-19 6.12222E-18
 -1        23 1.13004E-04-3.81363E-05-3.54057E-05-4.40544E-06-8.33057E-19 1.58414E-17
 -1        24 9.28233E-05-2.77026E-05-2.90052E-05 3.90909E-07-2.19487E-19 1.19769E-17
 -1        25 8.91330E-05-2.68563E-05-2.69334E-05 3.75908E-07-8.91287E-20 8.34124E-18
 -1        26 8.80270E-05-2.64919E-05-2.63950E-05 2.04089E-07-4.50896E-20 5.49577E-18
 -1        27 8.80520E-05-2.64698E-05-2.63868E-05 1.39752E-07-7.61246E-20 3.49612E-18
 -1        28 8.85854E-05-2.66061E-05-2.65563E-05 1.00782E-07 3.32113E-21 2.40238E-18
 -1        29 8.93421E-05-2.68193E-05-2.67895E-05 7.51489E-08-3.66557E-20 1.27150E-18
 -1        30 9.01709E-05-2.70603E-05-2.70408E-05 5.68571E-08-1.30697E-19 4.96378E-19
 -1        31 9.09877E-05-2.73009E-05-2.72872E-05 4.31074E-08 5.09161E-20-3.45570E-19
 -1        32 9.17463E-05-2.75258E-05-2.75158E-05 3.24891E-08-2.73784E-19-1.18907E-18
 -1        33 9.24248E-05-2.77279E-05-2.77205E-05 2.42130E-08 2.15369E-19-2.12941E-18
 -1        34 9.30168E-05-2.79046E-05-2.78992E-05 1.77920E-08 6.95762E-22-2.41192E-18
 -1        35 9.35258E-05-2.80570E-05-2.80531E-05 1.29003E-08 6.76955E-20-3.25397E-18
 -1        36 9.39621E-05-2.81878E-05-2.81851E-05 9.30971E-09-8.83216E-20-2.75920E-18
 -1        37 9.43397E-05-2.83011E-05-2.82995E-05 6.86072E-09-1.75099E-19-2.35400E-18
 -1        38 9.46746E-05-2.84018E-05-2.84010E-05 5.44511E-09-5.19645E-20-3.02405E-18
 -1        39 9.49831E-05-2.84945E-05-2.84946E-05 4.98995E-09-5.49408E-20-2.63880E-18
 -1        40 9.52800E-05-2.85836E-05-2.85845E-05 5.43376E-09-6.30419E-20-3.35838E-18
 -1        41 9.55766E-05-2.86724E-05-2.86740E-05 6.68695E-09-7.78246E-20-4.82562E-18
 -1        42 9.58774E-05-2.87621E-05-2.87643E-05 8.56856E-09 1.35002E-19-5.65463E-18
 -1        43 9.61758E-05-2.88507E-05-2.88531E-05 1.07127E-08-1.67966E-19-4.58305E-18
 -1        44 9.64492E-05-2.89314E-05-2.89332E-05 1.24441E-08 2.24680E-19-3.33635E-18
 -1        45 9.66525E-05-2.89905E-05-2.89905E-05 1.26389E-08-3.83220E-19-2.84561E-18
 -1        46 9.67117E-05-2.90060E-05-2.90025E-05 9.61783E-09 8.65049E-20-3.56832E-18
 -1        47 9.65207E-05-2.89464E-05-2.89373E-05 1.17002E-09 1.93992E-19-2.27057E-18
 -1        48 9.59444E-05-2.87716E-05-2.87548E-05-1.51341E-08-2.10010E-19-2.07900E-18
 -1        49 9.48330E-05-2.84374E-05-2.84120E-05-4.11602E-08-6.84269E-20-3.11619E-18
 -1        50 9.30545E-05-2.79048E-05-2.78723E-05-7.68709E-08-9.05734E-20-4.34060E-18
 -1        51 9.05440E-05-2.71550E-05-2.71204E-05-1.18640E-07-1.81036E-19-2.64421E-18
 -1        52 8.73658E-05-2.62071E-05-2.61797E-05-1.58004E-07 2.08363E-19-1.31371E-18
 -1        53 8.37645E-05-2.51342E-05-2.51250E-05-1.82219E-07-5.58284E-19-3.23414E-18
 -1        54 8.01762E-05-2.40655E-05-2.40836E-05-1.77839E-07 5.33189E-19-2.93624E-18
 -1        55 7.71664E-05-2.31693E-05-2.32165E-05-1.36987E-07-5.40232E-19-1.30046E-19
 -1        56 7.52940E-05-2.26118E-05-2.26796E-05-6.33224E-08 1.40890E-19-1.07625E-18
 -1        57 7.49392E-05-2.25061E-05-2.25778E-05 2.66538E-08-1.11159E-19 1.92894E-19
 -1        58 7.61715E-05-2.28728E-05-2.29300E-05 1.09470E-07-3.38060E-20-1.57498E-18
 -1        59 7.87238E-05-2.36326E-05-2.36628E-05 1.64801E-07 1.34919E-19-3.08504E-18
 -1        60 8.20871E-05-2.46339E-05-2.46348E-05 1.83445E-07-4.47684E-19-2.70262E-18
 -1        61 8.56752E-05-2.57026E-05-2.56807E-05 1.68968E-07 2.80670E-19-1.83710E-18
 -1        62 8.89836E-05-2.66886E-05-2.66549E-05 1.33322E-07-6.76518E-19-2.95944E-18
 -1        63 9.16842E-05-2.74946E-05-2.74594E-05 9.02029E-08-3.56755E-19-5.39324E-18
 -1        64 9.36436E-05-2.80807E-05-2.80509E-05 5.01312E-08 1.32640E-19-6.74865E-18
 -1        65 9.48843E-05-2.84534E-05-2.84320E-05 1.87638E-08 2.19644E-19-4.31799E-18
 -1        66 9.55261E-05-2.86479E-05-2.86350E-05-2.37116E-09 7.79037E-19-9.28371E-19
 -1        67 9.57309E-05-2.87120E-05-2.87065E-05-1.41570E-08 3.86332E-19 1.84503E-20
 -1        68 9.56649E-05-2.86949E-05-2.86955E-05-1.82388E-08-3.43215E-19-1.70151E-18
 -1        69 9.54790E-05-2.86412E-05-2.86471E-05-1.58144E-08 1.90333E-19-4.16665E-18
 -1        70 9.52998E-05-2.85884E-05-2.85977E-05-5.92485E-09 4.07445E-19-2.14093E-18
 -1        71 9.52180E-05-2.85626E-05-2.85680E-05 7.39469E-09-1.43455E-19-9.72984E-19
 -1        72 1.14003E-04-3.82800E-05-3.57406E-05 4.97185E-06 6.89882E-19 1.84663E-17
 -1        73 9.31648E-05-2.78077E-05-2.91741E-05-4.07550E-07 2.24404E-19 1.50366E-17
 -1        74 8.92416E-05-2.68850E-05-2.69892E-05-3.81818E-07 1.72239E-19 1.12530E-17
 -1        75 8.80503E-05-2.64997E-05-2.64075E-05-2.08429E-07 1.28617E-19 8.69945E-18
 -1        76 8.80363E-05-2.64663E-05-2.63823E-05-1.42281E-07-7.09721E-21 6.95096E-18
 -1        77 8.85516E-05-2.65969E-05-2.65458E-05-1.02224E-07 2.32746E-20 5.79146E-18
 -1        78 8.92972E-05-2.68061E-05-2.67760E-05-7.70782E-08-7.61387E-20 5.28428E-18
 -1        79 9.00846E-05-2.70347E-05-2.70146E-05-5.79791E-08 1.59931E-19 4.79311E-18
 -1        80 9.09016E-05-2.72754E-05-2.72612E-05-4.42509E-08 2.64920E-20 3.38130E-18
 -1        81 9.16635E-05-2.75012E-05-2.74908E-05-3.32194E-08-5.84038E-20 1.97328E-18
 -1        82 9.23451E-05-2.77041E-05-2.76963E-05-2.45861E-08 1.11332E-20 1.37376E-18
 -1        83 9.29384E-05-2.78813E-05-2.78753E-05-1.77609E-08 1.49527E-19 7.43510E-19
 -1        84 9.34459E-05-2.80332E-05-2.80287E-05-1.23649E-08 5.43298E-20-2.23223E-20
 -1        85 9.38777E-05-2.81628E-05-2.81593E-05-8.11694E-09 1.24040E-19-1.38592E-18
 -1        86 9.42485E-05-2.82745E-05-2.82716E-05-4.68319E-09-4.68106E-20-1.40594E-18
 -1        87 9.45633E-05-2.83695E-05-2.83670E-05-2.28676E-09 2.71367E-19-2.12821E-18
 -1        88 9.48772E-05-2.84647E-05-2.84625E-05-2.65754E-10-6.83872E-20-1.91807E-18
 -1        89 9.52033E-05-2.85639E-05-2.85618E-05 1.19256E-09 2.15332E-19-2.16428E-18
 -1        90 9.55810E-05-2.86790E-05-2.86771E-05 2.01589E-09-2.14005E-19-1.96881E-18
 -1        91 9.60641E-05-2.88265E-05-2.88251E-05 1.92853E-09 3.71000E-20-1.38161E-18
 -1        92 9.67297E-05-2.90297E-05-2.90295E-05 2.40596E-10 1.02965E-19-1.09202E-18
 -1        93 9.76919E-05-2.93234E-05-2.93260E-05-4.28153E-09 1.05027E-19-2.25163E-18
 -1        94 9.91231E-05-2.97559E-05-2.97694E-05-1.99517E-08 4.30805E-19-3.86984E-18
 -1        95 1.01161E-04-3.03771E-05-3.04020E-05-3.51904E-08-2.13709E-19-4.27749E-18
 -1        96 1.04396E-04-3.13521E-05-3.14118E-05-8.08786E-08-5.83444E-20-2.45414E-18
 -1        97 1.09340E-04-3.28358E-05-3.29601E-05-1.68246E-07 4.28294E-19-1.74351E-18
 -1        98 1.16826E-04-3.50695E-05-3.53011E-05-3.33289E-07-4.64957E-19-6.68521E-19
 -1        99 1.27878E-04-3.83554E-05-3.87129E-05-6.24317E-07 5.97813E-19 1.59216E-19
 -1       100 1.43308E-04-4.29517E-05-4.33062E-05-1.06633E-06-5.13878E-19 5.23308E-19
 -1       101 1.62402E-04-4.87144E-05-4.85529E-05-1.50418E-06 4.09850E-19 1.44070E-18
 -1       102 1.79943E-04-5.42450E-05-5.25917E-05-1.10723E-06-3.86853E-19 1.08304E-18
 -1       103 1.83693E-04-5.57110E-05-5.24659E-05 1.20477E-06-1.98391E-20 7.34060E-19
 -1       104 1.58266E-04-4.75003E-05-4.66349E-05 6.57117E-06-2.89149E-19 2.84963E-18
 -1       105 1.13980E-04-3.27524E-05-3.84861E-05 8.34523E-06 6.81478E-19 2.62665E-18
 -1       106 7.90524E-05-2.01730E-05-3.31758E-05 1.70597E-06 3.64754E-19-6.67250E-19
 -1       107 9.71692E-05-2.69152E-05-3.56601E-05-7.37014E-06 7.56533E-19-1.20575E-18
 -1       108 1.41573E-04-4.25030E-05-4.31239E-05-7.56283E-06 6.33289E-20-5.26410E-18
 -1       109 1.73835E-04-5.24998E-05-4.99658E-05-3.62256E-06-2.93457E-19-6.20918E-18
 -1       110 1.84360E-04-5.56769E-05-5.31684E-05 1.97360E-08-5.76644E-19-2.79055E-18
 -1       111 1.72932E-04-5.19842E-05-5.11177E-05 1.49053E-06-2.35971E-19-1.82382E-18
 -1       112 1.53517E-04-4.60217E-05-4.61723E-05 1.33548E-06 4.28349E-19-5.03169E-18
 -1       113 1.35603E-04-4.06499E-05-4.10367E-05 8.60507E-07-4.61284E-19-5.76078E-18
 -1       114 1.21994E-04-3.65941E-05-3.69052E-05 4.72496E-07 2.48723E-19-5.63097E-18
 -1       115 1.12791E-04-3.38664E-05-3.40500E-05 2.68859E-07-7.52817E-20-1.28401E-18
 -1       116 1.06171E-04-3.18818E-05-3.19800E-05 1.40406E-07 4.79571E-19 1.96690E-18
 -1       117 1.01731E-04-3.05488E-05-3.05949E-05 7.52369E-08 2.33781E-19 2.74880E-18
 -1       118 9.87546E-05-2.96512E-05-2.96741E-05 4.33270E-08 3.29454E-19 4.32649E-20
 -1       119 9.67933E-05-2.90584E-05-2.90754E-05 2.53120E-08-2.52421E-19-1.91642E-18
 -1       120 9.56106E-05-2.86928E-05-2.87214E-05-4.45398E-09-4.30242E-19 6.35672E-19
 -1       121 9.51543E-05-2.85429E-05-2.85538E-05-4.68286E-08-1.06643E-18 4.87737E-18
 -1       122 9.52372E-05-2.86104E-05-2.85605E-05-6.45545E-08 3.95238E-18-2.01583E-18
 -1       123 9.51192E-05-2.81685E-05-2.87303E-05 2.93232E-08-3.53125E-18-7.96711E-20
 -1       124 9.48148E-05-2.71567E-05-2.90113E-05 6.74697E-08-6.58130E-18 1.38264E-18
 -1       125 9.44648E-05-2.59824E-05-2.93383E-05 6.71853E-08-1.01581E-17-8.06583E-19
 -1       126 9.41687E-05-2.49892E-05-2.96202E-05 4.60878E-08-3.87975E-18 2.37413E-19
 -1       127 9.39964E-05-2.44077E-05-2.97899E-05 1.90796E-08-7.54262E-19 5.54119E-19
 -1       128 9.39630E-05-2.42976E-05-2.98268E-05-7.57043E-09 2.84805E-18-3.71041E-19
 -1       129 9.40593E-05-2.46237E-05-2.97380E-05-2.61544E-08 6.84477E-18 1.10825E-18
 -1       130 9.42457E-05-2.52531E-05-2.95596E-05-3.45707E-08 1.09238E-17 7.17820E-19
 -1       131 9.44744E-05-2.60242E-05-2.93371E-05-3.39355E-08 1.07395E-17 8.28419E-19
 -1       132 9.47024E-05-2.67913E-05-2.91126E-05-2.71238E-08 1.45923E-18-4.79947E-19
 -1       133 9.48966E-05-2.74447E-05-2.89187E-05-1.84650E-08-5.12987E-18 6.79405E-19
 -1       134 9.50496E-05-2.79568E-05-2.87649E-05-9.92384E-09-1.10502E-18-1.64630E-19
 -1       135 9.51548E-05-2.83086E-05-2.86584E-05-4.09890E-09 1.96391E-18 4.50093E-19
 -1       136 9.52174E-05-2.85112E-05-2.85956E-05 2.24664E-10 1.11504E-18-1.00883E-18
 -1       137 9.52346E-05-2.85789E-05-2.85669E-05 1.86932E-08 4.28634E-19 2.80068E-19
 -1       138 3.23078E-05-1.12244E-04 2.14906E-05-3.26652E-05-3.11623E-18-3.72006E-19
 -1       139 1.02815E-05-6.19300E-05 1.06076E-05-3.81865E-05 2.24760E-18 5.19866E-19
 -1       140 6.65183E-06-5.93344E-06-8.79238E-06-1.00858E-06 9.17294E-18 7.77026E-18
 -1       141 4.86802E-05 1.94348E-05-3.22662E-05 6.06427E-05 1.26326E-17 1.37944E-17
 -1       142 1.59397E-04-7.63873E-06-5.92508E-05 1.15480E-04 8.29161E-18 1.53474E-17
 -1       143 2.98727E-04-7.20273E-05-8.13740E-05 1.10240E-04 4.24035E-18 1.15527E-17
 -1       144 3.90700E-04-1.21081E-04-9.30378E-05 2.62557E-05-3.77988E-20 2.22177E-18
 -1       145 3.63019E-04-1.06460E-04-8.94790E-05-7.18774E-05 9.80044E-19-5.11608E-18
 -1       146 2.48277E-04-4.67598E-05-7.41872E-05-1.21112E-04 3.08320E-18-8.73799E-18
 -1       147 1.10288E-04 8.74092E-06-4.90653E-05-9.93382E-05 7.08035E-18-1.15196E-17
 -1       148 2.68034E-05 1.42252E-05-2.31073E-05-3.60843E-05 1.15230E-17-1.06608E-17
 -1       149 3.03178E-06-2.68910E-05 1.88118E-07 2.17643E-05 1.33183E-17-9.02069E-18
 -1       150 1.87096E-05-8.36430E-05 1.56829E-05 4.09790E-05 7.68767E-18-2.86117E-18
 -1       151 3.73063E-05-1.21313E-04 2.33306E-05 2.23293E-05 1.22989E-18-8.79882E-19
 -1       152 3.66693E-05-1.14881E-04 2.18029E-05-8.74362E-06-5.87629E-18-1.93176E-19
 -1       153 1.80453E-05-6.65384E-05 1.14234E-05-2.36231E-05-1.07976E-17-3.03026E-18
 -1       154 2.86336E-05 3.20393E-05-2.67761E-05 5.59018E-05-4.90474E-18-4.48292E-18
 -1       155 9.72575E-05 2.39427E-05-4.79669E-05 1.07628E-04-6.36969E-18-9.14118E-18
 -1       156 1.95086E-04-2.07805E-05-6.64580E-05 1.24401E-04-5.90742E-18-1.31858E-17
 -1       157 2.83927E-04-7.31723E-05-7.90908E-05 8.99064E-05-2.42013E-18-8.21177E-18
 -1       158 3.27423E-04-1.00705E-04-8.45634E-05 1.40234E-05 3.31534E-19-2.33866E-18
 -1       159 3.02992E-04-8.52106E-05-8.14668E-05-6.92053E-05 8.32574E-19-1.99752E-18
 -1       160 2.26214E-04-3.82804E-05-7.11513E-05-1.18620E-04-7.94093E-19-1.70254E-19
 -1       161 1.24491E-04 1.34605E-05-5.37759E-05-1.17358E-04-6.71337E-18 8.91545E-18
 -1       162 4.60599E-05 3.45823E-05-3.38250E-05-7.47426E-05-1.03499E-17 9.94628E-18
 -1       163 8.52486E-06 1.44298E-05-1.36575E-05-1.99981E-05-1.18851E-17 7.96889E-18
 -1       164 9.55037E-06-3.66998E-05 3.90041E-06 1.68929E-05-1.12202E-17 5.18892E-18
 -1       165 2.81525E-05-9.29433E-05 1.70743E-05 2.22040E-05-3.95903E-18 4.22458E-19
 -1       166 9.48827E-05-1.23478E-05-3.55752E-05-2.23620E-05-2.91309E-18 1.22621E-18
 -1       167 8.92523E-05-8.44992E-06-3.47922E-05-1.74000E-05-2.72483E-18-1.91639E-18
 -1       168 8.65609E-05-6.50795E-06-3.44193E-05-1.36095E-05-2.19286E-18-3.65730E-18
 -1       169 8.51943E-05-5.51159E-06-3.42328E-05-1.03841E-05-1.63580E-18-4.54832E-18
 -1       170 8.44478E-05-4.94061E-06-3.41436E-05-7.56549E-06-1.16560E-18-4.87980E-18
 -1       171 8.40185E-05-4.59422E-06-3.41006E-05-4.92450E-06-6.55666E-19-5.04426E-18
 -1       172 8.37979E-05-4.40835E-06-3.40821E-05-2.41919E-06-1.63248E-19-5.02120E-18
 -1       173 8.37306E-05-4.35025E-06-3.40771E-05 2.30548E-08 2.61246E-19-5.02391E-18
 -1       174 8.38009E-05-4.41078E-06-3.40824E-05 2.46599E-06 6.92910E-19-4.87239E-18
 -1       175 8.40255E-05-4.59981E-06-3.41013E-05 4.97346E-06 1.08925E-18-4.71881E-18
 -1       176 8.44499E-05-4.94232E-06-3.41438E-05 7.57200E-06 1.54698E-18-4.31914E-18
 -1       177 8.52131E-05-5.52564E-06-3.42353E-05 1.04430E-05 2.08634E-18-3.68826E-18
 -1       178 8.65981E-05-6.53491E-06-3.44242E-05 1.36782E-05 2.59677E-18-2.55449E-18
 -1       179 8.93234E-05-8.49692E-06-3.48027E-05 1.74857E-05 2.92238E-18-4.34210E-19
 -1       180 9.50036E-05-1.24529E-05-3.55712E-05 2.24935E-05 2.91080E-18 2.96753E-18
 -1       181 1.03418E-04-2.73063E-05-3.26167E-05-1.21377E-05-2.52810E-18 4.95128E-18
 -1       182 9.71217E-05-2.82927E-05-2.95333E-05-4.73741E-06-2.11554E-18 3.68162E-18
 -1       183 9.35177E-05-2.76396E-05-2.81853E-05-1.77302E-06-1.68993E-18 2.61183E-18
 -1       184 9.19802E-05-2.74080E-05-2.76384E-05-4.23730E-07-1.31410E-18 1.45102E-18
 -1       185 9.14032E-05-2.73323E-05-2.74407E-05 2.41814E-07-7.67086E-19 6.28230E-19
 -1       186 9.13619E-05-2.73712E-05-2.74160E-05 5.69796E-07-7.69640E-19 3.76610E-19
 -1       187 9.16079E-05-2.74745E-05-2.74817E-05 7.11027E-07-6.87827E-19-1.82786E-19
 -1       188 9.19961E-05-2.76080E-05-2.75931E-05 7.44834E-07-6.47287E-19-5.40012E-19
 -1       189 9.24404E-05-2.77503E-05-2.77237E-05 7.17579E-07-4.80803E-19-6.43380E-19
 -1       190 9.28898E-05-2.78889E-05-2.78575E-05 6.58203E-07-4.86696E-19-6.28751E-19
 -1       191 9.33162E-05-2.80173E-05-2.79856E-05 5.85450E-07-3.25994E-19-1.24808E-18
 -1       192 9.37062E-05-2.81325E-05-2.81035E-05 5.11604E-07-3.91023E-19-1.59743E-18
 -1       193 9.40562E-05-2.82343E-05-2.82099E-05 4.44624E-07-9.90553E-20-1.67418E-18
 -1       194 9.43691E-05-2.83241E-05-2.83054E-05 3.89424E-07 8.26534E-20-1.80213E-18
 -1       195 9.46514E-05-2.84045E-05-2.83919E-05 3.48639E-07-3.88971E-19-1.87465E-18
 -1       196 9.49120E-05-2.84784E-05-2.84718E-05 3.22962E-07 1.07547E-19-1.66301E-18
 -1       197 9.51597E-05-2.85491E-05-2.85476E-05 3.11114E-07-3.04457E-19-1.79835E-18
 -1       198 9.54019E-05-2.86195E-05-2.86212E-05 3.09457E-07-7.00212E-19-1.77860E-18
 -1       199 9.56425E-05-2.86917E-05-2.86936E-05 3.11246E-07-8.16306E-19-1.82881E-18
 -1       200 9.58790E-05-2.87661E-05-2.87633E-05 3.05609E-07 2.86446E-19-2.91975E-18
 -1       201 9.60997E-05-2.88409E-05-2.88264E-05 2.76460E-07 6.57607E-19-2.68592E-18
 -1       202 9.62796E-05-2.89103E-05-2.88745E-05 2.01746E-07 1.87494E-19-2.68314E-18
 -1       203 9.63770E-05-2.89632E-05-2.88944E-05 5.38350E-08 2.28565E-19-1.51879E-18
 -1       204 9.63309E-05-2.89819E-05-2.88677E-05-1.97835E-07 3.30912E-19-1.47775E-18
 -1       205 9.60613E-05-2.89402E-05-2.87710E-05-5.80368E-07-1.99839E-20-1.89583E-18
 -1       206 9.54755E-05-2.88047E-05-2.85786E-05-1.10611E-06-7.09657E-19-1.64699E-18
 -1       207 9.44832E-05-2.85372E-05-2.82679E-05-1.75669E-06-2.34449E-19-2.19809E-18
 -1       208 9.30221E-05-2.81034E-05-2.78266E-05-2.46580E-06 7.69070E-19-1.18934E-18
 -1       209 9.10937E-05-2.74868E-05-2.72623E-05-3.10897E-06 2.56725E-19-5.89072E-19
 -1       210 8.87999E-05-2.67072E-05-2.66104E-05-3.51260E-06-9.80312E-19-1.61498E-18
 -1       211 8.63662E-05-2.58372E-05-2.59369E-05-3.49357E-06-1.10628E-19-6.45262E-19
 -1       212 8.41281E-05-2.50046E-05-2.53315E-05-2.92740E-06 5.87811E-19-2.41046E-18
 -1       213 8.24672E-05-2.43695E-05-2.48896E-05-1.82090E-06-3.34327E-19-2.29488E-18
 -1       214 8.17061E-05-2.40751E-05-2.46886E-05-3.46671E-07 1.01232E-18-1.22353E-18
 -1       215 8.20004E-05-2.41925E-05-2.47648E-05 1.19456E-06-5.15471E-19-1.13554E-18
 -1       216 8.32815E-05-2.46902E-05-2.51024E-05 2.47751E-06-7.60033E-19-5.93446E-19
 -1       217 8.52820E-05-2.54484E-05-2.56376E-05 3.26835E-06-4.50125E-19-1.28334E-18
 -1       218 8.76285E-05-2.63066E-05-2.62788E-05 3.49234E-06 1.86071E-19-4.82226E-19
 -1       219 8.99534E-05-2.71181E-05-2.69307E-05 3.22777E-06-7.23912E-19-1.76548E-18
 -1       220 9.19805E-05-2.77859E-05-2.75156E-05 2.64430E-06-1.03416E-18-1.64255E-18
 -1       221 9.35579E-05-2.82698E-05-2.79857E-05 1.92845E-06-9.98659E-19-2.26227E-18
 -1       222 9.46491E-05-2.85739E-05-2.83233E-05 1.23094E-06 2.13177E-18-1.34433E-18
 -1       223 9.52998E-05-2.87285E-05-2.85354E-05 6.46115E-07 1.45816E-18 4.73210E-19
 -1       224 9.56005E-05-2.87733E-05-2.86441E-05 2.16114E-07 6.42732E-19-5.60269E-19
 -1       225 9.56576E-05-2.87477E-05-2.86783E-05-5.35990E-08-9.27854E-19-1.92620E-18
 -1       226 9.55737E-05-2.86855E-05-2.86679E-05-1.77864E-07-7.18931E-19-1.51380E-18
 -1       227 9.54354E-05-2.86136E-05-2.86386E-05-1.81537E-07 4.52236E-19-1.74705E-18
 -1       228 9.53065E-05-2.85557E-05-2.86076E-05-9.98509E-08 9.37817E-19-1.19473E-18
 -1       229 1.03658E-04-2.71131E-05-3.28038E-05 1.26213E-05 2.44761E-18 6.69868E-18
 -1       230 9.73241E-05-2.82769E-05-2.96321E-05 4.96476E-06 2.27379E-18 5.48558E-18
 -1       231 9.36285E-05-2.76506E-05-2.82299E-05 1.87184E-06 1.65598E-18 4.35939E-18
 -1       232 9.20274E-05-2.74128E-05-2.76558E-05 4.72092E-07 1.26103E-18 3.26605E-18
 -1       233 9.14161E-05-2.73327E-05-2.74454E-05-2.16778E-07 7.92708E-19 2.51045E-18
 -1       234 9.13544E-05-2.73672E-05-2.74141E-05-5.57767E-07 3.53968E-19 2.07081E-18
 -1       235 9.15722E-05-2.74619E-05-2.74716E-05-7.00829E-07 3.63375E-19 1.84442E-18
 -1       236 9.19503E-05-2.75932E-05-2.75796E-05-7.41941E-07 7.98797E-19 1.44626E-18
 -1       237 9.23897E-05-2.77348E-05-2.77085E-05-7.18517E-07 8.65127E-19 1.23607E-18
 -1       238 9.28377E-05-2.78735E-05-2.78417E-05-6.60072E-07 4.36645E-19 5.64340E-19
 -1       239 9.32642E-05-2.80023E-05-2.79697E-05-5.86510E-07 4.98265E-19 1.86713E-19
 -1       240 9.36548E-05-2.81178E-05-2.80877E-05-5.10930E-07 4.67728E-19 4.60225E-20
 -1       241 9.40060E-05-2.82199E-05-2.81945E-05-4.42317E-07 4.98918E-19-2.17216E-19
 -1       242 9.43213E-05-2.83098E-05-2.82909E-05-3.87218E-07 4.90942E-19-5.08514E-19
 -1       243 9.45973E-05-2.83873E-05-2.83758E-05-3.52221E-07 5.50233E-19-1.45549E-18
 -1       244 9.48767E-05-2.84640E-05-2.84623E-05-3.39005E-07-2.04181E-19-8.06052E-19
 -1       245 9.51641E-05-2.85413E-05-2.85518E-05-3.56578E-07-7.63212E-20-7.37066E-19
 -1       246 9.54861E-05-2.86259E-05-2.86528E-05-4.14591E-07 7.00761E-20-5.86929E-19
 -1       247 9.58781E-05-2.87269E-05-2.87766E-05-5.27746E-07-3.88009E-19-8.05727E-19
 -1       248 9.63884E-05-2.88559E-05-2.89386E-05-7.18958E-07-1.61823E-19 1.32082E-19
 -1       249 9.70845E-05-2.90287E-05-2.91608E-05-1.02391E-06 8.39269E-19-2.93101E-20
 -1       250 9.80614E-05-2.92666E-05-2.94748E-05-1.49973E-06 6.35478E-19-2.75026E-19
 -1       251 9.93742E-05-2.95826E-05-2.98983E-05-2.18409E-06 8.24774E-20-1.57790E-19
 -1       252 1.01336E-04-3.00469E-05-3.05360E-05-3.26114E-06-9.15330E-19-8.47207E-19
 -1       253 1.04147E-04-3.07075E-05-3.14544E-05-4.87584E-06-6.87781E-19-2.25390E-20
 -1       254 1.08132E-04-3.16527E-05-3.27580E-05-7.21840E-06-9.43148E-19 7.47350E-19
 -1       255 1.13667E-04-3.30283E-05-3.45499E-05-1.04239E-05-4.42270E-19 1.12951E-18
 -1       256 1.21102E-04-3.51087E-05-3.68617E-05-1.42906E-05 4.35130E-20 2.61786E-18
 -1       257 1.30624E-04-3.84505E-05-3.95110E-05-1.76039E-05 1.13632E-19 1.41615E-18
 -1       258 1.42001E-04-4.39820E-05-4.19563E-05-1.70124E-05 3.68790E-20 1.47242E-18
 -1       259 1.53602E-04-5.16418E-05-4.35373E-05-7.40040E-06 7.72918E-20 2.29648E-18
 -1       260 1.64296E-04-5.91315E-05-4.51178E-05 1.58952E-05-8.23505E-19 2.92513E-18
 -1       261 1.63764E-04-5.37685E-05-4.77592E-05 3.50236E-05 8.47721E-19 2.31180E-18
 -1       262 1.54483E-04-3.45251E-05-5.27033E-05 2.83217E-05 2.39922E-18 1.67159E-18
 -1       263 1.51617E-04-2.88111E-05-5.39606E-05-1.33816E-05 1.69978E-18-1.82480E-18
 -1       264 1.61673E-04-4.64740E-05-5.02875E-05-3.82471E-05 2.40769E-18-2.47931E-18
 -1       265 1.64311E-04-5.71977E-05-4.61758E-05-2.76894E-05 1.45850E-18-3.06870E-18
 -1       266 1.59824E-04-5.64124E-05-4.42328E-05-4.74570E-06-1.88404E-18-3.29481E-18
 -1       267 1.48729E-04-4.82987E-05-4.29145E-05 1.28574E-05-1.17085E-18-2.23621E-18
 -1       268 1.36603E-04-4.11800E-05-4.08669E-05 1.80947E-05 9.79504E-19-2.40915E-19
 -1       269 1.25877E-04-3.67009E-05-3.82293E-05 1.64043E-05 6.10423E-19-2.13743E-19
 -1       270 1.17169E-04-3.39637E-05-3.56607E-05 1.26471E-05-4.46658E-19 1.05953E-18
 -1       271 1.10762E-04-3.22631E-05-3.36310E-05 9.21104E-06-1.00493E-18 1.58630E-18
 -1       272 1.05723E-04-3.10293E-05-3.19934E-05 6.39489E-06-1.35056E-18 4.05621E-19
 -1       273 1.02097E-04-3.01633E-05-3.08109E-05 4.38128E-06 1.61399E-19 3.13596E-19
 -1       274 9.95179E-05-2.95404E-05-2.99755E-05 2.98876E-06 1.55916E-18-1.16169E-18
 -1       275 9.77070E-05-2.90839E-05-2.93985E-05 2.00534E-06 4.93603E-19-1.66727E-18
 -1       276 9.64779E-05-2.87549E-05-2.90159E-05 1.26114E-06-2.62872E-18-9.81591E-19
 -1       277 9.56595E-05-2.84980E-05-2.87796E-05 5.87605E-07-1.36978E-18-1.43461E-18
 -1       278 9.52941E-05-2.81273E-05-2.87789E-05 6.15265E-07-8.66989E-20-4.02706E-18
 -1       279 9.49908E-05-2.74276E-05-2.89557E-05 1.04560E-06-7.97078E-19-1.13093E-18
 -1       280 9.46353E-05-2.65985E-05-2.91595E-05 1.17397E-06-1.66572E-18-1.79277E-18
 -1       281 9.43267E-05-2.58444E-05-2.93514E-05 9.78003E-07-2.03417E-18 1.00527E-18
 -1       282 9.41329E-05-2.53352E-05-2.94874E-05 5.74503E-07-2.30253E-18 2.36985E-18
 -1       283 9.40727E-05-2.51390E-05-2.95461E-05 8.98958E-08 2.75242E-19 1.46081E-18
 -1       284 9.41410E-05-2.52695E-05-2.95193E-05-3.45520E-07 2.37113E-18 2.61465E-18
 -1       285 9.43019E-05-2.56579E-05-2.94211E-05-6.49211E-07 3.61835E-18 3.69563E-18
 -1       286 9.45094E-05-2.61995E-05-2.92769E-05-7.92067E-07 4.53378E-18-2.23488E-19
 -1       287 9.47206E-05-2.67864E-05-2.91149E-05-7.89704E-07 1.93633E-18-4.91578E-18
 -1       288 9.49019E-05-2.73232E-05-2.89617E-05-6.87962E-07 4.89478E-19-4.08214E-18
 -1       289 9.50446E-05-2.77764E-05-2.88281E-05-5.34097E-07 5.75786E-19 2.42563E-18
 -1       290 9.51431E-05-2.81149E-05-2.87250E-05-3.71844E-07 6.06591E-19 1.73607E-18
 -1       291 9.52060E-05-2.83451E-05-2.86536E-05-2.22324E-07 9.97622E-19 2.83279E-19
 -1       292 9.52627E-05-2.84655E-05-2.86260E-05-1.68987E-07 5.54142E-19-9.40702E-19
 -1       293 1.08226E-05-5.36220E-05 1.47964E-05-2.88914E-06-3.64542E-19-6.33581E-19
 -1       294 2.26502E-05-5.30650E-05 9.28872E-06 9.23844E-06-1.14667E-18 2.26184E-18
 -1       295 5.40188E-05-4.88505E-05-4.97511E-06 2.70016E-05 6.97320E-19 5.41871E-18
 -1       296 9.59657E-05-4.70329E-05-2.29520E-05 3.48816E-05 1.34001E-18 6.26402E-18
 -1       297 1.57697E-04-5.34143E-05-4.44298E-05 3.36446E-05 3.66088E-18 5.15462E-18
 -1       298 2.13452E-04-5.51808E-05-6.44617E-05 1.55401E-05 4.36717E-18 2.73083E-18
 -1       299 2.40619E-04-4.80051E-05-7.72095E-05 2.59919E-06 4.25126E-18 1.15980E-18
 -1       300 2.47158E-04-4.46894E-05-8.05574E-05-6.72680E-07 3.55817E-18 8.21622E-20
 -1       301 2.34690E-04-5.20420E-05-7.34069E-05-9.64583E-06 2.85143E-18-1.56023E-18
 -1       302 1.93148E-04-5.46082E-05-5.74165E-05-2.60790E-05 2.85185E-18-2.41531E-18
 -1       303 1.34860E-04-5.19347E-05-3.62937E-05-3.53191E-05 3.74685E-18-3.18357E-18
 -1       304 8.13586E-05-5.00115E-05-1.56333E-05-3.28476E-05 3.92854E-18-1.93886E-18
 -1       305 3.67680E-05-4.95091E-05 1.93469E-06-1.78261E-05 3.57914E-18-6.25117E-18
 -1       306 1.68374E-05-5.43927E-05 1.22935E-05-4.27834E-06 1.23466E-18-3.57151E-18
 -1       307 8.33445E-06-4.44492E-05 1.31280E-05 7.89448E-06-2.68695E-19-3.54896E-18
 -1       308 1.82563E-05-4.78579E-05 9.89110E-06 2.16167E-05-2.72745E-18-3.27463E-18
 -1       309 4.14386E-05-4.02911E-05-2.34386E-06 3.69684E-05-3.64542E-18-1.54582E-18
 -1       310 7.12483E-05-3.02886E-05-1.84593E-05 4.64567E-05-4.43993E-18-1.75336E-18
 -1       311 1.17072E-04-3.12563E-05-3.63820E-05 5.17350E-05-1.86284E-18-6.52109E-18
 -1       312 1.58314E-04-2.94952E-05-5.35643E-05 5.02698E-05-2.40425E-18-5.73018E-18
 -1       313 1.97354E-04-3.32344E-05-6.74040E-05 4.08854E-05-3.89010E-18-3.97301E-18
 -1       314 2.21901E-04-3.77314E-05-7.53531E-05 1.85802E-05-3.15424E-18-1.50857E-18
 -1       315 2.16695E-04-3.34914E-05-7.54512E-05-8.12514E-06-1.07330E-18-5.30825E-19
 -1       316 2.06488E-04-3.48731E-05-7.04413E-05-3.42998E-05-1.45663E-18 7.95364E-19
 -1       317 1.70882E-04-3.03933E-05-5.81699E-05-4.73986E-05-4.88314E-18-3.50460E-19
 -1       318 1.28725E-04-2.88794E-05-4.19696E-05-5.32656E-05-4.66800E-18 1.84484E-18
 -1       319 8.49297E-05-2.85832E-05-2.46119E-05-4.98926E-05-4.40415E-18 4.29975E-18
 -1       320 5.09264E-05-3.56741E-05-8.24117E-06-3.90198E-05-4.31055E-18 4.65799E-18
 -1       321 2.75575E-05-4.44462E-05 4.70769E-06-2.85607E-05-2.71538E-18 4.33088E-18
 -1       322 1.40527E-05-5.30529E-05 1.33679E-05-1.52054E-05-3.00654E-18 1.97073E-18
 -1       323 9.16386E-05-1.44429E-05-3.31616E-05-1.29969E-05-2.85233E-18-1.88714E-18
 -1       324 9.57212E-05-1.91113E-05-3.28954E-05-1.46493E-05-3.07582E-18-9.83352E-21
 -1       325 8.80036E-05-1.03690E-05-3.33271E-05-8.17037E-06-1.72413E-18-3.55142E-18
 -1       326 8.71865E-05-9.44550E-06-3.33660E-05-5.73637E-06-1.18479E-18-3.79098E-18
 -1       327 8.67244E-05-8.91349E-06-3.33924E-05-3.38761E-06-4.63762E-19-3.76964E-18
 -1       328 8.65158E-05-8.67015E-06-3.34058E-05-1.09569E-06 1.21886E-19-3.89622E-18
 -1       329 8.65198E-05-8.67467E-06-3.34056E-05 1.17720E-06 6.08289E-19-3.76744E-18
 -1       330 8.67373E-05-8.92809E-06-3.33918E-05 3.47035E-06 1.11819E-18-3.64717E-18
 -1       331 8.72002E-05-9.46041E-06-3.33655E-05 5.78195E-06 1.62683E-18-3.42467E-18
 -1       332 8.80250E-05-1.03924E-05-3.33260E-05 8.21812E-06 2.24415E-18-2.90786E-18
 -1       333 8.94142E-05-1.19396E-05-3.32689E-05 1.07306E-05 2.77853E-18-2.11063E-18
 -1       334 9.17614E-05-1.45715E-05-3.31577E-05 1.31029E-05 3.19782E-18-8.37914E-19
 -1       335 9.58624E-05-1.93158E-05-3.28698E-05 1.46266E-05 3.18568E-18 1.36710E-18
 -1       336 1.07911E-04-6.18891E-05-2.00321E-05 3.52689E-05-1.12772E-18 4.13056E-18
 -1       337 9.64475E-05-2.60304E-05-3.01343E-05-6.35404E-06-2.40573E-18 2.48201E-19
 -1       338 9.49259E-05-2.70283E-05-2.90735E-05-2.83963E-06-2.09768E-18 2.75435E-20
 -1       339 9.39491E-05-2.74258E-05-2.84953E-05-9.25256E-07-1.44661E-18-1.70885E-19
 -1       340 9.34300E-05-2.76379E-05-2.81900E-05 1.38254E-07-1.08817E-18-7.77320E-19
 -1       341 9.32392E-05-2.77911E-05-2.80464E-05 7.07043E-07-8.83855E-19-8.69106E-19
 -1       342 9.32587E-05-2.79208E-05-2.80010E-05 9.79615E-07-7.85119E-19-9.47123E-19
 -1       343 9.34021E-05-2.80357E-05-2.80141E-05 1.07382E-06-4.56364E-19-6.70680E-19
 -1       344 9.36106E-05-2.81373E-05-2.80604E-05 1.06304E-06-5.45681E-19-8.90707E-19
 -1       345 9.38461E-05-2.82255E-05-2.81237E-05 9.94947E-07-6.00641E-19-8.40975E-19
 -1       346 9.40853E-05-2.83006E-05-2.81941E-05 9.01139E-07-6.06468E-19-1.08022E-18
 -1       347 9.43156E-05-2.83638E-05-2.82656E-05 8.02597E-07-5.71661E-19-1.34562E-18
 -1       348 9.45317E-05-2.84171E-05-2.83354E-05 7.12975E-07-1.58490E-19-1.23229E-18
 -1       349 9.47334E-05-2.84627E-05-2.84021E-05 6.40628E-07-4.78226E-19-1.72887E-18
 -1       350 9.49233E-05-2.85039E-05-2.84657E-05 5.89758E-07-2.01257E-19-1.76410E-18
 -1       351 9.51063E-05-2.85442E-05-2.85268E-05 5.60866E-07-2.26213E-19-1.28384E-18
 -1       352 9.52876E-05-2.85878E-05-2.85857E-05 5.50562E-07-5.18565E-19-1.60249E-18
 -1       353 9.54718E-05-2.86393E-05-2.86426E-05 5.50794E-07-6.76569E-19-1.17477E-18
 -1       354 9.56618E-05-2.87041E-05-2.86964E-05 5.47562E-07-1.17951E-18-1.21503E-18
 -1       355 9.58566E-05-2.87874E-05-2.87445E-05 5.19348E-07 3.89338E-19-2.03081E-18
 -1       356 9.60497E-05-2.88936E-05-2.87823E-05 4.35722E-07 9.30107E-19-2.00128E-18
 -1       357 9.62261E-05-2.90242E-05-2.88026E-05 2.57007E-07 7.42901E-19-1.33265E-18
 -1       358 9.63593E-05-2.91747E-05-2.87962E-05-6.35668E-08-5.74907E-20-1.80373E-18
 -1       359 9.64078E-05-2.93293E-05-2.87519E-05-5.73223E-07 1.52706E-19-1.77830E-18
 -1       360 9.63129E-05-2.94554E-05-2.86582E-05-1.30633E-06 3.68611E-19-2.35541E-18
 -1       361 9.60002E-05-2.94984E-05-2.85065E-05-2.26312E-06-6.47608E-19-1.63410E-18
 -1       362 9.53876E-05-2.93828E-05-2.82934E-05-3.38241E-06 5.26200E-19-1.51969E-18
 -1       363 9.44061E-05-2.90243E-05-2.80253E-05-4.51626E-06 1.59504E-19-2.05840E-18
 -1       364 9.30354E-05-2.83610E-05-2.77196E-05-5.42248E-06-6.48992E-19-2.62519E-18
 -1       365 9.13489E-05-2.74005E-05-2.74048E-05-5.79737E-06-5.36607E-19-2.08980E-18
 -1       366 8.95486E-05-2.62639E-05-2.71163E-05-5.36341E-06 1.96096E-19-1.01329E-18
 -1       367 8.79549E-05-2.51907E-05-2.68898E-05-3.99632E-06-2.25408E-19-7.12941E-19
 -1       368 8.69268E-05-2.44745E-05-2.67539E-05-1.83371E-06 7.07957E-19-1.58479E-18
 -1       369 8.67278E-05-2.43403E-05-2.67257E-05 7.14230E-07 3.43962E-19-2.13564E-18
 -1       370 8.74071E-05-2.48308E-05-2.68081E-05 3.09226E-06-2.68541E-19-2.40808E-18
 -1       371 8.87775E-05-2.57854E-05-2.69894E-05 4.81011E-06-2.08388E-19-5.30102E-19
 -1       372 9.05022E-05-2.69237E-05-2.72448E-05 5.61118E-06 2.67237E-19 2.05386E-19
 -1       373 9.22289E-05-2.79703E-05-2.75402E-05 5.52052E-06-8.08540E-19 1.05039E-18
 -1       374 9.37001E-05-2.87508E-05-2.78392E-05 4.77065E-06-3.41602E-19 1.17945E-18
 -1       375 9.47914E-05-2.92137E-05-2.81102E-05 3.67146E-06-1.78701E-18 1.01188E-18
 -1       376 9.54906E-05-2.93976E-05-2.83315E-05 2.50216E-06 1.33233E-19 1.17783E-18
 -1       377 9.58540E-05-2.93818E-05-2.84934E-05 1.45669E-06 2.83709E-18-4.85669E-19
 -1       378 9.59650E-05-2.92475E-05-2.85974E-05 6.37432E-07 8.31563E-19 3.88762E-19
 -1       379 9.59079E-05-2.90588E-05-2.86525E-05 7.58542E-08-1.65356E-18-6.83431E-19
 -1       380 9.57544E-05-2.88578E-05-2.86715E-05-2.41339E-07-1.50891E-18-1.10365E-18
 -1       381 9.55626E-05-2.86729E-05-2.86677E-05-3.48123E-07-2.69459E-19-7.30324E-19
 -1       382 9.53966E-05-2.85423E-05-2.86511E-05-2.97760E-07 1.78641E-18-2.29729E-19
 -1       383 9.49598E-05-2.69628E-05-2.91129E-05 2.97854E-06 1.93176E-18 1.32952E-18
 -1       384 9.64631E-05-2.59051E-05-3.01935E-05 6.54240E-06 2.52732E-18 1.60664E-18
 -1       385 9.39769E-05-2.73980E-05-2.85174E-05 1.00161E-06 1.47549E-18 1.01642E-18
 -1       386 9.34471E-05-2.76309E-05-2.82002E-05-9.72154E-08 1.04442E-18 5.69982E-19
 -1       387 9.32462E-05-2.77770E-05-2.80553E-05-6.62877E-07 5.01046E-19 1.13369E-19
 -1       388 9.32491E-05-2.79087E-05-2.80019E-05-9.58114E-07 6.27946E-19 8.76525E-20
 -1       389 9.33829E-05-2.80252E-05-2.80102E-05-1.06543E-06 7.46551E-19 2.82148E-19
 -1       390 9.35865E-05-2.81284E-05-2.80538E-05-1.06135E-06 7.84157E-19 5.26483E-19
 -1       391 9.38203E-05-2.82180E-05-2.81158E-05-9.95890E-07 6.90182E-19 3.18109E-19
 -1       392 9.40599E-05-2.82943E-05-2.81859E-05-9.02437E-07 4.75579E-19 6.57800E-20
 -1       393 9.42925E-05-2.83581E-05-2.82582E-05-8.03856E-07 8.31136E-19-2.00789E-19
 -1       394 9.45129E-05-2.84105E-05-2.83301E-05-7.16465E-07 7.04059E-19-2.06894E-19
 -1       395 9.47123E-05-2.84518E-05-2.83977E-05-6.54843E-07 8.52046E-19-4.20416E-19
 -1       396 9.49167E-05-2.84874E-05-2.84697E-05-6.23073E-07 2.27796E-19-3.74767E-19
 -1       397 9.51239E-05-2.85166E-05-2.85457E-05-6.36367E-07 1.80866E-20-3.10866E-19
 -1       398 9.53467E-05-2.85402E-05-2.86306E-05-7.08772E-07-1.09797E-19-2.49289E-19
 -1       399 9.56010E-05-2.85577E-05-2.87314E-05-8.59921E-07-1.79853E-19-2.08144E-19
 -1       400 9.59061E-05-2.85668E-05-2.88573E-05-1.11866E-06-4.63531E-19-8.48506E-19
 -1       401 9.62857E-05-2.85617E-05-2.90208E-05-1.52799E-06 4.72630E-19-4.64455E-19
 -1       402 9.67659E-05-2.85305E-05-2.92379E-05-2.15290E-06 6.62568E-19 6.08950E-19
 -1       403 9.73428E-05-2.84602E-05-2.95124E-05-3.02930E-06 1.62501E-19 1.87174E-18
 -1       404 9.81027E-05-2.83167E-05-2.98955E-05-4.37208E-06 5.85646E-19 1.45535E-18
 -1       405 9.90350E-05-2.80622E-05-3.03990E-05-6.32007E-06-4.34089E-19 8.45106E-20
 -1       406 1.00143E-04-2.76691E-05-3.10369E-05-9.07755E-06-8.59922E-19-3.51928E-19
 -1       407 1.01424E-04-2.71818E-05-3.17914E-05-1.28321E-05-1.04170E-18-1.42681E-19
 -1       408 1.02959E-04-2.69025E-05-3.25684E-05-1.76090E-05-6.17418E-19 4.43546E-19
 -1       409 1.05221E-04-2.78211E-05-3.31385E-05-2.29487E-05 5.46902E-19 1.49449E-18
 -1       410 1.09844E-04-3.23638E-05-3.31395E-05-2.73012E-05 1.33500E-19 2.10046E-18
 -1       411 1.19943E-04-4.35343E-05-3.25660E-05-2.72492E-05-5.05705E-19 2.94582E-18
 -1       412 1.40758E-04-6.24692E-05-3.34192E-05-1.78682E-05-7.85782E-19 3.42670E-18
 -1       413 1.90120E-04-5.34338E-05-5.84181E-05 2.04394E-05 2.23077E-18 1.28220E-18
 -1       414 1.82520E-04-6.46626E-05-5.06391E-05-1.64341E-05 2.27071E-18-2.80220E-18
 -1       415 1.58715E-04-6.89261E-05-3.85571E-05-6.53031E-09-1.24974E-18-1.38230E-18
 -1       416 1.35654E-04-5.37625E-05-3.49169E-05 1.99509E-05-1.86752E-18-2.49372E-19
 -1       417 1.19766E-04-3.85288E-05-3.47009E-05 2.61863E-05-5.82269E-19-3.01755E-20
 -1       418 1.11647E-04-3.12635E-05-3.44166E-05 2.43241E-05 9.05733E-19 8.95777E-19
 -1       419 1.07180E-04-2.87689E-05-3.35814E-05 1.95498E-05-1.07440E-18 2.21642E-18
 -1       420 1.04305E-04-2.82283E-05-3.25782E-05 1.48351E-05-1.40298E-18 2.05858E-18
 -1       421 1.01956E-04-2.82530E-05-3.15613E-05 1.06805E-05-8.88061E-21 2.12760E-18
 -1       422 1.00076E-04-2.83683E-05-3.07101E-05 7.54694E-06-9.88843E-19 3.14545E-19
 -1       423 9.85718E-05-2.84248E-05-3.00465E-05 5.28346E-06 2.02241E-18 3.24892E-19
 -1       424 9.73874E-05-2.83977E-05-2.95544E-05 3.66748E-06 1.83356E-18-9.20392E-19
 -1       425 9.64683E-05-2.83017E-05-2.92039E-05 2.46375E-06-9.72541E-20-2.64090E-18
 -1       426 2.03008E-05-2.70391E-05 2.74113E-06 1.81485E-05 1.55907E-19-5.71747E-21
 -1       427 9.42757E-05-2.61559E-05-2.91958E-05 1.85686E-06 1.61558E-19-4.33498E-19
 -1       428 9.48661E-05-2.69472E-05-2.91074E-05 2.02445E-06 3.33385E-19-1.04859E-18
 -1       429 9.54976E-05-2.78274E-05-2.89959E-05 1.67466E-06-3.08983E-19-3.92191E-18
 -1       430 9.38828E-05-2.56162E-05-2.92601E-05 1.27694E-06 1.77765E-19 1.03101E-18
 -1       431 9.37400E-05-2.53982E-05-2.92929E-05 4.71707E-07 1.16430E-18 3.99171E-18
 -1       432 9.38351E-05-2.55106E-05-2.92854E-05-3.29641E-07 2.07487E-18 2.38611E-18
 -1       433 9.40969E-05-2.58811E-05-2.92380E-05-9.55346E-07 1.32928E-18 3.73167E-18
 -1       434 9.44335E-05-2.64007E-05-2.91585E-05-1.31856E-06-5.63252E-19-2.86240E-19
 -1       435 9.47622E-05-2.69587E-05-2.90591E-05-1.41512E-06-1.32756E-18-4.11184E-18
 -1       436 9.50232E-05-2.74598E-05-2.89552E-05-1.30478E-06-4.22723E-19-4.91252E-18
 -1       437 9.52012E-05-2.78703E-05-2.88550E-05-1.06734E-06 1.87562E-18-6.50247E-19
 -1       438 9.52971E-05-2.81657E-05-2.87691E-05-7.86884E-07 7.44006E-19 2.36727E-18
 -1       439 9.53313E-05-2.83577E-05-2.87014E-05-5.23328E-07 1.13404E-18 1.54200E-18
 -1       440 4.93551E-05-4.08460E-05-4.08047E-06 3.48052E-05-1.86919E-18 4.23739E-18
 -1       441 1.10286E-05-1.83973E-05 3.38209E-06-1.17701E-05 5.16002E-19 3.18421E-18
 -1       442 8.93667E-05-1.18933E-05-3.32690E-05-1.06629E-05-2.29225E-18-3.04406E-18
 -1       443 1.76223E-04-7.13357E-05-4.49349E-05 5.00402E-06 1.45801E-18 1.18140E-18
 -1       444 1.39833E-04-7.07906E-05-2.97496E-05-2.32275E-05 1.10040E-18 1.05831E-18
 -1       445 8.01805E-05-5.27787E-05-1.21789E-05-3.83739E-05 4.05729E-19-1.25628E-18
 -1       446 3.83205E-05-3.67549E-05-1.10093E-06-3.01196E-05 1.63477E-19-4.94191E-18
 -1       447 1.47929E-05-2.41000E-05 3.87009E-06-1.05423E-05 4.56074E-19-4.50452E-18
 -1       448 1.46980E-05-2.36341E-05 3.75979E-06 2.42611E-05-3.75236E-19-3.49211E-18
 -1       449 4.12882E-05-3.16958E-05-3.90066E-06 4.61384E-05-3.83282E-20-2.66731E-18
 -1       450 8.04185E-05-4.69859E-05-1.43942E-05 5.12691E-05-2.35814E-18-9.34502E-19
 -1       451 1.17155E-04-5.38329E-05-2.71949E-05 4.36817E-05-2.53115E-18-4.40293E-18
 -1       452 1.48564E-04-4.90765E-05-4.25929E-05 2.46270E-05-1.02258E-18-2.77732E-18
 -1       453 1.63892E-04-3.42193E-05-5.54050E-05 1.12951E-05-2.33892E-18-3.06944E-19
 -1       454 1.70254E-04-2.02421E-05-6.40308E-05 3.26376E-06-3.42625E-18-1.43265E-18
 -1       455 1.69607E-04-1.19776E-05-6.73564E-05 5.94152E-08-2.94439E-18-2.65595E-18
 -1       456 1.65019E-04-1.54488E-05-6.41079E-05 4.50676E-07-1.32487E-18-1.01030E-18
 -1       457 1.65533E-04-2.85992E-05-5.85587E-05-5.35401E-06-2.43284E-18-6.52745E-19
 -1       458 1.53991E-04-4.50855E-05-4.66012E-05-2.12982E-05-4.20090E-18-2.59340E-18
 -1       459 1.28367E-04-5.29535E-05-3.23313E-05-3.88150E-05-1.42513E-18-1.05900E-18
 -1       460 9.61662E-05-5.11591E-05-1.92952E-05-4.97418E-05-7.45495E-19 1.61233E-18
 -1       461 5.77736E-05-4.07253E-05-7.35008E-06-5.00543E-05-8.38033E-19 3.65278E-18
 -1       462 2.26372E-05-2.54954E-05 1.28416E-06-3.36341E-05-1.29141E-18 2.26020E-18
 -1       463 1.48644E-04-7.12636E-05-3.36452E-05 1.89170E-05-3.86565E-19 2.88425E-18
 -1       464 1.71781E-04-4.24240E-05-5.70935E-05-2.61875E-05 1.65891E-18-3.57601E-18
 -1       465 1.60336E-05-1.23065E-05-1.09099E-06 6.55081E-06 4.59859E-19-5.20671E-18
 -1       466 8.95339E-05-1.33886E-05-3.26528E-05-3.94180E-06-7.91212E-19-3.24884E-18
 -1       467 9.02402E-05-1.43514E-05-3.25451E-05-5.90086E-06-1.40277E-18-3.22988E-18
 -1       468 8.90275E-05-1.26987E-05-3.27301E-05 3.50209E-08 3.02095E-19-3.49385E-18
 -1       469 8.91574E-05-1.28755E-05-3.27103E-05 2.02519E-06 8.18791E-19-3.37993E-18
 -1       470 8.95455E-05-1.34037E-05-3.26513E-05 3.97844E-06 1.31941E-18-3.22146E-18
 -1       471 9.02599E-05-1.43766E-05-3.25425E-05 5.93708E-06 1.91314E-18-2.81621E-18
 -1       472 9.14017E-05-1.59404E-05-3.23638E-05 7.76863E-06 2.44503E-18-2.20414E-18
 -1       473 9.30889E-05-1.83471E-05-3.20561E-05 9.20457E-06 2.76660E-18-1.39231E-18
 -1       474 9.52113E-05-2.22050E-05-3.12997E-05 8.68440E-06 2.71463E-18-2.04156E-19
 -1       475 1.40348E-04-6.73850E-05-3.11066E-05 2.01643E-05-2.63575E-18 2.40504E-18
 -1       476 9.54709E-05-2.44228E-05-3.04389E-05-5.82091E-06-2.21527E-18-1.10937E-18
 -1       477 9.52710E-05-2.62143E-05-2.95877E-05-2.90054E-06-1.85167E-18-1.06974E-18
 -1       478 9.49213E-05-2.71570E-05-2.90385E-05-1.03327E-06-1.50230E-18-1.14360E-18
 -1       479 9.46464E-05-2.76886E-05-2.86947E-05 9.64117E-08-1.08541E-18-1.04921E-18
 -1       480 9.44909E-05-2.80139E-05-2.84896E-05 7.37412E-07-9.05452E-19-1.20725E-18
 -1       481 9.44376E-05-2.82238E-05-2.83772E-05 1.06346E-06-6.67920E-19-1.44271E-18
 -1       482 9.44566E-05-2.83627E-05-2.83261E-05 1.18983E-06-5.25869E-19-1.60805E-18
 -1       483 9.45208E-05-2.84542E-05-2.83145E-05 1.19509E-06-5.21868E-19-1.61703E-18
 -1       484 9.46103E-05-2.85126E-05-2.83279E-05 1.13302E-06-8.64613E-19-1.43855E-18
 -1       485 9.47114E-05-2.85475E-05-2.83562E-05 1.04035E-06-3.68607E-19-1.24785E-18
 -1       486 9.48161E-05-2.85658E-05-2.83932E-05 9.41921E-07-3.37297E-19-7.34388E-19
 -1       487 9.49207E-05-2.85733E-05-2.84348E-05 8.54003E-07-6.98932E-19-1.14154E-18
 -1       488 9.50246E-05-2.85750E-05-2.84785E-05 7.86448E-07-4.34258E-19-7.23622E-19
 -1       489 9.51296E-05-2.85764E-05-2.85229E-05 7.43885E-07-4.45609E-20-7.43841E-19
 -1       490 9.52395E-05-2.85836E-05-2.85669E-05 7.26094E-07-9.12892E-19-1.07480E-18
 -1       491 9.53598E-05-2.86044E-05-2.86095E-05 7.27623E-07-4.84432E-19-1.25215E-18
 -1       492 9.54974E-05-2.86485E-05-2.86496E-05 7.36711E-07-7.56915E-19-1.61325E-18
 -1       493 9.56602E-05-2.87285E-05-2.86851E-05 7.33620E-07-5.22017E-19-6.03738E-19
 -1       494 9.58566E-05-2.88590E-05-2.87136E-05 6.88721E-07 4.19511E-19-8.77693E-19
 -1       495 9.60936E-05-2.90549E-05-2.87315E-05 5.60927E-07 8.99192E-19-1.17351E-18
 -1       496 9.63740E-05-2.93275E-05-2.87352E-05 2.97677E-07 3.54724E-19-1.95533E-18
 -1       497 9.66904E-05-2.96765E-05-2.87217E-05-1.61669E-07-1.12576E-19-1.88361E-18
 -1       498 9.70173E-05-3.00790E-05-2.86899E-05-8.76291E-07-2.31743E-20-1.63122E-18
 -1       499 9.73003E-05-3.04744E-05-2.86421E-05-1.88502E-06 3.46910E-19-1.42680E-18
 -1       500 9.74475E-05-3.07532E-05-2.85860E-05-3.17594E-06 3.65400E-19-7.02974E-19
 -1       501 9.73319E-05-3.07580E-05-2.85341E-05-4.64715E-06-2.19258E-19-6.13954E-19
 -1       502 9.68155E-05-3.03139E-05-2.85021E-05-6.07061E-06 4.71433E-20-1.23363E-18
 -1       503 9.58090E-05-2.93007E-05-2.85034E-05-7.08430E-06-5.97579E-19 2.06017E-19
 -1       504 9.43604E-05-2.77590E-05-2.85414E-05-7.25400E-06-1.15021E-21-7.74599E-20
 -1       505 9.27235E-05-2.59724E-05-2.86039E-05-6.22771E-06 4.44434E-19-1.09487E-18
 -1       506 9.13349E-05-2.44399E-05-2.86649E-05-3.94119E-06-2.67617E-19-5.20494E-19
 -1       507 9.06565E-05-2.36928E-05-2.86941E-05-7.59474E-07-1.76946E-19-6.41913E-19
 -1       508 9.09366E-05-2.40169E-05-2.86752E-05 2.58746E-06 6.27216E-19-7.85903E-19
 -1       509 9.20632E-05-2.52824E-05-2.86161E-05 5.30145E-06 9.73665E-19 1.18858E-18
 -1       510 9.36399E-05-2.70341E-05-2.85425E-05 6.84887E-06 4.18952E-19 9.88653E-19
 -1       511 9.51916E-05-2.87284E-05-2.84835E-05 7.11814E-06-7.31231E-19-6.54519E-19
 -1       512 9.63739E-05-2.99750E-05-2.84577E-05 6.37103E-06-3.23492E-19-1.11862E-18
 -1       513 9.70590E-05-3.06380E-05-2.84684E-05 5.03522E-06-7.19689E-19 2.24812E-19
 -1       514 9.72902E-05-3.07823E-05-2.85061E-05 3.51980E-06-4.04026E-19 3.49648E-18
 -1       515 9.71946E-05-3.05694E-05-2.85563E-05 2.11688E-06-1.40523E-19 2.36456E-18
 -1       516 9.69094E-05-3.01680E-05-2.86057E-05 9.84709E-07 1.42467E-18-5.99640E-19
 -1       517 9.65422E-05-2.97057E-05-2.86458E-05 1.76819E-07-1.02668E-18-9.35626E-19
 -1       518 9.61635E-05-2.92621E-05-2.86732E-05-3.15298E-07-3.99767E-19-2.55483E-20
 -1       519 9.58100E-05-2.88715E-05-2.86880E-05-5.35823E-07 4.21501E-19 1.02201E-18
 -1       520 9.54339E-05-2.50348E-05-3.01620E-05 4.92897E-06 2.16666E-18-2.90151E-19
 -1       521 9.46624E-05-2.76578E-05-2.87145E-05-2.87071E-08 8.05599E-19-4.69005E-19
 -1       522 9.44995E-05-2.79955E-05-2.85011E-05-6.98823E-07 5.08850E-19-4.33423E-19
 -1       523 9.44402E-05-2.82128E-05-2.83831E-05-1.04320E-06 5.99800E-19-3.22322E-19
 -1       524 9.44557E-05-2.83567E-05-2.83283E-05-1.18039E-06 6.47094E-19-1.17598E-19
 -1       525 9.45186E-05-2.84518E-05-2.83146E-05-1.19160E-06 5.23267E-19-3.91014E-20
 -1       526 9.46085E-05-2.85125E-05-2.83271E-05-1.13257E-06 8.23151E-19 3.95827E-19
 -1       527 9.47114E-05-2.85481E-05-2.83560E-05-1.04210E-06 5.80805E-19 3.32273E-19
 -1       528 9.48190E-05-2.85642E-05-2.83952E-05-9.47702E-07 9.16349E-19-5.13807E-20
 -1       529 9.49222E-05-2.85652E-05-2.84389E-05-8.72509E-07 1.00180E-18 1.65479E-20
 -1       530 9.50305E-05-2.85527E-05-2.84906E-05-8.24083E-07 3.80261E-19 5.59392E-19
 -1       531 9.51386E-05-2.85256E-05-2.85484E-05-8.21465E-07 2.20743E-19 7.61108E-19
 -1       532 9.52479E-05-2.84807E-05-2.86143E-05-8.79934E-07 1.34599E-19 9.77104E-20
 -1       533 9.53590E-05-2.84108E-05-2.86916E-05-1.01835E-06-1.45946E-19-4.77463E-19
 -1       534 9.54695E-05-2.83032E-05-2.87848E-05-1.26201E-06-4.16157E-20-2.23654E-19
 -1       535 9.55714E-05-2.81368E-05-2.88993E-05-1.64627E-06-3.58375E-19-7.34867E-19
 -1       536 9.56447E-05-2.78774E-05-2.90411E-05-2.22095E-06-5.24512E-19-8.30151E-20
 -1       537 9.56540E-05-2.74996E-05-2.92061E-05-3.00491E-06 6.42730E-21 6.87455E-19
 -1       538 9.55353E-05-2.68955E-05-2.94125E-05-4.16555E-06 1.26567E-18 3.06186E-19
 -1       539 9.51647E-05-2.59799E-05-2.96441E-05-5.78469E-06 3.26849E-19 1.04898E-19
 -1       540 9.43593E-05-2.46442E-05-2.98690E-05-7.99449E-06-1.66719E-19-5.22335E-19
 -1       541 9.28636E-05-2.28164E-05-3.00088E-05-1.09325E-05-5.82587E-19-1.42955E-18
 -1       542 9.04071E-05-2.06125E-05-2.98965E-05-1.47198E-05-7.25142E-19-1.97590E-18
 -1       543 8.69249E-05-1.86830E-05-2.92118E-05-1.94536E-05-9.76203E-19-2.11335E-18
 -1       544 8.30913E-05-1.88988E-05-2.74017E-05-2.53307E-05-3.62328E-19-1.42126E-18
 -1       545 8.16636E-05-2.48453E-05-2.40094E-05-3.17087E-05-6.51196E-19-9.47883E-20
 -1       546 9.74901E-05-4.48882E-05-2.22048E-05-3.58058E-05-1.31025E-18 1.16422E-18
 -1       547 2.44867E-05-1.02330E-05-5.35384E-06 8.58160E-06 1.39308E-18-6.42369E-19
 -1       548 8.77341E-05-2.33122E-05-2.74520E-05 2.90733E-05 4.52130E-19 2.13349E-18
 -1       549 8.90983E-05-2.03200E-05-2.94262E-05 2.30048E-05-4.05283E-19 1.90743E-18
 -1       550 9.14658E-05-2.10289E-05-3.01648E-05 1.78828E-05-1.16117E-19-4.81190E-19
 -1       551 9.35093E-05-2.28121E-05-3.02833E-05 1.34210E-05-1.09202E-18-3.32402E-19
 -1       552 9.47840E-05-2.45322E-05-3.00954E-05 9.91104E-06-9.41650E-19 1.78340E-19
 -1       553 9.54135E-05-2.58295E-05-2.98115E-05 7.24535E-06 1.77702E-18-2.93194E-19
 -1       554 9.56039E-05-2.66873E-05-2.95303E-05 5.22392E-06 2.10042E-18-1.25670E-18
 -1       555 9.55571E-05-2.71699E-05-2.93032E-05 3.72307E-06 4.95490E-19-1.06012E-18
 -1       556 9.15081E-05-4.77495E-05-1.83864E-05 3.86016E-05-1.49157E-18 3.97711E-18
 -1       557 9.34831E-05-2.55118E-05-2.91323E-05 2.10690E-06 6.79364E-19 1.75148E-19
 -1       558 9.31370E-05-2.53096E-05-2.90707E-05-1.44658E-07 1.31210E-18 3.51350E-18
 -1       559 9.35346E-05-2.57803E-05-2.90390E-05-1.12579E-06 2.54704E-18 2.53772E-18
 -1       560 9.41062E-05-2.64400E-05-2.90008E-05-1.75490E-06 1.32420E-18 2.43379E-19
 -1       561 9.46866E-05-2.71294E-05-2.89535E-05-1.99420E-06-6.45872E-19-3.17430E-18
 -1       562 9.51504E-05-2.77193E-05-2.88990E-05-1.90754E-06-2.01294E-19-4.57559E-18
 -1       563 9.54559E-05-2.81644E-05-2.88388E-05-1.60337E-06 1.47479E-18-1.46713E-18
 -1       564 9.55940E-05-2.84409E-05-2.87793E-05-1.20593E-06 1.92433E-18-4.64914E-19
 -1       565 9.55992E-05-2.85711E-05-2.87265E-05-8.20992E-07-1.31642E-19 2.73720E-18
 -1       566 4.80517E-05-2.37378E-05-9.80960E-06 3.20614E-05-8.75567E-19 2.75879E-18
 -1       567 3.29868E-05-1.63384E-05-6.42860E-06 3.38549E-05 5.34319E-19-3.19850E-18
 -1       568 9.49350E-05-2.70892E-05-2.90727E-05 1.15057E-06 1.44284E-18-6.01980E-19
 -1       569 9.51391E-05-2.70803E-05-2.91663E-05 2.82748E-06 2.10497E-21-8.36490E-19
 -1       570 5.16264E-05-2.81811E-05-9.46683E-06-4.59696E-05-7.10661E-19 3.60375E-18
 -1       571 2.56706E-05-1.22045E-05-5.08681E-06-2.39853E-05 5.22725E-19 6.42919E-18
 -1       572 1.33888E-04-4.41844E-06-5.62176E-05 3.37040E-06-1.88020E-18-2.31777E-18
 -1       573 7.10737E-05-3.81452E-05-1.36505E-05-3.84018E-05-1.36129E-18-1.67945E-18
 -1       574 9.42164E-05-2.61760E-05-2.91597E-05 2.71449E-06 5.62334E-19-2.74319E-18
 -1       575 9.30832E-05-2.51861E-05-2.91001E-05 1.01789E-06 9.59108E-19 3.88138E-18
 -1       576 8.91473E-05-1.28622E-05-3.27117E-05-1.95513E-06-2.08574E-19-3.36991E-18
 -1       577 9.52221E-05-2.63262E-05-2.95206E-05 2.69731E-06 1.94161E-18-6.32515E-19
 -1       578 3.78703E-05-1.98878E-05-7.09591E-06-2.57526E-05-5.05520E-19-3.87931E-18
 -1       579 1.44092E-04-5.71293E-05-3.74298E-05-1.76146E-05-1.30423E-18-2.98722E-18
 -1       580 7.57904E-05-4.11412E-05-1.44169E-05 5.05160E-05-1.85606E-19-1.78777E-18
 -1       581 1.06187E-04-5.48649E-05-2.18382E-05 4.57363E-05-1.34609E-18-1.81133E-18
 -1       582 1.38339E-04-5.98630E-05-3.37322E-05 2.36803E-05 4.23516E-19-1.53175E-18
 -1       583 1.49892E-04-4.50190E-05-4.52594E-05 1.22923E-06-1.64356E-18-7.11772E-19
 -1       584 1.48387E-04-2.46993E-05-5.35176E-05-7.53208E-06-1.74113E-18-4.06735E-19
 -1       585 1.42887E-04-9.00624E-06-5.80265E-05-5.95485E-06-2.75603E-18-4.94879E-19
 -1       586 1.43250E-04-1.94762E-05-5.36700E-05 9.68312E-06-1.99476E-18-1.26743E-18
 -1       587 1.49394E-04-3.99308E-05-4.73078E-05 3.07016E-06-2.38686E-18-1.71238E-18
 -1       588 1.23624E-04-5.97042E-05-2.72696E-05-3.73166E-05-2.90426E-19-1.56513E-18
 -1       589 8.19922E-05-4.49615E-05-1.55421E-05-5.07158E-05-1.21761E-19 1.95898E-18
 -1       590 9.46025E-05-2.07621E-05-3.16645E-05-9.43447E-06-2.64265E-18-1.40762E-18
 -1       591 9.13660E-05-1.58991E-05-3.23660E-05-7.71991E-06-1.98537E-18-2.92226E-18
 -1       592 1.05926E-04-5.65123E-05-2.10795E-05-3.47368E-05-4.47180E-19 5.57559E-19
 -1       593 9.55987E-05-2.86545E-05-2.86903E-05-5.54624E-07-6.01705E-19 2.19358E-18
 -1       594 9.54459E-05-3.63561E-05-2.49602E-05 3.46344E-05-2.07105E-18 2.75887E-18
 -1       595 6.01563E-05-2.73306E-05-1.35793E-05 4.39170E-05 2.97864E-19-1.96930E-18
 -1       596 9.27830E-05-1.79428E-05-3.20948E-05-8.90679E-06-2.37690E-18-2.30024E-18
 -1       597 3.12251E-05-9.44510E-06-8.71017E-06-1.13596E-05-6.35275E-20-3.52546E-18
 -1       598 9.15309E-05-1.68145E-05-3.20268E-05 2.42834E-06 9.22233E-19-2.86937E-18
 -1       599 9.12767E-05-1.64191E-05-3.20872E-05 8.26657E-07 4.84499E-19-2.93957E-18
 -1       600 9.28678E-05-1.89459E-05-3.16860E-05 5.27764E-06 1.99837E-18-2.13958E-18
 -1       601 9.39231E-05-2.08100E-05-3.13343E-05 6.20407E-06 2.34518E-18-1.65326E-18
 -1       602 9.49078E-05-2.30022E-05-3.08135E-05 5.84313E-06 2.29680E-18-1.16469E-18
 -1       603 9.58813E-05-2.88747E-05-2.87165E-05-8.59464E-07 1.74611E-18 2.59148E-18
 -1       604 9.41240E-05-2.59901E-05-2.91991E-05 3.64950E-06 5.99764E-19-7.11951E-19
 -1       605 6.20734E-05-1.65817E-05-1.90790E-05 2.74921E-05 1.06387E-18 2.06880E-18
 -1       606 9.54310E-05-2.57223E-05-2.98775E-05-2.45787E-06-1.60629E-18-1.28393E-18
 -1       607 9.54790E-05-2.69392E-05-2.93734E-05-8.63445E-07-1.34678E-18-1.25670E-18
 -1       608 9.54204E-05-2.76959E-05-2.90246E-05 1.42082E-07-1.06926E-18-1.32496E-18
 -1       609 9.53439E-05-2.81647E-05-2.87911E-05 7.38739E-07-9.21492E-19-1.49445E-18
 -1       610 9.52795E-05-2.84514E-05-2.86406E-05 1.05120E-06-7.63857E-19-1.65182E-18
 -1       611 9.52344E-05-2.86194E-05-2.85494E-05 1.17729E-06-2.06264E-19-1.65895E-18
 -1       612 9.52073E-05-2.87081E-05-2.84998E-05 1.18830E-06-2.77593E-19-1.08433E-18
 -1       613 9.51943E-05-2.87436E-05-2.84790E-05 1.13524E-06-3.37183E-19-5.18257E-19
 -1       614 9.51915E-05-2.87435E-05-2.84778E-05 1.05401E-06-4.05147E-19-5.64666E-19
 -1       615 9.51966E-05-2.87207E-05-2.84898E-05 9.69303E-07-3.35400E-19-4.79480E-19
 -1       616 9.52086E-05-2.86850E-05-2.85102E-05 8.97497E-07-3.02791E-19 7.33283E-20
 -1       617 9.52281E-05-2.86450E-05-2.85357E-05 8.48534E-07-2.76612E-19 1.27621E-19
 -1       618 9.52582E-05-2.86093E-05-2.85638E-05 8.26996E-07-1.10143E-18-5.21089E-19
 -1       619 9.53042E-05-2.85883E-05-2.85925E-05 8.32337E-07-1.15739E-18-1.15699E-18
 -1       620 9.53752E-05-2.85954E-05-2.86199E-05 8.58345E-07-7.74738E-19-1.20178E-18
 -1       621 9.54846E-05-2.86485E-05-2.86441E-05 8.91806E-07-4.84314E-20-1.40467E-18
 -1       622 9.56508E-05-2.87703E-05-2.86631E-05 9.10471E-07 5.34697E-19-7.77656E-19
 -1       623 9.58973E-05-2.89882E-05-2.86755E-05 8.80548E-07 1.33309E-19-5.19829E-19
 -1       624 9.62510E-05-2.93302E-05-2.86806E-05 7.54306E-07 1.89522E-19-1.32190E-18
 -1       625 9.67371E-05-2.98181E-05-2.86800E-05 4.68993E-07 2.59018E-19-1.35782E-18
 -1       626 9.73686E-05-3.04525E-05-2.86789E-05-5.06975E-08-1.04471E-19-1.26461E-18
 -1       627 9.81293E-05-3.11918E-05-2.86883E-05-8.82763E-07 4.16892E-19-9.26645E-19
 -1       628 9.89499E-05-3.19251E-05-2.87259E-05-2.08470E-06 1.14452E-18-5.25223E-19
 -1       629 9.96857E-05-3.24517E-05-2.88154E-05-3.65109E-06 4.20614E-19-4.37896E-19
 -1       630 1.00113E-04-3.24873E-05-2.89831E-05-5.45348E-06-3.17071E-19 2.06216E-19
 -1       631 9.99706E-05-3.17262E-05-2.92473E-05-7.17674E-06-3.01672E-19 1.93496E-19
 -1       632 9.90739E-05-2.99939E-05-2.96046E-05-8.29541E-06-9.60797E-20-2.25392E-19
 -1       633 9.74928E-05-2.74560E-05-3.00142E-05-8.18413E-06 7.16001E-20-1.70683E-19
 -1       634 9.56649E-05-2.47384E-05-3.03952E-05-6.39840E-06 4.75560E-19-8.66955E-19
 -1       635 9.43012E-05-2.27873E-05-3.06496E-05-3.01534E-06-7.00081E-19-8.54703E-19
 -1       636 9.40397E-05-2.24252E-05-3.06935E-05 1.19174E-06 2.85704E-20-2.04558E-19
 -1       637 9.50017E-05-2.38049E-05-3.05120E-05 5.03102E-06 4.49415E-19-4.35654E-19
 -1       638 9.67217E-05-2.63259E-05-3.01669E-05 7.51862E-06-3.78862E-19-2.55847E-18
 -1       639 9.84869E-05-2.90611E-05-2.97531E-05 8.26890E-06-5.67959E-19-3.03444E-18
 -1       640 9.96903E-05-3.11787E-05-2.93621E-05 7.55211E-06-4.52618E-19-2.27336E-18
 -1       641 1.00125E-04-3.23359E-05-2.90532E-05 5.97113E-06 4.73706E-19-1.61495E-18
 -1       642 9.98897E-05-3.25875E-05-2.88449E-05 4.11672E-06 7.83351E-19-1.55504E-18
 -1       643 9.92314E-05-3.22042E-05-2.87270E-05 2.40044E-06-7.04636E-20-8.10605E-19
 -1       644 9.83974E-05-3.14891E-05-2.86760E-05 1.02845E-06 1.05513E-19 2.24060E-19
 -1       645 9.75646E-05-3.06766E-05-2.86671E-05 5.62876E-08-2.04035E-19-1.02085E-18
 -1       646 9.68298E-05-2.99096E-05-2.86802E-05-5.40163E-07 1.67559E-19 1.77724E-18
 -1       647 9.63008E-05-2.93425E-05-2.86982E-05-7.94890E-07-6.04354E-20 2.74653E-18
 -1       648 9.53520E-05-2.81395E-05-2.88053E-05-7.03228E-07 4.11342E-19-9.50739E-19
 -1       649 9.54268E-05-2.76524E-05-2.90461E-05-8.15442E-08 5.53419E-19-1.08296E-18
 -1       650 9.52432E-05-2.86143E-05-2.85553E-05-1.16916E-06 7.46705E-19-1.01771E-18
 -1       651 9.52172E-05-2.87083E-05-2.85039E-05-1.18669E-06 4.99130E-19-9.77118E-19
 -1       652 9.52059E-05-2.87460E-05-2.84829E-05-1.13803E-06 6.52231E-19-8.14902E-19
 -1       653 9.52046E-05-2.87440E-05-2.84832E-05-1.06145E-06 8.12596E-19-8.36882E-19
 -1       654 9.52095E-05-2.87150E-05-2.84978E-05-9.87868E-07 6.01904E-19-5.12282E-20
 -1       655 9.52178E-05-2.86610E-05-2.85244E-05-9.29655E-07 3.33569E-19 7.92790E-19
 -1       656 9.52247E-05-2.85836E-05-2.85605E-05-9.07732E-07 2.51530E-19 5.38761E-19
 -1       657 9.52249E-05-2.84788E-05-2.86055E-05-9.37072E-07 5.29436E-19 3.17581E-19
 -1       658 9.52094E-05-2.83372E-05-2.86594E-05-1.03309E-06 3.27328E-19 9.93541E-19
 -1       659 9.51632E-05-2.81418E-05-2.87233E-05-1.21348E-06 9.57872E-20 1.13213E-19
 -1       660 9.50610E-05-2.78652E-05-2.87980E-05-1.49994E-06 5.64778E-20-5.45099E-19
 -1       661 9.48601E-05-2.74651E-05-2.88831E-05-1.91925E-06-2.78714E-19-5.45238E-19
 -1       662 9.45169E-05-2.69160E-05-2.89712E-05-2.47058E-06-6.11063E-19-5.72858E-19
 -1       663 9.38936E-05-2.60797E-05-2.90621E-05-3.24618E-06 4.41190E-19 1.42453E-19
 -1       664 9.28333E-05-2.48622E-05-2.91291E-05-4.25796E-06 4.89847E-19 1.48526E-18
 -1       665 9.10888E-05-2.31259E-05-2.91251E-05-5.53286E-06 2.33177E-19 6.33233E-19
 -1       666 8.83056E-05-2.07333E-05-2.89573E-05-7.07898E-06 5.39072E-19 1.29063E-19
 -1       667 8.40147E-05-1.76217E-05-2.84502E-05-8.88966E-06-1.60095E-19 5.48818E-20
 -1       668 7.76584E-05-1.39686E-05-2.72786E-05-1.10112E-05-3.51113E-19-6.05393E-20
 -1       669 6.87060E-05-1.05547E-05-2.48319E-05-1.37615E-05-1.03422E-18-1.56140E-18
 -1       670 5.71067E-05-8.67207E-06-2.03612E-05-1.81375E-05-9.78389E-19-1.75368E-18
 -1       671 3.58627E-05-4.74948E-06-1.28020E-05-5.91951E-06 2.69021E-19 4.10959E-18
 -1       672 3.27294E-05-5.77426E-06-1.09424E-05 1.19770E-05 1.00411E-18-3.80911E-18
 -1       673 9.20368E-05-1.76104E-05-3.19027E-05-3.91028E-06-8.39608E-19-2.77121E-18
 -1       674 7.61595E-05-1.34420E-05-2.68454E-05 1.44107E-05 1.59978E-19 9.70971E-19
 -1       675 6.70605E-05-1.12494E-05-2.37934E-05 1.83587E-05 2.54940E-19-6.50058E-19
 -1       676 8.75486E-05-1.99373E-05-2.89736E-05 9.15268E-06-7.77213E-19 9.21625E-19
 -1       677 9.06659E-05-2.24984E-05-2.92138E-05 7.16536E-06-4.11150E-20-1.33388E-18
 -1       678 9.26392E-05-2.43751E-05-2.92557E-05 5.52814E-06 3.12105E-18-3.34512E-19
 -1       679 4.19963E-05-9.07037E-06-1.34708E-05 1.59115E-05 1.82636E-18-1.45330E-18
 -1       680 9.45778E-05-2.21873E-05-3.10240E-05-6.16274E-06-2.11946E-18-1.83073E-18
 -1       681 9.25489E-05-2.52810E-05-2.88292E-05-1.25989E-06 1.99602E-18 3.55934E-18
 -1       682 9.52102E-05-2.80104E-05-2.87999E-05-2.59444E-06 7.60325E-19-4.92316E-18
 -1       683 9.57648E-05-2.86000E-05-2.87848E-05-2.19797E-06 8.92359E-19-3.47593E-18
 -1       684 9.60257E-05-2.89170E-05-2.87599E-05-1.64377E-06-4.83108E-19-6.85930E-19
 -1       685 4.73810E-05-1.59716E-05-1.29198E-05-3.30639E-05 1.72758E-18 3.84738E-18
 -1       686 9.54664E-05-2.68524E-05-2.94064E-05 9.70917E-07 9.94484E-19-1.20291E-18
 -1       687 7.61333E-05-3.45472E-05-1.74352E-05-4.40789E-05 1.52209E-18 1.11774E-18
 -1       688 1.09523E-04-5.34782E-05-2.38492E-05-3.93036E-05 1.22370E-18-1.74683E-18
 -1       689 1.33707E-04-5.88995E-05-3.20803E-05-1.84776E-05-2.78528E-19-3.86054E-18
 -1       690 1.23493E-04-6.21664E-06-5.08192E-05-4.73540E-06-1.25790E-18-1.13849E-18
 -1       691 9.43854E-05-2.71721E-05-2.88058E-05-2.65195E-06 3.37050E-19-2.33444E-18
 -1       692 9.34250E-05-2.62002E-05-2.88110E-05-2.22652E-06 1.84971E-18 2.79127E-21
 -1       693 1.23892E-04-5.81896E-05-2.81098E-05 2.96096E-05 9.09846E-19-7.26218E-19
 -1       694 8.28627E-05-1.67703E-05-2.83161E-05 1.15123E-05-7.89090E-19 2.28553E-18
 -1       695 1.24480E-04-1.22097E-05-4.86079E-05 1.04971E-05-2.56550E-18-2.46835E-18
 -1       696 1.30153E-04-1.55339E-05-4.96644E-05-1.15965E-05-2.23214E-18 2.19567E-20
 -1       697 1.34837E-04-3.04387E-05-4.51365E-05 1.23983E-05-1.22383E-18-8.11696E-19
 -1       698 9.52878E-05-2.84382E-05-2.86498E-05-1.03243E-06 5.59717E-19-8.62683E-19
 -1       699 1.39214E-04-5.33448E-05-3.69800E-05 2.91420E-06 1.98027E-20-1.10863E-18
 -1       700 9.66452E-05-4.70388E-05-2.09427E-05 4.38799E-05 1.05927E-18-3.40812E-19
 -1       701 1.38376E-04-3.40450E-05-4.51146E-05-1.07268E-05-2.23299E-18-1.20782E-19
 -1       702 9.51355E-05-2.42407E-05-3.03821E-05-4.08334E-06-1.82986E-18-1.66146E-18
 -1       703 9.20508E-05-1.76330E-05-3.18989E-05 3.94092E-06 1.52226E-18-2.51036E-18
 -1       704 1.40626E-04-5.04220E-05-3.89094E-05 5.29502E-07-6.41025E-19-2.64867E-18
 -1       705 6.18797E-05-2.15277E-05-1.66337E-05-3.20207E-05-4.29393E-19-1.49533E-18
 -1       706 9.12742E-05-1.64154E-05-3.20877E-05-7.98010E-07-1.01313E-19-3.10459E-18
 -1       707 9.52670E-05-2.49704E-05-3.01255E-05 3.56799E-06 1.99378E-18-1.00221E-18
 -1       708 9.28474E-05-1.89153E-05-3.16890E-05-5.23373E-06-1.44079E-18-2.51794E-18
 -1       709 9.54220E-05-2.60803E-05-2.97189E-05 2.09438E-06 1.48377E-18-1.09075E-18
 -1       710 1.15347E-04-7.73270E-06-4.64237E-05 3.41888E-06-1.64811E-18-1.54179E-18
 -1       711 9.21664E-05-2.45894E-05-2.89650E-05 1.76135E-06 1.49842E-18 1.12768E-18
 -1       712 9.15208E-05-1.67995E-05-3.20289E-05-2.39266E-06-4.62968E-19-2.76108E-18
 -1       713 9.20588E-05-2.46776E-05-2.88788E-05 1.81386E-07 2.02222E-18 5.08616E-18
 -1       714 9.29737E-05-2.50987E-05-2.90840E-05 2.94867E-06 2.15150E-18-1.54334E-18
 -1       715 4.78154E-05-1.31436E-05-1.43150E-05 2.78079E-05 1.46598E-18-3.78224E-18
 -1       716 9.49403E-05-2.34489E-05-3.06367E-05 4.13242E-06 1.84622E-18-1.54159E-18
 -1       717 9.58606E-05-2.68678E-05-2.95684E-05-5.81043E-07-1.08151E-18-1.45918E-18
 -1       718 9.59559E-05-2.77553E-05-2.92288E-05 2.31464E-07-1.07004E-18-1.30980E-18
 -1       719 9.59432E-05-2.83116E-05-2.89850E-05 7.18227E-07-9.24795E-19-1.35596E-18
 -1       720 9.58796E-05-2.86449E-05-2.88149E-05 9.75408E-07-3.63519E-19-1.41469E-18
 -1       721 9.57948E-05-2.88270E-05-2.87005E-05 1.07864E-06 8.58304E-20-1.33045E-18
 -1       722 9.57039E-05-2.89064E-05-2.86275E-05 1.08639E-06 1.67517E-19-6.29831E-19
 -1       723 9.56149E-05-2.89170E-05-2.85848E-05 1.04215E-06-4.69582E-19-6.01966E-19
 -1       724 9.55318E-05-2.88824E-05-2.85640E-05 9.77270E-07-3.52296E-19-2.51858E-19
 -1       725 9.54568E-05-2.88200E-05-2.85586E-05 9.13787E-07-3.36691E-19-6.51648E-19
 -1       726 9.53917E-05-2.87433E-05-2.85636E-05 8.66694E-07-1.73488E-19-9.29631E-19
 -1       727 9.53393E-05-2.86640E-05-2.85751E-05 8.45542E-07-1.23346E-18-8.23919E-19
 -1       728 9.53046E-05-2.85947E-05-2.85899E-05 8.55326E-07-1.46857E-18-6.63467E-19
 -1       729 9.52966E-05-2.85509E-05-2.86053E-05 8.96650E-07-1.11471E-18-4.25187E-19
 -1       730 9.53300E-05-2.85531E-05-2.86187E-05 9.65099E-07-6.17708E-19-2.93921E-19
 -1       731 9.54278E-05-2.86286E-05-2.86282E-05 1.04966E-06 3.61660E-19-1.23457E-18
 -1       732 9.56227E-05-2.88133E-05-2.86326E-05 1.13007E-06 8.02900E-19-1.43810E-18
 -1       733 9.59580E-05-2.91497E-05-2.86321E-05 1.17307E-06 2.13179E-19-8.13926E-19
 -1       734 9.64857E-05-2.96824E-05-2.86301E-05 1.12771E-06 1.83210E-19-7.29687E-19
 -1       735 9.72589E-05-3.04455E-05-2.86345E-05 9.20641E-07 1.15079E-19-4.51162E-22
 -1       736 9.83148E-05-3.14403E-05-2.86607E-05 4.53983E-07 4.69439E-19 9.39137E-20
 -1       737 9.96454E-05-3.25998E-05-2.87342E-05-3.88743E-07 7.89096E-19-6.18433E-19
 -1       738 1.01153E-04-3.37414E-05-2.88910E-05-1.71547E-06 8.20401E-19-6.94172E-19
 -1       739 1.02606E-04-3.45323E-05-2.91743E-05-3.56299E-06 5.30374E-19-8.92899E-20
 -1       740 1.03628E-04-3.44992E-05-2.96263E-05-5.79799E-06-2.64109E-19 1.01739E-18
 -1       741 1.03758E-04-3.31360E-05-3.02654E-05-7.97986E-06-1.11257E-18 1.23459E-18
 -1       742 1.02692E-04-3.02232E-05-3.10569E-05-9.30684E-06-7.06155E-19 3.72830E-19
 -1       743 1.00619E-04-2.62248E-05-3.18830E-05-8.81767E-06 3.92938E-19-9.47322E-20
 -1       744 9.83733E-05-2.24051E-05-3.25570E-05-5.95602E-06 3.03965E-19-3.69754E-19
 -1       745 9.71193E-05-2.03975E-05-3.28890E-05-1.15627E-06 6.81469E-19 7.88382E-19
 -1       746 9.76606E-05-2.12712E-05-3.27424E-05 4.01717E-06-4.42090E-19 3.40384E-19
 -1       747 9.96523E-05-2.45471E-05-3.21842E-05 7.76803E-06-1.64190E-18-7.92935E-19
 -1       748 1.01969E-04-2.87154E-05-3.13952E-05 9.24484E-06-1.27605E-18-2.01087E-18
 -1       749 1.03528E-04-3.22010E-05-3.05685E-05 8.50452E-06-1.96619E-19-2.61002E-18
 -1       750 1.03880E-04-3.42140E-05-2.98580E-05 6.53121E-06 6.40317E-19-8.50061E-20
 -1       751 1.03182E-04-3.47477E-05-2.93300E-05 4.20664E-06 8.89418E-19 4.33736E-19
 -1       752 1.01854E-04-3.42199E-05-2.89869E-05 2.13445E-06 2.33062E-19 6.45071E-19
 -1       753 1.00326E-04-3.31413E-05-2.87941E-05 5.65930E-07 7.86787E-20-7.75412E-19
 -1       754 9.88863E-05-3.19029E-05-2.87076E-05-4.74128E-07 5.65327E-19-1.33425E-18
 -1       755 9.77007E-05-3.07599E-05-2.86886E-05-1.07740E-06 1.19824E-18-8.19881E-20
 -1       756 9.56345E-05-2.89184E-05-2.85926E-05-1.04904E-06 1.44529E-19-5.65542E-19
 -1       757 9.57221E-05-2.89074E-05-2.86349E-05-1.08845E-06 6.12576E-19-9.40788E-19
 -1       758 9.58105E-05-2.88224E-05-2.87092E-05-1.07426E-06 4.10508E-19-9.59475E-19
 -1       759 9.55538E-05-2.88797E-05-2.85746E-05-9.92534E-07 2.95980E-19 8.26331E-20
 -1       760 9.54714E-05-2.88008E-05-2.85731E-05-9.36116E-07 1.36204E-19 2.10486E-19
 -1       761 9.53871E-05-2.86875E-05-2.85856E-05-9.01135E-07 3.49655E-19 7.62015E-19
 -1       762 9.52932E-05-2.85392E-05-2.86089E-05-9.01715E-07 6.52596E-19 3.40468E-19
 -1       763 9.51773E-05-2.83482E-05-2.86411E-05-9.49555E-07 3.14789E-19-1.34303E-19
 -1       764 9.50198E-05-2.80987E-05-2.86805E-05-1.05476E-06 1.46560E-19-8.67752E-19
 -1       765 9.47899E-05-2.77649E-05-2.87250E-05-1.22609E-06 6.04009E-20 1.01825E-21
 -1       766 9.44401E-05-2.73074E-05-2.87711E-05-1.46958E-06-2.72317E-19 4.83817E-19
 -1       767 9.39329E-05-2.67086E-05-2.88104E-05-1.76991E-06-5.23206E-19 1.53338E-19
 -1       768 9.31148E-05-2.58343E-05-2.88344E-05-2.15007E-06-4.62705E-19 9.41257E-19
 -1       769 9.18481E-05-2.46105E-05-2.88161E-05-2.56764E-06-2.51478E-19 1.37743E-18
 -1       770 8.99102E-05-2.29203E-05-2.87101E-05-2.96072E-06 8.17209E-19 7.73695E-19
 -1       771 8.69871E-05-2.06401E-05-2.84347E-05-3.21399E-06 7.02067E-19 1.18950E-18
 -1       772 8.26495E-05-1.76765E-05-2.78454E-05-3.14347E-06 1.13779E-19 8.97159E-19
 -1       773 7.63233E-05-1.40393E-05-2.66868E-05-2.50090E-06 4.00185E-20 1.35100E-19
 -1       774 6.72009E-05-9.96246E-06-2.44835E-05-1.03329E-06 3.97024E-19 1.82067E-19
 -1       775 5.49578E-05-6.32625E-06-2.06651E-05 1.23506E-06 1.39175E-19-1.54025E-18
 -1       776 5.04610E-05-8.95101E-06-1.74387E-05-1.78369E-05 1.61371E-18 4.30751E-18
 -1       777 6.79324E-05-2.27066E-05-1.91698E-05-3.31417E-05 1.60738E-18 1.21629E-18
 -1       778 1.28096E-04-3.97052E-05-3.80351E-05 9.88184E-06-1.75594E-19-3.08604E-18
 -1       779 6.27162E-05-8.08464E-06-2.32994E-05 4.67695E-06-3.75375E-20 2.55922E-18
 -1       780 1.31923E-04-5.10067E-05-3.47443E-05-9.84537E-07 7.55462E-19-2.30500E-18
 -1       781 8.91187E-05-2.19853E-05-2.87667E-05 4.14620E-06 1.56488E-18-2.05370E-18
 -1       782 8.55670E-05-1.93994E-05-2.83535E-05 4.56869E-06 1.56885E-18-1.83263E-18
 -1       783 9.65891E-05-2.95837E-05-2.87150E-05-2.19894E-06 9.17050E-19-2.98222E-18
 -1       784 9.14355E-05-2.38303E-05-2.89723E-05 3.59421E-06 1.61699E-18-1.57366E-18
 -1       785 1.28371E-04-5.46807E-05-3.15611E-05 1.26149E-05 7.97523E-19-1.90266E-18
 -1       786 9.60970E-05-2.91345E-05-2.86980E-05-2.97462E-06-2.74323E-19-3.50625E-18
 -1       787 9.58549E-05-2.67886E-05-2.96003E-05 6.58161E-07 8.00515E-19-1.30411E-18
 -1       788 9.59509E-05-2.82824E-05-2.90008E-05-6.89918E-07 4.99850E-19-1.71214E-18
 -1       789 9.65694E-05-2.95665E-05-2.87153E-05-1.40646E-06 4.14739E-20 1.19803E-18
 -1       790 1.24149E-04-2.50687E-05-4.27364E-05-1.35797E-05-1.59337E-18-5.22447E-19
 -1       791 9.51276E-05-2.82574E-05-2.86587E-05-3.50412E-06-7.38520E-19-3.41978E-18
 -1       792 9.06169E-05-2.36237E-05-2.87027E-05 6.86228E-07 1.04892E-18 5.00126E-18
 -1       793 5.03593E-05-6.23057E-06-1.85154E-05 9.85806E-06 7.62085E-19 1.16049E-18
 -1       794 9.70212E-05-4.28536E-05-2.30437E-05-3.64998E-05 2.32331E-18-1.63649E-19
 -1       795 1.19588E-04-2.27991E-05-4.16967E-05 1.29902E-05-1.39322E-18-3.73808E-18
 -1       796 1.17761E-04-1.41955E-05-4.47190E-05-1.02081E-05-1.81464E-18 3.92812E-20
 -1       797 9.36681E-05-2.03768E-05-3.14104E-05-5.91493E-06-1.89077E-18-2.42864E-18
 -1       798 1.09588E-04-4.98079E-05-2.55032E-05 3.21826E-05 1.52923E-18-5.70980E-19
 -1       799 1.30678E-04-4.20628E-05-3.81545E-05-8.02870E-06-9.78350E-19 2.54897E-19
 -1       800 9.56190E-05-2.55422E-05-3.00314E-05-1.82545E-06-1.31505E-18-1.58461E-18
 -1       801 8.01165E-05-3.33753E-05-1.97990E-05 3.94222E-05 1.24396E-18 8.87532E-19
 -1       802 9.09991E-05-2.42965E-05-2.85935E-05-1.38529E-06 1.22591E-18 3.36906E-18
 -1       803 1.19814E-04-5.39575E-05-2.82015E-05-2.38977E-05 1.30714E-18-3.78316E-18
 -1       804 9.31854E-05-1.97452E-05-3.14755E-05 1.22600E-06 6.44204E-19-2.54408E-18
 -1       805 9.59572E-05-2.77056E-05-2.92508E-05-1.82098E-07 4.14516E-19-1.57418E-18
 -1       806 9.58920E-05-2.86305E-05-2.88264E-05-9.61489E-07 5.30457E-19-1.44523E-18
 -1       807 6.55507E-05-1.99380E-05-1.93069E-05 3.03617E-05 1.97891E-18-1.55506E-18
 -1       808 9.40030E-05-2.13008E-05-3.11599E-05 3.32841E-06 1.43011E-18-1.93899E-18
 -1       809 9.40142E-05-2.13020E-05-3.11623E-05-3.32084E-06-8.82582E-19-2.20645E-18
 -1       810 9.35003E-05-2.03278E-05-3.13606E-05 2.36089E-06 1.06127E-18-2.28977E-18
 -1       811 9.56293E-05-2.58540E-05-2.99014E-05 1.55895E-06 1.08195E-18-1.22263E-18
 -1       812 1.10046E-04-1.09428E-05-4.26700E-05-3.79949E-06-2.93504E-19-8.87072E-19
 -1       813 1.27140E-04-4.87584E-05-3.36393E-05 2.25672E-07 3.50481E-19-5.77996E-19
 -1       814 8.04636E-05-1.61556E-05-2.75565E-05 4.67147E-06-1.02544E-19-1.89846E-19
 -1       815 9.47052E-05-2.28543E-05-3.07923E-05-4.16212E-06-1.47562E-18-2.10936E-18
 -1       816 9.34863E-05-2.03051E-05-3.13643E-05-2.34052E-06-5.35891E-19-2.55551E-18
 -1       817 9.22937E-05-2.56046E-05-2.85805E-05-2.82497E-06-2.56770E-19 2.32423E-18
 -1       818 9.37784E-05-2.70174E-05-2.86113E-05-3.52341E-06 3.23335E-19-1.21561E-18
 -1       819 1.11609E-04-1.57123E-05-4.12605E-05 9.61203E-06-1.36945E-18-2.33592E-18
 -1       820 7.31746E-05-1.23738E-05-2.60457E-05 4.24902E-06-7.13743E-19 1.00351E-18
 -1       821 9.30778E-05-1.95502E-05-3.15129E-05 1.13738E-08 1.03013E-19-2.60158E-18
 -1       822 9.61924E-05-2.69744E-05-2.96648E-05-2.78604E-07-8.62334E-19-1.40786E-18
 -1       823 9.63772E-05-2.84492E-05-2.91120E-05-6.42331E-07 3.09812E-19-1.93903E-18
 -1       824 9.41375E-05-3.79427E-05-2.39820E-05 3.11028E-05 2.10755E-18 7.73930E-19
 -1       825 9.58020E-05-2.55865E-05-3.00918E-05-1.18491E-06-1.05958E-18-1.61694E-18
 -1       826 9.63536E-05-2.78966E-05-2.93388E-05 3.06229E-07-8.36919E-19-1.04628E-18
 -1       827 9.63686E-05-2.84791E-05-2.90955E-05 6.60724E-07-6.84376E-19-8.20493E-19
 -1       828 9.62973E-05-2.88210E-05-2.89184E-05 8.45368E-07-3.73368E-20-8.28146E-19
 -1       829 9.61787E-05-2.89946E-05-2.87932E-05 9.15683E-07 2.18546E-19-7.78067E-19
 -1       830 9.60376E-05-2.90525E-05-2.87079E-05 9.16334E-07-3.54843E-20-7.40198E-19
 -1       831 9.58892E-05-2.90324E-05-2.86529E-05 8.81262E-07-3.71810E-19-8.19561E-19
 -1       832 9.57425E-05-2.89615E-05-2.86204E-05 8.35544E-07-7.30268E-19-1.06269E-18
 -1       833 9.56025E-05-2.88600E-05-2.86039E-05 7.97427E-07-3.03541E-19-1.04139E-18
 -1       834 9.54732E-05-2.87436E-05-2.85984E-05 7.80148E-07-5.54455E-19-1.29290E-18
 -1       835 9.53590E-05-2.86269E-05-2.85995E-05 7.93335E-07-1.05158E-18-1.10323E-18
 -1       836 9.52672E-05-2.85258E-05-2.86034E-05 8.43758E-07-7.61794E-19-4.52972E-19
 -1       837 9.52106E-05-2.84608E-05-2.86071E-05 9.35653E-07-8.55045E-19 5.13324E-19
 -1       838 9.52110E-05-2.84598E-05-2.86076E-05 1.07007E-06-5.94470E-19 4.54755E-19
 -1       839 9.53020E-05-2.85611E-05-2.86032E-05 1.24301E-06-2.54398E-19-1.29305E-19
 -1       840 9.55331E-05-2.88149E-05-2.85935E-05 1.44192E-06 9.98965E-19-1.37779E-18
 -1       841 9.59713E-05-2.92826E-05-2.85809E-05 1.63966E-06 4.11831E-19-6.19177E-19
 -1       842 9.67002E-05-3.00303E-05-2.85728E-05 1.78549E-06 8.50148E-19 1.59705E-19
 -1       843 9.78102E-05-3.11124E-05-2.85848E-05 1.79328E-06 6.79609E-20 4.60999E-19
 -1       844 9.93761E-05-3.25394E-05-2.86443E-05 1.52939E-06-3.01600E-19 4.15382E-19
 -1       845 1.01413E-04-3.42236E-05-2.87954E-05 8.05464E-07 6.10121E-19 6.06653E-19
 -1       846 1.03788E-04-3.58879E-05-2.91003E-05-5.88600E-07 8.36571E-19 1.56039E-19
 -1       847 1.06163E-04-3.70221E-05-2.96296E-05-2.78834E-06 2.31916E-19-4.21036E-19
 -1       848 1.07897E-04-3.68263E-05-3.04583E-05-5.71328E-06 1.31335E-19-2.57465E-19
 -1       849 1.08265E-04-3.45303E-05-3.16029E-05-8.67160E-06-9.41271E-19 2.14507E-20
 -1       850 1.06714E-04-2.97955E-05-3.29655E-05-1.03432E-05-1.01624E-18-6.27198E-19
 -1       851 1.03737E-04-2.37123E-05-3.43065E-05-9.23054E-06-8.10099E-20-1.31708E-18
 -1       852 1.01074E-04-1.90242E-05-3.51494E-05-4.61165E-06 7.67591E-19-1.17611E-18
 -1       853 1.00170E-04-1.77752E-05-3.53216E-05 1.92092E-06-2.42993E-19-1.24002E-18
 -1       854 1.02384E-04-2.13211E-05-3.47479E-05 7.63251E-06-4.95145E-19-3.14832E-19
 -1       855 1.05737E-04-2.73701E-05-3.35552E-05 1.03322E-05-1.77097E-18 2.16729E-18
 -1       856 1.07925E-04-3.30293E-05-3.20928E-05 9.36942E-06-1.45292E-18 1.77128E-18
 -1       857 1.08400E-04-3.63160E-05-3.08957E-05 6.81087E-06 5.85683E-19 3.05544E-19
 -1       858 1.07154E-04-3.73057E-05-2.99384E-05 3.72293E-06 7.60366E-19-1.85008E-18
 -1       859 1.04966E-04-3.66023E-05-2.93004E-05 1.14726E-06 7.32627E-19-2.03527E-18
 -1       860 1.02548E-04-3.50555E-05-2.89259E-05-6.04025E-07 8.16399E-19-1.22737E-18
 -1       861 1.00349E-04-3.32868E-05-2.87414E-05-1.59744E-06 1.63499E-20 6.95798E-19
 -1       862 9.85809E-05-3.16516E-05-2.86807E-05-2.01681E-06 5.20713E-19 6.24243E-19
 -1       863 9.57644E-05-2.89507E-05-2.86345E-05-8.48638E-07 3.54502E-19-5.91401E-19
 -1       864 9.59105E-05-2.90295E-05-2.86633E-05-8.90218E-07-6.58010E-20-5.08697E-19
 -1       865 9.61986E-05-2.89903E-05-2.88035E-05-9.16136E-07 1.87128E-19-1.26866E-18
 -1       866 9.56063E-05-2.88211E-05-2.86222E-05-8.10696E-07-1.90690E-19-6.39724E-19
 -1       867 9.54385E-05-2.86487E-05-2.86242E-05-7.91472E-07 4.41971E-19-1.44051E-19
 -1       868 9.52494E-05-2.84310E-05-2.86365E-05-7.99478E-07 7.51008E-19 1.16024E-19
 -1       869 9.50205E-05-2.81573E-05-2.86557E-05-8.39031E-07 5.31343E-19 3.44835E-19
 -1       870 9.47239E-05-2.78084E-05-2.86781E-05-9.09489E-07-1.26511E-19-3.83235E-20
 -1       871 9.43176E-05-2.73544E-05-2.86985E-05-1.00253E-06-5.44907E-19-4.28954E-19
 -1       872 9.37772E-05-2.67888E-05-2.87094E-05-1.09574E-06-5.52724E-19 2.13098E-19
 -1       873 9.29665E-05-2.60017E-05-2.86993E-05-1.16355E-06-6.65379E-19 3.74904E-19
 -1       874 9.17916E-05-2.49516E-05-2.86458E-05-1.13474E-06-5.47940E-19 5.53998E-19
 -1       875 9.00967E-05-2.35675E-05-2.85127E-05-8.98881E-07 5.05789E-19 6.61324E-19
 -1       876 8.76762E-05-2.17856E-05-2.82393E-05-2.76858E-07 3.43976E-19 5.20698E-19
 -1       877 8.42712E-05-1.95805E-05-2.77248E-05 1.00712E-06 6.45720E-19 5.50205E-19
 -1       878 7.95570E-05-1.70099E-05-2.68019E-05 3.35247E-06 4.25919E-19 7.44232E-19
 -1       879 7.32239E-05-1.43925E-05-2.51991E-05 7.33421E-06 3.53583E-19-4.60932E-19
 -1       880 6.52816E-05-1.23064E-05-2.26252E-05 1.31821E-05 1.99806E-18-1.54701E-18
 -1       881 9.49302E-05-2.32344E-05-3.07270E-05 1.88270E-06 1.06409E-18-1.89728E-18
 -1       882 9.31837E-05-1.97388E-05-3.14772E-05-1.20574E-06-2.62035E-19-2.71273E-18
 -1       883 1.23000E-04-4.38377E-05-3.39796E-05 5.29486E-06 9.79933E-19-2.90128E-18
 -1       884 8.81590E-05-2.20291E-05-2.83440E-05-1.06762E-07 1.12777E-18 5.24456E-18
 -1       885 9.73308E-05-3.04677E-05-2.86538E-05-2.93678E-06-9.10418E-19-3.05797E-18
 -1       886 9.53025E-05-2.44456E-05-3.03678E-05 2.36384E-06 1.25395E-18-1.54235E-18
 -1       887 5.45277E-05-1.13363E-05-1.82415E-05 2.12757E-05 1.80676E-18-2.95636E-18
 -1       888 9.63512E-05-2.78435E-05-2.93605E-05-2.71717E-07 7.18499E-19-1.95063E-18
 -1       889 9.64392E-05-2.97641E-05-2.85752E-05-4.06593E-06-4.69717E-19-2.66356E-18
 -1       890 1.21961E-04-5.02732E-05-3.07184E-05-8.95033E-06 1.12672E-18-2.99604E-18
 -1       891 1.15945E-04-4.93502E-05-2.85255E-05 1.88471E-05 1.97740E-18-1.95909E-18
 -1       892 6.52548E-05-1.55326E-05-2.12230E-05-2.11611E-05 2.56567E-18 1.85938E-18
 -1       893 8.62479E-05-3.16762E-05-2.32913E-05-3.00845E-05 2.50967E-18-7.96734E-19
 -1       894 8.48054E-05-2.00126E-05-2.77708E-05-1.63245E-06 9.36195E-19 2.73150E-18
 -1       895 1.06429E-04-4.45256E-05-2.64926E-05-2.50516E-05 2.08516E-18-2.58200E-18
 -1       896 1.13610E-04-2.11136E-05-3.98046E-05-1.19531E-05-1.54112E-18 1.86657E-18
 -1       897 1.16265E-04-3.09297E-05-3.66769E-05 1.22997E-05-3.33843E-19-4.09916E-18
 -1       898 9.49564E-05-2.33069E-05-3.07095E-05-1.92410E-06-8.11920E-19-2.02432E-18
 -1       899 1.20757E-04-3.35914E-05-3.74612E-05-1.17891E-05-1.10321E-18 1.67763E-18
 -1       900 6.79726E-05-1.19151E-05-2.39849E-05-7.25817E-06 1.07024E-18 2.39192E-18
 -1       901 9.46725E-05-2.25794E-05-3.08970E-05 1.21742E-06 7.78274E-19-2.10652E-18
 -1       902 9.61725E-05-2.68896E-05-2.96926E-05 3.38244E-07 8.95828E-19-1.75530E-18
 -1       903 9.60598E-05-2.90525E-05-2.87174E-05-9.21984E-07 1.52853E-20-7.56118E-19
 -1       904 9.63127E-05-2.88067E-05-2.89311E-05-8.38008E-07-5.76023E-20-1.45201E-18
 -1       905 9.48510E-05-2.84295E-05-2.84671E-05-4.77984E-06-1.31566E-18-2.67458E-18
 -1       906 8.09214E-05-2.71092E-05-2.29541E-05 2.81421E-05 2.16685E-18 1.35829E-18
 -1       907 9.05481E-05-2.45517E-05-2.82763E-05-3.65736E-06 8.24626E-19 9.08813E-19
 -1       908 9.57407E-05-2.54345E-05-3.01306E-05 1.25044E-06 9.50416E-19-1.76762E-18
 -1       909 1.21181E-04-4.13440E-05-3.42104E-05-6.95586E-06-1.06279E-18 1.53933E-18
 -1       910 8.05882E-05-1.79033E-05-2.68616E-05-4.28428E-06 3.74121E-19 7.19660E-19
 -1       911 7.13352E-05-1.76299E-05-2.29440E-05 1.98469E-05 2.06552E-18-1.70125E-18
 -1       912 9.78466E-05-3.09623E-05-2.86671E-05-2.48049E-06 6.73454E-21-8.68486E-19
 -1       913 1.20594E-04-4.90514E-05-3.06806E-05 8.08238E-06 1.37311E-18-1.16337E-18
 -1       914 1.05085E-04-4.24596E-05-2.68334E-05 2.24072E-05 2.56513E-18-2.04600E-18
 -1       915 7.51417E-05-1.50575E-05-2.57218E-05-5.70574E-06-9.23267E-19 1.03322E-18
 -1       916 9.45270E-05-2.22413E-05-3.09797E-05 4.23453E-07 3.81050E-19-2.14389E-18
 -1       917 9.27284E-05-2.65701E-05-2.83534E-05-4.71695E-06-9.85391E-19-2.30796E-19
 -1       918 8.90168E-05-2.41363E-05-2.78115E-05-6.15581E-06 1.12855E-19 5.42783E-19
 -1       919 9.60753E-05-2.59006E-05-3.00747E-05-6.37887E-07-7.02551E-19-1.45322E-18
 -1       920 9.64760E-05-2.72162E-05-2.96830E-05-5.47633E-08-4.72436E-19-1.04735E-18
 -1       921 9.66502E-05-2.81076E-05-2.93755E-05 3.26616E-07-5.73110E-19-8.61711E-19
 -1       922 9.66597E-05-2.86649E-05-2.91406E-05 5.51644E-07 1.70169E-21-3.62726E-20
 -1       923 9.65664E-05-2.89797E-05-2.89657E-05 6.63840E-07 1.87290E-19-5.53656E-20
 -1       924 9.64133E-05-2.91224E-05-2.88390E-05 7.02017E-07-9.99989E-20-4.69770E-19
 -1       925 9.62298E-05-2.91462E-05-2.87501E-05 6.97024E-07-2.78165E-19-5.22105E-19
 -1       926 9.60339E-05-2.90897E-05-2.86904E-05 6.72894E-07-8.13173E-19-5.80590E-19
 -1       927 9.58365E-05-2.89808E-05-2.86524E-05 6.48131E-07-4.10924E-19-6.87308E-19
 -1       928 9.56439E-05-2.88403E-05-2.86301E-05 6.37144E-07-3.56932E-19-8.41440E-19
 -1       929 9.54602E-05-2.86847E-05-2.86181E-05 6.52030E-07-8.84660E-19-1.12294E-18
 -1       930 9.52907E-05-2.85299E-05-2.86118E-05 7.03586E-07-5.98775E-19-5.82956E-19
 -1       931 9.51439E-05-2.83940E-05-2.86071E-05 8.02457E-07-3.70826E-19-9.08562E-19
 -1       932 9.50355E-05-2.83015E-05-2.86003E-05 9.59751E-07-8.15289E-20-1.24893E-19
 -1       933 9.49931E-05-2.82870E-05-2.85883E-05 1.18646E-06-3.66168E-19 6.41281E-19
 -1       934 9.50607E-05-2.83992E-05-2.85692E-05 1.49165E-06 1.24687E-19 5.56832E-19
 -1       935 9.53050E-05-2.87047E-05-2.85430E-05 1.87773E-06 7.77288E-19 6.50067E-19
 -1       936 9.58204E-05-2.92882E-05-2.85138E-05 2.33147E-06 1.06824E-18 7.20063E-21
 -1       937 9.67306E-05-3.02470E-05-2.84929E-05 2.80833E-06 8.30722E-19-1.92586E-19
 -1       938 9.81806E-05-3.16717E-05-2.85037E-05 3.20897E-06 1.58611E-19 3.49782E-19
 -1       939 1.00309E-04-3.36045E-05-2.85873E-05 3.35256E-06 6.86456E-19 5.85466E-19
 -1       940 1.03217E-04-3.59813E-05-2.88149E-05 2.92917E-06 3.63665E-19-5.04620E-19
 -1       941 1.06720E-04-3.83673E-05-2.92923E-05 1.53797E-06 1.13277E-18-2.60927E-19
 -1       942 1.10366E-04-4.01203E-05-3.01063E-05-1.13140E-06 1.07982E-19 8.62755E-19
 -1       943 1.13046E-04-3.95281E-05-3.15027E-05-5.17422E-06-8.56880E-19 1.51214E-18
 -1       944 1.13795E-04-3.59503E-05-3.33706E-05-9.47068E-06-1.43607E-18 1.11927E-18
 -1       945 1.07126E-04-1.94118E-05-3.76261E-05-9.14394E-06 2.40392E-19-8.98238E-19
 -1       946 1.13921E-04-3.88506E-05-3.21718E-05 6.91781E-06-5.08864E-19-1.08448E-19
 -1       947 1.11976E-04-4.04599E-05-3.06470E-05 2.54613E-06-9.41633E-19 4.61080E-19
 -1       948 1.08474E-04-3.93766E-05-2.96150E-05-7.90856E-07-3.35595E-19-7.66075E-19
 -1       949 1.04867E-04-3.71715E-05-2.90110E-05-2.72278E-06 2.01831E-18-1.02657E-18
 -1       950 1.01682E-04-3.46717E-05-2.87189E-05-3.52693E-06 1.54534E-18-6.23925E-19
 -1       951 9.92601E-05-3.24769E-05-2.86211E-05-3.57576E-06-3.45589E-19-1.58989E-18
 -1       952 9.56327E-05-2.87854E-05-2.86488E-05-6.21510E-07-2.83692E-19-3.29287E-19
 -1       953 9.60065E-05-2.57462E-05-3.01109E-05 6.88204E-07 8.40473E-19-1.85424E-18
 -1       954 9.58528E-05-2.89622E-05-2.86674E-05-6.48512E-07-2.39887E-19-7.30829E-19
 -1       955 9.51265E-05-2.82862E-05-2.86458E-05-5.98544E-07 3.70111E-19-2.32248E-19
 -1       956 9.48049E-05-2.79501E-05-2.86521E-05-5.96972E-07 3.77132E-19-1.01607E-19
 -1       957 9.43997E-05-2.75348E-05-2.86564E-05-5.84428E-07-1.19350E-19 1.15414E-19
 -1       958 9.38997E-05-2.70453E-05-2.86520E-05-5.37187E-07-6.53865E-19-3.11956E-19
 -1       959 9.32006E-05-2.64022E-05-2.86279E-05-4.04153E-07-5.16226E-19-5.31317E-19
 -1       960 9.22537E-05-2.55966E-05-2.85674E-05-1.08586E-07-4.03944E-19-2.05474E-19
 -1       961 9.09750E-05-2.46044E-05-2.84446E-05 4.70381E-07-1.55550E-19-5.85966E-19
 -1       962 8.92703E-05-2.34246E-05-2.82197E-05 1.51595E-06 6.38979E-19-1.89956E-19
 -1       963 8.70511E-05-2.21108E-05-2.78318E-05 3.29531E-06 7.10794E-20 2.09321E-19
 -1       964 8.42711E-05-2.08279E-05-2.71898E-05 6.18604E-06 1.10990E-18 2.91853E-19
 -1       965 8.09842E-05-1.99179E-05-2.61563E-05 1.07078E-05 1.83814E-18-4.22333E-19
 -1       966 7.68375E-05-1.87042E-05-2.48842E-05 1.47504E-05 2.29915E-18-2.01349E-18
 -1       967 9.46980E-05-2.26243E-05-3.08880E-05-1.29277E-06-2.78166E-19-2.32028E-18
 -1       968 9.66500E-05-2.80579E-05-2.93965E-05-3.08408E-07 5.33646E-19-1.36027E-18
 -1       969 9.64348E-05-2.91183E-05-2.88499E-05-7.06574E-07 9.72897E-21-1.52731E-18
 -1       970 7.50357E-05-1.85251E-05-2.41789E-05-1.69849E-05 9.95369E-19 2.16763E-18
 -1       971 9.66694E-05-2.86365E-05-2.91569E-05-5.42401E-07 3.55327E-20-1.38334E-18
 -1       972 9.53953E-05-2.85612E-05-2.86432E-05-6.04697E-07 4.56255E-19-2.40473E-19
 -1       973 9.45233E-05-2.22364E-05-3.09806E-05-4.13763E-07 1.11783E-19-2.40778E-18
 -1       974 9.60522E-05-2.90820E-05-2.87015E-05-6.78497E-07 6.28570E-20-1.22463E-18
 -1       975 9.56714E-05-2.48269E-05-3.03629E-05 8.96191E-07 7.14389E-19-1.86759E-18
 -1       976 1.11692E-04-2.75123E-05-3.61258E-05-1.17310E-05-1.12567E-18 9.47614E-19
 -1       977 9.64593E-05-2.71420E-05-2.97086E-05 8.90571E-08 6.80297E-19-1.52424E-18
 -1       978 9.62522E-05-2.91447E-05-2.87603E-05-7.03879E-07-2.52737E-19-1.55622E-18
 -1       979 9.65833E-05-2.89663E-05-2.89787E-05-6.63103E-07 2.45220E-19-1.64981E-18
 -1       980 9.58630E-05-3.50122E-05-2.60488E-05-2.21521E-05 9.91723E-19-8.31968E-19
 -1       981 1.11426E-04-4.46432E-05-2.86037E-05-1.38109E-05 3.50347E-19-2.21817E-18
 -1       982 9.41140E-05-3.43445E-05-2.55840E-05 2.37361E-05 1.83678E-18 6.63625E-19
 -1       983 9.55925E-05-2.44496E-05-3.04891E-05 4.88048E-07 4.07970E-19-1.75851E-18
 -1       984 8.76382E-05-2.41868E-05-2.71821E-05-9.81055E-06-1.28257E-18 1.73879E-18
 -1       985 1.19074E-04-4.50056E-05-3.17783E-05-3.69142E-07-2.19374E-19 4.68919E-19
 -1       986 1.12878E-04-4.56842E-05-2.87741E-05 1.38832E-05 1.90652E-18-2.24535E-18
 -1       987 9.82657E-05-3.15841E-05-2.85772E-05-4.02906E-06-1.14716E-18-2.90937E-18
 -1       988 1.17269E-04-4.49226E-05-3.09878E-05-1.44608E-06-7.65074E-19-1.86029E-18
 -1       989 9.68209E-05-3.05335E-05-2.84086E-05-5.67031E-06-4.65911E-19-2.51678E-18
 -1       990 9.67158E-05-2.75524E-05-2.96410E-05 7.28015E-08-2.88550E-19-9.49627E-19
 -1       991 9.68549E-05-2.83593E-05-2.93549E-05 2.69245E-07-6.82440E-20-6.01080E-19
 -1       992 9.68323E-05-2.88527E-05-2.91342E-05 3.82414E-07 3.26261E-20-7.29102E-19
 -1       993 9.67050E-05-2.91112E-05-2.89688E-05 4.35706E-07-2.10434E-19-6.95703E-19
 -1       994 9.65177E-05-2.92058E-05-2.88480E-05 4.50233E-07-2.13922E-19-7.17303E-19
 -1       995 9.62988E-05-2.91866E-05-2.87624E-05 4.44570E-07-3.04054E-19-4.83073E-19
 -1       996 9.60661E-05-2.90902E-05-2.87040E-05 4.33739E-07-5.50057E-19 3.81562E-19
 -1       997 9.58296E-05-2.89427E-05-2.86658E-05 4.30383E-07-9.75409E-19-2.26005E-19
 -1       998 9.55944E-05-2.87633E-05-2.86419E-05 4.45445E-07-7.35518E-19-9.39577E-19
 -1       999 9.53636E-05-2.85677E-05-2.86268E-05 4.91484E-07-7.65118E-19-1.24398E-18
 -1      1000 9.51405E-05-2.83705E-05-2.86157E-05 5.81451E-07-1.87601E-19-1.27264E-18
 -1      1001 9.49328E-05-2.81901E-05-2.86041E-05 7.32591E-07 5.78589E-19-4.66108E-19
 -1      1002 9.47566E-05-2.80525E-05-2.85875E-05 9.66230E-07 5.89283E-19-3.38692E-19
 -1      1003 9.46415E-05-2.79967E-05-2.85621E-05 1.30835E-06-6.32853E-20 6.96154E-19
 -1      1004 9.46388E-05-2.80808E-05-2.85249E-05 1.78837E-06 7.94753E-19 5.41567E-19
 -1      1005 9.48302E-05-2.83879E-05-2.84753E-05 2.43343E-06 1.86057E-19-3.37828E-19
 -1      1006 9.53390E-05-2.90316E-05-2.84174E-05 3.25652E-06 4.39899E-19-1.99581E-19
 -1      1007 9.63400E-05-3.01554E-05-2.83647E-05 4.23248E-06 4.65599E-19-1.42770E-18
 -1      1008 9.80605E-05-3.19156E-05-2.83474E-05 5.25547E-06 1.21936E-19-1.89138E-18
 -1      1009 1.00733E-04-3.44099E-05-2.84231E-05 6.08151E-06 2.35829E-19-1.69447E-18
 -1      1010 1.04705E-04-3.77118E-05-2.87307E-05 6.20305E-06 1.84003E-18-1.69958E-18
 -1      1011 1.09813E-04-4.13187E-05-2.93403E-05 5.11893E-06 1.93246E-18-7.34909E-19
 -1      1012 1.06970E-04-3.94689E-05-2.89486E-05-6.29489E-06-1.20770E-20-1.45637E-18
 -1      1013 1.02522E-04-3.58847E-05-2.85576E-05-6.52165E-06 1.72822E-18-3.40990E-18
 -1      1014 9.45979E-05-2.77820E-05-2.86354E-05-2.36034E-07-3.32602E-19 1.50498E-19
 -1      1015 9.49724E-05-2.81433E-05-2.86411E-05-3.08073E-07 2.56802E-19-5.43889E-19
 -1      1016 9.36147E-05-2.68892E-05-2.85967E-05 1.18482E-07-3.46845E-19-6.13569E-19
 -1      1017 9.29225E-05-2.63237E-05-2.85424E-05 5.26823E-07-7.14758E-19-1.63231E-18
 -1      1018 9.20644E-05-2.56952E-05-2.84440E-05 1.21832E-06-2.43110E-19-1.75997E-18
 -1      1019 9.10284E-05-2.50467E-05-2.82779E-05 2.34512E-06-4.21384E-19-1.19143E-18
 -1      1020 8.98405E-05-2.44801E-05-2.80117E-05 4.11472E-06-4.59792E-20-2.29862E-19
 -1      1021 8.86078E-05-2.41987E-05-2.76040E-05 6.79279E-06 7.08974E-19-7.96793E-19
 -1      1022 8.75906E-05-2.45814E-05-2.70061E-05 1.06898E-05 1.39279E-18-4.98271E-19
 -1      1023 8.70058E-05-2.61180E-05-2.61026E-05-1.62339E-05 4.53527E-20-2.85573E-19
 -1      1024 8.37080E-05-2.56797E-05-2.48421E-05 2.10960E-05 1.70794E-18 1.60033E-18
 -1      1025 9.41571E-05-2.73694E-05-2.86234E-05-1.09050E-07-4.77942E-19 3.49891E-19
 -1      1026 9.58424E-05-2.89253E-05-2.86788E-05-4.05509E-07-5.96410E-19-1.10413E-18
 -1      1027 9.63192E-05-2.91850E-05-2.87718E-05-4.48478E-07-3.00365E-19-1.10863E-18
 -1      1028 8.19350E-05-2.06581E-05-2.62645E-05-1.08430E-05-1.34128E-19 1.78196E-18
 -1      1029 9.92954E-05-3.27658E-05-2.85132E-05-5.16842E-06-3.88415E-19-3.32388E-18
 -1      1030 9.65387E-05-2.92028E-05-2.88583E-05-4.56396E-07-7.02202E-20-9.40294E-19
 -1      1031 9.31851E-05-2.77885E-05-2.80266E-05-7.35608E-06 6.55069E-20-2.03084E-18
 -1      1032 9.68531E-05-2.83148E-05-2.93737E-05-2.59358E-07 3.63517E-19-1.03041E-18
 -1      1033 9.55589E-05-2.43212E-05-3.05300E-05 3.89694E-09 2.53992E-19-2.14198E-18
 -1      1034 9.63436E-05-2.63340E-05-3.00041E-05-2.44056E-07-1.40903E-19-1.59141E-18
 -1      1035 9.60868E-05-2.90852E-05-2.87150E-05-4.29225E-07-5.29140E-19-8.91207E-19
 -1      1036 9.68426E-05-2.88270E-05-2.91496E-05-3.82662E-07 1.36688E-19-1.25560E-18
 -1      1037 1.11285E-04-4.24979E-05-2.94734E-05-5.81418E-06-9.31496E-19-1.72954E-19
 -1      1038 9.67227E-05-2.91001E-05-2.89812E-05-4.40179E-07 2.81878E-20-1.01078E-18
 -1      1039 1.02257E-04-3.75524E-05-2.77364E-05-1.43965E-05-6.03053E-19-8.45936E-19
 -1      1040 9.56497E-05-2.45738E-05-3.04624E-05-4.45536E-07-1.45585E-19-2.13451E-18
 -1      1041 1.02083E-04-3.81362E-05-2.73787E-05 1.68763E-05 1.26654E-18-2.28936E-18
 -1      1042 9.55781E-05-2.87111E-05-2.86573E-05-3.79863E-07 2.43474E-19-1.14783E-18
 -1      1043 9.67128E-05-2.74775E-05-2.96719E-05-5.62133E-08 5.35907E-19-1.13532E-18
 -1      1044 9.52926E-05-2.84509E-05-2.86465E-05-3.50028E-07 5.14932E-19-7.41383E-19
 -1      1045 9.46394E-05-3.07663E-05-2.73721E-05-1.29207E-05-8.22692E-19-4.34085E-19
 -1      1046 8.74506E-05-2.63208E-05-2.61841E-05 1.61208E-05 1.74244E-18 9.66113E-19
 -1      1047 9.61736E-05-2.59598E-05-3.00906E-05 3.97245E-07 4.53317E-19-1.55116E-18
 -1      1048 9.48416E-05-2.80442E-05-2.86276E-05 4.79059E-08-5.10960E-19 1.02270E-18
 -1      1049 9.69611E-05-2.86209E-05-2.92888E-05 1.26641E-07 2.17736E-19-1.11210E-18
 -1      1050 9.68891E-05-2.90155E-05-2.90884E-05 1.59098E-07-1.36926E-19-9.76980E-19
 -1      1051 9.67250E-05-2.92009E-05-2.89387E-05 1.71836E-07-3.66303E-19-1.28486E-18
 -1      1052 9.65079E-05-2.92382E-05-2.88297E-05 1.74370E-07-2.76571E-19-1.04108E-18
 -1      1053 9.62633E-05-2.91731E-05-2.87528E-05 1.74210E-07-6.36990E-20-8.92544E-19
 -1      1054 9.60055E-05-2.90372E-05-2.87005E-05 1.78262E-07-4.95807E-19-8.49518E-19
 -1      1055 9.57379E-05-2.88500E-05-2.86663E-05 1.94535E-07-9.25374E-19-1.15972E-20
 -1      1056 9.54733E-05-2.86363E-05-2.86444E-05 2.30927E-07-7.96387E-19 2.56915E-19
 -1      1057 9.51984E-05-2.83972E-05-2.86290E-05 3.02275E-07-7.09066E-19 6.28565E-19
 -1      1058 9.49188E-05-2.81493E-05-2.86154E-05 4.25032E-07 1.78674E-19-7.18256E-19
 -1      1059 9.46365E-05-2.79071E-05-2.85981E-05 6.24348E-07 6.11197E-19-9.54848E-19
 -1      1060 9.43627E-05-2.76946E-05-2.85718E-05 9.35165E-07 8.19204E-19-6.31143E-19
 -1      1061 9.41234E-05-2.75509E-05-2.85307E-05 1.40340E-06 2.01122E-19-1.02320E-18
 -1      1062 9.39697E-05-2.75395E-05-2.84696E-05 2.08635E-06-2.27038E-19-1.05767E-18
 -1      1063 9.39912E-05-2.77587E-05-2.83848E-05 3.04846E-06-2.60754E-19-1.51068E-18
 -1      1064 9.43366E-05-2.83553E-05-2.82772E-05 4.34753E-06-5.20492E-19-2.50151E-18
 -1      1065 9.52393E-05-2.95359E-05-2.81587E-05 6.00518E-06 7.10248E-19-2.47992E-18
 -1      1066 9.70494E-05-3.15713E-05-2.80641E-05 7.94944E-06 6.95890E-19-1.91034E-18
 -1      1067 1.00337E-04-3.47623E-05-2.80977E-05 9.89652E-06 6.47450E-19-1.78720E-18
 -1      1068 9.62925E-05-2.60502E-05-3.01017E-05-9.91088E-08 1.35209E-19-1.74922E-18
 -1      1069 9.72376E-05-3.15814E-05-2.81369E-05-8.27760E-06-1.19910E-19-2.77038E-18
 -1      1070 9.67429E-05-2.91947E-05-2.89494E-05-1.77479E-07-1.85710E-19-9.38871E-19
 -1      1071 9.30917E-05-2.66537E-05-2.84737E-05 1.52138E-06-1.37269E-19-1.19075E-18
 -1      1072 9.36041E-05-2.69980E-05-2.85456E-05 8.66063E-07-1.59173E-19-1.22085E-18
 -1      1073 9.21270E-05-2.63483E-05-2.81912E-05 4.01790E-06-4.70179E-19-1.11852E-18
 -1      1074 9.19265E-05-2.67028E-05-2.79537E-05 6.14936E-06 6.50296E-19-1.29251E-18
 -1      1075 9.22773E-05-2.77785E-05-2.76440E-05 9.05833E-06 8.30914E-19-1.95019E-18
 -1      1076 9.69022E-05-2.89973E-05-2.91023E-05-1.61064E-07-9.27424E-20-1.38539E-18
 -1      1077 1.14810E-04-4.47170E-05-3.00819E-05 5.44502E-06 9.40213E-19-1.44530E-18
 -1      1078 9.63148E-05-2.60822E-05-3.00991E-05 1.07805E-07 2.49507E-19-1.78491E-18
 -1      1079 9.65282E-05-2.92397E-05-2.88381E-05-1.79400E-07 8.34138E-20-6.02680E-19
 -1      1080 9.69661E-05-2.85824E-05-2.93069E-05-1.26780E-07 2.88446E-19-1.36473E-18
 -1      1081 9.25714E-05-2.63981E-05-2.83603E-05 2.52655E-06-5.51277E-19-1.28692E-18
 -1      1082 9.67617E-05-2.73906E-05-2.97318E-05 6.02502E-09 2.14739E-19-1.60745E-18
 -1      1083 9.69321E-05-2.81177E-05-2.94925E-05 6.71755E-08 1.70201E-19-1.61082E-18
 -1      1084 9.36945E-05-3.00536E-05-2.72850E-05 1.27146E-05 6.15069E-19-2.12576E-18
 -1      1085 9.42209E-05-3.21544E-05-2.65795E-05 1.78235E-05 1.04828E-18-8.52214E-19
 -1      1086 9.98819E-05-3.44314E-05-2.80553E-05-1.02316E-05 7.21823E-19-1.21305E-18
 -1      1087 9.68642E-05-2.78618E-05-2.95726E-05-6.78232E-08 4.89848E-19-1.31377E-18
 -1      1088 9.44805E-05-2.77169E-05-2.86131E-05 2.00602E-07 2.84770E-19 2.45456E-19
 -1      1089 9.51735E-05-2.83494E-05-2.86390E-05-4.55832E-08-3.14035E-19-4.63213E-20
 -1      1090 9.40624E-05-2.73575E-05-2.85880E-05 4.59033E-07 4.22609E-19-7.11983E-19
 -1      1091 9.57634E-05-2.88567E-05-2.86743E-05-1.35802E-07-3.31206E-19-1.06760E-18
 -1      1092 9.62893E-05-2.91796E-05-2.87614E-05-1.72045E-07-2.79978E-19-7.42210E-19
 -1      1093 9.60313E-05-2.90450E-05-2.87085E-05-1.57764E-07-1.32991E-19-1.23567E-18
 -1      1094 9.54743E-05-2.86182E-05-2.86526E-05-1.01553E-07-7.03650E-20-6.31685E-19
 -1      1095 1.16885E-04 2.57635E-10-4.18652E-05-4.14796E-05-3.44742E-19 1.17822E-17
 -1      1096 8.86640E-05 7.19204E-11-3.72574E-05-2.41795E-05-1.84230E-19 1.89804E-18
 -1      1097 8.40855E-05 4.14260E-11-3.57711E-05-1.78920E-05-1.27902E-19-2.39906E-18
 -1      1098 8.23411E-05 3.20231E-11-3.50758E-05-1.38531E-05-9.09766E-20-4.41120E-18
 -1      1099 8.15383E-05 2.73228E-11-3.47406E-05-1.05497E-05-6.12114E-20-5.40107E-18
 -1      1100 8.11327E-05 2.45859E-11-3.45748E-05-7.65887E-06-3.76599E-20-5.80492E-18
 -1      1101 8.09224E-05 2.29253E-11-3.44911E-05-5.00081E-06-2.16655E-20-5.94574E-18
 -1      1102 8.08193E-05 2.20236E-11-3.44513E-05-2.45670E-06-6.27665E-21-5.96652E-18
 -1      1103 8.07890E-05 2.17413E-11-3.44399E-05 2.33284E-08 6.68279E-21-5.87484E-18
 -1      1104 8.08207E-05 2.20368E-11-3.44519E-05 2.50406E-06 2.57088E-20-5.77644E-18
 -1      1105 8.09255E-05 2.29544E-11-3.44923E-05 5.05043E-06 4.11539E-20-5.54147E-18
 -1      1106 8.11397E-05 2.46142E-11-3.45770E-05 7.71263E-06 5.83262E-20-5.15568E-18
 -1      1107 8.15490E-05 2.73928E-11-3.47451E-05 1.06091E-05 8.08122E-20-4.44020E-18
 -1      1108 8.23614E-05 3.21396E-11-3.50847E-05 1.39219E-05 1.05985E-19-3.15849E-18
 -1      1109 8.41284E-05 4.16361E-11-3.57903E-05 1.79760E-05 1.39707E-19-7.97892E-19
 -1      1110 8.87646E-05 7.22453E-11-3.72977E-05 2.42785E-05 1.85288E-19 3.95691E-18
 -1      1111 1.17155E-04 2.58462E-10-4.18334E-05 4.17502E-05 2.16840E-19 1.38443E-17
 -1      1112 1.30259E-04-2.57634E-05-4.02839E-05-2.61153E-05-1.40502E-18 1.80981E-17
 -1      1113 9.74777E-05-2.88688E-05-3.15843E-05-6.81546E-07-5.01152E-19 1.47591E-17
 -1      1114 9.01705E-05-2.70299E-05-2.78967E-05 3.86864E-07-1.62617E-19 1.01386E-17
 -1      1115 8.82536E-05-2.65738E-05-2.66451E-05 2.50758E-07-9.08377E-20 6.94030E-18
 -1      1116 8.78910E-05-2.64459E-05-2.63874E-05 1.65757E-07-8.27015E-20 4.38448E-18
 -1      1117 8.82468E-05-2.65215E-05-2.64714E-05 1.17871E-07-1.02632E-19 3.08132E-18
 -1      1118 8.89313E-05-2.67054E-05-2.66736E-05 8.73210E-08-3.43975E-20 1.88072E-18
 -1      1119 8.97460E-05-2.69373E-05-2.69163E-05 6.61237E-08-8.04278E-20 8.43658E-19
 -1      1120 9.05812E-05-2.71807E-05-2.71653E-05 5.04371E-08-4.57433E-20 1.96207E-19
 -1      1121 9.13756E-05-2.74148E-05-2.74029E-05 3.83787E-08-9.55143E-20-7.55110E-19
 -1      1122 9.20973E-05-2.76290E-05-2.76195E-05 2.89552E-08-5.47225E-20-1.79834E-18
 -1      1123 9.27334E-05-2.78186E-05-2.78111E-05 2.15812E-08 9.00966E-20-2.18933E-18
 -1      1124 9.32831E-05-2.79830E-05-2.79772E-05 1.58780E-08 9.21345E-21-3.09750E-18
 -1      1125 9.37541E-05-2.81243E-05-2.81199E-05 1.15836E-08-6.77629E-20-3.02411E-18
 -1      1126 9.41588E-05-2.82459E-05-2.82429E-05 8.51156E-09-2.69778E-20-2.47145E-18
 -1      1127 9.45126E-05-2.83525E-05-2.83507E-05 6.53009E-09-1.41337E-19-2.81297E-18
 -1      1128 9.48319E-05-2.84487E-05-2.84480E-05 5.54677E-09 7.14872E-20-2.67108E-18
 -1      1129 9.51326E-05-2.85393E-05-2.85396E-05 5.48837E-09-1.04642E-19-2.90829E-18
 -1      1130 9.54282E-05-2.86281E-05-2.86292E-05 6.26908E-09-8.34298E-20-3.94306E-18
 -1      1131 9.57271E-05-2.87176E-05-2.87190E-05 7.73915E-09-1.83350E-20-5.16962E-18
 -1      1132 9.60291E-05-2.88073E-05-2.88087E-05 9.60723E-09 1.23002E-19-5.56253E-18
 -1      1133 9.63206E-05-2.88931E-05-2.88935E-05 1.13340E-08 3.77294E-20-3.93914E-18
 -1      1134 9.65686E-05-2.89649E-05-2.89628E-05 1.20054E-08-4.51002E-20-2.82312E-18
 -1      1135 9.67142E-05-2.90049E-05-2.89985E-05 1.02180E-08-2.38301E-19-3.47887E-18
 -1      1136 9.66675E-05-2.89863E-05-2.89734E-05 4.04847E-09 7.46018E-20-3.18002E-18
 -1      1137 9.63063E-05-2.88728E-05-2.88514E-05-8.76892E-09 2.02883E-20-1.92381E-18
 -1      1138 9.54846E-05-2.86216E-05-2.85906E-05-3.02924E-08 8.87887E-20-2.67524E-18
 -1      1139 9.40550E-05-2.81898E-05-2.81508E-05-6.13289E-08-2.39179E-19-3.99649E-18
 -1      1140 9.19102E-05-2.75473E-05-2.75053E-05-9.99595E-08-8.58729E-20-3.38146E-18
 -1      1141 8.90411E-05-2.66930E-05-2.66573E-05-1.40127E-07 1.20767E-19-2.38943E-18
 -1      1142 8.55972E-05-2.56729E-05-2.56555E-05-1.71320E-07-1.62230E-19-1.61254E-18
 -1      1143 8.19229E-05-2.45893E-05-2.46011E-05-1.80624E-07 4.42955E-22-4.11592E-18
 -1      1144 7.85346E-05-2.35937E-05-2.36396E-05-1.57567E-07 1.19445E-19-1.30996E-18
 -1      1145 7.60190E-05-2.28565E-05-2.29315E-05-1.00131E-07-2.42824E-19-6.56980E-19
 -1      1146 7.48698E-05-2.25201E-05-2.26091E-05-1.83428E-08 9.12910E-20-6.72111E-19
 -1      1147 7.53242E-05-2.26527E-05-2.27356E-05 6.79738E-08 8.49233E-20-1.18386E-19
 -1      1148 7.72781E-05-2.32245E-05-2.32832E-05 1.37115E-07-1.61861E-19-2.80205E-18
 -1      1149 8.03227E-05-2.41175E-05-2.41428E-05 1.74435E-07-7.66945E-20-2.77231E-18
 -1      1150 8.38850E-05-2.51659E-05-2.51587E-05 1.77076E-07-2.42889E-20-2.51045E-18
 -1      1151 8.73994E-05-2.62045E-05-2.61739E-05 1.52639E-07-2.23014E-19-2.31248E-18
 -1      1152 9.04407E-05-2.71078E-05-2.70659E-05 1.13753E-07-3.69808E-19-3.71252E-18
 -1      1153 9.27797E-05-2.78067E-05-2.77643E-05 7.23975E-08-7.98312E-20-6.54821E-18
 -1      1154 9.43688E-05-2.82853E-05-2.82495E-05 3.66338E-08 2.40442E-19-5.61197E-18
 -1      1155 9.52880E-05-2.85657E-05-2.85396E-05 1.01220E-08 3.64719E-19-2.33216E-18
 -1      1156 9.56853E-05-2.86908E-05-2.86748E-05-6.70942E-09 3.30624E-19-4.93784E-19
 -1      1157 9.57296E-05-2.87098E-05-2.87031E-05-1.50260E-08 6.36805E-21-5.58587E-19
 -1      1158 9.55818E-05-2.86704E-05-2.86717E-05-1.62244E-08-1.34839E-19-3.39445E-18
 -1      1159 9.53821E-05-2.86144E-05-2.86214E-05-1.08093E-08 4.70364E-19-3.26617E-18
 -1      1160 9.52457E-05-2.85783E-05-2.85812E-05 1.78225E-09-1.01878E-19-1.21594E-18
 -1      1161 9.52171E-05-2.85640E-05-2.85577E-05 6.65964E-09 5.79945E-19-3.39718E-19
 -1      1162 1.31449E-04-2.58461E-05-4.04247E-05 2.68819E-05 1.17452E-18 2.04207E-17
 -1      1163 9.81990E-05-2.90526E-05-3.18579E-05 8.62520E-07 4.28228E-19 1.76553E-17
 -1      1164 9.03491E-05-2.70668E-05-2.80037E-05-3.89217E-07 2.28050E-19 1.31881E-17
 -1      1165 8.83073E-05-2.65892E-05-2.66780E-05-2.55114E-07 1.66644E-19 1.00163E-17
 -1      1166 8.78889E-05-2.64463E-05-2.63911E-05-1.68636E-07 8.29745E-20 7.92280E-18
 -1      1167 8.82194E-05-2.65144E-05-2.64638E-05-1.19758E-07 6.82589E-21 6.40405E-18
 -1      1168 8.88915E-05-2.66935E-05-2.66619E-05-8.85423E-08 4.28935E-20 5.58391E-18
 -1      1169 8.96811E-05-2.69192E-05-2.68963E-05-6.70506E-08 5.27998E-20 5.16235E-18
 -1      1170 9.04936E-05-2.71550E-05-2.71391E-05-5.19268E-08 1.38334E-19 4.19507E-18
 -1      1171 9.12909E-05-2.73897E-05-2.73774E-05-3.92933E-08 1.96286E-20 2.53447E-18
 -1      1172 9.20161E-05-2.76048E-05-2.75949E-05-2.95001E-08-7.38900E-21 1.66157E-18
 -1      1173 9.26546E-05-2.77950E-05-2.77871E-05-2.17495E-08 1.01857E-19 1.10306E-18
 -1      1174 9.32043E-05-2.79595E-05-2.79531E-05-1.55975E-08 7.30690E-20 2.73896E-19
 -1      1175 9.36722E-05-2.80999E-05-2.80949E-05-1.07303E-08 1.90532E-19-4.80132E-19
 -1      1176 9.40710E-05-2.82201E-05-2.82162E-05-6.89666E-09-3.85186E-20-1.65034E-18
 -1      1177 9.44101E-05-2.83225E-05-2.83197E-05-3.74273E-09 1.30229E-19-1.47514E-18
 -1      1178 9.47202E-05-2.84170E-05-2.84149E-05-1.77171E-09 1.13474E-19-2.03034E-18
 -1      1179 9.50345E-05-2.85130E-05-2.85119E-05-1.23379E-10 2.89878E-20-2.14615E-18
 -1      1180 9.53788E-05-2.86186E-05-2.86188E-05 8.33988E-10-1.10725E-19-2.44886E-18
 -1      1181 9.57985E-05-2.87478E-05-2.87498E-05 8.86553E-10 5.66246E-21-1.57072E-18
 -1      1182 9.63574E-05-2.89198E-05-2.89249E-05-5.15896E-10 1.74957E-20-1.29975E-18
 -1      1183 9.71483E-05-2.91632E-05-2.91738E-05-4.58578E-09 8.01720E-20-1.30591E-18
 -1      1184 9.83104E-05-2.95189E-05-2.95411E-05-1.42231E-08 1.68019E-19-3.23355E-18
 -1      1185 1.00001E-04-3.00390E-05-3.00768E-05-3.47758E-08 2.31793E-19-4.41027E-18
 -1      1186 1.02556E-04-3.08172E-05-3.08902E-05-6.65783E-08-9.51986E-20-3.38624E-18
 -1      1187 1.06539E-04-3.20261E-05-3.21596E-05-1.35708E-07-5.36708E-20-1.86313E-18
 -1      1188 1.12617E-04-3.38605E-05-3.40902E-05-2.64983E-07-1.43132E-19-1.69915E-18
 -1      1189 1.21750E-04-3.66052E-05-3.69506E-05-4.93857E-07 1.92462E-19 2.97520E-20
 -1      1190 1.34975E-04-4.05755E-05-4.09480E-05-8.55491E-07-1.38305E-20-8.34327E-20
 -1      1191 1.52629E-04-4.58947E-05-4.59081E-05-1.28545E-06-8.98583E-20 1.68305E-18
 -1      1192 1.72212E-04-5.18270E-05-5.06970E-05-1.33630E-06 2.26912E-20 8.12516E-19
 -1      1193 1.84729E-04-5.55374E-05-5.28446E-05 9.06684E-09-8.35916E-20 9.28772E-19
 -1      1194 1.74936E-04-5.21908E-05-4.99197E-05 3.93121E-06-2.87687E-19 1.78385E-18
 -1      1195 1.36431E-04-3.93871E-05-4.27094E-05 7.50844E-06 1.73351E-19 3.71509E-18
 -1      1196 9.16658E-05-2.58321E-05-3.53657E-05 5.66401E-06 6.81438E-19 1.44419E-19
 -1      1197 8.22200E-05-2.31234E-05-3.38589E-05-3.22218E-06-7.62330E-21-6.81226E-19
 -1      1198 1.19212E-04-3.47479E-05-3.94243E-05-8.01371E-06 3.94241E-19-2.84518E-18
 -1      1199 1.60851E-04-4.75783E-05-4.68334E-05-5.35482E-06-2.85344E-20-6.90925E-18
 -1      1200 1.82811E-04-5.45280E-05-5.19495E-05-1.63580E-06-2.82274E-19-5.58809E-18
 -1      1201 1.80849E-04-5.43929E-05-5.23981E-05 8.10140E-07-8.55636E-20-1.66569E-18
 -1      1202 1.63572E-04-4.92050E-05-4.86868E-05 1.42376E-06 2.40911E-19-3.75701E-18
 -1      1203 1.44092E-04-4.33149E-05-4.35565E-05 1.11095E-06 7.60808E-20-5.79328E-18
 -1      1204 1.28151E-04-3.85176E-05-3.89047E-05 6.90205E-07-4.57576E-19-5.81086E-18
 -1      1205 1.16862E-04-3.51443E-05-3.54343E-05 3.71717E-07 1.97339E-19-4.14729E-18
 -1      1206 1.09078E-04-3.27892E-05-3.29803E-05 2.20062E-07 1.24679E-19 2.79203E-19
 -1      1207 1.03671E-04-3.11569E-05-3.12656E-05 1.18815E-07-9.99797E-20 3.56502E-18
 -1      1208 1.00050E-04-3.00588E-05-3.01205E-05 6.67496E-08 4.12505E-19 1.15725E-18
 -1      1209 9.76327E-05-2.93240E-05-2.93648E-05 3.82242E-08 1.17686E-19-4.23338E-19
 -1      1210 9.60848E-05-2.88534E-05-2.88898E-05 1.60889E-08-1.10075E-19-1.11573E-18
 -1      1211 9.52920E-05-2.86236E-05-2.86294E-05-3.00203E-08-4.24090E-19 2.46103E-18
 -1      1212 9.51369E-05-2.85415E-05-2.84992E-05-3.84613E-08 3.10814E-19 3.44687E-18
 -1      1213 9.52725E-05-2.86718E-05-2.85020E-05-2.92831E-08 4.05948E-18-9.33119E-19
 -1      1214 9.51937E-05-2.84824E-05-2.86372E-05-2.29675E-08 1.16865E-18-5.09530E-19
 -1      1215 9.49748E-05-2.77129E-05-2.88658E-05 4.96805E-08-6.91157E-18 1.43307E-19
 -1      1216 9.46413E-05-2.65656E-05-2.91745E-05 6.66288E-08-7.90940E-18-2.27073E-19
 -1      1217 9.43109E-05-2.54361E-05-2.94831E-05 5.65585E-08-7.27089E-18 6.07163E-19
 -1      1218 9.40729E-05-2.46258E-05-2.97105E-05 3.20454E-08-2.82802E-18-6.00146E-19
 -1      1219 9.39682E-05-2.42770E-05-2.98141E-05 6.17315E-09 9.11723E-19 2.27164E-19
 -1      1220 9.40013E-05-2.44000E-05-2.97869E-05-1.62264E-08 4.66715E-18-1.69412E-19
 -1      1221 9.41459E-05-2.49018E-05-2.96514E-05-2.97308E-08 9.78238E-18 7.07523E-19
 -1      1222 9.43572E-05-2.56272E-05-2.94490E-05-3.37823E-08 1.12712E-17 5.99586E-19
 -1      1223 9.45888E-05-2.64167E-05-2.92239E-05-3.03555E-08 6.09632E-18-8.91296E-19
 -1      1224 9.48021E-05-2.71390E-05-2.90140E-05-2.25594E-08-2.94260E-18 2.43220E-19
 -1      1225 9.49770E-05-2.77266E-05-2.88398E-05-1.43960E-08-3.93335E-18-1.99295E-20
 -1      1226 9.51066E-05-2.81578E-05-2.87098E-05-7.06188E-09 1.27326E-18 1.25868E-19
 -1      1227 9.51930E-05-2.84376E-05-2.86252E-05-2.98295E-09 1.25963E-18-5.06684E-19
 -1      1228 9.52264E-05-2.85629E-05-2.85796E-05 1.19945E-08 1.15127E-18-2.93158E-19
 -1      1229 9.52437E-05-2.85918E-05-2.85574E-05 7.31115E-09 5.89549E-19 3.39028E-19
 -1      1230 3.96998E-05-1.26300E-04 2.27892E-05-1.85547E-05-4.15523E-18-9.26231E-19
 -1      1231 2.28744E-05-9.32793E-05 1.62972E-05-4.03293E-05-7.13202E-19 2.16840E-19
 -1      1232 6.26066E-06-3.53052E-05 1.15332E-06-2.44088E-05 5.38374E-18 4.18180E-18
 -1      1233 2.32743E-05 8.94760E-06-2.03984E-05 2.68145E-05 1.21041E-17 1.12909E-17
 -1      1234 1.00736E-04 1.02155E-05-4.57247E-05 9.06040E-05 1.05540E-17 1.55905E-17
 -1      1235 2.33900E-04-3.87453E-05-7.05052E-05 1.20320E-04 6.31378E-18 1.42640E-17
 -1      1236 3.60288E-04-1.01706E-04-8.78086E-05 7.43277E-05 1.90635E-18 7.08120E-18
 -1      1237 3.95301E-04-1.20235E-04-9.17007E-05-2.53104E-05 2.90109E-19-2.40557E-18
 -1      1238 3.16309E-04-7.86914E-05-8.21714E-05-1.03164E-04 1.95749E-18-6.65598E-18
 -1      1239 1.80253E-04-1.63583E-05-6.18031E-05-1.16586E-04 5.60058E-18-1.02931E-17
 -1      1240 6.40130E-05 1.54439E-05-3.60191E-05-6.77354E-05 8.97686E-18-1.14671E-17
 -1      1241 1.11099E-05-5.24577E-06-1.12355E-05-3.11269E-06 1.34814E-17-1.05083E-17
 -1      1242 1.03654E-05-5.87555E-05 8.17812E-06 3.66697E-05 1.08336E-17-6.14692E-18
 -1      1243 3.05552E-05-1.10194E-04 1.97191E-05 3.56247E-05 4.98691E-18-1.56034E-18
 -1      1244 3.98657E-05-1.26201E-04 2.29480E-05 6.89871E-06-3.26531E-18-8.43433E-19
 -1      1245 3.00534E-05-9.83718E-05 1.68154E-05-1.99349E-05-8.00192E-18-1.87152E-18
 -1      1246 1.08181E-05-3.66851E-05 2.63519E-06-1.44719E-05-1.14959E-17-4.36264E-18
 -1      1247 1.43440E-05 1.66816E-05-1.66048E-05 2.75401E-05-6.29345E-18-4.30123E-18
 -1      1248 6.07874E-05 3.18194E-05-3.73934E-05 8.33048E-05-5.59381E-18-6.02749E-18
 -1      1249 1.47338E-04 4.02416E-06-5.73684E-05 1.20739E-04-6.74323E-18-1.26411E-17
 -1      1250 2.45347E-04-4.76449E-05-7.29727E-05 1.12150E-04-4.05559E-18-1.10097E-17
 -1      1251 3.15737E-04-9.05598E-05-8.20567E-05 5.47945E-05-9.23028E-19-5.13853E-18
 -1      1252 3.24919E-04-9.60432E-05-8.33239E-05-2.90710E-05 1.16546E-19-1.42577E-18
 -1      1253 2.72444E-04-6.35426E-05-7.64791E-05-9.86965E-05 4.21822E-19-2.30393E-18
 -1      1254 1.78011E-04-1.08273E-05-6.26521E-05-1.23165E-04-3.76337E-18 4.53840E-18
 -1      1255 8.39420E-05 2.76257E-05-4.38356E-05-9.85835E-05-9.20132E-18 1.04897E-17
 -1      1256 2.45112E-05 2.73924E-05-2.36997E-05-4.67211E-05-1.12994E-17 8.28822E-18
 -1      1257 7.29582E-06-1.13683E-05-4.78829E-06 1.83721E-06-1.23091E-17 6.79829E-18
 -1      1258 1.91703E-05-6.86409E-05 1.06690E-05 2.31472E-05-7.52335E-18 3.51519E-18
 -1      1259 3.71433E-05-1.15850E-04 2.04216E-05 1.23619E-05-2.79182E-18 2.25655E-19
 -1      1260 1.04467E-04-2.20248E-05-3.79007E-05-1.72829E-05-5.28125E-19 9.68667E-18
 -1      1261 9.03309E-05-6.68123E-06-3.60225E-05-2.04840E-05-1.48697E-18-1.07308E-19
 -1      1262 9.26706E-05-6.73986E-06-3.72288E-05-2.57728E-05-1.90752E-18 2.15072E-18
 -1      1263 8.59073E-05-4.09196E-06-3.51336E-05-1.64475E-05-1.50640E-18-3.30200E-18
 -1      1264 8.71629E-05-4.08710E-06-3.56039E-05-1.88664E-05-1.68872E-18-1.94061E-18
 -1      1265 9.21433E-05-1.04621E-05-3.50982E-05-1.90465E-05-2.62048E-18-8.07858E-20
 -1      1266 8.41048E-05-3.19102E-06-3.46894E-05-1.28355E-05-1.19744E-18-4.86211E-18
 -1      1267 8.47125E-05-3.15978E-06-3.49140E-05-1.46508E-05-1.38098E-18-4.16163E-18
 -1      1268 8.78728E-05-7.38951E-06-3.45773E-05-1.54328E-05-2.36826E-18-2.71101E-18
 -1      1269 8.31887E-05-2.72623E-06-3.44717E-05-9.70311E-06-8.89861E-19-5.62414E-18
 -1      1270 8.35056E-05-2.70971E-06-3.45815E-05-1.12498E-05-1.01341E-18-5.28136E-18
 -1      1271 8.58721E-05-5.98303E-06-3.43072E-05-1.19731E-05-1.81899E-18-4.05806E-18
 -1      1272 8.26939E-05-2.45499E-06-3.43649E-05-6.93468E-06-6.11955E-19-5.89956E-18
 -1      1273 8.28643E-05-2.44650E-06-3.44196E-05-8.30442E-06-7.31023E-19-5.75892E-18
 -1      1274 8.48211E-05-5.21304E-06-3.41745E-05-8.96182E-06-1.34531E-18-4.65376E-18
 -1      1275 8.24168E-05-2.28910E-06-3.43115E-05-4.31724E-06-3.19619E-19-5.98659E-18
 -1      1276 8.25087E-05-2.28514E-06-3.43391E-05-5.61711E-06-4.16710E-19-5.94940E-18
 -1      1277 8.42331E-05-4.75679E-06-3.41107E-05-6.23713E-06-8.69810E-19-4.95403E-18
 -1      1278 8.22825E-05-2.19898E-06-3.42887E-05-1.81554E-06-6.26424E-20-5.99596E-18
 -1      1279 8.23223E-05-2.19741E-06-3.43001E-05-3.06481E-06-1.31763E-19-5.98987E-18
 -1      1280 8.39084E-05-4.49194E-06-3.40813E-05-3.66764E-06-3.84850E-19-4.97399E-18
 -1      1281 8.22542E-05-2.17027E-06-3.42857E-05 6.39899E-07 1.76646E-19-5.92105E-18
 -1      1282 8.22538E-05-2.17035E-06-3.42856E-05-5.93544E-07 1.00095E-19-5.98134E-18
 -1      1283 8.37644E-05-4.37043E-06-3.40701E-05-1.19676E-06 3.62808E-20-4.98943E-18
 -1      1284 8.23250E-05-2.19859E-06-3.43006E-05 3.11228E-06 4.35779E-19-5.77912E-18
 -1      1285 8.22843E-05-2.20032E-06-3.42890E-05 1.86217E-06 3.57278E-19-5.86078E-18
 -1      1286 8.37659E-05-4.37172E-06-3.40702E-05 1.24311E-06 4.50584E-19-4.92110E-18
 -1      1287 8.25145E-05-2.28830E-06-3.43402E-05 5.66732E-06 6.76101E-19-5.54654E-18
 -1      1288 8.24213E-05-2.29192E-06-3.43123E-05 4.36555E-06 5.96903E-19-5.70682E-18
 -1      1289 8.39131E-05-4.49596E-06-3.40818E-05 3.71537E-06 8.67281E-19-4.75887E-18
 -1      1290 8.28691E-05-2.44829E-06-3.44210E-05 8.33475E-06 9.53594E-19-5.07498E-18
 -1      1291 8.26980E-05-2.45743E-06-3.43658E-05 6.96342E-06 8.53945E-19-5.34556E-18
 -1      1292 8.42386E-05-4.76112E-06-3.41112E-05 6.26502E-06 1.23242E-18-4.46130E-18
 -1      1293 8.35220E-05-2.71599E-06-3.45858E-05 1.13109E-05 1.29146E-18-4.27267E-18
 -1      1294 8.32015E-05-2.73362E-06-3.44745E-05 9.75990E-06 1.14675E-18-4.75493E-18
 -1      1295 8.48308E-05-5.22033E-06-3.41756E-05 8.99411E-06 1.72364E-18-3.95768E-18
 -1      1296 8.47432E-05-3.17026E-06-3.49229E-05 1.47225E-05 1.63401E-18-2.88142E-18
 -1      1297 8.41281E-05-3.20270E-06-3.46951E-05 1.29005E-05 1.45196E-18-3.72791E-18
 -1      1298 8.58998E-05-6.00251E-06-3.43107E-05 1.20358E-05 2.23399E-18-3.07611E-18
 -1      1299 8.72265E-05-4.10252E-06-3.56233E-05 1.89560E-05 1.81800E-18-2.41193E-19
 -1      1300 8.59534E-05-4.11309E-06-3.51454E-05 1.65258E-05 1.64941E-18-1.83404E-18
 -1      1301 8.79273E-05-7.42595E-06-3.45844E-05 1.55111E-05 2.63893E-18-1.40766E-18
 -1      1302 9.27502E-05-6.66710E-06-3.72439E-05 2.59260E-05 1.88401E-18 4.20382E-18
 -1      1303 9.04270E-05-6.72098E-06-3.60468E-05 2.05936E-05 1.52529E-18 1.73366E-18
 -1      1304 9.22623E-05-1.05460E-05-3.51104E-05 1.91467E-05 2.71490E-18 1.53954E-18
 -1      1305 1.04907E-04-2.20200E-05-3.80621E-05 1.76440E-05 3.98529E-19 1.20666E-17
 -1      1306 1.05173E-04-3.02378E-05-3.35332E-05-7.96593E-06-1.56775E-18 1.02053E-17
 -1      1307 9.82807E-05-2.78483E-05-3.07684E-05-4.99357E-06-1.47172E-18 8.36773E-18
 -1      1308 9.55199E-05-2.78538E-05-2.92599E-05-2.49327E-06-1.13688E-18 7.62035E-18
 -1      1309 9.32846E-05-2.75621E-05-2.82195E-05-2.04618E-06-1.07605E-18 5.97571E-18
 -1      1310 9.95024E-05-2.80560E-05-3.09885E-05-7.89556E-06-2.51288E-18 4.42085E-18
 -1      1311 9.15929E-05-2.72038E-05-2.75845E-05-8.40398E-07-9.05895E-19 5.35510E-18
 -1      1312 9.08744E-05-2.71079E-05-2.72816E-05-7.30032E-07-8.47854E-19 4.08209E-18
 -1      1313 9.47311E-05-2.77732E-05-2.88204E-05-3.12592E-06-1.90027E-18 3.21067E-18
 -1      1314 9.01231E-05-2.69248E-05-2.70380E-05-1.75275E-07-6.94024E-19 3.41076E-18
 -1      1315 9.00493E-05-2.69512E-05-2.70028E-05-1.17177E-07-6.53526E-19 2.41181E-18
 -1      1316 9.25288E-05-2.75024E-05-2.78986E-05-1.05663E-06-1.54219E-18 2.10370E-18
 -1      1317 8.97893E-05-2.68835E-05-2.69285E-05 1.53567E-07-4.21253E-19 2.04201E-18
 -1      1318 9.00031E-05-2.69733E-05-2.69900E-05 1.82407E-07-3.41205E-19 1.45171E-18
 -1      1319 9.15687E-05-2.73581E-05-2.75313E-05-7.20632E-08-1.08322E-18 1.08952E-18
 -1      1320 9.00072E-05-2.69765E-05-2.69966E-05 3.14300E-07-4.23942E-19 1.29396E-18
 -1      1321 9.03496E-05-2.70962E-05-2.70957E-05 3.26224E-07-4.16067E-19 7.74625E-19
 -1      1322 9.13153E-05-2.73459E-05-2.74234E-05 4.16809E-07-7.85219E-19 5.25342E-19
 -1      1323 9.04928E-05-2.71382E-05-2.71433E-05 3.81740E-07-3.15571E-19 5.33492E-19
 -1      1324 9.08816E-05-2.72668E-05-2.72556E-05 3.83646E-07-4.14147E-19 9.13737E-20
 -1      1325 9.14494E-05-2.74198E-05-2.74461E-05 6.47174E-07-6.89056E-19 1.70626E-19
 -1      1326 9.10919E-05-2.73277E-05-2.73228E-05 3.95388E-07-3.80401E-19-2.93881E-20
 -1      1327 9.14817E-05-2.74531E-05-2.74357E-05 3.91484E-07-3.17133E-19-4.23096E-19
 -1      1328 9.17853E-05-2.75395E-05-2.75360E-05 7.32170E-07-6.86572E-19-3.95894E-19
 -1      1329 9.17167E-05-2.75208E-05-2.75098E-05 3.78485E-07-2.55031E-19-5.68184E-19
 -1      1330 9.20825E-05-2.76363E-05-2.76163E-05 3.71499E-07-3.96449E-19-9.30697E-19
 -1      1331 9.22127E-05-2.76781E-05-2.76578E-05 7.33820E-07-6.00985E-19-6.41488E-19
 -1      1332 9.23174E-05-2.77038E-05-2.76900E-05 3.45619E-07-4.38326E-19-9.23964E-19
 -1      1333 9.26469E-05-2.78066E-05-2.77863E-05 3.37354E-07-1.51971E-19-1.39916E-18
 -1      1334 9.26661E-05-2.78190E-05-2.77905E-05 6.89406E-07-5.14666E-19-6.11007E-19
 -1      1335 9.28680E-05-2.78699E-05-2.78555E-05 3.06259E-07-9.41212E-20-1.66852E-18
 -1      1336 9.31571E-05-2.79592E-05-2.79403E-05 2.97917E-07-1.76326E-19-1.84599E-18
 -1      1337 9.31074E-05-2.79527E-05-2.79218E-05 6.22582E-07-3.76281E-19-9.77112E-19
 -1      1338 9.33583E-05-2.80167E-05-2.80032E-05 2.66621E-07-2.54579E-19-2.00620E-18
 -1      1339 9.36081E-05-2.80931E-05-2.80767E-05 2.58990E-07-2.10715E-19-2.49756E-18
 -1      1340 9.35171E-05-2.80747E-05-2.80449E-05 5.48758E-07-3.57065E-19-1.53765E-18
 -1      1341 9.37878E-05-2.81444E-05-2.81329E-05 2.30733E-07 5.76274E-20-2.43860E-18
 -1      1342 9.40028E-05-2.82096E-05-2.81963E-05 2.24312E-07-4.67068E-20-2.17764E-18
 -1      1343 9.38872E-05-2.81833E-05-2.81571E-05 4.77989E-07-1.95069E-19-1.80308E-18
 -1      1344 9.41629E-05-2.82552E-05-2.82463E-05 2.01088E-07 4.45901E-20-2.22068E-18
 -1      1345 9.43496E-05-2.83115E-05-2.83016E-05 1.96168E-07-4.79475E-20-2.21890E-18
 -1      1346 9.42179E-05-2.82792E-05-2.82580E-05 4.16672E-07-3.64249E-20-1.51827E-18
 -1      1347 9.44937E-05-2.83525E-05-2.83465E-05 1.79037E-07-2.59964E-19-2.15293E-18
 -1      1348 9.46597E-05-2.84023E-05-2.83957E-05 1.75738E-07-2.85586E-19-2.52994E-18
 -1      1349 9.45144E-05-2.83643E-05-2.83489E-05 3.68557E-07-1.40674E-19-1.94573E-18
 -1      1350 9.47924E-05-2.84401E-05-2.84371E-05 1.64962E-07-1.25183E-21-2.32315E-18
 -1      1351 9.49455E-05-2.84859E-05-2.84825E-05 1.63250E-07 1.08788E-20-2.31413E-18
 -1      1352 9.47845E-05-2.84415E-05-2.84320E-05 3.35301E-07-2.68814E-19-1.67709E-18
 -1      1353 9.50715E-05-2.85220E-05-2.85217E-05 1.58280E-07-2.39830E-19-2.30139E-18
 -1      1354 9.52187E-05-2.85662E-05-2.85654E-05 1.57938E-07-2.78532E-19-2.73884E-18
 -1      1355 9.50374E-05-2.85139E-05-2.85098E-05 3.16620E-07-5.03577E-21-1.73864E-18
 -1      1356 9.53419E-05-2.86018E-05-2.86035E-05 1.57243E-07-4.00621E-19-2.64369E-18
 -1      1357 9.54883E-05-2.86462E-05-2.86469E-05 1.57814E-07-4.94461E-19-3.19781E-18
 -1      1358 9.52815E-05-2.85846E-05-2.85845E-05 3.10078E-07-5.33019E-19-1.93921E-18
 -1      1359 9.56108E-05-2.86821E-05-2.86845E-05 1.58571E-07-3.71642E-19-3.46443E-18
 -1      1360 9.57584E-05-2.87276E-05-2.87281E-05 1.59254E-07-3.85240E-19-3.73296E-18
 -1      1361 9.55228E-05-2.86559E-05-2.86575E-05 3.10522E-07-7.35457E-19-1.72349E-18
 -1      1362 9.58788E-05-2.87636E-05-2.87646E-05 1.56915E-07 2.35435E-19-4.47742E-18
 -1      1363 9.60240E-05-2.88095E-05-2.88072E-05 1.56446E-07 2.01915E-21-4.01805E-18
 -1      1364 9.57626E-05-2.87294E-05-2.87286E-05 3.09190E-07-3.17797E-19-2.23571E-18
 -1      1365 9.61364E-05-2.88444E-05-2.88406E-05 1.44282E-07 1.49428E-19-3.49185E-18
 -1      1366 9.62677E-05-2.88875E-05-2.88786E-05 1.40799E-07 4.74098E-19-3.09092E-18
 -1      1367 9.59943E-05-2.88042E-05-2.87952E-05 2.92642E-07 3.51154E-19-3.08713E-18
 -1      1368 9.63592E-05-2.89179E-05-2.89046E-05 1.09583E-07 3.27291E-19-3.07845E-18
 -1      1369 9.64541E-05-2.89517E-05-2.89313E-05 1.00552E-07-4.21465E-20-2.84233E-18
 -1      1370 9.62000E-05-2.88765E-05-2.88511E-05 2.41819E-07 5.63446E-19-2.88821E-18
 -1      1371 9.65030E-05-2.89718E-05-2.89430E-05 3.87222E-08-1.83153E-19-2.40649E-18
 -1      1372 9.65253E-05-2.89853E-05-2.89477E-05 2.10050E-08 4.24956E-20-2.61809E-18
 -1      1373 9.63468E-05-2.89378E-05-2.88857E-05 1.31810E-07 1.38327E-19-2.08396E-18
 -1      1374 9.65002E-05-2.89863E-05-2.89349E-05-8.42186E-08 3.05534E-19-2.37070E-18
 -1      1375 9.63983E-05-2.89633E-05-2.89025E-05-1.13997E-07 3.41495E-19-1.78733E-18
 -1      1376 9.63836E-05-2.89736E-05-2.88830E-05-6.66910E-08 3.28726E-19-1.69501E-18
 -1      1377 9.62577E-05-2.89329E-05-2.88527E-05-2.73925E-07 1.28038E-19-1.95161E-18
 -1      1378 9.59667E-05-2.88524E-05-2.87645E-05-3.18528E-07-2.35033E-19-2.01005E-18
 -1      1379 9.62390E-05-2.89618E-05-2.88221E-05-3.82938E-07 1.58623E-19-1.69180E-18
 -1      1380 9.56628E-05-2.87755E-05-2.86633E-05-5.38257E-07-3.14196E-19-2.11323E-18
 -1      1381 9.51119E-05-2.86136E-05-2.84994E-05-5.98386E-07-2.53365E-19-2.70464E-18
 -1      1382 9.58252E-05-2.88724E-05-2.86784E-05-8.37328E-07-4.43053E-19-1.66094E-18
 -1      1383 9.45981E-05-2.84742E-05-2.83339E-05-8.70110E-07-2.14192E-19-2.55480E-18
 -1      1384 9.37259E-05-2.82086E-05-2.80775E-05-9.42424E-07-1.30501E-19-3.25543E-18
 -1      1385 9.50471E-05-2.86697E-05-2.84275E-05-1.42771E-06-5.29432E-19-2.03949E-18
 -1      1386 9.29705E-05-2.79938E-05-2.78401E-05-1.23827E-06 4.91631E-19-2.72372E-18
 -1      1387 9.17492E-05-2.76118E-05-2.74848E-05-1.31344E-06 3.93951E-19-1.72998E-18
 -1      1388 9.38239E-05-2.83174E-05-2.80517E-05-2.11251E-06 4.45142E-19-1.97140E-18
 -1      1389 9.07536E-05-2.73175E-05-2.71786E-05-1.58128E-06-1.21510E-19-1.53985E-18
 -1      1390 8.92173E-05-2.68263E-05-2.67358E-05-1.64322E-06 2.90460E-19-1.03783E-18
 -1      1391 9.21198E-05-2.77908E-05-2.75482E-05-2.79652E-06 2.87596E-19-7.52238E-19
 -1      1392 8.80348E-05-2.64647E-05-2.63795E-05-1.81062E-06-2.45466E-19-1.29289E-18
 -1      1393 8.63032E-05-2.59006E-05-2.58848E-05-1.83864E-06-7.09785E-19-2.20194E-18
 -1      1394 8.99826E-05-2.70922E-05-2.69385E-05-3.32955E-06-1.67148E-19-1.15102E-18
 -1      1395 8.50503E-05-2.55062E-05-2.55144E-05-1.82951E-06-4.26857E-19-1.77539E-18
 -1      1396 8.33323E-05-2.49377E-05-2.50272E-05-1.80432E-06 2.67590E-19-1.81464E-18
 -1      1397 8.75758E-05-2.62685E-05-2.62731E-05-3.53039E-06-7.68318E-19-9.19286E-19
 -1      1398 8.21815E-05-2.45666E-05-2.46925E-05-1.56731E-06 7.69571E-19-2.29523E-18
 -1      1399 8.07451E-05-2.40856E-05-2.42877E-05-1.47995E-06 7.60593E-20-1.47929E-18
 -1      1400 8.51862E-05-2.54204E-05-2.56303E-05-3.24125E-06 4.86134E-19-1.68144E-18
 -1      1401 7.98919E-05-2.38057E-05-2.40426E-05-1.01835E-06-6.06611E-19-1.34321E-18
 -1      1402 7.90000E-05-2.35048E-05-2.37921E-05-8.77690E-07-1.57528E-19-1.83309E-18
 -1      1403 8.31849E-05-2.46909E-05-2.51035E-05-2.40002E-06-1.61135E-21-2.76880E-18
 -1      1404 7.86093E-05-2.33757E-05-2.36805E-05-2.63487E-07 6.10542E-19-1.02385E-18
 -1      1405 7.84400E-05-2.33188E-05-2.36329E-05-9.69445E-08 3.87197E-19-5.66252E-19
 -1      1406 8.19390E-05-2.42295E-05-2.47799E-05-1.09624E-06 2.91512E-19-2.04681E-18
 -1      1407 7.85913E-05-2.33696E-05-2.36757E-05 5.45051E-07-4.43061E-19-2.18118E-19
 -1      1408 7.91770E-05-2.35684E-05-2.38396E-05 7.00207E-07-3.12297E-19-1.00180E-18
 -1      1409 8.16993E-05-2.41416E-05-2.47171E-05 4.29392E-07 2.84894E-19-1.28266E-18
 -1      1410 7.98352E-05-2.37862E-05-2.40275E-05 1.23504E-06-2.54388E-19-1.40350E-18
 -1      1411 8.10509E-05-2.41959E-05-2.43692E-05 1.34593E-06-1.64126E-19-1.90246E-18
 -1      1412 8.25115E-05-2.44468E-05-2.49255E-05 1.85739E-06-6.76544E-19-1.02661E-18
 -1      1413 8.20794E-05-2.45310E-05-2.46661E-05 1.67635E-06-4.94125E-20-2.18441E-18
 -1      1414 8.36862E-05-2.50666E-05-2.51201E-05 1.72600E-06-4.44568E-19-2.11267E-18
 -1      1415 8.41993E-05-2.50706E-05-2.53648E-05 2.90290E-06-6.19790E-19-8.80663E-19
 -1      1416 8.48938E-05-2.54518E-05-2.54741E-05 1.82054E-06-1.19664E-19-1.33602E-18
 -1      1417 8.66147E-05-2.60172E-05-2.59637E-05 1.81117E-06 3.20138E-19-1.17648E-18
 -1      1418 8.64278E-05-2.58749E-05-2.59564E-05 3.41004E-06-2.11602E-19-9.04790E-19
 -1      1419 8.78129E-05-2.63890E-05-2.63215E-05 1.70191E-06-2.03401E-19-1.59682E-18
 -1      1420 8.94075E-05-2.69038E-05-2.67790E-05 1.64972E-06-9.18592E-19-2.41400E-18
 -1      1421 8.88124E-05-2.67077E-05-2.66060E-05 3.38276E-06-9.06830E-20-1.27339E-18
 -1      1422 9.04537E-05-2.72179E-05-2.70978E-05 1.40698E-06-7.70145E-19-2.43900E-18
 -1      1423 9.17634E-05-2.76318E-05-2.74771E-05 1.33322E-06-6.59682E-19-3.77648E-18
 -1      1424 9.10219E-05-2.74472E-05-2.72265E-05 2.94902E-06-9.06965E-19-1.68137E-18
 -1      1425 9.25787E-05-2.78675E-05-2.77311E-05 1.03471E-06-7.53606E-19-4.10872E-18
 -1      1426 9.35363E-05-2.81623E-05-2.80114E-05 9.58092E-07-2.50718E-19-4.84227E-18
 -1      1427 9.28398E-05-2.80242E-05-2.77550E-05 2.29039E-06-1.18083E-18-1.94023E-18
 -1      1428 9.41012E-05-2.83180E-05-2.81920E-05 6.66830E-07 8.07032E-19-3.89285E-18
 -1      1429 9.47144E-05-2.85000E-05-2.83738E-05 5.99886E-07 1.04973E-18-2.91028E-18
 -1      1430 9.41747E-05-2.84198E-05-2.81590E-05 1.57732E-06 5.22232E-19-2.11071E-18
 -1      1431 9.50519E-05-2.85863E-05-2.84857E-05 3.55467E-07 7.56058E-19-1.62112E-18
 -1      1432 9.53756E-05-2.86761E-05-2.85837E-05 3.04319E-07 1.33851E-18-1.86015E-19
 -1      1433 9.50360E-05-2.86506E-05-2.84333E-05 9.32628E-07 1.85532E-18-5.68662E-20
 -1      1434 9.55323E-05-2.87096E-05-2.86395E-05 1.24507E-07 6.36491E-19-7.89438E-19
 -1      1435 9.56430E-05-2.87332E-05-2.86753E-05 9.05566E-08 3.38380E-19-3.32968E-19
 -1      1436 9.54969E-05-2.87512E-05-2.85927E-05 4.23945E-07 1.10289E-18-7.68426E-20
 -1      1437 9.56739E-05-2.87314E-05-2.86913E-05-2.22237E-08-1.31304E-19-6.24609E-19
 -1      1438 9.56513E-05-2.87149E-05-2.86878E-05-4.02070E-08-6.96740E-19-1.44659E-18
 -1      1439 9.56597E-05-2.87612E-05-2.86632E-05 7.42132E-08-2.10718E-19-1.47264E-18
 -1      1440 9.56095E-05-2.86936E-05-2.86803E-05-9.21264E-08-6.95576E-19-1.70169E-18
 -1      1441 9.55262E-05-2.86600E-05-2.86585E-05-9.64192E-08-3.84211E-19-2.59192E-18
 -1      1442 9.56314E-05-2.87176E-05-2.86742E-05-1.21957E-07-8.86406E-19-1.81118E-18
 -1      1443 9.54571E-05-2.86324E-05-2.86417E-05-9.77832E-08 2.93459E-19-2.45426E-18
 -1      1444 9.53737E-05-2.86012E-05-2.86186E-05-9.07524E-08 4.68865E-19-2.25386E-18
 -1      1445 9.55087E-05-2.86510E-05-2.86535E-05-1.84777E-07-2.82451E-19-1.12558E-18
 -1      1446 9.53102E-05-2.85769E-05-2.86022E-05-5.51929E-08 5.81349E-19-1.81422E-18
 -1      1447 9.52693E-05-2.85658E-05-2.85874E-05-4.18942E-08 5.02790E-19-1.23310E-18
 -1      1448 9.53684E-05-2.85857E-05-2.86230E-05-1.44282E-07 8.82951E-19-1.71107E-18
 -1      1449 9.52320E-05-2.85676E-05-2.85689E-05 6.14620E-09 7.74167E-20-2.61801E-19
 -1      1450 9.52592E-05-2.85557E-05-2.85877E-05-3.71383E-08 8.51238E-19-4.67575E-19
 -1      1451 9.86094E-05-2.78362E-05-3.09551E-05 5.26163E-06 1.42106E-18 1.07488E-17
 -1      1452 1.05735E-04-3.01628E-05-3.38056E-05 8.43829E-06 1.48887E-18 1.24366E-17
 -1      1453 9.34762E-05-2.76014E-05-2.82973E-05 2.14730E-06 1.20909E-18 8.31855E-18
 -1      1454 9.58183E-05-2.79010E-05-2.93918E-05 2.60142E-06 1.21472E-18 9.99978E-18
 -1      1455 9.97319E-05-2.79342E-05-3.11339E-05 8.27586E-06 2.51251E-18 6.18096E-18
 -1      1456 9.09482E-05-2.71211E-05-2.73099E-05 7.75422E-07 8.62121E-19 6.45765E-18
 -1      1457 9.17127E-05-2.72234E-05-2.76343E-05 8.91500E-07 9.51972E-19 7.67197E-18
 -1      1458 9.48976E-05-2.77901E-05-2.88913E-05 3.29233E-06 2.01657E-18 5.08299E-18
 -1      1459 9.00677E-05-2.69535E-05-2.70093E-05 1.38682E-07 5.91725E-19 5.03183E-18
 -1      1460 9.01631E-05-2.69313E-05-2.70532E-05 1.99481E-07 7.35417E-19 5.89935E-18
 -1      1461 9.26025E-05-2.75101E-05-2.79289E-05 1.12949E-06 1.49355E-18 3.87332E-18
 -1      1462 8.99935E-05-2.69690E-05-2.69870E-05-1.71173E-07 3.62980E-19 4.03876E-18
 -1      1463 8.97899E-05-2.68818E-05-2.69289E-05-1.41412E-07 3.86642E-19 4.60262E-18
 -1      1464 9.15961E-05-2.73613E-05-2.75421E-05 1.07558E-07 1.01238E-18 2.91029E-18
 -1      1465 9.03240E-05-2.70872E-05-2.70882E-05-3.20578E-07 1.32944E-19 3.56970E-18
 -1      1466 8.99876E-05-2.69703E-05-2.69906E-05-3.08495E-07 2.48536E-19 3.83654E-18
 -1      1467 9.13155E-05-2.73430E-05-2.74247E-05-3.98641E-07 6.33326E-19 2.32678E-18
 -1      1468 9.08194E-05-2.72466E-05-2.72372E-05-3.79636E-07 2.66970E-19 3.29935E-18
 -1      1469 9.04517E-05-2.71256E-05-2.71311E-05-3.77775E-07 1.52560E-19 3.52842E-18
 -1      1470 9.14290E-05-2.74134E-05-2.74402E-05-6.35546E-07 3.06801E-19 2.01619E-18
 -1      1471 9.14159E-05-2.74330E-05-2.74159E-05-3.90846E-07 3.57397E-19 2.45511E-18
 -1      1472 9.10263E-05-2.73077E-05-2.73030E-05-3.94323E-07 4.66858E-19 3.06058E-18
 -1      1473 9.17431E-05-2.75252E-05-2.75242E-05-7.26024E-07 6.40615E-19 1.64155E-18
 -1      1474 9.20157E-05-2.76163E-05-2.75961E-05-3.72363E-07 3.93361E-19 1.63405E-18
 -1      1475 9.16486E-05-2.75001E-05-2.74894E-05-3.79288E-07 5.12408E-19 2.25217E-18
 -1      1476 9.21636E-05-2.76629E-05-2.76434E-05-7.33091E-07 9.05966E-19 1.34562E-18
 -1      1477 9.25808E-05-2.77869E-05-2.77663E-05-3.38448E-07 2.28254E-19 9.17264E-19
 -1      1478 9.22500E-05-2.76836E-05-2.76697E-05-3.46818E-07 2.29658E-19 1.30166E-18
 -1      1479 9.26142E-05-2.78035E-05-2.77750E-05-6.90911E-07 5.89990E-19 9.03311E-19
 -1      1480 9.30917E-05-2.79399E-05-2.79204E-05-2.98388E-07 3.25327E-19 5.01070E-19
 -1      1481 9.28020E-05-2.78504E-05-2.78355E-05-3.06968E-07 2.54051E-19 7.53661E-19
 -1      1482 9.30551E-05-2.79375E-05-2.79059E-05-6.24113E-07 4.41598E-19 2.64934E-19
 -1      1483 9.35423E-05-2.80737E-05-2.80567E-05-2.58377E-07 2.75009E-19 4.45908E-20
 -1      1484 9.32931E-05-2.79975E-05-2.79834E-05-2.66317E-07 3.46339E-19 4.17109E-19
 -1      1485 9.34652E-05-2.80598E-05-2.80290E-05-5.48977E-07 5.01319E-19 1.45043E-19
 -1      1486 9.39355E-05-2.81897E-05-2.81758E-05-2.22667E-07 3.82790E-19-6.15358E-19
 -1      1487 9.37224E-05-2.81252E-05-2.81129E-05-2.29376E-07 3.08954E-19-1.20015E-19
 -1      1488 9.38361E-05-2.81687E-05-2.81414E-05-4.76468E-07 4.78001E-19-1.62131E-19
 -1      1489 9.42807E-05-2.82907E-05-2.82806E-05-1.94356E-07 1.43726E-19-1.09532E-18
 -1      1490 9.40967E-05-2.82356E-05-2.82260E-05-1.99396E-07 2.69174E-19-1.05602E-18
 -1      1491 9.41685E-05-2.82648E-05-2.82430E-05-4.14272E-07 5.66910E-19-2.87050E-19
 -1      1492 9.45781E-05-2.83770E-05-2.83710E-05-1.76719E-07 4.19538E-19-1.85393E-18
 -1      1493 9.44208E-05-2.83305E-05-2.83242E-05-1.79622E-07 2.39391E-19-1.52160E-18
 -1      1494 9.44622E-05-2.83483E-05-2.83335E-05-3.68948E-07 4.87660E-19-9.89475E-19
 -1      1495 9.48774E-05-2.84630E-05-2.84621E-05-1.70458E-07-2.08113E-19-1.33955E-18
 -1      1496 9.47197E-05-2.84170E-05-2.84151E-05-1.70980E-07 6.34429E-20-1.55952E-18
 -1      1497 9.47372E-05-2.84255E-05-2.84190E-05-3.44592E-07 3.02100E-19-1.07702E-18
 -1      1498 9.51873E-05-2.85514E-05-2.85568E-05-1.80266E-07-5.17171E-20-1.13667E-18
 -1      1499 9.50226E-05-2.85039E-05-2.85074E-05-1.77570E-07-1.70854E-19-1.22140E-18
 -1      1500 9.50168E-05-2.85023E-05-2.85068E-05-3.46427E-07-1.36774E-19-8.65335E-19
 -1      1501 9.55413E-05-2.86514E-05-2.86650E-05-2.11172E-07-2.45021E-19-1.37138E-18
 -1      1502 9.53498E-05-2.85967E-05-2.86076E-05-2.04239E-07 2.50432E-19-1.31646E-18
 -1      1503 9.53165E-05-2.85831E-05-2.86017E-05-3.83733E-07-1.47242E-20-6.11444E-19
 -1      1504 9.59845E-05-2.87757E-05-2.88008E-05-2.70964E-07-5.58905E-20-1.11967E-18
 -1      1505 9.57393E-05-2.87061E-05-2.87273E-05-2.58163E-07-1.84408E-19-1.21849E-18
 -1      1506 9.56668E-05-2.86756E-05-2.87137E-05-4.68586E-07-2.69582E-19-8.76776E-19
 -1      1507 9.65803E-05-2.89420E-05-2.89838E-05-3.71887E-07-8.92329E-20-6.72498E-19
 -1      1508 9.62429E-05-2.88463E-05-2.88826E-05-3.50603E-07-4.31871E-20-6.88514E-19
 -1      1509 9.61085E-05-2.87901E-05-2.88559E-05-6.19643E-07-2.23305E-19-5.53658E-19
 -1      1510 9.74210E-05-2.91755E-05-2.92426E-05-5.33129E-07 5.06766E-19-1.20112E-18
 -1      1511 9.69343E-05-2.90376E-05-2.90966E-05-4.99243E-07 5.18119E-19-6.87493E-19
 -1      1512 9.66984E-05-2.89404E-05-2.90471E-05-8.66019E-07 2.87020E-19 1.27424E-19
 -1      1513 9.86413E-05-2.95125E-05-2.96199E-05-7.85211E-07 4.08528E-19-2.09045E-18
 -1      1514 9.79206E-05-2.93097E-05-2.94030E-05-7.31453E-07 3.38355E-19-1.40104E-18
 -1      1515 9.75161E-05-2.91448E-05-2.93139E-05-1.25315E-06 7.67635E-19-2.37378E-19
 -1      1516 1.00340E-04-2.99822E-05-3.01455E-05-1.14975E-06-8.75157E-20-2.10574E-18
 -1      1517 9.93175E-05-2.96913E-05-2.98391E-05-1.07543E-06 4.64515E-19-2.03816E-18
 -1      1518 9.86393E-05-2.94219E-05-2.96821E-05-1.83190E-06 3.83878E-19-3.53224E-19
 -1      1519 1.02973E-04-3.07091E-05-3.09644E-05-1.72932E-06-4.56680E-19-1.77846E-18
 -1      1520 1.01354E-04-3.02463E-05-3.04778E-05-1.60349E-06-5.61047E-19-2.25820E-18
 -1      1521 1.00236E-04-2.98083E-05-3.02096E-05-2.70393E-06-4.22928E-19-3.67488E-19
 -1      1522 1.06894E-04-3.17936E-05-3.21881E-05-2.60259E-06-1.95109E-19-5.98667E-19
 -1      1523 1.04437E-04-3.10839E-05-3.14492E-05-2.41090E-06-5.53212E-19-1.09691E-18
 -1      1524 1.02577E-04-3.03716E-05-3.09852E-05-4.04318E-06-9.21234E-19-7.28491E-19
 -1      1525 1.12674E-04-3.34070E-05-3.39929E-05-3.88013E-06-9.30651E-19-2.44501E-19
 -1      1526 1.08984E-04-3.23245E-05-3.28868E-05-3.59442E-06-2.21036E-19-5.03164E-19
 -1      1527 1.05921E-04-3.11760E-05-3.20932E-05-6.01358E-06-5.79642E-19 5.32652E-19
 -1      1528 1.20983E-04-3.57807E-05-3.65658E-05-5.64123E-06 3.81297E-20 7.56718E-19
 -1      1529 1.15595E-04-3.41538E-05-3.49717E-05-5.24039E-06-4.20281E-19 3.51307E-19
 -1      1530 1.10631E-04-3.23429E-05-3.36385E-05-8.78557E-06-8.41871E-19 7.37812E-19
 -1      1531 1.32325E-04-3.91848E-05-3.99793E-05-7.76679E-06-2.90810E-19 1.55812E-18
 -1      1532 1.24914E-04-3.68281E-05-3.78596E-05-7.28172E-06 4.36063E-19 1.44075E-18
 -1      1533 1.17102E-04-3.40858E-05-3.56900E-05-1.23454E-05-1.27187E-19 1.83196E-18
 -1      1534 1.46301E-04-4.37959E-05-4.39014E-05-9.51171E-06 2.28107E-19 1.47447E-18
 -1      1535 1.37304E-04-4.06687E-05-4.15103E-05-9.15566E-06-3.64534E-19 1.10633E-18
 -1      1536 1.25654E-04-3.68177E-05-3.81747E-05-1.60365E-05-1.09032E-19 2.01758E-18
 -1      1537 1.60153E-04-4.92569E-05-4.72062E-05-8.75904E-06-3.20417E-19 1.41507E-18
 -1      1538 1.52040E-04-4.59303E-05-4.53731E-05-9.19024E-06 1.80167E-19 1.22301E-18
 -1      1539 1.36305E-04-4.12372E-05-4.07349E-05-1.76544E-05 3.27908E-19 1.51272E-18
 -1      1540 1.67147E-04-5.32958E-05-4.81380E-05-2.48473E-06 2.10223E-19 1.45287E-18
 -1      1541 1.65439E-04-5.18645E-05-4.81121E-05-4.42904E-06-8.53915E-20 1.67453E-18
 -1      1542 1.48090E-04-4.78311E-05-4.27336E-05-1.28818E-05-8.16328E-20 1.79034E-18
 -1      1543 1.60089E-04-5.18624E-05-4.62249E-05 1.11720E-05-7.71515E-19 2.05278E-18
 -1      1544 1.70832E-04-5.55972E-05-4.85041E-05 7.31816E-06-4.45857E-19 1.24217E-18
 -1      1545 1.58568E-04-5.48338E-05-4.41870E-05 3.34918E-06 4.27222E-20 2.49462E-18
 -1      1546 1.40581E-04-4.21323E-05-4.37053E-05 2.14337E-05 7.55977E-19 2.23956E-18
 -1      1547 1.59760E-04-5.08327E-05-4.67065E-05 1.98806E-05-4.06576E-20 2.07947E-18
 -1      1548 1.64384E-04-5.63970E-05-4.61662E-05 2.60555E-05-5.82970E-19 2.39277E-18
 -1      1549 1.20647E-04-2.85120E-05-4.28743E-05 1.34589E-05 1.70974E-18-4.84926E-20
 -1      1550 1.36233E-04-3.68094E-05-4.46713E-05 1.78889E-05 1.86411E-18 1.50348E-18
 -1      1551 1.60342E-04-4.54369E-05-5.01599E-05 3.37189E-05 2.07142E-18 2.05893E-18
 -1      1552 1.27079E-04-3.12484E-05-4.39615E-05-1.09971E-05 7.27813E-19-1.68115E-18
 -1      1553 1.19628E-04-2.72978E-05-4.31469E-05-4.95646E-06 4.69680E-19-5.83129E-19
 -1      1554 1.54492E-04-3.12578E-05-5.35685E-05 7.97016E-06 1.79147E-18-4.21928E-20
 -1      1555 1.49403E-04-4.48703E-05-4.57710E-05-2.10087E-05 1.20321E-18-3.36950E-18
 -1      1556 1.31238E-04-3.58523E-05-4.30952E-05-2.08016E-05 1.86601E-18-1.53525E-18
 -1      1557 1.58196E-04-3.89590E-05-5.21617E-05-2.73361E-05 2.28360E-18-2.02451E-18
 -1      1558 1.65978E-04-5.38788E-05-4.76256E-05-1.50868E-05 1.45676E-19-4.20594E-18
 -1      1559 1.51891E-04-4.81221E-05-4.50260E-05-1.78854E-05 7.68312E-19-3.90228E-18
 -1      1560 1.62023E-04-5.16669E-05-4.80468E-05-3.37249E-05 2.11208E-18-2.82364E-18
 -1      1561 1.69912E-04-5.47665E-05-4.86320E-05-2.06394E-06-1.69788E-18-2.97653E-18
 -1      1562 1.65346E-04-5.36512E-05-4.73863E-05-5.04580E-06-1.00545E-18-4.30420E-18
 -1      1563 1.62782E-04-5.67627E-05-4.51437E-05-1.61714E-05-5.91864E-20-3.48989E-18
 -1      1564 1.60085E-04-4.93535E-05-4.71269E-05 7.20569E-06-4.55624E-19-1.40422E-18
 -1      1565 1.65403E-04-5.19291E-05-4.80913E-05 5.89507E-06-7.73182E-19-1.90829E-18
 -1      1566 1.54833E-04-5.22903E-05-4.35463E-05 4.81166E-06-1.92425E-18-3.47509E-18
 -1      1567 1.45210E-04-4.33854E-05-4.36444E-05 9.61135E-06 6.17633E-19-2.21817E-18
 -1      1568 1.54244E-04-4.67849E-05-4.58846E-05 9.65843E-06 2.34363E-19-1.21030E-18
 -1      1569 1.42838E-04-4.47117E-05-4.18920E-05 1.60067E-05 1.62604E-19-1.22979E-18
 -1      1570 1.31192E-04-3.87291E-05-3.97307E-05 8.50551E-06-2.09574E-20-2.56132E-18
 -1      1571 1.39673E-04-4.15652E-05-4.20836E-05 8.94867E-06 2.92617E-19-2.46995E-18
 -1      1572 1.31166E-04-3.89722E-05-3.95507E-05 1.74236E-05 9.82578E-19-2.30658E-19
 -1      1573 1.20023E-04-3.54010E-05-3.63470E-05 6.45788E-06-2.79461E-19-2.11896E-18
 -1      1574 1.26561E-04-3.74453E-05-3.82654E-05 6.89606E-06-6.59045E-19-2.25703E-18
 -1      1575 1.21313E-04-3.53575E-05-3.69375E-05 1.45444E-05-4.84198E-20 3.70974E-19
 -1      1576 1.12135E-04-3.31785E-05-3.38853E-05 4.66059E-06-5.78166E-19-8.51268E-20
 -1      1577 1.16615E-04-3.45191E-05-3.52268E-05 4.97016E-06-8.44187E-20-2.24136E-18
 -1      1578 1.13737E-04-3.31349E-05-3.46396E-05 1.08996E-05-6.08143E-19 1.29243E-18
 -1      1579 1.06194E-04-3.15412E-05-3.20142E-05 3.20797E-06-8.35651E-20 9.71375E-19
 -1      1580 1.09438E-04-3.24966E-05-3.29950E-05 3.43659E-06-6.30537E-19 1.37405E-19
 -1      1581 1.08034E-04-3.16469E-05-3.27997E-05 7.77625E-06-1.30906E-18 1.06699E-18
 -1      1582 1.02082E-04-3.04143E-05-3.07199E-05 2.18589E-06-7.47110E-20 1.52064E-18
 -1      1583 1.04271E-04-3.10523E-05-3.13823E-05 2.33564E-06 6.41032E-20 1.65717E-18
 -1      1584 1.03752E-04-3.05960E-05-3.13935E-05 5.36560E-06-5.33445E-19 8.97821E-19
 -1      1585 9.92502E-05-2.96334E-05-2.98355E-05 1.48481E-06 1.08652E-18-7.12719E-19
 -1      1586 1.00723E-04-3.00627E-05-3.02787E-05 1.58410E-06 1.24738E-18 7.22678E-19
 -1      1587 1.00689E-04-2.98495E-05-3.03862E-05 3.67039E-06 9.54911E-19-8.03824E-19
 -1      1588 9.73317E-05-2.90951E-05-2.92433E-05 9.88978E-07 3.11874E-19-1.60396E-18
 -1      1589 9.83034E-05-2.93808E-05-2.95331E-05 1.06127E-06 4.58562E-19-7.73053E-19
 -1      1590 9.85232E-05-2.93100E-05-2.96814E-05 2.48970E-06 9.16066E-19-1.63018E-18
 -1      1591 9.61040E-05-2.87399E-05-2.88714E-05 5.94603E-07-1.48275E-18 3.77877E-19
 -1      1592 9.66904E-05-2.89151E-05-2.90447E-05 6.63514E-07-1.18469E-18-1.25203E-18
 -1      1593 9.70150E-05-2.89156E-05-2.92027E-05 1.63249E-06-7.21778E-19-1.26983E-18
 -1      1594 9.54437E-05-2.85535E-05-2.86642E-05 2.43912E-07-1.09883E-18 1.96139E-18
 -1      1595 9.56969E-05-2.86109E-05-2.87506E-05 3.16141E-07-1.17052E-18 4.25057E-19
 -1      1596 9.60284E-05-2.86408E-05-2.88941E-05 9.30401E-07-2.22211E-18-9.25144E-19
 -1      1597 9.52266E-05-2.85522E-05-2.85639E-05-2.09382E-08 1.21732E-18 1.21204E-18
 -1      1598 9.51848E-05-2.81210E-05-2.87522E-05 3.38267E-07-1.16667E-18-1.47820E-18
 -1      1599 9.52534E-05-2.83654E-05-2.86661E-05 2.46347E-07 1.70530E-18-2.39246E-18
 -1      1600 9.48834E-05-2.72816E-05-2.89785E-05 5.58187E-07-3.52214E-18 5.71155E-19
 -1      1601 9.50532E-05-2.77636E-05-2.88457E-05 5.19248E-07-2.20800E-18-9.74961E-19
 -1      1602 9.51317E-05-2.78007E-05-2.88658E-05 8.38737E-07-7.25284E-19-3.57393E-18
 -1      1603 9.45402E-05-2.63075E-05-2.92432E-05 6.08639E-07-5.31769E-18-1.65655E-18
 -1      1604 9.47338E-05-2.68626E-05-2.90906E-05 6.13809E-07-3.58524E-18-7.13143E-21
 -1      1605 9.48131E-05-2.70176E-05-2.90574E-05 1.12924E-06-1.38076E-18-4.94156E-19
 -1      1606 9.42474E-05-2.54513E-05-2.94814E-05 4.92780E-07-3.17569E-18 1.59859E-18
 -1      1607 9.44079E-05-2.59224E-05-2.93502E-05 5.28901E-07-5.75053E-18 4.39259E-19
 -1      1608 9.44834E-05-2.61986E-05-2.92569E-05 1.09073E-06-1.43685E-18-1.16915E-18
 -1      1609 9.40709E-05-2.49115E-05-2.96361E-05 2.75625E-07-1.43737E-18 1.85161E-18
 -1      1610 9.41619E-05-2.51896E-05-2.95573E-05 3.25379E-07-3.04382E-18 1.05543E-18
 -1      1611 9.42336E-05-2.55475E-05-2.94219E-05 7.83342E-07-3.12740E-18 1.76431E-18
 -1      1612 9.40276E-05-2.47531E-05-2.96861E-05 2.33822E-08 1.42397E-18 6.01412E-19
 -1      1613 9.40419E-05-2.48078E-05-2.96694E-05 7.40888E-08 2.68329E-19 1.41420E-18
 -1      1614 9.41058E-05-2.51866E-05-2.95199E-05 3.32862E-07-7.46934E-19 2.32690E-18
 -1      1615 9.41102E-05-2.49698E-05-2.96301E-05-1.97132E-07 4.45454E-18 1.56673E-18
 -1      1616 9.40549E-05-2.48167E-05-2.96722E-05-1.58063E-07 2.99066E-18 1.09390E-18
 -1      1617 9.41089E-05-2.51585E-05-2.95355E-05-1.32789E-07 1.12233E-18 2.02701E-18
 -1      1618 9.42818E-05-2.54651E-05-2.94928E-05-3.46041E-07 7.54204E-18 2.10335E-18
 -1      1619 9.41795E-05-2.51657E-05-2.95772E-05-3.24000E-07 5.64064E-18 2.66921E-18
 -1      1620 9.42220E-05-2.54308E-05-2.94722E-05-5.05167E-07 3.03816E-18 3.38488E-18
 -1      1621 9.44966E-05-2.61096E-05-2.93098E-05-4.11132E-07 7.46783E-18 6.26748E-19
 -1      1622 9.43739E-05-2.57401E-05-2.94152E-05-4.06026E-07 7.59669E-18 6.27880E-19
 -1      1623 9.44050E-05-2.59121E-05-2.93501E-05-7.28684E-07 4.47825E-18 1.75170E-18
 -1      1624 9.47128E-05-2.67785E-05-2.91162E-05-4.02755E-07 2.25173E-18-2.68431E-18
 -1      1625 9.45929E-05-2.64084E-05-2.92230E-05-4.10689E-07 5.88136E-18-1.56306E-18
 -1      1626 9.46137E-05-2.64917E-05-2.91960E-05-7.97349E-07 3.05888E-18-2.54945E-18
 -1      1627 9.48982E-05-2.73698E-05-2.89422E-05-3.45857E-07-1.74497E-18-1.20016E-18
 -1      1628 9.47979E-05-2.70521E-05-2.90348E-05-3.60687E-07 1.28354E-18-2.35114E-18
 -1      1629 9.48098E-05-2.70647E-05-2.90378E-05-7.42483E-07 1.11255E-18-5.17386E-18
 -1      1630 9.50447E-05-2.78523E-05-2.87978E-05-2.64749E-07-6.31355E-19 9.68786E-19
 -1      1631 9.49675E-05-2.76012E-05-2.88718E-05-2.81999E-07-2.01020E-18 1.44175E-18
 -1      1632 9.49720E-05-2.75660E-05-2.88939E-05-6.12535E-07 4.31206E-19 4.92309E-20
 -1      1633 9.51466E-05-2.81991E-05-2.86924E-05-1.81884E-07 7.55778E-19 1.08484E-18
 -1      1634 9.50943E-05-2.80250E-05-2.87441E-05-1.97209E-07-4.57927E-21 9.82725E-19
 -1      1635 9.50931E-05-2.79634E-05-2.87755E-05-4.52522E-07 5.74478E-19 2.62923E-18
 -1      1636 9.52097E-05-2.84163E-05-2.86248E-05-1.09969E-07 8.33911E-19-5.12234E-19
 -1      1637 9.51769E-05-2.83145E-05-2.86557E-05-1.20500E-07 1.42040E-18 1.75681E-20
 -1      1638 9.51753E-05-2.82461E-05-2.86883E-05-2.96789E-07 6.97600E-19 5.40183E-19
 -1      1639 9.52455E-05-2.85176E-05-2.85955E-05-6.72675E-08 9.41173E-19-3.30405E-19
 -1      1640 9.52345E-05-2.84752E-05-2.86114E-05-8.68311E-08 1.13900E-18-7.95111E-19
 -1      1641 9.52352E-05-2.84123E-05-2.86398E-05-1.93822E-07 4.32179E-19 1.20232E-19
 -1      1642 9.52845E-05-2.85151E-05-2.86170E-05-1.34639E-07 8.89625E-19-8.73814E-19
 -1      1643 2.27133E-05-8.13077E-05 1.82156E-05-1.53796E-05-1.91853E-18-7.53224E-19
 -1      1644 2.53811E-05-8.60115E-05 1.91595E-05-4.39976E-06-2.29673E-18-2.05194E-19
 -1      1645 1.88778E-05-5.71910E-05 1.00862E-05-1.32386E-05 3.33731E-19 1.44493E-18
 -1      1646 2.52587E-05-7.83555E-05 1.53171E-05-1.23184E-05-1.88422E-18 1.08759E-18
 -1      1647 3.39975E-05-2.88073E-05-6.59609E-06 1.26809E-05 4.43761E-18 6.30616E-18
 -1      1648 3.04131E-05-5.17536E-05 2.59597E-06-2.92800E-06 1.84653E-18 2.96398E-18
 -1      1649 7.29285E-05-1.33372E-05-2.73131E-05 4.54817E-05 6.99988E-18 9.55877E-18
 -1      1650 4.98488E-05-2.44130E-05-1.61208E-05 2.01483E-05 5.50910E-18 6.98463E-18
 -1      1651 1.54918E-04-2.85882E-05-5.14118E-05 7.18802E-05 6.15708E-18 1.00644E-17
 -1      1652 1.04191E-04-1.87387E-05-3.86598E-05 5.05858E-05 7.84437E-18 9.34277E-18
 -1      1653 2.46385E-04-5.91873E-05-7.25724E-05 6.54720E-05 4.50791E-18 7.73510E-18
 -1      1654 1.86959E-04-3.48728E-05-6.21834E-05 6.86556E-05 6.11981E-18 9.21911E-18
 -1      1655 3.07524E-04-8.19196E-05-8.51569E-05 1.93808E-05 2.44538E-18 1.91768E-18
 -1      1656 2.68974E-04-6.32338E-05-7.97121E-05 5.29604E-05 4.42215E-18 6.18249E-18
 -1      1657 3.02001E-04-7.78365E-05-8.53074E-05-3.15494E-05 2.23193E-18-2.52501E-18
 -1      1658 3.13720E-04-8.35059E-05-8.69723E-05 7.17903E-06 1.73261E-18 3.37437E-19
 -1      1659 2.41898E-04-5.30907E-05-7.41406E-05-6.46989E-05 2.93116E-18-4.91957E-18
 -1      1660 2.89581E-04-7.53590E-05-8.12841E-05-4.41323E-05 1.88242E-18-3.11285E-18
 -1      1661 1.53424E-04-2.61897E-05-5.36215E-05-6.42121E-05 5.02799E-18-6.65429E-18
 -1      1662 2.14766E-04-4.78446E-05-6.54808E-05-7.17056E-05 3.38856E-18-5.44473E-18
 -1      1663 8.08988E-05-1.90049E-05-3.00125E-05-3.92164E-05 7.27262E-18-6.89485E-18
 -1      1664 1.21228E-04-2.04527E-05-4.22977E-05-6.42304E-05 5.46082E-18-7.50641E-18
 -1      1665 4.11763E-05-3.62544E-05-7.97436E-06-9.17320E-06 8.20267E-18-5.73865E-18
 -1      1666 5.66892E-05-1.90963E-05-1.89975E-05-3.26139E-05 7.80795E-18-6.11558E-18
 -1      1667 2.53533E-05-6.25954E-05 8.68808E-06 1.06815E-05 5.62345E-18-4.93164E-18
 -1      1668 2.26450E-05-3.85379E-05 1.26672E-06 1.77834E-06 8.37292E-18-7.22773E-18
 -1      1669 2.55711E-05-8.36008E-05 1.77568E-05 9.95790E-06 1.28558E-18-1.93484E-18
 -1      1670 1.96702E-05-6.81020E-05 1.40857E-05 1.64433E-05 4.37238E-18-3.01883E-18
 -1      1671 2.24111E-05-7.67184E-05 1.76364E-05 2.04243E-06-2.85196E-18-1.64960E-18
 -1      1672 2.24933E-05-7.95119E-05 1.83207E-05 1.26070E-05 3.24467E-19-2.40346E-18
 -1      1673 2.00161E-05-5.64691E-05 1.08257E-05 6.16119E-07-6.29430E-18-2.80124E-18
 -1      1674 2.57027E-05-7.69389E-05 1.57498E-05 5.30267E-06-3.99800E-18-1.61804E-18
 -1      1675 2.65712E-05-2.30988E-05-4.17518E-06 1.96862E-05-6.42390E-18-2.76853E-18
 -1      1676 2.75362E-05-4.94442E-05 4.30829E-06 7.91919E-06-6.92619E-18-2.34713E-18
 -1      1677 5.03343E-05 8.82848E-07-2.23905E-05 4.90174E-05-4.56974E-18-3.17722E-18
 -1      1678 3.67234E-05-1.46910E-05-1.27058E-05 2.68477E-05-6.43406E-18-3.13317E-18
 -1      1679 1.05996E-04-3.50428E-06-4.18844E-05 7.64265E-05-3.99715E-18-7.24637E-18
 -1      1680 7.37906E-05-1.39207E-06-3.18698E-05 5.62435E-05-3.44404E-18-4.98818E-18
 -1      1681 1.72855E-04-2.30063E-05-5.98143E-05 8.52673E-05-4.46429E-18-9.27840E-18
 -1      1682 1.28753E-04-5.76167E-06-5.10196E-05 7.94948E-05-4.49732E-18-7.90112E-18
 -1      1683 2.35663E-04-5.08300E-05-7.31301E-05 6.56331E-05-3.09358E-18-6.38324E-18
 -1      1684 1.96288E-04-2.99956E-05-6.71015E-05 8.13042E-05-4.68155E-18-8.21198E-18
 -1      1685 2.70007E-04-6.81871E-05-7.99247E-05 1.85738E-05-1.35271E-18-2.25184E-18
 -1      1686 2.51154E-04-5.69945E-05-7.73132E-05 5.15798E-05-2.66741E-18-4.67520E-18
 -1      1687 2.57222E-04-6.03651E-05-7.85488E-05-3.52286E-05-8.76679E-20-8.74138E-19
 -1      1688 2.67779E-04-6.64159E-05-8.00158E-05 2.39242E-07-2.05405E-19-7.40810E-19
 -1      1689 2.15617E-04-3.90565E-05-7.09368E-05-7.47076E-05-1.25340E-18 1.37219E-19
 -1      1690 2.49326E-04-5.78645E-05-7.58586E-05-5.28008E-05-3.47495E-19-6.02664E-19
 -1      1691 1.48705E-04-1.18086E-05-5.62054E-05-8.23577E-05-5.42525E-18 3.55839E-18
 -1      1692 1.93991E-04-3.20012E-05-6.44706E-05-8.16038E-05-3.06859E-18 8.97855E-20
 -1      1693 8.82022E-05 7.22580E-07-3.81473E-05-6.57496E-05-7.06849E-18 5.86740E-18
 -1      1694 1.24323E-04-6.72219E-06-4.76167E-05-8.23793E-05-5.64971E-18 5.88688E-18
 -1      1695 4.57451E-05-6.40610E-06-1.93599E-05-3.71499E-05-7.76390E-18 5.58364E-18
 -1      1696 6.54990E-05 3.02072E-06-2.89835E-05-5.98441E-05-7.06087E-18 6.78050E-18
 -1      1697 2.83345E-05-3.33278E-05-2.35418E-06-1.25838E-05-7.33615E-18 4.07889E-18
 -1      1698 3.16341E-05-1.12506E-05-1.07257E-05-2.84754E-05-7.95025E-18 6.21765E-18
 -1      1699 2.58816E-05-6.46850E-05 1.07244E-05-3.37549E-06-3.39406E-18 2.47212E-18
 -1      1700 2.11744E-05-4.11171E-05 4.48499E-06-6.63424E-06-6.62888E-18 4.96986E-18
 -1      1701 2.63145E-05-8.52169E-05 1.83403E-05-6.44369E-06-2.64359E-18 1.49840E-18
 -1      1702 2.23665E-05-7.18002E-05 1.53318E-05 1.94136E-06-3.72186E-18 1.05741E-18
 -1      1703 1.06473E-04-2.32790E-05-3.57492E-05 1.71693E-05 1.79820E-18 1.00246E-17
 -1      1704 7.40035E-05-4.93767E-05-1.37394E-05 2.95546E-05 9.41054E-19 6.09948E-18
 -1      1705 9.53654E-05-2.84799E-05-2.86703E-05 2.38831E-07 8.63163E-19-1.92581E-18
 -1      1706 1.61639E-05-5.69288E-05 1.23282E-05 2.35267E-06-9.13949E-19 1.09183E-18
 -1      1707 3.71267E-05-5.25098E-05 2.28091E-06 1.77864E-05 6.94567E-20 4.17720E-18
 -1      1708 1.19120E-05-5.69904E-05 1.43207E-05-9.15091E-06-1.83129E-18 5.75982E-19
 -1      1709 1.27233E-04-5.01790E-05-3.36947E-05 3.56379E-05 2.78166E-18 5.89874E-18
 -1      1710 1.90009E-04-5.44965E-05-5.45147E-05 2.70804E-05 3.92727E-18 5.17029E-18
 -1      1711 2.33523E-04-5.13742E-05-7.12074E-05 9.74320E-06 4.69256E-18 2.85450E-18
 -1      1712 2.51863E-04-4.45077E-05-7.93546E-05 1.20921E-06 3.82266E-18 5.46336E-20
 -1      1713 2.47223E-04-4.64698E-05-7.72325E-05-4.40744E-06 2.93836E-18-3.07473E-19
 -1      1714 2.20526E-04-5.38349E-05-6.56849E-05-1.95253E-05 3.03222E-18-2.34967E-18
 -1      1715 1.65666E-04-5.32171E-05-4.69272E-05-3.15600E-05 3.50036E-18-3.13148E-18
 -1      1716 1.07716E-04-5.15891E-05-2.58115E-05-3.35587E-05 3.83875E-18-2.74947E-18
 -1      1717 5.78295E-05-5.04758E-05-6.76235E-06-2.53331E-05 4.15300E-18-4.17820E-18
 -1      1718 2.58472E-05-5.46068E-05 7.32128E-06-9.96805E-06 2.61903E-18-5.49894E-18
 -1      1719 1.19794E-05-5.29745E-05 1.30456E-05 2.06296E-06 1.91959E-19-3.73753E-18
 -1      1720 1.29182E-05-5.01701E-05 1.18911E-05 1.46129E-05-1.70762E-18-3.12979E-18
 -1      1721 2.89980E-05-4.59742E-05 3.89478E-06 2.91187E-05-3.30173E-18-2.92862E-18
 -1      1722 5.59674E-05-3.68084E-05-1.01986E-05 4.05830E-05-4.54348E-18-1.49607E-18
 -1      1723 9.46906E-05-3.01976E-05-2.75159E-05 5.03080E-05-2.95445E-18-3.80233E-18
 -1      1724 1.38819E-04-2.96017E-05-4.49935E-05 5.14268E-05-2.22727E-18-6.73222E-18
 -1      1725 1.80296E-04-3.03413E-05-6.06033E-05 4.67495E-05-3.40020E-18-4.57991E-18
 -1      1726 2.13963E-04-3.49583E-05-7.15716E-05 3.07613E-05-3.48406E-18-2.70288E-18
 -1      1727 2.24355E-04-3.52815E-05-7.56397E-05 5.02425E-06-1.91091E-18-8.24110E-19
 -1      1728 2.16550E-04-3.37300E-05-7.31780E-05-2.16905E-05-1.25573E-18-4.86197E-19
 -1      1729 1.91837E-04-3.16225E-05-6.44342E-05-4.19705E-05-3.37490E-18 6.02240E-19
 -1      1730 1.51686E-04-2.88585E-05-5.01506E-05-5.14015E-05-4.97378E-18 7.55553E-19
 -1      1731 1.07470E-04-2.80506E-05-3.33460E-05-5.25444E-05-4.58160E-18 3.05271E-18
 -1      1732 6.75184E-05-3.24678E-05-1.63653E-05-4.42326E-05-4.76880E-18 4.87256E-18
 -1      1733 3.89316E-05-4.21762E-05-1.61347E-06-3.28024E-05-3.35933E-18 4.58531E-18
 -1      1734 2.01501E-05-5.13636E-05 9.17411E-06-2.17122E-05-3.08489E-18 2.96694E-18
 -1      1735 1.06075E-04-2.31755E-05-3.56117E-05-1.68627E-05-1.89373E-18 7.91213E-18
 -1      1736 8.91341E-05-1.05578E-05-3.37991E-05-1.33561E-05-2.47992E-18-2.38437E-18
 -1      1737 9.04642E-05-1.16263E-05-3.39396E-05-1.51295E-05-2.85929E-18-1.55187E-18
 -1      1738 9.25037E-05-1.38735E-05-3.38587E-05-1.60166E-05-2.81759E-18-5.02343E-19
 -1      1739 9.42207E-05-1.58246E-05-3.41030E-05-1.76766E-05-2.99834E-18 9.69217E-19
 -1      1740 9.34534E-05-1.63648E-05-3.30486E-05-1.37656E-05-2.95166E-18-8.94070E-19
 -1      1741 8.62104E-05-7.66806E-06-3.37324E-05-7.88246E-06-1.44396E-18-3.78520E-18
 -1      1742 8.66132E-05-7.96682E-06-3.37663E-05-9.27093E-06-1.70793E-18-3.63333E-18
 -1      1743 8.55918E-05-7.02967E-06-3.37289E-05-5.34128E-06-9.10723E-19-4.00003E-18
 -1      1744 8.58270E-05-7.20878E-06-3.37442E-05-6.64488E-06-1.17967E-18-3.91696E-18
 -1      1745 8.75912E-05-9.86020E-06-3.33461E-05-6.94780E-06-1.44681E-18-3.69504E-18
 -1      1746 8.52548E-05-6.66927E-06-3.37318E-05-2.91192E-06-3.14807E-19-3.96286E-18
 -1      1747 8.53767E-05-6.76466E-06-3.37379E-05-4.15040E-06-5.71151E-19-3.98237E-18
 -1      1748 8.69539E-05-9.14630E-06-3.33787E-05-4.55837E-06-7.91923E-19-3.77979E-18
 -1      1749 8.51209E-05-6.51822E-06-3.37351E-05-5.43277E-07 2.04129E-19-4.01101E-18
 -1      1750 8.51581E-05-6.54793E-06-3.37367E-05-1.75124E-06-3.85696E-20-4.01412E-18
 -1      1751 8.66192E-05-8.76465E-06-3.33986E-05-2.23982E-06-1.82297E-19-3.86090E-18
 -1      1752 8.51620E-05-6.55128E-06-3.37367E-05 1.81570E-06 6.63780E-19-3.87904E-18
 -1      1753 8.51224E-05-6.52025E-06-3.37351E-05 6.07349E-07 4.51843E-19-3.96740E-18
 -1      1754 8.65171E-05-8.64696E-06-3.34052E-05 4.07016E-08 3.62689E-19-3.86298E-18
 -1      1755 8.53870E-05-6.77447E-06-3.37380E-05 4.21674E-06 1.14046E-18-3.73715E-18
 -1      1756 8.52621E-05-6.67699E-06-3.37318E-05 2.97708E-06 9.07008E-19-3.81252E-18
 -1      1757 8.66273E-05-8.77395E-06-3.33982E-05 2.32195E-06 8.26916E-19-3.72236E-18
 -1      1758 8.58349E-05-7.21611E-06-3.37443E-05 6.67149E-06 1.58497E-18-3.45112E-18
 -1      1759 8.56015E-05-7.03945E-06-3.37290E-05 5.38878E-06 1.33881E-18-3.61953E-18
 -1      1760 8.69678E-05-9.16159E-06-3.33780E-05 4.62236E-06 1.36571E-18-3.55034E-18
 -1      1761 8.66341E-05-7.98531E-06-3.37670E-05 9.32332E-06 2.19972E-18-2.91117E-18
 -1      1762 8.62207E-05-7.67914E-06-3.37322E-05 7.91003E-06 1.88816E-18-3.23056E-18
 -1      1763 8.76084E-05-9.87916E-06-3.33453E-05 6.99466E-06 1.88330E-18-3.19031E-18
 -1      1764 8.80219E-05-9.29891E-06-3.38254E-05 1.21861E-05 2.71131E-18-1.98605E-18
 -1      1765 8.72952E-05-8.75610E-06-3.37521E-05 1.06070E-05 2.41300E-18-2.54406E-18
 -1      1766 8.87112E-05-1.10891E-05-3.32976E-05 9.46728E-06 2.47002E-18-2.49922E-18
 -1      1767 9.05461E-05-1.17070E-05-3.39421E-05 1.51924E-05 3.09939E-18-3.47231E-19
 -1      1768 8.91903E-05-1.06151E-05-3.37993E-05 1.34221E-05 2.83048E-18-1.34138E-18
 -1      1769 9.05539E-05-1.30845E-05-3.32196E-05 1.19281E-05 2.93629E-18-1.45113E-18
 -1      1770 9.43586E-05-1.59450E-05-3.40945E-05 1.77677E-05 3.05271E-18 2.52363E-18
 -1      1771 9.26141E-05-1.39919E-05-3.38573E-05 1.60946E-05 2.96391E-18 8.82661E-19
 -1      1772 9.36524E-05-1.65331E-05-3.30353E-05 1.38715E-05 3.17386E-18 3.42810E-19
 -1      1773 1.03550E-04-5.55325E-05-2.12938E-05 3.50966E-05 5.08220E-21 4.82046E-18
 -1      1774 8.05860E-05-5.45661E-05-1.28244E-05 3.12798E-05-3.32884E-19 4.31108E-18
 -1      1775 1.00173E-04-1.95664E-05-3.42242E-05-1.88817E-05-2.57440E-18 3.49909E-18
 -1      1776 1.00309E-04-1.95342E-05-3.43020E-05 1.91304E-05 2.53308E-18 5.14361E-18
 -1      1777 9.69700E-05-2.69802E-05-2.98807E-05-5.71249E-06-2.16377E-18 1.95064E-18
 -1      1778 9.51616E-05-2.70360E-05-2.91693E-05-3.90466E-06-1.98005E-18 1.36070E-18
 -1      1779 9.43401E-05-2.72366E-05-2.86616E-05-2.42754E-06-1.91100E-18 1.30153E-18
 -1      1780 9.35676E-05-2.73169E-05-2.83562E-05-1.57295E-06-1.69992E-18 7.14588E-19
 -1      1781 9.55137E-05-2.65468E-05-2.95782E-05-4.48178E-06-2.26909E-18 1.55525E-19
 -1      1782 9.30421E-05-2.73678E-05-2.80872E-05-7.45772E-07-1.40452E-18 6.38736E-19
 -1      1783 9.27398E-05-2.74306E-05-2.79649E-05-3.06825E-07-1.10121E-18 2.24560E-19
 -1      1784 9.43022E-05-2.72213E-05-2.87693E-05-1.83510E-06-1.84001E-18-7.47407E-20
 -1      1785 9.24633E-05-2.74575E-05-2.78289E-05 1.49512E-07-9.23149E-19-3.98039E-21
 -1      1786 9.24314E-05-2.75334E-05-2.77989E-05 3.74462E-07-8.44800E-19-1.95616E-19
 -1      1787 9.35998E-05-2.75273E-05-2.83333E-05-3.66822E-07-1.28233E-18-3.53712E-19
 -1      1788 9.23280E-05-2.75647E-05-2.77407E-05 6.15536E-07-8.26705E-19-2.52862E-19
 -1      1789 9.24430E-05-2.76497E-05-2.77599E-05 7.20469E-07-7.87118E-19-5.54596E-19
 -1      1790 9.32777E-05-2.77108E-05-2.81124E-05 4.38449E-07-1.00671E-18-9.10163E-19
 -1      1791 9.24488E-05-2.76876E-05-2.77482E-05 8.33015E-07-7.81172E-19-6.27647E-19
 -1      1792 9.26373E-05-2.77743E-05-2.77932E-05 8.67991E-07-6.54755E-19-8.09407E-19
 -1      1793 9.32145E-05-2.78536E-05-2.80202E-05 8.52881E-07-8.74962E-19-8.41729E-19
 -1      1794 9.27071E-05-2.78158E-05-2.78086E-05 9.03532E-07-5.85760E-19-5.38044E-19
 -1      1795 9.29254E-05-2.78986E-05-2.78655E-05 8.97940E-07-4.23188E-19-5.94920E-19
 -1      1796 9.33107E-05-2.79767E-05-2.80055E-05 1.03249E-06-6.24197E-19-8.53393E-19
 -1      1797 9.30289E-05-2.79403E-05-2.78956E-05 8.88499E-07-5.24544E-19-5.98453E-19
 -1      1798 9.32510E-05-2.80160E-05-2.79560E-05 8.60772E-07-5.01342E-19-6.78142E-19
 -1      1799 9.34961E-05-2.80854E-05-2.80361E-05 1.07176E-06-5.19170E-19-8.28563E-19
 -1      1800 9.33686E-05-2.80555E-05-2.79932E-05 8.27100E-07-5.18803E-19-7.39816E-19
 -1      1801 9.35800E-05-2.81225E-05-2.80522E-05 7.89230E-07-4.03011E-19-9.27633E-19
 -1      1802 9.37241E-05-2.81806E-05-2.80915E-05 1.03070E-06-5.86871E-19-9.11584E-19
 -1      1803 9.36999E-05-2.81584E-05-2.80916E-05 7.45057E-07-4.26026E-19-1.02922E-18
 -1      1804 9.38937E-05-2.82165E-05-2.81468E-05 7.04943E-07-3.83873E-19-1.16910E-18
 -1      1805 9.39650E-05-2.82625E-05-2.81587E-05 9.48657E-07-5.96797E-19-1.01794E-18
 -1      1806 9.40094E-05-2.82485E-05-2.81859E-05 6.59365E-07-4.45049E-19-1.39083E-18
 -1      1807 9.41836E-05-2.82983E-05-2.82362E-05 6.22162E-07-3.65647E-19-1.51281E-18
 -1      1808 9.42016E-05-2.83319E-05-2.82298E-05 8.51754E-07-6.20883E-19-1.26781E-18
 -1      1809 9.42923E-05-2.83265E-05-2.82736E-05 5.81082E-07-3.07839E-19-1.50600E-18
 -1      1810 9.44483E-05-2.83694E-05-2.83192E-05 5.50009E-07-2.84691E-20-1.38752E-18
 -1      1811 9.44256E-05-2.83902E-05-2.83006E-05 7.57204E-07-4.08902E-19-1.37501E-18
 -1      1812 9.45498E-05-2.83946E-05-2.83544E-05 5.17021E-07-1.48330E-19-1.84808E-18
 -1      1813 9.46907E-05-2.84322E-05-2.83960E-05 4.93851E-07-3.56636E-19-1.66367E-18
 -1      1814 9.46345E-05-2.84398E-05-2.83689E-05 6.75947E-07-2.67195E-19-1.47575E-18
 -1      1815 9.47864E-05-2.84554E-05-2.84294E-05 4.70735E-07-3.07086E-19-1.84473E-18
 -1      1816 9.49165E-05-2.84898E-05-2.84680E-05 4.56017E-07 6.29949E-20-1.53091E-18
 -1      1817 9.48299E-05-2.84833E-05-2.84340E-05 6.14231E-07-4.07907E-19-1.76390E-18
 -1      1818 9.50086E-05-2.85124E-05-2.84998E-05 4.42933E-07 3.50895E-20-1.49242E-18
 -1      1819 9.51322E-05-2.85456E-05-2.85365E-05 4.35998E-07-2.15785E-19-1.43929E-18
 -1      1820 9.50158E-05-2.85241E-05-2.84964E-05 5.74402E-07-1.24512E-19-1.47365E-18
 -1      1821 9.52233E-05-2.85691E-05-2.85672E-05 4.31388E-07-2.72796E-19-1.58542E-18
 -1      1822 9.53442E-05-2.86031E-05-2.86028E-05 4.30139E-07-3.15191E-19-1.64454E-18
 -1      1823 9.51975E-05-2.85661E-05-2.85563E-05 5.55038E-07-5.58169E-19-1.44436E-18
 -1      1824 9.54365E-05-2.86292E-05-2.86325E-05 4.30364E-07-6.18054E-19-1.43131E-18
 -1      1825 9.55565E-05-2.86659E-05-2.86673E-05 4.30867E-07-7.40996E-19-1.33572E-18
 -1      1826 9.53800E-05-2.86137E-05-2.86143E-05 5.50465E-07-4.35121E-19-1.53902E-18
 -1      1827 9.56512E-05-2.86964E-05-2.86956E-05 4.29624E-07-1.10201E-18-1.35542E-18
 -1      1828 9.57690E-05-2.87369E-05-2.87289E-05 4.25541E-07-5.46342E-19-1.77966E-18
 -1      1829 9.55675E-05-2.86720E-05-2.86697E-05 5.49725E-07-9.94989E-19-1.11107E-18
 -1      1830 9.58655E-05-2.87734E-05-2.87545E-05 4.13131E-07 3.97873E-19-2.26938E-18
 -1      1831 9.59753E-05-2.88178E-05-2.87842E-05 3.95124E-07 6.08657E-19-2.22166E-18
 -1      1832 9.57611E-05-2.87461E-05-2.87208E-05 5.35136E-07-5.34653E-19-1.77751E-18
 -1      1833 9.60701E-05-2.88614E-05-2.88047E-05 3.57810E-07 7.87598E-19-2.17764E-18
 -1      1834 9.61594E-05-2.89079E-05-2.88268E-05 3.13154E-07 4.54153E-19-2.24438E-18
 -1      1835 9.59576E-05-2.88409E-05-2.87640E-05 4.80775E-07 6.87216E-19-2.06609E-18
 -1      1836 9.62448E-05-2.89584E-05-2.88384E-05 2.32994E-07 2.26300E-19-1.47882E-18
 -1      1837 9.62928E-05-2.90025E-05-2.88468E-05 1.45838E-07 4.78920E-19-1.13099E-18
 -1      1838 9.61463E-05-2.89594E-05-2.87934E-05 3.51572E-07 8.22641E-19-1.53193E-18
 -1      1839 9.63554E-05-2.90571E-05-2.88443E-05 1.64953E-09 1.00375E-19-1.17550E-18
 -1      1840 9.63318E-05-2.90895E-05-2.88303E-05-1.45425E-07 1.01384E-19-1.76890E-18
 -1      1841 9.63068E-05-2.91000E-05-2.88008E-05 1.04135E-07 3.00321E-19-1.35531E-18
 -1      1842 9.63510E-05-2.91412E-05-2.88073E-05-3.75045E-07 1.01117E-19-1.64681E-18
 -1      1843 9.62160E-05-2.91474E-05-2.87603E-05-5.97359E-07 1.39015E-19-1.73922E-18
 -1      1844 9.64049E-05-2.92523E-05-2.87758E-05-3.08954E-07 1.45256E-19-1.98609E-18
 -1      1845 9.61630E-05-2.91830E-05-2.87100E-05-9.27967E-07 1.99710E-19-1.88887E-18
 -1      1846 9.58704E-05-2.91414E-05-2.86187E-05-1.23233E-06-3.53592E-19-1.47506E-18
 -1      1847 9.63901E-05-2.93923E-05-2.87073E-05-9.29270E-07 2.20222E-19-2.11431E-18
 -1      1848 9.57091E-05-2.91400E-05-2.85353E-05-1.66394E-06-7.14062E-19-1.34105E-18
 -1      1849 9.52140E-05-2.90239E-05-2.83898E-05-2.03959E-06-5.05502E-19-1.92277E-18
 -1      1850 9.61946E-05-2.94762E-05-2.85849E-05-1.77528E-06-1.07649E-19-1.92435E-18
 -1      1851 9.49050E-05-2.89571E-05-2.82703E-05-2.54428E-06 4.54420E-20-1.75966E-18
 -1      1852 9.41765E-05-2.87383E-05-2.80660E-05-2.95316E-06 5.53354E-19-1.37872E-18
 -1      1853 9.57380E-05-2.94390E-05-2.84024E-05-2.81789E-06-9.62623E-20-1.58688E-18
 -1      1854 9.36873E-05-2.85756E-05-2.79125E-05-3.46366E-06 3.74938E-19-1.51630E-18
 -1      1855 9.27261E-05-2.82347E-05-2.76540E-05-3.83448E-06 3.78270E-19-1.31071E-18
 -1      1856 9.49416E-05-2.92009E-05-2.81614E-05-3.95357E-06 4.41945E-19-2.15879E-18
 -1      1857 9.20482E-05-2.79546E-05-2.74754E-05-4.24117E-06-2.54523E-19-1.80886E-18
 -1      1858 9.09052E-05-2.74949E-05-2.71795E-05-4.47430E-06-7.78549E-19-2.13945E-18
 -1      1859 9.37571E-05-2.86891E-05-2.78736E-05-4.98703E-06-4.71564E-19-2.12177E-18
 -1      1860 9.00754E-05-2.71031E-05-2.69917E-05-4.64050E-06-9.48742E-19-1.80075E-18
 -1      1861 8.88632E-05-2.65651E-05-2.66885E-05-4.63026E-06-4.34443E-19-1.21922E-18
 -1      1862 9.22082E-05-2.78772E-05-2.75621E-05-5.64264E-06-3.85609E-19-2.28065E-18
 -1      1863 8.79806E-05-2.61102E-05-2.65130E-05-4.43210E-06-5.33829E-20-1.16234E-18
 -1      1864 8.68661E-05-2.55777E-05-2.62423E-05-4.10590E-06 2.25235E-19-1.32887E-18
 -1      1865 9.04330E-05-2.68303E-05-2.72589E-05-5.62428E-06-2.67201E-19-1.60977E-18
 -1      1866 8.60866E-05-2.51526E-05-2.61020E-05-3.48911E-06-8.49051E-20-1.84135E-18
 -1      1867 8.52598E-05-2.47373E-05-2.59054E-05-2.84991E-06-1.02934E-19-1.47790E-18
 -1      1868 8.86984E-05-2.57286E-05-2.69998E-05-4.72448E-06-1.57785E-19-6.49612E-19
 -1      1869 8.47574E-05-2.44550E-05-2.58205E-05-1.87743E-06 3.31898E-19-1.36732E-18
 -1      1870 8.43786E-05-2.42608E-05-2.57312E-05-1.02463E-06 8.33474E-19-1.15535E-18
 -1      1871 8.73549E-05-2.48377E-05-2.68175E-05-2.94601E-06 3.32805E-19-1.03194E-18
 -1      1872 8.42812E-05-2.42076E-05-2.57139E-05 1.19789E-07 7.71763E-19-1.33442E-18
 -1      1873 8.44276E-05-2.42869E-05-2.57474E-05 1.01152E-06 1.55616E-19-1.70996E-18
 -1      1874 8.67253E-05-2.44146E-05-2.67349E-05-5.65415E-07 5.90845E-19-1.98933E-18
 -1      1875 8.47590E-05-2.44790E-05-2.58001E-05 2.08018E-06-2.36190E-19-1.96035E-18
 -1      1876 8.53966E-05-2.48086E-05-2.59495E-05 2.82181E-06-4.26663E-19-1.46403E-18
 -1      1877 8.69725E-05-2.45918E-05-2.67622E-05 1.92506E-06-1.09181E-19-2.21897E-18
 -1      1878 8.60660E-05-2.51845E-05-2.60635E-05 3.59548E-06-6.88052E-19-5.07629E-19
 -1      1879 8.70620E-05-2.56770E-05-2.63017E-05 4.05175E-06-5.59267E-19-5.82836E-19
 -1      1880 8.80246E-05-2.53111E-05-2.68950E-05 3.99209E-06-6.17077E-21-1.85456E-18
 -1      1881 8.79061E-05-2.61290E-05-2.64593E-05 4.41474E-06 2.34522E-20-2.95932E-19
 -1      1882 8.90747E-05-2.66703E-05-2.67466E-05 4.54320E-06 3.52608E-19 1.37623E-19
 -1      1883 8.96094E-05-2.63537E-05-2.71148E-05 5.25670E-06-1.55040E-19-1.11133E-19
 -1      1884 8.99223E-05-2.70921E-05-2.69253E-05 4.50525E-06-5.25535E-19 2.31356E-19
 -1      1885 9.10807E-05-2.75831E-05-2.72196E-05 4.35210E-06-8.22642E-19 1.15481E-19
 -1      1886 9.13706E-05-2.74438E-05-2.73918E-05 5.60424E-06-3.90981E-19 4.00304E-19
 -1      1887 9.18061E-05-2.79059E-05-2.73967E-05 4.01634E-06-5.12225E-19-3.94810E-19
 -1      1888 9.28164E-05-2.82875E-05-2.76632E-05 3.67991E-06-5.48843E-19 2.68168E-19
 -1      1889 9.29949E-05-2.83568E-05-2.76904E-05 5.16959E-06-5.60292E-19 9.69937E-19
 -1      1890 9.33581E-05-2.84891E-05-2.78202E-05 3.18540E-06-1.44083E-18-9.56411E-20
 -1      1891 9.41446E-05-2.87437E-05-2.80366E-05 2.77294E-06-1.19363E-18 4.59400E-20
 -1      1892 9.42891E-05-2.89791E-05-2.79765E-05 4.23030E-06-1.17585E-18 1.04264E-18
 -1      1893 9.44955E-05-2.88365E-05-2.81620E-05 2.24579E-06-6.88517E-19-3.51249E-19
 -1      1894 9.50399E-05-2.89763E-05-2.83193E-05 1.84373E-06 1.33130E-18 7.69526E-21
 -1      1895 9.51867E-05-2.93035E-05-2.82232E-05 3.08477E-06-7.18659E-19 9.96119E-19
 -1      1896 9.52261E-05-2.89888E-05-2.84090E-05 1.37191E-06 2.74605E-18-6.81006E-19
 -1      1897 9.55511E-05-2.90399E-05-2.85094E-05 1.03432E-06 2.36639E-18 6.53531E-20
 -1      1898 9.57131E-05-2.93886E-05-2.84149E-05 1.97072E-06 1.51201E-18 5.60773E-19
 -1      1899 9.56125E-05-2.90023E-05-2.85653E-05 6.64491E-07 9.25575E-19 5.47362E-19
 -1      1900 9.57631E-05-2.89936E-05-2.86182E-05 4.15665E-07 8.16579E-19 7.04915E-19
 -1      1901 9.59418E-05-2.93143E-05-2.85477E-05 1.03560E-06 2.24070E-18-4.20477E-21
 -1      1902 9.57406E-05-2.89306E-05-2.86464E-05 1.62171E-07-5.75719E-19-3.57392E-19
 -1      1903 9.57698E-05-2.88876E-05-2.86647E-05 5.31367E-09-1.27651E-18-1.57115E-18
 -1      1904 9.59590E-05-2.91534E-05-2.86267E-05 3.45020E-07-7.15213E-19 6.49854E-20
 -1      1905 9.56985E-05-2.88159E-05-2.86730E-05-1.37493E-07-1.50092E-18-1.62138E-18
 -1      1906 9.56570E-05-2.87586E-05-2.86701E-05-2.10726E-07-1.13132E-18-1.71667E-18
 -1      1907 9.58449E-05-2.89588E-05-2.86632E-05-9.33093E-08-1.29282E-18-8.38060E-19
 -1      1908 9.55663E-05-2.86904E-05-2.86663E-05-2.59047E-07-2.62855E-19-1.71331E-18
 -1      1909 9.54967E-05-2.86337E-05-2.86538E-05-2.64222E-07 5.30749E-19-1.44669E-18
 -1      1910 9.56658E-05-2.87672E-05-2.86703E-05-3.03229E-07-1.24887E-18-1.27335E-18
 -1      1911 9.54154E-05-2.85844E-05-2.86444E-05-2.38078E-07 9.92707E-19-1.06823E-18
 -1      1912 9.53524E-05-2.85442E-05-2.86297E-05-1.98441E-07 1.02498E-18-6.48764E-19
 -1      1913 9.53333E-05-2.85088E-05-2.86389E-05-2.37738E-07 1.01152E-18-7.75173E-19
 -1      1914 9.54802E-05-2.86027E-05-2.86602E-05-3.28523E-07 1.19116E-18-6.27876E-20
 -1      1915 9.36289E-05-2.73097E-05-2.83844E-05 1.66181E-06 1.59832E-18 2.31803E-18
 -1      1916 9.44166E-05-2.72233E-05-2.87039E-05 2.53905E-06 1.77534E-18 2.82107E-18
 -1      1917 9.52576E-05-2.69939E-05-2.92273E-05 4.07184E-06 2.05747E-18 2.95857E-18
 -1      1918 9.70646E-05-2.69067E-05-2.99639E-05 5.95859E-06 2.34279E-18 3.54950E-18
 -1      1919 9.55728E-05-2.64616E-05-2.96298E-05 4.65330E-06 2.23145E-18 1.45237E-18
 -1      1920 9.27666E-05-2.74268E-05-2.79777E-05 3.53945E-07 1.06876E-18 1.81789E-18
 -1      1921 9.30810E-05-2.73609E-05-2.81067E-05 8.04662E-07 1.30349E-18 2.18225E-18
 -1      1922 9.43497E-05-2.71867E-05-2.87987E-05 1.94766E-06 1.75668E-18 1.23046E-18
 -1      1923 9.24365E-05-2.75266E-05-2.78032E-05-3.47527E-07 6.84949E-19 1.28883E-18
 -1      1924 9.24792E-05-2.74534E-05-2.78366E-05-1.15375E-07 9.46918E-19 1.60358E-18
 -1      1925 9.36252E-05-2.75178E-05-2.83484E-05 4.23141E-07 1.27887E-18 8.61436E-19
 -1      1926 9.24294E-05-2.76361E-05-2.77592E-05-6.93522E-07 3.53721E-19 9.52920E-19
 -1      1927 9.23277E-05-2.75562E-05-2.77438E-05-5.88151E-07 3.91890E-19 1.17422E-18
 -1      1928 9.32901E-05-2.77014E-05-2.81225E-05-3.95122E-07 7.97266E-19 4.10311E-19
 -1      1929 9.26103E-05-2.77614E-05-2.77868E-05-8.56453E-07 7.39354E-19 7.54934E-19
 -1      1930 9.24275E-05-2.76756E-05-2.77438E-05-8.16809E-07 5.44838E-19 9.56206E-19
 -1      1931 9.32108E-05-2.78394E-05-2.80248E-05-8.20479E-07 5.56891E-19 5.02123E-20
 -1      1932 9.28907E-05-2.78861E-05-2.78559E-05-8.94604E-07 7.83611E-19 7.84230E-19
 -1      1933 9.26749E-05-2.78028E-05-2.78000E-05-8.97571E-07 7.79713E-19 8.87179E-19
 -1      1934 9.32948E-05-2.79651E-05-2.80038E-05-1.01768E-06 7.30010E-19 2.22325E-19
 -1      1935 9.32130E-05-2.80041E-05-2.79448E-05-8.61110E-07 5.76286E-19 6.26902E-19
 -1      1936 9.29916E-05-2.79279E-05-2.78848E-05-8.87850E-07 7.66459E-19 9.22045E-19
 -1      1937 9.34734E-05-2.80756E-05-2.80307E-05-1.06676E-06 7.27700E-19 3.86479E-19
 -1      1938 9.35411E-05-2.81114E-05-2.80403E-05-7.90405E-07 5.40971E-19 2.02139E-19
 -1      1939 9.33296E-05-2.80439E-05-2.79813E-05-8.28311E-07 5.48992E-19 4.31588E-19
 -1      1940 9.36983E-05-2.81724E-05-2.80841E-05-1.03035E-06 8.09272E-19 4.55753E-19
 -1      1941 9.38554E-05-2.82060E-05-2.81348E-05-7.05425E-07 4.49402E-19 1.07848E-19
 -1      1942 9.36612E-05-2.81477E-05-2.80796E-05-7.46078E-07 4.91937E-19 1.94829E-19
 -1      1943 9.39387E-05-2.82556E-05-2.81505E-05-9.49771E-07 5.05648E-19 1.59441E-19
 -1      1944 9.41471E-05-2.82880E-05-2.82248E-05-6.21898E-07 5.47393E-19-1.28693E-19
 -1      1945 9.39722E-05-2.82383E-05-2.81742E-05-6.59491E-07 5.90567E-19-1.54484E-19
 -1      1946 9.41767E-05-2.83258E-05-2.82220E-05-8.52968E-07 7.18141E-19-1.27785E-19
 -1      1947 9.44154E-05-2.83586E-05-2.83094E-05-5.51089E-07 6.25574E-19-3.12914E-19
 -1      1948 9.42582E-05-2.83164E-05-2.82631E-05-5.81396E-07 6.08055E-19-2.12165E-19
 -1      1949 9.44038E-05-2.83841E-05-2.82941E-05-7.59348E-07 7.68453E-19-9.15797E-20
 -1      1950 9.46539E-05-2.84173E-05-2.83860E-05-5.03697E-07 5.72251E-19-8.07889E-19
 -1      1951 9.45156E-05-2.83825E-05-2.83448E-05-5.22773E-07 6.11258E-19-4.83100E-19
 -1      1952 9.46134E-05-2.84308E-05-2.83638E-05-6.84445E-07 7.48784E-19-4.85457E-19
 -1      1953 9.48972E-05-2.84729E-05-2.84656E-05-4.82404E-07-9.37720E-20-5.43753E-19
 -1      1954 9.47573E-05-2.84398E-05-2.84233E-05-4.88479E-07 3.36464E-19-7.47078E-19
 -1      1955 9.48139E-05-2.84695E-05-2.84336E-05-6.37275E-07 5.71197E-19-4.22466E-19
 -1      1956 9.51463E-05-2.85254E-05-2.85487E-05-4.99541E-07 5.33272E-20-7.35774E-19
 -1      1957 9.50021E-05-2.84936E-05-2.85045E-05-4.87418E-07-7.20254E-20-6.25518E-19
 -1      1958 9.50177E-05-2.85019E-05-2.85074E-05-6.27515E-07 1.97885E-19-3.26116E-19
 -1      1959 9.54211E-05-2.85783E-05-2.86420E-05-5.67072E-07-3.29447E-20-4.83822E-19
 -1      1960 9.52594E-05-2.85453E-05-2.85919E-05-5.30972E-07 1.35434E-20-6.77336E-19
 -1      1961 9.52299E-05-2.85282E-05-2.85876E-05-6.69657E-07-4.78607E-20-1.52744E-19
 -1      1962 9.57473E-05-2.86359E-05-2.87545E-05-7.02414E-07-5.22047E-19-2.18171E-19
 -1      1963 9.55505E-05-2.85982E-05-2.86931E-05-6.33693E-07-1.83626E-20-3.00673E-19
 -1      1964 9.54646E-05-2.85487E-05-2.86801E-05-7.80411E-07-8.34702E-20-3.72374E-19
 -1      1965 9.61591E-05-2.87022E-05-2.88987E-05-9.31813E-07-4.65842E-19-2.07212E-19
 -1      1966 9.59031E-05-2.86559E-05-2.88186E-05-8.17212E-07-4.91995E-19-5.40903E-19
 -1      1967 9.57395E-05-2.85620E-05-2.87930E-05-9.83831E-07-3.42081E-19-4.45270E-19
 -1      1968 9.67022E-05-2.87819E-05-2.90917E-05-1.29516E-06 5.37682E-19 1.73096E-19
 -1      1969 9.63536E-05-2.87219E-05-2.89824E-05-1.11430E-06 1.50735E-19 4.67407E-20
 -1      1970 9.60757E-05-2.85640E-05-2.89371E-05-1.31558E-06-1.17320E-19-9.38910E-19
 -1      1971 9.74364E-05-2.88795E-05-2.93570E-05-1.85318E-06 6.49673E-19 3.27592E-19
 -1      1972 9.69498E-05-2.87995E-05-2.92037E-05-1.57434E-06 6.50134E-19 2.43545E-19
 -1      1973 9.64983E-05-2.85463E-05-2.91266E-05-1.82887E-06 5.89652E-19-9.56833E-20
 -1      1974 9.83901E-05-2.89945E-05-2.97055E-05-2.64310E-06-1.22021E-19 7.97357E-19
 -1      1975 9.77342E-05-2.88886E-05-2.95006E-05-2.24953E-06 3.33556E-19 8.46992E-19
 -1      1976 9.70197E-05-2.84943E-05-2.93720E-05-2.57714E-06 4.18524E-19 1.42680E-18
 -1      1977 9.97607E-05-2.91412E-05-3.02141E-05-3.86977E-06-2.12592E-19 2.96357E-19
 -1      1978 9.87851E-05-2.89894E-05-2.99077E-05-3.25177E-06 3.77069E-19 6.17408E-19
 -1      1979 9.76773E-05-2.83894E-05-2.96994E-05-3.67717E-06 4.38262E-19 1.63718E-18
 -1      1980 1.01641E-04-2.93294E-05-3.09205E-05-5.66859E-06-6.29743E-19-1.93400E-19
 -1      1981 1.00249E-04-2.91086E-05-3.04851E-05-4.75747E-06-7.10125E-19-4.08674E-19
 -1      1982 9.85154E-05-2.81919E-05-3.01421E-05-5.31450E-06 1.22502E-19 8.02854E-19
 -1      1983 1.04193E-04-2.95925E-05-3.18818E-05-8.23543E-06-8.02107E-19 3.42124E-19
 -1      1984 1.02225E-04-2.92568E-05-3.12735E-05-6.93537E-06-5.93671E-19-6.96188E-20
 -1      1985 9.95338E-05-2.78709E-05-3.07131E-05-7.65709E-06-6.71499E-19-2.52253E-19
 -1      1986 1.07602E-04-3.00420E-05-3.31362E-05-1.17235E-05-9.67451E-19 2.94066E-19
 -1      1987 1.04870E-04-2.94893E-05-3.23177E-05-9.97754E-06-1.08694E-18 2.73464E-19
 -1      1988 1.00738E-04-2.74336E-05-3.14118E-05-1.09055E-05-9.41960E-19-2.96332E-19
 -1      1989 1.12092E-04-3.10094E-05-3.46475E-05-1.60314E-05-4.45751E-19 1.70189E-18
 -1      1990 1.08401E-04-3.00050E-05-3.36233E-05-1.39653E-05-4.06721E-19 8.74371E-19
 -1      1991 1.02165E-04-2.70484E-05-3.21839E-05-1.51760E-05-8.25328E-19-8.34394E-20
 -1      1992 1.18042E-04-3.33562E-05-3.62102E-05-2.03196E-05 3.48612E-19 1.57680E-18
 -1      1993 1.13230E-04-3.13885E-05-3.50908E-05-1.85602E-05 2.61323E-19 2.01803E-18
 -1      1994 1.04060E-04-2.73449E-05-3.28679E-05-2.02737E-05-1.93107E-19 8.44369E-19
 -1      1995 1.26277E-04-3.88492E-05-3.74055E-05-2.21631E-05-4.93132E-20 1.62376E-18
 -1      1996 1.20315E-04-3.50875E-05-3.64506E-05-2.23395E-05 2.19964E-20 1.62176E-18
 -1      1997 1.07358E-04-2.99792E-05-3.31639E-05-2.52391E-05 4.37876E-19 1.84968E-18
 -1      1998 1.37649E-04-4.88269E-05-3.79894E-05-1.73799E-05-4.56551E-19 2.16750E-18
 -1      1999 1.31216E-04-4.31781E-05-3.74118E-05-2.17842E-05-1.56278E-19 1.83707E-18
 -1      2000 1.14393E-04-3.78691E-05-3.28496E-05-2.76402E-05-3.74812E-20 2.82658E-18
 -1      2001 1.55645E-04-6.23522E-05-3.98427E-05-5.25639E-07-4.95197E-19 3.44721E-18
 -1      2002 1.48281E-04-5.69911E-05-3.85808E-05-1.17998E-05-3.64224E-19 2.86377E-18
 -1      2003 1.28839E-04-5.26018E-05-3.27581E-05-2.31407E-05-8.50421E-19 2.74550E-18
 -1      2004 1.74531E-04-4.14672E-05-5.62847E-05 2.46238E-05 2.27301E-18 2.21605E-18
 -1      2005 1.77644E-04-5.57604E-05-5.26114E-05 2.66656E-05 1.86580E-18 2.51844E-18
 -1      2006 1.91969E-04-3.36641E-05-6.70884E-05-4.02341E-06 2.96462E-18-6.35698E-19
 -1      2007 1.92660E-04-3.72365E-05-6.59633E-05 1.24485E-05 2.62665E-18 1.30687E-18
 -1      2008 1.75740E-04-6.32286E-05-4.80620E-05-2.23564E-05 2.27111E-18-3.10988E-18
 -1      2009 1.75210E-04-5.39970E-05-5.12160E-05-2.76367E-05 2.54512E-18-3.30089E-18
 -1      2010 1.60399E-04-6.32276E-05-4.13971E-05-2.37977E-06-1.53567E-18-2.57583E-18
 -1      2011 1.63376E-04-6.36014E-05-4.28611E-05-1.33642E-05 5.13831E-19-2.92713E-18
 -1      2012 1.69253E-04-6.75643E-05-4.40073E-05-8.46154E-06 9.15484E-19-2.42294E-18
 -1      2013 1.42389E-04-5.03849E-05-3.89924E-05 1.61551E-05-1.98597E-18-1.89477E-18
 -1      2014 1.48670E-04-5.62377E-05-3.96098E-05 7.74401E-06-1.73557E-18-1.91318E-18
 -1      2015 1.45952E-04-6.13025E-05-3.63593E-05 1.03497E-05-1.64600E-18-7.24769E-19
 -1      2016 1.28178E-04-3.93309E-05-3.78668E-05 2.19890E-05 1.88835E-19-6.81848E-19
 -1      2017 1.34599E-04-4.43087E-05-3.86728E-05 1.95201E-05-1.08701E-18-1.38302E-18
 -1      2018 1.26750E-04-4.56731E-05-3.47680E-05 2.37100E-05-1.53424E-18-1.84600E-19
 -1      2019 1.18659E-04-3.37071E-05-3.63896E-05 2.02386E-05 9.79774E-19 7.70668E-20
 -1      2020 1.24226E-04-3.66229E-05-3.75107E-05 2.10976E-05 1.06119E-18 2.28752E-19
 -1      2021 1.15514E-04-3.48691E-05-3.45790E-05 2.54951E-05 4.50383E-19 1.11848E-19
 -1      2022 1.12083E-04-3.12593E-05-3.46698E-05 1.59660E-05-7.84240E-19 1.27881E-18
 -1      2023 1.16531E-04-3.28148E-05-3.58150E-05 1.78995E-05-2.86926E-19 8.09962E-19
 -1      2024 1.09392E-04-3.00026E-05-3.40139E-05 2.19905E-05-1.67754E-19 1.71144E-18
 -1      2025 1.07481E-04-3.02237E-05-3.31389E-05 1.19107E-05-1.61726E-18 1.97361E-18
 -1      2026 1.10754E-04-3.10562E-05-3.40723E-05 1.37268E-05-8.93898E-19 1.69658E-18
 -1      2027 1.05736E-04-2.85052E-05-3.30860E-05 1.71746E-05-1.30536E-18 2.33859E-18
 -1      2028 1.03807E-04-2.96421E-05-3.18006E-05 8.44707E-06-7.48175E-19 8.62382E-19
 -1      2029 1.06351E-04-3.01829E-05-3.25633E-05 9.96261E-06-3.25075E-19 2.09201E-18
 -1      2030 1.03104E-04-2.82407E-05-3.20673E-05 1.27218E-05-7.49823E-19 2.36461E-18
 -1      2031 1.01071E-04-2.92748E-05-3.07755E-05 5.89536E-06-3.02391E-19 4.09549E-19
 -1      2032 1.02906E-04-2.96308E-05-3.13353E-05 6.99879E-06-1.49834E-18-2.24765E-19
 -1      2033 1.00973E-04-2.83082E-05-3.11314E-05 9.07881E-06-5.31308E-19 7.19085E-19
 -1      2034 9.90397E-05-2.89903E-05-3.00208E-05 4.08580E-06 1.30075E-18 6.08805E-21
 -1      2035 1.00344E-04-2.92419E-05-3.04197E-05 4.86277E-06 1.14650E-18 1.98552E-19
 -1      2036 9.92744E-05-2.83921E-05-3.03731E-05 6.38844E-06 4.72740E-19 4.33903E-19
 -1      2037 9.75469E-05-2.87425E-05-2.94830E-05 2.79782E-06 8.36329E-19-1.53844E-18
 -1      2038 9.84627E-05-2.89347E-05-2.97598E-05 3.35427E-06 1.53779E-18-1.24685E-18
 -1      2039 9.79342E-05-2.84080E-05-2.97955E-05 4.45764E-06 2.17772E-18-4.43501E-19
 -1      2040 9.64926E-05-2.85323E-05-2.91131E-05 1.83118E-06-1.56183E-18-2.53719E-18
 -1      2041 9.71028E-05-2.86768E-05-2.92987E-05 2.24359E-06-1.24233E-19-1.91719E-18
 -1      2042 9.68831E-05-2.83483E-05-2.93751E-05 3.05032E-06 7.43023E-19-1.54685E-18
 -1      2043 2.26060E-05-3.97864E-05 5.97832E-06 1.54371E-05-4.46810E-19 1.04693E-18
 -1      2044 1.45703E-05-3.81929E-05 8.64625E-06 6.86659E-06 3.19861E-19-4.57398E-20
 -1      2045 9.42758E-05-2.60111E-05-2.92670E-05 1.39749E-06-3.99969E-19-8.18433E-19
 -1      2046 9.44852E-05-2.63898E-05-2.91822E-05 1.51873E-06-4.48093E-19-1.55957E-18
 -1      2047 9.47144E-05-2.67725E-05-2.91270E-05 1.58572E-06-1.45805E-18-1.44827E-18
 -1      2048 9.49614E-05-2.71913E-05-2.90357E-05 1.52923E-06-4.72874E-19-5.42252E-19
 -1      2049 9.45722E-05-2.65300E-05-2.91523E-05 1.96341E-06 6.59445E-20-7.20366E-19
 -1      2050 9.54705E-05-2.82959E-05-2.87826E-05 6.02038E-07-8.41596E-19-3.34295E-18
 -1      2051 9.52131E-05-2.76189E-05-2.89732E-05 1.34919E-06-1.24347E-18-2.58669E-18
 -1      2052 9.54124E-05-2.79886E-05-2.88903E-05 1.11491E-06-1.73205E-19-4.06688E-18
 -1      2053 9.51917E-05-2.73783E-05-2.90546E-05 1.86777E-06 4.01279E-19-1.81475E-18
 -1      2054 9.39971E-05-2.54948E-05-2.93684E-05 9.03397E-07-1.64706E-18 1.46931E-18
 -1      2055 9.41223E-05-2.57499E-05-2.93084E-05 1.14103E-06-6.32343E-19 7.78402E-19
 -1      2056 9.40791E-05-2.58523E-05-2.92289E-05 1.58149E-06 3.04432E-19-3.47011E-19
 -1      2057 9.39089E-05-2.52902E-05-2.94161E-05 2.60908E-07 6.89990E-19 2.18285E-18
 -1      2058 9.39405E-05-2.53883E-05-2.93907E-05 5.44362E-07-4.87637E-19 3.23220E-18
 -1      2059 9.38138E-05-2.54679E-05-2.92783E-05 8.79203E-07 1.49622E-19 3.15960E-18
 -1      2060 9.40004E-05-2.54091E-05-2.94011E-05-3.51427E-07 2.00998E-18 2.45593E-18
 -1      2061 9.39462E-05-2.53449E-05-2.94140E-05-9.78351E-08 1.09229E-18 2.01174E-18
 -1      2062 9.37896E-05-2.54176E-05-2.92910E-05 6.58682E-08 1.67693E-18 2.73713E-18
 -1      2063 9.42161E-05-2.57828E-05-2.93302E-05-8.08849E-07 1.86456E-18 3.69107E-18
 -1      2064 9.41045E-05-2.55901E-05-2.93756E-05-6.32438E-07 1.76894E-18 3.35195E-18
 -1      2065 9.39670E-05-2.56681E-05-2.92633E-05-6.53868E-07 2.20038E-18 2.68986E-18
 -1      2066 9.44876E-05-2.63064E-05-2.92197E-05-1.05529E-06 1.89730E-18-3.71185E-19
 -1      2067 9.43517E-05-2.60372E-05-2.92864E-05-9.72708E-07 1.45886E-18 1.96905E-18
 -1      2068 9.42651E-05-2.61255E-05-2.91993E-05-1.15020E-06 1.41495E-19 2.16532E-18
 -1      2069 9.47535E-05-2.68723E-05-2.90896E-05-1.09779E-06-8.60888E-20-4.75459E-18
 -1      2070 9.46223E-05-2.65805E-05-2.91650E-05-1.09991E-06 1.43307E-18-2.01728E-18
 -1      2071 9.45970E-05-2.66765E-05-2.91093E-05-1.37853E-06-7.76851E-19-2.01983E-18
 -1      2072 9.49692E-05-2.73867E-05-2.89610E-05-9.89330E-07-5.21324E-19-5.04561E-18
 -1      2073 9.48632E-05-2.71193E-05-2.90330E-05-1.04933E-06 3.85374E-19-4.75185E-18
 -1      2074 9.48917E-05-2.72157E-05-2.90071E-05-1.36757E-06-7.78068E-19-4.62382E-18
 -1      2075 9.51248E-05-2.78160E-05-2.88438E-05-7.93368E-07 1.31587E-18 9.52425E-19
 -1      2076 9.50476E-05-2.75902E-05-2.89071E-05-8.84058E-07 1.34159E-18-1.95642E-18
 -1      2077 9.51109E-05-2.76773E-05-2.89046E-05-1.18984E-06 1.18545E-18-3.33093E-18
 -1      2078 9.52187E-05-2.81327E-05-2.87487E-05-5.72571E-07 1.04252E-18 1.86548E-18
 -1      2079 9.51707E-05-2.79635E-05-2.87982E-05-6.68432E-07 1.43571E-18 2.08601E-18
 -1      2080 9.52482E-05-2.80320E-05-2.88113E-05-9.27427E-07 1.56867E-18 1.30541E-18
 -1      2081 9.52672E-05-2.83476E-05-2.86786E-05-3.68465E-07 1.09169E-18 1.29076E-18
 -1      2082 9.52388E-05-2.82301E-05-2.87135E-05-4.55886E-07 1.40107E-18 1.38221E-18
 -1      2083 9.53146E-05-2.82752E-05-2.87346E-05-6.54052E-07 6.35674E-19 1.85607E-18
 -1      2084 5.19726E-05-4.45282E-05-4.34697E-06 3.15429E-05-5.56501E-19 4.89140E-18
 -1      2085 3.54902E-05-4.56852E-05 2.32942E-06 2.15361E-05-1.22312E-18 2.75116E-18
 -1      2086 3.47032E-05-3.51340E-05-5.80121E-07 2.62274E-05-1.07827E-18 1.99137E-18
 -1      2087 1.07282E-05-3.40132E-05 8.91526E-06-5.84140E-06-7.84167E-20 7.98329E-19
 -1      2088 1.23771E-05-3.39748E-05 8.26291E-06-1.51329E-05-1.43996E-18 2.73507E-18
 -1      2089 1.89473E-04-3.59673E-05-6.56097E-05-9.04802E-06 2.77192E-18-8.25857E-19
 -1      2090 8.72684E-05-8.72594E-06-3.37518E-05-1.05450E-05-1.94639E-18-3.41030E-18
 -1      2091 8.79837E-05-9.26167E-06-3.38241E-05-1.21242E-05-2.27354E-18-2.97049E-18
 -1      2092 9.04792E-05-1.30277E-05-3.32217E-05-1.18340E-05-2.53221E-18-2.48099E-18
 -1      2093 8.86750E-05-1.10532E-05-3.32992E-05-9.41048E-06-1.95718E-18-3.31288E-18
 -1      2094 1.93663E-04-5.95247E-05-5.70297E-05-1.79335E-06 3.03442E-18-5.36172E-19
 -1      2095 1.70772E-04-6.01202E-05-4.81070E-05 5.43598E-06 2.33146E-18 1.27987E-18
 -1      2096 1.90971E-04-5.42655E-05-5.82273E-05 5.07982E-08 2.17010E-18-8.76679E-19
 -1      2097 2.09051E-04-5.22081E-05-6.55921E-05 6.48755E-06 2.72872E-18-2.38863E-19
 -1      2098 1.55378E-04-6.24197E-05-4.09493E-05-1.43223E-05 2.43014E-18-9.41054E-19
 -1      2099 1.83112E-04-6.29584E-05-5.05903E-05-1.10288E-05 2.11165E-18-1.01475E-18
 -1      2100 1.10040E-04-5.99719E-05-2.29990E-05-2.86679E-05 2.02441E-18-6.93296E-19
 -1      2101 1.36779E-04-6.13621E-05-3.26134E-05-2.97587E-05 2.15739E-18-1.56108E-18
 -1      2102 5.80843E-05-5.03643E-05-5.42252E-06-2.80124E-05 1.46621E-18-3.53379E-18
 -1      2103 8.10398E-05-5.12291E-05-1.37407E-05-3.58592E-05 2.34713E-18-1.08801E-18
 -1      2104 2.66749E-05-4.38122E-05 5.38162E-06-1.66975E-05 8.63550E-19-4.37535E-18
 -1      2105 3.88220E-05-4.32538E-05 4.82989E-07-2.51829E-05 1.74997E-18-5.37442E-18
 -1      2106 1.11076E-05-3.31587E-05 8.45000E-06-8.30999E-07 1.25626E-19-4.08100E-18
 -1      2107 1.66286E-05-3.95421E-05 8.09774E-06-9.06915E-06 1.10368E-18-3.81122E-18
 -1      2108 2.57610E-05-3.17583E-05 1.68190E-06-2.00690E-05 4.31775E-19-4.73449E-18
 -1      2109 1.66877E-05-3.55878E-05 6.84988E-06 2.44019E-05-1.62334E-18-3.22974E-18
 -1      2110 1.11739E-05-3.30217E-05 8.30079E-06 1.52247E-05-4.81538E-19-3.03831E-18
 -1      2111 4.19367E-05-3.59588E-05-2.90754E-06 4.30146E-05-1.87703E-18-2.03987E-18
 -1      2112 2.95364E-05-3.82544E-05 2.63778E-06 3.36324E-05-1.27309E-18-2.95403E-18
 -1      2113 7.65841E-05-3.90338E-05-1.62757E-05 4.92080E-05-3.68290E-18-1.22650E-18
 -1      2114 6.00095E-05-4.24076E-05-8.60217E-06 4.37972E-05-3.12089E-18-1.35721E-18
 -1      2115 1.16201E-04-4.22501E-05-3.14925E-05 4.75597E-05-2.11250E-18-5.62811E-18
 -1      2116 9.50941E-05-4.30359E-05-2.31232E-05 4.52647E-05-3.40634E-18-2.75582E-18
 -1      2117 1.52413E-04-3.89035E-05-4.77833E-05 3.73238E-05-1.71651E-18-4.42151E-18
 -1      2118 1.33138E-04-4.11029E-05-3.97300E-05 3.74543E-05-1.44779E-18-5.35198E-18
 -1      2119 1.78613E-04-3.27512E-05-6.11544E-05 2.64266E-05-3.04964E-18-2.30774E-18
 -1      2120 1.61088E-04-3.31435E-05-5.46486E-05 2.96301E-05-1.99519E-18-2.79013E-18
 -1      2121 1.93507E-04-2.82182E-05-6.94917E-05 1.21590E-05-3.67358E-18-1.53186E-18
 -1      2122 1.83191E-04-2.77950E-05-6.57694E-05 1.99672E-05-3.71487E-18-2.35009E-18
 -1      2123 1.91148E-04-2.26957E-05-7.13386E-05-2.05136E-06-2.04728E-18-1.42720E-18
 -1      2124 1.94569E-04-2.51122E-05-7.12606E-05 7.06669E-06-2.86678E-18-2.07205E-18
 -1      2125 1.85010E-04-2.61684E-05-6.72259E-05-1.44261E-05-1.20956E-18-3.62530E-19
 -1      2126 1.88351E-04-2.38360E-05-6.96123E-05-5.64888E-06-1.30104E-18-1.07023E-18
 -1      2127 1.68310E-04-3.08487E-05-5.85736E-05-2.46455E-05-3.70767E-18 2.49028E-19
 -1      2128 1.83582E-04-3.09358E-05-6.42328E-05-2.01454E-05-1.99561E-18 1.63477E-19
 -1      2129 1.67254E-04-2.14755E-05-6.13795E-05-2.49754E-06-1.94288E-18-1.35758E-18
 -1      2130 1.41577E-04-3.81351E-05-4.44621E-05-3.64582E-05-4.71967E-18-8.40257E-19
 -1      2131 1.60701E-04-3.70010E-05-5.21096E-05-3.44831E-05-4.44555E-18-1.48485E-18
 -1      2132 1.07055E-04-4.16161E-05-2.87026E-05-4.42353E-05-2.95530E-18 1.66908E-18
 -1      2133 1.27667E-04-4.04949E-05-3.68836E-05-4.58159E-05-3.00951E-18 3.07473E-19
 -1      2134 7.38889E-05-4.33404E-05-1.41128E-05-4.49857E-05-2.63343E-18 3.44954E-18
 -1      2135 9.14334E-05-4.06015E-05-2.17048E-05-4.98705E-05-2.59743E-18 3.13445E-18
 -1      2136 4.20518E-05-4.13066E-05-1.55071E-06-3.89319E-05-1.75463E-18 4.11743E-18
 -1      2137 5.52641E-05-3.82959E-05-7.72032E-06-4.53781E-05-2.64613E-18 4.52159E-18
 -1      2138 1.81324E-05-3.74730E-05 7.01975E-06-2.38693E-05-2.29292E-18 1.65553E-18
 -1      2139 2.51744E-05-3.42898E-05 3.17840E-06-3.25175E-05-1.99561E-18 2.68785E-18
 -1      2140 1.69804E-05-2.34276E-05 2.32247E-06-2.27155E-05-7.59471E-19 3.26319E-18
 -1      2141 9.99767E-05-2.25416E-05-3.29113E-05 1.46535E-05 2.75540E-18 4.00858E-18
 -1      2142 1.51886E-04-6.21639E-05-3.86868E-05 2.59958E-05 1.74235E-18 3.17468E-18
 -1      2143 1.22449E-04-5.95884E-05-2.85810E-05 2.63921E-05 1.95665E-19 4.05602E-18
 -1      2144 1.28570E-04-6.66515E-05-2.67974E-05 2.67241E-05-8.89385E-19 3.67401E-18
 -1      2145 9.98314E-05-2.25447E-05-3.28414E-05-1.44809E-05-2.74248E-18 2.46185E-18
 -1      2146 9.56139E-05-2.81883E-05-2.88920E-05 1.13234E-06-7.57515E-19-3.94555E-18
 -1      2147 9.59853E-05-2.82805E-05-2.90030E-05 1.52004E-06-1.87874E-18-3.77195E-18
 -1      2148 7.82376E-05-5.21750E-05-1.17672E-05 3.59915E-05-1.46028E-18 4.56355E-18
 -1      2149 9.72013E-05-2.43157E-05-3.13094E-05-1.00143E-05-2.58784E-18 1.77423E-18
 -1      2150 1.68769E-04-6.84853E-05-4.25916E-05 2.35054E-06 1.07637E-18 9.77900E-19
 -1      2151 9.63578E-05-2.31089E-05-3.14590E-05-1.03960E-05-2.79484E-18 2.58491E-19
 -1      2152 9.64027E-05-2.31324E-05-3.14800E-05 1.04428E-05 2.89548E-18 1.59257E-18
 -1      2153 9.73104E-05-2.43603E-05-3.13473E-05 1.00890E-05 2.71784E-18 3.32560E-18
 -1      2154 1.55951E-04-6.67138E-05-3.83311E-05-9.92930E-07 3.70577E-19 3.06954E-18
 -1      2155 1.40662E-04-6.76789E-05-3.15595E-05-1.87742E-05 8.23740E-20 3.02941E-18
 -1      2156 1.89279E-04-4.16875E-05-6.32044E-05 1.52038E-05 2.55719E-18 9.77476E-19
 -1      2157 1.69731E-04-6.13223E-05-4.69634E-05 2.02986E-05 1.10014E-18 2.36894E-18
 -1      2158 1.69908E-04-6.66667E-05-4.44959E-05 1.09926E-05-1.48178E-19 2.91125E-18
 -1      2159 1.47793E-05-2.41417E-05 3.43005E-06 2.86370E-06 3.71000E-19 1.24683E-18
 -1      2160 9.59101E-05-2.80563E-05-2.90919E-05 2.06958E-06-3.05079E-19-3.44226E-18
 -1      2161 1.59623E-04-7.15692E-05-3.74005E-05-8.55097E-06 1.64896E-18 5.39560E-19
 -1      2162 9.52949E-05-2.84107E-05-2.86630E-05-3.36597E-07 3.89215E-19-2.76903E-20
 -1      2163 1.64496E-04-3.33063E-05-5.59812E-05-2.05911E-05 2.12775E-18-2.45301E-18
 -1      2164 2.02921E-04-4.47586E-05-6.65727E-05-1.20007E-05 2.59361E-18-1.11131E-18
 -1      2165 3.95854E-05-3.44145E-05-2.62141E-06-4.20681E-05-1.00416E-18 3.28776E-18
 -1      2166 7.70367E-05-4.65013E-05-1.33374E-05-5.05710E-05-8.74138E-19 2.39439E-18
 -1      2167 1.13006E-04-5.26476E-05-2.57294E-05-4.40869E-05-9.99499E-19 2.00959E-19
 -1      2168 1.61997E-04-3.68622E-05-5.28225E-05-1.36168E-05-3.25377E-18-1.04947E-18
 -1      2169 1.69980E-04-1.32958E-05-6.60902E-05 2.13931E-07-1.86008E-18-1.21772E-18
 -1      2170 1.72378E-04-1.56212E-05-6.58693E-05 1.71150E-06-3.47453E-18-2.59489E-18
 -1      2171 1.69081E-04-2.68206E-05-5.98848E-05 7.49517E-06-2.84540E-18-8.14422E-19
 -1      2172 1.57511E-04-4.15384E-05-4.90666E-05 1.78450E-05-1.56611E-18-1.18669E-18
 -1      2173 1.34418E-04-5.20579E-05-3.49438E-05 3.46770E-05-1.56045E-18-4.30801E-18
 -1      2174 9.93062E-05-5.05940E-05-2.08542E-05 4.81859E-05-2.82867E-18-2.27375E-18
 -1      2175 6.04127E-05-4.10058E-05-8.66883E-06 4.86793E-05-9.03361E-19-1.83404E-18
 -1      2176 1.28655E-05-2.71633E-05 5.54643E-06 7.22018E-06 6.92449E-20-4.52993E-18
 -1      2177 1.51439E-05-1.80982E-05 1.35105E-06-1.52270E-06 1.85077E-19-4.95006E-18
 -1      2178 1.46452E-05-1.80292E-05 1.39186E-06 1.50659E-05 7.43271E-20-4.31817E-18
 -1      2179 5.89524E-05-4.55142E-05-6.50548E-06-3.42555E-05 1.47384E-19-3.46415E-18
 -1      2180 1.09728E-04-6.18604E-05-2.08233E-05-3.27905E-05 9.12678E-19 6.99861E-20
 -1      2181 1.86029E-04-6.30853E-05-5.17825E-05 1.34895E-05 1.97899E-18 8.00870E-19
 -1      2182 1.95617E-04-4.96126E-05-6.12334E-05-1.03997E-05 3.07727E-18-1.34339E-18
 -1      2183 2.74019E-05-2.81595E-05 5.12829E-08 3.55823E-05-3.04508E-19-3.19797E-18
 -1      2184 1.42504E-04-4.91699E-05-3.95242E-05-3.06139E-05-2.95530E-18-1.59115E-18
 -1      2185 8.81294E-05-1.11714E-05-3.30213E-05-3.68099E-06-6.03556E-19-3.52082E-18
 -1      2186 8.83644E-05-1.14425E-05-3.30037E-05-4.82147E-06-1.02282E-18-3.56911E-18
 -1      2187 8.87163E-05-1.19261E-05-3.29554E-05-5.83906E-06-1.27316E-18-3.53281E-18
 -1      2188 8.91231E-05-1.23979E-05-3.29277E-05-7.00908E-06-1.61082E-18-3.40899E-18
 -1      2189 8.98838E-05-1.38110E-05-3.26021E-05-4.92235E-06-1.07791E-18-3.24686E-18
 -1      2190 8.77759E-05-1.07040E-05-3.30647E-05 5.92937E-07 4.80878E-19-3.64349E-18
 -1      2191 8.77738E-05-1.07017E-05-3.30649E-05-5.17062E-07 1.95327E-19-3.71285E-18
 -1      2192 8.79510E-05-1.09217E-05-3.30467E-05 2.73365E-06 9.79029E-19-3.51464E-18
 -1      2193 8.78393E-05-1.07924E-05-3.30558E-05 1.61533E-06 6.80407E-19-3.58818E-18
 -1      2194 8.90908E-05-1.27461E-05-3.27224E-05 1.03002E-06 5.68802E-19-3.47911E-18
 -1      2195 8.83771E-05-1.14580E-05-3.30025E-05 4.86234E-06 1.53930E-18-3.34667E-18
 -1      2196 8.81421E-05-1.11872E-05-3.30201E-05 3.74003E-06 1.20404E-18-3.47099E-18
 -1      2197 8.93503E-05-1.30940E-05-3.26832E-05 3.00167E-06 1.04042E-18-3.30109E-18
 -1      2198 8.91437E-05-1.24228E-05-3.29257E-05 7.05068E-06 2.10044E-18-2.88007E-18
 -1      2199 8.87329E-05-1.19466E-05-3.29537E-05 5.87946E-06 1.74544E-18-3.18412E-18
 -1      2200 8.98991E-05-1.38303E-05-3.26001E-05 4.95871E-06 1.61277E-18-3.03739E-18
 -1      2201 9.03977E-05-1.40060E-05-3.28027E-05 9.20426E-06 2.64743E-18-2.18503E-18
 -1      2202 8.97277E-05-1.32121E-05-3.28459E-05 8.02218E-06 2.30559E-18-2.57517E-18
 -1      2203 9.08247E-05-1.50731E-05-3.24579E-05 6.85831E-06 2.15046E-18-2.48294E-18
 -1      2204 9.23924E-05-1.65936E-05-3.25824E-05 1.10880E-05 2.99017E-18-1.17584E-18
 -1      2205 9.13189E-05-1.52292E-05-3.26678E-05 1.00275E-05 2.75203E-18-1.77075E-18
 -1      2206 9.22364E-05-1.70139E-05-3.22222E-05 8.51523E-06 2.61685E-18-1.78941E-18
 -1      2207 9.54770E-05-2.09503E-05-3.20079E-05 1.13206E-05 2.96102E-18 5.36053E-19
 -1      2208 9.36959E-05-1.85907E-05-3.22203E-05 1.10050E-05 2.95405E-18-5.30547E-19
 -1      2209 9.41928E-05-2.01569E-05-3.17045E-05 9.04111E-06 2.74516E-18-8.00820E-19
 -1      2210 9.56904E-05-2.39061E-05-3.07616E-05 7.65605E-06 2.66260E-18 7.39728E-19
 -1      2211 1.43356E-04-6.89862E-05-3.21335E-05 1.95644E-05-1.53398E-18 2.75116E-18
 -1      2212 1.24468E-04-6.45666E-05-2.58448E-05 2.65005E-05-1.88550E-18 3.32439E-18
 -1      2213 9.59142E-05-2.50964E-05-3.03064E-05-6.20693E-06-2.26637E-18-4.17943E-19
 -1      2214 9.52595E-05-2.58446E-05-2.97628E-05-4.29005E-06-2.11842E-18-5.52179E-19
 -1      2215 9.51364E-05-2.65349E-05-2.93455E-05-2.94379E-06-1.93406E-18-4.43387E-19
 -1      2216 9.46737E-05-2.69076E-05-2.90420E-05-1.88254E-06-1.60702E-18-6.26668E-19
 -1      2217 9.53362E-05-2.53543E-05-2.99968E-05-4.29497E-06-2.09335E-18-1.09977E-18
 -1      2218 9.44742E-05-2.72350E-05-2.87788E-05-1.03252E-06-1.43695E-18-6.00583E-19
 -1      2219 9.42160E-05-2.74474E-05-2.86127E-05-4.28394E-07-1.30852E-18-8.67295E-19
 -1      2220 9.50390E-05-2.67025E-05-2.93014E-05-1.92678E-06-1.67909E-18-1.14786E-18
 -1      2221 9.40677E-05-2.76280E-05-2.84516E-05 8.24566E-08-1.12507E-18-8.90140E-19
 -1      2222 9.39697E-05-2.77714E-05-2.83681E-05 4.14400E-07-9.31925E-19-8.81574E-19
 -1      2223 9.47287E-05-2.74216E-05-2.88589E-05-4.42450E-07-1.34254E-18-1.00626E-18
 -1      2224 9.38853E-05-2.78806E-05-2.82751E-05 6.99648E-07-8.43084E-19-1.05313E-18
 -1      2225 9.38920E-05-2.79872E-05-2.82426E-05 8.66522E-07-8.09062E-19-1.03259E-18
 -1      2226 9.45286E-05-2.78501E-05-2.85870E-05 4.33272E-07-1.00583E-18-1.17031E-18
 -1      2227 9.38613E-05-2.80587E-05-2.81945E-05 1.00741E-06-7.21402E-19-1.11798E-18
 -1      2228 9.39304E-05-2.81421E-05-2.81931E-05 1.07337E-06-4.80708E-19-1.06078E-18
 -1      2229 9.44366E-05-2.81177E-05-2.84300E-05 9.10933E-07-8.25391E-19-1.20355E-18
 -1      2230 9.39375E-05-2.81910E-05-2.81742E-05 1.12341E-06-4.29220E-19-1.16688E-18
 -1      2231 9.40397E-05-2.82573E-05-2.81909E-05 1.12899E-06-4.68400E-19-1.26080E-18
 -1      2232 9.44290E-05-2.82923E-05-2.83495E-05 1.13317E-06-5.58083E-19-1.63749E-18
 -1      2233 9.40704E-05-2.82912E-05-2.81906E-05 1.12445E-06-5.23307E-19-1.24508E-18
 -1      2234 9.41866E-05-2.83438E-05-2.82171E-05 1.09622E-06-5.60576E-19-1.16178E-18
 -1      2235 9.44774E-05-2.84077E-05-2.83189E-05 1.19627E-06-5.46424E-19-1.62118E-18
 -1      2236 9.42306E-05-2.83670E-05-2.82281E-05 1.06183E-06-6.88248E-19-1.24482E-18
 -1      2237 9.43491E-05-2.84083E-05-2.82593E-05 1.01750E-06-7.05244E-19-1.39454E-18
 -1      2238 9.45588E-05-2.84829E-05-2.83203E-05 1.16601E-06-6.93844E-19-1.53010E-18
 -1      2239 9.43994E-05-2.84236E-05-2.82769E-05 9.70114E-07-4.75253E-19-1.34784E-18
 -1      2240 9.45138E-05-2.84558E-05-2.83095E-05 9.21519E-07-3.48320E-19-1.19451E-18
 -1      2241 9.46571E-05-2.85297E-05-2.83415E-05 1.08737E-06-6.60284E-19-1.57632E-18
 -1      2242 9.45662E-05-2.84655E-05-2.83307E-05 8.72493E-07-4.36535E-19-9.99002E-19
 -1      2243 9.46737E-05-2.84906E-05-2.83632E-05 8.27392E-07-1.70229E-19-9.19199E-19
 -1      2244 9.47619E-05-2.85564E-05-2.83745E-05 9.90975E-07-3.76879E-19-8.23553E-19
 -1      2245 9.47262E-05-2.84965E-05-2.83861E-05 7.84130E-07-4.09448E-19-1.20028E-18
 -1      2246 9.48266E-05-2.85166E-05-2.84175E-05 7.47324E-07-6.99630E-19-1.40712E-18
 -1      2247 9.48676E-05-2.85694E-05-2.84139E-05 8.97259E-07-4.98271E-19-9.47534E-19
 -1      2248 9.48789E-05-2.85205E-05-2.84411E-05 7.14275E-07-5.93609E-19-1.38967E-18
 -1      2249 9.49736E-05-2.85379E-05-2.84714E-05 6.88253E-07-3.28198E-19-1.29800E-18
 -1      2250 9.49723E-05-2.85740E-05-2.84566E-05 8.19218E-07-7.03154E-19-1.00053E-18
 -1      2251 9.50264E-05-2.85418E-05-2.84949E-05 6.67447E-07-1.81848E-19-1.27685E-18
 -1      2252 9.51177E-05-2.85588E-05-2.85242E-05 6.52657E-07-1.04895E-19-9.80666E-19
 -1      2253 9.50768E-05-2.85757E-05-2.85007E-05 7.64061E-07-1.42090E-19-7.67469E-19
 -1      2254 9.51729E-05-2.85652E-05-2.85474E-05 6.43866E-07-6.42063E-19-1.14344E-18
 -1      2255 9.52635E-05-2.85847E-05-2.85756E-05 6.38643E-07-9.22618E-19-1.47884E-18
 -1      2256 9.51842E-05-2.85800E-05-2.85449E-05 7.33995E-07-5.68191E-19-8.43564E-19
 -1      2257 9.53237E-05-2.85966E-05-2.85982E-05 6.39170E-07-5.78396E-19-1.54290E-18
 -1      2258 9.54158E-05-2.86217E-05-2.86254E-05 6.39362E-07-3.68947E-19-1.21086E-18
 -1      2259 9.52990E-05-2.85940E-05-2.85883E-05 7.26216E-07-6.99800E-19-1.25522E-18
 -1      2260 9.54845E-05-2.86431E-05-2.86467E-05 6.43504E-07-8.68999E-19-1.29219E-18
 -1      2261 9.55795E-05-2.86777E-05-2.86722E-05 6.41824E-07-9.10025E-19-1.34576E-18
 -1      2262 9.54278E-05-2.86265E-05-2.86297E-05 7.32180E-07-5.34072E-19-1.38215E-18
 -1      2263 9.56604E-05-2.87136E-05-2.86913E-05 6.40049E-07-7.68384E-19-1.02170E-18
 -1      2264 9.57580E-05-2.87616E-05-2.87139E-05 6.25285E-07-2.02818E-19-1.42276E-18
 -1      2265 9.55779E-05-2.86886E-05-2.86676E-05 7.36221E-07-6.95013E-19-1.21161E-18
 -1      2266 9.58552E-05-2.88178E-05-2.87294E-05 6.03289E-07 2.83221E-19-1.55323E-18
 -1      2267 9.59521E-05-2.88830E-05-2.87469E-05 5.59605E-07 7.58554E-19-1.61685E-18
 -1      2268 9.57577E-05-2.87939E-05-2.86997E-05 7.13744E-07-1.27363E-19-7.37054E-19
 -1      2269 9.60691E-05-2.89654E-05-2.87570E-05 4.97556E-07 9.77957E-19-1.68826E-18
 -1      2270 9.61578E-05-2.90500E-05-2.87661E-05 4.04327E-07 1.01652E-18-1.79698E-18
 -1      2271 9.59749E-05-2.89571E-05-2.87230E-05 6.29443E-07 6.78547E-19-1.00997E-18
 -1      2272 9.62957E-05-2.91632E-05-2.87686E-05 2.76870E-07 7.64630E-19-1.99615E-18
 -1      2273 9.63629E-05-2.92656E-05-2.87650E-05 1.09789E-07 3.11994E-19-1.93241E-18
 -1      2274 9.62348E-05-2.91914E-05-2.87340E-05 4.36452E-07 6.87394E-19-1.66158E-18
 -1      2275 9.65181E-05-2.94092E-05-2.87578E-05-1.12244E-07-1.29082E-20-2.09162E-18
 -1      2276 9.65431E-05-2.95209E-05-2.87367E-05-3.77800E-07 1.58035E-19-1.66942E-18
 -1      2277 9.65352E-05-2.95022E-05-2.87292E-05 7.79318E-08 8.90828E-20-2.03327E-18
 -1      2278 9.67030E-05-2.96854E-05-2.87184E-05-7.22641E-07-3.05060E-20-1.91684E-18
 -1      2279 9.66561E-05-2.97864E-05-2.86752E-05-1.10484E-06 1.18080E-19-1.92854E-18
 -1      2280 9.68600E-05-2.98780E-05-2.87065E-05-5.06607E-07-5.38648E-20-1.87050E-18
 -1      2281 9.67940E-05-2.99471E-05-2.86459E-05-1.59048E-06 6.26507E-19-2.10917E-18
 -1      2282 9.66377E-05-3.00026E-05-2.85775E-05-2.09016E-06 6.48625E-20-1.56758E-18
 -1      2283 9.71696E-05-3.02770E-05-2.86666E-05-1.36724E-06 1.62330E-19-1.40418E-18
 -1      2284 9.67087E-05-3.01146E-05-2.85396E-05-2.70957E-06-1.80845E-19-1.17138E-18
 -1      2285 9.64016E-05-3.00741E-05-2.84457E-05-3.29605E-06 5.06598E-19-8.42251E-19
 -1      2286 9.73911E-05-3.06140E-05-2.86142E-05-2.51906E-06 3.66827E-19-1.15558E-18
 -1      2287 9.63435E-05-3.00735E-05-2.84044E-05-3.99848E-06 2.96902E-19-1.10117E-18
 -1      2288 9.58510E-05-2.98786E-05-2.82891E-05-4.59604E-06 6.28641E-20-1.57330E-18
 -1      2289 9.74140E-05-3.07553E-05-2.85597E-05-3.90709E-06 3.08741E-20-4.96349E-19
 -1      2290 9.55964E-05-2.96947E-05-2.82517E-05-5.27042E-06-5.12877E-20-1.97332E-18
 -1      2291 9.49087E-05-2.92990E-05-2.81237E-05-5.75324E-06-2.74013E-19-1.92506E-18
 -1      2292 9.71035E-05-3.05346E-05-2.85173E-05-5.36786E-06-1.38249E-19-1.25427E-18
 -1      2293 9.44140E-05-2.88836E-05-2.80975E-05-6.22632E-06-7.32323E-19-1.59869E-18
 -1      2294 9.35686E-05-2.82851E-05-2.79696E-05-6.43390E-06-5.74646E-19-1.19868E-18
 -1      2295 9.63415E-05-2.98046E-05-2.85017E-05-6.60585E-06-2.34991E-19-2.62784E-19
 -1      2296 9.28576E-05-2.76556E-05-2.79586E-05-6.50155E-06-2.50843E-19-1.44995E-18
 -1      2297 9.19566E-05-2.69288E-05-2.78450E-05-6.28389E-06 2.43200E-19-8.98525E-19
 -1      2298 9.51027E-05-2.85265E-05-2.85215E-05-7.21811E-06-3.59799E-19 4.12688E-19
 -1      2299 9.11536E-05-2.62011E-05-2.78473E-05-5.78455E-06 2.52050E-19-1.32963E-18
 -1      2300 9.03572E-05-2.55034E-05-2.77607E-05-5.07057E-06-3.13303E-20-8.40921E-19
 -1      2301 9.35366E-05-2.68637E-05-2.85723E-05-6.80222E-06 3.02860E-19-7.73615E-19
 -1      2302 8.96763E-05-2.48802E-05-2.77690E-05-3.97973E-06-9.10163E-20-5.72162E-19
 -1      2303 8.91633E-05-2.44102E-05-2.77180E-05-2.83868E-06 1.59219E-19-1.35029E-18
 -1      2304 9.19938E-05-2.52073E-05-2.86347E-05-5.14003E-06 1.83849E-20-6.18218E-19
 -1      2305 8.88305E-05-2.41064E-05-2.77223E-05-1.33070E-06 4.01313E-19-1.33063E-18
 -1      2306 8.87312E-05-2.40188E-05-2.77113E-05 1.84858E-08 7.45091E-20-1.69994E-18
 -1      2307 9.09370E-05-2.40718E-05-2.86805E-05-2.37818E-06-1.46296E-19-5.26307E-19
 -1      2308 8.88684E-05-2.41500E-05-2.77062E-05 1.60335E-06 2.13055E-19-1.85575E-18
 -1      2309 8.92073E-05-2.44741E-05-2.77359E-05 2.86059E-06 7.63653E-20-1.54264E-18
 -1      2310 9.07333E-05-2.38611E-05-2.86857E-05 9.26425E-07 3.98610E-20-1.13990E-18
 -1      2311 8.97596E-05-2.49880E-05-2.77240E-05 4.15088E-06 2.29361E-20-5.06203E-19
 -1      2312 9.04439E-05-2.56131E-05-2.77916E-05 5.05305E-06 4.13995E-19 2.07764E-19
 -1      2313 9.14534E-05-2.46527E-05-2.86463E-05 3.99100E-06 1.00184E-18 5.70122E-19
 -1      2314 9.12169E-05-2.63253E-05-2.77814E-05 5.79707E-06 1.20310E-19 5.54020E-19
 -1      2315 9.20796E-05-2.70608E-05-2.78796E-05 6.20956E-06 9.31290E-20 6.69558E-19
 -1      2316 9.28339E-05-2.61575E-05-2.85791E-05 6.13709E-06 5.91951E-19 1.03852E-18
 -1      2317 9.28408E-05-2.77511E-05-2.78800E-05 6.35093E-06-1.06128E-19-3.89147E-21
 -1      2318 9.37058E-05-2.84131E-05-2.79975E-05 6.29200E-06-4.59651E-19 1.55721E-19
 -1      2319 9.44258E-05-2.78780E-05-2.85123E-05 7.03964E-06-1.06139E-19 3.39308E-19
 -1      2320 9.42862E-05-2.89225E-05-2.80128E-05 5.94779E-06-2.83051E-19-2.59947E-19
 -1      2321 9.50243E-05-2.93996E-05-2.81357E-05 5.54532E-06-2.82149E-19 7.49419E-20
 -1      2322 9.58093E-05-2.93486E-05-2.84695E-05 6.78188E-06-6.50771E-19-1.29852E-18
 -1      2323 9.53613E-05-2.96720E-05-2.81644E-05 4.91511E-06-8.75276E-19 3.84251E-19
 -1      2324 9.59091E-05-2.99370E-05-2.82791E-05 4.33406E-06-1.59995E-18 4.09536E-19
 -1      2325 9.67473E-05-3.03047E-05-2.84621E-05 5.71956E-06-5.96203E-19-2.04316E-19
 -1      2326 9.60237E-05-2.99980E-05-2.83151E-05 3.61226E-06-1.25994E-18 1.86525E-18
 -1      2327 9.63746E-05-3.00828E-05-2.84115E-05 2.99872E-06-1.84048E-20 1.83644E-18
 -1      2328 9.72017E-05-3.07095E-05-2.84867E-05 4.27751E-06-5.37459E-19 2.07877E-18
 -1      2329 9.63288E-05-2.99976E-05-2.84477E-05 2.32647E-06 1.39234E-19 2.01323E-18
 -1      2330 9.65108E-05-2.99583E-05-2.85202E-05 1.78038E-06 1.16735E-18 6.94226E-19
 -1      2331 9.72623E-05-3.06759E-05-2.85311E-05 2.80849E-06-1.90702E-19 3.25612E-18
 -1      2332 9.63718E-05-2.97953E-05-2.85511E-05 1.23558E-06 2.09743E-18-7.87659E-19
 -1      2333 9.64269E-05-2.96867E-05-2.85990E-05 8.08845E-07 1.56617E-18-8.18316E-19
 -1      2334 9.70647E-05-3.03690E-05-2.85813E-05 1.53679E-06 4.93644E-19 8.18787E-19
 -1      2335 9.62473E-05-2.94980E-05-2.86216E-05 4.19053E-07-4.41721E-19-1.08779E-18
 -1      2336 9.62176E-05-2.93614E-05-2.86481E-05 1.27100E-07-1.44782E-18-1.26317E-18
 -1      2337 9.67327E-05-2.99372E-05-2.86262E-05 5.66341E-07 3.44506E-19-8.73414E-19
 -1      2338 9.60333E-05-2.91810E-05-2.86620E-05-1.11686E-07-7.85980E-19-5.86723E-19
 -1      2339 9.59552E-05-2.90425E-05-2.86724E-05-2.78369E-07-5.16091E-19-6.00298E-19
 -1      2340 9.63564E-05-2.94852E-05-2.86600E-05-8.17849E-08-6.17221E-19-5.78279E-19
 -1      2341 9.57816E-05-2.88815E-05-2.86785E-05-3.84201E-07-4.06606E-19 5.51570E-20
 -1      2342 9.56840E-05-2.87617E-05-2.86781E-05-4.39071E-07-4.05818E-19 8.42153E-19
 -1      2343 9.59885E-05-2.90636E-05-2.86812E-05-4.38674E-07 1.85506E-20 8.80502E-20
 -1      2344 9.51956E-05-2.60267E-05-2.96502E-05 3.93070E-06 2.02579E-18 5.36385E-19
 -1      2345 9.58823E-05-2.53885E-05-3.01830E-05 5.78137E-06 2.28100E-18 6.99538E-19
 -1      2346 9.52978E-05-2.35629E-05-3.07211E-05 6.79753E-06 2.36343E-18-1.30901E-19
 -1      2347 9.39835E-05-2.77491E-05-2.83833E-05-3.57429E-07 6.33717E-19-1.41806E-19
 -1      2348 9.40851E-05-2.76089E-05-2.84666E-05-2.73161E-08 9.17071E-19 4.12141E-20
 -1      2349 9.38927E-05-2.79725E-05-2.82493E-05-8.37116E-07 4.52604E-19-1.94334E-19
 -1      2350 9.38947E-05-2.78646E-05-2.82857E-05-6.57353E-07 4.82463E-19-2.00865E-19
 -1      2351 9.45393E-05-2.78246E-05-2.86026E-05-3.79977E-07 6.49805E-19-4.41674E-19
 -1      2352 9.39232E-05-2.81319E-05-2.81944E-05-1.05954E-06 7.20953E-19-7.42666E-20
 -1      2353 9.38590E-05-2.80467E-05-2.81983E-05-9.85567E-07 5.99210E-19-8.59382E-20
 -1      2354 9.44410E-05-2.81026E-05-2.84386E-05-8.81744E-07 5.50644E-19-3.66240E-19
 -1      2355 9.40282E-05-2.82503E-05-2.81889E-05-1.12384E-06 5.89800E-19 1.51956E-19
 -1      2356 9.39285E-05-2.81826E-05-2.81737E-05-1.11378E-06 6.18181E-19 1.07010E-19
 -1      2357 9.44288E-05-2.82836E-05-2.83534E-05-1.11846E-06 6.97689E-19-2.05544E-19
 -1      2358 9.41735E-05-2.83392E-05-2.82134E-05-1.09529E-06 6.61946E-19 2.51858E-19
 -1      2359 9.40582E-05-2.82856E-05-2.81875E-05-1.12135E-06 6.85044E-19 2.84744E-19
 -1      2360 9.44749E-05-2.84034E-05-2.83199E-05-1.18991E-06 5.29532E-19-1.98759E-19
 -1      2361 9.43364E-05-2.84053E-05-2.82550E-05-1.01826E-06 6.23242E-19 1.55808E-19
 -1      2362 9.42177E-05-2.83633E-05-2.82240E-05-1.06171E-06 7.86597E-19 3.32625E-19
 -1      2363 9.45560E-05-2.84816E-05-2.83199E-05-1.16409E-06 7.56417E-19 2.02778E-19
 -1      2364 9.45031E-05-2.84532E-05-2.83059E-05-9.23419E-07 6.62747E-19-1.62159E-20
 -1      2365 9.43876E-05-2.84211E-05-2.82728E-05-9.71346E-07 5.36330E-19 1.38823E-19
 -1      2366 9.46555E-05-2.85299E-05-2.83410E-05-1.08801E-06 6.98389E-19 3.82449E-19
 -1      2367 9.46666E-05-2.84863E-05-2.83617E-05-8.32464E-07 7.32988E-19-6.92482E-20
 -1      2368 9.45571E-05-2.84624E-05-2.83281E-05-8.75708E-07 8.73252E-19-2.38019E-20
 -1      2369 9.47627E-05-2.85558E-05-2.83752E-05-9.94553E-07 7.20367E-19 1.89722E-19
 -1      2370 9.48178E-05-2.85064E-05-2.84176E-05-7.64453E-07 9.96440E-19-1.73191E-19
 -1      2371 9.47181E-05-2.84899E-05-2.83854E-05-7.95086E-07 8.61152E-19-8.30694E-20
 -1      2372 9.48690E-05-2.85643E-05-2.84168E-05-9.09139E-07 9.51640E-19-7.21187E-20
 -1      2373 9.49746E-05-2.85170E-05-2.84797E-05-7.25023E-07 2.75566E-19 1.21882E-19
 -1      2374 9.48727E-05-2.85054E-05-2.84450E-05-7.39815E-07 7.27229E-19 1.59702E-19
 -1      2375 9.49747E-05-2.85588E-05-2.84645E-05-8.46654E-07 6.96621E-19 6.53232E-20
 -1      2376 9.51330E-05-2.85170E-05-2.85468E-05-7.31259E-07 1.03951E-19 1.61685E-19
 -1      2377 9.50295E-05-2.85107E-05-2.85098E-05-7.22392E-07 4.06202E-19 1.99699E-19
 -1      2378 9.50824E-05-2.85391E-05-2.85191E-05-8.20538E-07 2.95946E-19 8.00666E-19
 -1      2379 9.53000E-05-2.85049E-05-2.86223E-05-7.97914E-07-1.34584E-19-6.77411E-20
 -1      2380 9.51888E-05-2.85041E-05-2.85808E-05-7.57832E-07-2.90722E-20-1.02137E-19
 -1      2381 9.51904E-05-2.85031E-05-2.85809E-05-8.47751E-07 2.02190E-19 4.84244E-19
 -1      2382 9.54839E-05-2.84767E-05-2.87115E-05-9.44275E-07-1.41265E-19-4.10010E-19
 -1      2383 9.53571E-05-2.84827E-05-2.86621E-05-8.62672E-07-7.20919E-20-1.30461E-19
 -1      2384 9.52995E-05-2.84458E-05-2.86524E-05-9.45268E-07 8.73052E-20-3.21765E-19
 -1      2385 9.56931E-05-2.84246E-05-2.88210E-05-1.19747E-06-1.35022E-19-7.43992E-19
 -1      2386 9.55412E-05-2.84402E-05-2.87595E-05-1.05947E-06 8.94902E-20-3.32411E-19
 -1      2387 9.54093E-05-2.83572E-05-2.87374E-05-1.13503E-06-1.21218E-19-4.26342E-19
 -1      2388 9.59352E-05-2.83347E-05-2.89598E-05-1.59669E-06 2.26068E-21-7.79400E-19
 -1      2389 9.57469E-05-2.83653E-05-2.88804E-05-1.38043E-06-2.68551E-19-7.47923E-19
 -1      2390 9.55148E-05-2.82205E-05-2.88409E-05-1.44716E-06-1.48004E-19-3.39227E-19
 -1      2391 9.62118E-05-2.81838E-05-2.91386E-05-2.19886E-06-2.08408E-20 3.99653E-19
 -1      2392 9.59762E-05-2.82385E-05-2.90341E-05-1.87186E-06-5.59732E-20-2.64582E-19
 -1      2393 9.56035E-05-2.80087E-05-2.89688E-05-1.92385E-06-5.71006E-19-6.21913E-19
 -1      2394 9.65054E-05-2.79526E-05-2.93573E-05-3.03045E-06 2.04577E-19 1.42900E-18
 -1      2395 9.62203E-05-2.80383E-05-2.92267E-05-2.57950E-06 3.77785E-19 8.64782E-19
 -1      2396 9.56474E-05-2.76882E-05-2.91222E-05-2.60129E-06-2.99460E-19 4.91552E-19
 -1      2397 9.68234E-05-2.75663E-05-2.96498E-05-4.28478E-06 8.30124E-19 9.21201E-19
 -1      2398 9.64536E-05-2.77135E-05-2.94698E-05-3.59704E-06 8.34126E-19 1.14562E-18
 -1      2399 9.56007E-05-2.72015E-05-2.93079E-05-3.56731E-06 7.43592E-19 5.34149E-19
 -1      2400 9.70965E-05-2.69675E-05-3.00131E-05-6.06663E-06 3.87071E-20 1.29339E-19
 -1      2401 9.66469E-05-2.71946E-05-2.97811E-05-5.08387E-06 5.80320E-19 6.50617E-19
 -1      2402 9.53715E-05-2.64431E-05-2.95278E-05-4.95208E-06 8.68152E-19 1.36109E-19
 -1      2403 9.72328E-05-2.60890E-05-3.04367E-05-8.54163E-06-5.51359E-19-6.81334E-19
 -1      2404 9.67045E-05-2.64112E-05-3.01511E-05-7.17305E-06-2.86137E-19-2.54196E-19
 -1      2405 9.48140E-05-2.53206E-05-2.97585E-05-6.86020E-06 2.63713E-20-1.51676E-19
 -1      2406 9.71041E-05-2.49237E-05-3.08702E-05-1.18675E-05-7.19912E-19-6.52007E-19
 -1      2407 9.64976E-05-2.53091E-05-3.05483E-05-1.00388E-05-8.48605E-19-9.29569E-19
 -1      2408 9.37146E-05-2.37417E-05-2.99461E-05-9.42810E-06-4.82939E-19-1.11224E-18
 -1      2409 9.66271E-05-2.36964E-05-3.11801E-05-1.61152E-05-8.98543E-19-6.53084E-19
 -1      2410 9.58925E-05-2.39618E-05-3.08811E-05-1.38360E-05-7.65794E-19-7.08565E-19
 -1      2411 9.18124E-05-2.17250E-05-2.99701E-05-1.27862E-05-5.06306E-19-1.77650E-18
 -1      2412 9.60519E-05-2.32579E-05-3.10901E-05-2.11200E-05-2.00475E-19-2.53744E-19
 -1      2413 9.49185E-05-2.28390E-05-3.09441E-05-1.86163E-05-5.61843E-19-4.95293E-19
 -1      2414 8.89232E-05-1.96452E-05-2.95892E-05-1.70438E-05-8.09414E-19-2.02396E-18
 -1      2415 9.66258E-05-2.58360E-05-3.01479E-05-2.63003E-05 1.68586E-19 6.00890E-19
 -1      2416 9.42494E-05-2.33777E-05-3.03607E-05-2.41842E-05 2.72314E-19 5.86901E-20
 -1      2417 8.52888E-05-1.87293E-05-2.83741E-05-2.23126E-05-7.96840E-19-1.99822E-18
 -1      2418 1.01069E-04-3.47228E-05-2.81287E-05-3.01269E-05-3.58189E-19 1.51775E-18
 -1      2419 9.60967E-05-2.84447E-05-2.87432E-05-2.94378E-05 4.49457E-20 1.12002E-18
 -1      2420 8.25595E-05-2.18866E-05-2.58118E-05-2.84543E-05-4.80241E-19-5.71694E-19
 -1      2421 1.19696E-04-5.45653E-05-2.77085E-05-2.76067E-05-1.12507E-18 2.42895E-18
 -1      2422 1.09516E-04-4.39858E-05-2.75696E-05-3.09273E-05-9.46030E-19 2.53220E-18
 -1      2423 2.28705E-05-1.86779E-05-1.40992E-06 1.40121E-05 5.02396E-19-2.27428E-19
 -1      2424 1.73560E-05-1.40304E-05-9.69947E-07-1.72761E-06 1.19090E-18 1.09945E-18
 -1      2425 1.86827E-04-5.09628E-05-5.76050E-05-1.75057E-05 2.88055E-18-1.54202E-18
 -1      2426 9.99113E-05-2.71993E-05-3.10502E-05 2.67276E-05 6.72518E-19 1.36634E-18
 -1      2427 1.04016E-04-3.13562E-05-3.09348E-05 2.78943E-05 1.32375E-19 1.80246E-18
 -1      2428 9.82157E-05-2.45830E-05-3.15752E-05 2.13882E-05-8.38949E-19 1.80498E-18
 -1      2429 1.00429E-04-2.59107E-05-3.18203E-05 2.36681E-05 1.55063E-20 2.05251E-18
 -1      2430 8.85216E-05-2.17725E-05-2.85048E-05 2.60042E-05 4.76721E-20 2.33448E-18
 -1      2431 9.79366E-05-2.47111E-05-3.14246E-05 1.64613E-05-8.82172E-19 2.94314E-19
 -1      2432 9.93287E-05-2.49028E-05-3.18151E-05 1.87199E-05-6.44499E-19 1.29737E-18
 -1      2433 9.04903E-05-2.06606E-05-2.98303E-05 2.04008E-05-2.63747E-19 8.03025E-19
 -1      2434 9.77736E-05-2.56187E-05-3.09589E-05 1.21185E-05-5.32969E-19 7.06775E-19
 -1      2435 9.88749E-05-2.54667E-05-3.13919E-05 1.41410E-05-5.44662E-19 8.78412E-19
 -1      2436 9.26660E-05-2.19192E-05-3.02463E-05 1.56081E-05-4.32316E-19-2.17148E-19
 -1      2437 9.74715E-05-2.65253E-05-3.04281E-05 8.76595E-06-4.64237E-19 7.21283E-19
 -1      2438 9.83612E-05-2.63385E-05-3.08082E-05 1.03213E-05-2.67252E-19 1.17242E-18
 -1      2439 9.42566E-05-2.36810E-05-3.01988E-05 1.16277E-05-1.20142E-18-6.45639E-19
 -1      2440 9.70304E-05-2.71824E-05-2.99466E-05 6.28187E-06 1.59954E-18-4.73481E-19
 -1      2441 9.77504E-05-2.70544E-05-3.02506E-05 7.42349E-06 3.46661E-19 4.58492E-19
 -1      2442 9.51522E-05-2.51885E-05-2.99557E-05 8.54465E-06 5.34427E-19 3.38604E-19
 -1      2443 9.65418E-05-2.75892E-05-2.95567E-05 4.46571E-06 2.35788E-18-1.21368E-18
 -1      2444 9.71089E-05-2.75326E-05-2.97852E-05 5.28223E-06 2.58737E-18-1.07296E-18
 -1      2445 9.55281E-05-2.62542E-05-2.96715E-05 6.21391E-06 1.90717E-18-7.57924E-19
 -1      2446 9.60618E-05-2.77625E-05-2.92631E-05 3.09086E-06 5.76983E-19-1.57935E-18
 -1      2447 9.64936E-05-2.77664E-05-2.94277E-05 3.70556E-06 1.43797E-18-4.40482E-19
 -1      2448 9.55862E-05-2.69258E-05-2.94138E-05 4.45767E-06 1.22884E-18-1.49077E-18
 -1      2449 9.85917E-05-5.46548E-05-1.89295E-05 3.74608E-05-1.21210E-18 4.22188E-18
 -1      2450 7.03056E-05-4.36759E-05-1.14275E-05 3.64011E-05-1.92742E-18 4.50918E-18
 -1      2451 9.36598E-05-2.55776E-05-2.91910E-05 1.66849E-06 5.43843E-19 4.83042E-19
 -1      2452 9.39081E-05-2.58528E-05-2.91677E-05 1.98436E-06-7.92956E-21-1.07118E-19
 -1      2453 9.34993E-05-2.54248E-05-2.91769E-05-2.47199E-07 1.71244E-18 2.58600E-18
 -1      2454 9.34320E-05-2.53705E-05-2.91823E-05 1.81862E-07 1.20059E-18 3.01423E-18
 -1      2455 9.38382E-05-2.58407E-05-2.91390E-05-1.04242E-06 2.25603E-18 3.22128E-18
 -1      2456 9.36652E-05-2.56572E-05-2.91610E-05-7.10673E-07 2.19538E-18 2.41507E-18
 -1      2457 9.33367E-05-2.55208E-05-2.90552E-05-6.49320E-07 1.64127E-18 3.13540E-18
 -1      2458 9.42940E-05-2.64248E-05-2.90812E-05-1.53258E-06 3.52892E-20-2.35593E-19
 -1      2459 9.40767E-05-2.61662E-05-2.91171E-05-1.34276E-06 1.04820E-18 2.14523E-18
 -1      2460 9.38202E-05-2.60984E-05-2.90203E-05-1.45861E-06 2.38918E-18 1.80567E-18
 -1      2461 9.47443E-05-2.70435E-05-2.90083E-05-1.69694E-06-1.28932E-18-3.73665E-18
 -1      2462 9.45374E-05-2.67654E-05-2.90534E-05-1.65025E-06-2.78787E-19-2.14479E-18
 -1      2463 9.43960E-05-2.67849E-05-2.89775E-05-1.89201E-06 9.72209E-19-1.49564E-18
 -1      2464 9.50997E-05-2.75856E-05-2.89292E-05-1.59744E-06-3.85499E-19-4.61298E-18
 -1      2465 9.49402E-05-2.73350E-05-2.89768E-05-1.66045E-06-5.83013E-19-4.93955E-18
 -1      2466 9.49172E-05-2.74328E-05-2.89264E-05-1.96325E-06-8.62247E-19-4.04222E-18
 -1      2467 9.53338E-05-2.80115E-05-2.88487E-05-1.32729E-06 1.82222E-18-1.36289E-18
 -1      2468 9.52310E-05-2.78059E-05-2.88953E-05-1.45790E-06 7.88674E-19-2.56126E-18
 -1      2469 9.53020E-05-2.79553E-05-2.88688E-05-1.76246E-06 3.95260E-19-2.52362E-18
 -1      2470 9.54434E-05-2.82952E-05-2.87759E-05-9.93156E-07 1.29169E-18 1.12568E-18
 -1      2471 9.53934E-05-2.81461E-05-2.88163E-05-1.14310E-06 1.74055E-18-9.64507E-19
 -1      2472 9.55208E-05-2.83143E-05-2.88088E-05-1.40478E-06 1.97607E-18-1.66321E-18
 -1      2473 9.54607E-05-2.84535E-05-2.87155E-05-6.71788E-07 4.14425E-19 2.33864E-18
 -1      2474 9.54500E-05-2.83603E-05-2.87476E-05-8.07092E-07-2.05374E-19 2.54138E-18
 -1      2475 9.56052E-05-2.85169E-05-2.87526E-05-1.01153E-06 1.16599E-18 9.51779E-19
 -1      2476 4.89171E-05-3.20441E-05-6.99346E-06 3.41498E-05-1.42894E-18 2.91062E-18
 -1      2477 3.42358E-05-2.46743E-05-3.75616E-06 2.46837E-05-4.92444E-19 4.00011E-19
 -1      2478 3.63397E-05-2.37399E-05-5.12141E-06 3.96775E-05 2.24464E-20-3.01120E-18
 -1      2479 2.49320E-05-2.03843E-05-1.46939E-06 2.85410E-05 7.33742E-20-3.52493E-18
 -1      2480 9.42372E-05-2.74189E-05-2.86332E-05 5.00324E-07 1.20515E-18-4.70780E-20
 -1      2481 9.44931E-05-2.71974E-05-2.88071E-05 1.12816E-06 1.44351E-18 1.45883E-19
 -1      2482 9.47516E-05-2.73858E-05-2.88843E-05 5.29604E-07 1.16222E-18-5.54213E-19
 -1      2483 9.53604E-05-2.74609E-05-2.90863E-05 2.23787E-06 8.11059E-20-1.90927E-18
 -1      2484 9.58042E-05-2.76709E-05-2.91856E-05 2.69848E-06 7.02392E-20-1.76139E-18
 -1      2485 9.53087E-05-2.71449E-05-2.92316E-05 3.27047E-06 1.45183E-19-9.35751E-19
 -1      2486 9.49619E-05-2.70221E-05-2.91337E-05 2.40458E-06 5.87431E-19-1.14373E-18
 -1      2487 3.71099E-05-2.62294E-05-4.25719E-06-3.96282E-05-6.30616E-19 3.56855E-18
 -1      2488 5.43806E-05-3.45027E-05-8.28577E-06-4.84904E-05-1.06006E-18 3.79598E-18
 -1      2489 1.89037E-05-1.52852E-05-1.02945E-06-1.72798E-05 6.61956E-19 4.74593E-18
 -1      2490 2.42169E-05-1.86596E-05-2.04675E-06-2.92400E-05-3.80953E-19 4.24215E-18
 -1      2491 1.48555E-04-9.58910E-06-6.01969E-05 3.02437E-06-1.65510E-18-1.83658E-18
 -1      2492 1.50451E-04-7.94939E-06-6.16283E-05 6.46130E-07-2.32553E-18-2.31969E-18
 -1      2493 5.50505E-05-3.70891E-05-7.63164E-06-3.40937E-05-7.50259E-19-3.16748E-18
 -1      2494 7.52643E-05-4.52434E-05-1.28404E-05-3.86411E-05-2.80368E-19-1.47299E-18
 -1      2495 9.42131E-05-2.61793E-05-2.91727E-05 2.26515E-06 3.51104E-19-8.30375E-19
 -1      2496 9.45808E-05-2.65785E-05-2.91386E-05 2.36832E-06 6.33294E-19-2.21896E-18
 -1      2497 9.46907E-05-2.66010E-05-2.91644E-05 2.79170E-06-9.44446E-20-2.13527E-18
 -1      2498 9.38533E-05-2.58122E-05-2.91462E-05 2.43009E-06 6.67501E-19-9.74829E-19
 -1      2499 9.34088E-05-2.53093E-05-2.91936E-05 7.27826E-07 1.19448E-18 4.50598E-18
 -1      2500 9.34944E-05-2.54197E-05-2.91826E-05 1.16272E-06 8.32125E-19 2.60043E-18
 -1      2501 9.32799E-05-2.53071E-05-2.91160E-05 1.57467E-06 9.47233E-19 2.03465E-18
 -1      2502 9.31118E-05-2.52143E-05-2.90857E-05 4.33706E-07 8.64167E-19 3.78126E-18
 -1      2503 8.78324E-05-1.07836E-05-3.30565E-05-1.53930E-06-1.91858E-20-3.66219E-18
 -1      2504 8.79395E-05-1.09074E-05-3.30479E-05-2.65711E-06-3.86662E-19-3.58765E-18
 -1      2505 8.93386E-05-1.30791E-05-3.26847E-05-2.94834E-06-5.08563E-19-3.29354E-18
 -1      2506 8.90859E-05-1.27397E-05-3.27231E-05-9.60045E-07 5.51515E-20-3.45917E-18
 -1      2507 9.46541E-05-2.69267E-05-2.90225E-05 1.82476E-06 1.75443E-18 1.48634E-19
 -1      2508 9.51120E-05-2.65819E-05-2.93304E-05 2.90622E-06 1.91021E-18 4.26078E-19
 -1      2509 9.52861E-05-2.56567E-05-2.98356E-05 3.79393E-06 2.10215E-18-4.11059E-19
 -1      2510 9.50282E-05-2.67105E-05-2.92892E-05 1.90152E-06 1.70099E-18-6.27227E-19
 -1      2511 9.53668E-05-2.84644E-05-2.86744E-05-4.04871E-07 1.53373E-18 6.31587E-19
 -1      2512 2.59526E-05-2.11639E-05-1.73700E-06-1.80130E-05-7.05155E-20-4.34867E-18
 -1      2513 3.82077E-05-2.82419E-05-4.12039E-06-2.85061E-05-1.37855E-19-4.35481E-18
 -1      2514 1.36553E-04-5.48974E-05-3.50863E-05-2.76390E-05-1.22799E-18-1.77623E-18
 -1      2515 1.47846E-04-5.12307E-05-4.17573E-05-1.98695E-05-2.85699E-18-2.88923E-18
 -1      2516 7.80628E-05-4.44743E-05-1.42280E-05 5.14372E-05-1.06747E-18-1.40893E-18
 -1      2517 5.85367E-05-3.59366E-05-9.33938E-06 4.85767E-05-1.60936E-20-2.16163E-18
 -1      2518 1.10515E-04-5.44187E-05-2.42629E-05 4.51707E-05-1.91789E-18-3.05747E-18
 -1      2519 9.39542E-05-5.07920E-05-1.83689E-05 4.79151E-05-1.85034E-18-1.44483E-18
 -1      2520 9.14923E-05-4.84451E-05-1.80550E-05 4.83284E-05-1.05794E-18-1.88846E-18
 -1      2521 1.42200E-04-5.47423E-05-3.78725E-05 2.47141E-05-4.06999E-19-1.94796E-18
 -1      2522 1.28614E-04-5.67377E-05-3.07130E-05 3.30365E-05-8.93832E-19-2.94323E-18
 -1      2523 1.55887E-04-3.98184E-05-5.00826E-05 6.73059E-06-2.14289E-18-2.67874E-19
 -1      2524 1.49352E-04-4.67719E-05-4.41174E-05 1.18910E-05-1.44419E-18-1.48104E-18
 -1      2525 1.58154E-04-2.24643E-05-5.85655E-05-1.46696E-06-2.32489E-18-1.26504E-18
 -1      2526 1.55872E-04-2.94579E-05-5.45393E-05 9.42845E-07-2.50997E-18-6.53274E-19
 -1      2527 1.54761E-04-1.02496E-05-6.25328E-05-2.34489E-06-2.93328E-18-2.05040E-18
 -1      2528 1.56039E-04-1.46501E-05-6.09961E-05-2.46164E-06-2.60759E-18-1.39125E-18
 -1      2529 1.53771E-04-2.40081E-05-5.60330E-05 3.26101E-06-1.90942E-18-1.13164E-18
 -1      2530 1.52653E-04-1.74106E-05-5.86531E-05 4.48999E-06-1.89270E-18-1.37908E-18
 -1      2531 1.52116E-04-4.26176E-05-4.71305E-05-7.89302E-06-3.04260E-18-2.29482E-18
 -1      2532 1.56006E-04-3.42922E-05-5.26690E-05-1.64273E-06-2.31420E-18-1.40607E-18
 -1      2533 1.10526E-04-5.52263E-05-2.35060E-05-4.29912E-05-2.70627E-19-9.01031E-20
 -1      2534 1.25262E-04-5.64970E-05-2.96028E-05-3.85455E-05-9.16278E-19-1.54128E-18
 -1      2535 7.04228E-05-4.26099E-05-1.16813E-05-4.95768E-05-1.09055E-19 2.59383E-18
 -1      2536 8.78723E-05-4.79684E-05-1.71609E-05-5.06632E-05-7.64447E-19 1.86877E-18
 -1      2537 6.72372E-05-3.70500E-05-1.24511E-05-4.83735E-05-5.47819E-19 2.57710E-18
 -1      2538 9.50742E-05-2.00197E-05-3.22155E-05-1.17841E-05-2.78455E-18-7.86933E-19
 -1      2539 9.54781E-05-2.33560E-05-3.09297E-05-7.97859E-06-2.57084E-18-6.16551E-19
 -1      2540 9.50517E-05-2.25693E-05-3.10528E-05-7.62356E-06-2.41659E-18-1.14753E-18
 -1      2541 9.32402E-05-1.77003E-05-3.24007E-05-1.13241E-05-2.68349E-18-1.61759E-18
 -1      2542 9.07947E-05-1.50379E-05-3.24619E-05-6.81939E-06-1.72146E-18-3.09513E-18
 -1      2543 8.97033E-05-1.31760E-05-3.28492E-05-7.97926E-06-1.81551E-18-3.30100E-18
 -1      2544 9.03628E-05-1.39624E-05-3.28045E-05-9.15152E-06-2.12409E-18-3.04322E-18
 -1      2545 1.55049E-04-7.10014E-05-3.61920E-05 8.26788E-06-6.68733E-19 1.17420E-18
 -1      2546 1.16580E-04-5.82553E-05-2.46279E-05 2.99180E-05-1.81646E-18 2.72612E-18
 -1      2547 5.47133E-05-2.97134E-05-1.02337E-05-3.24240E-05-1.12359E-18-2.61966E-18
 -1      2548 1.34607E-04-5.88055E-05-3.23197E-05-2.73125E-05-7.34589E-19-2.22643E-18
 -1      2549 8.82975E-05-3.42978E-05-2.30020E-05-3.42851E-05-9.58735E-19 3.65177E-19
 -1      2550 2.42155E-05-1.12085E-05-4.93304E-06-7.85915E-06 1.00549E-18 2.84455E-18
 -1      2551 6.94414E-05-3.59794E-05-1.38699E-05 3.54981E-05-1.74806E-18 4.30293E-18
 -1      2552 3.84633E-05-2.05335E-05-7.08751E-06-3.53489E-05 1.50242E-19 4.48652E-18
 -1      2553 1.21774E-04-6.34196E-05-2.49211E-05-2.93025E-05 2.57498E-19 1.19448E-18
 -1      2554 1.23322E-04-5.91700E-05-2.73030E-05-2.64787E-05-4.33257E-19 2.34925E-18
 -1      2555 3.59038E-05-1.74878E-05-7.36119E-06 2.04258E-05 2.67027E-19 2.39710E-19
 -1      2556 1.39899E-04-1.15485E-05-5.52820E-05 6.85530E-06-1.80058E-18-2.29842E-18
 -1      2557 9.54927E-05-2.85871E-05-2.86714E-05-4.25108E-07 1.13398E-18 8.07233E-19
 -1      2558 9.54701E-05-2.85051E-05-2.86962E-05-5.50643E-07 4.57141E-19 1.95069E-18
 -1      2559 9.55981E-05-2.86223E-05-2.87079E-05-6.85311E-07-3.81233E-19 2.52530E-18
 -1      2560 9.55781E-05-2.86735E-05-2.86784E-05-4.45990E-07-6.20883E-19 1.24767E-18
 -1      2561 1.01834E-04-5.11639E-05-2.16799E-05-3.53879E-05-8.07011E-19 1.06525E-18
 -1      2562 2.39070E-05-1.44870E-05-3.50391E-06 2.09822E-05 4.63433E-19-4.06703E-18
 -1      2563 1.39330E-04-6.13462E-06-5.73680E-05-1.33818E-06-2.62728E-18-1.32913E-18
 -1      2564 8.91500E-05-4.79006E-05-1.72769E-05-3.64968E-05-8.59950E-19-7.76517E-19
 -1      2565 9.37969E-05-5.48671E-05-1.67818E-05-3.60515E-05 8.80914E-20-5.17008E-19
 -1      2566 1.03464E-04-5.30314E-05-2.12898E-05-4.50540E-05-3.62742E-19 1.41084E-19
 -1      2567 1.48321E-04-4.89977E-05-4.25457E-05-7.34758E-06-2.15173E-18-2.38101E-18
 -1      2568 1.47392E-04-2.96695E-05-5.05950E-05 6.38693E-06-2.22283E-18-1.14519E-18
 -1      2569 1.46782E-04-1.65983E-05-5.59305E-05-6.90251E-06-1.91684E-18-4.90538E-19
 -1      2570 1.50040E-04-3.48276E-05-4.94890E-05-3.38735E-06-1.69608E-18-4.54433E-19
 -1      2571 1.08092E-04-3.72452E-05-2.99822E-05 2.97241E-05-1.32984E-18 1.46722E-18
 -1      2572 1.16264E-04-4.57433E-05-2.99169E-05 2.75570E-05-1.87237E-18 1.69785E-18
 -1      2573 1.38046E-04-6.07841E-05-3.29263E-05 1.97154E-05-2.20546E-18 7.63018E-19
 -1      2574 1.49483E-04-6.77427E-05-3.48677E-05 1.09076E-05-1.89439E-18 1.28929E-18
 -1      2575 9.57085E-05-2.87612E-05-2.86894E-05-5.49662E-07-4.45160E-19 2.42731E-18
 -1      2576 9.09322E-05-2.94925E-05-2.61843E-05 3.20532E-05-7.85094E-19 1.95400E-18
 -1      2577 1.23435E-04-5.81149E-05-2.77881E-05 3.56318E-05-4.01070E-19-1.65034E-18
 -1      2578 5.21741E-05-2.95266E-05-9.11390E-06 4.48061E-05 2.47334E-19-2.77107E-18
 -1      2579 4.66516E-05-2.18152E-05-1.00848E-05 3.94306E-05 3.38601E-19-2.62834E-18
 -1      2580 6.71249E-05-3.44247E-05-1.39059E-05 4.71954E-05 2.22240E-19-1.96543E-18
 -1      2581 9.11392E-05-1.50029E-05-3.26825E-05-9.83616E-06-2.30006E-18-2.68471E-18
 -1      2582 9.21689E-05-1.62848E-05-3.26014E-05-1.08630E-05-2.60009E-18-2.19929E-18
 -1      2583 9.36614E-05-1.92091E-05-3.18941E-05-9.21675E-06-2.54000E-18-1.86124E-18
 -1      2584 9.20759E-05-1.68149E-05-3.22403E-05-8.33059E-06-2.15031E-18-2.57207E-18
 -1      2585 2.41142E-05-1.64973E-05-2.75988E-06-1.07550E-05-1.67289E-20-4.24109E-18
 -1      2586 3.37878E-05-1.49220E-05-7.85117E-06-1.85252E-05-3.46331E-19-3.85379E-18
 -1      2587 2.28722E-05-1.02169E-05-4.92460E-06-2.77823E-06 2.61217E-19-4.16041E-18
 -1      2588 1.45514E-04-5.31941E-05-3.95496E-05 1.21406E-05-7.67782E-19-1.63287E-18
 -1      2589 9.40985E-05-4.23662E-05-2.18198E-05 3.65809E-05-1.71439E-18 3.38686E-18
 -1      2590 1.15055E-04-5.12118E-05-2.70682E-05 2.94690E-05-1.33757E-18 1.52900E-18
 -1      2591 9.05361E-05-1.51381E-05-3.23354E-05 3.18057E-06 1.12854E-18-3.01840E-18
 -1      2592 9.03488E-05-1.48711E-05-3.23677E-05 2.24589E-06 8.53369E-19-3.11051E-18
 -1      2593 9.02171E-05-1.46718E-05-3.23963E-05 1.40617E-06 6.93856E-19-3.19759E-18
 -1      2594 9.01545E-05-1.45828E-05-3.24071E-05 4.49063E-07 3.86184E-19-3.20638E-18
 -1      2595 9.14019E-05-1.65644E-05-3.20603E-05 1.62918E-06 6.90593E-19-2.98687E-18
 -1      2596 9.20990E-05-1.74897E-05-3.20148E-05 6.46096E-06 2.25220E-18-2.17142E-18
 -1      2597 9.15733E-05-1.67009E-05-3.21129E-05 5.63299E-06 1.92723E-18-2.44584E-18
 -1      2598 9.34716E-05-1.96397E-05-3.16807E-05 7.62630E-06 2.55521E-18-1.52443E-18
 -1      2599 9.27348E-05-1.84532E-05-3.18508E-05 7.03383E-06 2.35840E-18-1.91297E-18
 -1      2600 9.34249E-05-1.98125E-05-3.15203E-05 5.77502E-06 2.16014E-18-1.88338E-18
 -1      2601 9.49953E-05-2.26050E-05-3.10528E-05 7.20243E-06 2.46017E-18-6.39396E-19
 -1      2602 9.40760E-05-2.07296E-05-3.14248E-05 7.54506E-06 2.48149E-18-1.17071E-18
 -1      2603 9.44048E-05-2.18674E-05-3.10794E-05 6.03320E-06 2.33477E-18-1.43799E-18
 -1      2604 9.51327E-05-2.39854E-05-3.04939E-05 5.39445E-06 2.26629E-18-7.84238E-19
 -1      2605 9.58409E-05-2.88834E-05-2.87016E-05-6.92522E-07 8.86288E-19 2.03366E-18
 -1      2606 9.57365E-05-2.87557E-05-2.87036E-05-7.00029E-07 4.49270E-19 2.36317E-18
 -1      2607 9.57399E-05-2.87265E-05-2.87210E-05-8.47346E-07 1.08827E-18 2.55248E-18
 -1      2608 9.46741E-05-2.65459E-05-2.91889E-05 3.21881E-06 5.47428E-21-9.01476E-19
 -1      2609 9.47888E-05-2.65410E-05-2.92476E-05 3.70937E-06 3.53878E-20-1.40273E-18
 -1      2610 9.41365E-05-2.60999E-05-2.91758E-05 3.15141E-06 2.39136E-19-1.85168E-18
 -1      2611 7.48390E-05-1.98011E-05-2.33778E-05 2.81450E-05 3.29919E-19 2.00646E-18
 -1      2612 7.82901E-05-2.63862E-05-2.18158E-05 3.14221E-05-9.09872E-19 2.43824E-18
 -1      2613 9.53623E-05-2.59061E-05-2.97417E-05-2.72713E-06-1.71132E-18-1.22660E-18
 -1      2614 9.51916E-05-2.64777E-05-2.94594E-05-1.73223E-06-1.51873E-18-1.33763E-18
 -1      2615 9.52198E-05-2.69994E-05-2.92136E-05-9.82257E-07-1.41666E-18-1.20284E-18
 -1      2616 9.50853E-05-2.73547E-05-2.90336E-05-3.74985E-07-1.19409E-18-1.31375E-18
 -1      2617 9.54121E-05-2.63170E-05-2.96180E-05-1.62089E-06-1.52104E-18-1.16883E-18
 -1      2618 9.50513E-05-2.76599E-05-2.88661E-05 9.32782E-08-1.03693E-18-1.30996E-18
 -1      2619 9.49737E-05-2.78834E-05-2.87558E-05 4.46957E-07-9.79725E-19-1.29966E-18
 -1      2620 9.54181E-05-2.73186E-05-2.91930E-05-3.40497E-07-1.21553E-18-1.32214E-18
 -1      2621 9.49315E-05-2.80676E-05-2.86457E-05 7.19707E-07-8.63630E-19-1.21589E-18
 -1      2622 9.49038E-05-2.82133E-05-2.85826E-05 9.06424E-07-7.84467E-19-1.39684E-18
 -1      2623 9.53558E-05-2.79300E-05-2.89035E-05 4.55090E-07-1.00257E-18-1.37691E-18
 -1      2624 9.48688E-05-2.83236E-05-2.85133E-05 1.04478E-06-7.83775E-19-1.50360E-18
 -1      2625 9.48771E-05-2.84192E-05-2.84817E-05 1.12435E-06-6.76012E-19-1.64386E-18
 -1      2626 9.52914E-05-2.83076E-05-2.87128E-05 9.04697E-07-9.05516E-19-1.48342E-18
 -1      2627 9.48527E-05-2.84824E-05-2.84412E-05 1.17529E-06-3.70421E-19-1.62571E-18
 -1      2628 9.48837E-05-2.85441E-05-2.84304E-05 1.18891E-06-2.81710E-19-1.66842E-18
 -1      2629 9.52420E-05-2.85350E-05-2.85928E-05 1.12042E-06-4.58871E-19-1.78856E-18
 -1      2630 9.48689E-05-2.85763E-05-2.84098E-05 1.18650E-06-3.44592E-19-1.45833E-18
 -1      2631 9.49127E-05-2.86143E-05-2.84124E-05 1.16260E-06-5.23209E-19-1.19659E-18
 -1      2632 9.52102E-05-2.86634E-05-2.85230E-05 1.18643E-06-2.53298E-19-1.38724E-18
 -1      2633 9.49054E-05-2.86259E-05-2.84055E-05 1.13107E-06-7.03613E-19-9.06265E-19
 -1      2634 9.49552E-05-2.86471E-05-2.84164E-05 1.08922E-06-4.94751E-19-9.27752E-19
 -1      2635 9.51934E-05-2.87255E-05-2.84883E-05 1.16361E-06-2.70288E-19-7.76049E-19
 -1      2636 9.49535E-05-2.86451E-05-2.84186E-05 1.04556E-06-3.81850E-19-7.38647E-19
 -1      2637 9.50053E-05-2.86547E-05-2.84345E-05 9.99078E-07-2.68654E-19-6.97034E-19
 -1      2638 9.51878E-05-2.87433E-05-2.84777E-05 1.09521E-06-3.96538E-19-5.46673E-19
 -1      2639 9.50077E-05-2.86441E-05-2.84427E-05 9.54914E-07-4.34131E-19-6.85160E-19
 -1      2640 9.50595E-05-2.86460E-05-2.84615E-05 9.12602E-07-4.74013E-19-6.61423E-19
 -1      2641 9.51907E-05-2.87319E-05-2.84833E-05 1.01139E-06-4.32558E-19-6.63999E-19
 -1      2642 9.50655E-05-2.86307E-05-2.84734E-05 8.75595E-07-4.67036E-19-4.64035E-19
 -1      2643 9.51171E-05-2.86284E-05-2.84936E-05 8.42849E-07-3.82038E-19-2.11000E-19
 -1      2644 9.52002E-05-2.87027E-05-2.84997E-05 9.32595E-07-3.12108E-19-3.54047E-20
 -1      2645 9.51270E-05-2.86118E-05-2.85079E-05 8.17591E-07-2.96485E-19-1.61644E-19
 -1      2646 9.51793E-05-2.86089E-05-2.85287E-05 7.97062E-07-1.37142E-19-1.71237E-19
 -1      2647 9.52166E-05-2.86649E-05-2.85227E-05 8.71907E-07-2.29839E-19-6.02053E-20
 -1      2648 9.51944E-05-2.85946E-05-2.85440E-05 7.85566E-07-5.26636E-19-7.11442E-19
 -1      2649 9.52493E-05-2.85948E-05-2.85647E-05 7.77380E-07-8.56102E-19-8.27063E-19
 -1      2650 9.52416E-05-2.86270E-05-2.85497E-05 8.36568E-07-7.89593E-19-1.85667E-19
 -1      2651 9.52725E-05-2.85873E-05-2.85803E-05 7.79163E-07-8.84754E-19-1.09934E-18
 -1      2652 9.53326E-05-2.85954E-05-2.86004E-05 7.80765E-07-8.32863E-19-1.23637E-18
 -1      2653 9.52796E-05-2.85987E-05-2.85782E-05 8.28602E-07-1.06403E-18-7.69550E-19
 -1      2654 9.53682E-05-2.86003E-05-2.86152E-05 7.92544E-07-6.89177E-19-1.11718E-18
 -1      2655 9.54372E-05-2.86222E-05-2.86341E-05 7.98188E-07-5.63990E-19-1.46303E-18
 -1      2656 9.53377E-05-2.85917E-05-2.86063E-05 8.44669E-07-9.56778E-19-1.19825E-18
 -1      2657 9.54919E-05-2.86473E-05-2.86473E-05 8.13191E-07-3.73749E-19-1.47022E-18
 -1      2658 9.55737E-05-2.86907E-05-2.86639E-05 8.13138E-07-1.81156E-19-9.44705E-19
 -1      2659 9.54272E-05-2.86218E-05-2.86322E-05 8.75132E-07-4.01530E-19-1.44182E-18
 -1      2660 9.56566E-05-2.87459E-05-2.86746E-05 8.20066E-07 3.84701E-20-6.58519E-19
 -1      2661 9.57556E-05-2.88197E-05-2.86876E-05 7.99639E-07 4.49880E-19-7.24831E-19
 -1      2662 9.55637E-05-2.87092E-05-2.86538E-05 9.02361E-07 2.34748E-19-1.09398E-18
 -1      2663 9.58783E-05-2.89168E-05-2.86949E-05 7.81417E-07 3.48227E-19-5.05410E-19
 -1      2664 9.59979E-05-2.90304E-05-2.87028E-05 7.20213E-07 4.26368E-19-7.67162E-19
 -1      2665 9.57683E-05-2.88791E-05-2.86696E-05 8.98451E-07 4.58980E-19-5.25334E-19
 -1      2666 9.61738E-05-2.91817E-05-2.87061E-05 6.52855E-07 5.56413E-19-1.12986E-18
 -1      2667 9.63155E-05-2.93423E-05-2.87075E-05 5.24668E-07 2.68134E-19-1.68430E-18
 -1      2668 9.60661E-05-2.91590E-05-2.86783E-05 8.22736E-07-5.43410E-20-9.71222E-19
 -1      2669 9.65571E-05-2.95571E-05-2.87073E-05 3.76885E-07 1.82205E-19-1.60883E-18
 -1      2670 9.67170E-05-2.97658E-05-2.87011E-05 1.51248E-07 2.43709E-20-1.63286E-18
 -1      2671 9.64835E-05-2.95741E-05-2.86803E-05 6.19989E-07 3.85849E-19-1.54739E-18
 -1      2672 9.70306E-05-3.00441E-05-2.86994E-05-1.14030E-07-3.17675E-19-1.64093E-18
 -1      2673 9.71956E-05-3.02885E-05-2.86857E-05-4.67373E-07-8.53923E-20-1.60890E-18
 -1      2674 9.70402E-05-3.01355E-05-2.86791E-05 2.20986E-07-5.35569E-20-1.33541E-18
 -1      2675 9.75732E-05-3.06118E-05-2.86871E-05-8.87618E-07 1.94256E-19-1.33907E-18
 -1      2676 9.77154E-05-3.08572E-05-2.86683E-05-1.38967E-06 1.24475E-19-1.30064E-18
 -1      2677 9.77359E-05-3.08228E-05-2.86827E-05-4.51529E-07 3.01582E-19-1.01240E-18
 -1      2678 9.81224E-05-3.11772E-05-2.86804E-05-1.99068E-06 4.49686E-19-1.03908E-18
 -1      2679 9.81953E-05-3.13584E-05-2.86614E-05-2.63823E-06 6.92455E-19-8.81930E-19
 -1      2680 9.85296E-05-3.15598E-05-2.87053E-05-1.46667E-06 6.28193E-19-8.91412E-19
 -1      2681 9.85601E-05-3.15885E-05-2.86950E-05-3.41306E-06 4.71448E-19-8.10591E-19
 -1      2682 9.84993E-05-3.16094E-05-2.86834E-05-4.15864E-06 7.89449E-20-4.94888E-19
 -1      2683 9.93161E-05-3.21902E-05-2.87680E-05-2.85282E-06 8.72088E-19-6.69649E-19
 -1      2684 9.87117E-05-3.16284E-05-2.87502E-05-5.03864E-06-2.79087E-19-3.95419E-19
 -1      2685 9.84485E-05-3.13782E-05-2.87547E-05-5.77113E-06-8.50094E-20-4.03043E-19
 -1      2686 9.99116E-05-3.24710E-05-2.88958E-05-4.54607E-06 6.46526E-20-2.75667E-19
 -1      2687 9.83793E-05-3.10577E-05-2.88632E-05-6.59716E-06-3.49856E-20-3.62960E-19
 -1      2688 9.78701E-05-3.04539E-05-2.88905E-05-7.13407E-06-1.69096E-19 1.73084E-19
 -1      2689 1.00071E-04-3.21067E-05-2.91117E-05-6.32784E-06-3.84252E-19 4.23784E-19
 -1      2690 9.74294E-05-2.97233E-05-2.90396E-05-7.65058E-06-1.46648E-19 1.20557E-19
 -1      2691 9.67005E-05-2.87807E-05-2.90895E-05-7.76547E-06-1.40635E-19 2.06701E-19
 -1      2692 9.95617E-05-3.08569E-05-2.94235E-05-7.77740E-06-8.03709E-20-2.18021E-19
 -1      2693 9.59230E-05-2.77135E-05-2.92619E-05-7.67805E-06-1.43900E-19 1.86334E-19
 -1      2694 9.51029E-05-2.66024E-05-2.93240E-05-7.17902E-06 3.94015E-19-4.56376E-19
 -1      2695 9.83188E-05-2.87200E-05-2.98095E-05-8.31049E-06-2.20183E-19-6.75228E-21
 -1      2696 9.42041E-05-2.54631E-05-2.94850E-05-6.28752E-06 6.05873E-19-5.82486E-19
 -1      2697 9.35103E-05-2.44982E-05-2.95399E-05-5.12870E-06-1.24994E-19-4.71272E-19
 -1      2698 9.65918E-05-2.60942E-05-3.02081E-05-7.37518E-06 4.85771E-19-7.22543E-19
 -1      2699 9.28402E-05-2.36825E-05-2.96473E-05-3.48220E-06-3.45056E-19-3.42132E-19
 -1      2700 9.25025E-05-2.32092E-05-2.96735E-05-1.84783E-06-3.56657E-19-4.72149E-19
 -1      2701 9.49642E-05-2.37638E-05-3.05288E-05-4.77185E-06-2.06917E-19-6.83288E-19
 -1      2702 9.23734E-05-2.30572E-05-2.96919E-05 1.83929E-07-3.48078E-21-3.60817E-19
 -1      2703 9.25129E-05-2.32635E-05-2.96775E-05 1.90642E-06 3.69210E-19-1.43237E-19
 -1      2704 9.41333E-05-2.26144E-05-3.06798E-05-9.23703E-07-3.80418E-19-9.72333E-19
 -1      2705 9.29859E-05-2.38401E-05-2.96004E-05 3.76660E-06 7.83591E-19 3.24513E-19
 -1      2706 9.35474E-05-2.46394E-05-2.95512E-05 5.15165E-06 8.93753E-19 2.79770E-19
 -1      2707 9.44911E-05-2.31204E-05-3.06101E-05 3.15840E-06 4.56960E-19 2.15116E-19
 -1      2708 9.43935E-05-2.56960E-05-2.94046E-05 6.37474E-06 3.93355E-19-1.03305E-18
 -1      2709 9.51827E-05-2.67925E-05-2.93391E-05 7.14678E-06 2.73613E-19-1.12841E-18
 -1      2710 9.58601E-05-2.50634E-05-3.03440E-05 6.35380E-06-2.49396E-19-2.00327E-18
 -1      2711 9.60505E-05-2.79406E-05-2.91639E-05 7.54333E-06 1.72505E-19-1.21102E-18
 -1      2712 9.68297E-05-2.89857E-05-2.91032E-05 7.65126E-06-8.01332E-19-1.76712E-18
 -1      2713 9.76330E-05-2.76881E-05-2.99617E-05 7.97500E-06-1.76303E-19-2.72133E-18
 -1      2714 9.74213E-05-2.98777E-05-2.89386E-05 7.33425E-06-9.23150E-19-2.19813E-18
 -1      2715 9.80182E-05-3.06303E-05-2.88973E-05 6.92901E-06-3.69145E-19-2.14215E-18
 -1      2716 9.91290E-05-3.01159E-05-2.95560E-05 7.96444E-06-8.45395E-19-2.45739E-18
 -1      2717 9.82313E-05-3.11185E-05-2.87687E-05 6.17869E-06-8.92714E-21-1.21315E-18
 -1      2718 9.85796E-05-3.15043E-05-2.87513E-05 5.48559E-06 1.86815E-20-4.27933E-19
 -1      2719 9.99418E-05-3.17560E-05-2.92043E-05 6.78541E-06 1.40698E-19-1.67296E-18
 -1      2720 9.84622E-05-3.16081E-05-2.86664E-05 4.58584E-06 5.45085E-19-4.29477E-19
 -1      2721 9.85817E-05-3.16769E-05-2.86691E-05 3.81401E-06 5.10528E-19 1.18415E-18
 -1      2722 1.00026E-04-3.24627E-05-2.89453E-05 5.04410E-06 6.39288E-19-1.50173E-18
 -1      2723 9.82552E-05-3.15088E-05-2.86230E-05 2.96897E-06-2.58958E-19 1.35399E-18
 -1      2724 9.82090E-05-3.13654E-05-2.86377E-05 2.26296E-06-2.04567E-19 7.50857E-19
 -1      2725 9.95636E-05-3.23977E-05-2.87828E-05 3.24566E-06 4.16516E-19-1.28315E-18
 -1      2726 9.77955E-05-3.10538E-05-2.86198E-05 1.57950E-06-2.56369E-19 1.10747E-18
 -1      2727 9.76527E-05-3.08029E-05-2.86388E-05 1.01491E-06 4.95455E-19 1.29830E-19
 -1      2728 9.88067E-05-3.18482E-05-2.86992E-05 1.69679E-06-7.90055E-20-2.72222E-19
 -1      2729 9.72395E-05-3.04483E-05-2.86380E-05 5.25378E-07 6.29992E-19-3.99731E-19
 -1      2730 9.70546E-05-3.01666E-05-2.86557E-05 1.25825E-07-3.31858E-19-4.13219E-19
 -1      2731 9.79683E-05-3.10839E-05-2.86701E-05 5.24959E-07-4.16589E-21-3.79775E-19
 -1      2732 9.66868E-05-2.98271E-05-2.86633E-05-1.79531E-07-1.92140E-19 7.50196E-19
 -1      2733 9.64959E-05-2.95635E-05-2.86767E-05-4.14783E-07-2.41674E-19 1.15472E-18
 -1      2734 9.71812E-05-3.02919E-05-2.86731E-05-2.59863E-07 1.59836E-19-2.18070E-19
 -1      2735 9.62362E-05-2.93229E-05-2.86851E-05-5.52737E-07-5.47098E-19 1.44611E-18
 -1      2736 9.60538E-05-2.90894E-05-2.86938E-05-6.62974E-07 3.34787E-19 1.47149E-18
 -1      2737 9.60820E-05-2.90874E-05-2.87080E-05-8.30917E-07 8.15812E-19 3.29067E-18
 -1      2738 9.65632E-05-2.96370E-05-2.86885E-05-6.74818E-07-1.53419E-19 2.36073E-18
 -1      2739 8.43919E-05-4.11286E-05-1.80088E-05-3.67013E-05-1.14307E-18-5.18067E-19
 -1      2740 9.49094E-05-2.81958E-05-2.85926E-05-8.78771E-07 4.62348E-19-5.83458E-19
 -1      2741 9.49399E-05-2.80452E-05-2.86586E-05-6.82379E-07 5.41770E-19-6.45353E-19
 -1      2742 9.49816E-05-2.78533E-05-2.87723E-05-3.97485E-07 5.44940E-19-8.12036E-19
 -1      2743 9.50626E-05-2.76223E-05-2.88868E-05-2.87718E-08 6.87166E-19-7.32720E-19
 -1      2744 9.53627E-05-2.78958E-05-2.89213E-05-4.07591E-07 5.04582E-19-1.09257E-18
 -1      2745 9.48870E-05-2.85406E-05-2.84334E-05-1.18332E-06 5.06681E-19-5.95834E-19
 -1      2746 9.48567E-05-2.84766E-05-2.84452E-05-1.16622E-06 7.32178E-19-5.48140E-19
 -1      2747 9.49168E-05-2.86144E-05-2.84141E-05-1.16182E-06 6.45055E-19-3.09250E-19
 -1      2748 9.48728E-05-2.85750E-05-2.84119E-05-1.18367E-06 5.47414E-19-5.12742E-19
 -1      2749 9.52191E-05-2.86609E-05-2.85280E-05-1.18169E-06 6.27616E-19-1.02855E-18
 -1      2750 9.49612E-05-2.86485E-05-2.84183E-05-1.09179E-06 6.81715E-19-1.17765E-19
 -1      2751 9.49104E-05-2.86270E-05-2.84071E-05-1.13198E-06 7.10251E-19-9.39232E-20
 -1      2752 9.52037E-05-2.87268E-05-2.84923E-05-1.16425E-06 5.41545E-19-9.17879E-19
 -1      2753 9.50134E-05-2.86537E-05-2.84383E-05-1.00596E-06 7.83184E-19-4.26972E-19
 -1      2754 9.49603E-05-2.86459E-05-2.84212E-05-1.04988E-06 6.84434E-19-2.69442E-19
 -1      2755 9.51998E-05-2.87448E-05-2.84823E-05-1.10024E-06 7.93491E-19-9.57855E-19
 -1      2756 9.50668E-05-2.86383E-05-2.84676E-05-9.31608E-07 7.75920E-19 2.76850E-20
 -1      2757 9.50154E-05-2.86406E-05-2.84476E-05-9.67125E-07 8.77791E-19-2.00922E-19
 -1      2758 9.52034E-05-2.87292E-05-2.84900E-05-1.02426E-06 7.27859E-19-4.83195E-19
 -1      2759 9.51250E-05-2.86039E-05-2.85069E-05-8.78548E-07 3.11843E-19 5.28130E-19
 -1      2760 9.50714E-05-2.86156E-05-2.84826E-05-9.00701E-07 6.20845E-19 4.13810E-19
 -1      2761 9.52109E-05-2.86879E-05-2.85106E-05-9.57560E-07 4.22244E-19 4.34485E-19
 -1      2762 9.51824E-05-2.85505E-05-2.85540E-05-8.66581E-07 1.62244E-19 6.01514E-19
 -1      2763 9.51288E-05-2.85717E-05-2.85264E-05-8.65920E-07 4.69514E-19 6.42586E-19
 -1      2764 9.52192E-05-2.86222E-05-2.85421E-05-9.16856E-07 3.63928E-19 7.18366E-19
 -1      2765 9.52370E-05-2.84743E-05-2.86095E-05-9.10898E-07 4.48166E-19 4.52150E-19
 -1      2766 9.51829E-05-2.85069E-05-2.85777E-05-8.79537E-07 4.02050E-19 6.15861E-19
 -1      2767 9.52234E-05-2.85312E-05-2.85826E-05-9.19934E-07 3.33210E-19 2.41927E-19
 -1      2768 9.52845E-05-2.83670E-05-2.86751E-05-1.02857E-06 1.36614E-19 1.03548E-19
 -1      2769 9.52299E-05-2.84150E-05-2.86377E-05-9.57061E-07 4.33436E-19 5.72242E-19
 -1      2770 9.52165E-05-2.84081E-05-2.86320E-05-9.81925E-07 4.23477E-19 8.59245E-19
 -1      2771 9.53160E-05-2.82132E-05-2.87534E-05-1.24096E-06-1.65702E-19-1.00287E-19
 -1      2772 9.52621E-05-2.82840E-05-2.87085E-05-1.11694E-06-8.34666E-20-2.10422E-19
 -1      2773 9.51870E-05-2.82398E-05-2.86909E-05-1.11930E-06 1.78242E-19 5.43933E-19
 -1      2774 9.53143E-05-2.79888E-05-2.88476E-05-1.57635E-06 3.77200E-20-5.85915E-19
 -1      2775 9.52657E-05-2.80942E-05-2.87928E-05-1.38291E-06 1.06856E-19-2.03889E-19
 -1      2776 9.51154E-05-2.80041E-05-2.87602E-05-1.35166E-06 7.91528E-20-3.07756E-19
 -1      2777 9.52465E-05-2.76555E-05-2.89602E-05-2.07262E-06-3.99042E-19-6.05368E-19
 -1      2778 9.52150E-05-2.78139E-05-2.88933E-05-1.78643E-06-3.65464E-19-6.73811E-19
 -1      2779 9.49693E-05-2.76670E-05-2.88402E-05-1.70318E-06-2.04346E-20-5.57678E-19
 -1      2780 9.50743E-05-2.71876E-05-2.90855E-05-2.73729E-06-4.54786E-19-4.16819E-20
 -1      2781 9.50739E-05-2.74111E-05-2.90088E-05-2.35358E-06-4.68059E-19-4.29792E-19
 -1      2782 9.47044E-05-2.71903E-05-2.89271E-05-2.18761E-06-5.46428E-19-4.82630E-19
 -1      2783 9.46926E-05-2.64597E-05-2.92318E-05-3.70053E-06 7.26843E-19 4.57303E-19
 -1      2784 9.47633E-05-2.68104E-05-2.91381E-05-3.13768E-06 1.34541E-19 2.05834E-19
 -1      2785 9.42375E-05-2.65020E-05-2.90174E-05-2.84861E-06-7.51041E-20-5.47684E-19
 -1      2786 9.39586E-05-2.53853E-05-2.93769E-05-5.00499E-06 3.85427E-19 8.50105E-19
 -1      2787 9.41607E-05-2.59030E-05-2.92764E-05-4.23438E-06 9.93223E-19 8.81405E-19
 -1      2788 9.34204E-05-2.54762E-05-2.90979E-05-3.74095E-06 4.93528E-19 1.11951E-18
 -1      2789 9.26533E-05-2.38407E-05-2.94806E-05-6.72695E-06 1.77324E-19 3.28752E-19
 -1      2790 9.30818E-05-2.45799E-05-2.93922E-05-5.69836E-06 2.62038E-19 8.11534E-19
 -1      2791 9.20605E-05-2.40023E-05-2.91326E-05-4.88340E-06 3.16451E-19 1.12963E-18
 -1      2792 9.04670E-05-2.17208E-05-2.94557E-05-8.93460E-06 1.34807E-19-6.99850E-19
 -1      2793 9.12532E-05-2.27165E-05-2.94230E-05-7.60401E-06 3.10044E-19-3.84118E-20
 -1      2794 8.98644E-05-2.19422E-05-2.90526E-05-6.29420E-06 3.44935E-19 2.14935E-19
 -1      2795 8.70262E-05-1.90485E-05-2.91286E-05-1.16811E-05-2.81589E-19-8.85319E-19
 -1      2796 8.83100E-05-2.02470E-05-2.92414E-05-1.00219E-05-2.43209E-19-5.63721E-19
 -1      2797 8.64319E-05-1.91959E-05-2.87258E-05-7.97369E-06 1.89921E-19-1.22745E-19
 -1      2798 8.20211E-05-1.62275E-05-2.81735E-05-1.50413E-05-8.85133E-19-1.35664E-18
 -1      2799 8.38434E-05-1.73280E-05-2.86007E-05-1.30403E-05-2.48556E-19-1.00680E-18
 -1      2800 8.12632E-05-1.58212E-05-2.79056E-05-9.93564E-06-1.17364E-19 2.02894E-19
 -1      2801 7.55114E-05-1.45404E-05-2.60060E-05-1.92698E-05-7.17716E-19-1.79948E-18
 -1      2802 7.75859E-05-1.46934E-05-2.70437E-05-1.68622E-05-1.07698E-18-1.86681E-18
 -1      2803 7.38304E-05-1.22895E-05-2.61368E-05-1.23469E-05-8.15446E-19-8.58622E-19
 -1      2804 6.89084E-05-1.69591E-05-2.19554E-05-2.47235E-05-9.94470E-19-9.08284E-19
 -1      2805 7.00579E-05-1.41515E-05-2.38993E-05-2.19836E-05-7.25020E-19-1.61794E-18
 -1      2806 6.41345E-05-9.94547E-06-2.27256E-05-1.57278E-05-9.92008E-19-1.86368E-18
 -1      2807 3.01351E-05-7.07753E-06-9.25154E-06 1.16056E-06 1.12659E-18 1.74743E-18
 -1      2808 3.04131E-05-8.15993E-06-9.02289E-06-1.48535E-05 1.92329E-19 6.18461E-18
 -1      2809 3.22536E-05-1.10588E-05-8.50776E-06 2.27052E-05 1.14625E-18-3.35552E-18
 -1      2810 2.55649E-05-9.08427E-06-6.12344E-06 9.00373E-06 6.69725E-19-4.30907E-18
 -1      2811 9.07942E-05-1.55306E-05-3.22776E-05-3.94797E-06-8.12006E-19-3.01016E-18
 -1      2812 9.11290E-05-1.60166E-05-3.22184E-05-4.87342E-06-1.17018E-18-3.00365E-18
 -1      2813 8.36039E-05-1.72807E-05-2.85191E-05 1.63505E-05 2.04664E-19 2.43972E-19
 -1      2814 8.23931E-05-1.67870E-05-2.80471E-05 1.85491E-05 2.26747E-19 6.31298E-19
 -1      2815 1.66352E-04-4.65091E-05-5.36958E-05-3.35006E-05 1.93886E-18-2.73676E-18
 -1      2816 7.79300E-05-1.58192E-05-2.66475E-05 2.10456E-05-1.12774E-19 6.81822E-19
 -1      2817 7.71760E-05-1.71883E-05-2.54792E-05 2.37129E-05 1.07203E-19 6.04623E-19
 -1      2818 7.22022E-05-1.23771E-05-2.54154E-05 1.63089E-05 3.07764E-19 1.76110E-19
 -1      2819 9.10849E-05-2.22724E-05-2.95496E-05 9.61068E-06-1.08810E-18 3.25375E-19
 -1      2820 9.04004E-05-2.13119E-05-2.95936E-05 1.12092E-05-1.11386E-18 2.80077E-19
 -1      2821 9.29962E-05-2.42004E-05-2.95241E-05 7.24802E-06 9.77215E-19-5.32567E-19
 -1      2822 9.26511E-05-2.34677E-05-2.96335E-05 8.49727E-06-6.99431E-19-5.67889E-19
 -1      2823 8.93023E-05-2.12323E-05-2.91080E-05 8.14383E-06-3.16302E-19-3.89026E-19
 -1      2824 9.40839E-05-2.55357E-05-2.94005E-05 5.40221E-06 2.30125E-18-6.28974E-20
 -1      2825 9.39761E-05-2.50567E-05-2.95205E-05 6.37110E-06 2.60431E-18-6.44252E-19
 -1      2826 9.17567E-05-2.34375E-05-2.92408E-05 6.32956E-06 1.55007E-18-1.44394E-18
 -1      2827 9.47956E-05-2.63174E-05-2.93444E-05 4.38903E-06 1.19075E-18-1.16830E-18
 -1      2828 4.40691E-05-1.57922E-05-1.15522E-05 2.34926E-05 6.50045E-19 6.15581E-19
 -1      2829 3.36622E-05-9.63630E-06-9.57053E-06 1.19134E-05 1.23677E-18-7.26331E-19
 -1      2830 3.92930E-05-7.30084E-06-1.30733E-05 4.76085E-06 1.22409E-18 1.05445E-18
 -1      2831 9.45294E-05-2.14952E-05-3.13322E-05-7.70062E-06-2.37080E-18-1.64309E-18
 -1      2832 9.49594E-05-2.32240E-05-3.07409E-05-6.01963E-06-2.18214E-18-1.50176E-18
 -1      2833 9.37500E-05-2.01293E-05-3.15533E-05-7.55906E-06-2.20288E-18-1.99668E-18
 -1      2834 9.30716E-05-2.55400E-05-2.89349E-05-1.19007E-06 2.35400E-18 2.73692E-18
 -1      2835 9.28194E-05-2.53070E-05-2.89502E-05-6.82699E-07 1.82459E-18 3.76952E-18
 -1      2836 9.52000E-05-2.78583E-05-2.88513E-05-2.23791E-06 1.34087E-19-4.38504E-18
 -1      2837 9.49230E-05-2.75636E-05-2.88744E-05-2.29323E-06-1.23266E-19-4.26099E-18
 -1      2838 9.56183E-05-2.83736E-05-2.88134E-05-1.89083E-06 9.14401E-19-2.31677E-18
 -1      2839 9.54426E-05-2.81509E-05-2.88399E-05-2.05778E-06 4.42236E-19-3.41055E-18
 -1      2840 9.54863E-05-2.83246E-05-2.87926E-05-2.40764E-06 3.83473E-19-3.65780E-18
 -1      2841 9.58082E-05-2.86773E-05-2.87704E-05-1.41691E-06 5.11283E-19-4.50992E-19
 -1      2842 9.57369E-05-2.85319E-05-2.87978E-05-1.63371E-06 6.11831E-19-1.86762E-18
 -1      2843 9.58920E-05-2.87742E-05-2.87723E-05-1.92589E-06 4.56553E-19-2.48697E-18
 -1      2844 9.57517E-05-2.86683E-05-2.87461E-05-1.03967E-06 1.72827E-18 9.47908E-19
 -1      2845 3.67726E-05-1.39665E-05-9.14364E-06-2.83352E-05 1.46913E-18 5.33144E-18
 -1      2846 4.89302E-05-2.20348E-05-1.11708E-05-3.96207E-05 7.06108E-19 3.55119E-18
 -1      2847 9.50927E-05-2.73021E-05-2.90589E-05 4.57513E-07 8.89888E-19-8.16288E-19
 -1      2848 9.52179E-05-2.69355E-05-2.92465E-05 1.09224E-06 1.21905E-18-8.15572E-19
 -1      2849 9.54212E-05-2.72624E-05-2.92190E-05 4.17841E-07 7.92544E-19-1.08251E-18
 -1      2850 6.45208E-05-3.11580E-05-1.36886E-05-4.45181E-05 5.62430E-19 2.41489E-18
 -1      2851 7.83351E-05-3.96412E-05-1.64970E-05-4.76922E-05 1.09288E-18 1.49099E-18
 -1      2852 9.64778E-05-4.88550E-05-1.99322E-05-4.47215E-05 6.52004E-19-2.82327E-19
 -1      2853 1.15516E-04-5.68294E-05-2.53985E-05-3.88154E-05 3.62742E-19-1.89128E-18
 -1      2854 9.32506E-05-4.43296E-05-2.05162E-05-4.20629E-05 1.51852E-18 6.28393E-20
 -1      2855 1.29194E-04-5.88419E-05-2.98792E-05-2.70158E-05-2.96038E-19-2.36841E-18
 -1      2856 1.37751E-04-5.82150E-05-3.45166E-05-1.85924E-05-6.88108E-19-3.36066E-18
 -1      2857 1.28426E-04-5.09078E-06-5.35464E-05-8.78988E-07-1.32137E-18-1.78568E-18
 -1      2858 1.33217E-04-7.72548E-06-5.43833E-05-5.72171E-06-2.06041E-18-3.97258E-19
 -1      2859 9.45659E-05-2.71481E-05-2.88818E-05-2.30996E-06 1.65263E-19-2.72100E-18
 -1      2860 9.42131E-05-2.68045E-05-2.89012E-05-2.19624E-06 8.43508E-19-1.15571E-18
 -1      2861 9.47967E-05-2.76065E-05-2.88029E-05-2.64232E-06 7.99562E-19-3.83546E-18
 -1      2862 9.37997E-05-2.63227E-05-2.89076E-05-1.98119E-06 1.37778E-18 3.04776E-19
 -1      2863 9.34467E-05-2.59951E-05-2.89237E-05-1.66272E-06 2.73050E-18 1.12382E-18
 -1      2864 9.29858E-05-2.57315E-05-2.88192E-05-1.76816E-06 2.49357E-18 2.00696E-18
 -1      2865 9.39041E-05-2.66915E-05-2.88081E-05-2.46384E-06 3.01472E-19-9.31384E-19
 -1      2866 1.29835E-04-5.93644E-05-3.06998E-05 2.73321E-05 7.32525E-19-1.30141E-18
 -1      2867 1.15846E-04-5.60742E-05-2.51909E-05 3.70405E-05-7.59153E-20-1.20821E-18
 -1      2868 8.80481E-05-1.98305E-05-2.93172E-05 1.25958E-05-1.07177E-18 1.41546E-18
 -1      2869 8.69551E-05-1.88086E-05-2.91826E-05 1.45601E-05-4.06708E-20 8.45843E-19
 -1      2870 7.99608E-05-1.51165E-05-2.76283E-05 1.29180E-05-5.02797E-19 1.90291E-18
 -1      2871 8.55147E-05-1.83702E-05-2.86724E-05 1.03135E-05-9.42193E-19 1.78573E-18
 -1      2872 1.33831E-04-1.54008E-05-5.12142E-05 1.06322E-05-1.87194E-18-1.97835E-18
 -1      2873 1.28805E-04-8.39664E-06-5.23411E-05 6.78339E-06-1.92573E-18-2.23852E-18
 -1      2874 1.35962E-04-1.24400E-05-5.36893E-05-8.33918E-06-2.52416E-18 8.73503E-21
 -1      2875 1.39006E-04-1.96545E-05-5.16390E-05-1.01192E-05-1.71355E-18 3.14884E-19
 -1      2876 1.27375E-04-1.07722E-05-5.03784E-05-8.04564E-06-1.94447E-18-2.84762E-19
 -1      2877 1.42079E-04-3.47187E-05-4.62603E-05 8.37689E-06-1.39348E-18-1.00204E-18
 -1      2878 1.38369E-04-2.52103E-05-4.92303E-05 1.05145E-05-1.82641E-18-6.33581E-19
 -1      2879 9.48809E-05-2.84101E-05-2.84874E-05-1.11048E-06 6.89326E-19-4.49679E-19
 -1      2880 9.48743E-05-2.83110E-05-2.85208E-05-1.02496E-06 5.25628E-19-5.37205E-19
 -1      2881 9.52500E-05-2.85258E-05-2.86003E-05-1.10719E-06 7.33371E-19-9.81970E-19
 -1      2882 1.43646E-04-4.98115E-05-4.08488E-05 2.75254E-06-9.76880E-19-1.09670E-18
 -1      2883 1.39491E-04-5.59337E-05-3.56144E-05 1.21338E-05 3.75904E-19-1.81159E-18
 -1      2884 1.00311E-04-5.08181E-05-2.13257E-05 4.50739E-05-3.75341E-19-1.32741E-18
 -1      2885 8.70552E-05-4.39661E-05-1.78150E-05 4.66735E-05 5.13408E-19-1.51725E-18
 -1      2886 1.42779E-04-2.97312E-05-4.91564E-05-8.53717E-06-2.03383E-18 1.14985E-19
 -1      2887 1.43803E-04-3.86816E-05-4.52851E-05-5.33802E-06-1.89471E-18-3.16579E-20
 -1      2888 9.52787E-05-2.43000E-05-3.04095E-05-4.94621E-06-2.03357E-18-1.43723E-18
 -1      2889 9.52010E-05-2.52523E-05-2.99911E-05-3.48132E-06-1.90087E-18-1.44333E-18
 -1      2890 9.52728E-05-2.50114E-05-3.01263E-05-3.24518E-06-1.72812E-18-1.45096E-18
 -1      2891 9.48524E-05-2.31899E-05-3.07010E-05-5.14291E-06-1.94581E-18-1.69649E-18
 -1      2892 9.11481E-05-1.60427E-05-3.22152E-05 4.90696E-06 1.75632E-18-2.68430E-18
 -1      2893 9.08081E-05-1.55504E-05-3.22750E-05 3.98284E-06 1.38068E-18-2.88087E-18
 -1      2894 9.17889E-05-1.71635E-05-3.19668E-05 3.19000E-06 1.23115E-18-2.68860E-18
 -1      2895 9.24543E-05-1.82125E-05-3.17961E-05 4.62175E-06 1.75397E-18-2.30310E-18
 -1      2896 1.42761E-04-5.34144E-05-3.83283E-05-7.76076E-06-1.12530E-18-3.20083E-18
 -1      2897 1.44070E-04-4.56015E-05-4.28771E-05 1.21708E-06-1.72403E-18-2.24040E-18
 -1      2898 1.38142E-04-5.49776E-05-3.55242E-05-8.56688E-06-4.21822E-19-3.51667E-18
 -1      2899 6.60979E-05-3.00678E-05-1.51167E-05-3.53364E-05-9.75041E-19-1.65044E-18
 -1      2900 7.92943E-05-3.34691E-05-1.91605E-05-3.42927E-05-8.27022E-19-6.15793E-19
 -1      2901 7.19062E-05-2.29633E-05-2.04059E-05-3.11756E-05-5.53642E-19-4.75397E-19
 -1      2902 5.08973E-05-2.07992E-05-1.19945E-05-2.86550E-05-5.35431E-19-2.59637E-18
 -1      2903 9.12739E-05-1.63676E-05-3.20906E-05 1.44325E-08 1.64891E-19-2.97117E-18
 -1      2904 9.01527E-05-1.45806E-05-3.24074E-05-4.00030E-07 1.01773E-19-3.30383E-18
 -1      2905 9.02112E-05-1.46634E-05-3.23973E-05-1.35743E-06-1.44748E-19-3.26629E-18
 -1      2906 9.53418E-05-2.49851E-05-3.01464E-05 4.24824E-06 2.13191E-18-7.78240E-19
 -1      2907 9.50810E-05-2.39581E-05-3.04659E-05 4.70769E-06 2.15496E-18-1.09751E-18
 -1      2908 9.52358E-05-2.56542E-05-2.98265E-05 3.12002E-06 1.98034E-18-8.75439E-19
 -1      2909 6.46207E-05-1.36526E-05-2.15411E-05 2.28400E-05 6.57165E-19 4.29234E-19
 -1      2910 9.15577E-05-1.66719E-05-3.21173E-05-5.60081E-06-1.41005E-18-2.87171E-18
 -1      2911 9.20825E-05-1.74567E-05-3.20182E-05-6.42718E-06-1.79267E-18-2.70430E-18
 -1      2912 9.24353E-05-1.81846E-05-3.18011E-05-4.58851E-06-1.15604E-18-2.62812E-18
 -1      2913 6.19247E-05-2.54277E-05-1.50830E-05-3.91179E-05 1.32603E-18 2.33305E-18
 -1      2914 9.52991E-05-2.82885E-05-2.87244E-05-8.77855E-07 4.46926E-19-8.89262E-19
 -1      2915 5.82080E-05-1.43693E-05-1.85388E-05-2.47422E-05-7.06743E-19-1.43763E-18
 -1      2916 4.13032E-05-1.02411E-05-1.26355E-05-1.95190E-05 9.60244E-19 4.82745E-18
 -1      2917 3.04274E-05-7.17522E-06-9.64272E-06 9.45916E-07 8.09314E-20-3.63525E-18
 -1      2918 9.51808E-05-2.65891E-05-2.93979E-05 1.60916E-06 1.46176E-18-8.08499E-19
 -1      2919 9.53155E-05-2.61608E-05-2.96224E-05 2.41554E-06 1.65058E-18-8.62667E-19
 -1      2920 9.53237E-05-2.55510E-05-2.99156E-05 2.80888E-06 1.73082E-18-9.62828E-19
 -1      2921 9.54041E-05-2.64433E-05-2.95584E-05 1.51285E-06 1.25887E-18-1.16024E-18
 -1      2922 1.19996E-04-9.87902E-06-4.75313E-05 6.38173E-06-2.14331E-18-1.67075E-18
 -1      2923 1.24533E-04-6.84120E-06-5.09720E-05 3.44520E-06-1.64155E-18-1.69945E-18
 -1      2924 1.19300E-04-6.82809E-06-4.86212E-05-1.07858E-07-1.20882E-18-1.81038E-18
 -1      2925 9.34767E-05-2.52335E-05-2.92295E-05 4.56951E-06 2.21047E-18-1.20317E-19
 -1      2926 5.63191E-05-2.04228E-05-1.47265E-05 2.94461E-05 7.01979E-20 3.11306E-18
 -1      2927 5.14302E-05-1.28106E-05-1.62439E-05 2.23242E-05 1.92467E-18 1.85288E-19
 -1      2928 9.26265E-05-2.49116E-05-2.90309E-05 1.37023E-06 1.09394E-18 2.68026E-18
 -1      2929 9.28489E-05-2.50687E-05-2.90542E-05 1.95407E-06 1.21654E-18 1.18743E-18
 -1      2930 9.03384E-05-1.48567E-05-3.23695E-05-2.19337E-06-3.04389E-19-3.05190E-18
 -1      2931 9.05254E-05-1.51229E-05-3.23373E-05-3.14404E-06-6.18447E-19-2.97941E-18
 -1      2932 9.17766E-05-1.71440E-05-3.19699E-05-3.15516E-06-6.26983E-19-2.74965E-18
 -1      2933 9.13959E-05-1.65554E-05-3.20616E-05-1.59726E-06-2.86940E-19-2.95748E-18
 -1      2934 1.33102E-04-5.66384E-05-3.26909E-05 1.63217E-05 8.76600E-19-1.52106E-18
 -1      2935 9.59682E-05-2.89169E-05-2.87388E-05-1.23935E-06 5.34731E-19 6.31970E-19
 -1      2936 1.30246E-04-2.10921E-05-4.70928E-05 1.17714E-05-2.28042E-18-1.89677E-18
 -1      2937 9.26107E-05-2.50081E-05-2.89737E-05 5.51221E-09 1.55950E-18 4.49361E-18
 -1      2938 9.25700E-05-2.49500E-05-2.89916E-05 6.15570E-07 9.80487E-19 4.35946E-18
 -1      2939 9.21236E-05-2.46046E-05-2.89218E-05 9.71998E-07 1.87974E-18 3.02174E-18
 -1      2940 7.22212E-05-3.03213E-05-1.75845E-05 3.43499E-05-1.60089E-18 4.05496E-18
 -1      2941 1.22671E-04-5.70713E-05-2.79870E-05-2.94935E-05 4.36963E-19-2.91186E-18
 -1      2942 1.34841E-04-2.46376E-05-4.75561E-05-1.14533E-05-2.01308E-18-7.80329E-20
 -1      2943 1.10913E-04-5.29848E-05-2.45357E-05 3.69946E-05 7.63071E-19-1.84878E-19
 -1      2944 9.32073E-05-2.53325E-05-2.91047E-05 2.51380E-06 1.88856E-18-1.04948E-18
 -1      2945 9.36259E-05-2.56640E-05-2.91264E-05 2.83072E-06 1.91620E-18-2.24714E-18
 -1      2946 9.35560E-05-2.55176E-05-2.91457E-05 3.32779E-06 1.34691E-18-5.84652E-19
 -1      2947 9.25417E-05-2.48012E-05-2.90216E-05 2.37641E-06 1.44454E-18-1.66329E-19
 -1      2948 1.38676E-04-4.08620E-05-4.21131E-05 6.56543E-06-6.28498E-19-1.56309E-18
 -1      2949 7.83013E-05-3.74153E-05-1.71261E-05 4.48087E-05 9.31630E-19-1.31052E-18
 -1      2950 4.66495E-05-1.57428E-05-1.25499E-05-2.28982E-05-1.72371E-19-2.63724E-18
 -1      2951 5.30332E-05-1.98295E-05-1.37879E-05 3.52244E-05 9.21042E-19-2.76810E-18
 -1      2952 4.14235E-05-1.49521E-05-1.05442E-05 3.06075E-05 1.13137E-18-3.74981E-18
 -1      2953 4.03019E-05-9.87151E-06-1.25420E-05 2.08272E-05 1.44154E-18-3.80868E-18
 -1      2954 1.39372E-04-4.41902E-05-4.10235E-05-4.22383E-06-1.45650E-18-7.96529E-19
 -1      2955 9.23069E-05-2.49517E-05-2.88527E-05-5.55613E-07 1.72790E-18 3.99666E-18
 -1      2956 9.49051E-05-2.32307E-05-3.07237E-05 4.95139E-06 2.07064E-18-1.41428E-18
 -1      2957 9.44101E-05-2.21433E-05-3.09798E-05 5.14459E-06 2.14305E-18-1.56220E-18
 -1      2958 9.51114E-05-2.41964E-05-3.03810E-05 3.85230E-06 1.86069E-18-1.26120E-18
 -1      2959 9.39579E-05-2.12265E-05-3.11717E-05 4.79266E-06 1.93305E-18-1.82054E-18
 -1      2960 9.56814E-05-2.68697E-05-2.94759E-05-7.44600E-07-1.20104E-18-1.29368E-18
 -1      2961 9.56542E-05-2.73143E-05-2.92966E-05-2.16214E-07-1.09832E-18-1.36061E-18
 -1      2962 9.56985E-05-2.76986E-05-2.91315E-05 1.69096E-07-1.09787E-18-1.28399E-18
 -1      2963 9.56613E-05-2.79834E-05-2.90094E-05 4.88417E-07-1.05706E-18-1.51980E-18
 -1      2964 9.58920E-05-2.73125E-05-2.93941E-05-1.57465E-07-1.07255E-18-1.35089E-18
 -1      2965 9.56528E-05-2.82194E-05-2.88922E-05 7.14687E-07-1.00786E-18-1.43709E-18
 -1      2966 9.56206E-05-2.83977E-05-2.88119E-05 8.88054E-07-8.50122E-19-1.62745E-18
 -1      2967 9.59332E-05-2.80338E-05-2.91033E-05 4.86496E-07-1.02461E-18-1.22234E-18
 -1      2968 9.55871E-05-2.85357E-05-2.87312E-05 1.00310E-06-5.17159E-19-1.59638E-18
 -1      2969 9.55642E-05-2.86427E-05-2.86812E-05 1.07938E-06-3.31001E-19-1.56661E-18
 -1      2970 9.58970E-05-2.84782E-05-2.88972E-05 8.54818E-07-6.50129E-19-1.46337E-18
 -1      2971 9.55205E-05-2.87155E-05-2.86277E-05 1.12071E-06-1.30653E-19-1.37767E-18
 -1      2972 9.55064E-05-2.87739E-05-2.85992E-05 1.13613E-06-1.58002E-19-1.19848E-18
 -1      2973 9.58253E-05-2.87358E-05-2.87556E-05 1.03217E-06-1.89709E-19-1.30312E-18
 -1      2974 9.54601E-05-2.88030E-05-2.85659E-05 1.13237E-06-1.25803E-19-7.46962E-19
 -1      2975 9.54530E-05-2.88284E-05-2.85524E-05 1.11312E-06 1.12890E-20-5.04777E-19
 -1      2976 9.57399E-05-2.88665E-05-2.86625E-05 1.08551E-06 1.51960E-19-1.07203E-18
 -1      2977 9.54079E-05-2.88285E-05-2.85336E-05 1.08543E-06-3.76474E-19-6.03218E-19
 -1      2978 9.54060E-05-2.88315E-05-2.85306E-05 1.05007E-06-4.65887E-19-5.99199E-19
 -1      2979 9.56521E-05-2.89115E-05-2.86050E-05 1.06571E-06-2.32306E-19-6.21013E-19
 -1      2980 9.53641E-05-2.88129E-05-2.85223E-05 1.01362E-06-5.15987E-19-3.72203E-19
 -1      2981 9.53662E-05-2.88013E-05-2.85262E-05 9.75025E-07-2.69045E-19-2.88638E-19
 -1      2982 9.55678E-05-2.88995E-05-2.85736E-05 1.01005E-06-3.36437E-19-4.98933E-19
 -1      2983 9.53286E-05-2.87714E-05-2.85253E-05 9.40400E-07-2.53021E-19-4.23320E-19
 -1      2984 9.53341E-05-2.87513E-05-2.85338E-05 9.07188E-07-3.59787E-19-1.97946E-19
 -1      2985 9.54901E-05-2.88511E-05-2.85608E-05 9.45103E-07-2.95775E-19-3.02261E-19
 -1      2986 9.53015E-05-2.87159E-05-2.85377E-05 8.81526E-07-2.65097E-19-4.02045E-19
 -1      2987 9.53110E-05-2.86923E-05-2.85491E-05 8.59026E-07-1.36422E-19-4.12571E-19
 -1      2988 9.54211E-05-2.87815E-05-2.85608E-05 8.89309E-07-3.57848E-19-9.12228E-19
 -1      2989 9.52849E-05-2.86565E-05-2.85561E-05 8.46783E-07-7.89622E-19-4.13695E-19
 -1      2990 9.52997E-05-2.86346E-05-2.85690E-05 8.37608E-07-1.27594E-18-6.36023E-19
 -1      2991 9.53630E-05-2.87035E-05-2.85692E-05 8.54884E-07-5.51251E-19-8.65118E-19
 -1      2992 9.52825E-05-2.86040E-05-2.85774E-05 8.40963E-07-1.28077E-18-6.25171E-19
 -1      2993 9.53055E-05-2.85897E-05-2.85907E-05 8.45169E-07-1.35865E-18-9.01416E-19
 -1      2994 9.53196E-05-2.86292E-05-2.85824E-05 8.49079E-07-1.34354E-18-7.60440E-19
 -1      2995 9.53016E-05-2.85712E-05-2.85994E-05 8.64060E-07-1.19633E-18-7.37571E-19
 -1      2996 9.53374E-05-2.85720E-05-2.86121E-05 8.78923E-07-9.94892E-19-7.49804E-19
 -1      2997 9.52980E-05-2.85727E-05-2.85976E-05 8.74701E-07-1.30473E-18-5.82326E-19
 -1      2998 9.53543E-05-2.85750E-05-2.86198E-05 9.10680E-07-7.85882E-19-6.91853E-19
 -1      2999 9.54095E-05-2.86009E-05-2.86308E-05 9.30089E-07-2.93016E-19-7.92081E-19
 -1      3000 9.53097E-05-2.85517E-05-2.86121E-05 9.29889E-07-8.75240E-19-5.51195E-19
 -1      3001 9.54587E-05-2.86377E-05-2.86366E-05 9.68585E-07 2.56981E-19-1.16603E-18
 -1      3002 9.55427E-05-2.87017E-05-2.86451E-05 9.82069E-07 6.27461E-19-9.47600E-19
 -1      3003 9.53735E-05-2.85905E-05-2.86236E-05 1.00701E-06-1.80366E-19-7.99818E-19
 -1      3004 9.56404E-05-2.87886E-05-2.86483E-05 1.01637E-06 5.76321E-19-9.75685E-19
 -1      3005 9.57651E-05-2.89060E-05-2.86535E-05 1.00787E-06 3.95632E-19-9.06349E-19
 -1      3006 9.55169E-05-2.87205E-05-2.86305E-05 1.09058E-06 6.13084E-19-1.43316E-18
 -1      3007 9.59330E-05-2.90622E-05-2.86542E-05 1.02036E-06 5.30075E-20-7.41213E-19
 -1      3008 9.61119E-05-2.92496E-05-2.86560E-05 9.66982E-07 8.54611E-20-6.93338E-19
 -1      3009 9.57776E-05-2.89810E-05-2.86324E-05 1.15401E-06 3.93401E-19-1.24048E-18
 -1      3010 9.63757E-05-2.94947E-05-2.86556E-05 9.31147E-07 1.42770E-19-9.87852E-19
 -1      3011 9.66213E-05-2.97656E-05-2.86551E-05 8.02443E-07 2.75709E-19-9.68954E-19
 -1      3012 9.62033E-05-2.94156E-05-2.86309E-05 1.15542E-06 2.12086E-19-6.42620E-19
 -1      3013 9.70074E-05-3.01141E-05-2.86574E-05 6.80885E-07 1.74827E-20-6.84982E-19
 -1      3014 9.73260E-05-3.04709E-05-2.86576E-05 4.39648E-07 9.24922E-21-3.27465E-19
 -1      3015 9.68468E-05-3.00636E-05-2.86315E-05 1.03286E-06 1.29479E-19-5.99818E-19
 -1      3016 9.78525E-05-3.09220E-05-2.86696E-05 1.83670E-07 3.85516E-19-2.51090E-19
 -1      3017 9.82354E-05-3.13443E-05-2.86769E-05-2.09869E-07 6.31944E-19-2.05476E-19
 -1      3018 9.77545E-05-3.09431E-05-2.86459E-05 7.00780E-07 3.77216E-19 2.73723E-19
 -1      3019 9.88978E-05-3.18656E-05-2.87103E-05-6.56139E-07 5.90065E-19-4.35352E-19
 -1      3020 9.93091E-05-3.22940E-05-2.87345E-05-1.23394E-06 1.01987E-18-3.60330E-19
 -1      3021 9.89436E-05-3.20214E-05-2.86944E-05 5.16054E-08 5.87876E-19-3.45538E-19
 -1      3022 1.00058E-04-3.28021E-05-2.88062E-05-1.91854E-06 1.06677E-18-3.09507E-19
 -1      3023 1.00424E-04-3.31233E-05-2.88606E-05-2.68428E-06 5.36103E-19-4.62011E-19
 -1      3024 1.00365E-04-3.31733E-05-2.88079E-05-1.02875E-06 7.96826E-19-6.52486E-19
 -1      3025 1.01145E-04-3.34700E-05-2.89904E-05-3.61614E-06 3.53749E-19 1.45433E-19
 -1      3026 1.01353E-04-3.35174E-05-2.90899E-05-4.51453E-06-1.92336E-20 3.24007E-19
 -1      3027 1.01858E-04-3.41412E-05-2.90264E-05-2.61616E-06 8.70626E-19-6.56916E-19
 -1      3028 1.01859E-04-3.34974E-05-2.92968E-05-5.61484E-06-5.16884E-19 7.84882E-19
 -1      3029 1.01779E-04-3.30810E-05-2.94520E-05-6.49823E-06-4.05019E-19 7.71719E-19
 -1      3030 1.03121E-04-3.45193E-05-2.93931E-05-4.66746E-06 2.61968E-20 5.18691E-19
 -1      3031 1.01844E-04-3.24824E-05-2.97437E-05-7.54052E-06-8.06529E-19 8.54691E-19
 -1      3032 1.01385E-04-3.14776E-05-2.99535E-05-8.14629E-06-4.48384E-19 3.53842E-19
 -1      3033 1.03732E-04-3.38196E-05-2.99395E-05-6.90452E-06-7.19442E-19 1.23130E-18
 -1      3034 1.00861E-04-3.02178E-05-3.03130E-05-8.73824E-06-6.10758E-19-2.17784E-20
 -1      3035 1.00062E-04-2.87019E-05-3.05545E-05-8.73805E-06-2.76723E-19-5.28200E-20
 -1      3036 1.03290E-04-3.16732E-05-3.06585E-05-8.70452E-06-7.58606E-19 5.32771E-19
 -1      3037 9.90423E-05-2.69884E-05-3.09280E-05-8.43460E-06 2.94594E-19-3.32278E-19
 -1      3038 9.81262E-05-2.53324E-05-3.11537E-05-7.57837E-06 4.48431E-19-6.91765E-19
 -1      3039 1.01719E-04-2.82142E-05-3.14735E-05-9.16748E-06-2.32264E-19 5.58843E-20
 -1      3040 9.70226E-05-2.37081E-05-3.14572E-05-6.14135E-06 6.31352E-19-4.91685E-19
 -1      3041 9.63420E-05-2.25011E-05-3.16091E-05-4.44491E-06-2.80356E-19-4.21987E-19
 -1      3042 9.95311E-05-2.43134E-05-3.22308E-05-7.50439E-06 4.52636E-19-6.09867E-19
 -1      3043 9.57325E-05-2.16593E-05-3.17568E-05-2.09845E-06-3.45672E-19-5.26732E-19
 -1      3044 9.56061E-05-2.14364E-05-3.17835E-05 4.43902E-08 1.22522E-19-2.01972E-20
 -1      3045 9.77496E-05-2.14006E-05-3.27392E-05-3.63294E-06 2.13265E-19 2.35053E-19
 -1      3046 9.58724E-05-2.18061E-05-3.17183E-05 2.55862E-06-4.63569E-20 2.76665E-19
 -1      3047 9.63491E-05-2.26622E-05-3.16098E-05 4.50748E-06 6.84939E-20-1.66455E-19
 -1      3048 9.74012E-05-2.08571E-05-3.28329E-05 1.45938E-06 4.44112E-19 7.71413E-19
 -1      3049 9.73223E-05-2.40446E-05-3.13593E-05 6.36573E-06-5.66555E-19-7.65049E-19
 -1      3050 9.81761E-05-2.55855E-05-3.11556E-05 7.59425E-06-9.98468E-19-1.28372E-18
 -1      3051 9.86827E-05-2.29033E-05-3.24756E-05 6.00920E-06-1.24437E-18-7.05092E-19
 -1      3052 9.93206E-05-2.73676E-05-3.07990E-05 8.36739E-06-8.36579E-19-1.86785E-18
 -1      3053 1.00211E-04-2.90214E-05-3.05548E-05 8.68521E-06-8.28909E-19-2.93948E-18
 -1      3054 1.00860E-04-2.66167E-05-3.17975E-05 8.62817E-06-1.44234E-18-9.80508E-19
 -1      3055 1.00974E-04-3.05205E-05-3.01797E-05 8.38975E-06-5.97561E-19-3.09586E-18
 -1      3056 1.01585E-04-3.17638E-05-2.99507E-05 7.97962E-06-5.24796E-19-2.22126E-18
 -1      3057 1.02823E-04-3.04551E-05-3.09811E-05 8.95462E-06-7.31004E-19-2.56729E-18
 -1      3058 1.01760E-04-3.26431E-05-2.96266E-05 7.05274E-06 2.79444E-20-1.22456E-18
 -1      3059 1.01988E-04-3.32970E-05-2.94459E-05 6.22996E-06 4.94273E-19-1.09831E-18
 -1      3060 1.03754E-04-3.32035E-05-3.02080E-05 7.55069E-06 1.88460E-19-1.38039E-18
 -1      3061 1.01642E-04-3.35357E-05-2.92042E-05 5.09760E-06 6.25932E-19-1.14500E-18
 -1      3062 1.01531E-04-3.36535E-05-2.90820E-05 4.16428E-06 6.15983E-19-5.73992E-19
 -1      3063 1.03550E-04-3.44844E-05-2.95867E-05 5.36567E-06 7.56777E-19 8.56207E-20
 -1      3064 1.00873E-04-3.34253E-05-2.89246E-05 3.12852E-06 2.15681E-19-7.72087E-19
 -1      3065 1.00547E-04-3.31821E-05-2.88543E-05 2.28364E-06 3.55575E-19-7.09833E-20
 -1      3066 1.02506E-04-3.44886E-05-2.91514E-05 3.14957E-06 5.12260E-19 5.54294E-19
 -1      3067 9.97885E-05-3.27047E-05-2.87659E-05 1.48175E-06 1.31696E-19-1.01852E-18
 -1      3068 9.93715E-05-3.22823E-05-2.87341E-05 8.18112E-07 3.79398E-19-7.13694E-19
 -1      3069 1.01059E-04-3.36839E-05-2.88849E-05 1.32562E-06 1.14574E-19 1.27597E-19
 -1      3070 9.86557E-05-3.17285E-05-2.86946E-05 2.73199E-07 3.37132E-19-9.78566E-19
 -1      3071 9.82371E-05-3.12614E-05-2.86874E-05-1.89074E-07-6.82660E-20-1.11205E-18
 -1      3072 9.95700E-05-3.25246E-05-2.87469E-05 2.36005E-08 4.52309E-19-1.49893E-18
 -1      3073 9.76364E-05-3.07365E-05-2.86791E-05-5.10432E-07 2.21461E-19-4.36970E-19
 -1      3074 9.72667E-05-3.03032E-05-2.86850E-05-7.91420E-07 5.49789E-19 9.49308E-19
 -1      3075 9.82497E-05-3.13241E-05-2.86955E-05-7.87207E-07 6.21646E-19-5.21450E-19
 -1      3076 9.54224E-05-2.88321E-05-2.85372E-05-1.05739E-06 6.30030E-19-6.65005E-19
 -1      3077 9.54237E-05-2.88304E-05-2.85395E-05-1.09013E-06 4.40261E-19-7.41627E-19
 -1      3078 9.54681E-05-2.88301E-05-2.85581E-05-1.11571E-06 5.88103E-19-1.07160E-18
 -1      3079 9.54744E-05-2.88034E-05-2.85717E-05-1.13238E-06 5.60524E-19-9.50891E-19
 -1      3080 9.56706E-05-2.89127E-05-2.86126E-05-1.07025E-06 3.48838E-19-8.66644E-19
 -1      3081 9.55194E-05-2.87719E-05-2.86056E-05-1.13326E-06 4.36983E-19-8.70041E-19
 -1      3082 9.55330E-05-2.87104E-05-2.86351E-05-1.11420E-06 6.41774E-19-8.77911E-19
 -1      3083 9.57565E-05-2.88647E-05-2.86704E-05-1.08445E-06 5.39357E-19-9.81718E-19
 -1      3084 9.53837E-05-2.87967E-05-2.85355E-05-9.92086E-07 3.97797E-19-4.31692E-20
 -1      3085 9.53814E-05-2.88118E-05-2.85302E-05-1.02503E-06 6.41590E-19-3.20717E-19
 -1      3086 9.55884E-05-2.88987E-05-2.85828E-05-1.02092E-06 2.73078E-19-3.20712E-19
 -1      3087 9.53461E-05-2.87290E-05-2.85482E-05-9.34728E-07 2.25469E-19 3.39253E-19
 -1      3088 9.53426E-05-2.87595E-05-2.85366E-05-9.60780E-07 2.99165E-19 9.71439E-20
 -1      3089 9.55084E-05-2.88403E-05-2.85732E-05-9.63762E-07 2.40011E-19 2.52999E-19
 -1      3090 9.53067E-05-2.86325E-05-2.85726E-05-9.06112E-07 2.41509E-19 6.78583E-19
 -1      3091 9.53039E-05-2.86769E-05-2.85559E-05-9.14984E-07 4.05946E-19 7.09779E-19
 -1      3092 9.54264E-05-2.87441E-05-2.85788E-05-9.17411E-07 2.06945E-19 3.05127E-19
 -1      3093 9.52592E-05-2.85049E-05-2.86067E-05-9.20862E-07 5.44076E-19 4.48270E-20
 -1      3094 9.52598E-05-2.85650E-05-2.85855E-05-9.05022E-07 4.50128E-19 3.06910E-19
 -1      3095 9.53388E-05-2.86134E-05-2.85968E-05-8.99661E-07 5.97974E-19 6.03893E-19
 -1      3096 9.51925E-05-2.83375E-05-2.86497E-05-9.92415E-07 1.44286E-19 3.64709E-19
 -1      3097 9.52013E-05-2.84180E-05-2.86241E-05-9.44392E-07 2.84236E-19 1.11343E-19
 -1      3098 9.52357E-05-2.84438E-05-2.86247E-05-9.23411E-07 4.10936E-19 2.08827E-19
 -1      3099 9.50890E-05-2.81139E-05-2.87012E-05-1.13447E-06 2.61654E-19-2.22320E-19
 -1      3100 9.51136E-05-2.82234E-05-2.86708E-05-1.04604E-06 2.82383E-19 1.42097E-19
 -1      3101 9.51015E-05-2.82238E-05-2.86605E-05-9.99521E-07 3.03603E-19-6.15547E-19
 -1      3102 9.49205E-05-2.78074E-05-2.87604E-05-1.36192E-06-6.45031E-20-2.43254E-19
 -1      3103 9.49739E-05-2.79598E-05-2.87252E-05-1.22346E-06 2.89972E-19 8.51215E-20
 -1      3104 9.49117E-05-2.79324E-05-2.87026E-05-1.13741E-06 1.04786E-19-5.34749E-19
 -1      3105 9.46406E-05-2.73775E-05-2.88253E-05-1.69083E-06-1.45038E-19-3.13283E-19
 -1      3106 9.47452E-05-2.75936E-05-2.87860E-05-1.49107E-06-1.56038E-19-7.78231E-20
 -1      3107 9.46285E-05-2.75378E-05-2.87483E-05-1.34465E-06-4.98272E-20 5.62494E-19
 -1      3108 9.42089E-05-2.68026E-05-2.88880E-05-2.11177E-06-5.41873E-19-2.09029E-19
 -1      3109 9.43842E-05-2.70936E-05-2.88483E-05-1.85456E-06-2.64936E-19 3.46732E-20
 -1      3110 9.42081E-05-2.70081E-05-2.87913E-05-1.61656E-06-3.00381E-19 2.21085E-19
 -1      3111 9.34769E-05-2.59458E-05-2.89436E-05-2.68145E-06 4.80087E-20 3.13958E-19
 -1      3112 9.37975E-05-2.63832E-05-2.89051E-05-2.32653E-06-4.96313E-19 5.02940E-20
 -1      3113 9.35624E-05-2.62751E-05-2.88239E-05-1.95737E-06-6.24841E-19 4.49701E-19
 -1      3114 9.22951E-05-2.47253E-05-2.89651E-05-3.38204E-06 5.98221E-20 1.43747E-18
 -1      3115 9.28377E-05-2.53508E-05-2.89418E-05-2.93350E-06 2.86193E-19 8.37676E-19
 -1      3116 9.25438E-05-2.52268E-05-2.88283E-05-2.35789E-06-3.09624E-19 1.24098E-18
 -1      3117 9.04249E-05-2.30141E-05-2.89056E-05-4.19287E-06 4.84739E-19 8.22485E-19
 -1      3118 9.13159E-05-2.38919E-05-2.89227E-05-3.65224E-06 6.50909E-19 1.18752E-18
 -1      3119 9.09799E-05-2.37721E-05-2.87690E-05-2.76683E-06 2.71209E-19 1.02963E-18
 -1      3120 8.75264E-05-2.06813E-05-2.86771E-05-5.05578E-06 3.49654E-19 5.64919E-19
 -1      3121 8.89458E-05-2.18741E-05-2.87827E-05-4.44202E-06 3.93513E-19 3.57219E-19
 -1      3122 8.86088E-05-2.17905E-05-2.85834E-05-3.09651E-06 8.04688E-19 9.72577E-19
 -1      3123 8.31402E-05-1.76448E-05-2.81182E-05-5.86976E-06 4.46280E-20 2.94830E-19
 -1      3124 8.53290E-05-1.91815E-05-2.84023E-05-5.22019E-06 2.73099E-19 4.90496E-19
 -1      3125 8.50700E-05-1.91747E-05-2.81597E-05-3.19793E-06 2.92076E-19 1.18146E-18
 -1      3126 7.66772E-05-1.39811E-05-2.69362E-05-6.52504E-06-1.97349E-19 1.96665E-19
 -1      3127 7.99301E-05-1.57899E-05-2.75638E-05-5.86905E-06 6.40238E-20 4.26271E-20
 -1      3128 7.98791E-05-1.58846E-05-2.73007E-05-2.85505E-06 2.15859E-19 4.09719E-19
 -1      3129 6.73995E-05-1.01482E-05-2.45827E-05-7.06140E-06-4.23659E-19-5.14387E-19
 -1      3130 7.20387E-05-1.19019E-05-2.58671E-05-6.30863E-06-2.14405E-21-1.25817E-19
 -1      3131 7.23858E-05-1.20488E-05-2.56521E-05-1.81231E-06 9.89457E-20 2.65843E-19
 -1      3132 5.49388E-05-7.29564E-06-2.03713E-05-7.92277E-06-5.32936E-19-1.82509E-18
 -1      3133 6.10068E-05-8.30052E-06-2.26697E-05-6.71666E-06-4.58933E-19-1.42677E-18
 -1      3134 6.19682E-05-8.19347E-06-2.26582E-05 1.13425E-07 3.27259E-19-4.53189E-19
 -1      3135 4.30997E-05-6.79817E-06-1.50815E-05-1.20879E-05 7.58836E-19 4.11383E-18
 -1      3136 4.87148E-05-1.25607E-05-1.51860E-05-2.55038E-05 1.95588E-18 3.97491E-18
 -1      3137 5.83037E-05-1.93126E-05-1.62388E-05-3.28011E-05 1.47360E-18 2.12727E-18
 -1      3138 7.10671E-05-2.85181E-05-1.82556E-05-3.86789E-05 1.28521E-18 5.24419E-19
 -1      3139 1.34141E-04-4.42933E-05-3.85537E-05 5.59699E-06-5.22831E-19-2.29742E-18
 -1      3140 1.30942E-04-3.56105E-05-4.13710E-05 1.07725E-05-6.93138E-19-2.22473E-18
 -1      3141 6.92141E-05-1.09667E-05-2.50672E-05 9.84393E-06-2.39360E-19 2.13020E-18
 -1      3142 6.48532E-05-9.76519E-06-2.34759E-05 1.09450E-05-5.83626E-20 1.15755E-18
 -1      3143 1.33383E-04-5.43700E-05-3.36032E-05-8.76837E-06 1.06289E-19-3.35812E-18
 -1      3144 1.35269E-04-5.07656E-05-3.67070E-05-7.95154E-07-3.36431E-20-2.32397E-18
 -1      3145 1.30274E-04-4.53894E-05-3.64358E-05 4.51458E-06 1.06263E-19-2.43151E-18
 -1      3146 9.08352E-05-2.32218E-05-2.90190E-05 4.83897E-06 2.43547E-18-1.50978E-18
 -1      3147 8.98480E-05-2.22693E-05-2.89772E-05 5.54020E-06 7.35440E-19-1.81336E-18
 -1      3148 8.80611E-05-2.10048E-05-2.87948E-05 5.91127E-06 1.02900E-18-1.50990E-18
 -1      3149 8.64808E-05-1.97127E-05-2.86451E-05 6.70089E-06 6.22300E-19-6.10092E-19
 -1      3150 8.76463E-05-2.07042E-05-2.85764E-05 4.40332E-06 1.56443E-18-1.90985E-18
 -1      3151 9.63054E-05-2.92468E-05-2.87390E-05-1.91603E-06 2.88098E-19-2.23947E-18
 -1      3152 9.61664E-05-2.90811E-05-2.87486E-05-2.20390E-06 1.15447E-18-3.61456E-18
 -1      3153 9.28696E-05-2.49833E-05-2.91053E-05 3.65663E-06 1.47073E-18-2.32408E-19
 -1      3154 9.20428E-05-2.41277E-05-2.91086E-05 4.48313E-06 2.50893E-18-1.26615E-19
 -1      3155 9.04362E-05-2.28916E-05-2.88775E-05 3.89963E-06 1.52574E-18-1.64022E-18
 -1      3156 9.23022E-05-2.45473E-05-2.90328E-05 3.23515E-06 1.57644E-18-8.52840E-19
 -1      3157 1.33015E-04-5.42309E-05-3.41060E-05 8.26917E-06 6.87233E-19-1.26121E-18
 -1      3158 1.27094E-04-5.62318E-05-3.00179E-05 2.03808E-05 7.06161E-19-1.70677E-18
 -1      3159 9.59465E-05-2.88567E-05-2.87430E-05-2.57130E-06 2.98788E-19-3.52439E-18
 -1      3160 9.56301E-05-2.85599E-05-2.87466E-05-2.79044E-06 1.66795E-19-4.32631E-18
 -1      3161 9.63455E-05-2.93858E-05-2.87076E-05-2.58451E-06 5.05835E-19-3.00850E-18
 -1      3162 9.56521E-05-2.72503E-05-2.93226E-05 2.83909E-07 6.56529E-19-1.23895E-18
 -1      3163 9.56661E-05-2.67897E-05-2.95078E-05 8.31184E-07 8.59510E-19-1.28467E-18
 -1      3164 9.56288E-05-2.83769E-05-2.88245E-05-8.64570E-07 5.24070E-19-1.32513E-18
 -1      3165 9.56609E-05-2.81918E-05-2.89073E-05-6.82416E-07 4.00464E-19-1.32984E-18
 -1      3166 9.62150E-05-2.92038E-05-2.87182E-05-1.11618E-06 9.74438E-19 1.85113E-18
 -1      3167 9.62967E-05-2.92240E-05-2.87377E-05-1.51535E-06-5.46060E-19 8.21698E-19
 -1      3168 9.66062E-05-2.95966E-05-2.87164E-05-1.79732E-06 4.25072E-19-1.17467E-18
 -1      3169 9.64455E-05-2.94597E-05-2.87076E-05-1.09104E-06 1.02795E-19 1.50251E-18
 -1      3170 1.26783E-04-2.05525E-05-4.60729E-05-1.23032E-05-1.88190E-18-3.39951E-19
 -1      3171 1.31053E-04-2.88388E-05-4.39863E-05-1.25092E-05-1.67268E-18-2.93179E-19
 -1      3172 9.51990E-05-2.81233E-05-2.87316E-05-3.02861E-06 2.44975E-19-3.85258E-18
 -1      3173 9.47179E-05-2.77039E-05-2.87297E-05-3.07729E-06-1.11549E-19-2.83375E-18
 -1      3174 9.56104E-05-2.87255E-05-2.86786E-05-3.25590E-06-4.19119E-19-3.38593E-18
 -1      3175 9.13548E-05-2.41799E-05-2.87911E-05 4.33143E-07 1.77669E-18 5.33352E-18
 -1      3176 9.13886E-05-2.41332E-05-2.88355E-05 1.22052E-06 1.29709E-18 2.63632E-18
 -1      3177 5.57098E-05-1.11341E-05-1.86491E-05 1.85515E-05 1.69539E-18 1.18479E-18
 -1      3178 4.70236E-05-7.86024E-06-1.60793E-05 1.27690E-05 1.62093E-18-3.51519E-20
 -1      3179 4.28436E-05-5.71224E-06-1.56667E-05 2.13835E-06 4.17680E-19 2.48678E-18
 -1      3180 5.83018E-05-8.68110E-06-2.12392E-05 1.41393E-05 9.29870E-19-1.32349E-19
 -1      3181 8.72017E-05-3.86360E-05-2.03423E-05-3.98835E-05 1.67067E-18 3.10967E-19
 -1      3182 1.02127E-04-4.81048E-05-2.33507E-05-3.81804E-05 1.88830E-18-4.60521E-19
 -1      3183 1.26972E-04-2.59961E-05-4.34343E-05 1.31113E-05-1.48437E-18-2.55645E-18
 -1      3184 1.21605E-04-1.75855E-05-4.50243E-05 1.16592E-05-2.38763E-18-3.19008E-18
 -1      3185 1.20328E-04-1.00903E-05-4.77121E-05-7.52158E-06-1.79920E-18-2.27905E-19
 -1      3186 1.23861E-04-1.48475E-05-4.71225E-05-1.10660E-05-2.11176E-18 8.08387E-20
 -1      3187 1.21325E-04-1.98028E-05-4.37814E-05-1.18635E-05-1.79931E-18-1.29411E-19
 -1      3188 9.25758E-05-1.82176E-05-3.18845E-05-6.84325E-06-1.92663E-18-2.62084E-18
 -1      3189 9.32024E-05-1.92225E-05-3.17421E-05-7.34933E-06-2.13288E-18-2.33791E-18
 -1      3190 9.41071E-05-2.12236E-05-3.12249E-05-6.04304E-06-2.00683E-18-2.11624E-18
 -1      3191 9.32848E-05-1.95966E-05-3.15557E-05-5.59551E-06-1.67566E-18-2.48066E-18
 -1      3192 1.15307E-04-5.39508E-05-2.66652E-05 3.14275E-05 9.81076E-19-3.13826E-19
 -1      3193 1.04111E-04-4.82751E-05-2.33458E-05 3.72787E-05 1.13132E-18 4.05835E-19
 -1      3194 1.34313E-04-3.87078E-05-4.14527E-05-8.99689E-06-1.72583E-18 6.89273E-20
 -1      3195 1.34566E-04-4.67384E-05-3.76869E-05-2.88877E-06-6.97823E-19-1.23667E-19
 -1      3196 1.28081E-04-3.39642E-05-4.05367E-05-1.11893E-05-1.23376E-18-2.11255E-19
 -1      3197 9.55280E-05-2.55662E-05-2.99560E-05-2.14966E-06-1.50552E-18-1.47944E-18
 -1      3198 9.55382E-05-2.62586E-05-2.97032E-05-1.33418E-06-1.29847E-18-1.50945E-18
 -1      3199 9.57001E-05-2.61879E-05-2.97933E-05-1.17230E-06-1.17998E-18-1.47237E-18
 -1      3200 8.72025E-05-4.01559E-05-2.02217E-05 4.20728E-05 1.32037E-18 2.18958E-19
 -1      3201 7.06660E-05-3.02000E-05-1.68174E-05 4.13166E-05 6.03035E-19-9.15960E-19
 -1      3202 4.56619E-05-8.72945E-06-1.48585E-05-1.48282E-05-3.19861E-19-2.44920E-18
 -1      3203 9.18197E-05-2.48021E-05-2.87142E-05-1.31926E-06 1.47165E-18 3.43400E-18
 -1      3204 9.15062E-05-2.44936E-05-2.87392E-05-5.59410E-07 1.75403E-18 4.24792E-18
 -1      3205 9.08046E-05-2.39243E-05-2.86467E-05-3.28094E-07 1.27577E-18 4.12418E-18
 -1      3206 1.15343E-04-5.32003E-05-2.61940E-05-3.08122E-05 1.28437E-18-2.56075E-18
 -1      3207 1.25754E-04-5.68850E-05-2.99735E-05-2.17303E-05 1.90609E-19-3.70415E-18
 -1      3208 9.23533E-05-1.83085E-05-3.17485E-05 1.80257E-06 7.89868E-19-2.76001E-18
 -1      3209 9.22357E-05-1.81098E-05-3.17800E-05 1.04754E-06 5.06961E-19-2.78444E-18
 -1      3210 9.56662E-05-2.79464E-05-2.90275E-05-4.46172E-07 3.40168E-19-1.34166E-18
 -1      3211 9.57026E-05-2.76518E-05-2.91533E-05-1.13897E-07 4.53205E-19-1.29301E-18
 -1      3212 9.59374E-05-2.79943E-05-2.91221E-05-4.48139E-07 3.98214E-19-1.62773E-18
 -1      3213 9.55750E-05-2.86333E-05-2.86899E-05-1.06844E-06 6.67888E-19-1.17034E-18
 -1      3214 9.55977E-05-2.85216E-05-2.87416E-05-9.86471E-07 5.78240E-19-1.18407E-18
 -1      3215 9.58391E-05-2.87263E-05-2.87656E-05-1.02318E-06 4.64848E-19-1.11030E-18
 -1      3216 4.40615E-05-6.84974E-06-1.55418E-05-4.58293E-06-1.37219E-19-2.74142E-18
 -1      3217 4.51187E-05-5.81007E-06-1.61626E-05 6.24314E-06 5.50224E-19-2.70140E-18
 -1      3218 7.26411E-05-2.65052E-05-1.94552E-05 3.45369E-05 1.34819E-18-3.49772E-19
 -1      3219 6.27077E-05-2.32611E-05-1.65286E-05 3.69103E-05 9.81288E-19-1.62704E-18
 -1      3220 5.63988E-05-1.63627E-05-1.68583E-05 2.91666E-05 1.79134E-18-2.79161E-18
 -1      3221 9.34101E-05-2.01593E-05-3.14183E-05 4.26102E-06 1.76713E-18-2.09764E-18
 -1      3222 9.30493E-05-1.95109E-05-3.15259E-05 3.64889E-06 1.47208E-18-2.19034E-18
 -1      3223 9.59068E-05-2.84564E-05-2.89108E-05-8.33972E-07 5.92454E-19-1.62931E-18
 -1      3224 9.30246E-05-1.94772E-05-3.15308E-05-3.62542E-06-8.18311E-19-2.48434E-18
 -1      3225 9.33859E-05-2.01284E-05-3.14216E-05-4.21290E-06-1.17404E-18-2.43753E-18
 -1      3226 9.67192E-05-2.97661E-05-2.86967E-05-9.93173E-07 1.13487E-19 1.51878E-18
 -1      3227 5.95080E-05-1.60975E-05-1.82100E-05-2.59329E-05 1.89357E-18 2.78965E-18
 -1      3228 4.90857E-05-7.03131E-06-1.76743E-05-4.14951E-06 4.33046E-19 3.26584E-18
 -1      3229 8.25251E-05-3.28269E-05-2.09600E-05-3.53868E-05 1.59970E-18 2.39393E-19
 -1      3230 9.27630E-05-1.90128E-05-3.16260E-05 3.12129E-06 1.33236E-18-2.39018E-18
 -1      3231 9.25267E-05-1.86020E-05-3.16928E-05 2.41620E-06 9.97838E-19-2.56298E-18
 -1      3232 9.37532E-05-2.07567E-05-3.12625E-05 2.84618E-06 1.25129E-18-2.08537E-18
 -1      3233 9.55473E-05-2.63671E-05-2.96553E-05 1.25802E-06 1.05418E-18-1.25683E-18
 -1      3234 9.55158E-05-2.59521E-05-2.98161E-05 1.83786E-06 1.29910E-18-1.24968E-18
 -1      3235 9.57246E-05-2.63186E-05-2.97476E-05 1.09003E-06 9.53183E-19-1.19186E-18
 -1      3236 1.24518E-04-3.16478E-05-3.99536E-05 1.18479E-05-4.78203E-19-3.98931E-18
 -1      3237 5.70390E-05-7.04624E-06-2.10363E-05 7.24902E-06 5.26749E-20 1.78306E-18
 -1      3238 1.12699E-04-8.97685E-06-4.46497E-05-4.92904E-08-9.81394E-19-1.17371E-18
 -1      3239 1.16774E-04-9.22378E-06-4.65398E-05-4.11772E-06-7.71965E-19-1.19385E-18
 -1      3240 1.13938E-04-1.21924E-05-4.37807E-05-6.95314E-06-8.20722E-19-4.72955E-19
 -1      3241 1.32870E-04-5.10124E-05-3.51851E-05 1.54182E-06 1.72186E-19-3.95485E-19
 -1      3242 1.27479E-04-5.14312E-05-3.26567E-05 6.49685E-06 7.29276E-19-5.85611E-19
 -1      3243 1.28998E-04-4.55267E-05-3.58295E-05-4.06588E-06-3.48435E-19-2.19977E-19
 -1      3244 8.34006E-05-1.77540E-05-2.79834E-05 4.67151E-06 5.66591E-19-1.47688E-18
 -1      3245 8.38639E-05-1.80603E-05-2.82757E-05 7.04478E-06-4.08808E-19 2.92605E-19
 -1      3246 8.15212E-05-1.64854E-05-2.79068E-05 7.92381E-06-2.15064E-19 1.29624E-18
 -1      3247 9.41705E-05-2.16284E-05-3.11001E-05-5.04301E-06-1.64584E-18-2.24294E-18
 -1      3248 9.46149E-05-2.25068E-05-3.09085E-05-5.13218E-06-1.78447E-18-1.98624E-18
 -1      3249 9.49155E-05-2.34889E-05-3.05910E-05-4.13016E-06-1.62561E-18-1.93299E-18
 -1      3250 1.27097E-04-5.34579E-05-3.15290E-05-1.24683E-05 9.09038E-19-3.21698E-18
 -1      3251 1.20021E-04-5.30555E-05-2.85830E-05 2.25724E-05 9.73056E-19-1.55924E-18
 -1      3252 9.25145E-05-1.85838E-05-3.16956E-05-2.38722E-06-4.88957E-19-2.64883E-18
 -1      3253 9.27512E-05-1.89916E-05-3.16298E-05-3.09116E-06-6.63766E-19-2.65606E-18
 -1      3254 9.37424E-05-2.07198E-05-3.12675E-05-2.84252E-06-7.12261E-19-2.34044E-18
 -1      3255 9.29058E-05-2.59029E-05-2.86982E-05-2.51288E-06 1.04190E-18 1.25923E-18
 -1      3256 9.23775E-05-2.54490E-05-2.87040E-05-2.02910E-06 9.46159E-19 3.26321E-18
 -1      3257 9.16612E-05-2.49509E-05-2.85853E-05-2.14850E-06 8.48363E-19 2.70720E-18
 -1      3258 9.58881E-05-2.72491E-05-2.94200E-05 2.18028E-07 6.76584E-19-1.41775E-18
 -1      3259 9.70976E-05-3.01540E-05-2.86984E-05-1.27717E-06 9.06636E-19 8.31494E-19
 -1      3260 9.51089E-05-4.19371E-05-2.25917E-05 3.65823E-05 1.47585E-18 6.00546E-19
 -1      3261 9.33417E-05-1.99796E-05-3.14222E-05 1.79829E-06 8.71422E-19-2.45006E-18
 -1      3262 9.44496E-05-2.76604E-05-2.86345E-05-3.54172E-06-2.64653E-19-2.59189E-18
 -1      3263 9.41238E-05-2.70876E-05-2.87113E-05-3.06555E-06 6.12144E-19-2.02611E-18
 -1      3264 9.35536E-05-2.66036E-05-2.87091E-05-2.86563E-06 1.02536E-18-1.09562E-18
 -1      3265 9.17654E-05-2.42094E-05-2.89549E-05 2.61741E-06 1.48859E-18-6.04264E-19
 -1      3266 9.08363E-05-2.36122E-05-2.88238E-05 2.14703E-06 1.23171E-18 8.59448E-19
 -1      3267 9.44493E-05-2.22636E-05-3.09180E-05 3.79214E-06 1.64248E-18-1.78557E-18
 -1      3268 1.15766E-04-1.89328E-05-4.15114E-05 1.12757E-05-1.42815E-18-2.58231E-18
 -1      3269 1.18079E-04-1.46164E-05-4.47147E-05 1.00453E-05-2.19339E-18-2.27900E-18
 -1      3270 1.13387E-04-1.17319E-05-4.38878E-05 6.45177E-06-1.83536E-18-1.86717E-18
 -1      3271 7.77575E-05-1.45603E-05-2.71820E-05 8.14176E-06-7.28369E-19 1.32107E-18
 -1      3272 7.44088E-05-1.28381E-05-2.63928E-05 9.07322E-06-4.04746E-19 1.54420E-18
 -1      3273 7.73869E-05-1.42833E-05-2.68483E-05 4.54035E-06-3.90931E-19 6.75337E-19
 -1      3274 6.87904E-05-1.03643E-05-2.47499E-05 4.47992E-06-4.80610E-19 2.11256E-18
 -1      3275 1.08952E-04-4.86873E-05-2.56324E-05-3.05802E-05 2.31881E-18-2.05799E-18
 -1      3276 9.31302E-05-1.95941E-05-3.14978E-05 6.19983E-07 3.21049E-19-2.52807E-18
 -1      3277 9.21773E-05-1.80117E-05-3.17981E-05 3.97205E-07 2.93078E-19-2.70796E-18
 -1      3278 9.21765E-05-1.80098E-05-3.17984E-05-3.71157E-07-1.15639E-20-2.83640E-18
 -1      3279 9.50890E-05-2.43555E-05-3.03312E-05-3.28608E-06-1.57792E-18-1.74582E-18
 -1      3280 9.51468E-05-2.42598E-05-3.03960E-05-2.91956E-06-1.49975E-18-1.85743E-18
 -1      3281 9.60287E-05-2.68929E-05-2.96205E-05-4.40906E-07-9.32350E-19-1.47266E-18
 -1      3282 9.60796E-05-2.73875E-05-2.94471E-05-2.43139E-08-9.55517E-19-1.35160E-18
 -1      3283 9.61412E-05-2.85527E-05-2.89689E-05-8.04115E-07 4.26931E-19-1.80160E-18
 -1      3284 9.61702E-05-2.83508E-05-2.90597E-05-6.56019E-07 4.49383E-19-1.93431E-18
 -1      3285 1.01088E-04-4.36986E-05-2.46216E-05 3.18769E-05 1.99586E-18-1.29331E-19
 -1      3286 8.76946E-05-3.57210E-05-2.19969E-05 3.52471E-05 1.71314E-18 1.35766E-18
 -1      3287 9.56907E-05-2.55418E-05-3.00679E-05-1.51152E-06-1.20744E-18-1.59868E-18
 -1      3288 9.58249E-05-2.62475E-05-2.98305E-05-8.76521E-07-1.07339E-18-1.60129E-18
 -1      3289 9.59854E-05-2.62723E-05-2.98736E-05-7.07676E-07-9.52192E-19-1.46680E-18
 -1      3290 9.61604E-05-2.78057E-05-2.92874E-05 2.56931E-07-9.46676E-19-1.16191E-18
 -1      3291 9.61554E-05-2.81217E-05-2.91618E-05 5.13662E-07-8.52437E-19-1.10536E-18
 -1      3292 9.62639E-05-2.74361E-05-2.94979E-05 2.43928E-08-8.79365E-19-1.19908E-18
 -1      3293 9.61620E-05-2.83808E-05-2.90435E-05 6.79486E-07-7.92119E-19-1.13244E-18
 -1      3294 9.61306E-05-2.85745E-05-2.89549E-05 8.20280E-07-5.01725E-19-1.06922E-18
 -1      3295 9.63507E-05-2.81882E-05-2.92140E-05 4.92083E-07-8.03673E-19-8.89715E-19
 -1      3296 9.60940E-05-2.87231E-05-2.88694E-05 9.02480E-07-2.36997E-19-1.05645E-18
 -1      3297 9.60516E-05-2.88322E-05-2.88090E-05 9.64544E-07-2.84160E-20-1.02896E-18
 -1      3298 9.63226E-05-2.86502E-05-2.90045E-05 7.59018E-07-3.43189E-19-7.92511E-19
 -1      3299 9.59916E-05-2.89048E-05-2.87491E-05 9.91143E-07 1.65972E-19-1.22053E-18
 -1      3300 9.59459E-05-2.89554E-05-2.87099E-05 1.00363E-06 2.54984E-19-9.46606E-19
 -1      3301 9.62285E-05-2.89079E-05-2.88538E-05 8.84326E-07 2.43300E-20-7.73243E-19
 -1      3302 9.58748E-05-2.89763E-05-2.86695E-05 9.96950E-07 5.44824E-20-8.48192E-19
 -1      3303 9.58299E-05-2.89871E-05-2.86459E-05 9.81726E-07-2.80483E-19-7.28600E-19
 -1      3304 9.60999E-05-2.90235E-05-2.87490E-05 9.18150E-07 1.40754E-19-8.89510E-19
 -1      3305 9.57553E-05-2.89735E-05-2.86203E-05 9.58603E-07-3.98049E-19-6.15843E-19
 -1      3306 9.57134E-05-2.89580E-05-2.86081E-05 9.31551E-07-3.27818E-19-6.96009E-19
 -1      3307 9.59566E-05-2.90424E-05-2.86793E-05 8.99711E-07-2.17076E-19-6.39039E-19
 -1      3308 9.56397E-05-2.89223E-05-2.85933E-05 9.04342E-07-5.93254E-19-6.58266E-19
 -1      3309 9.56018E-05-2.88901E-05-2.85891E-05 8.76727E-07-5.22882E-19-8.15371E-19
 -1      3310 9.58103E-05-2.89969E-05-2.86358E-05 8.58421E-07-5.58635E-19-9.09763E-19
 -1      3311 9.55317E-05-2.88413E-05-2.85822E-05 8.54341E-07-3.92560E-19-1.03318E-18
 -1      3312 9.54988E-05-2.88001E-05-2.85834E-05 8.33916E-07-2.21011E-19-1.11608E-18
 -1      3313 9.56682E-05-2.89107E-05-2.86116E-05 8.15858E-07-5.78648E-19-1.07066E-18
 -1      3314 9.54341E-05-2.87455E-05-2.85817E-05 8.22729E-07-3.19742E-19-1.11291E-18
 -1      3315 9.54076E-05-2.87017E-05-2.85864E-05 8.14560E-07-8.81459E-19-1.11937E-18
 -1      3316 9.55345E-05-2.88017E-05-2.86008E-05 7.87689E-07-2.75983E-19-1.20830E-18
 -1      3317 9.53506E-05-2.86479E-05-2.85879E-05 8.19082E-07-1.08328E-18-9.95298E-19
 -1      3318 9.53331E-05-2.86084E-05-2.85943E-05 8.26016E-07-1.14240E-18-7.50952E-19
 -1      3319 9.54133E-05-2.86851E-05-2.85987E-05 7.85305E-07-8.63502E-19-1.19792E-18
 -1      3320 9.52873E-05-2.85629E-05-2.85971E-05 8.49241E-07-1.31794E-18-4.09783E-19
 -1      3321 9.52834E-05-2.85360E-05-2.86039E-05 8.72037E-07-1.03413E-18-3.52776E-19
 -1      3322 9.53104E-05-2.85762E-05-2.86014E-05 8.16878E-07-9.54820E-19-7.71023E-19
 -1      3323 9.52555E-05-2.85083E-05-2.86066E-05 9.15524E-07-1.06951E-18 4.88925E-20
 -1      3324 9.52726E-05-2.85049E-05-2.86124E-05 9.52620E-07-7.30726E-19-3.70153E-20
 -1      3325 9.52356E-05-2.84930E-05-2.86053E-05 8.87909E-07-7.85422E-19 6.27529E-20
 -1      3326 9.52733E-05-2.85083E-05-2.86136E-05 1.01609E-06-6.61891E-19 1.24374E-19
 -1      3327 9.53231E-05-2.85432E-05-2.86174E-05 1.06288E-06-1.96076E-19-4.74781E-19
 -1      3328 9.52059E-05-2.84599E-05-2.86075E-05 1.00109E-06-7.65503E-19 4.48746E-19
 -1      3329 9.53693E-05-2.85956E-05-2.86161E-05 1.14320E-06-7.88899E-20-6.02490E-19
 -1      3330 9.54682E-05-2.86880E-05-2.86174E-05 1.19082E-06 4.92712E-19-1.01583E-18
 -1      3331 9.52485E-05-2.85099E-05-2.86056E-05 1.15505E-06-3.68201E-19 3.41026E-19
 -1      3332 9.55847E-05-2.88127E-05-2.86135E-05 1.28016E-06 1.03660E-18-1.42323E-18
 -1      3333 9.57546E-05-2.89862E-05-2.86124E-05 1.31361E-06 6.61936E-19-1.19080E-18
 -1      3334 9.54045E-05-2.86872E-05-2.85984E-05 1.34171E-06 4.03488E-19-1.00488E-18
 -1      3335 9.59749E-05-2.92112E-05-2.86071E-05 1.39646E-06 2.83025E-19-1.06247E-18
 -1      3336 9.62419E-05-2.94912E-05-2.86053E-05 1.39220E-06 3.53404E-19-8.33429E-19
 -1      3337 9.57316E-05-2.90478E-05-2.85870E-05 1.54153E-06 6.66922E-19-1.09446E-18
 -1      3338 9.66075E-05-2.98458E-05-2.86023E-05 1.44103E-06 5.68233E-19-3.59616E-19
 -1      3339 9.69981E-05-3.02537E-05-2.86040E-05 1.36435E-06 5.31875E-19 3.79935E-20
 -1      3340 9.63049E-05-2.96555E-05-2.85761E-05 1.71603E-06 7.23582E-19-4.31827E-20
 -1      3341 9.75537E-05-3.07602E-05-2.86107E-05 1.33423E-06 1.47292E-19 3.04528E-19
 -1      3342 9.80862E-05-3.13018E-05-2.86241E-05 1.13746E-06 2.03691E-19 2.60347E-19
 -1      3343 9.72118E-05-3.05706E-05-2.85770E-05 1.79739E-06 3.27138E-19 4.19379E-19
 -1      3344 9.88683E-05-3.19604E-05-2.86538E-05 9.61118E-07 5.85642E-20 2.29920E-19
 -1      3345 9.95378E-05-3.26062E-05-2.86921E-05 5.85446E-07 3.40529E-19-1.93012E-19
 -1      3346 9.85362E-05-3.18259E-05-2.86112E-05 1.67625E-06-1.10604E-19 3.93978E-19
 -1      3347 1.00552E-04-3.33705E-05-2.87659E-05 1.71915E-07 4.53372E-19-5.74340E-19
 -1      3348 1.01308E-04-3.40271E-05-2.88487E-05-4.42278E-07 6.22140E-19-2.36817E-19
 -1      3349 1.00327E-04-3.33837E-05-2.87141E-05 1.19236E-06 3.19499E-21 3.73531E-19
 -1      3350 1.02489E-04-3.47676E-05-2.89955E-05-1.18772E-06 1.00657E-18-6.42768E-19
 -1      3351 1.03213E-04-3.52534E-05-2.91465E-05-2.07029E-06 9.22695E-19-3.31492E-19
 -1      3352 1.02534E-04-3.50606E-05-2.89393E-05 1.42303E-07 8.74572E-19 4.32569E-19
 -1      3353 1.04388E-04-3.57368E-05-2.93995E-05-3.19958E-06 2.53632E-19-5.49909E-19
 -1      3354 1.04892E-04-3.57800E-05-2.96423E-05-4.30116E-06-6.37483E-20-4.07486E-20
 -1      3355 1.04929E-04-3.64625E-05-2.93540E-05-1.64969E-06 5.90032E-19-7.17786E-20
 -1      3356 1.05748E-04-3.56623E-05-3.00341E-05-5.74153E-06 4.60359E-20 1.56089E-21
 -1      3357 1.05797E-04-3.49403E-05-3.03821E-05-6.85986E-06-4.07858E-19 5.68287E-19
 -1      3358 1.07030E-04-3.69294E-05-3.00309E-05-4.22660E-06 9.53470E-20-4.58164E-19
 -1      3359 1.05975E-04-3.38969E-05-3.09182E-05-8.26196E-06-1.16467E-18 6.71272E-19
 -1      3360 1.05419E-04-3.22341E-05-3.13550E-05-9.01256E-06-5.06079E-19 4.65557E-19
 -1      3361 1.08140E-04-3.56938E-05-3.10210E-05-7.19752E-06-5.02537E-19 1.41405E-19
 -1      3362 1.04654E-04-3.01553E-05-3.19900E-05-9.72468E-06-9.91968E-19 2.37413E-19
 -1      3363 1.03614E-04-2.77922E-05-3.24528E-05-9.57617E-06-3.08069E-19 1.77404E-19
 -1      3364 1.07576E-04-3.21247E-05-3.22873E-05-9.61314E-06-8.89056E-19-1.65778E-19
 -1      3365 1.02162E-04-2.51850E-05-3.30661E-05-8.92843E-06 3.10929E-19-5.44642E-19
 -1      3366 1.01030E-04-2.28560E-05-3.34477E-05-7.55469E-06 6.81812E-20-8.68857E-19
 -1      3367 1.05345E-04-2.67858E-05-3.36449E-05-9.96079E-06-4.67668E-19-1.24585E-18
 -1      3368 9.97471E-05-2.08381E-05-3.38696E-05-5.26902E-06 3.41947E-19-7.88515E-19
 -1      3369 9.91051E-05-1.95692E-05-3.40627E-05-2.92858E-06 7.01340E-19 2.53349E-20
 -1      3370 1.02492E-04-2.13003E-05-3.47932E-05-7.07195E-06 3.03180E-19-9.80527E-19
 -1      3371 9.88043E-05-1.91818E-05-3.41468E-05 3.94722E-07 3.16287E-19 1.32651E-19
 -1      3372 9.90479E-05-1.97114E-05-3.40635E-05 2.89214E-06-5.10774E-19-4.41337E-19
 -1      3373 1.00810E-04-1.84799E-05-3.52588E-05-1.40313E-06 3.85986E-19-1.01333E-18
 -1      3374 1.00113E-04-2.12336E-05-3.37612E-05 5.83055E-06-9.48976E-19-1.96346E-19
 -1      3375 1.01059E-04-2.32503E-05-3.34427E-05 7.54707E-06-1.27459E-18-5.34987E-19
 -1      3376 1.01538E-04-1.95551E-05-3.50607E-05 5.03746E-06-5.50474E-19-1.16523E-18
 -1      3377 1.02581E-04-2.56795E-05-3.28954E-05 9.02446E-06-1.83047E-18 5.18349E-19
 -1      3378 1.03793E-04-2.82342E-05-3.24469E-05 9.68290E-06-1.70207E-18 4.01545E-19
 -1      3379 1.04067E-04-2.40386E-05-3.42262E-05 9.14982E-06-8.34182E-19 8.33184E-19
 -1      3380 1.04921E-04-3.06867E-05-3.17946E-05 9.33099E-06-1.26473E-18-2.78662E-19
 -1      3381 1.05688E-04-3.26778E-05-3.13381E-05 8.87603E-06-6.62325E-19-2.03524E-19
 -1      3382 1.07018E-04-3.04299E-05-3.27937E-05 9.92841E-06-1.66808E-18 2.11715E-18
 -1      3383 1.05918E-04-3.41673E-05-3.07548E-05 7.68356E-06 3.66662E-19-1.04257E-18
 -1      3384 1.06110E-04-3.52812E-05-3.03658E-05 6.63698E-06 8.55309E-19-2.41079E-19
 -1      3385 1.08213E-04-3.45803E-05-3.15147E-05 8.18159E-06-4.69949E-19 1.55878E-18
 -1      3386 1.05499E-04-3.57549E-05-2.99149E-05 5.13815E-06 7.45146E-19-8.74038E-19
 -1      3387 1.05166E-04-3.59961E-05-2.96298E-05 3.97370E-06 1.01760E-18-1.78424E-19
 -1      3388 1.07791E-04-3.68187E-05-3.04045E-05 5.24336E-06 7.61359E-19-1.66062E-18
 -1      3389 1.04082E-04-3.57117E-05-2.93262E-05 2.67388E-06 6.68676E-19-4.04702E-19
 -1      3390 1.03423E-04-3.53626E-05-2.91431E-05 1.67311E-06 5.73957E-19-3.37254E-19
 -1      3391 1.06028E-04-3.69691E-05-2.96068E-05 2.39494E-06 6.58523E-19-1.72847E-18
 -1      3392 1.02224E-04-3.46844E-05-2.89632E-05 7.54803E-07 5.51650E-19 2.24977E-19
 -1      3393 1.01459E-04-3.40527E-05-2.88612E-05 1.88162E-08 2.01515E-19-5.09564E-20
 -1      3394 1.03694E-04-3.58340E-05-2.91031E-05 2.34422E-07 9.37495E-19-2.01269E-18
 -1      3395 1.00366E-04-3.32564E-05-2.87714E-05-5.31526E-07-1.43106E-19 5.97603E-20
 -1      3396 9.96416E-05-3.25602E-05-2.87263E-05-1.00327E-06 3.58509E-19-3.98592E-19
 -1      3397 1.01379E-04-3.41747E-05-2.88266E-05-1.13037E-06 3.05557E-19-3.77338E-19
 -1      3398 9.87607E-05-3.18143E-05-2.86952E-05-1.27411E-06 5.36409E-19-4.15813E-19
 -1      3399 9.81609E-05-3.12000E-05-2.86873E-05-1.51672E-06 9.48546E-19-7.22138E-19
 -1      3400 9.94114E-05-3.24752E-05-2.87060E-05-1.83003E-06 2.46664E-19 1.04277E-18
 -1      3401 9.56199E-05-2.88750E-05-2.86034E-05-8.94476E-07 2.18185E-19 4.05148E-20
 -1      3402 9.56619E-05-2.89158E-05-2.86058E-05-9.18491E-07 2.24323E-19 4.79216E-20
 -1      3403 9.57355E-05-2.89549E-05-2.86187E-05-9.43699E-07 1.06648E-19-1.09321E-19
 -1      3404 9.57760E-05-2.89728E-05-2.86295E-05-9.66530E-07 2.54531E-20-4.01878E-19
 -1      3405 9.58319E-05-2.89899E-05-2.86481E-05-8.69190E-07 1.09682E-19-4.73587E-19
 -1      3406 9.59651E-05-2.89539E-05-2.87188E-05-1.00498E-06 3.30836E-19-9.89328E-19
 -1      3407 9.60095E-05-2.89001E-05-2.87587E-05-9.88988E-07 2.74045E-19-1.24401E-18
 -1      3408 9.54979E-05-2.87525E-05-2.86035E-05-8.57585E-07-3.12707E-20 1.54365E-19
 -1      3409 9.55407E-05-2.88124E-05-2.85987E-05-8.72270E-07-2.98565E-20-9.90320E-20
 -1      3410 9.56815E-05-2.88860E-05-2.86276E-05-8.29138E-07 2.04592E-19-6.74790E-19
 -1      3411 9.53660E-05-2.85913E-05-2.86161E-05-8.47703E-07 6.45819E-19 4.27025E-19
 -1      3412 9.54137E-05-2.86704E-05-2.86057E-05-8.46096E-07 5.65509E-19 3.49708E-19
 -1      3413 9.55204E-05-2.87350E-05-2.86227E-05-8.00072E-07 3.83976E-20-4.99524E-19
 -1      3414 9.52123E-05-2.83864E-05-2.86383E-05-8.74812E-07 4.99334E-19 1.78348E-19
 -1      3415 9.52712E-05-2.84879E-05-2.86234E-05-8.51386E-07 5.17762E-19 4.04843E-19
 -1      3416 9.53441E-05-2.85400E-05-2.86300E-05-7.94180E-07 6.36444E-19-1.46133E-20
 -1      3417 9.50172E-05-2.81245E-05-2.86674E-05-9.45926E-07 3.18713E-19-3.76525E-19
 -1      3418 9.50974E-05-2.82559E-05-2.86491E-05-8.96283E-07 6.76130E-19-5.37379E-20
 -1      3419 9.51380E-05-2.82945E-05-2.86459E-05-8.17855E-07 6.60634E-19 2.94650E-19
 -1      3420 9.47513E-05-2.77831E-05-2.87005E-05-1.06478E-06-1.95630E-19-1.79759E-19
 -1      3421 9.48681E-05-2.79567E-05-2.86801E-05-9.85720E-07-5.54597E-20-5.31887E-19
 -1      3422 9.48792E-05-2.79834E-05-2.86669E-05-8.72968E-07 2.40462E-19 2.61881E-19
 -1      3423 9.43691E-05-2.73280E-05-2.87333E-05-1.23003E-06-5.72723E-19 3.13945E-19
 -1      3424 9.45471E-05-2.75621E-05-2.87127E-05-1.12049E-06-3.73815E-19-1.65828E-19
 -1      3425 9.45339E-05-2.75826E-05-2.86887E-05-9.55336E-07-3.82530E-19-3.97999E-19
 -1      3426 9.38394E-05-2.67473E-05-2.87577E-05-1.42174E-06-5.83703E-19 1.55883E-19
 -1      3427 9.40958E-05-2.70486E-05-2.87410E-05-1.29130E-06-3.68997E-19 2.53365E-19
 -1      3428 9.40676E-05-2.70718E-05-2.87046E-05-1.04905E-06-4.85095E-19-1.45541E-19
 -1      3429 9.30157E-05-2.59195E-05-2.87634E-05-1.63733E-06-7.19238E-19 6.31492E-19
 -1      3430 9.34310E-05-2.63532E-05-2.87560E-05-1.48110E-06-8.66782E-19 3.91293E-19
 -1      3431 9.34059E-05-2.63978E-05-2.87060E-05-1.13193E-06-7.19653E-19 6.37661E-19
 -1      3432 9.17806E-05-2.47883E-05-2.87256E-05-1.81872E-06-4.62301E-19 1.13735E-18
 -1      3433 9.24217E-05-2.53850E-05-2.87411E-05-1.66441E-06-3.01091E-19 9.93662E-19
 -1      3434 9.24313E-05-2.54795E-05-2.86755E-05-1.15478E-06-5.52429E-19 1.86864E-19
 -1      3435 8.99428E-05-2.32609E-05-2.86034E-05-1.87730E-06 6.21981E-19 5.58308E-19
 -1      3436 9.09224E-05-2.40708E-05-2.86649E-05-1.76685E-06 4.60882E-20 1.00715E-18
 -1      3437 9.10239E-05-2.42637E-05-2.85844E-05-1.02837E-06-1.34520E-19 4.98125E-19
 -1      3438 8.72389E-05-2.12452E-05-2.83253E-05-1.66267E-06 5.97542E-19 8.44491E-19
 -1      3439 8.87149E-05-2.23181E-05-2.84738E-05-1.66969E-06 6.81684E-19 4.64208E-19
 -1      3440 8.90063E-05-2.26825E-05-2.83847E-05-6.08933E-07 5.41498E-19 9.60489E-19
 -1      3441 8.33187E-05-1.86817E-05-2.77680E-05-9.39958E-07 2.42514E-19 7.10524E-19
 -1      3442 8.55072E-05-2.00499E-05-2.80757E-05-1.18049E-06 7.57499E-19 9.72063E-19
 -1      3443 8.61515E-05-2.06919E-05-2.79966E-05 3.29297E-07 4.81461E-19 3.62493E-19
 -1      3444 7.77251E-05-1.56043E-05-2.67199E-05 6.21691E-07 2.11462E-19 2.37599E-19
 -1      3445 8.09141E-05-1.72480E-05-2.73128E-05-1.20660E-08 2.17216E-19 5.78037E-19
 -1      3446 8.21787E-05-1.83110E-05-2.72877E-05 2.12407E-06 5.40624E-19 5.21281E-19
 -1      3447 6.98736E-05-1.22449E-05-2.48050E-05 3.41755E-06 3.62997E-19-2.44137E-19
 -1      3448 7.44275E-05-1.40226E-05-2.59150E-05 2.21503E-06 2.22091E-19-2.72596E-19
 -1      3449 7.67293E-05-1.56772E-05-2.60379E-05 5.25279E-06 3.42873E-19 2.96993E-19
 -1      3450 5.95893E-05-9.39024E-06-2.15629E-05 7.68339E-06 1.11638E-18-1.58228E-18
 -1      3451 6.56278E-05-1.08618E-05-2.34744E-05 5.82964E-06 1.33552E-18-9.32994E-19
 -1      3452 6.96655E-05-1.33276E-05-2.39608E-05 1.01691E-05 1.18062E-18-7.53562E-19
 -1      3453 9.44381E-05-2.23015E-05-3.09378E-05 2.56614E-06 1.22398E-18-1.90959E-18
 -1      3454 9.42343E-05-2.18177E-05-3.10409E-05 2.13832E-06 1.01154E-18-2.10484E-18
 -1      3455 9.22315E-05-1.81040E-05-3.17810E-05-1.02199E-06-1.67932E-19-2.90586E-18
 -1      3456 9.23452E-05-1.82967E-05-3.17502E-05-1.77308E-06-4.12656E-19-2.75509E-18
 -1      3457 9.33359E-05-1.99660E-05-3.14246E-05-1.78210E-06-4.04546E-19-2.67420E-18
 -1      3458 1.27397E-04-4.66962E-05-3.43741E-05 2.64744E-06 1.00581E-18-2.68124E-18
 -1      3459 1.25040E-04-4.18968E-05-3.59278E-05 7.09607E-06 4.12406E-19-3.26473E-18
 -1      3460 9.38171E-05-2.09171E-05-3.12471E-05-4.76704E-06-1.38815E-18-2.27925E-18
 -1      3461 8.96960E-05-2.28875E-05-2.86670E-05 1.88871E-06 1.33106E-18 7.42826E-19
 -1      3462 8.84431E-05-2.19750E-05-2.85410E-05 1.96955E-06 9.77984E-19 1.22726E-18
 -1      3463 8.95593E-05-2.29127E-05-2.85396E-05 3.23518E-07 1.14710E-18 5.59481E-18
 -1      3464 9.69497E-05-2.99963E-05-2.86848E-05-2.54133E-06 6.08022E-20-2.32487E-18
 -1      3465 9.66966E-05-2.97830E-05-2.86734E-05-2.97317E-06-6.21621E-19-2.95428E-18
 -1      3466 9.50751E-05-2.39593E-05-3.04987E-05 3.19903E-06 1.59012E-18-1.63643E-18
 -1      3467 9.47078E-05-2.29123E-05-3.07641E-05 2.89248E-06 1.25691E-18-1.72648E-18
 -1      3468 9.43750E-05-2.19995E-05-3.09884E-05-3.78528E-06-1.16544E-18-2.14275E-18
 -1      3469 4.35287E-05-8.46552E-06-1.47603E-05 1.74879E-05 1.56508E-18-3.72080E-18
 -1      3470 5.42909E-05-8.55954E-06-1.93598E-05 1.07223E-05 8.65979E-19-2.05300E-18
 -1      3471 9.71698E-05-3.01982E-05-2.86990E-05-1.69915E-06 1.23768E-18-1.23985E-18
 -1      3472 9.61581E-05-2.80810E-05-2.91806E-05-4.82200E-07 5.42139E-19-1.85137E-18
 -1      3473 9.61601E-05-2.77538E-05-2.93093E-05-2.15067E-07 5.21261E-19-1.83833E-18
 -1      3474 9.63537E-05-2.81465E-05-2.92331E-05-4.65971E-07 5.76258E-19-1.91450E-18
 -1      3475 9.62905E-05-2.94317E-05-2.86387E-05-3.49675E-06-3.51125E-19-3.27449E-18
 -1      3476 9.57467E-05-2.89916E-05-2.86137E-05-3.79594E-06-4.09607E-19-3.30659E-18
 -1      3477 9.68861E-05-3.01539E-05-2.86155E-05-3.50645E-06-9.62890E-19-3.25466E-18
 -1      3478 1.21658E-04-5.17001E-05-2.96051E-05-1.57201E-05 1.47177E-18-3.50669E-18
 -1      3479 1.26174E-04-5.10072E-05-3.25717E-05-5.46818E-06 1.05428E-18-2.55105E-18
 -1      3480 1.21826E-04-5.23061E-05-2.99312E-05 1.60927E-05 1.24593E-18-2.10511E-18
 -1      3481 1.13298E-04-4.95415E-05-2.71465E-05 2.51357E-05 1.91367E-18-1.78019E-18
 -1      3482 5.84839E-05-1.25511E-05-1.94576E-05-1.96490E-05 2.12789E-18 2.99738E-18
 -1      3483 6.61554E-05-1.93145E-05-2.01551E-05-2.73056E-05 2.30724E-18 2.22611E-18
 -1      3484 7.77047E-05-2.71246E-05-2.13173E-05-3.14412E-05 2.48760E-18 6.21802E-19
 -1      3485 9.09107E-05-3.73120E-05-2.31247E-05-3.33133E-05 2.26880E-18-3.90270E-19
 -1      3486 8.67880E-05-2.09572E-05-2.82771E-05 1.43947E-06 1.55798E-18 1.46826E-19
 -1      3487 8.48944E-05-1.96830E-05-2.80368E-05 1.39418E-06 1.25893E-18 7.77136E-20
 -1      3488 8.68142E-05-2.09948E-05-2.80828E-05-7.35255E-07 8.15756E-19 4.28634E-18
 -1      3489 9.48953E-05-2.35196E-05-3.05953E-05-2.62441E-06-1.07966E-18-1.82881E-18
 -1      3490 1.02392E-04-4.33793E-05-2.49023E-05-3.00871E-05 2.66557E-18-1.70946E-18
 -1      3491 1.11921E-04-4.92591E-05-2.72396E-05-2.49488E-05 2.03280E-18-2.72742E-18
 -1      3492 5.56190E-05-7.89494E-06-2.03608E-05-5.64418E-06 8.64457E-19 3.39501E-18
 -1      3493 1.15662E-04-1.79964E-05-4.22182E-05-1.09142E-05-1.90979E-18 5.09649E-19
 -1      3494 1.18741E-04-2.26627E-05-4.12566E-05-1.27916E-05-1.79489E-18 1.01684E-18
 -1      3495 1.22263E-04-3.46922E-05-3.74519E-05 1.12795E-05 2.14935E-20-3.77189E-18
 -1      3496 1.17951E-04-2.75912E-05-3.91370E-05 1.24071E-05-9.00370E-19-3.89578E-18
 -1      3497 9.44785E-05-2.23541E-05-3.09324E-05-2.61339E-06-8.95953E-19-2.15051E-18
 -1      3498 9.53095E-05-2.43649E-05-3.03878E-05-1.93432E-06-1.05952E-18-1.73453E-18
 -1      3499 9.53888E-05-2.44591E-05-3.04005E-05-1.57132E-06-8.78172E-19-1.75013E-18
 -1      3500 9.42461E-05-2.18480E-05-3.10356E-05-2.16282E-06-6.62039E-19-2.33646E-18
 -1      3501 1.22330E-04-2.97099E-05-4.00203E-05-1.25333E-05-1.22285E-18 2.41907E-19
 -1      3502 1.25682E-04-3.73259E-05-3.78932E-05-1.00815E-05-9.66412E-19 5.33816E-19
 -1      3503 1.17475E-04-2.74435E-05-3.87096E-05-1.20452E-05-1.17649E-18 2.18939E-18
 -1      3504 6.98891E-05-1.20097E-05-2.49443E-05-1.41103E-06 2.01309E-19 1.95444E-18
 -1      3505 6.48229E-05-9.86952E-06-2.35915E-05-1.77269E-06 9.39174E-19 2.59303E-18
 -1      3506 9.40760E-05-2.14826E-05-3.11260E-05 1.76179E-06 9.44052E-19-2.23051E-18
 -1      3507 9.39380E-05-2.11910E-05-3.11847E-05 1.24292E-06 7.28445E-19-2.34202E-18
 -1      3508 9.48044E-05-2.28588E-05-3.08154E-05 1.55351E-06 9.55000E-19-2.00189E-18
 -1      3509 9.60718E-05-2.73211E-05-2.94721E-05 7.83368E-08 6.81710E-19-1.71550E-18
 -1      3510 9.60203E-05-2.68172E-05-2.96496E-05 5.07907E-07 8.04434E-19-1.53566E-18
 -1      3511 9.62535E-05-2.73675E-05-2.95227E-05 2.08974E-08 8.29807E-19-1.86042E-18
 -1      3512 9.58509E-05-2.89879E-05-2.86546E-05-9.88121E-07-6.11780E-20-5.69874E-19
 -1      3513 9.58951E-05-2.89766E-05-2.86780E-05-1.00064E-06 2.75328E-19-6.79743E-19
 -1      3514 9.59782E-05-2.90410E-05-2.86891E-05-9.07108E-07-2.68129E-20-5.38094E-19
 -1      3515 9.52319E-05-2.48198E-05-3.01681E-05 3.09723E-06 1.65451E-18-1.28965E-18
 -1      3516 8.96790E-05-2.32232E-05-2.84696E-05-8.08484E-07 1.34223E-18 4.88428E-18
 -1      3517 9.60673E-05-2.88230E-05-2.88197E-05-9.58743E-07 1.47916E-19-1.23223E-18
 -1      3518 9.61081E-05-2.87085E-05-2.88815E-05-8.91635E-07 2.25007E-19-1.52556E-18
 -1      3519 9.62460E-05-2.88986E-05-2.88653E-05-8.81000E-07 1.24952E-19-1.33273E-18
 -1      3520 5.13297E-05-1.24518E-05-1.63071E-05 2.48532E-05 1.71569E-18-3.47305E-18
 -1      3521 6.03666E-05-1.17561E-05-2.05106E-05 1.70839E-05 1.61488E-18-1.77382E-18
 -1      3522 6.04341E-05-1.05832E-05-2.10638E-05-1.19631E-05 1.31213E-18 3.45267E-18
 -1      3523 6.02731E-05-1.59991E-05-1.87110E-05 2.58630E-05 2.21931E-18-2.65243E-18
 -1      3524 9.56229E-05-2.91300E-05-2.85195E-05-4.45691E-06-8.08054E-19-2.46586E-18
 -1      3525 9.50233E-05-2.83191E-05-2.85645E-05-4.11414E-06-9.13556E-19-3.55224E-18
 -1      3526 9.42517E-05-2.77096E-05-2.85344E-05-4.14793E-06-6.23149E-19-1.65974E-18
 -1      3527 1.10791E-04-1.25263E-05-4.22528E-05 3.18062E-06-9.88540E-19-1.42714E-18
 -1      3528 8.76398E-05-3.25966E-05-2.34129E-05 2.96356E-05 2.03340E-18 1.02811E-18
 -1      3529 8.03560E-05-3.00106E-05-2.14295E-05 3.36912E-05 1.70992E-18 1.30432E-18
 -1      3530 7.30986E-05-2.34765E-05-2.11654E-05 2.92389E-05 2.18310E-18 5.84982E-20
 -1      3531 9.15037E-05-2.50861E-05-2.84359E-05-3.20881E-06 3.01587E-19 1.55718E-18
 -1      3532 9.06978E-05-2.44319E-05-2.84315E-05-2.54862E-06 8.24764E-19 1.98862E-18
 -1      3533 8.91449E-05-2.32316E-05-2.82844E-05-2.00087E-06 1.37715E-18 3.15577E-18
 -1      3534 9.53766E-05-2.52327E-05-3.00552E-05 2.26142E-06 1.44319E-18-1.38295E-18
 -1      3535 9.61208E-05-2.90214E-05-2.87589E-05-9.21297E-07 1.29682E-19-1.10662E-18
 -1      3536 9.59508E-05-2.61721E-05-2.99051E-05 7.76953E-07 8.74208E-19-1.70007E-18
 -1      3537 9.58056E-05-2.61342E-05-2.98657E-05 9.66067E-07 8.76756E-19-1.51987E-18
 -1      3538 9.51286E-05-2.37891E-05-3.05553E-05 2.14800E-06 1.11561E-18-1.67321E-18
 -1      3539 9.56782E-05-2.56076E-05-3.00190E-05 1.41990E-06 1.00131E-18-1.47880E-18
 -1      3540 1.22771E-04-4.74549E-05-3.23789E-05-1.79238E-06 7.30407E-19-2.65200E-18
 -1      3541 1.25799E-04-4.20135E-05-3.60638E-05-7.22938E-06-9.23160E-19 4.85668E-19
 -1      3542 1.23953E-04-4.47172E-05-3.39859E-05-3.31221E-06-3.83732E-19 1.27925E-19
 -1      3543 1.21236E-04-3.77801E-05-3.57932E-05-9.49942E-06-1.25433E-18 1.62186E-18
 -1      3544 8.26861E-05-1.84601E-05-2.75999E-05 4.62106E-07 8.64144E-19-1.77829E-19
 -1      3545 8.01107E-05-1.69122E-05-2.71568E-05 1.18502E-07 1.34817E-19-1.29065E-19
 -1      3546 8.30606E-05-1.88814E-05-2.73477E-05-2.82302E-06 5.52254E-19 1.60688E-18
 -1      3547 9.63345E-05-2.86282E-05-2.90190E-05-7.46267E-07 9.54021E-20-1.69914E-18
 -1      3548 1.15032E-04-4.80266E-05-2.86354E-05-1.72266E-05 1.85507E-18-2.65250E-18
 -1      3549 1.20148E-04-3.76555E-05-3.54102E-05 8.91718E-06 2.80604E-19-4.07407E-18
 -1      3550 9.30363E-05-2.63202E-05-2.85943E-05-3.21067E-06-1.73422E-19-9.19163E-21
 -1      3551 7.53745E-05-2.35633E-05-2.21292E-05-2.64629E-05 2.73396E-18 9.59900E-19
 -1      3552 6.32380E-05-1.46254E-05-2.07341E-05 2.05855E-05 1.94995E-18-1.91834E-18
 -1      3553 6.85936E-05-1.51932E-05-2.27833E-05 1.63437E-05 1.87332E-18-1.79547E-18
 -1      3554 6.84611E-05-1.86801E-05-2.11948E-05 2.49604E-05 2.18883E-18-1.11290E-18
 -1      3555 9.78225E-05-3.08947E-05-2.86807E-05-1.76003E-06 5.25459E-19-1.01754E-18
 -1      3556 9.71831E-05-3.02561E-05-2.86880E-05-2.34617E-06 1.73095E-19-2.02117E-18
 -1      3557 1.24366E-04-5.16924E-05-3.10924E-05 1.01783E-05 1.25478E-18-1.17082E-18
 -1      3558 1.18330E-04-4.93760E-05-2.96341E-05 1.36733E-05 1.61568E-18-1.12539E-18
 -1      3559 1.23861E-04-4.89169E-05-3.21291E-05 4.15599E-06 8.51306E-19-6.80598E-19
 -1      3560 1.10502E-04-4.58964E-05-2.76337E-05 2.05574E-05 2.41269E-18-2.30333E-18
 -1      3561 1.07220E-04-4.59084E-05-2.62048E-05 2.70868E-05 2.33794E-18-1.70924E-18
 -1      3562 9.96508E-05-4.02718E-05-2.54729E-05 2.68871E-05 2.43374E-18-7.27045E-19
 -1      3563 1.12011E-04-1.58039E-05-4.14123E-05-8.28312E-06-8.68050E-19 1.23640E-19
 -1      3564 9.31294E-05-1.95907E-05-3.14986E-05-5.97821E-07-6.45128E-20-2.65883E-18
 -1      3565 9.69531E-05-3.84999E-05-2.49006E-05-2.78106E-05 2.34178E-18-1.97130E-18
 -1      3566 7.73238E-05-1.55015E-05-2.66186E-05-3.19262E-07-4.85487E-19 7.46974E-19
 -1      3567 7.37501E-05-1.36984E-05-2.58233E-05-9.64497E-07-7.15412E-19 7.44618E-19
 -1      3568 7.19974E-05-1.34238E-05-2.48449E-05-6.43599E-06-1.24903E-19 1.30121E-18
 -1      3569 7.84337E-05-1.65050E-05-2.63283E-05-4.91072E-06-2.09245E-19 9.65809E-19
 -1      3570 9.45992E-05-2.23583E-05-3.09424E-05 8.24318E-07 5.63063E-19-2.09951E-18
 -1      3571 9.38523E-05-2.10204E-05-3.12254E-05 8.00925E-07 5.37607E-19-2.25693E-18
 -1      3572 9.38047E-05-2.09229E-05-3.12445E-05 2.38849E-07 2.17067E-19-2.37346E-18
 -1      3573 9.24201E-05-2.60671E-05-2.84626E-05-3.75029E-06-1.02211E-18 1.15755E-18
 -1      3574 9.17041E-05-2.55785E-05-2.83184E-05-4.17284E-06-1.35472E-19 5.46957E-20
 -1      3575 9.32940E-05-2.67693E-05-2.84843E-05-4.10430E-06-5.80899E-19 1.53575E-19
 -1      3576 8.98118E-05-2.42919E-05-2.80549E-05-4.84246E-06 7.40753E-19 7.19463E-19
 -1      3577 8.82503E-05-2.28817E-05-2.80484E-05-3.14987E-06 7.64735E-19 2.67091E-18
 -1      3578 8.66469E-05-2.21144E-05-2.77548E-05-4.10905E-06 1.53382E-19 2.12594E-18
 -1      3579 9.59395E-05-2.57063E-05-3.00848E-05-9.09422E-07-9.02647E-19-1.48127E-18
 -1      3580 9.61246E-05-2.64442E-05-2.98721E-05-4.59407E-07-8.13496E-19-1.44248E-18
 -1      3581 9.63362E-05-2.70776E-05-2.96769E-05-1.75390E-07-6.29645E-19-1.23209E-18
 -1      3582 9.64186E-05-2.75724E-05-2.95115E-05 1.24453E-07-5.85336E-19-1.11722E-18
 -1      3583 9.62621E-05-2.65462E-05-2.98762E-05-3.33934E-07-6.20395E-19-1.23931E-18
 -1      3584 9.65051E-05-2.79878E-05-2.93599E-05 3.08635E-07-6.70793E-19-1.00829E-18
 -1      3585 9.65140E-05-2.83056E-05-2.92357E-05 4.94239E-07-6.36503E-19-8.28454E-19
 -1      3586 9.65588E-05-2.76629E-05-2.95260E-05 1.43280E-07-5.33880E-19-9.60054E-19
 -1      3587 9.65182E-05-2.85616E-05-2.91206E-05 5.99069E-07-2.97401E-19-4.60177E-19
 -1      3588 9.64832E-05-2.87516E-05-2.90296E-05 7.00255E-07 3.69893E-20-4.44167E-19
 -1      3589 9.66482E-05-2.83869E-05-2.92553E-05 4.44676E-07-3.03127E-19-4.39654E-19
 -1      3590 9.64361E-05-2.88935E-05-2.89442E-05 7.48601E-07 1.42723E-19-4.55988E-19
 -1      3591 9.63770E-05-2.89928E-05-2.88794E-05 7.92175E-07 2.17217E-19-2.34001E-19
 -1      3592 9.66052E-05-2.88225E-05-2.90509E-05 6.11635E-07 6.82880E-20-2.59779E-20
 -1      3593 9.63001E-05-2.90544E-05-2.88178E-05 8.03975E-07 1.39054E-19-4.26107E-19
 -1      3594 9.62295E-05-2.90907E-05-2.87733E-05 8.11801E-07-4.27584E-20-4.74767E-19
 -1      3595 9.64820E-05-2.90512E-05-2.89005E-05 6.85340E-07 7.11301E-20-2.64243E-19
 -1      3596 9.61373E-05-2.90974E-05-2.87305E-05 8.02904E-07-1.20927E-19-5.43259E-19
 -1      3597 9.60629E-05-2.90907E-05-2.87014E-05 7.91727E-07-2.36257E-19-6.35817E-19
 -1      3598 9.63143E-05-2.91344E-05-2.87931E-05 7.00785E-07-2.56354E-19-6.30173E-19
 -1      3599 9.59646E-05-2.90606E-05-2.86728E-05 7.74304E-07-6.16628E-19-9.11179E-19
 -1      3600 9.58909E-05-2.90256E-05-2.86552E-05 7.56620E-07-7.42622E-19-7.77699E-19
 -1      3601 9.61256E-05-2.91180E-05-2.87192E-05 6.85338E-07-5.78248E-19-5.18417E-19
 -1      3602 9.57920E-05-2.89720E-05-2.86373E-05 7.39944E-07-7.13156E-19-1.09579E-18
 -1      3603 9.57217E-05-2.89193E-05-2.86280E-05 7.24942E-07-4.69946E-19-9.35281E-19
 -1      3604 9.59301E-05-2.90352E-05-2.86706E-05 6.60214E-07-6.72608E-19-4.60428E-19
 -1      3605 9.56252E-05-2.88519E-05-2.86177E-05 7.16145E-07-3.58071E-19-8.18540E-19
 -1      3606 9.55602E-05-2.87900E-05-2.86140E-05 7.10587E-07-4.58861E-19-1.13124E-18
 -1      3607 9.57361E-05-2.89105E-05-2.86407E-05 6.41812E-07-3.33557E-19-7.13936E-19
 -1      3608 9.54683E-05-2.87166E-05-2.86088E-05 7.15530E-07-7.57445E-19-1.15602E-18
 -1      3609 9.54110E-05-2.86532E-05-2.86085E-05 7.24504E-07-1.12461E-18-1.10406E-18
 -1      3610 9.55489E-05-2.87624E-05-2.86237E-05 6.43273E-07-5.51185E-19-1.12398E-18
 -1      3611 9.53263E-05-2.85814E-05-2.86060E-05 7.48301E-07-9.61073E-19-8.40268E-19
 -1      3612 9.52803E-05-2.85247E-05-2.86073E-05 7.75558E-07-5.25445E-19-5.80698E-19
 -1      3613 9.53730E-05-2.86071E-05-2.86147E-05 6.76072E-07-8.26803E-19-7.25256E-19
 -1      3614 9.52071E-05-2.84635E-05-2.86056E-05 8.23043E-07-3.74043E-19-7.02052E-19
 -1      3615 9.51790E-05-2.84238E-05-2.86067E-05 8.71318E-07-4.47139E-19-3.38641E-19
 -1      3616 9.52149E-05-2.84617E-05-2.86094E-05 7.50819E-07-4.74501E-19-5.91470E-19
 -1      3617 9.51254E-05-2.83852E-05-2.86040E-05 9.47291E-07-5.13625E-19 9.79100E-20
 -1      3618 9.51261E-05-2.83769E-05-2.86035E-05 1.01801E-06-4.87228E-19 8.14823E-20
 -1      3619 9.50864E-05-2.83474E-05-2.86038E-05 8.78420E-07-1.60842E-19-7.21482E-19
 -1      3620 9.51059E-05-2.83776E-05-2.85983E-05 1.12682E-06-4.05934E-19 4.27042E-19
 -1      3621 9.51524E-05-2.84204E-05-2.85953E-05 1.21931E-06-1.68958E-19 3.20042E-19
 -1      3622 9.50089E-05-2.82937E-05-2.85945E-05 1.06995E-06-2.88663E-19 1.54328E-19
 -1      3623 9.51877E-05-2.84841E-05-2.85866E-05 1.36381E-06-2.06333E-19 1.50187E-19
 -1      3624 9.53051E-05-2.86046E-05-2.85808E-05 1.47370E-06 5.09007E-19-2.97227E-19
 -1      3625 9.50172E-05-2.83422E-05-2.85790E-05 1.33555E-06-2.06830E-19 5.02604E-19
 -1      3626 9.54292E-05-2.87624E-05-2.85689E-05 1.65270E-06 6.79191E-19-4.26227E-19
 -1      3627 9.56513E-05-2.89939E-05-2.85614E-05 1.76900E-06 5.60418E-19-2.96502E-19
 -1      3628 9.51660E-05-2.85508E-05-2.85562E-05 1.68123E-06 5.25330E-19 6.78557E-19
 -1      3629 9.59116E-05-2.92847E-05-2.85484E-05 1.97271E-06 8.94609E-19-4.89817E-20
 -1      3630 9.62804E-05-2.96648E-05-2.85430E-05 2.07327E-06 1.10959E-18-1.04712E-19
 -1      3631 9.55349E-05-2.89949E-05-2.85280E-05 2.10207E-06 9.82790E-19 5.01557E-19
 -1      3632 9.67383E-05-3.01315E-05-2.85346E-05 2.27561E-06 7.58607E-19-2.18254E-20
 -1      3633 9.72992E-05-3.06944E-05-2.85390E-05 2.32091E-06 4.79695E-19 1.90606E-19
 -1      3634 9.62321E-05-2.97657E-05-2.85022E-05 2.57003E-06 9.62146E-19-3.25328E-19
 -1      3635 9.80265E-05-3.13737E-05-2.85469E-05 2.46847E-06 1.87490E-19 2.09811E-19
 -1      3636 9.88169E-05-3.21347E-05-2.85750E-05 2.39453E-06-8.77101E-20 2.28638E-19
 -1      3637 9.73917E-05-3.09577E-05-2.84956E-05 3.01442E-06 4.76709E-19 5.07597E-20
 -1      3638 9.98818E-05-3.30369E-05-2.86196E-05 2.39427E-06 1.60033E-19 5.78780E-19
 -1      3639 1.00908E-04-3.39645E-05-2.86942E-05 2.10898E-06 8.31235E-19 9.65189E-19
 -1      3640 9.91571E-05-3.26371E-05-2.85404E-05 3.29584E-06 4.98671E-19 5.58295E-19
 -1      3641 1.02350E-04-3.50379E-05-2.88098E-05 1.80952E-06 6.86709E-19 7.49661E-19
 -1      3642 1.03543E-04-3.59962E-05-2.89641E-05 1.19871E-06 4.50324E-19 2.97888E-19
 -1      3643 1.01645E-04-3.47903E-05-2.86917E-05 3.17854E-06 5.83729E-19 2.18864E-20
 -1      3644 1.05289E-04-3.70542E-05-2.91993E-05 4.15702E-07 8.85062E-19 1.66921E-19
 -1      3645 1.06473E-04-3.77653E-05-2.94716E-05-6.11339E-07 7.77147E-19 5.26294E-21
 -1      3646 1.04852E-04-3.71910E-05-2.90392E-05 2.28162E-06 6.03714E-19-9.10692E-19
 -1      3647 1.08285E-04-3.84874E-05-2.98806E-05-1.99597E-06 2.00204E-19 1.69278E-19
 -1      3648 1.09163E-04-3.85107E-05-3.03134E-05-3.45365E-06 4.39746E-20 2.96144E-19
 -1      3649 1.08444E-04-3.92167E-05-2.96937E-05 2.76282E-07 6.60252E-19 2.49575E-19
 -1      3650 1.10466E-04-3.81801E-05-3.09700E-05-5.41794E-06-4.89261E-19 5.98995E-19
 -1      3651 1.10622E-04-3.70272E-05-3.15784E-05-6.88348E-06-7.69847E-19 4.20049E-19
 -1      3652 1.11747E-04-3.98500E-05-3.07754E-05-3.18892E-06-5.13165E-19 1.33985E-18
 -1      3653 1.10979E-04-3.52909E-05-3.24691E-05-8.99181E-06-1.49886E-18 3.19229E-19
 -1      3654 1.10128E-04-3.25824E-05-3.32079E-05-9.89812E-06-1.25210E-18-1.40128E-19
 -1      3655 1.13545E-04-3.78838E-05-3.24442E-05-7.33084E-06-1.15681E-18 1.49887E-18
 -1      3656 1.05417E-04-2.18316E-05-3.59279E-05-9.05949E-06-1.20550E-19-9.37063E-19
 -1      3657 1.03883E-04-1.89703E-05-3.63521E-05-6.67432E-06 2.03122E-19-1.29341E-18
 -1      3658 1.05222E-04-1.53765E-05-3.85975E-05-4.13018E-06 5.51862E-20-1.08620E-18
 -1      3659 1.04562E-04-1.43273E-05-3.87960E-05-6.64563E-07-2.94827E-19-1.10444E-18
 -1      3660 1.05217E-04-1.62169E-05-3.82166E-05 5.33574E-06-5.22924E-19-1.98600E-18
 -1      3661 1.06716E-04-1.89560E-05-3.77934E-05 8.28386E-06-6.30757E-19-1.70596E-18
 -1      3662 1.08837E-04-2.51564E-05-3.58806E-05 1.01238E-05-6.14496E-20-1.96476E-18
 -1      3663 1.10540E-04-2.88583E-05-3.51012E-05 1.10698E-05-8.01816E-19-9.42296E-19
 -1      3664 1.11960E-04-3.23357E-05-3.41649E-05 1.04992E-05-9.87372E-19-1.13620E-18
 -1      3665 1.10759E-04-3.57751E-05-3.21426E-05 8.09574E-06-1.26952E-18 1.04673E-18
 -1      3666 1.11140E-04-3.75726E-05-3.15395E-05 6.80983E-06-1.68773E-19 6.70330E-19
 -1      3667 1.10099E-04-3.83505E-05-3.07889E-05 4.65180E-06-1.29729E-19 6.61472E-19
 -1      3668 1.09541E-04-3.87780E-05-3.02859E-05 3.17441E-06-7.89395E-20-8.23893E-19
 -1      3669 1.12893E-04-3.96684E-05-3.14098E-05 4.63895E-06-3.69396E-19 2.60694E-19
 -1      3670 1.07831E-04-3.84283E-05-2.97860E-05 1.41850E-06-2.09968E-19-1.53087E-18
 -1      3671 1.06739E-04-3.79096E-05-2.94571E-05 2.23465E-07 2.25678E-19-1.44509E-18
 -1      3672 1.10158E-04-4.00363E-05-3.01046E-05 7.71945E-07-8.22042E-19-1.74883E-19
 -1      3673 1.04961E-04-3.69580E-05-2.91640E-05-8.11896E-07 1.18410E-18-1.67467E-18
 -1      3674 1.03743E-04-3.60459E-05-2.89733E-05-1.59964E-06 1.34903E-18-1.66689E-18
 -1      3675 1.06542E-04-3.82765E-05-2.92943E-05-1.80132E-06 1.01733E-18-4.74248E-19
 -1      3676 1.02177E-04-3.49295E-05-2.88273E-05-2.10083E-06 1.39954E-18-1.08741E-18
 -1      3677 1.01058E-04-3.39375E-05-2.87359E-05-2.51154E-06 1.10339E-18-8.42084E-20
 -1      3678 1.03174E-04-3.59376E-05-2.88538E-05-3.16525E-06 1.67324E-18-8.41813E-19
 -1      3679 9.98541E-05-3.29273E-05-2.86826E-05-2.62770E-06 1.51148E-19-2.88176E-19
 -1      3680 9.89370E-05-3.20545E-05-2.86547E-05-2.76346E-06 2.45046E-20-8.18353E-20
 -1      3681 1.00391E-04-3.35656E-05-2.86620E-05-3.58403E-06 9.06675E-19-1.54296E-18
 -1      3682 9.55362E-05-2.87158E-05-2.86362E-05-7.07587E-07-6.74528E-20-3.16174E-19
 -1      3683 9.56208E-05-2.88043E-05-2.86364E-05-7.15185E-07-2.03069E-19-6.16804E-19
 -1      3684 9.60908E-05-2.63354E-05-2.99025E-05 5.13854E-07 9.22346E-19-1.84936E-18
 -1      3685 9.58648E-05-2.55734E-05-3.01240E-05 9.63088E-07 8.97366E-19-1.79694E-18
 -1      3686 9.57313E-05-2.88910E-05-2.86446E-05-7.31406E-07-9.69106E-20-7.93421E-19
 -1      3687 9.58110E-05-2.89570E-05-2.86519E-05-7.46776E-07 1.53645E-19-8.87655E-19
 -1      3688 9.57398E-05-2.88740E-05-2.86574E-05-6.34655E-07-1.93544E-19-5.46532E-19
 -1      3689 9.50711E-05-2.82205E-05-2.86502E-05-7.17484E-07 3.41792E-19 8.52159E-20
 -1      3690 9.51866E-05-2.83599E-05-2.86418E-05-7.00253E-07 6.78153E-19-1.68502E-20
 -1      3691 9.47597E-05-2.78788E-05-2.86643E-05-7.49832E-07 5.55320E-20 1.82495E-19
 -1      3692 9.49094E-05-2.80543E-05-2.86545E-05-7.20649E-07 3.46551E-19 2.57903E-19
 -1      3693 9.49710E-05-2.81185E-05-2.86490E-05-5.97727E-07 4.03185E-19-2.97394E-19
 -1      3694 9.43508E-05-2.74458E-05-2.86763E-05-7.87090E-07-2.65088E-19-1.89975E-19
 -1      3695 9.45558E-05-2.76708E-05-2.86678E-05-7.51651E-07-7.86909E-20 1.24555E-19
 -1      3696 9.46125E-05-2.77432E-05-2.86546E-05-5.91656E-07 1.16887E-19 1.77599E-20
 -1      3697 9.38261E-05-2.69211E-05-2.86790E-05-8.05876E-07-6.97394E-19-2.17977E-19
 -1      3698 9.40980E-05-2.71963E-05-2.86756E-05-7.75856E-07-4.59251E-19-3.45256E-19
 -1      3699 9.41652E-05-2.72900E-05-2.86548E-05-5.62701E-07-3.35302E-19 2.01486E-20
 -1      3700 9.30647E-05-2.62111E-05-2.86612E-05-7.66242E-07-3.16593E-19-1.36391E-19
 -1      3701 9.34736E-05-2.65877E-05-2.86691E-05-7.60287E-07-4.97546E-19-1.05650E-19
 -1      3702 9.35755E-05-2.67254E-05-2.86413E-05-4.75503E-07-6.18244E-19-4.38677E-19
 -1      3703 9.19946E-05-2.52914E-05-2.86032E-05-5.94029E-07-5.54765E-19-7.26832E-20
 -1      3704 9.25859E-05-2.57838E-05-2.86335E-05-6.50895E-07-2.10100E-19-1.92733E-20
 -1      3705 9.27640E-05-2.60009E-05-2.85999E-05-2.65094E-07-4.70420E-19-2.55399E-19
 -1      3706 9.04952E-05-2.41161E-05-2.84739E-05-1.72164E-07 1.19552E-19 3.79598E-20
 -1      3707 9.13469E-05-2.47510E-05-2.85447E-05-3.53445E-07-3.94563E-19-1.12569E-19
 -1      3708 9.16673E-05-2.51023E-05-2.85098E-05 1.65910E-07-3.69223E-19-6.11257E-19
 -1      3709 8.84158E-05-2.26547E-05-2.82232E-05 6.81972E-07 4.51928E-19 3.87616E-19
 -1      3710 8.96299E-05-2.34512E-05-2.83641E-05 2.78503E-07 7.08975E-19 3.23884E-19
 -1      3711 9.01966E-05-2.40166E-05-2.83382E-05 9.68727E-07 2.24981E-19-4.82655E-19
 -1      3712 8.55817E-05-2.09233E-05-2.77705E-05 2.24124E-06 4.32113E-19 3.31207E-19
 -1      3713 8.72861E-05-2.18772E-05-2.80304E-05 1.46735E-06 3.79649E-19 9.40959E-20
 -1      3714 8.82605E-05-2.27699E-05-2.80351E-05 2.36740E-06 4.99271E-19 7.50298E-20
 -1      3715 8.18049E-05-1.90340E-05-2.69871E-05 4.89973E-06 8.05940E-19 5.33973E-19
 -1      3716 8.41592E-05-2.00956E-05-2.74463E-05 3.53823E-06 7.03429E-19 5.72715E-19
 -1      3717 8.57893E-05-2.14693E-05-2.75249E-05 4.68144E-06 3.59422E-19 4.05121E-19
 -1      3718 7.70325E-05-1.73206E-05-2.56751E-05 9.23692E-06 9.53706E-19-5.34011E-19
 -1      3719 8.01191E-05-1.83231E-05-2.64589E-05 6.95050E-06 9.16898E-19 4.53329E-19
 -1      3720 8.27985E-05-2.03767E-05-2.66959E-05 8.34387E-06 1.44496E-18-2.73710E-19
 -1      3721 7.11614E-05-1.56822E-05-2.38011E-05 1.40639E-05 2.07622E-18-2.05143E-18
 -1      3722 7.49839E-05-1.65131E-05-2.50219E-05 1.08942E-05 1.38766E-18-1.40138E-18
 -1      3723 7.91452E-05-1.93217E-05-2.55318E-05 1.26602E-05 2.20709E-18-1.00332E-18
 -1      3724 7.43916E-05-1.82731E-05-2.39217E-05 1.72685E-05 1.93371E-18-2.07334E-18
 -1      3725 6.63838E-05-1.34144E-05-2.26763E-05-1.35386E-05 1.72686E-18 2.07958E-18
 -1      3726 9.39382E-05-2.11967E-05-3.11827E-05-1.26988E-06-2.25085E-19-2.54700E-18
 -1      3727 9.40757E-05-2.14952E-05-3.11238E-05-1.78477E-06-4.43933E-19-2.47433E-18
 -1      3728 9.48488E-05-2.29286E-05-3.08010E-05-1.61450E-06-5.81827E-19-2.17531E-18
 -1      3729 9.82153E-05-3.12887E-05-2.86743E-05-2.23785E-06 2.12237E-19 3.04690E-19
 -1      3730 9.65177E-05-2.82660E-05-2.92545E-05-4.75639E-07 4.19791E-19-1.60196E-18
 -1      3731 9.65034E-05-2.79352E-05-2.93814E-05-2.82551E-07 6.92061E-19-1.60703E-18
 -1      3732 1.18488E-04-4.11253E-05-3.30590E-05 6.26641E-06 2.71660E-19-1.75771E-18
 -1      3733 1.15341E-04-3.54772E-05-3.42569E-05 9.55069E-06-5.57586E-19-2.16611E-18
 -1      3734 9.62513E-05-2.90888E-05-2.87835E-05-8.16927E-07-9.45519E-22-1.33677E-18
 -1      3735 9.63208E-05-2.90500E-05-2.88286E-05-8.06350E-07 1.29290E-19-1.37207E-18
 -1      3736 7.14432E-05-1.54404E-05-2.40260E-05-1.22152E-05 9.43456E-19 2.25447E-18
 -1      3737 7.07305E-05-1.68325E-05-2.27739E-05-1.87500E-05 1.82911E-18 2.48755E-18
 -1      3738 9.64958E-05-2.87305E-05-2.90441E-05-6.92042E-07-8.65636E-20-1.43524E-18
 -1      3739 9.65274E-05-2.85323E-05-2.91370E-05-5.85125E-07 8.38223E-20-1.57475E-18
 -1      3740 9.66528E-05-2.83479E-05-2.92738E-05-4.30653E-07 2.75649E-19-1.32513E-18
 -1      3741 9.53217E-05-2.84946E-05-2.86395E-05-7.02192E-07 6.34247E-19 1.21724E-21
 -1      3742 9.54171E-05-2.86063E-05-2.86344E-05-6.98187E-07 3.10505E-19-3.72482E-19
 -1      3743 9.55132E-05-2.86735E-05-2.86456E-05-6.12598E-07 7.26059E-20-4.02517E-19
 -1      3744 9.52627E-05-2.84239E-05-2.86443E-05-6.01182E-07 4.06144E-19 8.08330E-20
 -1      3745 1.14292E-04-2.32948E-05-3.90436E-05 1.16228E-05-9.63024E-19-3.22060E-18
 -1      3746 9.38030E-05-2.09204E-05-3.12449E-05-2.21813E-07 1.71441E-19-2.55660E-18
 -1      3747 9.38513E-05-2.10154E-05-3.12270E-05-7.84165E-07-8.22682E-20-2.56955E-18
 -1      3748 9.45250E-05-2.21876E-05-3.09839E-05 4.62569E-09 2.22645E-19-2.27557E-18
 -1      3749 9.54683E-05-2.51454E-05-3.01335E-05 1.97616E-06 1.17197E-18-1.35733E-18
 -1      3750 9.59111E-05-2.90163E-05-2.86679E-05-7.65876E-07 3.10883E-19-1.07890E-18
 -1      3751 9.59845E-05-2.90553E-05-2.86836E-05-7.81563E-07 5.10409E-20-9.97529E-19
 -1      3752 9.59477E-05-2.90220E-05-2.86837E-05-6.63330E-07-5.23051E-20-8.92029E-19
 -1      3753 9.52904E-05-2.40579E-05-3.05414E-05 1.36308E-06 9.55310E-19-1.92745E-18
 -1      3754 9.51921E-05-2.37391E-05-3.06269E-05 1.07470E-06 7.28894E-19-1.96268E-18
 -1      3755 1.12618E-04-2.45843E-05-3.79218E-05-1.16307E-05-1.16892E-18 1.89128E-18
 -1      3756 1.16173E-04-3.01864E-05-3.68410E-05-1.18349E-05-1.10850E-18 1.63132E-18
 -1      3757 9.64067E-05-2.75055E-05-2.95357E-05-8.90289E-08 7.38699E-19-1.69248E-18
 -1      3758 9.63183E-05-2.69954E-05-2.97042E-05 2.21103E-07 8.18393E-19-1.68933E-18
 -1      3759 9.62356E-05-2.64571E-05-2.99050E-05 3.72129E-07 7.68619E-19-1.74864E-18
 -1      3760 9.65471E-05-2.75936E-05-2.95499E-05-1.18315E-07 6.62693E-19-1.37548E-18
 -1      3761 9.60846E-05-2.90886E-05-2.87116E-05-7.99637E-07-1.09486E-19-1.20996E-18
 -1      3762 9.61596E-05-2.90964E-05-2.87404E-05-8.09046E-07-4.13036E-20-1.19241E-18
 -1      3763 9.61460E-05-2.91135E-05-2.87297E-05-6.91735E-07-9.16926E-20-1.35706E-18
 -1      3764 9.63955E-05-2.89841E-05-2.88911E-05-7.92050E-07 2.51644E-19-1.39539E-18
 -1      3765 9.64524E-05-2.88794E-05-2.89571E-05-7.44417E-07 1.23189E-19-1.44006E-18
 -1      3766 9.65011E-05-2.90424E-05-2.89124E-05-6.87396E-07 1.89353E-19-1.59133E-18
 -1      3767 9.18460E-05-3.33254E-05-2.47558E-05-2.58078E-05 1.46960E-18-1.74243E-18
 -1      3768 1.00088E-04-3.96693E-05-2.62173E-05-2.38654E-05 1.36259E-18-1.98661E-18
 -1      3769 1.09596E-04-4.43769E-05-2.76389E-05-1.89967E-05 1.02847E-18-2.73322E-18
 -1      3770 1.15892E-04-4.75569E-05-2.95718E-05-1.17546E-05 9.42265E-19-2.23960E-18
 -1      3771 7.92236E-05-2.45424E-05-2.36015E-05-2.36648E-05 1.86964E-18 1.28349E-18
 -1      3772 9.54882E-05-2.49496E-05-3.02448E-05 1.77276E-06 1.10095E-18-1.66137E-18
 -1      3773 9.53623E-05-2.43618E-05-3.04283E-05 1.59552E-06 1.02196E-18-1.80774E-18
 -1      3774 9.42372E-05-3.61770E-05-2.48069E-05 2.73998E-05 1.87319E-18 4.75490E-19
 -1      3775 8.75367E-05-3.08944E-05-2.42903E-05 2.60673E-05 1.94933E-18 1.00536E-18
 -1      3776 9.96307E-05-3.83595E-05-2.61840E-05 2.29992E-05 2.03567E-18-6.95598E-19
 -1      3777 9.10391E-05-2.54485E-05-2.81054E-05-5.41917E-06-2.67645E-19-4.97533E-19
 -1      3778 9.55100E-05-2.46508E-05-3.03797E-05-1.23162E-06-7.43230E-19-1.73570E-18
 -1      3779 1.12927E-04-3.19248E-05-3.47062E-05-1.07609E-05-1.35646E-18 6.92258E-19
 -1      3780 1.09160E-04-2.89472E-05-3.44789E-05-1.09076E-05-1.11292E-18-4.55099E-19
 -1      3781 1.07581E-04-2.52694E-05-3.52432E-05-1.04206E-05-5.52312E-19-7.08639E-19
 -1      3782 9.56363E-05-2.46031E-05-3.04293E-05 6.98268E-07 4.87413E-19-1.77416E-18
 -1      3783 9.51244E-05-2.35390E-05-3.06905E-05 8.31308E-07 5.53531E-19-1.94451E-18
 -1      3784 9.50653E-05-2.33733E-05-3.07322E-05 4.77598E-07 3.82803E-19-2.00281E-18
 -1      3785 9.45959E-05-2.23554E-05-3.09404E-05-8.57711E-07-6.94806E-20-2.39478E-18
 -1      3786 9.38223E-05-2.75285E-05-2.84092E-05-4.80182E-06-1.01761E-18-1.42021E-18
 -1      3787 9.66184E-05-2.88015E-05-2.90655E-05-6.06840E-07 9.86793E-20-1.54176E-18
 -1      3788 1.17108E-04-3.51241E-05-3.52689E-05-1.02598E-05-1.25401E-18 1.57432E-18
 -1      3789 1.17476E-04-3.83650E-05-3.38302E-05-8.27280E-06-1.16117E-18 1.62128E-18
 -1      3790 7.58166E-05-2.21840E-05-2.28621E-05 2.39832E-05 2.32512E-18-3.20298E-19
 -1      3791 8.58243E-05-2.18960E-05-2.74252E-05-5.83991E-06-6.53448E-19 2.02906E-18
 -1      3792 8.38754E-05-2.11294E-05-2.69811E-05-7.42640E-06-7.45022E-19 1.38423E-18
 -1      3793 8.84742E-05-2.41680E-05-2.75116E-05-7.85190E-06-5.55106E-19 1.70224E-18
 -1      3794 9.85149E-05-3.16940E-05-2.86447E-05-3.00981E-06-4.70483E-19-7.20734E-19
 -1      3795 9.76066E-05-3.07226E-05-2.86601E-05-2.71205E-06-1.70368E-19-2.16000E-18
 -1      3796 1.20321E-04-4.32890E-05-3.30288E-05-3.75644E-06-6.42529E-19 1.02952E-18
 -1      3797 1.23037E-04-4.68315E-05-3.26933E-05-5.02230E-09 1.98291E-19-6.34917E-19
 -1      3798 1.19750E-04-4.68176E-05-3.12800E-05 3.83372E-06 6.26210E-19-5.46955E-19
 -1      3799 9.57063E-05-2.50912E-05-3.02542E-05 1.08500E-06 9.01796E-19-1.82993E-18
 -1      3800 1.16751E-04-4.74435E-05-2.96982E-05 1.10315E-05 1.60891E-18-1.71323E-18
 -1      3801 1.14490E-04-4.74188E-05-2.86485E-05 1.63675E-05 2.02558E-18-1.74891E-18
 -1      3802 1.08679E-04-4.40815E-05-2.77847E-05 1.84037E-05 2.20054E-18-2.17229E-18
 -1      3803 7.48103E-05-1.67564E-05-2.49611E-05-1.09609E-05-1.38546E-19 1.27913E-18
 -1      3804 9.77889E-05-3.10106E-05-2.86161E-05-3.46078E-06-1.43842E-18-3.49994E-18
 -1      3805 9.73344E-05-3.06532E-05-2.85719E-05-4.07904E-06-8.40758E-19-2.50128E-18
 -1      3806 9.63362E-05-2.91316E-05-2.88036E-05-7.06625E-07-1.78437E-19-1.55214E-18
 -1      3807 1.03990E-04-4.01139E-05-2.73227E-05-1.82804E-05 7.73440E-19-1.80624E-18
 -1      3808 1.19795E-04-4.44825E-05-3.23987E-05 1.64587E-06 8.91957E-20-2.34268E-18
 -1      3809 1.15680E-04-4.19966E-05-3.16402E-05 2.78153E-06-4.16092E-19-1.25839E-18
 -1      3810 1.14699E-04-4.24277E-05-3.08419E-05 7.67714E-07-8.38387E-19-9.73610E-19
 -1      3811 1.19834E-04-4.71316E-05-3.08904E-05-4.81175E-06-2.38903E-19-2.80271E-18
 -1      3812 1.08556E-04-1.53305E-05-4.01037E-05-6.85707E-06-2.16060E-19-1.12692E-18
 -1      3813 9.75568E-05-3.11094E-05-2.84939E-05-4.85893E-06-7.44471E-19-2.22943E-18
 -1      3814 9.66581E-05-3.01181E-05-2.84933E-05-4.83466E-06-5.55492E-19-2.10108E-18
 -1      3815 9.57666E-05-2.94405E-05-2.84327E-05-5.25381E-06-9.82079E-19-2.23765E-18
 -1      3816 1.10381E-04-2.00483E-05-3.87340E-05-1.06218E-05-2.70362E-19 4.67867E-19
 -1      3817 1.09635E-04-2.35792E-05-3.69290E-05-1.05686E-05-9.13472E-20 3.71063E-19
 -1      3818 8.50047E-05-2.66947E-05-2.49587E-05-2.04660E-05 1.05718E-18 5.73329E-19
 -1      3819 1.14694E-04-4.51977E-05-2.98144E-05-7.68486E-06-2.48692E-19-1.23273E-18
 -1      3820 9.80594E-05-3.12785E-05-2.86260E-05-3.22518E-06-7.36595E-19-1.94209E-18
 -1      3821 9.65927E-05-2.73737E-05-2.96640E-05 3.64499E-10-4.34861E-19-1.06092E-18
 -1      3822 9.66863E-05-2.78397E-05-2.95087E-05 1.97802E-07-4.36598E-19-8.90289E-19
 -1      3823 9.67533E-05-2.82255E-05-2.93671E-05 2.91545E-07-2.06946E-19-7.22447E-19
 -1      3824 9.67607E-05-2.85199E-05-2.92481E-05 4.11409E-07 4.23152E-20-3.94704E-19
 -1      3825 9.67848E-05-2.79634E-05-2.94946E-05 1.73384E-07-1.59967E-19-6.11414E-19
 -1      3826 9.67489E-05-2.87524E-05-2.91394E-05 4.62041E-07 3.78975E-20-4.51819E-19
 -1      3827 9.67029E-05-2.89211E-05-2.90503E-05 5.25084E-07 1.08357E-19-4.33157E-19
 -1      3828 9.68389E-05-2.86089E-05-2.92418E-05 3.29264E-07 7.34870E-21-7.82890E-19
 -1      3829 9.66390E-05-2.90411E-05-2.89689E-05 5.45181E-07-4.15679E-20-5.04849E-19
 -1      3830 9.65629E-05-2.91198E-05-2.89042E-05 5.71309E-07-1.89468E-19-6.54173E-19
 -1      3831 9.67616E-05-2.89823E-05-2.90494E-05 4.10976E-07-6.90151E-20-6.69676E-19
 -1      3832 9.64689E-05-2.91617E-05-2.88448E-05 5.72183E-07-1.94648E-19-6.93328E-19
 -1      3833 9.63772E-05-2.91775E-05-2.87992E-05 5.76259E-07-2.66054E-19-7.50005E-19
 -1      3834 9.66041E-05-2.91587E-05-2.89067E-05 4.44008E-07-2.59978E-19-6.15663E-19
 -1      3835 9.62674E-05-2.91655E-05-2.87573E-05 5.67617E-07-3.50487E-19-4.68550E-19
 -1      3836 9.61694E-05-2.91384E-05-2.87265E-05 5.61286E-07-5.58897E-19-4.91155E-19
 -1      3837 9.64015E-05-2.91964E-05-2.88039E-05 4.47788E-07-2.68705E-19-6.37584E-19
 -1      3838 9.60527E-05-2.90901E-05-2.86981E-05 5.50950E-07-6.60708E-19-1.36673E-19
 -1      3839 9.59537E-05-2.90348E-05-2.86783E-05 5.43251E-07-3.21341E-19 6.16935E-20
 -1      3840 9.61767E-05-2.91385E-05-2.87322E-05 4.39022E-07-4.37159E-19-9.82155E-20
 -1      3841 9.58352E-05-2.89629E-05-2.86598E-05 5.37670E-07-4.75060E-19-3.07014E-19
 -1      3842 9.57386E-05-2.88899E-05-2.86479E-05 5.35794E-07-6.08238E-19-5.70106E-19
 -1      3843 9.59432E-05-2.90164E-05-2.86842E-05 4.31435E-07-7.40967E-19 3.53412E-19
 -1      3844 9.56208E-05-2.88038E-05-2.86365E-05 5.40488E-07-6.61094E-19-9.77034E-19
 -1      3845 9.55286E-05-2.87215E-05-2.86299E-05 5.50548E-07-9.10234E-19-1.14975E-18
 -1      3846 9.57087E-05-2.88531E-05-2.86534E-05 4.36903E-07-8.38567E-19-6.22049E-19
 -1      3847 9.54131E-05-2.86290E-05-2.86228E-05 5.71685E-07-7.30482E-19-1.27865E-18
 -1      3848 9.53281E-05-2.85454E-05-2.86191E-05 5.99210E-07-5.67384E-19-9.70503E-19
 -1      3849 9.54766E-05-2.86653E-05-2.86341E-05 4.67014E-07-8.04195E-19-1.28581E-18
 -1      3850 9.52166E-05-2.84540E-05-2.86140E-05 6.42969E-07-5.21624E-19-1.10249E-18
 -1      3851 9.51431E-05-2.83778E-05-2.86112E-05 6.93791E-07-4.24015E-19-1.12947E-18
 -1      3852 9.52505E-05-2.84690E-05-2.86212E-05 5.34302E-07-4.59526E-19-1.23211E-18
 -1      3853 9.50396E-05-2.82970E-05-2.86057E-05 7.68279E-07 7.91816E-20-6.75204E-19
 -1      3854 9.49855E-05-2.82401E-05-2.86019E-05 8.48598E-07 4.05405E-19-2.02038E-19
 -1      3855 9.50353E-05-2.82800E-05-2.86100E-05 6.54088E-07 2.41685E-19-7.61218E-19
 -1      3856 9.48981E-05-2.81833E-05-2.85941E-05 9.63606E-07 2.85622E-19-8.06211E-20
 -1      3857 9.48774E-05-2.81628E-05-2.85875E-05 1.08001E-06-5.31280E-21 3.70075E-19
 -1      3858 9.48426E-05-2.81208E-05-2.85961E-05 8.45484E-07 5.45313E-19-5.49096E-19
 -1      3859 9.48212E-05-2.81494E-05-2.85755E-05 1.24713E-06-3.53999E-19 7.67805E-19
 -1      3860 9.48561E-05-2.81899E-05-2.85651E-05 1.40585E-06 1.23664E-19 6.97391E-19
 -1      3861 9.46945E-05-2.80239E-05-2.85752E-05 1.13215E-06 1.17762E-19 2.78167E-20
 -1      3862 9.48569E-05-2.82486E-05-2.85475E-05 1.63758E-06 4.48528E-19 6.99896E-19
 -1      3863 9.49812E-05-2.83843E-05-2.85332E-05 1.84236E-06 7.77577E-19 7.68802E-19
 -1      3864 9.46306E-05-2.80377E-05-2.85439E-05 1.54192E-06 4.56310E-19 8.55181E-19
 -1      3865 9.50801E-05-2.85550E-05-2.85100E-05 2.14896E-06 6.08805E-19 7.42831E-19
 -1      3866 9.53413E-05-2.88311E-05-2.84937E-05 2.39686E-06 4.62768E-19 1.74160E-19
 -1      3867 9.47159E-05-2.82327E-05-2.85004E-05 2.10337E-06 4.82698E-19-3.76819E-20
 -1      3868 9.56002E-05-2.91662E-05-2.84673E-05 2.78006E-06 5.86626E-19-3.64909E-20
 -1      3869 9.60609E-05-2.96376E-05-2.84543E-05 3.05387E-06 6.74545E-19-2.04627E-19
 -1      3870 9.50514E-05-2.87074E-05-2.84462E-05 2.83725E-06 3.12633E-19-2.41595E-19
 -1      3871 9.65667E-05-3.02002E-05-2.84318E-05 3.49462E-06 5.22781E-19-8.41578E-19
 -1      3872 9.72999E-05-3.09236E-05-2.84334E-05 3.75102E-06 2.51021E-19-5.46621E-19
 -1      3873 9.57839E-05-2.95904E-05-2.83898E-05 3.73879E-06 4.66217E-19-7.96775E-19
 -1      3874 9.81649E-05-3.17773E-05-2.84305E-05 4.18888E-06 7.22224E-20-5.26189E-19
 -1      3875 9.92400E-05-3.27907E-05-2.84672E-05 4.34296E-06 3.36242E-19-6.48986E-19
 -1      3876 9.71131E-05-3.10322E-05-2.83527E-05 4.74502E-06 2.50660E-19-1.70675E-18
 -1      3877 1.00582E-04-3.39675E-05-2.85127E-05 4.65194E-06 2.56858E-19-8.93275E-19
 -1      3878 1.02058E-04-3.52638E-05-2.86200E-05 4.56253E-06 3.49591E-19-1.17982E-18
 -1      3879 9.92767E-05-3.31673E-05-2.83787E-05 5.68119E-06 2.71865E-19-1.66847E-18
 -1      3880 1.03961E-04-3.67212E-05-2.87659E-05 4.55058E-06 1.19326E-18-1.38021E-18
 -1      3881 1.05783E-04-3.81313E-05-2.90003E-05 4.04350E-06 1.68456E-18-7.99379E-19
 -1      3882 1.02416E-04-3.60077E-05-2.85473E-05 6.18736E-06 9.81690E-19-1.92142E-18
 -1      3883 1.08361E-04-3.97121E-05-2.93292E-05 3.17542E-06 1.68115E-18 3.41460E-20
 -1      3884 1.10067E-04-4.08114E-05-2.97107E-05 2.04938E-06 1.14751E-18 4.56789E-19
 -1      3885 1.07157E-04-3.96604E-05-2.90348E-05 5.72250E-06 2.02730E-18-1.06107E-18
 -1      3886 1.14479E-04-4.24029E-05-3.08702E-05-6.19986E-07-2.18210E-19 8.02041E-19
 -1      3887 1.16044E-04-4.21123E-05-3.17009E-05-2.96388E-06-7.40247E-19 1.50226E-18
 -1      3888 1.16869E-04-4.05713E-05-3.27265E-05-5.40966E-06-7.44293E-19 1.44457E-18
 -1      3889 9.87793E-05-3.20149E-05-2.85994E-05-3.77556E-06-9.00265E-19-1.75989E-18
 -1      3890 1.07895E-04-3.95311E-05-2.92954E-05-3.50106E-06 2.76531E-20-1.21226E-18
 -1      3891 1.05962E-04-3.82067E-05-2.89887E-05-4.39470E-06 1.40311E-18-1.48787E-18
 -1      3892 1.03800E-04-3.66111E-05-2.87905E-05-4.65033E-06 2.16524E-18-2.27182E-18
 -1      3893 1.02135E-04-3.52277E-05-2.86503E-05-4.93121E-06 1.42403E-18-2.05829E-18
 -1      3894 1.04500E-04-3.76011E-05-2.87287E-05-6.49611E-06 1.00873E-18-2.67173E-18
 -1      3895 9.44933E-05-2.76617E-05-2.86451E-05-4.04929E-07-1.86806E-19-8.49982E-20
 -1      3896 9.46970E-05-2.78631E-05-2.86441E-05-4.19354E-07 2.42108E-19-2.65555E-19
 -1      3897 9.48854E-05-2.80481E-05-2.86460E-05-4.49644E-07 2.82813E-19-5.63711E-19
 -1      3898 9.50472E-05-2.82136E-05-2.86439E-05-4.54730E-07 2.60838E-19-6.79817E-19
 -1      3899 9.47914E-05-2.79630E-05-2.86384E-05-2.73852E-07-6.34644E-20-6.30345E-20
 -1      3900 9.33953E-05-2.66577E-05-2.86108E-05-1.29253E-07-6.23305E-19-4.64141E-19
 -1      3901 9.37464E-05-2.69570E-05-2.86245E-05-2.15466E-07-5.07147E-19-4.55320E-19
 -1      3902 9.25708E-05-2.59802E-05-2.85529E-05 2.29467E-07-6.21216E-19-7.76659E-19
 -1      3903 9.30454E-05-2.63454E-05-2.85849E-05 5.31538E-08-8.10151E-19-8.65105E-19
 -1      3904 9.32904E-05-2.66072E-05-2.85712E-05 3.13260E-07-6.94802E-19-9.67522E-19
 -1      3905 9.14968E-05-2.51818E-05-2.84419E-05 8.73553E-07-3.60731E-19-1.05449E-18
 -1      3906 9.21365E-05-2.56176E-05-2.85048E-05 5.44230E-07-3.93220E-19-9.84585E-19
 -1      3907 9.25220E-05-2.60097E-05-2.84958E-05 8.57789E-07-3.05673E-19-1.88355E-18
 -1      3908 9.01207E-05-2.42849E-05-2.82460E-05 1.97086E-06-7.73248E-21-6.73596E-19
 -1      3909 9.09712E-05-2.47820E-05-2.83591E-05 1.39462E-06-1.11186E-19-8.25880E-19
 -1      3910 9.15818E-05-2.53708E-05-2.83647E-05 1.75926E-06-3.26297E-19-1.65023E-18
 -1      3911 8.84133E-05-2.33683E-05-2.79193E-05 3.75816E-06-2.36118E-19 3.06890E-19
 -1      3912 8.95162E-05-2.38881E-05-2.81113E-05 2.80024E-06 1.29195E-19-5.67389E-20
 -1      3913 9.04744E-05-2.47620E-05-2.81502E-05 3.19704E-06-3.31684E-19-6.90803E-19
 -1      3914 8.64088E-05-2.26162E-05-2.73965E-05 6.55253E-06 9.79783E-19-3.68435E-19
 -1      3915 8.77828E-05-2.30643E-05-2.77095E-05 5.02884E-06 1.66288E-19-1.71697E-19
 -1      3916 8.92616E-05-2.43356E-05-2.78150E-05 5.40777E-06 4.47035E-19-2.94697E-19
 -1      3917 8.42403E-05-2.23706E-05-2.65874E-05 1.07392E-05 1.80705E-18-3.89302E-19
 -1      3918 8.58785E-05-2.25843E-05-2.70830E-05 8.42761E-06 1.58684E-18-7.14413E-20
 -1      3919 8.81160E-05-2.43762E-05-2.73141E-05 8.67920E-06 9.63389E-19-7.79682E-19
 -1      3920 8.15438E-05-2.25312E-05-2.51790E-05-1.69086E-05 4.11777E-19 3.71722E-19
 -1      3921 9.08980E-05-3.03681E-05-2.59978E-05-1.93008E-05 6.93285E-19-2.65287E-19
 -1      3922 8.24968E-05-2.63736E-05-2.39193E-05 2.44739E-05 1.74494E-18 1.76502E-18
 -1      3923 7.72822E-05-2.17434E-05-2.38539E-05 2.06819E-05 1.76795E-18-2.95045E-19
 -1      3924 8.88274E-05-2.99274E-05-2.51699E-05 2.24676E-05 1.99784E-18 1.25025E-18
 -1      3925 9.40197E-05-2.72135E-05-2.86366E-05-3.14701E-07-4.70329E-19-1.26312E-19
 -1      3926 9.42711E-05-2.74466E-05-2.86401E-05-3.50541E-07-2.28746E-19 1.25677E-19
 -1      3927 9.43878E-05-2.75762E-05-2.86299E-05-1.75641E-07-4.25031E-19 3.18505E-19
 -1      3928 9.39010E-05-2.71292E-05-2.86110E-05-8.35827E-10-3.11820E-19-1.47047E-19
 -1      3929 9.57387E-05-2.88551E-05-2.86637E-05-5.14772E-07-5.05099E-19-8.03982E-19
 -1      3930 9.58494E-05-2.89439E-05-2.86738E-05-5.25468E-07-5.27565E-19-8.75954E-19
 -1      3931 9.61884E-05-2.91342E-05-2.87367E-05-5.65841E-07-2.68078E-19-1.24601E-18
 -1      3932 9.62888E-05-2.91635E-05-2.87672E-05-5.72915E-07-2.91292E-19-1.40790E-18
 -1      3933 9.54304E-05-2.43299E-05-3.04736E-05-9.93383E-07-4.62177E-19-1.86276E-18
 -1      3934 7.84210E-05-1.79687E-05-2.59818E-05-8.60889E-06-6.88608E-19 1.47724E-18
 -1      3935 7.90120E-05-1.97298E-05-2.53283E-05-1.36268E-05 1.21124E-19 1.47723E-18
 -1      3936 8.46788E-05-2.34101E-05-2.61854E-05-1.33255E-05-3.61048E-20 1.13623E-18
 -1      3937 8.09942E-05-1.93359E-05-2.65400E-05-7.76710E-06 3.10888E-20 9.42231E-19
 -1      3938 9.92901E-05-3.26198E-05-2.85687E-05-4.35739E-06-2.46571E-19-2.50483E-18
 -1      3939 9.87593E-05-3.21557E-05-2.85456E-05-4.59371E-06-4.19323E-19-2.89919E-18
 -1      3940 9.80653E-05-3.16159E-05-2.84598E-05-5.41065E-06-5.35541E-19-2.80021E-18
 -1      3941 1.00531E-04-3.37379E-05-2.86108E-05-4.39167E-06 3.69329E-19-1.99546E-18
 -1      3942 9.63987E-05-2.91755E-05-2.88094E-05-5.82709E-07-2.36864E-19-1.32735E-18
 -1      3943 9.64902E-05-2.91578E-05-2.88555E-05-5.77460E-07 1.41486E-20-1.20763E-18
 -1      3944 9.64222E-05-2.91940E-05-2.88136E-05-4.53172E-07-1.26101E-19-1.20863E-18
 -1      3945 9.28537E-05-2.71604E-05-2.81871E-05-5.98335E-06-5.04664E-19-1.32314E-18
 -1      3946 9.12808E-05-2.60149E-05-2.79246E-05-6.76516E-06 2.56719E-19-6.54211E-19
 -1      3947 9.67646E-05-2.84834E-05-2.92659E-05-4.01855E-07 2.62905E-19-1.17203E-18
 -1      3948 9.67542E-05-2.81783E-05-2.93873E-05-2.78047E-07 4.33466E-19-1.20556E-18
 -1      3949 9.50416E-05-2.33055E-05-3.07531E-05 1.91963E-07 3.21375E-19-2.21356E-18
 -1      3950 9.50395E-05-2.33065E-05-3.07532E-05-1.86421E-07 1.80635E-19-2.24774E-18
 -1      3951 9.55776E-05-2.43415E-05-3.05132E-05 2.47985E-07 3.33611E-19-1.94890E-18
 -1      3952 9.61918E-05-2.61000E-05-3.00443E-05-4.47718E-07-4.33008E-19-1.49068E-18
 -1      3953 9.64076E-05-2.67820E-05-2.98441E-05-1.48957E-07-3.77201E-19-1.31139E-18
 -1      3954 9.65297E-05-2.69518E-05-2.98185E-05-8.02736E-08-2.35261E-19-1.38259E-18
 -1      3955 9.41309E-05-2.81527E-05-2.82591E-05-5.97343E-06-1.01349E-18-2.15212E-18
 -1      3956 9.59719E-05-2.90236E-05-2.86912E-05-5.40808E-07-3.85692E-19-8.43391E-19
 -1      3957 9.60719E-05-2.90830E-05-2.87092E-05-5.51449E-07-2.44849E-19-1.13424E-18
 -1      3958 9.61973E-05-2.91351E-05-2.87423E-05-4.39255E-07-4.84130E-19-9.82721E-19
 -1      3959 9.59604E-05-2.90053E-05-2.86961E-05-4.17399E-07-5.07581E-19-8.00270E-19
 -1      3960 9.67163E-05-2.89018E-05-2.90646E-05-5.24669E-07 1.09405E-19-1.51699E-18
 -1      3961 9.67591E-05-2.87248E-05-2.91553E-05-4.57674E-07 1.15069E-19-1.39168E-18
 -1      3962 9.68425E-05-2.85712E-05-2.92592E-05-3.25191E-07 3.05749E-19-1.13278E-18
 -1      3963 1.13894E-04-4.38478E-05-3.01819E-05-3.89943E-06-8.55439E-19-7.46838E-19
 -1      3964 1.11757E-04-4.16717E-05-3.00782E-05-1.65377E-06-1.11482E-18-4.58321E-19
 -1      3965 1.09922E-04-4.07123E-05-2.95712E-05-3.07895E-06-5.09891E-19-7.54895E-19
 -1      3966 1.11697E-04-4.33301E-05-2.90814E-05-9.49493E-06-6.22721E-19-1.05343E-18
 -1      3967 9.65823E-05-2.91124E-05-2.89158E-05-5.75785E-07 6.58617E-22-1.24624E-18
 -1      3968 9.66564E-05-2.90286E-05-2.89816E-05-5.47019E-07 1.46300E-19-1.46116E-18
 -1      3969 9.66234E-05-2.91516E-05-2.89180E-05-4.49668E-07-4.14299E-20-8.22129E-19
 -1      3970 9.94126E-05-3.62267E-05-2.69712E-05-1.78671E-05 4.73161E-19-9.32794E-19
 -1      3971 1.06216E-04-4.11384E-05-2.81073E-05-1.44069E-05-1.47331E-19-2.07686E-18
 -1      3972 9.51714E-05-2.36361E-05-3.06725E-05-8.50470E-07-2.42581E-19-2.20879E-18
 -1      3973 9.58681E-05-2.51973E-05-3.02770E-05-5.67420E-07-4.39148E-19-1.76221E-18
 -1      3974 9.59932E-05-2.54445E-05-3.02321E-05-3.71127E-07-1.57548E-19-1.81981E-18
 -1      3975 9.51003E-05-2.34371E-05-3.07186E-05-4.52320E-07 1.12519E-20-2.25205E-18
 -1      3976 1.14107E-04-4.32644E-05-3.03857E-05 2.82628E-06 7.69862E-19-4.58615E-19
 -1      3977 9.56074E-05-2.44052E-05-3.04994E-05-2.22115E-07 1.23432E-19-2.15837E-18
 -1      3978 1.08940E-04-4.10861E-05-2.91974E-05-6.06396E-06-4.54141E-19-3.10577E-19
 -1      3979 1.03407E-04-4.00718E-05-2.70667E-05 1.96478E-05 1.82909E-18-1.78679E-18
 -1      3980 9.79264E-05-3.61727E-05-2.64948E-05 2.02504E-05 1.23487E-18-6.54388E-19
 -1      3981 9.50784E-05-2.92843E-05-2.82189E-05-6.58859E-06-2.29500E-19-2.22913E-18
 -1      3982 1.00776E-04-3.42841E-05-2.85265E-05-5.85151E-06 5.23359E-19-3.17522E-18
 -1      3983 9.56061E-05-2.87484E-05-2.86537E-05-4.99991E-07-6.17598E-20-5.85644E-19
 -1      3984 9.57079E-05-2.88182E-05-2.86675E-05-3.92709E-07-2.49621E-19-1.24053E-18
 -1      3985 9.54868E-05-2.86360E-05-2.86500E-05-4.92570E-07 4.86771E-19-7.16198E-19
 -1      3986 1.07174E-04-4.03693E-05-2.85960E-05-1.03954E-05-8.40771E-19-7.29821E-20
 -1      3987 9.66791E-05-2.77818E-05-2.95317E-05-1.79664E-07 5.41002E-19-1.22672E-18
 -1      3988 9.65858E-05-2.72941E-05-2.96888E-05 1.97171E-08 5.95896E-19-1.33652E-18
 -1      3989 9.67757E-05-2.79033E-05-2.95162E-05-1.58679E-07 4.25293E-19-1.01803E-18
 -1      3990 9.58301E-05-2.52803E-05-3.02381E-05 8.05474E-07 7.59556E-19-1.82569E-18
 -1      3991 9.51353E-05-2.82973E-05-2.86437E-05-3.29865E-07 3.67428E-19-7.52797E-19
 -1      3992 9.52081E-05-2.83688E-05-2.86458E-05-4.73262E-07 4.34037E-19-5.83604E-19
 -1      3993 9.53434E-05-2.85059E-05-2.86454E-05-4.77645E-07 6.81921E-19-6.01344E-19
 -1      3994 9.08079E-05-2.85501E-05-2.67577E-05-1.47333E-05-4.39219E-19-3.69002E-19
 -1      3995 9.53402E-05-3.28041E-05-2.67731E-05-1.71800E-05 7.41220E-20-1.78592E-19
 -1      3996 9.83319E-05-3.39691E-05-2.75277E-05-1.35283E-05-6.83023E-19-4.67420E-19
 -1      3997 8.40487E-05-2.30029E-05-2.61306E-05 1.35166E-05 2.07656E-18 3.30076E-19
 -1      3998 8.75197E-05-2.54427E-05-2.66009E-05 1.33251E-05 1.49656E-18-1.03215E-19
 -1      3999 8.20602E-05-2.26712E-05-2.55180E-05 1.56997E-05 2.22362E-18-3.57474E-20
 -1      4000 7.99570E-05-2.20420E-05-2.48166E-05 1.79526E-05 1.94038E-18-1.99887E-19
 -1      4001 9.05522E-05-2.61423E-05-2.76348E-05-8.56522E-06 5.39313E-20 3.75817E-20
 -1      4002 9.67757E-05-2.89638E-05-2.90633E-05-4.13716E-07 8.48541E-20-1.25327E-18
 -1      4003 8.50264E-05-2.24843E-05-2.67338E-05-1.02341E-05-6.21836E-19 2.02796E-18
 -1      4004 9.60871E-05-2.58265E-05-3.01011E-05 5.42659E-07 6.08010E-19-1.71009E-18
 -1      4005 9.59121E-05-2.53971E-05-3.02253E-05 6.34306E-07 5.15558E-19-1.77909E-18
 -1      4006 9.58880E-05-2.52222E-05-3.02907E-05 4.64400E-07 3.78499E-19-1.64284E-18
 -1      4007 9.63162E-05-2.65785E-05-2.98972E-05 2.42790E-07 5.77274E-19-1.51794E-18
 -1      4008 1.07150E-04-4.19285E-05-2.79887E-05 1.57919E-05 1.78213E-18-2.28369E-18
 -1      4009 9.47157E-05-2.79163E-05-2.86311E-05-9.17893E-08-5.14274E-19 7.05148E-19
 -1      4010 9.49039E-05-2.80888E-05-2.86346E-05-1.31294E-07 2.39571E-20 4.48315E-19
 -1      4011 9.69084E-05-2.84868E-05-2.93234E-05 1.93023E-07-9.34833E-20-7.00428E-19
 -1      4012 9.69003E-05-2.87392E-05-2.92118E-05 2.56892E-07 2.59980E-20-7.90990E-19
 -1      4013 9.68609E-05-2.89303E-05-2.91125E-05 2.64693E-07-4.57095E-20-6.70951E-19
 -1      4014 9.68003E-05-2.90644E-05-2.90290E-05 3.00989E-07-8.63333E-20-7.45139E-19
 -1      4015 9.69185E-05-2.88241E-05-2.91857E-05 1.39433E-07 9.40122E-20-1.01069E-18
 -1      4016 9.67162E-05-2.91535E-05-2.89548E-05 2.98623E-07-2.96470E-19-8.36486E-19
 -1      4017 9.66245E-05-2.92036E-05-2.88936E-05 3.14975E-07-2.80631E-19-8.38628E-19
 -1      4018 9.67993E-05-2.91123E-05-2.90113E-05 1.62495E-07-3.10234E-19-1.16422E-18
 -1      4019 9.65145E-05-2.92207E-05-2.88396E-05 3.08120E-07-2.86592E-19-8.11644E-19
 -1      4020 9.64062E-05-2.92121E-05-2.87962E-05 3.13220E-07-2.82065E-19-7.83140E-19
 -1      4021 9.66086E-05-2.92225E-05-2.88824E-05 1.70658E-07-2.88882E-19-1.13042E-18
 -1      4022 9.62828E-05-2.91794E-05-2.87582E-05 3.06154E-07-1.52279E-19-6.72316E-19
 -1      4023 9.61671E-05-2.91307E-05-2.87285E-05 3.07294E-07-3.34509E-19-3.57318E-19
 -1      4024 9.63784E-05-2.92076E-05-2.87898E-05 1.72301E-07-1.29323E-19-9.15902E-19
 -1      4025 9.60372E-05-2.90640E-05-2.87028E-05 3.03557E-07-6.29598E-19-3.06116E-19
 -1      4026 9.59193E-05-2.89883E-05-2.86833E-05 3.06939E-07-8.23975E-19-3.93825E-19
 -1      4027 9.61284E-05-2.91065E-05-2.87256E-05 1.74462E-07-2.57443E-19-9.89674E-19
 -1      4028 9.57863E-05-2.88988E-05-2.86665E-05 3.10711E-07-1.07679E-18-1.76196E-19
 -1      4029 9.56683E-05-2.88057E-05-2.86542E-05 3.21777E-07-7.55688E-19-2.64493E-19
 -1      4030 9.58687E-05-2.89452E-05-2.86827E-05 1.84789E-07-7.31860E-19-3.58741E-19
 -1      4031 9.55344E-05-2.87011E-05-2.86434E-05 3.37759E-07-6.83821E-19-6.03656E-19
 -1      4032 9.54186E-05-2.85984E-05-2.86356E-05 3.63190E-07-9.72537E-19-6.67105E-19
 -1      4033 9.56037E-05-2.87433E-05-2.86550E-05 2.12709E-07-8.47395E-19-2.45054E-20
 -1      4034 9.52808E-05-2.84851E-05-2.86281E-05 3.96503E-07-7.58215E-19-2.55980E-19
 -1      4035 9.51694E-05-2.83789E-05-2.86223E-05 4.43376E-07-2.43705E-19-3.26368E-19
 -1      4036 9.53339E-05-2.85175E-05-2.86364E-05 2.64251E-07-7.49008E-19 5.46146E-19
 -1      4037 9.50288E-05-2.82636E-05-2.86156E-05 5.03303E-07 7.11616E-20-6.07399E-19
 -1      4038 9.49253E-05-2.81627E-05-2.86096E-05 5.80407E-07 4.06487E-19-6.26739E-19
 -1      4039 9.50581E-05-2.82746E-05-2.86222E-05 3.60409E-07-2.59944E-19 1.17565E-20
 -1      4040 9.47834E-05-2.80537E-05-2.86011E-05 6.78795E-07 3.68649E-19-7.13451E-19
 -1      4041 9.46959E-05-2.79700E-05-2.85926E-05 7.97729E-07 6.62452E-19-6.22424E-19
 -1      4042 9.47773E-05-2.80299E-05-2.86070E-05 5.20159E-07 2.71890E-19-1.09457E-18
 -1      4043 9.45583E-05-2.78805E-05-2.85796E-05 9.50775E-07 5.92767E-19-2.00216E-19
 -1      4044 9.45018E-05-2.78323E-05-2.85665E-05 1.12583E-06 2.05120E-19-9.44263E-21
 -1      4045 9.44982E-05-2.78033E-05-2.85854E-05 7.73491E-07 8.05888E-19-5.34085E-19
 -1      4046 9.43817E-05-2.77824E-05-2.85464E-05 1.35509E-06 5.97264E-20 6.94448E-20
 -1      4047 9.43820E-05-2.77982E-05-2.85270E-05 1.60333E-06 5.84023E-19-3.32452E-19
 -1      4048 9.42380E-05-2.76255E-05-2.85518E-05 1.16051E-06 4.75628E-19-8.72250E-19
 -1      4049 9.43051E-05-2.78201E-05-2.84974E-05 1.93437E-06 3.72296E-19-5.90529E-19
 -1      4050 9.44034E-05-2.79415E-05-2.84711E-05 2.27284E-06-4.55666E-20-8.93904E-19
 -1      4051 9.40340E-05-2.75491E-05-2.85007E-05 1.73317E-06 3.78999E-20-1.40516E-18
 -1      4052 9.44151E-05-2.80832E-05-2.84304E-05 2.73370E-06-1.46558E-20-1.02791E-18
 -1      4053 9.46733E-05-2.83694E-05-2.83988E-05 3.17404E-06 1.50141E-19-1.05041E-18
 -1      4054 9.39535E-05-2.76538E-05-2.84274E-05 2.55252E-06-2.33470E-19-9.77580E-19
 -1      4055 9.48487E-05-2.86999E-05-2.83482E-05 3.78726E-06-1.74527E-19-1.38689E-18
 -1      4056 9.53547E-05-2.92301E-05-2.83173E-05 4.32434E-06-2.11460E-20-1.85453E-18
 -1      4057 9.41123E-05-2.80620E-05-2.83303E-05 3.68045E-06-4.50680E-19-2.05077E-18
 -1      4058 9.58114E-05-2.98421E-05-2.82633E-05 5.09135E-06 7.20637E-19-2.20985E-18
 -1      4059 9.66799E-05-3.07103E-05-2.82476E-05 5.68262E-06 4.60354E-19-2.32882E-18
 -1      4060 9.46960E-05-2.89494E-05-2.82152E-05 5.15839E-06 1.19090E-19-2.83267E-18
 -1      4061 9.75934E-05-3.17183E-05-2.82083E-05 6.55214E-06 4.71591E-19-2.12298E-18
 -1      4062 9.89453E-05-3.30050E-05-2.82363E-05 7.07868E-06 5.85779E-19-1.69816E-18
 -1      4063 9.59882E-05-3.05505E-05-2.81043E-05 6.96455E-06 7.08650E-19-2.11597E-18
 -1      4064 1.00585E-04-3.45364E-05-2.82536E-05 7.89255E-06 3.10791E-19-1.56890E-18
 -1      4065 1.02728E-04-3.62798E-05-2.84174E-05 7.97253E-06 9.50820E-19-1.81216E-18
 -1      4066 9.84303E-05-3.31461E-05-2.80542E-05 8.95488E-06 6.66033E-19-1.70664E-18
 -1      4067 1.03912E-04-3.80667E-05-2.81716E-05 1.11582E-05 1.65907E-18-1.93072E-18
 -1      4068 1.06661E-04-4.02835E-05-2.84480E-05 1.10486E-05 1.88319E-18-2.03723E-18
 -1      4069 9.59374E-05-2.52159E-05-3.03134E-05-6.54599E-08 1.89837E-19-1.90087E-18
 -1      4070 9.59674E-05-2.53383E-05-3.02796E-05-2.51116E-07-2.34922E-20-1.94774E-18
 -1      4071 9.63133E-05-2.61641E-05-3.00559E-05-1.68834E-07 3.05171E-20-1.70072E-18
 -1      4072 9.70313E-05-3.10473E-05-2.82774E-05-6.91794E-06-3.08618E-19-2.95214E-18
 -1      4073 9.51832E-05-2.96202E-05-2.80691E-05-7.85162E-06 3.75246E-20-2.25557E-18
 -1      4074 9.66416E-05-2.91985E-05-2.89041E-05-3.21121E-07-1.38454E-19-7.40402E-19
 -1      4075 9.67359E-05-2.91439E-05-2.89663E-05-3.03975E-07-2.36306E-20-8.33114E-19
 -1      4076 9.25636E-05-2.61976E-05-2.84575E-05 1.38136E-06-1.32258E-20-1.36588E-18
 -1      4077 9.29917E-05-2.64588E-05-2.85070E-05 1.02053E-06-3.28225E-19-1.69444E-18
 -1      4078 9.32517E-05-2.66762E-05-2.85429E-05 7.04902E-07-5.19602E-19-1.42426E-18
 -1      4079 9.35981E-05-2.69241E-05-2.85708E-05 4.88692E-07-1.07625E-19-1.00283E-18
 -1      4080 9.33528E-05-2.68282E-05-2.85111E-05 1.18015E-06-3.00721E-19-1.37258E-18
 -1      4081 9.09683E-05-2.54599E-05-2.81005E-05 4.08244E-06-6.44568E-20-9.74505E-19
 -1      4082 9.15540E-05-2.56371E-05-2.82302E-05 3.18378E-06-3.21352E-19-1.21604E-18
 -1      4083 9.02594E-05-2.55099E-05-2.77793E-05 6.48558E-06 7.75960E-19-1.05754E-18
 -1      4084 9.08591E-05-2.55124E-05-2.79748E-05 5.14347E-06 4.31012E-19-9.98498E-19
 -1      4085 9.19866E-05-2.65222E-05-2.80741E-05 5.04731E-06-1.92129E-20-1.20835E-18
 -1      4086 8.99463E-05-2.62481E-05-2.73294E-05 9.87732E-06 1.11200E-18-1.55804E-18
 -1      4087 9.04256E-05-2.58942E-05-2.76102E-05 7.95532E-06 9.50332E-19-1.37152E-18
 -1      4088 9.20135E-05-2.72298E-05-2.77985E-05 7.55875E-06 8.59190E-19-1.63196E-18
 -1      4089 8.58406E-05-2.60243E-05-2.55433E-05 1.85118E-05 1.75383E-18 1.50098E-18
 -1      4090 9.36717E-05-2.90810E-05-2.76971E-05-1.00565E-05-1.23949E-19-1.60725E-18
 -1      4091 9.11781E-05-2.74382E-05-2.72569E-05-1.14505E-05-1.07482E-18 3.10467E-19
 -1      4092 9.68125E-05-2.90490E-05-2.90421E-05-3.05667E-07-5.02024E-20-1.07909E-18
 -1      4093 9.68752E-05-2.89073E-05-2.91272E-05-2.67259E-07-7.02256E-21-1.18480E-18
 -1      4094 9.68129E-05-2.90981E-05-2.90237E-05-1.75488E-07-1.70738E-19-1.17341E-18
 -1      4095 1.17683E-04-4.68296E-05-3.03851E-05 6.80351E-06 1.03482E-18-1.42534E-18
 -1      4096 1.14135E-04-4.53538E-05-2.94826E-05 9.53337E-06 1.15093E-18-1.92294E-18
 -1      4097 1.05029E-04-3.86972E-05-2.83943E-05-1.03174E-05-6.72342E-19-7.91761E-19
 -1      4098 9.59436E-05-2.52784E-05-3.02914E-05 2.73825E-07 3.95642E-19-1.78591E-18
 -1      4099 9.59305E-05-2.52229E-05-3.03115E-05 7.93142E-08 2.36223E-19-1.93008E-18
 -1      4100 9.63034E-05-2.60345E-05-3.01033E-05-2.41476E-09 2.30618E-19-1.67001E-18
 -1      4101 9.64248E-05-2.92118E-05-2.88051E-05-3.17236E-07-1.14757E-19-6.52567E-19
 -1      4102 9.65363E-05-2.92188E-05-2.88490E-05-3.13402E-07 6.03335E-21-6.38746E-19
 -1      4103 9.66261E-05-2.92187E-05-2.88920E-05-1.83110E-07 3.64639E-20-7.05719E-19
 -1      4104 9.83343E-05-3.22328E-05-2.83343E-05-6.71155E-06-4.92608E-19-3.21504E-18
 -1      4105 9.69034E-05-2.87078E-05-2.92285E-05-2.59919E-07 2.13652E-19-1.18205E-18
 -1      4106 9.69103E-05-2.84429E-05-2.93416E-05-1.91039E-07 3.13406E-19-1.20756E-18
 -1      4107 9.69271E-05-2.87951E-05-2.92018E-05-1.49982E-07 9.48094E-20-1.37056E-18
 -1      4108 9.17835E-05-2.57557E-05-2.83177E-05 2.45022E-06-4.83851E-19-1.39014E-18
 -1      4109 9.22980E-05-2.60031E-05-2.83999E-05 1.87044E-06-1.89019E-19-1.55271E-18
 -1      4110 9.28308E-05-2.65277E-05-2.84188E-05 2.00452E-06-2.56187E-19-1.05810E-18
 -1      4111 9.65608E-05-2.68780E-05-2.98661E-05-8.81622E-08 7.15430E-20-1.64639E-18
 -1      4112 9.67287E-05-2.74535E-05-2.96876E-05 5.46960E-08-3.44366E-20-1.35893E-18
 -1      4113 9.65320E-05-2.67454E-05-2.99117E-05-4.31014E-08 1.85867E-19-1.68324E-18
 -1      4114 9.68271E-05-2.78402E-05-2.95659E-05 7.59762E-08-2.55995E-20-1.17450E-18
 -1      4115 9.68869E-05-2.82295E-05-2.94231E-05 1.75101E-07-1.03981E-19-9.77167E-19
 -1      4116 9.69276E-05-2.83635E-05-2.93870E-05 9.65616E-08 1.89616E-19-1.23071E-18
 -1      4117 9.68344E-05-2.77439E-05-2.96122E-05 3.98951E-08 2.29746E-19-1.55074E-18
 -1      4118 1.11646E-04-4.33612E-05-2.91495E-05 9.22253E-06 1.72324E-18-1.64481E-18
 -1      4119 8.74072E-05-2.51696E-05-2.66750E-05-1.28746E-05-7.72999E-19 3.24754E-19
 -1      4120 9.05545E-05-2.82734E-05-2.67476E-05 1.43199E-05 1.08935E-18-9.25688E-19
 -1      4121 9.06310E-05-2.72163E-05-2.71195E-05 1.18011E-05 1.00456E-18-1.51772E-18
 -1      4122 9.28223E-05-2.88836E-05-2.74575E-05 1.08660E-05 5.60483E-19-2.14391E-18
 -1      4123 9.41053E-05-3.31818E-05-2.60835E-05 2.07388E-05 1.60312E-18 3.71034E-19
 -1      4124 8.89685E-05-2.90585E-05-2.57218E-05 1.96212E-05 1.59985E-18 5.68439E-19
 -1      4125 9.08106E-05-2.91149E-05-2.63596E-05 1.69965E-05 1.35971E-18 7.70419E-20
 -1      4126 9.80614E-05-3.49560E-05-2.69510E-05 1.72555E-05 7.64229E-19-1.48276E-18
 -1      4127 1.00952E-04-3.58642E-05-2.79016E-05-1.22557E-05 4.71410E-21-6.48627E-19
 -1      4128 1.03549E-04-3.69543E-05-2.84868E-05-8.36373E-06 1.82296E-19-1.23551E-18
 -1      4129 1.01335E-04-3.52283E-05-2.83127E-05-8.31157E-06 8.96660E-19-2.54118E-18
 -1      4130 9.72909E-05-3.26794E-05-2.77107E-05-1.16134E-05 2.99006E-19-1.00549E-18
 -1      4131 1.00962E-04-3.63446E-05-2.77652E-05 1.31932E-05 9.61875E-19-2.13697E-18
 -1      4132 9.69152E-05-2.82288E-05-2.94364E-05-1.02506E-07 4.19307E-19-1.27992E-18
 -1      4133 9.68593E-05-2.80950E-05-2.94731E-05-1.62637E-07 4.00046E-19-1.18624E-18
 -1      4134 9.67800E-05-2.76594E-05-2.96245E-05-6.26104E-08 5.25107E-19-1.14056E-18
 -1      4135 9.45339E-05-2.77416E-05-2.86244E-05-1.95677E-08-1.33224E-19 2.65026E-19
 -1      4136 9.46646E-05-2.78821E-05-2.86207E-05 1.20614E-07-1.30873E-19 6.85675E-19
 -1      4137 9.43127E-05-2.75489E-05-2.86176E-05 4.95045E-08-2.24241E-19 3.51266E-19
 -1      4138 9.23353E-05-2.63735E-05-2.82778E-05 3.24500E-06-4.52221E-19-1.30270E-18
 -1      4139 9.54355E-05-2.85813E-05-2.86516E-05-3.65139E-07 4.54457E-19-9.14624E-19
 -1      4140 9.50705E-05-2.82479E-05-2.86397E-05-1.75964E-07 2.10205E-20-1.32387E-19
 -1      4141 9.52316E-05-2.83972E-05-2.86431E-05-1.98042E-07 8.48717E-20-3.32108E-19
 -1      4142 9.50091E-05-2.81979E-05-2.86334E-05-1.49791E-09-5.07960E-19 5.80526E-19
 -1      4143 9.84250E-05-3.30116E-05-2.80932E-05-9.27470E-06 2.64160E-19-2.12479E-18
 -1      4144 9.99349E-05-3.37399E-05-2.83301E-05-7.56486E-06 6.37786E-19-3.05051E-18
 -1      4145 9.38393E-05-2.71799E-05-2.85678E-05 6.53957E-07 1.78412E-19-8.22240E-19
 -1      4146 9.38294E-05-2.71327E-05-2.85915E-05 2.94822E-07 5.15421E-20-7.82063E-19
 -1      4147 9.41016E-05-2.73507E-05-2.86057E-05 1.71980E-07-1.59409E-19-3.13682E-19
 -1      4148 9.39262E-05-3.11934E-05-2.69364E-05 1.51699E-05 7.45516E-19-1.86558E-18
 -1      4149 9.56706E-05-2.87833E-05-2.86657E-05-2.58573E-07-1.20653E-19-1.25630E-18
 -1      4150 9.58033E-05-2.88894E-05-2.86770E-05-2.68473E-07-3.88832E-19-1.20754E-18
 -1      4151 1.16860E-04-4.49287E-05-3.08885E-05 2.74622E-06 5.34656E-19-6.06480E-19
 -1      4152 9.64448E-05-2.67506E-05-2.98719E-05 1.52052E-07 5.41868E-19-1.32269E-18
 -1      4153 9.62466E-05-2.59844E-05-3.00995E-05 2.58055E-07 3.37829E-19-1.64031E-18
 -1      4154 9.63065E-05-2.91804E-05-2.87673E-05-3.06428E-07-3.25578E-19-7.48501E-19
 -1      4155 9.64003E-05-2.92106E-05-2.87985E-05-1.79193E-07-1.17570E-19-6.44500E-19
 -1      4156 9.61891E-05-2.91318E-05-2.87382E-05-3.03144E-07-5.28939E-19-8.06223E-19
 -1      4157 9.59375E-05-2.89846E-05-2.86936E-05-2.83452E-07-2.56574E-19-1.14783E-18
 -1      4158 9.60607E-05-2.90638E-05-2.87123E-05-2.90506E-07-3.45794E-19-9.74454E-19
 -1      4159 9.61534E-05-2.91131E-05-2.87339E-05-1.67376E-07-1.82502E-19-9.91402E-19
 -1      4160 9.58919E-05-2.89512E-05-2.86906E-05-1.48634E-07-2.66640E-19-1.28819E-18
 -1      4161 9.68275E-05-2.91128E-05-2.90197E-05-4.64784E-09-3.44263E-19-1.28143E-18
 -1      4162 9.67402E-05-2.91922E-05-2.89463E-05 2.82135E-09-2.93447E-19-1.31889E-18
 -1      4163 9.66365E-05-2.92262E-05-2.88890E-05-1.84668E-09-1.45268E-19-1.24989E-18
 -1      4164 9.65242E-05-2.92354E-05-2.88357E-05 2.05843E-09-1.08509E-19-9.74357E-19
 -1      4165 9.64070E-05-2.92133E-05-2.87961E-05 1.63222E-09-2.58692E-19-9.32201E-19
 -1      4166 9.62819E-05-2.91742E-05-2.87585E-05 4.69263E-09-1.25328E-19-7.58616E-19
 -1      4167 9.61540E-05-2.91126E-05-2.87310E-05 8.15754E-09-1.30559E-19-9.72342E-19
 -1      4168 9.60227E-05-2.90394E-05-2.87055E-05 1.31295E-08-2.68541E-19-1.09263E-18
 -1      4169 9.58890E-05-2.89503E-05-2.86876E-05 2.10834E-08-4.03277E-19-8.99032E-19
 -1      4170 9.57532E-05-2.88522E-05-2.86710E-05 3.01726E-08-4.18581E-19-5.12664E-19
 -1      4171 9.56178E-05-2.87458E-05-2.86595E-05 4.63450E-08-5.53735E-19-3.03935E-19
 -1      4172 9.53259E-05-2.84967E-05-2.86416E-05 9.50162E-08-4.52178E-19 3.22577E-19
 -1      4173 9.51875E-05-2.83705E-05-2.86342E-05 1.30117E-07-6.77961E-19 4.90738E-19
 -1      4174 9.50228E-05-2.82257E-05-2.86281E-05 1.79257E-07-8.27474E-19 7.53330E-19
 -1      4175 9.48817E-05-2.80931E-05-2.86214E-05 2.38542E-07-1.62149E-19 1.86263E-20
 -1      4176 9.47029E-05-2.79402E-05-2.86140E-05 3.19067E-07 2.15575E-19-3.95583E-19
 -1      4177 9.45608E-05-2.78071E-05-2.86053E-05 4.15127E-07 5.65054E-19-4.72305E-19
 -1      4178 9.43550E-05-2.76428E-05-2.85928E-05 5.50144E-07 6.53697E-19-6.92230E-19
 -1      4179 9.42173E-05-2.75200E-05-2.85792E-05 7.01542E-07 8.36192E-19-5.66602E-19
 -1      4180 9.39929E-05-2.73612E-05-2.85587E-05 9.11686E-07 4.14988E-19-1.00575E-18
 -1      4181 9.38735E-05-2.72672E-05-2.85373E-05 1.14174E-06 5.02828E-20-1.12892E-18
 -1      4182 9.36252E-05-2.71234E-05-2.85028E-05 1.47490E-06-5.12894E-20-1.19542E-18
 -1      4183 9.35508E-05-2.70897E-05-2.84705E-05 1.81569E-06-1.56639E-19-1.13198E-18
 -1      4184 9.33023E-05-2.69974E-05-2.84170E-05 2.31846E-06-5.00321E-19-1.03293E-18
 -1      4185 9.33194E-05-2.70752E-05-2.83714E-05 2.80666E-06-3.92890E-19-1.36089E-18
 -1      4186 9.31139E-05-2.70902E-05-2.82930E-05 3.54007E-06-5.03262E-19-1.29034E-18
 -1      4187 9.32996E-05-2.73583E-05-2.82334E-05 4.21285E-06-5.32733E-19-1.47281E-18
 -1      4188 9.32222E-05-2.75727E-05-2.81255E-05 5.24116E-06 2.21583E-19-1.64909E-18
 -1      4189 9.36971E-05-2.81461E-05-2.80567E-05 6.12344E-06 6.29432E-19-1.50099E-18
 -1      4190 9.39010E-05-2.87024E-05-2.79201E-05 7.49304E-06 6.99094E-19-1.69223E-18
 -1      4191 9.48401E-05-2.97359E-05-2.78577E-05 8.57542E-06 5.25219E-19-1.64238E-18
 -1      4192 9.55658E-05-3.08388E-05-2.77052E-05 1.02509E-05 6.26208E-19-1.79127E-18
 -1      4193 9.72254E-05-3.24687E-05-2.76915E-05 1.14312E-05 8.08801E-19-2.10763E-18
 -1      4194 9.59667E-05-3.11751E-05-2.77806E-05-1.03731E-05-3.20974E-19-1.86769E-18
 -1      4195 9.69012E-05-2.89979E-05-2.90981E-05 5.89639E-09-6.81231E-20-1.38849E-18
 -1      4196 9.74722E-05-3.35939E-05-2.73957E-05 1.37222E-05 8.85924E-19-1.68428E-18
 -1      4197 9.69438E-05-2.88189E-05-2.91962E-05-8.12445E-09 1.73111E-19-1.53933E-18
 -1      4198 9.65537E-05-2.67574E-05-2.99158E-05 2.35804E-08 2.29710E-19-1.65542E-18
 -1      4199 9.69683E-05-2.85902E-05-2.93013E-05 8.67320E-09 3.35090E-19-1.46147E-18
 -1      4200 9.53837E-05-2.85364E-05-2.86494E-05-2.25908E-07 1.58647E-19-4.15017E-19
 -1      4201 9.55267E-05-2.86642E-05-2.86554E-05-2.39763E-07 9.11227E-20-8.53673E-19
 -1      4202 9.56163E-05-2.87366E-05-2.86629E-05-1.18174E-07-2.46927E-19-8.88241E-19
 -1      4203 9.53249E-05-2.84857E-05-2.86456E-05-7.51368E-08-1.10622E-19-5.43802E-19
 -1      4204 9.69550E-05-2.83603E-05-2.93994E-05-1.45728E-08 2.78375E-19-1.60443E-18
 -1      4205 9.65252E-05-2.68114E-05-2.98830E-05 5.55163E-08 3.39594E-19-1.55881E-18
 -1      4206 9.67385E-05-2.73846E-05-2.97169E-05-3.22420E-08 3.78729E-19-1.39381E-18
 -1      4207 9.54753E-05-2.86257E-05-2.86489E-05 6.52433E-08-3.79860E-19-7.76831E-20
 -1      4208 9.42769E-05-2.75392E-05-2.86012E-05 3.23801E-07 3.79034E-19-2.75418E-19
 -1      4209 9.69089E-05-2.79815E-05-2.95373E-05-6.78295E-09 3.31698E-19-1.60548E-18
 -1      4210 1.11982E-04-4.27655E-05-2.96717E-05 5.34719E-06 1.34529E-18-1.23621E-18
 -1      4211 9.68310E-05-2.77712E-05-2.95967E-05-2.52978E-08 4.20042E-19-1.37397E-18
 -3
    1PSTEP                         4           1           1          
  100CL  101 1.000000000        4211                     0    1           1
 -4  ERROR       1    1
 -5  STR(%)      1    1    0    0
 -1         1 3.17493E+01
 -1         2 2.38069E+01
 -1         3 5.67409E-02
 -1         4 9.84456E-03
 -1         5 1.33053E+01
 -1         6 1.31452E+01
 -1         7 1.31452E+01
 -1         8 3.66509E+00
 -1         9 1.82746E+00
 -1        10 1.29004E+00
 -1        11 1.04342E+00
 -1        12 8.99532E-01
 -1        13 8.08325E-01
 -1        14 7.52992E-01
 -1        15 7.53668E-01
 -1        16 8.10012E-01
 -1        17 8.96591E-01
 -1        18 1.04727E+00
 -1        19 1.29707E+00
 -1        20 1.84547E+00
 -1        21 3.70822E+00
 -1        22 1.33053E+01
 -1        23 1.31452E+01
 -1        24 4.31856E+00
 -1        25 3.34268E+00
 -1        26 2.11331E+00
 -1        27 1.36477E+00
 -1        28 1.01588E+00
 -1        29 7.77771E-01
 -1        30 5.98801E-01
 -1        31 4.59478E-01
 -1        32 3.51671E-01
 -1        33 2.73596E-01
 -1        34 2.10998E-01
 -1        35 1.61709E-01
 -1        36 1.23569E-01
 -1        37 9.44935E-02
 -1        38 8.20623E-02
 -1        39 7.45276E-02
 -1        40 7.07462E-02
 -1        41 7.15992E-02
 -1        42 7.61216E-02
 -1        43 9.83941E-02
 -1        44 1.20374E-01
 -1        45 1.35582E-01
 -1        46 1.73314E-01
 -1        47 2.24657E-01
 -1        48 3.07375E-01
 -1        49 4.72459E-01
 -1        50 6.53031E-01
 -1        51 8.94332E-01
 -1        52 1.29444E+00
 -1        53 1.77497E+00
 -1        54 2.20082E+00
 -1        55 2.44182E+00
 -1        56 2.44182E+00
 -1        57 2.46069E+00
 -1        58 2.46069E+00
 -1        59 2.32472E+00
 -1        60 1.96291E+00
 -1        61 1.48325E+00
 -1        62 1.05811E+00
 -1        63 7.05244E-01
 -1        64 5.22118E-01
 -1        65 3.44155E-01
 -1        66 1.93188E-01
 -1        67 1.22066E-01
 -1        68 7.29408E-02
 -1        69 5.50598E-02
 -1        70 4.48818E-02
 -1        71 3.88371E-02
 -1        72 1.33053E+01
 -1        73 4.28729E+00
 -1        74 3.40003E+00
 -1        75 2.15797E+00
 -1        76 1.39315E+00
 -1        77 1.02947E+00
 -1        78 7.87702E-01
 -1        79 6.01839E-01
 -1        80 4.71914E-01
 -1        81 3.60651E-01
 -1        82 2.81210E-01
 -1        83 2.17727E-01
 -1        84 1.68176E-01
 -1        85 1.30634E-01
 -1        86 1.03360E-01
 -1        87 8.12533E-02
 -1        88 8.21370E-02
 -1        89 9.92785E-02
 -1        90 1.30576E-01
 -1        91 1.81875E-01
 -1        92 2.62052E-01
 -1        93 3.84165E-01
 -1        94 5.35851E-01
 -1        95 8.11480E-01
 -1        96 1.16694E+00
 -1        97 1.62189E+00
 -1        98 2.25277E+00
 -1        99 3.24115E+00
 -1       100 4.42328E+00
 -1       101 5.72820E+00
 -1       102 5.76931E+00
 -1       103 5.76931E+00
 -1       104 7.40969E+00
 -1       105 1.60359E+01
 -1       106 1.69405E+01
 -1       107 1.69405E+01
 -1       108 1.07190E+01
 -1       109 5.23177E+00
 -1       110 6.01962E+00
 -1       111 6.01962E+00
 -1       112 5.24910E+00
 -1       113 3.87466E+00
 -1       114 2.79286E+00
 -1       115 1.87892E+00
 -1       116 1.49243E+00
 -1       117 1.08029E+00
 -1       118 7.66611E-01
 -1       119 5.32544E-01
 -1       120 3.91839E-01
 -1       121 2.62935E-01
 -1       122 1.38129E-01
 -1       123 8.36213E-02
 -1       124 5.28411E-02
 -1       125 4.67789E-02
 -1       126 6.74629E-02
 -1       127 6.77373E-02
 -1       128 6.77373E-02
 -1       129 5.41177E-02
 -1       130 3.19404E-02
 -1       131 1.13301E-02
 -1       132 2.09236E-02
 -1       133 2.37509E-02
 -1       134 2.37509E-02
 -1       135 2.19000E-02
 -1       136 2.20504E-02
 -1       137 2.20504E-02
 -1       138 2.49052E+01
 -1       139 2.56906E+01
 -1       140 3.37042E+01
 -1       141 3.37042E+01
 -1       142 1.54515E+01
 -1       143 1.42596E+01
 -1       144 1.42596E+01
 -1       145 1.37686E+01
 -1       146 1.36837E+01
 -1       147 1.80152E+01
 -1       148 4.55582E+01
 -1       149 4.55582E+01
 -1       150 2.48619E+01
 -1       151 2.61880E+01
 -1       152 2.61880E+01
 -1       153 2.79253E+01
 -1       154 3.17493E+01
 -1       155 1.28686E+01
 -1       156 1.17287E+01
 -1       157 1.17584E+01
 -1       158 1.22349E+01
 -1       159 1.22349E+01
 -1       160 1.19387E+01
 -1       161 1.16302E+01
 -1       162 2.17777E+01
 -1       163 4.79504E+01
 -1       164 4.79504E+01
 -1       165 2.38828E+01
 -1       166 6.07998E+00
 -1       167 2.30154E+00
 -1       168 1.50568E+00
 -1       169 1.15793E+00
 -1       170 9.71596E-01
 -1       171 8.63829E-01
 -1       172 7.95339E-01
 -1       173 7.53668E-01
 -1       174 7.96441E-01
 -1       175 8.62926E-01
 -1       176 9.75056E-01
 -1       177 1.16237E+00
 -1       178 1.51498E+00
 -1       179 2.32491E+00
 -1       180 6.19573E+00
 -1       181 4.31856E+00
 -1       182 3.34268E+00
 -1       183 2.11331E+00
 -1       184 1.44885E+00
 -1       185 1.02728E+00
 -1       186 7.77771E-01
 -1       187 5.98801E-01
 -1       188 4.71064E-01
 -1       189 3.71654E-01
 -1       190 2.92349E-01
 -1       191 2.35703E-01
 -1       192 1.87416E-01
 -1       193 1.47176E-01
 -1       194 1.14165E-01
 -1       195 8.72955E-02
 -1       196 7.45276E-02
 -1       197 7.07462E-02
 -1       198 7.01596E-02
 -1       199 7.15992E-02
 -1       200 7.61216E-02
 -1       201 9.83941E-02
 -1       202 1.20374E-01
 -1       203 1.35582E-01
 -1       204 1.73314E-01
 -1       205 2.24657E-01
 -1       206 3.24061E-01
 -1       207 5.28368E-01
 -1       208 7.72916E-01
 -1       209 1.03631E+00
 -1       210 1.37250E+00
 -1       211 1.77497E+00
 -1       212 2.20082E+00
 -1       213 2.44182E+00
 -1       214 2.41564E+00
 -1       215 2.46069E+00
 -1       216 2.32472E+00
 -1       217 1.96291E+00
 -1       218 1.52301E+00
 -1       219 1.16732E+00
 -1       220 8.91346E-01
 -1       221 6.40210E-01
 -1       222 4.23226E-01
 -1       223 2.53943E-01
 -1       224 1.34415E-01
 -1       225 7.29408E-02
 -1       226 5.50598E-02
 -1       227 4.48818E-02
 -1       228 3.88371E-02
 -1       229 4.28729E+00
 -1       230 3.40003E+00
 -1       231 2.15797E+00
 -1       232 1.46865E+00
 -1       233 1.04441E+00
 -1       234 7.87702E-01
 -1       235 6.01839E-01
 -1       236 4.81949E-01
 -1       237 3.81050E-01
 -1       238 2.99339E-01
 -1       239 2.42443E-01
 -1       240 1.94163E-01
 -1       241 1.54356E-01
 -1       242 1.22353E-01
 -1       243 9.42761E-02
 -1       244 7.85293E-02
 -1       245 8.58147E-02
 -1       246 1.08637E-01
 -1       247 1.45660E-01
 -1       248 2.02711E-01
 -1       249 2.88281E-01
 -1       250 4.43000E-01
 -1       251 6.96568E-01
 -1       252 1.08500E+00
 -1       253 1.64907E+00
 -1       254 2.41367E+00
 -1       255 3.33692E+00
 -1       256 4.24034E+00
 -1       257 4.80002E+00
 -1       258 5.72820E+00
 -1       259 6.43205E+00
 -1       260 7.15887E+00
 -1       261 7.81009E+00
 -1       262 1.60359E+01
 -1       263 1.69405E+01
 -1       264 1.10117E+01
 -1       265 5.14643E+00
 -1       266 5.32293E+00
 -1       267 6.01962E+00
 -1       268 5.24910E+00
 -1       269 4.26979E+00
 -1       270 3.38864E+00
 -1       271 2.55776E+00
 -1       272 1.88896E+00
 -1       273 1.27773E+00
 -1       274 8.24957E-01
 -1       275 5.50499E-01
 -1       276 3.91839E-01
 -1       277 2.62935E-01
 -1       278 1.40854E-01
 -1       279 1.40854E-01
 -1       280 8.71620E-02
 -1       281 1.26071E-01
 -1       282 1.32394E-01
 -1       283 1.32394E-01
 -1       284 1.24901E-01
 -1       285 9.11886E-02
 -1       286 4.78442E-02
 -1       287 3.85156E-02
 -1       288 4.54902E-02
 -1       289 4.54902E-02
 -1       290 4.46831E-02
 -1       291 3.67041E-02
 -1       292 3.60470E-02
 -1       293 3.15006E+01
 -1       294 2.66730E+01
 -1       295 3.15147E+01
 -1       296 3.37042E+01
 -1       297 1.54515E+01
 -1       298 1.30584E+01
 -1       299 1.65664E+01
 -1       300 1.65664E+01
 -1       301 1.56380E+01
 -1       302 1.23316E+01
 -1       303 1.85933E+01
 -1       304 4.55582E+01
 -1       305 3.90371E+01
 -1       306 2.87329E+01
 -1       307 3.42326E+01
 -1       308 2.52011E+01
 -1       309 3.14131E+01
 -1       310 3.17493E+01
 -1       311 1.28686E+01
 -1       312 1.11513E+01
 -1       313 1.17287E+01
 -1       314 1.17584E+01
 -1       315 1.22349E+01
 -1       316 1.19387E+01
 -1       317 1.16302E+01
 -1       318 1.11755E+01
 -1       319 2.34807E+01
 -1       320 4.79504E+01
 -1       321 2.86977E+01
 -1       322 3.15006E+01
 -1       323 1.07077E+00
 -1       324 2.48067E+00
 -1       325 7.88539E-01
 -1       326 6.94701E-01
 -1       327 6.31528E-01
 -1       328 5.87228E-01
 -1       329 5.89061E-01
 -1       330 6.32344E-01
 -1       331 6.98449E-01
 -1       332 7.92820E-01
 -1       333 9.21311E-01
 -1       334 1.08593E+00
 -1       335 2.48332E+00
 -1       336 2.15305E+01
 -1       337 1.73074E+00
 -1       338 1.26874E+00
 -1       339 9.08611E-01
 -1       340 6.57561E-01
 -1       341 5.40576E-01
 -1       342 4.44017E-01
 -1       343 3.58999E-01
 -1       344 2.92374E-01
 -1       345 2.37085E-01
 -1       346 1.89333E-01
 -1       347 1.50904E-01
 -1       348 1.20052E-01
 -1       349 9.33002E-02
 -1       350 7.03207E-02
 -1       351 6.20261E-02
 -1       352 5.97640E-02
 -1       353 5.90417E-02
 -1       354 5.86850E-02
 -1       355 6.80230E-02
 -1       356 7.63374E-02
 -1       357 7.52572E-02
 -1       358 7.10550E-02
 -1       359 1.42093E-01
 -1       360 2.65862E-01
 -1       361 4.26408E-01
 -1       362 6.17417E-01
 -1       363 8.38364E-01
 -1       364 1.10157E+00
 -1       365 1.32546E+00
 -1       366 1.59618E+00
 -1       367 1.76371E+00
 -1       368 1.78879E+00
 -1       369 1.75175E+00
 -1       370 1.78909E+00
 -1       371 1.67964E+00
 -1       372 1.44570E+00
 -1       373 1.20813E+00
 -1       374 9.58833E-01
 -1       375 7.18240E-01
 -1       376 5.23486E-01
 -1       377 3.54535E-01
 -1       378 2.20789E-01
 -1       379 1.32002E-01
 -1       380 8.78727E-02
 -1       381 6.17197E-02
 -1       382 5.34420E-02
 -1       383 1.28601E+00
 -1       384 1.73598E+00
 -1       385 9.22739E-01
 -1       386 6.68262E-01
 -1       387 5.46779E-01
 -1       388 4.53678E-01
 -1       389 3.67209E-01
 -1       390 2.99339E-01
 -1       391 2.43640E-01
 -1       392 1.95906E-01
 -1       393 1.57794E-01
 -1       394 1.27348E-01
 -1       395 9.90485E-02
 -1       396 7.90627E-02
 -1       397 7.32344E-02
 -1       398 8.58147E-02
 -1       399 1.08637E-01
 -1       400 1.61201E-01
 -1       401 2.55577E-01
 -1       402 3.90870E-01
 -1       403 5.96559E-01
 -1       404 9.06794E-01
 -1       405 1.36205E+00
 -1       406 2.01123E+00
 -1       407 2.89479E+00
 -1       408 4.01336E+00
 -1       409 5.28305E+00
 -1       410 6.62888E+00
 -1       411 8.22153E+00
 -1       412 9.16727E+00
 -1       413 9.14322E+00
 -1       414 7.89518E+00
 -1       415 5.70349E+00
 -1       416 9.45099E+00
 -1       417 6.24516E+00
 -1       418 5.56674E+00
 -1       419 4.48015E+00
 -1       420 3.35929E+00
 -1       421 2.43208E+00
 -1       422 1.65053E+00
 -1       423 1.08057E+00
 -1       424 6.81158E-01
 -1       425 4.03917E-01
 -1       426 4.00651E+01
 -1       427 1.91817E-01
 -1       428 1.59683E-01
 -1       429 2.77078E-01
 -1       430 2.08001E-01
 -1       431 2.08001E-01
 -1       432 1.97118E-01
 -1       433 1.65720E-01
 -1       434 1.05451E-01
 -1       435 6.94903E-02
 -1       436 7.25469E-02
 -1       437 7.25469E-02
 -1       438 6.42322E-02
 -1       439 5.99756E-02
 -1       440 2.53694E+01
 -1       441 4.00651E+01
 -1       442 9.12729E-01
 -1       443 8.80760E+00
 -1       444 1.51429E+01
 -1       445 2.68098E+01
 -1       446 2.96625E+01
 -1       447 3.42326E+01
 -1       448 3.15859E+01
 -1       449 2.31156E+01
 -1       450 2.11403E+01
 -1       451 1.22558E+01
 -1       452 7.15723E+00
 -1       453 8.30318E+00
 -1       454 1.00573E+01
 -1       455 1.03454E+01
 -1       456 1.02088E+01
 -1       457 9.13909E+00
 -1       458 6.82125E+00
 -1       459 1.00513E+01
 -1       460 1.72025E+01
 -1       461 2.86977E+01
 -1       462 2.78900E+01
 -1       463 1.30662E+01
 -1       464 1.14405E+01
 -1       465 3.42326E+01
 -1       466 4.86306E-01
 -1       467 5.10863E-01
 -1       468 4.30707E-01
 -1       469 4.56684E-01
 -1       470 4.86593E-01
 -1       471 5.11429E-01
 -1       472 5.12421E-01
 -1       473 5.12421E-01
 -1       474 8.19980E-01
 -1       475 1.05605E+01
 -1       476 8.03782E-01
 -1       477 7.03118E-01
 -1       478 5.89620E-01
 -1       479 4.77209E-01
 -1       480 3.78374E-01
 -1       481 3.24517E-01
 -1       482 2.74561E-01
 -1       483 2.27139E-01
 -1       484 1.86271E-01
 -1       485 1.51445E-01
 -1       486 1.20406E-01
 -1       487 9.33002E-02
 -1       488 7.03207E-02
 -1       489 5.06254E-02
 -1       490 4.63448E-02
 -1       491 4.61495E-02
 -1       492 4.66396E-02
 -1       493 4.99331E-02
 -1       494 5.46753E-02
 -1       495 7.14006E-02
 -1       496 9.63377E-02
 -1       497 1.29562E-01
 -1       498 2.14231E-01
 -1       499 3.40340E-01
 -1       500 4.91637E-01
 -1       501 6.88158E-01
 -1       502 9.18127E-01
 -1       503 1.11753E+00
 -1       504 1.24242E+00
 -1       505 1.36393E+00
 -1       506 1.38521E+00
 -1       507 1.32075E+00
 -1       508 1.36462E+00
 -1       509 1.38476E+00
 -1       510 1.30658E+00
 -1       511 1.18759E+00
 -1       512 1.01841E+00
 -1       513 7.99822E-01
 -1       514 5.85839E-01
 -1       515 4.34205E-01
 -1       516 3.01895E-01
 -1       517 1.98491E-01
 -1       518 1.32002E-01
 -1       519 1.00575E-01
 -1       520 7.96872E-01
 -1       521 4.83839E-01
 -1       522 3.86869E-01
 -1       523 3.29907E-01
 -1       524 2.80840E-01
 -1       525 2.33849E-01
 -1       526 1.92275E-01
 -1       527 1.57794E-01
 -1       528 1.27348E-01
 -1       529 9.90485E-02
 -1       530 7.90627E-02
 -1       531 6.16753E-02
 -1       532 6.37389E-02
 -1       533 7.66384E-02
 -1       534 1.26935E-01
 -1       535 1.97242E-01
 -1       536 2.92330E-01
 -1       537 4.30163E-01
 -1       538 6.29763E-01
 -1       539 9.35386E-01
 -1       540 1.43888E+00
 -1       541 2.23051E+00
 -1       542 3.44836E+00
 -1       543 5.14390E+00
 -1       544 7.92768E+00
 -1       545 8.52470E+00
 -1       546 1.01270E+01
 -1       547 4.00651E+01
 -1       548 8.30733E+00
 -1       549 5.88848E+00
 -1       550 3.94875E+00
 -1       551 2.62161E+00
 -1       552 1.70771E+00
 -1       553 1.13584E+00
 -1       554 7.46745E-01
 -1       555 4.56949E-01
 -1       556 1.75796E+01
 -1       557 3.20028E-01
 -1       558 2.78849E-01
 -1       559 2.61409E-01
 -1       560 1.87584E-01
 -1       561 1.37643E-01
 -1       562 1.15022E-01
 -1       563 1.15022E-01
 -1       564 1.05665E-01
 -1       565 6.16707E-02
 -1       566 2.53694E+01
 -1       567 2.52081E+01
 -1       568 5.98303E-01
 -1       569 3.31469E-01
 -1       570 2.09040E+01
 -1       571 2.78900E+01
 -1       572 9.09348E+00
 -1       573 1.88040E+01
 -1       574 2.85187E-01
 -1       575 3.20028E-01
 -1       576 4.57401E-01
 -1       577 6.56345E-01
 -1       578 2.96625E+01
 -1       579 5.44322E+00
 -1       580 1.56941E+01
 -1       581 9.30500E+00
 -1       582 7.86638E+00
 -1       583 4.25873E+00
 -1       584 6.28307E+00
 -1       585 7.83650E+00
 -1       586 6.74769E+00
 -1       587 4.82018E+00
 -1       588 1.03137E+01
 -1       589 1.22201E+01
 -1       590 8.77821E-01
 -1       591 5.10863E-01
 -1       592 1.24887E+01
 -1       593 6.17197E-02
 -1       594 1.49982E+01
 -1       595 1.48769E+01
 -1       596 4.63639E-01
 -1       597 2.41291E+01
 -1       598 3.58591E-01
 -1       599 3.42451E-01
 -1       600 3.60447E-01
 -1       601 3.41785E-01
 -1       602 3.88064E-01
 -1       603 1.32344E-01
 -1       604 5.70004E-01
 -1       605 1.17490E+01
 -1       606 3.97292E-01
 -1       607 3.84273E-01
 -1       608 3.43299E-01
 -1       609 2.93336E-01
 -1       610 2.43085E-01
 -1       611 2.11308E-01
 -1       612 1.77777E-01
 -1       613 1.45261E-01
 -1       614 1.16471E-01
 -1       615 9.14589E-02
 -1       616 6.96657E-02
 -1       617 5.05215E-02
 -1       618 3.36576E-02
 -1       619 3.18586E-02
 -1       620 3.44201E-02
 -1       621 4.44501E-02
 -1       622 5.55231E-02
 -1       623 7.14006E-02
 -1       624 1.01197E-01
 -1       625 1.53684E-01
 -1       626 2.19374E-01
 -1       627 3.40340E-01
 -1       628 4.91637E-01
 -1       629 6.50458E-01
 -1       630 8.15655E-01
 -1       631 9.66814E-01
 -1       632 1.13218E+00
 -1       633 1.21851E+00
 -1       634 1.31167E+00
 -1       635 1.27730E+00
 -1       636 1.19836E+00
 -1       637 1.32523E+00
 -1       638 1.26199E+00
 -1       639 1.17863E+00
 -1       640 1.05744E+00
 -1       641 8.97582E-01
 -1       642 7.34632E-01
 -1       643 5.85839E-01
 -1       644 4.34205E-01
 -1       645 3.01895E-01
 -1       646 2.16312E-01
 -1       647 1.29124E-01
 -1       648 2.97410E-01
 -1       649 3.46720E-01
 -1       650 2.14260E-01
 -1       651 1.80930E-01
 -1       652 1.48662E-01
 -1       653 1.21178E-01
 -1       654 9.57259E-02
 -1       655 7.51398E-02
 -1       656 5.42556E-02
 -1       657 3.87458E-02
 -1       658 4.39481E-02
 -1       659 7.88647E-02
 -1       660 1.33837E-01
 -1       661 2.13731E-01
 -1       662 3.40655E-01
 -1       663 5.32052E-01
 -1       664 8.21397E-01
 -1       665 1.26129E+00
 -1       666 1.93726E+00
 -1       667 2.99233E+00
 -1       668 4.64926E+00
 -1       669 7.38619E+00
 -1       670 1.73723E+01
 -1       671 1.34069E+01
 -1       672 1.84622E+01
 -1       673 3.59787E-01
 -1       674 5.56280E+00
 -1       675 6.85477E+00
 -1       676 2.33568E+00
 -1       677 1.50989E+00
 -1       678 9.52316E-01
 -1       679 1.52159E+01
 -1       680 3.49524E-01
 -1       681 4.05639E-01
 -1       682 1.94793E-01
 -1       683 1.80630E-01
 -1       684 1.56872E-01
 -1       685 1.53227E+01
 -1       686 3.84962E-01
 -1       687 1.03051E+01
 -1       688 8.17619E+00
 -1       689 6.00474E+00
 -1       690 5.93743E+00
 -1       691 2.38877E-01
 -1       692 2.97210E-01
 -1       693 6.61637E+00
 -1       694 3.58689E+00
 -1       695 5.38748E+00
 -1       696 4.96848E+00
 -1       697 3.69768E+00
 -1       698 2.47282E-01
 -1       699 4.98263E+00
 -1       700 1.09368E+01
 -1       701 3.20632E+00
 -1       702 3.93288E-01
 -1       703 3.60447E-01
 -1       704 3.26917E+00
 -1       705 1.74228E+01
 -1       706 3.42517E-01
 -1       707 3.31176E-01
 -1       708 3.59787E-01
 -1       709 3.35074E-01
 -1       710 5.06304E+00
 -1       711 4.08859E-01
 -1       712 3.57924E-01
 -1       713 4.08859E-01
 -1       714 5.41317E-01
 -1       715 1.18767E+01
 -1       716 2.65552E-01
 -1       717 2.54685E-01
 -1       718 2.47973E-01
 -1       719 2.25848E-01
 -1       720 1.96797E-01
 -1       721 1.70004E-01
 -1       722 1.47693E-01
 -1       723 1.23809E-01
 -1       724 1.00113E-01
 -1       725 7.74813E-02
 -1       726 5.61763E-02
 -1       727 3.60757E-02
 -1       728 1.84554E-02
 -1       729 2.20709E-02
 -1       730 3.97328E-02
 -1       731 5.64643E-02
 -1       732 7.65568E-02
 -1       733 1.02138E-01
 -1       734 1.53684E-01
 -1       735 2.19374E-01
 -1       736 3.24156E-01
 -1       737 4.47644E-01
 -1       738 6.33638E-01
 -1       739 8.15655E-01
 -1       740 9.83695E-01
 -1       741 1.15574E+00
 -1       742 1.18879E+00
 -1       743 1.38053E+00
 -1       744 1.49738E+00
 -1       745 1.52962E+00
 -1       746 1.61152E+00
 -1       747 1.44189E+00
 -1       748 1.26568E+00
 -1       749 1.14114E+00
 -1       750 1.07856E+00
 -1       751 8.97582E-01
 -1       752 7.32933E-01
 -1       753 5.49089E-01
 -1       754 3.82146E-01
 -1       755 2.52879E-01
 -1       756 1.25851E-01
 -1       757 1.49664E-01
 -1       758 1.71713E-01
 -1       759 1.02457E-01
 -1       760 8.03521E-02
 -1       761 5.85012E-02
 -1       762 3.74582E-02
 -1       763 4.10293E-02
 -1       764 6.54711E-02
 -1       765 1.13217E-01
 -1       766 1.73724E-01
 -1       767 2.69455E-01
 -1       768 4.02387E-01
 -1       769 5.93557E-01
 -1       770 8.70917E-01
 -1       771 1.28025E+00
 -1       772 1.90799E+00
 -1       773 3.01047E+00
 -1       774 4.76384E+00
 -1       775 1.03163E+01
 -1       776 9.19892E+00
 -1       777 8.50969E+00
 -1       778 2.33702E+00
 -1       779 6.79353E+00
 -1       780 4.08721E+00
 -1       781 1.52148E+00
 -1       782 2.08967E+00
 -1       783 2.53096E-01
 -1       784 1.01543E+00
 -1       785 4.97238E+00
 -1       786 2.82935E-01
 -1       787 2.55351E-01
 -1       788 2.28074E-01
 -1       789 2.16312E-01
 -1       790 3.20632E+00
 -1       791 3.21562E-01
 -1       792 6.06565E-01
 -1       793 9.19892E+00
 -1       794 7.33094E+00
 -1       795 3.69768E+00
 -1       796 4.02319E+00
 -1       797 3.01197E-01
 -1       798 7.25484E+00
 -1       799 2.43407E+00
 -1       800 2.35369E-01
 -1       801 7.81126E+00
 -1       802 6.03802E-01
 -1       803 5.35559E+00
 -1       804 2.88964E-01
 -1       805 2.49484E-01
 -1       806 1.99427E-01
 -1       807 7.75381E+00
 -1       808 2.82158E-01
 -1       809 2.80759E-01
 -1       810 2.88964E-01
 -1       811 1.98637E-01
 -1       812 4.07898E+00
 -1       813 3.06420E+00
 -1       814 2.60218E+00
 -1       815 2.47294E-01
 -1       816 2.88931E-01
 -1       817 4.51121E-01
 -1       818 3.79722E-01
 -1       819 3.90646E+00
 -1       820 4.06285E+00
 -1       821 2.81553E-01
 -1       822 1.74405E-01
 -1       823 1.75048E-01
 -1       824 4.81246E+00
 -1       825 1.53343E-01
 -1       826 1.81924E-01
 -1       827 1.74110E-01
 -1       828 1.57614E-01
 -1       829 1.36834E-01
 -1       830 1.20594E-01
 -1       831 1.02678E-01
 -1       832 8.39402E-02
 -1       833 6.52736E-02
 -1       834 4.69640E-02
 -1       835 3.54318E-02
 -1       836 3.02095E-02
 -1       837 4.00664E-02
 -1       838 5.45014E-02
 -1       839 7.99374E-02
 -1       840 1.07920E-01
 -1       841 1.52209E-01
 -1       842 2.19288E-01
 -1       843 3.24156E-01
 -1       844 4.45165E-01
 -1       845 6.22823E-01
 -1       846 8.09435E-01
 -1       847 9.83695E-01
 -1       848 1.20815E+00
 -1       849 1.44861E+00
 -1       850 1.45465E+00
 -1       851 1.93737E+00
 -1       852 2.94592E+00
 -1       853 3.76574E+00
 -1       854 3.07281E+00
 -1       855 2.25508E+00
 -1       856 2.35895E+00
 -1       857 1.33856E+00
 -1       858 1.07856E+00
 -1       859 8.76627E-01
 -1       860 6.85913E-01
 -1       861 4.91197E-01
 -1       862 3.66131E-01
 -1       863 8.40385E-02
 -1       864 1.03814E-01
 -1       865 1.38447E-01
 -1       866 6.76410E-02
 -1       867 4.97698E-02
 -1       868 5.10582E-02
 -1       869 5.79778E-02
 -1       870 8.43865E-02
 -1       871 1.21912E-01
 -1       872 1.82472E-01
 -1       873 2.55504E-01
 -1       874 3.86930E-01
 -1       875 5.94157E-01
 -1       876 9.02525E-01
 -1       877 1.34907E+00
 -1       878 2.00611E+00
 -1       879 3.39300E+00
 -1       880 5.54563E+00
 -1       881 2.05807E-01
 -1       882 2.88931E-01
 -1       883 2.69809E+00
 -1       884 1.01543E+00
 -1       885 3.87450E-01
 -1       886 1.85299E-01
 -1       887 1.04445E+01
 -1       888 1.81861E-01
 -1       889 4.53846E-01
 -1       890 4.04953E+00
 -1       891 2.91941E+00
 -1       892 6.03795E+00
 -1       893 6.03795E+00
 -1       894 1.52148E+00
 -1       895 4.69711E+00
 -1       896 2.73497E+00
 -1       897 3.07281E+00
 -1       898 2.15124E-01
 -1       899 1.97755E+00
 -1       900 6.05033E+00
 -1       901 2.17888E-01
 -1       902 1.73133E-01
 -1       903 1.21626E-01
 -1       904 1.59052E-01
 -1       905 5.93067E-01
 -1       906 4.79593E+00
 -1       907 9.36833E-01
 -1       908 1.37948E-01
 -1       909 2.43407E+00
 -1       910 2.24328E+00
 -1       911 5.30326E+00
 -1       912 2.99130E-01
 -1       913 2.91941E+00
 -1       914 3.64241E+00
 -1       915 2.69654E+00
 -1       916 2.17888E-01
 -1       917 9.36833E-01
 -1       918 1.36667E+00
 -1       919 1.64721E-01
 -1       920 1.23130E-01
 -1       921 1.35384E-01
 -1       922 1.34290E-01
 -1       923 1.24804E-01
 -1       924 1.10542E-01
 -1       925 9.62350E-02
 -1       926 8.26294E-02
 -1       927 6.79544E-02
 -1       928 5.29063E-02
 -1       929 4.88348E-02
 -1       930 4.58989E-02
 -1       931 4.43457E-02
 -1       932 6.18416E-02
 -1       933 8.23563E-02
 -1       934 1.14080E-01
 -1       935 1.65909E-01
 -1       936 2.30160E-01
 -1       937 3.14871E-01
 -1       938 4.36832E-01
 -1       939 6.22823E-01
 -1       940 8.09435E-01
 -1       941 1.17315E+00
 -1       942 2.11822E+00
 -1       943 1.58216E+00
 -1       944 1.97755E+00
 -1       945 2.94592E+00
 -1       946 2.35895E+00
 -1       947 1.60435E+00
 -1       948 1.06378E+00
 -1       949 8.91121E-01
 -1       950 6.85913E-01
 -1       951 4.87837E-01
 -1       952 5.66277E-02
 -1       953 9.11182E-02
 -1       954 6.72675E-02
 -1       955 5.99432E-02
 -1       956 7.54766E-02
 -1       957 9.87781E-02
 -1       958 1.46589E-01
 -1       959 2.10866E-01
 -1       960 3.03071E-01
 -1       961 4.30390E-01
 -1       962 6.04700E-01
 -1       963 1.00659E+00
 -1       964 1.59072E+00
 -1       965 2.38806E+00
 -1       966 3.39300E+00
 -1       967 2.16619E-01
 -1       968 1.34831E-01
 -1       969 1.11302E-01
 -1       970 5.71453E+00
 -1       971 1.34516E-01
 -1       972 5.66977E-02
 -1       973 2.16619E-01
 -1       974 8.32771E-02
 -1       975 1.41548E-01
 -1       976 1.94956E+00
 -1       977 1.21925E-01
 -1       978 9.66289E-02
 -1       979 1.25390E-01
 -1       980 5.71453E+00
 -1       981 3.74043E+00
 -1       982 3.45497E+00
 -1       983 1.53570E-01
 -1       984 2.24328E+00
 -1       985 2.11822E+00
 -1       986 2.60276E+00
 -1       987 5.05366E-01
 -1       988 2.46412E+00
 -1       989 8.31962E-01
 -1       990 8.98850E-02
 -1       991 1.01613E-01
 -1       992 1.02709E-01
 -1       993 9.68293E-02
 -1       994 8.67970E-02
 -1       995 7.45073E-02
 -1       996 6.47239E-02
 -1       997 6.08786E-02
 -1       998 5.72607E-02
 -1       999 5.67872E-02
 -1      1000 5.77055E-02
 -1      1001 6.20360E-02
 -1      1002 8.56256E-02
 -1      1003 1.18020E-01
 -1      1004 1.59673E-01
 -1      1005 2.38124E-01
 -1      1006 3.50880E-01
 -1      1007 4.85723E-01
 -1      1008 6.44477E-01
 -1      1009 8.71807E-01
 -1      1010 1.17315E+00
 -1      1011 2.29090E+00
 -1      1012 1.47833E+00
 -1      1013 1.21688E+00
 -1      1014 8.97830E-02
 -1      1015 7.24826E-02
 -1      1016 1.58983E-01
 -1      1017 2.10866E-01
 -1      1018 3.25088E-01
 -1      1019 5.05502E-01
 -1      1020 7.60838E-01
 -1      1021 1.09380E+00
 -1      1022 1.66876E+00
 -1      1023 3.83917E+00
 -1      1024 3.51783E+00
 -1      1025 1.17197E-01
 -1      1026 5.97034E-02
 -1      1027 7.50900E-02
 -1      1028 2.72422E+00
 -1      1029 9.50707E-01
 -1      1030 8.70811E-02
 -1      1031 1.38172E+00
 -1      1032 1.00582E-01
 -1      1033 1.65278E-01
 -1      1034 9.71820E-02
 -1      1035 6.45473E-02
 -1      1036 1.02307E-01
 -1      1037 2.32862E+00
 -1      1038 9.68722E-02
 -1      1039 2.32862E+00
 -1      1040 1.65278E-01
 -1      1041 2.39059E+00
 -1      1042 5.93318E-02
 -1      1043 8.89778E-02
 -1      1044 6.14346E-02
 -1      1045 2.14523E+00
 -1      1046 2.80495E+00
 -1      1047 1.00750E-01
 -1      1048 8.72103E-02
 -1      1049 7.51233E-02
 -1      1050 7.74599E-02
 -1      1051 7.64599E-02
 -1      1052 7.26680E-02
 -1      1053 6.90571E-02
 -1      1054 6.47239E-02
 -1      1055 6.33400E-02
 -1      1056 6.33400E-02
 -1      1057 6.95844E-02
 -1      1058 8.72103E-02
 -1      1059 1.18246E-01
 -1      1060 1.63150E-01
 -1      1061 2.32214E-01
 -1      1062 3.29482E-01
 -1      1063 4.57588E-01
 -1      1064 6.11703E-01
 -1      1065 8.06350E-01
 -1      1066 1.13439E+00
 -1      1067 1.56839E+00
 -1      1068 1.04904E-01
 -1      1069 1.11928E+00
 -1      1070 7.74599E-02
 -1      1071 3.29482E-01
 -1      1072 2.32214E-01
 -1      1073 6.11703E-01
 -1      1074 8.06350E-01
 -1      1075 1.22747E+00
 -1      1076 7.74599E-02
 -1      1077 1.91721E+00
 -1      1078 1.04904E-01
 -1      1079 7.64599E-02
 -1      1080 7.40356E-02
 -1      1081 4.57588E-01
 -1      1082 5.34895E-02
 -1      1083 6.30699E-02
 -1      1084 1.64737E+00
 -1      1085 2.51385E+00
 -1      1086 1.67028E+00
 -1      1087 6.35450E-02
 -1      1088 1.18246E-01
 -1      1089 6.95844E-02
 -1      1090 1.63150E-01
 -1      1091 6.33400E-02
 -1      1092 7.10423E-02
 -1      1093 6.54988E-02
 -1      1094 6.09453E-02
 -1      1095 1.31452E+01
 -1      1096 8.40515E+00
 -1      1097 2.74627E+00
 -1      1098 1.55875E+00
 -1      1099 1.16673E+00
 -1      1100 9.71474E-01
 -1      1101 8.53929E-01
 -1      1102 7.80659E-01
 -1      1103 7.53330E-01
 -1      1104 7.81840E-01
 -1      1105 8.53301E-01
 -1      1106 9.71929E-01
 -1      1107 1.17217E+00
 -1      1108 1.57127E+00
 -1      1109 2.77685E+00
 -1      1110 8.50675E+00
 -1      1111 1.33053E+01
 -1      1112 1.31452E+01
 -1      1113 8.73189E+00
 -1      1114 3.83062E+00
 -1      1115 2.72799E+00
 -1      1116 1.73904E+00
 -1      1117 1.19033E+00
 -1      1118 8.96827E-01
 -1      1119 6.88286E-01
 -1      1120 5.29139E-01
 -1      1121 4.05575E-01
 -1      1122 3.12633E-01
 -1      1123 2.42297E-01
 -1      1124 1.86353E-01
 -1      1125 1.42639E-01
 -1      1126 1.09031E-01
 -1      1127 8.82779E-02
 -1      1128 7.82950E-02
 -1      1129 7.26369E-02
 -1      1130 7.11727E-02
 -1      1131 7.38604E-02
 -1      1132 8.72579E-02
 -1      1133 1.09384E-01
 -1      1134 1.27978E-01
 -1      1135 1.54448E-01
 -1      1136 1.98986E-01
 -1      1137 2.66016E-01
 -1      1138 3.89917E-01
 -1      1139 5.62745E-01
 -1      1140 7.73681E-01
 -1      1141 1.09439E+00
 -1      1142 1.53471E+00
 -1      1143 1.98790E+00
 -1      1144 2.32132E+00
 -1      1145 2.44182E+00
 -1      1146 2.45125E+00
 -1      1147 2.46069E+00
 -1      1148 2.39270E+00
 -1      1149 2.14381E+00
 -1      1150 1.72308E+00
 -1      1151 1.27068E+00
 -1      1152 8.81677E-01
 -1      1153 6.13681E-01
 -1      1154 4.33137E-01
 -1      1155 2.68672E-01
 -1      1156 1.57627E-01
 -1      1157 9.75032E-02
 -1      1158 6.40003E-02
 -1      1159 4.99708E-02
 -1      1160 4.18594E-02
 -1      1161 2.43408E-02
 -1      1162 1.33053E+01
 -1      1163 8.79628E+00
 -1      1164 3.84366E+00
 -1      1165 2.77900E+00
 -1      1166 1.77556E+00
 -1      1167 1.21131E+00
 -1      1168 9.08586E-01
 -1      1169 6.94770E-01
 -1      1170 5.36876E-01
 -1      1171 4.16283E-01
 -1      1172 3.20931E-01
 -1      1173 2.49468E-01
 -1      1174 1.92951E-01
 -1      1175 1.49405E-01
 -1      1176 1.16997E-01
 -1      1177 9.23066E-02
 -1      1178 8.16951E-02
 -1      1179 9.07078E-02
 -1      1180 1.14927E-01
 -1      1181 1.56225E-01
 -1      1182 2.21963E-01
 -1      1183 3.23108E-01
 -1      1184 4.60008E-01
 -1      1185 6.73665E-01
 -1      1186 9.89209E-01
 -1      1187 1.39441E+00
 -1      1188 1.93733E+00
 -1      1189 2.74696E+00
 -1      1190 3.83222E+00
 -1      1191 5.07574E+00
 -1      1192 5.74876E+00
 -1      1193 5.76931E+00
 -1      1194 6.58950E+00
 -1      1195 1.17228E+01
 -1      1196 1.64882E+01
 -1      1197 1.69405E+01
 -1      1198 1.38297E+01
 -1      1199 7.97537E+00
 -1      1200 5.62569E+00
 -1      1201 6.01962E+00
 -1      1202 5.63436E+00
 -1      1203 4.56188E+00
 -1      1204 3.33376E+00
 -1      1205 2.33589E+00
 -1      1206 1.68567E+00
 -1      1207 1.28636E+00
 -1      1208 9.23449E-01
 -1      1209 6.49577E-01
 -1      1210 4.62191E-01
 -1      1211 3.27387E-01
 -1      1212 1.59838E-01
 -1      1213 9.74348E-02
 -1      1214 1.10875E-01
 -1      1215 6.82312E-02
 -1      1216 4.98100E-02
 -1      1217 5.71209E-02
 -1      1218 6.76001E-02
 -1      1219 6.77373E-02
 -1      1220 6.09275E-02
 -1      1221 4.30291E-02
 -1      1222 2.16352E-02
 -1      1223 1.61269E-02
 -1      1224 2.23373E-02
 -1      1225 2.37509E-02
 -1      1226 2.28255E-02
 -1      1227 2.19752E-02
 -1      1228 2.20504E-02
 -1      1229 1.59475E-02
 -1      1230 2.43560E+01
 -1      1231 2.52979E+01
 -1      1232 2.96974E+01
 -1      1233 3.37042E+01
 -1      1234 2.45779E+01
 -1      1235 1.48555E+01
 -1      1236 1.42596E+01
 -1      1237 1.40141E+01
 -1      1238 1.37261E+01
 -1      1239 1.58494E+01
 -1      1240 3.17867E+01
 -1      1241 4.55582E+01
 -1      1242 3.52100E+01
 -1      1243 2.55249E+01
 -1      1244 2.61880E+01
 -1      1245 2.70566E+01
 -1      1246 2.98373E+01
 -1      1247 3.17493E+01
 -1      1248 2.23090E+01
 -1      1249 1.22986E+01
 -1      1250 1.17435E+01
 -1      1251 1.19966E+01
 -1      1252 1.22349E+01
 -1      1253 1.20868E+01
 -1      1254 1.17844E+01
 -1      1255 1.67039E+01
 -1      1256 3.48640E+01
 -1      1257 4.79504E+01
 -1      1258 3.59166E+01
 -1      1259 2.38449E+01
 -1      1260 1.31452E+01
 -1      1261 4.87253E+00
 -1      1262 9.61259E+00
 -1      1263 2.06450E+00
 -1      1264 2.98331E+00
 -1      1265 4.19076E+00
 -1      1266 1.39786E+00
 -1      1267 1.66657E+00
 -1      1268 1.90361E+00
 -1      1269 1.10067E+00
 -1      1270 1.22399E+00
 -1      1271 1.33180E+00
 -1      1272 9.35564E-01
 -1      1273 1.00751E+00
 -1      1274 1.06476E+00
 -1      1275 8.36077E-01
 -1      1276 8.81681E-01
 -1      1277 9.17712E-01
 -1      1278 7.74165E-01
 -1      1279 8.01832E-01
 -1      1280 8.29584E-01
 -1      1281 7.53668E-01
 -1      1282 7.53330E-01
 -1      1283 7.74503E-01
 -1      1284 8.03227E-01
 -1      1285 7.75055E-01
 -1      1286 7.75055E-01
 -1      1287 8.79758E-01
 -1      1288 8.36469E-01
 -1      1289 8.29684E-01
 -1      1290 1.01116E+00
 -1      1291 9.35823E-01
 -1      1292 9.18991E-01
 -1      1293 1.22972E+00
 -1      1294 1.10482E+00
 -1      1295 1.06871E+00
 -1      1296 1.68023E+00
 -1      1297 1.40602E+00
 -1      1298 1.33867E+00
 -1      1299 3.01657E+00
 -1      1300 2.08519E+00
 -1      1301 1.91995E+00
 -1      1302 9.75050E+00
 -1      1303 4.95198E+00
 -1      1304 4.26032E+00
 -1      1305 1.33053E+01
 -1      1306 8.73189E+00
 -1      1307 4.31856E+00
 -1      1308 3.83062E+00
 -1      1309 3.34268E+00
 -1      1310 3.83062E+00
 -1      1311 2.72799E+00
 -1      1312 2.11331E+00
 -1      1313 2.72799E+00
 -1      1314 1.78108E+00
 -1      1315 1.40681E+00
 -1      1316 1.78108E+00
 -1      1317 1.19602E+00
 -1      1318 1.02158E+00
 -1      1319 1.23806E+00
 -1      1320 8.96827E-01
 -1      1321 7.77771E-01
 -1      1322 9.02524E-01
 -1      1323 6.88286E-01
 -1      1324 5.98801E-01
 -1      1325 6.88286E-01
 -1      1326 5.34933E-01
 -1      1327 4.65271E-01
 -1      1328 5.34933E-01
 -1      1329 4.15566E-01
 -1      1330 3.61663E-01
 -1      1331 4.21359E-01
 -1      1332 3.22010E-01
 -1      1333 2.82972E-01
 -1      1334 3.32001E-01
 -1      1335 2.54649E-01
 -1      1336 2.23350E-01
 -1      1337 2.64026E-01
 -1      1338 1.99207E-01
 -1      1339 1.74562E-01
 -1      1340 2.11559E-01
 -1      1341 1.54443E-01
 -1      1342 1.35373E-01
 -1      1343 1.67296E-01
 -1      1344 1.18867E-01
 -1      1345 1.04329E-01
 -1      1346 1.30671E-01
 -1      1347 9.08945E-02
 -1      1348 8.46789E-02
 -1      1349 1.00730E-01
 -1      1350 7.82950E-02
 -1      1351 7.45276E-02
 -1      1352 8.09115E-02
 -1      1353 7.26369E-02
 -1      1354 7.07462E-02
 -1      1355 7.26369E-02
 -1      1356 7.04529E-02
 -1      1357 7.08794E-02
 -1      1358 7.04529E-02
 -1      1359 7.15992E-02
 -1      1360 7.38604E-02
 -1      1361 7.08794E-02
 -1      1362 7.61216E-02
 -1      1363 8.72579E-02
 -1      1364 7.38604E-02
 -1      1365 9.83941E-02
 -1      1366 1.09384E-01
 -1      1367 8.72579E-02
 -1      1368 1.20374E-01
 -1      1369 1.27978E-01
 -1      1370 1.09384E-01
 -1      1371 1.35582E-01
 -1      1372 1.54448E-01
 -1      1373 1.27978E-01
 -1      1374 1.73314E-01
 -1      1375 1.98986E-01
 -1      1376 1.54448E-01
 -1      1377 2.24657E-01
 -1      1378 2.66016E-01
 -1      1379 1.98986E-01
 -1      1380 3.15718E-01
 -1      1381 3.98260E-01
 -1      1382 2.74359E-01
 -1      1383 5.00414E-01
 -1      1384 5.90700E-01
 -1      1385 4.26214E-01
 -1      1386 7.12974E-01
 -1      1387 8.33624E-01
 -1      1388 6.50642E-01
 -1      1389 9.65321E-01
 -1      1390 1.16538E+00
 -1      1391 9.04613E-01
 -1      1392 1.33347E+00
 -1      1393 1.57374E+00
 -1      1394 1.20440E+00
 -1      1395 1.77497E+00
 -1      1396 1.98790E+00
 -1      1397 1.57374E+00
 -1      1398 2.20082E+00
 -1      1399 2.32132E+00
 -1      1400 1.98790E+00
 -1      1401 2.44182E+00
 -1      1402 2.44182E+00
 -1      1403 2.32132E+00
 -1      1404 2.42873E+00
 -1      1405 2.43816E+00
 -1      1406 2.42873E+00
 -1      1407 2.46069E+00
 -1      1408 2.46069E+00
 -1      1409 2.43816E+00
 -1      1410 2.39270E+00
 -1      1411 2.32472E+00
 -1      1412 2.39270E+00
 -1      1413 2.14381E+00
 -1      1414 1.96291E+00
 -1      1415 2.14381E+00
 -1      1416 1.74296E+00
 -1      1417 1.50313E+00
 -1      1418 1.74296E+00
 -1      1419 1.32529E+00
 -1      1420 1.11272E+00
 -1      1421 1.34516E+00
 -1      1422 9.74728E-01
 -1      1423 7.98295E-01
 -1      1424 1.02933E+00
 -1      1425 6.72727E-01
 -1      1426 5.81164E-01
 -1      1427 7.65778E-01
 -1      1428 4.72672E-01
 -1      1429 3.83691E-01
 -1      1430 5.31718E-01
 -1      1431 2.99049E-01
 -1      1432 2.23566E-01
 -1      1433 3.38584E-01
 -1      1434 1.63802E-01
 -1      1435 1.28240E-01
 -1      1436 1.94179E-01
 -1      1437 9.75032E-02
 -1      1438 7.29408E-02
 -1      1439 1.03678E-01
 -1      1440 6.40003E-02
 -1      1441 5.50598E-02
 -1      1442 6.40003E-02
 -1      1443 4.99708E-02
 -1      1444 4.48818E-02
 -1      1445 4.99708E-02
 -1      1446 4.18594E-02
 -1      1447 3.88371E-02
 -1      1448 4.18594E-02
 -1      1449 3.04438E-02
 -1      1450 3.04438E-02
 -1      1451 4.28729E+00
 -1      1452 8.79628E+00
 -1      1453 3.40003E+00
 -1      1454 3.84366E+00
 -1      1455 3.84366E+00
 -1      1456 2.15797E+00
 -1      1457 2.77900E+00
 -1      1458 2.77900E+00
 -1      1459 1.43090E+00
 -1      1460 1.81331E+00
 -1      1461 1.81331E+00
 -1      1462 1.03694E+00
 -1      1463 1.21878E+00
 -1      1464 1.25653E+00
 -1      1465 7.87702E-01
 -1      1466 9.08586E-01
 -1      1467 9.16058E-01
 -1      1468 6.01839E-01
 -1      1469 6.94770E-01
 -1      1470 6.94770E-01
 -1      1471 4.76931E-01
 -1      1472 5.41894E-01
 -1      1473 5.41894E-01
 -1      1474 3.70851E-01
 -1      1475 4.26482E-01
 -1      1476 4.31500E-01
 -1      1477 2.90274E-01
 -1      1478 3.29995E-01
 -1      1479 3.40195E-01
 -1      1480 2.30085E-01
 -1      1481 2.61826E-01
 -1      1482 2.70891E-01
 -1      1483 1.81169E-01
 -1      1484 2.05945E-01
 -1      1485 2.18303E-01
 -1      1486 1.42495E-01
 -1      1487 1.61266E-01
 -1      1488 1.74259E-01
 -1      1489 1.12856E-01
 -1      1490 1.26494E-01
 -1      1491 1.38354E-01
 -1      1492 8.77647E-02
 -1      1493 9.88180E-02
 -1      1494 1.08314E-01
 -1      1495 8.03331E-02
 -1      1496 7.98913E-02
 -1      1497 8.64027E-02
 -1      1498 9.25466E-02
 -1      1499 8.39758E-02
 -1      1500 8.21720E-02
 -1      1501 1.19606E-01
 -1      1502 1.03958E-01
 -1      1503 9.72257E-02
 -1      1504 1.63767E-01
 -1      1505 1.38118E-01
 -1      1506 1.27148E-01
 -1      1507 2.32381E-01
 -1      1508 1.92293E-01
 -1      1509 1.74185E-01
 -1      1510 3.36223E-01
 -1      1511 2.75166E-01
 -1      1512 2.45496E-01
 -1      1513 4.89425E-01
 -1      1514 4.13582E-01
 -1      1515 3.65640E-01
 -1      1516 7.54024E-01
 -1      1517 6.16210E-01
 -1      1518 5.69784E-01
 -1      1519 1.12597E+00
 -1      1520 9.48240E-01
 -1      1521 8.90784E-01
 -1      1522 1.63548E+00
 -1      1523 1.40801E+00
 -1      1524 1.36704E+00
 -1      1525 2.33322E+00
 -1      1526 2.01778E+00
 -1      1527 2.03137E+00
 -1      1528 3.28904E+00
 -1      1529 2.79485E+00
 -1      1530 2.87530E+00
 -1      1531 4.33181E+00
 -1      1532 3.74074E+00
 -1      1533 3.78863E+00
 -1      1534 5.26411E+00
 -1      1535 4.61165E+00
 -1      1536 4.52018E+00
 -1      1537 5.74876E+00
 -1      1538 5.72820E+00
 -1      1539 5.26411E+00
 -1      1540 6.10068E+00
 -1      1541 6.10068E+00
 -1      1542 6.08013E+00
 -1      1543 7.28428E+00
 -1      1544 6.46409E+00
 -1      1545 6.79546E+00
 -1      1546 1.19230E+01
 -1      1547 7.60989E+00
 -1      1548 7.48448E+00
 -1      1549 1.64882E+01
 -1      1550 1.60359E+01
 -1      1551 1.19230E+01
 -1      1552 1.69405E+01
 -1      1553 1.69405E+01
 -1      1554 1.64882E+01
 -1      1555 1.08653E+01
 -1      1556 1.39761E+01
 -1      1557 1.39761E+01
 -1      1558 5.18910E+00
 -1      1559 7.93270E+00
 -1      1560 8.07906E+00
 -1      1561 5.67127E+00
 -1      1562 5.27735E+00
 -1      1563 5.23468E+00
 -1      1564 6.01962E+00
 -1      1565 6.01962E+00
 -1      1566 5.67127E+00
 -1      1567 5.24910E+00
 -1      1568 5.63436E+00
 -1      1569 5.63436E+00
 -1      1570 4.07222E+00
 -1      1571 4.75944E+00
 -1      1572 4.75944E+00
 -1      1573 3.09075E+00
 -1      1574 3.63165E+00
 -1      1575 3.82922E+00
 -1      1576 2.21834E+00
 -1      1577 2.67531E+00
 -1      1578 2.97320E+00
 -1      1579 1.69069E+00
 -1      1580 1.88394E+00
 -1      1581 2.22336E+00
 -1      1582 1.17901E+00
 -1      1583 1.38508E+00
 -1      1584 1.58334E+00
 -1      1585 7.95784E-01
 -1      1586 9.52622E-01
 -1      1587 1.05134E+00
 -1      1588 5.41521E-01
 -1      1589 6.58555E-01
 -1      1590 6.87728E-01
 -1      1591 3.91839E-01
 -1      1592 4.62191E-01
 -1      1593 4.71169E-01
 -1      1594 2.62935E-01
 -1      1595 3.27387E-01
 -1      1596 3.27387E-01
 -1      1597 2.00532E-01
 -1      1598 1.12238E-01
 -1      1599 1.39491E-01
 -1      1600 9.68476E-02
 -1      1601 1.12238E-01
 -1      1602 1.40854E-01
 -1      1603 6.69704E-02
 -1      1604 7.00016E-02
 -1      1605 1.14008E-01
 -1      1606 9.67672E-02
 -1      1607 8.64251E-02
 -1      1608 1.06617E-01
 -1      1609 1.00065E-01
 -1      1610 9.99283E-02
 -1      1611 1.29233E-01
 -1      1612 1.00065E-01
 -1      1613 1.00065E-01
 -1      1614 1.32394E-01
 -1      1615 8.95091E-02
 -1      1616 9.63189E-02
 -1      1617 1.28647E-01
 -1      1618 6.15645E-02
 -1      1619 7.26532E-02
 -1      1620 1.08045E-01
 -1      1621 2.95872E-02
 -1      1622 3.98923E-02
 -1      1623 6.95164E-02
 -1      1624 2.97196E-02
 -1      1625 2.49229E-02
 -1      1626 4.31799E-02
 -1      1627 3.46206E-02
 -1      1628 3.32069E-02
 -1      1629 4.20029E-02
 -1      1630 3.46206E-02
 -1      1631 3.46206E-02
 -1      1632 4.54902E-02
 -1      1633 3.32916E-02
 -1      1634 3.42170E-02
 -1      1635 4.50866E-02
 -1      1636 2.93773E-02
 -1      1637 2.93021E-02
 -1      1638 4.06936E-02
 -1      1639 2.90487E-02
 -1      1640 2.90487E-02
 -1      1641 3.63755E-02
 -1      1642 3.74420E-02
 -1      1643 2.82029E+01
 -1      1644 2.76538E+01
 -1      1645 2.61818E+01
 -1      1646 2.57891E+01
 -1      1647 3.26095E+01
 -1      1648 2.86026E+01
 -1      1649 3.37042E+01
 -1      1650 3.37042E+01
 -1      1651 1.54515E+01
 -1      1652 2.45779E+01
 -1      1653 1.36590E+01
 -1      1654 1.42549E+01
 -1      1655 1.54130E+01
 -1      1656 1.54130E+01
 -1      1657 1.51675E+01
 -1      1658 1.54130E+01
 -1      1659 1.46608E+01
 -1      1660 1.47033E+01
 -1      1661 1.51734E+01
 -1      1662 1.30076E+01
 -1      1663 3.20757E+01
 -1      1664 1.83043E+01
 -1      1665 4.55582E+01
 -1      1666 4.55582E+01
 -1      1667 3.19495E+01
 -1      1668 4.22976E+01
 -1      1669 2.74605E+01
 -1      1670 2.67974E+01
 -1      1671 3.02103E+01
 -1      1672 3.02103E+01
 -1      1673 2.65632E+01
 -1      1674 2.56946E+01
 -1      1675 3.15812E+01
 -1      1676 2.96692E+01
 -1      1677 3.17493E+01
 -1      1678 3.17493E+01
 -1      1679 1.28686E+01
 -1      1680 2.23090E+01
 -1      1681 1.14400E+01
 -1      1682 1.20099E+01
 -1      1683 1.17435E+01
 -1      1684 1.17287E+01
 -1      1685 1.19966E+01
 -1      1686 1.17584E+01
 -1      1687 1.22349E+01
 -1      1688 1.22349E+01
 -1      1689 1.19387E+01
 -1      1690 1.20868E+01
 -1      1691 1.16302E+01
 -1      1692 1.17844E+01
 -1      1693 1.64766E+01
 -1      1694 1.14028E+01
 -1      1695 3.57155E+01
 -1      1696 2.26292E+01
 -1      1697 4.79504E+01
 -1      1698 4.79504E+01
 -1      1699 2.62902E+01
 -1      1700 3.83240E+01
 -1      1701 2.76538E+01
 -1      1702 2.76917E+01
 -1      1703 9.75050E+00
 -1      1704 3.26095E+01
 -1      1705 2.00532E-01
 -1      1706 2.90868E+01
 -1      1707 2.90938E+01
 -1      1708 3.15006E+01
 -1      1709 2.45779E+01
 -1      1710 1.42549E+01
 -1      1711 1.48124E+01
 -1      1712 1.65664E+01
 -1      1713 1.61022E+01
 -1      1714 1.39848E+01
 -1      1715 1.54624E+01
 -1      1716 3.20757E+01
 -1      1717 4.22976E+01
 -1      1718 3.38850E+01
 -1      1719 3.14828E+01
 -1      1720 2.97168E+01
 -1      1721 2.83071E+01
 -1      1722 3.15812E+01
 -1      1723 2.23090E+01
 -1      1724 1.20099E+01
 -1      1725 1.14400E+01
 -1      1726 1.17435E+01
 -1      1727 1.19966E+01
 -1      1728 1.20868E+01
 -1      1729 1.17844E+01
 -1      1730 1.14028E+01
 -1      1731 1.73281E+01
 -1      1732 3.57155E+01
 -1      1733 3.83240E+01
 -1      1734 3.00991E+01
 -1      1735 9.61259E+00
 -1      1736 1.28822E+00
 -1      1737 1.68616E+00
 -1      1738 2.39110E+00
 -1      1739 4.28032E+00
 -1      1740 1.77572E+00
 -1      1741 8.80067E-01
 -1      1742 9.73235E-01
 -1      1743 7.79265E-01
 -1      1744 8.33148E-01
 -1      1745 7.41620E-01
 -1      1746 7.13433E-01
 -1      1747 7.47679E-01
 -1      1748 6.63114E-01
 -1      1749 6.70448E-01
 -1      1750 6.91283E-01
 -1      1751 6.09378E-01
 -1      1752 6.92751E-01
 -1      1753 6.71365E-01
 -1      1754 5.88145E-01
 -1      1755 7.47635E-01
 -1      1756 7.14393E-01
 -1      1757 6.10703E-01
 -1      1758 8.36752E-01
 -1      1759 7.80687E-01
 -1      1760 6.65397E-01
 -1      1761 9.77596E-01
 -1      1762 8.83938E-01
 -1      1763 7.45634E-01
 -1      1764 1.21814E+00
 -1      1765 1.04184E+00
 -1      1766 8.57066E-01
 -1      1767 1.70542E+00
 -1      1768 1.30046E+00
 -1      1769 1.00362E+00
 -1      1770 4.33953E+00
 -1      1771 2.40412E+00
 -1      1772 1.78463E+00
 -1      1773 2.76174E+01
 -1      1774 2.65226E+01
 -1      1775 5.19927E+00
 -1      1776 5.24151E+00
 -1      1777 2.53671E+00
 -1      1778 1.92202E+00
 -1      1779 1.69102E+00
 -1      1780 1.35880E+00
 -1      1781 1.49974E+00
 -1      1782 1.17873E+00
 -1      1783 9.67944E-01
 -1      1784 1.08868E+00
 -1      1785 8.42419E-01
 -1      1786 7.17666E-01
 -1      1787 7.83086E-01
 -1      1788 6.59174E-01
 -1      1789 5.69689E-01
 -1      1790 5.99069E-01
 -1      1791 5.21409E-01
 -1      1792 4.57541E-01
 -1      1793 4.92296E-01
 -1      1794 4.15032E-01
 -1      1795 3.65326E-01
 -1      1796 4.01508E-01
 -1      1797 3.32014E-01
 -1      1798 2.92362E-01
 -1      1799 3.25687E-01
 -1      1800 2.64717E-01
 -1      1801 2.36394E-01
 -1      1802 2.64730E-01
 -1      1803 2.12518E-01
 -1      1804 1.88374E-01
 -1      1805 2.13209E-01
 -1      1806 1.69160E-01
 -1      1807 1.49040E-01
 -1      1808 1.70118E-01
 -1      1809 1.33614E-01
 -1      1810 1.17108E-01
 -1      1811 1.35478E-01
 -1      1812 1.03732E-01
 -1      1813 9.02978E-02
 -1      1814 1.06676E-01
 -1      1815 7.88081E-02
 -1      1816 7.24242E-02
 -1      1817 8.18105E-02
 -1      1818 6.82768E-02
 -1      1819 6.63862E-02
 -1      1820 6.61734E-02
 -1      1821 6.52551E-02
 -1      1822 6.49618E-02
 -1      1823 6.08950E-02
 -1      1824 6.46006E-02
 -1      1825 6.53204E-02
 -1      1826 5.94028E-02
 -1      1827 6.51421E-02
 -1      1828 6.74033E-02
 -1      1829 5.88634E-02
 -1      1830 7.20723E-02
 -1      1831 8.32085E-02
 -1      1832 6.33540E-02
 -1      1833 8.73658E-02
 -1      1834 9.83559E-02
 -1      1835 7.21802E-02
 -1      1836 9.78157E-02
 -1      1837 1.05419E-01
 -1      1838 7.57973E-02
 -1      1839 1.03318E-01
 -1      1840 1.22185E-01
 -1      1841 7.31561E-02
 -1      1842 1.57704E-01
 -1      1843 1.83375E-01
 -1      1844 1.06574E-01
 -1      1845 2.45259E-01
 -1      1846 2.94961E-01
 -1      1847 2.03978E-01
 -1      1848 3.75234E-01
 -1      1849 4.77388E-01
 -1      1850 3.46135E-01
 -1      1851 5.72893E-01
 -1      1852 6.95167E-01
 -1      1853 5.21913E-01
 -1      1854 8.05640E-01
 -1      1855 9.37337E-01
 -1      1856 7.27891E-01
 -1      1857 1.06894E+00
 -1      1858 1.23703E+00
 -1      1859 9.69968E-01
 -1      1860 1.34898E+00
 -1      1861 1.55022E+00
 -1      1862 1.21351E+00
 -1      1863 1.68558E+00
 -1      1864 1.89850E+00
 -1      1865 1.46082E+00
 -1      1866 1.98226E+00
 -1      1867 2.10276E+00
 -1      1868 1.67995E+00
 -1      1869 2.11530E+00
 -1      1870 2.10221E+00
 -1      1871 1.77625E+00
 -1      1872 2.08369E+00
 -1      1873 2.10622E+00
 -1      1874 1.77027E+00
 -1      1875 2.12489E+00
 -1      1876 2.05691E+00
 -1      1877 1.77042E+00
 -1      1878 2.00218E+00
 -1      1879 1.82127E+00
 -1      1880 1.73437E+00
 -1      1881 1.70431E+00
 -1      1882 1.48435E+00
 -1      1883 1.56267E+00
 -1      1884 1.36557E+00
 -1      1885 1.18772E+00
 -1      1886 1.32691E+00
 -1      1887 1.06308E+00
 -1      1888 9.25090E-01
 -1      1889 1.08348E+00
 -1      1890 8.04793E-01
 -1      1891 6.79225E-01
 -1      1892 8.38537E-01
 -1      1893 5.81848E-01
 -1      1894 4.73356E-01
 -1      1895 6.20863E-01
 -1      1896 3.88880E-01
 -1      1897 3.04239E-01
 -1      1898 4.39010E-01
 -1      1899 2.37366E-01
 -1      1900 1.77602E-01
 -1      1901 2.87662E-01
 -1      1902 1.33209E-01
 -1      1903 1.02472E-01
 -1      1904 1.76396E-01
 -1      1905 8.04067E-02
 -1      1906 7.14662E-02
 -1      1907 1.09938E-01
 -1      1908 5.83897E-02
 -1      1909 5.33007E-02
 -1      1910 7.47962E-02
 -1      1911 4.91619E-02
 -1      1912 4.61395E-02
 -1      1913 4.47445E-02
 -1      1914 5.75808E-02
 -1      1915 1.37733E+00
 -1      1916 1.72199E+00
 -1      1917 1.94698E+00
 -1      1918 2.56801E+00
 -1      1919 1.51100E+00
 -1      1920 9.83576E-01
 -1      1921 1.19570E+00
 -1      1922 1.10437E+00
 -1      1923 7.27982E-01
 -1      1924 8.56338E-01
 -1      1925 7.95501E-01
 -1      1926 5.74309E-01
 -1      1927 6.67241E-01
 -1      1928 6.07521E-01
 -1      1929 4.67813E-01
 -1      1930 5.27758E-01
 -1      1931 5.00229E-01
 -1      1932 3.74130E-01
 -1      1933 4.24579E-01
 -1      1934 4.10444E-01
 -1      1935 2.99339E-01
 -1      1936 3.40195E-01
 -1      1937 3.33274E-01
 -1      1938 2.43041E-01
 -1      1939 2.71489E-01
 -1      1940 2.71489E-01
 -1      1941 1.95034E-01
 -1      1942 2.19175E-01
 -1      1943 2.19773E-01
 -1      1944 1.56075E-01
 -1      1945 1.75978E-01
 -1      1946 1.76850E-01
 -1      1947 1.24850E-01
 -1      1948 1.40852E-01
 -1      1949 1.42571E-01
 -1      1950 9.66623E-02
 -1      1951 1.10701E-01
 -1      1952 1.13198E-01
 -1      1953 7.87960E-02
 -1      1954 8.66694E-02
 -1      1955 8.90556E-02
 -1      1956 7.95245E-02
 -1      1957 7.58818E-02
 -1      1958 7.61485E-02
 -1      1959 9.72257E-02
 -1      1960 8.58147E-02
 -1      1961 7.95245E-02
 -1      1962 1.27148E-01
 -1      1963 1.08637E-01
 -1      1964 9.72257E-02
 -1      1965 1.81956E-01
 -1      1966 1.53431E-01
 -1      1967 1.34919E-01
 -1      1968 2.71929E-01
 -1      1969 2.29144E-01
 -1      1970 2.08389E-01
 -1      1971 4.16935E-01
 -1      1972 3.39576E-01
 -1      1973 3.23224E-01
 -1      1974 6.46564E-01
 -1      1975 5.19780E-01
 -1      1976 4.93715E-01
 -1      1977 9.95897E-01
 -1      1978 8.01681E-01
 -1      1979 7.51677E-01
 -1      1980 1.50556E+00
 -1      1981 1.22352E+00
 -1      1982 1.13442E+00
 -1      1983 2.21245E+00
 -1      1984 1.83015E+00
 -1      1985 1.68664E+00
 -1      1986 3.11586E+00
 -1      1987 2.65423E+00
 -1      1988 2.45301E+00
 -1      1989 4.12685E+00
 -1      1990 3.67514E+00
 -1      1991 3.45408E+00
 -1      1992 5.04154E+00
 -1      1993 4.76169E+00
 -1      1994 4.64821E+00
 -1      1995 6.17854E+00
 -1      1996 5.71445E+00
 -1      1997 5.95597E+00
 -1      1998 7.32679E+00
 -1      1999 6.97487E+00
 -1      2000 7.42521E+00
 -1      2001 8.16307E+00
 -1      2002 7.79966E+00
 -1      2003 8.69440E+00
 -1      2004 1.25895E+01
 -1      2005 8.47666E+00
 -1      2006 1.67534E+01
 -1      2007 1.63011E+01
 -1      2008 6.52080E+00
 -1      2009 9.45344E+00
 -1      2010 5.51321E+00
 -1      2011 5.42496E+00
 -1      2012 6.79933E+00
 -1      2013 7.73530E+00
 -1      2014 7.38696E+00
 -1      2015 7.57724E+00
 -1      2016 5.74713E+00
 -1      2017 6.13239E+00
 -1      2018 7.84808E+00
 -1      2019 4.91827E+00
 -1      2020 5.40792E+00
 -1      2021 5.90595E+00
 -1      2022 3.93439E+00
 -1      2023 4.37497E+00
 -1      2024 5.02345E+00
 -1      2025 2.95852E+00
 -1      2026 3.37397E+00
 -1      2027 3.91972E+00
 -1      2028 2.16052E+00
 -1      2029 2.49492E+00
 -1      2030 2.89569E+00
 -1      2031 1.46413E+00
 -1      2032 1.76974E+00
 -1      2033 2.04131E+00
 -1      2034 9.52764E-01
 -1      2035 1.17915E+00
 -1      2036 1.36555E+00
 -1      2037 6.15828E-01
 -1      2038 7.53057E-01
 -1      2039 8.80865E-01
 -1      2040 3.97878E-01
 -1      2041 4.77208E-01
 -1      2042 5.42537E-01
 -1      2043 3.33691E+01
 -1      2044 3.57828E+01
 -1      2045 1.58944E-01
 -1      2046 1.39490E-01
 -1      2047 1.23422E-01
 -1      2048 1.50268E-01
 -1      2049 1.75750E-01
 -1      2050 2.01894E-01
 -1      2051 2.08966E-01
 -1      2052 2.08966E-01
 -1      2053 2.18380E-01
 -1      2054 1.70197E-01
 -1      2055 1.67036E-01
 -1      2056 1.99909E-01
 -1      2057 1.70197E-01
 -1      2058 1.70197E-01
 -1      2059 2.08001E-01
 -1      2060 1.61009E-01
 -1      2061 1.64756E-01
 -1      2062 2.02560E-01
 -1      2063 1.28454E-01
 -1      2064 1.45310E-01
 -1      2065 1.81419E-01
 -1      2066 7.66476E-02
 -1      2067 9.83198E-02
 -1      2068 1.35585E-01
 -1      2069 5.40030E-02
 -1      2070 5.86673E-02
 -1      2071 8.74706E-02
 -1      2072 5.90185E-02
 -1      2073 5.55312E-02
 -1      2074 7.10186E-02
 -1      2075 5.90185E-02
 -1      2076 5.90185E-02
 -1      2077 7.25469E-02
 -1      2078 5.44577E-02
 -1      2079 5.48612E-02
 -1      2080 6.83895E-02
 -1      2081 4.83399E-02
 -1      2082 5.23294E-02
 -1      2083 6.21039E-02
 -1      2084 2.84420E+01
 -1      2085 2.60212E+01
 -1      2086 3.27172E+01
 -1      2087 3.57828E+01
 -1      2088 3.57828E+01
 -1      2089 1.67534E+01
 -1      2090 1.03533E+00
 -1      2091 1.20920E+00
 -1      2092 9.91750E-01
 -1      2093 8.50634E-01
 -1      2094 1.04768E+01
 -1      2095 1.16733E+01
 -1      2096 1.07374E+01
 -1      2097 1.23906E+01
 -1      2098 1.37004E+01
 -1      2099 1.05696E+01
 -1      2100 3.03505E+01
 -1      2101 1.68681E+01
 -1      2102 3.29235E+01
 -1      2103 3.61840E+01
 -1      2104 2.91977E+01
 -1      2105 3.43498E+01
 -1      2106 3.42326E+01
 -1      2107 3.14828E+01
 -1      2108 3.19475E+01
 -1      2109 2.83935E+01
 -1      2110 3.29093E+01
 -1      2111 2.72644E+01
 -1      2112 2.41584E+01
 -1      2113 2.64448E+01
 -1      2114 2.62767E+01
 -1      2115 1.25622E+01
 -1      2116 2.20025E+01
 -1      2117 9.15427E+00
 -1      2118 1.00129E+01
 -1      2119 1.00159E+01
 -1      2120 9.72725E+00
 -1      2121 1.09079E+01
 -1      2122 1.08930E+01
 -1      2123 1.12902E+01
 -1      2124 1.10519E+01
 -1      2125 1.10738E+01
 -1      2126 1.12219E+01
 -1      2127 1.03846E+01
 -1      2128 1.05389E+01
 -1      2129 9.67396E+00
 -1      2130 8.99838E+00
 -1      2131 9.22570E+00
 -1      2132 1.67660E+01
 -1      2133 1.06134E+01
 -1      2134 3.25764E+01
 -1      2135 2.03416E+01
 -1      2136 2.86977E+01
 -1      2137 3.83240E+01
 -1      2138 2.96953E+01
 -1      2139 2.82939E+01
 -1      2140 3.39776E+01
 -1      2141 3.38531E+00
 -1      2142 1.42589E+01
 -1      2143 2.33852E+01
 -1      2144 1.72984E+01
 -1      2145 3.39962E+00
 -1      2146 2.70006E-01
 -1      2147 3.34458E-01
 -1      2148 2.34499E+01
 -1      2149 2.91167E+00
 -1      2150 1.04807E+01
 -1      2151 2.10570E+00
 -1      2152 2.10965E+00
 -1      2153 2.94167E+00
 -1      2154 1.11509E+01
 -1      2155 1.21551E+01
 -1      2156 1.58369E+01
 -1      2157 8.30884E+00
 -1      2158 7.98323E+00
 -1      2159 4.00651E+01
 -1      2160 3.40497E-01
 -1      2161 1.19753E+01
 -1      2162 4.80113E-02
 -1      2163 1.41905E+01
 -1      2164 1.40034E+01
 -1      2165 2.82939E+01
 -1      2166 2.29501E+01
 -1      2167 1.36269E+01
 -1      2168 7.98017E+00
 -1      2169 1.02771E+01
 -1      2170 1.02014E+01
 -1      2171 9.18026E+00
 -1      2172 7.73021E+00
 -1      2173 9.70650E+00
 -1      2174 1.66980E+01
 -1      2175 2.21280E+01
 -1      2176 3.42326E+01
 -1      2177 3.42326E+01
 -1      2178 3.29093E+01
 -1      2179 2.82361E+01
 -1      2180 2.09764E+01
 -1      2181 8.97541E+00
 -1      2182 1.22494E+01
 -1      2183 2.73508E+01
 -1      2184 8.43627E+00
 -1      2185 5.58917E-01
 -1      2186 5.90503E-01
 -1      2187 6.02782E-01
 -1      2188 6.49701E-01
 -1      2189 4.98585E-01
 -1      2190 5.09884E-01
 -1      2191 5.08968E-01
 -1      2192 5.44514E-01
 -1      2193 5.22873E-01
 -1      2194 4.43696E-01
 -1      2195 5.92521E-01
 -1      2196 5.59469E-01
 -1      2197 4.71639E-01
 -1      2198 6.52125E-01
 -1      2199 6.04939E-01
 -1      2200 4.99011E-01
 -1      2201 7.16866E-01
 -1      2202 6.52620E-01
 -1      2203 5.11925E-01
 -1      2204 7.99177E-01
 -1      2205 7.16866E-01
 -1      2206 5.12421E-01
 -1      2207 1.65165E+00
 -1      2208 9.52957E-01
 -1      2209 6.66200E-01
 -1      2210 1.27798E+00
 -1      2211 1.18133E+01
 -1      2212 1.60455E+01
 -1      2213 1.26726E+00
 -1      2214 1.03626E+00
 -1      2215 9.85931E-01
 -1      2216 8.05865E-01
 -1      2217 7.53450E-01
 -1      2218 7.49116E-01
 -1      2219 6.23591E-01
 -1      2220 6.46369E-01
 -1      2221 5.67385E-01
 -1      2222 5.08892E-01
 -1      2223 5.33414E-01
 -1      2224 4.59475E-01
 -1      2225 4.11195E-01
 -1      2226 4.27791E-01
 -1      2227 3.84267E-01
 -1      2228 3.41758E-01
 -1      2229 3.51445E-01
 -1      2230 3.16780E-01
 -1      2231 2.83468E-01
 -1      2232 2.99539E-01
 -1      2233 2.59757E-01
 -1      2234 2.32112E-01
 -1      2235 2.50850E-01
 -1      2236 2.11678E-01
 -1      2237 1.87802E-01
 -1      2238 2.06705E-01
 -1      2239 1.70389E-01
 -1      2240 1.51174E-01
 -1      2241 1.68858E-01
 -1      2242 1.35655E-01
 -1      2243 1.20229E-01
 -1      2244 1.35925E-01
 -1      2245 1.06676E-01
 -1      2246 9.33002E-02
 -1      2247 1.06853E-01
 -1      2248 8.18105E-02
 -1      2249 7.03207E-02
 -1      2250 8.18105E-02
 -1      2251 6.04730E-02
 -1      2252 5.63257E-02
 -1      2253 6.04730E-02
 -1      2254 5.41854E-02
 -1      2255 5.30544E-02
 -1      2256 4.84851E-02
 -1      2257 5.29567E-02
 -1      2258 5.25956E-02
 -1      2259 4.62471E-02
 -1      2260 5.28406E-02
 -1      2261 5.26623E-02
 -1      2262 4.63945E-02
 -1      2263 5.43091E-02
 -1      2264 5.89780E-02
 -1      2265 4.82864E-02
 -1      2266 6.13491E-02
 -1      2267 6.55064E-02
 -1      2268 5.23042E-02
 -1      2269 7.38690E-02
 -1      2270 7.33289E-02
 -1      2271 6.30380E-02
 -1      2272 8.57975E-02
 -1      2273 8.36964E-02
 -1      2274 8.38692E-02
 -1      2275 1.00308E-01
 -1      2276 1.35828E-01
 -1      2277 1.12950E-01
 -1      2278 1.78162E-01
 -1      2279 2.40046E-01
 -1      2280 1.71896E-01
 -1      2281 3.03101E-01
 -1      2282 3.83374E-01
 -1      2283 2.77286E-01
 -1      2284 4.59023E-01
 -1      2285 5.54527E-01
 -1      2286 4.15989E-01
 -1      2287 6.52787E-01
 -1      2288 7.63261E-01
 -1      2289 5.89897E-01
 -1      2290 8.78246E-01
 -1      2291 1.00985E+00
 -1      2292 8.03142E-01
 -1      2293 1.10955E+00
 -1      2294 1.22149E+00
 -1      2295 1.01783E+00
 -1      2296 1.28394E+00
 -1      2297 1.41930E+00
 -1      2298 1.17998E+00
 -1      2299 1.48006E+00
 -1      2300 1.56382E+00
 -1      2301 1.30318E+00
 -1      2302 1.57446E+00
 -1      2303 1.58700E+00
 -1      2304 1.37457E+00
 -1      2305 1.55477E+00
 -1      2306 1.53625E+00
 -1      2307 1.35298E+00
 -1      2308 1.55818E+00
 -1      2309 1.57685E+00
 -1      2310 1.34268E+00
 -1      2311 1.58693E+00
 -1      2312 1.53220E+00
 -1      2313 1.37469E+00
 -1      2314 1.49311E+00
 -1      2315 1.37614E+00
 -1      2316 1.34567E+00
 -1      2317 1.31664E+00
 -1      2318 1.19786E+00
 -1      2319 1.24708E+00
 -1      2320 1.11327E+00
 -1      2321 9.88621E-01
 -1      2322 1.10300E+00
 -1      2323 8.79328E-01
 -1      2324 7.59031E-01
 -1      2325 9.09115E-01
 -1      2326 6.52039E-01
 -1      2327 5.54662E-01
 -1      2328 6.92830E-01
 -1      2329 4.78845E-01
 -1      2330 3.94370E-01
 -1      2331 5.10022E-01
 -1      2332 3.28215E-01
 -1      2333 2.61342E-01
 -1      2334 3.68050E-01
 -1      2335 2.09640E-01
 -1      2336 1.65247E-01
 -1      2337 2.50193E-01
 -1      2338 1.32002E-01
 -1      2339 1.09938E-01
 -1      2340 1.65247E-01
 -1      2341 9.42239E-02
 -1      2342 8.11474E-02
 -1      2343 1.16289E-01
 -1      2344 1.04144E+00
 -1      2345 1.26643E+00
 -1      2346 8.08426E-01
 -1      2347 5.15309E-01
 -1      2348 5.76050E-01
 -1      2349 4.20273E-01
 -1      2350 4.66824E-01
 -1      2351 4.35354E-01
 -1      2352 3.48558E-01
 -1      2353 3.91793E-01
 -1      2354 3.58388E-01
 -1      2355 2.90089E-01
 -1      2356 3.24025E-01
 -1      2357 3.05374E-01
 -1      2358 2.38744E-01
 -1      2359 2.66594E-01
 -1      2360 2.57345E-01
 -1      2361 1.94090E-01
 -1      2362 2.17957E-01
 -1      2363 2.13062E-01
 -1      2364 1.57794E-01
 -1      2365 1.76850E-01
 -1      2366 1.75034E-01
 -1      2367 1.27348E-01
 -1      2368 1.42571E-01
 -1      2369 1.42571E-01
 -1      2370 9.90485E-02
 -1      2371 1.13198E-01
 -1      2372 1.13198E-01
 -1      2373 7.90627E-02
 -1      2374 8.90556E-02
 -1      2375 8.90556E-02
 -1      2376 6.74549E-02
 -1      2377 7.03690E-02
 -1      2378 7.03690E-02
 -1      2379 7.47768E-02
 -1      2380 6.84866E-02
 -1      2381 6.27071E-02
 -1      2382 9.26375E-02
 -1      2383 8.12265E-02
 -1      2384 7.01886E-02
 -1      2385 1.44068E-01
 -1      2386 1.17786E-01
 -1      2387 1.01787E-01
 -1      2388 2.26410E-01
 -1      2389 1.79222E-01
 -1      2390 1.62089E-01
 -1      2391 3.41600E-01
 -1      2392 2.73953E-01
 -1      2393 2.44786E-01
 -1      2394 5.13361E-01
 -1      2395 4.10517E-01
 -1      2396 3.61247E-01
 -1      2397 7.68278E-01
 -1      2398 6.13161E-01
 -1      2399 5.29963E-01
 -1      2400 1.14872E+00
 -1      2401 9.21090E-01
 -1      2402 7.82574E-01
 -1      2403 1.72506E+00
 -1      2404 1.40047E+00
 -1      2405 1.18713E+00
 -1      2406 2.56265E+00
 -1      2407 2.12087E+00
 -1      2408 1.83470E+00
 -1      2409 3.73086E+00
 -1      2410 3.17158E+00
 -1      2411 2.83944E+00
 -1      2412 5.21348E+00
 -1      2413 4.57863E+00
 -1      2414 4.29613E+00
 -1      2415 7.27828E+00
 -1      2416 6.60537E+00
 -1      2417 6.53579E+00
 -1      2418 8.37312E+00
 -1      2419 7.57679E+00
 -1      2420 8.22619E+00
 -1      2421 9.64715E+00
 -1      2422 9.17428E+00
 -1      2423 4.00651E+01
 -1      2424 4.00651E+01
 -1      2425 1.20350E+01
 -1      2426 6.93704E+00
 -1      2427 7.27625E+00
 -1      2428 5.18431E+00
 -1      2429 5.72761E+00
 -1      2430 7.09790E+00
 -1      2431 3.65402E+00
 -1      2432 4.21445E+00
 -1      2433 4.91861E+00
 -1      2434 2.52685E+00
 -1      2435 2.99045E+00
 -1      2436 3.28518E+00
 -1      2437 1.67912E+00
 -1      2438 2.06990E+00
 -1      2439 2.16466E+00
 -1      2440 1.10821E+00
 -1      2441 1.39319E+00
 -1      2442 1.42178E+00
 -1      2443 7.13951E-01
 -1      2444 9.13659E-01
 -1      2445 9.41295E-01
 -1      2446 4.30433E-01
 -1      2447 5.69053E-01
 -1      2448 6.01847E-01
 -1      2449 1.95551E+01
 -1      2450 2.14745E+01
 -1      2451 2.64014E-01
 -1      2452 2.55923E-01
 -1      2453 2.37983E-01
 -1      2454 2.43425E-01
 -1      2455 2.13565E-01
 -1      2456 2.29264E-01
 -1      2457 2.70129E-01
 -1      2458 1.46517E-01
 -1      2459 1.76652E-01
 -1      2460 2.24497E-01
 -1      2461 1.03567E-01
 -1      2462 1.21547E-01
 -1      2463 1.62613E-01
 -1      2464 9.37843E-02
 -1      2465 9.22561E-02
 -1      2466 1.26332E-01
 -1      2467 9.37843E-02
 -1      2468 9.37843E-02
 -1      2469 1.15022E-01
 -1      2470 8.49485E-02
 -1      2471 8.91058E-02
 -1      2472 1.10343E-01
 -1      2473 6.08232E-02
 -1      2474 6.29515E-02
 -1      2475 8.36677E-02
 -1      2476 2.53694E+01
 -1      2477 3.27172E+01
 -1      2478 2.41619E+01
 -1      2479 2.83970E+01
 -1      2480 6.33283E-01
 -1      2481 7.60521E-01
 -1      2482 5.41071E-01
 -1      2483 3.04273E-01
 -1      2484 3.67693E-01
 -1      2485 3.94209E-01
 -1      2486 2.45576E-01
 -1      2487 2.43970E+01
 -1      2488 2.48008E+01
 -1      2489 3.39776E+01
 -1      2490 2.78900E+01
 -1      2491 9.65116E+00
 -1      2492 9.71946E+00
 -1      2493 2.42332E+01
 -1      2494 2.28069E+01
 -1      2495 2.38502E-01
 -1      2496 2.22435E-01
 -1      2497 3.08328E-01
 -1      2498 3.02607E-01
 -1      2499 2.64014E-01
 -1      2500 2.64014E-01
 -1      2501 3.20028E-01
 -1      2502 2.99438E-01
 -1      2503 5.22315E-01
 -1      2504 5.44465E-01
 -1      2505 4.71854E-01
 -1      2506 4.44054E-01
 -1      2507 7.89542E-01
 -1      2508 9.71177E-01
 -1      2509 7.26608E-01
 -1      2510 6.27324E-01
 -1      2511 5.67088E-02
 -1      2512 3.19475E+01
 -1      2513 2.96625E+01
 -1      2514 7.74726E+00
 -1      2515 6.13223E+00
 -1      2516 1.84172E+01
 -1      2517 1.94049E+01
 -1      2518 1.07804E+01
 -1      2519 1.52226E+01
 -1      2520 1.24996E+01
 -1      2521 7.51181E+00
 -1      2522 1.00611E+01
 -1      2523 6.28095E+00
 -1      2524 5.70798E+00
 -1      2525 8.17020E+00
 -1      2526 7.29312E+00
 -1      2527 9.09097E+00
 -1      2528 8.94692E+00
 -1      2529 7.94339E+00
 -1      2530 8.47826E+00
 -1      2531 5.82072E+00
 -1      2532 6.97964E+00
 -1      2533 1.37581E+01
 -1      2534 1.01825E+01
 -1      2535 2.04589E+01
 -1      2536 1.47113E+01
 -1      2537 1.65620E+01
 -1      2538 1.67924E+00
 -1      2539 1.30428E+00
 -1      2540 8.40802E-01
 -1      2541 9.74295E-01
 -1      2542 5.10863E-01
 -1      2543 6.49701E-01
 -1      2544 7.11796E-01
 -1      2545 9.38486E+00
 -1      2546 1.40700E+01
 -1      2547 2.42332E+01
 -1      2548 7.87845E+00
 -1      2549 9.32587E+00
 -1      2550 3.39776E+01
 -1      2551 2.14745E+01
 -1      2552 2.43970E+01
 -1      2553 1.38158E+01
 -1      2554 1.08280E+01
 -1      2555 3.27172E+01
 -1      2556 7.92058E+00
 -1      2557 5.75808E-02
 -1      2558 6.08476E-02
 -1      2559 6.16952E-02
 -1      2560 6.17197E-02
 -1      2561 1.13079E+01
 -1      2562 2.97204E+01
 -1      2563 8.46499E+00
 -1      2564 1.56463E+01
 -1      2565 1.96492E+01
 -1      2566 1.12669E+01
 -1      2567 5.13170E+00
 -1      2568 5.78393E+00
 -1      2569 7.05978E+00
 -1      2570 5.27090E+00
 -1      2571 1.06217E+01
 -1      2572 1.22246E+01
 -1      2573 1.00057E+01
 -1      2574 8.13197E+00
 -1      2575 8.11474E-02
 -1      2576 1.16528E+01
 -1      2577 8.58569E+00
 -1      2578 1.89963E+01
 -1      2579 2.00425E+01
 -1      2580 1.52855E+01
 -1      2581 6.88184E-01
 -1      2582 7.67204E-01
 -1      2583 6.70730E-01
 -1      2584 4.87251E-01
 -1      2585 2.91808E+01
 -1      2586 2.68958E+01
 -1      2587 2.91808E+01
 -1      2588 6.06255E+00
 -1      2589 1.62889E+01
 -1      2590 1.35153E+01
 -1      2591 4.22592E-01
 -1      2592 4.07638E-01
 -1      2593 3.99568E-01
 -1      2594 3.86579E-01
 -1      2595 3.50521E-01
 -1      2596 4.36434E-01
 -1      2597 4.35938E-01
 -1      2598 4.27103E-01
 -1      2599 4.27103E-01
 -1      2600 3.51116E-01
 -1      2601 6.04022E-01
 -1      2602 4.50242E-01
 -1      2603 3.64924E-01
 -1      2604 5.92468E-01
 -1      2605 1.16460E-01
 -1      2606 9.70320E-02
 -1      2607 9.70075E-02
 -1      2608 4.50737E-01
 -1      2609 5.13477E-01
 -1      2610 4.27596E-01
 -1      2611 1.00282E+01
 -1      2612 1.33736E+01
 -1      2613 5.50205E-01
 -1      2614 4.93456E-01
 -1      2615 4.86946E-01
 -1      2616 4.30741E-01
 -1      2617 3.90783E-01
 -1      2618 4.10254E-01
 -1      2619 3.60836E-01
 -1      2620 3.63786E-01
 -1      2621 3.35855E-01
 -1      2622 3.08926E-01
 -1      2623 3.18318E-01
 -1      2624 2.83801E-01
 -1      2625 2.58823E-01
 -1      2626 2.68211E-01
 -1      2627 2.42935E-01
 -1      2628 2.19223E-01
 -1      2629 2.27197E-01
 -1      2630 2.02458E-01
 -1      2631 1.82024E-01
 -1      2632 1.94542E-01
 -1      2633 1.65766E-01
 -1      2634 1.48353E-01
 -1      2635 1.61519E-01
 -1      2636 1.33958E-01
 -1      2637 1.18438E-01
 -1      2638 1.30866E-01
 -1      2639 1.05932E-01
 -1      2640 9.23796E-02
 -1      2641 1.03965E-01
 -1      2642 8.14830E-02
 -1      2643 6.99932E-02
 -1      2644 8.05623E-02
 -1      2645 6.04211E-02
 -1      2646 5.05734E-02
 -1      2647 6.00936E-02
 -1      2648 4.21415E-02
 -1      2649 4.00012E-02
 -1      2650 4.20895E-02
 -1      2651 3.91017E-02
 -1      2652 3.90041E-02
 -1      2653 3.27581E-02
 -1      2654 4.02848E-02
 -1      2655 4.05298E-02
 -1      2656 3.31394E-02
 -1      2657 4.55449E-02
 -1      2658 4.71916E-02
 -1      2659 3.94351E-02
 -1      2660 5.27281E-02
 -1      2661 5.50992E-02
 -1      2662 4.99866E-02
 -1      2663 6.30380E-02
 -1      2664 7.14006E-02
 -1      2665 6.34619E-02
 -1      2666 8.62987E-02
 -1      2667 9.87673E-02
 -1      2668 8.62987E-02
 -1      2669 1.25011E-01
 -1      2670 1.41623E-01
 -1      2671 1.27440E-01
 -1      2672 1.74468E-01
 -1      2673 2.16802E-01
 -1      2674 1.86529E-01
 -1      2675 2.77286E-01
 -1      2676 3.40340E-01
 -1      2677 2.79857E-01
 -1      2678 4.15989E-01
 -1      2679 4.91637E-01
 -1      2680 4.15989E-01
 -1      2681 5.71048E-01
 -1      2682 6.69308E-01
 -1      2683 5.71048E-01
 -1      2684 7.51906E-01
 -1      2685 8.66891E-01
 -1      2686 7.33057E-01
 -1      2687 9.42471E-01
 -1      2688 1.04217E+00
 -1      2689 8.91234E-01
 -1      2690 1.12486E+00
 -1      2691 1.18730E+00
 -1      2692 1.04950E+00
 -1      2693 1.23047E+00
 -1      2694 1.29122E+00
 -1      2695 1.17535E+00
 -1      2696 1.33780E+00
 -1      2697 1.34844E+00
 -1      2698 1.26509E+00
 -1      2699 1.33126E+00
 -1      2700 1.29903E+00
 -1      2701 1.29448E+00
 -1      2702 1.25955E+00
 -1      2703 1.28149E+00
 -1      2704 1.23783E+00
 -1      2705 1.34492E+00
 -1      2706 1.35499E+00
 -1      2707 1.26179E+00
 -1      2708 1.32338E+00
 -1      2709 1.28429E+00
 -1      2710 1.29361E+00
 -1      2711 1.24260E+00
 -1      2712 1.18311E+00
 -1      2713 1.22031E+00
 -1      2714 1.12251E+00
 -1      2715 1.03792E+00
 -1      2716 1.11803E+00
 -1      2717 9.57995E-01
 -1      2718 8.48702E-01
 -1      2719 9.77509E-01
 -1      2720 7.67227E-01
 -1      2721 6.60235E-01
 -1      2722 8.16107E-01
 -1      2723 5.85839E-01
 -1      2724 5.10022E-01
 -1      2725 6.60235E-01
 -1      2726 4.34205E-01
 -1      2727 3.68050E-01
 -1      2728 5.10022E-01
 -1      2729 3.01895E-01
 -1      2730 2.50193E-01
 -1      2731 3.68050E-01
 -1      2732 2.07401E-01
 -1      2733 1.74157E-01
 -1      2734 2.59103E-01
 -1      2735 1.30563E-01
 -1      2736 1.14849E-01
 -1      2737 1.30734E-01
 -1      2738 1.72718E-01
 -1      2739 1.44655E+01
 -1      2740 3.13659E-01
 -1      2741 3.42140E-01
 -1      2742 3.66795E-01
 -1      2743 4.15279E-01
 -1      2744 3.22065E-01
 -1      2745 2.24055E-01
 -1      2746 2.47550E-01
 -1      2747 1.86603E-01
 -1      2748 2.07390E-01
 -1      2749 1.97595E-01
 -1      2750 1.53228E-01
 -1      2751 1.70468E-01
 -1      2752 1.64796E-01
 -1      2753 1.24263E-01
 -1      2754 1.39486E-01
 -1      2755 1.34920E-01
 -1      2756 9.73872E-02
 -1      2757 1.11537E-01
 -1      2758 1.08452E-01
 -1      2759 7.71012E-02
 -1      2760 8.70941E-02
 -1      2761 8.54328E-02
 -1      2762 5.79655E-02
 -1      2763 6.66592E-02
 -1      2764 6.46977E-02
 -1      2765 5.12424E-02
 -1      2766 5.02106E-02
 -1      2767 4.65007E-02
 -1      2768 6.02933E-02
 -1      2769 5.38435E-02
 -1      2770 4.13470E-02
 -1      2771 1.02900E-01
 -1      2772 7.77515E-02
 -1      2773 6.14064E-02
 -1      2774 1.65540E-01
 -1      2775 1.30386E-01
 -1      2776 1.06351E-01
 -1      2777 2.53031E-01
 -1      2778 2.05487E-01
 -1      2779 1.73784E-01
 -1      2780 3.85409E-01
 -1      2781 3.16493E-01
 -1      2782 2.77193E-01
 -1      2783 5.80908E-01
 -1      2784 4.81108E-01
 -1      2785 4.36354E-01
 -1      2786 8.78392E-01
 -1      2787 7.25580E-01
 -1      2788 6.76725E-01
 -1      2789 1.35009E+00
 -1      2790 1.09834E+00
 -1      2791 1.04134E+00
 -1      2792 2.08388E+00
 -1      2793 1.68807E+00
 -1      2794 1.59927E+00
 -1      2795 3.22035E+00
 -1      2796 2.61142E+00
 -1      2797 2.46480E+00
 -1      2798 4.89658E+00
 -1      2799 4.04881E+00
 -1      2800 3.82080E+00
 -1      2801 7.65693E+00
 -1      2802 6.26504E+00
 -1      2803 6.01772E+00
 -1      2804 1.29485E+01
 -1      2805 1.26500E+01
 -1      2806 1.23792E+01
 -1      2807 2.67360E+01
 -1      2808 2.06485E+01
 -1      2809 2.18352E+01
 -1      2810 2.63474E+01
 -1      2811 4.23047E-01
 -1      2812 4.35325E-01
 -1      2813 4.75578E+00
 -1      2814 5.72564E+00
 -1      2815 1.12261E+01
 -1      2816 6.37162E+00
 -1      2817 7.58105E+00
 -1      2818 6.20878E+00
 -1      2819 2.02170E+00
 -1      2820 2.47864E+00
 -1      2821 1.32287E+00
 -1      2822 1.60880E+00
 -1      2823 1.92279E+00
 -1      2824 8.49530E-01
 -1      2825 1.04408E+00
 -1      2826 1.23111E+00
 -1      2827 6.58375E-01
 -1      2828 2.02926E+01
 -1      2829 2.76405E+01
 -1      2830 1.43114E+01
 -1      2831 6.13673E-01
 -1      2832 5.76653E-01
 -1      2833 4.06581E-01
 -1      2834 3.33524E-01
 -1      2835 3.42244E-01
 -1      2836 1.54907E-01
 -1      2837 1.66218E-01
 -1      2838 1.47826E-01
 -1      2839 1.47826E-01
 -1      2840 1.87711E-01
 -1      2841 1.31268E-01
 -1      2842 1.35947E-01
 -1      2843 1.68751E-01
 -1      2844 1.19005E-01
 -1      2845 2.16064E+01
 -1      2846 1.81133E+01
 -1      2847 4.34400E-01
 -1      2848 4.91633E-01
 -1      2849 3.65841E-01
 -1      2850 1.56045E+01
 -1      2851 1.12626E+01
 -1      2852 1.01981E+01
 -1      2853 9.24494E+00
 -1      2854 9.24063E+00
 -1      2855 8.15921E+00
 -1      2856 5.72398E+00
 -1      2857 7.51545E+00
 -1      2858 6.88696E+00
 -1      2859 1.88260E-01
 -1      2860 2.13230E-01
 -1      2861 2.16835E-01
 -1      2862 2.42397E-01
 -1      2863 2.79309E-01
 -1      2864 3.51425E-01
 -1      2865 2.68043E-01
 -1      2866 7.24137E+00
 -1      2867 7.96068E+00
 -1      2868 3.10425E+00
 -1      2869 3.76782E+00
 -1      2870 4.57485E+00
 -1      2871 2.96129E+00
 -1      2872 6.06758E+00
 -1      2873 7.24048E+00
 -1      2874 6.40249E+00
 -1      2875 5.62577E+00
 -1      2876 5.45295E+00
 -1      2877 4.25893E+00
 -1      2878 5.22268E+00
 -1      2879 2.64061E-01
 -1      2880 2.88595E-01
 -1      2881 2.30771E-01
 -1      2882 4.62068E+00
 -1      2883 6.42451E+00
 -1      2884 1.01209E+01
 -1      2885 1.33155E+01
 -1      2886 4.74469E+00
 -1      2887 3.73252E+00
 -1      2888 5.98535E-01
 -1      2889 5.48203E-01
 -1      2890 3.95290E-01
 -1      2891 3.71406E-01
 -1      2892 4.35938E-01
 -1      2893 4.23520E-01
 -1      2894 3.59519E-01
 -1      2895 3.60447E-01
 -1      2896 4.35619E+00
 -1      2897 4.04468E+00
 -1      2898 4.63695E+00
 -1      2899 1.81134E+01
 -1      2900 1.37749E+01
 -1      2901 1.29738E+01
 -1      2902 2.35426E+01
 -1      2903 3.42484E-01
 -1      2904 3.86612E-01
 -1      2905 3.99959E-01
 -1      2906 5.64024E-01
 -1      2907 3.59620E-01
 -1      2908 4.93761E-01
 -1      2909 9.30190E+00
 -1      2910 4.35325E-01
 -1      2911 4.35325E-01
 -1      2912 3.59787E-01
 -1      2913 1.28139E+01
 -1      2914 2.72346E-01
 -1      2915 1.73976E+01
 -1      2916 1.43648E+01
 -1      2917 2.12957E+01
 -1      2918 4.66689E-01
 -1      2919 4.95710E-01
 -1      2920 3.33125E-01
 -1      2921 3.60018E-01
 -1      2922 5.22526E+00
 -1      2923 7.07826E+00
 -1      2924 5.50023E+00
 -1      2925 7.61160E-01
 -1      2926 1.85592E+01
 -1      2927 1.34825E+01
 -1      2928 3.64444E-01
 -1      2929 3.64444E-01
 -1      2930 4.07662E-01
 -1      2931 4.22115E-01
 -1      2932 3.58855E-01
 -1      2933 3.50220E-01
 -1      2934 5.79950E+00
 -1      2935 1.44608E-01
 -1      2936 4.54258E+00
 -1      2937 3.43854E-01
 -1      2938 3.64444E-01
 -1      2939 4.08859E-01
 -1      2940 2.01838E+01
 -1      2941 7.09047E+00
 -1      2942 4.08740E+00
 -1      2943 8.77660E+00
 -1      2944 4.30672E-01
 -1      2945 4.13252E-01
 -1      2946 5.55661E-01
 -1      2947 4.75088E-01
 -1      2948 3.48342E+00
 -1      2949 1.29069E+01
 -1      2950 2.07759E+01
 -1      2951 1.33768E+01
 -1      2952 1.85424E+01
 -1      2953 1.51694E+01
 -1      2954 4.09447E+00
 -1      2955 4.07249E-01
 -1      2956 3.26808E-01
 -1      2957 3.03668E-01
 -1      2958 2.98364E-01
 -1      2959 3.12999E-01
 -1      2960 3.19479E-01
 -1      2961 2.98992E-01
 -1      2962 2.95636E-01
 -1      2963 2.70654E-01
 -1      2964 2.51329E-01
 -1      2965 2.59592E-01
 -1      2966 2.34466E-01
 -1      2967 2.36910E-01
 -1      2968 2.19941E-01
 -1      2969 2.04052E-01
 -1      2970 2.11322E-01
 -1      2971 1.90656E-01
 -1      2972 1.73890E-01
 -1      2973 1.83400E-01
 -1      2974 1.62735E-01
 -1      2975 1.46477E-01
 -1      2976 1.58848E-01
 -1      2977 1.34535E-01
 -1      2978 1.20140E-01
 -1      2979 1.35751E-01
 -1      2980 1.08292E-01
 -1      2981 9.57862E-02
 -1      2982 1.11961E-01
 -1      2983 8.44701E-02
 -1      2984 7.35735E-02
 -1      2985 8.87974E-02
 -1      2986 6.29210E-02
 -1      2987 5.33489E-02
 -1      2988 6.68288E-02
 -1      2989 4.32986E-02
 -1      2990 3.48666E-02
 -1      2991 4.61260E-02
 -1      2992 2.60565E-02
 -1      2993 2.51570E-02
 -1      2994 2.72655E-02
 -1      2995 2.69648E-02
 -1      2996 2.82455E-02
 -1      2997 2.02631E-02
 -1      2998 3.70764E-02
 -1      2999 4.20915E-02
 -1      3000 3.09018E-02
 -1      3001 5.04572E-02
 -1      3002 5.59937E-02
 -1      3003 4.80985E-02
 -1      3004 6.60400E-02
 -1      3005 7.39787E-02
 -1      3006 6.65105E-02
 -1      3007 8.67691E-02
 -1      3008 1.01667E-01
 -1      3009 8.93472E-02
 -1      3010 1.27440E-01
 -1      3011 1.53684E-01
 -1      3012 1.27911E-01
 -1      3013 1.86529E-01
 -1      3014 2.19374E-01
 -1      3015 1.86529E-01
 -1      3016 2.71765E-01
 -1      3017 3.32248E-01
 -1      3018 2.71765E-01
 -1      3019 3.93992E-01
 -1      3020 4.69641E-01
 -1      3021 3.85900E-01
 -1      3022 5.62637E-01
 -1      3023 6.42048E-01
 -1      3024 5.40641E-01
 -1      3025 7.33057E-01
 -1      3026 8.15655E-01
 -1      3027 7.24646E-01
 -1      3028 8.99675E-01
 -1      3029 9.75254E-01
 -1      3030 8.99675E-01
 -1      3031 1.06128E+00
 -1      3032 1.14396E+00
 -1      3033 1.06972E+00
 -1      3034 1.16048E+00
 -1      3035 1.20365E+00
 -1      3036 1.17226E+00
 -1      3037 1.29952E+00
 -1      3038 1.34610E+00
 -1      3039 1.28466E+00
 -1      3040 1.40453E+00
 -1      3041 1.38734E+00
 -1      3042 1.43896E+00
 -1      3043 1.40346E+00
 -1      3044 1.36399E+00
 -1      3045 1.51350E+00
 -1      3046 1.40494E+00
 -1      3047 1.46837E+00
 -1      3048 1.57057E+00
 -1      3049 1.38356E+00
 -1      3050 1.35194E+00
 -1      3051 1.52670E+00
 -1      3052 1.26383E+00
 -1      3053 1.22215E+00
 -1      3054 1.35378E+00
 -1      3055 1.15988E+00
 -1      3056 1.09929E+00
 -1      3057 1.20341E+00
 -1      3058 1.06800E+00
 -1      3059 9.88071E-01
 -1      3060 1.10985E+00
 -1      3061 8.97582E-01
 -1      3062 8.16107E-01
 -1      3063 9.88071E-01
 -1      3064 7.33782E-01
 -1      3065 6.59386E-01
 -1      3066 8.15257E-01
 -1      3067 5.67464E-01
 -1      3068 4.91647E-01
 -1      3069 6.41011E-01
 -1      3070 4.08176E-01
 -1      3071 3.42020E-01
 -1      3072 4.65618E-01
 -1      3073 2.77387E-01
 -1      3074 2.34595E-01
 -1      3075 3.17513E-01
 -1      3076 1.23515E-01
 -1      3077 1.37256E-01
 -1      3078 1.49163E-01
 -1      3079 1.65297E-01
 -1      3080 1.37758E-01
 -1      3081 1.76322E-01
 -1      3082 1.92987E-01
 -1      3083 1.60689E-01
 -1      3084 9.90912E-02
 -1      3085 1.11817E-01
 -1      3086 1.14154E-01
 -1      3087 7.77459E-02
 -1      3088 8.80390E-02
 -1      3089 9.14043E-02
 -1      3090 5.63784E-02
 -1      3091 6.68205E-02
 -1      3092 6.94267E-02
 -1      3093 3.81020E-02
 -1      3094 4.58569E-02
 -1      3095 4.79797E-02
 -1      3096 4.24887E-02
 -1      3097 3.98875E-02
 -1      3098 3.92437E-02
 -1      3099 7.21679E-02
 -1      3100 5.47096E-02
 -1      3101 5.32502E-02
 -1      3102 1.23527E-01
 -1      3103 9.60406E-02
 -1      3104 8.93438E-02
 -1      3105 1.93727E-01
 -1      3106 1.53780E-01
 -1      3107 1.43470E-01
 -1      3108 3.05055E-01
 -1      3109 2.41593E-01
 -1      3110 2.21589E-01
 -1      3111 4.67220E-01
 -1      3112 3.71521E-01
 -1      3113 3.35921E-01
 -1      3114 7.07477E-01
 -1      3115 5.62805E-01
 -1      3116 4.97972E-01
 -1      3117 1.06610E+00
 -1      3118 8.46157E-01
 -1      3119 7.32237E-01
 -1      3120 1.60875E+00
 -1      3121 1.27077E+00
 -1      3122 1.07558E+00
 -1      3123 2.45016E+00
 -1      3124 1.92262E+00
 -1      3125 1.59412E+00
 -1      3126 3.82986E+00
 -1      3127 3.00140E+00
 -1      3128 2.45923E+00
 -1      3129 6.07501E+00
 -1      3130 4.70655E+00
 -1      3131 3.88715E+00
 -1      3132 1.38443E+01
 -1      3133 8.85127E+00
 -1      3134 7.54009E+00
 -1      3135 1.13029E+01
 -1      3136 1.22608E+01
 -1      3137 1.19162E+01
 -1      3138 9.40737E+00
 -1      3139 2.80309E+00
 -1      3140 3.01735E+00
 -1      3141 6.17816E+00
 -1      3142 6.82415E+00
 -1      3143 5.04597E+00
 -1      3144 3.67819E+00
 -1      3145 3.21211E+00
 -1      3146 1.23690E+00
 -1      3147 1.51569E+00
 -1      3148 1.79978E+00
 -1      3149 2.21267E+00
 -1      3150 1.80557E+00
 -1      3151 2.04984E-01
 -1      3152 2.16863E-01
 -1      3153 7.92717E-01
 -1      3154 9.83873E-01
 -1      3155 1.26845E+00
 -1      3156 7.78373E-01
 -1      3157 4.97750E+00
 -1      3158 5.79437E+00
 -1      3159 2.31782E-01
 -1      3160 2.38864E-01
 -1      3161 2.68016E-01
 -1      3162 3.01035E-01
 -1      3163 3.20156E-01
 -1      3164 2.37678E-01
 -1      3165 2.62742E-01
 -1      3166 1.74328E-01
 -1      3167 1.86592E-01
 -1      3168 2.34704E-01
 -1      3169 1.72718E-01
 -1      3170 4.08740E+00
 -1      3171 3.20632E+00
 -1      3172 2.58178E-01
 -1      3173 2.80219E-01
 -1      3174 3.02249E-01
 -1      3175 5.07712E-01
 -1      3176 5.07712E-01
 -1      3177 1.04740E+01
 -1      3178 1.22074E+01
 -1      3179 1.13029E+01
 -1      3180 8.02684E+00
 -1      3181 8.81800E+00
 -1      3182 7.75357E+00
 -1      3183 3.69768E+00
 -1      3184 4.54258E+00
 -1      3185 4.98031E+00
 -1      3186 4.49583E+00
 -1      3187 3.61475E+00
 -1      3188 4.06030E-01
 -1      3189 3.82418E-01
 -1      3190 3.25361E-01
 -1      3191 3.30492E-01
 -1      3192 6.93560E+00
 -1      3193 9.09583E+00
 -1      3194 2.82019E+00
 -1      3195 3.70835E+00
 -1      3196 2.82019E+00
 -1      3197 3.16331E-01
 -1      3198 3.09821E-01
 -1      3199 2.45027E-01
 -1      3200 9.37404E+00
 -1      3201 1.13441E+01
 -1      3202 2.07507E+01
 -1      3203 5.04721E-01
 -1      3204 5.06331E-01
 -1      3205 6.05184E-01
 -1      3206 6.76589E+00
 -1      3207 5.68016E+00
 -1      3208 3.23777E-01
 -1      3209 3.15707E-01
 -1      3210 2.73447E-01
 -1      3211 2.98102E-01
 -1      3212 2.38779E-01
 -1      3213 2.06843E-01
 -1      3214 2.23354E-01
 -1      3215 1.85570E-01
 -1      3216 1.79173E+01
 -1      3217 1.43893E+01
 -1      3218 7.78253E+00
 -1      3219 1.13154E+01
 -1      3220 9.81523E+00
 -1      3221 3.21302E-01
 -1      3222 3.21302E-01
 -1      3223 2.13750E-01
 -1      3224 3.20273E-01
 -1      3225 3.20273E-01
 -1      3226 2.16312E-01
 -1      3227 8.85430E+00
 -1      3228 9.19892E+00
 -1      3229 7.92032E+00
 -1      3230 3.24705E-01
 -1      3231 3.23777E-01
 -1      3232 2.85561E-01
 -1      3233 2.91799E-01
 -1      3234 2.66855E-01
 -1      3235 2.26994E-01
 -1      3236 3.01735E+00
 -1      3237 7.99622E+00
 -1      3238 4.57101E+00
 -1      3239 5.00821E+00
 -1      3240 4.05109E+00
 -1      3241 4.02342E+00
 -1      3242 4.01829E+00
 -1      3243 2.74913E+00
 -1      3244 2.34593E+00
 -1      3245 2.46893E+00
 -1      3246 3.09454E+00
 -1      3247 2.74245E-01
 -1      3248 2.98409E-01
 -1      3249 3.20291E-01
 -1      3250 4.72140E+00
 -1      3251 6.11361E+00
 -1      3252 3.23427E-01
 -1      3253 3.24359E-01
 -1      3254 2.84845E-01
 -1      3255 3.74166E-01
 -1      3256 4.28380E-01
 -1      3257 5.27461E-01
 -1      3258 2.52417E-01
 -1      3259 2.34595E-01
 -1      3260 7.53305E+00
 -1      3261 2.88964E-01
 -1      3262 3.50642E-01
 -1      3263 3.09299E-01
 -1      3264 3.38466E-01
 -1      3265 7.12145E-01
 -1      3266 8.10998E-01
 -1      3267 2.73855E-01
 -1      3268 3.80207E+00
 -1      3269 4.64697E+00
 -1      3270 4.48475E+00
 -1      3271 3.82487E+00
 -1      3272 4.81282E+00
 -1      3273 3.33252E+00
 -1      3274 5.42819E+00
 -1      3275 6.34327E+00
 -1      3276 2.85258E-01
 -1      3277 3.12002E-01
 -1      3278 3.12035E-01
 -1      3279 3.22293E-01
 -1      3280 2.41331E-01
 -1      3281 2.14545E-01
 -1      3282 2.11189E-01
 -1      3283 1.87237E-01
 -1      3284 2.01561E-01
 -1      3285 6.03365E+00
 -1      3286 6.31186E+00
 -1      3287 1.94356E-01
 -1      3288 2.04014E-01
 -1      3289 1.63874E-01
 -1      3290 2.14948E-01
 -1      3291 2.03886E-01
 -1      3292 1.78164E-01
 -1      3293 1.99979E-01
 -1      3294 1.85453E-01
 -1      3295 1.78017E-01
 -1      3296 1.77205E-01
 -1      3297 1.63809E-01
 -1      3298 1.65862E-01
 -1      3299 1.53419E-01
 -1      3300 1.42264E-01
 -1      3301 1.47224E-01
 -1      3302 1.34143E-01
 -1      3303 1.22201E-01
 -1      3304 1.28714E-01
 -1      3305 1.13243E-01
 -1      3306 1.01396E-01
 -1      3307 1.11636E-01
 -1      3308 9.20269E-02
 -1      3309 8.07108E-02
 -1      3310 9.33090E-02
 -1      3311 7.13775E-02
 -1      3312 6.07250E-02
 -1      3313 7.46069E-02
 -1      3314 5.15702E-02
 -1      3315 4.15198E-02
 -1      3316 5.61188E-02
 -1      3317 3.57537E-02
 -1      3318 2.69436E-02
 -1      3319 4.11979E-02
 -1      3320 2.43324E-02
 -1      3321 2.61402E-02
 -1      3322 3.28206E-02
 -1      3323 3.10687E-02
 -1      3324 3.98996E-02
 -1      3325 3.51380E-02
 -1      3326 4.71171E-02
 -1      3327 5.54829E-02
 -1      3328 4.72839E-02
 -1      3329 6.82008E-02
 -1      3330 7.82471E-02
 -1      3331 6.72194E-02
 -1      3332 9.22382E-02
 -1      3333 1.05029E-01
 -1      3334 9.39285E-02
 -1      3335 1.27173E-01
 -1      3336 1.52946E-01
 -1      3337 1.30064E-01
 -1      3338 1.86486E-01
 -1      3339 2.19331E-01
 -1      3340 1.85749E-01
 -1      3341 2.71765E-01
 -1      3342 3.24156E-01
 -1      3343 2.71722E-01
 -1      3344 3.84660E-01
 -1      3345 4.46405E-01
 -1      3346 3.84660E-01
 -1      3347 5.35233E-01
 -1      3348 6.28230E-01
 -1      3349 5.33994E-01
 -1      3350 7.21537E-01
 -1      3351 8.12545E-01
 -1      3352 7.16129E-01
 -1      3353 8.99675E-01
 -1      3354 9.83695E-01
 -1      3355 8.96565E-01
 -1      3356 1.09592E+00
 -1      3357 1.18194E+00
 -1      3358 1.09592E+00
 -1      3359 1.30217E+00
 -1      3360 1.31870E+00
 -1      3361 1.32838E+00
 -1      3362 1.32172E+00
 -1      3363 1.41759E+00
 -1      3364 1.45163E+00
 -1      3365 1.65895E+00
 -1      3366 1.71737E+00
 -1      3367 1.69601E+00
 -1      3368 2.22165E+00
 -1      3369 2.23777E+00
 -1      3370 2.44164E+00
 -1      3371 2.64768E+00
 -1      3372 2.68863E+00
 -1      3373 3.35583E+00
 -1      3374 2.34216E+00
 -1      3375 2.25735E+00
 -1      3376 3.41928E+00
 -1      3377 1.84849E+00
 -1      3378 1.76038E+00
 -1      3379 2.66395E+00
 -1      3380 1.81231E+00
 -1      3381 1.75004E+00
 -1      3382 2.30701E+00
 -1      3383 1.23985E+00
 -1      3384 1.20856E+00
 -1      3385 1.84875E+00
 -1      3386 1.07856E+00
 -1      3387 9.88071E-01
 -1      3388 1.20856E+00
 -1      3389 8.87104E-01
 -1      3390 8.04780E-01
 -1      3391 9.77594E-01
 -1      3392 7.09423E-01
 -1      3393 6.17501E-01
 -1      3394 7.81270E-01
 -1      3395 5.20143E-01
 -1      3396 4.36672E-01
 -1      3397 5.88555E-01
 -1      3398 3.74139E-01
 -1      3399 3.09505E-01
 -1      3400 4.28664E-01
 -1      3401 8.21953E-02
 -1      3402 9.32475E-02
 -1      3403 1.03135E-01
 -1      3404 1.14832E-01
 -1      3405 9.39261E-02
 -1      3406 1.44056E-01
 -1      3407 1.55080E-01
 -1      3408 6.30711E-02
 -1      3409 7.39966E-02
 -1      3410 7.58398E-02
 -1      3411 4.36140E-02
 -1      3412 5.41355E-02
 -1      3413 5.87054E-02
 -1      3414 4.60437E-02
 -1      3415 4.42582E-02
 -1      3416 5.04140E-02
 -1      3417 6.17245E-02
 -1      3418 4.95035E-02
 -1      3419 5.45180E-02
 -1      3420 9.88015E-02
 -1      3421 7.49288E-02
 -1      3422 7.11821E-02
 -1      3423 1.47818E-01
 -1      3424 1.17564E-01
 -1      3425 1.03149E-01
 -1      3426 2.25963E-01
 -1      3427 1.78098E-01
 -1      3428 1.52192E-01
 -1      3429 3.28946E-01
 -1      3430 2.62479E-01
 -1      3431 2.18988E-01
 -1      3432 4.90243E-01
 -1      3433 3.94659E-01
 -1      3434 3.21217E-01
 -1      3435 7.32537E-01
 -1      3436 5.93857E-01
 -1      3437 4.90543E-01
 -1      3438 1.09139E+00
 -1      3439 8.86721E-01
 -1      3440 7.48341E-01
 -1      3441 1.62853E+00
 -1      3442 1.31466E+00
 -1      3443 1.12580E+00
 -1      3444 2.50829E+00
 -1      3445 1.95705E+00
 -1      3446 1.67759E+00
 -1      3447 4.07842E+00
 -1      3448 3.20174E+00
 -1      3449 2.69956E+00
 -1      3450 7.93099E+00
 -1      3451 5.15473E+00
 -1      3452 4.46932E+00
 -1      3453 2.43983E-01
 -1      3454 2.47385E-01
 -1      3455 3.15724E-01
 -1      3456 3.23427E-01
 -1      3457 2.88931E-01
 -1      3458 3.39265E+00
 -1      3459 2.51756E+00
 -1      3460 3.03541E-01
 -1      3461 1.01543E+00
 -1      3462 1.26845E+00
 -1      3463 8.10998E-01
 -1      3464 3.20273E-01
 -1      3465 3.35192E-01
 -1      3466 2.25425E-01
 -1      3467 2.33729E-01
 -1      3468 2.64026E-01
 -1      3469 1.44533E+01
 -1      3470 1.03804E+01
 -1      3471 2.52987E-01
 -1      3472 2.04967E-01
 -1      3473 2.15673E-01
 -1      3474 1.78455E-01
 -1      3475 3.68391E-01
 -1      3476 3.87704E-01
 -1      3477 4.20648E-01
 -1      3478 4.70256E+00
 -1      3479 4.06837E+00
 -1      3480 3.94589E+00
 -1      3481 5.08712E+00
 -1      3482 7.61843E+00
 -1      3483 7.27382E+00
 -1      3484 7.27382E+00
 -1      3485 6.68445E+00
 -1      3486 1.52148E+00
 -1      3487 1.80557E+00
 -1      3488 1.26845E+00
 -1      3489 2.58064E-01
 -1      3490 6.01403E+00
 -1      3491 5.02635E+00
 -1      3492 7.99622E+00
 -1      3493 3.37908E+00
 -1      3494 2.97064E+00
 -1      3495 2.70491E+00
 -1      3496 3.38524E+00
 -1      3497 2.47941E-01
 -1      3498 2.25246E-01
 -1      3499 1.84233E-01
 -1      3500 2.52027E-01
 -1      3501 2.59193E+00
 -1      3502 2.20581E+00
 -1      3503 2.35626E+00
 -1      3504 5.05659E+00
 -1      3505 6.42193E+00
 -1      3506 2.53426E-01
 -1      3507 2.53426E-01
 -1      3508 2.11848E-01
 -1      3509 2.11308E-01
 -1      3510 2.14242E-01
 -1      3511 1.77497E-01
 -1      3512 1.23739E-01
 -1      3513 1.35645E-01
 -1      3514 1.12720E-01
 -1      3515 3.00313E-01
 -1      3516 8.09616E-01
 -1      3517 1.65383E-01
 -1      3518 1.79239E-01
 -1      3519 1.48750E-01
 -1      3520 1.11606E+01
 -1      3521 7.99505E+00
 -1      3522 7.62462E+00
 -1      3523 9.09914E+00
 -1      3524 5.23457E-01
 -1      3525 4.57315E-01
 -1      3526 4.86395E-01
 -1      3527 3.99272E+00
 -1      3528 4.80420E+00
 -1      3529 6.30360E+00
 -1      3530 6.27487E+00
 -1      3531 6.93977E-01
 -1      3532 7.70317E-01
 -1      3533 9.76132E-01
 -1      3534 2.60186E-01
 -1      3535 1.30037E-01
 -1      3536 1.55540E-01
 -1      3537 1.96649E-01
 -1      3538 1.95553E-01
 -1      3539 1.68292E-01
 -1      3540 3.37381E+00
 -1      3541 2.43407E+00
 -1      3542 2.74913E+00
 -1      3543 2.20581E+00
 -1      3544 2.16647E+00
 -1      3545 2.42273E+00
 -1      3546 1.88238E+00
 -1      3547 1.67050E-01
 -1      3548 4.37332E+00
 -1      3549 2.88545E+00
 -1      3550 4.15422E-01
 -1      3551 6.03795E+00
 -1      3552 7.87386E+00
 -1      3553 5.42444E+00
 -1      3554 6.52853E+00
 -1      3555 2.76004E-01
 -1      3556 2.76113E-01
 -1      3557 3.94589E+00
 -1      3558 2.91941E+00
 -1      3559 2.99180E+00
 -1      3560 3.28091E+00
 -1      3561 5.44863E+00
 -1      3562 4.22744E+00
 -1      3563 3.40698E+00
 -1      3564 2.85242E-01
 -1      3565 5.36753E+00
 -1      3566 2.64936E+00
 -1      3567 3.37969E+00
 -1      3568 4.37344E+00
 -1      3569 2.46991E+00
 -1      3570 2.17888E-01
 -1      3571 2.53426E-01
 -1      3572 2.49721E-01
 -1      3573 6.93977E-01
 -1      3574 9.36833E-01
 -1      3575 6.58278E-01
 -1      3576 1.15175E+00
 -1      3577 1.19105E+00
 -1      3578 1.44408E+00
 -1      3579 1.59032E-01
 -1      3580 1.69563E-01
 -1      3581 1.48767E-01
 -1      3582 1.52527E-01
 -1      3583 1.43926E-01
 -1      3584 1.58654E-01
 -1      3585 1.54747E-01
 -1      3586 1.29257E-01
 -1      3587 1.54200E-01
 -1      3588 1.45952E-01
 -1      3589 1.34837E-01
 -1      3590 1.41209E-01
 -1      3591 1.30819E-01
 -1      3592 1.29547E-01
 -1      3593 1.23688E-01
 -1      3594 1.15568E-01
 -1      3595 1.17673E-01
 -1      3596 1.08414E-01
 -1      3597 9.94564E-02
 -1      3598 1.03388E-01
 -1      3599 9.26536E-02
 -1      3600 8.32848E-02
 -1      3601 8.94322E-02
 -1      3602 7.59473E-02
 -1      3603 6.66140E-02
 -1      3604 7.52919E-02
 -1      3605 5.90900E-02
 -1      3606 4.99352E-02
 -1      3607 6.04304E-02
 -1      3608 4.78994E-02
 -1      3609 4.21333E-02
 -1      3610 5.08706E-02
 -1      3611 4.06654E-02
 -1      3612 3.80542E-02
 -1      3613 4.73668E-02
 -1      3614 3.72776E-02
 -1      3615 4.22061E-02
 -1      3616 4.51223E-02
 -1      3617 5.09540E-02
 -1      3618 5.81715E-02
 -1      3619 5.30936E-02
 -1      3620 6.84288E-02
 -1      3621 8.11468E-02
 -1      3622 7.20989E-02
 -1      3623 9.70086E-02
 -1      3624 1.11000E-01
 -1      3625 9.82180E-02
 -1      3626 1.36914E-01
 -1      3627 1.59059E-01
 -1      3628 1.39994E-01
 -1      3629 1.91184E-01
 -1      3630 2.24724E-01
 -1      3631 1.98034E-01
 -1      3632 2.67079E-01
 -1      3633 3.19513E-01
 -1      3634 2.72515E-01
 -1      3635 3.80494E-01
 -1      3636 4.40999E-01
 -1      3637 3.75851E-01
 -1      3638 5.33994E-01
 -1      3639 6.22823E-01
 -1      3640 5.29827E-01
 -1      3641 7.16129E-01
 -1      3642 8.09435E-01
 -1      3643 7.16129E-01
 -1      3644 9.91292E-01
 -1      3645 1.07842E+00
 -1      3646 9.91292E-01
 -1      3647 1.55096E+00
 -1      3648 1.66318E+00
 -1      3649 1.64568E+00
 -1      3650 1.39516E+00
 -1      3651 1.51539E+00
 -1      3652 1.85019E+00
 -1      3653 1.71308E+00
 -1      3654 1.71610E+00
 -1      3655 1.77986E+00
 -1      3656 2.44164E+00
 -1      3657 2.94592E+00
 -1      3658 3.51245E+00
 -1      3659 3.92236E+00
 -1      3660 3.83610E+00
 -1      3661 3.48963E+00
 -1      3662 3.07281E+00
 -1      3663 2.66395E+00
 -1      3664 2.71588E+00
 -1      3665 2.35895E+00
 -1      3666 1.84875E+00
 -1      3667 1.47145E+00
 -1      3668 1.34146E+00
 -1      3669 1.98165E+00
 -1      3670 1.07117E+00
 -1      3671 9.70205E-01
 -1      3672 1.33407E+00
 -1      3673 8.83874E-01
 -1      3674 7.88517E-01
 -1      3675 9.77452E-01
 -1      3676 6.85913E-01
 -1      3677 5.88555E-01
 -1      3678 7.88517E-01
 -1      3679 4.89517E-01
 -1      3680 4.26984E-01
 -1      3681 5.86875E-01
 -1      3682 5.31987E-02
 -1      3683 6.21344E-02
 -1      3684 1.32125E-01
 -1      3685 1.14533E-01
 -1      3686 6.74542E-02
 -1      3687 7.56530E-02
 -1      3688 6.19476E-02
 -1      3689 5.89605E-02
 -1      3690 5.55007E-02
 -1      3691 7.99315E-02
 -1      3692 6.67272E-02
 -1      3693 6.77099E-02
 -1      3694 1.10345E-01
 -1      3695 9.15823E-02
 -1      3696 8.71273E-02
 -1      3697 1.64530E-01
 -1      3698 1.34251E-01
 -1      3699 1.22684E-01
 -1      3700 2.33185E-01
 -1      3701 1.96669E-01
 -1      3702 1.78728E-01
 -1      3703 3.45000E-01
 -1      3704 2.79287E-01
 -1      3705 2.56969E-01
 -1      3706 5.12273E-01
 -1      3707 4.08660E-01
 -1      3708 3.66731E-01
 -1      3709 7.53612E-01
 -1      3710 5.99428E-01
 -1      3711 5.17545E-01
 -1      3712 1.17783E+00
 -1      3713 9.54558E-01
 -1      3714 8.05645E-01
 -1      3715 1.79841E+00
 -1      3716 1.46989E+00
 -1      3717 1.29865E+00
 -1      3718 2.89053E+00
 -1      3719 2.19709E+00
 -1      3720 1.98939E+00
 -1      3721 4.46932E+00
 -1      3722 3.39300E+00
 -1      3723 2.89053E+00
 -1      3724 4.34813E+00
 -1      3725 6.04414E+00
 -1      3726 2.52775E-01
 -1      3727 2.52775E-01
 -1      3728 2.15871E-01
 -1      3729 3.32630E-01
 -1      3730 1.54940E-01
 -1      3731 1.58346E-01
 -1      3732 2.52852E+00
 -1      3733 2.71588E+00
 -1      3734 1.16464E-01
 -1      3735 1.24875E-01
 -1      3736 5.88243E+00
 -1      3737 5.87624E+00
 -1      3738 1.46784E-01
 -1      3739 1.54782E-01
 -1      3740 1.34673E-01
 -1      3741 5.38779E-02
 -1      3742 5.32337E-02
 -1      3743 5.66627E-02
 -1      3744 5.83204E-02
 -1      3745 3.48963E+00
 -1      3746 2.49086E-01
 -1      3747 2.52775E-01
 -1      3748 2.17254E-01
 -1      3749 1.91968E-01
 -1      3750 8.36578E-02
 -1      3751 9.35454E-02
 -1      3752 7.52723E-02
 -1      3753 1.73678E-01
 -1      3754 1.79718E-01
 -1      3755 2.34227E+00
 -1      3756 1.96355E+00
 -1      3757 1.51893E-01
 -1      3758 1.47529E-01
 -1      3759 1.06521E-01
 -1      3760 1.28378E-01
 -1      3761 1.00221E-01
 -1      3762 1.09128E-01
 -1      3763 8.99530E-02
 -1      3764 1.31919E-01
 -1      3765 1.42221E-01
 -1      3766 1.18346E-01
 -1      3767 5.87624E+00
 -1      3768 5.20582E+00
 -1      3769 4.21877E+00
 -1      3770 3.89498E+00
 -1      3771 5.87624E+00
 -1      3772 1.61624E-01
 -1      3773 1.71878E-01
 -1      3774 4.13372E+00
 -1      3775 4.12545E+00
 -1      3776 3.54869E+00
 -1      3777 1.15175E+00
 -1      3778 1.89922E-01
 -1      3779 1.96355E+00
 -1      3780 1.70211E+00
 -1      3781 1.94346E+00
 -1      3782 1.47559E-01
 -1      3783 1.85729E-01
 -1      3784 1.85729E-01
 -1      3785 2.16619E-01
 -1      3786 7.64950E-01
 -1      3787 1.29953E-01
 -1      3788 1.97755E+00
 -1      3789 2.20581E+00
 -1      3790 5.04960E+00
 -1      3791 1.88238E+00
 -1      3792 2.24328E+00
 -1      3793 1.80497E+00
 -1      3794 3.93484E-01
 -1      3795 3.43290E-01
 -1      3796 2.27614E+00
 -1      3797 2.59121E+00
 -1      3798 2.51881E+00
 -1      3799 1.39748E-01
 -1      3800 2.76108E+00
 -1      3801 2.76108E+00
 -1      3802 3.12259E+00
 -1      3803 4.20554E+00
 -1      3804 4.46408E-01
 -1      3805 4.79606E-01
 -1      3806 1.03966E-01
 -1      3807 4.72748E+00
 -1      3808 2.58111E+00
 -1      3809 2.41154E+00
 -1      3810 2.03424E+00
 -1      3811 3.25683E+00
 -1      3812 3.51245E+00
 -1      3813 6.68664E-01
 -1      3814 6.42904E-01
 -1      3815 7.12515E-01
 -1      3816 2.84045E+00
 -1      3817 2.44774E+00
 -1      3818 5.71453E+00
 -1      3819 3.10228E+00
 -1      3820 4.02248E-01
 -1      3821 1.06507E-01
 -1      3822 1.12634E-01
 -1      3823 1.18499E-01
 -1      3824 1.17952E-01
 -1      3825 9.57492E-02
 -1      3826 1.18499E-01
 -1      3827 1.13756E-01
 -1      3828 1.02161E-01
 -1      3829 1.10817E-01
 -1      3830 1.03686E-01
 -1      3831 9.97691E-02
 -1      3832 9.86694E-02
 -1      3833 9.15160E-02
 -1      3834 9.18131E-02
 -1      3835 8.53712E-02
 -1      3836 7.85684E-02
 -1      3837 8.06521E-02
 -1      3838 7.36767E-02
 -1      3839 6.63392E-02
 -1      3840 6.96156E-02
 -1      3841 6.44165E-02
 -1      3842 5.68925E-02
 -1      3843 6.28012E-02
 -1      3844 5.50835E-02
 -1      3845 5.30477E-02
 -1      3846 5.90696E-02
 -1      3847 5.28110E-02
 -1      3848 5.13431E-02
 -1      3849 5.70239E-02
 -1      3850 5.18022E-02
 -1      3851 5.10256E-02
 -1      3852 5.72463E-02
 -1      3853 5.31908E-02
 -1      3854 6.19388E-02
 -1      3855 5.98707E-02
 -1      3856 7.37336E-02
 -1      3857 8.39909E-02
 -1      3858 7.38308E-02
 -1      3859 1.00188E-01
 -1      3860 1.16050E-01
 -1      3861 1.01823E-01
 -1      3862 1.36876E-01
 -1      3863 1.62791E-01
 -1      3864 1.38847E-01
 -1      3865 2.02016E-01
 -1      3866 2.34142E-01
 -1      3867 1.98899E-01
 -1      3868 2.90520E-01
 -1      3869 3.32875E-01
 -1      3870 2.94502E-01
 -1      3871 4.00297E-01
 -1      3872 4.61277E-01
 -1      3873 4.18301E-01
 -1      3874 5.40655E-01
 -1      3875 6.33650E-01
 -1      3876 5.65100E-01
 -1      3877 7.47315E-01
 -1      3878 8.40621E-01
 -1      3879 7.58142E-01
 -1      3880 9.91292E-01
 -1      3881 1.17315E+00
 -1      3882 1.02248E+00
 -1      3883 1.73202E+00
 -1      3884 2.20456E+00
 -1      3885 1.73202E+00
 -1      3886 2.11822E+00
 -1      3887 1.85019E+00
 -1      3888 2.04788E+00
 -1      3889 4.96602E-01
 -1      3890 1.27106E+00
 -1      3891 1.18473E+00
 -1      3892 1.05400E+00
 -1      3893 9.51394E-01
 -1      3894 1.34760E+00
 -1      3895 9.42805E-02
 -1      3896 8.26298E-02
 -1      3897 7.39796E-02
 -1      3898 6.62129E-02
 -1      3899 8.11328E-02
 -1      3900 1.84925E-01
 -1      3901 1.52786E-01
 -1      3902 2.56969E-01
 -1      3903 2.10866E-01
 -1      3904 1.84925E-01
 -1      3905 3.77739E-01
 -1      3906 3.14079E-01
 -1      3907 2.67977E-01
 -1      3908 5.55101E-01
 -1      3909 4.67946E-01
 -1      3910 4.15295E-01
 -1      3911 8.83715E-01
 -1      3912 6.82769E-01
 -1      3913 6.33170E-01
 -1      3914 1.34226E+00
 -1      3915 1.05019E+00
 -1      3916 9.27317E-01
 -1      3917 2.02841E+00
 -1      3918 1.62974E+00
 -1      3919 1.38128E+00
 -1      3920 4.77685E+00
 -1      3921 4.77685E+00
 -1      3922 4.15688E+00
 -1      3923 4.41055E+00
 -1      3924 3.48640E+00
 -1      3925 1.31893E-01
 -1      3926 1.07987E-01
 -1      3927 1.03490E-01
 -1      3928 1.38090E-01
 -1      3929 5.81656E-02
 -1      3930 6.34854E-02
 -1      3931 7.91836E-02
 -1      3932 8.58595E-02
 -1      3933 1.90670E-01
 -1      3934 2.71038E+00
 -1      3935 4.21938E+00
 -1      3936 3.28170E+00
 -1      3937 2.48375E+00
 -1      3938 7.19272E-01
 -1      3939 7.28037E-01
 -1      3940 8.91335E-01
 -1      3941 8.18310E-01
 -1      3942 9.18550E-02
 -1      3943 9.91917E-02
 -1      3944 8.10856E-02
 -1      3945 1.15928E+00
 -1      3946 1.37420E+00
 -1      3947 1.17549E-01
 -1      3948 1.17706E-01
 -1      3949 1.91583E-01
 -1      3950 1.90948E-01
 -1      3951 1.59424E-01
 -1      3952 1.30952E-01
 -1      3953 1.10156E-01
 -1      3954 9.35335E-02
 -1      3955 9.87393E-01
 -1      3956 6.59074E-02
 -1      3957 7.39122E-02
 -1      3958 6.98187E-02
 -1      3959 6.21254E-02
 -1      3960 1.13849E-01
 -1      3961 1.18411E-01
 -1      3962 1.01444E-01
 -1      3963 2.39637E+00
 -1      3964 1.96649E+00
 -1      3965 1.69620E+00
 -1      3966 3.03453E+00
 -1      3967 1.04087E-01
 -1      3968 1.11131E-01
 -1      3969 9.19767E-02
 -1      3970 4.02158E+00
 -1      3971 3.03453E+00
 -1      3972 1.90948E-01
 -1      3973 1.65000E-01
 -1      3974 1.31230E-01
 -1      3975 1.90948E-01
 -1      3976 2.20456E+00
 -1      3977 1.65278E-01
 -1      3978 1.90348E+00
 -1      3979 3.01651E+00
 -1      3980 2.92278E+00
 -1      3981 1.10684E+00
 -1      3982 1.08379E+00
 -1      3983 5.79798E-02
 -1      3984 5.95176E-02
 -1      3985 5.80148E-02
 -1      3986 2.32862E+00
 -1      3987 1.11904E-01
 -1      3988 1.05451E-01
 -1      3989 9.47798E-02
 -1      3990 1.16333E-01
 -1      3991 6.69586E-02
 -1      3992 6.06889E-02
 -1      3993 5.90661E-02
 -1      3994 2.99220E+00
 -1      3995 3.92988E+00
 -1      3996 2.23693E+00
 -1      3997 2.59650E+00
 -1      3998 2.23685E+00
 -1      3999 3.09898E+00
 -1      4000 3.45542E+00
 -1      4001 1.81250E+00
 -1      4002 9.95896E-02
 -1      4003 2.48375E+00
 -1      4004 9.59341E-02
 -1      4005 1.21149E-01
 -1      4006 1.27160E-01
 -1      4007 1.11337E-01
 -1      4008 2.49668E+00
 -1      4009 8.84966E-02
 -1      4010 7.98464E-02
 -1      4011 8.83684E-02
 -1      4012 8.89160E-02
 -1      4013 9.00844E-02
 -1      4014 8.71446E-02
 -1      4015 7.62916E-02
 -1      4016 8.66446E-02
 -1      4017 8.16284E-02
 -1      4018 7.69599E-02
 -1      4019 7.97325E-02
 -1      4020 7.35876E-02
 -1      4021 7.45639E-02
 -1      4022 7.17822E-02
 -1      4023 6.68905E-02
 -1      4024 7.08625E-02
 -1      4025 6.47239E-02
 -1      4026 6.28012E-02
 -1      4027 6.68905E-02
 -1      4028 6.21093E-02
 -1      4029 6.03004E-02
 -1      4030 6.40320E-02
 -1      4031 6.03004E-02
 -1      4032 6.00636E-02
 -1      4033 6.33400E-02
 -1      4034 6.31858E-02
 -1      4035 6.36449E-02
 -1      4036 6.64622E-02
 -1      4037 7.24579E-02
 -1      4038 7.46231E-02
 -1      4039 7.83973E-02
 -1      4040 9.01412E-02
 -1      4041 1.01936E-01
 -1      4042 1.02728E-01
 -1      4043 1.24388E-01
 -1      4044 1.40585E-01
 -1      4045 1.40698E-01
 -1      4046 1.75117E-01
 -1      4047 1.95943E-01
 -1      4048 1.97682E-01
 -1      4049 2.44577E-01
 -1      4050 2.83803E-01
 -1      4051 2.80848E-01
 -1      4052 3.47856E-01
 -1      4053 4.04234E-01
 -1      4054 3.93535E-01
 -1      4055 4.81292E-01
 -1      4056 5.48713E-01
 -1      4057 5.34646E-01
 -1      4058 6.46036E-01
 -1      4059 7.25413E-01
 -1      4060 7.09027E-01
 -1      4061 8.89432E-01
 -1      4062 1.00310E+00
 -1      4063 9.70368E-01
 -1      4064 1.22010E+00
 -1      4065 1.37077E+00
 -1      4066 1.35139E+00
 -1      4067 1.78187E+00
 -1      4068 2.34075E+00
 -1      4069 1.35091E-01
 -1      4070 1.35091E-01
 -1      4071 1.01043E-01
 -1      4072 9.75621E-01
 -1      4073 1.25050E+00
 -1      4074 8.22705E-02
 -1      4075 8.71660E-02
 -1      4076 3.27285E-01
 -1      4077 2.70174E-01
 -1      4078 2.21540E-01
 -1      4079 1.95599E-01
 -1      4080 2.80848E-01
 -1      4081 6.86271E-01
 -1      4082 5.58603E-01
 -1      4083 9.50073E-01
 -1      4084 7.83594E-01
 -1      4085 7.09027E-01
 -1      4086 1.44811E+00
 -1      4087 1.16063E+00
 -1      4088 1.01691E+00
 -1      4089 3.16139E+00
 -1      4090 1.76348E+00
 -1      4091 2.19425E+00
 -1      4092 8.71660E-02
 -1      4093 8.98835E-02
 -1      4094 7.74599E-02
 -1      4095 2.41831E+00
 -1      4096 2.25998E+00
 -1      4097 1.90348E+00
 -1      4098 1.29237E-01
 -1      4099 1.35091E-01
 -1      4100 1.04904E-01
 -1      4101 7.57750E-02
 -1      4102 8.17705E-02
 -1      4103 7.69599E-02
 -1      4104 1.03499E+00
 -1      4105 8.81713E-02
 -1      4106 8.73087E-02
 -1      4107 7.57478E-02
 -1      4108 4.81545E-01
 -1      4109 3.91338E-01
 -1      4110 3.93535E-01
 -1      4111 7.53357E-02
 -1      4112 7.16872E-02
 -1      4113 7.91965E-02
 -1      4114 7.64774E-02
 -1      4115 8.23417E-02
 -1      4116 6.90966E-02
 -1      4117 5.82797E-02
 -1      4118 2.44683E+00
 -1      4119 3.04122E+00
 -1      4120 2.22616E+00
 -1      4121 1.65806E+00
 -1      4122 1.43742E+00
 -1      4123 2.98441E+00
 -1      4124 3.01584E+00
 -1      4125 2.65940E+00
 -1      4126 2.45222E+00
 -1      4127 1.99945E+00
 -1      4128 1.57430E+00
 -1      4129 1.44358E+00
 -1      4130 1.90776E+00
 -1      4131 1.97949E+00
 -1      4132 6.87903E-02
 -1      4133 8.20634E-02
 -1      4134 7.62614E-02
 -1      4135 1.04015E-01
 -1      4136 1.02728E-01
 -1      4137 1.17722E-01
 -1      4138 5.34646E-01
 -1      4139 6.03832E-02
 -1      4140 7.10335E-02
 -1      4141 6.55095E-02
 -1      4142 7.83973E-02
 -1      4143 1.39478E+00
 -1      4144 1.16808E+00
 -1      4145 1.97682E-01
 -1      4146 1.61067E-01
 -1      4147 1.40174E-01
 -1      4148 2.08061E+00
 -1      4149 6.13359E-02
 -1      4150 6.15217E-02
 -1      4151 2.01771E+00
 -1      4152 9.48639E-02
 -1      4153 1.02827E-01
 -1      4154 7.30662E-02
 -1      4155 7.37511E-02
 -1      4156 6.77948E-02
 -1      4157 6.26011E-02
 -1      4158 6.50231E-02
 -1      4159 6.82706E-02
 -1      4160 6.44194E-02
 -1      4161 7.74599E-02
 -1      4162 7.69599E-02
 -1      4163 7.64599E-02
 -1      4164 7.45639E-02
 -1      4165 7.18551E-02
 -1      4166 7.00497E-02
 -1      4167 6.72780E-02
 -1      4168 6.51114E-02
 -1      4169 6.40320E-02
 -1      4170 6.33400E-02
 -1      4171 6.33400E-02
 -1      4172 6.64622E-02
 -1      4173 6.95844E-02
 -1      4174 7.83973E-02
 -1      4175 8.72103E-02
 -1      4176 1.02728E-01
 -1      4177 1.18246E-01
 -1      4178 1.40698E-01
 -1      4179 1.63150E-01
 -1      4180 1.97682E-01
 -1      4181 2.32214E-01
 -1      4182 2.80848E-01
 -1      4183 3.29482E-01
 -1      4184 3.93535E-01
 -1      4185 4.57588E-01
 -1      4186 5.34646E-01
 -1      4187 6.11703E-01
 -1      4188 7.09027E-01
 -1      4189 8.06350E-01
 -1      4190 1.01691E+00
 -1      4191 1.18093E+00
 -1      4192 1.39088E+00
 -1      4193 1.60788E+00
 -1      4194 1.63226E+00
 -1      4195 7.74599E-02
 -1      4196 2.04112E+00
 -1      4197 7.62916E-02
 -1      4198 7.91965E-02
 -1      4199 7.45794E-02
 -1      4200 6.11899E-02
 -1      4201 6.01386E-02
 -1      4202 6.21427E-02
 -1      4203 6.52648E-02
 -1      4204 6.85527E-02
 -1      4205 9.69407E-02
 -1      4206 7.12337E-02
 -1      4207 6.21427E-02
 -1      4208 1.40698E-01
 -1      4209 6.33074E-02
 -1      4210 2.10406E+00
 -1      4211 7.60238E-02
 -3
 9999
