    1C
    1UUSER                                                              
    1UDATE              27.october.2022                                 
    1UTIME              00:23:09                                        
    1UHOST                                                              
    1UPGM               CalculiX                                        
    1UVERSION           Version 2.17                             
    1UCOMPILETIME       Thu Jul 23 21:43:50 CEST 2020                    
    1UDIR                                                               
    1UDBN                                                               
    1UMAT    1SOLIDMATERIAL                                             
    2C                          4392                                     1
 -1         1 8.45454E+01 3.32356E+01 0.00000E+00
 -1         2 9.14824E+01 2.62359E+01 0.00000E+00
 -1         3 1.50000E+02 0.00000E+00 0.00000E+00
 -1         4 1.50000E+02 5.00000E+01 0.00000E+00
 -1         5 0.00000E+00 0.00000E+00 0.00000E+00
 -1         6 0.00000E+00 5.00000E+01 0.00000E+00
 -1         7 0.00000E+00 4.70500E+01 0.00000E+00
 -1         8 0.00000E+00 4.41000E+01 0.00000E+00
 -1         9 0.00000E+00 4.11500E+01 0.00000E+00
 -1        10 0.00000E+00 3.82000E+01 0.00000E+00
 -1        11 0.00000E+00 3.52500E+01 0.00000E+00
 -1        12 0.00000E+00 3.23500E+01 0.00000E+00
 -1        13 0.00000E+00 2.94000E+01 0.00000E+00
 -1        14 0.00000E+00 2.64500E+01 0.00000E+00
 -1        15 0.00000E+00 2.35000E+01 0.00000E+00
 -1        16 0.00000E+00 2.05500E+01 0.00000E+00
 -1        17 0.00000E+00 1.76000E+01 0.00000E+00
 -1        18 0.00000E+00 1.47000E+01 0.00000E+00
 -1        19 0.00000E+00 1.17500E+01 0.00000E+00
 -1        20 0.00000E+00 8.80000E+00 0.00000E+00
 -1        21 0.00000E+00 5.85000E+00 0.00000E+00
 -1        22 0.00000E+00 2.90000E+00 0.00000E+00
 -1        23 3.15000E+00 5.00000E+01 0.00000E+00
 -1        24 6.15000E+00 5.00000E+01 0.00000E+00
 -1        25 9.15000E+00 5.00000E+01 0.00000E+00
 -1        26 1.21500E+01 5.00000E+01 0.00000E+00
 -1        27 1.51500E+01 5.00000E+01 0.00000E+00
 -1        28 1.81500E+01 5.00000E+01 0.00000E+00
 -1        29 2.11500E+01 5.00000E+01 0.00000E+00
 -1        30 2.41500E+01 5.00000E+01 0.00000E+00
 -1        31 2.71500E+01 5.00000E+01 0.00000E+00
 -1        32 3.01500E+01 5.00000E+01 0.00000E+00
 -1        33 3.31500E+01 5.00000E+01 0.00000E+00
 -1        34 3.61500E+01 5.00000E+01 0.00000E+00
 -1        35 3.91500E+01 5.00000E+01 0.00000E+00
 -1        36 4.21500E+01 5.00000E+01 0.00000E+00
 -1        37 4.51500E+01 5.00000E+01 0.00000E+00
 -1        38 4.81500E+01 5.00000E+01 0.00000E+00
 -1        39 5.11500E+01 5.00000E+01 0.00000E+00
 -1        40 5.41500E+01 5.00000E+01 0.00000E+00
 -1        41 5.71500E+01 5.00000E+01 0.00000E+00
 -1        42 6.01500E+01 5.00000E+01 0.00000E+00
 -1        43 6.31500E+01 5.00000E+01 0.00000E+00
 -1        44 6.61500E+01 5.00000E+01 0.00000E+00
 -1        45 6.91500E+01 5.00000E+01 0.00000E+00
 -1        46 7.21500E+01 5.00000E+01 0.00000E+00
 -1        47 7.51500E+01 5.00000E+01 0.00000E+00
 -1        48 7.81500E+01 5.00000E+01 0.00000E+00
 -1        49 8.11500E+01 5.00000E+01 0.00000E+00
 -1        50 8.41500E+01 5.00000E+01 0.00000E+00
 -1        51 8.71500E+01 5.00000E+01 0.00000E+00
 -1        52 9.01500E+01 5.00000E+01 0.00000E+00
 -1        53 9.31500E+01 5.00000E+01 0.00000E+00
 -1        54 9.61500E+01 5.00000E+01 0.00000E+00
 -1        55 9.91500E+01 5.00000E+01 0.00000E+00
 -1        56 1.02150E+02 5.00000E+01 0.00000E+00
 -1        57 1.05150E+02 5.00000E+01 0.00000E+00
 -1        58 1.08150E+02 5.00000E+01 0.00000E+00
 -1        59 1.11150E+02 5.00000E+01 0.00000E+00
 -1        60 1.14150E+02 5.00000E+01 0.00000E+00
 -1        61 1.17150E+02 5.00000E+01 0.00000E+00
 -1        62 1.20150E+02 5.00000E+01 0.00000E+00
 -1        63 1.23150E+02 5.00000E+01 0.00000E+00
 -1        64 1.26150E+02 5.00000E+01 0.00000E+00
 -1        65 1.29150E+02 5.00000E+01 0.00000E+00
 -1        66 1.32150E+02 5.00000E+01 0.00000E+00
 -1        67 1.35150E+02 5.00000E+01 0.00000E+00
 -1        68 1.38150E+02 5.00000E+01 0.00000E+00
 -1        69 1.41150E+02 5.00000E+01 0.00000E+00
 -1        70 1.44150E+02 5.00000E+01 0.00000E+00
 -1        71 1.47150E+02 5.00000E+01 0.00000E+00
 -1        72 3.15000E+00 0.00000E+00 0.00000E+00
 -1        73 6.15000E+00 0.00000E+00 0.00000E+00
 -1        74 9.15000E+00 0.00000E+00 0.00000E+00
 -1        75 1.21500E+01 0.00000E+00 0.00000E+00
 -1        76 1.51500E+01 0.00000E+00 0.00000E+00
 -1        77 1.81500E+01 0.00000E+00 0.00000E+00
 -1        78 2.11500E+01 0.00000E+00 0.00000E+00
 -1        79 2.41500E+01 0.00000E+00 0.00000E+00
 -1        80 2.71500E+01 0.00000E+00 0.00000E+00
 -1        81 3.01500E+01 0.00000E+00 0.00000E+00
 -1        82 3.31500E+01 0.00000E+00 0.00000E+00
 -1        83 3.61500E+01 0.00000E+00 0.00000E+00
 -1        84 3.91500E+01 0.00000E+00 0.00000E+00
 -1        85 4.21500E+01 0.00000E+00 0.00000E+00
 -1        86 4.51500E+01 0.00000E+00 0.00000E+00
 -1        87 4.81500E+01 0.00000E+00 0.00000E+00
 -1        88 5.11500E+01 0.00000E+00 0.00000E+00
 -1        89 5.41500E+01 0.00000E+00 0.00000E+00
 -1        90 5.71500E+01 0.00000E+00 0.00000E+00
 -1        91 6.01500E+01 0.00000E+00 0.00000E+00
 -1        92 6.31500E+01 0.00000E+00 0.00000E+00
 -1        93 6.61500E+01 0.00000E+00 0.00000E+00
 -1        94 6.91500E+01 0.00000E+00 0.00000E+00
 -1        95 7.21500E+01 0.00000E+00 0.00000E+00
 -1        96 7.51500E+01 0.00000E+00 0.00000E+00
 -1        97 7.81500E+01 0.00000E+00 0.00000E+00
 -1        98 8.11500E+01 0.00000E+00 0.00000E+00
 -1        99 8.41500E+01 0.00000E+00 0.00000E+00
 -1       100 8.71500E+01 0.00000E+00 0.00000E+00
 -1       101 9.01500E+01 0.00000E+00 0.00000E+00
 -1       102 9.31500E+01 0.00000E+00 0.00000E+00
 -1       103 9.61500E+01 0.00000E+00 0.00000E+00
 -1       104 9.91500E+01 0.00000E+00 0.00000E+00
 -1       105 1.02150E+02 0.00000E+00 0.00000E+00
 -1       106 1.05150E+02 0.00000E+00 0.00000E+00
 -1       107 1.08150E+02 0.00000E+00 0.00000E+00
 -1       108 1.11150E+02 0.00000E+00 0.00000E+00
 -1       109 1.14150E+02 0.00000E+00 0.00000E+00
 -1       110 1.17150E+02 0.00000E+00 0.00000E+00
 -1       111 1.20150E+02 0.00000E+00 0.00000E+00
 -1       112 1.23150E+02 0.00000E+00 0.00000E+00
 -1       113 1.26150E+02 0.00000E+00 0.00000E+00
 -1       114 1.29150E+02 0.00000E+00 0.00000E+00
 -1       115 1.32150E+02 0.00000E+00 0.00000E+00
 -1       116 1.35150E+02 0.00000E+00 0.00000E+00
 -1       117 1.38150E+02 0.00000E+00 0.00000E+00
 -1       118 1.41150E+02 0.00000E+00 0.00000E+00
 -1       119 1.44150E+02 0.00000E+00 0.00000E+00
 -1       120 1.47150E+02 0.00000E+00 0.00000E+00
 -1       121 1.50000E+02 2.95000E+00 0.00000E+00
 -1       122 1.50000E+02 5.90000E+00 0.00000E+00
 -1       123 1.50000E+02 8.85000E+00 0.00000E+00
 -1       124 1.50000E+02 1.18000E+01 0.00000E+00
 -1       125 1.50000E+02 1.47500E+01 0.00000E+00
 -1       126 1.50000E+02 1.76500E+01 0.00000E+00
 -1       127 1.50000E+02 2.06000E+01 0.00000E+00
 -1       128 1.50000E+02 2.35500E+01 0.00000E+00
 -1       129 1.50000E+02 2.65000E+01 0.00000E+00
 -1       130 1.50000E+02 2.94500E+01 0.00000E+00
 -1       131 1.50000E+02 3.24000E+01 0.00000E+00
 -1       132 1.50000E+02 3.53000E+01 0.00000E+00
 -1       133 1.50000E+02 3.82500E+01 0.00000E+00
 -1       134 1.50000E+02 4.12000E+01 0.00000E+00
 -1       135 1.50000E+02 4.41500E+01 0.00000E+00
 -1       136 1.50000E+02 4.71000E+01 0.00000E+00
 -1       137 9.13003E+01 2.46495E+01 0.00000E+00
 -1       138 9.08478E+01 2.33235E+01 0.00000E+00
 -1       139 9.00096E+01 2.19406E+01 0.00000E+00
 -1       140 8.89694E+01 2.08631E+01 0.00000E+00
 -1       141 8.78128E+01 2.00789E+01 0.00000E+00
 -1       142 8.64662E+01 1.95229E+01 0.00000E+00
 -1       143 8.48768E+01 1.92470E+01 0.00000E+00
 -1       144 8.33638E+01 1.93258E+01 0.00000E+00
 -1       145 8.19823E+01 1.96976E+01 0.00000E+00
 -1       146 8.06522E+01 2.03767E+01 0.00000E+00
 -1       147 7.95453E+01 2.12735E+01 0.00000E+00
 -1       148 7.86580E+01 2.23531E+01 0.00000E+00
 -1       149 7.79635E+01 2.36856E+01 0.00000E+00
 -1       150 7.75738E+01 2.51085E+01 0.00000E+00
 -1       151 7.74942E+01 2.66423E+01 0.00000E+00
 -1       152 7.77303E+01 2.80823E+01 0.00000E+00
 -1       153 7.83068E+01 2.95317E+01 0.00000E+00
 -1       154 7.92035E+01 3.08330E+01 0.00000E+00
 -1       155 8.02977E+01 3.18473E+01 0.00000E+00
 -1       156 8.14886E+01 3.25634E+01 0.00000E+00
 -1       157 8.30801E+01 3.30940E+01 0.00000E+00
 -1       158 8.58936E+01 3.30922E+01 0.00000E+00
 -1       159 8.72265E+01 3.26756E+01 0.00000E+00
 -1       160 8.83935E+01 3.20413E+01 0.00000E+00
 -1       161 8.94239E+01 3.11938E+01 0.00000E+00
 -1       162 9.03054E+01 3.01208E+01 0.00000E+00
 -1       163 9.09382E+01 2.89418E+01 0.00000E+00
 -1       164 9.13467E+01 2.76076E+01 0.00000E+00
 -1       165 2.59800E+00 4.55750E+01 0.00000E+00
 -1       166 2.59800E+00 4.26250E+01 0.00000E+00
 -1       167 2.59800E+00 3.96750E+01 0.00000E+00
 -1       168 2.59800E+00 3.67250E+01 0.00000E+00
 -1       169 2.59800E+00 3.38250E+01 0.00000E+00
 -1       170 2.59800E+00 3.08750E+01 0.00000E+00
 -1       171 2.59800E+00 2.79250E+01 0.00000E+00
 -1       172 2.59800E+00 2.49750E+01 0.00000E+00
 -1       173 2.59800E+00 2.20250E+01 0.00000E+00
 -1       174 2.59800E+00 1.90750E+01 0.00000E+00
 -1       175 2.59800E+00 1.61750E+01 0.00000E+00
 -1       176 2.59800E+00 1.32250E+01 0.00000E+00
 -1       177 2.59800E+00 1.02750E+01 0.00000E+00
 -1       178 2.59800E+00 7.32500E+00 0.00000E+00
 -1       179 2.59800E+00 4.37500E+00 0.00000E+00
 -1       180 2.87400E+00 2.18750E+00 0.00000E+00
 -1       181 4.65000E+00 4.74020E+01 0.00000E+00
 -1       182 7.65000E+00 4.74020E+01 0.00000E+00
 -1       183 1.06500E+01 4.74020E+01 0.00000E+00
 -1       184 1.36500E+01 4.74020E+01 0.00000E+00
 -1       185 1.66500E+01 4.74020E+01 0.00000E+00
 -1       186 1.96500E+01 4.74020E+01 0.00000E+00
 -1       187 2.26500E+01 4.74020E+01 0.00000E+00
 -1       188 2.56500E+01 4.74020E+01 0.00000E+00
 -1       189 2.86500E+01 4.74020E+01 0.00000E+00
 -1       190 3.16500E+01 4.74020E+01 0.00000E+00
 -1       191 3.46500E+01 4.74020E+01 0.00000E+00
 -1       192 3.76500E+01 4.74020E+01 0.00000E+00
 -1       193 4.06500E+01 4.74020E+01 0.00000E+00
 -1       194 4.36500E+01 4.74020E+01 0.00000E+00
 -1       195 4.66500E+01 4.74020E+01 0.00000E+00
 -1       196 4.96500E+01 4.74020E+01 0.00000E+00
 -1       197 5.26500E+01 4.74020E+01 0.00000E+00
 -1       198 5.56500E+01 4.74020E+01 0.00000E+00
 -1       199 5.86500E+01 4.74020E+01 0.00000E+00
 -1       200 6.16500E+01 4.74020E+01 0.00000E+00
 -1       201 6.46500E+01 4.74020E+01 0.00000E+00
 -1       202 6.76500E+01 4.74020E+01 0.00000E+00
 -1       203 7.06500E+01 4.74020E+01 0.00000E+00
 -1       204 7.36500E+01 4.74020E+01 0.00000E+00
 -1       205 7.66500E+01 4.74020E+01 0.00000E+00
 -1       206 7.96500E+01 4.74020E+01 0.00000E+00
 -1       207 8.26500E+01 4.74020E+01 0.00000E+00
 -1       208 8.56500E+01 4.74020E+01 0.00000E+00
 -1       209 8.86500E+01 4.74020E+01 0.00000E+00
 -1       210 9.16500E+01 4.74020E+01 0.00000E+00
 -1       211 9.46500E+01 4.74020E+01 0.00000E+00
 -1       212 9.76500E+01 4.74020E+01 0.00000E+00
 -1       213 1.00650E+02 4.74020E+01 0.00000E+00
 -1       214 1.03650E+02 4.74020E+01 0.00000E+00
 -1       215 1.06650E+02 4.74020E+01 0.00000E+00
 -1       216 1.09650E+02 4.74020E+01 0.00000E+00
 -1       217 1.12650E+02 4.74020E+01 0.00000E+00
 -1       218 1.15650E+02 4.74020E+01 0.00000E+00
 -1       219 1.18650E+02 4.74020E+01 0.00000E+00
 -1       220 1.21650E+02 4.74020E+01 0.00000E+00
 -1       221 1.24650E+02 4.74020E+01 0.00000E+00
 -1       222 1.27650E+02 4.74020E+01 0.00000E+00
 -1       223 1.30650E+02 4.74020E+01 0.00000E+00
 -1       224 1.33650E+02 4.74020E+01 0.00000E+00
 -1       225 1.36650E+02 4.74020E+01 0.00000E+00
 -1       226 1.39650E+02 4.74020E+01 0.00000E+00
 -1       227 1.42650E+02 4.74020E+01 0.00000E+00
 -1       228 1.45650E+02 4.74020E+01 0.00000E+00
 -1       229 5.87400E+00 2.18750E+00 0.00000E+00
 -1       230 8.87400E+00 2.18750E+00 0.00000E+00
 -1       231 1.18740E+01 2.18750E+00 0.00000E+00
 -1       232 1.48740E+01 2.18750E+00 0.00000E+00
 -1       233 1.78740E+01 2.18750E+00 0.00000E+00
 -1       234 2.08740E+01 2.18750E+00 0.00000E+00
 -1       235 2.38740E+01 2.18750E+00 0.00000E+00
 -1       236 2.68740E+01 2.18750E+00 0.00000E+00
 -1       237 2.98740E+01 2.18750E+00 0.00000E+00
 -1       238 3.28740E+01 2.18750E+00 0.00000E+00
 -1       239 3.58740E+01 2.18750E+00 0.00000E+00
 -1       240 3.88740E+01 2.18750E+00 0.00000E+00
 -1       241 4.18740E+01 2.18750E+00 0.00000E+00
 -1       242 4.48740E+01 2.18750E+00 0.00000E+00
 -1       243 4.78740E+01 2.18750E+00 0.00000E+00
 -1       244 5.08740E+01 2.18750E+00 0.00000E+00
 -1       245 5.38740E+01 2.18750E+00 0.00000E+00
 -1       246 5.68740E+01 2.18750E+00 0.00000E+00
 -1       247 5.98740E+01 2.18750E+00 0.00000E+00
 -1       248 6.28740E+01 2.18750E+00 0.00000E+00
 -1       249 6.58740E+01 2.18750E+00 0.00000E+00
 -1       250 6.88740E+01 2.18750E+00 0.00000E+00
 -1       251 7.18740E+01 2.18750E+00 0.00000E+00
 -1       252 7.48740E+01 2.18750E+00 0.00000E+00
 -1       253 7.78740E+01 2.18750E+00 0.00000E+00
 -1       254 8.08740E+01 2.18750E+00 0.00000E+00
 -1       255 8.38740E+01 2.18750E+00 0.00000E+00
 -1       256 8.68740E+01 2.18750E+00 0.00000E+00
 -1       257 8.98740E+01 2.18750E+00 0.00000E+00
 -1       258 9.28740E+01 2.18750E+00 0.00000E+00
 -1       259 9.58740E+01 2.18750E+00 0.00000E+00
 -1       260 9.88740E+01 2.18750E+00 0.00000E+00
 -1       261 1.01874E+02 2.18750E+00 0.00000E+00
 -1       262 1.04874E+02 2.18750E+00 0.00000E+00
 -1       263 1.07874E+02 2.18750E+00 0.00000E+00
 -1       264 1.10874E+02 2.18750E+00 0.00000E+00
 -1       265 1.13874E+02 2.18750E+00 0.00000E+00
 -1       266 1.16874E+02 2.18750E+00 0.00000E+00
 -1       267 1.19874E+02 2.18750E+00 0.00000E+00
 -1       268 1.22874E+02 2.18750E+00 0.00000E+00
 -1       269 1.25874E+02 2.18750E+00 0.00000E+00
 -1       270 1.28874E+02 2.18750E+00 0.00000E+00
 -1       271 1.31874E+02 2.18750E+00 0.00000E+00
 -1       272 1.34874E+02 2.18750E+00 0.00000E+00
 -1       273 1.37874E+02 2.18750E+00 0.00000E+00
 -1       274 1.40874E+02 2.18750E+00 0.00000E+00
 -1       275 1.43874E+02 2.18750E+00 0.00000E+00
 -1       276 1.46874E+02 2.18750E+00 0.00000E+00
 -1       277 1.47402E+02 4.42500E+00 0.00000E+00
 -1       278 1.47402E+02 7.37500E+00 0.00000E+00
 -1       279 1.47402E+02 1.03250E+01 0.00000E+00
 -1       280 1.47402E+02 1.32750E+01 0.00000E+00
 -1       281 1.47402E+02 1.61750E+01 0.00000E+00
 -1       282 1.47402E+02 1.91250E+01 0.00000E+00
 -1       283 1.47402E+02 2.20750E+01 0.00000E+00
 -1       284 1.47402E+02 2.50250E+01 0.00000E+00
 -1       285 1.47402E+02 2.79750E+01 0.00000E+00
 -1       286 1.47402E+02 3.09250E+01 0.00000E+00
 -1       287 1.47402E+02 3.38250E+01 0.00000E+00
 -1       288 1.47402E+02 3.67750E+01 0.00000E+00
 -1       289 1.47402E+02 3.97250E+01 0.00000E+00
 -1       290 1.47402E+02 4.26750E+01 0.00000E+00
 -1       291 1.46526E+02 4.50385E+01 0.00000E+00
 -1       292 9.29288E+01 2.52662E+01 0.00000E+00
 -1       293 9.22215E+01 2.35949E+01 0.00000E+00
 -1       294 9.16805E+01 2.18733E+01 0.00000E+00
 -1       295 9.04220E+01 2.05015E+01 0.00000E+00
 -1       296 8.90715E+01 1.94675E+01 0.00000E+00
 -1       297 8.76342E+01 1.86028E+01 0.00000E+00
 -1       298 8.59075E+01 1.80253E+01 0.00000E+00
 -1       299 8.40572E+01 1.80756E+01 0.00000E+00
 -1       300 8.23363E+01 1.82600E+01 0.00000E+00
 -1       301 8.07278E+01 1.88827E+01 0.00000E+00
 -1       302 7.93356E+01 1.98831E+01 0.00000E+00
 -1       303 7.81650E+01 2.10435E+01 0.00000E+00
 -1       304 7.72356E+01 2.24590E+01 0.00000E+00
 -1       305 7.65993E+01 2.40768E+01 0.00000E+00
 -1       306 7.61559E+01 2.58039E+01 0.00000E+00
 -1       307 7.63332E+01 2.75721E+01 0.00000E+00
 -1       308 7.67363E+01 2.93170E+01 0.00000E+00
 -1       309 7.75499E+01 3.10129E+01 0.00000E+00
 -1       310 7.89264E+01 3.22293E+01 0.00000E+00
 -1       311 8.02684E+01 3.32444E+01 0.00000E+00
 -1       312 8.17949E+01 3.42968E+01 0.00000E+00
 -1       313 8.36880E+01 3.44550E+01 0.00000E+00
 -1       314 8.53477E+01 3.43695E+01 0.00000E+00
 -1       315 8.69717E+01 3.42010E+01 0.00000E+00
 -1       316 8.83890E+01 3.34237E+01 0.00000E+00
 -1       317 8.96789E+01 3.25540E+01 0.00000E+00
 -1       318 9.08662E+01 3.14801E+01 0.00000E+00
 -1       319 9.16901E+01 3.01047E+01 0.00000E+00
 -1       320 9.23819E+01 2.86541E+01 0.00000E+00
 -1       321 9.26211E+01 2.70411E+01 0.00000E+00
 -1       322 5.19600E+00 4.11500E+01 0.00000E+00
 -1       323 5.19600E+00 4.41000E+01 0.00000E+00
 -1       324 5.19600E+00 3.52750E+01 0.00000E+00
 -1       325 5.19600E+00 3.23250E+01 0.00000E+00
 -1       326 5.19600E+00 2.93750E+01 0.00000E+00
 -1       327 5.19600E+00 2.64250E+01 0.00000E+00
 -1       328 5.19600E+00 2.34750E+01 0.00000E+00
 -1       329 5.19600E+00 2.05250E+01 0.00000E+00
 -1       330 5.19600E+00 1.76250E+01 0.00000E+00
 -1       331 5.19600E+00 1.46750E+01 0.00000E+00
 -1       332 5.19600E+00 1.17250E+01 0.00000E+00
 -1       333 5.19600E+00 8.77500E+00 0.00000E+00
 -1       334 5.19600E+00 5.82500E+00 0.00000E+00
 -1       335 5.53500E+00 4.00625E+00 0.00000E+00
 -1       336 8.53500E+00 4.00625E+00 0.00000E+00
 -1       337 9.15000E+00 4.48040E+01 0.00000E+00
 -1       338 1.21500E+01 4.48040E+01 0.00000E+00
 -1       339 1.51500E+01 4.48040E+01 0.00000E+00
 -1       340 1.81500E+01 4.48040E+01 0.00000E+00
 -1       341 2.11500E+01 4.48040E+01 0.00000E+00
 -1       342 2.41500E+01 4.48040E+01 0.00000E+00
 -1       343 2.71500E+01 4.48040E+01 0.00000E+00
 -1       344 3.01500E+01 4.48040E+01 0.00000E+00
 -1       345 3.31500E+01 4.48040E+01 0.00000E+00
 -1       346 3.61500E+01 4.48040E+01 0.00000E+00
 -1       347 3.91500E+01 4.48040E+01 0.00000E+00
 -1       348 4.21500E+01 4.48040E+01 0.00000E+00
 -1       349 4.51500E+01 4.48040E+01 0.00000E+00
 -1       350 4.81500E+01 4.48040E+01 0.00000E+00
 -1       351 5.11500E+01 4.48040E+01 0.00000E+00
 -1       352 5.41500E+01 4.48040E+01 0.00000E+00
 -1       353 5.71500E+01 4.48040E+01 0.00000E+00
 -1       354 6.01500E+01 4.48040E+01 0.00000E+00
 -1       355 6.31500E+01 4.48040E+01 0.00000E+00
 -1       356 6.61500E+01 4.48040E+01 0.00000E+00
 -1       357 6.91500E+01 4.48040E+01 0.00000E+00
 -1       358 7.21500E+01 4.48040E+01 0.00000E+00
 -1       359 7.51500E+01 4.48040E+01 0.00000E+00
 -1       360 7.81500E+01 4.48040E+01 0.00000E+00
 -1       361 8.11500E+01 4.48040E+01 0.00000E+00
 -1       362 8.41500E+01 4.48040E+01 0.00000E+00
 -1       363 8.71500E+01 4.48040E+01 0.00000E+00
 -1       364 9.01500E+01 4.48040E+01 0.00000E+00
 -1       365 9.31500E+01 4.48040E+01 0.00000E+00
 -1       366 9.61500E+01 4.48040E+01 0.00000E+00
 -1       367 9.91500E+01 4.48040E+01 0.00000E+00
 -1       368 1.02150E+02 4.48040E+01 0.00000E+00
 -1       369 1.05150E+02 4.48040E+01 0.00000E+00
 -1       370 1.08150E+02 4.48040E+01 0.00000E+00
 -1       371 1.11150E+02 4.48040E+01 0.00000E+00
 -1       372 1.14150E+02 4.48040E+01 0.00000E+00
 -1       373 1.17150E+02 4.48040E+01 0.00000E+00
 -1       374 1.20150E+02 4.48040E+01 0.00000E+00
 -1       375 1.23150E+02 4.48040E+01 0.00000E+00
 -1       376 1.26150E+02 4.48040E+01 0.00000E+00
 -1       377 1.29150E+02 4.48040E+01 0.00000E+00
 -1       378 1.32150E+02 4.48040E+01 0.00000E+00
 -1       379 1.35150E+02 4.48040E+01 0.00000E+00
 -1       380 1.38150E+02 4.48040E+01 0.00000E+00
 -1       381 1.41150E+02 4.48040E+01 0.00000E+00
 -1       382 1.43838E+02 4.49212E+01 0.00000E+00
 -1       383 1.15350E+01 4.00625E+00 0.00000E+00
 -1       384 1.45350E+01 4.00625E+00 0.00000E+00
 -1       385 1.75350E+01 4.00625E+00 0.00000E+00
 -1       386 2.05350E+01 4.00625E+00 0.00000E+00
 -1       387 2.35350E+01 4.00625E+00 0.00000E+00
 -1       388 2.65350E+01 4.00625E+00 0.00000E+00
 -1       389 2.95350E+01 4.00625E+00 0.00000E+00
 -1       390 3.25350E+01 4.00625E+00 0.00000E+00
 -1       391 3.55350E+01 4.00625E+00 0.00000E+00
 -1       392 3.85350E+01 4.00625E+00 0.00000E+00
 -1       393 4.15350E+01 4.00625E+00 0.00000E+00
 -1       394 4.45350E+01 4.00625E+00 0.00000E+00
 -1       395 4.75350E+01 4.00625E+00 0.00000E+00
 -1       396 5.05350E+01 4.00625E+00 0.00000E+00
 -1       397 5.35350E+01 4.00625E+00 0.00000E+00
 -1       398 5.65350E+01 4.00625E+00 0.00000E+00
 -1       399 5.95350E+01 4.00625E+00 0.00000E+00
 -1       400 6.25350E+01 4.00625E+00 0.00000E+00
 -1       401 6.55350E+01 4.00625E+00 0.00000E+00
 -1       402 6.85350E+01 4.00625E+00 0.00000E+00
 -1       403 7.15350E+01 4.00625E+00 0.00000E+00
 -1       404 7.45350E+01 4.00625E+00 0.00000E+00
 -1       405 7.75350E+01 4.00625E+00 0.00000E+00
 -1       406 8.05350E+01 4.00625E+00 0.00000E+00
 -1       407 8.35350E+01 4.00625E+00 0.00000E+00
 -1       408 8.65350E+01 4.00625E+00 0.00000E+00
 -1       409 8.95350E+01 4.00625E+00 0.00000E+00
 -1       410 9.25350E+01 4.00625E+00 0.00000E+00
 -1       411 9.55350E+01 4.00625E+00 0.00000E+00
 -1       412 9.85350E+01 4.00625E+00 0.00000E+00
 -1       413 1.01535E+02 4.00625E+00 0.00000E+00
 -1       414 1.04535E+02 4.00625E+00 0.00000E+00
 -1       415 1.07535E+02 4.00625E+00 0.00000E+00
 -1       416 1.10535E+02 4.00625E+00 0.00000E+00
 -1       417 1.13535E+02 4.00625E+00 0.00000E+00
 -1       418 1.16535E+02 4.00625E+00 0.00000E+00
 -1       419 1.19535E+02 4.00625E+00 0.00000E+00
 -1       420 1.22535E+02 4.00625E+00 0.00000E+00
 -1       421 1.25535E+02 4.00625E+00 0.00000E+00
 -1       422 1.28535E+02 4.00625E+00 0.00000E+00
 -1       423 1.31535E+02 4.00625E+00 0.00000E+00
 -1       424 1.34535E+02 4.00625E+00 0.00000E+00
 -1       425 1.37535E+02 4.00625E+00 0.00000E+00
 -1       426 1.40535E+02 4.00625E+00 0.00000E+00
 -1       427 1.43535E+02 4.00625E+00 0.00000E+00
 -1       428 1.45469E+02 4.21562E+00 0.00000E+00
 -1       429 1.44804E+02 1.18000E+01 0.00000E+00
 -1       430 1.44804E+02 8.85000E+00 0.00000E+00
 -1       431 1.45136E+02 6.53281E+00 0.00000E+00
 -1       432 1.44804E+02 1.47000E+01 0.00000E+00
 -1       433 1.44804E+02 1.76500E+01 0.00000E+00
 -1       434 1.44804E+02 2.06000E+01 0.00000E+00
 -1       435 1.44804E+02 2.35500E+01 0.00000E+00
 -1       436 1.44804E+02 2.65000E+01 0.00000E+00
 -1       437 1.44804E+02 2.94500E+01 0.00000E+00
 -1       438 1.44804E+02 3.23500E+01 0.00000E+00
 -1       439 1.44804E+02 3.53000E+01 0.00000E+00
 -1       440 1.44804E+02 3.82500E+01 0.00000E+00
 -1       441 1.44804E+02 4.12000E+01 0.00000E+00
 -1       442 9.32675E+01 2.23204E+01 0.00000E+00
 -1       443 9.42997E+01 2.64180E+01 0.00000E+00
 -1       444 9.39748E+01 2.39917E+01 0.00000E+00
 -1       445 9.20064E+01 2.03112E+01 0.00000E+00
 -1       446 9.07385E+01 1.86893E+01 0.00000E+00
 -1       447 5.19600E+00 3.82125E+01 0.00000E+00
 -1       448 8.72351E+01 1.69259E+01 0.00000E+00
 -1       449 8.49380E+01 1.64197E+01 0.00000E+00
 -1       450 8.30497E+01 1.67957E+01 0.00000E+00
 -1       451 8.10338E+01 1.72845E+01 0.00000E+00
 -1       452 7.92264E+01 1.82622E+01 0.00000E+00
 -1       453 7.76608E+01 1.93643E+01 0.00000E+00
 -1       454 7.66168E+01 2.10399E+01 0.00000E+00
 -1       455 7.54773E+01 2.27015E+01 0.00000E+00
 -1       456 7.50410E+01 2.45972E+01 0.00000E+00
 -1       457 7.47047E+01 2.68424E+01 0.00000E+00
 -1       458 7.51902E+01 2.87552E+01 0.00000E+00
 -1       459 7.58234E+01 3.07981E+01 0.00000E+00
 -1       460 7.71579E+01 3.28435E+01 0.00000E+00
 -1       461 7.88154E+01 3.37706E+01 0.00000E+00
 -1       462 8.01533E+01 3.50447E+01 0.00000E+00
 -1       463 8.25986E+01 3.60850E+01 0.00000E+00
 -1       464 8.45846E+01 3.57067E+01 0.00000E+00
 -1       465 8.62085E+01 3.55382E+01 0.00000E+00
 -1       466 8.83842E+01 3.50957E+01 0.00000E+00
 -1       467 8.96741E+01 3.42260E+01 0.00000E+00
 -1       468 9.14230E+01 3.32891E+01 0.00000E+00
 -1       469 9.25339E+01 3.15446E+01 0.00000E+00
 -1       470 9.32257E+01 3.00940E+01 0.00000E+00
 -1       471 9.40605E+01 2.80310E+01 0.00000E+00
 -1       472 8.93012E+01 1.78246E+01 0.00000E+00
 -1       473 9.53458E+01 2.51435E+01 0.00000E+00
 -1       474 9.35934E+01 2.07583E+01 0.00000E+00
 -1       475 1.00350E+01 6.60425E+00 0.00000E+00
 -1       476 7.79400E+00 3.08500E+01 0.00000E+00
 -1       477 7.79400E+00 3.38000E+01 0.00000E+00
 -1       478 7.79400E+00 2.49500E+01 0.00000E+00
 -1       479 7.79400E+00 2.20000E+01 0.00000E+00
 -1       480 7.79400E+00 1.91000E+01 0.00000E+00
 -1       481 7.79400E+00 1.61500E+01 0.00000E+00
 -1       482 7.79400E+00 1.32000E+01 0.00000E+00
 -1       483 7.79400E+00 1.02500E+01 0.00000E+00
 -1       484 1.30350E+01 6.60425E+00 0.00000E+00
 -1       485 1.06500E+01 4.22060E+01 0.00000E+00
 -1       486 8.89523E+01 1.58024E+01 0.00000E+00
 -1       487 1.36500E+01 4.22060E+01 0.00000E+00
 -1       488 1.66500E+01 4.22060E+01 0.00000E+00
 -1       489 1.96500E+01 4.22060E+01 0.00000E+00
 -1       490 2.26500E+01 4.22060E+01 0.00000E+00
 -1       491 2.56500E+01 4.22060E+01 0.00000E+00
 -1       492 2.86500E+01 4.22060E+01 0.00000E+00
 -1       493 3.16500E+01 4.22060E+01 0.00000E+00
 -1       494 3.46500E+01 4.22060E+01 0.00000E+00
 -1       495 3.76500E+01 4.22060E+01 0.00000E+00
 -1       496 4.06500E+01 4.22060E+01 0.00000E+00
 -1       497 4.36500E+01 4.22060E+01 0.00000E+00
 -1       498 4.66500E+01 4.22060E+01 0.00000E+00
 -1       499 4.96500E+01 4.22060E+01 0.00000E+00
 -1       500 5.26500E+01 4.22060E+01 0.00000E+00
 -1       501 5.56500E+01 4.22060E+01 0.00000E+00
 -1       502 5.86500E+01 4.22060E+01 0.00000E+00
 -1       503 6.16500E+01 4.22060E+01 0.00000E+00
 -1       504 6.46500E+01 4.22060E+01 0.00000E+00
 -1       505 6.76500E+01 4.22060E+01 0.00000E+00
 -1       506 7.06500E+01 4.22060E+01 0.00000E+00
 -1       507 7.36500E+01 4.22060E+01 0.00000E+00
 -1       508 7.66500E+01 4.22060E+01 0.00000E+00
 -1       509 7.96500E+01 4.22060E+01 0.00000E+00
 -1       510 8.26500E+01 4.22060E+01 0.00000E+00
 -1       511 8.56500E+01 4.22060E+01 0.00000E+00
 -1       512 8.86500E+01 4.22060E+01 0.00000E+00
 -1       513 9.16500E+01 4.22060E+01 0.00000E+00
 -1       514 9.46500E+01 4.22060E+01 0.00000E+00
 -1       515 9.76500E+01 4.22060E+01 0.00000E+00
 -1       516 1.00650E+02 4.22060E+01 0.00000E+00
 -1       517 1.03650E+02 4.22060E+01 0.00000E+00
 -1       518 1.06650E+02 4.22060E+01 0.00000E+00
 -1       519 1.09650E+02 4.22060E+01 0.00000E+00
 -1       520 1.12650E+02 4.22060E+01 0.00000E+00
 -1       521 1.15650E+02 4.22060E+01 0.00000E+00
 -1       522 1.18650E+02 4.22060E+01 0.00000E+00
 -1       523 1.21650E+02 4.22060E+01 0.00000E+00
 -1       524 1.24650E+02 4.22060E+01 0.00000E+00
 -1       525 1.27650E+02 4.22060E+01 0.00000E+00
 -1       526 1.30650E+02 4.22060E+01 0.00000E+00
 -1       527 1.33650E+02 4.22060E+01 0.00000E+00
 -1       528 1.36650E+02 4.22060E+01 0.00000E+00
 -1       529 1.39650E+02 4.22060E+01 0.00000E+00
 -1       530 9.52006E+01 2.24876E+01 0.00000E+00
 -1       531 1.90350E+01 6.60425E+00 0.00000E+00
 -1       532 2.20350E+01 6.60425E+00 0.00000E+00
 -1       533 2.50350E+01 6.60425E+00 0.00000E+00
 -1       534 2.80350E+01 6.60425E+00 0.00000E+00
 -1       535 3.10350E+01 6.60425E+00 0.00000E+00
 -1       536 3.40350E+01 6.60425E+00 0.00000E+00
 -1       537 3.70350E+01 6.60425E+00 0.00000E+00
 -1       538 4.00350E+01 6.60425E+00 0.00000E+00
 -1       539 4.30350E+01 6.60425E+00 0.00000E+00
 -1       540 4.60350E+01 6.60425E+00 0.00000E+00
 -1       541 4.90350E+01 6.60425E+00 0.00000E+00
 -1       542 5.20350E+01 6.60425E+00 0.00000E+00
 -1       543 5.50350E+01 6.60425E+00 0.00000E+00
 -1       544 5.80350E+01 6.60425E+00 0.00000E+00
 -1       545 6.10350E+01 6.60425E+00 0.00000E+00
 -1       546 6.40350E+01 6.60425E+00 0.00000E+00
 -1       547 6.70350E+01 6.60425E+00 0.00000E+00
 -1       548 7.00350E+01 6.60425E+00 0.00000E+00
 -1       549 7.30350E+01 6.60425E+00 0.00000E+00
 -1       550 7.60350E+01 6.60425E+00 0.00000E+00
 -1       551 7.90350E+01 6.60425E+00 0.00000E+00
 -1       552 8.20350E+01 6.60425E+00 0.00000E+00
 -1       553 8.50350E+01 6.60425E+00 0.00000E+00
 -1       554 8.80350E+01 6.60425E+00 0.00000E+00
 -1       555 9.10350E+01 6.60425E+00 0.00000E+00
 -1       556 9.40350E+01 6.60425E+00 0.00000E+00
 -1       557 9.70350E+01 6.60425E+00 0.00000E+00
 -1       558 1.00035E+02 6.60425E+00 0.00000E+00
 -1       559 1.03035E+02 6.60425E+00 0.00000E+00
 -1       560 1.06035E+02 6.60425E+00 0.00000E+00
 -1       561 1.09035E+02 6.60425E+00 0.00000E+00
 -1       562 1.12035E+02 6.60425E+00 0.00000E+00
 -1       563 1.15035E+02 6.60425E+00 0.00000E+00
 -1       564 1.18035E+02 6.60425E+00 0.00000E+00
 -1       565 1.21035E+02 6.60425E+00 0.00000E+00
 -1       566 1.24035E+02 6.60425E+00 0.00000E+00
 -1       567 1.27035E+02 6.60425E+00 0.00000E+00
 -1       568 1.30035E+02 6.60425E+00 0.00000E+00
 -1       569 1.33035E+02 6.60425E+00 0.00000E+00
 -1       570 1.36035E+02 6.60425E+00 0.00000E+00
 -1       571 1.39035E+02 6.60425E+00 0.00000E+00
 -1       572 1.42035E+02 6.60425E+00 0.00000E+00
 -1       573 1.42206E+02 1.61750E+01 0.00000E+00
 -1       574 1.42206E+02 1.91250E+01 0.00000E+00
 -1       575 1.42206E+02 1.03250E+01 0.00000E+00
 -1       576 1.42206E+02 1.32500E+01 0.00000E+00
 -1       577 1.42206E+02 2.20750E+01 0.00000E+00
 -1       578 1.42206E+02 2.50250E+01 0.00000E+00
 -1       579 1.42206E+02 2.79750E+01 0.00000E+00
 -1       580 1.42206E+02 3.08750E+01 0.00000E+00
 -1       581 1.42206E+02 3.38250E+01 0.00000E+00
 -1       582 1.42206E+02 3.67750E+01 0.00000E+00
 -1       583 1.42206E+02 3.97250E+01 0.00000E+00
 -1       584 9.25257E+01 1.85987E+01 0.00000E+00
 -1       585 1.60350E+01 6.60425E+00 0.00000E+00
 -1       586 9.09040E+01 1.67873E+01 0.00000E+00
 -1       587 9.50777E+01 2.96430E+01 0.00000E+00
 -1       588 9.13585E+01 3.52694E+01 0.00000E+00
 -1       589 8.38812E+01 3.74160E+01 0.00000E+00
 -1       590 7.79400E+00 2.79000E+01 0.00000E+00
 -1       591 8.37244E+01 1.52543E+01 0.00000E+00
 -1       592 9.34251E+01 3.33381E+01 0.00000E+00
 -1       593 8.64376E+01 1.50797E+01 0.00000E+00
 -1       594 8.16771E+01 1.55361E+01 0.00000E+00
 -1       595 7.93539E+01 1.63385E+01 0.00000E+00
 -1       596 7.75046E+01 1.74792E+01 0.00000E+00
 -1       597 7.57542E+01 1.93394E+01 0.00000E+00
 -1       598 7.46147E+01 2.10010E+01 0.00000E+00
 -1       599 7.32611E+01 2.31895E+01 0.00000E+00
 -1       600 7.29249E+01 2.54347E+01 0.00000E+00
 -1       601 7.36099E+01 2.81383E+01 0.00000E+00
 -1       602 7.40286E+01 3.02348E+01 0.00000E+00
 -1       603 7.50542E+01 3.27580E+01 0.00000E+00
 -1       604 7.72312E+01 3.46577E+01 0.00000E+00
 -1       605 7.85690E+01 3.59317E+01 0.00000E+00
 -1       606 8.06389E+01 3.72973E+01 0.00000E+00
 -1       607 8.55052E+01 3.72476E+01 0.00000E+00
 -1       608 8.76809E+01 3.68051E+01 0.00000E+00
 -1       609 9.00686E+01 3.61391E+01 0.00000E+00
 -1       610 9.42514E+01 3.14905E+01 0.00000E+00
 -1       611 9.57938E+01 2.74638E+01 0.00000E+00
 -1       612 7.92300E+00 4.16780E+01 0.00000E+00
 -1       613 7.61550E+00 6.21462E+00 0.00000E+00
 -1       614 8.52240E+01 1.39143E+01 0.00000E+00
 -1       615 7.79400E+00 3.67375E+01 0.00000E+00
 -1       616 9.65716E+01 2.36394E+01 0.00000E+00
 -1       617 1.41678E+02 4.22645E+01 0.00000E+00
 -1       618 7.51276E+01 3.45721E+01 0.00000E+00
 -1       619 8.19215E+01 3.86283E+01 0.00000E+00
 -1       620 9.33606E+01 3.53183E+01 0.00000E+00
 -1       621 7.85850E+00 3.92077E+01 0.00000E+00
 -1       622 1.03920E+01 2.05500E+01 0.00000E+00
 -1       623 1.03920E+01 2.35000E+01 0.00000E+00
 -1       624 1.03920E+01 1.46750E+01 0.00000E+00
 -1       625 1.03920E+01 1.17250E+01 0.00000E+00
 -1       626 1.15350E+01 9.20225E+00 0.00000E+00
 -1       627 1.39206E+02 1.03250E+01 0.00000E+00
 -1       628 1.45350E+01 9.20225E+00 0.00000E+00
 -1       629 1.51500E+01 3.96080E+01 0.00000E+00
 -1       630 1.81500E+01 3.96080E+01 0.00000E+00
 -1       631 2.11500E+01 3.96080E+01 0.00000E+00
 -1       632 2.41500E+01 3.96080E+01 0.00000E+00
 -1       633 2.71500E+01 3.96080E+01 0.00000E+00
 -1       634 3.01500E+01 3.96080E+01 0.00000E+00
 -1       635 3.31500E+01 3.96080E+01 0.00000E+00
 -1       636 3.61500E+01 3.96080E+01 0.00000E+00
 -1       637 3.91500E+01 3.96080E+01 0.00000E+00
 -1       638 4.21500E+01 3.96080E+01 0.00000E+00
 -1       639 4.51500E+01 3.96080E+01 0.00000E+00
 -1       640 4.81500E+01 3.96080E+01 0.00000E+00
 -1       641 5.11500E+01 3.96080E+01 0.00000E+00
 -1       642 5.41500E+01 3.96080E+01 0.00000E+00
 -1       643 5.71500E+01 3.96080E+01 0.00000E+00
 -1       644 6.01500E+01 3.96080E+01 0.00000E+00
 -1       645 6.31500E+01 3.96080E+01 0.00000E+00
 -1       646 6.61500E+01 3.96080E+01 0.00000E+00
 -1       647 6.91500E+01 3.96080E+01 0.00000E+00
 -1       648 7.21500E+01 3.96080E+01 0.00000E+00
 -1       649 7.51500E+01 3.96080E+01 0.00000E+00
 -1       650 7.81500E+01 3.96080E+01 0.00000E+00
 -1       651 8.71500E+01 3.99882E+01 0.00000E+00
 -1       652 9.01500E+01 3.99882E+01 0.00000E+00
 -1       653 9.31500E+01 3.99882E+01 0.00000E+00
 -1       654 9.61500E+01 3.99882E+01 0.00000E+00
 -1       655 9.91500E+01 3.99882E+01 0.00000E+00
 -1       656 1.02150E+02 3.99882E+01 0.00000E+00
 -1       657 1.05150E+02 3.99882E+01 0.00000E+00
 -1       658 1.08150E+02 3.99882E+01 0.00000E+00
 -1       659 1.11150E+02 3.99882E+01 0.00000E+00
 -1       660 1.14150E+02 3.99882E+01 0.00000E+00
 -1       661 1.17150E+02 3.99882E+01 0.00000E+00
 -1       662 1.20150E+02 3.99882E+01 0.00000E+00
 -1       663 1.23150E+02 3.99882E+01 0.00000E+00
 -1       664 1.26150E+02 3.99882E+01 0.00000E+00
 -1       665 1.29150E+02 3.99882E+01 0.00000E+00
 -1       666 1.32150E+02 3.99882E+01 0.00000E+00
 -1       667 1.35150E+02 3.99882E+01 0.00000E+00
 -1       668 1.38150E+02 3.99882E+01 0.00000E+00
 -1       669 2.05350E+01 9.20225E+00 0.00000E+00
 -1       670 2.95350E+01 9.20225E+00 0.00000E+00
 -1       671 3.25350E+01 9.20225E+00 0.00000E+00
 -1       672 3.55350E+01 9.20225E+00 0.00000E+00
 -1       673 3.85350E+01 9.20225E+00 0.00000E+00
 -1       674 4.15350E+01 9.20225E+00 0.00000E+00
 -1       675 4.45350E+01 9.20225E+00 0.00000E+00
 -1       676 4.75350E+01 9.20225E+00 0.00000E+00
 -1       677 5.05350E+01 9.20225E+00 0.00000E+00
 -1       678 5.35350E+01 9.20225E+00 0.00000E+00
 -1       679 5.65350E+01 9.20225E+00 0.00000E+00
 -1       680 5.95350E+01 9.20225E+00 0.00000E+00
 -1       681 6.25350E+01 9.20225E+00 0.00000E+00
 -1       682 6.55350E+01 9.20225E+00 0.00000E+00
 -1       683 6.85350E+01 9.20225E+00 0.00000E+00
 -1       684 7.15350E+01 9.20225E+00 0.00000E+00
 -1       685 7.45350E+01 9.20225E+00 0.00000E+00
 -1       686 7.75350E+01 9.20225E+00 0.00000E+00
 -1       687 8.05350E+01 9.20225E+00 0.00000E+00
 -1       688 8.35350E+01 9.20225E+00 0.00000E+00
 -1       689 8.65350E+01 9.20225E+00 0.00000E+00
 -1       690 8.95350E+01 9.20225E+00 0.00000E+00
 -1       691 9.25350E+01 9.20225E+00 0.00000E+00
 -1       692 9.55350E+01 9.20225E+00 0.00000E+00
 -1       693 9.85350E+01 9.20225E+00 0.00000E+00
 -1       694 1.01535E+02 9.20225E+00 0.00000E+00
 -1       695 1.04535E+02 9.20225E+00 0.00000E+00
 -1       696 1.07535E+02 9.20225E+00 0.00000E+00
 -1       697 1.10535E+02 9.20225E+00 0.00000E+00
 -1       698 1.13535E+02 9.20225E+00 0.00000E+00
 -1       699 1.16535E+02 9.20225E+00 0.00000E+00
 -1       700 1.19535E+02 9.20225E+00 0.00000E+00
 -1       701 1.22535E+02 9.20225E+00 0.00000E+00
 -1       702 1.25535E+02 9.20225E+00 0.00000E+00
 -1       703 1.28535E+02 9.20225E+00 0.00000E+00
 -1       704 1.31535E+02 9.20225E+00 0.00000E+00
 -1       705 1.34535E+02 9.20225E+00 0.00000E+00
 -1       706 1.36870E+02 9.76363E+00 0.00000E+00
 -1       707 9.69855E+01 2.90627E+01 0.00000E+00
 -1       708 1.39608E+02 2.35500E+01 0.00000E+00
 -1       709 1.39608E+02 1.76500E+01 0.00000E+00
 -1       710 1.39608E+02 2.65000E+01 0.00000E+00
 -1       711 1.39608E+02 2.06000E+01 0.00000E+00
 -1       712 9.58988E+01 2.02272E+01 0.00000E+00
 -1       713 1.39608E+02 2.94000E+01 0.00000E+00
 -1       714 1.39608E+02 3.23500E+01 0.00000E+00
 -1       715 1.39608E+02 3.53000E+01 0.00000E+00
 -1       716 1.75350E+01 9.20225E+00 0.00000E+00
 -1       717 1.40178E+02 3.96665E+01 0.00000E+00
 -1       718 8.93806E+01 3.82855E+01 0.00000E+00
 -1       719 9.29303E+01 1.66049E+01 0.00000E+00
 -1       720 7.51363E+01 1.70043E+01 0.00000E+00
 -1       721 8.24668E+01 1.36961E+01 0.00000E+00
 -1       722 2.65350E+01 9.20225E+00 0.00000E+00
 -1       723 2.35350E+01 9.20225E+00 0.00000E+00
 -1       724 1.21500E+01 3.96080E+01 0.00000E+00
 -1       725 1.03920E+01 1.76125E+01 0.00000E+00
 -1       726 9.07008E+01 1.47636E+01 0.00000E+00
 -1       727 9.75829E+01 2.59149E+01 0.00000E+00
 -1       728 1.03920E+01 3.23250E+01 0.00000E+00
 -1       729 8.82612E+01 1.34706E+01 0.00000E+00
 -1       730 7.22195E+01 2.95060E+01 0.00000E+00
 -1       731 7.98462E+01 1.39994E+01 0.00000E+00
 -1       732 7.75288E+01 1.54491E+01 0.00000E+00
 -1       733 7.37700E+01 1.92002E+01 0.00000E+00
 -1       734 7.25505E+01 2.12371E+01 0.00000E+00
 -1       735 7.12311E+01 2.40332E+01 0.00000E+00
 -1       736 7.29525E+01 3.21422E+01 0.00000E+00
 -1       737 7.64654E+01 3.58462E+01 0.00000E+00
 -1       738 7.16860E+01 2.71871E+01 0.00000E+00
 -1       739 8.48529E+01 3.88711E+01 0.00000E+00
 -1       740 9.19534E+01 3.75431E+01 0.00000E+00
 -1       741 9.44145E+01 1.84160E+01 0.00000E+00
 -1       742 1.00042E+01 3.94079E+01 0.00000E+00
 -1       743 1.03920E+01 3.52625E+01 0.00000E+00
 -1       744 1.03920E+01 2.64500E+01 0.00000E+00
 -1       745 9.65307E+01 3.09938E+01 0.00000E+00
 -1       746 7.30259E+01 3.39564E+01 0.00000E+00
 -1       747 9.27270E+01 1.45813E+01 0.00000E+00
 -1       748 9.72697E+01 2.13790E+01 0.00000E+00
 -1       749 6.99922E+01 2.57857E+01 0.00000E+00
 -1       750 7.05205E+01 2.20809E+01 0.00000E+00
 -1       751 8.41500E+01 3.99882E+01 0.00000E+00
 -1       752 9.87746E+01 2.75139E+01 0.00000E+00
 -1       753 1.39608E+02 1.47250E+01 0.00000E+00
 -1       754 8.70476E+01 1.23052E+01 0.00000E+00
 -1       755 9.55569E+01 3.31829E+01 0.00000E+00
 -1       756 1.03920E+01 2.93875E+01 0.00000E+00
 -1       757 9.54924E+01 3.51632E+01 0.00000E+00
 -1       758 8.70016E+01 3.90355E+01 0.00000E+00
 -1       759 1.29900E+01 1.32000E+01 0.00000E+00
 -1       760 9.89169E+01 3.05367E+01 0.00000E+00
 -1       761 1.37379E+02 3.76441E+01 0.00000E+00
 -1       762 7.01180E+01 2.87687E+01 0.00000E+00
 -1       763 1.66500E+01 3.70100E+01 0.00000E+00
 -1       764 1.96500E+01 3.70100E+01 0.00000E+00
 -1       765 2.26500E+01 3.70100E+01 0.00000E+00
 -1       766 2.56500E+01 3.70100E+01 0.00000E+00
 -1       767 2.86500E+01 3.70100E+01 0.00000E+00
 -1       768 3.16500E+01 3.70100E+01 0.00000E+00
 -1       769 3.46500E+01 3.70100E+01 0.00000E+00
 -1       770 3.76500E+01 3.70100E+01 0.00000E+00
 -1       771 4.06500E+01 3.70100E+01 0.00000E+00
 -1       772 4.36500E+01 3.70100E+01 0.00000E+00
 -1       773 4.66500E+01 3.70100E+01 0.00000E+00
 -1       774 4.96500E+01 3.70100E+01 0.00000E+00
 -1       775 5.26500E+01 3.70100E+01 0.00000E+00
 -1       776 5.56500E+01 3.70100E+01 0.00000E+00
 -1       777 5.86500E+01 3.70100E+01 0.00000E+00
 -1       778 6.16500E+01 3.70100E+01 0.00000E+00
 -1       779 6.46500E+01 3.70100E+01 0.00000E+00
 -1       780 6.76500E+01 3.70100E+01 0.00000E+00
 -1       781 7.06500E+01 3.70100E+01 0.00000E+00
 -1       782 7.36388E+01 3.70901E+01 0.00000E+00
 -1       783 7.15449E+01 1.92516E+01 0.00000E+00
 -1       784 9.45314E+01 3.76163E+01 0.00000E+00
 -1       785 9.75314E+01 3.76163E+01 0.00000E+00
 -1       786 1.00531E+02 3.76163E+01 0.00000E+00
 -1       787 1.03531E+02 3.76163E+01 0.00000E+00
 -1       788 1.06531E+02 3.76163E+01 0.00000E+00
 -1       789 1.09531E+02 3.76163E+01 0.00000E+00
 -1       790 1.12531E+02 3.76163E+01 0.00000E+00
 -1       791 1.15531E+02 3.76163E+01 0.00000E+00
 -1       792 1.18531E+02 3.76163E+01 0.00000E+00
 -1       793 1.21531E+02 3.76163E+01 0.00000E+00
 -1       794 1.24531E+02 3.76163E+01 0.00000E+00
 -1       795 1.27531E+02 3.76163E+01 0.00000E+00
 -1       796 1.30531E+02 3.76163E+01 0.00000E+00
 -1       797 1.33531E+02 3.76163E+01 0.00000E+00
 -1       798 3.10350E+01 1.18003E+01 0.00000E+00
 -1       799 4.00350E+01 1.18003E+01 0.00000E+00
 -1       800 4.30350E+01 1.18003E+01 0.00000E+00
 -1       801 4.60350E+01 1.18003E+01 0.00000E+00
 -1       802 4.90350E+01 1.18003E+01 0.00000E+00
 -1       803 5.20350E+01 1.18003E+01 0.00000E+00
 -1       804 5.50350E+01 1.18003E+01 0.00000E+00
 -1       805 5.80350E+01 1.18003E+01 0.00000E+00
 -1       806 6.10350E+01 1.18003E+01 0.00000E+00
 -1       807 6.40350E+01 1.18003E+01 0.00000E+00
 -1       808 6.70350E+01 1.18003E+01 0.00000E+00
 -1       809 7.00350E+01 1.18003E+01 0.00000E+00
 -1       810 7.30350E+01 1.18003E+01 0.00000E+00
 -1       811 7.60350E+01 1.18003E+01 0.00000E+00
 -1       812 9.10350E+01 1.17552E+01 0.00000E+00
 -1       813 9.40350E+01 1.17552E+01 0.00000E+00
 -1       814 9.70350E+01 1.17552E+01 0.00000E+00
 -1       815 1.00035E+02 1.17552E+01 0.00000E+00
 -1       816 1.03035E+02 1.17552E+01 0.00000E+00
 -1       817 1.06035E+02 1.17552E+01 0.00000E+00
 -1       818 1.09035E+02 1.17552E+01 0.00000E+00
 -1       819 1.12035E+02 1.17552E+01 0.00000E+00
 -1       820 1.15035E+02 1.17552E+01 0.00000E+00
 -1       821 1.18035E+02 1.17552E+01 0.00000E+00
 -1       822 1.21035E+02 1.17552E+01 0.00000E+00
 -1       823 1.24035E+02 1.17552E+01 0.00000E+00
 -1       824 1.27035E+02 1.17552E+01 0.00000E+00
 -1       825 1.30035E+02 1.17552E+01 0.00000E+00
 -1       826 1.33035E+02 1.17552E+01 0.00000E+00
 -1       827 1.37010E+02 2.50250E+01 0.00000E+00
 -1       828 1.37010E+02 3.38250E+01 0.00000E+00
 -1       829 1.37010E+02 2.79250E+01 0.00000E+00
 -1       830 7.51239E+01 1.43672E+01 0.00000E+00
 -1       831 2.80350E+01 1.18003E+01 0.00000E+00
 -1       832 2.20350E+01 1.18003E+01 0.00000E+00
 -1       833 1.37010E+02 3.08750E+01 0.00000E+00
 -1       834 3.70350E+01 1.18003E+01 0.00000E+00
 -1       835 3.40350E+01 1.18003E+01 0.00000E+00
 -1       836 1.36500E+01 3.70100E+01 0.00000E+00
 -1       837 9.79431E+01 3.27259E+01 0.00000E+00
 -1       838 9.87976E+01 2.40126E+01 0.00000E+00
 -1       839 2.50350E+01 1.18003E+01 0.00000E+00
 -1       840 1.01981E+01 3.73352E+01 0.00000E+00
 -1       841 7.27123E+01 1.70191E+01 0.00000E+00
 -1       842 1.37625E+01 1.12011E+01 0.00000E+00
 -1       843 1.29900E+01 2.20250E+01 0.00000E+00
 -1       844 7.06107E+01 3.13734E+01 0.00000E+00
 -1       845 1.29900E+01 2.49750E+01 0.00000E+00
 -1       846 9.49990E+01 1.64233E+01 0.00000E+00
 -1       847 1.29900E+01 1.61375E+01 0.00000E+00
 -1       848 9.99893E+01 2.56115E+01 0.00000E+00
 -1       849 1.90350E+01 1.18003E+01 0.00000E+00
 -1       850 1.29900E+01 1.90812E+01 0.00000E+00
 -1       851 9.79031E+01 1.92333E+01 0.00000E+00
 -1       852 6.92817E+01 2.38334E+01 0.00000E+00
 -1       853 8.51586E+01 1.19621E+01 0.00000E+00
 -1       854 7.06841E+01 3.31875E+01 0.00000E+00
 -1       855 1.37010E+02 2.20750E+01 0.00000E+00
 -1       856 1.35370E+02 1.23166E+01 0.00000E+00
 -1       857 1.37273E+02 1.41636E+01 0.00000E+00
 -1       858 1.37010E+02 1.91250E+01 0.00000E+00
 -1       859 1.37141E+02 1.66443E+01 0.00000E+00
 -1       860 9.47957E+01 1.43997E+01 0.00000E+00
 -1       861 1.63988E+01 1.15007E+01 0.00000E+00
 -1       862 9.78786E+01 3.47062E+01 0.00000E+00
 -1       863 1.29900E+01 3.08563E+01 0.00000E+00
 -1       864 1.29900E+01 3.37938E+01 0.00000E+00
 -1       865 9.64510E+01 1.78283E+01 0.00000E+00
 -1       866 6.81741E+01 2.73565E+01 0.00000E+00
 -1       867 1.81500E+01 3.44120E+01 0.00000E+00
 -1       868 2.11500E+01 3.44120E+01 0.00000E+00
 -1       869 2.41500E+01 3.44120E+01 0.00000E+00
 -1       870 2.71500E+01 3.44120E+01 0.00000E+00
 -1       871 3.01500E+01 3.44120E+01 0.00000E+00
 -1       872 3.31500E+01 3.44120E+01 0.00000E+00
 -1       873 3.61500E+01 3.44120E+01 0.00000E+00
 -1       874 3.91500E+01 3.44120E+01 0.00000E+00
 -1       875 4.21500E+01 3.44120E+01 0.00000E+00
 -1       876 4.51500E+01 3.44120E+01 0.00000E+00
 -1       877 4.81500E+01 3.44120E+01 0.00000E+00
 -1       878 5.11500E+01 3.44120E+01 0.00000E+00
 -1       879 5.41500E+01 3.44120E+01 0.00000E+00
 -1       880 5.71500E+01 3.44120E+01 0.00000E+00
 -1       881 6.01500E+01 3.44120E+01 0.00000E+00
 -1       882 6.31500E+01 3.44120E+01 0.00000E+00
 -1       883 6.61500E+01 3.44120E+01 0.00000E+00
 -1       884 7.01633E+01 1.71076E+01 0.00000E+00
 -1       885 4.75350E+01 1.43982E+01 0.00000E+00
 -1       886 1.02031E+02 3.50183E+01 0.00000E+00
 -1       887 1.05031E+02 3.50183E+01 0.00000E+00
 -1       888 1.08031E+02 3.50183E+01 0.00000E+00
 -1       889 1.11031E+02 3.50183E+01 0.00000E+00
 -1       890 1.14031E+02 3.50183E+01 0.00000E+00
 -1       891 1.17031E+02 3.50183E+01 0.00000E+00
 -1       892 1.20031E+02 3.50183E+01 0.00000E+00
 -1       893 1.23031E+02 3.50183E+01 0.00000E+00
 -1       894 1.26031E+02 3.50183E+01 0.00000E+00
 -1       895 1.29031E+02 3.50183E+01 0.00000E+00
 -1       896 1.32031E+02 3.50183E+01 0.00000E+00
 -1       897 4.45350E+01 1.43982E+01 0.00000E+00
 -1       898 4.15350E+01 1.43982E+01 0.00000E+00
 -1       899 5.05350E+01 1.43982E+01 0.00000E+00
 -1       900 5.35350E+01 1.43982E+01 0.00000E+00
 -1       901 5.65350E+01 1.43982E+01 0.00000E+00
 -1       902 5.95350E+01 1.43982E+01 0.00000E+00
 -1       903 6.25350E+01 1.43982E+01 0.00000E+00
 -1       904 6.55350E+01 1.43982E+01 0.00000E+00
 -1       905 6.85350E+01 1.43982E+01 0.00000E+00
 -1       906 1.00303E+02 3.24646E+01 0.00000E+00
 -1       907 1.01535E+02 1.43532E+01 0.00000E+00
 -1       908 1.04535E+02 1.43532E+01 0.00000E+00
 -1       909 1.07535E+02 1.43532E+01 0.00000E+00
 -1       910 1.10535E+02 1.43532E+01 0.00000E+00
 -1       911 1.13535E+02 1.43532E+01 0.00000E+00
 -1       912 1.16535E+02 1.43532E+01 0.00000E+00
 -1       913 1.19535E+02 1.43532E+01 0.00000E+00
 -1       914 1.22535E+02 1.43532E+01 0.00000E+00
 -1       915 1.25535E+02 1.43532E+01 0.00000E+00
 -1       916 1.28535E+02 1.43532E+01 0.00000E+00
 -1       917 1.31535E+02 1.43532E+01 0.00000E+00
 -1       918 9.95528E+01 2.08866E+01 0.00000E+00
 -1       919 1.34412E+02 2.64750E+01 0.00000E+00
 -1       920 6.89474E+01 1.99112E+01 0.00000E+00
 -1       921 2.95350E+01 1.43982E+01 0.00000E+00
 -1       922 1.29900E+01 2.79188E+01 0.00000E+00
 -1       923 2.35350E+01 1.43982E+01 0.00000E+00
 -1       924 3.85350E+01 1.43982E+01 0.00000E+00
 -1       925 7.15992E+01 1.44539E+01 0.00000E+00
 -1       926 2.65350E+01 1.43982E+01 0.00000E+00
 -1       927 9.85350E+01 1.43532E+01 0.00000E+00
 -1       928 1.00726E+02 2.89368E+01 0.00000E+00
 -1       929 6.81852E+01 3.04832E+01 0.00000E+00
 -1       930 1.56263E+01 1.34996E+01 0.00000E+00
 -1       931 1.00744E+02 2.24856E+01 0.00000E+00
 -1       932 2.05350E+01 1.43982E+01 0.00000E+00
 -1       933 6.74635E+01 2.54042E+01 0.00000E+00
 -1       934 6.77085E+01 2.16637E+01 0.00000E+00
 -1       935 3.25350E+01 1.43982E+01 0.00000E+00
 -1       936 1.02113E+02 3.08646E+01 0.00000E+00
 -1       937 1.55880E+01 2.35000E+01 0.00000E+00
 -1       938 1.34412E+02 2.35250E+01 0.00000E+00
 -1       939 1.33915E+02 3.18952E+01 0.00000E+00
 -1       940 1.33870E+02 1.49146E+01 0.00000E+00
 -1       941 1.00179E+02 1.86118E+01 0.00000E+00
 -1       942 1.34412E+02 2.05750E+01 0.00000E+00
 -1       943 1.34543E+02 1.80943E+01 0.00000E+00
 -1       944 1.51500E+01 3.44120E+01 0.00000E+00
 -1       945 1.55880E+01 2.05562E+01 0.00000E+00
 -1       946 1.55880E+01 2.93875E+01 0.00000E+00
 -1       947 3.55350E+01 1.43982E+01 0.00000E+00
 -1       948 9.72708E+01 1.51732E+01 0.00000E+00
 -1       949 1.01941E+02 2.70344E+01 0.00000E+00
 -1       950 9.87272E+01 1.72068E+01 0.00000E+00
 -1       951 1.34164E+02 2.91851E+01 0.00000E+00
 -1       952 1.96500E+01 3.18140E+01 0.00000E+00
 -1       953 1.55880E+01 1.76125E+01 0.00000E+00
 -1       954 2.26500E+01 3.18140E+01 0.00000E+00
 -1       955 2.56500E+01 3.18140E+01 0.00000E+00
 -1       956 2.86500E+01 3.18140E+01 0.00000E+00
 -1       957 3.16500E+01 3.18140E+01 0.00000E+00
 -1       958 3.46500E+01 3.18140E+01 0.00000E+00
 -1       959 3.76500E+01 3.18140E+01 0.00000E+00
 -1       960 4.06500E+01 3.18140E+01 0.00000E+00
 -1       961 4.36500E+01 3.18140E+01 0.00000E+00
 -1       962 4.66500E+01 3.18140E+01 0.00000E+00
 -1       963 4.96500E+01 3.18140E+01 0.00000E+00
 -1       964 5.26500E+01 3.18140E+01 0.00000E+00
 -1       965 5.56500E+01 3.18140E+01 0.00000E+00
 -1       966 5.86500E+01 3.18140E+01 0.00000E+00
 -1       967 6.16500E+01 3.18140E+01 0.00000E+00
 -1       968 6.46500E+01 3.18140E+01 0.00000E+00
 -1       969 6.76304E+01 3.15937E+01 0.00000E+00
 -1       970 4.90350E+01 1.69963E+01 0.00000E+00
 -1       971 1.06531E+02 3.24203E+01 0.00000E+00
 -1       972 1.09531E+02 3.24203E+01 0.00000E+00
 -1       973 1.12531E+02 3.24203E+01 0.00000E+00
 -1       974 1.15531E+02 3.24203E+01 0.00000E+00
 -1       975 1.18531E+02 3.24203E+01 0.00000E+00
 -1       976 1.21531E+02 3.24203E+01 0.00000E+00
 -1       977 1.24531E+02 3.24203E+01 0.00000E+00
 -1       978 1.27531E+02 3.24203E+01 0.00000E+00
 -1       979 1.30531E+02 3.24203E+01 0.00000E+00
 -1       980 4.60350E+01 1.69963E+01 0.00000E+00
 -1       981 4.30350E+01 1.69963E+01 0.00000E+00
 -1       982 2.50350E+01 1.69963E+01 0.00000E+00
 -1       983 5.50350E+01 1.69963E+01 0.00000E+00
 -1       984 5.80350E+01 1.69963E+01 0.00000E+00
 -1       985 6.10350E+01 1.69963E+01 0.00000E+00
 -1       986 6.40350E+01 1.69963E+01 0.00000E+00
 -1       987 6.70350E+01 1.69963E+01 0.00000E+00
 -1       988 2.80350E+01 1.69963E+01 0.00000E+00
 -1       989 1.55676E+01 3.23835E+01 0.00000E+00
 -1       990 1.09035E+02 1.69512E+01 0.00000E+00
 -1       991 1.03035E+02 1.69512E+01 0.00000E+00
 -1       992 1.12035E+02 1.69512E+01 0.00000E+00
 -1       993 1.15035E+02 1.69512E+01 0.00000E+00
 -1       994 1.18035E+02 1.69512E+01 0.00000E+00
 -1       995 1.21035E+02 1.69512E+01 0.00000E+00
 -1       996 1.24035E+02 1.69512E+01 0.00000E+00
 -1       997 1.27035E+02 1.69512E+01 0.00000E+00
 -1       998 1.30035E+02 1.69512E+01 0.00000E+00
 -1       999 1.81757E+01 3.09032E+01 0.00000E+00
 -1      1000 6.59619E+01 2.89277E+01 0.00000E+00
 -1      1001 1.02004E+02 2.03381E+01 0.00000E+00
 -1      1002 1.80806E+01 1.39489E+01 0.00000E+00
 -1      1003 1.06035E+02 1.69512E+01 0.00000E+00
 -1      1004 1.55880E+01 2.64438E+01 0.00000E+00
 -1      1005 4.00350E+01 1.69963E+01 0.00000E+00
 -1      1006 1.03572E+02 3.29415E+01 0.00000E+00
 -1      1007 5.20350E+01 1.69963E+01 0.00000E+00
 -1      1008 2.20350E+01 1.69963E+01 0.00000E+00
 -1      1009 6.52513E+01 2.69754E+01 0.00000E+00
 -1      1010 1.02696E+02 2.39085E+01 0.00000E+00
 -1      1011 6.58904E+01 2.32345E+01 0.00000E+00
 -1      1012 1.81757E+01 2.79595E+01 0.00000E+00
 -1      1013 3.70350E+01 1.69963E+01 0.00000E+00
 -1      1014 3.10350E+01 1.69963E+01 0.00000E+00
 -1      1015 1.03327E+02 2.89623E+01 0.00000E+00
 -1      1016 1.31814E+02 2.50000E+01 0.00000E+00
 -1      1017 1.30780E+02 2.97102E+01 0.00000E+00
 -1      1018 1.32289E+02 1.75228E+01 0.00000E+00
 -1      1019 1.31814E+02 2.20500E+01 0.00000E+00
 -1      1020 1.32052E+02 1.97864E+01 0.00000E+00
 -1      1021 1.81860E+01 2.20281E+01 0.00000E+00
 -1      1022 6.54070E+01 3.00382E+01 0.00000E+00
 -1      1023 1.81860E+01 2.49719E+01 0.00000E+00
 -1      1024 1.31297E+02 2.73551E+01 0.00000E+00
 -1      1025 6.58718E+01 1.93300E+01 0.00000E+00
 -1      1026 1.08031E+02 2.98223E+01 0.00000E+00
 -1      1027 2.41500E+01 2.92160E+01 0.00000E+00
 -1      1028 2.71500E+01 2.92160E+01 0.00000E+00
 -1      1029 3.01500E+01 2.92160E+01 0.00000E+00
 -1      1030 3.31500E+01 2.92160E+01 0.00000E+00
 -1      1031 3.61500E+01 2.92160E+01 0.00000E+00
 -1      1032 3.91500E+01 2.92160E+01 0.00000E+00
 -1      1033 4.21500E+01 2.92160E+01 0.00000E+00
 -1      1034 4.51500E+01 2.92160E+01 0.00000E+00
 -1      1035 4.81500E+01 2.92160E+01 0.00000E+00
 -1      1036 5.11500E+01 2.92160E+01 0.00000E+00
 -1      1037 5.41500E+01 2.92160E+01 0.00000E+00
 -1      1038 5.71500E+01 2.92160E+01 0.00000E+00
 -1      1039 6.01500E+01 2.92160E+01 0.00000E+00
 -1      1040 6.27785E+01 2.96271E+01 0.00000E+00
 -1      1041 1.11031E+02 2.98223E+01 0.00000E+00
 -1      1042 1.14031E+02 2.98223E+01 0.00000E+00
 -1      1043 1.17031E+02 2.98223E+01 0.00000E+00
 -1      1044 1.20031E+02 2.98223E+01 0.00000E+00
 -1      1045 1.23031E+02 2.98223E+01 0.00000E+00
 -1      1046 1.26031E+02 2.98223E+01 0.00000E+00
 -1      1047 1.28406E+02 2.97662E+01 0.00000E+00
 -1      1048 4.75350E+01 1.95942E+01 0.00000E+00
 -1      1049 4.45350E+01 1.95942E+01 0.00000E+00
 -1      1050 5.05350E+01 1.95942E+01 0.00000E+00
 -1      1051 5.65350E+01 1.95942E+01 0.00000E+00
 -1      1052 2.65350E+01 1.95942E+01 0.00000E+00
 -1      1053 1.16535E+02 1.95492E+01 0.00000E+00
 -1      1054 1.95806E+01 1.65469E+01 0.00000E+00
 -1      1055 1.13535E+02 1.95492E+01 0.00000E+00
 -1      1056 1.10535E+02 1.95492E+01 0.00000E+00
 -1      1057 1.19535E+02 1.95492E+01 0.00000E+00
 -1      1058 1.22535E+02 1.95492E+01 0.00000E+00
 -1      1059 1.25535E+02 1.95492E+01 0.00000E+00
 -1      1060 1.28535E+02 1.95492E+01 0.00000E+00
 -1      1061 1.81860E+01 1.90844E+01 0.00000E+00
 -1      1062 1.29216E+02 2.35250E+01 0.00000E+00
 -1      1063 1.02616E+02 1.78638E+01 0.00000E+00
 -1      1064 1.05072E+02 3.03435E+01 0.00000E+00
 -1      1065 1.03956E+02 2.17610E+01 0.00000E+00
 -1      1066 4.15350E+01 1.95942E+01 0.00000E+00
 -1      1067 1.07535E+02 1.95492E+01 0.00000E+00
 -1      1068 6.40149E+01 2.83012E+01 0.00000E+00
 -1      1069 5.35350E+01 1.95942E+01 0.00000E+00
 -1      1070 3.40350E+01 1.69963E+01 0.00000E+00
 -1      1071 6.25350E+01 1.95942E+01 0.00000E+00
 -1      1072 5.95350E+01 1.95942E+01 0.00000E+00
 -1      1073 2.04129E+01 2.98867E+01 0.00000E+00
 -1      1074 2.35350E+01 1.95942E+01 0.00000E+00
 -1      1075 3.85350E+01 1.95942E+01 0.00000E+00
 -1      1076 2.95350E+01 1.95942E+01 0.00000E+00
 -1      1077 1.30293E+02 1.96678E+01 0.00000E+00
 -1      1078 1.04571E+02 2.66056E+01 0.00000E+00
 -1      1079 2.07840E+01 2.05562E+01 0.00000E+00
 -1      1080 1.28699E+02 2.58801E+01 0.00000E+00
 -1      1081 2.07840E+01 2.35000E+01 0.00000E+00
 -1      1082 1.28876E+02 2.15371E+01 0.00000E+00
 -1      1083 5.50350E+01 2.21922E+01 0.00000E+00
 -1      1084 2.86500E+01 2.66180E+01 0.00000E+00
 -1      1085 3.16500E+01 2.66180E+01 0.00000E+00
 -1      1086 3.46500E+01 2.66180E+01 0.00000E+00
 -1      1087 3.76500E+01 2.66180E+01 0.00000E+00
 -1      1088 4.06500E+01 2.66180E+01 0.00000E+00
 -1      1089 4.36500E+01 2.66180E+01 0.00000E+00
 -1      1090 4.66500E+01 2.66180E+01 0.00000E+00
 -1      1091 4.96500E+01 2.66180E+01 0.00000E+00
 -1      1092 5.26500E+01 2.66180E+01 0.00000E+00
 -1      1093 5.56500E+01 2.66180E+01 0.00000E+00
 -1      1094 5.86500E+01 2.66180E+01 0.00000E+00
 -1      1095 6.12785E+01 2.70291E+01 0.00000E+00
 -1      1096 2.56500E+01 2.66180E+01 0.00000E+00
 -1      1097 1.07111E+02 2.28651E+01 0.00000E+00
 -1      1098 2.07737E+01 2.64876E+01 0.00000E+00
 -1      1099 1.12531E+02 2.72243E+01 0.00000E+00
 -1      1100 1.15531E+02 2.72243E+01 0.00000E+00
 -1      1101 1.18531E+02 2.72243E+01 0.00000E+00
 -1      1102 1.21531E+02 2.72243E+01 0.00000E+00
 -1      1103 1.24531E+02 2.72243E+01 0.00000E+00
 -1      1104 4.60350E+01 2.21922E+01 0.00000E+00
 -1      1105 5.80350E+01 2.21922E+01 0.00000E+00
 -1      1106 5.20350E+01 2.21922E+01 0.00000E+00
 -1      1107 1.06315E+02 2.79868E+01 0.00000E+00
 -1      1108 1.15035E+02 2.21472E+01 0.00000E+00
 -1      1109 1.12035E+02 2.21472E+01 0.00000E+00
 -1      1110 1.24035E+02 2.21472E+01 0.00000E+00
 -1      1111 1.26455E+02 2.18422E+01 0.00000E+00
 -1      1112 6.23024E+01 2.31752E+01 0.00000E+00
 -1      1113 4.30350E+01 2.21922E+01 0.00000E+00
 -1      1114 1.09531E+02 2.72243E+01 0.00000E+00
 -1      1115 4.90350E+01 2.21922E+01 0.00000E+00
 -1      1116 1.21035E+02 2.21472E+01 0.00000E+00
 -1      1117 1.28552E+02 2.78232E+01 0.00000E+00
 -1      1118 1.09573E+02 2.25062E+01 0.00000E+00
 -1      1119 1.05841E+02 2.47354E+01 0.00000E+00
 -1      1120 1.18035E+02 2.21472E+01 0.00000E+00
 -1      1121 3.55350E+01 1.95942E+01 0.00000E+00
 -1      1122 3.25350E+01 1.95942E+01 0.00000E+00
 -1      1123 4.00350E+01 2.21922E+01 0.00000E+00
 -1      1124 2.50350E+01 2.21922E+01 0.00000E+00
 -1      1125 2.26501E+01 2.66180E+01 0.00000E+00
 -1      1126 1.26542E+02 2.75237E+01 0.00000E+00
 -1      1127 2.80350E+01 2.21922E+01 0.00000E+00
 -1      1128 1.07586E+02 2.61166E+01 0.00000E+00
 -1      1129 2.29095E+01 2.28461E+01 0.00000E+00
 -1      1130 1.26796E+02 2.38301E+01 0.00000E+00
 -1      1131 3.10350E+01 2.21922E+01 0.00000E+00
 -1      1132 3.31500E+01 2.40200E+01 0.00000E+00
 -1      1133 3.61500E+01 2.40200E+01 0.00000E+00
 -1      1134 1.11031E+02 2.46263E+01 0.00000E+00
 -1      1135 1.17031E+02 2.46263E+01 0.00000E+00
 -1      1136 1.23031E+02 2.46263E+01 0.00000E+00
 -1      1137 1.14031E+02 2.46263E+01 0.00000E+00
 -1      1138 1.08579E+02 2.43114E+01 0.00000E+00
 -1      1139 1.19783E+02 2.46857E+01 0.00000E+00
 -1      1140 0.00000E+00 4.85250E+01 0.00000E+00
 -1      1141 0.00000E+00 4.55750E+01 0.00000E+00
 -1      1142 0.00000E+00 4.26250E+01 0.00000E+00
 -1      1143 0.00000E+00 3.96750E+01 0.00000E+00
 -1      1144 0.00000E+00 3.67250E+01 0.00000E+00
 -1      1145 0.00000E+00 3.38000E+01 0.00000E+00
 -1      1146 0.00000E+00 3.08750E+01 0.00000E+00
 -1      1147 0.00000E+00 2.79250E+01 0.00000E+00
 -1      1148 0.00000E+00 2.49750E+01 0.00000E+00
 -1      1149 0.00000E+00 2.20250E+01 0.00000E+00
 -1      1150 0.00000E+00 1.90750E+01 0.00000E+00
 -1      1151 0.00000E+00 1.61500E+01 0.00000E+00
 -1      1152 0.00000E+00 1.32250E+01 0.00000E+00
 -1      1153 0.00000E+00 1.02750E+01 0.00000E+00
 -1      1154 0.00000E+00 7.32500E+00 0.00000E+00
 -1      1155 0.00000E+00 4.37500E+00 0.00000E+00
 -1      1156 0.00000E+00 1.45000E+00 0.00000E+00
 -1      1157 1.57500E+00 5.00000E+01 0.00000E+00
 -1      1158 4.65000E+00 5.00000E+01 0.00000E+00
 -1      1159 7.65000E+00 5.00000E+01 0.00000E+00
 -1      1160 1.06500E+01 5.00000E+01 0.00000E+00
 -1      1161 1.36500E+01 5.00000E+01 0.00000E+00
 -1      1162 1.66500E+01 5.00000E+01 0.00000E+00
 -1      1163 1.96500E+01 5.00000E+01 0.00000E+00
 -1      1164 2.26500E+01 5.00000E+01 0.00000E+00
 -1      1165 2.56500E+01 5.00000E+01 0.00000E+00
 -1      1166 2.86500E+01 5.00000E+01 0.00000E+00
 -1      1167 3.16500E+01 5.00000E+01 0.00000E+00
 -1      1168 3.46500E+01 5.00000E+01 0.00000E+00
 -1      1169 3.76500E+01 5.00000E+01 0.00000E+00
 -1      1170 4.06500E+01 5.00000E+01 0.00000E+00
 -1      1171 4.36500E+01 5.00000E+01 0.00000E+00
 -1      1172 4.66500E+01 5.00000E+01 0.00000E+00
 -1      1173 4.96500E+01 5.00000E+01 0.00000E+00
 -1      1174 5.26500E+01 5.00000E+01 0.00000E+00
 -1      1175 5.56500E+01 5.00000E+01 0.00000E+00
 -1      1176 5.86500E+01 5.00000E+01 0.00000E+00
 -1      1177 6.16500E+01 5.00000E+01 0.00000E+00
 -1      1178 6.46500E+01 5.00000E+01 0.00000E+00
 -1      1179 6.76500E+01 5.00000E+01 0.00000E+00
 -1      1180 7.06500E+01 5.00000E+01 0.00000E+00
 -1      1181 7.36500E+01 5.00000E+01 0.00000E+00
 -1      1182 7.66500E+01 5.00000E+01 0.00000E+00
 -1      1183 7.96500E+01 5.00000E+01 0.00000E+00
 -1      1184 8.26500E+01 5.00000E+01 0.00000E+00
 -1      1185 8.56500E+01 5.00000E+01 0.00000E+00
 -1      1186 8.86500E+01 5.00000E+01 0.00000E+00
 -1      1187 9.16500E+01 5.00000E+01 0.00000E+00
 -1      1188 9.46500E+01 5.00000E+01 0.00000E+00
 -1      1189 9.76500E+01 5.00000E+01 0.00000E+00
 -1      1190 1.00650E+02 5.00000E+01 0.00000E+00
 -1      1191 1.03650E+02 5.00000E+01 0.00000E+00
 -1      1192 1.06650E+02 5.00000E+01 0.00000E+00
 -1      1193 1.09650E+02 5.00000E+01 0.00000E+00
 -1      1194 1.12650E+02 5.00000E+01 0.00000E+00
 -1      1195 1.15650E+02 5.00000E+01 0.00000E+00
 -1      1196 1.18650E+02 5.00000E+01 0.00000E+00
 -1      1197 1.21650E+02 5.00000E+01 0.00000E+00
 -1      1198 1.24650E+02 5.00000E+01 0.00000E+00
 -1      1199 1.27650E+02 5.00000E+01 0.00000E+00
 -1      1200 1.30650E+02 5.00000E+01 0.00000E+00
 -1      1201 1.33650E+02 5.00000E+01 0.00000E+00
 -1      1202 1.36650E+02 5.00000E+01 0.00000E+00
 -1      1203 1.39650E+02 5.00000E+01 0.00000E+00
 -1      1204 1.42650E+02 5.00000E+01 0.00000E+00
 -1      1205 1.45650E+02 5.00000E+01 0.00000E+00
 -1      1206 1.48575E+02 5.00000E+01 0.00000E+00
 -1      1207 1.57500E+00 0.00000E+00 0.00000E+00
 -1      1208 4.65000E+00 0.00000E+00 0.00000E+00
 -1      1209 7.65000E+00 0.00000E+00 0.00000E+00
 -1      1210 1.06500E+01 0.00000E+00 0.00000E+00
 -1      1211 1.36500E+01 0.00000E+00 0.00000E+00
 -1      1212 1.66500E+01 0.00000E+00 0.00000E+00
 -1      1213 1.96500E+01 0.00000E+00 0.00000E+00
 -1      1214 2.26500E+01 0.00000E+00 0.00000E+00
 -1      1215 2.56500E+01 0.00000E+00 0.00000E+00
 -1      1216 2.86500E+01 0.00000E+00 0.00000E+00
 -1      1217 3.16500E+01 0.00000E+00 0.00000E+00
 -1      1218 3.46500E+01 0.00000E+00 0.00000E+00
 -1      1219 3.76500E+01 0.00000E+00 0.00000E+00
 -1      1220 4.06500E+01 0.00000E+00 0.00000E+00
 -1      1221 4.36500E+01 0.00000E+00 0.00000E+00
 -1      1222 4.66500E+01 0.00000E+00 0.00000E+00
 -1      1223 4.96500E+01 0.00000E+00 0.00000E+00
 -1      1224 5.26500E+01 0.00000E+00 0.00000E+00
 -1      1225 5.56500E+01 0.00000E+00 0.00000E+00
 -1      1226 5.86500E+01 0.00000E+00 0.00000E+00
 -1      1227 6.16500E+01 0.00000E+00 0.00000E+00
 -1      1228 6.46500E+01 0.00000E+00 0.00000E+00
 -1      1229 6.76500E+01 0.00000E+00 0.00000E+00
 -1      1230 7.06500E+01 0.00000E+00 0.00000E+00
 -1      1231 7.36500E+01 0.00000E+00 0.00000E+00
 -1      1232 7.66500E+01 0.00000E+00 0.00000E+00
 -1      1233 7.96500E+01 0.00000E+00 0.00000E+00
 -1      1234 8.26500E+01 0.00000E+00 0.00000E+00
 -1      1235 8.56500E+01 0.00000E+00 0.00000E+00
 -1      1236 8.86500E+01 0.00000E+00 0.00000E+00
 -1      1237 9.16500E+01 0.00000E+00 0.00000E+00
 -1      1238 9.46500E+01 0.00000E+00 0.00000E+00
 -1      1239 9.76500E+01 0.00000E+00 0.00000E+00
 -1      1240 1.00650E+02 0.00000E+00 0.00000E+00
 -1      1241 1.03650E+02 0.00000E+00 0.00000E+00
 -1      1242 1.06650E+02 0.00000E+00 0.00000E+00
 -1      1243 1.09650E+02 0.00000E+00 0.00000E+00
 -1      1244 1.12650E+02 0.00000E+00 0.00000E+00
 -1      1245 1.15650E+02 0.00000E+00 0.00000E+00
 -1      1246 1.18650E+02 0.00000E+00 0.00000E+00
 -1      1247 1.21650E+02 0.00000E+00 0.00000E+00
 -1      1248 1.24650E+02 0.00000E+00 0.00000E+00
 -1      1249 1.27650E+02 0.00000E+00 0.00000E+00
 -1      1250 1.30650E+02 0.00000E+00 0.00000E+00
 -1      1251 1.33650E+02 0.00000E+00 0.00000E+00
 -1      1252 1.36650E+02 0.00000E+00 0.00000E+00
 -1      1253 1.39650E+02 0.00000E+00 0.00000E+00
 -1      1254 1.42650E+02 0.00000E+00 0.00000E+00
 -1      1255 1.45650E+02 0.00000E+00 0.00000E+00
 -1      1256 1.48575E+02 0.00000E+00 0.00000E+00
 -1      1257 1.50000E+02 1.47500E+00 0.00000E+00
 -1      1258 1.50000E+02 4.42500E+00 0.00000E+00
 -1      1259 1.50000E+02 7.37500E+00 0.00000E+00
 -1      1260 1.50000E+02 1.03250E+01 0.00000E+00
 -1      1261 1.50000E+02 1.32750E+01 0.00000E+00
 -1      1262 1.50000E+02 1.62000E+01 0.00000E+00
 -1      1263 1.50000E+02 1.91250E+01 0.00000E+00
 -1      1264 1.50000E+02 2.20750E+01 0.00000E+00
 -1      1265 1.50000E+02 2.50250E+01 0.00000E+00
 -1      1266 1.50000E+02 2.79750E+01 0.00000E+00
 -1      1267 1.50000E+02 3.09250E+01 0.00000E+00
 -1      1268 1.50000E+02 3.38500E+01 0.00000E+00
 -1      1269 1.50000E+02 3.67750E+01 0.00000E+00
 -1      1270 1.50000E+02 3.97250E+01 0.00000E+00
 -1      1271 1.50000E+02 4.26750E+01 0.00000E+00
 -1      1272 1.50000E+02 4.56250E+01 0.00000E+00
 -1      1273 1.50000E+02 4.85500E+01 0.00000E+00
 -1      1274 9.14367E+01 2.54375E+01 0.00000E+00
 -1      1275 9.11073E+01 2.39751E+01 0.00000E+00
 -1      1276 9.04688E+01 2.26077E+01 0.00000E+00
 -1      1277 8.95184E+01 2.13739E+01 0.00000E+00
 -1      1278 8.84107E+01 2.04421E+01 0.00000E+00
 -1      1279 8.71540E+01 1.97657E+01 0.00000E+00
 -1      1280 8.56795E+01 1.93390E+01 0.00000E+00
 -1      1281 8.41182E+01 1.92454E+01 0.00000E+00
 -1      1282 8.26635E+01 1.94763E+01 0.00000E+00
 -1      1283 8.12991E+01 2.00016E+01 0.00000E+00
 -1      1284 8.00759E+01 2.07969E+01 0.00000E+00
 -1      1285 7.90746E+01 2.17911E+01 0.00000E+00
 -1      1286 7.82749E+01 2.30007E+01 0.00000E+00
 -1      1287 7.77310E+01 2.43868E+01 0.00000E+00
 -1      1288 7.74918E+01 2.58732E+01 0.00000E+00
 -1      1289 7.75746E+01 2.73685E+01 0.00000E+00
 -1      1290 7.79781E+01 2.88231E+01 0.00000E+00
 -1      1291 7.87183E+01 3.02077E+01 0.00000E+00
 -1      1292 7.97235E+01 3.13694E+01 0.00000E+00
 -1      1293 8.08753E+01 3.22350E+01 0.00000E+00
 -1      1294 8.22684E+01 3.28765E+01 0.00000E+00
 -1      1295 8.38090E+01 3.32034E+01 0.00000E+00
 -1      1296 8.52229E+01 3.31966E+01 0.00000E+00
 -1      1297 8.65705E+01 3.29172E+01 0.00000E+00
 -1      1298 8.78251E+01 3.23862E+01 0.00000E+00
 -1      1299 8.89290E+01 3.16422E+01 0.00000E+00
 -1      1300 8.98913E+01 3.06792E+01 0.00000E+00
 -1      1301 9.06501E+01 2.95465E+01 0.00000E+00
 -1      1302 9.11758E+01 2.82849E+01 0.00000E+00
 -1      1303 9.14484E+01 2.69251E+01 0.00000E+00
 -1      1304 1.57500E+00 4.85250E+01 0.00000E+00
 -1      1305 1.29900E+00 4.48375E+01 0.00000E+00
 -1      1306 1.29900E+00 4.63125E+01 0.00000E+00
 -1      1307 1.29900E+00 4.18875E+01 0.00000E+00
 -1      1308 1.29900E+00 4.33625E+01 0.00000E+00
 -1      1309 2.59800E+00 4.41000E+01 0.00000E+00
 -1      1310 1.29900E+00 3.89375E+01 0.00000E+00
 -1      1311 1.29900E+00 4.04125E+01 0.00000E+00
 -1      1312 2.59800E+00 4.11500E+01 0.00000E+00
 -1      1313 1.29900E+00 3.59875E+01 0.00000E+00
 -1      1314 1.29900E+00 3.74625E+01 0.00000E+00
 -1      1315 2.59800E+00 3.82000E+01 0.00000E+00
 -1      1316 1.29900E+00 3.30875E+01 0.00000E+00
 -1      1317 1.29900E+00 3.45375E+01 0.00000E+00
 -1      1318 2.59800E+00 3.52750E+01 0.00000E+00
 -1      1319 1.29900E+00 3.01375E+01 0.00000E+00
 -1      1320 1.29900E+00 3.16125E+01 0.00000E+00
 -1      1321 2.59800E+00 3.23500E+01 0.00000E+00
 -1      1322 1.29900E+00 2.71875E+01 0.00000E+00
 -1      1323 1.29900E+00 2.86625E+01 0.00000E+00
 -1      1324 2.59800E+00 2.94000E+01 0.00000E+00
 -1      1325 1.29900E+00 2.42375E+01 0.00000E+00
 -1      1326 1.29900E+00 2.57125E+01 0.00000E+00
 -1      1327 2.59800E+00 2.64500E+01 0.00000E+00
 -1      1328 1.29900E+00 2.12875E+01 0.00000E+00
 -1      1329 1.29900E+00 2.27625E+01 0.00000E+00
 -1      1330 2.59800E+00 2.35000E+01 0.00000E+00
 -1      1331 1.29900E+00 1.83375E+01 0.00000E+00
 -1      1332 1.29900E+00 1.98125E+01 0.00000E+00
 -1      1333 2.59800E+00 2.05500E+01 0.00000E+00
 -1      1334 1.29900E+00 1.54375E+01 0.00000E+00
 -1      1335 1.29900E+00 1.68875E+01 0.00000E+00
 -1      1336 2.59800E+00 1.76250E+01 0.00000E+00
 -1      1337 1.29900E+00 1.24875E+01 0.00000E+00
 -1      1338 1.29900E+00 1.39625E+01 0.00000E+00
 -1      1339 2.59800E+00 1.47000E+01 0.00000E+00
 -1      1340 1.29900E+00 9.53750E+00 0.00000E+00
 -1      1341 1.29900E+00 1.10125E+01 0.00000E+00
 -1      1342 2.59800E+00 1.17500E+01 0.00000E+00
 -1      1343 1.29900E+00 6.58750E+00 0.00000E+00
 -1      1344 1.29900E+00 8.06250E+00 0.00000E+00
 -1      1345 2.59800E+00 8.80000E+00 0.00000E+00
 -1      1346 1.29900E+00 3.63750E+00 0.00000E+00
 -1      1347 1.29900E+00 5.11250E+00 0.00000E+00
 -1      1348 2.59800E+00 5.85000E+00 0.00000E+00
 -1      1349 1.43700E+00 1.09375E+00 0.00000E+00
 -1      1350 1.43700E+00 2.54375E+00 0.00000E+00
 -1      1351 2.73600E+00 3.28125E+00 0.00000E+00
 -1      1352 3.01200E+00 1.09375E+00 0.00000E+00
 -1      1353 3.90000E+00 4.87010E+01 0.00000E+00
 -1      1354 5.40000E+00 4.87010E+01 0.00000E+00
 -1      1355 6.90000E+00 4.87010E+01 0.00000E+00
 -1      1356 8.40000E+00 4.87010E+01 0.00000E+00
 -1      1357 6.15000E+00 4.74020E+01 0.00000E+00
 -1      1358 9.90000E+00 4.87010E+01 0.00000E+00
 -1      1359 1.14000E+01 4.87010E+01 0.00000E+00
 -1      1360 9.15000E+00 4.74020E+01 0.00000E+00
 -1      1361 1.29000E+01 4.87010E+01 0.00000E+00
 -1      1362 1.44000E+01 4.87010E+01 0.00000E+00
 -1      1363 1.21500E+01 4.74020E+01 0.00000E+00
 -1      1364 1.59000E+01 4.87010E+01 0.00000E+00
 -1      1365 1.74000E+01 4.87010E+01 0.00000E+00
 -1      1366 1.51500E+01 4.74020E+01 0.00000E+00
 -1      1367 1.89000E+01 4.87010E+01 0.00000E+00
 -1      1368 2.04000E+01 4.87010E+01 0.00000E+00
 -1      1369 1.81500E+01 4.74020E+01 0.00000E+00
 -1      1370 2.19000E+01 4.87010E+01 0.00000E+00
 -1      1371 2.34000E+01 4.87010E+01 0.00000E+00
 -1      1372 2.11500E+01 4.74020E+01 0.00000E+00
 -1      1373 2.49000E+01 4.87010E+01 0.00000E+00
 -1      1374 2.64000E+01 4.87010E+01 0.00000E+00
 -1      1375 2.41500E+01 4.74020E+01 0.00000E+00
 -1      1376 2.79000E+01 4.87010E+01 0.00000E+00
 -1      1377 2.94000E+01 4.87010E+01 0.00000E+00
 -1      1378 2.71500E+01 4.74020E+01 0.00000E+00
 -1      1379 3.09000E+01 4.87010E+01 0.00000E+00
 -1      1380 3.24000E+01 4.87010E+01 0.00000E+00
 -1      1381 3.01500E+01 4.74020E+01 0.00000E+00
 -1      1382 3.39000E+01 4.87010E+01 0.00000E+00
 -1      1383 3.54000E+01 4.87010E+01 0.00000E+00
 -1      1384 3.31500E+01 4.74020E+01 0.00000E+00
 -1      1385 3.69000E+01 4.87010E+01 0.00000E+00
 -1      1386 3.84000E+01 4.87010E+01 0.00000E+00
 -1      1387 3.61500E+01 4.74020E+01 0.00000E+00
 -1      1388 3.99000E+01 4.87010E+01 0.00000E+00
 -1      1389 4.14000E+01 4.87010E+01 0.00000E+00
 -1      1390 3.91500E+01 4.74020E+01 0.00000E+00
 -1      1391 4.29000E+01 4.87010E+01 0.00000E+00
 -1      1392 4.44000E+01 4.87010E+01 0.00000E+00
 -1      1393 4.21500E+01 4.74020E+01 0.00000E+00
 -1      1394 4.59000E+01 4.87010E+01 0.00000E+00
 -1      1395 4.74000E+01 4.87010E+01 0.00000E+00
 -1      1396 4.51500E+01 4.74020E+01 0.00000E+00
 -1      1397 4.89000E+01 4.87010E+01 0.00000E+00
 -1      1398 5.04000E+01 4.87010E+01 0.00000E+00
 -1      1399 4.81500E+01 4.74020E+01 0.00000E+00
 -1      1400 5.19000E+01 4.87010E+01 0.00000E+00
 -1      1401 5.34000E+01 4.87010E+01 0.00000E+00
 -1      1402 5.11500E+01 4.74020E+01 0.00000E+00
 -1      1403 5.49000E+01 4.87010E+01 0.00000E+00
 -1      1404 5.64000E+01 4.87010E+01 0.00000E+00
 -1      1405 5.41500E+01 4.74020E+01 0.00000E+00
 -1      1406 5.79000E+01 4.87010E+01 0.00000E+00
 -1      1407 5.94000E+01 4.87010E+01 0.00000E+00
 -1      1408 5.71500E+01 4.74020E+01 0.00000E+00
 -1      1409 6.09000E+01 4.87010E+01 0.00000E+00
 -1      1410 6.24000E+01 4.87010E+01 0.00000E+00
 -1      1411 6.01500E+01 4.74020E+01 0.00000E+00
 -1      1412 6.39000E+01 4.87010E+01 0.00000E+00
 -1      1413 6.54000E+01 4.87010E+01 0.00000E+00
 -1      1414 6.31500E+01 4.74020E+01 0.00000E+00
 -1      1415 6.69000E+01 4.87010E+01 0.00000E+00
 -1      1416 6.84000E+01 4.87010E+01 0.00000E+00
 -1      1417 6.61500E+01 4.74020E+01 0.00000E+00
 -1      1418 6.99000E+01 4.87010E+01 0.00000E+00
 -1      1419 7.14000E+01 4.87010E+01 0.00000E+00
 -1      1420 6.91500E+01 4.74020E+01 0.00000E+00
 -1      1421 7.29000E+01 4.87010E+01 0.00000E+00
 -1      1422 7.44000E+01 4.87010E+01 0.00000E+00
 -1      1423 7.21500E+01 4.74020E+01 0.00000E+00
 -1      1424 7.59000E+01 4.87010E+01 0.00000E+00
 -1      1425 7.74000E+01 4.87010E+01 0.00000E+00
 -1      1426 7.51500E+01 4.74020E+01 0.00000E+00
 -1      1427 7.89000E+01 4.87010E+01 0.00000E+00
 -1      1428 8.04000E+01 4.87010E+01 0.00000E+00
 -1      1429 7.81500E+01 4.74020E+01 0.00000E+00
 -1      1430 8.19000E+01 4.87010E+01 0.00000E+00
 -1      1431 8.34000E+01 4.87010E+01 0.00000E+00
 -1      1432 8.11500E+01 4.74020E+01 0.00000E+00
 -1      1433 8.49000E+01 4.87010E+01 0.00000E+00
 -1      1434 8.64000E+01 4.87010E+01 0.00000E+00
 -1      1435 8.41500E+01 4.74020E+01 0.00000E+00
 -1      1436 8.79000E+01 4.87010E+01 0.00000E+00
 -1      1437 8.94000E+01 4.87010E+01 0.00000E+00
 -1      1438 8.71500E+01 4.74020E+01 0.00000E+00
 -1      1439 9.09000E+01 4.87010E+01 0.00000E+00
 -1      1440 9.24000E+01 4.87010E+01 0.00000E+00
 -1      1441 9.01500E+01 4.74020E+01 0.00000E+00
 -1      1442 9.39000E+01 4.87010E+01 0.00000E+00
 -1      1443 9.54000E+01 4.87010E+01 0.00000E+00
 -1      1444 9.31500E+01 4.74020E+01 0.00000E+00
 -1      1445 9.69000E+01 4.87010E+01 0.00000E+00
 -1      1446 9.84000E+01 4.87010E+01 0.00000E+00
 -1      1447 9.61500E+01 4.74020E+01 0.00000E+00
 -1      1448 9.99000E+01 4.87010E+01 0.00000E+00
 -1      1449 1.01400E+02 4.87010E+01 0.00000E+00
 -1      1450 9.91500E+01 4.74020E+01 0.00000E+00
 -1      1451 1.02900E+02 4.87010E+01 0.00000E+00
 -1      1452 1.04400E+02 4.87010E+01 0.00000E+00
 -1      1453 1.02150E+02 4.74020E+01 0.00000E+00
 -1      1454 1.05900E+02 4.87010E+01 0.00000E+00
 -1      1455 1.07400E+02 4.87010E+01 0.00000E+00
 -1      1456 1.05150E+02 4.74020E+01 0.00000E+00
 -1      1457 1.08900E+02 4.87010E+01 0.00000E+00
 -1      1458 1.10400E+02 4.87010E+01 0.00000E+00
 -1      1459 1.08150E+02 4.74020E+01 0.00000E+00
 -1      1460 1.11900E+02 4.87010E+01 0.00000E+00
 -1      1461 1.13400E+02 4.87010E+01 0.00000E+00
 -1      1462 1.11150E+02 4.74020E+01 0.00000E+00
 -1      1463 1.14900E+02 4.87010E+01 0.00000E+00
 -1      1464 1.16400E+02 4.87010E+01 0.00000E+00
 -1      1465 1.14150E+02 4.74020E+01 0.00000E+00
 -1      1466 1.17900E+02 4.87010E+01 0.00000E+00
 -1      1467 1.19400E+02 4.87010E+01 0.00000E+00
 -1      1468 1.17150E+02 4.74020E+01 0.00000E+00
 -1      1469 1.20900E+02 4.87010E+01 0.00000E+00
 -1      1470 1.22400E+02 4.87010E+01 0.00000E+00
 -1      1471 1.20150E+02 4.74020E+01 0.00000E+00
 -1      1472 1.23900E+02 4.87010E+01 0.00000E+00
 -1      1473 1.25400E+02 4.87010E+01 0.00000E+00
 -1      1474 1.23150E+02 4.74020E+01 0.00000E+00
 -1      1475 1.26900E+02 4.87010E+01 0.00000E+00
 -1      1476 1.28400E+02 4.87010E+01 0.00000E+00
 -1      1477 1.26150E+02 4.74020E+01 0.00000E+00
 -1      1478 1.29900E+02 4.87010E+01 0.00000E+00
 -1      1479 1.31400E+02 4.87010E+01 0.00000E+00
 -1      1480 1.29150E+02 4.74020E+01 0.00000E+00
 -1      1481 1.32900E+02 4.87010E+01 0.00000E+00
 -1      1482 1.34400E+02 4.87010E+01 0.00000E+00
 -1      1483 1.32150E+02 4.74020E+01 0.00000E+00
 -1      1484 1.35900E+02 4.87010E+01 0.00000E+00
 -1      1485 1.37400E+02 4.87010E+01 0.00000E+00
 -1      1486 1.35150E+02 4.74020E+01 0.00000E+00
 -1      1487 1.38900E+02 4.87010E+01 0.00000E+00
 -1      1488 1.40400E+02 4.87010E+01 0.00000E+00
 -1      1489 1.38150E+02 4.74020E+01 0.00000E+00
 -1      1490 1.41900E+02 4.87010E+01 0.00000E+00
 -1      1491 1.43400E+02 4.87010E+01 0.00000E+00
 -1      1492 1.41150E+02 4.74020E+01 0.00000E+00
 -1      1493 1.44900E+02 4.87010E+01 0.00000E+00
 -1      1494 1.46400E+02 4.87010E+01 0.00000E+00
 -1      1495 1.44150E+02 4.74020E+01 0.00000E+00
 -1      1496 1.48575E+02 4.85500E+01 0.00000E+00
 -1      1497 1.47825E+02 4.72510E+01 0.00000E+00
 -1      1498 6.01200E+00 1.09375E+00 0.00000E+00
 -1      1499 4.51200E+00 1.09375E+00 0.00000E+00
 -1      1500 4.37400E+00 2.18750E+00 0.00000E+00
 -1      1501 9.01200E+00 1.09375E+00 0.00000E+00
 -1      1502 7.51200E+00 1.09375E+00 0.00000E+00
 -1      1503 7.37400E+00 2.18750E+00 0.00000E+00
 -1      1504 1.20120E+01 1.09375E+00 0.00000E+00
 -1      1505 1.05120E+01 1.09375E+00 0.00000E+00
 -1      1506 1.03740E+01 2.18750E+00 0.00000E+00
 -1      1507 1.50120E+01 1.09375E+00 0.00000E+00
 -1      1508 1.35120E+01 1.09375E+00 0.00000E+00
 -1      1509 1.33740E+01 2.18750E+00 0.00000E+00
 -1      1510 1.80120E+01 1.09375E+00 0.00000E+00
 -1      1511 1.65120E+01 1.09375E+00 0.00000E+00
 -1      1512 1.63740E+01 2.18750E+00 0.00000E+00
 -1      1513 2.10120E+01 1.09375E+00 0.00000E+00
 -1      1514 1.95120E+01 1.09375E+00 0.00000E+00
 -1      1515 1.93740E+01 2.18750E+00 0.00000E+00
 -1      1516 2.40120E+01 1.09375E+00 0.00000E+00
 -1      1517 2.25120E+01 1.09375E+00 0.00000E+00
 -1      1518 2.23740E+01 2.18750E+00 0.00000E+00
 -1      1519 2.70120E+01 1.09375E+00 0.00000E+00
 -1      1520 2.55120E+01 1.09375E+00 0.00000E+00
 -1      1521 2.53740E+01 2.18750E+00 0.00000E+00
 -1      1522 3.00120E+01 1.09375E+00 0.00000E+00
 -1      1523 2.85120E+01 1.09375E+00 0.00000E+00
 -1      1524 2.83740E+01 2.18750E+00 0.00000E+00
 -1      1525 3.30120E+01 1.09375E+00 0.00000E+00
 -1      1526 3.15120E+01 1.09375E+00 0.00000E+00
 -1      1527 3.13740E+01 2.18750E+00 0.00000E+00
 -1      1528 3.60120E+01 1.09375E+00 0.00000E+00
 -1      1529 3.45120E+01 1.09375E+00 0.00000E+00
 -1      1530 3.43740E+01 2.18750E+00 0.00000E+00
 -1      1531 3.90120E+01 1.09375E+00 0.00000E+00
 -1      1532 3.75120E+01 1.09375E+00 0.00000E+00
 -1      1533 3.73740E+01 2.18750E+00 0.00000E+00
 -1      1534 4.20120E+01 1.09375E+00 0.00000E+00
 -1      1535 4.05120E+01 1.09375E+00 0.00000E+00
 -1      1536 4.03740E+01 2.18750E+00 0.00000E+00
 -1      1537 4.50120E+01 1.09375E+00 0.00000E+00
 -1      1538 4.35120E+01 1.09375E+00 0.00000E+00
 -1      1539 4.33740E+01 2.18750E+00 0.00000E+00
 -1      1540 4.80120E+01 1.09375E+00 0.00000E+00
 -1      1541 4.65120E+01 1.09375E+00 0.00000E+00
 -1      1542 4.63740E+01 2.18750E+00 0.00000E+00
 -1      1543 5.10120E+01 1.09375E+00 0.00000E+00
 -1      1544 4.95120E+01 1.09375E+00 0.00000E+00
 -1      1545 4.93740E+01 2.18750E+00 0.00000E+00
 -1      1546 5.40120E+01 1.09375E+00 0.00000E+00
 -1      1547 5.25120E+01 1.09375E+00 0.00000E+00
 -1      1548 5.23740E+01 2.18750E+00 0.00000E+00
 -1      1549 5.70120E+01 1.09375E+00 0.00000E+00
 -1      1550 5.55120E+01 1.09375E+00 0.00000E+00
 -1      1551 5.53740E+01 2.18750E+00 0.00000E+00
 -1      1552 6.00120E+01 1.09375E+00 0.00000E+00
 -1      1553 5.85120E+01 1.09375E+00 0.00000E+00
 -1      1554 5.83740E+01 2.18750E+00 0.00000E+00
 -1      1555 6.30120E+01 1.09375E+00 0.00000E+00
 -1      1556 6.15120E+01 1.09375E+00 0.00000E+00
 -1      1557 6.13740E+01 2.18750E+00 0.00000E+00
 -1      1558 6.60120E+01 1.09375E+00 0.00000E+00
 -1      1559 6.45120E+01 1.09375E+00 0.00000E+00
 -1      1560 6.43740E+01 2.18750E+00 0.00000E+00
 -1      1561 6.90120E+01 1.09375E+00 0.00000E+00
 -1      1562 6.75120E+01 1.09375E+00 0.00000E+00
 -1      1563 6.73740E+01 2.18750E+00 0.00000E+00
 -1      1564 7.20120E+01 1.09375E+00 0.00000E+00
 -1      1565 7.05120E+01 1.09375E+00 0.00000E+00
 -1      1566 7.03740E+01 2.18750E+00 0.00000E+00
 -1      1567 7.50120E+01 1.09375E+00 0.00000E+00
 -1      1568 7.35120E+01 1.09375E+00 0.00000E+00
 -1      1569 7.33740E+01 2.18750E+00 0.00000E+00
 -1      1570 7.80120E+01 1.09375E+00 0.00000E+00
 -1      1571 7.65120E+01 1.09375E+00 0.00000E+00
 -1      1572 7.63740E+01 2.18750E+00 0.00000E+00
 -1      1573 8.10120E+01 1.09375E+00 0.00000E+00
 -1      1574 7.95120E+01 1.09375E+00 0.00000E+00
 -1      1575 7.93740E+01 2.18750E+00 0.00000E+00
 -1      1576 8.40120E+01 1.09375E+00 0.00000E+00
 -1      1577 8.25120E+01 1.09375E+00 0.00000E+00
 -1      1578 8.23740E+01 2.18750E+00 0.00000E+00
 -1      1579 8.70120E+01 1.09375E+00 0.00000E+00
 -1      1580 8.55120E+01 1.09375E+00 0.00000E+00
 -1      1581 8.53740E+01 2.18750E+00 0.00000E+00
 -1      1582 9.00120E+01 1.09375E+00 0.00000E+00
 -1      1583 8.85120E+01 1.09375E+00 0.00000E+00
 -1      1584 8.83740E+01 2.18750E+00 0.00000E+00
 -1      1585 9.30120E+01 1.09375E+00 0.00000E+00
 -1      1586 9.15120E+01 1.09375E+00 0.00000E+00
 -1      1587 9.13740E+01 2.18750E+00 0.00000E+00
 -1      1588 9.60120E+01 1.09375E+00 0.00000E+00
 -1      1589 9.45120E+01 1.09375E+00 0.00000E+00
 -1      1590 9.43740E+01 2.18750E+00 0.00000E+00
 -1      1591 9.90120E+01 1.09375E+00 0.00000E+00
 -1      1592 9.75120E+01 1.09375E+00 0.00000E+00
 -1      1593 9.73740E+01 2.18750E+00 0.00000E+00
 -1      1594 1.02012E+02 1.09375E+00 0.00000E+00
 -1      1595 1.00512E+02 1.09375E+00 0.00000E+00
 -1      1596 1.00374E+02 2.18750E+00 0.00000E+00
 -1      1597 1.05012E+02 1.09375E+00 0.00000E+00
 -1      1598 1.03512E+02 1.09375E+00 0.00000E+00
 -1      1599 1.03374E+02 2.18750E+00 0.00000E+00
 -1      1600 1.08012E+02 1.09375E+00 0.00000E+00
 -1      1601 1.06512E+02 1.09375E+00 0.00000E+00
 -1      1602 1.06374E+02 2.18750E+00 0.00000E+00
 -1      1603 1.11012E+02 1.09375E+00 0.00000E+00
 -1      1604 1.09512E+02 1.09375E+00 0.00000E+00
 -1      1605 1.09374E+02 2.18750E+00 0.00000E+00
 -1      1606 1.14012E+02 1.09375E+00 0.00000E+00
 -1      1607 1.12512E+02 1.09375E+00 0.00000E+00
 -1      1608 1.12374E+02 2.18750E+00 0.00000E+00
 -1      1609 1.17012E+02 1.09375E+00 0.00000E+00
 -1      1610 1.15512E+02 1.09375E+00 0.00000E+00
 -1      1611 1.15374E+02 2.18750E+00 0.00000E+00
 -1      1612 1.20012E+02 1.09375E+00 0.00000E+00
 -1      1613 1.18512E+02 1.09375E+00 0.00000E+00
 -1      1614 1.18374E+02 2.18750E+00 0.00000E+00
 -1      1615 1.23012E+02 1.09375E+00 0.00000E+00
 -1      1616 1.21512E+02 1.09375E+00 0.00000E+00
 -1      1617 1.21374E+02 2.18750E+00 0.00000E+00
 -1      1618 1.26012E+02 1.09375E+00 0.00000E+00
 -1      1619 1.24512E+02 1.09375E+00 0.00000E+00
 -1      1620 1.24374E+02 2.18750E+00 0.00000E+00
 -1      1621 1.29012E+02 1.09375E+00 0.00000E+00
 -1      1622 1.27512E+02 1.09375E+00 0.00000E+00
 -1      1623 1.27374E+02 2.18750E+00 0.00000E+00
 -1      1624 1.32012E+02 1.09375E+00 0.00000E+00
 -1      1625 1.30512E+02 1.09375E+00 0.00000E+00
 -1      1626 1.30374E+02 2.18750E+00 0.00000E+00
 -1      1627 1.35012E+02 1.09375E+00 0.00000E+00
 -1      1628 1.33512E+02 1.09375E+00 0.00000E+00
 -1      1629 1.33374E+02 2.18750E+00 0.00000E+00
 -1      1630 1.38012E+02 1.09375E+00 0.00000E+00
 -1      1631 1.36512E+02 1.09375E+00 0.00000E+00
 -1      1632 1.36374E+02 2.18750E+00 0.00000E+00
 -1      1633 1.41012E+02 1.09375E+00 0.00000E+00
 -1      1634 1.39512E+02 1.09375E+00 0.00000E+00
 -1      1635 1.39374E+02 2.18750E+00 0.00000E+00
 -1      1636 1.44012E+02 1.09375E+00 0.00000E+00
 -1      1637 1.42512E+02 1.09375E+00 0.00000E+00
 -1      1638 1.42374E+02 2.18750E+00 0.00000E+00
 -1      1639 1.47012E+02 1.09375E+00 0.00000E+00
 -1      1640 1.45512E+02 1.09375E+00 0.00000E+00
 -1      1641 1.45374E+02 2.18750E+00 0.00000E+00
 -1      1642 1.48575E+02 1.47500E+00 0.00000E+00
 -1      1643 1.48701E+02 5.16250E+00 0.00000E+00
 -1      1644 1.48701E+02 3.68750E+00 0.00000E+00
 -1      1645 1.48701E+02 8.11250E+00 0.00000E+00
 -1      1646 1.48701E+02 6.63750E+00 0.00000E+00
 -1      1647 1.47402E+02 5.90000E+00 0.00000E+00
 -1      1648 1.48701E+02 1.10625E+01 0.00000E+00
 -1      1649 1.48701E+02 9.58750E+00 0.00000E+00
 -1      1650 1.47402E+02 8.85000E+00 0.00000E+00
 -1      1651 1.48701E+02 1.40125E+01 0.00000E+00
 -1      1652 1.48701E+02 1.25375E+01 0.00000E+00
 -1      1653 1.47402E+02 1.18000E+01 0.00000E+00
 -1      1654 1.48701E+02 1.69125E+01 0.00000E+00
 -1      1655 1.48701E+02 1.54625E+01 0.00000E+00
 -1      1656 1.47402E+02 1.47250E+01 0.00000E+00
 -1      1657 1.48701E+02 1.98625E+01 0.00000E+00
 -1      1658 1.48701E+02 1.83875E+01 0.00000E+00
 -1      1659 1.47402E+02 1.76500E+01 0.00000E+00
 -1      1660 1.48701E+02 2.28125E+01 0.00000E+00
 -1      1661 1.48701E+02 2.13375E+01 0.00000E+00
 -1      1662 1.47402E+02 2.06000E+01 0.00000E+00
 -1      1663 1.48701E+02 2.57625E+01 0.00000E+00
 -1      1664 1.48701E+02 2.42875E+01 0.00000E+00
 -1      1665 1.47402E+02 2.35500E+01 0.00000E+00
 -1      1666 1.48701E+02 2.87125E+01 0.00000E+00
 -1      1667 1.48701E+02 2.72375E+01 0.00000E+00
 -1      1668 1.47402E+02 2.65000E+01 0.00000E+00
 -1      1669 1.48701E+02 3.16625E+01 0.00000E+00
 -1      1670 1.48701E+02 3.01875E+01 0.00000E+00
 -1      1671 1.47402E+02 2.94500E+01 0.00000E+00
 -1      1672 1.48701E+02 3.45625E+01 0.00000E+00
 -1      1673 1.48701E+02 3.31125E+01 0.00000E+00
 -1      1674 1.47402E+02 3.23750E+01 0.00000E+00
 -1      1675 1.48701E+02 3.75125E+01 0.00000E+00
 -1      1676 1.48701E+02 3.60375E+01 0.00000E+00
 -1      1677 1.47402E+02 3.53000E+01 0.00000E+00
 -1      1678 1.48701E+02 4.04625E+01 0.00000E+00
 -1      1679 1.48701E+02 3.89875E+01 0.00000E+00
 -1      1680 1.47402E+02 3.82500E+01 0.00000E+00
 -1      1681 1.48701E+02 4.34125E+01 0.00000E+00
 -1      1682 1.48701E+02 4.19375E+01 0.00000E+00
 -1      1683 1.47402E+02 4.12000E+01 0.00000E+00
 -1      1684 1.48263E+02 4.60692E+01 0.00000E+00
 -1      1685 1.48263E+02 4.45942E+01 0.00000E+00
 -1      1686 1.46964E+02 4.38568E+01 0.00000E+00
 -1      1687 1.46088E+02 4.62202E+01 0.00000E+00
 -1      1688 9.21145E+01 2.49578E+01 0.00000E+00
 -1      1689 9.22056E+01 2.57510E+01 0.00000E+00
 -1      1690 9.15346E+01 2.34592E+01 0.00000E+00
 -1      1691 9.17609E+01 2.41222E+01 0.00000E+00
 -1      1692 9.08451E+01 2.19069E+01 0.00000E+00
 -1      1693 9.12641E+01 2.25984E+01 0.00000E+00
 -1      1694 8.96957E+01 2.06823E+01 0.00000E+00
 -1      1695 9.02158E+01 2.12211E+01 0.00000E+00
 -1      1696 8.84422E+01 1.97732E+01 0.00000E+00
 -1      1697 8.90204E+01 2.01653E+01 0.00000E+00
 -1      1698 8.70502E+01 1.90628E+01 0.00000E+00
 -1      1699 8.77235E+01 1.93409E+01 0.00000E+00
 -1      1700 8.53921E+01 1.86361E+01 0.00000E+00
 -1      1701 8.61868E+01 1.87741E+01 0.00000E+00
 -1      1702 8.37105E+01 1.87007E+01 0.00000E+00
 -1      1703 8.44670E+01 1.86613E+01 0.00000E+00
 -1      1704 8.21592E+01 1.89788E+01 0.00000E+00
 -1      1705 8.28500E+01 1.87929E+01 0.00000E+00
 -1      1706 8.06900E+01 1.96297E+01 0.00000E+00
 -1      1707 8.13550E+01 1.92902E+01 0.00000E+00
 -1      1708 7.94404E+01 2.05783E+01 0.00000E+00
 -1      1709 7.99939E+01 2.01299E+01 0.00000E+00
 -1      1710 7.84115E+01 2.16983E+01 0.00000E+00
 -1      1711 7.88552E+01 2.11585E+01 0.00000E+00
 -1      1712 7.75995E+01 2.30723E+01 0.00000E+00
 -1      1713 7.79468E+01 2.24061E+01 0.00000E+00
 -1      1714 7.70865E+01 2.45927E+01 0.00000E+00
 -1      1715 7.72814E+01 2.38812E+01 0.00000E+00
 -1      1716 7.68250E+01 2.62231E+01 0.00000E+00
 -1      1717 7.68648E+01 2.54562E+01 0.00000E+00
 -1      1718 7.70317E+01 2.78272E+01 0.00000E+00
 -1      1719 7.69137E+01 2.71072E+01 0.00000E+00
 -1      1720 7.75216E+01 2.94244E+01 0.00000E+00
 -1      1721 7.72333E+01 2.86997E+01 0.00000E+00
 -1      1722 7.83767E+01 3.09229E+01 0.00000E+00
 -1      1723 7.79284E+01 3.02723E+01 0.00000E+00
 -1      1724 7.96120E+01 3.20383E+01 0.00000E+00
 -1      1725 7.90649E+01 3.15311E+01 0.00000E+00
 -1      1726 8.08785E+01 3.29039E+01 0.00000E+00
 -1      1727 8.02831E+01 3.25458E+01 0.00000E+00
 -1      1728 8.24375E+01 3.36954E+01 0.00000E+00
 -1      1729 8.16418E+01 3.34301E+01 0.00000E+00
 -1      1730 8.41167E+01 3.38453E+01 0.00000E+00
 -1      1731 8.33841E+01 3.37745E+01 0.00000E+00
 -1      1732 8.56207E+01 3.37308E+01 0.00000E+00
 -1      1733 8.49465E+01 3.38025E+01 0.00000E+00
 -1      1734 8.70991E+01 3.34383E+01 0.00000E+00
 -1      1735 8.64326E+01 3.36466E+01 0.00000E+00
 -1      1736 8.83913E+01 3.27325E+01 0.00000E+00
 -1      1737 8.78077E+01 3.30496E+01 0.00000E+00
 -1      1738 8.95514E+01 3.18739E+01 0.00000E+00
 -1      1739 8.90362E+01 3.22976E+01 0.00000E+00
 -1      1740 9.05858E+01 3.08004E+01 0.00000E+00
 -1      1741 9.01451E+01 3.13370E+01 0.00000E+00
 -1      1742 9.13141E+01 2.95233E+01 0.00000E+00
 -1      1743 9.09977E+01 3.01127E+01 0.00000E+00
 -1      1744 9.18643E+01 2.81308E+01 0.00000E+00
 -1      1745 9.16601E+01 2.87980E+01 0.00000E+00
 -1      1746 9.20517E+01 2.66385E+01 0.00000E+00
 -1      1747 9.19839E+01 2.73243E+01 0.00000E+00
 -1      1748 8.97468E+01 1.99845E+01 0.00000E+00
 -1      1749 9.10513E+01 2.11874E+01 0.00000E+00
 -1      1750 1.48437E+02 2.56875E+00 0.00000E+00
 -1      1751 1.47138E+02 3.30625E+00 0.00000E+00
 -1      1752 9.25751E+01 2.44305E+01 0.00000E+00
 -1      1753 9.19510E+01 2.27341E+01 0.00000E+00
 -1      1754 9.27749E+01 2.61536E+01 0.00000E+00
 -1      1755 8.83529E+01 1.90352E+01 0.00000E+00
 -1      1756 8.67708E+01 1.83140E+01 0.00000E+00
 -1      1757 8.49823E+01 1.80505E+01 0.00000E+00
 -1      1758 8.31967E+01 1.81678E+01 0.00000E+00
 -1      1759 8.15320E+01 1.85714E+01 0.00000E+00
 -1      1760 8.00317E+01 1.93829E+01 0.00000E+00
 -1      1761 7.87503E+01 2.04633E+01 0.00000E+00
 -1      1762 7.77003E+01 2.17513E+01 0.00000E+00
 -1      1763 7.69174E+01 2.32679E+01 0.00000E+00
 -1      1764 7.63776E+01 2.49404E+01 0.00000E+00
 -1      1765 7.62445E+01 2.66880E+01 0.00000E+00
 -1      1766 7.65347E+01 2.84445E+01 0.00000E+00
 -1      1767 7.71431E+01 3.01650E+01 0.00000E+00
 -1      1768 7.82381E+01 3.16211E+01 0.00000E+00
 -1      1769 7.95974E+01 3.27368E+01 0.00000E+00
 -1      1770 8.10317E+01 3.37706E+01 0.00000E+00
 -1      1771 8.27415E+01 3.43759E+01 0.00000E+00
 -1      1772 8.45179E+01 3.44122E+01 0.00000E+00
 -1      1773 8.61597E+01 3.42852E+01 0.00000E+00
 -1      1774 8.76803E+01 3.38123E+01 0.00000E+00
 -1      1775 8.90339E+01 3.29888E+01 0.00000E+00
 -1      1776 9.02726E+01 3.20170E+01 0.00000E+00
 -1      1777 9.12782E+01 3.07924E+01 0.00000E+00
 -1      1778 9.20360E+01 2.93794E+01 0.00000E+00
 -1      1779 9.25015E+01 2.78476E+01 0.00000E+00
 -1      1780 2.87400E+00 4.77875E+01 0.00000E+00
 -1      1781 3.89700E+00 4.04125E+01 0.00000E+00
 -1      1782 3.89700E+00 4.18875E+01 0.00000E+00
 -1      1783 3.89700E+00 4.33625E+01 0.00000E+00
 -1      1784 3.89700E+00 4.48375E+01 0.00000E+00
 -1      1785 5.19600E+00 4.26250E+01 0.00000E+00
 -1      1786 3.89700E+00 3.45500E+01 0.00000E+00
 -1      1787 3.89700E+00 3.60000E+01 0.00000E+00
 -1      1788 3.89700E+00 3.16000E+01 0.00000E+00
 -1      1789 3.89700E+00 3.30750E+01 0.00000E+00
 -1      1790 5.19600E+00 3.38000E+01 0.00000E+00
 -1      1791 3.89700E+00 2.86500E+01 0.00000E+00
 -1      1792 3.89700E+00 3.01250E+01 0.00000E+00
 -1      1793 5.19600E+00 3.08500E+01 0.00000E+00
 -1      1794 3.89700E+00 2.57000E+01 0.00000E+00
 -1      1795 3.89700E+00 2.71750E+01 0.00000E+00
 -1      1796 5.19600E+00 2.79000E+01 0.00000E+00
 -1      1797 3.89700E+00 2.27500E+01 0.00000E+00
 -1      1798 3.89700E+00 2.42250E+01 0.00000E+00
 -1      1799 5.19600E+00 2.49500E+01 0.00000E+00
 -1      1800 3.89700E+00 1.98000E+01 0.00000E+00
 -1      1801 3.89700E+00 2.12750E+01 0.00000E+00
 -1      1802 5.19600E+00 2.20000E+01 0.00000E+00
 -1      1803 3.89700E+00 1.69000E+01 0.00000E+00
 -1      1804 3.89700E+00 1.83500E+01 0.00000E+00
 -1      1805 5.19600E+00 1.90750E+01 0.00000E+00
 -1      1806 3.89700E+00 1.39500E+01 0.00000E+00
 -1      1807 3.89700E+00 1.54250E+01 0.00000E+00
 -1      1808 5.19600E+00 1.61500E+01 0.00000E+00
 -1      1809 3.89700E+00 1.10000E+01 0.00000E+00
 -1      1810 3.89700E+00 1.24750E+01 0.00000E+00
 -1      1811 5.19600E+00 1.32000E+01 0.00000E+00
 -1      1812 3.89700E+00 8.05000E+00 0.00000E+00
 -1      1813 3.89700E+00 9.52500E+00 0.00000E+00
 -1      1814 5.19600E+00 1.02500E+01 0.00000E+00
 -1      1815 3.89700E+00 5.10000E+00 0.00000E+00
 -1      1816 3.89700E+00 6.57500E+00 0.00000E+00
 -1      1817 5.19600E+00 7.30000E+00 0.00000E+00
 -1      1818 4.20450E+00 3.09687E+00 0.00000E+00
 -1      1819 4.06650E+00 4.19063E+00 0.00000E+00
 -1      1820 5.36550E+00 4.91563E+00 0.00000E+00
 -1      1821 5.70450E+00 3.09687E+00 0.00000E+00
 -1      1822 3.62400E+00 4.64885E+01 0.00000E+00
 -1      1823 8.70450E+00 3.09687E+00 0.00000E+00
 -1      1824 7.20450E+00 3.09687E+00 0.00000E+00
 -1      1825 7.03500E+00 4.00625E+00 0.00000E+00
 -1      1826 4.92300E+00 4.57510E+01 0.00000E+00
 -1      1827 8.40000E+00 4.61030E+01 0.00000E+00
 -1      1828 9.90000E+00 4.61030E+01 0.00000E+00
 -1      1829 1.14000E+01 4.61030E+01 0.00000E+00
 -1      1830 1.29000E+01 4.61030E+01 0.00000E+00
 -1      1831 1.06500E+01 4.48040E+01 0.00000E+00
 -1      1832 1.44000E+01 4.61030E+01 0.00000E+00
 -1      1833 1.59000E+01 4.61030E+01 0.00000E+00
 -1      1834 1.36500E+01 4.48040E+01 0.00000E+00
 -1      1835 1.74000E+01 4.61030E+01 0.00000E+00
 -1      1836 1.89000E+01 4.61030E+01 0.00000E+00
 -1      1837 1.66500E+01 4.48040E+01 0.00000E+00
 -1      1838 2.04000E+01 4.61030E+01 0.00000E+00
 -1      1839 2.19000E+01 4.61030E+01 0.00000E+00
 -1      1840 1.96500E+01 4.48040E+01 0.00000E+00
 -1      1841 2.34000E+01 4.61030E+01 0.00000E+00
 -1      1842 2.49000E+01 4.61030E+01 0.00000E+00
 -1      1843 2.26500E+01 4.48040E+01 0.00000E+00
 -1      1844 2.64000E+01 4.61030E+01 0.00000E+00
 -1      1845 2.79000E+01 4.61030E+01 0.00000E+00
 -1      1846 2.56500E+01 4.48040E+01 0.00000E+00
 -1      1847 2.94000E+01 4.61030E+01 0.00000E+00
 -1      1848 3.09000E+01 4.61030E+01 0.00000E+00
 -1      1849 2.86500E+01 4.48040E+01 0.00000E+00
 -1      1850 3.24000E+01 4.61030E+01 0.00000E+00
 -1      1851 3.39000E+01 4.61030E+01 0.00000E+00
 -1      1852 3.16500E+01 4.48040E+01 0.00000E+00
 -1      1853 3.54000E+01 4.61030E+01 0.00000E+00
 -1      1854 3.69000E+01 4.61030E+01 0.00000E+00
 -1      1855 3.46500E+01 4.48040E+01 0.00000E+00
 -1      1856 3.84000E+01 4.61030E+01 0.00000E+00
 -1      1857 3.99000E+01 4.61030E+01 0.00000E+00
 -1      1858 3.76500E+01 4.48040E+01 0.00000E+00
 -1      1859 4.14000E+01 4.61030E+01 0.00000E+00
 -1      1860 4.29000E+01 4.61030E+01 0.00000E+00
 -1      1861 4.06500E+01 4.48040E+01 0.00000E+00
 -1      1862 4.44000E+01 4.61030E+01 0.00000E+00
 -1      1863 4.59000E+01 4.61030E+01 0.00000E+00
 -1      1864 4.36500E+01 4.48040E+01 0.00000E+00
 -1      1865 4.74000E+01 4.61030E+01 0.00000E+00
 -1      1866 4.89000E+01 4.61030E+01 0.00000E+00
 -1      1867 4.66500E+01 4.48040E+01 0.00000E+00
 -1      1868 5.04000E+01 4.61030E+01 0.00000E+00
 -1      1869 5.19000E+01 4.61030E+01 0.00000E+00
 -1      1870 4.96500E+01 4.48040E+01 0.00000E+00
 -1      1871 5.34000E+01 4.61030E+01 0.00000E+00
 -1      1872 5.49000E+01 4.61030E+01 0.00000E+00
 -1      1873 5.26500E+01 4.48040E+01 0.00000E+00
 -1      1874 5.64000E+01 4.61030E+01 0.00000E+00
 -1      1875 5.79000E+01 4.61030E+01 0.00000E+00
 -1      1876 5.56500E+01 4.48040E+01 0.00000E+00
 -1      1877 5.94000E+01 4.61030E+01 0.00000E+00
 -1      1878 6.09000E+01 4.61030E+01 0.00000E+00
 -1      1879 5.86500E+01 4.48040E+01 0.00000E+00
 -1      1880 6.24000E+01 4.61030E+01 0.00000E+00
 -1      1881 6.39000E+01 4.61030E+01 0.00000E+00
 -1      1882 6.16500E+01 4.48040E+01 0.00000E+00
 -1      1883 6.54000E+01 4.61030E+01 0.00000E+00
 -1      1884 6.69000E+01 4.61030E+01 0.00000E+00
 -1      1885 6.46500E+01 4.48040E+01 0.00000E+00
 -1      1886 6.84000E+01 4.61030E+01 0.00000E+00
 -1      1887 6.99000E+01 4.61030E+01 0.00000E+00
 -1      1888 6.76500E+01 4.48040E+01 0.00000E+00
 -1      1889 7.14000E+01 4.61030E+01 0.00000E+00
 -1      1890 7.29000E+01 4.61030E+01 0.00000E+00
 -1      1891 7.06500E+01 4.48040E+01 0.00000E+00
 -1      1892 7.44000E+01 4.61030E+01 0.00000E+00
 -1      1893 7.59000E+01 4.61030E+01 0.00000E+00
 -1      1894 7.36500E+01 4.48040E+01 0.00000E+00
 -1      1895 7.74000E+01 4.61030E+01 0.00000E+00
 -1      1896 7.89000E+01 4.61030E+01 0.00000E+00
 -1      1897 7.66500E+01 4.48040E+01 0.00000E+00
 -1      1898 8.04000E+01 4.61030E+01 0.00000E+00
 -1      1899 8.19000E+01 4.61030E+01 0.00000E+00
 -1      1900 7.96500E+01 4.48040E+01 0.00000E+00
 -1      1901 8.34000E+01 4.61030E+01 0.00000E+00
 -1      1902 8.49000E+01 4.61030E+01 0.00000E+00
 -1      1903 8.26500E+01 4.48040E+01 0.00000E+00
 -1      1904 8.64000E+01 4.61030E+01 0.00000E+00
 -1      1905 8.79000E+01 4.61030E+01 0.00000E+00
 -1      1906 8.56500E+01 4.48040E+01 0.00000E+00
 -1      1907 8.94000E+01 4.61030E+01 0.00000E+00
 -1      1908 9.09000E+01 4.61030E+01 0.00000E+00
 -1      1909 8.86500E+01 4.48040E+01 0.00000E+00
 -1      1910 9.24000E+01 4.61030E+01 0.00000E+00
 -1      1911 9.39000E+01 4.61030E+01 0.00000E+00
 -1      1912 9.16500E+01 4.48040E+01 0.00000E+00
 -1      1913 9.54000E+01 4.61030E+01 0.00000E+00
 -1      1914 9.69000E+01 4.61030E+01 0.00000E+00
 -1      1915 9.46500E+01 4.48040E+01 0.00000E+00
 -1      1916 9.84000E+01 4.61030E+01 0.00000E+00
 -1      1917 9.99000E+01 4.61030E+01 0.00000E+00
 -1      1918 9.76500E+01 4.48040E+01 0.00000E+00
 -1      1919 1.01400E+02 4.61030E+01 0.00000E+00
 -1      1920 1.02900E+02 4.61030E+01 0.00000E+00
 -1      1921 1.00650E+02 4.48040E+01 0.00000E+00
 -1      1922 1.04400E+02 4.61030E+01 0.00000E+00
 -1      1923 1.05900E+02 4.61030E+01 0.00000E+00
 -1      1924 1.03650E+02 4.48040E+01 0.00000E+00
 -1      1925 1.07400E+02 4.61030E+01 0.00000E+00
 -1      1926 1.08900E+02 4.61030E+01 0.00000E+00
 -1      1927 1.06650E+02 4.48040E+01 0.00000E+00
 -1      1928 1.10400E+02 4.61030E+01 0.00000E+00
 -1      1929 1.11900E+02 4.61030E+01 0.00000E+00
 -1      1930 1.09650E+02 4.48040E+01 0.00000E+00
 -1      1931 1.13400E+02 4.61030E+01 0.00000E+00
 -1      1932 1.14900E+02 4.61030E+01 0.00000E+00
 -1      1933 1.12650E+02 4.48040E+01 0.00000E+00
 -1      1934 1.16400E+02 4.61030E+01 0.00000E+00
 -1      1935 1.17900E+02 4.61030E+01 0.00000E+00
 -1      1936 1.15650E+02 4.48040E+01 0.00000E+00
 -1      1937 1.19400E+02 4.61030E+01 0.00000E+00
 -1      1938 1.20900E+02 4.61030E+01 0.00000E+00
 -1      1939 1.18650E+02 4.48040E+01 0.00000E+00
 -1      1940 1.22400E+02 4.61030E+01 0.00000E+00
 -1      1941 1.23900E+02 4.61030E+01 0.00000E+00
 -1      1942 1.21650E+02 4.48040E+01 0.00000E+00
 -1      1943 1.25400E+02 4.61030E+01 0.00000E+00
 -1      1944 1.26900E+02 4.61030E+01 0.00000E+00
 -1      1945 1.24650E+02 4.48040E+01 0.00000E+00
 -1      1946 1.28400E+02 4.61030E+01 0.00000E+00
 -1      1947 1.29900E+02 4.61030E+01 0.00000E+00
 -1      1948 1.27650E+02 4.48040E+01 0.00000E+00
 -1      1949 1.31400E+02 4.61030E+01 0.00000E+00
 -1      1950 1.32900E+02 4.61030E+01 0.00000E+00
 -1      1951 1.30650E+02 4.48040E+01 0.00000E+00
 -1      1952 1.34400E+02 4.61030E+01 0.00000E+00
 -1      1953 1.35900E+02 4.61030E+01 0.00000E+00
 -1      1954 1.33650E+02 4.48040E+01 0.00000E+00
 -1      1955 1.37400E+02 4.61030E+01 0.00000E+00
 -1      1956 1.38900E+02 4.61030E+01 0.00000E+00
 -1      1957 1.36650E+02 4.48040E+01 0.00000E+00
 -1      1958 1.40400E+02 4.61030E+01 0.00000E+00
 -1      1959 1.41900E+02 4.61030E+01 0.00000E+00
 -1      1960 1.39650E+02 4.48040E+01 0.00000E+00
 -1      1961 1.43244E+02 4.61616E+01 0.00000E+00
 -1      1962 1.44744E+02 4.61616E+01 0.00000E+00
 -1      1963 1.45182E+02 4.49799E+01 0.00000E+00
 -1      1964 1.42494E+02 4.48626E+01 0.00000E+00
 -1      1965 1.17045E+01 3.09687E+00 0.00000E+00
 -1      1966 1.02045E+01 3.09687E+00 0.00000E+00
 -1      1967 1.00350E+01 4.00625E+00 0.00000E+00
 -1      1968 1.47045E+01 3.09687E+00 0.00000E+00
 -1      1969 1.32045E+01 3.09687E+00 0.00000E+00
 -1      1970 1.30350E+01 4.00625E+00 0.00000E+00
 -1      1971 1.77045E+01 3.09687E+00 0.00000E+00
 -1      1972 1.62045E+01 3.09687E+00 0.00000E+00
 -1      1973 1.60350E+01 4.00625E+00 0.00000E+00
 -1      1974 2.07045E+01 3.09687E+00 0.00000E+00
 -1      1975 1.92045E+01 3.09687E+00 0.00000E+00
 -1      1976 1.90350E+01 4.00625E+00 0.00000E+00
 -1      1977 2.37045E+01 3.09687E+00 0.00000E+00
 -1      1978 2.22045E+01 3.09687E+00 0.00000E+00
 -1      1979 2.20350E+01 4.00625E+00 0.00000E+00
 -1      1980 2.67045E+01 3.09687E+00 0.00000E+00
 -1      1981 2.52045E+01 3.09687E+00 0.00000E+00
 -1      1982 2.50350E+01 4.00625E+00 0.00000E+00
 -1      1983 2.97045E+01 3.09687E+00 0.00000E+00
 -1      1984 2.82045E+01 3.09687E+00 0.00000E+00
 -1      1985 2.80350E+01 4.00625E+00 0.00000E+00
 -1      1986 3.27045E+01 3.09687E+00 0.00000E+00
 -1      1987 3.12045E+01 3.09687E+00 0.00000E+00
 -1      1988 3.10350E+01 4.00625E+00 0.00000E+00
 -1      1989 3.57045E+01 3.09687E+00 0.00000E+00
 -1      1990 3.42045E+01 3.09687E+00 0.00000E+00
 -1      1991 3.40350E+01 4.00625E+00 0.00000E+00
 -1      1992 3.87045E+01 3.09687E+00 0.00000E+00
 -1      1993 3.72045E+01 3.09687E+00 0.00000E+00
 -1      1994 3.70350E+01 4.00625E+00 0.00000E+00
 -1      1995 4.17045E+01 3.09687E+00 0.00000E+00
 -1      1996 4.02045E+01 3.09687E+00 0.00000E+00
 -1      1997 4.00350E+01 4.00625E+00 0.00000E+00
 -1      1998 4.47045E+01 3.09687E+00 0.00000E+00
 -1      1999 4.32045E+01 3.09687E+00 0.00000E+00
 -1      2000 4.30350E+01 4.00625E+00 0.00000E+00
 -1      2001 4.77045E+01 3.09687E+00 0.00000E+00
 -1      2002 4.62045E+01 3.09687E+00 0.00000E+00
 -1      2003 4.60350E+01 4.00625E+00 0.00000E+00
 -1      2004 5.07045E+01 3.09687E+00 0.00000E+00
 -1      2005 4.92045E+01 3.09687E+00 0.00000E+00
 -1      2006 4.90350E+01 4.00625E+00 0.00000E+00
 -1      2007 5.37045E+01 3.09687E+00 0.00000E+00
 -1      2008 5.22045E+01 3.09687E+00 0.00000E+00
 -1      2009 5.20350E+01 4.00625E+00 0.00000E+00
 -1      2010 5.67045E+01 3.09687E+00 0.00000E+00
 -1      2011 5.52045E+01 3.09687E+00 0.00000E+00
 -1      2012 5.50350E+01 4.00625E+00 0.00000E+00
 -1      2013 5.97045E+01 3.09687E+00 0.00000E+00
 -1      2014 5.82045E+01 3.09687E+00 0.00000E+00
 -1      2015 5.80350E+01 4.00625E+00 0.00000E+00
 -1      2016 6.27045E+01 3.09687E+00 0.00000E+00
 -1      2017 6.12045E+01 3.09687E+00 0.00000E+00
 -1      2018 6.10350E+01 4.00625E+00 0.00000E+00
 -1      2019 6.57045E+01 3.09687E+00 0.00000E+00
 -1      2020 6.42045E+01 3.09687E+00 0.00000E+00
 -1      2021 6.40350E+01 4.00625E+00 0.00000E+00
 -1      2022 6.87045E+01 3.09687E+00 0.00000E+00
 -1      2023 6.72045E+01 3.09687E+00 0.00000E+00
 -1      2024 6.70350E+01 4.00625E+00 0.00000E+00
 -1      2025 7.17045E+01 3.09687E+00 0.00000E+00
 -1      2026 7.02045E+01 3.09687E+00 0.00000E+00
 -1      2027 7.00350E+01 4.00625E+00 0.00000E+00
 -1      2028 7.47045E+01 3.09687E+00 0.00000E+00
 -1      2029 7.32045E+01 3.09687E+00 0.00000E+00
 -1      2030 7.30350E+01 4.00625E+00 0.00000E+00
 -1      2031 7.77045E+01 3.09687E+00 0.00000E+00
 -1      2032 7.62045E+01 3.09687E+00 0.00000E+00
 -1      2033 7.60350E+01 4.00625E+00 0.00000E+00
 -1      2034 8.07045E+01 3.09687E+00 0.00000E+00
 -1      2035 7.92045E+01 3.09687E+00 0.00000E+00
 -1      2036 7.90350E+01 4.00625E+00 0.00000E+00
 -1      2037 8.37045E+01 3.09687E+00 0.00000E+00
 -1      2038 8.22045E+01 3.09687E+00 0.00000E+00
 -1      2039 8.20350E+01 4.00625E+00 0.00000E+00
 -1      2040 8.67045E+01 3.09687E+00 0.00000E+00
 -1      2041 8.52045E+01 3.09687E+00 0.00000E+00
 -1      2042 8.50350E+01 4.00625E+00 0.00000E+00
 -1      2043 8.97045E+01 3.09687E+00 0.00000E+00
 -1      2044 8.82045E+01 3.09687E+00 0.00000E+00
 -1      2045 8.80350E+01 4.00625E+00 0.00000E+00
 -1      2046 9.27045E+01 3.09687E+00 0.00000E+00
 -1      2047 9.12045E+01 3.09687E+00 0.00000E+00
 -1      2048 9.10350E+01 4.00625E+00 0.00000E+00
 -1      2049 9.57045E+01 3.09687E+00 0.00000E+00
 -1      2050 9.42045E+01 3.09687E+00 0.00000E+00
 -1      2051 9.40350E+01 4.00625E+00 0.00000E+00
 -1      2052 9.87045E+01 3.09687E+00 0.00000E+00
 -1      2053 9.72045E+01 3.09687E+00 0.00000E+00
 -1      2054 9.70350E+01 4.00625E+00 0.00000E+00
 -1      2055 1.01704E+02 3.09687E+00 0.00000E+00
 -1      2056 1.00204E+02 3.09687E+00 0.00000E+00
 -1      2057 1.00035E+02 4.00625E+00 0.00000E+00
 -1      2058 1.04704E+02 3.09687E+00 0.00000E+00
 -1      2059 1.03204E+02 3.09687E+00 0.00000E+00
 -1      2060 1.03035E+02 4.00625E+00 0.00000E+00
 -1      2061 1.07704E+02 3.09687E+00 0.00000E+00
 -1      2062 1.06204E+02 3.09687E+00 0.00000E+00
 -1      2063 1.06035E+02 4.00625E+00 0.00000E+00
 -1      2064 1.10704E+02 3.09687E+00 0.00000E+00
 -1      2065 1.09204E+02 3.09687E+00 0.00000E+00
 -1      2066 1.09035E+02 4.00625E+00 0.00000E+00
 -1      2067 1.13704E+02 3.09687E+00 0.00000E+00
 -1      2068 1.12204E+02 3.09687E+00 0.00000E+00
 -1      2069 1.12035E+02 4.00625E+00 0.00000E+00
 -1      2070 1.16704E+02 3.09687E+00 0.00000E+00
 -1      2071 1.15204E+02 3.09687E+00 0.00000E+00
 -1      2072 1.15035E+02 4.00625E+00 0.00000E+00
 -1      2073 1.19704E+02 3.09687E+00 0.00000E+00
 -1      2074 1.18204E+02 3.09687E+00 0.00000E+00
 -1      2075 1.18035E+02 4.00625E+00 0.00000E+00
 -1      2076 1.22704E+02 3.09687E+00 0.00000E+00
 -1      2077 1.21204E+02 3.09687E+00 0.00000E+00
 -1      2078 1.21035E+02 4.00625E+00 0.00000E+00
 -1      2079 1.25704E+02 3.09687E+00 0.00000E+00
 -1      2080 1.24204E+02 3.09687E+00 0.00000E+00
 -1      2081 1.24035E+02 4.00625E+00 0.00000E+00
 -1      2082 1.28704E+02 3.09687E+00 0.00000E+00
 -1      2083 1.27204E+02 3.09687E+00 0.00000E+00
 -1      2084 1.27035E+02 4.00625E+00 0.00000E+00
 -1      2085 1.31704E+02 3.09687E+00 0.00000E+00
 -1      2086 1.30204E+02 3.09687E+00 0.00000E+00
 -1      2087 1.30035E+02 4.00625E+00 0.00000E+00
 -1      2088 1.34704E+02 3.09687E+00 0.00000E+00
 -1      2089 1.33204E+02 3.09687E+00 0.00000E+00
 -1      2090 1.33035E+02 4.00625E+00 0.00000E+00
 -1      2091 1.37704E+02 3.09687E+00 0.00000E+00
 -1      2092 1.36204E+02 3.09687E+00 0.00000E+00
 -1      2093 1.36035E+02 4.00625E+00 0.00000E+00
 -1      2094 1.40704E+02 3.09687E+00 0.00000E+00
 -1      2095 1.39204E+02 3.09687E+00 0.00000E+00
 -1      2096 1.39035E+02 4.00625E+00 0.00000E+00
 -1      2097 1.43704E+02 3.09687E+00 0.00000E+00
 -1      2098 1.42204E+02 3.09687E+00 0.00000E+00
 -1      2099 1.42035E+02 4.00625E+00 0.00000E+00
 -1      2100 1.46171E+02 3.20156E+00 0.00000E+00
 -1      2101 1.44671E+02 3.20156E+00 0.00000E+00
 -1      2102 1.44502E+02 4.11094E+00 0.00000E+00
 -1      2103 1.46435E+02 4.32031E+00 0.00000E+00
 -1      2104 1.46103E+02 1.25375E+01 0.00000E+00
 -1      2105 1.46103E+02 1.10625E+01 0.00000E+00
 -1      2106 1.46103E+02 9.58750E+00 0.00000E+00
 -1      2107 1.46103E+02 8.11250E+00 0.00000E+00
 -1      2108 1.44804E+02 1.03250E+01 0.00000E+00
 -1      2109 1.46269E+02 6.95391E+00 0.00000E+00
 -1      2110 1.46269E+02 5.47891E+00 0.00000E+00
 -1      2111 1.45302E+02 5.37422E+00 0.00000E+00
 -1      2112 1.44970E+02 7.69141E+00 0.00000E+00
 -1      2113 1.46103E+02 1.54375E+01 0.00000E+00
 -1      2114 1.46103E+02 1.39875E+01 0.00000E+00
 -1      2115 1.44804E+02 1.32500E+01 0.00000E+00
 -1      2116 1.46103E+02 1.83875E+01 0.00000E+00
 -1      2117 1.46103E+02 1.69125E+01 0.00000E+00
 -1      2118 1.44804E+02 1.61750E+01 0.00000E+00
 -1      2119 1.46103E+02 2.13375E+01 0.00000E+00
 -1      2120 1.46103E+02 1.98625E+01 0.00000E+00
 -1      2121 1.44804E+02 1.91250E+01 0.00000E+00
 -1      2122 1.46103E+02 2.42875E+01 0.00000E+00
 -1      2123 1.46103E+02 2.28125E+01 0.00000E+00
 -1      2124 1.44804E+02 2.20750E+01 0.00000E+00
 -1      2125 1.46103E+02 2.72375E+01 0.00000E+00
 -1      2126 1.46103E+02 2.57625E+01 0.00000E+00
 -1      2127 1.44804E+02 2.50250E+01 0.00000E+00
 -1      2128 1.46103E+02 3.01875E+01 0.00000E+00
 -1      2129 1.46103E+02 2.87125E+01 0.00000E+00
 -1      2130 1.44804E+02 2.79750E+01 0.00000E+00
 -1      2131 1.46103E+02 3.30875E+01 0.00000E+00
 -1      2132 1.46103E+02 3.16375E+01 0.00000E+00
 -1      2133 1.44804E+02 3.09000E+01 0.00000E+00
 -1      2134 1.46103E+02 3.60375E+01 0.00000E+00
 -1      2135 1.46103E+02 3.45625E+01 0.00000E+00
 -1      2136 1.44804E+02 3.38250E+01 0.00000E+00
 -1      2137 1.46103E+02 3.89875E+01 0.00000E+00
 -1      2138 1.46103E+02 3.75125E+01 0.00000E+00
 -1      2139 1.44804E+02 3.67750E+01 0.00000E+00
 -1      2140 1.46103E+02 4.19375E+01 0.00000E+00
 -1      2141 1.46103E+02 4.04625E+01 0.00000E+00
 -1      2142 1.44804E+02 3.97250E+01 0.00000E+00
 -1      2143 9.24740E+01 2.20969E+01 0.00000E+00
 -1      2144 9.27445E+01 2.29577E+01 0.00000E+00
 -1      2145 9.36143E+01 2.58421E+01 0.00000E+00
 -1      2146 9.34604E+01 2.67295E+01 0.00000E+00
 -1      2147 9.30981E+01 2.37933E+01 0.00000E+00
 -1      2148 9.34518E+01 2.46289E+01 0.00000E+00
 -1      2149 9.36212E+01 2.31561E+01 0.00000E+00
 -1      2150 9.12142E+01 2.04064E+01 0.00000E+00
 -1      2151 9.18435E+01 2.10923E+01 0.00000E+00
 -1      2152 8.99050E+01 1.90784E+01 0.00000E+00
 -1      2153 9.05803E+01 1.95954E+01 0.00000E+00
 -1      2154 3.89700E+00 3.74688E+01 0.00000E+00
 -1      2155 3.89700E+00 3.89437E+01 0.00000E+00
 -1      2156 5.19600E+00 3.96813E+01 0.00000E+00
 -1      2157 5.19600E+00 3.67438E+01 0.00000E+00
 -1      2158 8.65713E+01 1.74756E+01 0.00000E+00
 -1      2159 8.74347E+01 1.77643E+01 0.00000E+00
 -1      2160 8.44976E+01 1.72477E+01 0.00000E+00
 -1      2161 8.54227E+01 1.72225E+01 0.00000E+00
 -1      2162 8.26930E+01 1.75279E+01 0.00000E+00
 -1      2163 8.35535E+01 1.74357E+01 0.00000E+00
 -1      2164 8.08808E+01 1.80836E+01 0.00000E+00
 -1      2165 8.16850E+01 1.77723E+01 0.00000E+00
 -1      2166 7.92810E+01 1.90727E+01 0.00000E+00
 -1      2167 7.99771E+01 1.85725E+01 0.00000E+00
 -1      2168 7.79129E+01 2.02039E+01 0.00000E+00
 -1      2169 7.84982E+01 1.96237E+01 0.00000E+00
 -1      2170 7.69262E+01 2.17494E+01 0.00000E+00
 -1      2171 7.73909E+01 2.10417E+01 0.00000E+00
 -1      2172 7.60383E+01 2.33891E+01 0.00000E+00
 -1      2173 7.63564E+01 2.25803E+01 0.00000E+00
 -1      2174 7.55984E+01 2.52006E+01 0.00000E+00
 -1      2175 7.58201E+01 2.43370E+01 0.00000E+00
 -1      2176 7.55189E+01 2.72072E+01 0.00000E+00
 -1      2177 7.54303E+01 2.63232E+01 0.00000E+00
 -1      2178 7.59633E+01 2.90361E+01 0.00000E+00
 -1      2179 7.57617E+01 2.81636E+01 0.00000E+00
 -1      2180 7.66866E+01 3.09055E+01 0.00000E+00
 -1      2181 7.62798E+01 3.00576E+01 0.00000E+00
 -1      2182 7.80421E+01 3.25364E+01 0.00000E+00
 -1      2183 7.73539E+01 3.19282E+01 0.00000E+00
 -1      2184 7.95419E+01 3.35075E+01 0.00000E+00
 -1      2185 7.88709E+01 3.29999E+01 0.00000E+00
 -1      2186 8.09741E+01 3.46707E+01 0.00000E+00
 -1      2187 8.02108E+01 3.41445E+01 0.00000E+00
 -1      2188 8.31433E+01 3.52700E+01 0.00000E+00
 -1      2189 8.21968E+01 3.51909E+01 0.00000E+00
 -1      2190 8.49661E+01 3.50381E+01 0.00000E+00
 -1      2191 8.41363E+01 3.50808E+01 0.00000E+00
 -1      2192 8.65901E+01 3.48696E+01 0.00000E+00
 -1      2193 8.57781E+01 3.49538E+01 0.00000E+00
 -1      2194 8.53965E+01 3.56225E+01 0.00000E+00
 -1      2195 8.83866E+01 3.42597E+01 0.00000E+00
 -1      2196 8.76780E+01 3.46484E+01 0.00000E+00
 -1      2197 8.96765E+01 3.33900E+01 0.00000E+00
 -1      2198 8.90315E+01 3.38248E+01 0.00000E+00
 -1      2199 8.90292E+01 3.46609E+01 0.00000E+00
 -1      2200 9.11446E+01 3.23846E+01 0.00000E+00
 -1      2201 9.05509E+01 3.29215E+01 0.00000E+00
 -1      2202 9.21120E+01 3.08246E+01 0.00000E+00
 -1      2203 9.17001E+01 3.15123E+01 0.00000E+00
 -1      2204 9.28038E+01 2.93740E+01 0.00000E+00
 -1      2205 9.24579E+01 3.00993E+01 0.00000E+00
 -1      2206 9.28798E+01 3.08193E+01 0.00000E+00
 -1      2207 9.33408E+01 2.75361E+01 0.00000E+00
 -1      2208 9.32212E+01 2.83426E+01 0.00000E+00
 -1      2209 9.41801E+01 2.72245E+01 0.00000E+00
 -1      2210 8.84677E+01 1.82137E+01 0.00000E+00
 -1      2211 8.91863E+01 1.86460E+01 0.00000E+00
 -1      2212 9.00198E+01 1.82569E+01 0.00000E+00
 -1      2213 6.42300E+00 4.57510E+01 0.00000E+00
 -1      2214 8.82682E+01 1.73752E+01 0.00000E+00
 -1      2215 7.17300E+00 4.44520E+01 0.00000E+00
 -1      2216 9.41373E+01 2.52048E+01 0.00000E+00
 -1      2217 9.48227E+01 2.57808E+01 0.00000E+00
 -1      2218 9.46603E+01 2.45676E+01 0.00000E+00
 -1      2219 9.27999E+01 2.05348E+01 0.00000E+00
 -1      2220 9.26369E+01 2.13158E+01 0.00000E+00
 -1      2221 9.34304E+01 2.15394E+01 0.00000E+00
 -1      2222 1.45665E+02 4.31193E+01 0.00000E+00
 -1      2223 9.13725E+01 1.95002E+01 0.00000E+00
 -1      2224 9.36431E+01 2.90625E+01 0.00000E+00
 -1      2225 9.05486E+01 3.37575E+01 0.00000E+00
 -1      2226 8.72964E+01 3.53170E+01 0.00000E+00
 -1      2227 8.35916E+01 3.58958E+01 0.00000E+00
 -1      2228 8.13760E+01 3.55648E+01 0.00000E+00
 -1      2229 7.94844E+01 3.44076E+01 0.00000E+00
 -1      2230 7.79867E+01 3.33070E+01 0.00000E+00
 -1      2231 7.64906E+01 3.18208E+01 0.00000E+00
 -1      2232 7.55068E+01 2.97766E+01 0.00000E+00
 -1      2233 7.49474E+01 2.77988E+01 0.00000E+00
 -1      2234 7.48728E+01 2.57198E+01 0.00000E+00
 -1      2235 7.52591E+01 2.36493E+01 0.00000E+00
 -1      2236 7.60471E+01 2.18707E+01 0.00000E+00
 -1      2237 7.71388E+01 2.02021E+01 0.00000E+00
 -1      2238 7.84436E+01 1.88132E+01 0.00000E+00
 -1      2239 8.01301E+01 1.77734E+01 0.00000E+00
 -1      2240 8.20418E+01 1.70401E+01 0.00000E+00
 -1      2241 8.60865E+01 1.66728E+01 0.00000E+00
 -1      2242 8.39938E+01 1.66077E+01 0.00000E+00
 -1      2243 9.19784E+01 3.24168E+01 0.00000E+00
 -1      2244 1.07850E+01 5.30525E+00 0.00000E+00
 -1      2245 9.28500E+00 5.30525E+00 0.00000E+00
 -1      2246 6.49500E+00 3.01125E+01 0.00000E+00
 -1      2247 6.49500E+00 3.15875E+01 0.00000E+00
 -1      2248 6.49500E+00 3.30625E+01 0.00000E+00
 -1      2249 6.49500E+00 3.45375E+01 0.00000E+00
 -1      2250 7.79400E+00 3.23250E+01 0.00000E+00
 -1      2251 6.49500E+00 2.42125E+01 0.00000E+00
 -1      2252 6.49500E+00 2.56875E+01 0.00000E+00
 -1      2253 6.49500E+00 2.12625E+01 0.00000E+00
 -1      2254 6.49500E+00 2.27375E+01 0.00000E+00
 -1      2255 7.79400E+00 2.34750E+01 0.00000E+00
 -1      2256 6.49500E+00 1.83625E+01 0.00000E+00
 -1      2257 6.49500E+00 1.98125E+01 0.00000E+00
 -1      2258 7.79400E+00 2.05500E+01 0.00000E+00
 -1      2259 6.49500E+00 1.54125E+01 0.00000E+00
 -1      2260 6.49500E+00 1.68875E+01 0.00000E+00
 -1      2261 7.79400E+00 1.76250E+01 0.00000E+00
 -1      2262 6.49500E+00 1.24625E+01 0.00000E+00
 -1      2263 6.49500E+00 1.39375E+01 0.00000E+00
 -1      2264 7.79400E+00 1.46750E+01 0.00000E+00
 -1      2265 6.49500E+00 9.51250E+00 0.00000E+00
 -1      2266 6.49500E+00 1.09875E+01 0.00000E+00
 -1      2267 7.79400E+00 1.17250E+01 0.00000E+00
 -1      2268 1.37850E+01 5.30525E+00 0.00000E+00
 -1      2269 1.22850E+01 5.30525E+00 0.00000E+00
 -1      2270 1.15350E+01 6.60425E+00 0.00000E+00
 -1      2271 9.90000E+00 4.35050E+01 0.00000E+00
 -1      2272 1.14000E+01 4.35050E+01 0.00000E+00
 -1      2273 8.80937E+01 1.63642E+01 0.00000E+00
 -1      2274 8.91267E+01 1.68135E+01 0.00000E+00
 -1      2275 1.29000E+01 4.35050E+01 0.00000E+00
 -1      2276 1.44000E+01 4.35050E+01 0.00000E+00
 -1      2277 1.21500E+01 4.22060E+01 0.00000E+00
 -1      2278 1.59000E+01 4.35050E+01 0.00000E+00
 -1      2279 1.74000E+01 4.35050E+01 0.00000E+00
 -1      2280 1.51500E+01 4.22060E+01 0.00000E+00
 -1      2281 1.89000E+01 4.35050E+01 0.00000E+00
 -1      2282 2.04000E+01 4.35050E+01 0.00000E+00
 -1      2283 1.81500E+01 4.22060E+01 0.00000E+00
 -1      2284 2.19000E+01 4.35050E+01 0.00000E+00
 -1      2285 2.34000E+01 4.35050E+01 0.00000E+00
 -1      2286 2.11500E+01 4.22060E+01 0.00000E+00
 -1      2287 2.49000E+01 4.35050E+01 0.00000E+00
 -1      2288 2.64000E+01 4.35050E+01 0.00000E+00
 -1      2289 2.41500E+01 4.22060E+01 0.00000E+00
 -1      2290 2.79000E+01 4.35050E+01 0.00000E+00
 -1      2291 2.94000E+01 4.35050E+01 0.00000E+00
 -1      2292 2.71500E+01 4.22060E+01 0.00000E+00
 -1      2293 3.09000E+01 4.35050E+01 0.00000E+00
 -1      2294 3.24000E+01 4.35050E+01 0.00000E+00
 -1      2295 3.01500E+01 4.22060E+01 0.00000E+00
 -1      2296 3.39000E+01 4.35050E+01 0.00000E+00
 -1      2297 3.54000E+01 4.35050E+01 0.00000E+00
 -1      2298 3.31500E+01 4.22060E+01 0.00000E+00
 -1      2299 3.69000E+01 4.35050E+01 0.00000E+00
 -1      2300 3.84000E+01 4.35050E+01 0.00000E+00
 -1      2301 3.61500E+01 4.22060E+01 0.00000E+00
 -1      2302 3.99000E+01 4.35050E+01 0.00000E+00
 -1      2303 4.14000E+01 4.35050E+01 0.00000E+00
 -1      2304 3.91500E+01 4.22060E+01 0.00000E+00
 -1      2305 4.29000E+01 4.35050E+01 0.00000E+00
 -1      2306 4.44000E+01 4.35050E+01 0.00000E+00
 -1      2307 4.21500E+01 4.22060E+01 0.00000E+00
 -1      2308 4.59000E+01 4.35050E+01 0.00000E+00
 -1      2309 4.74000E+01 4.35050E+01 0.00000E+00
 -1      2310 4.51500E+01 4.22060E+01 0.00000E+00
 -1      2311 4.89000E+01 4.35050E+01 0.00000E+00
 -1      2312 5.04000E+01 4.35050E+01 0.00000E+00
 -1      2313 4.81500E+01 4.22060E+01 0.00000E+00
 -1      2314 5.19000E+01 4.35050E+01 0.00000E+00
 -1      2315 5.34000E+01 4.35050E+01 0.00000E+00
 -1      2316 5.11500E+01 4.22060E+01 0.00000E+00
 -1      2317 5.49000E+01 4.35050E+01 0.00000E+00
 -1      2318 5.64000E+01 4.35050E+01 0.00000E+00
 -1      2319 5.41500E+01 4.22060E+01 0.00000E+00
 -1      2320 5.79000E+01 4.35050E+01 0.00000E+00
 -1      2321 5.94000E+01 4.35050E+01 0.00000E+00
 -1      2322 5.71500E+01 4.22060E+01 0.00000E+00
 -1      2323 6.09000E+01 4.35050E+01 0.00000E+00
 -1      2324 6.24000E+01 4.35050E+01 0.00000E+00
 -1      2325 6.01500E+01 4.22060E+01 0.00000E+00
 -1      2326 6.39000E+01 4.35050E+01 0.00000E+00
 -1      2327 6.54000E+01 4.35050E+01 0.00000E+00
 -1      2328 6.31500E+01 4.22060E+01 0.00000E+00
 -1      2329 6.69000E+01 4.35050E+01 0.00000E+00
 -1      2330 6.84000E+01 4.35050E+01 0.00000E+00
 -1      2331 6.61500E+01 4.22060E+01 0.00000E+00
 -1      2332 6.99000E+01 4.35050E+01 0.00000E+00
 -1      2333 7.14000E+01 4.35050E+01 0.00000E+00
 -1      2334 6.91500E+01 4.22060E+01 0.00000E+00
 -1      2335 7.29000E+01 4.35050E+01 0.00000E+00
 -1      2336 7.44000E+01 4.35050E+01 0.00000E+00
 -1      2337 7.21500E+01 4.22060E+01 0.00000E+00
 -1      2338 7.59000E+01 4.35050E+01 0.00000E+00
 -1      2339 7.74000E+01 4.35050E+01 0.00000E+00
 -1      2340 7.51500E+01 4.22060E+01 0.00000E+00
 -1      2341 7.89000E+01 4.35050E+01 0.00000E+00
 -1      2342 8.04000E+01 4.35050E+01 0.00000E+00
 -1      2343 7.81500E+01 4.22060E+01 0.00000E+00
 -1      2344 8.19000E+01 4.35050E+01 0.00000E+00
 -1      2345 8.34000E+01 4.35050E+01 0.00000E+00
 -1      2346 8.11500E+01 4.22060E+01 0.00000E+00
 -1      2347 8.49000E+01 4.35050E+01 0.00000E+00
 -1      2348 8.64000E+01 4.35050E+01 0.00000E+00
 -1      2349 8.41500E+01 4.22060E+01 0.00000E+00
 -1      2350 8.79000E+01 4.35050E+01 0.00000E+00
 -1      2351 8.94000E+01 4.35050E+01 0.00000E+00
 -1      2352 8.71500E+01 4.22060E+01 0.00000E+00
 -1      2353 9.09000E+01 4.35050E+01 0.00000E+00
 -1      2354 9.24000E+01 4.35050E+01 0.00000E+00
 -1      2355 9.01500E+01 4.22060E+01 0.00000E+00
 -1      2356 9.39000E+01 4.35050E+01 0.00000E+00
 -1      2357 9.54000E+01 4.35050E+01 0.00000E+00
 -1      2358 9.31500E+01 4.22060E+01 0.00000E+00
 -1      2359 9.69000E+01 4.35050E+01 0.00000E+00
 -1      2360 9.84000E+01 4.35050E+01 0.00000E+00
 -1      2361 9.61500E+01 4.22060E+01 0.00000E+00
 -1      2362 9.99000E+01 4.35050E+01 0.00000E+00
 -1      2363 1.01400E+02 4.35050E+01 0.00000E+00
 -1      2364 9.91500E+01 4.22060E+01 0.00000E+00
 -1      2365 1.02900E+02 4.35050E+01 0.00000E+00
 -1      2366 1.04400E+02 4.35050E+01 0.00000E+00
 -1      2367 1.02150E+02 4.22060E+01 0.00000E+00
 -1      2368 1.05900E+02 4.35050E+01 0.00000E+00
 -1      2369 1.07400E+02 4.35050E+01 0.00000E+00
 -1      2370 1.05150E+02 4.22060E+01 0.00000E+00
 -1      2371 1.08900E+02 4.35050E+01 0.00000E+00
 -1      2372 1.10400E+02 4.35050E+01 0.00000E+00
 -1      2373 1.08150E+02 4.22060E+01 0.00000E+00
 -1      2374 1.11900E+02 4.35050E+01 0.00000E+00
 -1      2375 1.13400E+02 4.35050E+01 0.00000E+00
 -1      2376 1.11150E+02 4.22060E+01 0.00000E+00
 -1      2377 1.14900E+02 4.35050E+01 0.00000E+00
 -1      2378 1.16400E+02 4.35050E+01 0.00000E+00
 -1      2379 1.14150E+02 4.22060E+01 0.00000E+00
 -1      2380 1.17900E+02 4.35050E+01 0.00000E+00
 -1      2381 1.19400E+02 4.35050E+01 0.00000E+00
 -1      2382 1.17150E+02 4.22060E+01 0.00000E+00
 -1      2383 1.20900E+02 4.35050E+01 0.00000E+00
 -1      2384 1.22400E+02 4.35050E+01 0.00000E+00
 -1      2385 1.20150E+02 4.22060E+01 0.00000E+00
 -1      2386 1.23900E+02 4.35050E+01 0.00000E+00
 -1      2387 1.25400E+02 4.35050E+01 0.00000E+00
 -1      2388 1.23150E+02 4.22060E+01 0.00000E+00
 -1      2389 1.26900E+02 4.35050E+01 0.00000E+00
 -1      2390 1.28400E+02 4.35050E+01 0.00000E+00
 -1      2391 1.26150E+02 4.22060E+01 0.00000E+00
 -1      2392 1.29900E+02 4.35050E+01 0.00000E+00
 -1      2393 1.31400E+02 4.35050E+01 0.00000E+00
 -1      2394 1.29150E+02 4.22060E+01 0.00000E+00
 -1      2395 1.32900E+02 4.35050E+01 0.00000E+00
 -1      2396 1.34400E+02 4.35050E+01 0.00000E+00
 -1      2397 1.32150E+02 4.22060E+01 0.00000E+00
 -1      2398 1.35900E+02 4.35050E+01 0.00000E+00
 -1      2399 1.37400E+02 4.35050E+01 0.00000E+00
 -1      2400 1.35150E+02 4.22060E+01 0.00000E+00
 -1      2401 1.38900E+02 4.35050E+01 0.00000E+00
 -1      2402 1.40400E+02 4.35050E+01 0.00000E+00
 -1      2403 1.38150E+02 4.22060E+01 0.00000E+00
 -1      2404 9.42341E+01 2.24040E+01 0.00000E+00
 -1      2405 9.45877E+01 2.32396E+01 0.00000E+00
 -1      2406 1.97850E+01 5.30525E+00 0.00000E+00
 -1      2407 1.82850E+01 5.30525E+00 0.00000E+00
 -1      2408 2.27850E+01 5.30525E+00 0.00000E+00
 -1      2409 2.12850E+01 5.30525E+00 0.00000E+00
 -1      2410 2.05350E+01 6.60425E+00 0.00000E+00
 -1      2411 2.57850E+01 5.30525E+00 0.00000E+00
 -1      2412 2.42850E+01 5.30525E+00 0.00000E+00
 -1      2413 2.35350E+01 6.60425E+00 0.00000E+00
 -1      2414 2.87850E+01 5.30525E+00 0.00000E+00
 -1      2415 2.72850E+01 5.30525E+00 0.00000E+00
 -1      2416 2.65350E+01 6.60425E+00 0.00000E+00
 -1      2417 3.17850E+01 5.30525E+00 0.00000E+00
 -1      2418 3.02850E+01 5.30525E+00 0.00000E+00
 -1      2419 2.95350E+01 6.60425E+00 0.00000E+00
 -1      2420 3.47850E+01 5.30525E+00 0.00000E+00
 -1      2421 3.32850E+01 5.30525E+00 0.00000E+00
 -1      2422 3.25350E+01 6.60425E+00 0.00000E+00
 -1      2423 3.77850E+01 5.30525E+00 0.00000E+00
 -1      2424 3.62850E+01 5.30525E+00 0.00000E+00
 -1      2425 3.55350E+01 6.60425E+00 0.00000E+00
 -1      2426 4.07850E+01 5.30525E+00 0.00000E+00
 -1      2427 3.92850E+01 5.30525E+00 0.00000E+00
 -1      2428 3.85350E+01 6.60425E+00 0.00000E+00
 -1      2429 4.37850E+01 5.30525E+00 0.00000E+00
 -1      2430 4.22850E+01 5.30525E+00 0.00000E+00
 -1      2431 4.15350E+01 6.60425E+00 0.00000E+00
 -1      2432 4.67850E+01 5.30525E+00 0.00000E+00
 -1      2433 4.52850E+01 5.30525E+00 0.00000E+00
 -1      2434 4.45350E+01 6.60425E+00 0.00000E+00
 -1      2435 4.97850E+01 5.30525E+00 0.00000E+00
 -1      2436 4.82850E+01 5.30525E+00 0.00000E+00
 -1      2437 4.75350E+01 6.60425E+00 0.00000E+00
 -1      2438 5.27850E+01 5.30525E+00 0.00000E+00
 -1      2439 5.12850E+01 5.30525E+00 0.00000E+00
 -1      2440 5.05350E+01 6.60425E+00 0.00000E+00
 -1      2441 5.57850E+01 5.30525E+00 0.00000E+00
 -1      2442 5.42850E+01 5.30525E+00 0.00000E+00
 -1      2443 5.35350E+01 6.60425E+00 0.00000E+00
 -1      2444 5.87850E+01 5.30525E+00 0.00000E+00
 -1      2445 5.72850E+01 5.30525E+00 0.00000E+00
 -1      2446 5.65350E+01 6.60425E+00 0.00000E+00
 -1      2447 6.17850E+01 5.30525E+00 0.00000E+00
 -1      2448 6.02850E+01 5.30525E+00 0.00000E+00
 -1      2449 5.95350E+01 6.60425E+00 0.00000E+00
 -1      2450 6.47850E+01 5.30525E+00 0.00000E+00
 -1      2451 6.32850E+01 5.30525E+00 0.00000E+00
 -1      2452 6.25350E+01 6.60425E+00 0.00000E+00
 -1      2453 6.77850E+01 5.30525E+00 0.00000E+00
 -1      2454 6.62850E+01 5.30525E+00 0.00000E+00
 -1      2455 6.55350E+01 6.60425E+00 0.00000E+00
 -1      2456 7.07850E+01 5.30525E+00 0.00000E+00
 -1      2457 6.92850E+01 5.30525E+00 0.00000E+00
 -1      2458 6.85350E+01 6.60425E+00 0.00000E+00
 -1      2459 7.37850E+01 5.30525E+00 0.00000E+00
 -1      2460 7.22850E+01 5.30525E+00 0.00000E+00
 -1      2461 7.15350E+01 6.60425E+00 0.00000E+00
 -1      2462 7.67850E+01 5.30525E+00 0.00000E+00
 -1      2463 7.52850E+01 5.30525E+00 0.00000E+00
 -1      2464 7.45350E+01 6.60425E+00 0.00000E+00
 -1      2465 7.97850E+01 5.30525E+00 0.00000E+00
 -1      2466 7.82850E+01 5.30525E+00 0.00000E+00
 -1      2467 7.75350E+01 6.60425E+00 0.00000E+00
 -1      2468 8.27850E+01 5.30525E+00 0.00000E+00
 -1      2469 8.12850E+01 5.30525E+00 0.00000E+00
 -1      2470 8.05350E+01 6.60425E+00 0.00000E+00
 -1      2471 8.57850E+01 5.30525E+00 0.00000E+00
 -1      2472 8.42850E+01 5.30525E+00 0.00000E+00
 -1      2473 8.35350E+01 6.60425E+00 0.00000E+00
 -1      2474 8.87850E+01 5.30525E+00 0.00000E+00
 -1      2475 8.72850E+01 5.30525E+00 0.00000E+00
 -1      2476 8.65350E+01 6.60425E+00 0.00000E+00
 -1      2477 9.17850E+01 5.30525E+00 0.00000E+00
 -1      2478 9.02850E+01 5.30525E+00 0.00000E+00
 -1      2479 8.95350E+01 6.60425E+00 0.00000E+00
 -1      2480 9.47850E+01 5.30525E+00 0.00000E+00
 -1      2481 9.32850E+01 5.30525E+00 0.00000E+00
 -1      2482 9.25350E+01 6.60425E+00 0.00000E+00
 -1      2483 9.77850E+01 5.30525E+00 0.00000E+00
 -1      2484 9.62850E+01 5.30525E+00 0.00000E+00
 -1      2485 9.55350E+01 6.60425E+00 0.00000E+00
 -1      2486 1.00785E+02 5.30525E+00 0.00000E+00
 -1      2487 9.92850E+01 5.30525E+00 0.00000E+00
 -1      2488 9.85350E+01 6.60425E+00 0.00000E+00
 -1      2489 1.03785E+02 5.30525E+00 0.00000E+00
 -1      2490 1.02285E+02 5.30525E+00 0.00000E+00
 -1      2491 1.01535E+02 6.60425E+00 0.00000E+00
 -1      2492 1.06785E+02 5.30525E+00 0.00000E+00
 -1      2493 1.05285E+02 5.30525E+00 0.00000E+00
 -1      2494 1.04535E+02 6.60425E+00 0.00000E+00
 -1      2495 1.09785E+02 5.30525E+00 0.00000E+00
 -1      2496 1.08285E+02 5.30525E+00 0.00000E+00
 -1      2497 1.07535E+02 6.60425E+00 0.00000E+00
 -1      2498 1.12785E+02 5.30525E+00 0.00000E+00
 -1      2499 1.11285E+02 5.30525E+00 0.00000E+00
 -1      2500 1.10535E+02 6.60425E+00 0.00000E+00
 -1      2501 1.15785E+02 5.30525E+00 0.00000E+00
 -1      2502 1.14285E+02 5.30525E+00 0.00000E+00
 -1      2503 1.13535E+02 6.60425E+00 0.00000E+00
 -1      2504 1.18785E+02 5.30525E+00 0.00000E+00
 -1      2505 1.17285E+02 5.30525E+00 0.00000E+00
 -1      2506 1.16535E+02 6.60425E+00 0.00000E+00
 -1      2507 1.21785E+02 5.30525E+00 0.00000E+00
 -1      2508 1.20285E+02 5.30525E+00 0.00000E+00
 -1      2509 1.19535E+02 6.60425E+00 0.00000E+00
 -1      2510 1.24785E+02 5.30525E+00 0.00000E+00
 -1      2511 1.23285E+02 5.30525E+00 0.00000E+00
 -1      2512 1.22535E+02 6.60425E+00 0.00000E+00
 -1      2513 1.27785E+02 5.30525E+00 0.00000E+00
 -1      2514 1.26285E+02 5.30525E+00 0.00000E+00
 -1      2515 1.25535E+02 6.60425E+00 0.00000E+00
 -1      2516 1.30785E+02 5.30525E+00 0.00000E+00
 -1      2517 1.29285E+02 5.30525E+00 0.00000E+00
 -1      2518 1.28535E+02 6.60425E+00 0.00000E+00
 -1      2519 1.33785E+02 5.30525E+00 0.00000E+00
 -1      2520 1.32285E+02 5.30525E+00 0.00000E+00
 -1      2521 1.31535E+02 6.60425E+00 0.00000E+00
 -1      2522 1.36785E+02 5.30525E+00 0.00000E+00
 -1      2523 1.35285E+02 5.30525E+00 0.00000E+00
 -1      2524 1.34535E+02 6.60425E+00 0.00000E+00
 -1      2525 1.39785E+02 5.30525E+00 0.00000E+00
 -1      2526 1.38285E+02 5.30525E+00 0.00000E+00
 -1      2527 1.37535E+02 6.60425E+00 0.00000E+00
 -1      2528 1.42785E+02 5.30525E+00 0.00000E+00
 -1      2529 1.41285E+02 5.30525E+00 0.00000E+00
 -1      2530 1.40535E+02 6.60425E+00 0.00000E+00
 -1      2531 1.44336E+02 5.26953E+00 0.00000E+00
 -1      2532 1.43505E+02 1.69125E+01 0.00000E+00
 -1      2533 1.43505E+02 1.54375E+01 0.00000E+00
 -1      2534 1.43505E+02 1.98625E+01 0.00000E+00
 -1      2535 1.43505E+02 1.83875E+01 0.00000E+00
 -1      2536 1.42206E+02 1.76500E+01 0.00000E+00
 -1      2537 1.43505E+02 1.10625E+01 0.00000E+00
 -1      2538 1.43505E+02 9.58750E+00 0.00000E+00
 -1      2539 1.43505E+02 1.39750E+01 0.00000E+00
 -1      2540 1.43505E+02 1.25250E+01 0.00000E+00
 -1      2541 1.42206E+02 1.17875E+01 0.00000E+00
 -1      2542 1.42206E+02 1.47125E+01 0.00000E+00
 -1      2543 1.43505E+02 2.28125E+01 0.00000E+00
 -1      2544 1.43505E+02 2.13375E+01 0.00000E+00
 -1      2545 1.42206E+02 2.06000E+01 0.00000E+00
 -1      2546 1.43505E+02 2.57625E+01 0.00000E+00
 -1      2547 1.43505E+02 2.42875E+01 0.00000E+00
 -1      2548 1.42206E+02 2.35500E+01 0.00000E+00
 -1      2549 1.43505E+02 2.87125E+01 0.00000E+00
 -1      2550 1.43505E+02 2.72375E+01 0.00000E+00
 -1      2551 1.42206E+02 2.65000E+01 0.00000E+00
 -1      2552 1.43505E+02 3.16125E+01 0.00000E+00
 -1      2553 1.43505E+02 3.01625E+01 0.00000E+00
 -1      2554 1.42206E+02 2.94250E+01 0.00000E+00
 -1      2555 1.43505E+02 3.45625E+01 0.00000E+00
 -1      2556 1.43505E+02 3.30875E+01 0.00000E+00
 -1      2557 1.42206E+02 3.23500E+01 0.00000E+00
 -1      2558 1.43505E+02 3.75125E+01 0.00000E+00
 -1      2559 1.43505E+02 3.60375E+01 0.00000E+00
 -1      2560 1.42206E+02 3.53000E+01 0.00000E+00
 -1      2561 1.43505E+02 4.04625E+01 0.00000E+00
 -1      2562 1.43505E+02 3.89875E+01 0.00000E+00
 -1      2563 1.42206E+02 3.82500E+01 0.00000E+00
 -1      2564 1.44321E+02 4.30606E+01 0.00000E+00
 -1      2565 9.16321E+01 1.86440E+01 0.00000E+00
 -1      2566 9.22660E+01 1.94550E+01 0.00000E+00
 -1      2567 1.67850E+01 5.30525E+00 0.00000E+00
 -1      2568 1.52850E+01 5.30525E+00 0.00000E+00
 -1      2569 1.75350E+01 6.60425E+00 0.00000E+00
 -1      2570 9.01026E+01 1.73059E+01 0.00000E+00
 -1      2571 9.08212E+01 1.77383E+01 0.00000E+00
 -1      2572 9.45691E+01 2.88370E+01 0.00000E+00
 -1      2573 9.41517E+01 2.98685E+01 0.00000E+00
 -1      2574 9.13907E+01 3.42792E+01 0.00000E+00
 -1      2575 9.05163E+01 3.47477E+01 0.00000E+00
 -1      2576 8.42329E+01 3.65614E+01 0.00000E+00
 -1      2577 8.32399E+01 3.67505E+01 0.00000E+00
 -1      2578 6.49500E+00 2.71625E+01 0.00000E+00
 -1      2579 6.49500E+00 2.86375E+01 0.00000E+00
 -1      2580 7.79400E+00 2.93750E+01 0.00000E+00
 -1      2581 7.79400E+00 2.64250E+01 0.00000E+00
 -1      2582 8.33870E+01 1.60250E+01 0.00000E+00
 -1      2583 8.43312E+01 1.58370E+01 0.00000E+00
 -1      2584 9.29795E+01 3.24413E+01 0.00000E+00
 -1      2585 9.24241E+01 3.33136E+01 0.00000E+00
 -1      2586 8.56878E+01 1.57497E+01 0.00000E+00
 -1      2587 8.68363E+01 1.60028E+01 0.00000E+00
 -1      2588 8.13555E+01 1.64103E+01 0.00000E+00
 -1      2589 8.23634E+01 1.61659E+01 0.00000E+00
 -1      2590 7.92902E+01 1.73004E+01 0.00000E+00
 -1      2591 8.01938E+01 1.68115E+01 0.00000E+00
 -1      2592 7.75827E+01 1.84217E+01 0.00000E+00
 -1      2593 7.83655E+01 1.78707E+01 0.00000E+00
 -1      2594 7.61855E+01 2.01896E+01 0.00000E+00
 -1      2595 7.67075E+01 1.93518E+01 0.00000E+00
 -1      2596 7.50460E+01 2.18513E+01 0.00000E+00
 -1      2597 7.56158E+01 2.10204E+01 0.00000E+00
 -1      2598 7.51845E+01 2.01702E+01 0.00000E+00
 -1      2599 7.41510E+01 2.38933E+01 0.00000E+00
 -1      2600 7.43692E+01 2.29455E+01 0.00000E+00
 -1      2601 7.38148E+01 2.61385E+01 0.00000E+00
 -1      2602 7.39829E+01 2.50159E+01 0.00000E+00
 -1      2603 7.30930E+01 2.43121E+01 0.00000E+00
 -1      2604 7.44000E+01 2.84467E+01 0.00000E+00
 -1      2605 7.41573E+01 2.74903E+01 0.00000E+00
 -1      2606 7.49260E+01 3.05164E+01 0.00000E+00
 -1      2607 7.46094E+01 2.94950E+01 0.00000E+00
 -1      2608 7.61060E+01 3.28007E+01 0.00000E+00
 -1      2609 7.54388E+01 3.17780E+01 0.00000E+00
 -1      2610 7.80233E+01 3.42141E+01 0.00000E+00
 -1      2611 7.71946E+01 3.37506E+01 0.00000E+00
 -1      2612 7.93612E+01 3.54882E+01 0.00000E+00
 -1      2613 7.86922E+01 3.48512E+01 0.00000E+00
 -1      2614 7.79001E+01 3.52947E+01 0.00000E+00
 -1      2615 8.16188E+01 3.66911E+01 0.00000E+00
 -1      2616 8.03961E+01 3.61710E+01 0.00000E+00
 -1      2617 8.58568E+01 3.63929E+01 0.00000E+00
 -1      2618 8.50449E+01 3.64771E+01 0.00000E+00
 -1      2619 8.46932E+01 3.73318E+01 0.00000E+00
 -1      2620 8.80326E+01 3.59504E+01 0.00000E+00
 -1      2621 8.69447E+01 3.61717E+01 0.00000E+00
 -1      2622 8.65930E+01 3.70264E+01 0.00000E+00
 -1      2623 8.98714E+01 3.51825E+01 0.00000E+00
 -1      2624 8.92264E+01 3.56174E+01 0.00000E+00
 -1      2625 9.07136E+01 3.57042E+01 0.00000E+00
 -1      2626 9.37385E+01 3.07923E+01 0.00000E+00
 -1      2627 9.33926E+01 3.15175E+01 0.00000E+00
 -1      2628 9.38383E+01 3.24143E+01 0.00000E+00
 -1      2629 9.46645E+01 3.05668E+01 0.00000E+00
 -1      2630 9.50468E+01 2.69409E+01 0.00000E+00
 -1      2631 9.49272E+01 2.77474E+01 0.00000E+00
 -1      2632 6.55950E+00 4.28890E+01 0.00000E+00
 -1      2633 8.53650E+00 4.32410E+01 0.00000E+00
 -1      2634 9.28650E+00 4.19420E+01 0.00000E+00
 -1      2635 6.55950E+00 4.14140E+01 0.00000E+00
 -1      2636 8.07525E+00 5.11044E+00 0.00000E+00
 -1      2637 6.57525E+00 5.11044E+00 0.00000E+00
 -1      2638 6.40575E+00 6.01981E+00 0.00000E+00
 -1      2639 8.82525E+00 6.40944E+00 0.00000E+00
 -1      2640 8.44742E+01 1.45843E+01 0.00000E+00
 -1      2641 8.50810E+01 1.51670E+01 0.00000E+00
 -1      2642 8.58307E+01 1.44970E+01 0.00000E+00
 -1      2643 7.79400E+00 3.52687E+01 0.00000E+00
 -1      2644 6.49500E+00 3.60062E+01 0.00000E+00
 -1      2645 6.49500E+00 3.74750E+01 0.00000E+00
 -1      2646 1.45350E+01 6.60425E+00 0.00000E+00
 -1      2647 6.40575E+00 7.49481E+00 0.00000E+00
 -1      2648 9.55698E+01 2.63037E+01 0.00000E+00
 -1      2649 8.99281E+01 1.62949E+01 0.00000E+00
 -1      2650 8.88747E+01 3.64721E+01 0.00000E+00
 -1      2651 9.52732E+01 2.38156E+01 0.00000E+00
 -1      2652 9.59587E+01 2.43915E+01 0.00000E+00
 -1      2653 9.58861E+01 2.30635E+01 0.00000E+00
 -1      2654 9.30595E+01 1.96785E+01 0.00000E+00
 -1      2655 9.43970E+01 2.16230E+01 0.00000E+00
 -1      2656 9.17148E+01 1.76930E+01 0.00000E+00
 -1      2657 1.43586E+02 6.56853E+00 0.00000E+00
 -1      2658 9.54357E+01 2.85534E+01 0.00000E+00
 -1      2659 1.43419E+02 7.72713E+00 0.00000E+00
 -1      2660 1.42758E+02 4.35929E+01 0.00000E+00
 -1      2661 1.43241E+02 4.17323E+01 0.00000E+00
 -1      2662 1.41942E+02 4.09948E+01 0.00000E+00
 -1      2663 1.41414E+02 4.35342E+01 0.00000E+00
 -1      2664 7.96040E+01 3.66145E+01 0.00000E+00
 -1      2665 7.70475E+00 8.23231E+00 0.00000E+00
 -1      2666 1.42120E+02 8.46463E+00 0.00000E+00
 -1      2667 7.61427E+01 3.37078E+01 0.00000E+00
 -1      2668 7.50909E+01 3.36651E+01 0.00000E+00
 -1      2669 7.61794E+01 3.46149E+01 0.00000E+00
 -1      2670 7.45414E+01 3.14964E+01 0.00000E+00
 -1      2671 8.29014E+01 3.80222E+01 0.00000E+00
 -1      2672 8.22601E+01 3.73567E+01 0.00000E+00
 -1      2673 8.12802E+01 3.79628E+01 0.00000E+00
 -1      2674 7.32674E+01 2.67865E+01 0.00000E+00
 -1      2675 7.39379E+01 2.20952E+01 0.00000E+00
 -1      2676 7.66294E+01 1.84093E+01 0.00000E+00
 -1      2677 7.84293E+01 1.69089E+01 0.00000E+00
 -1      2678 8.05155E+01 1.59373E+01 0.00000E+00
 -1      2679 9.23918E+01 3.43037E+01 0.00000E+00
 -1      2680 9.23596E+01 3.52938E+01 0.00000E+00
 -1      2681 9.33929E+01 3.43282E+01 0.00000E+00
 -1      2682 8.76949E+01 1.54411E+01 0.00000E+00
 -1      2683 6.52725E+00 3.87101E+01 0.00000E+00
 -1      2684 6.52725E+00 4.01789E+01 0.00000E+00
 -1      2685 7.89075E+00 4.04429E+01 0.00000E+00
 -1      2686 7.82625E+00 3.79726E+01 0.00000E+00
 -1      2687 8.27007E+01 1.53952E+01 0.00000E+00
 -1      2688 7.38193E+01 2.91865E+01 0.00000E+00
 -1      2689 1.40664E+02 4.22352E+01 0.00000E+00
 -1      2690 9.09300E+00 1.98250E+01 0.00000E+00
 -1      2691 9.09300E+00 2.12750E+01 0.00000E+00
 -1      2692 9.09300E+00 2.27500E+01 0.00000E+00
 -1      2693 9.09300E+00 2.42250E+01 0.00000E+00
 -1      2694 1.03920E+01 2.20250E+01 0.00000E+00
 -1      2695 9.09300E+00 1.39375E+01 0.00000E+00
 -1      2696 9.09300E+00 1.54125E+01 0.00000E+00
 -1      2697 9.09300E+00 1.09875E+01 0.00000E+00
 -1      2698 9.09300E+00 1.24625E+01 0.00000E+00
 -1      2699 1.03920E+01 1.32000E+01 0.00000E+00
 -1      2700 1.22850E+01 7.90325E+00 0.00000E+00
 -1      2701 1.07850E+01 7.90325E+00 0.00000E+00
 -1      2702 1.40706E+02 1.03250E+01 0.00000E+00
 -1      2703 1.40620E+02 8.46463E+00 0.00000E+00
 -1      2704 1.39120E+02 8.46463E+00 0.00000E+00
 -1      2705 1.52850E+01 7.90325E+00 0.00000E+00
 -1      2706 1.37850E+01 7.90325E+00 0.00000E+00
 -1      2707 1.30350E+01 9.20225E+00 0.00000E+00
 -1      2708 8.91450E+00 8.42712E+00 0.00000E+00
 -1      2709 1.44000E+01 4.09070E+01 0.00000E+00
 -1      2710 1.59000E+01 4.09070E+01 0.00000E+00
 -1      2711 1.74000E+01 4.09070E+01 0.00000E+00
 -1      2712 1.89000E+01 4.09070E+01 0.00000E+00
 -1      2713 1.66500E+01 3.96080E+01 0.00000E+00
 -1      2714 2.04000E+01 4.09070E+01 0.00000E+00
 -1      2715 2.19000E+01 4.09070E+01 0.00000E+00
 -1      2716 1.96500E+01 3.96080E+01 0.00000E+00
 -1      2717 2.34000E+01 4.09070E+01 0.00000E+00
 -1      2718 2.49000E+01 4.09070E+01 0.00000E+00
 -1      2719 2.26500E+01 3.96080E+01 0.00000E+00
 -1      2720 2.64000E+01 4.09070E+01 0.00000E+00
 -1      2721 2.79000E+01 4.09070E+01 0.00000E+00
 -1      2722 2.56500E+01 3.96080E+01 0.00000E+00
 -1      2723 2.94000E+01 4.09070E+01 0.00000E+00
 -1      2724 3.09000E+01 4.09070E+01 0.00000E+00
 -1      2725 2.86500E+01 3.96080E+01 0.00000E+00
 -1      2726 3.24000E+01 4.09070E+01 0.00000E+00
 -1      2727 3.39000E+01 4.09070E+01 0.00000E+00
 -1      2728 3.16500E+01 3.96080E+01 0.00000E+00
 -1      2729 3.54000E+01 4.09070E+01 0.00000E+00
 -1      2730 3.69000E+01 4.09070E+01 0.00000E+00
 -1      2731 3.46500E+01 3.96080E+01 0.00000E+00
 -1      2732 3.84000E+01 4.09070E+01 0.00000E+00
 -1      2733 3.99000E+01 4.09070E+01 0.00000E+00
 -1      2734 3.76500E+01 3.96080E+01 0.00000E+00
 -1      2735 4.14000E+01 4.09070E+01 0.00000E+00
 -1      2736 4.29000E+01 4.09070E+01 0.00000E+00
 -1      2737 4.06500E+01 3.96080E+01 0.00000E+00
 -1      2738 4.44000E+01 4.09070E+01 0.00000E+00
 -1      2739 4.59000E+01 4.09070E+01 0.00000E+00
 -1      2740 4.36500E+01 3.96080E+01 0.00000E+00
 -1      2741 4.74000E+01 4.09070E+01 0.00000E+00
 -1      2742 4.89000E+01 4.09070E+01 0.00000E+00
 -1      2743 4.66500E+01 3.96080E+01 0.00000E+00
 -1      2744 5.04000E+01 4.09070E+01 0.00000E+00
 -1      2745 5.19000E+01 4.09070E+01 0.00000E+00
 -1      2746 4.96500E+01 3.96080E+01 0.00000E+00
 -1      2747 5.34000E+01 4.09070E+01 0.00000E+00
 -1      2748 5.49000E+01 4.09070E+01 0.00000E+00
 -1      2749 5.26500E+01 3.96080E+01 0.00000E+00
 -1      2750 5.64000E+01 4.09070E+01 0.00000E+00
 -1      2751 5.79000E+01 4.09070E+01 0.00000E+00
 -1      2752 5.56500E+01 3.96080E+01 0.00000E+00
 -1      2753 5.94000E+01 4.09070E+01 0.00000E+00
 -1      2754 6.09000E+01 4.09070E+01 0.00000E+00
 -1      2755 5.86500E+01 3.96080E+01 0.00000E+00
 -1      2756 6.24000E+01 4.09070E+01 0.00000E+00
 -1      2757 6.39000E+01 4.09070E+01 0.00000E+00
 -1      2758 6.16500E+01 3.96080E+01 0.00000E+00
 -1      2759 6.54000E+01 4.09070E+01 0.00000E+00
 -1      2760 6.69000E+01 4.09070E+01 0.00000E+00
 -1      2761 6.46500E+01 3.96080E+01 0.00000E+00
 -1      2762 6.84000E+01 4.09070E+01 0.00000E+00
 -1      2763 6.99000E+01 4.09070E+01 0.00000E+00
 -1      2764 6.76500E+01 3.96080E+01 0.00000E+00
 -1      2765 7.14000E+01 4.09070E+01 0.00000E+00
 -1      2766 7.29000E+01 4.09070E+01 0.00000E+00
 -1      2767 7.06500E+01 3.96080E+01 0.00000E+00
 -1      2768 7.44000E+01 4.09070E+01 0.00000E+00
 -1      2769 7.59000E+01 4.09070E+01 0.00000E+00
 -1      2770 7.36500E+01 3.96080E+01 0.00000E+00
 -1      2771 7.74000E+01 4.09070E+01 0.00000E+00
 -1      2772 7.89000E+01 4.09070E+01 0.00000E+00
 -1      2773 7.66500E+01 3.96080E+01 0.00000E+00
 -1      2774 8.07857E+01 4.04171E+01 0.00000E+00
 -1      2775 8.22857E+01 4.04171E+01 0.00000E+00
 -1      2776 8.64000E+01 4.10971E+01 0.00000E+00
 -1      2777 8.79000E+01 4.10971E+01 0.00000E+00
 -1      2778 8.94000E+01 4.10971E+01 0.00000E+00
 -1      2779 9.09000E+01 4.10971E+01 0.00000E+00
 -1      2780 8.86500E+01 3.99882E+01 0.00000E+00
 -1      2781 9.24000E+01 4.10971E+01 0.00000E+00
 -1      2782 9.39000E+01 4.10971E+01 0.00000E+00
 -1      2783 9.16500E+01 3.99882E+01 0.00000E+00
 -1      2784 9.54000E+01 4.10971E+01 0.00000E+00
 -1      2785 9.69000E+01 4.10971E+01 0.00000E+00
 -1      2786 9.46500E+01 3.99882E+01 0.00000E+00
 -1      2787 9.84000E+01 4.10971E+01 0.00000E+00
 -1      2788 9.99000E+01 4.10971E+01 0.00000E+00
 -1      2789 9.76500E+01 3.99882E+01 0.00000E+00
 -1      2790 1.01400E+02 4.10971E+01 0.00000E+00
 -1      2791 1.02900E+02 4.10971E+01 0.00000E+00
 -1      2792 1.00650E+02 3.99882E+01 0.00000E+00
 -1      2793 1.04400E+02 4.10971E+01 0.00000E+00
 -1      2794 1.05900E+02 4.10971E+01 0.00000E+00
 -1      2795 1.03650E+02 3.99882E+01 0.00000E+00
 -1      2796 1.07400E+02 4.10971E+01 0.00000E+00
 -1      2797 1.08900E+02 4.10971E+01 0.00000E+00
 -1      2798 1.06650E+02 3.99882E+01 0.00000E+00
 -1      2799 1.10400E+02 4.10971E+01 0.00000E+00
 -1      2800 1.11900E+02 4.10971E+01 0.00000E+00
 -1      2801 1.09650E+02 3.99882E+01 0.00000E+00
 -1      2802 1.13400E+02 4.10971E+01 0.00000E+00
 -1      2803 1.14900E+02 4.10971E+01 0.00000E+00
 -1      2804 1.12650E+02 3.99882E+01 0.00000E+00
 -1      2805 1.16400E+02 4.10971E+01 0.00000E+00
 -1      2806 1.17900E+02 4.10971E+01 0.00000E+00
 -1      2807 1.15650E+02 3.99882E+01 0.00000E+00
 -1      2808 1.19400E+02 4.10971E+01 0.00000E+00
 -1      2809 1.20900E+02 4.10971E+01 0.00000E+00
 -1      2810 1.18650E+02 3.99882E+01 0.00000E+00
 -1      2811 1.22400E+02 4.10971E+01 0.00000E+00
 -1      2812 1.23900E+02 4.10971E+01 0.00000E+00
 -1      2813 1.21650E+02 3.99882E+01 0.00000E+00
 -1      2814 1.25400E+02 4.10971E+01 0.00000E+00
 -1      2815 1.26900E+02 4.10971E+01 0.00000E+00
 -1      2816 1.24650E+02 3.99882E+01 0.00000E+00
 -1      2817 1.28400E+02 4.10971E+01 0.00000E+00
 -1      2818 1.29900E+02 4.10971E+01 0.00000E+00
 -1      2819 1.27650E+02 3.99882E+01 0.00000E+00
 -1      2820 1.31400E+02 4.10971E+01 0.00000E+00
 -1      2821 1.32900E+02 4.10971E+01 0.00000E+00
 -1      2822 1.30650E+02 3.99882E+01 0.00000E+00
 -1      2823 1.34400E+02 4.10971E+01 0.00000E+00
 -1      2824 1.35900E+02 4.10971E+01 0.00000E+00
 -1      2825 1.33650E+02 3.99882E+01 0.00000E+00
 -1      2826 1.37400E+02 4.10971E+01 0.00000E+00
 -1      2827 1.38900E+02 4.10971E+01 0.00000E+00
 -1      2828 1.36650E+02 3.99882E+01 0.00000E+00
 -1      2829 7.93945E+01 3.84526E+01 0.00000E+00
 -1      2830 7.83595E+01 3.77699E+01 0.00000E+00
 -1      2831 2.12850E+01 7.90325E+00 0.00000E+00
 -1      2832 1.97850E+01 7.90325E+00 0.00000E+00
 -1      2833 3.02850E+01 7.90325E+00 0.00000E+00
 -1      2834 2.87850E+01 7.90325E+00 0.00000E+00
 -1      2835 3.32850E+01 7.90325E+00 0.00000E+00
 -1      2836 3.17850E+01 7.90325E+00 0.00000E+00
 -1      2837 3.10350E+01 9.20225E+00 0.00000E+00
 -1      2838 3.62850E+01 7.90325E+00 0.00000E+00
 -1      2839 3.47850E+01 7.90325E+00 0.00000E+00
 -1      2840 3.40350E+01 9.20225E+00 0.00000E+00
 -1      2841 3.92850E+01 7.90325E+00 0.00000E+00
 -1      2842 3.77850E+01 7.90325E+00 0.00000E+00
 -1      2843 3.70350E+01 9.20225E+00 0.00000E+00
 -1      2844 4.22850E+01 7.90325E+00 0.00000E+00
 -1      2845 4.07850E+01 7.90325E+00 0.00000E+00
 -1      2846 4.00350E+01 9.20225E+00 0.00000E+00
 -1      2847 4.52850E+01 7.90325E+00 0.00000E+00
 -1      2848 4.37850E+01 7.90325E+00 0.00000E+00
 -1      2849 4.30350E+01 9.20225E+00 0.00000E+00
 -1      2850 4.82850E+01 7.90325E+00 0.00000E+00
 -1      2851 4.67850E+01 7.90325E+00 0.00000E+00
 -1      2852 4.60350E+01 9.20225E+00 0.00000E+00
 -1      2853 5.12850E+01 7.90325E+00 0.00000E+00
 -1      2854 4.97850E+01 7.90325E+00 0.00000E+00
 -1      2855 4.90350E+01 9.20225E+00 0.00000E+00
 -1      2856 5.42850E+01 7.90325E+00 0.00000E+00
 -1      2857 5.27850E+01 7.90325E+00 0.00000E+00
 -1      2858 5.20350E+01 9.20225E+00 0.00000E+00
 -1      2859 5.72850E+01 7.90325E+00 0.00000E+00
 -1      2860 5.57850E+01 7.90325E+00 0.00000E+00
 -1      2861 5.50350E+01 9.20225E+00 0.00000E+00
 -1      2862 6.02850E+01 7.90325E+00 0.00000E+00
 -1      2863 5.87850E+01 7.90325E+00 0.00000E+00
 -1      2864 5.80350E+01 9.20225E+00 0.00000E+00
 -1      2865 6.32850E+01 7.90325E+00 0.00000E+00
 -1      2866 6.17850E+01 7.90325E+00 0.00000E+00
 -1      2867 6.10350E+01 9.20225E+00 0.00000E+00
 -1      2868 6.62850E+01 7.90325E+00 0.00000E+00
 -1      2869 6.47850E+01 7.90325E+00 0.00000E+00
 -1      2870 6.40350E+01 9.20225E+00 0.00000E+00
 -1      2871 6.92850E+01 7.90325E+00 0.00000E+00
 -1      2872 6.77850E+01 7.90325E+00 0.00000E+00
 -1      2873 6.70350E+01 9.20225E+00 0.00000E+00
 -1      2874 7.22850E+01 7.90325E+00 0.00000E+00
 -1      2875 7.07850E+01 7.90325E+00 0.00000E+00
 -1      2876 7.00350E+01 9.20225E+00 0.00000E+00
 -1      2877 7.52850E+01 7.90325E+00 0.00000E+00
 -1      2878 7.37850E+01 7.90325E+00 0.00000E+00
 -1      2879 7.30350E+01 9.20225E+00 0.00000E+00
 -1      2880 7.82850E+01 7.90325E+00 0.00000E+00
 -1      2881 7.67850E+01 7.90325E+00 0.00000E+00
 -1      2882 7.60350E+01 9.20225E+00 0.00000E+00
 -1      2883 8.12850E+01 7.90325E+00 0.00000E+00
 -1      2884 7.97850E+01 7.90325E+00 0.00000E+00
 -1      2885 7.90350E+01 9.20225E+00 0.00000E+00
 -1      2886 8.42850E+01 7.90325E+00 0.00000E+00
 -1      2887 8.27850E+01 7.90325E+00 0.00000E+00
 -1      2888 8.20350E+01 9.20225E+00 0.00000E+00
 -1      2889 8.72850E+01 7.90325E+00 0.00000E+00
 -1      2890 8.57850E+01 7.90325E+00 0.00000E+00
 -1      2891 8.50350E+01 9.20225E+00 0.00000E+00
 -1      2892 9.02850E+01 7.90325E+00 0.00000E+00
 -1      2893 8.87850E+01 7.90325E+00 0.00000E+00
 -1      2894 8.80350E+01 9.20225E+00 0.00000E+00
 -1      2895 9.32850E+01 7.90325E+00 0.00000E+00
 -1      2896 9.17850E+01 7.90325E+00 0.00000E+00
 -1      2897 9.10350E+01 9.20225E+00 0.00000E+00
 -1      2898 9.62850E+01 7.90325E+00 0.00000E+00
 -1      2899 9.47850E+01 7.90325E+00 0.00000E+00
 -1      2900 9.40350E+01 9.20225E+00 0.00000E+00
 -1      2901 9.92850E+01 7.90325E+00 0.00000E+00
 -1      2902 9.77850E+01 7.90325E+00 0.00000E+00
 -1      2903 9.70350E+01 9.20225E+00 0.00000E+00
 -1      2904 1.02285E+02 7.90325E+00 0.00000E+00
 -1      2905 1.00785E+02 7.90325E+00 0.00000E+00
 -1      2906 1.00035E+02 9.20225E+00 0.00000E+00
 -1      2907 1.05285E+02 7.90325E+00 0.00000E+00
 -1      2908 1.03785E+02 7.90325E+00 0.00000E+00
 -1      2909 1.03035E+02 9.20225E+00 0.00000E+00
 -1      2910 1.08285E+02 7.90325E+00 0.00000E+00
 -1      2911 1.06785E+02 7.90325E+00 0.00000E+00
 -1      2912 1.06035E+02 9.20225E+00 0.00000E+00
 -1      2913 1.11285E+02 7.90325E+00 0.00000E+00
 -1      2914 1.09785E+02 7.90325E+00 0.00000E+00
 -1      2915 1.09035E+02 9.20225E+00 0.00000E+00
 -1      2916 1.14285E+02 7.90325E+00 0.00000E+00
 -1      2917 1.12785E+02 7.90325E+00 0.00000E+00
 -1      2918 1.12035E+02 9.20225E+00 0.00000E+00
 -1      2919 1.17285E+02 7.90325E+00 0.00000E+00
 -1      2920 1.15785E+02 7.90325E+00 0.00000E+00
 -1      2921 1.15035E+02 9.20225E+00 0.00000E+00
 -1      2922 1.20285E+02 7.90325E+00 0.00000E+00
 -1      2923 1.18785E+02 7.90325E+00 0.00000E+00
 -1      2924 1.18035E+02 9.20225E+00 0.00000E+00
 -1      2925 1.23285E+02 7.90325E+00 0.00000E+00
 -1      2926 1.21785E+02 7.90325E+00 0.00000E+00
 -1      2927 1.21035E+02 9.20225E+00 0.00000E+00
 -1      2928 1.26285E+02 7.90325E+00 0.00000E+00
 -1      2929 1.24785E+02 7.90325E+00 0.00000E+00
 -1      2930 1.24035E+02 9.20225E+00 0.00000E+00
 -1      2931 1.29285E+02 7.90325E+00 0.00000E+00
 -1      2932 1.27785E+02 7.90325E+00 0.00000E+00
 -1      2933 1.27035E+02 9.20225E+00 0.00000E+00
 -1      2934 1.32285E+02 7.90325E+00 0.00000E+00
 -1      2935 1.30785E+02 7.90325E+00 0.00000E+00
 -1      2936 1.30035E+02 9.20225E+00 0.00000E+00
 -1      2937 1.35285E+02 7.90325E+00 0.00000E+00
 -1      2938 1.33785E+02 7.90325E+00 0.00000E+00
 -1      2939 1.33035E+02 9.20225E+00 0.00000E+00
 -1      2940 1.37953E+02 8.18394E+00 0.00000E+00
 -1      2941 1.36453E+02 8.18394E+00 0.00000E+00
 -1      2942 1.35703E+02 9.48294E+00 0.00000E+00
 -1      2943 1.38038E+02 1.00443E+01 0.00000E+00
 -1      2944 9.63897E+01 2.82633E+01 0.00000E+00
 -1      2945 9.60316E+01 2.93529E+01 0.00000E+00
 -1      2946 1.40907E+02 2.42875E+01 0.00000E+00
 -1      2947 1.40907E+02 2.28125E+01 0.00000E+00
 -1      2948 1.40907E+02 1.83875E+01 0.00000E+00
 -1      2949 1.40907E+02 1.69125E+01 0.00000E+00
 -1      2950 1.40907E+02 2.72375E+01 0.00000E+00
 -1      2951 1.40907E+02 2.57625E+01 0.00000E+00
 -1      2952 1.39608E+02 2.50250E+01 0.00000E+00
 -1      2953 1.40907E+02 2.13375E+01 0.00000E+00
 -1      2954 1.40907E+02 1.98625E+01 0.00000E+00
 -1      2955 1.39608E+02 1.91250E+01 0.00000E+00
 -1      2956 1.39608E+02 2.20750E+01 0.00000E+00
 -1      2957 9.47461E+01 2.04927E+01 0.00000E+00
 -1      2958 9.55497E+01 2.13574E+01 0.00000E+00
 -1      2959 1.40907E+02 3.01375E+01 0.00000E+00
 -1      2960 1.40907E+02 2.86875E+01 0.00000E+00
 -1      2961 1.39608E+02 2.79500E+01 0.00000E+00
 -1      2962 1.40907E+02 3.30875E+01 0.00000E+00
 -1      2963 1.40907E+02 3.16125E+01 0.00000E+00
 -1      2964 1.39608E+02 3.08750E+01 0.00000E+00
 -1      2965 1.40907E+02 3.60375E+01 0.00000E+00
 -1      2966 1.40907E+02 3.45625E+01 0.00000E+00
 -1      2967 1.39608E+02 3.38250E+01 0.00000E+00
 -1      2968 1.82850E+01 7.90325E+00 0.00000E+00
 -1      2969 1.67850E+01 7.90325E+00 0.00000E+00
 -1      2970 1.60350E+01 9.20225E+00 0.00000E+00
 -1      2971 1.90350E+01 9.20225E+00 0.00000E+00
 -1      2972 1.40928E+02 4.09655E+01 0.00000E+00
 -1      2973 1.41192E+02 3.96958E+01 0.00000E+00
 -1      2974 1.39914E+02 4.09362E+01 0.00000E+00
 -1      2975 8.97246E+01 3.72123E+01 0.00000E+00
 -1      2976 8.85307E+01 3.75453E+01 0.00000E+00
 -1      2977 9.19171E+01 1.66961E+01 0.00000E+00
 -1      2978 9.27280E+01 1.76018E+01 0.00000E+00
 -1      2979 7.54453E+01 1.81718E+01 0.00000E+00
 -1      2980 7.63205E+01 1.72418E+01 0.00000E+00
 -1      2981 8.20720E+01 1.46161E+01 0.00000E+00
 -1      2982 8.30956E+01 1.44752E+01 0.00000E+00
 -1      2983 2.72850E+01 7.90325E+00 0.00000E+00
 -1      2984 2.57850E+01 7.90325E+00 0.00000E+00
 -1      2985 2.80350E+01 9.20225E+00 0.00000E+00
 -1      2986 2.42850E+01 7.90325E+00 0.00000E+00
 -1      2987 2.27850E+01 7.90325E+00 0.00000E+00
 -1      2988 2.50350E+01 9.20225E+00 0.00000E+00
 -1      2989 1.14000E+01 4.09070E+01 0.00000E+00
 -1      2990 1.29000E+01 4.09070E+01 0.00000E+00
 -1      2991 1.36500E+01 3.96080E+01 0.00000E+00
 -1      2992 9.09300E+00 1.68813E+01 0.00000E+00
 -1      2993 9.09300E+00 1.83563E+01 0.00000E+00
 -1      2994 1.03920E+01 1.90812E+01 0.00000E+00
 -1      2995 1.03920E+01 1.61437E+01 0.00000E+00
 -1      2996 8.98265E+01 1.52830E+01 0.00000E+00
 -1      2997 9.08024E+01 1.57754E+01 0.00000E+00
 -1      2998 9.64643E+01 2.55292E+01 0.00000E+00
 -1      2999 9.66883E+01 2.66894E+01 0.00000E+00
 -1      3000 9.09300E+00 3.15875E+01 0.00000E+00
 -1      3001 9.09300E+00 3.30625E+01 0.00000E+00
 -1      3002 8.73494E+01 1.42751E+01 0.00000E+00
 -1      3003 8.86068E+01 1.46365E+01 0.00000E+00
 -1      3004 7.31241E+01 2.98704E+01 0.00000E+00
 -1      3005 7.29147E+01 2.88222E+01 0.00000E+00
 -1      3006 7.96000E+01 1.51690E+01 0.00000E+00
 -1      3007 8.07616E+01 1.47678E+01 0.00000E+00
 -1      3008 7.75167E+01 1.64642E+01 0.00000E+00
 -1      3009 7.84414E+01 1.58938E+01 0.00000E+00
 -1      3010 7.41924E+01 2.01006E+01 0.00000E+00
 -1      3011 7.47621E+01 1.92698E+01 0.00000E+00
 -1      3012 7.29058E+01 2.22133E+01 0.00000E+00
 -1      3013 7.35826E+01 2.11191E+01 0.00000E+00
 -1      3014 7.20780E+01 2.47339E+01 0.00000E+00
 -1      3015 7.22461E+01 2.36113E+01 0.00000E+00
 -1      3016 7.40034E+01 3.24501E+01 0.00000E+00
 -1      3017 7.34906E+01 3.11885E+01 0.00000E+00
 -1      3018 7.75172E+01 3.58890E+01 0.00000E+00
 -1      3019 7.68483E+01 3.52519E+01 0.00000E+00
 -1      3020 7.57965E+01 3.52092E+01 0.00000E+00
 -1      3021 7.26480E+01 2.76627E+01 0.00000E+00
 -1      3022 7.23054E+01 2.63109E+01 0.00000E+00
 -1      3023 8.51790E+01 3.80593E+01 0.00000E+00
 -1      3024 8.43670E+01 3.81436E+01 0.00000E+00
 -1      3025 9.16560E+01 3.64062E+01 0.00000E+00
 -1      3026 9.10110E+01 3.68411E+01 0.00000E+00
 -1      3027 9.34701E+01 1.85074E+01 0.00000E+00
 -1      3028 9.40040E+01 1.95872E+01 0.00000E+00
 -1      3029 9.51567E+01 1.93216E+01 0.00000E+00
 -1      3030 9.36724E+01 1.75105E+01 0.00000E+00
 -1      3031 8.96362E+00 4.05429E+01 0.00000E+00
 -1      3032 1.03271E+01 4.08069E+01 0.00000E+00
 -1      3033 1.10771E+01 3.95079E+01 0.00000E+00
 -1      3034 8.93137E+00 3.93078E+01 0.00000E+00
 -1      3035 9.09300E+00 3.45313E+01 0.00000E+00
 -1      3036 9.09300E+00 3.60000E+01 0.00000E+00
 -1      3037 1.03920E+01 3.37938E+01 0.00000E+00
 -1      3038 1.03920E+01 2.49750E+01 0.00000E+00
 -1      3039 9.09300E+00 2.57000E+01 0.00000E+00
 -1      3040 9.09300E+00 2.71750E+01 0.00000E+00
 -1      3041 9.66450E+00 9.72612E+00 0.00000E+00
 -1      3042 9.67581E+01 3.00282E+01 0.00000E+00
 -1      3043 9.58042E+01 3.03184E+01 0.00000E+00
 -1      3044 1.39164E+02 3.98273E+01 0.00000E+00
 -1      3045 9.26570E+01 3.64307E+01 0.00000E+00
 -1      3046 8.38454E+01 1.38052E+01 0.00000E+00
 -1      3047 7.40400E+01 3.33572E+01 0.00000E+00
 -1      3048 7.29892E+01 3.30493E+01 0.00000E+00
 -1      3049 7.40767E+01 3.42643E+01 0.00000E+00
 -1      3050 9.17139E+01 1.46725E+01 0.00000E+00
 -1      3051 9.18155E+01 1.56843E+01 0.00000E+00
 -1      3052 9.28287E+01 1.55931E+01 0.00000E+00
 -1      3053 9.62352E+01 2.19333E+01 0.00000E+00
 -1      3054 9.69206E+01 2.25092E+01 0.00000E+00
 -1      3055 9.65843E+01 2.08031E+01 0.00000E+00
 -1      3056 7.14586E+01 2.56102E+01 0.00000E+00
 -1      3057 7.06117E+01 2.49094E+01 0.00000E+00
 -1      3058 7.08391E+01 2.64864E+01 0.00000E+00
 -1      3059 7.18908E+01 2.26352E+01 0.00000E+00
 -1      3060 7.15355E+01 2.16590E+01 0.00000E+00
 -1      3061 7.08758E+01 2.30570E+01 0.00000E+00
 -1      3062 8.34000E+01 4.10971E+01 0.00000E+00
 -1      3063 8.49000E+01 4.10971E+01 0.00000E+00
 -1      3064 7.31603E+01 2.02187E+01 0.00000E+00
 -1      3065 1.41192E+02 3.82207E+01 0.00000E+00
 -1      3066 7.63326E+01 1.62267E+01 0.00000E+00
 -1      3067 2.20350E+01 9.20225E+00 0.00000E+00
 -1      3068 9.72842E+01 2.74888E+01 0.00000E+00
 -1      3069 9.78800E+01 2.82883E+01 0.00000E+00
 -1      3070 9.81787E+01 2.67144E+01 0.00000E+00
 -1      3071 7.86875E+01 1.47243E+01 0.00000E+00
 -1      3072 1.39608E+02 1.61875E+01 0.00000E+00
 -1      3073 1.40907E+02 1.54500E+01 0.00000E+00
 -1      3074 1.40907E+02 1.39875E+01 0.00000E+00
 -1      3075 1.40706E+02 1.17875E+01 0.00000E+00
 -1      3076 7.25860E+01 3.08241E+01 0.00000E+00
 -1      3077 8.94810E+01 1.41171E+01 0.00000E+00
 -1      3078 1.39893E+02 3.74832E+01 0.00000E+00
 -1      3079 8.67426E+01 1.36924E+01 0.00000E+00
 -1      3080 8.76544E+01 1.28879E+01 0.00000E+00
 -1      3081 8.61358E+01 1.31097E+01 0.00000E+00
 -1      3082 8.30357E+01 3.93082E+01 0.00000E+00
 -1      3083 9.06670E+01 3.79143E+01 0.00000E+00
 -1      3084 8.11565E+01 1.38478E+01 0.00000E+00
 -1      3085 7.44531E+01 1.81022E+01 0.00000E+00
 -1      3086 9.49041E+01 3.23367E+01 0.00000E+00
 -1      3087 9.44910E+01 3.32605E+01 0.00000E+00
 -1      3088 9.09300E+00 2.86437E+01 0.00000E+00
 -1      3089 9.09300E+00 3.01187E+01 0.00000E+00
 -1      3090 1.03920E+01 3.08563E+01 0.00000E+00
 -1      3091 1.03920E+01 2.79188E+01 0.00000E+00
 -1      3092 9.44588E+01 3.42506E+01 0.00000E+00
 -1      3093 9.44265E+01 3.52408E+01 0.00000E+00
 -1      3094 9.55247E+01 3.41731E+01 0.00000E+00
 -1      3095 1.09635E+01 1.04636E+01 0.00000E+00
 -1      3096 8.73413E+01 3.79203E+01 0.00000E+00
 -1      3097 8.62534E+01 3.81415E+01 0.00000E+00
 -1      3098 9.70772E+01 2.47772E+01 0.00000E+00
 -1      3099 8.56500E+01 3.99882E+01 0.00000E+00
 -1      3100 8.59272E+01 3.89533E+01 0.00000E+00
 -1      3101 7.19528E+01 2.83466E+01 0.00000E+00
 -1      3102 8.81911E+01 3.86605E+01 0.00000E+00
 -1      3103 9.53910E+01 3.12422E+01 0.00000E+00
 -1      3104 1.16910E+01 1.24625E+01 0.00000E+00
 -1      3105 1.16910E+01 1.39375E+01 0.00000E+00
 -1      3106 9.79512E+01 2.97997E+01 0.00000E+00
 -1      3107 9.77238E+01 3.07652E+01 0.00000E+00
 -1      3108 1.37764E+02 3.88161E+01 0.00000E+00
 -1      3109 1.38779E+02 3.86553E+01 0.00000E+00
 -1      3110 1.38493E+02 3.64720E+01 0.00000E+00
 -1      3111 1.36264E+02 3.88161E+01 0.00000E+00
 -1      3112 7.11688E+01 2.91374E+01 0.00000E+00
 -1      3113 7.09020E+01 2.79779E+01 0.00000E+00
 -1      3114 7.73077E+01 3.77271E+01 0.00000E+00
 -1      3115 1.59000E+01 3.83090E+01 0.00000E+00
 -1      3116 1.74000E+01 3.83090E+01 0.00000E+00
 -1      3117 8.00357E+01 3.91181E+01 0.00000E+00
 -1      3118 1.89000E+01 3.83090E+01 0.00000E+00
 -1      3119 2.04000E+01 3.83090E+01 0.00000E+00
 -1      3120 1.81500E+01 3.70100E+01 0.00000E+00
 -1      3121 2.19000E+01 3.83090E+01 0.00000E+00
 -1      3122 2.34000E+01 3.83090E+01 0.00000E+00
 -1      3123 2.11500E+01 3.70100E+01 0.00000E+00
 -1      3124 2.49000E+01 3.83090E+01 0.00000E+00
 -1      3125 2.64000E+01 3.83090E+01 0.00000E+00
 -1      3126 2.41500E+01 3.70100E+01 0.00000E+00
 -1      3127 2.79000E+01 3.83090E+01 0.00000E+00
 -1      3128 2.94000E+01 3.83090E+01 0.00000E+00
 -1      3129 2.71500E+01 3.70100E+01 0.00000E+00
 -1      3130 3.09000E+01 3.83090E+01 0.00000E+00
 -1      3131 3.24000E+01 3.83090E+01 0.00000E+00
 -1      3132 3.01500E+01 3.70100E+01 0.00000E+00
 -1      3133 3.39000E+01 3.83090E+01 0.00000E+00
 -1      3134 3.54000E+01 3.83090E+01 0.00000E+00
 -1      3135 3.31500E+01 3.70100E+01 0.00000E+00
 -1      3136 3.69000E+01 3.83090E+01 0.00000E+00
 -1      3137 3.84000E+01 3.83090E+01 0.00000E+00
 -1      3138 3.61500E+01 3.70100E+01 0.00000E+00
 -1      3139 3.99000E+01 3.83090E+01 0.00000E+00
 -1      3140 4.14000E+01 3.83090E+01 0.00000E+00
 -1      3141 3.91500E+01 3.70100E+01 0.00000E+00
 -1      3142 4.29000E+01 3.83090E+01 0.00000E+00
 -1      3143 4.44000E+01 3.83090E+01 0.00000E+00
 -1      3144 4.21500E+01 3.70100E+01 0.00000E+00
 -1      3145 4.59000E+01 3.83090E+01 0.00000E+00
 -1      3146 4.74000E+01 3.83090E+01 0.00000E+00
 -1      3147 4.51500E+01 3.70100E+01 0.00000E+00
 -1      3148 4.89000E+01 3.83090E+01 0.00000E+00
 -1      3149 5.04000E+01 3.83090E+01 0.00000E+00
 -1      3150 4.81500E+01 3.70100E+01 0.00000E+00
 -1      3151 5.19000E+01 3.83090E+01 0.00000E+00
 -1      3152 5.34000E+01 3.83090E+01 0.00000E+00
 -1      3153 5.11500E+01 3.70100E+01 0.00000E+00
 -1      3154 5.49000E+01 3.83090E+01 0.00000E+00
 -1      3155 5.64000E+01 3.83090E+01 0.00000E+00
 -1      3156 5.41500E+01 3.70100E+01 0.00000E+00
 -1      3157 5.79000E+01 3.83090E+01 0.00000E+00
 -1      3158 5.94000E+01 3.83090E+01 0.00000E+00
 -1      3159 5.71500E+01 3.70100E+01 0.00000E+00
 -1      3160 6.09000E+01 3.83090E+01 0.00000E+00
 -1      3161 6.24000E+01 3.83090E+01 0.00000E+00
 -1      3162 6.01500E+01 3.70100E+01 0.00000E+00
 -1      3163 6.39000E+01 3.83090E+01 0.00000E+00
 -1      3164 6.54000E+01 3.83090E+01 0.00000E+00
 -1      3165 6.31500E+01 3.70100E+01 0.00000E+00
 -1      3166 6.69000E+01 3.83090E+01 0.00000E+00
 -1      3167 6.84000E+01 3.83090E+01 0.00000E+00
 -1      3168 6.61500E+01 3.70100E+01 0.00000E+00
 -1      3169 6.99000E+01 3.83090E+01 0.00000E+00
 -1      3170 7.14000E+01 3.83090E+01 0.00000E+00
 -1      3171 6.91500E+01 3.70100E+01 0.00000E+00
 -1      3172 7.58077E+01 3.77271E+01 0.00000E+00
 -1      3173 7.43944E+01 3.83490E+01 0.00000E+00
 -1      3174 7.50521E+01 3.64682E+01 0.00000E+00
 -1      3175 7.43832E+01 3.58311E+01 0.00000E+00
 -1      3176 7.28944E+01 3.83490E+01 0.00000E+00
 -1      3177 7.20477E+01 2.02444E+01 0.00000E+00
 -1      3178 7.26575E+01 1.92259E+01 0.00000E+00
 -1      3179 9.39460E+01 3.64673E+01 0.00000E+00
 -1      3180 9.32424E+01 3.75797E+01 0.00000E+00
 -1      3181 9.38407E+01 3.88022E+01 0.00000E+00
 -1      3182 9.53407E+01 3.88022E+01 0.00000E+00
 -1      3183 9.68407E+01 3.88022E+01 0.00000E+00
 -1      3184 9.83407E+01 3.88022E+01 0.00000E+00
 -1      3185 9.60314E+01 3.76163E+01 0.00000E+00
 -1      3186 9.98407E+01 3.88022E+01 0.00000E+00
 -1      3187 1.01341E+02 3.88022E+01 0.00000E+00
 -1      3188 9.90314E+01 3.76163E+01 0.00000E+00
 -1      3189 1.02841E+02 3.88022E+01 0.00000E+00
 -1      3190 1.04341E+02 3.88022E+01 0.00000E+00
 -1      3191 1.02031E+02 3.76163E+01 0.00000E+00
 -1      3192 1.05841E+02 3.88022E+01 0.00000E+00
 -1      3193 1.07341E+02 3.88022E+01 0.00000E+00
 -1      3194 1.05031E+02 3.76163E+01 0.00000E+00
 -1      3195 1.08841E+02 3.88022E+01 0.00000E+00
 -1      3196 1.10341E+02 3.88022E+01 0.00000E+00
 -1      3197 1.08031E+02 3.76163E+01 0.00000E+00
 -1      3198 1.11841E+02 3.88022E+01 0.00000E+00
 -1      3199 1.13341E+02 3.88022E+01 0.00000E+00
 -1      3200 1.11031E+02 3.76163E+01 0.00000E+00
 -1      3201 1.14841E+02 3.88022E+01 0.00000E+00
 -1      3202 1.16341E+02 3.88022E+01 0.00000E+00
 -1      3203 1.14031E+02 3.76163E+01 0.00000E+00
 -1      3204 1.17841E+02 3.88022E+01 0.00000E+00
 -1      3205 1.19341E+02 3.88022E+01 0.00000E+00
 -1      3206 1.17031E+02 3.76163E+01 0.00000E+00
 -1      3207 1.20841E+02 3.88022E+01 0.00000E+00
 -1      3208 1.22341E+02 3.88022E+01 0.00000E+00
 -1      3209 1.20031E+02 3.76163E+01 0.00000E+00
 -1      3210 1.23841E+02 3.88022E+01 0.00000E+00
 -1      3211 1.25341E+02 3.88022E+01 0.00000E+00
 -1      3212 1.23031E+02 3.76163E+01 0.00000E+00
 -1      3213 1.26841E+02 3.88022E+01 0.00000E+00
 -1      3214 1.28341E+02 3.88022E+01 0.00000E+00
 -1      3215 1.26031E+02 3.76163E+01 0.00000E+00
 -1      3216 1.29841E+02 3.88022E+01 0.00000E+00
 -1      3217 1.31341E+02 3.88022E+01 0.00000E+00
 -1      3218 1.29031E+02 3.76163E+01 0.00000E+00
 -1      3219 1.32841E+02 3.88022E+01 0.00000E+00
 -1      3220 1.34341E+02 3.88022E+01 0.00000E+00
 -1      3221 1.32031E+02 3.76163E+01 0.00000E+00
 -1      3222 3.17850E+01 1.05013E+01 0.00000E+00
 -1      3223 3.02850E+01 1.05013E+01 0.00000E+00
 -1      3224 4.07850E+01 1.05013E+01 0.00000E+00
 -1      3225 3.92850E+01 1.05013E+01 0.00000E+00
 -1      3226 4.37850E+01 1.05013E+01 0.00000E+00
 -1      3227 4.22850E+01 1.05013E+01 0.00000E+00
 -1      3228 4.15350E+01 1.18003E+01 0.00000E+00
 -1      3229 4.67850E+01 1.05013E+01 0.00000E+00
 -1      3230 4.52850E+01 1.05013E+01 0.00000E+00
 -1      3231 4.45350E+01 1.18003E+01 0.00000E+00
 -1      3232 4.97850E+01 1.05013E+01 0.00000E+00
 -1      3233 4.82850E+01 1.05013E+01 0.00000E+00
 -1      3234 4.75350E+01 1.18003E+01 0.00000E+00
 -1      3235 5.27850E+01 1.05013E+01 0.00000E+00
 -1      3236 5.12850E+01 1.05013E+01 0.00000E+00
 -1      3237 5.05350E+01 1.18003E+01 0.00000E+00
 -1      3238 5.57850E+01 1.05013E+01 0.00000E+00
 -1      3239 5.42850E+01 1.05013E+01 0.00000E+00
 -1      3240 5.35350E+01 1.18003E+01 0.00000E+00
 -1      3241 5.87850E+01 1.05013E+01 0.00000E+00
 -1      3242 5.72850E+01 1.05013E+01 0.00000E+00
 -1      3243 5.65350E+01 1.18003E+01 0.00000E+00
 -1      3244 6.17850E+01 1.05013E+01 0.00000E+00
 -1      3245 6.02850E+01 1.05013E+01 0.00000E+00
 -1      3246 5.95350E+01 1.18003E+01 0.00000E+00
 -1      3247 6.47850E+01 1.05013E+01 0.00000E+00
 -1      3248 6.32850E+01 1.05013E+01 0.00000E+00
 -1      3249 6.25350E+01 1.18003E+01 0.00000E+00
 -1      3250 6.77850E+01 1.05013E+01 0.00000E+00
 -1      3251 6.62850E+01 1.05013E+01 0.00000E+00
 -1      3252 6.55350E+01 1.18003E+01 0.00000E+00
 -1      3253 7.07850E+01 1.05013E+01 0.00000E+00
 -1      3254 6.92850E+01 1.05013E+01 0.00000E+00
 -1      3255 6.85350E+01 1.18003E+01 0.00000E+00
 -1      3256 7.37850E+01 1.05013E+01 0.00000E+00
 -1      3257 7.22850E+01 1.05013E+01 0.00000E+00
 -1      3258 7.15350E+01 1.18003E+01 0.00000E+00
 -1      3259 7.67850E+01 1.05013E+01 0.00000E+00
 -1      3260 7.52850E+01 1.05013E+01 0.00000E+00
 -1      3261 7.45350E+01 1.18003E+01 0.00000E+00
 -1      3262 8.01906E+01 1.16008E+01 0.00000E+00
 -1      3263 7.86906E+01 1.16008E+01 0.00000E+00
 -1      3264 8.30009E+01 1.14492E+01 0.00000E+00
 -1      3265 8.15009E+01 1.14492E+01 0.00000E+00
 -1      3266 8.82913E+01 1.07537E+01 0.00000E+00
 -1      3267 8.67913E+01 1.07537E+01 0.00000E+00
 -1      3268 9.17850E+01 1.04787E+01 0.00000E+00
 -1      3269 9.02850E+01 1.04787E+01 0.00000E+00
 -1      3270 9.47850E+01 1.04787E+01 0.00000E+00
 -1      3271 9.32850E+01 1.04787E+01 0.00000E+00
 -1      3272 9.25350E+01 1.17552E+01 0.00000E+00
 -1      3273 9.77850E+01 1.04787E+01 0.00000E+00
 -1      3274 9.62850E+01 1.04787E+01 0.00000E+00
 -1      3275 9.55350E+01 1.17552E+01 0.00000E+00
 -1      3276 1.00785E+02 1.04787E+01 0.00000E+00
 -1      3277 9.92850E+01 1.04787E+01 0.00000E+00
 -1      3278 9.85350E+01 1.17552E+01 0.00000E+00
 -1      3279 1.03785E+02 1.04787E+01 0.00000E+00
 -1      3280 1.02285E+02 1.04787E+01 0.00000E+00
 -1      3281 1.01535E+02 1.17552E+01 0.00000E+00
 -1      3282 1.06785E+02 1.04787E+01 0.00000E+00
 -1      3283 1.05285E+02 1.04787E+01 0.00000E+00
 -1      3284 1.04535E+02 1.17552E+01 0.00000E+00
 -1      3285 1.09785E+02 1.04787E+01 0.00000E+00
 -1      3286 1.08285E+02 1.04787E+01 0.00000E+00
 -1      3287 1.07535E+02 1.17552E+01 0.00000E+00
 -1      3288 1.12785E+02 1.04787E+01 0.00000E+00
 -1      3289 1.11285E+02 1.04787E+01 0.00000E+00
 -1      3290 1.10535E+02 1.17552E+01 0.00000E+00
 -1      3291 1.15785E+02 1.04787E+01 0.00000E+00
 -1      3292 1.14285E+02 1.04787E+01 0.00000E+00
 -1      3293 1.13535E+02 1.17552E+01 0.00000E+00
 -1      3294 1.18785E+02 1.04787E+01 0.00000E+00
 -1      3295 1.17285E+02 1.04787E+01 0.00000E+00
 -1      3296 1.16535E+02 1.17552E+01 0.00000E+00
 -1      3297 1.21785E+02 1.04787E+01 0.00000E+00
 -1      3298 1.20285E+02 1.04787E+01 0.00000E+00
 -1      3299 1.19535E+02 1.17552E+01 0.00000E+00
 -1      3300 1.24785E+02 1.04787E+01 0.00000E+00
 -1      3301 1.23285E+02 1.04787E+01 0.00000E+00
 -1      3302 1.22535E+02 1.17552E+01 0.00000E+00
 -1      3303 1.27785E+02 1.04787E+01 0.00000E+00
 -1      3304 1.26285E+02 1.04787E+01 0.00000E+00
 -1      3305 1.25535E+02 1.17552E+01 0.00000E+00
 -1      3306 1.30785E+02 1.04787E+01 0.00000E+00
 -1      3307 1.29285E+02 1.04787E+01 0.00000E+00
 -1      3308 1.28535E+02 1.17552E+01 0.00000E+00
 -1      3309 1.33785E+02 1.04787E+01 0.00000E+00
 -1      3310 1.32285E+02 1.04787E+01 0.00000E+00
 -1      3311 1.31535E+02 1.17552E+01 0.00000E+00
 -1      3312 1.38309E+02 2.57625E+01 0.00000E+00
 -1      3313 1.38309E+02 2.42875E+01 0.00000E+00
 -1      3314 1.38309E+02 3.45625E+01 0.00000E+00
 -1      3315 1.38309E+02 3.30875E+01 0.00000E+00
 -1      3316 1.38309E+02 2.86625E+01 0.00000E+00
 -1      3317 1.38309E+02 2.72125E+01 0.00000E+00
 -1      3318 1.37010E+02 2.64750E+01 0.00000E+00
 -1      3319 7.51301E+01 1.56857E+01 0.00000E+00
 -1      3320 7.63264E+01 1.49082E+01 0.00000E+00
 -1      3321 2.87850E+01 1.05013E+01 0.00000E+00
 -1      3322 2.72850E+01 1.05013E+01 0.00000E+00
 -1      3323 2.95350E+01 1.18003E+01 0.00000E+00
 -1      3324 2.27850E+01 1.05013E+01 0.00000E+00
 -1      3325 2.12850E+01 1.05013E+01 0.00000E+00
 -1      3326 9.60438E+01 3.20883E+01 0.00000E+00
 -1      3327 8.40156E+01 3.87021E+01 0.00000E+00
 -1      3328 1.38309E+02 3.16125E+01 0.00000E+00
 -1      3329 1.38309E+02 3.01375E+01 0.00000E+00
 -1      3330 1.37010E+02 2.94000E+01 0.00000E+00
 -1      3331 1.37010E+02 3.23500E+01 0.00000E+00
 -1      3332 3.77850E+01 1.05013E+01 0.00000E+00
 -1      3333 3.62850E+01 1.05013E+01 0.00000E+00
 -1      3334 3.85350E+01 1.18003E+01 0.00000E+00
 -1      3335 3.47850E+01 1.05013E+01 0.00000E+00
 -1      3336 3.32850E+01 1.05013E+01 0.00000E+00
 -1      3337 3.25350E+01 1.18003E+01 0.00000E+00
 -1      3338 3.55350E+01 1.18003E+01 0.00000E+00
 -1      3339 1.29000E+01 3.83090E+01 0.00000E+00
 -1      3340 1.44000E+01 3.83090E+01 0.00000E+00
 -1      3341 1.51500E+01 3.70100E+01 0.00000E+00
 -1      3342 7.79406E+01 1.28998E+01 0.00000E+00
 -1      3343 9.72369E+01 3.18598E+01 0.00000E+00
 -1      3344 9.67500E+01 3.29544E+01 0.00000E+00
 -1      3345 9.84300E+01 3.16313E+01 0.00000E+00
 -1      3346 9.76846E+01 2.38260E+01 0.00000E+00
 -1      3347 9.81902E+01 2.49637E+01 0.00000E+00
 -1      3348 1.39407E+02 1.25250E+01 0.00000E+00
 -1      3349 2.57850E+01 1.05013E+01 0.00000E+00
 -1      3350 2.42850E+01 1.05013E+01 0.00000E+00
 -1      3351 2.65350E+01 1.18003E+01 0.00000E+00
 -1      3352 8.99606E+00 3.70363E+01 0.00000E+00
 -1      3353 9.02831E+00 3.82715E+01 0.00000E+00
 -1      3354 1.01012E+01 3.83715E+01 0.00000E+00
 -1      3355 1.02951E+01 3.62988E+01 0.00000E+00
 -1      3356 7.32412E+01 1.81097E+01 0.00000E+00
 -1      3357 7.39243E+01 1.70117E+01 0.00000E+00
 -1      3358 1.26488E+01 1.02017E+01 0.00000E+00
 -1      3359 1.20772E+01 1.14631E+01 0.00000E+00
 -1      3360 1.33763E+01 1.22006E+01 0.00000E+00
 -1      3361 1.41488E+01 1.02017E+01 0.00000E+00
 -1      3362 8.96481E+01 1.26129E+01 0.00000E+00
 -1      3363 9.08679E+01 1.32594E+01 0.00000E+00
 -1      3364 1.16910E+01 2.12875E+01 0.00000E+00
 -1      3365 1.16910E+01 2.27625E+01 0.00000E+00
 -1      3366 7.17816E+01 3.17578E+01 0.00000E+00
 -1      3367 7.14151E+01 3.04397E+01 0.00000E+00
 -1      3368 1.16910E+01 2.42375E+01 0.00000E+00
 -1      3369 1.16910E+01 2.57125E+01 0.00000E+00
 -1      3370 1.29900E+01 2.35000E+01 0.00000E+00
 -1      3371 9.39646E+01 1.65141E+01 0.00000E+00
 -1      3372 9.47067E+01 1.74197E+01 0.00000E+00
 -1      3373 1.29900E+01 1.46687E+01 0.00000E+00
 -1      3374 1.16910E+01 1.54063E+01 0.00000E+00
 -1      3375 1.16910E+01 1.68750E+01 0.00000E+00
 -1      3376 9.93935E+01 2.48120E+01 0.00000E+00
 -1      3377 9.87861E+01 2.57632E+01 0.00000E+00
 -1      3378 9.93820E+01 2.65627E+01 0.00000E+00
 -1      3379 1.37195E+02 3.57345E+01 0.00000E+00
 -1      3380 7.33323E+01 3.55232E+01 0.00000E+00
 -1      3381 7.67819E+01 1.36247E+01 0.00000E+00
 -1      3382 2.05350E+01 1.18003E+01 0.00000E+00
 -1      3383 1.97850E+01 1.05013E+01 0.00000E+00
 -1      3384 1.82850E+01 1.05013E+01 0.00000E+00
 -1      3385 1.16910E+01 1.83469E+01 0.00000E+00
 -1      3386 1.16910E+01 1.98156E+01 0.00000E+00
 -1      3387 1.29900E+01 2.05531E+01 0.00000E+00
 -1      3388 1.29900E+01 1.76094E+01 0.00000E+00
 -1      3389 9.18810E+01 1.31682E+01 0.00000E+00
 -1      3390 9.69010E+01 1.97302E+01 0.00000E+00
 -1      3391 9.75864E+01 2.03062E+01 0.00000E+00
 -1      3392 7.00551E+01 2.72772E+01 0.00000E+00
 -1      3393 7.02564E+01 2.39333E+01 0.00000E+00
 -1      3394 6.99011E+01 2.29571E+01 0.00000E+00
 -1      3395 6.96370E+01 2.48095E+01 0.00000E+00
 -1      3396 9.10517E+01 3.87656E+01 0.00000E+00
 -1      3397 8.97653E+01 3.91369E+01 0.00000E+00
 -1      3398 9.25517E+01 3.87656E+01 0.00000E+00
 -1      3399 7.21286E+01 1.81354E+01 0.00000E+00
 -1      3400 7.21444E+01 3.70500E+01 0.00000E+00
 -1      3401 9.50119E+01 3.63897E+01 0.00000E+00
 -1      3402 1.35455E+02 3.76302E+01 0.00000E+00
 -1      3403 8.43468E+01 1.05822E+01 0.00000E+00
 -1      3404 8.38127E+01 1.28291E+01 0.00000E+00
 -1      3405 7.18183E+01 3.26649E+01 0.00000E+00
 -1      3406 7.06474E+01 3.22805E+01 0.00000E+00
 -1      3407 7.18550E+01 3.35720E+01 0.00000E+00
 -1      3408 8.58468E+01 1.05822E+01 0.00000E+00
 -1      3409 1.37010E+02 2.35500E+01 0.00000E+00
 -1      3410 1.38309E+02 2.28125E+01 0.00000E+00
 -1      3411 1.38309E+02 2.13375E+01 0.00000E+00
 -1      3412 1.34953E+02 1.07594E+01 0.00000E+00
 -1      3413 1.34203E+02 1.20359E+01 0.00000E+00
 -1      3414 1.36120E+02 1.10401E+01 0.00000E+00
 -1      3415 7.55794E+01 1.30837E+01 0.00000E+00
 -1      3416 1.38239E+02 1.22443E+01 0.00000E+00
 -1      3417 1.37072E+02 1.19636E+01 0.00000E+00
 -1      3418 1.38440E+02 1.44443E+01 0.00000E+00
 -1      3419 1.38309E+02 1.98625E+01 0.00000E+00
 -1      3420 1.38309E+02 1.83875E+01 0.00000E+00
 -1      3421 1.37010E+02 2.06000E+01 0.00000E+00
 -1      3422 1.38375E+02 1.71472E+01 0.00000E+00
 -1      3423 1.38375E+02 1.56847E+01 0.00000E+00
 -1      3424 1.37207E+02 1.54040E+01 0.00000E+00
 -1      3425 1.37076E+02 1.78847E+01 0.00000E+00
 -1      3426 9.38630E+01 1.55023E+01 0.00000E+00
 -1      3427 9.48973E+01 1.54115E+01 0.00000E+00
 -1      3428 9.37614E+01 1.44905E+01 0.00000E+00
 -1      3429 8.82653E+01 3.91369E+01 0.00000E+00
 -1      3430 7.39181E+01 1.56931E+01 0.00000E+00
 -1      3431 1.69669E+01 1.03515E+01 0.00000E+00
 -1      3432 1.54669E+01 1.03515E+01 0.00000E+00
 -1      3433 1.50806E+01 1.13509E+01 0.00000E+00
 -1      3434 1.77169E+01 1.16505E+01 0.00000E+00
 -1      3435 8.51913E+01 1.29382E+01 0.00000E+00
 -1      3436 8.61031E+01 1.21336E+01 0.00000E+00
 -1      3437 9.67177E+01 3.39445E+01 0.00000E+00
 -1      3438 9.66855E+01 3.49347E+01 0.00000E+00
 -1      3439 9.79108E+01 3.37160E+01 0.00000E+00
 -1      3440 9.80337E+01 2.26958E+01 0.00000E+00
 -1      3441 2.35350E+01 1.18003E+01 0.00000E+00
 -1      3442 1.11741E+01 3.84716E+01 0.00000E+00
 -1      3443 7.10327E+01 2.06662E+01 0.00000E+00
 -1      3444 1.16910E+01 3.01219E+01 0.00000E+00
 -1      3445 1.16910E+01 3.15906E+01 0.00000E+00
 -1      3446 9.88457E+01 2.90253E+01 0.00000E+00
 -1      3447 8.45014E+01 3.94296E+01 0.00000E+00
 -1      3448 1.16910E+01 3.30594E+01 0.00000E+00
 -1      3449 1.16910E+01 3.45281E+01 0.00000E+00
 -1      3450 1.29900E+01 3.23250E+01 0.00000E+00
 -1      3451 7.03644E+01 3.00710E+01 0.00000E+00
 -1      3452 1.19241E+01 3.71726E+01 0.00000E+00
 -1      3453 8.60014E+01 3.94296E+01 0.00000E+00
 -1      3454 9.54328E+01 1.81222E+01 0.00000E+00
 -1      3455 9.61749E+01 1.90277E+01 0.00000E+00
 -1      3456 9.71771E+01 1.85308E+01 0.00000E+00
 -1      3457 9.57250E+01 1.71258E+01 0.00000E+00
 -1      3458 9.33810E+01 1.31682E+01 0.00000E+00
 -1      3459 9.65119E+01 3.63897E+01 0.00000E+00
 -1      3460 6.91461E+01 2.80626E+01 0.00000E+00
 -1      3461 6.90832E+01 2.65711E+01 0.00000E+00
 -1      3462 1.35271E+02 3.57206E+01 0.00000E+00
 -1      3463 1.74000E+01 3.57110E+01 0.00000E+00
 -1      3464 1.89000E+01 3.57110E+01 0.00000E+00
 -1      3465 2.04000E+01 3.57110E+01 0.00000E+00
 -1      3466 2.19000E+01 3.57110E+01 0.00000E+00
 -1      3467 1.96500E+01 3.44120E+01 0.00000E+00
 -1      3468 2.34000E+01 3.57110E+01 0.00000E+00
 -1      3469 2.49000E+01 3.57110E+01 0.00000E+00
 -1      3470 2.26500E+01 3.44120E+01 0.00000E+00
 -1      3471 2.64000E+01 3.57110E+01 0.00000E+00
 -1      3472 2.79000E+01 3.57110E+01 0.00000E+00
 -1      3473 2.56500E+01 3.44120E+01 0.00000E+00
 -1      3474 2.94000E+01 3.57110E+01 0.00000E+00
 -1      3475 3.09000E+01 3.57110E+01 0.00000E+00
 -1      3476 2.86500E+01 3.44120E+01 0.00000E+00
 -1      3477 3.24000E+01 3.57110E+01 0.00000E+00
 -1      3478 3.39000E+01 3.57110E+01 0.00000E+00
 -1      3479 3.16500E+01 3.44120E+01 0.00000E+00
 -1      3480 3.54000E+01 3.57110E+01 0.00000E+00
 -1      3481 3.69000E+01 3.57110E+01 0.00000E+00
 -1      3482 3.46500E+01 3.44120E+01 0.00000E+00
 -1      3483 3.84000E+01 3.57110E+01 0.00000E+00
 -1      3484 3.99000E+01 3.57110E+01 0.00000E+00
 -1      3485 3.76500E+01 3.44120E+01 0.00000E+00
 -1      3486 4.14000E+01 3.57110E+01 0.00000E+00
 -1      3487 4.29000E+01 3.57110E+01 0.00000E+00
 -1      3488 4.06500E+01 3.44120E+01 0.00000E+00
 -1      3489 4.44000E+01 3.57110E+01 0.00000E+00
 -1      3490 4.59000E+01 3.57110E+01 0.00000E+00
 -1      3491 4.36500E+01 3.44120E+01 0.00000E+00
 -1      3492 4.74000E+01 3.57110E+01 0.00000E+00
 -1      3493 4.89000E+01 3.57110E+01 0.00000E+00
 -1      3494 4.66500E+01 3.44120E+01 0.00000E+00
 -1      3495 5.04000E+01 3.57110E+01 0.00000E+00
 -1      3496 5.19000E+01 3.57110E+01 0.00000E+00
 -1      3497 4.96500E+01 3.44120E+01 0.00000E+00
 -1      3498 5.34000E+01 3.57110E+01 0.00000E+00
 -1      3499 5.49000E+01 3.57110E+01 0.00000E+00
 -1      3500 5.26500E+01 3.44120E+01 0.00000E+00
 -1      3501 5.64000E+01 3.57110E+01 0.00000E+00
 -1      3502 5.79000E+01 3.57110E+01 0.00000E+00
 -1      3503 5.56500E+01 3.44120E+01 0.00000E+00
 -1      3504 5.94000E+01 3.57110E+01 0.00000E+00
 -1      3505 6.09000E+01 3.57110E+01 0.00000E+00
 -1      3506 5.86500E+01 3.44120E+01 0.00000E+00
 -1      3507 6.24000E+01 3.57110E+01 0.00000E+00
 -1      3508 6.39000E+01 3.57110E+01 0.00000E+00
 -1      3509 6.16500E+01 3.44120E+01 0.00000E+00
 -1      3510 6.54000E+01 3.57110E+01 0.00000E+00
 -1      3511 6.69000E+01 3.57110E+01 0.00000E+00
 -1      3512 6.46500E+01 3.44120E+01 0.00000E+00
 -1      3513 6.91670E+01 3.50988E+01 0.00000E+00
 -1      3514 7.06670E+01 3.50988E+01 0.00000E+00
 -1      3515 7.08541E+01 1.81796E+01 0.00000E+00
 -1      3516 7.14378E+01 1.70634E+01 0.00000E+00
 -1      3517 4.82850E+01 1.30992E+01 0.00000E+00
 -1      3518 4.67850E+01 1.30992E+01 0.00000E+00
 -1      3519 9.77050E+01 3.61612E+01 0.00000E+00
 -1      3520 9.92050E+01 3.61612E+01 0.00000E+00
 -1      3521 1.01281E+02 3.63173E+01 0.00000E+00
 -1      3522 1.02781E+02 3.63173E+01 0.00000E+00
 -1      3523 1.04281E+02 3.63173E+01 0.00000E+00
 -1      3524 1.05781E+02 3.63173E+01 0.00000E+00
 -1      3525 1.03531E+02 3.50183E+01 0.00000E+00
 -1      3526 1.07281E+02 3.63173E+01 0.00000E+00
 -1      3527 1.08781E+02 3.63173E+01 0.00000E+00
 -1      3528 1.06531E+02 3.50183E+01 0.00000E+00
 -1      3529 1.10281E+02 3.63173E+01 0.00000E+00
 -1      3530 1.11781E+02 3.63173E+01 0.00000E+00
 -1      3531 1.09531E+02 3.50183E+01 0.00000E+00
 -1      3532 1.13281E+02 3.63173E+01 0.00000E+00
 -1      3533 1.14781E+02 3.63173E+01 0.00000E+00
 -1      3534 1.12531E+02 3.50183E+01 0.00000E+00
 -1      3535 1.16281E+02 3.63173E+01 0.00000E+00
 -1      3536 1.17781E+02 3.63173E+01 0.00000E+00
 -1      3537 1.15531E+02 3.50183E+01 0.00000E+00
 -1      3538 1.19281E+02 3.63173E+01 0.00000E+00
 -1      3539 1.20781E+02 3.63173E+01 0.00000E+00
 -1      3540 1.18531E+02 3.50183E+01 0.00000E+00
 -1      3541 1.22281E+02 3.63173E+01 0.00000E+00
 -1      3542 1.23781E+02 3.63173E+01 0.00000E+00
 -1      3543 1.21531E+02 3.50183E+01 0.00000E+00
 -1      3544 1.25281E+02 3.63173E+01 0.00000E+00
 -1      3545 1.26781E+02 3.63173E+01 0.00000E+00
 -1      3546 1.24531E+02 3.50183E+01 0.00000E+00
 -1      3547 1.28281E+02 3.63173E+01 0.00000E+00
 -1      3548 1.29781E+02 3.63173E+01 0.00000E+00
 -1      3549 1.27531E+02 3.50183E+01 0.00000E+00
 -1      3550 1.31281E+02 3.63173E+01 0.00000E+00
 -1      3551 1.32781E+02 3.63173E+01 0.00000E+00
 -1      3552 1.30531E+02 3.50183E+01 0.00000E+00
 -1      3553 4.52850E+01 1.30992E+01 0.00000E+00
 -1      3554 4.37850E+01 1.30992E+01 0.00000E+00
 -1      3555 4.60350E+01 1.43982E+01 0.00000E+00
 -1      3556 4.22850E+01 1.30992E+01 0.00000E+00
 -1      3557 4.07850E+01 1.30992E+01 0.00000E+00
 -1      3558 4.30350E+01 1.43982E+01 0.00000E+00
 -1      3559 5.12850E+01 1.30992E+01 0.00000E+00
 -1      3560 4.97850E+01 1.30992E+01 0.00000E+00
 -1      3561 4.90350E+01 1.43982E+01 0.00000E+00
 -1      3562 5.42850E+01 1.30992E+01 0.00000E+00
 -1      3563 5.27850E+01 1.30992E+01 0.00000E+00
 -1      3564 5.20350E+01 1.43982E+01 0.00000E+00
 -1      3565 5.72850E+01 1.30992E+01 0.00000E+00
 -1      3566 5.57850E+01 1.30992E+01 0.00000E+00
 -1      3567 5.50350E+01 1.43982E+01 0.00000E+00
 -1      3568 6.02850E+01 1.30992E+01 0.00000E+00
 -1      3569 5.87850E+01 1.30992E+01 0.00000E+00
 -1      3570 5.80350E+01 1.43982E+01 0.00000E+00
 -1      3571 6.32850E+01 1.30992E+01 0.00000E+00
 -1      3572 6.17850E+01 1.30992E+01 0.00000E+00
 -1      3573 6.10350E+01 1.43982E+01 0.00000E+00
 -1      3574 6.62850E+01 1.30992E+01 0.00000E+00
 -1      3575 6.47850E+01 1.30992E+01 0.00000E+00
 -1      3576 6.40350E+01 1.43982E+01 0.00000E+00
 -1      3577 6.92850E+01 1.30992E+01 0.00000E+00
 -1      3578 6.77850E+01 1.30992E+01 0.00000E+00
 -1      3579 6.70350E+01 1.43982E+01 0.00000E+00
 -1      3580 7.40794E+01 1.30837E+01 0.00000E+00
 -1      3581 9.96101E+01 3.15006E+01 0.00000E+00
 -1      3582 9.91232E+01 3.25952E+01 0.00000E+00
 -1      3583 8.90413E+01 1.20302E+01 0.00000E+00
 -1      3584 1.02285E+02 1.30542E+01 0.00000E+00
 -1      3585 1.00785E+02 1.30542E+01 0.00000E+00
 -1      3586 1.05285E+02 1.30542E+01 0.00000E+00
 -1      3587 1.03785E+02 1.30542E+01 0.00000E+00
 -1      3588 1.03035E+02 1.43532E+01 0.00000E+00
 -1      3589 1.08285E+02 1.30542E+01 0.00000E+00
 -1      3590 1.06785E+02 1.30542E+01 0.00000E+00
 -1      3591 1.06035E+02 1.43532E+01 0.00000E+00
 -1      3592 1.11285E+02 1.30542E+01 0.00000E+00
 -1      3593 1.09785E+02 1.30542E+01 0.00000E+00
 -1      3594 1.09035E+02 1.43532E+01 0.00000E+00
 -1      3595 1.14285E+02 1.30542E+01 0.00000E+00
 -1      3596 1.12785E+02 1.30542E+01 0.00000E+00
 -1      3597 1.12035E+02 1.43532E+01 0.00000E+00
 -1      3598 1.17285E+02 1.30542E+01 0.00000E+00
 -1      3599 1.15785E+02 1.30542E+01 0.00000E+00
 -1      3600 1.15035E+02 1.43532E+01 0.00000E+00
 -1      3601 1.20285E+02 1.30542E+01 0.00000E+00
 -1      3602 1.18785E+02 1.30542E+01 0.00000E+00
 -1      3603 1.18035E+02 1.43532E+01 0.00000E+00
 -1      3604 1.23285E+02 1.30542E+01 0.00000E+00
 -1      3605 1.21785E+02 1.30542E+01 0.00000E+00
 -1      3606 1.21035E+02 1.43532E+01 0.00000E+00
 -1      3607 1.26285E+02 1.30542E+01 0.00000E+00
 -1      3608 1.24785E+02 1.30542E+01 0.00000E+00
 -1      3609 1.24035E+02 1.43532E+01 0.00000E+00
 -1      3610 1.29285E+02 1.30542E+01 0.00000E+00
 -1      3611 1.27785E+02 1.30542E+01 0.00000E+00
 -1      3612 1.27035E+02 1.43532E+01 0.00000E+00
 -1      3613 1.32285E+02 1.30542E+01 0.00000E+00
 -1      3614 1.30785E+02 1.30542E+01 0.00000E+00
 -1      3615 1.30035E+02 1.43532E+01 0.00000E+00
 -1      3616 9.87280E+01 2.00600E+01 0.00000E+00
 -1      3617 9.84113E+01 2.11328E+01 0.00000E+00
 -1      3618 1.35711E+02 2.72000E+01 0.00000E+00
 -1      3619 1.35711E+02 2.57500E+01 0.00000E+00
 -1      3620 6.97339E+01 2.09960E+01 0.00000E+00
 -1      3621 7.02462E+01 1.95814E+01 0.00000E+00
 -1      3622 3.02850E+01 1.30992E+01 0.00000E+00
 -1      3623 2.87850E+01 1.30992E+01 0.00000E+00
 -1      3624 1.16910E+01 2.71844E+01 0.00000E+00
 -1      3625 1.16910E+01 2.86531E+01 0.00000E+00
 -1      3626 1.29900E+01 2.93875E+01 0.00000E+00
 -1      3627 2.42850E+01 1.30992E+01 0.00000E+00
 -1      3628 2.27850E+01 1.30992E+01 0.00000E+00
 -1      3629 7.18379E+01 3.54832E+01 0.00000E+00
 -1      3630 3.92850E+01 1.30992E+01 0.00000E+00
 -1      3631 3.77850E+01 1.30992E+01 0.00000E+00
 -1      3632 4.00350E+01 1.43982E+01 0.00000E+00
 -1      3633 7.21558E+01 1.57365E+01 0.00000E+00
 -1      3634 7.33615E+01 1.44106E+01 0.00000E+00
 -1      3635 7.23171E+01 1.31271E+01 0.00000E+00
 -1      3636 7.08812E+01 1.57808E+01 0.00000E+00
 -1      3637 2.72850E+01 1.30992E+01 0.00000E+00
 -1      3638 2.57850E+01 1.30992E+01 0.00000E+00
 -1      3639 2.80350E+01 1.43982E+01 0.00000E+00
 -1      3640 1.20210E+01 3.61362E+01 0.00000E+00
 -1      3641 9.92850E+01 1.30542E+01 0.00000E+00
 -1      3642 9.77850E+01 1.30542E+01 0.00000E+00
 -1      3643 1.00035E+02 1.43532E+01 0.00000E+00
 -1      3644 9.97504E+01 2.82253E+01 0.00000E+00
 -1      3645 9.98216E+01 2.97367E+01 0.00000E+00
 -1      3646 6.93980E+01 3.09283E+01 0.00000E+00
 -1      3647 6.91516E+01 2.96260E+01 0.00000E+00
 -1      3648 1.46944E+01 1.23503E+01 0.00000E+00
 -1      3649 1.43081E+01 1.33498E+01 0.00000E+00
 -1      3650 1.60125E+01 1.25001E+01 0.00000E+00
 -1      3651 8.70758E+01 3.95118E+01 0.00000E+00
 -1      3652 9.44154E+01 1.30775E+01 0.00000E+00
 -1      3653 9.91752E+01 2.24496E+01 0.00000E+00
 -1      3654 1.34521E+02 3.44216E+01 0.00000E+00
 -1      3655 1.33200E+01 3.54019E+01 0.00000E+00
 -1      3656 9.97711E+01 2.32491E+01 0.00000E+00
 -1      3657 1.00367E+02 2.40485E+01 0.00000E+00
 -1      3658 1.00149E+02 2.16861E+01 0.00000E+00
 -1      3659 6.81797E+01 2.89199E+01 0.00000E+00
 -1      3660 2.12850E+01 1.30992E+01 0.00000E+00
 -1      3661 1.97850E+01 1.30992E+01 0.00000E+00
 -1      3662 2.20350E+01 1.43982E+01 0.00000E+00
 -1      3663 6.95553E+01 1.85094E+01 0.00000E+00
 -1      3664 6.87279E+01 2.55949E+01 0.00000E+00
 -1      3665 6.83726E+01 2.46188E+01 0.00000E+00
 -1      3666 6.78188E+01 2.63803E+01 0.00000E+00
 -1      3667 6.84170E+01 3.37998E+01 0.00000E+00
 -1      3668 2.50350E+01 1.43982E+01 0.00000E+00
 -1      3669 7.08171E+01 1.31271E+01 0.00000E+00
 -1      3670 9.99550E+01 3.48622E+01 0.00000E+00
 -1      3671 6.84951E+01 2.27485E+01 0.00000E+00
 -1      3672 6.91145E+01 2.18723E+01 0.00000E+00
 -1      3673 6.83280E+01 2.07874E+01 0.00000E+00
 -1      3674 3.32850E+01 1.30992E+01 0.00000E+00
 -1      3675 3.17850E+01 1.30992E+01 0.00000E+00
 -1      3676 3.10350E+01 1.43982E+01 0.00000E+00
 -1      3677 7.00671E+01 1.44261E+01 0.00000E+00
 -1      3678 1.00515E+02 3.07007E+01 0.00000E+00
 -1      3679 1.01208E+02 3.16646E+01 0.00000E+00
 -1      3680 1.01420E+02 2.99007E+01 0.00000E+00
 -1      3681 1.43081E+01 1.48185E+01 0.00000E+00
 -1      3682 1.42890E+01 2.27625E+01 0.00000E+00
 -1      3683 1.42890E+01 2.42375E+01 0.00000E+00
 -1      3684 1.35711E+02 2.42750E+01 0.00000E+00
 -1      3685 1.35711E+02 2.28000E+01 0.00000E+00
 -1      3686 1.34412E+02 2.50000E+01 0.00000E+00
 -1      3687 1.32973E+02 3.34567E+01 0.00000E+00
 -1      3688 1.35463E+02 3.28601E+01 0.00000E+00
 -1      3689 1.33453E+02 1.33349E+01 0.00000E+00
 -1      3690 1.32703E+02 1.46339E+01 0.00000E+00
 -1      3691 1.34620E+02 1.36156E+01 0.00000E+00
 -1      3692 9.90412E+01 1.89226E+01 0.00000E+00
 -1      3693 9.98660E+01 1.97492E+01 0.00000E+00
 -1      3694 9.90909E+01 3.35854E+01 0.00000E+00
 -1      3695 1.35711E+02 2.13250E+01 0.00000E+00
 -1      3696 1.35711E+02 1.98500E+01 0.00000E+00
 -1      3697 1.34412E+02 2.20500E+01 0.00000E+00
 -1      3698 1.35777E+02 1.86097E+01 0.00000E+00
 -1      3699 1.35842E+02 1.73693E+01 0.00000E+00
 -1      3700 1.34478E+02 1.93347E+01 0.00000E+00
 -1      3701 1.35463E+02 3.13851E+01 0.00000E+00
 -1      3702 1.44000E+01 3.57110E+01 0.00000E+00
 -1      3703 1.59000E+01 3.57110E+01 0.00000E+00
 -1      3704 1.42890E+01 1.98188E+01 0.00000E+00
 -1      3705 1.42890E+01 2.12906E+01 0.00000E+00
 -1      3706 1.55880E+01 2.20281E+01 0.00000E+00
 -1      3707 1.42890E+01 2.86531E+01 0.00000E+00
 -1      3708 1.42890E+01 3.01219E+01 0.00000E+00
 -1      3709 3.62850E+01 1.30992E+01 0.00000E+00
 -1      3710 3.47850E+01 1.30992E+01 0.00000E+00
 -1      3711 3.70350E+01 1.43982E+01 0.00000E+00
 -1      3712 9.60333E+01 1.47864E+01 0.00000E+00
 -1      3713 9.61349E+01 1.57982E+01 0.00000E+00
 -1      3714 1.00965E+02 2.63229E+01 0.00000E+00
 -1      3715 1.00358E+02 2.72741E+01 0.00000E+00
 -1      3716 1.01334E+02 2.79856E+01 0.00000E+00
 -1      3717 1.29900E+01 2.64469E+01 0.00000E+00
 -1      3718 9.59154E+01 1.30775E+01 0.00000E+00
 -1      3719 1.40700E+01 3.41029E+01 0.00000E+00
 -1      3720 9.75891E+01 1.75176E+01 0.00000E+00
 -1      3721 9.83152E+01 1.82201E+01 0.00000E+00
 -1      3722 9.94533E+01 1.79093E+01 0.00000E+00
 -1      3723 1.66500E+01 3.44120E+01 0.00000E+00
 -1      3724 9.68609E+01 1.65007E+01 0.00000E+00
 -1      3725 1.35587E+02 3.00300E+01 0.00000E+00
 -1      3726 1.35587E+02 2.85550E+01 0.00000E+00
 -1      3727 1.34288E+02 2.78300E+01 0.00000E+00
 -1      3728 1.34039E+02 3.05401E+01 0.00000E+00
 -1      3729 1.89000E+01 3.31130E+01 0.00000E+00
 -1      3730 2.04000E+01 3.31130E+01 0.00000E+00
 -1      3731 1.36322E+02 1.32401E+01 0.00000E+00
 -1      3732 1.42890E+01 1.68750E+01 0.00000E+00
 -1      3733 1.42890E+01 1.83469E+01 0.00000E+00
 -1      3734 1.55880E+01 1.90844E+01 0.00000E+00
 -1      3735 9.79990E+01 1.61900E+01 0.00000E+00
 -1      3736 2.19000E+01 3.31130E+01 0.00000E+00
 -1      3737 2.34000E+01 3.31130E+01 0.00000E+00
 -1      3738 2.11500E+01 3.18140E+01 0.00000E+00
 -1      3739 2.49000E+01 3.31130E+01 0.00000E+00
 -1      3740 2.64000E+01 3.31130E+01 0.00000E+00
 -1      3741 2.41500E+01 3.18140E+01 0.00000E+00
 -1      3742 2.79000E+01 3.31130E+01 0.00000E+00
 -1      3743 2.94000E+01 3.31130E+01 0.00000E+00
 -1      3744 2.71500E+01 3.18140E+01 0.00000E+00
 -1      3745 3.09000E+01 3.31130E+01 0.00000E+00
 -1      3746 3.24000E+01 3.31130E+01 0.00000E+00
 -1      3747 3.01500E+01 3.18140E+01 0.00000E+00
 -1      3748 3.39000E+01 3.31130E+01 0.00000E+00
 -1      3749 3.54000E+01 3.31130E+01 0.00000E+00
 -1      3750 3.31500E+01 3.18140E+01 0.00000E+00
 -1      3751 3.69000E+01 3.31130E+01 0.00000E+00
 -1      3752 3.84000E+01 3.31130E+01 0.00000E+00
 -1      3753 3.61500E+01 3.18140E+01 0.00000E+00
 -1      3754 3.99000E+01 3.31130E+01 0.00000E+00
 -1      3755 4.14000E+01 3.31130E+01 0.00000E+00
 -1      3756 3.91500E+01 3.18140E+01 0.00000E+00
 -1      3757 4.29000E+01 3.31130E+01 0.00000E+00
 -1      3758 4.44000E+01 3.31130E+01 0.00000E+00
 -1      3759 4.21500E+01 3.18140E+01 0.00000E+00
 -1      3760 4.59000E+01 3.31130E+01 0.00000E+00
 -1      3761 4.74000E+01 3.31130E+01 0.00000E+00
 -1      3762 4.51500E+01 3.18140E+01 0.00000E+00
 -1      3763 4.89000E+01 3.31130E+01 0.00000E+00
 -1      3764 5.04000E+01 3.31130E+01 0.00000E+00
 -1      3765 4.81500E+01 3.18140E+01 0.00000E+00
 -1      3766 5.19000E+01 3.31130E+01 0.00000E+00
 -1      3767 5.34000E+01 3.31130E+01 0.00000E+00
 -1      3768 5.11500E+01 3.18140E+01 0.00000E+00
 -1      3769 5.49000E+01 3.31130E+01 0.00000E+00
 -1      3770 5.64000E+01 3.31130E+01 0.00000E+00
 -1      3771 5.41500E+01 3.18140E+01 0.00000E+00
 -1      3772 5.79000E+01 3.31130E+01 0.00000E+00
 -1      3773 5.94000E+01 3.31130E+01 0.00000E+00
 -1      3774 5.71500E+01 3.18140E+01 0.00000E+00
 -1      3775 6.09000E+01 3.31130E+01 0.00000E+00
 -1      3776 6.24000E+01 3.31130E+01 0.00000E+00
 -1      3777 6.01500E+01 3.18140E+01 0.00000E+00
 -1      3778 6.39000E+01 3.31130E+01 0.00000E+00
 -1      3779 6.54000E+01 3.31130E+01 0.00000E+00
 -1      3780 6.31500E+01 3.18140E+01 0.00000E+00
 -1      3781 6.68902E+01 3.30028E+01 0.00000E+00
 -1      3782 6.91572E+01 3.23906E+01 0.00000E+00
 -1      3783 6.91205E+01 3.14835E+01 0.00000E+00
 -1      3784 6.61402E+01 3.17038E+01 0.00000E+00
 -1      3785 4.97850E+01 1.56973E+01 0.00000E+00
 -1      3786 4.82850E+01 1.56973E+01 0.00000E+00
 -1      3787 1.05781E+02 3.37193E+01 0.00000E+00
 -1      3788 1.07281E+02 3.37193E+01 0.00000E+00
 -1      3789 1.08781E+02 3.37193E+01 0.00000E+00
 -1      3790 1.10281E+02 3.37193E+01 0.00000E+00
 -1      3791 1.08031E+02 3.24203E+01 0.00000E+00
 -1      3792 1.11781E+02 3.37193E+01 0.00000E+00
 -1      3793 1.13281E+02 3.37193E+01 0.00000E+00
 -1      3794 1.11031E+02 3.24203E+01 0.00000E+00
 -1      3795 1.14781E+02 3.37193E+01 0.00000E+00
 -1      3796 1.16281E+02 3.37193E+01 0.00000E+00
 -1      3797 1.14031E+02 3.24203E+01 0.00000E+00
 -1      3798 1.17781E+02 3.37193E+01 0.00000E+00
 -1      3799 1.19281E+02 3.37193E+01 0.00000E+00
 -1      3800 1.17031E+02 3.24203E+01 0.00000E+00
 -1      3801 1.20781E+02 3.37193E+01 0.00000E+00
 -1      3802 1.22281E+02 3.37193E+01 0.00000E+00
 -1      3803 1.20031E+02 3.24203E+01 0.00000E+00
 -1      3804 1.23781E+02 3.37193E+01 0.00000E+00
 -1      3805 1.25281E+02 3.37193E+01 0.00000E+00
 -1      3806 1.23031E+02 3.24203E+01 0.00000E+00
 -1      3807 1.26781E+02 3.37193E+01 0.00000E+00
 -1      3808 1.28281E+02 3.37193E+01 0.00000E+00
 -1      3809 1.26031E+02 3.24203E+01 0.00000E+00
 -1      3810 1.29781E+02 3.37193E+01 0.00000E+00
 -1      3811 1.31281E+02 3.37193E+01 0.00000E+00
 -1      3812 1.29031E+02 3.24203E+01 0.00000E+00
 -1      3813 4.67850E+01 1.56973E+01 0.00000E+00
 -1      3814 4.52850E+01 1.56973E+01 0.00000E+00
 -1      3815 4.75350E+01 1.69963E+01 0.00000E+00
 -1      3816 4.37850E+01 1.56973E+01 0.00000E+00
 -1      3817 4.22850E+01 1.56973E+01 0.00000E+00
 -1      3818 4.45350E+01 1.69963E+01 0.00000E+00
 -1      3819 2.57850E+01 1.56973E+01 0.00000E+00
 -1      3820 2.42850E+01 1.56973E+01 0.00000E+00
 -1      3821 5.57850E+01 1.56973E+01 0.00000E+00
 -1      3822 5.42850E+01 1.56973E+01 0.00000E+00
 -1      3823 5.87850E+01 1.56973E+01 0.00000E+00
 -1      3824 5.72850E+01 1.56973E+01 0.00000E+00
 -1      3825 5.65350E+01 1.69963E+01 0.00000E+00
 -1      3826 6.17850E+01 1.56973E+01 0.00000E+00
 -1      3827 6.02850E+01 1.56973E+01 0.00000E+00
 -1      3828 5.95350E+01 1.69963E+01 0.00000E+00
 -1      3829 6.47850E+01 1.56973E+01 0.00000E+00
 -1      3830 6.32850E+01 1.56973E+01 0.00000E+00
 -1      3831 6.25350E+01 1.69963E+01 0.00000E+00
 -1      3832 6.77850E+01 1.56973E+01 0.00000E+00
 -1      3833 6.62850E+01 1.56973E+01 0.00000E+00
 -1      3834 6.55350E+01 1.69963E+01 0.00000E+00
 -1      3835 2.87850E+01 1.56973E+01 0.00000E+00
 -1      3836 2.72850E+01 1.56973E+01 0.00000E+00
 -1      3837 2.65350E+01 1.69963E+01 0.00000E+00
 -1      3838 6.93492E+01 1.57529E+01 0.00000E+00
 -1      3839 1.01167E+02 3.37414E+01 0.00000E+00
 -1      3840 1.55778E+01 3.08855E+01 0.00000E+00
 -1      3841 1.42788E+01 3.16199E+01 0.00000E+00
 -1      3842 1.32223E+02 3.21577E+01 0.00000E+00
 -1      3843 1.09785E+02 1.56522E+01 0.00000E+00
 -1      3844 1.08285E+02 1.56522E+01 0.00000E+00
 -1      3845 1.03785E+02 1.56522E+01 0.00000E+00
 -1      3846 1.02285E+02 1.56522E+01 0.00000E+00
 -1      3847 1.12785E+02 1.56522E+01 0.00000E+00
 -1      3848 1.11285E+02 1.56522E+01 0.00000E+00
 -1      3849 1.10535E+02 1.69512E+01 0.00000E+00
 -1      3850 1.15785E+02 1.56522E+01 0.00000E+00
 -1      3851 1.14285E+02 1.56522E+01 0.00000E+00
 -1      3852 1.13535E+02 1.69512E+01 0.00000E+00
 -1      3853 1.18785E+02 1.56522E+01 0.00000E+00
 -1      3854 1.17285E+02 1.56522E+01 0.00000E+00
 -1      3855 1.16535E+02 1.69512E+01 0.00000E+00
 -1      3856 1.21785E+02 1.56522E+01 0.00000E+00
 -1      3857 1.20285E+02 1.56522E+01 0.00000E+00
 -1      3858 1.19535E+02 1.69512E+01 0.00000E+00
 -1      3859 1.24785E+02 1.56522E+01 0.00000E+00
 -1      3860 1.23285E+02 1.56522E+01 0.00000E+00
 -1      3861 1.22535E+02 1.69512E+01 0.00000E+00
 -1      3862 1.27785E+02 1.56522E+01 0.00000E+00
 -1      3863 1.26285E+02 1.56522E+01 0.00000E+00
 -1      3864 1.25535E+02 1.69512E+01 0.00000E+00
 -1      3865 1.30785E+02 1.56522E+01 0.00000E+00
 -1      3866 1.29285E+02 1.56522E+01 0.00000E+00
 -1      3867 1.28535E+02 1.69512E+01 0.00000E+00
 -1      3868 1.53588E+01 3.33977E+01 0.00000E+00
 -1      3869 1.68588E+01 3.33977E+01 0.00000E+00
 -1      3870 1.42788E+01 3.30886E+01 0.00000E+00
 -1      3871 1.35572E+02 1.45391E+01 0.00000E+00
 -1      3872 6.85992E+01 1.70519E+01 0.00000E+00
 -1      3873 1.68819E+01 3.01454E+01 0.00000E+00
 -1      3874 1.68716E+01 3.16433E+01 0.00000E+00
 -1      3875 6.70735E+01 2.97055E+01 0.00000E+00
 -1      3876 6.70680E+01 2.81421E+01 0.00000E+00
 -1      3877 1.01092E+02 1.94750E+01 0.00000E+00
 -1      3878 1.00779E+02 2.06124E+01 0.00000E+00
 -1      3879 1.85578E+01 1.28746E+01 0.00000E+00
 -1      3880 1.72397E+01 1.27248E+01 0.00000E+00
 -1      3881 1.68534E+01 1.37242E+01 0.00000E+00
 -1      3882 1.93078E+01 1.41736E+01 0.00000E+00
 -1      3883 1.06785E+02 1.56522E+01 0.00000E+00
 -1      3884 1.05285E+02 1.56522E+01 0.00000E+00
 -1      3885 1.07535E+02 1.69512E+01 0.00000E+00
 -1      3886 1.42890E+01 2.71812E+01 0.00000E+00
 -1      3887 1.55880E+01 2.79156E+01 0.00000E+00
 -1      3888 1.42890E+01 2.57094E+01 0.00000E+00
 -1      3889 6.79912E+01 1.84537E+01 0.00000E+00
 -1      3890 4.07850E+01 1.56973E+01 0.00000E+00
 -1      3891 3.92850E+01 1.56973E+01 0.00000E+00
 -1      3892 4.15350E+01 1.69963E+01 0.00000E+00
 -1      3893 1.01938E+02 3.27030E+01 0.00000E+00
 -1      3894 1.02802E+02 3.39799E+01 0.00000E+00
 -1      3895 1.04302E+02 3.39799E+01 0.00000E+00
 -1      3896 1.02842E+02 3.19030E+01 0.00000E+00
 -1      3897 1.55880E+01 2.49719E+01 0.00000E+00
 -1      3898 1.56071E+01 1.55560E+01 0.00000E+00
 -1      3899 9.79029E+01 1.47632E+01 0.00000E+00
 -1      3900 9.71529E+01 1.34642E+01 0.00000E+00
 -1      3901 5.27850E+01 1.56973E+01 0.00000E+00
 -1      3902 5.12850E+01 1.56973E+01 0.00000E+00
 -1      3903 5.35350E+01 1.69963E+01 0.00000E+00
 -1      3904 2.27850E+01 1.56973E+01 0.00000E+00
 -1      3905 2.12850E+01 1.56973E+01 0.00000E+00
 -1      3906 2.35350E+01 1.69963E+01 0.00000E+00
 -1      3907 6.67127E+01 2.71659E+01 0.00000E+00
 -1      3908 6.63574E+01 2.61898E+01 0.00000E+00
 -1      3909 6.56066E+01 2.79516E+01 0.00000E+00
 -1      3910 1.01720E+02 2.31970E+01 0.00000E+00
 -1      3911 1.01343E+02 2.47600E+01 0.00000E+00
 -1      3912 1.02319E+02 2.54714E+01 0.00000E+00
 -1      3913 1.01374E+02 2.14118E+01 0.00000E+00
 -1      3914 1.05052E+02 3.26809E+01 0.00000E+00
 -1      3915 6.75860E+01 2.35339E+01 0.00000E+00
 -1      3916 6.67995E+01 2.24491E+01 0.00000E+00
 -1      3917 6.66770E+01 2.43193E+01 0.00000E+00
 -1      3918 1.35506E+02 1.57795E+01 0.00000E+00
 -1      3919 1.68819E+01 2.72016E+01 0.00000E+00
 -1      3920 1.68819E+01 2.86735E+01 0.00000E+00
 -1      3921 1.81757E+01 2.94313E+01 0.00000E+00
 -1      3922 5.05350E+01 1.69963E+01 0.00000E+00
 -1      3923 3.40350E+01 1.43982E+01 0.00000E+00
 -1      3924 3.85350E+01 1.69963E+01 0.00000E+00
 -1      3925 3.77850E+01 1.56973E+01 0.00000E+00
 -1      3926 3.62850E+01 1.56973E+01 0.00000E+00
 -1      3927 3.02850E+01 1.56973E+01 0.00000E+00
 -1      3928 2.95350E+01 1.69963E+01 0.00000E+00
 -1      3929 3.17850E+01 1.56973E+01 0.00000E+00
 -1      3930 1.02027E+02 2.89495E+01 0.00000E+00
 -1      3931 1.02720E+02 2.99134E+01 0.00000E+00
 -1      3932 1.02634E+02 2.79983E+01 0.00000E+00
 -1      3933 1.04535E+02 1.69512E+01 0.00000E+00
 -1      3934 1.33113E+02 2.57375E+01 0.00000E+00
 -1      3935 1.33113E+02 2.42625E+01 0.00000E+00
 -1      3936 1.30656E+02 3.10652E+01 0.00000E+00
 -1      3937 1.32347E+02 3.08027E+01 0.00000E+00
 -1      3938 1.32472E+02 2.94476E+01 0.00000E+00
 -1      3939 1.34207E+02 1.65044E+01 0.00000E+00
 -1      3940 1.00881E+02 1.70790E+01 0.00000E+00
 -1      3941 1.00131E+02 1.57800E+01 0.00000E+00
 -1      3942 1.81629E+01 3.26576E+01 0.00000E+00
 -1      3943 1.33080E+02 1.62187E+01 0.00000E+00
 -1      3944 1.31912E+02 1.59380E+01 0.00000E+00
 -1      3945 1.31162E+02 1.72370E+01 0.00000E+00
 -1      3946 1.33416E+02 1.78085E+01 0.00000E+00
 -1      3947 1.33113E+02 2.27875E+01 0.00000E+00
 -1      3948 1.33113E+02 2.13125E+01 0.00000E+00
 -1      3949 1.31814E+02 2.35250E+01 0.00000E+00
 -1      3950 1.33232E+02 2.01807E+01 0.00000E+00
 -1      3951 1.33297E+02 1.89403E+01 0.00000E+00
 -1      3952 1.32170E+02 1.86546E+01 0.00000E+00
 -1      3953 1.31933E+02 2.09182E+01 0.00000E+00
 -1      3954 1.68870E+01 2.12922E+01 0.00000E+00
 -1      3955 1.68870E+01 2.27641E+01 0.00000E+00
 -1      3956 1.68343E+01 1.57807E+01 0.00000E+00
 -1      3957 6.79078E+01 3.10385E+01 0.00000E+00
 -1      3958 6.65187E+01 3.08159E+01 0.00000E+00
 -1      3959 6.67961E+01 3.02607E+01 0.00000E+00
 -1      3960 6.56844E+01 2.94829E+01 0.00000E+00
 -1      3961 1.68870E+01 2.42359E+01 0.00000E+00
 -1      3962 1.68870E+01 2.57078E+01 0.00000E+00
 -1      3963 1.81860E+01 2.35000E+01 0.00000E+00
 -1      3964 1.32730E+02 2.82701E+01 0.00000E+00
 -1      3965 1.32854E+02 2.69150E+01 0.00000E+00
 -1      3966 1.31555E+02 2.61775E+01 0.00000E+00
 -1      3967 1.31038E+02 2.85326E+01 0.00000E+00
 -1      3968 6.74096E+01 1.96206E+01 0.00000E+00
 -1      3969 6.64534E+01 1.81631E+01 0.00000E+00
 -1      3970 6.49534E+01 1.81631E+01 0.00000E+00
 -1      3971 6.67902E+01 2.04968E+01 0.00000E+00
 -1      3972 9.86311E+01 1.57800E+01 0.00000E+00
 -1      3973 6.50285E+01 3.09261E+01 0.00000E+00
 -1      3974 1.07281E+02 3.11213E+01 0.00000E+00
 -1      3975 1.08781E+02 3.11213E+01 0.00000E+00
 -1      3976 2.34000E+01 3.05150E+01 0.00000E+00
 -1      3977 2.49000E+01 3.05150E+01 0.00000E+00
 -1      3978 2.64000E+01 3.05150E+01 0.00000E+00
 -1      3979 2.79000E+01 3.05150E+01 0.00000E+00
 -1      3980 2.56500E+01 2.92160E+01 0.00000E+00
 -1      3981 2.94000E+01 3.05150E+01 0.00000E+00
 -1      3982 3.09000E+01 3.05150E+01 0.00000E+00
 -1      3983 2.86500E+01 2.92160E+01 0.00000E+00
 -1      3984 3.24000E+01 3.05150E+01 0.00000E+00
 -1      3985 3.39000E+01 3.05150E+01 0.00000E+00
 -1      3986 3.16500E+01 2.92160E+01 0.00000E+00
 -1      3987 3.54000E+01 3.05150E+01 0.00000E+00
 -1      3988 3.69000E+01 3.05150E+01 0.00000E+00
 -1      3989 3.46500E+01 2.92160E+01 0.00000E+00
 -1      3990 3.84000E+01 3.05150E+01 0.00000E+00
 -1      3991 3.99000E+01 3.05150E+01 0.00000E+00
 -1      3992 3.76500E+01 2.92160E+01 0.00000E+00
 -1      3993 4.14000E+01 3.05150E+01 0.00000E+00
 -1      3994 4.29000E+01 3.05150E+01 0.00000E+00
 -1      3995 4.06500E+01 2.92160E+01 0.00000E+00
 -1      3996 4.44000E+01 3.05150E+01 0.00000E+00
 -1      3997 4.59000E+01 3.05150E+01 0.00000E+00
 -1      3998 4.36500E+01 2.92160E+01 0.00000E+00
 -1      3999 4.74000E+01 3.05150E+01 0.00000E+00
 -1      4000 4.89000E+01 3.05150E+01 0.00000E+00
 -1      4001 4.66500E+01 2.92160E+01 0.00000E+00
 -1      4002 5.04000E+01 3.05150E+01 0.00000E+00
 -1      4003 5.19000E+01 3.05150E+01 0.00000E+00
 -1      4004 4.96500E+01 2.92160E+01 0.00000E+00
 -1      4005 5.34000E+01 3.05150E+01 0.00000E+00
 -1      4006 5.49000E+01 3.05150E+01 0.00000E+00
 -1      4007 5.26500E+01 2.92160E+01 0.00000E+00
 -1      4008 5.64000E+01 3.05150E+01 0.00000E+00
 -1      4009 5.79000E+01 3.05150E+01 0.00000E+00
 -1      4010 5.56500E+01 2.92160E+01 0.00000E+00
 -1      4011 5.94000E+01 3.05150E+01 0.00000E+00
 -1      4012 6.09000E+01 3.05150E+01 0.00000E+00
 -1      4013 5.86500E+01 2.92160E+01 0.00000E+00
 -1      4014 6.22143E+01 3.07205E+01 0.00000E+00
 -1      4015 6.37143E+01 3.07205E+01 0.00000E+00
 -1      4016 6.40928E+01 2.98326E+01 0.00000E+00
 -1      4017 6.14643E+01 2.94215E+01 0.00000E+00
 -1      4018 1.10281E+02 3.11213E+01 0.00000E+00
 -1      4019 1.11781E+02 3.11213E+01 0.00000E+00
 -1      4020 1.09531E+02 2.98223E+01 0.00000E+00
 -1      4021 1.13281E+02 3.11213E+01 0.00000E+00
 -1      4022 1.14781E+02 3.11213E+01 0.00000E+00
 -1      4023 1.12531E+02 2.98223E+01 0.00000E+00
 -1      4024 1.16281E+02 3.11213E+01 0.00000E+00
 -1      4025 1.17781E+02 3.11213E+01 0.00000E+00
 -1      4026 1.15531E+02 2.98223E+01 0.00000E+00
 -1      4027 1.19281E+02 3.11213E+01 0.00000E+00
 -1      4028 1.20781E+02 3.11213E+01 0.00000E+00
 -1      4029 1.18531E+02 2.98223E+01 0.00000E+00
 -1      4030 1.22281E+02 3.11213E+01 0.00000E+00
 -1      4031 1.23781E+02 3.11213E+01 0.00000E+00
 -1      4032 1.21531E+02 2.98223E+01 0.00000E+00
 -1      4033 1.25281E+02 3.11213E+01 0.00000E+00
 -1      4034 1.26781E+02 3.11213E+01 0.00000E+00
 -1      4035 1.24531E+02 2.98223E+01 0.00000E+00
 -1      4036 1.27968E+02 3.10933E+01 0.00000E+00
 -1      4037 1.29468E+02 3.10933E+01 0.00000E+00
 -1      4038 1.29593E+02 2.97382E+01 0.00000E+00
 -1      4039 1.27218E+02 2.97943E+01 0.00000E+00
 -1      4040 4.82850E+01 1.82952E+01 0.00000E+00
 -1      4041 4.67850E+01 1.82952E+01 0.00000E+00
 -1      4042 4.52850E+01 1.82952E+01 0.00000E+00
 -1      4043 4.37850E+01 1.82952E+01 0.00000E+00
 -1      4044 4.60350E+01 1.95942E+01 0.00000E+00
 -1      4045 5.12850E+01 1.82952E+01 0.00000E+00
 -1      4046 4.97850E+01 1.82952E+01 0.00000E+00
 -1      4047 4.90350E+01 1.95942E+01 0.00000E+00
 -1      4048 5.72850E+01 1.82952E+01 0.00000E+00
 -1      4049 5.57850E+01 1.82952E+01 0.00000E+00
 -1      4050 2.72850E+01 1.82952E+01 0.00000E+00
 -1      4051 2.57850E+01 1.82952E+01 0.00000E+00
 -1      4052 1.17285E+02 1.82502E+01 0.00000E+00
 -1      4053 1.15785E+02 1.82502E+01 0.00000E+00
 -1      4054 2.00578E+01 1.54726E+01 0.00000E+00
 -1      4055 1.88306E+01 1.52479E+01 0.00000E+00
 -1      4056 2.08078E+01 1.67716E+01 0.00000E+00
 -1      4057 1.14285E+02 1.82502E+01 0.00000E+00
 -1      4058 1.12785E+02 1.82502E+01 0.00000E+00
 -1      4059 1.15035E+02 1.95492E+01 0.00000E+00
 -1      4060 1.89129E+01 3.13586E+01 0.00000E+00
 -1      4061 1.11285E+02 1.82502E+01 0.00000E+00
 -1      4062 1.09785E+02 1.82502E+01 0.00000E+00
 -1      4063 1.12035E+02 1.95492E+01 0.00000E+00
 -1      4064 1.20285E+02 1.82502E+01 0.00000E+00
 -1      4065 1.18785E+02 1.82502E+01 0.00000E+00
 -1      4066 1.18035E+02 1.95492E+01 0.00000E+00
 -1      4067 1.23285E+02 1.82502E+01 0.00000E+00
 -1      4068 1.21785E+02 1.82502E+01 0.00000E+00
 -1      4069 1.21035E+02 1.95492E+01 0.00000E+00
 -1      4070 1.26285E+02 1.82502E+01 0.00000E+00
 -1      4071 1.24785E+02 1.82502E+01 0.00000E+00
 -1      4072 1.24035E+02 1.95492E+01 0.00000E+00
 -1      4073 1.29285E+02 1.82502E+01 0.00000E+00
 -1      4074 1.27785E+02 1.82502E+01 0.00000E+00
 -1      4075 1.27035E+02 1.95492E+01 0.00000E+00
 -1      4076 1.68870E+01 1.98203E+01 0.00000E+00
 -1      4077 1.81860E+01 2.05562E+01 0.00000E+00
 -1      4078 1.68870E+01 1.83484E+01 0.00000E+00
 -1      4079 1.30515E+02 2.42625E+01 0.00000E+00
 -1      4080 1.30515E+02 2.27875E+01 0.00000E+00
 -1      4081 1.01398E+02 1.82378E+01 0.00000E+00
 -1      4082 1.02310E+02 1.91009E+01 0.00000E+00
 -1      4083 1.04322E+02 3.16425E+01 0.00000E+00
 -1      4084 1.05802E+02 3.13819E+01 0.00000E+00
 -1      4085 1.06552E+02 3.00829E+01 0.00000E+00
 -1      4086 1.03592E+02 3.06040E+01 0.00000E+00
 -1      4087 1.02980E+02 2.10496E+01 0.00000E+00
 -1      4088 1.02350E+02 2.21233E+01 0.00000E+00
 -1      4089 1.03326E+02 2.28347E+01 0.00000E+00
 -1      4090 4.22850E+01 1.82952E+01 0.00000E+00
 -1      4091 4.07850E+01 1.82952E+01 0.00000E+00
 -1      4092 4.30350E+01 1.95942E+01 0.00000E+00
 -1      4093 1.08285E+02 1.82502E+01 0.00000E+00
 -1      4094 1.06785E+02 1.82502E+01 0.00000E+00
 -1      4095 1.09035E+02 1.95492E+01 0.00000E+00
 -1      4096 6.47110E+01 2.91697E+01 0.00000E+00
 -1      4097 6.49884E+01 2.86145E+01 0.00000E+00
 -1      4098 6.46331E+01 2.76383E+01 0.00000E+00
 -1      4099 6.33967E+01 2.89642E+01 0.00000E+00
 -1      4100 5.42850E+01 1.82952E+01 0.00000E+00
 -1      4101 5.27850E+01 1.82952E+01 0.00000E+00
 -1      4102 5.50350E+01 1.95942E+01 0.00000E+00
 -1      4103 3.47850E+01 1.56973E+01 0.00000E+00
 -1      4104 3.32850E+01 1.56973E+01 0.00000E+00
 -1      4105 3.55350E+01 1.69963E+01 0.00000E+00
 -1      4106 6.32850E+01 1.82952E+01 0.00000E+00
 -1      4107 6.17850E+01 1.82952E+01 0.00000E+00
 -1      4108 6.02850E+01 1.82952E+01 0.00000E+00
 -1      4109 5.87850E+01 1.82952E+01 0.00000E+00
 -1      4110 6.10350E+01 1.95942E+01 0.00000E+00
 -1      4111 1.92943E+01 3.03950E+01 0.00000E+00
 -1      4112 2.00314E+01 3.08504E+01 0.00000E+00
 -1      4113 2.15314E+01 3.08504E+01 0.00000E+00
 -1      4114 1.92943E+01 2.89231E+01 0.00000E+00
 -1      4115 2.42850E+01 1.82952E+01 0.00000E+00
 -1      4116 2.27850E+01 1.82952E+01 0.00000E+00
 -1      4117 2.50350E+01 1.95942E+01 0.00000E+00
 -1      4118 4.00350E+01 1.95942E+01 0.00000E+00
 -1      4119 3.92850E+01 1.82952E+01 0.00000E+00
 -1      4120 3.77850E+01 1.82952E+01 0.00000E+00
 -1      4121 5.20350E+01 1.95942E+01 0.00000E+00
 -1      4122 2.87850E+01 1.82952E+01 0.00000E+00
 -1      4123 2.80350E+01 1.95942E+01 0.00000E+00
 -1      4124 3.02850E+01 1.82952E+01 0.00000E+00
 -1      4125 6.55709E+01 2.51049E+01 0.00000E+00
 -1      4126 1.81809E+01 2.64657E+01 0.00000E+00
 -1      4127 1.05746E+02 2.06551E+01 0.00000E+00
 -1      4128 1.04996E+02 1.93561E+01 0.00000E+00
 -1      4129 5.80350E+01 1.95942E+01 0.00000E+00
 -1      4130 3.25350E+01 1.69963E+01 0.00000E+00
 -1      4131 1.04200E+02 2.96529E+01 0.00000E+00
 -1      4132 1.31291E+02 1.85953E+01 0.00000E+00
 -1      4133 1.30164E+02 1.83095E+01 0.00000E+00
 -1      4134 1.29414E+02 1.96085E+01 0.00000E+00
 -1      4135 1.31172E+02 1.97271E+01 0.00000E+00
 -1      4136 1.03256E+02 2.68200E+01 0.00000E+00
 -1      4137 1.03949E+02 2.77840E+01 0.00000E+00
 -1      4138 6.58811E+01 2.12822E+01 0.00000E+00
 -1      4139 6.42034E+01 1.94621E+01 0.00000E+00
 -1      4140 1.00672E+02 1.75353E+01 0.00000E+00
 -1      4141 1.94850E+01 1.98203E+01 0.00000E+00
 -1      4142 1.94850E+01 2.12922E+01 0.00000E+00
 -1      4143 1.03634E+02 2.52571E+01 0.00000E+00
 -1      4144 1.75843E+01 1.70797E+01 0.00000E+00
 -1      4145 1.88833E+01 1.78156E+01 0.00000E+00
 -1      4146 1.30256E+02 2.54400E+01 0.00000E+00
 -1      4147 1.28957E+02 2.47025E+01 0.00000E+00
 -1      4148 1.29998E+02 2.66176E+01 0.00000E+00
 -1      4149 1.31054E+02 2.08589E+01 0.00000E+00
 -1      4150 1.94850E+01 2.27641E+01 0.00000E+00
 -1      4151 1.94850E+01 2.42359E+01 0.00000E+00
 -1      4152 2.07840E+01 2.20281E+01 0.00000E+00
 -1      4153 2.22814E+01 2.95514E+01 0.00000E+00
 -1      4154 1.03496E+02 1.93561E+01 0.00000E+00
 -1      4155 1.30345E+02 2.17936E+01 0.00000E+00
 -1      4156 1.29584E+02 2.06025E+01 0.00000E+00
 -1      4157 1.28705E+02 2.05432E+01 0.00000E+00
 -1      4158 1.29046E+02 2.25311E+01 0.00000E+00
 -1      4159 5.57850E+01 2.08932E+01 0.00000E+00
 -1      4160 5.42850E+01 2.08932E+01 0.00000E+00
 -1      4161 2.79000E+01 2.79170E+01 0.00000E+00
 -1      4162 2.94000E+01 2.79170E+01 0.00000E+00
 -1      4163 3.09000E+01 2.79170E+01 0.00000E+00
 -1      4164 3.24000E+01 2.79170E+01 0.00000E+00
 -1      4165 3.01500E+01 2.66180E+01 0.00000E+00
 -1      4166 3.39000E+01 2.79170E+01 0.00000E+00
 -1      4167 3.54000E+01 2.79170E+01 0.00000E+00
 -1      4168 3.31500E+01 2.66180E+01 0.00000E+00
 -1      4169 3.69000E+01 2.79170E+01 0.00000E+00
 -1      4170 3.84000E+01 2.79170E+01 0.00000E+00
 -1      4171 3.61500E+01 2.66180E+01 0.00000E+00
 -1      4172 3.99000E+01 2.79170E+01 0.00000E+00
 -1      4173 4.14000E+01 2.79170E+01 0.00000E+00
 -1      4174 3.91500E+01 2.66180E+01 0.00000E+00
 -1      4175 4.29000E+01 2.79170E+01 0.00000E+00
 -1      4176 4.44000E+01 2.79170E+01 0.00000E+00
 -1      4177 4.21500E+01 2.66180E+01 0.00000E+00
 -1      4178 4.59000E+01 2.79170E+01 0.00000E+00
 -1      4179 4.74000E+01 2.79170E+01 0.00000E+00
 -1      4180 4.51500E+01 2.66180E+01 0.00000E+00
 -1      4181 4.89000E+01 2.79170E+01 0.00000E+00
 -1      4182 5.04000E+01 2.79170E+01 0.00000E+00
 -1      4183 4.81500E+01 2.66180E+01 0.00000E+00
 -1      4184 5.19000E+01 2.79170E+01 0.00000E+00
 -1      4185 5.34000E+01 2.79170E+01 0.00000E+00
 -1      4186 5.11500E+01 2.66180E+01 0.00000E+00
 -1      4187 5.49000E+01 2.79170E+01 0.00000E+00
 -1      4188 5.64000E+01 2.79170E+01 0.00000E+00
 -1      4189 5.41500E+01 2.66180E+01 0.00000E+00
 -1      4190 5.79000E+01 2.79170E+01 0.00000E+00
 -1      4191 5.94000E+01 2.79170E+01 0.00000E+00
 -1      4192 5.71500E+01 2.66180E+01 0.00000E+00
 -1      4193 6.07143E+01 2.81225E+01 0.00000E+00
 -1      4194 6.20285E+01 2.83281E+01 0.00000E+00
 -1      4195 5.99643E+01 2.68235E+01 0.00000E+00
 -1      4196 2.49000E+01 2.79170E+01 0.00000E+00
 -1      4197 2.64000E+01 2.79170E+01 0.00000E+00
 -1      4198 2.71500E+01 2.66180E+01 0.00000E+00
 -1      4199 1.07323E+02 2.12072E+01 0.00000E+00
 -1      4200 1.05534E+02 2.23131E+01 0.00000E+00
 -1      4201 1.94799E+01 2.57297E+01 0.00000E+00
 -1      4202 1.94747E+01 2.72235E+01 0.00000E+00
 -1      4203 2.07789E+01 2.49938E+01 0.00000E+00
 -1      4204 1.11781E+02 2.85233E+01 0.00000E+00
 -1      4205 1.13281E+02 2.85233E+01 0.00000E+00
 -1      4206 1.14781E+02 2.85233E+01 0.00000E+00
 -1      4207 1.16281E+02 2.85233E+01 0.00000E+00
 -1      4208 1.14031E+02 2.72243E+01 0.00000E+00
 -1      4209 1.17781E+02 2.85233E+01 0.00000E+00
 -1      4210 1.19281E+02 2.85233E+01 0.00000E+00
 -1      4211 1.17031E+02 2.72243E+01 0.00000E+00
 -1      4212 1.20781E+02 2.85233E+01 0.00000E+00
 -1      4213 1.22281E+02 2.85233E+01 0.00000E+00
 -1      4214 1.20031E+02 2.72243E+01 0.00000E+00
 -1      4215 1.23781E+02 2.85233E+01 0.00000E+00
 -1      4216 1.25281E+02 2.85233E+01 0.00000E+00
 -1      4217 1.23031E+02 2.72243E+01 0.00000E+00
 -1      4218 4.67850E+01 2.08932E+01 0.00000E+00
 -1      4219 4.52850E+01 2.08932E+01 0.00000E+00
 -1      4220 5.87850E+01 2.08932E+01 0.00000E+00
 -1      4221 5.72850E+01 2.08932E+01 0.00000E+00
 -1      4222 5.65350E+01 2.21922E+01 0.00000E+00
 -1      4223 5.27850E+01 2.08932E+01 0.00000E+00
 -1      4224 5.12850E+01 2.08932E+01 0.00000E+00
 -1      4225 5.35350E+01 2.21922E+01 0.00000E+00
 -1      4226 6.42127E+01 2.14144E+01 0.00000E+00
 -1      4227 1.04821E+02 2.84745E+01 0.00000E+00
 -1      4228 1.05694E+02 2.91651E+01 0.00000E+00
 -1      4229 1.05443E+02 2.72962E+01 0.00000E+00
 -1      4230 1.15785E+02 2.08482E+01 0.00000E+00
 -1      4231 1.14285E+02 2.08482E+01 0.00000E+00
 -1      4232 2.01823E+01 1.85516E+01 0.00000E+00
 -1      4233 1.12785E+02 2.08482E+01 0.00000E+00
 -1      4234 1.11285E+02 2.08482E+01 0.00000E+00
 -1      4235 1.13535E+02 2.21472E+01 0.00000E+00
 -1      4236 1.24785E+02 2.08482E+01 0.00000E+00
 -1      4237 1.23285E+02 2.08482E+01 0.00000E+00
 -1      4238 1.27495E+02 2.06957E+01 0.00000E+00
 -1      4239 1.25995E+02 2.06957E+01 0.00000E+00
 -1      4240 1.25245E+02 2.19947E+01 0.00000E+00
 -1      4241 1.27665E+02 2.16896E+01 0.00000E+00
 -1      4242 1.03286E+02 1.98124E+01 0.00000E+00
 -1      4243 1.07173E+02 2.89046E+01 0.00000E+00
 -1      4244 6.40964E+01 2.32048E+01 0.00000E+00
 -1      4245 6.24187E+01 2.13847E+01 0.00000E+00
 -1      4246 4.37850E+01 2.08932E+01 0.00000E+00
 -1      4247 4.22850E+01 2.08932E+01 0.00000E+00
 -1      4248 4.45350E+01 2.21922E+01 0.00000E+00
 -1      4249 1.08781E+02 2.85233E+01 0.00000E+00
 -1      4250 1.10281E+02 2.85233E+01 0.00000E+00
 -1      4251 1.11031E+02 2.72243E+01 0.00000E+00
 -1      4252 4.97850E+01 2.08932E+01 0.00000E+00
 -1      4253 4.82850E+01 2.08932E+01 0.00000E+00
 -1      4254 4.75350E+01 2.21922E+01 0.00000E+00
 -1      4255 5.05350E+01 2.21922E+01 0.00000E+00
 -1      4256 1.21785E+02 2.08482E+01 0.00000E+00
 -1      4257 1.20285E+02 2.08482E+01 0.00000E+00
 -1      4258 1.22535E+02 2.21472E+01 0.00000E+00
 -1      4259 1.29666E+02 2.87667E+01 0.00000E+00
 -1      4260 1.29925E+02 2.75891E+01 0.00000E+00
 -1      4261 1.28626E+02 2.68516E+01 0.00000E+00
 -1      4262 1.28479E+02 2.87947E+01 0.00000E+00
 -1      4263 1.10054E+02 2.10277E+01 0.00000E+00
 -1      4264 1.08554E+02 2.10277E+01 0.00000E+00
 -1      4265 1.08342E+02 2.26857E+01 0.00000E+00
 -1      4266 1.10804E+02 2.23267E+01 0.00000E+00
 -1      4267 6.37769E+01 2.50753E+01 0.00000E+00
 -1      4268 1.04899E+02 2.32482E+01 0.00000E+00
 -1      4269 1.04269E+02 2.43219E+01 0.00000E+00
 -1      4270 1.05206E+02 2.56705E+01 0.00000E+00
 -1      4271 1.06476E+02 2.38003E+01 0.00000E+00
 -1      4272 1.18785E+02 2.08482E+01 0.00000E+00
 -1      4273 1.17285E+02 2.08482E+01 0.00000E+00
 -1      4274 1.16535E+02 2.21472E+01 0.00000E+00
 -1      4275 6.09187E+01 2.13847E+01 0.00000E+00
 -1      4276 3.62850E+01 1.82952E+01 0.00000E+00
 -1      4277 3.47850E+01 1.82952E+01 0.00000E+00
 -1      4278 3.70350E+01 1.95942E+01 0.00000E+00
 -1      4279 2.14095E+01 1.87763E+01 0.00000E+00
 -1      4280 2.21595E+01 2.00753E+01 0.00000E+00
 -1      4281 3.32850E+01 1.82952E+01 0.00000E+00
 -1      4282 3.17850E+01 1.82952E+01 0.00000E+00
 -1      4283 3.40350E+01 1.95942E+01 0.00000E+00
 -1      4284 2.05933E+01 2.81872E+01 0.00000E+00
 -1      4285 4.07850E+01 2.08932E+01 0.00000E+00
 -1      4286 3.92850E+01 2.08932E+01 0.00000E+00
 -1      4287 4.15350E+01 2.21922E+01 0.00000E+00
 -1      4288 2.57850E+01 2.08932E+01 0.00000E+00
 -1      4289 2.42850E+01 2.08932E+01 0.00000E+00
 -1      4290 3.10350E+01 1.95942E+01 0.00000E+00
 -1      4291 6.26467E+01 2.76652E+01 0.00000E+00
 -1      4292 2.34000E+01 2.79170E+01 0.00000E+00
 -1      4293 2.41500E+01 2.66180E+01 0.00000E+00
 -1      4294 1.26287E+02 2.86730E+01 0.00000E+00
 -1      4295 1.27474E+02 2.86450E+01 0.00000E+00
 -1      4296 1.27547E+02 2.76734E+01 0.00000E+00
 -1      4297 1.25537E+02 2.73740E+01 0.00000E+00
 -1      4298 2.87850E+01 2.08932E+01 0.00000E+00
 -1      4299 2.72850E+01 2.08932E+01 0.00000E+00
 -1      4300 2.65350E+01 2.21922E+01 0.00000E+00
 -1      4301 6.01687E+01 2.26837E+01 0.00000E+00
 -1      4302 1.06078E+02 2.63611E+01 0.00000E+00
 -1      4303 1.06951E+02 2.70517E+01 0.00000E+00
 -1      4304 1.06713E+02 2.54260E+01 0.00000E+00
 -1      4305 2.32222E+01 2.12202E+01 0.00000E+00
 -1      4306 2.18468E+01 2.17012E+01 0.00000E+00
 -1      4307 2.18468E+01 2.31731E+01 0.00000E+00
 -1      4308 2.39722E+01 2.25192E+01 0.00000E+00
 -1      4309 1.19535E+02 2.21472E+01 0.00000E+00
 -1      4310 1.07923E+02 2.76056E+01 0.00000E+00
 -1      4311 1.28006E+02 2.36775E+01 0.00000E+00
 -1      4312 1.27836E+02 2.26836E+01 0.00000E+00
 -1      4313 1.26626E+02 2.28361E+01 0.00000E+00
 -1      4314 2.24619E+01 2.78518E+01 0.00000E+00
 -1      4315 1.27747E+02 2.48551E+01 0.00000E+00
 -1      4316 2.68425E+01 2.44051E+01 0.00000E+00
 -1      4317 2.83425E+01 2.44051E+01 0.00000E+00
 -1      4318 6.04762E+01 2.48966E+01 0.00000E+00
 -1      4319 5.83425E+01 2.44051E+01 0.00000E+00
 -1      4320 3.17850E+01 2.08932E+01 0.00000E+00
 -1      4321 3.02850E+01 2.08932E+01 0.00000E+00
 -1      4322 2.95350E+01 2.21922E+01 0.00000E+00
 -1      4323 3.24000E+01 2.53190E+01 0.00000E+00
 -1      4324 3.39000E+01 2.53190E+01 0.00000E+00
 -1      4325 3.54000E+01 2.53190E+01 0.00000E+00
 -1      4326 3.69000E+01 2.53190E+01 0.00000E+00
 -1      4327 3.46500E+01 2.40200E+01 0.00000E+00
 -1      4328 3.88425E+01 2.44051E+01 0.00000E+00
 -1      4329 4.03425E+01 2.44051E+01 0.00000E+00
 -1      4330 4.18425E+01 2.44051E+01 0.00000E+00
 -1      4331 4.33425E+01 2.44051E+01 0.00000E+00
 -1      4332 4.48425E+01 2.44051E+01 0.00000E+00
 -1      4333 4.63425E+01 2.44051E+01 0.00000E+00
 -1      4334 4.78425E+01 2.44051E+01 0.00000E+00
 -1      4335 4.93425E+01 2.44051E+01 0.00000E+00
 -1      4336 5.08425E+01 2.44051E+01 0.00000E+00
 -1      4337 5.23425E+01 2.44051E+01 0.00000E+00
 -1      4338 5.38425E+01 2.44051E+01 0.00000E+00
 -1      4339 5.53425E+01 2.44051E+01 0.00000E+00
 -1      4340 5.68425E+01 2.44051E+01 0.00000E+00
 -1      4341 1.10281E+02 2.59253E+01 0.00000E+00
 -1      4342 1.11781E+02 2.59253E+01 0.00000E+00
 -1      4343 1.16281E+02 2.59253E+01 0.00000E+00
 -1      4344 1.17781E+02 2.59253E+01 0.00000E+00
 -1      4345 1.22281E+02 2.59253E+01 0.00000E+00
 -1      4346 1.23781E+02 2.59253E+01 0.00000E+00
 -1      4347 1.23533E+02 2.33867E+01 0.00000E+00
 -1      4348 1.22033E+02 2.33867E+01 0.00000E+00
 -1      4349 3.43425E+01 2.18071E+01 0.00000E+00
 -1      4350 3.28425E+01 2.18071E+01 0.00000E+00
 -1      4351 1.08559E+02 2.66704E+01 0.00000E+00
 -1      4352 1.13281E+02 2.59253E+01 0.00000E+00
 -1      4353 1.14781E+02 2.59253E+01 0.00000E+00
 -1      4354 1.15531E+02 2.46263E+01 0.00000E+00
 -1      4355 1.12531E+02 2.46263E+01 0.00000E+00
 -1      4356 2.98425E+01 2.44051E+01 0.00000E+00
 -1      4357 3.13425E+01 2.44051E+01 0.00000E+00
 -1      4358 1.07845E+02 2.35883E+01 0.00000E+00
 -1      4359 1.07210E+02 2.45234E+01 0.00000E+00
 -1      4360 1.08083E+02 2.52140E+01 0.00000E+00
 -1      4361 1.09076E+02 2.34088E+01 0.00000E+00
 -1      4362 2.27798E+01 2.47320E+01 0.00000E+00
 -1      4363 2.42798E+01 2.47321E+01 0.00000E+00
 -1      4364 3.73425E+01 2.18071E+01 0.00000E+00
 -1      4365 3.58425E+01 2.18071E+01 0.00000E+00
 -1      4366 1.17533E+02 2.33867E+01 0.00000E+00
 -1      4367 1.16033E+02 2.33867E+01 0.00000E+00
 -1      4368 3.20925E+01 2.31061E+01 0.00000E+00
 -1      4369 3.80925E+01 2.31061E+01 0.00000E+00
 -1      4370 1.18909E+02 2.34165E+01 0.00000E+00
 -1      4371 1.18407E+02 2.46560E+01 0.00000E+00
 -1      4372 1.19157E+02 2.59550E+01 0.00000E+00
 -1      4373 1.20409E+02 2.34165E+01 0.00000E+00
 -1      4374 1.09309E+02 2.53714E+01 0.00000E+00
 -1      4375 6.17905E+01 2.51021E+01 0.00000E+00
 -1      4376 1.24914E+02 2.42282E+01 0.00000E+00
 -1      4377 1.25664E+02 2.55272E+01 0.00000E+00
 -1      4378 1.20657E+02 2.59550E+01 0.00000E+00
 -1      4379 1.21407E+02 2.46560E+01 0.00000E+00
 -1      4380 2.17170E+01 2.50590E+01 0.00000E+00
 -1      4381 1.11533E+02 2.33867E+01 0.00000E+00
 -1      4382 1.10302E+02 2.35662E+01 0.00000E+00
 -1      4383 1.27620E+02 2.67019E+01 0.00000E+00
 -1      4384 1.26669E+02 2.56769E+01 0.00000E+00
 -1      4385 1.14533E+02 2.33867E+01 0.00000E+00
 -1      4386 1.13033E+02 2.33867E+01 0.00000E+00
 -1      4387 1.25415E+02 2.29886E+01 0.00000E+00
 -1      4388 2.17119E+01 2.65528E+01 0.00000E+00
 -1      4389 6.32649E+01 2.70022E+01 0.00000E+00
 -1      4390 2.53425E+01 2.44051E+01 0.00000E+00
 -1      4391 1.02825E+02 1.74075E+01 0.00000E+00
 -1      4392 1.09805E+02 2.44688E+01 0.00000E+00
 -3
    3C                          2114                                     1
 -1       165    8    0    1
 -2         6         7        23      1140      1304      1157
 -1       166    8    0    1
 -2         7         8       165      1141      1305      1306
 -1       167    8    0    1
 -2         8         9       166      1142      1307      1308
 -1       168    8    0    1
 -2         8       166       165      1308      1309      1305
 -1       169    8    0    1
 -2         9        10       167      1143      1310      1311
 -1       170    8    0    1
 -2         9       167       166      1311      1312      1307
 -1       171    8    0    1
 -2        10        11       168      1144      1313      1314
 -1       172    8    0    1
 -2        10       168       167      1314      1315      1310
 -1       173    8    0    1
 -2        11        12       169      1145      1316      1317
 -1       174    8    0    1
 -2        11       169       168      1317      1318      1313
 -1       175    8    0    1
 -2        12        13       170      1146      1319      1320
 -1       176    8    0    1
 -2        12       170       169      1320      1321      1316
 -1       177    8    0    1
 -2        13        14       171      1147      1322      1323
 -1       178    8    0    1
 -2        13       171       170      1323      1324      1319
 -1       179    8    0    1
 -2        14        15       172      1148      1325      1326
 -1       180    8    0    1
 -2        14       172       171      1326      1327      1322
 -1       181    8    0    1
 -2        15        16       173      1149      1328      1329
 -1       182    8    0    1
 -2        15       173       172      1329      1330      1325
 -1       183    8    0    1
 -2        16        17       174      1150      1331      1332
 -1       184    8    0    1
 -2        16       174       173      1332      1333      1328
 -1       185    8    0    1
 -2        17        18       175      1151      1334      1335
 -1       186    8    0    1
 -2        17       175       174      1335      1336      1331
 -1       187    8    0    1
 -2        18        19       176      1152      1337      1338
 -1       188    8    0    1
 -2        18       176       175      1338      1339      1334
 -1       189    8    0    1
 -2        19        20       177      1153      1340      1341
 -1       190    8    0    1
 -2        19       177       176      1341      1342      1337
 -1       191    8    0    1
 -2        20        21       178      1154      1343      1344
 -1       192    8    0    1
 -2        20       178       177      1344      1345      1340
 -1       193    8    0    1
 -2        21        22       179      1155      1346      1347
 -1       194    8    0    1
 -2        21       179       178      1347      1348      1343
 -1       195    8    0    1
 -2        22         5       180      1156      1349      1350
 -1       196    8    0    1
 -2       179        22       180      1346      1350      1351
 -1       197    8    0    1
 -2         5        72       180      1207      1352      1349
 -1       198    8    0    1
 -2        24        23       181      1158      1353      1354
 -1       199    8    0    1
 -2        25        24       182      1159      1355      1356
 -1       200    8    0    1
 -2        24       181       182      1354      1357      1355
 -1       201    8    0    1
 -2        26        25       183      1160      1358      1359
 -1       202    8    0    1
 -2        25       182       183      1356      1360      1358
 -1       203    8    0    1
 -2        27        26       184      1161      1361      1362
 -1       204    8    0    1
 -2        26       183       184      1359      1363      1361
 -1       205    8    0    1
 -2        28        27       185      1162      1364      1365
 -1       206    8    0    1
 -2        27       184       185      1362      1366      1364
 -1       207    8    0    1
 -2        29        28       186      1163      1367      1368
 -1       208    8    0    1
 -2        28       185       186      1365      1369      1367
 -1       209    8    0    1
 -2        30        29       187      1164      1370      1371
 -1       210    8    0    1
 -2        29       186       187      1368      1372      1370
 -1       211    8    0    1
 -2        31        30       188      1165      1373      1374
 -1       212    8    0    1
 -2        30       187       188      1371      1375      1373
 -1       213    8    0    1
 -2        32        31       189      1166      1376      1377
 -1       214    8    0    1
 -2        31       188       189      1374      1378      1376
 -1       215    8    0    1
 -2        33        32       190      1167      1379      1380
 -1       216    8    0    1
 -2        32       189       190      1377      1381      1379
 -1       217    8    0    1
 -2        34        33       191      1168      1382      1383
 -1       218    8    0    1
 -2        33       190       191      1380      1384      1382
 -1       219    8    0    1
 -2        35        34       192      1169      1385      1386
 -1       220    8    0    1
 -2        34       191       192      1383      1387      1385
 -1       221    8    0    1
 -2        36        35       193      1170      1388      1389
 -1       222    8    0    1
 -2        35       192       193      1386      1390      1388
 -1       223    8    0    1
 -2        37        36       194      1171      1391      1392
 -1       224    8    0    1
 -2        36       193       194      1389      1393      1391
 -1       225    8    0    1
 -2        38        37       195      1172      1394      1395
 -1       226    8    0    1
 -2        37       194       195      1392      1396      1394
 -1       227    8    0    1
 -2        39        38       196      1173      1397      1398
 -1       228    8    0    1
 -2        38       195       196      1395      1399      1397
 -1       229    8    0    1
 -2        40        39       197      1174      1400      1401
 -1       230    8    0    1
 -2        39       196       197      1398      1402      1400
 -1       231    8    0    1
 -2        41        40       198      1175      1403      1404
 -1       232    8    0    1
 -2        40       197       198      1401      1405      1403
 -1       233    8    0    1
 -2        42        41       199      1176      1406      1407
 -1       234    8    0    1
 -2        41       198       199      1404      1408      1406
 -1       235    8    0    1
 -2        43        42       200      1177      1409      1410
 -1       236    8    0    1
 -2        42       199       200      1407      1411      1409
 -1       237    8    0    1
 -2        44        43       201      1178      1412      1413
 -1       238    8    0    1
 -2        43       200       201      1410      1414      1412
 -1       239    8    0    1
 -2        45        44       202      1179      1415      1416
 -1       240    8    0    1
 -2        44       201       202      1413      1417      1415
 -1       241    8    0    1
 -2        46        45       203      1180      1418      1419
 -1       242    8    0    1
 -2        45       202       203      1416      1420      1418
 -1       243    8    0    1
 -2        47        46       204      1181      1421      1422
 -1       244    8    0    1
 -2        46       203       204      1419      1423      1421
 -1       245    8    0    1
 -2        48        47       205      1182      1424      1425
 -1       246    8    0    1
 -2        47       204       205      1422      1426      1424
 -1       247    8    0    1
 -2        49        48       206      1183      1427      1428
 -1       248    8    0    1
 -2        48       205       206      1425      1429      1427
 -1       249    8    0    1
 -2        50        49       207      1184      1430      1431
 -1       250    8    0    1
 -2        49       206       207      1428      1432      1430
 -1       251    8    0    1
 -2        51        50       208      1185      1433      1434
 -1       252    8    0    1
 -2        50       207       208      1431      1435      1433
 -1       253    8    0    1
 -2        52        51       209      1186      1436      1437
 -1       254    8    0    1
 -2        51       208       209      1434      1438      1436
 -1       255    8    0    1
 -2        53        52       210      1187      1439      1440
 -1       256    8    0    1
 -2        52       209       210      1437      1441      1439
 -1       257    8    0    1
 -2        54        53       211      1188      1442      1443
 -1       258    8    0    1
 -2        53       210       211      1440      1444      1442
 -1       259    8    0    1
 -2        55        54       212      1189      1445      1446
 -1       260    8    0    1
 -2        54       211       212      1443      1447      1445
 -1       261    8    0    1
 -2        56        55       213      1190      1448      1449
 -1       262    8    0    1
 -2        55       212       213      1446      1450      1448
 -1       263    8    0    1
 -2        57        56       214      1191      1451      1452
 -1       264    8    0    1
 -2        56       213       214      1449      1453      1451
 -1       265    8    0    1
 -2        58        57       215      1192      1454      1455
 -1       266    8    0    1
 -2        57       214       215      1452      1456      1454
 -1       267    8    0    1
 -2        59        58       216      1193      1457      1458
 -1       268    8    0    1
 -2        58       215       216      1455      1459      1457
 -1       269    8    0    1
 -2        60        59       217      1194      1460      1461
 -1       270    8    0    1
 -2        59       216       217      1458      1462      1460
 -1       271    8    0    1
 -2        61        60       218      1195      1463      1464
 -1       272    8    0    1
 -2        60       217       218      1461      1465      1463
 -1       273    8    0    1
 -2        62        61       219      1196      1466      1467
 -1       274    8    0    1
 -2        61       218       219      1464      1468      1466
 -1       275    8    0    1
 -2        63        62       220      1197      1469      1470
 -1       276    8    0    1
 -2        62       219       220      1467      1471      1469
 -1       277    8    0    1
 -2        64        63       221      1198      1472      1473
 -1       278    8    0    1
 -2        63       220       221      1470      1474      1472
 -1       279    8    0    1
 -2        65        64       222      1199      1475      1476
 -1       280    8    0    1
 -2        64       221       222      1473      1477      1475
 -1       281    8    0    1
 -2        66        65       223      1200      1478      1479
 -1       282    8    0    1
 -2        65       222       223      1476      1480      1478
 -1       283    8    0    1
 -2        67        66       224      1201      1481      1482
 -1       284    8    0    1
 -2        66       223       224      1479      1483      1481
 -1       285    8    0    1
 -2        68        67       225      1202      1484      1485
 -1       286    8    0    1
 -2        67       224       225      1482      1486      1484
 -1       287    8    0    1
 -2        69        68       226      1203      1487      1488
 -1       288    8    0    1
 -2        68       225       226      1485      1489      1487
 -1       289    8    0    1
 -2        70        69       227      1204      1490      1491
 -1       290    8    0    1
 -2        69       226       227      1488      1492      1490
 -1       291    8    0    1
 -2        71        70       228      1205      1493      1494
 -1       292    8    0    1
 -2        70       227       228      1491      1495      1493
 -1       293    8    0    1
 -2         4        71       136      1206      1496      1273
 -1       294    8    0    1
 -2       136        71       228      1496      1494      1497
 -1       295    8    0    1
 -2        72        73       229      1208      1498      1499
 -1       296    8    0    1
 -2        72       229       180      1499      1500      1352
 -1       297    8    0    1
 -2        73        74       230      1209      1501      1502
 -1       298    8    0    1
 -2        73       230       229      1502      1503      1498
 -1       299    8    0    1
 -2        74        75       231      1210      1504      1505
 -1       300    8    0    1
 -2        74       231       230      1505      1506      1501
 -1       301    8    0    1
 -2        75        76       232      1211      1507      1508
 -1       302    8    0    1
 -2        75       232       231      1508      1509      1504
 -1       303    8    0    1
 -2        76        77       233      1212      1510      1511
 -1       304    8    0    1
 -2        76       233       232      1511      1512      1507
 -1       305    8    0    1
 -2        77        78       234      1213      1513      1514
 -1       306    8    0    1
 -2        77       234       233      1514      1515      1510
 -1       307    8    0    1
 -2        78        79       235      1214      1516      1517
 -1       308    8    0    1
 -2        78       235       234      1517      1518      1513
 -1       309    8    0    1
 -2        79        80       236      1215      1519      1520
 -1       310    8    0    1
 -2        79       236       235      1520      1521      1516
 -1       311    8    0    1
 -2        80        81       237      1216      1522      1523
 -1       312    8    0    1
 -2        80       237       236      1523      1524      1519
 -1       313    8    0    1
 -2        81        82       238      1217      1525      1526
 -1       314    8    0    1
 -2        81       238       237      1526      1527      1522
 -1       315    8    0    1
 -2        82        83       239      1218      1528      1529
 -1       316    8    0    1
 -2        82       239       238      1529      1530      1525
 -1       317    8    0    1
 -2        83        84       240      1219      1531      1532
 -1       318    8    0    1
 -2        83       240       239      1532      1533      1528
 -1       319    8    0    1
 -2        84        85       241      1220      1534      1535
 -1       320    8    0    1
 -2        84       241       240      1535      1536      1531
 -1       321    8    0    1
 -2        85        86       242      1221      1537      1538
 -1       322    8    0    1
 -2        85       242       241      1538      1539      1534
 -1       323    8    0    1
 -2        86        87       243      1222      1540      1541
 -1       324    8    0    1
 -2        86       243       242      1541      1542      1537
 -1       325    8    0    1
 -2        87        88       244      1223      1543      1544
 -1       326    8    0    1
 -2        87       244       243      1544      1545      1540
 -1       327    8    0    1
 -2        88        89       245      1224      1546      1547
 -1       328    8    0    1
 -2        88       245       244      1547      1548      1543
 -1       329    8    0    1
 -2        89        90       246      1225      1549      1550
 -1       330    8    0    1
 -2        89       246       245      1550      1551      1546
 -1       331    8    0    1
 -2        90        91       247      1226      1552      1553
 -1       332    8    0    1
 -2        90       247       246      1553      1554      1549
 -1       333    8    0    1
 -2        91        92       248      1227      1555      1556
 -1       334    8    0    1
 -2        91       248       247      1556      1557      1552
 -1       335    8    0    1
 -2        92        93       249      1228      1558      1559
 -1       336    8    0    1
 -2        92       249       248      1559      1560      1555
 -1       337    8    0    1
 -2        93        94       250      1229      1561      1562
 -1       338    8    0    1
 -2        93       250       249      1562      1563      1558
 -1       339    8    0    1
 -2        94        95       251      1230      1564      1565
 -1       340    8    0    1
 -2        94       251       250      1565      1566      1561
 -1       341    8    0    1
 -2        95        96       252      1231      1567      1568
 -1       342    8    0    1
 -2        95       252       251      1568      1569      1564
 -1       343    8    0    1
 -2        96        97       253      1232      1570      1571
 -1       344    8    0    1
 -2        96       253       252      1571      1572      1567
 -1       345    8    0    1
 -2        97        98       254      1233      1573      1574
 -1       346    8    0    1
 -2        97       254       253      1574      1575      1570
 -1       347    8    0    1
 -2        98        99       255      1234      1576      1577
 -1       348    8    0    1
 -2        98       255       254      1577      1578      1573
 -1       349    8    0    1
 -2        99       100       256      1235      1579      1580
 -1       350    8    0    1
 -2        99       256       255      1580      1581      1576
 -1       351    8    0    1
 -2       100       101       257      1236      1582      1583
 -1       352    8    0    1
 -2       100       257       256      1583      1584      1579
 -1       353    8    0    1
 -2       101       102       258      1237      1585      1586
 -1       354    8    0    1
 -2       101       258       257      1586      1587      1582
 -1       355    8    0    1
 -2       102       103       259      1238      1588      1589
 -1       356    8    0    1
 -2       102       259       258      1589      1590      1585
 -1       357    8    0    1
 -2       103       104       260      1239      1591      1592
 -1       358    8    0    1
 -2       103       260       259      1592      1593      1588
 -1       359    8    0    1
 -2       104       105       261      1240      1594      1595
 -1       360    8    0    1
 -2       104       261       260      1595      1596      1591
 -1       361    8    0    1
 -2       105       106       262      1241      1597      1598
 -1       362    8    0    1
 -2       105       262       261      1598      1599      1594
 -1       363    8    0    1
 -2       106       107       263      1242      1600      1601
 -1       364    8    0    1
 -2       106       263       262      1601      1602      1597
 -1       365    8    0    1
 -2       107       108       264      1243      1603      1604
 -1       366    8    0    1
 -2       107       264       263      1604      1605      1600
 -1       367    8    0    1
 -2       108       109       265      1244      1606      1607
 -1       368    8    0    1
 -2       108       265       264      1607      1608      1603
 -1       369    8    0    1
 -2       109       110       266      1245      1609      1610
 -1       370    8    0    1
 -2       109       266       265      1610      1611      1606
 -1       371    8    0    1
 -2       110       111       267      1246      1612      1613
 -1       372    8    0    1
 -2       110       267       266      1613      1614      1609
 -1       373    8    0    1
 -2       111       112       268      1247      1615      1616
 -1       374    8    0    1
 -2       111       268       267      1616      1617      1612
 -1       375    8    0    1
 -2       112       113       269      1248      1618      1619
 -1       376    8    0    1
 -2       112       269       268      1619      1620      1615
 -1       377    8    0    1
 -2       113       114       270      1249      1621      1622
 -1       378    8    0    1
 -2       113       270       269      1622      1623      1618
 -1       379    8    0    1
 -2       114       115       271      1250      1624      1625
 -1       380    8    0    1
 -2       114       271       270      1625      1626      1621
 -1       381    8    0    1
 -2       115       116       272      1251      1627      1628
 -1       382    8    0    1
 -2       115       272       271      1628      1629      1624
 -1       383    8    0    1
 -2       116       117       273      1252      1630      1631
 -1       384    8    0    1
 -2       116       273       272      1631      1632      1627
 -1       385    8    0    1
 -2       117       118       274      1253      1633      1634
 -1       386    8    0    1
 -2       117       274       273      1634      1635      1630
 -1       387    8    0    1
 -2       118       119       275      1254      1636      1637
 -1       388    8    0    1
 -2       118       275       274      1637      1638      1633
 -1       389    8    0    1
 -2       119       120       276      1255      1639      1640
 -1       390    8    0    1
 -2       119       276       275      1640      1641      1636
 -1       391    8    0    1
 -2       120         3       121      1256      1257      1642
 -1       392    8    0    1
 -2       121       122       277      1258      1643      1644
 -1       393    8    0    1
 -2       122       123       278      1259      1645      1646
 -1       394    8    0    1
 -2       122       278       277      1646      1647      1643
 -1       395    8    0    1
 -2       123       124       279      1260      1648      1649
 -1       396    8    0    1
 -2       123       279       278      1649      1650      1645
 -1       397    8    0    1
 -2       124       125       280      1261      1651      1652
 -1       398    8    0    1
 -2       124       280       279      1652      1653      1648
 -1       399    8    0    1
 -2       125       126       281      1262      1654      1655
 -1       400    8    0    1
 -2       125       281       280      1655      1656      1651
 -1       401    8    0    1
 -2       126       127       282      1263      1657      1658
 -1       402    8    0    1
 -2       126       282       281      1658      1659      1654
 -1       403    8    0    1
 -2       127       128       283      1264      1660      1661
 -1       404    8    0    1
 -2       127       283       282      1661      1662      1657
 -1       405    8    0    1
 -2       128       129       284      1265      1663      1664
 -1       406    8    0    1
 -2       128       284       283      1664      1665      1660
 -1       407    8    0    1
 -2       129       130       285      1266      1666      1667
 -1       408    8    0    1
 -2       129       285       284      1667      1668      1663
 -1       409    8    0    1
 -2       130       131       286      1267      1669      1670
 -1       410    8    0    1
 -2       130       286       285      1670      1671      1666
 -1       411    8    0    1
 -2       131       132       287      1268      1672      1673
 -1       412    8    0    1
 -2       131       287       286      1673      1674      1669
 -1       413    8    0    1
 -2       132       133       288      1269      1675      1676
 -1       414    8    0    1
 -2       132       288       287      1676      1677      1672
 -1       415    8    0    1
 -2       133       134       289      1270      1678      1679
 -1       416    8    0    1
 -2       133       289       288      1679      1680      1675
 -1       417    8    0    1
 -2       134       135       290      1271      1681      1682
 -1       418    8    0    1
 -2       134       290       289      1682      1683      1678
 -1       419    8    0    1
 -2       135       136       291      1272      1684      1685
 -1       420    8    0    1
 -2       290       135       291      1681      1685      1686
 -1       421    8    0    1
 -2       136       228       291      1497      1687      1684
 -1       422    8    0    1
 -2         2       137       292      1274      1688      1689
 -1       423    8    0    1
 -2       137       138       293      1275      1690      1691
 -1       424    8    0    1
 -2       138       139       294      1276      1692      1693
 -1       425    8    0    1
 -2       139       140       295      1277      1694      1695
 -1       426    8    0    1
 -2       140       141       296      1278      1696      1697
 -1       427    8    0    1
 -2       141       142       297      1279      1698      1699
 -1       428    8    0    1
 -2       142       143       298      1280      1700      1701
 -1       429    8    0    1
 -2       143       144       299      1281      1702      1703
 -1       430    8    0    1
 -2       144       145       300      1282      1704      1705
 -1       431    8    0    1
 -2       145       146       301      1283      1706      1707
 -1       432    8    0    1
 -2       146       147       302      1284      1708      1709
 -1       433    8    0    1
 -2       147       148       303      1285      1710      1711
 -1       434    8    0    1
 -2       148       149       304      1286      1712      1713
 -1       435    8    0    1
 -2       149       150       305      1287      1714      1715
 -1       436    8    0    1
 -2       150       151       306      1288      1716      1717
 -1       437    8    0    1
 -2       151       152       307      1289      1718      1719
 -1       438    8    0    1
 -2       152       153       308      1290      1720      1721
 -1       439    8    0    1
 -2       153       154       309      1291      1722      1723
 -1       440    8    0    1
 -2       154       155       310      1292      1724      1725
 -1       441    8    0    1
 -2       155       156       311      1293      1726      1727
 -1       442    8    0    1
 -2       156       157       312      1294      1728      1729
 -1       443    8    0    1
 -2       157         1       313      1295      1730      1731
 -1       444    8    0    1
 -2         1       158       314      1296      1732      1733
 -1       445    8    0    1
 -2       158       159       315      1297      1734      1735
 -1       446    8    0    1
 -2       159       160       316      1298      1736      1737
 -1       447    8    0    1
 -2       160       161       317      1299      1738      1739
 -1       448    8    0    1
 -2       161       162       318      1300      1740      1741
 -1       449    8    0    1
 -2       162       163       319      1301      1742      1743
 -1       450    8    0    1
 -2       163       164       320      1302      1744      1745
 -1       451    8    0    1
 -2       164         2       321      1303      1746      1747
 -1       452    8    0    1
 -2       295       140       296      1694      1697      1748
 -1       453    8    0    1
 -2       294       139       295      1692      1695      1749
 -1       454    8    0    1
 -2       120       121       276      1642      1750      1639
 -1       455    8    0    1
 -2       121       277       276      1644      1751      1750
 -1       456    8    0    1
 -2       292       137       293      1688      1691      1752
 -1       457    8    0    1
 -2       293       138       294      1690      1693      1753
 -1       458    8    0    1
 -2         2       292       321      1689      1754      1746
 -1       459    8    0    1
 -2       141       297       296      1699      1755      1696
 -1       460    8    0    1
 -2       142       298       297      1701      1756      1698
 -1       461    8    0    1
 -2       143       299       298      1703      1757      1700
 -1       462    8    0    1
 -2       144       300       299      1705      1758      1702
 -1       463    8    0    1
 -2       145       301       300      1707      1759      1704
 -1       464    8    0    1
 -2       146       302       301      1709      1760      1706
 -1       465    8    0    1
 -2       147       303       302      1711      1761      1708
 -1       466    8    0    1
 -2       148       304       303      1713      1762      1710
 -1       467    8    0    1
 -2       149       305       304      1715      1763      1712
 -1       468    8    0    1
 -2       150       306       305      1717      1764      1714
 -1       469    8    0    1
 -2       151       307       306      1719      1765      1716
 -1       470    8    0    1
 -2       152       308       307      1721      1766      1718
 -1       471    8    0    1
 -2       153       309       308      1723      1767      1720
 -1       472    8    0    1
 -2       154       310       309      1725      1768      1722
 -1       473    8    0    1
 -2       155       311       310      1727      1769      1724
 -1       474    8    0    1
 -2       156       312       311      1729      1770      1726
 -1       475    8    0    1
 -2       157       313       312      1731      1771      1728
 -1       476    8    0    1
 -2         1       314       313      1733      1772      1730
 -1       477    8    0    1
 -2       158       315       314      1735      1773      1732
 -1       478    8    0    1
 -2       159       316       315      1737      1774      1734
 -1       479    8    0    1
 -2       160       317       316      1739      1775      1736
 -1       480    8    0    1
 -2       161       318       317      1741      1776      1738
 -1       481    8    0    1
 -2       162       319       318      1743      1777      1740
 -1       482    8    0    1
 -2       163       320       319      1745      1778      1742
 -1       483    8    0    1
 -2       164       321       320      1747      1779      1744
 -1       484    8    0    1
 -2        23         7       165      1304      1306      1780
 -1       485    8    0    1
 -2       166       167       322      1312      1781      1782
 -1       486    8    0    1
 -2       165       166       323      1309      1783      1784
 -1       487    8    0    1
 -2       166       322       323      1782      1785      1783
 -1       488    8    0    1
 -2       168       169       324      1318      1786      1787
 -1       489    8    0    1
 -2       169       170       325      1321      1788      1789
 -1       490    8    0    1
 -2       169       325       324      1789      1790      1786
 -1       491    8    0    1
 -2       170       171       326      1324      1791      1792
 -1       492    8    0    1
 -2       170       326       325      1792      1793      1788
 -1       493    8    0    1
 -2       171       172       327      1327      1794      1795
 -1       494    8    0    1
 -2       171       327       326      1795      1796      1791
 -1       495    8    0    1
 -2       172       173       328      1330      1797      1798
 -1       496    8    0    1
 -2       172       328       327      1798      1799      1794
 -1       497    8    0    1
 -2       173       174       329      1333      1800      1801
 -1       498    8    0    1
 -2       173       329       328      1801      1802      1797
 -1       499    8    0    1
 -2       174       175       330      1336      1803      1804
 -1       500    8    0    1
 -2       174       330       329      1804      1805      1800
 -1       501    8    0    1
 -2       175       176       331      1339      1806      1807
 -1       502    8    0    1
 -2       175       331       330      1807      1808      1803
 -1       503    8    0    1
 -2       176       177       332      1342      1809      1810
 -1       504    8    0    1
 -2       176       332       331      1810      1811      1806
 -1       505    8    0    1
 -2       177       178       333      1345      1812      1813
 -1       506    8    0    1
 -2       177       333       332      1813      1814      1809
 -1       507    8    0    1
 -2       178       179       334      1348      1815      1816
 -1       508    8    0    1
 -2       178       334       333      1816      1817      1812
 -1       509    8    0    1
 -2       179       180       335      1351      1818      1819
 -1       510    8    0    1
 -2       334       179       335      1815      1819      1820
 -1       511    8    0    1
 -2       180       229       335      1500      1821      1818
 -1       512    8    0    1
 -2       181        23       165      1353      1780      1822
 -1       513    8    0    1
 -2       229       230       336      1503      1823      1824
 -1       514    8    0    1
 -2       229       336       335      1824      1825      1821
 -1       515    8    0    1
 -2       181       165       323      1822      1784      1826
 -1       516    8    0    1
 -2       183       182       337      1360      1827      1828
 -1       517    8    0    1
 -2       184       183       338      1363      1829      1830
 -1       518    8    0    1
 -2       183       337       338      1828      1831      1829
 -1       519    8    0    1
 -2       185       184       339      1366      1832      1833
 -1       520    8    0    1
 -2       184       338       339      1830      1834      1832
 -1       521    8    0    1
 -2       186       185       340      1369      1835      1836
 -1       522    8    0    1
 -2       185       339       340      1833      1837      1835
 -1       523    8    0    1
 -2       187       186       341      1372      1838      1839
 -1       524    8    0    1
 -2       186       340       341      1836      1840      1838
 -1       525    8    0    1
 -2       188       187       342      1375      1841      1842
 -1       526    8    0    1
 -2       187       341       342      1839      1843      1841
 -1       527    8    0    1
 -2       189       188       343      1378      1844      1845
 -1       528    8    0    1
 -2       188       342       343      1842      1846      1844
 -1       529    8    0    1
 -2       190       189       344      1381      1847      1848
 -1       530    8    0    1
 -2       189       343       344      1845      1849      1847
 -1       531    8    0    1
 -2       191       190       345      1384      1850      1851
 -1       532    8    0    1
 -2       190       344       345      1848      1852      1850
 -1       533    8    0    1
 -2       192       191       346      1387      1853      1854
 -1       534    8    0    1
 -2       191       345       346      1851      1855      1853
 -1       535    8    0    1
 -2       193       192       347      1390      1856      1857
 -1       536    8    0    1
 -2       192       346       347      1854      1858      1856
 -1       537    8    0    1
 -2       194       193       348      1393      1859      1860
 -1       538    8    0    1
 -2       193       347       348      1857      1861      1859
 -1       539    8    0    1
 -2       195       194       349      1396      1862      1863
 -1       540    8    0    1
 -2       194       348       349      1860      1864      1862
 -1       541    8    0    1
 -2       196       195       350      1399      1865      1866
 -1       542    8    0    1
 -2       195       349       350      1863      1867      1865
 -1       543    8    0    1
 -2       197       196       351      1402      1868      1869
 -1       544    8    0    1
 -2       196       350       351      1866      1870      1868
 -1       545    8    0    1
 -2       198       197       352      1405      1871      1872
 -1       546    8    0    1
 -2       197       351       352      1869      1873      1871
 -1       547    8    0    1
 -2       199       198       353      1408      1874      1875
 -1       548    8    0    1
 -2       198       352       353      1872      1876      1874
 -1       549    8    0    1
 -2       200       199       354      1411      1877      1878
 -1       550    8    0    1
 -2       199       353       354      1875      1879      1877
 -1       551    8    0    1
 -2       201       200       355      1414      1880      1881
 -1       552    8    0    1
 -2       200       354       355      1878      1882      1880
 -1       553    8    0    1
 -2       202       201       356      1417      1883      1884
 -1       554    8    0    1
 -2       201       355       356      1881      1885      1883
 -1       555    8    0    1
 -2       203       202       357      1420      1886      1887
 -1       556    8    0    1
 -2       202       356       357      1884      1888      1886
 -1       557    8    0    1
 -2       204       203       358      1423      1889      1890
 -1       558    8    0    1
 -2       203       357       358      1887      1891      1889
 -1       559    8    0    1
 -2       205       204       359      1426      1892      1893
 -1       560    8    0    1
 -2       204       358       359      1890      1894      1892
 -1       561    8    0    1
 -2       206       205       360      1429      1895      1896
 -1       562    8    0    1
 -2       205       359       360      1893      1897      1895
 -1       563    8    0    1
 -2       207       206       361      1432      1898      1899
 -1       564    8    0    1
 -2       206       360       361      1896      1900      1898
 -1       565    8    0    1
 -2       208       207       362      1435      1901      1902
 -1       566    8    0    1
 -2       207       361       362      1899      1903      1901
 -1       567    8    0    1
 -2       209       208       363      1438      1904      1905
 -1       568    8    0    1
 -2       208       362       363      1902      1906      1904
 -1       569    8    0    1
 -2       210       209       364      1441      1907      1908
 -1       570    8    0    1
 -2       209       363       364      1905      1909      1907
 -1       571    8    0    1
 -2       211       210       365      1444      1910      1911
 -1       572    8    0    1
 -2       210       364       365      1908      1912      1910
 -1       573    8    0    1
 -2       212       211       366      1447      1913      1914
 -1       574    8    0    1
 -2       211       365       366      1911      1915      1913
 -1       575    8    0    1
 -2       213       212       367      1450      1916      1917
 -1       576    8    0    1
 -2       212       366       367      1914      1918      1916
 -1       577    8    0    1
 -2       214       213       368      1453      1919      1920
 -1       578    8    0    1
 -2       213       367       368      1917      1921      1919
 -1       579    8    0    1
 -2       215       214       369      1456      1922      1923
 -1       580    8    0    1
 -2       214       368       369      1920      1924      1922
 -1       581    8    0    1
 -2       216       215       370      1459      1925      1926
 -1       582    8    0    1
 -2       215       369       370      1923      1927      1925
 -1       583    8    0    1
 -2       217       216       371      1462      1928      1929
 -1       584    8    0    1
 -2       216       370       371      1926      1930      1928
 -1       585    8    0    1
 -2       218       217       372      1465      1931      1932
 -1       586    8    0    1
 -2       217       371       372      1929      1933      1931
 -1       587    8    0    1
 -2       219       218       373      1468      1934      1935
 -1       588    8    0    1
 -2       218       372       373      1932      1936      1934
 -1       589    8    0    1
 -2       220       219       374      1471      1937      1938
 -1       590    8    0    1
 -2       219       373       374      1935      1939      1937
 -1       591    8    0    1
 -2       221       220       375      1474      1940      1941
 -1       592    8    0    1
 -2       220       374       375      1938      1942      1940
 -1       593    8    0    1
 -2       222       221       376      1477      1943      1944
 -1       594    8    0    1
 -2       221       375       376      1941      1945      1943
 -1       595    8    0    1
 -2       223       222       377      1480      1946      1947
 -1       596    8    0    1
 -2       222       376       377      1944      1948      1946
 -1       597    8    0    1
 -2       224       223       378      1483      1949      1950
 -1       598    8    0    1
 -2       223       377       378      1947      1951      1949
 -1       599    8    0    1
 -2       225       224       379      1486      1952      1953
 -1       600    8    0    1
 -2       224       378       379      1950      1954      1952
 -1       601    8    0    1
 -2       226       225       380      1489      1955      1956
 -1       602    8    0    1
 -2       225       379       380      1953      1957      1955
 -1       603    8    0    1
 -2       227       226       381      1492      1958      1959
 -1       604    8    0    1
 -2       226       380       381      1956      1960      1958
 -1       605    8    0    1
 -2       228       227       382      1495      1961      1962
 -1       606    8    0    1
 -2       291       228       382      1687      1962      1963
 -1       607    8    0    1
 -2       227       381       382      1959      1964      1961
 -1       608    8    0    1
 -2       230       231       383      1506      1965      1966
 -1       609    8    0    1
 -2       230       383       336      1966      1967      1823
 -1       610    8    0    1
 -2       231       232       384      1509      1968      1969
 -1       611    8    0    1
 -2       231       384       383      1969      1970      1965
 -1       612    8    0    1
 -2       232       233       385      1512      1971      1972
 -1       613    8    0    1
 -2       232       385       384      1972      1973      1968
 -1       614    8    0    1
 -2       233       234       386      1515      1974      1975
 -1       615    8    0    1
 -2       233       386       385      1975      1976      1971
 -1       616    8    0    1
 -2       234       235       387      1518      1977      1978
 -1       617    8    0    1
 -2       234       387       386      1978      1979      1974
 -1       618    8    0    1
 -2       235       236       388      1521      1980      1981
 -1       619    8    0    1
 -2       235       388       387      1981      1982      1977
 -1       620    8    0    1
 -2       236       237       389      1524      1983      1984
 -1       621    8    0    1
 -2       236       389       388      1984      1985      1980
 -1       622    8    0    1
 -2       237       238       390      1527      1986      1987
 -1       623    8    0    1
 -2       237       390       389      1987      1988      1983
 -1       624    8    0    1
 -2       238       239       391      1530      1989      1990
 -1       625    8    0    1
 -2       238       391       390      1990      1991      1986
 -1       626    8    0    1
 -2       239       240       392      1533      1992      1993
 -1       627    8    0    1
 -2       239       392       391      1993      1994      1989
 -1       628    8    0    1
 -2       240       241       393      1536      1995      1996
 -1       629    8    0    1
 -2       240       393       392      1996      1997      1992
 -1       630    8    0    1
 -2       241       242       394      1539      1998      1999
 -1       631    8    0    1
 -2       241       394       393      1999      2000      1995
 -1       632    8    0    1
 -2       242       243       395      1542      2001      2002
 -1       633    8    0    1
 -2       242       395       394      2002      2003      1998
 -1       634    8    0    1
 -2       243       244       396      1545      2004      2005
 -1       635    8    0    1
 -2       243       396       395      2005      2006      2001
 -1       636    8    0    1
 -2       244       245       397      1548      2007      2008
 -1       637    8    0    1
 -2       244       397       396      2008      2009      2004
 -1       638    8    0    1
 -2       245       246       398      1551      2010      2011
 -1       639    8    0    1
 -2       245       398       397      2011      2012      2007
 -1       640    8    0    1
 -2       246       247       399      1554      2013      2014
 -1       641    8    0    1
 -2       246       399       398      2014      2015      2010
 -1       642    8    0    1
 -2       247       248       400      1557      2016      2017
 -1       643    8    0    1
 -2       247       400       399      2017      2018      2013
 -1       644    8    0    1
 -2       248       249       401      1560      2019      2020
 -1       645    8    0    1
 -2       248       401       400      2020      2021      2016
 -1       646    8    0    1
 -2       249       250       402      1563      2022      2023
 -1       647    8    0    1
 -2       249       402       401      2023      2024      2019
 -1       648    8    0    1
 -2       250       251       403      1566      2025      2026
 -1       649    8    0    1
 -2       250       403       402      2026      2027      2022
 -1       650    8    0    1
 -2       251       252       404      1569      2028      2029
 -1       651    8    0    1
 -2       251       404       403      2029      2030      2025
 -1       652    8    0    1
 -2       252       253       405      1572      2031      2032
 -1       653    8    0    1
 -2       252       405       404      2032      2033      2028
 -1       654    8    0    1
 -2       253       254       406      1575      2034      2035
 -1       655    8    0    1
 -2       253       406       405      2035      2036      2031
 -1       656    8    0    1
 -2       254       255       407      1578      2037      2038
 -1       657    8    0    1
 -2       254       407       406      2038      2039      2034
 -1       658    8    0    1
 -2       255       256       408      1581      2040      2041
 -1       659    8    0    1
 -2       255       408       407      2041      2042      2037
 -1       660    8    0    1
 -2       256       257       409      1584      2043      2044
 -1       661    8    0    1
 -2       256       409       408      2044      2045      2040
 -1       662    8    0    1
 -2       257       258       410      1587      2046      2047
 -1       663    8    0    1
 -2       257       410       409      2047      2048      2043
 -1       664    8    0    1
 -2       258       259       411      1590      2049      2050
 -1       665    8    0    1
 -2       258       411       410      2050      2051      2046
 -1       666    8    0    1
 -2       259       260       412      1593      2052      2053
 -1       667    8    0    1
 -2       259       412       411      2053      2054      2049
 -1       668    8    0    1
 -2       260       261       413      1596      2055      2056
 -1       669    8    0    1
 -2       260       413       412      2056      2057      2052
 -1       670    8    0    1
 -2       261       262       414      1599      2058      2059
 -1       671    8    0    1
 -2       261       414       413      2059      2060      2055
 -1       672    8    0    1
 -2       262       263       415      1602      2061      2062
 -1       673    8    0    1
 -2       262       415       414      2062      2063      2058
 -1       674    8    0    1
 -2       263       264       416      1605      2064      2065
 -1       675    8    0    1
 -2       263       416       415      2065      2066      2061
 -1       676    8    0    1
 -2       264       265       417      1608      2067      2068
 -1       677    8    0    1
 -2       264       417       416      2068      2069      2064
 -1       678    8    0    1
 -2       265       266       418      1611      2070      2071
 -1       679    8    0    1
 -2       265       418       417      2071      2072      2067
 -1       680    8    0    1
 -2       266       267       419      1614      2073      2074
 -1       681    8    0    1
 -2       266       419       418      2074      2075      2070
 -1       682    8    0    1
 -2       267       268       420      1617      2076      2077
 -1       683    8    0    1
 -2       267       420       419      2077      2078      2073
 -1       684    8    0    1
 -2       268       269       421      1620      2079      2080
 -1       685    8    0    1
 -2       268       421       420      2080      2081      2076
 -1       686    8    0    1
 -2       269       270       422      1623      2082      2083
 -1       687    8    0    1
 -2       269       422       421      2083      2084      2079
 -1       688    8    0    1
 -2       270       271       423      1626      2085      2086
 -1       689    8    0    1
 -2       270       423       422      2086      2087      2082
 -1       690    8    0    1
 -2       271       272       424      1629      2088      2089
 -1       691    8    0    1
 -2       271       424       423      2089      2090      2085
 -1       692    8    0    1
 -2       272       273       425      1632      2091      2092
 -1       693    8    0    1
 -2       272       425       424      2092      2093      2088
 -1       694    8    0    1
 -2       273       274       426      1635      2094      2095
 -1       695    8    0    1
 -2       273       426       425      2095      2096      2091
 -1       696    8    0    1
 -2       274       275       427      1638      2097      2098
 -1       697    8    0    1
 -2       274       427       426      2098      2099      2094
 -1       698    8    0    1
 -2       275       276       428      1641      2100      2101
 -1       699    8    0    1
 -2       427       275       428      2097      2101      2102
 -1       700    8    0    1
 -2       276       277       428      1751      2103      2100
 -1       701    8    0    1
 -2       279       280       429      1653      2104      2105
 -1       702    8    0    1
 -2       278       279       430      1650      2106      2107
 -1       703    8    0    1
 -2       279       429       430      2105      2108      2106
 -1       704    8    0    1
 -2       277       278       431      1647      2109      2110
 -1       705    8    0    1
 -2       428       277       431      2103      2110      2111
 -1       706    8    0    1
 -2       278       430       431      2107      2112      2109
 -1       707    8    0    1
 -2       280       281       432      1656      2113      2114
 -1       708    8    0    1
 -2       280       432       429      2114      2115      2104
 -1       709    8    0    1
 -2       281       282       433      1659      2116      2117
 -1       710    8    0    1
 -2       281       433       432      2117      2118      2113
 -1       711    8    0    1
 -2       282       283       434      1662      2119      2120
 -1       712    8    0    1
 -2       282       434       433      2120      2121      2116
 -1       713    8    0    1
 -2       283       284       435      1665      2122      2123
 -1       714    8    0    1
 -2       283       435       434      2123      2124      2119
 -1       715    8    0    1
 -2       284       285       436      1668      2125      2126
 -1       716    8    0    1
 -2       284       436       435      2126      2127      2122
 -1       717    8    0    1
 -2       285       286       437      1671      2128      2129
 -1       718    8    0    1
 -2       285       437       436      2129      2130      2125
 -1       719    8    0    1
 -2       286       287       438      1674      2131      2132
 -1       720    8    0    1
 -2       286       438       437      2132      2133      2128
 -1       721    8    0    1
 -2       287       288       439      1677      2134      2135
 -1       722    8    0    1
 -2       287       439       438      2135      2136      2131
 -1       723    8    0    1
 -2       288       289       440      1680      2137      2138
 -1       724    8    0    1
 -2       288       440       439      2138      2139      2134
 -1       725    8    0    1
 -2       289       290       441      1683      2140      2141
 -1       726    8    0    1
 -2       289       441       440      2141      2142      2137
 -1       727    8    0    1
 -2       293       294       442      1753      2143      2144
 -1       728    8    0    1
 -2       321       292       443      1754      2145      2146
 -1       729    8    0    1
 -2       292       293       444      1752      2147      2148
 -1       730    8    0    1
 -2       293       442       444      2144      2149      2147
 -1       731    8    0    1
 -2       294       295       445      1749      2150      2151
 -1       732    8    0    1
 -2       295       296       446      1748      2152      2153
 -1       733    8    0    1
 -2       167       168       447      1315      2154      2155
 -1       734    8    0    1
 -2       322       167       447      1781      2155      2156
 -1       735    8    0    1
 -2       168       324       447      1787      2157      2154
 -1       736    8    0    1
 -2       297       298       448      1756      2158      2159
 -1       737    8    0    1
 -2       298       299       449      1757      2160      2161
 -1       738    8    0    1
 -2       299       300       450      1758      2162      2163
 -1       739    8    0    1
 -2       300       301       451      1759      2164      2165
 -1       740    8    0    1
 -2       301       302       452      1760      2166      2167
 -1       741    8    0    1
 -2       302       303       453      1761      2168      2169
 -1       742    8    0    1
 -2       303       304       454      1762      2170      2171
 -1       743    8    0    1
 -2       304       305       455      1763      2172      2173
 -1       744    8    0    1
 -2       305       306       456      1764      2174      2175
 -1       745    8    0    1
 -2       306       307       457      1765      2176      2177
 -1       746    8    0    1
 -2       307       308       458      1766      2178      2179
 -1       747    8    0    1
 -2       308       309       459      1767      2180      2181
 -1       748    8    0    1
 -2       309       310       460      1768      2182      2183
 -1       749    8    0    1
 -2       310       311       461      1769      2184      2185
 -1       750    8    0    1
 -2       311       312       462      1770      2186      2187
 -1       751    8    0    1
 -2       312       313       463      1771      2188      2189
 -1       752    8    0    1
 -2       313       314       464      1772      2190      2191
 -1       753    8    0    1
 -2       314       315       465      1773      2192      2193
 -1       754    8    0    1
 -2       314       465       464      2193      2194      2190
 -1       755    8    0    1
 -2       315       316       466      1774      2195      2196
 -1       756    8    0    1
 -2       316       317       467      1775      2197      2198
 -1       757    8    0    1
 -2       316       467       466      2198      2199      2195
 -1       758    8    0    1
 -2       317       318       468      1776      2200      2201
 -1       759    8    0    1
 -2       318       319       469      1777      2202      2203
 -1       760    8    0    1
 -2       319       320       470      1778      2204      2205
 -1       761    8    0    1
 -2       319       470       469      2205      2206      2202
 -1       762    8    0    1
 -2       320       321       471      1779      2207      2208
 -1       763    8    0    1
 -2       321       443       471      2146      2209      2207
 -1       764    8    0    1
 -2       296       297       472      1755      2210      2211
 -1       765    8    0    1
 -2       296       472       446      2211      2212      2152
 -1       766    8    0    1
 -2       181       323       182      1826      2213      1357
 -1       767    8    0    1
 -2       297       448       472      2159      2214      2210
 -1       768    8    0    1
 -2       337       182       323      1827      2213      2215
 -1       769    8    0    1
 -2       443       292       473      2145      2216      2217
 -1       770    8    0    1
 -2       292       444       473      2148      2218      2216
 -1       771    8    0    1
 -2       294       445       474      2151      2219      2220
 -1       772    8    0    1
 -2       294       474       442      2220      2221      2143
 -1       773    8    0    1
 -2       441       290       291      2140      1686      2222
 -1       774    8    0    1
 -2       445       295       446      2150      2153      2223
 -1       775    8    0    1
 -2       470       320       471      2204      2208      2224
 -1       776    8    0    1
 -2       467       317       468      2197      2201      2225
 -1       777    8    0    1
 -2       465       315       466      2192      2196      2226
 -1       778    8    0    1
 -2       463       313       464      2188      2191      2227
 -1       779    8    0    1
 -2       462       312       463      2186      2189      2228
 -1       780    8    0    1
 -2       461       311       462      2184      2187      2229
 -1       781    8    0    1
 -2       460       310       461      2182      2185      2230
 -1       782    8    0    1
 -2       459       309       460      2180      2183      2231
 -1       783    8    0    1
 -2       458       308       459      2178      2181      2232
 -1       784    8    0    1
 -2       457       307       458      2176      2179      2233
 -1       785    8    0    1
 -2       456       306       457      2174      2177      2234
 -1       786    8    0    1
 -2       455       305       456      2172      2175      2235
 -1       787    8    0    1
 -2       454       304       455      2170      2173      2236
 -1       788    8    0    1
 -2       453       303       454      2168      2171      2237
 -1       789    8    0    1
 -2       452       302       453      2166      2169      2238
 -1       790    8    0    1
 -2       451       301       452      2164      2167      2239
 -1       791    8    0    1
 -2       450       300       451      2162      2165      2240
 -1       792    8    0    1
 -2       448       298       449      2158      2161      2241
 -1       793    8    0    1
 -2       449       299       450      2160      2163      2242
 -1       794    8    0    1
 -2       468       318       469      2200      2203      2243
 -1       795    8    0    1
 -2       336       383       475      1967      2244      2245
 -1       796    8    0    1
 -2       325       326       476      1793      2246      2247
 -1       797    8    0    1
 -2       324       325       477      1790      2248      2249
 -1       798    8    0    1
 -2       325       476       477      2247      2250      2248
 -1       799    8    0    1
 -2       327       328       478      1799      2251      2252
 -1       800    8    0    1
 -2       328       329       479      1802      2253      2254
 -1       801    8    0    1
 -2       328       479       478      2254      2255      2251
 -1       802    8    0    1
 -2       329       330       480      1805      2256      2257
 -1       803    8    0    1
 -2       329       480       479      2257      2258      2253
 -1       804    8    0    1
 -2       330       331       481      1808      2259      2260
 -1       805    8    0    1
 -2       330       481       480      2260      2261      2256
 -1       806    8    0    1
 -2       331       332       482      1811      2262      2263
 -1       807    8    0    1
 -2       331       482       481      2263      2264      2259
 -1       808    8    0    1
 -2       332       333       483      1814      2265      2266
 -1       809    8    0    1
 -2       332       483       482      2266      2267      2262
 -1       810    8    0    1
 -2       383       384       484      1970      2268      2269
 -1       811    8    0    1
 -2       383       484       475      2269      2270      2244
 -1       812    8    0    1
 -2       338       337       485      1831      2271      2272
 -1       813    8    0    1
 -2       472       448       486      2214      2273      2274
 -1       814    8    0    1
 -2       339       338       487      1834      2275      2276
 -1       815    8    0    1
 -2       338       485       487      2272      2277      2275
 -1       816    8    0    1
 -2       340       339       488      1837      2278      2279
 -1       817    8    0    1
 -2       339       487       488      2276      2280      2278
 -1       818    8    0    1
 -2       341       340       489      1840      2281      2282
 -1       819    8    0    1
 -2       340       488       489      2279      2283      2281
 -1       820    8    0    1
 -2       342       341       490      1843      2284      2285
 -1       821    8    0    1
 -2       341       489       490      2282      2286      2284
 -1       822    8    0    1
 -2       343       342       491      1846      2287      2288
 -1       823    8    0    1
 -2       342       490       491      2285      2289      2287
 -1       824    8    0    1
 -2       344       343       492      1849      2290      2291
 -1       825    8    0    1
 -2       343       491       492      2288      2292      2290
 -1       826    8    0    1
 -2       345       344       493      1852      2293      2294
 -1       827    8    0    1
 -2       344       492       493      2291      2295      2293
 -1       828    8    0    1
 -2       346       345       494      1855      2296      2297
 -1       829    8    0    1
 -2       345       493       494      2294      2298      2296
 -1       830    8    0    1
 -2       347       346       495      1858      2299      2300
 -1       831    8    0    1
 -2       346       494       495      2297      2301      2299
 -1       832    8    0    1
 -2       348       347       496      1861      2302      2303
 -1       833    8    0    1
 -2       347       495       496      2300      2304      2302
 -1       834    8    0    1
 -2       349       348       497      1864      2305      2306
 -1       835    8    0    1
 -2       348       496       497      2303      2307      2305
 -1       836    8    0    1
 -2       350       349       498      1867      2308      2309
 -1       837    8    0    1
 -2       349       497       498      2306      2310      2308
 -1       838    8    0    1
 -2       351       350       499      1870      2311      2312
 -1       839    8    0    1
 -2       350       498       499      2309      2313      2311
 -1       840    8    0    1
 -2       352       351       500      1873      2314      2315
 -1       841    8    0    1
 -2       351       499       500      2312      2316      2314
 -1       842    8    0    1
 -2       353       352       501      1876      2317      2318
 -1       843    8    0    1
 -2       352       500       501      2315      2319      2317
 -1       844    8    0    1
 -2       354       353       502      1879      2320      2321
 -1       845    8    0    1
 -2       353       501       502      2318      2322      2320
 -1       846    8    0    1
 -2       355       354       503      1882      2323      2324
 -1       847    8    0    1
 -2       354       502       503      2321      2325      2323
 -1       848    8    0    1
 -2       356       355       504      1885      2326      2327
 -1       849    8    0    1
 -2       355       503       504      2324      2328      2326
 -1       850    8    0    1
 -2       357       356       505      1888      2329      2330
 -1       851    8    0    1
 -2       356       504       505      2327      2331      2329
 -1       852    8    0    1
 -2       358       357       506      1891      2332      2333
 -1       853    8    0    1
 -2       357       505       506      2330      2334      2332
 -1       854    8    0    1
 -2       359       358       507      1894      2335      2336
 -1       855    8    0    1
 -2       358       506       507      2333      2337      2335
 -1       856    8    0    1
 -2       360       359       508      1897      2338      2339
 -1       857    8    0    1
 -2       359       507       508      2336      2340      2338
 -1       858    8    0    1
 -2       361       360       509      1900      2341      2342
 -1       859    8    0    1
 -2       360       508       509      2339      2343      2341
 -1       860    8    0    1
 -2       362       361       510      1903      2344      2345
 -1       861    8    0    1
 -2       361       509       510      2342      2346      2344
 -1       862    8    0    1
 -2       363       362       511      1906      2347      2348
 -1       863    8    0    1
 -2       362       510       511      2345      2349      2347
 -1       864    8    0    1
 -2       364       363       512      1909      2350      2351
 -1       865    8    0    1
 -2       363       511       512      2348      2352      2350
 -1       866    8    0    1
 -2       365       364       513      1912      2353      2354
 -1       867    8    0    1
 -2       364       512       513      2351      2355      2353
 -1       868    8    0    1
 -2       366       365       514      1915      2356      2357
 -1       869    8    0    1
 -2       365       513       514      2354      2358      2356
 -1       870    8    0    1
 -2       367       366       515      1918      2359      2360
 -1       871    8    0    1
 -2       366       514       515      2357      2361      2359
 -1       872    8    0    1
 -2       368       367       516      1921      2362      2363
 -1       873    8    0    1
 -2       367       515       516      2360      2364      2362
 -1       874    8    0    1
 -2       369       368       517      1924      2365      2366
 -1       875    8    0    1
 -2       368       516       517      2363      2367      2365
 -1       876    8    0    1
 -2       370       369       518      1927      2368      2369
 -1       877    8    0    1
 -2       369       517       518      2366      2370      2368
 -1       878    8    0    1
 -2       371       370       519      1930      2371      2372
 -1       879    8    0    1
 -2       370       518       519      2369      2373      2371
 -1       880    8    0    1
 -2       372       371       520      1933      2374      2375
 -1       881    8    0    1
 -2       371       519       520      2372      2376      2374
 -1       882    8    0    1
 -2       373       372       521      1936      2377      2378
 -1       883    8    0    1
 -2       372       520       521      2375      2379      2377
 -1       884    8    0    1
 -2       374       373       522      1939      2380      2381
 -1       885    8    0    1
 -2       373       521       522      2378      2382      2380
 -1       886    8    0    1
 -2       375       374       523      1942      2383      2384
 -1       887    8    0    1
 -2       374       522       523      2381      2385      2383
 -1       888    8    0    1
 -2       376       375       524      1945      2386      2387
 -1       889    8    0    1
 -2       375       523       524      2384      2388      2386
 -1       890    8    0    1
 -2       377       376       525      1948      2389      2390
 -1       891    8    0    1
 -2       376       524       525      2387      2391      2389
 -1       892    8    0    1
 -2       378       377       526      1951      2392      2393
 -1       893    8    0    1
 -2       377       525       526      2390      2394      2392
 -1       894    8    0    1
 -2       379       378       527      1954      2395      2396
 -1       895    8    0    1
 -2       378       526       527      2393      2397      2395
 -1       896    8    0    1
 -2       380       379       528      1957      2398      2399
 -1       897    8    0    1
 -2       379       527       528      2396      2400      2398
 -1       898    8    0    1
 -2       381       380       529      1960      2401      2402
 -1       899    8    0    1
 -2       380       528       529      2399      2403      2401
 -1       900    8    0    1
 -2       444       442       530      2149      2404      2405
 -1       901    8    0    1
 -2       385       386       531      1976      2406      2407
 -1       902    8    0    1
 -2       386       387       532      1979      2408      2409
 -1       903    8    0    1
 -2       386       532       531      2409      2410      2406
 -1       904    8    0    1
 -2       387       388       533      1982      2411      2412
 -1       905    8    0    1
 -2       387       533       532      2412      2413      2408
 -1       906    8    0    1
 -2       388       389       534      1985      2414      2415
 -1       907    8    0    1
 -2       388       534       533      2415      2416      2411
 -1       908    8    0    1
 -2       389       390       535      1988      2417      2418
 -1       909    8    0    1
 -2       389       535       534      2418      2419      2414
 -1       910    8    0    1
 -2       390       391       536      1991      2420      2421
 -1       911    8    0    1
 -2       390       536       535      2421      2422      2417
 -1       912    8    0    1
 -2       391       392       537      1994      2423      2424
 -1       913    8    0    1
 -2       391       537       536      2424      2425      2420
 -1       914    8    0    1
 -2       392       393       538      1997      2426      2427
 -1       915    8    0    1
 -2       392       538       537      2427      2428      2423
 -1       916    8    0    1
 -2       393       394       539      2000      2429      2430
 -1       917    8    0    1
 -2       393       539       538      2430      2431      2426
 -1       918    8    0    1
 -2       394       395       540      2003      2432      2433
 -1       919    8    0    1
 -2       394       540       539      2433      2434      2429
 -1       920    8    0    1
 -2       395       396       541      2006      2435      2436
 -1       921    8    0    1
 -2       395       541       540      2436      2437      2432
 -1       922    8    0    1
 -2       396       397       542      2009      2438      2439
 -1       923    8    0    1
 -2       396       542       541      2439      2440      2435
 -1       924    8    0    1
 -2       397       398       543      2012      2441      2442
 -1       925    8    0    1
 -2       397       543       542      2442      2443      2438
 -1       926    8    0    1
 -2       398       399       544      2015      2444      2445
 -1       927    8    0    1
 -2       398       544       543      2445      2446      2441
 -1       928    8    0    1
 -2       399       400       545      2018      2447      2448
 -1       929    8    0    1
 -2       399       545       544      2448      2449      2444
 -1       930    8    0    1
 -2       400       401       546      2021      2450      2451
 -1       931    8    0    1
 -2       400       546       545      2451      2452      2447
 -1       932    8    0    1
 -2       401       402       547      2024      2453      2454
 -1       933    8    0    1
 -2       401       547       546      2454      2455      2450
 -1       934    8    0    1
 -2       402       403       548      2027      2456      2457
 -1       935    8    0    1
 -2       402       548       547      2457      2458      2453
 -1       936    8    0    1
 -2       403       404       549      2030      2459      2460
 -1       937    8    0    1
 -2       403       549       548      2460      2461      2456
 -1       938    8    0    1
 -2       404       405       550      2033      2462      2463
 -1       939    8    0    1
 -2       404       550       549      2463      2464      2459
 -1       940    8    0    1
 -2       405       406       551      2036      2465      2466
 -1       941    8    0    1
 -2       405       551       550      2466      2467      2462
 -1       942    8    0    1
 -2       406       407       552      2039      2468      2469
 -1       943    8    0    1
 -2       406       552       551      2469      2470      2465
 -1       944    8    0    1
 -2       407       408       553      2042      2471      2472
 -1       945    8    0    1
 -2       407       553       552      2472      2473      2468
 -1       946    8    0    1
 -2       408       409       554      2045      2474      2475
 -1       947    8    0    1
 -2       408       554       553      2475      2476      2471
 -1       948    8    0    1
 -2       409       410       555      2048      2477      2478
 -1       949    8    0    1
 -2       409       555       554      2478      2479      2474
 -1       950    8    0    1
 -2       410       411       556      2051      2480      2481
 -1       951    8    0    1
 -2       410       556       555      2481      2482      2477
 -1       952    8    0    1
 -2       411       412       557      2054      2483      2484
 -1       953    8    0    1
 -2       411       557       556      2484      2485      2480
 -1       954    8    0    1
 -2       412       413       558      2057      2486      2487
 -1       955    8    0    1
 -2       412       558       557      2487      2488      2483
 -1       956    8    0    1
 -2       413       414       559      2060      2489      2490
 -1       957    8    0    1
 -2       413       559       558      2490      2491      2486
 -1       958    8    0    1
 -2       414       415       560      2063      2492      2493
 -1       959    8    0    1
 -2       414       560       559      2493      2494      2489
 -1       960    8    0    1
 -2       415       416       561      2066      2495      2496
 -1       961    8    0    1
 -2       415       561       560      2496      2497      2492
 -1       962    8    0    1
 -2       416       417       562      2069      2498      2499
 -1       963    8    0    1
 -2       416       562       561      2499      2500      2495
 -1       964    8    0    1
 -2       417       418       563      2072      2501      2502
 -1       965    8    0    1
 -2       417       563       562      2502      2503      2498
 -1       966    8    0    1
 -2       418       419       564      2075      2504      2505
 -1       967    8    0    1
 -2       418       564       563      2505      2506      2501
 -1       968    8    0    1
 -2       419       420       565      2078      2507      2508
 -1       969    8    0    1
 -2       419       565       564      2508      2509      2504
 -1       970    8    0    1
 -2       420       421       566      2081      2510      2511
 -1       971    8    0    1
 -2       420       566       565      2511      2512      2507
 -1       972    8    0    1
 -2       421       422       567      2084      2513      2514
 -1       973    8    0    1
 -2       421       567       566      2514      2515      2510
 -1       974    8    0    1
 -2       422       423       568      2087      2516      2517
 -1       975    8    0    1
 -2       422       568       567      2517      2518      2513
 -1       976    8    0    1
 -2       423       424       569      2090      2519      2520
 -1       977    8    0    1
 -2       423       569       568      2520      2521      2516
 -1       978    8    0    1
 -2       424       425       570      2093      2522      2523
 -1       979    8    0    1
 -2       424       570       569      2523      2524      2519
 -1       980    8    0    1
 -2       425       426       571      2096      2525      2526
 -1       981    8    0    1
 -2       425       571       570      2526      2527      2522
 -1       982    8    0    1
 -2       426       427       572      2099      2528      2529
 -1       983    8    0    1
 -2       426       572       571      2529      2530      2525
 -1       984    8    0    1
 -2       427       428       431      2102      2111      2531
 -1       985    8    0    1
 -2       432       433       573      2118      2532      2533
 -1       986    8    0    1
 -2       433       434       574      2121      2534      2535
 -1       987    8    0    1
 -2       433       574       573      2535      2536      2532
 -1       988    8    0    1
 -2       430       429       575      2108      2537      2538
 -1       989    8    0    1
 -2       429       432       576      2115      2539      2540
 -1       990    8    0    1
 -2       575       429       576      2537      2540      2541
 -1       991    8    0    1
 -2       432       573       576      2533      2542      2539
 -1       992    8    0    1
 -2       434       435       577      2124      2543      2544
 -1       993    8    0    1
 -2       434       577       574      2544      2545      2534
 -1       994    8    0    1
 -2       435       436       578      2127      2546      2547
 -1       995    8    0    1
 -2       435       578       577      2547      2548      2543
 -1       996    8    0    1
 -2       436       437       579      2130      2549      2550
 -1       997    8    0    1
 -2       436       579       578      2550      2551      2546
 -1       998    8    0    1
 -2       437       438       580      2133      2552      2553
 -1       999    8    0    1
 -2       437       580       579      2553      2554      2549
 -1      1000    8    0    1
 -2       438       439       581      2136      2555      2556
 -1      1001    8    0    1
 -2       438       581       580      2556      2557      2552
 -1      1002    8    0    1
 -2       439       440       582      2139      2558      2559
 -1      1003    8    0    1
 -2       439       582       581      2559      2560      2555
 -1      1004    8    0    1
 -2       440       441       583      2142      2561      2562
 -1      1005    8    0    1
 -2       440       583       582      2562      2563      2558
 -1      1006    8    0    1
 -2       441       291       382      2222      1963      2564
 -1      1007    8    0    1
 -2       445       446       584      2223      2565      2566
 -1      1008    8    0    1
 -2       384       385       585      1973      2567      2568
 -1      1009    8    0    1
 -2       385       531       585      2407      2569      2567
 -1      1010    8    0    1
 -2       446       472       586      2212      2570      2571
 -1      1011    8    0    1
 -2       470       471       587      2224      2572      2573
 -1      1012    8    0    1
 -2       467       468       588      2225      2574      2575
 -1      1013    8    0    1
 -2       463       464       589      2227      2576      2577
 -1      1014    8    0    1
 -2       326       327       590      1796      2578      2579
 -1      1015    8    0    1
 -2       476       326       590      2246      2579      2580
 -1      1016    8    0    1
 -2       327       478       590      2252      2581      2578
 -1      1017    8    0    1
 -2       449       450       591      2242      2582      2583
 -1      1018    8    0    1
 -2       468       469       592      2243      2584      2585
 -1      1019    8    0    1
 -2       448       449       593      2241      2586      2587
 -1      1020    8    0    1
 -2       450       451       594      2240      2588      2589
 -1      1021    8    0    1
 -2       451       452       595      2239      2590      2591
 -1      1022    8    0    1
 -2       452       453       596      2238      2592      2593
 -1      1023    8    0    1
 -2       453       454       597      2237      2594      2595
 -1      1024    8    0    1
 -2       454       455       598      2236      2596      2597
 -1      1025    8    0    1
 -2       454       598       597      2597      2598      2594
 -1      1026    8    0    1
 -2       455       456       599      2235      2599      2600
 -1      1027    8    0    1
 -2       456       457       600      2234      2601      2602
 -1      1028    8    0    1
 -2       456       600       599      2602      2603      2599
 -1      1029    8    0    1
 -2       457       458       601      2233      2604      2605
 -1      1030    8    0    1
 -2       458       459       602      2232      2606      2607
 -1      1031    8    0    1
 -2       459       460       603      2231      2608      2609
 -1      1032    8    0    1
 -2       460       461       604      2230      2610      2611
 -1      1033    8    0    1
 -2       461       462       605      2229      2612      2613
 -1      1034    8    0    1
 -2       461       605       604      2613      2614      2610
 -1      1035    8    0    1
 -2       462       463       606      2228      2615      2616
 -1      1036    8    0    1
 -2       464       465       607      2194      2617      2618
 -1      1037    8    0    1
 -2       464       607       589      2618      2619      2576
 -1      1038    8    0    1
 -2       465       466       608      2226      2620      2621
 -1      1039    8    0    1
 -2       465       608       607      2621      2622      2617
 -1      1040    8    0    1
 -2       466       467       609      2199      2623      2624
 -1      1041    8    0    1
 -2       467       588       609      2575      2625      2623
 -1      1042    8    0    1
 -2       469       470       610      2206      2626      2627
 -1      1043    8    0    1
 -2       592       469       610      2584      2627      2628
 -1      1044    8    0    1
 -2       470       587       610      2573      2629      2626
 -1      1045    8    0    1
 -2       471       443       611      2209      2630      2631
 -1      1046    8    0    1
 -2       337       323       612      2215      2632      2633
 -1      1047    8    0    1
 -2       485       337       612      2271      2633      2634
 -1      1048    8    0    1
 -2       323       322       612      1785      2635      2632
 -1      1049    8    0    1
 -2       335       336       613      1825      2636      2637
 -1      1050    8    0    1
 -2       334       335       613      1820      2637      2638
 -1      1051    8    0    1
 -2       336       475       613      2245      2639      2636
 -1      1052    8    0    1
 -2       449       591       614      2583      2640      2641
 -1      1053    8    0    1
 -2       449       614       593      2641      2642      2586
 -1      1054    8    0    1
 -2       324       477       615      2249      2643      2644
 -1      1055    8    0    1
 -2       324       615       447      2644      2645      2157
 -1      1056    8    0    1
 -2       484       384       585      2268      2568      2646
 -1      1057    8    0    1
 -2       333       334       613      1817      2638      2647
 -1      1058    8    0    1
 -2       443       473       611      2217      2648      2630
 -1      1059    8    0    1
 -2       472       486       586      2274      2649      2570
 -1      1060    8    0    1
 -2       466       609       608      2624      2650      2620
 -1      1061    8    0    1
 -2       473       444       616      2218      2651      2652
 -1      1062    8    0    1
 -2       444       530       616      2405      2653      2651
 -1      1063    8    0    1
 -2       445       584       474      2566      2654      2219
 -1      1064    8    0    1
 -2       530       442       474      2404      2221      2655
 -1      1065    8    0    1
 -2       446       586       584      2571      2656      2565
 -1      1066    8    0    1
 -2       427       431       572      2531      2657      2528
 -1      1067    8    0    1
 -2       587       471       611      2572      2631      2658
 -1      1068    8    0    1
 -2       431       430       572      2112      2659      2657
 -1      1069    8    0    1
 -2       441       382       617      2564      2660      2661
 -1      1070    8    0    1
 -2       583       441       617      2561      2661      2662
 -1      1071    8    0    1
 -2       382       381       617      1964      2663      2660
 -1      1072    8    0    1
 -2       605       462       606      2612      2616      2664
 -1      1073    8    0    1
 -2       333       613       483      2647      2665      2265
 -1      1074    8    0    1
 -2       572       430       575      2659      2538      2666
 -1      1075    8    0    1
 -2       603       460       618      2608      2667      2668
 -1      1076    8    0    1
 -2       460       604       618      2611      2669      2667
 -1      1077    8    0    1
 -2       602       459       603      2606      2609      2670
 -1      1078    8    0    1
 -2       463       589       619      2577      2671      2672
 -1      1079    8    0    1
 -2       463       619       606      2672      2673      2615
 -1      1080    8    0    1
 -2       600       457       601      2601      2605      2674
 -1      1081    8    0    1
 -2       598       455       599      2596      2600      2675
 -1      1082    8    0    1
 -2       596       453       597      2592      2595      2676
 -1      1083    8    0    1
 -2       595       452       596      2590      2593      2677
 -1      1084    8    0    1
 -2       594       451       595      2588      2591      2678
 -1      1085    8    0    1
 -2       588       468       620      2574      2679      2680
 -1      1086    8    0    1
 -2       468       592       620      2585      2681      2679
 -1      1087    8    0    1
 -2       486       448       593      2273      2587      2682
 -1      1088    8    0    1
 -2       322       447       621      2156      2683      2684
 -1      1089    8    0    1
 -2       612       322       621      2635      2684      2685
 -1      1090    8    0    1
 -2       447       615       621      2645      2686      2683
 -1      1091    8    0    1
 -2       591       450       594      2582      2589      2687
 -1      1092    8    0    1
 -2       601       458       602      2604      2607      2688
 -1      1093    8    0    1
 -2       617       381       529      2663      2402      2689
 -1      1094    8    0    1
 -2       479       480       622      2258      2690      2691
 -1      1095    8    0    1
 -2       478       479       623      2255      2692      2693
 -1      1096    8    0    1
 -2       479       622       623      2691      2694      2692
 -1      1097    8    0    1
 -2       481       482       624      2264      2695      2696
 -1      1098    8    0    1
 -2       482       483       625      2267      2697      2698
 -1      1099    8    0    1
 -2       482       625       624      2698      2699      2695
 -1      1100    8    0    1
 -2       475       484       626      2270      2700      2701
 -1      1101    8    0    1
 -2       572       575       627      2666      2702      2703
 -1      1102    8    0    1
 -2       572       627       571      2703      2704      2530
 -1      1103    8    0    1
 -2       484       585       628      2646      2705      2706
 -1      1104    8    0    1
 -2       484       628       626      2706      2707      2700
 -1      1105    8    0    1
 -2       613       475       483      2639      2708      2665
 -1      1106    8    0    1
 -2       488       487       629      2280      2709      2710
 -1      1107    8    0    1
 -2       489       488       630      2283      2711      2712
 -1      1108    8    0    1
 -2       488       629       630      2710      2713      2711
 -1      1109    8    0    1
 -2       490       489       631      2286      2714      2715
 -1      1110    8    0    1
 -2       489       630       631      2712      2716      2714
 -1      1111    8    0    1
 -2       491       490       632      2289      2717      2718
 -1      1112    8    0    1
 -2       490       631       632      2715      2719      2717
 -1      1113    8    0    1
 -2       492       491       633      2292      2720      2721
 -1      1114    8    0    1
 -2       491       632       633      2718      2722      2720
 -1      1115    8    0    1
 -2       493       492       634      2295      2723      2724
 -1      1116    8    0    1
 -2       492       633       634      2721      2725      2723
 -1      1117    8    0    1
 -2       494       493       635      2298      2726      2727
 -1      1118    8    0    1
 -2       493       634       635      2724      2728      2726
 -1      1119    8    0    1
 -2       495       494       636      2301      2729      2730
 -1      1120    8    0    1
 -2       494       635       636      2727      2731      2729
 -1      1121    8    0    1
 -2       496       495       637      2304      2732      2733
 -1      1122    8    0    1
 -2       495       636       637      2730      2734      2732
 -1      1123    8    0    1
 -2       497       496       638      2307      2735      2736
 -1      1124    8    0    1
 -2       496       637       638      2733      2737      2735
 -1      1125    8    0    1
 -2       498       497       639      2310      2738      2739
 -1      1126    8    0    1
 -2       497       638       639      2736      2740      2738
 -1      1127    8    0    1
 -2       499       498       640      2313      2741      2742
 -1      1128    8    0    1
 -2       498       639       640      2739      2743      2741
 -1      1129    8    0    1
 -2       500       499       641      2316      2744      2745
 -1      1130    8    0    1
 -2       499       640       641      2742      2746      2744
 -1      1131    8    0    1
 -2       501       500       642      2319      2747      2748
 -1      1132    8    0    1
 -2       500       641       642      2745      2749      2747
 -1      1133    8    0    1
 -2       502       501       643      2322      2750      2751
 -1      1134    8    0    1
 -2       501       642       643      2748      2752      2750
 -1      1135    8    0    1
 -2       503       502       644      2325      2753      2754
 -1      1136    8    0    1
 -2       502       643       644      2751      2755      2753
 -1      1137    8    0    1
 -2       504       503       645      2328      2756      2757
 -1      1138    8    0    1
 -2       503       644       645      2754      2758      2756
 -1      1139    8    0    1
 -2       505       504       646      2331      2759      2760
 -1      1140    8    0    1
 -2       504       645       646      2757      2761      2759
 -1      1141    8    0    1
 -2       506       505       647      2334      2762      2763
 -1      1142    8    0    1
 -2       505       646       647      2760      2764      2762
 -1      1143    8    0    1
 -2       507       506       648      2337      2765      2766
 -1      1144    8    0    1
 -2       506       647       648      2763      2767      2765
 -1      1145    8    0    1
 -2       508       507       649      2340      2768      2769
 -1      1146    8    0    1
 -2       507       648       649      2766      2770      2768
 -1      1147    8    0    1
 -2       509       508       650      2343      2771      2772
 -1      1148    8    0    1
 -2       508       649       650      2769      2773      2771
 -1      1149    8    0    1
 -2       510       509       619      2346      2774      2775
 -1      1150    8    0    1
 -2       512       511       651      2352      2776      2777
 -1      1151    8    0    1
 -2       513       512       652      2355      2778      2779
 -1      1152    8    0    1
 -2       512       651       652      2777      2780      2778
 -1      1153    8    0    1
 -2       514       513       653      2358      2781      2782
 -1      1154    8    0    1
 -2       513       652       653      2779      2783      2781
 -1      1155    8    0    1
 -2       515       514       654      2361      2784      2785
 -1      1156    8    0    1
 -2       514       653       654      2782      2786      2784
 -1      1157    8    0    1
 -2       516       515       655      2364      2787      2788
 -1      1158    8    0    1
 -2       515       654       655      2785      2789      2787
 -1      1159    8    0    1
 -2       517       516       656      2367      2790      2791
 -1      1160    8    0    1
 -2       516       655       656      2788      2792      2790
 -1      1161    8    0    1
 -2       518       517       657      2370      2793      2794
 -1      1162    8    0    1
 -2       517       656       657      2791      2795      2793
 -1      1163    8    0    1
 -2       519       518       658      2373      2796      2797
 -1      1164    8    0    1
 -2       518       657       658      2794      2798      2796
 -1      1165    8    0    1
 -2       520       519       659      2376      2799      2800
 -1      1166    8    0    1
 -2       519       658       659      2797      2801      2799
 -1      1167    8    0    1
 -2       521       520       660      2379      2802      2803
 -1      1168    8    0    1
 -2       520       659       660      2800      2804      2802
 -1      1169    8    0    1
 -2       522       521       661      2382      2805      2806
 -1      1170    8    0    1
 -2       521       660       661      2803      2807      2805
 -1      1171    8    0    1
 -2       523       522       662      2385      2808      2809
 -1      1172    8    0    1
 -2       522       661       662      2806      2810      2808
 -1      1173    8    0    1
 -2       524       523       663      2388      2811      2812
 -1      1174    8    0    1
 -2       523       662       663      2809      2813      2811
 -1      1175    8    0    1
 -2       525       524       664      2391      2814      2815
 -1      1176    8    0    1
 -2       524       663       664      2812      2816      2814
 -1      1177    8    0    1
 -2       526       525       665      2394      2817      2818
 -1      1178    8    0    1
 -2       525       664       665      2815      2819      2817
 -1      1179    8    0    1
 -2       527       526       666      2397      2820      2821
 -1      1180    8    0    1
 -2       526       665       666      2818      2822      2820
 -1      1181    8    0    1
 -2       528       527       667      2400      2823      2824
 -1      1182    8    0    1
 -2       527       666       667      2821      2825      2823
 -1      1183    8    0    1
 -2       529       528       668      2403      2826      2827
 -1      1184    8    0    1
 -2       528       667       668      2824      2828      2826
 -1      1185    8    0    1
 -2       605       606       650      2664      2829      2830
 -1      1186    8    0    1
 -2       531       532       669      2410      2831      2832
 -1      1187    8    0    1
 -2       534       535       670      2419      2833      2834
 -1      1188    8    0    1
 -2       535       536       671      2422      2835      2836
 -1      1189    8    0    1
 -2       535       671       670      2836      2837      2833
 -1      1190    8    0    1
 -2       536       537       672      2425      2838      2839
 -1      1191    8    0    1
 -2       536       672       671      2839      2840      2835
 -1      1192    8    0    1
 -2       537       538       673      2428      2841      2842
 -1      1193    8    0    1
 -2       537       673       672      2842      2843      2838
 -1      1194    8    0    1
 -2       538       539       674      2431      2844      2845
 -1      1195    8    0    1
 -2       538       674       673      2845      2846      2841
 -1      1196    8    0    1
 -2       539       540       675      2434      2847      2848
 -1      1197    8    0    1
 -2       539       675       674      2848      2849      2844
 -1      1198    8    0    1
 -2       540       541       676      2437      2850      2851
 -1      1199    8    0    1
 -2       540       676       675      2851      2852      2847
 -1      1200    8    0    1
 -2       541       542       677      2440      2853      2854
 -1      1201    8    0    1
 -2       541       677       676      2854      2855      2850
 -1      1202    8    0    1
 -2       542       543       678      2443      2856      2857
 -1      1203    8    0    1
 -2       542       678       677      2857      2858      2853
 -1      1204    8    0    1
 -2       543       544       679      2446      2859      2860
 -1      1205    8    0    1
 -2       543       679       678      2860      2861      2856
 -1      1206    8    0    1
 -2       544       545       680      2449      2862      2863
 -1      1207    8    0    1
 -2       544       680       679      2863      2864      2859
 -1      1208    8    0    1
 -2       545       546       681      2452      2865      2866
 -1      1209    8    0    1
 -2       545       681       680      2866      2867      2862
 -1      1210    8    0    1
 -2       546       547       682      2455      2868      2869
 -1      1211    8    0    1
 -2       546       682       681      2869      2870      2865
 -1      1212    8    0    1
 -2       547       548       683      2458      2871      2872
 -1      1213    8    0    1
 -2       547       683       682      2872      2873      2868
 -1      1214    8    0    1
 -2       548       549       684      2461      2874      2875
 -1      1215    8    0    1
 -2       548       684       683      2875      2876      2871
 -1      1216    8    0    1
 -2       549       550       685      2464      2877      2878
 -1      1217    8    0    1
 -2       549       685       684      2878      2879      2874
 -1      1218    8    0    1
 -2       550       551       686      2467      2880      2881
 -1      1219    8    0    1
 -2       550       686       685      2881      2882      2877
 -1      1220    8    0    1
 -2       551       552       687      2470      2883      2884
 -1      1221    8    0    1
 -2       551       687       686      2884      2885      2880
 -1      1222    8    0    1
 -2       552       553       688      2473      2886      2887
 -1      1223    8    0    1
 -2       552       688       687      2887      2888      2883
 -1      1224    8    0    1
 -2       553       554       689      2476      2889      2890
 -1      1225    8    0    1
 -2       553       689       688      2890      2891      2886
 -1      1226    8    0    1
 -2       554       555       690      2479      2892      2893
 -1      1227    8    0    1
 -2       554       690       689      2893      2894      2889
 -1      1228    8    0    1
 -2       555       556       691      2482      2895      2896
 -1      1229    8    0    1
 -2       555       691       690      2896      2897      2892
 -1      1230    8    0    1
 -2       556       557       692      2485      2898      2899
 -1      1231    8    0    1
 -2       556       692       691      2899      2900      2895
 -1      1232    8    0    1
 -2       557       558       693      2488      2901      2902
 -1      1233    8    0    1
 -2       557       693       692      2902      2903      2898
 -1      1234    8    0    1
 -2       558       559       694      2491      2904      2905
 -1      1235    8    0    1
 -2       558       694       693      2905      2906      2901
 -1      1236    8    0    1
 -2       559       560       695      2494      2907      2908
 -1      1237    8    0    1
 -2       559       695       694      2908      2909      2904
 -1      1238    8    0    1
 -2       560       561       696      2497      2910      2911
 -1      1239    8    0    1
 -2       560       696       695      2911      2912      2907
 -1      1240    8    0    1
 -2       561       562       697      2500      2913      2914
 -1      1241    8    0    1
 -2       561       697       696      2914      2915      2910
 -1      1242    8    0    1
 -2       562       563       698      2503      2916      2917
 -1      1243    8    0    1
 -2       562       698       697      2917      2918      2913
 -1      1244    8    0    1
 -2       563       564       699      2506      2919      2920
 -1      1245    8    0    1
 -2       563       699       698      2920      2921      2916
 -1      1246    8    0    1
 -2       564       565       700      2509      2922      2923
 -1      1247    8    0    1
 -2       564       700       699      2923      2924      2919
 -1      1248    8    0    1
 -2       565       566       701      2512      2925      2926
 -1      1249    8    0    1
 -2       565       701       700      2926      2927      2922
 -1      1250    8    0    1
 -2       566       567       702      2515      2928      2929
 -1      1251    8    0    1
 -2       566       702       701      2929      2930      2925
 -1      1252    8    0    1
 -2       567       568       703      2518      2931      2932
 -1      1253    8    0    1
 -2       567       703       702      2932      2933      2928
 -1      1254    8    0    1
 -2       568       569       704      2521      2934      2935
 -1      1255    8    0    1
 -2       568       704       703      2935      2936      2931
 -1      1256    8    0    1
 -2       569       570       705      2524      2937      2938
 -1      1257    8    0    1
 -2       569       705       704      2938      2939      2934
 -1      1258    8    0    1
 -2       570       571       706      2527      2940      2941
 -1      1259    8    0    1
 -2       705       570       706      2937      2941      2942
 -1      1260    8    0    1
 -2       571       627       706      2704      2943      2940
 -1      1261    8    0    1
 -2       587       611       707      2658      2944      2945
 -1      1262    8    0    1
 -2       577       578       708      2548      2946      2947
 -1      1263    8    0    1
 -2       573       574       709      2536      2948      2949
 -1      1264    8    0    1
 -2       578       579       710      2551      2950      2951
 -1      1265    8    0    1
 -2       578       710       708      2951      2952      2946
 -1      1266    8    0    1
 -2       574       577       711      2545      2953      2954
 -1      1267    8    0    1
 -2       709       574       711      2948      2954      2955
 -1      1268    8    0    1
 -2       577       708       711      2947      2956      2953
 -1      1269    8    0    1
 -2       530       474       712      2655      2957      2958
 -1      1270    8    0    1
 -2       579       580       713      2554      2959      2960
 -1      1271    8    0    1
 -2       579       713       710      2960      2961      2950
 -1      1272    8    0    1
 -2       580       581       714      2557      2962      2963
 -1      1273    8    0    1
 -2       580       714       713      2963      2964      2959
 -1      1274    8    0    1
 -2       581       582       715      2560      2965      2966
 -1      1275    8    0    1
 -2       581       715       714      2966      2967      2962
 -1      1276    8    0    1
 -2       585       531       716      2569      2968      2969
 -1      1277    8    0    1
 -2       628       585       716      2705      2969      2970
 -1      1278    8    0    1
 -2       531       669       716      2832      2971      2968
 -1      1279    8    0    1
 -2       583       617       717      2662      2972      2973
 -1      1280    8    0    1
 -2       617       529       717      2689      2974      2972
 -1      1281    8    0    1
 -2       608       609       718      2650      2975      2976
 -1      1282    8    0    1
 -2       584       586       719      2656      2977      2978
 -1      1283    8    0    1
 -2       596       597       720      2676      2979      2980
 -1      1284    8    0    1
 -2       591       594       721      2687      2981      2982
 -1      1285    8    0    1
 -2       533       534       722      2416      2983      2984
 -1      1286    8    0    1
 -2       534       670       722      2834      2985      2983
 -1      1287    8    0    1
 -2       532       533       723      2413      2986      2987
 -1      1288    8    0    1
 -2       533       722       723      2984      2988      2986
 -1      1289    8    0    1
 -2       487       485       724      2277      2989      2990
 -1      1290    8    0    1
 -2       487       724       629      2990      2991      2709
 -1      1291    8    0    1
 -2       480       481       725      2261      2992      2993
 -1      1292    8    0    1
 -2       622       480       725      2690      2993      2994
 -1      1293    8    0    1
 -2       481       624       725      2696      2995      2992
 -1      1294    8    0    1
 -2       586       486       726      2649      2996      2997
 -1      1295    8    0    1
 -2       611       473       727      2648      2998      2999
 -1      1296    8    0    1
 -2       477       476       728      2250      3000      3001
 -1      1297    8    0    1
 -2       486       593       729      2682      3002      3003
 -1      1298    8    0    1
 -2       601       602       730      2688      3004      3005
 -1      1299    8    0    1
 -2       594       595       731      2678      3006      3007
 -1      1300    8    0    1
 -2       595       596       732      2677      3008      3009
 -1      1301    8    0    1
 -2       597       598       733      2598      3010      3011
 -1      1302    8    0    1
 -2       598       599       734      2675      3012      3013
 -1      1303    8    0    1
 -2       599       600       735      2603      3014      3015
 -1      1304    8    0    1
 -2       602       603       736      2670      3016      3017
 -1      1305    8    0    1
 -2       604       605       737      2614      3018      3019
 -1      1306    8    0    1
 -2       604       737       618      3019      3020      2669
 -1      1307    8    0    1
 -2       600       601       738      2674      3021      3022
 -1      1308    8    0    1
 -2       589       607       739      2619      3023      3024
 -1      1309    8    0    1
 -2       609       588       740      2625      3025      3026
 -1      1310    8    0    1
 -2       474       584       741      2654      3027      3028
 -1      1311    8    0    1
 -2       712       474       741      2957      3028      3029
 -1      1312    8    0    1
 -2       584       719       741      2978      3030      3027
 -1      1313    8    0    1
 -2       485       612       742      2634      3031      3032
 -1      1314    8    0    1
 -2       724       485       742      2989      3032      3033
 -1      1315    8    0    1
 -2       612       621       742      2685      3034      3031
 -1      1316    8    0    1
 -2       615       477       743      2643      3035      3036
 -1      1317    8    0    1
 -2       477       728       743      3001      3037      3035
 -1      1318    8    0    1
 -2       478       623       744      2693      3038      3039
 -1      1319    8    0    1
 -2       478       744       590      3039      3040      2581
 -1      1320    8    0    1
 -2       483       475       626      2708      2701      3041
 -1      1321    8    0    1
 -2       587       707       745      2945      3042      3043
 -1      1322    8    0    1
 -2       717       529       668      2974      2827      3044
 -1      1323    8    0    1
 -2       740       588       620      3025      2680      3045
 -1      1324    8    0    1
 -2       614       591       721      2640      2982      3046
 -1      1325    8    0    1
 -2       736       603       746      3016      3047      3048
 -1      1326    8    0    1
 -2       603       618       746      2668      3049      3047
 -1      1327    8    0    1
 -2       586       726       747      2997      3050      3051
 -1      1328    8    0    1
 -2       586       747       719      3051      3052      2977
 -1      1329    8    0    1
 -2       616       530       748      2653      3053      3054
 -1      1330    8    0    1
 -2       530       712       748      2958      3055      3053
 -1      1331    8    0    1
 -2       735       600       749      3014      3056      3057
 -1      1332    8    0    1
 -2       600       738       749      3022      3058      3056
 -1      1333    8    0    1
 -2       734       599       750      3012      3059      3060
 -1      1334    8    0    1
 -2       599       735       750      3015      3061      3059
 -1      1335    8    0    1
 -2       511       510       751      2349      3062      3063
 -1      1336    8    0    1
 -2       733       598       734      3010      3013      3064
 -1      1337    8    0    1
 -2       583       717       582      2973      3065      2563
 -1      1338    8    0    1
 -2       732       596       720      3008      2980      3066
 -1      1339    8    0    1
 -2       532       723       669      2987      3067      2831
 -1      1340    8    0    1
 -2       707       611       752      2944      3068      3069
 -1      1341    8    0    1
 -2       611       727       752      2999      3070      3068
 -1      1342    8    0    1
 -2       731       595       732      3006      3009      3071
 -1      1343    8    0    1
 -2       573       709       753      2949      3072      3073
 -1      1344    8    0    1
 -2       573       753       576      3073      3074      2542
 -1      1345    8    0    1
 -2       575       576       627      2541      3075      2702
 -1      1346    8    0    1
 -2       730       602       736      3004      3017      3076
 -1      1347    8    0    1
 -2       726       486       729      2996      3003      3077
 -1      1348    8    0    1
 -2       715       582       717      2965      3065      3078
 -1      1349    8    0    1
 -2       729       593       754      3002      3079      3080
 -1      1350    8    0    1
 -2       593       614       754      2642      3081      3079
 -1      1351    8    0    1
 -2       510       619       751      2775      3082      3062
 -1      1352    8    0    1
 -2       718       609       740      2975      3026      3083
 -1      1353    8    0    1
 -2       721       594       731      2981      3007      3084
 -1      1354    8    0    1
 -2       720       597       733      2979      3011      3085
 -1      1355    8    0    1
 -2       592       610       755      2628      3086      3087
 -1      1356    8    0    1
 -2       476       590       756      2580      3088      3089
 -1      1357    8    0    1
 -2       728       476       756      3000      3089      3090
 -1      1358    8    0    1
 -2       590       744       756      3040      3091      3088
 -1      1359    8    0    1
 -2       620       592       757      2681      3092      3093
 -1      1360    8    0    1
 -2       592       755       757      3087      3094      3092
 -1      1361    8    0    1
 -2       483       626       625      3041      3095      2697
 -1      1362    8    0    1
 -2       607       608       758      2622      3096      3097
 -1      1363    8    0    1
 -2       727       473       616      2998      2652      3098
 -1      1364    8    0    1
 -2       651       511       751      2776      3063      3099
 -1      1365    8    0    1
 -2       607       758       739      3097      3100      3023
 -1      1366    8    0    1
 -2       601       730       738      3005      3101      3021
 -1      1367    8    0    1
 -2       608       718       758      2976      3102      3096
 -1      1368    8    0    1
 -2       610       587       745      2629      3043      3103
 -1      1369    8    0    1
 -2       624       625       759      2699      3104      3105
 -1      1370    8    0    1
 -2       745       707       760      3042      3106      3107
 -1      1371    8    0    1
 -2       717       668       761      3044      3108      3109
 -1      1372    8    0    1
 -2       715       717       761      3078      3109      3110
 -1      1373    8    0    1
 -2       668       667       761      2828      3111      3108
 -1      1374    8    0    1
 -2       738       730       762      3101      3112      3113
 -1      1375    8    0    1
 -2       737       605       650      3018      2830      3114
 -1      1376    8    0    1
 -2       630       629       763      2713      3115      3116
 -1      1377    8    0    1
 -2       509       650       619      2772      3117      2774
 -1      1378    8    0    1
 -2       631       630       764      2716      3118      3119
 -1      1379    8    0    1
 -2       630       763       764      3116      3120      3118
 -1      1380    8    0    1
 -2       632       631       765      2719      3121      3122
 -1      1381    8    0    1
 -2       631       764       765      3119      3123      3121
 -1      1382    8    0    1
 -2       633       632       766      2722      3124      3125
 -1      1383    8    0    1
 -2       632       765       766      3122      3126      3124
 -1      1384    8    0    1
 -2       634       633       767      2725      3127      3128
 -1      1385    8    0    1
 -2       633       766       767      3125      3129      3127
 -1      1386    8    0    1
 -2       635       634       768      2728      3130      3131
 -1      1387    8    0    1
 -2       634       767       768      3128      3132      3130
 -1      1388    8    0    1
 -2       636       635       769      2731      3133      3134
 -1      1389    8    0    1
 -2       635       768       769      3131      3135      3133
 -1      1390    8    0    1
 -2       637       636       770      2734      3136      3137
 -1      1391    8    0    1
 -2       636       769       770      3134      3138      3136
 -1      1392    8    0    1
 -2       638       637       771      2737      3139      3140
 -1      1393    8    0    1
 -2       637       770       771      3137      3141      3139
 -1      1394    8    0    1
 -2       639       638       772      2740      3142      3143
 -1      1395    8    0    1
 -2       638       771       772      3140      3144      3142
 -1      1396    8    0    1
 -2       640       639       773      2743      3145      3146
 -1      1397    8    0    1
 -2       639       772       773      3143      3147      3145
 -1      1398    8    0    1
 -2       641       640       774      2746      3148      3149
 -1      1399    8    0    1
 -2       640       773       774      3146      3150      3148
 -1      1400    8    0    1
 -2       642       641       775      2749      3151      3152
 -1      1401    8    0    1
 -2       641       774       775      3149      3153      3151
 -1      1402    8    0    1
 -2       643       642       776      2752      3154      3155
 -1      1403    8    0    1
 -2       642       775       776      3152      3156      3154
 -1      1404    8    0    1
 -2       644       643       777      2755      3157      3158
 -1      1405    8    0    1
 -2       643       776       777      3155      3159      3157
 -1      1406    8    0    1
 -2       645       644       778      2758      3160      3161
 -1      1407    8    0    1
 -2       644       777       778      3158      3162      3160
 -1      1408    8    0    1
 -2       646       645       779      2761      3163      3164
 -1      1409    8    0    1
 -2       645       778       779      3161      3165      3163
 -1      1410    8    0    1
 -2       647       646       780      2764      3166      3167
 -1      1411    8    0    1
 -2       646       779       780      3164      3168      3166
 -1      1412    8    0    1
 -2       648       647       781      2767      3169      3170
 -1      1413    8    0    1
 -2       647       780       781      3167      3171      3169
 -1      1414    8    0    1
 -2       650       649       737      2773      3172      3114
 -1      1415    8    0    1
 -2       737       649       782      3172      3173      3174
 -1      1416    8    0    1
 -2       618       737       782      3020      3174      3175
 -1      1417    8    0    1
 -2       649       648       782      2770      3176      3173
 -1      1418    8    0    1
 -2       733       734       783      3064      3177      3178
 -1      1419    8    0    1
 -2       740       620       784      3045      3179      3180
 -1      1420    8    0    1
 -2       654       653       784      2786      3181      3182
 -1      1421    8    0    1
 -2       655       654       785      2789      3183      3184
 -1      1422    8    0    1
 -2       654       784       785      3182      3185      3183
 -1      1423    8    0    1
 -2       656       655       786      2792      3186      3187
 -1      1424    8    0    1
 -2       655       785       786      3184      3188      3186
 -1      1425    8    0    1
 -2       657       656       787      2795      3189      3190
 -1      1426    8    0    1
 -2       656       786       787      3187      3191      3189
 -1      1427    8    0    1
 -2       658       657       788      2798      3192      3193
 -1      1428    8    0    1
 -2       657       787       788      3190      3194      3192
 -1      1429    8    0    1
 -2       659       658       789      2801      3195      3196
 -1      1430    8    0    1
 -2       658       788       789      3193      3197      3195
 -1      1431    8    0    1
 -2       660       659       790      2804      3198      3199
 -1      1432    8    0    1
 -2       659       789       790      3196      3200      3198
 -1      1433    8    0    1
 -2       661       660       791      2807      3201      3202
 -1      1434    8    0    1
 -2       660       790       791      3199      3203      3201
 -1      1435    8    0    1
 -2       662       661       792      2810      3204      3205
 -1      1436    8    0    1
 -2       661       791       792      3202      3206      3204
 -1      1437    8    0    1
 -2       663       662       793      2813      3207      3208
 -1      1438    8    0    1
 -2       662       792       793      3205      3209      3207
 -1      1439    8    0    1
 -2       664       663       794      2816      3210      3211
 -1      1440    8    0    1
 -2       663       793       794      3208      3212      3210
 -1      1441    8    0    1
 -2       665       664       795      2819      3213      3214
 -1      1442    8    0    1
 -2       664       794       795      3211      3215      3213
 -1      1443    8    0    1
 -2       666       665       796      2822      3216      3217
 -1      1444    8    0    1
 -2       665       795       796      3214      3218      3216
 -1      1445    8    0    1
 -2       667       666       797      2825      3219      3220
 -1      1446    8    0    1
 -2       666       796       797      3217      3221      3219
 -1      1447    8    0    1
 -2       650       606       619      2829      2673      3117
 -1      1448    8    0    1
 -2       670       671       798      2837      3222      3223
 -1      1449    8    0    1
 -2       673       674       799      2846      3224      3225
 -1      1450    8    0    1
 -2       674       675       800      2849      3226      3227
 -1      1451    8    0    1
 -2       674       800       799      3227      3228      3224
 -1      1452    8    0    1
 -2       675       676       801      2852      3229      3230
 -1      1453    8    0    1
 -2       675       801       800      3230      3231      3226
 -1      1454    8    0    1
 -2       676       677       802      2855      3232      3233
 -1      1455    8    0    1
 -2       676       802       801      3233      3234      3229
 -1      1456    8    0    1
 -2       677       678       803      2858      3235      3236
 -1      1457    8    0    1
 -2       677       803       802      3236      3237      3232
 -1      1458    8    0    1
 -2       678       679       804      2861      3238      3239
 -1      1459    8    0    1
 -2       678       804       803      3239      3240      3235
 -1      1460    8    0    1
 -2       679       680       805      2864      3241      3242
 -1      1461    8    0    1
 -2       679       805       804      3242      3243      3238
 -1      1462    8    0    1
 -2       680       681       806      2867      3244      3245
 -1      1463    8    0    1
 -2       680       806       805      3245      3246      3241
 -1      1464    8    0    1
 -2       681       682       807      2870      3247      3248
 -1      1465    8    0    1
 -2       681       807       806      3248      3249      3244
 -1      1466    8    0    1
 -2       682       683       808      2873      3250      3251
 -1      1467    8    0    1
 -2       682       808       807      3251      3252      3247
 -1      1468    8    0    1
 -2       683       684       809      2876      3253      3254
 -1      1469    8    0    1
 -2       683       809       808      3254      3255      3250
 -1      1470    8    0    1
 -2       684       685       810      2879      3256      3257
 -1      1471    8    0    1
 -2       684       810       809      3257      3258      3253
 -1      1472    8    0    1
 -2       685       686       811      2882      3259      3260
 -1      1473    8    0    1
 -2       685       811       810      3260      3261      3256
 -1      1474    8    0    1
 -2       686       687       731      2885      3262      3263
 -1      1475    8    0    1
 -2       687       688       721      2888      3264      3265
 -1      1476    8    0    1
 -2       689       690       754      2894      3266      3267
 -1      1477    8    0    1
 -2       690       691       812      2897      3268      3269
 -1      1478    8    0    1
 -2       691       692       813      2900      3270      3271
 -1      1479    8    0    1
 -2       691       813       812      3271      3272      3268
 -1      1480    8    0    1
 -2       692       693       814      2903      3273      3274
 -1      1481    8    0    1
 -2       692       814       813      3274      3275      3270
 -1      1482    8    0    1
 -2       693       694       815      2906      3276      3277
 -1      1483    8    0    1
 -2       693       815       814      3277      3278      3273
 -1      1484    8    0    1
 -2       694       695       816      2909      3279      3280
 -1      1485    8    0    1
 -2       694       816       815      3280      3281      3276
 -1      1486    8    0    1
 -2       695       696       817      2912      3282      3283
 -1      1487    8    0    1
 -2       695       817       816      3283      3284      3279
 -1      1488    8    0    1
 -2       696       697       818      2915      3285      3286
 -1      1489    8    0    1
 -2       696       818       817      3286      3287      3282
 -1      1490    8    0    1
 -2       697       698       819      2918      3288      3289
 -1      1491    8    0    1
 -2       697       819       818      3289      3290      3285
 -1      1492    8    0    1
 -2       698       699       820      2921      3291      3292
 -1      1493    8    0    1
 -2       698       820       819      3292      3293      3288
 -1      1494    8    0    1
 -2       699       700       821      2924      3294      3295
 -1      1495    8    0    1
 -2       699       821       820      3295      3296      3291
 -1      1496    8    0    1
 -2       700       701       822      2927      3297      3298
 -1      1497    8    0    1
 -2       700       822       821      3298      3299      3294
 -1      1498    8    0    1
 -2       701       702       823      2930      3300      3301
 -1      1499    8    0    1
 -2       701       823       822      3301      3302      3297
 -1      1500    8    0    1
 -2       702       703       824      2933      3303      3304
 -1      1501    8    0    1
 -2       702       824       823      3304      3305      3300
 -1      1502    8    0    1
 -2       703       704       825      2936      3306      3307
 -1      1503    8    0    1
 -2       703       825       824      3307      3308      3303
 -1      1504    8    0    1
 -2       704       705       826      2939      3309      3310
 -1      1505    8    0    1
 -2       704       826       825      3310      3311      3306
 -1      1506    8    0    1
 -2       708       710       827      2952      3312      3313
 -1      1507    8    0    1
 -2       714       715       828      2967      3314      3315
 -1      1508    8    0    1
 -2       710       713       829      2961      3316      3317
 -1      1509    8    0    1
 -2       710       829       827      3317      3318      3312
 -1      1510    8    0    1
 -2       732       720       830      3066      3319      3320
 -1      1511    8    0    1
 -2       722       670       831      2985      3321      3322
 -1      1512    8    0    1
 -2       670       798       831      3223      3323      3321
 -1      1513    8    0    1
 -2       669       723       832      3067      3324      3325
 -1      1514    8    0    1
 -2       755       610       745      3086      3103      3326
 -1      1515    8    0    1
 -2       619       589       751      2671      3327      3082
 -1      1516    8    0    1
 -2       713       714       833      2964      3328      3329
 -1      1517    8    0    1
 -2       829       713       833      3316      3329      3330
 -1      1518    8    0    1
 -2       714       828       833      3315      3331      3328
 -1      1519    8    0    1
 -2       672       673       834      2843      3332      3333
 -1      1520    8    0    1
 -2       673       799       834      3225      3334      3332
 -1      1521    8    0    1
 -2       671       672       835      2840      3335      3336
 -1      1522    8    0    1
 -2       798       671       835      3222      3336      3337
 -1      1523    8    0    1
 -2       672       834       835      3333      3338      3335
 -1      1524    8    0    1
 -2       629       724       836      2991      3339      3340
 -1      1525    8    0    1
 -2       629       836       763      3340      3341      3115
 -1      1526    8    0    1
 -2       686       731       811      3263      3342      3259
 -1      1527    8    0    1
 -2       731       687       721      3262      3265      3084
 -1      1528    8    0    1
 -2       755       745       837      3326      3343      3344
 -1      1529    8    0    1
 -2       745       760       837      3107      3345      3343
 -1      1530    8    0    1
 -2       727       616       838      3098      3346      3347
 -1      1531    8    0    1
 -2       627       576       753      3075      3074      3348
 -1      1532    8    0    1
 -2       723       722       839      2988      3349      3350
 -1      1533    8    0    1
 -2       722       831       839      3322      3351      3349
 -1      1534    8    0    1
 -2       621       615       840      2686      3352      3353
 -1      1535    8    0    1
 -2       742       621       840      3034      3353      3354
 -1      1536    8    0    1
 -2       615       743       840      3036      3355      3352
 -1      1537    8    0    1
 -2       720       733       841      3085      3356      3357
 -1      1538    8    0    1
 -2       625       626       842      3095      3358      3359
 -1      1539    8    0    1
 -2       759       625       842      3104      3359      3360
 -1      1540    8    0    1
 -2       626       628       842      2707      3361      3358
 -1      1541    8    0    1
 -2       726       729       812      3077      3362      3363
 -1      1542    8    0    1
 -2       623       622       843      2694      3364      3365
 -1      1543    8    0    1
 -2       730       736       844      3076      3366      3367
 -1      1544    8    0    1
 -2       744       623       845      3038      3368      3369
 -1      1545    8    0    1
 -2       623       843       845      3365      3370      3368
 -1      1546    8    0    1
 -2       741       719       846      3030      3371      3372
 -1      1547    8    0    1
 -2       624       759       847      3105      3373      3374
 -1      1548    8    0    1
 -2       624       847       725      3374      3375      2995
 -1      1549    8    0    1
 -2       727       838       848      3347      3376      3377
 -1      1550    8    0    1
 -2       727       848       752      3377      3378      3070
 -1      1551    8    0    1
 -2       715       761       828      3110      3379      3314
 -1      1552    8    0    1
 -2       618       782       746      3175      3380      3049
 -1      1553    8    0    1
 -2       811       731       732      3342      3071      3381
 -1      1554    8    0    1
 -2       669       832       849      3325      3382      3383
 -1      1555    8    0    1
 -2       669       849       716      3383      3384      2971
 -1      1556    8    0    1
 -2       622       725       850      2994      3385      3386
 -1      1557    8    0    1
 -2       843       622       850      3364      3386      3387
 -1      1558    8    0    1
 -2       725       847       850      3375      3388      3385
 -1      1559    8    0    1
 -2       747       726       812      3050      3363      3389
 -1      1560    8    0    1
 -2       748       712       851      3055      3390      3391
 -1      1561    8    0    1
 -2       749       738       762      3058      3113      3392
 -1      1562    8    0    1
 -2       750       735       852      3061      3393      3394
 -1      1563    8    0    1
 -2       735       749       852      3057      3395      3393
 -1      1564    8    0    1
 -2       718       740       652      3083      3396      3397
 -1      1565    8    0    1
 -2       784       653       740      3181      3398      3180
 -1      1566    8    0    1
 -2       733       783       841      3178      3399      3356
 -1      1567    8    0    1
 -2       782       648       781      3176      3170      3400
 -1      1568    8    0    1
 -2       784       620       757      3179      3093      3401
 -1      1569    8    0    1
 -2       653       652       740      2783      3396      3398
 -1      1570    8    0    1
 -2       667       797       761      3220      3402      3111
 -1      1571    8    0    1
 -2       721       688       853      3264      3403      3404
 -1      1572    8    0    1
 -2       844       736       854      3366      3405      3406
 -1      1573    8    0    1
 -2       736       746       854      3048      3407      3405
 -1      1574    8    0    1
 -2       688       689       853      2891      3408      3403
 -1      1575    8    0    1
 -2       708       827       855      3313      3409      3410
 -1      1576    8    0    1
 -2       708       855       711      3410      3411      2956
 -1      1577    8    0    1
 -2       826       705       856      3309      3412      3413
 -1      1578    8    0    1
 -2       705       706       856      2942      3414      3412
 -1      1579    8    0    1
 -2       732       830       811      3320      3415      3381
 -1      1580    8    0    1
 -2       706       627       857      2943      3416      3417
 -1      1581    8    0    1
 -2       627       753       857      3348      3418      3416
 -1      1582    8    0    1
 -2       709       711       858      2955      3419      3420
 -1      1583    8    0    1
 -2       711       855       858      3411      3421      3419
 -1      1584    8    0    1
 -2       753       709       859      3072      3422      3423
 -1      1585    8    0    1
 -2       857       753       859      3418      3423      3424
 -1      1586    8    0    1
 -2       709       858       859      3420      3425      3422
 -1      1587    8    0    1
 -2       846       719       860      3371      3426      3427
 -1      1588    8    0    1
 -2       719       747       860      3052      3428      3426
 -1      1589    8    0    1
 -2       718       652       651      3397      2780      3429
 -1      1590    8    0    1
 -2       830       720       841      3319      3357      3430
 -1      1591    8    0    1
 -2       628       716       861      2970      3431      3432
 -1      1592    8    0    1
 -2       842       628       861      3361      3432      3433
 -1      1593    8    0    1
 -2       716       849       861      3384      3434      3431
 -1      1594    8    0    1
 -2       754       614       853      3081      3435      3436
 -1      1595    8    0    1
 -2       757       755       862      3094      3437      3438
 -1      1596    8    0    1
 -2       755       837       862      3344      3439      3437
 -1      1597    8    0    1
 -2       616       748       838      3054      3440      3346
 -1      1598    8    0    1
 -2       832       723       839      3324      3350      3441
 -1      1599    8    0    1
 -2       724       742       840      3033      3354      3442
 -1      1600    8    0    1
 -2       734       750       783      3060      3443      3177
 -1      1601    8    0    1
 -2       728       756       863      3090      3444      3445
 -1      1602    8    0    1
 -2       853       689       754      3408      3267      3436
 -1      1603    8    0    1
 -2       707       752       760      3069      3446      3106
 -1      1604    8    0    1
 -2       751       589       739      3327      3024      3447
 -1      1605    8    0    1
 -2       743       728       864      3037      3448      3449
 -1      1606    8    0    1
 -2       728       863       864      3445      3450      3448
 -1      1607    8    0    1
 -2       853       614       721      3435      3046      3404
 -1      1608    8    0    1
 -2       762       730       844      3112      3367      3451
 -1      1609    8    0    1
 -2       724       840       836      3442      3452      3339
 -1      1610    8    0    1
 -2       651       751       739      3099      3447      3453
 -1      1611    8    0    1
 -2       712       741       865      3029      3454      3455
 -1      1612    8    0    1
 -2       851       712       865      3390      3455      3456
 -1      1613    8    0    1
 -2       741       846       865      3372      3457      3454
 -1      1614    8    0    1
 -2       747       812       813      3389      3272      3458
 -1      1615    8    0    1
 -2       785       784       757      3185      3401      3459
 -1      1616    8    0    1
 -2       749       762       866      3392      3460      3461
 -1      1617    8    0    1
 -2       761       797       828      3402      3462      3379
 -1      1618    8    0    1
 -2       764       763       867      3120      3463      3464
 -1      1619    8    0    1
 -2       765       764       868      3123      3465      3466
 -1      1620    8    0    1
 -2       764       867       868      3464      3467      3465
 -1      1621    8    0    1
 -2       766       765       869      3126      3468      3469
 -1      1622    8    0    1
 -2       765       868       869      3466      3470      3468
 -1      1623    8    0    1
 -2       767       766       870      3129      3471      3472
 -1      1624    8    0    1
 -2       766       869       870      3469      3473      3471
 -1      1625    8    0    1
 -2       768       767       871      3132      3474      3475
 -1      1626    8    0    1
 -2       767       870       871      3472      3476      3474
 -1      1627    8    0    1
 -2       769       768       872      3135      3477      3478
 -1      1628    8    0    1
 -2       768       871       872      3475      3479      3477
 -1      1629    8    0    1
 -2       770       769       873      3138      3480      3481
 -1      1630    8    0    1
 -2       769       872       873      3478      3482      3480
 -1      1631    8    0    1
 -2       771       770       874      3141      3483      3484
 -1      1632    8    0    1
 -2       770       873       874      3481      3485      3483
 -1      1633    8    0    1
 -2       772       771       875      3144      3486      3487
 -1      1634    8    0    1
 -2       771       874       875      3484      3488      3486
 -1      1635    8    0    1
 -2       773       772       876      3147      3489      3490
 -1      1636    8    0    1
 -2       772       875       876      3487      3491      3489
 -1      1637    8    0    1
 -2       774       773       877      3150      3492      3493
 -1      1638    8    0    1
 -2       773       876       877      3490      3494      3492
 -1      1639    8    0    1
 -2       775       774       878      3153      3495      3496
 -1      1640    8    0    1
 -2       774       877       878      3493      3497      3495
 -1      1641    8    0    1
 -2       776       775       879      3156      3498      3499
 -1      1642    8    0    1
 -2       775       878       879      3496      3500      3498
 -1      1643    8    0    1
 -2       777       776       880      3159      3501      3502
 -1      1644    8    0    1
 -2       776       879       880      3499      3503      3501
 -1      1645    8    0    1
 -2       778       777       881      3162      3504      3505
 -1      1646    8    0    1
 -2       777       880       881      3502      3506      3504
 -1      1647    8    0    1
 -2       779       778       882      3165      3507      3508
 -1      1648    8    0    1
 -2       778       881       882      3505      3509      3507
 -1      1649    8    0    1
 -2       780       779       883      3168      3510      3511
 -1      1650    8    0    1
 -2       779       882       883      3508      3512      3510
 -1      1651    8    0    1
 -2       781       780       854      3171      3513      3514
 -1      1652    8    0    1
 -2       841       783       884      3399      3515      3516
 -1      1653    8    0    1
 -2       801       802       885      3234      3517      3518
 -1      1654    8    0    1
 -2       786       785       862      3188      3519      3520
 -1      1655    8    0    1
 -2       787       786       886      3191      3521      3522
 -1      1656    8    0    1
 -2       788       787       887      3194      3523      3524
 -1      1657    8    0    1
 -2       787       886       887      3522      3525      3523
 -1      1658    8    0    1
 -2       789       788       888      3197      3526      3527
 -1      1659    8    0    1
 -2       788       887       888      3524      3528      3526
 -1      1660    8    0    1
 -2       790       789       889      3200      3529      3530
 -1      1661    8    0    1
 -2       789       888       889      3527      3531      3529
 -1      1662    8    0    1
 -2       791       790       890      3203      3532      3533
 -1      1663    8    0    1
 -2       790       889       890      3530      3534      3532
 -1      1664    8    0    1
 -2       792       791       891      3206      3535      3536
 -1      1665    8    0    1
 -2       791       890       891      3533      3537      3535
 -1      1666    8    0    1
 -2       793       792       892      3209      3538      3539
 -1      1667    8    0    1
 -2       792       891       892      3536      3540      3538
 -1      1668    8    0    1
 -2       794       793       893      3212      3541      3542
 -1      1669    8    0    1
 -2       793       892       893      3539      3543      3541
 -1      1670    8    0    1
 -2       795       794       894      3215      3544      3545
 -1      1671    8    0    1
 -2       794       893       894      3542      3546      3544
 -1      1672    8    0    1
 -2       796       795       895      3218      3547      3548
 -1      1673    8    0    1
 -2       795       894       895      3545      3549      3547
 -1      1674    8    0    1
 -2       797       796       896      3221      3550      3551
 -1      1675    8    0    1
 -2       796       895       896      3548      3552      3550
 -1      1676    8    0    1
 -2       800       801       897      3231      3553      3554
 -1      1677    8    0    1
 -2       801       885       897      3518      3555      3553
 -1      1678    8    0    1
 -2       799       800       898      3228      3556      3557
 -1      1679    8    0    1
 -2       800       897       898      3554      3558      3556
 -1      1680    8    0    1
 -2       802       803       899      3237      3559      3560
 -1      1681    8    0    1
 -2       802       899       885      3560      3561      3517
 -1      1682    8    0    1
 -2       803       804       900      3240      3562      3563
 -1      1683    8    0    1
 -2       803       900       899      3563      3564      3559
 -1      1684    8    0    1
 -2       804       805       901      3243      3565      3566
 -1      1685    8    0    1
 -2       804       901       900      3566      3567      3562
 -1      1686    8    0    1
 -2       805       806       902      3246      3568      3569
 -1      1687    8    0    1
 -2       805       902       901      3569      3570      3565
 -1      1688    8    0    1
 -2       806       807       903      3249      3571      3572
 -1      1689    8    0    1
 -2       806       903       902      3572      3573      3568
 -1      1690    8    0    1
 -2       807       808       904      3252      3574      3575
 -1      1691    8    0    1
 -2       807       904       903      3575      3576      3571
 -1      1692    8    0    1
 -2       808       809       905      3255      3577      3578
 -1      1693    8    0    1
 -2       808       905       904      3578      3579      3574
 -1      1694    8    0    1
 -2       810       811       830      3261      3415      3580
 -1      1695    8    0    1
 -2       837       760       906      3345      3581      3582
 -1      1696    8    0    1
 -2       690       812       754      3269      3583      3266
 -1      1697    8    0    1
 -2       785       757       862      3459      3438      3519
 -1      1698    8    0    1
 -2       815       816       907      3281      3584      3585
 -1      1699    8    0    1
 -2       816       817       908      3284      3586      3587
 -1      1700    8    0    1
 -2       816       908       907      3587      3588      3584
 -1      1701    8    0    1
 -2       817       818       909      3287      3589      3590
 -1      1702    8    0    1
 -2       817       909       908      3590      3591      3586
 -1      1703    8    0    1
 -2       818       819       910      3290      3592      3593
 -1      1704    8    0    1
 -2       818       910       909      3593      3594      3589
 -1      1705    8    0    1
 -2       819       820       911      3293      3595      3596
 -1      1706    8    0    1
 -2       819       911       910      3596      3597      3592
 -1      1707    8    0    1
 -2       820       821       912      3296      3598      3599
 -1      1708    8    0    1
 -2       820       912       911      3599      3600      3595
 -1      1709    8    0    1
 -2       821       822       913      3299      3601      3602
 -1      1710    8    0    1
 -2       821       913       912      3602      3603      3598
 -1      1711    8    0    1
 -2       822       823       914      3302      3604      3605
 -1      1712    8    0    1
 -2       822       914       913      3605      3606      3601
 -1      1713    8    0    1
 -2       823       824       915      3305      3607      3608
 -1      1714    8    0    1
 -2       823       915       914      3608      3609      3604
 -1      1715    8    0    1
 -2       824       825       916      3308      3610      3611
 -1      1716    8    0    1
 -2       824       916       915      3611      3612      3607
 -1      1717    8    0    1
 -2       825       826       917      3311      3613      3614
 -1      1718    8    0    1
 -2       825       917       916      3614      3615      3610
 -1      1719    8    0    1
 -2       748       851       918      3391      3616      3617
 -1      1720    8    0    1
 -2       827       829       919      3318      3618      3619
 -1      1721    8    0    1
 -2       783       750       920      3443      3620      3621
 -1      1722    8    0    1
 -2       831       798       921      3323      3622      3623
 -1      1723    8    0    1
 -2       756       744       922      3091      3624      3625
 -1      1724    8    0    1
 -2       756       922       863      3625      3626      3444
 -1      1725    8    0    1
 -2       832       839       923      3441      3627      3628
 -1      1726    8    0    1
 -2       782       781       746      3400      3629      3380
 -1      1727    8    0    1
 -2       834       799       924      3334      3630      3631
 -1      1728    8    0    1
 -2       799       898       924      3557      3632      3630
 -1      1729    8    0    1
 -2       830       841       925      3430      3633      3634
 -1      1730    8    0    1
 -2       810       830       925      3580      3634      3635
 -1      1731    8    0    1
 -2       841       884       925      3516      3636      3633
 -1      1732    8    0    1
 -2       839       831       926      3351      3637      3638
 -1      1733    8    0    1
 -2       831       921       926      3623      3639      3637
 -1      1734    8    0    1
 -2       840       743       836      3355      3640      3452
 -1      1735    8    0    1
 -2       814       815       927      3278      3641      3642
 -1      1736    8    0    1
 -2       815       907       927      3585      3643      3641
 -1      1737    8    0    1
 -2       760       752       928      3446      3644      3645
 -1      1738    8    0    1
 -2       762       844       929      3451      3646      3647
 -1      1739    8    0    1
 -2       759       842       930      3360      3648      3649
 -1      1740    8    0    1
 -2       842       861       930      3433      3650      3648
 -1      1741    8    0    1
 -2       739       758       651      3100      3651      3453
 -1      1742    8    0    1
 -2       747       813       860      3458      3652      3428
 -1      1743    8    0    1
 -2       838       748       918      3440      3617      3653
 -1      1744    8    0    1
 -2       828       797       896      3462      3551      3654
 -1      1745    8    0    1
 -2       836       743       864      3640      3449      3655
 -1      1746    8    0    1
 -2       746       781       854      3629      3514      3407
 -1      1747    8    0    1
 -2       848       838       931      3376      3656      3657
 -1      1748    8    0    1
 -2       838       918       931      3653      3658      3656
 -1      1749    8    0    1
 -2       866       762       929      3460      3647      3659
 -1      1750    8    0    1
 -2       849       832       932      3382      3660      3661
 -1      1751    8    0    1
 -2       832       923       932      3628      3662      3660
 -1      1752    8    0    1
 -2       884       783       920      3515      3621      3663
 -1      1753    8    0    1
 -2       852       749       933      3395      3664      3665
 -1      1754    8    0    1
 -2       749       866       933      3461      3666      3664
 -1      1755    8    0    1
 -2       854       780       883      3513      3511      3667
 -1      1756    8    0    1
 -2       839       926       923      3638      3668      3627
 -1      1757    8    0    1
 -2       810       925       809      3635      3669      3258
 -1      1758    8    0    1
 -2       786       862       886      3520      3670      3521
 -1      1759    8    0    1
 -2       750       852       934      3394      3671      3672
 -1      1760    8    0    1
 -2       750       934       920      3672      3673      3620
 -1      1761    8    0    1
 -2       798       835       935      3337      3674      3675
 -1      1762    8    0    1
 -2       798       935       921      3675      3676      3622
 -1      1763    8    0    1
 -2       905       809       925      3577      3669      3677
 -1      1764    8    0    1
 -2       906       760       936      3581      3678      3679
 -1      1765    8    0    1
 -2       760       928       936      3645      3680      3678
 -1      1766    8    0    1
 -2       847       759       930      3373      3649      3681
 -1      1767    8    0    1
 -2       845       843       937      3370      3682      3683
 -1      1768    8    0    1
 -2       855       827       938      3409      3684      3685
 -1      1769    8    0    1
 -2       827       919       938      3619      3686      3684
 -1      1770    8    0    1
 -2       828       896       939      3654      3687      3688
 -1      1771    8    0    1
 -2       917       826       940      3613      3689      3690
 -1      1772    8    0    1
 -2       826       856       940      3413      3691      3689
 -1      1773    8    0    1
 -2       918       851       941      3616      3692      3693
 -1      1774    8    0    1
 -2       837       906       862      3582      3694      3439
 -1      1775    8    0    1
 -2       858       855       942      3421      3695      3696
 -1      1776    8    0    1
 -2       855       938       942      3685      3697      3695
 -1      1777    8    0    1
 -2       859       858       943      3425      3698      3699
 -1      1778    8    0    1
 -2       858       942       943      3696      3700      3698
 -1      1779    8    0    1
 -2       828       939       833      3688      3701      3331
 -1      1780    8    0    1
 -2       718       651       758      3429      3651      3102
 -1      1781    8    0    1
 -2       763       836       944      3341      3702      3703
 -1      1782    8    0    1
 -2       843       850       945      3387      3704      3705
 -1      1783    8    0    1
 -2       843       945       937      3705      3706      3682
 -1      1784    8    0    1
 -2       863       922       946      3626      3707      3708
 -1      1785    8    0    1
 -2       835       834       947      3338      3709      3710
 -1      1786    8    0    1
 -2       834       924       947      3631      3711      3709
 -1      1787    8    0    1
 -2       846       860       948      3427      3712      3713
 -1      1788    8    0    1
 -2       752       848       949      3378      3714      3715
 -1      1789    8    0    1
 -2       752       949       928      3715      3716      3644
 -1      1790    8    0    1
 -2       922       744       845      3624      3369      3717
 -1      1791    8    0    1
 -2       813       814       860      3275      3718      3652
 -1      1792    8    0    1
 -2       944       836       864      3702      3655      3719
 -1      1793    8    0    1
 -2       729       754       812      3080      3583      3362
 -1      1794    8    0    1
 -2       851       865       950      3456      3720      3721
 -1      1795    8    0    1
 -2       851       950       941      3721      3722      3692
 -1      1796    8    0    1
 -2       763       944       867      3703      3723      3463
 -1      1797    8    0    1
 -2       865       846       948      3457      3713      3724
 -1      1798    8    0    1
 -2       829       833       951      3330      3725      3726
 -1      1799    8    0    1
 -2       919       829       951      3618      3726      3727
 -1      1800    8    0    1
 -2       833       939       951      3701      3728      3725
 -1      1801    8    0    1
 -2       868       867       952      3467      3729      3730
 -1      1802    8    0    1
 -2       706       857       856      3417      3731      3414
 -1      1803    8    0    1
 -2       850       847       953      3388      3732      3733
 -1      1804    8    0    1
 -2       850       953       945      3733      3734      3704
 -1      1805    8    0    1
 -2       865       948       950      3724      3735      3720
 -1      1806    8    0    1
 -2       869       868       954      3470      3736      3737
 -1      1807    8    0    1
 -2       868       952       954      3730      3738      3736
 -1      1808    8    0    1
 -2       870       869       955      3473      3739      3740
 -1      1809    8    0    1
 -2       869       954       955      3737      3741      3739
 -1      1810    8    0    1
 -2       871       870       956      3476      3742      3743
 -1      1811    8    0    1
 -2       870       955       956      3740      3744      3742
 -1      1812    8    0    1
 -2       872       871       957      3479      3745      3746
 -1      1813    8    0    1
 -2       871       956       957      3743      3747      3745
 -1      1814    8    0    1
 -2       873       872       958      3482      3748      3749
 -1      1815    8    0    1
 -2       872       957       958      3746      3750      3748
 -1      1816    8    0    1
 -2       874       873       959      3485      3751      3752
 -1      1817    8    0    1
 -2       873       958       959      3749      3753      3751
 -1      1818    8    0    1
 -2       875       874       960      3488      3754      3755
 -1      1819    8    0    1
 -2       874       959       960      3752      3756      3754
 -1      1820    8    0    1
 -2       876       875       961      3491      3757      3758
 -1      1821    8    0    1
 -2       875       960       961      3755      3759      3757
 -1      1822    8    0    1
 -2       877       876       962      3494      3760      3761
 -1      1823    8    0    1
 -2       876       961       962      3758      3762      3760
 -1      1824    8    0    1
 -2       878       877       963      3497      3763      3764
 -1      1825    8    0    1
 -2       877       962       963      3761      3765      3763
 -1      1826    8    0    1
 -2       879       878       964      3500      3766      3767
 -1      1827    8    0    1
 -2       878       963       964      3764      3768      3766
 -1      1828    8    0    1
 -2       880       879       965      3503      3769      3770
 -1      1829    8    0    1
 -2       879       964       965      3767      3771      3769
 -1      1830    8    0    1
 -2       881       880       966      3506      3772      3773
 -1      1831    8    0    1
 -2       880       965       966      3770      3774      3772
 -1      1832    8    0    1
 -2       882       881       967      3509      3775      3776
 -1      1833    8    0    1
 -2       881       966       967      3773      3777      3775
 -1      1834    8    0    1
 -2       883       882       968      3512      3778      3779
 -1      1835    8    0    1
 -2       882       967       968      3776      3780      3778
 -1      1836    8    0    1
 -2       854       883       969      3667      3781      3782
 -1      1837    8    0    1
 -2       844       854       969      3406      3782      3783
 -1      1838    8    0    1
 -2       883       968       969      3779      3784      3781
 -1      1839    8    0    1
 -2       885       899       970      3561      3785      3786
 -1      1840    8    0    1
 -2       888       887       971      3528      3787      3788
 -1      1841    8    0    1
 -2       889       888       972      3531      3789      3790
 -1      1842    8    0    1
 -2       888       971       972      3788      3791      3789
 -1      1843    8    0    1
 -2       890       889       973      3534      3792      3793
 -1      1844    8    0    1
 -2       889       972       973      3790      3794      3792
 -1      1845    8    0    1
 -2       891       890       974      3537      3795      3796
 -1      1846    8    0    1
 -2       890       973       974      3793      3797      3795
 -1      1847    8    0    1
 -2       892       891       975      3540      3798      3799
 -1      1848    8    0    1
 -2       891       974       975      3796      3800      3798
 -1      1849    8    0    1
 -2       893       892       976      3543      3801      3802
 -1      1850    8    0    1
 -2       892       975       976      3799      3803      3801
 -1      1851    8    0    1
 -2       894       893       977      3546      3804      3805
 -1      1852    8    0    1
 -2       893       976       977      3802      3806      3804
 -1      1853    8    0    1
 -2       895       894       978      3549      3807      3808
 -1      1854    8    0    1
 -2       894       977       978      3805      3809      3807
 -1      1855    8    0    1
 -2       896       895       979      3552      3810      3811
 -1      1856    8    0    1
 -2       895       978       979      3808      3812      3810
 -1      1857    8    0    1
 -2       897       885       980      3555      3813      3814
 -1      1858    8    0    1
 -2       885       970       980      3786      3815      3813
 -1      1859    8    0    1
 -2       898       897       981      3558      3816      3817
 -1      1860    8    0    1
 -2       897       980       981      3814      3818      3816
 -1      1861    8    0    1
 -2       923       926       982      3668      3819      3820
 -1      1862    8    0    1
 -2       900       901       983      3567      3821      3822
 -1      1863    8    0    1
 -2       901       902       984      3570      3823      3824
 -1      1864    8    0    1
 -2       901       984       983      3824      3825      3821
 -1      1865    8    0    1
 -2       902       903       985      3573      3826      3827
 -1      1866    8    0    1
 -2       902       985       984      3827      3828      3823
 -1      1867    8    0    1
 -2       903       904       986      3576      3829      3830
 -1      1868    8    0    1
 -2       903       986       985      3830      3831      3826
 -1      1869    8    0    1
 -2       904       905       987      3579      3832      3833
 -1      1870    8    0    1
 -2       904       987       986      3833      3834      3829
 -1      1871    8    0    1
 -2       926       921       988      3639      3835      3836
 -1      1872    8    0    1
 -2       926       988       982      3836      3837      3819
 -1      1873    8    0    1
 -2       905       925       884      3677      3636      3838
 -1      1874    8    0    1
 -2       886       862       906      3670      3694      3839
 -1      1875    8    0    1
 -2       863       946       989      3708      3840      3841
 -1      1876    8    0    1
 -2       939       896       979      3687      3811      3842
 -1      1877    8    0    1
 -2       909       910       990      3594      3843      3844
 -1      1878    8    0    1
 -2       907       908       991      3588      3845      3846
 -1      1879    8    0    1
 -2       910       911       992      3597      3847      3848
 -1      1880    8    0    1
 -2       910       992       990      3848      3849      3843
 -1      1881    8    0    1
 -2       911       912       993      3600      3850      3851
 -1      1882    8    0    1
 -2       911       993       992      3851      3852      3847
 -1      1883    8    0    1
 -2       912       913       994      3603      3853      3854
 -1      1884    8    0    1
 -2       912       994       993      3854      3855      3850
 -1      1885    8    0    1
 -2       913       914       995      3606      3856      3857
 -1      1886    8    0    1
 -2       913       995       994      3857      3858      3853
 -1      1887    8    0    1
 -2       914       915       996      3609      3859      3860
 -1      1888    8    0    1
 -2       914       996       995      3860      3861      3856
 -1      1889    8    0    1
 -2       915       916       997      3612      3862      3863
 -1      1890    8    0    1
 -2       915       997       996      3863      3864      3859
 -1      1891    8    0    1
 -2       916       917       998      3615      3865      3866
 -1      1892    8    0    1
 -2       916       998       997      3866      3867      3862
 -1      1893    8    0    1
 -2       867       944       989      3723      3868      3869
 -1      1894    8    0    1
 -2       863       989       864      3841      3870      3450
 -1      1895    8    0    1
 -2       856       857       940      3731      3871      3691
 -1      1896    8    0    1
 -2       905       884       987      3838      3872      3832
 -1      1897    8    0    1
 -2       989       946       999      3840      3873      3874
 -1      1898    8    0    1
 -2       989       944       864      3868      3719      3870
 -1      1899    8    0    1
 -2       866       929      1000      3659      3875      3876
 -1      1900    8    0    1
 -2       918       941      1001      3693      3877      3878
 -1      1901    8    0    1
 -2       861       849      1002      3434      3879      3880
 -1      1902    8    0    1
 -2       930       861      1002      3650      3880      3881
 -1      1903    8    0    1
 -2       849       932      1002      3661      3882      3879
 -1      1904    8    0    1
 -2       908       909      1003      3591      3883      3884
 -1      1905    8    0    1
 -2       909       990      1003      3844      3885      3883
 -1      1906    8    0    1
 -2       946       922      1004      3707      3886      3887
 -1      1907    8    0    1
 -2       922       845      1004      3717      3888      3886
 -1      1908    8    0    1
 -2       884       920       987      3663      3889      3872
 -1      1909    8    0    1
 -2       924       898      1005      3632      3890      3891
 -1      1910    8    0    1
 -2       898       981      1005      3817      3892      3890
 -1      1911    8    0    1
 -2       886       906      1006      3839      3893      3894
 -1      1912    8    0    1
 -2       887       886      1006      3525      3894      3895
 -1      1913    8    0    1
 -2       906       936      1006      3679      3896      3893
 -1      1914    8    0    1
 -2       845       937      1004      3683      3897      3888
 -1      1915    8    0    1
 -2       847       930       953      3681      3898      3732
 -1      1916    8    0    1
 -2       814       927       948      3642      3899      3900
 -1      1917    8    0    1
 -2       899       900      1007      3564      3901      3902
 -1      1918    8    0    1
 -2       900       983      1007      3822      3903      3901
 -1      1919    8    0    1
 -2       860       814       948      3718      3900      3712
 -1      1920    8    0    1
 -2       932       923      1008      3662      3904      3905
 -1      1921    8    0    1
 -2       923       982      1008      3820      3906      3904
 -1      1922    8    0    1
 -2       933       866      1009      3666      3907      3908
 -1      1923    8    0    1
 -2       866      1000      1009      3876      3909      3907
 -1      1924    8    0    1
 -2       848       931      1010      3657      3910      3911
 -1      1925    8    0    1
 -2       848      1010       949      3911      3912      3714
 -1      1926    8    0    1
 -2       931       918      1001      3658      3878      3913
 -1      1927    8    0    1
 -2       971       887      1006      3787      3895      3914
 -1      1928    8    0    1
 -2       934       852      1011      3671      3915      3916
 -1      1929    8    0    1
 -2       852       933      1011      3665      3917      3915
 -1      1930    8    0    1
 -2       857       859       940      3424      3918      3871
 -1      1931    8    0    1
 -2       946      1004      1012      3887      3919      3920
 -1      1932    8    0    1
 -2       946      1012       999      3920      3921      3873
 -1      1933    8    0    1
 -2       970       899      1007      3785      3902      3922
 -1      1934    8    0    1
 -2       935       835       947      3674      3710      3923
 -1      1935    8    0    1
 -2       924      1005      1013      3891      3924      3925
 -1      1936    8    0    1
 -2       924      1013       947      3925      3926      3711
 -1      1937    8    0    1
 -2       988       921      1014      3835      3927      3928
 -1      1938    8    0    1
 -2       921       935      1014      3676      3929      3927
 -1      1939    8    0    1
 -2       936       928      1015      3680      3930      3931
 -1      1940    8    0    1
 -2       928       949      1015      3716      3932      3930
 -1      1941    8    0    1
 -2       991       908      1003      3845      3884      3933
 -1      1942    8    0    1
 -2       938       919      1016      3686      3934      3935
 -1      1943    8    0    1
 -2       939       979      1017      3842      3936      3937
 -1      1944    8    0    1
 -2       939      1017       951      3937      3938      3728
 -1      1945    8    0    1
 -2       859       943       940      3699      3939      3918
 -1      1946    8    0    1
 -2       907       991       950      3846      3940      3941
 -1      1947    8    0    1
 -2       867       989       999      3869      3874      3942
 -1      1948    8    0    1
 -2       917       940      1018      3690      3943      3944
 -1      1949    8    0    1
 -2       998       917      1018      3865      3944      3945
 -1      1950    8    0    1
 -2       940       943      1018      3939      3946      3943
 -1      1951    8    0    1
 -2       942       938      1019      3697      3947      3948
 -1      1952    8    0    1
 -2       938      1016      1019      3935      3949      3947
 -1      1953    8    0    1
 -2       943       942      1020      3700      3950      3951
 -1      1954    8    0    1
 -2      1018       943      1020      3946      3951      3952
 -1      1955    8    0    1
 -2       942      1019      1020      3948      3953      3950
 -1      1956    8    0    1
 -2       937       945      1021      3706      3954      3955
 -1      1957    8    0    1
 -2       930      1002       953      3881      3956      3898
 -1      1958    8    0    1
 -2       844       969       929      3783      3957      3646
 -1      1959    8    0    1
 -2       929       969      1022      3957      3958      3959
 -1      1960    8    0    1
 -2       929      1022      1000      3959      3960      3875
 -1      1961    8    0    1
 -2      1004       937      1023      3897      3961      3962
 -1      1962    8    0    1
 -2       937      1021      1023      3955      3963      3961
 -1      1963    8    0    1
 -2       919       951      1024      3727      3964      3965
 -1      1964    8    0    1
 -2      1016       919      1024      3934      3965      3966
 -1      1965    8    0    1
 -2       951      1017      1024      3938      3967      3964
 -1      1966    8    0    1
 -2       987       920      1025      3889      3968      3969
 -1      1967    8    0    1
 -2       986       987      1025      3834      3969      3970
 -1      1968    8    0    1
 -2       920       934      1025      3673      3971      3968
 -1      1969    8    0    1
 -2       948       927       950      3899      3972      3735
 -1      1970    8    0    1
 -2      1022       969       968      3958      3784      3973
 -1      1971    8    0    1
 -2       950       927       907      3972      3643      3941
 -1      1972    8    0    1
 -2       972       971      1026      3791      3974      3975
 -1      1973    8    0    1
 -2       955       954      1027      3741      3976      3977
 -1      1974    8    0    1
 -2       956       955      1028      3744      3978      3979
 -1      1975    8    0    1
 -2       955      1027      1028      3977      3980      3978
 -1      1976    8    0    1
 -2       957       956      1029      3747      3981      3982
 -1      1977    8    0    1
 -2       956      1028      1029      3979      3983      3981
 -1      1978    8    0    1
 -2       958       957      1030      3750      3984      3985
 -1      1979    8    0    1
 -2       957      1029      1030      3982      3986      3984
 -1      1980    8    0    1
 -2       959       958      1031      3753      3987      3988
 -1      1981    8    0    1
 -2       958      1030      1031      3985      3989      3987
 -1      1982    8    0    1
 -2       960       959      1032      3756      3990      3991
 -1      1983    8    0    1
 -2       959      1031      1032      3988      3992      3990
 -1      1984    8    0    1
 -2       961       960      1033      3759      3993      3994
 -1      1985    8    0    1
 -2       960      1032      1033      3991      3995      3993
 -1      1986    8    0    1
 -2       962       961      1034      3762      3996      3997
 -1      1987    8    0    1
 -2       961      1033      1034      3994      3998      3996
 -1      1988    8    0    1
 -2       963       962      1035      3765      3999      4000
 -1      1989    8    0    1
 -2       962      1034      1035      3997      4001      3999
 -1      1990    8    0    1
 -2       964       963      1036      3768      4002      4003
 -1      1991    8    0    1
 -2       963      1035      1036      4000      4004      4002
 -1      1992    8    0    1
 -2       965       964      1037      3771      4005      4006
 -1      1993    8    0    1
 -2       964      1036      1037      4003      4007      4005
 -1      1994    8    0    1
 -2       966       965      1038      3774      4008      4009
 -1      1995    8    0    1
 -2       965      1037      1038      4006      4010      4008
 -1      1996    8    0    1
 -2       967       966      1039      3777      4011      4012
 -1      1997    8    0    1
 -2       966      1038      1039      4009      4013      4011
 -1      1998    8    0    1
 -2       968       967      1040      3780      4014      4015
 -1      1999    8    0    1
 -2      1022       968      1040      3973      4015      4016
 -1      2000    8    0    1
 -2       967      1039      1040      4012      4017      4014
 -1      2001    8    0    1
 -2       973       972      1041      3794      4018      4019
 -1      2002    8    0    1
 -2       972      1026      1041      3975      4020      4018
 -1      2003    8    0    1
 -2       974       973      1042      3797      4021      4022
 -1      2004    8    0    1
 -2       973      1041      1042      4019      4023      4021
 -1      2005    8    0    1
 -2       975       974      1043      3800      4024      4025
 -1      2006    8    0    1
 -2       974      1042      1043      4022      4026      4024
 -1      2007    8    0    1
 -2       976       975      1044      3803      4027      4028
 -1      2008    8    0    1
 -2       975      1043      1044      4025      4029      4027
 -1      2009    8    0    1
 -2       977       976      1045      3806      4030      4031
 -1      2010    8    0    1
 -2       976      1044      1045      4028      4032      4030
 -1      2011    8    0    1
 -2       978       977      1046      3809      4033      4034
 -1      2012    8    0    1
 -2       977      1045      1046      4031      4035      4033
 -1      2013    8    0    1
 -2       979       978      1047      3812      4036      4037
 -1      2014    8    0    1
 -2      1017       979      1047      3936      4037      4038
 -1      2015    8    0    1
 -2       978      1046      1047      4034      4039      4036
 -1      2016    8    0    1
 -2       980       970      1048      3815      4040      4041
 -1      2017    8    0    1
 -2       981       980      1049      3818      4042      4043
 -1      2018    8    0    1
 -2       980      1048      1049      4041      4044      4042
 -1      2019    8    0    1
 -2       970      1007      1050      3922      4045      4046
 -1      2020    8    0    1
 -2       970      1050      1048      4046      4047      4040
 -1      2021    8    0    1
 -2       983       984      1051      3825      4048      4049
 -1      2022    8    0    1
 -2       982       988      1052      3837      4050      4051
 -1      2023    8    0    1
 -2       993       994      1053      3855      4052      4053
 -1      2024    8    0    1
 -2      1002       932      1054      3882      4054      4055
 -1      2025    8    0    1
 -2       932      1008      1054      3905      4056      4054
 -1      2026    8    0    1
 -2       992       993      1055      3852      4057      4058
 -1      2027    8    0    1
 -2       993      1053      1055      4053      4059      4057
 -1      2028    8    0    1
 -2       867       999       952      3942      4060      3729
 -1      2029    8    0    1
 -2       990       992      1056      3849      4061      4062
 -1      2030    8    0    1
 -2       992      1055      1056      4058      4063      4061
 -1      2031    8    0    1
 -2       994       995      1057      3858      4064      4065
 -1      2032    8    0    1
 -2       994      1057      1053      4065      4066      4052
 -1      2033    8    0    1
 -2       995       996      1058      3861      4067      4068
 -1      2034    8    0    1
 -2       995      1058      1057      4068      4069      4064
 -1      2035    8    0    1
 -2       996       997      1059      3864      4070      4071
 -1      2036    8    0    1
 -2       996      1059      1058      4071      4072      4067
 -1      2037    8    0    1
 -2       997       998      1060      3867      4073      4074
 -1      2038    8    0    1
 -2       997      1060      1059      4074      4075      4070
 -1      2039    8    0    1
 -2      1021       945      1061      3954      4076      4077
 -1      2040    8    0    1
 -2       945       953      1061      3734      4078      4076
 -1      2041    8    0    1
 -2      1019      1016      1062      3949      4079      4080
 -1      2042    8    0    1
 -2      1001       941      1063      3877      4081      4082
 -1      2043    8    0    1
 -2       971      1006      1064      3914      4083      4084
 -1      2044    8    0    1
 -2      1026       971      1064      3974      4084      4085
 -1      2045    8    0    1
 -2      1006       936      1064      3896      4086      4083
 -1      2046    8    0    1
 -2       931      1001      1065      3913      4087      4088
 -1      2047    8    0    1
 -2       931      1065      1010      4088      4089      3910
 -1      2048    8    0    1
 -2      1005       981      1066      3892      4090      4091
 -1      2049    8    0    1
 -2       981      1049      1066      4043      4092      4090
 -1      2050    8    0    1
 -2      1003       990      1067      3885      4093      4094
 -1      2051    8    0    1
 -2       990      1056      1067      4062      4095      4093
 -1      2052    8    0    1
 -2      1000      1022      1068      3960      4096      4097
 -1      2053    8    0    1
 -2      1009      1000      1068      3909      4097      4098
 -1      2054    8    0    1
 -2      1022      1040      1068      4016      4099      4096
 -1      2055    8    0    1
 -2      1007       983      1069      3903      4100      4101
 -1      2056    8    0    1
 -2       983      1051      1069      4049      4102      4100
 -1      2057    8    0    1
 -2       935       947      1070      3923      4103      4104
 -1      2058    8    0    1
 -2       947      1013      1070      3926      4105      4103
 -1      2059    8    0    1
 -2       985       986      1071      3831      4106      4107
 -1      2060    8    0    1
 -2       984       985      1072      3828      4108      4109
 -1      2061    8    0    1
 -2       985      1071      1072      4107      4110      4108
 -1      2062    8    0    1
 -2       952       999      1073      4060      4111      4112
 -1      2063    8    0    1
 -2       954       952      1073      3738      4112      4113
 -1      2064    8    0    1
 -2       999      1012      1073      3921      4114      4111
 -1      2065    8    0    1
 -2      1008       982      1074      3906      4115      4116
 -1      2066    8    0    1
 -2       982      1052      1074      4051      4117      4115
 -1      2067    8    0    1
 -2      1005      1066      1075      4091      4118      4119
 -1      2068    8    0    1
 -2      1005      1075      1013      4119      4120      3924
 -1      2069    8    0    1
 -2      1007      1069      1050      4101      4121      4045
 -1      2070    8    0    1
 -2      1052       988      1076      4050      4122      4123
 -1      2071    8    0    1
 -2       988      1014      1076      3928      4124      4122
 -1      2072    8    0    1
 -2      1011       933      1009      3917      3908      4125
 -1      2073    8    0    1
 -2      1012      1004      1023      3919      3962      4126
 -1      2074    8    0    1
 -2      1003      1067      1065      4094      4127      4128
 -1      2075    8    0    1
 -2      1051       984      1072      4048      4109      4129
 -1      2076    8    0    1
 -2      1014       935      1070      3929      4104      4130
 -1      2077    8    0    1
 -2      1064       936      1015      4086      3931      4131
 -1      2078    8    0    1
 -2       998      1018      1077      3945      4132      4133
 -1      2079    8    0    1
 -2      1060       998      1077      4073      4133      4134
 -1      2080    8    0    1
 -2      1018      1020      1077      3952      4135      4132
 -1      2081    8    0    1
 -2      1015       949      1078      3932      4136      4137
 -1      2082    8    0    1
 -2      1025       934      1011      3971      3916      4138
 -1      2083    8    0    1
 -2       986      1025      1071      3970      4139      4106
 -1      2084    8    0    1
 -2      1063       941       950      4081      3722      4140
 -1      2085    8    0    1
 -2      1021      1061      1079      4077      4141      4142
 -1      2086    8    0    1
 -2      1078       949      1010      4136      3912      4143
 -1      2087    8    0    1
 -2      1061       953      1054      4078      4144      4145
 -1      2088    8    0    1
 -2      1062      1016      1080      4079      4146      4147
 -1      2089    8    0    1
 -2      1016      1024      1080      3966      4148      4146
 -1      2090    8    0    1
 -2      1020      1019      1077      3953      4149      4135
 -1      2091    8    0    1
 -2       953      1002      1054      3956      4055      4144
 -1      2092    8    0    1
 -2      1023      1021      1081      3963      4150      4151
 -1      2093    8    0    1
 -2      1021      1079      1081      4142      4152      4150
 -1      2094    8    0    1
 -2       954      1073      1027      4113      4153      3976
 -1      2095    8    0    1
 -2       991      1003      1065      3933      4128      4154
 -1      2096    8    0    1
 -2      1077      1019      1082      4149      4155      4156
 -1      2097    8    0    1
 -2      1060      1077      1082      4134      4156      4157
 -1      2098    8    0    1
 -2      1019      1062      1082      4080      4158      4155
 -1      2099    8    0    1
 -2      1069      1051      1083      4102      4159      4160
 -1      2100    8    0    1
 -2      1029      1028      1084      3983      4161      4162
 -1      2101    8    0    1
 -2      1030      1029      1085      3986      4163      4164
 -1      2102    8    0    1
 -2      1029      1084      1085      4162      4165      4163
 -1      2103    8    0    1
 -2      1031      1030      1086      3989      4166      4167
 -1      2104    8    0    1
 -2      1030      1085      1086      4164      4168      4166
 -1      2105    8    0    1
 -2      1032      1031      1087      3992      4169      4170
 -1      2106    8    0    1
 -2      1031      1086      1087      4167      4171      4169
 -1      2107    8    0    1
 -2      1033      1032      1088      3995      4172      4173
 -1      2108    8    0    1
 -2      1032      1087      1088      4170      4174      4172
 -1      2109    8    0    1
 -2      1034      1033      1089      3998      4175      4176
 -1      2110    8    0    1
 -2      1033      1088      1089      4173      4177      4175
 -1      2111    8    0    1
 -2      1035      1034      1090      4001      4178      4179
 -1      2112    8    0    1
 -2      1034      1089      1090      4176      4180      4178
 -1      2113    8    0    1
 -2      1036      1035      1091      4004      4181      4182
 -1      2114    8    0    1
 -2      1035      1090      1091      4179      4183      4181
 -1      2115    8    0    1
 -2      1037      1036      1092      4007      4184      4185
 -1      2116    8    0    1
 -2      1036      1091      1092      4182      4186      4184
 -1      2117    8    0    1
 -2      1038      1037      1093      4010      4187      4188
 -1      2118    8    0    1
 -2      1037      1092      1093      4185      4189      4187
 -1      2119    8    0    1
 -2      1039      1038      1094      4013      4190      4191
 -1      2120    8    0    1
 -2      1038      1093      1094      4188      4192      4190
 -1      2121    8    0    1
 -2      1040      1039      1095      4017      4193      4194
 -1      2122    8    0    1
 -2      1039      1094      1095      4191      4195      4193
 -1      2123    8    0    1
 -2      1028      1027      1096      3980      4196      4197
 -1      2124    8    0    1
 -2      1028      1096      1084      4197      4198      4161
 -1      2125    8    0    1
 -2      1065      1067      1097      4127      4199      4200
 -1      2126    8    0    1
 -2      1012      1023      1098      4126      4201      4202
 -1      2127    8    0    1
 -2      1023      1081      1098      4151      4203      4201
 -1      2128    8    0    1
 -2      1042      1041      1099      4023      4204      4205
 -1      2129    8    0    1
 -2      1043      1042      1100      4026      4206      4207
 -1      2130    8    0    1
 -2      1042      1099      1100      4205      4208      4206
 -1      2131    8    0    1
 -2      1044      1043      1101      4029      4209      4210
 -1      2132    8    0    1
 -2      1043      1100      1101      4207      4211      4209
 -1      2133    8    0    1
 -2      1045      1044      1102      4032      4212      4213
 -1      2134    8    0    1
 -2      1044      1101      1102      4210      4214      4212
 -1      2135    8    0    1
 -2      1046      1045      1103      4035      4215      4216
 -1      2136    8    0    1
 -2      1045      1102      1103      4213      4217      4215
 -1      2137    8    0    1
 -2      1049      1048      1104      4044      4218      4219
 -1      2138    8    0    1
 -2      1051      1072      1105      4129      4220      4221
 -1      2139    8    0    1
 -2      1051      1105      1083      4221      4222      4159
 -1      2140    8    0    1
 -2      1050      1069      1106      4121      4223      4224
 -1      2141    8    0    1
 -2      1069      1083      1106      4160      4225      4223
 -1      2142    8    0    1
 -2      1025      1011      1071      4138      4226      4139
 -1      2143    8    0    1
 -2      1064      1015      1107      4131      4227      4228
 -1      2144    8    0    1
 -2      1015      1078      1107      4137      4229      4227
 -1      2145    8    0    1
 -2      1055      1053      1108      4059      4230      4231
 -1      2146    8    0    1
 -2      1079      1061      1054      4141      4145      4232
 -1      2147    8    0    1
 -2      1056      1055      1109      4063      4233      4234
 -1      2148    8    0    1
 -2      1055      1108      1109      4231      4235      4233
 -1      2149    8    0    1
 -2      1058      1059      1110      4072      4236      4237
 -1      2150    8    0    1
 -2      1059      1060      1111      4075      4238      4239
 -1      2151    8    0    1
 -2      1110      1059      1111      4236      4239      4240
 -1      2152    8    0    1
 -2      1060      1082      1111      4157      4241      4238
 -1      2153    8    0    1
 -2      1001      1063      1065      4082      4242      4087
 -1      2154    8    0    1
 -2      1026      1064      1107      4085      4228      4243
 -1      2155    8    0    1
 -2      1071      1011      1112      4226      4244      4245
 -1      2156    8    0    1
 -2      1066      1049      1113      4092      4246      4247
 -1      2157    8    0    1
 -2      1049      1104      1113      4219      4248      4246
 -1      2158    8    0    1
 -2      1041      1026      1114      4020      4249      4250
 -1      2159    8    0    1
 -2      1041      1114      1099      4250      4251      4204
 -1      2160    8    0    1
 -2      1048      1050      1115      4047      4252      4253
 -1      2161    8    0    1
 -2      1104      1048      1115      4218      4253      4254
 -1      2162    8    0    1
 -2      1050      1106      1115      4224      4255      4252
 -1      2163    8    0    1
 -2      1057      1058      1116      4069      4256      4257
 -1      2164    8    0    1
 -2      1058      1110      1116      4237      4258      4256
 -1      2165    8    0    1
 -2      1024      1017      1117      3967      4259      4260
 -1      2166    8    0    1
 -2      1080      1024      1117      4148      4260      4261
 -1      2167    8    0    1
 -2      1017      1047      1117      4038      4262      4259
 -1      2168    8    0    1
 -2      1067      1056      1118      4095      4263      4264
 -1      2169    8    0    1
 -2      1097      1067      1118      4199      4264      4265
 -1      2170    8    0    1
 -2      1056      1109      1118      4234      4266      4263
 -1      2171    8    0    1
 -2      1011      1009      1112      4125      4267      4244
 -1      2172    8    0    1
 -2      1010      1065      1119      4089      4268      4269
 -1      2173    8    0    1
 -2      1078      1010      1119      4143      4269      4270
 -1      2174    8    0    1
 -2      1065      1097      1119      4200      4271      4268
 -1      2175    8    0    1
 -2      1053      1057      1120      4066      4272      4273
 -1      2176    8    0    1
 -2      1053      1120      1108      4273      4274      4230
 -1      2177    8    0    1
 -2      1072      1071      1112      4110      4245      4275
 -1      2178    8    0    1
 -2      1070      1013      1121      4105      4276      4277
 -1      2179    8    0    1
 -2      1013      1075      1121      4120      4278      4276
 -1      2180    8    0    1
 -2      1054      1008      1079      4056      4279      4232
 -1      2181    8    0    1
 -2      1079      1008      1074      4279      4116      4280
 -1      2182    8    0    1
 -2      1014      1070      1122      4130      4281      4282
 -1      2183    8    0    1
 -2      1070      1121      1122      4277      4283      4281
 -1      2184    8    0    1
 -2      1073      1012      1098      4114      4202      4284
 -1      2185    8    0    1
 -2      1075      1066      1123      4118      4285      4286
 -1      2186    8    0    1
 -2      1066      1113      1123      4247      4287      4285
 -1      2187    8    0    1
 -2      1074      1052      1124      4117      4288      4289
 -1      2188    8    0    1
 -2      1076      1014      1122      4124      4282      4290
 -1      2189    8    0    1
 -2      1040      1095      1068      4194      4291      4099
 -1      2190    8    0    1
 -2      1096      1027      1125      4196      4292      4293
 -1      2191    8    0    1
 -2      1047      1046      1126      4039      4294      4295
 -1      2192    8    0    1
 -2      1117      1047      1126      4262      4295      4296
 -1      2193    8    0    1
 -2      1046      1103      1126      4216      4297      4294
 -1      2194    8    0    1
 -2      1052      1076      1127      4123      4298      4299
 -1      2195    8    0    1
 -2      1052      1127      1124      4299      4300      4288
 -1      2196    8    0    1
 -2      1105      1072      1112      4220      4275      4301
 -1      2197    8    0    1
 -2      1107      1078      1128      4229      4302      4303
 -1      2198    8    0    1
 -2      1078      1119      1128      4270      4304      4302
 -1      2199    8    0    1
 -2      1079      1074      1129      4280      4305      4306
 -1      2200    8    0    1
 -2      1081      1079      1129      4152      4306      4307
 -1      2201    8    0    1
 -2      1074      1124      1129      4289      4308      4305
 -1      2202    8    0    1
 -2      1057      1116      1120      4257      4309      4272
 -1      2203    8    0    1
 -2      1114      1026      1107      4249      4243      4310
 -1      2204    8    0    1
 -2      1082      1062      1130      4158      4311      4312
 -1      2205    8    0    1
 -2      1082      1130      1111      4312      4313      4241
 -1      2206    8    0    1
 -2      1027      1073      1098      4153      4284      4314
 -1      2207    8    0    1
 -2      1130      1062      1080      4311      4147      4315
 -1      2208    8    0    1
 -2      1084      1096      1127      4198      4316      4317
 -1      2209    8    0    1
 -2      1105      1112      1094      4301      4318      4319
 -1      2210    8    0    1
 -2      1076      1122      1131      4290      4320      4321
 -1      2211    8    0    1
 -2      1076      1131      1127      4321      4322      4298
 -1      2212    8    0    1
 -2      1086      1085      1132      4168      4323      4324
 -1      2213    8    0    1
 -2      1087      1086      1133      4171      4325      4326
 -1      2214    8    0    1
 -2      1086      1132      1133      4324      4327      4325
 -1      2215    8    0    1
 -2      1088      1087      1123      4174      4328      4329
 -1      2216    8    0    1
 -2      1089      1088      1113      4177      4330      4331
 -1      2217    8    0    1
 -2      1090      1089      1104      4180      4332      4333
 -1      2218    8    0    1
 -2      1091      1090      1115      4183      4334      4335
 -1      2219    8    0    1
 -2      1092      1091      1106      4186      4336      4337
 -1      2220    8    0    1
 -2      1093      1092      1083      4189      4338      4339
 -1      2221    8    0    1
 -2      1094      1093      1105      4192      4340      4319
 -1      2222    8    0    1
 -2      1099      1114      1134      4251      4341      4342
 -1      2223    8    0    1
 -2      1101      1100      1135      4211      4343      4344
 -1      2224    8    0    1
 -2      1103      1102      1136      4217      4345      4346
 -1      2225    8    0    1
 -2      1116      1110      1136      4258      4347      4348
 -1      2226    8    0    1
 -2      1106      1091      1115      4336      4335      4255
 -1      2227    8    0    1
 -2      1083      1105      1093      4222      4340      4339
 -1      2228    8    0    1
 -2      1106      1083      1092      4225      4338      4337
 -1      2229    8    0    1
 -2      1122      1121      1132      4283      4349      4350
 -1      2230    8    0    1
 -2      1113      1088      1123      4330      4329      4287
 -1      2231    8    0    1
 -2      1104      1089      1113      4332      4331      4248
 -1      2232    8    0    1
 -2      1114      1107      1128      4310      4303      4351
 -1      2233    8    0    1
 -2      1100      1099      1137      4208      4352      4353
 -1      2234    8    0    1
 -2      1135      1100      1137      4343      4353      4354
 -1      2235    8    0    1
 -2      1099      1134      1137      4342      4355      4352
 -1      2236    8    0    1
 -2      1085      1084      1131      4165      4356      4357
 -1      2237    8    0    1
 -2      1119      1097      1138      4271      4358      4359
 -1      2238    8    0    1
 -2      1128      1119      1138      4304      4359      4360
 -1      2239    8    0    1
 -2      1097      1118      1138      4265      4361      4358
 -1      2240    8    0    1
 -2      1096      1125      1129      4293      4362      4363
 -1      2241    8    0    1
 -2      1121      1075      1133      4278      4364      4365
 -1      2242    8    0    1
 -2      1108      1120      1135      4274      4366      4367
 -1      2243    8    0    1
 -2      1090      1104      1115      4333      4254      4334
 -1      2244    8    0    1
 -2      1085      1131      1132      4357      4368      4323
 -1      2245    8    0    1
 -2      1087      1133      1123      4326      4369      4328
 -1      2246    8    0    1
 -2      1135      1120      1139      4366      4370      4371
 -1      2247    8    0    1
 -2      1101      1135      1139      4344      4371      4372
 -1      2248    8    0    1
 -2      1120      1116      1139      4309      4373      4370
 -1      2249    8    0    1
 -2      1122      1132      1131      4350      4368      4320
 -1      2250    8    0    1
 -2      1134      1114      1128      4341      4351      4374
 -1      2251    8    0    1
 -2      1095      1094      1112      4195      4318      4375
 -1      2252    8    0    1
 -2      1075      1123      1133      4286      4369      4364
 -1      2253    8    0    1
 -2      1103      1136      1130      4346      4376      4377
 -1      2254    8    0    1
 -2      1102      1101      1139      4214      4372      4378
 -1      2255    8    0    1
 -2      1116      1136      1139      4348      4379      4373
 -1      2256    8    0    1
 -2      1129      1125      1081      4362      4380      4307
 -1      2257    8    0    1
 -2      1118      1109      1134      4266      4381      4382
 -1      2258    8    0    1
 -2      1130      1080      1126      4315      4383      4384
 -1      2259    8    0    1
 -2      1109      1108      1137      4235      4385      4386
 -1      2260    8    0    1
 -2      1110      1111      1130      4240      4313      4387
 -1      2261    8    0    1
 -2      1084      1127      1131      4317      4322      4356
 -1      2262    8    0    1
 -2      1110      1130      1136      4387      4376      4347
 -1      2263    8    0    1
 -2      1081      1125      1098      4380      4388      4203
 -1      2264    8    0    1
 -2      1102      1139      1136      4378      4379      4345
 -1      2265    8    0    1
 -2      1137      1108      1135      4385      4367      4354
 -1      2266    8    0    1
 -2      1126      1080      1117      4383      4261      4296
 -1      2267    8    0    1
 -2      1134      1109      1137      4381      4386      4355
 -1      2268    8    0    1
 -2      1095      1112      1009      4375      4267      4389
 -1      2269    8    0    1
 -2      1103      1130      1126      4377      4384      4297
 -1      2270    8    0    1
 -2      1095      1009      1068      4389      4098      4291
 -1      2271    8    0    1
 -2      1121      1133      1132      4365      4327      4349
 -1      2272    8    0    1
 -2      1096      1129      1124      4363      4308      4390
 -1      2273    8    0    1
 -2      1125      1027      1098      4292      4314      4388
 -1      2274    8    0    1
 -2       950       991      1063      3940      4391      4140
 -1      2275    8    0    1
 -2      1124      1127      1096      4300      4316      4390
 -1      2276    8    0    1
 -2      1063       991      1065      4391      4154      4242
 -1      2277    8    0    1
 -2      1118      1134      1138      4382      4392      4361
 -1      2278    8    0    1
 -2      1134      1128      1138      4374      4360      4392
 -3
    1PSTEP                         1           1           1          
  100CL  101 1.000000000        4392                     0    1           1
 -4  DISP        4    1
 -5  D1          1    2    1    0
 -5  D2          1    2    2    0
 -5  D3          1    2    3    0
 -5  ALL         1    2    0    0    1ALL
 -1         1 8.51140E-03-9.48774E-04-3.15941E-14
 -1         2 1.06582E-02-1.11928E-04-3.61022E-14
 -1         3 1.50442E-02 3.25718E-04-8.83551E-14
 -1         4 1.53311E-02-1.07242E-03-8.93279E-14
 -1         5 0.00000E+00 0.00000E+00 0.00000E+00
 -1         6 0.00000E+00 0.00000E+00 0.00000E+00
 -1         7 0.00000E+00 0.00000E+00 0.00000E+00
 -1         8 0.00000E+00 0.00000E+00 0.00000E+00
 -1         9 0.00000E+00 0.00000E+00 0.00000E+00
 -1        10 0.00000E+00 0.00000E+00 0.00000E+00
 -1        11 0.00000E+00 0.00000E+00 0.00000E+00
 -1        12 0.00000E+00 0.00000E+00 0.00000E+00
 -1        13 0.00000E+00 0.00000E+00 0.00000E+00
 -1        14 0.00000E+00 0.00000E+00 0.00000E+00
 -1        15 0.00000E+00 0.00000E+00 0.00000E+00
 -1        16 0.00000E+00 0.00000E+00 0.00000E+00
 -1        17 0.00000E+00 0.00000E+00 0.00000E+00
 -1        18 0.00000E+00 0.00000E+00 0.00000E+00
 -1        19 0.00000E+00 0.00000E+00 0.00000E+00
 -1        20 0.00000E+00 0.00000E+00 0.00000E+00
 -1        21 0.00000E+00 0.00000E+00 0.00000E+00
 -1        22 0.00000E+00 0.00000E+00 0.00000E+00
 -1        23 4.10564E-04-2.60228E-04 1.58361E-17
 -1        24 7.01898E-04-3.99896E-04-7.82320E-17
 -1        25 9.71360E-04-4.96460E-04-2.76770E-16
 -1        26 1.23529E-03-5.64100E-04-5.74678E-16
 -1        27 1.49834E-03-6.11901E-04-9.68406E-16
 -1        28 1.76266E-03-6.45171E-04-1.45700E-15
 -1        29 2.02928E-03-6.67540E-04-2.04188E-15
 -1        30 2.29873E-03-6.81618E-04-2.72169E-15
 -1        31 2.57123E-03-6.89345E-04-3.49580E-15
 -1        32 2.84694E-03-6.92186E-04-4.36216E-15
 -1        33 3.12598E-03-6.91269E-04-5.31301E-15
 -1        34 3.40859E-03-6.87500E-04-6.34007E-15
 -1        35 3.69513E-03-6.81666E-04-7.44445E-15
 -1        36 3.98614E-03-6.74546E-04-8.61969E-15
 -1        37 4.28243E-03-6.67033E-04-9.85895E-15
 -1        38 4.58500E-03-6.60279E-04-1.11639E-14
 -1        39 4.89513E-03-6.55864E-04-1.25294E-14
 -1        40 5.21420E-03-6.55988E-04-1.39591E-14
 -1        41 5.54353E-03-6.63660E-04-1.54546E-14
 -1        42 5.88400E-03-6.82815E-04-1.70174E-14
 -1        43 6.23534E-03-7.18199E-04-1.86485E-14
 -1        44 6.59524E-03-7.74751E-04-2.03420E-14
 -1        45 6.95833E-03-8.56093E-04-2.21000E-14
 -1        46 7.31559E-03-9.61871E-04-2.39229E-14
 -1        47 7.65554E-03-1.08433E-03-2.58027E-14
 -1        48 7.96802E-03-1.20601E-03-2.77419E-14
 -1        49 8.25021E-03-1.30183E-03-2.97357E-14
 -1        50 8.51111E-03-1.34768E-03-3.17966E-14
 -1        51 8.76962E-03-1.33203E-03-3.39213E-14
 -1        52 9.04588E-03-1.26237E-03-3.61140E-14
 -1        53 9.35153E-03-1.16101E-03-3.83766E-14
 -1        54 9.68611E-03-1.05372E-03-4.07015E-14
 -1        55 1.00406E-02-9.60047E-04-4.30814E-14
 -1        56 1.04034E-02-8.89775E-04-4.55078E-14
 -1        57 1.07647E-02-8.44597E-04-4.79711E-14
 -1        58 1.11185E-02-8.21490E-04-5.04604E-14
 -1        59 1.14619E-02-8.15633E-04-5.29880E-14
 -1        60 1.17943E-02-8.22167E-04-5.55461E-14
 -1        61 1.21165E-02-8.36979E-04-5.81392E-14
 -1        62 1.24299E-02-8.56906E-04-6.07836E-14
 -1        63 1.27360E-02-8.79664E-04-6.34879E-14
 -1        64 1.30363E-02-9.03679E-04-6.62465E-14
 -1        65 1.33320E-02-9.27910E-04-6.90560E-14
 -1        66 1.36243E-02-9.51693E-04-7.19063E-14
 -1        67 1.39140E-02-9.74627E-04-7.47879E-14
 -1        68 1.42018E-02-9.96485E-04-7.76808E-14
 -1        69 1.44884E-02-1.01717E-03-8.05901E-14
 -1        70 1.47742E-02-1.03668E-03-8.35221E-14
 -1        71 1.50597E-02-1.05523E-03-8.64817E-14
 -1        72 4.13007E-04 2.60928E-04 5.36172E-17
 -1        73 7.01724E-04 4.02592E-04 2.27682E-17
 -1        74 9.71906E-04 4.98225E-04-9.09646E-17
 -1        75 1.23614E-03 5.65809E-04-2.91671E-16
 -1        76 1.49933E-03 6.13665E-04-5.80424E-16
 -1        77 1.76372E-03 6.47039E-04-9.55324E-16
 -1        78 2.03041E-03 6.69541E-04-1.41557E-15
 -1        79 2.29990E-03 6.83782E-04-1.95840E-15
 -1        80 2.57244E-03 6.91704E-04-2.58406E-15
 -1        81 2.84818E-03 6.94786E-04-3.29306E-15
 -1        82 3.12725E-03 6.94175E-04-4.08892E-15
 -1        83 3.40983E-03 6.90806E-04-4.96510E-15
 -1        84 3.69626E-03 6.85501E-04-5.91835E-15
 -1        85 3.98701E-03 6.79080E-04-6.94998E-15
 -1        86 4.28272E-03 6.72477E-04-8.06381E-15
 -1        87 4.58421E-03 6.66862E-04-9.25626E-15
 -1        88 4.89239E-03 6.63775E-04-1.05201E-14
 -1        89 5.20815E-03 6.65254E-04-1.18553E-14
 -1        90 5.53211E-03 6.73912E-04-1.32553E-14
 -1        91 5.86429E-03 6.92902E-04-1.47134E-14
 -1        92 6.20352E-03 7.25627E-04-1.62341E-14
 -1        93 6.54690E-03 7.75035E-04-1.78259E-14
 -1        94 6.88926E-03 8.42313E-04-1.94944E-14
 -1        95 7.22337E-03 9.25029E-04-2.12330E-14
 -1        96 7.54125E-03 1.01528E-03-2.30350E-14
 -1        97 7.83698E-03 1.09911E-03-2.49028E-14
 -1        98 8.11028E-03 1.15889E-03-2.68353E-14
 -1        99 8.36851E-03 1.17888E-03-2.88335E-14
 -1       100 8.62506E-03 1.15184E-03-3.09008E-14
 -1       101 8.89402E-03 1.08243E-03-3.30490E-14
 -1       102 9.18447E-03 9.85021E-04-3.52787E-14
 -1       103 9.49777E-03 8.77374E-04-3.75884E-14
 -1       104 9.82898E-03 7.74574E-04-3.99718E-14
 -1       105 1.01703E-02 6.85900E-04-4.24188E-14
 -1       106 1.05141E-02 6.14860E-04-4.49356E-14
 -1       107 1.08549E-02 5.60899E-04-4.75276E-14
 -1       108 1.11892E-02 5.21323E-04-5.01881E-14
 -1       109 1.15157E-02 4.92756E-04-5.29053E-14
 -1       110 1.18342E-02 4.71971E-04-5.56828E-14
 -1       111 1.21454E-02 4.56271E-04-5.85107E-14
 -1       112 1.24503E-02 4.43572E-04-6.13781E-14
 -1       113 1.27499E-02 4.32357E-04-6.42905E-14
 -1       114 1.30453E-02 4.21574E-04-6.72390E-14
 -1       115 1.33374E-02 4.10522E-04-7.02226E-14
 -1       116 1.36271E-02 3.98756E-04-7.32368E-14
 -1       117 1.39149E-02 3.86014E-04-7.62799E-14
 -1       118 1.42015E-02 3.72162E-04-7.93374E-14
 -1       119 1.44873E-02 3.57190E-04-8.24010E-14
 -1       120 1.47729E-02 3.41270E-04-8.54610E-14
 -1       121 1.50603E-02 2.41343E-04-8.84432E-14
 -1       122 1.50769E-02 1.56908E-04-8.85434E-14
 -1       123 1.50944E-02 7.27734E-05-8.86280E-14
 -1       124 1.51126E-02-1.06644E-05-8.86873E-14
 -1       125 1.51313E-02-9.31657E-05-8.87300E-14
 -1       126 1.51497E-02-1.73308E-04-8.87746E-14
 -1       127 1.51681E-02-2.53985E-04-8.88260E-14
 -1       128 1.51858E-02-3.34083E-04-8.88642E-14
 -1       129 1.52027E-02-4.13977E-04-8.89098E-14
 -1       130 1.52188E-02-4.94074E-04-8.89704E-14
 -1       131 1.52342E-02-5.74752E-04-8.90319E-14
 -1       132 1.52490E-02-6.54901E-04-8.91019E-14
 -1       133 1.52642E-02-7.37416E-04-8.91579E-14
 -1       134 1.52799E-02-8.20875E-04-8.91905E-14
 -1       135 1.52963E-02-9.05040E-04-8.92431E-14
 -1       136 1.53136E-02-9.89464E-04-8.92925E-14
 -1       137 1.05949E-02 6.92062E-05-3.58817E-14
 -1       138 1.04500E-02 2.26066E-04-3.54753E-14
 -1       139 1.01851E-02 3.90735E-04-3.47899E-14
 -1       140 9.85865E-03 5.23692E-04-3.39824E-14
 -1       141 9.49559E-03 6.23543E-04-3.31157E-14
 -1       142 9.07319E-03 6.97351E-04-3.21342E-14
 -1       143 8.57640E-03 7.37247E-04-3.10169E-14
 -1       144 8.10184E-03 7.31400E-04-2.99924E-14
 -1       145 7.67133E-03 6.88160E-04-2.90827E-14
 -1       146 7.25830E-03 6.07342E-04-2.82361E-14
 -1       147 6.91597E-03 5.01106E-04-2.75559E-14
 -1       148 6.64310E-03 3.74663E-04-2.70386E-14
 -1       149 6.43065E-03 2.20362E-04-2.66705E-14
 -1       150 6.31248E-03 5.59703E-05-2.65071E-14
 -1       151 6.28985E-03-1.20082E-04-2.65500E-14
 -1       152 6.36423E-03-2.88772E-04-2.67942E-14
 -1       153 6.54437E-03-4.61797E-04-2.72583E-14
 -1       154 6.82453E-03-6.22360E-04-2.79179E-14
 -1       155 7.16821E-03-7.53623E-04-2.86898E-14
 -1       156 7.54527E-03-8.49779E-04-2.95088E-14
 -1       157 8.04626E-03-9.25599E-04-3.05952E-14
 -1       158 8.93915E-03-9.33005E-04-3.25119E-14
 -1       159 9.35745E-03-8.80609E-04-3.34171E-14
 -1       160 9.72279E-03-8.01165E-04-3.42037E-14
 -1       161 1.00419E-02-6.96276E-04-3.48914E-14
 -1       162 1.03117E-02-5.66638E-04-3.54651E-14
 -1       163 1.05024E-02-4.26850E-04-3.58572E-14
 -1       164 1.06226E-02-2.71850E-04-3.60840E-14
 -1       165 2.40151E-04-1.25277E-04-2.66104E-17
 -1       166 2.25182E-04-9.43991E-05-3.94345E-17
 -1       167 2.19559E-04-7.25667E-05-4.58956E-17
 -1       168 2.16827E-04-5.48962E-05-4.90873E-17
 -1       169 2.15384E-04-3.97812E-05-5.01308E-17
 -1       170 2.14578E-04-2.57752E-05-5.00359E-17
 -1       171 2.14174E-04-1.25684E-05-4.92126E-17
 -1       172 2.14056E-04 2.73290E-07-4.81691E-17
 -1       173 2.14192E-04 1.31272E-05-4.66241E-17
 -1       174 2.14618E-04 2.63732E-05-4.44591E-17
 -1       175 2.15432E-04 4.02075E-05-4.14064E-17
 -1       176 2.16929E-04 5.57029E-05-3.67172E-17
 -1       177 2.19704E-04 7.35983E-05-2.97546E-17
 -1       178 2.25357E-04 9.57975E-05-1.86991E-17
 -1       179 2.39080E-04 1.27353E-04-1.10792E-18
 -1       180 2.97233E-04 1.85152E-04 1.84280E-17
 -1       181 4.67925E-04-2.62919E-04-6.95821E-17
 -1       182 7.65647E-04-3.80812E-04-2.33192E-16
 -1       183 1.04914E-03-4.62725E-04-4.92604E-16
 -1       184 1.32627E-03-5.20203E-04-8.46264E-16
 -1       185 1.60074E-03-5.60192E-04-1.29241E-15
 -1       186 1.87471E-03-5.87293E-04-1.83236E-15
 -1       187 2.14942E-03-6.04715E-04-2.46511E-15
 -1       188 2.42561E-03-6.14783E-04-3.18969E-15
 -1       189 2.70374E-03-6.19218E-04-4.00551E-15
 -1       190 2.98414E-03-6.19310E-04-4.90803E-15
 -1       191 3.26714E-03-6.16052E-04-5.89108E-15
 -1       192 3.55305E-03-6.10250E-04-6.95028E-15
 -1       193 3.84232E-03-6.02634E-04-8.08330E-15
 -1       194 4.13549E-03-5.93975E-04-9.28428E-15
 -1       195 4.43325E-03-5.85225E-04-1.05505E-14
 -1       196 4.73641E-03-5.77678E-04-1.18805E-14
 -1       197 5.04589E-03-5.73170E-04-1.32739E-14
 -1       198 5.36260E-03-5.74293E-04-1.47314E-14
 -1       199 5.68726E-03-5.84597E-04-1.62546E-14
 -1       200 6.02014E-03-6.08673E-04-1.78439E-14
 -1       201 6.36059E-03-6.51887E-04-1.95004E-14
 -1       202 6.70657E-03-7.19409E-04-2.12202E-14
 -1       203 7.05417E-03-8.14084E-04-2.30048E-14
 -1       204 7.39764E-03-9.32984E-04-2.48501E-14
 -1       205 7.73044E-03-1.06357E-03-2.67530E-14
 -1       206 8.04799E-03-1.18245E-03-2.87128E-14
 -1       207 8.35108E-03-1.26076E-03-3.07332E-14
 -1       208 8.64734E-03-1.27671E-03-3.28194E-14
 -1       209 8.94805E-03-1.22779E-03-3.49704E-14
 -1       210 9.26210E-03-1.13233E-03-3.71944E-14
 -1       211 9.59180E-03-1.01885E-03-3.94827E-14
 -1       212 9.93351E-03-9.12699E-04-4.18300E-14
 -1       213 1.02808E-02-8.28864E-04-4.42292E-14
 -1       214 1.06277E-02-7.72096E-04-4.66734E-14
 -1       215 1.09699E-02-7.40478E-04-4.91532E-14
 -1       216 1.13049E-02-7.29110E-04-5.16696E-14
 -1       217 1.16319E-02-7.32548E-04-5.42190E-14
 -1       218 1.19511E-02-7.46001E-04-5.68045E-14
 -1       219 1.22632E-02-7.65717E-04-5.94325E-14
 -1       220 1.25692E-02-7.88963E-04-6.21076E-14
 -1       221 1.28701E-02-8.13850E-04-6.48400E-14
 -1       222 1.31669E-02-8.39130E-04-6.76194E-14
 -1       223 1.34604E-02-8.64012E-04-7.04428E-14
 -1       224 1.37514E-02-8.88021E-04-7.33071E-14
 -1       225 1.40405E-02-9.10886E-04-7.61946E-14
 -1       226 1.43282E-02-9.32476E-04-7.90999E-14
 -1       227 1.46149E-02-9.52763E-04-8.20237E-14
 -1       228 1.49010E-02-9.71851E-04-8.49758E-14
 -1       229 6.03609E-04 3.30121E-04-2.92802E-17
 -1       230 8.92277E-04 4.30936E-04-1.55949E-16
 -1       231 1.17082E-03 5.01594E-04-3.66172E-16
 -1       232 1.44492E-03 5.51238E-04-6.61543E-16
 -1       233 1.71765E-03 5.85615E-04-1.04106E-15
 -1       234 1.99071E-03 6.08619E-04-1.50500E-15
 -1       235 2.26507E-03 6.23032E-04-2.05209E-15
 -1       236 2.54131E-03 6.30902E-04-2.68113E-15
 -1       237 2.81980E-03 6.33766E-04-3.39254E-15
 -1       238 3.10081E-03 6.32798E-04-4.18841E-15
 -1       239 3.38462E-03 6.28932E-04-5.06472E-15
 -1       240 3.67158E-03 6.22975E-04-6.01861E-15
 -1       241 3.96210E-03 6.15713E-04-7.05083E-15
 -1       242 4.25669E-03 6.08031E-04-8.16143E-15
 -1       243 4.55599E-03 6.01045E-04-9.35020E-15
 -1       244 4.86064E-03 5.96247E-04-1.06118E-14
 -1       245 5.17128E-03 5.95640E-04-1.19439E-14
 -1       246 5.48834E-03 6.01855E-04-1.33417E-14
 -1       247 5.81182E-03 6.18149E-04-1.48010E-14
 -1       248 6.14098E-03 6.48180E-04-1.63245E-14
 -1       249 6.47398E-03 6.95352E-04-1.79157E-14
 -1       250 6.80762E-03 7.61528E-04-1.95777E-14
 -1       251 7.13742E-03 8.45066E-04-2.13062E-14
 -1       252 7.45834E-03 9.38637E-04-2.30978E-14
 -1       253 7.76642E-03 1.02817E-03-2.49576E-14
 -1       254 8.06091E-03 1.09484E-03-2.68862E-14
 -1       255 8.34572E-03 1.12087E-03-2.88800E-14
 -1       256 8.62873E-03 1.09716E-03-3.09438E-14
 -1       257 8.91857E-03 1.02775E-03-3.30843E-14
 -1       258 9.22101E-03 9.27744E-04-3.53027E-14
 -1       259 9.53712E-03 8.16399E-04-3.76000E-14
 -1       260 9.86398E-03 7.10119E-04-3.99703E-14
 -1       261 1.01968E-02 6.18920E-04-4.24119E-14
 -1       262 1.05307E-02 5.46493E-04-4.49229E-14
 -1       263 1.08619E-02 4.92128E-04-4.75008E-14
 -1       264 1.11883E-02 4.52855E-04-5.01450E-14
 -1       265 1.15086E-02 4.25019E-04-5.28451E-14
 -1       266 1.18228E-02 4.05175E-04-5.56085E-14
 -1       267 1.21310E-02 3.90469E-04-5.84197E-14
 -1       268 1.24342E-02 3.78725E-04-6.12787E-14
 -1       269 1.27329E-02 3.68375E-04-6.41765E-14
 -1       270 1.30281E-02 3.58344E-04-6.71109E-14
 -1       271 1.33204E-02 3.47927E-04-7.00763E-14
 -1       272 1.36105E-02 3.36686E-04-7.30712E-14
 -1       273 1.38989E-02 3.24365E-04-7.60923E-14
 -1       274 1.41861E-02 3.10839E-04-7.91357E-14
 -1       275 1.44725E-02 2.96095E-04-8.21890E-14
 -1       276 1.47584E-02 2.80282E-04-8.52447E-14
 -1       277 1.48211E-02 2.13565E-04-8.58522E-14
 -1       278 1.48382E-02 1.29665E-04-8.59381E-14
 -1       279 1.48562E-02 4.62985E-05-8.60116E-14
 -1       280 1.48749E-02-3.63701E-05-8.60791E-14
 -1       281 1.48936E-02-1.16895E-04-8.61303E-14
 -1       282 1.49125E-02-1.98106E-04-8.61827E-14
 -1       283 1.49307E-02-2.78773E-04-8.62377E-14
 -1       284 1.49481E-02-3.59143E-04-8.62968E-14
 -1       285 1.49645E-02-4.39510E-04-8.63544E-14
 -1       286 1.49801E-02-5.20170E-04-8.64202E-14
 -1       287 1.49948E-02-5.99993E-04-8.64873E-14
 -1       288 1.50096E-02-6.81895E-04-8.65487E-14
 -1       289 1.50248E-02-7.64565E-04-8.65994E-14
 -1       290 1.50406E-02-8.47933E-04-8.66456E-14
 -1       291 1.49706E-02-9.09833E-04-8.58138E-14
 -1       292 1.06635E-02-7.59495E-05-3.71636E-14
 -1       293 1.05116E-02 3.78915E-05-3.65266E-14
 -1       294 1.02364E-02 1.56126E-04-3.60214E-14
 -1       295 9.88398E-03 3.39748E-04-3.50107E-14
 -1       296 9.52009E-03 5.16459E-04-3.39707E-14
 -1       297 9.14048E-03 6.70095E-04-3.28920E-14
 -1       298 8.74557E-03 7.86975E-04-3.16439E-14
 -1       299 8.35745E-03 8.12325E-04-3.03747E-14
 -1       300 7.98900E-03 7.58587E-04-2.92234E-14
 -1       301 7.61499E-03 6.34008E-04-2.81970E-14
 -1       302 7.23322E-03 4.75954E-04-2.73522E-14
 -1       303 6.88957E-03 3.16966E-04-2.66751E-14
 -1       304 6.58598E-03 1.71545E-04-2.61766E-14
 -1       305 6.36394E-03 5.06306E-05-2.58780E-14
 -1       306 6.26071E-03-5.02604E-05-2.57092E-14
 -1       307 6.30048E-03-1.40475E-04-2.59192E-14
 -1       308 6.47780E-03-2.46128E-04-2.62698E-14
 -1       309 6.78475E-03-3.90606E-04-2.68740E-14
 -1       310 7.13871E-03-5.86398E-04-2.78159E-14
 -1       311 7.51469E-03-7.60668E-04-2.87374E-14
 -1       312 7.93814E-03-9.22532E-04-2.97906E-14
 -1       313 8.32559E-03-1.01516E-03-3.10655E-14
 -1       314 8.68340E-03-1.01521E-03-3.21928E-14
 -1       315 9.02661E-03-9.46728E-04-3.33159E-14
 -1       316 9.39020E-03-8.17553E-04-3.42803E-14
 -1       317 9.73476E-03-6.66190E-04-3.51646E-14
 -1       318 1.00618E-02-5.03829E-04-3.59782E-14
 -1       319 1.03528E-02-3.69134E-04-3.65130E-14
 -1       320 1.05630E-02-2.50527E-04-3.69500E-14
 -1       321 1.06734E-02-1.60666E-04-3.70331E-14
 -1       322 4.55253E-04-1.64122E-04-1.53262E-16
 -1       323 4.73934E-04-2.12324E-04-1.33140E-16
 -1       324 4.40714E-04-9.34942E-05-1.69457E-16
 -1       325 4.37815E-04-6.44966E-05-1.71206E-16
 -1       326 4.36224E-04-3.76377E-05-1.70243E-16
 -1       327 4.35524E-04-1.19254E-05-1.67750E-16
 -1       328 4.35554E-04 1.34415E-05-1.63789E-16
 -1       329 4.36318E-04 3.92113E-05-1.58243E-16
 -1       330 4.37953E-04 6.57233E-05-1.50518E-16
 -1       331 4.40944E-04 9.48917E-05-1.39743E-16
 -1       332 4.46212E-04 1.27739E-04-1.24832E-16
 -1       333 4.55853E-04 1.66681E-04-1.03135E-16
 -1       334 4.75556E-04 2.16384E-04-7.17166E-17
 -1       335 5.31413E-04 2.69198E-04-5.56941E-17
 -1       336 8.23602E-04 3.71956E-04-1.89657E-16
 -1       337 8.62598E-04-3.55703E-04-4.03357E-16
 -1       338 1.14882E-03-4.23321E-04-7.19527E-16
 -1       339 1.43159E-03-4.70986E-04-1.12622E-15
 -1       340 1.71244E-03-5.03756E-04-1.62326E-15
 -1       341 1.99258E-03-5.25331E-04-2.21151E-15
 -1       342 2.27287E-03-5.38430E-04-2.88933E-15
 -1       343 2.55390E-03-5.45060E-04-3.65645E-15
 -1       344 2.83611E-03-5.46716E-04-4.51072E-15
 -1       345 3.11983E-03-5.44521E-04-5.44861E-15
 -1       346 3.40537E-03-5.39346E-04-6.46337E-15
 -1       347 3.69306E-03-5.31920E-04-7.55387E-15
 -1       348 3.98326E-03-5.22945E-04-8.71540E-15
 -1       349 4.27641E-03-5.13217E-04-9.94382E-15
 -1       350 4.57304E-03-5.03782E-04-1.12378E-14
 -1       351 4.87376E-03-4.96106E-04-1.25944E-14
 -1       352 5.17928E-03-4.92288E-04-1.40148E-14
 -1       353 5.49039E-03-4.95280E-04-1.55001E-14
 -1       354 5.80792E-03-5.09078E-04-1.70492E-14
 -1       355 6.13268E-03-5.38749E-04-1.86659E-14
 -1       356 6.46517E-03-5.90048E-04-2.03500E-14
 -1       357 6.80517E-03-6.68191E-04-2.20959E-14
 -1       358 7.15079E-03-7.75253E-04-2.39063E-14
 -1       359 7.49759E-03-9.05864E-04-2.57750E-14
 -1       360 7.83890E-03-1.04243E-03-2.76976E-14
 -1       361 8.16921E-03-1.15443E-03-2.96789E-14
 -1       362 8.48959E-03-1.20850E-03-3.17221E-14
 -1       363 8.80876E-03-1.18745E-03-3.38340E-14
 -1       364 9.13649E-03-1.10256E-03-3.60141E-14
 -1       365 9.47571E-03-9.85365E-04-3.82653E-14
 -1       366 9.82195E-03-8.68255E-04-4.05790E-14
 -1       367 1.01684E-02-7.71917E-04-4.29523E-14
 -1       368 1.05100E-02-7.04058E-04-4.53761E-14
 -1       369 1.08444E-02-6.63814E-04-4.78404E-14
 -1       370 1.11711E-02-6.46359E-04-5.03425E-14
 -1       371 1.14905E-02-6.45902E-04-5.28796E-14
 -1       372 1.18035E-02-6.57170E-04-5.54598E-14
 -1       373 1.21109E-02-6.75941E-04-5.80738E-14
 -1       374 1.24136E-02-6.99082E-04-6.07318E-14
 -1       375 1.27124E-02-7.24396E-04-6.34389E-14
 -1       376 1.30080E-02-7.50409E-04-6.61935E-14
 -1       377 1.33009E-02-7.76179E-04-6.89919E-14
 -1       378 1.35918E-02-8.01132E-04-7.18289E-14
 -1       379 1.38811E-02-8.24942E-04-7.47041E-14
 -1       380 1.41692E-02-8.47442E-04-7.76041E-14
 -1       381 1.44563E-02-8.68570E-04-8.05265E-14
 -1       382 1.47136E-02-8.89697E-04-8.31602E-14
 -1       383 1.10886E-03 4.45212E-04-4.05170E-16
 -1       384 1.38950E-03 4.96860E-04-7.03125E-16
 -1       385 1.66785E-03 5.32625E-04-1.08445E-15
 -1       386 1.94552E-03 5.56543E-04-1.54959E-15
 -1       387 2.22355E-03 5.71524E-04-2.09668E-15
 -1       388 2.50262E-03 5.79712E-04-2.72557E-15
 -1       389 2.78318E-03 5.82705E-04-3.43587E-15
 -1       390 3.06558E-03 5.81714E-04-4.22974E-15
 -1       391 3.35012E-03 5.77689E-04-5.10340E-15
 -1       392 3.63714E-03 5.71429E-04-6.05520E-15
 -1       393 3.92697E-03 5.63698E-04-7.08388E-15
 -1       394 4.22007E-03 5.55339E-04-8.19028E-15
 -1       395 4.51693E-03 5.47409E-04-9.37501E-15
 -1       396 4.81809E-03 5.41326E-04-1.06323E-14
 -1       397 5.12411E-03 5.39013E-04-1.19598E-14
 -1       398 5.43547E-03 5.43028E-04-1.33536E-14
 -1       399 5.75245E-03 5.56606E-04-1.48110E-14
 -1       400 6.07491E-03 5.83496E-04-1.63331E-14
 -1       401 6.40210E-03 6.27417E-04-1.79210E-14
 -1       402 6.73226E-03 6.90893E-04-1.95750E-14
 -1       403 7.06246E-03 7.73325E-04-2.12957E-14
 -1       404 7.38869E-03 8.68568E-04-2.30784E-14
 -1       405 7.70686E-03 9.63159E-04-2.49289E-14
 -1       406 8.01483E-03 1.03742E-03-2.68483E-14
 -1       407 8.31444E-03 1.07120E-03-2.88359E-14
 -1       408 8.61172E-03 1.05263E-03-3.08927E-14
 -1       409 8.91394E-03 9.84571E-04-3.30234E-14
 -1       410 9.22574E-03 8.82900E-04-3.52305E-14
 -1       411 9.54734E-03 7.68584E-04-3.75165E-14
 -1       412 9.87560E-03 6.59420E-04-3.98751E-14
 -1       413 1.02063E-02 5.66072E-04-4.23053E-14
 -1       414 1.05358E-02 4.92336E-04-4.48079E-14
 -1       415 1.08617E-02 4.37364E-04-4.73750E-14
 -1       416 1.11825E-02 3.97995E-04-5.00060E-14
 -1       417 1.14980E-02 3.70399E-04-5.26942E-14
 -1       418 1.18081E-02 3.50995E-04-5.54417E-14
 -1       419 1.21133E-02 3.36831E-04-5.82415E-14
 -1       420 1.24143E-02 3.25659E-04-6.10884E-14
 -1       421 1.27116E-02 3.15867E-04-6.39755E-14
 -1       422 1.30059E-02 3.06354E-04-6.68956E-14
 -1       423 1.32977E-02 2.96404E-04-6.98443E-14
 -1       424 1.35877E-02 2.85574E-04-7.28218E-14
 -1       425 1.38762E-02 2.73608E-04-7.58275E-14
 -1       426 1.41635E-02 2.60385E-04-7.88586E-14
 -1       427 1.44501E-02 2.45883E-04-8.19030E-14
 -1       428 1.46357E-02 2.29932E-04-8.38765E-14
 -1       429 1.46185E-02 1.91184E-05-8.34146E-14
 -1       430 1.45998E-02 1.01956E-04-8.33374E-14
 -1       431 1.46174E-02 1.65774E-04-8.36103E-14
 -1       432 1.46374E-02-6.15832E-05-8.34845E-14
 -1       433 1.46566E-02-1.42964E-04-8.35443E-14
 -1       434 1.46754E-02-2.23748E-04-8.36060E-14
 -1       435 1.46934E-02-3.04137E-04-8.36697E-14
 -1       436 1.47103E-02-3.84382E-04-8.37391E-14
 -1       437 1.47261E-02-4.64757E-04-8.38091E-14
 -1       438 1.47409E-02-5.44146E-04-8.38805E-14
 -1       439 1.47555E-02-6.25492E-04-8.39462E-14
 -1       440 1.47701E-02-7.07559E-04-8.40054E-14
 -1       441 1.47852E-02-7.90384E-04-8.40575E-14
 -1       442 1.03945E-02 2.28499E-05-3.72449E-14
 -1       443 1.07063E-02-1.27496E-04-3.82906E-14
 -1       444 1.06013E-02-6.11525E-05-3.78903E-14
 -1       445 1.00041E-02 1.95957E-04-3.61689E-14
 -1       446 9.61413E-03 3.85732E-04-3.51260E-14
 -1       447 4.45831E-04-1.25903E-04-1.64128E-16
 -1       448 8.89965E-03 7.47482E-04-3.24924E-14
 -1       449 8.51516E-03 8.48811E-04-3.08587E-14
 -1       450 8.20902E-03 8.25948E-04-2.95997E-14
 -1       451 7.85598E-03 7.08962E-04-2.82918E-14
 -1       452 7.47926E-03 5.27134E-04-2.71847E-14
 -1       453 7.12238E-03 3.41060E-04-2.62655E-14
 -1       454 6.76581E-03 1.80236E-04-2.57242E-14
 -1       455 6.47076E-03 4.98837E-05-2.51328E-14
 -1       456 6.29035E-03-2.35301E-05-2.49798E-14
 -1       457 6.24573E-03-8.13276E-05-2.49045E-14
 -1       458 6.36493E-03-1.42890E-04-2.52984E-14
 -1       459 6.63175E-03-2.47345E-04-2.57896E-14
 -1       460 7.05159E-03-4.40254E-04-2.67198E-14
 -1       461 7.39679E-03-6.36139E-04-2.78195E-14
 -1       462 7.74990E-03-8.16203E-04-2.87420E-14
 -1       463 8.20500E-03-1.01644E-03-3.04004E-14
 -1       464 8.51636E-03-1.05829E-03-3.17283E-14
 -1       465 8.79089E-03-1.02242E-03-3.28429E-14
 -1       466 9.17381E-03-8.76660E-04-3.43639E-14
 -1       467 9.46298E-03-7.32151E-04-3.52544E-14
 -1       468 9.82287E-03-5.34994E-04-3.65005E-14
 -1       469 1.01897E-02-3.64608E-04-3.72427E-14
 -1       470 1.04319E-02-2.63036E-04-3.76857E-14
 -1       471 1.06527E-02-1.68599E-04-3.82039E-14
 -1       472 9.30192E-03 5.55130E-04-3.40255E-14
 -1       473 1.07044E-02-1.07906E-04-3.90222E-14
 -1       474 1.02152E-02 7.70529E-05-3.73910E-14
 -1       475 9.30828E-04 3.44061E-04-3.56618E-16
 -1       476 6.66294E-04-7.44995E-05-3.60534E-16
 -1       477 6.70208E-04-1.15011E-04-3.59620E-16
 -1       478 6.63637E-04 1.10118E-06-3.51420E-16
 -1       479 6.64353E-04 3.84290E-05-3.42317E-16
 -1       480 6.66476E-04 7.61851E-05-3.29750E-16
 -1       481 6.70519E-04 1.16850E-04-3.12755E-16
 -1       482 6.77415E-04 1.61289E-04-2.89739E-16
 -1       483 6.89114E-04 2.11538E-04-2.58453E-16
 -1       484 1.21668E-03 4.03322E-04-6.31944E-16
 -1       485 9.76092E-04-3.26486E-04-5.90419E-16
 -1       486 9.08398E-03 6.61518E-04-3.36271E-14
 -1       487 1.26202E-03-3.80070E-04-9.59095E-16
 -1       488 1.54715E-03-4.18115E-04-1.41572E-15
 -1       489 1.83151E-03-4.43963E-04-1.96128E-15
 -1       490 2.11546E-03-4.60410E-04-2.59473E-15
 -1       491 2.39937E-03-4.69639E-04-3.31499E-15
 -1       492 2.68359E-03-4.73308E-04-4.12145E-15
 -1       493 2.96837E-03-4.72671E-04-5.01252E-15
 -1       494 3.25395E-03-4.68683E-04-5.98378E-15
 -1       495 3.54053E-03-4.62103E-04-7.03145E-15
 -1       496 3.82832E-03-4.53594E-04-8.15262E-15
 -1       497 4.11755E-03-4.43843E-04-9.34245E-15
 -1       498 4.40852E-03-4.33678E-04-1.05981E-14
 -1       499 4.70159E-03-4.24218E-04-1.19194E-14
 -1       500 4.99725E-03-4.17045E-04-1.33032E-14
 -1       501 5.29622E-03-4.14403E-04-1.47508E-14
 -1       502 5.59957E-03-4.19404E-04-1.62632E-14
 -1       503 5.90887E-03-4.36221E-04-1.78418E-14
 -1       504 6.22632E-03-4.70175E-04-1.94881E-14
 -1       505 6.55457E-03-5.27505E-04-2.11977E-14
 -1       506 6.89581E-03-6.14253E-04-2.29692E-14
 -1       507 7.24964E-03-7.33417E-04-2.48025E-14
 -1       508 7.61042E-03-8.78422E-04-2.66912E-14
 -1       509 7.96721E-03-1.02482E-03-2.86343E-14
 -1       510 8.31189E-03-1.12801E-03-3.06368E-14
 -1       511 8.64824E-03-1.14723E-03-3.27017E-14
 -1       512 8.99012E-03-1.07662E-03-3.48413E-14
 -1       513 9.34471E-03-9.52480E-04-3.70540E-14
 -1       514 9.70568E-03-8.21114E-04-3.93338E-14
 -1       515 1.00618E-02-7.11952E-04-4.16743E-14
 -1       516 1.04061E-02-6.34822E-04-4.40738E-14
 -1       517 1.07372E-02-5.88124E-04-4.65207E-14
 -1       518 1.10569E-02-5.66117E-04-4.90071E-14
 -1       519 1.13680E-02-5.62448E-04-5.15329E-14
 -1       520 1.16728E-02-5.71553E-04-5.40961E-14
 -1       521 1.19730E-02-5.89014E-04-5.67042E-14
 -1       522 1.22698E-02-6.11523E-04-5.93512E-14
 -1       523 1.25640E-02-6.36714E-04-6.20397E-14
 -1       524 1.28563E-02-6.62963E-04-6.47691E-14
 -1       525 1.31469E-02-6.89206E-04-6.75430E-14
 -1       526 1.34362E-02-7.14777E-04-7.03564E-14
 -1       527 1.37246E-02-7.39286E-04-7.32154E-14
 -1       528 1.40121E-02-7.62530E-04-7.61050E-14
 -1       529 1.42990E-02-7.84409E-04-7.90174E-14
 -1       530 1.05204E-02-4.32908E-05-3.87367E-14
 -1       531 1.78381E-03 4.74159E-04-1.42711E-15
 -1       532 2.06623E-03 4.92827E-04-1.94758E-15
 -1       533 2.34868E-03 5.03778E-04-2.54888E-15
 -1       534 2.63163E-03 5.08823E-04-3.23032E-15
 -1       535 2.91542E-03 5.09333E-04-3.99375E-15
 -1       536 3.20034E-03 5.06355E-04-4.83917E-15
 -1       537 3.48663E-03 5.00725E-04-5.76158E-15
 -1       538 3.77457E-03 4.93179E-04-6.75934E-15
 -1       539 4.06445E-03 4.84462E-04-7.83526E-15
 -1       540 4.35663E-03 4.75450E-04-8.98934E-15
 -1       541 4.65152E-03 4.67286E-04-1.02169E-14
 -1       542 4.94965E-03 4.61521E-04-1.15160E-14
 -1       543 5.25162E-03 4.60268E-04-1.28827E-14
 -1       544 5.55819E-03 4.66312E-04-1.43131E-14
 -1       545 5.87018E-03 4.83138E-04-1.58097E-14
 -1       546 6.18842E-03 5.14744E-04-1.73707E-14
 -1       547 6.51341E-03 5.65037E-04-1.89952E-14
 -1       548 6.84464E-03 6.36494E-04-2.06838E-14
 -1       549 7.17982E-03 7.27804E-04-2.24343E-14
 -1       550 7.51429E-03 8.30600E-04-2.42500E-14
 -1       551 7.84234E-03 9.26936E-04-2.61315E-14
 -1       552 8.16092E-03 9.91785E-04-2.80847E-14
 -1       553 8.47306E-03 1.00253E-03-3.01050E-14
 -1       554 8.78686E-03 9.52610E-04-3.21995E-14
 -1       555 9.10898E-03 8.55789E-04-3.43649E-14
 -1       556 9.44003E-03 7.36987E-04-3.66095E-14
 -1       557 9.77547E-03 6.19452E-04-3.89291E-14
 -1       558 1.01097E-02 5.17435E-04-4.13198E-14
 -1       559 1.04389E-02 4.36294E-04-4.37825E-14
 -1       560 1.07615E-02 3.75592E-04-4.63127E-14
 -1       561 1.10776E-02 3.32098E-04-4.89082E-14
 -1       562 1.13879E-02 3.01756E-04-5.15621E-14
 -1       563 1.16931E-02 2.80722E-04-5.42716E-14
 -1       564 1.19942E-02 2.65782E-04-5.70383E-14
 -1       565 1.22919E-02 2.54454E-04-5.98521E-14
 -1       566 1.25868E-02 2.44929E-04-6.27104E-14
 -1       567 1.28795E-02 2.35952E-04-6.55975E-14
 -1       568 1.31703E-02 2.26695E-04-6.85181E-14
 -1       569 1.34597E-02 2.16641E-04-7.14634E-14
 -1       570 1.37480E-02 2.05486E-04-7.44370E-14
 -1       571 1.40353E-02 1.93067E-04-7.74410E-14
 -1       572 1.43220E-02 1.79329E-04-8.04693E-14
 -1       573 1.44006E-02-8.87724E-05-8.09116E-14
 -1       574 1.44201E-02-1.69452E-04-8.09820E-14
 -1       575 1.43617E-02 7.35326E-05-8.07539E-14
 -1       576 1.43810E-02-8.03267E-06-8.08364E-14
 -1       577 1.44388E-02-2.49572E-04-8.10551E-14
 -1       578 1.44563E-02-3.29387E-04-8.11283E-14
 -1       579 1.44726E-02-4.09189E-04-8.12029E-14
 -1       580 1.44875E-02-4.87911E-04-8.12737E-14
 -1       581 1.45019E-02-5.68530E-04-8.13444E-14
 -1       582 1.45159E-02-6.49898E-04-8.14098E-14
 -1       583 1.45303E-02-7.32124E-04-8.14704E-14
 -1       584 9.83067E-03 2.53537E-04-3.64411E-14
 -1       585 1.50086E-03 4.45373E-04-9.88782E-16
 -1       586 9.42963E-03 4.70993E-04-3.51140E-14
 -1       587 1.05736E-02-1.99014E-04-3.90863E-14
 -1       588 9.59314E-03-6.50851E-04-3.65558E-14
 -1       589 8.42173E-03-1.07519E-03-3.13188E-14
 -1       590 6.64245E-04-3.61906E-05-3.57682E-16
 -1       591 8.33613E-03 8.62157E-04-2.99430E-14
 -1       592 1.00528E-02-4.13232E-04-3.80190E-14
 -1       593 8.70518E-03 8.24956E-04-3.17956E-14
 -1       594 8.04618E-03 7.92695E-04-2.85932E-14
 -1       595 7.67563E-03 6.21513E-04-2.71373E-14
 -1       596 7.32376E-03 4.32280E-04-2.60469E-14
 -1       597 6.90580E-03 2.20705E-04-2.50937E-14
 -1       598 6.60685E-03 9.22488E-05-2.45148E-14
 -1       599 6.32149E-03-6.53029E-06-2.38458E-14
 -1       600 6.20707E-03-5.08869E-05-2.37733E-14
 -1       601 6.27107E-03-9.75402E-05-2.43190E-14
 -1       602 6.45208E-03-1.60628E-04-2.46708E-14
 -1       603 6.81321E-03-3.07190E-04-2.54073E-14
 -1       604 7.28996E-03-5.48977E-04-2.68462E-14
 -1       605 7.59503E-03-7.22110E-04-2.77497E-14
 -1       606 7.97090E-03-9.30889E-04-2.91458E-14
 -1       607 8.64544E-03-1.07056E-03-3.24271E-14
 -1       608 8.96338E-03-9.76944E-04-3.39398E-14
 -1       609 9.34326E-03-7.89815E-04-3.56400E-14
 -1       610 1.03395E-02-2.85755E-04-3.85525E-14
 -1       611 1.07224E-02-1.46107E-04-3.95153E-14
 -1       612 7.12574E-04-2.50616E-04-3.36848E-16
 -1       613 7.03401E-04 2.89667E-04-1.86276E-16
 -1       614 8.52924E-03 8.72700E-04-3.08632E-14
 -1       615 6.76894E-04-1.59015E-04-3.53833E-16
 -1       616 1.06750E-02-8.86245E-05-3.98776E-14
 -1       617 1.44929E-02-8.00072E-04-8.09995E-14
 -1       618 7.01282E-03-4.12641E-04-2.55240E-14
 -1       619 8.18234E-03-1.03356E-03-3.00425E-14
 -1       620 9.85601E-03-5.31766E-04-3.80672E-14
 -1       621 6.91958E-04-2.01729E-04-3.48862E-16
 -1       622 9.00254E-04 7.33184E-05-5.78564E-16
 -1       623 8.98159E-04 2.49044E-05-5.95644E-16
 -1       624 9.12261E-04 1.76627E-04-5.25391E-16
 -1       625 9.24461E-04 2.34940E-04-4.85536E-16
 -1       626 1.04889E-03 3.11498E-04-5.47404E-16
 -1       627 1.40760E-02 8.74110E-05-7.77473E-14
 -1       628 1.33468E-03 3.57764E-04-8.80098E-16
 -1       629 1.38352E-03-3.33049E-04-1.21147E-15
 -1       630 1.66981E-03-3.62116E-04-1.71516E-15
 -1       631 1.95614E-03-3.81510E-04-2.30576E-15
 -1       632 2.24234E-03-3.93285E-04-2.98136E-15
 -1       633 2.52842E-03-3.99121E-04-3.74140E-15
 -1       634 2.81442E-03-4.00337E-04-4.58569E-15
 -1       635 3.10040E-03-3.97946E-04-5.51147E-15
 -1       636 3.38644E-03-3.92738E-04-6.51631E-15
 -1       637 3.67257E-03-3.85363E-04-7.59501E-15
 -1       638 3.95885E-03-3.76425E-04-8.74623E-15
 -1       639 4.24534E-03-3.66583E-04-9.96375E-15
 -1       640 4.53216E-03-3.56665E-04-1.12484E-14
 -1       641 4.81954E-03-3.47790E-04-1.25955E-14
 -1       642 5.10792E-03-3.41517E-04-1.40077E-14
 -1       643 5.39817E-03-3.40003E-04-1.54837E-14
 -1       644 5.69182E-03-3.46208E-04-1.70247E-14
 -1       645 5.99150E-03-3.64162E-04-1.86338E-14
 -1       646 6.30130E-03-3.99370E-04-2.03076E-14
 -1       647 6.62665E-03-4.59181E-04-2.20403E-14
 -1       648 6.97309E-03-5.52700E-04-2.38357E-14
 -1       649 7.34160E-03-6.87581E-04-2.56872E-14
 -1       650 7.72439E-03-8.56481E-04-2.75952E-14
 -1       651 8.83054E-03-1.07170E-03-3.36883E-14
 -1       652 9.20223E-03-9.41462E-04-3.58597E-14
 -1       653 9.58202E-03-7.89229E-04-3.81061E-14
 -1       654 9.95343E-03-6.62666E-04-4.04152E-14
 -1       655 1.03053E-02-5.75680E-04-4.27836E-14
 -1       656 1.06365E-02-5.23907E-04-4.52095E-14
 -1       657 1.09514E-02-4.98909E-04-4.76808E-14
 -1       658 1.12552E-02-4.93029E-04-5.01883E-14
 -1       659 1.15519E-02-5.00316E-04-5.27388E-14
 -1       660 1.18446E-02-5.16329E-04-5.53307E-14
 -1       661 1.21348E-02-5.37793E-04-5.79685E-14
 -1       662 1.24236E-02-5.62336E-04-6.06430E-14
 -1       663 1.27115E-02-5.88290E-04-6.33565E-14
 -1       664 1.29989E-02-6.14521E-04-6.61071E-14
 -1       665 1.32859E-02-6.40294E-04-6.88976E-14
 -1       666 1.35725E-02-6.65160E-04-7.17348E-14
 -1       667 1.38589E-02-6.88870E-04-7.46094E-14
 -1       668 1.41451E-02-7.11301E-04-7.75137E-14
 -1       669 1.90604E-03 4.12792E-04-1.78727E-15
 -1       670 2.76192E-03 4.36343E-04-3.74987E-15
 -1       671 3.04753E-03 4.34857E-04-4.56509E-15
 -1       672 3.33358E-03 4.30392E-04-5.45896E-15
 -1       673 3.62020E-03 4.23669E-04-6.42848E-15
 -1       674 3.90756E-03 4.15357E-04-7.47498E-15
 -1       675 4.19587E-03 4.06170E-04-8.59795E-15
 -1       676 4.48540E-03 3.96985E-04-9.79712E-15
 -1       677 4.77658E-03 3.88966E-04-1.10670E-14
 -1       678 5.07000E-03 3.83701E-04-1.24066E-14
 -1       679 5.36657E-03 3.83342E-04-1.38119E-14
 -1       680 5.66764E-03 3.90736E-04-1.52817E-14
 -1       681 5.97505E-03 4.09506E-04-1.68168E-14
 -1       682 6.29104E-03 4.44011E-04-1.84146E-14
 -1       683 6.61776E-03 4.98910E-04-2.00724E-14
 -1       684 6.95594E-03 5.77800E-04-2.17917E-14
 -1       685 7.30292E-03 6.79998E-04-2.35726E-14
 -1       686 7.65124E-03 7.94750E-04-2.54191E-14
 -1       687 7.99157E-03 8.95583E-04-2.73345E-14
 -1       688 8.32052E-03 9.47196E-04-2.93221E-14
 -1       689 8.64583E-03 9.24208E-04-3.13779E-14
 -1       690 8.97897E-03 8.33188E-04-3.35067E-14
 -1       691 9.32313E-03 7.05610E-04-3.57095E-14
 -1       692 9.67210E-03 5.76032E-04-3.79890E-14
 -1       693 1.00164E-02 4.64404E-04-4.03413E-14
 -1       694 1.03505E-02 3.77063E-04-4.27653E-14
 -1       695 1.06732E-02 3.12566E-04-4.52588E-14
 -1       696 1.09858E-02 2.66664E-04-4.78169E-14
 -1       697 1.12908E-02 2.34700E-04-5.04345E-14
 -1       698 1.15902E-02 2.12566E-04-5.31118E-14
 -1       699 1.18857E-02 1.96940E-04-5.58462E-14
 -1       700 1.21785E-02 1.85275E-04-5.86287E-14
 -1       701 1.24694E-02 1.75704E-04-6.14572E-14
 -1       702 1.27589E-02 1.66909E-04-6.43150E-14
 -1       703 1.30474E-02 1.58004E-04-6.72037E-14
 -1       704 1.33351E-02 1.48423E-04-7.01182E-14
 -1       705 1.36223E-02 1.37826E-04-7.30614E-14
 -1       706 1.38494E-02 1.13010E-04-7.53986E-14
 -1       707 1.07050E-02-1.74403E-04-4.05405E-14
 -1       708 1.42027E-02-2.75041E-04-7.85342E-14
 -1       709 1.41647E-02-1.16149E-04-7.83725E-14
 -1       710 1.42196E-02-3.54017E-04-7.86115E-14
 -1       711 1.41843E-02-1.95862E-04-7.84527E-14
 -1       712 1.03570E-02 2.79406E-05-3.91230E-14
 -1       713 1.42348E-02-4.31805E-04-7.86843E-14
 -1       714 1.42491E-02-5.11427E-04-7.87589E-14
 -1       715 1.42626E-02-5.91844E-04-7.88295E-14
 -1       716 1.62050E-03 3.90627E-04-1.29363E-15
 -1       717 1.43368E-02-7.16709E-04-7.94846E-14
 -1       718 9.14633E-03-9.22831E-04-3.52300E-14
 -1       719 9.68797E-03 3.43734E-04-3.66017E-14
 -1       720 7.05625E-03 3.25578E-04-2.45594E-14
 -1       721 8.18643E-03 8.55608E-04-2.89800E-14
 -1       722 2.47657E-03 4.33969E-04-3.01580E-15
 -1       723 2.19134E-03 4.26608E-04-2.36194E-15
 -1       724 1.09791E-03-2.92031E-04-7.93585E-16
 -1       725 9.04696E-04 1.23372E-04-5.55823E-16
 -1       726 9.26900E-03 5.81231E-04-3.48143E-14
 -1       727 1.07930E-02-1.28771E-04-4.08198E-14
 -1       728 9.04334E-04-1.20967E-04-6.16013E-16
 -1       729 8.90232E-03 7.72042E-04-3.29527E-14
 -1       730 6.29348E-03-1.15053E-04-2.35574E-14
 -1       731 7.84708E-03 7.37319E-04-2.72829E-14
 -1       732 7.47654E-03 5.40898E-04-2.59192E-14
 -1       733 6.71056E-03 1.56325E-04-2.38932E-14
 -1       734 6.42692E-03 4.75129E-05-2.33074E-14
 -1       735 6.18219E-03-2.64980E-05-2.27054E-14
 -1       736 6.55425E-03-2.11764E-04-2.41034E-14
 -1       737 7.29697E-03-5.64291E-04-2.64062E-14
 -1       738 6.17035E-03-7.09322E-05-2.31362E-14
 -1       739 8.55434E-03-1.09715E-03-3.20393E-14
 -1       740 9.52275E-03-7.34044E-04-3.71049E-14
 -1       741 1.00334E-02 1.64873E-04-3.78541E-14
 -1       742 8.93649E-04-2.50009E-04-5.49345E-16
 -1       743 9.11664E-04-1.74002E-04-6.11558E-16
 -1       744 8.98098E-04-2.28881E-05-6.07448E-16
 -1       745 1.05558E-02-2.27977E-04-4.02916E-14
 -1       746 6.72090E-03-2.97296E-04-2.42151E-14
 -1       747 9.52752E-03 4.64404E-04-3.62974E-14
 -1       748 1.05618E-02-3.57406E-05-4.02730E-14
 -1       749 6.08903E-03-4.85318E-05-2.20816E-14
 -1       750 6.23158E-03 1.56597E-05-2.21793E-14
 -1       751 8.47165E-03-1.11093E-03-3.15939E-14
 -1       752 1.08393E-02-1.52867E-04-4.18652E-14
 -1       753 1.41446E-02-3.63186E-05-7.82893E-14
 -1       754 8.73271E-03 8.49427E-04-3.20011E-14
 -1       755 1.02920E-02-3.32893E-04-3.96484E-14
 -1       756 9.00054E-04-7.10392E-05-6.14383E-16
 -1       757 1.01264E-02-4.36987E-04-3.96957E-14
 -1       758 8.82186E-03-1.05741E-03-3.35484E-14
 -1       759 1.16193E-03 2.41011E-04-7.83651E-16
 -1       760 1.07462E-02-2.09619E-04-4.21538E-14
 -1       761 1.40614E-02-6.40594E-04-7.67138E-14
 -1       762 6.14487E-03-9.06433E-05-2.22929E-14
 -1       763 1.51058E-03-2.82107E-04-1.47548E-15
 -1       764 1.79756E-03-3.03168E-04-2.02373E-15
 -1       765 2.08500E-03-3.16808E-04-2.65600E-15
 -1       766 2.37243E-03-3.24517E-04-3.37161E-15
 -1       767 2.65954E-03-3.27549E-04-4.16992E-15
 -1       768 2.94617E-03-3.26909E-04-5.04984E-15
 -1       769 3.23216E-03-3.23387E-04-6.01021E-15
 -1       770 3.51741E-03-3.17615E-04-7.04611E-15
 -1       771 3.80178E-03-3.10139E-04-8.15597E-15
 -1       772 4.08514E-03-3.01493E-04-9.33488E-15
 -1       773 4.36736E-03-2.92284E-04-1.05822E-14
 -1       774 4.64839E-03-2.83274E-04-1.18935E-14
 -1       775 4.92827E-03-2.75472E-04-1.32691E-14
 -1       776 5.20737E-03-2.70224E-04-1.47102E-14
 -1       777 5.48658E-03-2.69333E-04-1.62149E-14
 -1       778 5.76778E-03-2.75258E-04-1.77874E-14
 -1       779 6.05441E-03-2.91554E-04-1.94233E-14
 -1       780 6.35223E-03-3.24147E-04-2.11203E-14
 -1       781 6.67103E-03-3.81768E-04-2.28759E-14
 -1       782 7.02327E-03-4.85118E-04-2.46863E-14
 -1       783 6.49241E-03 1.15129E-04-2.25879E-14
 -1       784 9.85537E-03-6.06310E-04-3.90660E-14
 -1       785 1.02168E-02-5.05835E-04-4.14009E-14
 -1       786 1.05473E-02-4.51031E-04-4.37949E-14
 -1       787 1.08550E-02-4.25925E-04-4.62443E-14
 -1       788 1.11485E-02-4.20186E-04-4.87367E-14
 -1       789 1.14346E-02-4.26994E-04-5.12682E-14
 -1       790 1.17171E-02-4.42050E-04-5.38454E-14
 -1       791 1.19984E-02-4.62400E-04-5.64677E-14
 -1       792 1.22798E-02-4.85924E-04-5.91333E-14
 -1       793 1.25617E-02-5.11082E-04-6.18313E-14
 -1       794 1.28443E-02-5.36781E-04-6.45639E-14
 -1       795 1.31276E-02-5.62276E-04-6.73330E-14
 -1       796 1.34115E-02-5.87086E-04-7.01453E-14
 -1       797 1.36960E-02-6.10911E-04-7.29982E-14
 -1       798 2.89322E-03 3.63026E-04-4.28454E-15
 -1       799 3.75096E-03 3.47444E-04-7.10769E-15
 -1       800 4.03636E-03 3.38916E-04-8.20217E-15
 -1       801 4.32163E-03 3.29759E-04-9.37105E-15
 -1       802 4.60700E-03 3.20784E-04-1.06130E-14
 -1       803 4.89289E-03 3.13072E-04-1.19252E-14
 -1       804 5.18006E-03 3.08089E-04-1.33045E-14
 -1       805 5.46983E-03 3.07835E-04-1.47499E-14
 -1       806 5.76426E-03 3.15032E-04-1.62585E-14
 -1       807 6.06643E-03 3.33405E-04-1.78295E-14
 -1       808 6.38044E-03 3.68055E-04-1.94605E-14
 -1       809 6.71066E-03 4.25598E-04-2.11492E-14
 -1       810 7.05959E-03 5.12877E-04-2.28985E-14
 -1       811 7.42356E-03 6.32177E-04-2.47090E-14
 -1       812 9.20340E-03 6.81916E-04-3.48173E-14
 -1       813 9.57133E-03 5.31893E-04-3.70577E-14
 -1       814 9.93084E-03 4.06351E-04-3.93696E-14
 -1       815 1.02728E-02 3.13076E-04-4.17539E-14
 -1       816 1.05967E-02 2.47044E-04-4.42118E-14
 -1       817 1.09060E-02 2.01267E-04-4.67336E-14
 -1       818 1.12050E-02 1.69640E-04-4.93143E-14
 -1       819 1.14975E-02 1.47611E-04-5.19605E-14
 -1       820 1.17862E-02 1.31859E-04-5.46632E-14
 -1       821 1.20728E-02 1.19963E-04-5.74157E-14
 -1       822 1.23584E-02 1.10171E-04-6.02120E-14
 -1       823 1.26435E-02 1.01237E-04-6.30447E-14
 -1       824 1.29286E-02 9.23091E-05-6.59003E-14
 -1       825 1.32137E-02 8.28261E-05-6.87865E-14
 -1       826 1.34988E-02 7.24420E-05-7.17007E-14
 -1       827 1.39674E-02-2.99706E-04-7.60371E-14
 -1       828 1.40104E-02-5.33775E-04-7.62681E-14
 -1       829 1.39831E-02-3.76314E-04-7.61170E-14
 -1       830 7.21686E-03 4.69421E-04-2.43558E-14
 -1       831 2.60673E-03 3.62794E-04-3.49952E-15
 -1       832 2.03301E-03 3.49013E-04-2.16578E-15
 -1       833 1.39974E-02-4.54640E-04-7.61946E-14
 -1       834 3.46534E-03 3.54695E-04-6.08982E-15
 -1       835 3.17943E-03 3.60090E-04-5.14859E-15
 -1       836 1.22494E-03-2.52073E-04-1.01229E-15
 -1       837 1.05464E-02-2.80161E-04-4.14948E-14
 -1       838 1.08013E-02-1.05544E-04-4.16595E-14
 -1       839 2.31997E-03 3.58504E-04-2.79280E-15
 -1       840 9.01311E-04-2.11109E-04-5.82345E-16
 -1       841 6.76832E-03 2.41282E-04-2.31118E-14
 -1       842 1.24649E-03 2.97623E-04-8.35703E-16
 -1       843 1.13862E-03 5.82422E-05-8.95205E-16
 -1       844 6.31055E-03-1.54224E-04-2.26834E-14
 -1       845 1.13723E-03 1.19045E-06-9.15422E-16
 -1       846 9.93338E-03 2.50863E-04-3.81564E-14
 -1       847 1.15023E-03 1.76933E-04-8.30946E-16
 -1       848 1.09010E-02-1.31848E-04-4.27196E-14
 -1       849 1.74601E-03 3.32892E-04-1.61778E-15
 -1       850 1.14279E-03 1.16382E-04-8.67507E-16
 -1       851 1.04542E-02 3.40915E-05-4.06223E-14
 -1       852 6.08630E-03-1.78180E-05-2.15703E-14
 -1       853 8.50917E-03 8.97646E-04-3.06617E-14
 -1       854 6.43598E-03-2.16810E-04-2.27895E-14
 -1       855 1.39495E-02-2.21733E-04-7.59486E-14
 -1       856 1.37252E-02 4.81268E-05-7.40140E-14
 -1       857 1.39192E-02-1.04197E-05-7.59632E-14
 -1       858 1.39299E-02-1.43288E-04-7.58592E-14
 -1       859 1.39248E-02-7.72707E-05-7.59111E-14
 -1       860 9.78084E-03 3.67923E-04-3.78493E-14
 -1       861 1.49590E-03 3.19566E-04-1.19459E-15
 -1       862 1.04150E-02-3.62247E-04-4.15411E-14
 -1       863 1.14245E-03-1.13656E-04-9.34582E-16
 -1       864 1.14969E-03-1.73966E-04-9.33627E-16
 -1       865 1.02052E-02 1.26989E-04-3.93811E-14
 -1       866 6.00227E-03-6.53208E-05-2.11134E-14
 -1       867 1.64174E-03-2.27249E-04-1.75128E-15
 -1       868 1.92922E-03-2.41424E-04-2.34061E-15
 -1       869 2.21725E-03-2.50199E-04-3.01239E-15
 -1       870 2.50516E-03-2.54603E-04-3.76636E-15
 -1       871 2.79246E-03-2.55537E-04-4.60082E-15
 -1       872 3.07878E-03-2.53734E-04-5.51512E-15
 -1       873 3.36382E-03-2.49780E-04-6.50711E-15
 -1       874 3.64727E-03-2.44163E-04-7.57312E-15
 -1       875 3.92884E-03-2.37324E-04-8.71141E-15
 -1       876 4.20819E-03-2.29715E-04-9.92054E-15
 -1       877 4.48500E-03-2.21854E-04-1.11962E-14
 -1       878 4.75895E-03-2.14374E-04-1.25353E-14
 -1       879 5.02985E-03-2.08062E-04-1.39397E-14
 -1       880 5.29773E-03-2.03889E-04-1.54110E-14
 -1       881 5.56313E-03-2.03068E-04-1.69472E-14
 -1       882 5.82753E-03-2.07236E-04-1.85476E-14
 -1       883 6.09445E-03-2.19012E-04-2.02074E-14
 -1       884 6.49144E-03 1.90878E-04-2.16370E-14
 -1       885 4.44254E-03 2.56027E-04-1.01531E-14
 -1       886 1.08017E-02-3.43016E-04-4.48944E-14
 -1       887 1.10765E-02-3.42170E-04-4.73689E-14
 -1       888 1.13459E-02-3.51384E-04-4.98826E-14
 -1       889 1.16142E-02-3.66937E-04-5.24459E-14
 -1       890 1.18836E-02-3.86649E-04-5.50560E-14
 -1       891 1.21553E-02-4.09017E-04-5.77087E-14
 -1       892 1.24293E-02-4.32899E-04-6.03987E-14
 -1       893 1.27056E-02-4.57425E-04-6.31230E-14
 -1       894 1.29840E-02-4.81953E-04-6.58799E-14
 -1       895 1.32642E-02-5.06034E-04-6.86732E-14
 -1       896 1.35457E-02-5.29387E-04-7.15050E-14
 -1       897 4.16157E-03 2.64701E-04-8.93978E-15
 -1       898 3.87934E-03 2.72896E-04-7.79928E-15
 -1       899 4.72236E-03 2.47535E-04-1.14378E-14
 -1       900 5.00145E-03 2.40090E-04-1.27905E-14
 -1       901 5.28063E-03 2.34866E-04-1.42110E-14
 -1       902 5.56148E-03 2.33499E-04-1.56951E-14
 -1       903 5.84668E-03 2.38394E-04-1.72410E-14
 -1       904 6.14051E-03 2.53337E-04-1.88477E-14
 -1       905 6.44927E-03 2.84753E-04-2.05089E-14
 -1       906 1.07590E-02-2.63637E-04-4.33670E-14
 -1       907 1.05408E-02 1.73848E-04-4.31786E-14
 -1       908 1.08434E-02 1.31645E-04-4.56644E-14
 -1       909 1.11336E-02 1.03170E-04-4.82109E-14
 -1       910 1.14168E-02 8.31002E-05-5.08218E-14
 -1       911 1.16966E-02 6.82362E-05-5.34930E-14
 -1       912 1.19754E-02 5.65023E-05-5.62140E-14
 -1       913 1.22542E-02 4.64734E-05-5.89804E-14
 -1       914 1.25338E-02 3.71436E-05-6.17867E-14
 -1       915 1.28143E-02 2.78091E-05-6.46163E-14
 -1       916 1.30958E-02 1.79951E-05-6.74717E-14
 -1       917 1.33783E-02 7.40021E-06-7.03561E-14
 -1       918 1.06975E-02-3.82844E-05-4.20536E-14
 -1       919 1.37326E-02-3.22538E-04-7.35663E-14
 -1       920 6.22741E-03 7.73269E-05-2.11389E-14
 -1       921 2.73879E-03 2.90871E-04-3.99801E-15
 -1       922 1.13846E-03-5.57155E-05-9.28318E-16
 -1       923 2.16369E-03 2.83178E-04-2.56192E-15
 -1       924 3.59584E-03 2.80084E-04-6.73376E-15
 -1       925 6.78567E-03 3.42060E-04-2.22671E-14
 -1       926 2.45146E-03 2.89019E-04-3.24082E-15
 -1       927 1.02185E-02 2.38109E-04-4.07607E-14
 -1       928 1.09185E-02-1.82703E-04-4.35174E-14
 -1       929 6.09167E-03-1.20889E-04-2.12460E-14
 -1       930 1.41079E-03 2.62197E-04-1.13248E-15
 -1       931 1.08593E-02-8.19474E-05-4.31243E-14
 -1       932 1.87587E-03 2.72304E-04-1.96254E-15
 -1       933 5.95560E-03-3.60153E-05-2.06195E-14
 -1       934 6.05615E-03 3.05701E-05-2.05515E-14
 -1       935 3.02542E-03 2.89576E-04-4.83202E-15
 -1       936 1.09595E-02-2.26552E-04-4.47512E-14
 -1       937 1.38105E-03 3.35157E-05-1.27733E-15
 -1       938 1.37156E-02-2.45993E-04-7.34743E-14
 -1       939 1.37114E-02-4.60664E-04-7.32349E-14
 -1       940 1.36032E-02-1.66515E-05-7.26443E-14
 -1       941 1.06208E-02 3.00418E-05-4.23965E-14
 -1       942 1.36963E-02-1.69103E-04-7.33740E-14
 -1       943 1.36908E-02-1.04393E-04-7.34148E-14
 -1       944 1.35581E-03-2.06552E-04-1.24501E-15
 -1       945 1.38430E-03 9.82689E-05-1.24617E-15
 -1       946 1.38403E-03-9.53965E-05-1.31211E-15
 -1       947 3.31115E-03 2.85801E-04-5.74444E-15
 -1       948 1.01193E-02 2.35386E-04-3.98244E-14
 -1       949 1.10170E-02-1.58091E-04-4.43915E-14
 -1       950 1.03987E-02 1.05176E-04-4.11292E-14
 -1       951 1.37230E-02-3.91420E-04-7.34035E-14
 -1       952 1.77632E-03-1.68575E-04-2.03645E-15
 -1       953 1.39098E-03 1.64617E-04-1.20489E-15
 -1       954 2.06417E-03-1.77119E-04-2.66484E-15
 -1       955 2.35240E-03-1.82044E-04-3.37420E-15
 -1       956 2.64025E-03-1.84019E-04-4.16375E-15
 -1       957 2.92709E-03-1.83655E-04-5.03268E-15
 -1       958 3.21242E-03-1.81445E-04-5.97912E-15
 -1       959 3.49579E-03-1.77800E-04-7.00130E-15
 -1       960 3.77676E-03-1.73075E-04-8.09657E-15
 -1       961 4.05486E-03-1.67610E-04-9.26384E-15
 -1       962 4.32956E-03-1.61763E-04-1.05030E-14
 -1       963 4.60030E-03-1.55941E-04-1.18057E-14
 -1       964 4.86645E-03-1.50609E-04-1.31746E-14
 -1       965 5.12736E-03-1.46282E-04-1.46103E-14
 -1       966 5.38237E-03-1.43506E-04-1.61105E-14
 -1       967 5.63089E-03-1.42815E-04-1.76765E-14
 -1       968 5.87276E-03-1.44875E-04-1.93021E-14
 -1       969 6.09741E-03-1.45970E-04-2.09663E-14
 -1       970 4.55978E-03 1.85659E-04-1.09436E-14
 -1       971 1.12689E-02-2.81151E-04-4.84932E-14
 -1       972 1.15191E-02-2.97518E-04-5.10367E-14
 -1       973 1.17747E-02-3.16509E-04-5.36315E-14
 -1       974 1.20353E-02-3.37369E-04-5.62746E-14
 -1       975 1.23007E-02-3.59456E-04-5.89551E-14
 -1       976 1.25701E-02-3.82200E-04-6.16719E-14
 -1       977 1.28431E-02-4.05124E-04-6.44199E-14
 -1       978 1.31190E-02-4.27862E-04-6.72009E-14
 -1       979 1.33973E-02-4.50143E-04-7.00180E-14
 -1       980 4.28416E-03 1.93432E-04-9.68799E-15
 -1       981 4.00603E-03 2.00761E-04-8.50211E-15
 -1       982 2.29746E-03 2.15626E-04-2.97576E-15
 -1       983 5.10356E-03 1.70604E-04-1.36638E-14
 -1       984 5.37257E-03 1.64589E-04-1.51229E-14
 -1       985 5.64125E-03 1.60900E-04-1.66449E-14
 -1       986 5.91231E-03 1.61412E-04-1.82271E-14
 -1       987 6.19049E-03 1.69779E-04-1.98659E-14
 -1       988 2.58540E-03 2.18628E-04-3.70458E-15
 -1       989 1.38870E-03-1.62739E-04-1.31344E-15
 -1       990 1.13468E-02 2.08471E-05-4.96917E-14
 -1       991 1.08018E-02 5.97827E-05-4.46076E-14
 -1       992 1.16151E-02 7.84392E-06-5.23338E-14
 -1       993 1.18842E-02-3.33244E-06-5.50220E-14
 -1       994 1.21550E-02-1.35885E-05-5.77593E-14
 -1       995 1.24280E-02-2.35520E-05-6.05343E-14
 -1       996 1.27033E-02-3.36708E-05-6.33400E-14
 -1       997 1.29806E-02-4.42617E-05-6.61664E-14
 -1       998 1.32598E-02-5.55302E-05-6.90241E-14
 -1       999 1.63294E-03-1.40544E-04-1.75595E-15
 -1      1000 5.89211E-03-8.77461E-05-1.99321E-14
 -1      1001 1.08607E-02-3.54682E-05-4.40048E-14
 -1      1002 1.64295E-03 2.70293E-04-1.51919E-15
 -1      1003 1.10771E-02 3.70791E-05-4.71191E-14
 -1      1004 1.38096E-03-3.06849E-05-1.29902E-15
 -1      1005 3.72555E-03 2.07287E-04-7.39003E-15
 -1      1006 1.10106E-02-2.81913E-04-4.60561E-14
 -1      1007 4.83285E-03 1.77868E-04-1.22695E-14
 -1      1008 2.00926E-03 2.09056E-04-2.32569E-15
 -1      1009 5.81750E-03-5.46383E-05-1.94581E-14
 -1      1010 1.10320E-02-1.13022E-04-4.48130E-14
 -1      1011 5.88427E-03 4.25271E-06-1.96271E-14
 -1      1012 1.62766E-03-6.95777E-05-1.74379E-15
 -1      1013 3.44296E-03 2.12689E-04-6.35412E-15
 -1      1014 2.87257E-03 2.18774E-04-4.50990E-15
 -1      1015 1.10881E-02-1.94850E-04-4.56404E-14
 -1      1016 1.34832E-02-2.69572E-04-7.10263E-14
 -1      1017 1.34106E-02-3.82561E-04-7.01822E-14
 -1      1018 1.34752E-02-7.95554E-05-7.12115E-14
 -1      1019 1.34646E-02-1.94495E-04-7.09256E-14
 -1      1020 1.34705E-02-1.37477E-04-7.10699E-14
 -1      1021 1.62879E-03 7.16504E-05-1.69059E-15
 -1      1022 5.87946E-03-1.07824E-04-1.96636E-14
 -1      1023 1.62694E-03 1.54558E-06-1.72356E-15
 -1      1024 1.34480E-02-3.26205E-04-7.06038E-14
 -1      1025 5.99647E-03 9.38981E-05-1.93839E-14
 -1      1026 1.14265E-02-2.35193E-04-4.96243E-14
 -1      1027 2.20212E-03-1.10593E-04-2.99536E-15
 -1      1028 2.49026E-03-1.12744E-04-3.73961E-15
 -1      1029 2.77764E-03-1.13232E-04-4.56303E-15
 -1      1030 3.06357E-03-1.12406E-04-5.46364E-15
 -1      1031 3.34748E-03-1.10559E-04-6.44076E-15
 -1      1032 3.62880E-03-1.07949E-04-7.49249E-15
 -1      1033 3.90698E-03-1.04817E-04-8.61694E-15
 -1      1034 4.18140E-03-1.01403E-04-9.81452E-15
 -1      1035 4.45138E-03-9.79761E-05-1.10811E-14
 -1      1036 4.71609E-03-9.48343E-05-1.24136E-14
 -1      1037 4.97453E-03-9.22924E-05-1.38117E-14
 -1      1038 5.22541E-03-9.06490E-05-1.52772E-14
 -1      1039 5.46700E-03-9.01783E-05-1.68067E-14
 -1      1040 5.67592E-03-9.84902E-05-1.82121E-14
 -1      1041 1.16669E-02-2.52656E-04-5.22002E-14
 -1      1042 1.19162E-02-2.71347E-04-5.48338E-14
 -1      1043 1.21729E-02-2.91027E-04-5.75047E-14
 -1      1044 1.24355E-02-3.11384E-04-6.02132E-14
 -1      1045 1.27030E-02-3.32099E-04-6.29567E-14
 -1      1046 1.29746E-02-3.52894E-04-6.57276E-14
 -1      1047 1.31918E-02-3.67851E-04-6.79404E-14
 -1      1048 4.40554E-03 1.25685E-04-1.04441E-14
 -1      1049 4.13212E-03 1.31624E-04-9.21581E-15
 -1      1050 4.67511E-03 1.19238E-04-1.17429E-14
 -1      1051 5.20129E-03 1.05466E-04-1.45429E-14
 -1      1052 2.43398E-03 1.46743E-04-3.40672E-15
 -1      1053 1.20588E-02-6.94987E-05-5.65430E-14
 -1      1054 1.77539E-03 2.11928E-04-1.84222E-15
 -1      1055 1.17971E-02-5.88674E-05-5.38388E-14
 -1      1056 1.15397E-02-4.83300E-05-5.11804E-14
 -1      1057 1.23246E-02-8.03979E-05-5.92910E-14
 -1      1058 1.25941E-02-9.17023E-05-6.20748E-14
 -1      1059 1.28669E-02-1.03523E-04-6.48743E-14
 -1      1060 1.31426E-02-1.15946E-04-6.77053E-14
 -1      1061 1.63421E-03 1.42682E-04-1.64603E-15
 -1      1062 1.32347E-02-2.18413E-04-6.85031E-14
 -1      1063 1.08038E-02 3.36804E-05-4.43284E-14
 -1      1064 1.11920E-02-2.29435E-04-4.71631E-14
 -1      1065 1.10638E-02-7.57058E-05-4.57131E-14
 -1      1066 3.85524E-03 1.36898E-04-8.05912E-15
 -1      1067 1.12862E-02-3.74276E-05-4.85768E-14
 -1      1068 5.74613E-03-7.51089E-05-1.88343E-14
 -1      1069 4.94045E-03 1.12445E-04-1.31093E-14
 -1      1070 3.15853E-03 2.16642E-04-5.39280E-15
 -1      1071 5.70966E-03 9.21091E-05-1.75981E-14
 -1      1072 5.45761E-03 9.85066E-05-1.60406E-14
 -1      1073 1.84463E-03-1.21972E-04-2.18232E-15
 -1      1074 2.14574E-03 1.43435E-04-2.70680E-15
 -1      1075 3.57531E-03 1.41342E-04-6.97679E-15
 -1      1076 2.72163E-03 1.47800E-04-4.18327E-15
 -1      1077 1.33062E-02-1.26565E-04-6.93840E-14
 -1      1078 1.11872E-02-1.61970E-04-4.65324E-14
 -1      1079 1.87953E-03 1.13383E-04-2.15247E-15
 -1      1080 1.32013E-02-2.73751E-04-6.80945E-14
 -1      1081 1.87572E-03 3.87686E-05-2.19951E-15
 -1      1082 1.31895E-02-1.67274E-04-6.81065E-14
 -1      1083 5.04823E-03 5.18187E-05-1.39542E-14
 -1      1084 2.63077E-03-4.27480E-05-4.10598E-15
 -1      1085 2.91742E-03-4.26800E-05-4.96164E-15
 -1      1086 3.20223E-03-4.21907E-05-5.89322E-15
 -1      1087 3.48457E-03-4.14153E-05-6.90011E-15
 -1      1088 3.76379E-03-4.04982E-05-7.98076E-15
 -1      1089 4.03933E-03-3.95351E-05-9.13434E-15
 -1      1090 4.31047E-03-3.87067E-05-1.03613E-14
 -1      1091 4.57638E-03-3.81971E-05-1.16572E-14
 -1      1092 4.83606E-03-3.82247E-05-1.30185E-14
 -1      1093 5.08817E-03-3.90335E-05-1.44462E-14
 -1      1094 5.33067E-03-4.07567E-05-1.59392E-14
 -1      1095 5.53519E-03-5.08410E-05-1.73171E-14
 -1      1096 2.34294E-03-4.22525E-05-3.32884E-15
 -1      1097 1.13287E-02-1.06673E-04-4.84354E-14
 -1      1098 1.87466E-03-3.65598E-05-2.23184E-15
 -1      1099 1.17928E-02-2.10755E-04-5.33837E-14
 -1      1100 1.20419E-02-2.27379E-04-5.60448E-14
 -1      1101 1.22987E-02-2.44814E-04-5.87462E-14
 -1      1102 1.25616E-02-2.62810E-04-6.14851E-14
 -1      1103 1.28294E-02-2.81147E-04-6.42493E-14
 -1      1104 4.25908E-03 6.58501E-05-9.93905E-15
 -1      1105 5.29836E-03 4.56997E-05-1.54257E-14
 -1      1106 4.79098E-03 5.71512E-05-1.25492E-14
 -1      1107 1.13090E-02-1.92684E-04-4.80721E-14
 -1      1108 1.19628E-02-1.20828E-04-5.53381E-14
 -1      1109 1.17108E-02-1.09312E-04-5.26624E-14
 -1      1110 1.27533E-02-1.59567E-04-6.35909E-14
 -1      1111 1.29702E-02-1.63448E-04-6.58370E-14
 -1      1112 5.62545E-03 1.56608E-05-1.76801E-14
 -1      1113 3.98598E-03 6.93233E-05-8.73951E-15
 -1      1114 1.15533E-02-1.95149E-04-5.07676E-14
 -1      1115 4.52765E-03 6.18036E-05-1.12110E-14
 -1      1116 1.24850E-02-1.46051E-04-6.08122E-14
 -1      1117 1.31975E-02-3.20733E-04-6.80181E-14
 -1      1118 1.15155E-02-1.07733E-04-5.05286E-14
 -1      1119 1.12628E-02-1.36278E-04-4.74795E-14
 -1      1120 1.22212E-02-1.33108E-04-5.80555E-14
 -1      1121 3.29280E-03 1.44804E-04-5.96949E-15
 -1      1122 3.00809E-03 1.47042E-04-5.03714E-15
 -1      1123 3.70900E-03 7.22280E-05-7.61161E-15
 -1      1124 2.28514E-03 7.58241E-05-3.10598E-15
 -1      1125 2.05476E-03-4.10630E-05-2.63021E-15
 -1      1126 1.30126E-02-3.00773E-04-6.61281E-14
 -1      1127 2.57315E-03 7.69694E-05-3.85386E-15
 -1      1128 1.14018E-02-1.66470E-04-4.90380E-14
 -1      1129 2.08019E-03 5.71284E-05-2.63454E-15
 -1      1130 1.30154E-02-2.13271E-04-6.62334E-14
 -1      1131 2.86016E-03 7.70076E-05-4.67801E-15
 -1      1132 3.05983E-03 2.73055E-05-5.35784E-15
 -1      1133 3.34344E-03 2.67146E-05-6.31897E-15
 -1      1134 1.16580E-02-1.54138E-04-5.19269E-14
 -1      1135 1.21561E-02-1.81667E-04-5.72695E-14
 -1      1136 1.26813E-02-2.12318E-04-6.27663E-14
 -1      1137 1.19029E-02-1.67401E-04-5.45743E-14
 -1      1138 1.14623E-02-1.38484E-04-4.97807E-14
 -1      1139 1.23946E-02-1.96737E-04-5.97759E-14
 -1      1140 0.00000E+00 0.00000E+00 0.00000E+00
 -1      1141 0.00000E+00 0.00000E+00 0.00000E+00
 -1      1142 0.00000E+00 0.00000E+00 0.00000E+00
 -1      1143 0.00000E+00 0.00000E+00 0.00000E+00
 -1      1144 0.00000E+00 0.00000E+00 0.00000E+00
 -1      1145 0.00000E+00 0.00000E+00 0.00000E+00
 -1      1146 0.00000E+00 0.00000E+00 0.00000E+00
 -1      1147 0.00000E+00 0.00000E+00 0.00000E+00
 -1      1148 0.00000E+00 0.00000E+00 0.00000E+00
 -1      1149 0.00000E+00 0.00000E+00 0.00000E+00
 -1      1150 0.00000E+00 0.00000E+00 0.00000E+00
 -1      1151 0.00000E+00 0.00000E+00 0.00000E+00
 -1      1152 0.00000E+00 0.00000E+00 0.00000E+00
 -1      1153 0.00000E+00 0.00000E+00 0.00000E+00
 -1      1154 0.00000E+00 0.00000E+00 0.00000E+00
 -1      1155 0.00000E+00 0.00000E+00 0.00000E+00
 -1      1156 0.00000E+00 0.00000E+00 0.00000E+00
 -1      1157 2.11256E-04-1.48106E-04 6.09864E-18
 -1      1158 5.50499E-04-3.36805E-04-4.55907E-17
 -1      1159 8.31688E-04-4.57604E-04-1.89451E-16
 -1      1160 1.10068E-03-5.38336E-04-4.38573E-16
 -1      1161 1.36558E-03-5.94317E-04-7.85261E-16
 -1      1162 1.62999E-03-6.33373E-04-1.22637E-15
 -1      1163 1.89583E-03-6.60072E-04-1.76282E-15
 -1      1164 2.16407E-03-6.77446E-04-2.39473E-15
 -1      1165 2.43517E-03-6.87693E-04-3.12138E-15
 -1      1166 2.70937E-03-6.92460E-04-3.94126E-15
 -1      1167 2.98682E-03-6.92999E-04-4.84988E-15
 -1      1168 3.26771E-03-6.90287E-04-5.83840E-15
 -1      1169 3.55236E-03-6.85131E-04-6.90279E-15
 -1      1170 3.84121E-03-6.78271E-04-8.04239E-15
 -1      1171 4.13495E-03-6.70495E-04-9.24971E-15
 -1      1172 4.43447E-03-6.62769E-04-1.05209E-14
 -1      1173 4.74090E-03-6.56402E-04-1.18566E-14
 -1      1174 5.05554E-03-6.53233E-04-1.32535E-14
 -1      1175 5.37972E-03-6.55843E-04-1.47150E-14
 -1      1176 5.71450E-03-6.67755E-04-1.62455E-14
 -1      1177 6.06016E-03-6.93504E-04-1.78445E-14
 -1      1178 6.41546E-03-7.38357E-04-1.95064E-14
 -1      1179 6.77666E-03-8.07307E-04-2.12313E-14
 -1      1180 7.13674E-03-9.02894E-04-2.30207E-14
 -1      1181 7.48558E-03-1.02174E-03-2.48736E-14
 -1      1182 7.81221E-03-1.15096E-03-2.67820E-14
 -1      1183 8.10977E-03-1.26749E-03-2.87468E-14
 -1      1184 8.38103E-03-1.34377E-03-3.07739E-14
 -1      1185 8.64012E-03-1.35948E-03-3.28685E-14
 -1      1186 8.90712E-03-1.31230E-03-3.50258E-14
 -1      1187 9.19819E-03-1.21926E-03-3.72505E-14
 -1      1188 9.51872E-03-1.10743E-03-3.95457E-14
 -1      1189 9.86355E-03-1.00162E-03-4.18980E-14
 -1      1190 1.02222E-02-9.17061E-04-4.42994E-14
 -1      1191 1.05840E-02-8.58966E-04-4.67452E-14
 -1      1192 1.09412E-02-8.25763E-04-4.92216E-14
 -1      1193 1.12895E-02-8.12755E-04-5.17288E-14
 -1      1194 1.16273E-02-8.14612E-04-5.42747E-14
 -1      1195 1.19546E-02-8.26608E-04-5.68498E-14
 -1      1196 1.22724E-02-8.45027E-04-5.94671E-14
 -1      1197 1.25822E-02-8.67154E-04-6.21413E-14
 -1      1198 1.28855E-02-8.91101E-04-6.48739E-14
 -1      1199 1.31837E-02-9.15608E-04-6.76602E-14
 -1      1200 1.34778E-02-9.39870E-04-7.04892E-14
 -1      1201 1.37689E-02-9.63390E-04-7.33536E-14
 -1      1202 1.40577E-02-9.85878E-04-7.62379E-14
 -1      1203 1.43450E-02-1.00718E-03-7.91399E-14
 -1      1204 1.46312E-02-1.02726E-03-8.20631E-14
 -1      1205 1.49168E-02-1.04620E-03-8.50071E-14
 -1      1206 1.51953E-02-1.06395E-03-8.79086E-14
 -1      1207 2.27985E-04 1.60464E-04 2.72948E-17
 -1      1208 5.52670E-04 3.41425E-04 2.87856E-17
 -1      1209 8.32623E-04 4.59763E-04-4.41135E-17
 -1      1210 1.10159E-03 5.40017E-04-2.01892E-16
 -1      1211 1.36651E-03 5.95999E-04-4.47626E-16
 -1      1212 1.63098E-03 6.35152E-04-7.79812E-16
 -1      1213 1.89689E-03 6.61973E-04-1.19770E-15
 -1      1214 2.16519E-03 6.79495E-04-1.69882E-15
 -1      1215 2.43634E-03 6.89921E-04-2.28405E-15
 -1      1216 2.71057E-03 6.94905E-04-2.95063E-15
 -1      1217 2.98805E-03 6.95714E-04-3.70278E-15
 -1      1218 3.26893E-03 6.93351E-04-4.53842E-15
 -1      1219 3.55350E-03 6.88654E-04-5.45287E-15
 -1      1220 3.84215E-03 6.82406E-04-6.44577E-15
 -1      1221 4.13545E-03 6.75440E-04-7.51753E-15
 -1      1222 4.43411E-03 6.68766E-04-8.67207E-15
 -1      1223 4.73898E-03 6.63701E-04-9.89942E-15
 -1      1224 5.05095E-03 6.62014E-04-1.11988E-14
 -1      1225 5.37075E-03 6.66051E-04-1.25669E-14
 -1      1226 5.69869E-03 6.78785E-04-1.39951E-14
 -1      1227 6.03418E-03 7.03708E-04-1.54839E-14
 -1      1228 6.37523E-03 7.44363E-04-1.70394E-14
 -1      1229 6.71789E-03 8.03329E-04-1.86673E-14
 -1      1230 7.05605E-03 8.80512E-04-2.03709E-14
 -1      1231 7.38215E-03 9.70992E-04-2.21456E-14
 -1      1232 7.68917E-03 1.06342E-03-2.39822E-14
 -1      1233 7.97382E-03 1.14069E-03-2.58798E-14
 -1      1234 8.23952E-03 1.18424E-03-2.78435E-14
 -1      1235 8.49673E-03 1.18108E-03-2.98770E-14
 -1      1236 8.75937E-03 1.12973E-03-3.19845E-14
 -1      1237 9.03917E-03 1.04100E-03-3.41754E-14
 -1      1238 9.34124E-03 9.32880E-04-3.64462E-14
 -1      1239 9.66363E-03 8.23312E-04-3.87906E-14
 -1      1240 9.99986E-03 7.25074E-04-4.12045E-14
 -1      1241 1.03423E-02 6.44384E-04-4.36855E-14
 -1      1242 1.06843E-02 5.82190E-04-4.62392E-14
 -1      1243 1.10216E-02 5.36321E-04-4.88660E-14
 -1      1244 1.13519E-02 5.03340E-04-5.15559E-14
 -1      1245 1.16743E-02 4.79706E-04-5.43035E-14
 -1      1246 1.19892E-02 4.62347E-04-5.71040E-14
 -1      1247 1.22973E-02 4.48841E-04-5.99499E-14
 -1      1248 1.25996E-02 4.37400E-04-6.28381E-14
 -1      1249 1.28972E-02 4.26768E-04-6.57684E-14
 -1      1250 1.31910E-02 4.16101E-04-6.87374E-14
 -1      1251 1.34820E-02 4.04854E-04-7.17290E-14
 -1      1252 1.37708E-02 3.92695E-04-7.47617E-14
 -1      1253 1.40581E-02 3.79436E-04-7.78142E-14
 -1      1254 1.43443E-02 3.65005E-04-8.08700E-14
 -1      1255 1.46300E-02 3.49474E-04-8.39302E-14
 -1      1256 1.49084E-02 3.33612E-04-8.69114E-14
 -1      1257 1.50522E-02 2.83638E-04-8.83972E-14
 -1      1258 1.50684E-02 1.99218E-04-8.84927E-14
 -1      1259 1.50854E-02 1.14916E-04-8.85887E-14
 -1      1260 1.51033E-02 3.11260E-05-8.86574E-14
 -1      1261 1.51218E-02-5.18446E-05-8.87106E-14
 -1      1262 1.51405E-02-1.33169E-04-8.87517E-14
 -1      1263 1.51590E-02-2.13597E-04-8.88041E-14
 -1      1264 1.51772E-02-2.94007E-04-8.88486E-14
 -1      1265 1.51945E-02-3.74030E-04-8.88864E-14
 -1      1266 1.52110E-02-4.54052E-04-8.89413E-14
 -1      1267 1.52267E-02-5.34462E-04-8.90001E-14
 -1      1268 1.52416E-02-6.14894E-04-8.90647E-14
 -1      1269 1.52565E-02-6.96229E-04-8.91307E-14
 -1      1270 1.52718E-02-7.79217E-04-8.91724E-14
 -1      1271 1.52878E-02-8.63031E-04-8.92135E-14
 -1      1272 1.53047E-02-9.47341E-04-8.92712E-14
 -1      1273 1.53222E-02-1.03105E-03-8.93186E-14
 -1      1274 1.06783E-02-3.51600E-05-3.60276E-14
 -1      1275 1.05555E-02 1.13815E-04-3.57088E-14
 -1      1276 1.03265E-02 2.68474E-04-3.51711E-14
 -1      1277 1.00029E-02 4.28252E-04-3.44197E-14
 -1      1278 9.64228E-03 5.67058E-04-3.35815E-14
 -1      1279 9.25034E-03 6.79531E-04-3.26514E-14
 -1      1280 8.80652E-03 7.57297E-04-3.15940E-14
 -1      1281 8.34463E-03 7.79960E-04-3.05203E-14
 -1      1282 7.91319E-03 7.42701E-04-2.95538E-14
 -1      1283 7.50024E-03 6.57199E-04-2.86705E-14
 -1      1284 7.11709E-03 5.37630E-04-2.79012E-14
 -1      1285 6.79080E-03 4.02885E-04-2.72905E-14
 -1      1286 6.52067E-03 2.57956E-04-2.68333E-14
 -1      1287 6.33168E-03 1.09470E-04-2.65626E-14
 -1      1288 6.24849E-03-3.80521E-05-2.64967E-14
 -1      1289 6.27923E-03-1.85145E-04-2.66472E-14
 -1      1290 6.42473E-03-3.38351E-04-2.70075E-14
 -1      1291 6.68318E-03-5.02866E-04-2.75785E-14
 -1      1292 7.02033E-03-6.63843E-04-2.83028E-14
 -1      1293 7.39281E-03-8.01788E-04-2.91039E-14
 -1      1294 7.82532E-03-9.14855E-04-3.00577E-14
 -1      1295 8.29037E-03-9.81991E-04-3.11153E-14
 -1      1296 8.71339E-03-9.85670E-04-3.20842E-14
 -1      1297 9.11838E-03-9.36110E-04-3.30025E-14
 -1      1298 9.50303E-03-8.46614E-04-3.38497E-14
 -1      1299 9.85201E-03-7.30399E-04-3.45859E-14
 -1      1300 1.01659E-02-5.95564E-04-3.52115E-14
 -1      1301 1.04204E-02-4.55804E-04-3.56844E-14
 -1      1302 1.05990E-02-3.17696E-04-3.59946E-14
 -1      1303 1.06907E-02-1.80684E-04-3.61173E-14
 -1      1304 1.66408E-04-1.10196E-04-8.45678E-18
 -1      1305 1.12443E-04-5.69164E-05-2.40964E-17
 -1      1306 1.17477E-04-6.75125E-05-1.96783E-17
 -1      1307 1.08393E-04-4.34352E-05-3.12928E-17
 -1      1308 1.10220E-04-4.95475E-05-2.92735E-17
 -1      1309 2.26168E-04-1.07452E-04-6.86300E-17
 -1      1310 1.06879E-04-3.35549E-05-3.47351E-17
 -1      1311 1.07697E-04-3.82823E-05-3.36916E-17
 -1      1312 2.19084E-04-8.23033E-05-8.09357E-17
 -1      1313 1.06138E-04-2.52791E-05-3.67002E-17
 -1      1314 1.06553E-04-2.93103E-05-3.62937E-17
 -1      1315 2.15968E-04-6.31086E-05-8.74816E-17
 -1      1316 1.05754E-04-1.80265E-05-3.72966E-17
 -1      1317 1.05973E-04-2.15880E-05-3.71881E-17
 -1      1318 2.14365E-04-4.70171E-05-9.07884E-17
 -1      1319 1.05549E-04-1.11910E-05-3.73914E-17
 -1      1320 1.05666E-04-1.45644E-05-3.74863E-17
 -1      1321 2.13486E-04-3.26089E-05-9.17642E-17
 -1      1322 1.05456E-04-4.66686E-06-3.69306E-17
 -1      1323 1.05506E-04-7.90435E-06-3.71068E-17
 -1      1324 2.13013E-04-1.90926E-05-9.14796E-17
 -1      1325 1.05446E-04 1.73470E-06-3.62937E-17
 -1      1326 1.05444E-04-1.46138E-06-3.65783E-17
 -1      1327 2.12807E-04-6.12547E-06-9.03683E-17
 -1      1328 1.05514E-04 8.18726E-06-3.51959E-17
 -1      1329 1.05460E-04 4.94338E-06-3.55076E-17
 -1      1330 2.12815E-04 6.67490E-06-8.83489E-17
 -1      1331 1.05681E-04 1.48723E-05-3.35290E-17
 -1      1332 1.05559E-04 1.14843E-05-3.40168E-17
 -1      1333 2.13036E-04 1.96677E-05-8.52589E-17
 -1      1334 1.05995E-04 2.18800E-05-3.11708E-17
 -1      1335 1.05770E-04 1.82952E-05-3.19162E-17
 -1      1336 2.13525E-04 3.31231E-05-8.08815E-17
 -1      1337 1.06588E-04 2.97470E-05-2.78369E-17
 -1      1338 1.06165E-04 2.56712E-05-2.89889E-17
 -1      1339 2.14426E-04 4.76255E-05-7.47828E-17
 -1      1340 1.07732E-04 3.88542E-05-2.30528E-17
 -1      1341 1.06906E-04 3.40584E-05-2.49366E-17
 -1      1342 2.16064E-04 6.40339E-05-6.63938E-17
 -1      1343 1.10207E-04 5.02885E-05-1.56803E-17
 -1      1344 1.08404E-04 4.41043E-05-1.87838E-17
 -1      1345 2.19190E-04 8.35394E-05-5.42643E-17
 -1      1346 1.16794E-04 6.75493E-05-4.49944E-18
 -1      1347 1.12090E-04 5.77162E-05-9.92045E-18
 -1      1348 2.26162E-04 1.09274E-04-3.68900E-17
 -1      1349 1.57294E-04 1.09711E-04 1.27258E-17
 -1      1350 1.35456E-04 8.59897E-05 2.31748E-18
 -1      1351 2.55699E-04 1.51864E-04-1.62088E-17
 -1      1352 3.34471E-04 2.20373E-04 1.28749E-17
 -1      1353 4.20783E-04-2.61245E-04-5.27464E-17
 -1      1354 5.73601E-04-3.36010E-04-1.02064E-16
 -1      1355 7.20526E-04-3.96263E-04-1.79490E-16
 -1      1356 8.63446E-04-4.45150E-04-2.82313E-16
 -1      1357 6.11170E-04-3.29999E-04-1.66195E-16
 -1      1358 1.00324E-03-4.85743E-04-4.09083E-16
 -1      1359 1.14087E-03-5.19178E-04-5.60261E-16
 -1      1360 9.04015E-04-4.29868E-04-3.77357E-16
 -1      1361 1.27718E-03-5.47311E-04-7.34994E-16
 -1      1362 1.41267E-03-5.70617E-04-9.33728E-16
 -1      1363 1.18614E-03-4.98166E-04-6.83766E-16
 -1      1364 1.54779E-03-5.90144E-04-1.15568E-15
 -1      1365 1.68281E-03-6.06222E-04-1.40099E-15
 -1      1366 1.46289E-03-5.45455E-04-1.08386E-15
 -1      1367 1.81798E-03-6.19462E-04-1.66989E-15
 -1      1368 1.95342E-03-6.30151E-04-1.96228E-15
 -1      1369 1.73757E-03-5.77829E-04-1.57661E-15
 -1      1370 2.08928E-03-6.38672E-04-2.27826E-15
 -1      1371 2.22562E-03-6.45271E-04-2.61805E-15
 -1      1372 2.01214E-03-5.99177E-04-2.16259E-15
 -1      1373 2.36252E-03-6.50201E-04-2.98138E-15
 -1      1374 2.50001E-03-6.53668E-04-3.36698E-15
 -1      1375 2.28773E-03-6.12208E-04-2.84131E-15
 -1      1376 2.63814E-03-6.55843E-04-3.77546E-15
 -1      1377 2.77694E-03-6.56897E-04-4.20631E-15
 -1      1378 2.56497E-03-6.18897E-04-3.61134E-15
 -1      1379 2.91646E-03-6.56946E-04-4.65761E-15
 -1      1380 3.05671E-03-6.56135E-04-5.13114E-15
 -1      1381 2.84431E-03-6.20705E-04-4.46895E-15
 -1      1382 3.19774E-03-6.54543E-04-5.62407E-15
 -1      1383 3.33958E-03-6.52299E-04-6.13530E-15
 -1      1384 3.12607E-03-6.18737E-04-5.41074E-15
 -1      1385 3.48230E-03-6.49460E-04-6.66653E-15
 -1      1386 3.62593E-03-6.46153E-04-7.21614E-15
 -1      1387 3.41060E-03-6.13854E-04-6.43157E-15
 -1      1388 3.77056E-03-6.42425E-04-7.78376E-15
 -1      1389 3.91625E-03-6.38413E-04-8.36911E-15
 -1      1390 3.69827E-03-6.06784E-04-7.52776E-15
 -1      1391 4.06310E-03-6.34176E-04-8.97100E-15
 -1      1392 4.21120E-03-6.29874E-04-9.58889E-15
 -1      1393 3.98958E-03-5.98234E-04-8.69395E-15
 -1      1394 4.36066E-03-6.25595E-04-1.02231E-14
 -1      1395 4.51160E-03-6.21545E-04-1.08738E-14
 -1      1396 4.28515E-03-5.89016E-04-9.92705E-15
 -1      1397 4.66416E-03-6.17864E-04-1.15398E-14
 -1      1398 4.81846E-03-6.14823E-04-1.22219E-14
 -1      1399 4.58572E-03-5.80197E-04-1.12245E-14
 -1      1400 4.97464E-03-6.12651E-04-1.29195E-14
 -1      1401 5.13283E-03-6.11700E-04-1.36323E-14
 -1      1402 4.89213E-03-5.73287E-04-1.25863E-14
 -1      1403 5.29316E-03-6.12332E-04-1.43629E-14
 -1      1404 5.45572E-03-6.14992E-04-1.51097E-14
 -1      1405 5.20527E-03-5.70460E-04-1.40118E-14
 -1      1406 5.62059E-03-6.20215E-04-1.58730E-14
 -1      1407 5.78777E-03-6.28537E-04-1.66535E-14
 -1      1408 5.52591E-03-5.74786E-04-1.55027E-14
 -1      1409 5.95723E-03-6.40682E-04-1.74505E-14
 -1      1410 6.12882E-03-6.57236E-04-1.82645E-14
 -1      1411 5.85449E-03-5.90435E-04-1.70594E-14
 -1      1412 6.30232E-03-6.79063E-04-1.90943E-14
 -1      1413 6.47734E-03-7.06676E-04-1.99388E-14
 -1      1414 6.19081E-03-6.22658E-04-1.86830E-14
 -1      1415 6.65339E-03-7.40879E-04-2.08006E-14
 -1      1416 6.82977E-03-7.81875E-04-2.16775E-14
 -1      1417 6.53355E-03-6.77262E-04-2.03716E-14
 -1      1418 7.00571E-03-8.29986E-04-2.25703E-14
 -1      1419 7.18022E-03-8.84719E-04-2.34802E-14
 -1      1420 6.87989E-03-7.59090E-04-2.21234E-14
 -1      1421 7.35234E-03-9.45302E-04-2.44040E-14
 -1      1422 7.52099E-03-1.01008E-03-2.53431E-14
 -1      1423 7.22521E-03-8.69054E-04-2.39377E-14
 -1      1424 7.68533E-03-1.07670E-03-2.62964E-14
 -1      1425 7.84468E-03-1.14219E-03-2.72619E-14
 -1      1426 7.56352E-03-9.99904E-04-2.58114E-14
 -1      1427 7.99875E-03-1.20281E-03-2.82434E-14
 -1      1428 8.14783E-03-1.25496E-03-2.92402E-14
 -1      1429 7.88911E-03-1.13280E-03-2.77423E-14
 -1      1430 8.29259E-03-1.29481E-03-3.02518E-14
 -1      1431 8.43444E-03-1.31970E-03-3.12813E-14
 -1      1432 8.19968E-03-1.23894E-03-2.97320E-14
 -1      1433 8.57486E-03-1.32776E-03-3.23259E-14
 -1      1434 8.71590E-03-1.31867E-03-3.33864E-14
 -1      1435 8.49924E-03-1.28962E-03-3.17844E-14
 -1      1436 8.85914E-03-1.29362E-03-3.44665E-14
 -1      1437 9.00621E-03-1.25491E-03-3.55587E-14
 -1      1438 8.79755E-03-1.27084E-03-3.39046E-14
 -1      1439 9.15800E-03-1.20609E-03-3.66702E-14
 -1      1440 9.31503E-03-1.15068E-03-3.78001E-14
 -1      1441 9.10510E-03-1.19169E-03-3.60917E-14
 -1      1442 9.47723E-03-1.09263E-03-3.89447E-14
 -1      1443 9.64408E-03-1.03510E-03-4.01073E-14
 -1      1444 9.42739E-03-1.07892E-03-3.83463E-14
 -1      1445 9.81482E-03-9.80834E-04-4.12807E-14
 -1      1446 9.98841E-03-9.31768E-04-4.24657E-14
 -1      1447 9.76335E-03-9.62414E-04-4.06621E-14
 -1      1448 1.01639E-02-8.88998E-04-4.36671E-14
 -1      1449 1.03402E-02-8.53239E-04-4.48797E-14
 -1      1450 1.01077E-02-8.63607E-04-4.30355E-14
 -1      1451 1.05166E-02-8.24353E-04-4.61016E-14
 -1      1452 1.06922E-02-8.02250E-04-4.73323E-14
 -1      1453 1.04544E-02-7.92114E-04-4.54588E-14
 -1      1454 1.08666E-02-7.86189E-04-4.85713E-14
 -1      1455 1.10392E-02-7.75696E-04-4.98166E-14
 -1      1456 1.07985E-02-7.48437E-04-4.79200E-14
 -1      1457 1.12098E-02-7.69894E-04-5.10737E-14
 -1      1458 1.13783E-02-7.68203E-04-5.23391E-14
 -1      1459 1.11367E-02-7.28276E-04-5.04170E-14
 -1      1460 1.15444E-02-7.69855E-04-5.36117E-14
 -1      1461 1.17084E-02-7.74304E-04-5.48965E-14
 -1      1462 1.14675E-02-7.25851E-04-5.29500E-14
 -1      1463 1.18701E-02-7.80970E-04-5.61864E-14
 -1      1464 1.20297E-02-7.89396E-04-5.74830E-14
 -1      1465 1.17906E-02-7.35715E-04-5.55166E-14
 -1      1466 1.21873E-02-7.99184E-04-5.87976E-14
 -1      1467 1.23432E-02-8.09975E-04-6.01249E-14
 -1      1468 1.21062E-02-7.53468E-04-5.81265E-14
 -1      1469 1.24973E-02-8.21517E-04-6.14613E-14
 -1      1470 1.26499E-02-8.33542E-04-6.28122E-14
 -1      1471 1.24154E-02-7.75846E-04-6.07785E-14
 -1      1472 1.28011E-02-8.45899E-04-6.41779E-14
 -1      1473 1.29511E-02-8.58396E-04-6.55565E-14
 -1      1474 1.27189E-02-8.00567E-04-6.34826E-14
 -1      1475 1.31000E-02-8.70950E-04-6.69462E-14
 -1      1476 1.32479E-02-8.83427E-04-6.83511E-14
 -1      1477 1.30179E-02-8.26111E-04-6.62378E-14
 -1      1478 1.33949E-02-8.95789E-04-6.97641E-14
 -1      1479 1.35412E-02-9.07942E-04-7.11841E-14
 -1      1480 1.33132E-02-8.51505E-04-6.90386E-14
 -1      1481 1.36868E-02-9.19875E-04-7.26158E-14
 -1      1482 1.38319E-02-9.31526E-04-7.40542E-14
 -1      1483 1.36055E-02-8.76154E-04-7.18815E-14
 -1      1484 1.39764E-02-9.42896E-04-7.54961E-14
 -1      1485 1.41206E-02-9.53947E-04-7.69412E-14
 -1      1486 1.38957E-02-8.99717E-04-7.47544E-14
 -1      1487 1.42644E-02-9.64687E-04-7.83945E-14
 -1      1488 1.44079E-02-9.75095E-04-7.98534E-14
 -1      1489 1.41841E-02-9.22012E-04-7.76506E-14
 -1      1490 1.45513E-02-9.85188E-04-8.13147E-14
 -1      1491 1.46944E-02-9.94962E-04-8.27831E-14
 -1      1492 1.44714E-02-9.42966E-04-8.05665E-14
 -1      1493 1.48374E-02-1.00445E-03-8.42563E-14
 -1      1494 1.49803E-02-1.01369E-03-8.57349E-14
 -1      1495 1.47579E-02-9.62609E-04-8.35030E-14
 -1      1496 1.51865E-02-1.02252E-03-8.78934E-14
 -1      1497 1.51072E-02-9.80906E-04-8.71331E-14
 -1      1498 6.41891E-04 3.71067E-04-2.60615E-17
 -1      1499 4.92045E-04 3.03060E-04 3.86247E-18
 -1      1500 4.44173E-04 2.65345E-04-1.75776E-17
 -1      1501 9.26965E-04 4.70224E-04-1.47533E-16
 -1      1502 7.86351E-04 4.25168E-04-7.62872E-17
 -1      1503 7.43581E-04 3.89486E-04-1.03826E-16
 -1      1504 1.20142E-03 5.38553E-04-3.53545E-16
 -1      1505 1.06496E-03 5.07459E-04-2.39636E-16
 -1      1506 1.02924E-03 4.73990E-04-2.72663E-16
 -1      1507 1.47163E-03 5.86310E-04-6.45846E-16
 -1      1508 1.33673E-03 5.64619E-04-4.88948E-16
 -1      1509 1.30686E-03 5.32562E-04-5.25919E-16
 -1      1510 1.74099E-03 6.19338E-04-1.02300E-15
 -1      1511 1.60624E-03 6.04428E-04-8.23641E-16
 -1      1512 1.58094E-03 5.73209E-04-8.63432E-16
 -1      1513 2.01128E-03 6.41423E-04-1.48449E-15
 -1      1514 1.87592E-03 6.31580E-04-1.24325E-15
 -1      1515 1.85416E-03 6.00821E-04-1.28500E-15
 -1      1516 2.28343E-03 6.55222E-04-2.02967E-15
 -1      1517 2.14707E-03 6.49229E-04-1.74711E-15
 -1      1518 2.12805E-03 6.18693E-04-1.79072E-15
 -1      1519 2.55797E-03 6.62696E-04-2.65762E-15
 -1      1520 2.42038E-03 6.59649E-04-2.33308E-15
 -1      1521 2.40345E-03 6.29179E-04-2.37931E-15
 -1      1522 2.83519E-03 6.65320E-04-3.36756E-15
 -1      1523 2.69622E-03 6.64534E-04-3.00220E-15
 -1      1524 2.68089E-03 6.34024E-04-3.04903E-15
 -1      1525 3.11533E-03 6.64230E-04-4.16225E-15
 -1      1526 2.97488E-03 6.65172E-04-3.75462E-15
 -1      1527 2.96069E-03 6.34541E-04-3.80266E-15
 -1      1528 3.39867E-03 6.60332E-04-5.03718E-15
 -1      1529 3.25659E-03 6.62571E-04-4.58952E-15
 -1      1530 3.24316E-03 6.31749E-04-4.63782E-15
 -1      1531 3.68553E-03 6.54414E-04-5.99131E-15
 -1      1532 3.54164E-03 6.57564E-04-5.50460E-15
 -1      1533 3.52861E-03 6.26479E-04-5.55257E-15
 -1      1534 3.97638E-03 6.47253E-04-7.02383E-15
 -1      1535 3.83043E-03 6.50921E-04-6.49798E-15
 -1      1536 3.81742E-03 6.19489E-04-6.54624E-15
 -1      1537 4.27178E-03 6.39730E-04-8.13541E-15
 -1      1538 4.12347E-03 6.43453E-04-7.56926E-15
 -1      1539 4.11005E-03 6.11576E-04-7.61716E-15
 -1      1540 4.57242E-03 6.32963E-04-9.32525E-15
 -1      1541 4.42140E-03 6.36146E-04-8.72063E-15
 -1      1542 4.40707E-03 6.03699E-04-8.76727E-15
 -1      1543 4.87905E-03 6.28451E-04-1.05868E-14
 -1      1544 4.72494E-03 6.30290E-04-9.94734E-15
 -1      1545 4.70910E-03 5.97126E-04-9.99184E-15
 -1      1546 5.19235E-03 6.28222E-04-1.19207E-14
 -1      1547 5.03482E-03 6.27635E-04-1.12450E-14
 -1      1548 5.01678E-03 5.93581E-04-1.12889E-14
 -1      1549 5.51273E-03 6.34942E-04-1.33174E-14
 -1      1550 5.35163E-03 6.30520E-04-1.26114E-14
 -1      1551 5.33059E-03 5.95394E-04-1.26532E-14
 -1      1552 5.84007E-03 6.51927E-04-1.47770E-14
 -1      1553 5.67555E-03 6.41949E-04-1.40394E-14
 -1      1554 5.65072E-03 6.05585E-04-1.40816E-14
 -1      1555 6.17331E-03 6.82910E-04-1.62987E-14
 -1      1556 6.00605E-03 6.65500E-04-1.55296E-14
 -1      1557 5.97679E-03 6.27795E-04-1.55724E-14
 -1      1558 6.51003E-03 7.31360E-04-1.78912E-14
 -1      1559 6.34143E-03 7.04890E-04-1.70862E-14
 -1      1560 6.30751E-03 6.65886E-04-1.71298E-14
 -1      1561 6.84621E-03 7.99137E-04-1.95533E-14
 -1      1562 6.67850E-03 7.62986E-04-1.87131E-14
 -1      1563 6.64044E-03 7.22974E-04-1.87552E-14
 -1      1564 7.17639E-03 8.84435E-04-2.12870E-14
 -1      1565 7.01245E-03 8.40079E-04-2.04124E-14
 -1      1566 6.97184E-03 7.99716E-04-2.04504E-14
 -1      1567 7.49472E-03 9.79551E-04-2.30903E-14
 -1      1568 7.33742E-03 9.31637E-04-2.21802E-14
 -1      1569 7.29708E-03 8.91976E-04-2.22134E-14
 -1      1570 7.79691E-03 1.06989E-03-2.49515E-14
 -1      1571 7.64802E-03 1.02647E-03-2.40117E-14
 -1      1572 7.61170E-03 9.88795E-04-2.40396E-14
 -1      1573 8.08270E-03 1.13618E-03-2.68799E-14
 -1      1574 7.94169E-03 1.10715E-03-2.59084E-14
 -1      1575 7.91323E-03 1.07254E-03-2.59330E-14
 -1      1576 8.35727E-03 1.16061E-03-2.88768E-14
 -1      1577 8.22084E-03 1.15424E-03-2.78700E-14
 -1      1578 8.20315E-03 1.12300E-03-2.78938E-14
 -1      1579 8.63013E-03 1.13446E-03-3.09439E-14
 -1      1580 8.49319E-03 1.15367E-03-2.99005E-14
 -1      1581 8.48729E-03 1.12503E-03-2.99221E-14
 -1      1582 8.91154E-03 1.06236E-03-3.30878E-14
 -1      1583 8.76917E-03 1.10322E-03-3.20067E-14
 -1      1584 8.77397E-03 1.07569E-03-3.20241E-14
 -1      1585 9.20832E-03 9.60022E-04-3.53150E-14
 -1      1586 9.05774E-03 1.01371E-03-3.41912E-14
 -1      1587 9.07040E-03 9.85735E-04-3.42045E-14
 -1      1588 9.52189E-03 8.47086E-04-3.76159E-14
 -1      1589 9.36310E-03 9.03759E-04-3.64556E-14
 -1      1590 9.37986E-03 8.74361E-04-3.64629E-14
 -1      1591 9.84900E-03 7.40044E-04-3.99906E-14
 -1      1592 9.68408E-03 7.92121E-04-3.87946E-14
 -1      1593 9.70131E-03 7.61020E-04-3.87958E-14
 -1      1594 1.01840E-02 6.48769E-04-4.24354E-14
 -1      1595 1.00159E-02 6.92162E-04-4.12040E-14
 -1      1596 1.00309E-02 6.59597E-04-4.12007E-14
 -1      1597 1.05213E-02 5.76678E-04-4.49472E-14
 -1      1598 1.03527E-02 6.10357E-04-4.36829E-14
 -1      1599 1.03638E-02 5.76805E-04-4.36763E-14
 -1      1600 1.08563E-02 5.22804E-04-4.75317E-14
 -1      1601 1.06893E-02 5.47656E-04-4.62298E-14
 -1      1602 1.06961E-02 5.13612E-04-4.62190E-14
 -1      1603 1.11861E-02 4.83994E-04-5.01832E-14
 -1      1604 1.10220E-02 5.01757E-04-4.88501E-14
 -1      1605 1.10246E-02 4.67628E-04-4.88307E-14
 -1      1606 1.15094E-02 4.56501E-04-5.28946E-14
 -1      1607 1.13486E-02 4.69061E-04-5.15321E-14
 -1      1608 1.13478E-02 4.35130E-04-5.15063E-14
 -1      1609 1.18259E-02 4.36854E-04-5.56619E-14
 -1      1610 1.16685E-02 4.45886E-04-5.42704E-14
 -1      1611 1.16649E-02 4.12322E-04-5.42367E-14
 -1      1612 1.21359E-02 4.22216E-04-5.84790E-14
 -1      1613 1.19817E-02 4.29054E-04-5.70652E-14
 -1      1614 1.19762E-02 3.95934E-04-5.70232E-14
 -1      1615 1.24403E-02 4.10440E-04-6.13406E-14
 -1      1616 1.22887E-02 4.16076E-04-5.99049E-14
 -1      1617 1.22819E-02 3.83416E-04-5.98585E-14
 -1      1618 1.27398E-02 3.99991E-04-6.42426E-14
 -1      1619 1.25906E-02 4.05122E-04-6.27859E-14
 -1      1620 1.25830E-02 3.72900E-04-6.27338E-14
 -1      1621 1.30354E-02 3.89823E-04-6.71830E-14
 -1      1622 1.28881E-02 3.94920E-04-6.57079E-14
 -1      1623 1.28800E-02 3.63092E-04-6.56482E-14
 -1      1624 1.33279E-02 3.79253E-04-7.01585E-14
 -1      1625 1.31820E-02 3.84619E-04-6.86687E-14
 -1      1626 1.31739E-02 3.53132E-04-6.85985E-14
 -1      1627 1.36181E-02 3.67857E-04-7.31582E-14
 -1      1628 1.34733E-02 3.73677E-04-7.16544E-14
 -1      1629 1.34651E-02 3.42479E-04-7.15760E-14
 -1      1630 1.39064E-02 3.55385E-04-7.61940E-14
 -1      1631 1.37624E-02 3.61764E-04-7.46724E-14
 -1      1632 1.37545E-02 3.30804E-04-7.45858E-14
 -1      1633 1.41935E-02 3.41712E-04-7.92420E-14
 -1      1634 1.40501E-02 3.48700E-04-7.77170E-14
 -1      1635 1.40423E-02 3.17932E-04-7.76192E-14
 -1      1636 1.44797E-02 3.26828E-04-8.22934E-14
 -1      1637 1.43367E-02 3.34415E-04-8.07672E-14
 -1      1638 1.43292E-02 3.03794E-04-8.06657E-14
 -1      1639 1.47655E-02 3.10900E-04-8.53521E-14
 -1      1640 1.46226E-02 3.18972E-04-8.38229E-14
 -1      1641 1.46154E-02 2.88451E-04-8.37173E-14
 -1      1642 1.49164E-02 2.91467E-04-8.69522E-14
 -1      1643 1.49489E-02 1.85462E-04-8.71935E-14
 -1      1644 1.49406E-02 2.27556E-04-8.71471E-14
 -1      1645 1.49661E-02 1.01539E-04-8.72813E-14
 -1      1646 1.49574E-02 1.43443E-04-8.72402E-14
 -1      1647 1.48294E-02 1.71691E-04-8.58938E-14
 -1      1648 1.49843E-02 1.81899E-05-8.73495E-14
 -1      1649 1.49751E-02 5.97779E-05-8.73168E-14
 -1      1650 1.48470E-02 8.80583E-05-8.59753E-14
 -1      1651 1.50031E-02-6.44009E-05-8.74047E-14
 -1      1652 1.49936E-02-2.32074E-05-8.73804E-14
 -1      1653 1.48654E-02 5.04590E-06-8.60453E-14
 -1      1654 1.50217E-02-1.44798E-04-8.74536E-14
 -1      1655 1.50124E-02-1.04696E-04-8.74288E-14
 -1      1656 1.48843E-02-7.65479E-05-8.61047E-14
 -1      1657 1.50404E-02-2.25853E-04-8.75080E-14
 -1      1658 1.50311E-02-1.85408E-04-8.74818E-14
 -1      1659 1.49031E-02-1.57431E-04-8.61598E-14
 -1      1660 1.50584E-02-3.06374E-04-8.75564E-14
 -1      1661 1.50495E-02-2.66165E-04-8.75326E-14
 -1      1662 1.49218E-02-2.38392E-04-8.62156E-14
 -1      1663 1.50756E-02-3.86649E-04-8.76037E-14
 -1      1664 1.50671E-02-3.46523E-04-8.75788E-14
 -1      1665 1.49396E-02-3.18941E-04-8.62678E-14
 -1      1666 1.50918E-02-4.67005E-04-8.76652E-14
 -1      1667 1.50838E-02-4.26797E-04-8.76346E-14
 -1      1668 1.49565E-02-3.99343E-04-8.63276E-14
 -1      1669 1.51072E-02-5.47759E-04-8.77280E-14
 -1      1670 1.50996E-02-5.07316E-04-8.76946E-14
 -1      1671 1.49725E-02-4.79887E-04-8.63899E-14
 -1      1672 1.51219E-02-6.27778E-04-8.77893E-14
 -1      1673 1.51146E-02-5.87679E-04-8.77598E-14
 -1      1674 1.49875E-02-5.60154E-04-8.64546E-14
 -1      1675 1.51368E-02-7.09965E-04-8.78530E-14
 -1      1676 1.51293E-02-6.68769E-04-8.78224E-14
 -1      1677 1.50022E-02-6.41025E-04-8.65184E-14
 -1      1678 1.51521E-02-7.92961E-04-8.78954E-14
 -1      1679 1.51444E-02-7.51367E-04-8.78771E-14
 -1      1680 1.50170E-02-7.23312E-04-8.65757E-14
 -1      1681 1.51682E-02-8.76638E-04-8.79448E-14
 -1      1682 1.51601E-02-8.34729E-04-8.79179E-14
 -1      1683 1.50324E-02-8.06328E-04-8.66238E-14
 -1      1684 1.51419E-02-9.49787E-04-8.75522E-14
 -1      1685 1.51333E-02-9.07723E-04-8.75307E-14
 -1      1686 1.50053E-02-8.79011E-04-8.62328E-14
 -1      1687 1.49356E-02-9.40966E-04-8.54001E-14
 -1      1688 1.06685E-02-4.61660E-05-3.65281E-14
 -1      1689 1.07098E-02-9.07221E-05-3.66388E-14
 -1      1690 1.04948E-02 7.44241E-05-3.60097E-14
 -1      1691 1.05865E-02 2.21346E-05-3.62142E-14
 -1      1692 1.01888E-02 2.12012E-04-3.54167E-14
 -1      1693 1.03448E-02 1.36566E-04-3.57637E-14
 -1      1694 9.82644E-03 3.96611E-04-3.45130E-14
 -1      1695 9.99897E-03 3.14613E-04-3.49182E-14
 -1      1696 9.45815E-03 5.68144E-04-3.35625E-14
 -1      1697 9.62896E-03 4.92766E-04-3.39975E-14
 -1      1698 9.07177E-03 7.13806E-04-3.25292E-14
 -1      1699 9.24847E-03 6.49719E-04-3.30240E-14
 -1      1700 8.66213E-03 8.13303E-04-3.13476E-14
 -1      1701 8.85163E-03 7.76478E-04-3.19064E-14
 -1      1702 8.26620E-03 8.18635E-04-3.02048E-14
 -1      1703 8.44649E-03 8.26103E-04-3.07155E-14
 -1      1704 7.89322E-03 7.46504E-04-2.91806E-14
 -1      1705 8.06335E-03 7.89414E-04-2.96315E-14
 -1      1706 7.50591E-03 6.10139E-04-2.82441E-14
 -1      1707 7.68621E-03 6.79945E-04-2.86643E-14
 -1      1708 7.12631E-03 4.50136E-04-2.74791E-14
 -1      1709 7.29533E-03 5.25816E-04-2.78158E-14
 -1      1710 6.78871E-03 2.92762E-04-2.68717E-14
 -1      1711 6.93920E-03 3.63855E-04-2.71312E-14
 -1      1712 6.49533E-03 1.48882E-04-2.64292E-14
 -1      1713 6.62371E-03 2.13682E-04-2.66127E-14
 -1      1714 6.29877E-03 3.05537E-05-2.61925E-14
 -1      1715 6.37516E-03 8.15458E-05-2.62744E-14
 -1      1716 6.22755E-03-7.15560E-05-2.61257E-14
 -1      1717 6.24313E-03-2.81715E-05-2.61056E-14
 -1      1718 6.29718E-03-1.69933E-04-2.63562E-14
 -1      1719 6.24863E-03-1.24356E-04-2.62352E-14
 -1      1720 6.50599E-03-2.90288E-04-2.67695E-14
 -1      1721 6.39263E-03-2.29238E-04-2.65399E-14
 -1      1722 6.83509E-03-4.48465E-04-2.74062E-14
 -1      1723 6.67357E-03-3.69330E-04-2.70807E-14
 -1      1724 7.20044E-03-6.43563E-04-2.82657E-14
 -1      1725 7.02363E-03-5.58798E-04-2.78827E-14
 -1      1726 7.57767E-03-8.12395E-04-2.91358E-14
 -1      1727 7.40578E-03-7.37276E-04-2.87292E-14
 -1      1728 8.01659E-03-9.65645E-04-3.02094E-14
 -1      1729 7.81778E-03-8.97528E-04-2.96652E-14
 -1      1730 8.40719E-03-1.03575E-03-3.13527E-14
 -1      1731 8.23200E-03-1.01436E-03-3.08508E-14
 -1      1732 8.76807E-03-1.01775E-03-3.23816E-14
 -1      1733 8.60540E-03-1.03481E-03-3.19197E-14
 -1      1734 9.12335E-03-9.30878E-04-3.33963E-14
 -1      1735 8.95677E-03-9.80972E-04-3.29410E-14
 -1      1736 9.48983E-03-7.96550E-04-3.42713E-14
 -1      1737 9.32731E-03-8.62379E-04-3.38752E-14
 -1      1738 9.83690E-03-6.41587E-04-3.50513E-14
 -1      1739 9.67811E-03-7.14844E-04-3.47072E-14
 -1      1740 1.01634E-02-4.80123E-04-3.57346E-14
 -1      1741 1.00139E-02-5.52280E-04-3.54487E-14
 -1      1742 1.04379E-02-3.48599E-04-3.61888E-14
 -1      1743 1.03225E-02-4.07673E-04-3.59934E-14
 -1      1744 1.06286E-02-2.32766E-04-3.65173E-14
 -1      1745 1.05507E-02-2.81546E-04-3.64030E-14
 -1      1746 1.07138E-02-1.40284E-04-3.65692E-14
 -1      1747 1.06891E-02-1.81974E-04-3.65598E-14
 -1      1748 9.66906E-03 4.05024E-04-3.45091E-14
 -1      1749 1.00512E-02 2.05693E-04-3.55317E-14
 -1      1750 1.49093E-02 2.60972E-04-8.68460E-14
 -1      1751 1.47896E-02 2.47033E-04-8.55462E-14
 -1      1752 1.06308E-02-5.05885E-05-3.68536E-14
 -1      1753 1.03938E-02 5.52125E-05-3.62873E-14
 -1      1754 1.07215E-02-1.14945E-04-3.71035E-14
 -1      1755 9.28803E-03 5.96124E-04-3.34487E-14
 -1      1756 8.91040E-03 7.58009E-04-3.22822E-14
 -1      1757 8.54768E-03 8.45387E-04-3.10247E-14
 -1      1758 8.19021E-03 8.26297E-04-2.98201E-14
 -1      1759 7.83927E-03 7.15970E-04-2.87343E-14
 -1      1760 7.46490E-03 5.46885E-04-2.77985E-14
 -1      1761 7.08803E-03 3.64284E-04-2.70322E-14
 -1      1762 6.73900E-03 2.00115E-04-2.64361E-14
 -1      1763 6.44779E-03 7.07614E-05-2.60297E-14
 -1      1764 6.26476E-03-2.27671E-05-2.57915E-14
 -1      1765 6.22846E-03-8.70829E-05-2.58122E-14
 -1      1766 6.34923E-03-1.61626E-04-2.60982E-14
 -1      1767 6.61775E-03-2.73430E-04-2.65817E-14
 -1      1768 6.97767E-03-4.48942E-04-2.73567E-14
 -1      1769 7.36348E-03-6.56950E-04-2.82897E-14
 -1      1770 7.77188E-03-8.52299E-04-2.92777E-14
 -1      1771 8.15199E-03-1.00747E-03-3.04436E-14
 -1      1772 8.50252E-03-1.06209E-03-3.16512E-14
 -1      1773 8.83341E-03-1.01841E-03-3.27793E-14
 -1      1774 9.16579E-03-8.96427E-04-3.38244E-14
 -1      1775 9.52197E-03-7.31131E-04-3.47467E-14
 -1      1776 9.87181E-03-5.51317E-04-3.55889E-14
 -1      1777 1.02045E-02-3.91452E-04-3.62543E-14
 -1      1778 1.04808E-02-2.67246E-04-3.67331E-14
 -1      1779 1.06616E-02-1.81364E-04-3.69922E-14
 -1      1780 2.84786E-04-1.75954E-04-4.54687E-17
 -1      1781 3.32173E-04-1.16442E-04-1.27312E-16
 -1      1782 3.36185E-04-1.32643E-04-1.21024E-16
 -1      1783 3.42030E-04-1.51641E-04-1.12879E-16
 -1      1784 3.51466E-04-1.73636E-04-1.00899E-16
 -1      1785 4.58146E-04-1.87476E-04-1.75275E-16
 -1      1786 3.24800E-04-6.50738E-05-1.39117E-16
 -1      1787 3.25911E-04-7.63473E-05-1.37789E-16
 -1      1788 3.23361E-04-4.36455E-05-1.40214E-16
 -1      1789 3.23992E-04-5.40973E-05-1.39930E-16
 -1      1790 4.36832E-04-7.88350E-05-2.05416E-16
 -1      1791 3.22603E-04-2.36242E-05-1.39252E-16
 -1      1792 3.22924E-04-3.34855E-05-1.39930E-16
 -1      1793 4.34888E-04-5.09815E-05-2.06093E-16
 -1      1794 3.22318E-04-4.30658E-06-1.37206E-16
 -1      1795 3.22412E-04-1.38986E-05-1.38371E-16
 -1      1796 4.33891E-04-2.47456E-05-2.04304E-16
 -1      1797 3.22436E-04 1.48901E-05-1.33682E-16
 -1      1798 3.22326E-04 5.28808E-06-1.35607E-16
 -1      1799 4.33599E-04 7.56299E-07-2.00754E-16
 -1      1800 3.22985E-04 3.45300E-05-1.28668E-16
 -1      1801 3.22644E-04 2.46364E-05-1.31473E-16
 -1      1802 4.33947E-04 2.62869E-05-1.95265E-16
 -1      1803 3.24076E-04 5.48850E-05-1.21634E-16
 -1      1804 3.23435E-04 4.45601E-05-1.25456E-16
 -1      1805 4.34999E-04 5.23852E-05-1.87445E-16
 -1      1806 3.26066E-04 7.74848E-05-1.11985E-16
 -1      1807 3.24906E-04 6.59256E-05-1.17351E-16
 -1      1808 4.37003E-04 8.01438E-05-1.76928E-16
 -1      1809 3.29644E-04 1.03301E-04-9.85133E-17
 -1      1810 3.27557E-04 8.99588E-05-1.06008E-16
 -1      1811 4.40555E-04 1.11035E-04-1.62481E-16
 -1      1812 3.36510E-04 1.34752E-04-7.90654E-17
 -1      1813 3.32420E-04 1.18257E-04-8.99346E-17
 -1      1814 4.46865E-04 1.46763E-04-1.42193E-16
 -1      1815 3.51998E-04 1.77223E-04-5.11472E-17
 -1      1816 3.42632E-04 1.54394E-04-6.64887E-17
 -1      1817 4.59156E-04 1.90860E-04-1.13570E-16
 -1      1818 4.07140E-04 2.33200E-04-3.04661E-17
 -1      1819 3.77677E-04 2.02234E-04-4.38153E-17
 -1      1820 4.95412E-04 2.43328E-04-8.74409E-17
 -1      1821 5.57791E-04 3.01712E-04-6.54045E-17
 -1      1822 3.39592E-04-1.90550E-04-7.57451E-17
 -1      1823 8.52461E-04 4.05529E-04-1.96620E-16
 -1      1824 7.06225E-04 3.58218E-04-1.20848E-16
 -1      1825 6.72662E-04 3.27724E-04-1.35159E-16
 -1      1826 4.58470E-04-2.36140E-04-1.31514E-16
 -1      1827 8.06344E-04-3.72656E-04-3.43204E-16
 -1      1828 9.51487E-04-4.13352E-04-4.75653E-16
 -1      1829 1.09422E-03-4.47469E-04-6.31060E-16
 -1      1830 1.23582E-03-4.75711E-04-8.09682E-16
 -1      1831 1.00321E-03-3.95727E-04-5.77365E-16
 -1      1832 1.37618E-03-4.99442E-04-1.01124E-15
 -1      1833 1.51587E-03-5.18955E-04-1.23591E-15
 -1      1834 1.28883E-03-4.52372E-04-9.38282E-16
 -1      1835 1.65509E-03-5.35154E-04-1.48349E-15
 -1      1836 1.79403E-03-5.48269E-04-1.75385E-15
 -1      1837 1.57131E-03-4.91586E-04-1.38992E-15
 -1      1838 1.93293E-03-5.58888E-04-2.04707E-15
 -1      1839 2.07185E-03-5.67211E-04-2.36321E-15
 -1      1840 1.85220E-03-5.17888E-04-1.93224E-15
 -1      1841 2.21097E-03-5.73632E-04-2.70239E-15
 -1      1842 2.35030E-03-5.78318E-04-3.06440E-15
 -1      1843 2.13265E-03-5.34510E-04-2.56491E-15
 -1      1844 2.48997E-03-5.81542E-04-3.44854E-15
 -1      1845 2.62999E-03-5.83443E-04-3.85445E-15
 -1      1846 2.41347E-03-5.43793E-04-3.28692E-15
 -1      1847 2.77046E-03-5.84209E-04-4.28240E-15
 -1      1848 2.91138E-03-5.83958E-04-4.73090E-15
 -1      1849 2.69520E-03-5.47460E-04-4.09682E-15
 -1      1850 3.05282E-03-5.82821E-04-5.20028E-15
 -1      1851 3.19480E-03-5.80898E-04-5.68972E-15
 -1      1852 2.97826E-03-5.46788E-04-4.99214E-15
 -1      1853 3.33738E-03-5.78286E-04-6.19856E-15
 -1      1854 3.48060E-03-5.75076E-04-6.72662E-15
 -1      1855 3.26297E-03-5.42742E-04-5.96714E-15
 -1      1856 3.62451E-03-5.71346E-04-7.27286E-15
 -1      1857 3.76917E-03-5.67191E-04-7.83722E-15
 -1      1858 3.54966E-03-5.36089E-04-7.01987E-15
 -1      1859 3.91462E-03-5.62688E-04-8.41817E-15
 -1      1860 4.06097E-03-5.57947E-04-9.01675E-15
 -1      1861 3.83868E-03-5.27504E-04-8.14488E-15
 -1      1862 4.20822E-03-5.53067E-04-9.63249E-15
 -1      1863 4.35653E-03-5.48184E-04-1.02642E-14
 -1      1864 4.13042E-03-5.17695E-04-9.33892E-15
 -1      1865 4.50590E-03-5.43447E-04-1.09119E-14
 -1      1866 4.65652E-03-5.39038E-04-1.15752E-14
 -1      1867 4.42537E-03-5.07536E-04-1.05999E-14
 -1      1868 4.80836E-03-5.35185E-04-1.22552E-14
 -1      1869 4.96165E-03-5.32135E-04-1.29506E-14
 -1      1870 4.72408E-03-4.98232E-04-1.19251E-14
 -1      1871 5.11636E-03-5.30236E-04-1.36618E-14
 -1      1872 5.27268E-03-5.29822E-04-1.43896E-14
 -1      1873 5.02719E-03-4.91523E-04-1.33132E-14
 -1      1874 5.43063E-03-5.31399E-04-1.51343E-14
 -1      1875 5.59032E-03-5.35409E-04-1.58945E-14
 -1      1876 5.33543E-03-4.89912E-04-1.47663E-14
 -1      1877 5.75182E-03-5.42536E-04-1.66708E-14
 -1      1878 5.91508E-03-5.53345E-04-1.74640E-14
 -1      1879 5.64957E-03-4.96906E-04-1.62848E-14
 -1      1880 6.08027E-03-5.68663E-04-1.82754E-14
 -1      1881 6.24705E-03-5.89155E-04-1.91024E-14
 -1      1882 5.97043E-03-5.17176E-04-1.78685E-14
 -1      1883 6.41577E-03-6.15652E-04-1.99445E-14
 -1      1884 6.58562E-03-6.48796E-04-2.08033E-14
 -1      1885 6.29876E-03-5.56465E-04-1.95199E-14
 -1      1886 6.75716E-03-6.89112E-04-2.16775E-14
 -1      1887 6.92898E-03-7.36911E-04-2.25673E-14
 -1      1888 6.63489E-03-6.20866E-04-2.12331E-14
 -1      1889 7.10178E-03-7.91911E-04-2.34728E-14
 -1      1890 7.27363E-03-8.53530E-04-2.43940E-14
 -1      1891 6.97808E-03-7.14936E-04-2.30105E-14
 -1      1892 7.44508E-03-9.20126E-04-2.53284E-14
 -1      1893 7.61420E-03-9.89471E-04-2.62776E-14
 -1      1894 7.32538E-03-8.38072E-04-2.48478E-14
 -1      1895 7.78103E-03-1.05834E-03-2.72427E-14
 -1      1896 7.94476E-03-1.12277E-03-2.82198E-14
 -1      1897 7.67085E-03-9.79150E-04-2.67436E-14
 -1      1898 8.10479E-03-1.17857E-03-2.92136E-14
 -1      1899 8.26258E-03-1.22149E-03-3.02212E-14
 -1      1900 8.00718E-03-1.11251E-03-2.86967E-14
 -1      1901 8.41695E-03-1.24834E-03-3.12464E-14
 -1      1902 8.57167E-03-1.25677E-03-3.22871E-14
 -1      1903 8.33105E-03-1.20244E-03-3.07093E-14
 -1      1904 8.72542E-03-1.24638E-03-3.33450E-14
 -1      1905 8.88216E-03-1.21874E-03-3.44206E-14
 -1      1906 8.64805E-03-1.21981E-03-3.27878E-14
 -1      1907 9.04069E-03-1.17654E-03-3.55129E-14
 -1      1908 9.20306E-03-1.12387E-03-3.66214E-14
 -1      1909 8.96964E-03-1.16098E-03-3.49340E-14
 -1      1910 9.36850E-03-1.06488E-03-3.77478E-14
 -1      1911 9.53663E-03-1.00375E-03-3.88900E-14
 -1      1912 9.30326E-03-1.05093E-03-3.71498E-14
 -1      1913 9.70737E-03-9.44040E-04-4.00474E-14
 -1      1914 9.87889E-03-8.88363E-04-4.12182E-14
 -1      1915 9.64733E-03-9.25726E-04-3.94321E-14
 -1      1916 1.00517E-02-8.38724E-04-4.24025E-14
 -1      1917 1.02238E-02-7.96013E-04-4.36030E-14
 -1      1918 9.99490E-03-8.13991E-04-4.17728E-14
 -1      1919 1.03958E-02-7.60768E-04-4.48142E-14
 -1      1920 1.05663E-02-7.32815E-04-4.60358E-14
 -1      1921 1.03395E-02-7.29883E-04-4.41698E-14
 -1      1922 1.07358E-02-7.11757E-04-4.72683E-14
 -1      1923 1.09035E-02-6.96987E-04-4.85076E-14
 -1      1924 1.06774E-02-6.75846E-04-4.66136E-14
 -1      1925 1.10696E-02-6.87707E-04-4.97560E-14
 -1      1926 1.12339E-02-6.83240E-04-5.10163E-14
 -1      1927 1.10077E-02-6.48063E-04-4.90962E-14
 -1      1928 1.13964E-02-6.82739E-04-5.22850E-14
 -1      1929 1.15571E-02-6.85614E-04-5.35613E-14
 -1      1930 1.13305E-02-6.40543E-04-5.16168E-14
 -1      1931 1.17162E-02-6.91144E-04-5.48466E-14
 -1      1932 1.18736E-02-6.98863E-04-5.61424E-14
 -1      1933 1.16465E-02-6.47368E-04-5.41735E-14
 -1      1934 1.20294E-02-7.08227E-04-5.74490E-14
 -1      1935 1.21838E-02-7.18889E-04-5.87664E-14
 -1      1936 1.19566E-02-6.63616E-04-5.67711E-14
 -1      1937 1.23369E-02-7.30470E-04-6.00959E-14
 -1      1938 1.24887E-02-7.42718E-04-6.14351E-14
 -1      1939 1.22617E-02-6.85553E-04-5.94086E-14
 -1      1940 1.26394E-02-7.55390E-04-6.27876E-14
 -1      1941 1.27891E-02-7.68308E-04-6.41529E-14
 -1      1942 1.25624E-02-7.10524E-04-6.20931E-14
 -1      1943 1.29378E-02-7.81325E-04-6.55293E-14
 -1      1944 1.30857E-02-7.94317E-04-6.69180E-14
 -1      1945 1.28597E-02-7.36729E-04-6.48224E-14
 -1      1946 1.32328E-02-8.07204E-04-6.83177E-14
 -1      1947 1.33793E-02-8.19902E-04-6.97268E-14
 -1      1948 1.31540E-02-7.63002E-04-6.75982E-14
 -1      1949 1.35252E-02-8.32372E-04-7.11509E-14
 -1      1950 1.36706E-02-8.44560E-04-7.25792E-14
 -1      1951 1.34460E-02-7.88623E-04-7.04178E-14
 -1      1952 1.38156E-02-8.56453E-04-7.40133E-14
 -1      1953 1.39601E-02-8.68013E-04-7.54553E-14
 -1      1954 1.37362E-02-8.13175E-04-7.32735E-14
 -1      1955 1.41043E-02-8.79244E-04-7.69032E-14
 -1      1956 1.42482E-02-8.90122E-04-7.83587E-14
 -1      1957 1.40249E-02-8.36436E-04-7.61571E-14
 -1      1958 1.43918E-02-9.00661E-04-7.98188E-14
 -1      1959 1.45353E-02-9.10847E-04-8.12828E-14
 -1      1960 1.43126E-02-8.58304E-04-7.90683E-14
 -1      1961 1.46640E-02-9.21375E-04-8.26001E-14
 -1      1962 1.48071E-02-9.30946E-04-8.40740E-14
 -1      1963 1.48420E-02-9.00017E-04-8.44898E-14
 -1      1964 1.45848E-02-8.79409E-04-8.18475E-14
 -1      1965 1.13724E-03 4.77412E-04-4.09788E-16
 -1      1966 9.95595E-04 4.44740E-04-2.92613E-16
 -1      1967 9.63480E-04 4.15373E-04-3.09770E-16
 -1      1968 1.41620E-03 5.27461E-04-7.06534E-16
 -1      1969 1.27710E-03 5.04776E-04-5.47509E-16
 -1      1970 1.24780E-03 4.76740E-04-5.66401E-16
 -1      1971 1.69259E-03 5.61890E-04-1.08708E-15
 -1      1972 1.55453E-03 5.46387E-04-8.86511E-16
 -1      1973 1.52804E-03 5.19331E-04-9.06298E-16
 -1      1974 1.96842E-03 5.84788E-04-1.55082E-15
 -1      1975 1.83048E-03 5.74614E-04-1.30850E-15
 -1      1976 1.80646E-03 5.48210E-04-1.32931E-15
 -1      1977 2.24489E-03 5.99014E-04-2.09849E-15
 -1      1978 2.10652E-03 5.92863E-04-1.81410E-15
 -1      1979 2.08454E-03 5.66876E-04-1.83536E-15
 -1      1980 2.52272E-03 6.06650E-04-2.72697E-15
 -1      1981 2.38361E-03 6.03564E-04-2.40242E-15
 -1      1982 2.36323E-03 5.77829E-04-2.42304E-15
 -1      1983 2.80237E-03 6.09243E-04-3.43851E-15
 -1      1984 2.66230E-03 6.08506E-04-3.07232E-15
 -1      1985 2.64314E-03 5.82907E-04-3.09258E-15
 -1      1986 3.08418E-03 6.07966E-04-4.23212E-15
 -1      1987 2.94299E-03 6.09031E-04-3.82478E-15
 -1      1988 2.92470E-03 5.83480E-04-3.84461E-15
 -1      1989 3.36848E-03 6.03740E-04-5.10575E-15
 -1      1990 3.22601E-03 6.06173E-04-4.65944E-15
 -1      1991 3.20824E-03 5.80597E-04-4.67812E-15
 -1      1992 3.65560E-03 5.97345E-04-6.05881E-15
 -1      1993 3.51167E-03 6.00766E-04-5.57253E-15
 -1      1994 3.49408E-03 5.75097E-04-5.59042E-15
 -1      1995 3.94594E-03 5.89530E-04-7.09023E-15
 -1      1996 3.80034E-03 5.93562E-04-6.56488E-15
 -1      1997 3.78257E-03 5.67726E-04-6.58086E-15
 -1      1998 4.23996E-03 5.81139E-04-8.19864E-15
 -1      1999 4.09245E-03 5.85342E-04-7.63429E-15
 -1      2000 4.07410E-03 5.59249E-04-7.64891E-15
 -1      2001 4.53820E-03 5.73237E-04-9.38380E-15
 -1      2002 4.38850E-03 5.77043E-04-8.78200E-15
 -1      2003 4.36913E-03 5.50580E-04-8.79464E-15
 -1      2004 4.84124E-03 5.67267E-04-1.06426E-14
 -1      2005 4.68907E-03 5.69900E-04-1.00041E-14
 -1      2006 4.66817E-03 5.42920E-04-1.00146E-14
 -1      2007 5.14963E-03 5.65203E-04-1.19720E-14
 -1      2008 4.99472E-03 5.65605E-04-1.12990E-14
 -1      2009 4.97175E-03 5.37916E-04-1.13071E-14
 -1      2010 5.46374E-03 5.69684E-04-1.33660E-14
 -1      2011 5.30594E-03 5.66451E-04-1.26607E-14
 -1      2012 5.28038E-03 5.37815E-04-1.26670E-14
 -1      2013 5.78365E-03 5.84058E-04-1.48247E-14
 -1      2014 5.62298E-03 5.75435E-04-1.40873E-14
 -1      2015 5.59440E-03 5.45577E-04-1.40916E-14
 -1      2016 6.10887E-03 6.12204E-04-1.63477E-14
 -1      2017 5.94568E-03 5.96214E-04-1.55781E-14
 -1      2018 5.91389E-03 5.64851E-04-1.55815E-14
 -1      2019 6.43811E-03 6.57939E-04-1.79377E-14
 -1      2020 6.27317E-03 6.32741E-04-1.71338E-14
 -1      2021 6.23844E-03 5.99669E-04-1.71363E-14
 -1      2022 6.76901E-03 7.23746E-04-1.95936E-14
 -1      2023 6.60365E-03 6.88370E-04-1.87574E-14
 -1      2024 6.56690E-03 6.53614E-04-1.87567E-14
 -1      2025 7.09809E-03 8.08700E-04-2.13191E-14
 -1      2026 6.93417E-03 7.64167E-04-2.04485E-14
 -1      2027 6.89708E-03 7.28208E-04-2.04450E-14
 -1      2028 7.42115E-03 9.06001E-04-2.31096E-14
 -1      2029 7.26079E-03 8.56562E-04-2.22049E-14
 -1      2030 7.22559E-03 8.20517E-04-2.21974E-14
 -1      2031 7.73442E-03 1.00136E-03-2.49639E-14
 -1      2032 7.57926E-03 9.55048E-04-2.40290E-14
 -1      2033 7.54827E-03 9.20619E-04-2.40151E-14
 -1      2034 8.03652E-03 1.07461E-03-2.68879E-14
 -1      2035 7.88675E-03 1.04194E-03-2.59180E-14
 -1      2036 7.86164E-03 1.01083E-03-2.59006E-14
 -1      2037 8.33012E-03 1.10588E-03-2.88780E-14
 -1      2038 8.18385E-03 1.09625E-03-2.78747E-14
 -1      2039 8.16521E-03 1.06930E-03-2.78545E-14
 -1      2040 8.62171E-03 1.08421E-03-3.09393E-14
 -1      2041 8.47540E-03 1.10157E-03-2.98995E-14
 -1      2042 8.46296E-03 1.07811E-03-2.98749E-14
 -1      2043 8.91883E-03 1.01322E-03-3.30750E-14
 -1      2044 8.76896E-03 1.05397E-03-3.19978E-14
 -1      2045 8.76212E-03 1.03220E-03-3.19696E-14
 -1      2046 9.22629E-03 9.09231E-04-3.52896E-14
 -1      2047 9.07101E-03 9.64083E-04-3.41719E-14
 -1      2048 9.06911E-03 9.42166E-04-3.41380E-14
 -1      2049 9.54469E-03 7.93286E-04-3.75788E-14
 -1      2050 9.38424E-03 8.51639E-04-3.64244E-14
 -1      2051 9.38622E-03 8.28482E-04-3.63845E-14
 -1      2052 9.87124E-03 6.83169E-04-3.99434E-14
 -1      2053 9.70728E-03 7.36823E-04-3.87529E-14
 -1      2054 9.71159E-03 7.12189E-04-3.87066E-14
 -1      2055 1.02018E-02 5.89485E-04-4.23789E-14
 -1      2056 1.00364E-02 6.34037E-04-4.11521E-14
 -1      2057 1.00413E-02 6.08186E-04-4.11020E-14
 -1      2058 1.05324E-02 5.15876E-04-4.48844E-14
 -1      2059 1.03674E-02 5.50231E-04-4.36237E-14
 -1      2060 1.03713E-02 5.23565E-04-4.35686E-14
 -1      2061 1.08602E-02 4.61307E-04-4.74552E-14
 -1      2062 1.06969E-02 4.86416E-04-4.61611E-14
 -1      2063 1.06987E-02 4.59295E-04-4.61015E-14
 -1      2064 1.11834E-02 4.22438E-04-5.00922E-14
 -1      2065 1.10225E-02 4.40150E-04-4.87650E-14
 -1      2066 1.10218E-02 4.12852E-04-4.86997E-14
 -1      2067 1.15012E-02 3.95314E-04-5.27883E-14
 -1      2068 1.13431E-02 4.07627E-04-5.14333E-14
 -1      2069 1.13398E-02 3.80345E-04-5.13605E-14
 -1      2070 1.18134E-02 3.76286E-04-5.55415E-14
 -1      2071 1.16580E-02 3.84965E-04-5.41581E-14
 -1      2072 1.16525E-02 3.57826E-04-5.40776E-14
 -1      2073 1.21204E-02 3.62380E-04-5.83457E-14
 -1      2074 1.19675E-02 3.68825E-04-5.69371E-14
 -1      2075 1.19601E-02 3.41906E-04-5.68516E-14
 -1      2076 1.24227E-02 3.51356E-04-6.11962E-14
 -1      2077 1.22720E-02 3.56600E-04-5.97661E-14
 -1      2078 1.22632E-02 3.29940E-04-5.96735E-14
 -1      2079 1.27209E-02 3.41621E-04-6.40845E-14
 -1      2080 1.25722E-02 3.46389E-04-6.26354E-14
 -1      2081 1.25624E-02 3.19997E-04-6.25376E-14
 -1      2082 1.30159E-02 3.32099E-04-6.70108E-14
 -1      2083 1.28688E-02 3.36873E-04-6.55442E-14
 -1      2084 1.28583E-02 3.10740E-04-6.54389E-14
 -1      2085 1.33082E-02 3.22095E-04-6.99672E-14
 -1      2086 1.31624E-02 3.27181E-04-6.84854E-14
 -1      2087 1.31514E-02 3.01288E-04-6.83744E-14
 -1      2088 1.35985E-02 3.11181E-04-7.29549E-14
 -1      2089 1.34536E-02 3.16765E-04-7.14583E-14
 -1      2090 1.34424E-02 2.91089E-04-7.13363E-14
 -1      2091 1.38871E-02 2.99113E-04-7.59653E-14
 -1      2092 1.37429E-02 3.05297E-04-7.44547E-14
 -1      2093 1.37317E-02 2.79813E-04-7.43293E-14
 -1      2094 1.41745E-02 2.85771E-04-7.90037E-14
 -1      2095 1.40309E-02 2.92602E-04-7.74829E-14
 -1      2096 1.40197E-02 2.67285E-04-7.73450E-14
 -1      2097 1.44611E-02 2.71142E-04-8.20459E-14
 -1      2098 1.43179E-02 2.78612E-04-8.05246E-14
 -1      2099 1.43067E-02 2.53439E-04-8.03828E-14
 -1      2100 1.46969E-02 2.55248E-04-8.45612E-14
 -1      2101 1.45539E-02 2.63182E-04-8.30337E-14
 -1      2102 1.45428E-02 2.38108E-04-8.28903E-14
 -1      2103 1.47283E-02 2.21926E-04-8.48627E-14
 -1      2104 1.47467E-02-8.32355E-06-8.47485E-14
 -1      2105 1.47372E-02 3.29500E-05-8.47131E-14
 -1      2106 1.47279E-02 7.44120E-05-8.46751E-14
 -1      2107 1.47188E-02 1.16031E-04-8.46378E-14
 -1      2108 1.46089E-02 6.05759E-05-8.33794E-14
 -1      2109 1.47276E-02 1.47948E-04-8.47736E-14
 -1      2110 1.47190E-02 1.89829E-04-8.47284E-14
 -1      2111 1.46263E-02 1.97955E-04-8.37443E-14
 -1      2112 1.46083E-02 1.33951E-04-8.34751E-14
 -1      2113 1.47655E-02-8.89565E-05-8.48106E-14
 -1      2114 1.47561E-02-4.87277E-05-8.47795E-14
 -1      2115 1.46278E-02-2.11954E-05-8.34548E-14
 -1      2116 1.47846E-02-1.70310E-04-8.48697E-14
 -1      2117 1.47751E-02-1.29709E-04-8.48388E-14
 -1      2118 1.46470E-02-1.02245E-04-8.35196E-14
 -1      2119 1.48032E-02-2.51122E-04-8.49277E-14
 -1      2120 1.47940E-02-2.10767E-04-8.48993E-14
 -1      2121 1.46662E-02-1.83334E-04-8.35820E-14
 -1      2122 1.48208E-02-3.31605E-04-8.49875E-14
 -1      2123 1.48121E-02-2.91383E-04-8.49580E-14
 -1      2124 1.46846E-02-2.63930E-04-8.36460E-14
 -1      2125 1.48375E-02-4.12014E-04-8.50544E-14
 -1      2126 1.48293E-02-3.71795E-04-8.50194E-14
 -1      2127 1.47021E-02-3.44259E-04-8.37134E-14
 -1      2128 1.48531E-02-4.92620E-04-8.51182E-14
 -1      2129 1.48454E-02-4.52271E-04-8.50846E-14
 -1      2130 1.47184E-02-4.24581E-04-8.37799E-14
 -1      2131 1.48678E-02-5.72286E-04-8.51852E-14
 -1      2132 1.48606E-02-5.32384E-04-8.51509E-14
 -1      2133 1.47337E-02-5.04475E-04-8.38469E-14
 -1      2134 1.48825E-02-6.53938E-04-8.52481E-14
 -1      2135 1.48752E-02-6.13027E-04-8.52179E-14
 -1      2136 1.47482E-02-5.84847E-04-8.39147E-14
 -1      2137 1.48973E-02-7.36304E-04-8.53028E-14
 -1      2138 1.48898E-02-6.95033E-04-8.52761E-14
 -1      2139 1.47627E-02-6.66559E-04-8.39769E-14
 -1      2140 1.49127E-02-8.19385E-04-8.53527E-14
 -1      2141 1.49049E-02-7.77765E-04-8.53284E-14
 -1      2142 1.47774E-02-7.49011E-04-8.40325E-14
 -1      2143 1.03175E-02 3.86060E-05-3.66466E-14
 -1      2144 1.04635E-02-1.02617E-05-3.69011E-14
 -1      2145 1.07237E-02-1.14849E-04-3.77349E-14
 -1      2146 1.07252E-02-1.28869E-04-3.76676E-14
 -1      2147 1.05788E-02-5.54712E-05-3.72182E-14
 -1      2148 1.06646E-02-8.64689E-05-3.75372E-14
 -1      2149 1.05243E-02-5.40279E-05-3.75811E-14
 -1      2150 9.91545E-03 2.23280E-04-3.56069E-14
 -1      2151 1.01023E-02 1.31115E-04-3.61149E-14
 -1      2152 9.52098E-03 4.28017E-04-3.45671E-14
 -1      2153 9.69902E-03 3.27437E-04-3.50902E-14
 -1      2154 3.27362E-04-8.86381E-05-1.35390E-16
 -1      2155 3.29410E-04-1.01808E-04-1.31798E-16
 -1      2156 4.46422E-04-1.44563E-04-1.91863E-16
 -1      2157 4.40275E-04-1.09427E-04-2.01120E-16
 -1      2158 8.80270E-03 7.98164E-04-3.20841E-14
 -1      2159 8.96564E-03 7.25807E-04-3.27107E-14
 -1      2160 8.44963E-03 8.73517E-04-3.06357E-14
 -1      2161 8.59970E-03 8.56341E-04-3.12680E-14
 -1      2162 8.13974E-03 8.23379E-04-2.94362E-14
 -1      2163 8.28675E-03 8.59385E-04-3.00073E-14
 -1      2164 7.79306E-03 6.78150E-04-2.82716E-14
 -1      2165 7.95354E-03 7.56090E-04-2.87817E-14
 -1      2166 7.41341E-03 4.79957E-04-2.72949E-14
 -1      2167 7.59044E-03 5.75457E-04-2.77134E-14
 -1      2168 7.04656E-03 2.86051E-04-2.64913E-14
 -1      2169 7.21880E-03 3.74562E-04-2.68281E-14
 -1      2170 6.68524E-03 1.28525E-04-2.59616E-14
 -1      2171 6.84709E-03 1.98635E-04-2.62120E-14
 -1      2172 6.39972E-03 1.39498E-05-2.55094E-14
 -1      2173 6.52259E-03 5.70895E-05-2.56583E-14
 -1      2174 6.23901E-03-4.65308E-05-2.53442E-14
 -1      2175 6.29855E-03-2.30314E-05-2.54302E-14
 -1      2176 6.23794E-03-8.84901E-05-2.54125E-14
 -1      2177 6.21542E-03-7.24520E-05-2.53077E-14
 -1      2178 6.40099E-03-1.49307E-04-2.57887E-14
 -1      2179 6.30330E-03-1.18179E-04-2.56143E-14
 -1      2180 6.71505E-03-2.65814E-04-2.63404E-14
 -1      2181 6.55106E-03-2.02783E-04-2.60407E-14
 -1      2182 7.13326E-03-4.70642E-04-2.72800E-14
 -1      2183 6.94727E-03-3.70356E-04-2.68131E-14
 -1      2184 7.49994E-03-6.84257E-04-2.82891E-14
 -1      2185 7.31890E-03-5.82129E-04-2.78315E-14
 -1      2186 7.87799E-03-8.82662E-04-2.92780E-14
 -1      2187 7.69558E-03-7.84198E-04-2.87532E-14
 -1      2188 8.27643E-03-1.05457E-03-3.07513E-14
 -1      2189 8.12008E-03-9.96078E-04-3.01120E-14
 -1      2190 8.57985E-03-1.07811E-03-3.19863E-14
 -1      2191 8.43897E-03-1.07824E-03-3.14186E-14
 -1      2192 8.86564E-03-1.01210E-03-3.31066E-14
 -1      2193 8.72420E-03-1.05635E-03-3.25439E-14
 -1      2194 8.64137E-03-1.07911E-03-3.23076E-14
 -1      2195 9.22108E-03-8.48847E-04-3.43505E-14
 -1      2196 9.06519E-03-9.28480E-04-3.38644E-14
 -1      2197 9.54176E-03-6.77302E-04-3.52371E-14
 -1      2198 9.37970E-03-7.67458E-04-3.47935E-14
 -1      2199 9.27772E-03-8.05503E-04-3.48349E-14
 -1      2200 9.90065E-03-4.76120E-04-3.62583E-14
 -1      2201 9.73567E-03-5.64492E-04-3.58509E-14
 -1      2202 1.02595E-02-3.17763E-04-3.68867E-14
 -1      2203 1.01063E-02-3.82956E-04-3.66201E-14
 -1      2204 1.05130E-02-2.18812E-04-3.73207E-14
 -1      2205 1.03947E-02-2.63405E-04-3.71030E-14
 -1      2206 1.03164E-02-2.72294E-04-3.74711E-14
 -1      2207 1.06961E-02-1.49337E-04-3.76243E-14
 -1      2208 1.06349E-02-1.70275E-04-3.75803E-14
 -1      2209 1.07192E-02-1.35347E-04-3.82568E-14
 -1      2210 9.18159E-03 6.18014E-04-3.34735E-14
 -1      2211 9.35045E-03 5.23854E-04-3.40189E-14
 -1      2212 9.42157E-03 4.58699E-04-3.45938E-14
 -1      2213 6.07247E-04-2.97219E-04-2.10606E-16
 -1      2214 9.06349E-03 6.67448E-04-3.32732E-14
 -1      2215 6.63133E-04-2.91350E-04-2.78301E-16
 -1      2216 1.07094E-02-1.09326E-04-3.81009E-14
 -1      2217 1.07371E-02-1.19658E-04-3.86677E-14
 -1      2218 1.06836E-02-1.06070E-04-3.84666E-14
 -1      2219 1.01012E-02 9.45381E-05-3.67964E-14
 -1      2220 1.02069E-02 6.26378E-05-3.67221E-14
 -1      2221 1.03035E-02 1.26840E-05-3.73365E-14
 -1      2222 1.48775E-02-8.50154E-04-8.49382E-14
 -1      2223 9.78394E-03 2.59564E-04-3.56667E-14
 -1      2224 1.05786E-02-1.80532E-04-3.79510E-14
 -1      2225 9.61259E-03-6.12732E-04-3.58972E-14
 -1      2226 8.95325E-03-9.77612E-04-3.36246E-14
 -1      2227 8.36469E-03-1.07880E-03-3.10807E-14
 -1      2228 8.01335E-03-9.45262E-04-2.95798E-14
 -1      2229 7.61622E-03-7.21502E-04-2.82905E-14
 -1      2230 7.25059E-03-5.10039E-04-2.72803E-14
 -1      2231 6.84274E-03-3.01334E-04-2.62659E-14
 -1      2232 6.47293E-03-1.57166E-04-2.55526E-14
 -1      2233 6.26271E-03-9.16897E-05-2.51056E-14
 -1      2234 6.21643E-03-6.13790E-05-2.49453E-14
 -1      2235 6.34701E-03-1.70483E-05-2.50598E-14
 -1      2236 6.60607E-03 7.14717E-05-2.54358E-14
 -1      2237 6.96080E-03 2.23154E-04-2.60103E-14
 -1      2238 7.33341E-03 4.13547E-04-2.67448E-14
 -1      2239 7.70723E-03 6.23748E-04-2.77605E-14
 -1      2240 8.06047E-03 7.97966E-04-2.89660E-14
 -1      2241 8.68634E-03 8.38526E-04-3.16888E-14
 -1      2242 8.37198E-03 8.78681E-04-3.02459E-14
 -1      2243 9.99094E-03-4.12435E-04-3.68856E-14
 -1      2244 1.01589E-03 3.97569E-04-4.06251E-16
 -1      2245 8.71486E-04 3.61718E-04-2.93575E-16
 -1      2246 5.48231E-04-5.48868E-05-2.91325E-16
 -1      2247 5.49252E-04-7.15035E-05-2.91813E-16
 -1      2248 5.50646E-04-8.87404E-05-2.91190E-16
 -1      2249 5.52473E-04-1.06646E-04-2.89739E-16
 -1      2250 6.65756E-04-9.47437E-05-3.93701E-16
 -1      2251 5.46863E-04 8.79180E-06-2.82638E-16
 -1      2252 5.46844E-04-6.92034E-06-2.85809E-16
 -1      2253 5.47609E-04 4.05610E-05-2.74493E-16
 -1      2254 5.47115E-04 2.46050E-05-2.78992E-16
 -1      2255 6.61839E-04 1.97610E-05-3.79986E-16
 -1      2256 5.49410E-04 7.29761E-05-2.63217E-16
 -1      2257 5.48363E-04 5.65820E-05-2.69370E-16
 -1      2258 6.63157E-04 5.73035E-05-3.68588E-16
 -1      2259 5.52742E-04 1.08287E-04-2.47916E-16
 -1      2260 5.50854E-04 9.02864E-05-2.56183E-16
 -1      2261 6.65991E-04 9.65040E-05-3.52867E-16
 -1      2262 5.58501E-04 1.47516E-04-2.26937E-16
 -1      2263 5.55252E-04 1.27338E-04-2.38294E-16
 -1      2264 6.71008E-04 1.39069E-04-3.31603E-16
 -1      2265 5.68618E-04 1.93054E-04-1.98273E-16
 -1      2266 5.62898E-04 1.69362E-04-2.13872E-16
 -1      2267 6.79503E-04 1.86476E-04-3.02980E-16
 -1      2268 1.30129E-03 4.53180E-04-6.92317E-16
 -1      2269 1.15898E-03 4.27949E-04-5.38943E-16
 -1      2270 1.07135E-03 3.78827E-04-5.07854E-16
 -1      2271 9.14770E-04-3.44501E-04-5.22640E-16
 -1      2272 1.05884E-03-3.77251E-04-6.82587E-16
 -1      2273 8.96572E-03 7.18016E-04-3.30765E-14
 -1      2274 9.14503E-03 6.12706E-04-3.38467E-14
 -1      2275 1.20209E-03-4.04974E-04-8.64814E-16
 -1      2276 1.34492E-03-4.28093E-04-1.06952E-15
 -1      2277 1.11680E-03-3.57791E-04-7.91386E-16
 -1      2278 1.48715E-03-4.47447E-04-1.29669E-15
 -1      2279 1.62902E-03-4.63298E-04-1.54638E-15
 -1      2280 1.40320E-03-4.03057E-04-1.20375E-15
 -1      2281 1.77058E-03-4.76304E-04-1.81804E-15
 -1      2282 1.91195E-03-4.86673E-04-2.11208E-15
 -1      2283 1.68851E-03-4.34331E-04-1.70447E-15
 -1      2284 2.05323E-03-4.94878E-04-2.42810E-15
 -1      2285 2.19448E-03-5.01087E-04-2.76679E-15
 -1      2286 1.97304E-03-4.54847E-04-2.29297E-15
 -1      2287 2.33580E-03-5.05639E-04-3.12723E-15
 -1      2288 2.47721E-03-5.08671E-04-3.50962E-15
 -1      2289 2.25722E-03-4.67137E-04-2.96899E-15
 -1      2290 2.61880E-03-5.10423E-04-3.91396E-15
 -1      2291 2.76058E-03-5.11008E-04-4.33922E-15
 -1      2292 2.54146E-03-4.73119E-04-3.73241E-15
 -1      2293 2.90262E-03-5.10595E-04-4.78530E-15
 -1      2294 3.04493E-03-5.09278E-04-5.25175E-15
 -1      2295 2.82610E-03-4.74235E-04-4.58056E-15
 -1      2296 3.18756E-03-5.07180E-04-5.73769E-15
 -1      2297 3.33055E-03-5.04380E-04-6.24377E-15
 -1      2298 3.11138E-03-4.71566E-04-5.51069E-15
 -1      2299 3.47392E-03-5.00973E-04-6.76846E-15
 -1      2300 3.61773E-03-4.97034E-04-7.31183E-15
 -1      2301 3.39754E-03-4.65942E-04-6.51896E-15
 -1      2302 3.76198E-03-4.92650E-04-7.87310E-15
 -1      2303 3.90675E-03-4.87900E-04-8.45148E-15
 -1      2304 3.68479E-03-4.58044E-04-7.60255E-15
 -1      2305 4.05203E-03-4.82881E-04-9.04677E-15
 -1      2306 4.19794E-03-4.77690E-04-9.65965E-15
 -1      2307 3.97336E-03-4.48512E-04-8.75697E-15
 -1      2308 4.34445E-03-4.72456E-04-1.02895E-14
 -1      2309 4.49170E-03-4.67309E-04-1.09348E-14
 -1      2310 4.26349E-03-4.38064E-04-9.97936E-15
 -1      2311 4.63966E-03-4.62438E-04-1.15959E-14
 -1      2312 4.78850E-03-4.58025E-04-1.22732E-14
 -1      2313 4.55550E-03-4.27630E-04-1.12680E-14
 -1      2314 4.93820E-03-4.54345E-04-1.29665E-14
 -1      2315 5.08894E-03-4.51662E-04-1.36752E-14
 -1      2316 4.84980E-03-4.18522E-04-1.26199E-14
 -1      2317 5.24074E-03-4.50366E-04-1.44001E-14
 -1      2318 5.39378E-03-4.50835E-04-1.51425E-14
 -1      2319 5.14698E-03-4.12615E-04-1.40363E-14
 -1      2320 5.54814E-03-4.53592E-04-1.59012E-14
 -1      2321 5.70399E-03-4.59174E-04-1.66744E-14
 -1      2322 5.44790E-03-4.12573E-04-1.55172E-14
 -1      2323 5.86157E-03-4.68226E-04-1.74653E-14
 -1      2324 6.02091E-03-4.81486E-04-1.82735E-14
 -1      2325 5.75390E-03-4.22073E-04-1.70641E-14
 -1      2326 6.18248E-03-4.99650E-04-1.90963E-14
 -1      2327 6.34611E-03-5.23675E-04-1.99360E-14
 -1      2328 6.06694E-03-4.45981E-04-1.86755E-14
 -1      2329 6.51254E-03-5.54132E-04-2.07929E-14
 -1      2330 6.68113E-03-5.92055E-04-2.16636E-14
 -1      2331 6.38969E-03-4.90387E-04-2.03535E-14
 -1      2332 6.85287E-03-6.37615E-04-2.25501E-14
 -1      2333 7.02637E-03-6.91455E-04-2.34528E-14
 -1      2334 6.72501E-03-5.62073E-04-2.20926E-14
 -1      2335 7.20256E-03-7.52893E-04-2.43696E-14
 -1      2336 7.37918E-03-8.21198E-04-2.53008E-14
 -1      2337 7.07435E-03-6.66744E-04-2.38933E-14
 -1      2338 7.55665E-03-8.94391E-04-2.62475E-14
 -1      2339 7.73228E-03-9.68705E-04-2.72081E-14
 -1      2340 7.43475E-03-8.04415E-04-2.57530E-14
 -1      2341 7.90560E-03-1.04057E-03-2.81819E-14
 -1      2342 8.07566E-03-1.10350E-03-2.91713E-14
 -1      2343 7.79644E-03-9.60260E-04-2.76694E-14
 -1      2344 8.24079E-03-1.15356E-03-3.01762E-14
 -1      2345 8.40468E-03-1.18432E-03-3.11955E-14
 -1      2346 8.14595E-03-1.09701E-03-2.96437E-14
 -1      2347 8.56553E-03-1.19349E-03-3.22320E-14
 -1      2348 8.72863E-03-1.18051E-03-3.32862E-14
 -1      2349 8.48051E-03-1.16465E-03-3.16789E-14
 -1      2350 8.89256E-03-1.14679E-03-3.43572E-14
 -1      2351 9.06109E-03-1.09774E-03-3.54468E-14
 -1      2352 8.81350E-03-1.13447E-03-3.37821E-14
 -1      2353 9.23281E-03-1.03719E-03-3.65536E-14
 -1      2354 9.40756E-03-9.72077E-04-3.76772E-14
 -1      2355 9.15970E-03-1.02583E-03-3.59580E-14
 -1      2356 9.58457E-03-9.06206E-04-3.88177E-14
 -1      2357 9.76142E-03-8.43940E-04-3.99734E-14
 -1      2358 9.51969E-03-8.87172E-04-3.82039E-14
 -1      2359 9.93830E-03-7.87696E-04-4.11434E-14
 -1      2360 1.01128E-02-7.38704E-04-4.23270E-14
 -1      2361 9.88148E-03-7.60340E-04-4.05134E-14
 -1      2362 1.02857E-02-6.97954E-04-4.35250E-14
 -1      2363 1.04555E-02-6.64941E-04-4.47366E-14
 -1      2364 1.02338E-02-6.64769E-04-4.28808E-14
 -1      2365 1.06231E-02-6.39681E-04-4.59586E-14
 -1      2366 1.07879E-02-6.21134E-04-4.71912E-14
 -1      2367 1.05723E-02-6.02861E-04-4.53019E-14
 -1      2368 1.09506E-02-6.08807E-04-4.84333E-14
 -1      2369 1.11109E-02-6.01687E-04-4.96845E-14
 -1      2370 1.08978E-02-5.69612E-04-4.77686E-14
 -1      2371 1.12694E-02-5.99096E-04-5.09463E-14
 -1      2372 1.14261E-02-6.00242E-04-5.22174E-14
 -1      2373 1.12129E-02-5.58225E-04-5.02740E-14
 -1      2374 1.15813E-02-6.04458E-04-5.34985E-14
 -1      2375 1.17352E-02-6.11173E-04-5.47892E-14
 -1      2376 1.15205E-02-5.62371E-04-5.28195E-14
 -1      2377 1.18878E-02-6.19826E-04-5.60887E-14
 -1      2378 1.20393E-02-6.30022E-04-5.73999E-14
 -1      2379 1.18227E-02-5.76904E-04-5.54047E-14
 -1      2380 1.21897E-02-6.41335E-04-5.87209E-14
 -1      2381 1.23394E-02-6.53498E-04-6.00561E-14
 -1      2382 1.21211E-02-5.97911E-04-5.80314E-14
 -1      2383 1.24881E-02-6.66209E-04-6.13990E-14
 -1      2384 1.26362E-02-6.79289E-04-6.27515E-14
 -1      2385 1.24165E-02-6.22558E-04-6.07011E-14
 -1      2386 1.27836E-02-6.92541E-04-6.41158E-14
 -1      2387 1.29305E-02-7.05847E-04-6.54911E-14
 -1      2388 1.27098E-02-6.48876E-04-6.34099E-14
 -1      2389 1.30768E-02-7.19084E-04-6.68800E-14
 -1      2390 1.32226E-02-7.32178E-04-6.82781E-14
 -1      2391 1.30012E-02-6.75558E-04-6.61615E-14
 -1      2392 1.33680E-02-7.45059E-04-6.96860E-14
 -1      2393 1.35130E-02-7.57680E-04-7.11069E-14
 -1      2394 1.32912E-02-7.01773E-04-6.89566E-14
 -1      2395 1.36577E-02-7.70007E-04-7.25353E-14
 -1      2396 1.38021E-02-7.82011E-04-7.39679E-14
 -1      2397 1.35801E-02-7.27024E-04-7.17932E-14
 -1      2398 1.39462E-02-7.93682E-04-7.54110E-14
 -1      2399 1.40901E-02-8.04999E-04-7.68608E-14
 -1      2400 1.38681E-02-7.51042E-04-7.46648E-14
 -1      2401 1.42337E-02-8.15968E-04-7.83160E-14
 -1      2402 1.43772E-02-8.26576E-04-7.97783E-14
 -1      2403 1.41553E-02-7.73693E-04-7.75650E-14
 -1      2404 1.04670E-02-4.83879E-05-3.80042E-14
 -1      2405 1.05759E-02-7.83431E-05-3.83270E-14
 -1      2406 1.86481E-03 5.17665E-04-1.51279E-15
 -1      2407 1.72441E-03 5.06119E-04-1.27688E-15
 -1      2408 2.14543E-03 5.34054E-04-2.04624E-15
 -1      2409 2.00513E-03 5.26918E-04-1.76913E-15
 -1      2410 1.92463E-03 4.86428E-04-1.70025E-15
 -1      2411 2.42643E-03 5.43225E-04-2.66051E-15
 -1      2412 2.28586E-03 5.39440E-04-2.34311E-15
 -1      2413 2.20731E-03 5.00621E-04-2.26060E-15
 -1      2414 2.70832E-03 5.46884E-04-3.35722E-15
 -1      2415 2.56725E-03 5.45664E-04-2.99862E-15
 -1      2416 2.49018E-03 5.08105E-04-2.90215E-15
 -1      2417 2.99150E-03 5.46311E-04-4.13515E-15
 -1      2418 2.84974E-03 5.47064E-04-3.73589E-15
 -1      2419 2.77367E-03 5.10448E-04-3.62449E-15
 -1      2420 3.27629E-03 5.42486E-04-4.99327E-15
 -1      2421 3.13368E-03 5.44753E-04-4.55425E-15
 -1      2422 3.05812E-03 5.08836E-04-4.42840E-15
 -1      2423 3.56299E-03 5.36208E-04-5.92920E-15
 -1      2424 3.41938E-03 5.39607E-04-5.45146E-15
 -1      2425 3.34379E-03 5.04181E-04-5.31096E-15
 -1      2426 3.85191E-03 5.28202E-04-6.94403E-15
 -1      2427 3.70714E-03 5.32374E-04-6.42691E-15
 -1      2428 3.63097E-03 4.97239E-04-6.27123E-15
 -1      2429 4.14343E-03 5.19241E-04-8.03517E-15
 -1      2430 3.99731E-03 5.23787E-04-7.47982E-15
 -1      2431 3.91992E-03 4.88719E-04-7.30915E-15
 -1      2432 4.43795E-03 5.10270E-04-9.20322E-15
 -1      2433 4.29027E-03 5.14688E-04-8.60991E-15
 -1      2434 4.21098E-03 4.79397E-04-8.42393E-15
 -1      2435 4.73594E-03 5.02556E-04-1.04448E-14
 -1      2436 4.58646E-03 5.06164E-04-9.81474E-15
 -1      2437 4.50452E-03 4.70249E-04-9.61410E-15
 -1      2438 5.03792E-03 4.97843E-04-1.17575E-14
 -1      2439 4.88639E-03 4.99701E-04-1.10924E-14
 -1      2440 4.80099E-03 4.62595E-04-1.08769E-14
 -1      2441 5.34443E-03 4.98506E-04-1.31356E-14
 -1      2442 5.19057E-03 4.97339E-04-1.24388E-14
 -1      2443 5.10094E-03 4.58255E-04-1.22092E-14
 -1      2444 5.65598E-03 5.07652E-04-1.45800E-14
 -1      2445 5.49956E-03 5.01811E-04-1.38500E-14
 -1      2446 5.40505E-03 4.59700E-04-1.36078E-14
 -1      2447 5.97298E-03 5.29076E-04-1.60896E-14
 -1      2448 5.81384E-03 5.16584E-04-1.53266E-14
 -1      2449 5.71413E-03 4.70142E-04-1.50709E-14
 -1      2450 6.29555E-03 5.66918E-04-1.76640E-14
 -1      2451 6.13368E-03 5.45696E-04-1.68687E-14
 -1      2452 6.02905E-03 4.93500E-04-1.65993E-14
 -1      2453 6.62320E-03 6.24753E-04-1.93017E-14
 -1      2454 6.45897E-03 5.93163E-04-1.84746E-14
 -1      2455 6.35062E-03 5.34044E-04-1.81923E-14
 -1      2456 6.95434E-03 7.03851E-04-2.10078E-14
 -1      2457 6.78870E-03 6.61703E-04-2.01469E-14
 -1      2458 6.67905E-03 5.95475E-04-1.98489E-14
 -1      2459 7.28575E-03 8.00509E-04-2.27744E-14
 -1      2460 7.12047E-03 7.50471E-04-2.18826E-14
 -1      2461 7.01312E-03 6.79019E-04-2.15692E-14
 -1      2462 7.61278E-03 9.03245E-04-2.46077E-14
 -1      2463 7.45023E-03 8.52219E-04-2.36823E-14
 -1      2464 7.34924E-03 7.80401E-04-2.33512E-14
 -1      2465 7.93109E-03 9.91957E-04-2.65102E-14
 -1      2466 7.77308E-03 9.50913E-04-2.55507E-14
 -1      2467 7.68152E-03 8.86251E-04-2.52007E-14
 -1      2468 8.23999E-03 1.04271E-03-2.84792E-14
 -1      2469 8.08621E-03 1.02349E-03-2.74864E-14
 -1      2470 8.00455E-03 9.73232E-04-2.71191E-14
 -1      2471 8.54424E-03 1.03806E-03-3.05195E-14
 -1      2472 8.39174E-03 1.04791E-03-2.94907E-14
 -1      2473 8.31783E-03 1.01495E-03-2.91064E-14
 -1      2474 8.85199E-03 9.76431E-04-3.26313E-14
 -1      2475 8.69683E-03 1.01358E-03-3.15664E-14
 -1      2476 8.62814E-03 9.94445E-04-3.11639E-14
 -1      2477 9.16883E-03 8.73965E-04-3.48197E-14
 -1      2478 9.00901E-03 9.28833E-04-3.37162E-14
 -1      2479 8.94468E-03 9.15874E-04-3.32954E-14
 -1      2480 9.49479E-03 7.54352E-04-3.70828E-14
 -1      2481 9.33093E-03 8.14815E-04-3.59412E-14
 -1      2482 9.27158E-03 8.01383E-04-3.55004E-14
 -1      2483 9.82592E-03 6.38576E-04-3.94217E-14
 -1      2484 9.66020E-03 6.94999E-04-3.82427E-14
 -1      2485 9.60608E-03 6.77572E-04-3.77814E-14
 -1      2486 1.01574E-02 5.39310E-04-4.18330E-14
 -1      2487 9.99206E-03 5.86463E-04-4.06185E-14
 -1      2488 9.94208E-03 5.64304E-04-4.01369E-14
 -1      2489 1.04858E-02 4.61077E-04-4.43145E-14
 -1      2490 1.03223E-02 4.97536E-04-4.30653E-14
 -1      2491 1.02744E-02 4.71236E-04-4.25639E-14
 -1      2492 1.08094E-02 4.03072E-04-4.68624E-14
 -1      2493 1.06484E-02 4.29718E-04-4.55798E-14
 -1      2494 1.06005E-02 4.00185E-04-4.50601E-14
 -1      2495 1.11275E-02 3.61886E-04-4.94721E-14
 -1      2496 1.09692E-02 3.80616E-04-4.81592E-14
 -1      2497 1.09198E-02 3.48704E-04-4.76216E-14
 -1      2498 1.14402E-02 3.33387E-04-5.21440E-14
 -1      2499 1.12845E-02 3.46286E-04-5.08004E-14
 -1      2500 1.12327E-02 3.12714E-04-5.02442E-14
 -1      2501 1.17480E-02 3.13714E-04-5.48719E-14
 -1      2502 1.15947E-02 3.22647E-04-5.35013E-14
 -1      2503 1.15403E-02 2.88003E-04-5.29265E-14
 -1      2504 1.20514E-02 2.99693E-04-5.76528E-14
 -1      2505 1.19002E-02 3.06154E-04-5.62563E-14
 -1      2506 1.18433E-02 2.70902E-04-5.56642E-14
 -1      2507 1.23511E-02 2.88909E-04-6.04811E-14
 -1      2508 1.22017E-02 2.94013E-04-5.90602E-14
 -1      2509 1.21427E-02 2.58510E-04-5.84524E-14
 -1      2510 1.26475E-02 2.79635E-04-6.33500E-14
 -1      2511 1.24997E-02 2.84167E-04-6.19125E-14
 -1      2512 1.24390E-02 2.48668E-04-6.12873E-14
 -1      2513 1.29413E-02 2.70692E-04-6.62526E-14
 -1      2514 1.27947E-02 2.75179E-04-6.47967E-14
 -1      2515 1.27328E-02 2.39859E-04-6.41586E-14
 -1      2516 1.32330E-02 2.61316E-04-6.91838E-14
 -1      2517 1.30874E-02 2.66096E-04-6.77147E-14
 -1      2518 1.30246E-02 2.31064E-04-6.70602E-14
 -1      2519 1.35229E-02 2.51039E-04-7.21499E-14
 -1      2520 1.33781E-02 2.56314E-04-7.06629E-14
 -1      2521 1.33147E-02 2.21636E-04-6.99933E-14
 -1      2522 1.38115E-02 2.39590E-04-7.51366E-14
 -1      2523 1.36673E-02 2.45476E-04-7.36419E-14
 -1      2524 1.36036E-02 2.11185E-04-7.29546E-14
 -1      2525 1.40990E-02 2.26835E-04-7.81542E-14
 -1      2526 1.39553E-02 2.33385E-04-7.66411E-14
 -1      2527 1.38915E-02 1.99493E-04-7.59439E-14
 -1      2528 1.43857E-02 2.12738E-04-8.11852E-14
 -1      2529 1.42425E-02 2.19960E-04-7.96678E-14
 -1      2530 1.41785E-02 1.86463E-04-7.89550E-14
 -1      2531 1.45335E-02 2.05964E-04-8.27574E-14
 -1      2532 1.45287E-02-1.15659E-04-8.22355E-14
 -1      2533 1.45189E-02-7.50361E-05-8.22025E-14
 -1      2534 1.45478E-02-1.96433E-04-8.23041E-14
 -1      2535 1.45383E-02-1.56114E-04-8.22692E-14
 -1      2536 1.44104E-02-1.29142E-04-8.09593E-14
 -1      2537 1.44900E-02 4.65625E-05-8.20892E-14
 -1      2538 1.44805E-02 8.79448E-05-8.20475E-14
 -1      2539 1.45092E-02-3.45789E-05-8.21654E-14
 -1      2540 1.44996E-02 5.71972E-06-8.21272E-14
 -1      2541 1.43712E-02 3.27300E-05-8.08039E-14
 -1      2542 1.43908E-02-4.84346E-05-8.08844E-14
 -1      2543 1.45661E-02-2.76745E-04-8.23719E-14
 -1      2544 1.45571E-02-2.36627E-04-8.23368E-14
 -1      2545 1.44296E-02-2.09532E-04-8.10317E-14
 -1      2546 1.45833E-02-3.56843E-04-8.24420E-14
 -1      2547 1.45749E-02-3.16798E-04-8.24059E-14
 -1      2548 1.44478E-02-2.89487E-04-8.11036E-14
 -1      2549 1.45994E-02-4.36999E-04-8.25099E-14
 -1      2550 1.45915E-02-3.96891E-04-8.24757E-14
 -1      2551 1.44647E-02-3.69281E-04-8.11749E-14
 -1      2552 1.46142E-02-5.16115E-04-8.25789E-14
 -1      2553 1.46069E-02-4.76499E-04-8.25456E-14
 -1      2554 1.44802E-02-4.48531E-04-8.12457E-14
 -1      2555 1.46286E-02-5.97146E-04-8.26502E-14
 -1      2556 1.46214E-02-5.56547E-04-8.26157E-14
 -1      2557 1.44948E-02-5.28189E-04-8.13185E-14
 -1      2558 1.46428E-02-6.78903E-04-8.27124E-14
 -1      2559 1.46357E-02-6.37927E-04-8.26815E-14
 -1      2560 1.45088E-02-6.09179E-04-8.13888E-14
 -1      2561 1.46575E-02-7.61459E-04-8.27654E-14
 -1      2562 1.46501E-02-7.20082E-04-8.27371E-14
 -1      2563 1.45229E-02-6.90988E-04-8.14477E-14
 -1      2564 1.47491E-02-8.40075E-04-8.36141E-14
 -1      2565 9.69649E-03 2.91404E-04-3.58023E-14
 -1      2566 9.88767E-03 1.91660E-04-3.63278E-14
 -1      2567 1.58379E-03 4.91754E-04-1.06154E-15
 -1      2568 1.44279E-03 4.74362E-04-8.66562E-16
 -1      2569 1.64157E-03 4.63425E-04-1.22103E-15
 -1      2570 9.33027E-03 5.03701E-04-3.45867E-14
 -1      2571 9.47865E-03 4.13309E-04-3.51421E-14
 -1      2572 1.06345E-02-1.60688E-04-3.86549E-14
 -1      2573 1.05170E-02-1.92419E-04-3.83908E-14
 -1      2574 9.66889E-03-5.72177E-04-3.65488E-14
 -1      2575 9.49185E-03-6.74553E-04-3.59261E-14
 -1      2576 8.46572E-03-1.09891E-03-3.15447E-14
 -1      2577 8.33356E-03-1.07791E-03-3.08751E-14
 -1      2578 5.47056E-04-2.27167E-05-2.88181E-16
 -1      2579 5.47509E-04-3.86390E-05-2.90038E-16
 -1      2580 6.63012E-04-5.53365E-05-3.92793E-16
 -1      2581 6.61788E-04-1.75423E-05-3.87955E-16
 -1      2582 8.29199E-03 8.74177E-04-2.97923E-14
 -1      2583 8.42065E-03 8.88459E-04-3.04181E-14
 -1      2584 1.00988E-02-3.52406E-04-3.76420E-14
 -1      2585 9.91974E-03-4.38747E-04-3.72718E-14
 -1      2586 8.60569E-03 8.68236E-04-3.13449E-14
 -1      2587 8.76872E-03 8.11250E-04-3.21636E-14
 -1      2588 7.99115E-03 7.69316E-04-2.84668E-14
 -1      2589 8.14351E-03 8.35240E-04-2.91164E-14
 -1      2590 7.62606E-03 5.70483E-04-2.71866E-14
 -1      2591 7.79721E-03 6.70811E-04-2.77362E-14
 -1      2592 7.26316E-03 3.63557E-04-2.61790E-14
 -1      2593 7.43639E-03 4.62276E-04-2.66359E-14
 -1      2594 6.85868E-03 1.62516E-04-2.54241E-14
 -1      2595 7.03412E-03 2.44735E-04-2.56938E-14
 -1      2596 6.53723E-03 3.61047E-05-2.48321E-14
 -1      2597 6.69118E-03 9.16117E-05-2.51279E-14
 -1      2598 6.75778E-03 1.21933E-04-2.48155E-14
 -1      2599 6.28764E-03-3.62853E-05-2.44167E-14
 -1      2600 6.37928E-03-1.44480E-05-2.44926E-14
 -1      2601 6.19477E-03-6.26730E-05-2.43410E-14
 -1      2602 6.22108E-03-5.48644E-05-2.43789E-14
 -1      2603 6.22872E-03-4.45058E-05-2.38162E-14
 -1      2604 6.29356E-03-9.38999E-05-2.48138E-14
 -1      2605 6.22931E-03-7.94506E-05-2.46176E-14
 -1      2606 6.53196E-03-1.63869E-04-2.52378E-14
 -1      2607 6.39526E-03-1.22701E-04-2.49939E-14
 -1      2608 6.94466E-03-3.33986E-04-2.60737E-14
 -1      2609 6.73443E-03-2.40614E-04-2.56125E-14
 -1      2610 7.37900E-03-5.69430E-04-2.73424E-14
 -1      2611 7.20452E-03-4.68889E-04-2.67977E-14
 -1      2612 7.70539E-03-7.65872E-04-2.82547E-14
 -1      2613 7.54692E-03-6.67410E-04-2.77971E-14
 -1      2614 7.47313E-03-6.25307E-04-2.73072E-14
 -1      2615 8.10573E-03-9.95260E-04-2.97859E-14
 -1      2616 7.90727E-03-8.84892E-04-2.89574E-14
 -1      2617 8.69394E-03-1.07685E-03-3.26597E-14
 -1      2618 8.58042E-03-1.09722E-03-3.21000E-14
 -1      2619 8.53076E-03-1.10584E-03-3.18907E-14
 -1      2620 9.02631E-03-9.42212E-04-3.41778E-14
 -1      2621 8.85807E-03-1.02379E-03-3.34139E-14
 -1      2622 8.78543E-03-1.05615E-03-3.32019E-14
 -1      2623 9.35548E-03-7.54244E-04-3.54735E-14
 -1      2624 9.22496E-03-8.33806E-04-3.50224E-14
 -1      2625 9.43860E-03-7.13550E-04-3.61171E-14
 -1      2626 1.03846E-02-2.37593E-04-3.81258E-14
 -1      2627 1.02609E-02-2.83433E-04-3.79051E-14
 -1      2628 1.01927E-02-3.16290E-04-3.82953E-14
 -1      2629 1.04737E-02-2.09653E-04-3.88285E-14
 -1      2630 1.07422E-02-1.32462E-04-3.89128E-14
 -1      2631 1.07135E-02-1.39157E-04-3.88682E-14
 -1      2632 5.88307E-04-2.37110E-04-2.54245E-16
 -1      2633 7.80982E-04-3.03421E-04-4.00572E-16
 -1      2634 8.40631E-04-2.91983E-04-4.83920E-16
 -1      2635 5.78910E-04-2.09300E-04-2.66958E-16
 -1      2636 7.57273E-04 3.32884E-04-2.13195E-16
 -1      2637 6.10961E-04 2.83924E-04-1.37450E-16
 -1      2638 5.84385E-04 2.57215E-04-1.45785E-16
 -1      2639 8.13308E-04 3.21360E-04-2.88493E-16
 -1      2640 8.43837E-03 8.96263E-04-3.04211E-14
 -1      2641 8.51691E-03 8.88298E-04-3.08809E-14
 -1      2642 8.60383E-03 8.75244E-04-3.13478E-14
 -1      2643 6.70605E-04-1.37021E-04-3.89947E-16
 -1      2644 5.54898E-04-1.25492E-04-2.86975E-16
 -1      2645 5.58037E-04-1.45422E-04-2.82760E-16
 -1      2646 1.35740E-03 4.28807E-04-8.23546E-16
 -1      2647 5.72076E-04 2.27042E-04-1.68458E-16
 -1      2648 1.07561E-02-1.28210E-04-3.92813E-14
 -1      2649 9.22640E-03 5.69352E-04-3.43879E-14
 -1      2650 9.12456E-03-8.97359E-04-3.48059E-14
 -1      2651 1.06514E-02-9.98450E-05-3.88957E-14
 -1      2652 1.07116E-02-1.10871E-04-3.94664E-14
 -1      2653 1.06186E-02-8.93782E-05-3.93235E-14
 -1      2654 1.00117E-02 1.31393E-04-3.69363E-14
 -1      2655 1.03850E-02-2.16766E-05-3.80786E-14
 -1      2656 9.60192E-03 3.45528E-04-3.57971E-14
 -1      2657 1.44696E-02 1.72852E-04-8.20375E-14
 -1      2658 1.06838E-02-1.51443E-04-3.93119E-14
 -1      2659 1.44608E-02 1.40861E-04-8.19051E-14
 -1      2660 1.46029E-02-8.45037E-04-8.20863E-14
 -1      2661 1.46390E-02-7.95529E-04-8.25283E-14
 -1      2662 1.45113E-02-7.66133E-04-8.12391E-14
 -1      2663 1.44743E-02-8.34382E-04-8.07683E-14
 -1      2664 7.81550E-03-8.37495E-04-2.84558E-14
 -1      2665 6.89429E-04 2.50079E-04-2.50613E-16
 -1      2666 1.43415E-02 1.26377E-04-8.06176E-14
 -1      2667 7.06305E-03-3.92185E-04-2.61361E-14
 -1      2668 6.92833E-03-3.34476E-04-2.54801E-14
 -1      2669 7.16760E-03-4.55074E-04-2.61937E-14
 -1      2670 6.62018E-03-1.97266E-04-2.50505E-14
 -1      2671 8.30739E-03-1.08146E-03-3.06938E-14
 -1      2672 8.21428E-03-1.04584E-03-3.02376E-14
 -1      2673 8.09992E-03-1.00203E-03-2.96059E-14
 -1      2674 6.19088E-03-6.64283E-05-2.40533E-14
 -1      2675 6.43888E-03 8.67846E-06-2.41882E-14
 -1      2676 7.13502E-03 3.00821E-04-2.55856E-14
 -1      2677 7.53055E-03 5.21744E-04-2.66110E-14
 -1      2678 7.89029E-03 7.25373E-04-2.78816E-14
 -1      2679 9.80249E-03-5.03714E-04-3.73004E-14
 -1      2680 9.70531E-03-5.71300E-04-3.73260E-14
 -1      2681 9.93235E-03-4.50396E-04-3.80572E-14
 -1      2682 8.86934E-03 7.69748E-04-3.27258E-14
 -1      2683 5.64455E-04-1.64150E-04-2.80429E-16
 -1      2684 5.69777E-04-1.87191E-04-2.72961E-16
 -1      2685 6.97873E-04-2.26583E-04-3.74402E-16
 -1      2686 6.80955E-04-1.80592E-04-3.83658E-16
 -1      2687 8.20655E-03 8.59108E-04-2.92848E-14
 -1      2688 6.33232E-03-1.03872E-04-2.45043E-14
 -1      2689 1.43957E-02-7.92416E-04-8.00122E-14
 -1      2690 7.80713E-04 7.66175E-05-4.76480E-16
 -1      2691 7.79456E-04 5.49451E-05-4.84882E-16
 -1      2692 7.78610E-04 3.32375E-05-4.92065E-16
 -1      2693 7.78188E-04 1.17856E-05-4.98069E-16
 -1      2694 8.97012E-04 4.91446E-05-6.18185E-16
 -1      2695 7.91937E-04 1.71831E-04-4.26972E-16
 -1      2696 7.87986E-04 1.46530E-04-4.42287E-16
 -1      2697 8.03600E-04 2.26864E-04-3.89838E-16
 -1      2698 7.97095E-04 1.98546E-04-4.09883E-16
 -1      2699 9.15231E-04 2.06109E-04-5.34159E-16
 -1      2700 1.12964E-03 3.59194E-04-6.15380E-16
 -1      2701 9.86032E-04 3.30733E-04-4.73729E-16
 -1      2702 1.42187E-02 8.07124E-05-7.92537E-14
 -1      2703 1.41984E-02 1.33403E-04-7.91033E-14
 -1      2704 1.40552E-02 1.40105E-04-7.76012E-14
 -1      2705 1.41596E-03 4.03582E-04-9.59939E-16
 -1      2706 1.27286E-03 3.83357E-04-7.77346E-16
 -1      2707 1.18972E-03 3.38469E-04-7.28692E-16
 -1      2708 8.02993E-04 2.76736E-04-3.34883E-16
 -1      2709 1.32023E-03-3.59064E-04-1.11125E-15
 -1      2710 1.46351E-03-3.77205E-04-1.34077E-15
 -1      2711 1.60663E-03-3.92323E-04-1.59180E-15
 -1      2712 1.74966E-03-4.04640E-04-1.86462E-15
 -1      2713 1.52530E-03-3.50558E-04-1.48004E-15
 -1      2714 1.89256E-03-4.14605E-04-2.15893E-15
 -1      2715 2.03537E-03-4.22398E-04-2.47479E-15
 -1      2716 1.81210E-03-3.74331E-04-2.02635E-15
 -1      2717 2.17811E-03-4.28374E-04-2.81321E-15
 -1      2718 2.32081E-03-4.32676E-04-3.17262E-15
 -1      2719 2.09872E-03-3.89457E-04-2.65882E-15
 -1      2720 2.46350E-03-4.35575E-04-3.55288E-15
 -1      2721 2.60620E-03-4.37183E-04-3.95503E-15
 -1      2722 2.38511E-03-3.97843E-04-3.37619E-15
 -1      2723 2.74894E-03-4.37699E-04-4.37882E-15
 -1      2724 2.89174E-03-4.37213E-04-4.82183E-15
 -1      2725 2.67134E-03-4.00997E-04-4.17830E-15
 -1      2726 3.03462E-03-4.35874E-04-5.28553E-15
 -1      2727 3.17761E-03-4.33751E-04-5.76919E-15
 -1      2728 2.95747E-03-4.00074E-04-5.06306E-15
 -1      2729 3.32070E-03-4.30959E-04-6.27159E-15
 -1      2730 3.46394E-03-4.27558E-04-6.79372E-15
 -1      2731 3.24359E-03-3.95959E-04-6.02686E-15
 -1      2732 3.60732E-03-4.23644E-04-7.33407E-15
 -1      2733 3.75089E-03-4.19274E-04-7.89231E-15
 -1      2734 3.52975E-03-3.89350E-04-7.06740E-15
 -1      2735 3.89461E-03-4.14546E-04-8.46834E-15
 -1      2736 4.03857E-03-4.09523E-04-9.06121E-15
 -1      2737 3.81600E-03-3.80847E-04-8.18100E-15
 -1      2738 4.18273E-03-4.04320E-04-9.67096E-15
 -1      2739 4.32718E-03-3.99020E-04-1.02984E-14
 -1      2740 4.10241E-03-3.71050E-04-9.36476E-15
 -1      2741 4.47187E-03-3.93778E-04-1.09410E-14
 -1      2742 4.61693E-03-3.88711E-04-1.15998E-14
 -1      2743 4.38903E-03-3.60670E-04-1.06150E-14
 -1      2744 4.76231E-03-3.84032E-04-1.22751E-14
 -1      2745 4.90819E-03-3.79918E-04-1.29659E-14
 -1      2746 4.67604E-03-3.50641E-04-1.19311E-14
 -1      2747 5.05453E-03-3.76657E-04-1.36728E-14
 -1      2748 5.20155E-03-3.74520E-04-1.43959E-14
 -1      2749 4.96374E-03-3.42268E-04-1.33107E-14
 -1      2750 5.34930E-03-3.73882E-04-1.51362E-14
 -1      2751 5.49804E-03-3.75156E-04-1.58922E-14
 -1      2752 5.25277E-03-3.37370E-04-1.47560E-14
 -1      2753 5.64795E-03-3.78798E-04-1.66628E-14
 -1      2754 5.79936E-03-3.85448E-04-1.74522E-14
 -1      2755 5.54431E-03-3.38475E-04-1.62654E-14
 -1      2756 5.95268E-03-3.95604E-04-1.82576E-14
 -1      2757 6.10824E-03-4.10243E-04-1.90780E-14
 -1      2758 5.84051E-03-3.49052E-04-1.78400E-14
 -1      2759 6.26677E-03-4.29830E-04-1.99147E-14
 -1      2760 6.42851E-03-4.55825E-04-2.07685E-14
 -1      2761 6.14488E-03-3.73848E-04-1.94795E-14
 -1      2762 6.59456E-03-4.88506E-04-2.16373E-14
 -1      2763 6.76464E-03-5.29719E-04-2.25196E-14
 -1      2764 6.46266E-03-4.19523E-04-2.11826E-14
 -1      2765 6.94017E-03-5.79474E-04-2.34185E-14
 -1      2766 7.11948E-03-6.39299E-04-2.43317E-14
 -1      2767 6.80013E-03-4.94841E-04-2.29452E-14
 -1      2768 7.30382E-03-7.08425E-04-2.52595E-14
 -1      2769 7.48970E-03-7.86086E-04-2.62016E-14
 -1      2770 7.16155E-03-6.10215E-04-2.47681E-14
 -1      2771 7.67811E-03-8.69945E-04-2.71586E-14
 -1      2772 7.86341E-03-9.53536E-04-2.81283E-14
 -1      2773 7.54335E-03-7.69514E-04-2.66475E-14
 -1      2774 8.08328E-03-1.03781E-03-2.93541E-14
 -1      2775 8.26151E-03-1.09804E-03-3.03576E-14
 -1      2776 8.72985E-03-1.12922E-03-3.32148E-14
 -1      2777 8.90373E-03-1.08623E-03-3.42832E-14
 -1      2778 9.08134E-03-1.02302E-03-3.53708E-14
 -1      2779 9.26410E-03-9.51113E-04-3.64760E-14
 -1      2780 9.00391E-03-1.02529E-03-3.47854E-14
 -1      2781 9.45033E-03-8.75508E-04-3.75971E-14
 -1      2782 9.63617E-03-8.03890E-04-3.87361E-14
 -1      2783 9.38109E-03-8.67110E-04-3.69938E-14
 -1      2784 9.82146E-03-7.39217E-04-3.98907E-14
 -1      2785 1.00024E-02-6.83371E-04-4.10594E-14
 -1      2786 9.76234E-03-7.18109E-04-3.92694E-14
 -1      2787 1.01800E-02-6.37422E-04-4.22461E-14
 -1      2788 1.03523E-02-6.00285E-04-4.34433E-14
 -1      2789 1.01284E-02-6.08657E-04-4.16096E-14
 -1      2790 1.05206E-02-5.72002E-04-4.46521E-14
 -1      2791 1.06844E-02-5.50905E-04-4.58758E-14
 -1      2792 1.04720E-02-5.39894E-04-4.40051E-14
 -1      2793 1.08449E-02-5.36648E-04-4.71092E-14
 -1      2794 1.10021E-02-5.27774E-04-4.83529E-14
 -1      2795 1.07955E-02-5.03115E-04-4.64495E-14
 -1      2796 1.11570E-02-5.23770E-04-4.96060E-14
 -1      2797 1.13097E-02-5.23609E-04-5.08700E-14
 -1      2798 1.11045E-02-4.89418E-04-4.89381E-14
 -1      2799 1.14608E-02-5.26753E-04-5.21442E-14
 -1      2800 1.16105E-02-5.32511E-04-5.34285E-14
 -1      2801 1.14043E-02-4.91664E-04-5.14677E-14
 -1      2802 1.17592E-02-5.40395E-04-5.47256E-14
 -1      2803 1.19071E-02-5.49951E-04-5.60289E-14
 -1      2804 1.16986E-02-5.04608E-04-5.40410E-14
 -1      2805 1.20542E-02-5.60777E-04-5.73433E-14
 -1      2806 1.22007E-02-5.72577E-04-5.86709E-14
 -1      2807 1.19897E-02-5.24395E-04-5.66569E-14
 -1      2808 1.23468E-02-5.85046E-04-6.00066E-14
 -1      2809 1.24924E-02-5.97992E-04-6.13529E-14
 -1      2810 1.22790E-02-5.48224E-04-5.93115E-14
 -1      2811 1.26377E-02-6.11198E-04-6.27073E-14
 -1      2812 1.27827E-02-6.24542E-04-6.40719E-14
 -1      2813 1.25673E-02-5.74105E-04-6.20048E-14
 -1      2814 1.29274E-02-6.37879E-04-6.54495E-14
 -1      2815 1.30719E-02-6.51133E-04-6.68356E-14
 -1      2816 1.28549E-02-6.00669E-04-6.47376E-14
 -1      2817 1.32161E-02-6.64214E-04-6.82338E-14
 -1      2818 1.33602E-02-6.77077E-04-6.96417E-14
 -1      2819 1.31421E-02-6.27015E-04-6.75110E-14
 -1      2820 1.35041E-02-6.89670E-04-7.10589E-14
 -1      2821 1.36479E-02-7.01968E-04-7.24870E-14
 -1      2822 1.34289E-02-6.52579E-04-7.03268E-14
 -1      2823 1.37915E-02-7.13947E-04-7.39216E-14
 -1      2824 1.39350E-02-7.25596E-04-7.53648E-14
 -1      2825 1.37155E-02-6.77035E-04-7.31792E-14
 -1      2826 1.40784E-02-7.36903E-04-7.68152E-14
 -1      2827 1.42216E-02-7.47858E-04-7.82716E-14
 -1      2828 1.40018E-02-7.00231E-04-7.60663E-14
 -1      2829 7.86608E-03-8.97485E-04-2.83821E-14
 -1      2830 7.70031E-03-7.92876E-04-2.76888E-14
 -1      2831 1.98585E-03 4.54486E-04-1.89210E-15
 -1      2832 1.84362E-03 4.45574E-04-1.62889E-15
 -1      2833 2.83918E-03 4.73661E-04-3.89577E-15
 -1      2834 2.69676E-03 4.73614E-04-3.51139E-15
 -1      2835 3.12453E-03 4.71140E-04-4.72460E-15
 -1      2836 2.98176E-03 4.72809E-04-4.30041E-15
 -1      2837 2.90480E-03 4.36656E-04-4.17030E-15
 -1      2838 3.41074E-03 4.65789E-04-5.63124E-15
 -1      2839 3.26751E-03 4.68776E-04-5.16823E-15
 -1      2840 3.19073E-03 4.33348E-04-5.02362E-15
 -1      2841 3.69803E-03 4.58321E-04-6.61637E-15
 -1      2842 3.55423E-03 4.62280E-04-6.11452E-15
 -1      2843 3.47713E-03 4.27428E-04-5.95552E-15
 -1      2844 3.98662E-03 4.49425E-04-7.67787E-15
 -1      2845 3.84214E-03 4.54010E-04-7.13718E-15
 -1      2846 3.76416E-03 4.19567E-04-6.96359E-15
 -1      2847 4.27681E-03 4.39877E-04-8.81483E-15
 -1      2848 4.13148E-03 4.44681E-04-8.23635E-15
 -1      2849 4.05201E-03 4.10425E-04-8.04841E-15
 -1      2850 4.56892E-03 4.30668E-04-1.00272E-14
 -1      2851 4.42258E-03 4.35161E-04-9.41227E-15
 -1      2852 4.34091E-03 4.00771E-04-9.20833E-15
 -1      2853 4.86344E-03 4.23151E-04-1.13112E-14
 -1      2854 4.71583E-03 4.26602E-04-1.06603E-14
 -1      2855 4.63120E-03 3.91596E-04-1.04426E-14
 -1      2856 5.16099E-03 4.19186E-04-1.26632E-14
 -1      2857 5.01178E-03 4.20589E-04-1.19787E-14
 -1      2858 4.92337E-03 3.84254E-04-1.17470E-14
 -1      2859 5.46244E-03 4.21290E-04-1.40811E-14
 -1      2860 5.31116E-03 4.19293E-04-1.33640E-14
 -1      2861 5.21816E-03 3.80605E-04-1.31189E-14
 -1      2862 5.76897E-03 4.32736E-04-1.55639E-14
 -1      2863 5.61501E-03 4.25597E-04-1.48146E-14
 -1      2864 5.51673E-03 3.83163E-04-1.45567E-14
 -1      2865 6.08209E-03 4.57542E-04-1.71109E-14
 -1      2866 5.92467E-03 4.43159E-04-1.63289E-14
 -1      2867 5.82072E-03 3.95221E-04-1.60583E-14
 -1      2868 6.40335E-03 5.00178E-04-1.87208E-14
 -1      2869 6.24173E-03 4.76289E-04-1.79081E-14
 -1      2870 6.13232E-03 4.20916E-04-1.76228E-14
 -1      2871 6.73377E-03 5.64691E-04-2.03945E-14
 -1      2872 6.56760E-03 5.29422E-04-1.95496E-14
 -1      2873 6.45401E-03 4.65072E-04-1.92507E-14
 -1      2874 7.07246E-03 6.52700E-04-2.21306E-14
 -1      2875 6.90252E-03 6.05802E-04-2.12558E-14
 -1      2876 6.78760E-03 5.32485E-04-2.09404E-14
 -1      2877 7.41510E-03 7.59639E-04-2.39267E-14
 -1      2878 7.24395E-03 7.04489E-04-2.30201E-14
 -1      2879 7.13230E-03 6.25599E-04-2.26900E-14
 -1      2880 7.75395E-03 8.70135E-04-2.57947E-14
 -1      2881 7.58566E-03 8.16205E-04-2.48525E-14
 -1      2882 7.48258E-03 7.39883E-04-2.45046E-14
 -1      2883 8.08194E-03 9.56220E-04-2.77298E-14
 -1      2884 7.91930E-03 9.18446E-04-2.67537E-14
 -1      2885 7.82828E-03 8.56392E-04-2.63875E-14
 -1      2886 8.39872E-03 9.87596E-04-2.97336E-14
 -1      2887 8.24038E-03 9.80544E-04-2.87222E-14
 -1      2888 8.16015E-03 9.41307E-04-2.83407E-14
 -1      2889 8.71524E-03 9.48191E-04-3.18088E-14
 -1      2890 8.55580E-03 9.76511E-04-3.07625E-14
 -1      2891 8.48176E-03 9.58072E-04-3.03615E-14
 -1      2892 9.04108E-03 8.50156E-04-3.39581E-14
 -1      2893 8.87624E-03 9.04400E-04-3.28740E-14
 -1      2894 8.80648E-03 8.95461E-04-3.24559E-14
 -1      2895 9.37867E-03 7.23665E-04-3.61814E-14
 -1      2896 9.20881E-03 7.88244E-04-3.50615E-14
 -1      2897 9.14415E-03 7.77155E-04-3.46216E-14
 -1      2898 9.72133E-03 5.97522E-04-3.84795E-14
 -1      2899 9.55019E-03 6.59070E-04-3.73207E-14
 -1      2900 9.49294E-03 6.40819E-04-3.68640E-14
 -1      2901 1.00610E-02 4.89052E-04-4.08528E-14
 -1      2902 9.89218E-03 5.40565E-04-3.96573E-14
 -1      2903 9.84226E-03 5.15679E-04-3.91796E-14
 -1      2904 1.03927E-02 4.03873E-04-4.32947E-14
 -1      2905 1.02282E-02 4.43593E-04-4.20647E-14
 -1      2906 1.01833E-02 4.14522E-04-4.15669E-14
 -1      2907 1.07154E-02 3.40916E-04-4.58036E-14
 -1      2908 1.05553E-02 3.69896E-04-4.45402E-14
 -1      2909 1.05124E-02 3.38571E-04-4.40242E-14
 -1      2910 1.10297E-02 2.96264E-04-4.83780E-14
 -1      2911 1.08735E-02 3.16624E-04-4.70839E-14
 -1      2912 1.08302E-02 2.84107E-04-4.65477E-14
 -1      2913 1.13373E-02 2.65414E-04-5.10150E-14
 -1      2914 1.11842E-02 2.79401E-04-4.96904E-14
 -1      2915 1.11389E-02 2.46165E-04-4.91364E-14
 -1      2916 1.16396E-02 2.44260E-04-5.37088E-14
 -1      2917 1.14890E-02 2.53854E-04-5.23542E-14
 -1      2918 1.14408E-02 2.20114E-04-5.17855E-14
 -1      2919 1.19381E-02 2.29446E-04-5.64551E-14
 -1      2920 1.17893E-02 2.36234E-04-5.50744E-14
 -1      2921 1.17380E-02 2.02133E-04-5.44895E-14
 -1      2922 1.22335E-02 2.18397E-04-5.92507E-14
 -1      2923 1.20861E-02 2.23577E-04-5.78478E-14
 -1      2924 1.20320E-02 1.89244E-04-5.72446E-14
 -1      2925 1.25267E-02 2.09243E-04-6.20895E-14
 -1      2926 1.23803E-02 2.13671E-04-6.06651E-14
 -1      2927 1.23237E-02 1.79234E-04-6.00471E-14
 -1      2928 1.28180E-02 2.00687E-04-6.49621E-14
 -1      2929 1.26725E-02 2.04950E-04-6.35230E-14
 -1      2930 1.26139E-02 1.70521E-04-6.28895E-14
 -1      2931 1.31079E-02 1.91871E-04-6.78633E-14
 -1      2932 1.29631E-02 1.96349E-04-6.64099E-14
 -1      2933 1.29029E-02 1.62022E-04-6.57617E-14
 -1      2934 1.33966E-02 1.82257E-04-7.07970E-14
 -1      2935 1.32524E-02 1.87187E-04-6.93263E-14
 -1      2936 1.31910E-02 1.53035E-04-6.86641E-14
 -1      2937 1.36845E-02 1.71535E-04-7.37573E-14
 -1      2938 1.35407E-02 1.77048E-04-7.22738E-14
 -1      2939 1.34785E-02 1.43127E-04-7.15950E-14
 -1      2940 1.39418E-02 1.52999E-04-7.64237E-14
 -1      2941 1.37983E-02 1.59093E-04-7.49283E-14
 -1      2942 1.37357E-02 1.25469E-04-7.42368E-14
 -1      2943 1.39625E-02 1.00323E-04-7.65778E-14
 -1      2944 1.07348E-02-1.48323E-04-4.00417E-14
 -1      2945 1.06566E-02-1.64421E-04-3.98240E-14
 -1      2946 1.43295E-02-3.02104E-04-7.98391E-14
 -1      2947 1.43207E-02-2.62367E-04-7.98023E-14
 -1      2948 1.42924E-02-1.42638E-04-7.96863E-14
 -1      2949 1.42825E-02-1.02428E-04-7.96465E-14
 -1      2950 1.43461E-02-3.81532E-04-7.99147E-14
 -1      2951 1.43380E-02-3.41805E-04-7.98786E-14
 -1      2952 1.42114E-02-3.14530E-04-7.85837E-14
 -1      2953 1.43116E-02-2.22576E-04-7.97624E-14
 -1      2954 1.43021E-02-1.82672E-04-7.97241E-14
 -1      2955 1.41746E-02-1.56085E-04-7.84190E-14
 -1      2956 1.41937E-02-2.35495E-04-7.85017E-14
 -1      2957 1.02822E-02 1.86539E-05-3.82713E-14
 -1      2958 1.04429E-02-3.37316E-05-3.89480E-14
 -1      2959 1.43611E-02-4.59831E-04-7.99854E-14
 -1      2960 1.43537E-02-4.20631E-04-7.99495E-14
 -1      2961 1.42274E-02-3.92870E-04-7.86594E-14
 -1      2962 1.43753E-02-5.40000E-04-8.00603E-14
 -1      2963 1.43683E-02-4.99830E-04-8.00229E-14
 -1      2964 1.42421E-02-4.71535E-04-7.87330E-14
 -1      2965 1.43890E-02-6.20938E-04-8.01261E-14
 -1      2966 1.43822E-02-5.80360E-04-8.00928E-14
 -1      2967 1.42558E-02-5.51528E-04-7.88035E-14
 -1      2968 1.70126E-03 4.34303E-04-1.38542E-15
 -1      2969 1.55870E-03 4.20479E-04-1.16248E-15
 -1      2970 1.47625E-03 3.77585E-04-1.10114E-15
 -1      2971 1.76243E-03 4.04542E-04-1.55449E-15
 -1      2972 1.44145E-02-7.58414E-04-8.02468E-14
 -1      2973 1.44334E-02-7.24572E-04-8.04801E-14
 -1      2974 1.43176E-02-7.50542E-04-7.92558E-14
 -1      2975 9.21009E-03-8.63874E-04-3.54571E-14
 -1      2976 9.03422E-03-9.60205E-04-3.46047E-14
 -1      2977 9.53809E-03 3.92406E-04-3.58752E-14
 -1      2978 9.73017E-03 2.80097E-04-3.65457E-14
 -1      2979 7.00748E-03 2.50613E-04-2.48447E-14
 -1      2980 7.20858E-03 3.56673E-04-2.53182E-14
 -1      2981 8.13845E-03 8.45901E-04-2.88070E-14
 -1      2982 8.26687E-03 8.82522E-04-2.94793E-14
 -1      2983 2.55446E-03 4.72507E-04-3.14736E-15
 -1      2984 2.41226E-03 4.70238E-04-2.80293E-15
 -1      2985 2.61918E-03 4.36576E-04-3.39607E-15
 -1      2986 2.27012E-03 4.66591E-04-2.47895E-15
 -1      2987 2.12800E-03 4.61439E-04-2.17532E-15
 -1      2988 2.33372E-03 4.32121E-04-2.70179E-15
 -1      2989 1.03371E-03-3.11898E-04-7.18297E-16
 -1      2990 1.17699E-03-3.37374E-04-9.03750E-16
 -1      2991 1.23865E-03-3.15857E-04-1.01987E-15
 -1      2992 7.84874E-04 1.22411E-04-4.55135E-16
 -1      2993 7.82507E-04 9.91320E-05-4.66519E-16
 -1      2994 9.00129E-04 9.84283E-05-5.97544E-16
 -1      2995 9.05839E-04 1.50167E-04-5.70006E-16
 -1      2996 9.15349E-03 6.23333E-04-3.42375E-14
 -1      2997 9.31621E-03 5.25345E-04-3.49853E-14
 -1      2998 1.07697E-02-1.25279E-04-3.99318E-14
 -1      2999 1.07847E-02-1.32461E-04-4.01802E-14
 -1      3000 7.82247E-04-9.70793E-05-5.12746E-16
 -1      3001 7.84538E-04-1.20276E-04-5.12014E-16
 -1      3002 8.79112E-03 8.15945E-04-3.23931E-14
 -1      3003 8.96171E-03 7.31219E-04-3.33121E-14
 -1      3004 6.35586E-03-1.12302E-04-2.41207E-14
 -1      3005 6.26559E-03-8.95229E-05-2.39470E-14
 -1      3006 7.79625E-03 6.88526E-04-2.72332E-14
 -1      3007 7.96459E-03 7.77357E-04-2.79561E-14
 -1      3008 7.43351E-03 4.79145E-04-2.60053E-14
 -1      3009 7.60056E-03 5.77020E-04-2.65469E-14
 -1      3010 6.66697E-03 9.66479E-05-2.42154E-14
 -1      3011 6.81582E-03 1.57886E-04-2.45040E-14
 -1      3012 6.36274E-03-1.42713E-06-2.35854E-14
 -1      3013 6.51091E-03 3.97190E-05-2.39176E-14
 -1      3014 6.17558E-03-4.65370E-05-2.32440E-14
 -1      3015 6.23228E-03-3.40170E-05-2.32807E-14
 -1      3016 6.68005E-03-2.26925E-04-2.47648E-14
 -1      3017 6.50193E-03-1.59895E-04-2.44003E-14
 -1      3018 7.46837E-03-6.31687E-04-2.70846E-14
 -1      3019 7.32078E-03-5.40790E-04-2.66373E-14
 -1      3020 7.17151E-03-4.70175E-04-2.59755E-14
 -1      3021 6.19767E-03-7.20960E-05-2.37318E-14
 -1      3022 6.15979E-03-6.18204E-05-2.34605E-14
 -1      3023 8.59155E-03-1.10910E-03-3.22552E-14
 -1      3024 8.49282E-03-1.11203E-03-3.16972E-14
 -1      3025 9.52524E-03-6.84366E-04-3.68505E-14
 -1      3026 9.40834E-03-7.55175E-04-3.63889E-14
 -1      3027 9.91819E-03 1.81161E-04-3.71678E-14
 -1      3028 1.01047E-02 9.13094E-05-3.76448E-14
 -1      3029 1.01966E-02 6.85458E-05-3.85082E-14
 -1      3030 9.84567E-03 2.33650E-04-3.72494E-14
 -1      3031 7.99470E-04-2.53725E-04-4.67129E-16
 -1      3032 9.30754E-04-2.88850E-04-6.00079E-16
 -1      3033 9.93029E-04-2.73322E-04-6.94825E-16
 -1      3034 7.89436E-04-2.27819E-04-4.73729E-16
 -1      3035 7.87551E-04-1.44286E-04-5.09778E-16
 -1      3036 7.91362E-04-1.69346E-04-5.05753E-16
 -1      3037 9.05378E-04-1.47646E-04-6.45751E-16
 -1      3038 8.95983E-04 1.00797E-06-6.33079E-16
 -1      3039 7.78159E-04-9.61654E-06-5.03110E-16
 -1      3040 7.78524E-04-3.10518E-05-5.07136E-16
 -1      3041 8.64928E-04 2.64861E-04-4.15832E-16
 -1      3042 1.06496E-02-1.81203E-04-4.04327E-14
 -1      3043 1.05713E-02-1.90050E-04-3.97015E-14
 -1      3044 1.42408E-02-7.14119E-04-7.85040E-14
 -1      3045 9.66458E-03-6.23616E-04-3.76015E-14
 -1      3046 8.35976E-03 8.99120E-04-2.99333E-14
 -1      3047 6.77803E-03-2.75423E-04-2.48223E-14
 -1      3048 6.63905E-03-2.32717E-04-2.41726E-14
 -1      3049 6.87002E-03-3.29786E-04-2.48783E-14
 -1      3050 9.38105E-03 5.18914E-04-3.55733E-14
 -1      3051 9.45053E-03 4.57665E-04-3.57261E-14
 -1      3052 9.58404E-03 3.96965E-04-3.64746E-14
 -1      3053 1.05448E-02-6.26181E-05-3.95214E-14
 -1      3054 1.06331E-02-8.08550E-05-4.00979E-14
 -1      3055 1.04698E-02-2.66038E-05-3.97179E-14
 -1      3056 6.13393E-03-5.34424E-05-2.29290E-14
 -1      3057 6.11278E-03-4.38605E-05-2.24016E-14
 -1      3058 6.10930E-03-5.79315E-05-2.26136E-14
 -1      3059 6.27164E-03-1.36909E-05-2.30159E-14
 -1      3060 6.31624E-03 1.22882E-05-2.27497E-14
 -1      3061 6.19167E-03-1.82276E-05-2.24515E-14
 -1      3062 8.39216E-03-1.13775E-03-3.11341E-14
 -1      3063 8.56198E-03-1.14817E-03-3.21656E-14
 -1      3064 6.56041E-03 7.44778E-05-2.36110E-14
 -1      3065 1.44263E-02-6.83380E-04-8.04527E-14
 -1      3066 7.28462E-03 4.20231E-04-2.52526E-14
 -1      3067 2.04820E-03 4.22004E-04-2.08808E-15
 -1      3068 1.07938E-02-1.41731E-04-4.06961E-14
 -1      3069 1.07945E-02-1.52721E-04-4.12159E-14
 -1      3070 1.08375E-02-1.39070E-04-4.13568E-14
 -1      3071 7.68720E-03 6.47212E-04-2.66157E-14
 -1      3072 1.41546E-02-7.63326E-05-7.83389E-14
 -1      3073 1.42726E-02-6.23697E-05-7.96088E-14
 -1      3074 1.42626E-02-2.20991E-05-7.95669E-14
 -1      3075 1.42285E-02 3.98585E-05-7.92993E-14
 -1      3076 6.40361E-03-1.37168E-04-2.38422E-14
 -1      3077 9.06116E-03 6.91292E-04-3.38986E-14
 -1      3078 1.42994E-02-6.53991E-04-7.91642E-14
 -1      3079 8.70492E-03 8.53689E-04-3.19204E-14
 -1      3080 8.80298E-03 8.27491E-04-3.24973E-14
 -1      3081 8.62694E-03 8.82180E-04-3.14496E-14
 -1      3082 8.33914E-03-1.10174E-03-3.08297E-14
 -1      3083 9.31373E-03-8.31978E-04-3.61792E-14
 -1      3084 8.03259E-03 8.18875E-04-2.81437E-14
 -1      3085 6.89264E-03 2.17295E-04-2.42397E-14
 -1      3086 1.03070E-02-2.81407E-04-3.91121E-14
 -1      3087 1.01684E-02-3.42188E-04-3.88437E-14
 -1      3088 7.79304E-04-5.26327E-05-5.10076E-16
 -1      3089 7.80519E-04-7.46292E-05-5.12001E-16
 -1      3090 8.99854E-04-9.60834E-05-6.47255E-16
 -1      3091 8.96887E-04-4.69975E-05-6.42715E-16
 -1      3092 1.00702E-02-4.00383E-04-3.88699E-14
 -1      3093 9.98306E-03-4.63055E-04-3.88950E-14
 -1      3094 1.02009E-02-3.65034E-04-3.96902E-14
 -1      3095 9.83125E-04 2.73687E-04-5.43809E-16
 -1      3096 8.86673E-03-1.03766E-03-3.37675E-14
 -1      3097 8.72647E-03-1.08716E-03-3.30069E-14
 -1      3098 1.07666E-02-1.19510E-04-4.03674E-14
 -1      3099 8.64669E-03-1.12420E-03-3.26512E-14
 -1      3100 8.68194E-03-1.10529E-03-3.28082E-14
 -1      3101 6.20135E-03-7.93672E-05-2.33549E-14
 -1      3102 8.96516E-03-1.01120E-03-3.44036E-14
 -1      3103 1.04572E-02-2.24731E-04-3.94303E-14
 -1      3104 1.04064E-03 2.41062E-04-6.52405E-16
 -1      3105 1.03410E-03 2.09490E-04-6.76217E-16
 -1      3106 1.07340E-02-1.78542E-04-4.13612E-14
 -1      3107 1.06626E-02-2.00378E-04-4.12345E-14
 -1      3108 1.41029E-02-6.75839E-04-7.71211E-14
 -1      3109 1.41987E-02-6.78680E-04-7.81040E-14
 -1      3110 1.41620E-02-6.16288E-04-7.77771E-14
 -1      3111 1.39601E-02-6.64733E-04-7.56676E-14
 -1      3112 6.20293E-03-8.90036E-05-2.29309E-14
 -1      3113 6.14083E-03-7.35998E-05-2.27217E-14
 -1      3114 7.55248E-03-7.16372E-04-2.70132E-14
 -1      3115 1.44497E-03-3.09527E-04-1.36996E-15
 -1      3116 1.58849E-03-3.23104E-04-1.62209E-15
 -1      3117 7.96532E-03-9.60762E-04-2.88220E-14
 -1      3118 1.73209E-03-3.34335E-04-1.89556E-15
 -1      3119 1.87576E-03-3.43386E-04-2.19021E-15
 -1      3120 1.65275E-03-2.94837E-04-1.76646E-15
 -1      3121 2.01941E-03-3.50570E-04-2.50632E-15
 -1      3122 2.16304E-03-3.56028E-04-2.84384E-15
 -1      3123 1.94040E-03-3.11863E-04-2.35628E-15
 -1      3124 2.30661E-03-3.60023E-04-3.20191E-15
 -1      3125 2.45011E-03-3.62667E-04-3.58060E-15
 -1      3126 2.22817E-03-3.22202E-04-3.02953E-15
 -1      3127 2.59353E-03-3.64169E-04-3.98061E-15
 -1      3128 2.73687E-03-3.64616E-04-4.40185E-15
 -1      3129 2.51569E-03-3.27253E-04-3.78624E-15
 -1      3130 2.88013E-03-3.64170E-04-4.84240E-15
 -1      3131 3.02330E-03-3.62896E-04-5.30343E-15
 -1      3132 2.80274E-03-3.28153E-04-4.62461E-15
 -1      3133 3.16637E-03-3.60921E-04-5.78445E-15
 -1      3134 3.30936E-03-3.58295E-04-6.28400E-15
 -1      3135 3.08919E-03-3.25794E-04-5.54393E-15
 -1      3136 3.45224E-03-3.55124E-04-6.80304E-15
 -1      3137 3.59503E-03-3.51446E-04-7.34021E-15
 -1      3138 3.37492E-03-3.20873E-04-6.54103E-15
 -1      3139 3.73769E-03-3.47363E-04-7.89550E-15
 -1      3140 3.88025E-03-3.42909E-04-8.46861E-15
 -1      3141 3.65979E-03-3.13959E-04-7.61221E-15
 -1      3142 4.02267E-03-3.38194E-04-9.05925E-15
 -1      3143 4.16500E-03-3.33260E-04-9.66700E-15
 -1      3144 3.94367E-03-3.05570E-04-8.75572E-15
 -1      3145 4.30717E-03-3.28237E-04-1.02913E-14
 -1      3146 4.44926E-03-3.23187E-04-1.09319E-14
 -1      3147 4.22643E-03-2.96251E-04-9.96818E-15
 -1      3148 4.59120E-03-3.18276E-04-1.15885E-14
 -1      3149 4.73310E-03-3.13598E-04-1.22614E-14
 -1      3150 4.50795E-03-2.86658E-04-1.12476E-14
 -1      3151 4.87490E-03-3.09368E-04-1.29504E-14
 -1      3152 5.01677E-03-3.05736E-04-1.36551E-14
 -1      3153 4.78822E-03-2.77644E-04-1.25908E-14
 -1      3154 5.15869E-03-3.02967E-04-1.43766E-14
 -1      3155 5.30092E-03-3.01305E-04-1.51152E-14
 -1      3156 5.06741E-03-2.70348E-04-1.39996E-14
 -1      3157 5.44351E-03-3.01059E-04-1.58694E-14
 -1      3158 5.58686E-03-3.02638E-04-1.66386E-14
 -1      3159 5.34612E-03-2.66291E-04-1.54731E-14
 -1      3160 5.73118E-03-3.06362E-04-1.74246E-14
 -1      3161 5.87709E-03-3.12950E-04-1.82277E-14
 -1      3162 5.62575E-03-2.67511E-04-1.70118E-14
 -1      3163 6.02503E-03-3.22690E-04-1.90466E-14
 -1      3164 6.17586E-03-3.36822E-04-1.98801E-14
 -1      3165 5.90903E-03-2.76865E-04-1.86144E-14
 -1      3166 6.33045E-03-3.55635E-04-2.07305E-14
 -1      3167 6.48973E-03-3.81298E-04-2.15959E-14
 -1      3168 6.20082E-03-2.98642E-04-2.02812E-14
 -1      3169 6.65549E-03-4.13708E-04-2.24754E-14
 -1      3170 6.82763E-03-4.56658E-04-2.33695E-14
 -1      3171 6.50967E-03-3.40211E-04-2.20065E-14
 -1      3172 7.35120E-03-6.20449E-04-2.60622E-14
 -1      3173 7.19793E-03-5.79524E-04-2.51987E-14
 -1      3174 7.17374E-03-5.06718E-04-2.55530E-14
 -1      3175 7.03915E-03-4.33980E-04-2.51203E-14
 -1      3176 7.01025E-03-5.11850E-04-2.42762E-14
 -1      3177 6.46011E-03 6.23696E-05-2.29587E-14
 -1      3178 6.60035E-03 1.12904E-04-2.32492E-14
 -1      3179 9.83423E-03-5.56893E-04-3.85835E-14
 -1      3180 9.67734E-03-6.58658E-04-3.80965E-14
 -1      3181 9.70250E-03-6.94097E-04-3.86035E-14
 -1      3182 9.89287E-03-6.28079E-04-3.97561E-14
 -1      3183 1.00779E-02-5.75594E-04-4.09250E-14
 -1      3184 1.02545E-02-5.34161E-04-4.21099E-14
 -1      3185 1.00331E-02-5.40601E-04-4.02438E-14
 -1      3186 1.04248E-02-5.03877E-04-4.33066E-14
 -1      3187 1.05883E-02-4.81373E-04-4.45161E-14
 -1      3188 1.03833E-02-4.65401E-04-4.26080E-14
 -1      3189 1.07468E-02-4.66546E-04-4.57376E-14
 -1      3190 1.09010E-02-4.57127E-04-4.69718E-14
 -1      3191 1.07035E-02-4.28576E-04-4.50279E-14
 -1      3192 1.10519E-02-4.52775E-04-4.82172E-14
 -1      3193 1.12003E-02-4.52094E-04-4.94725E-14
 -1      3194 1.10038E-02-4.15816E-04-4.74952E-14
 -1      3195 1.13468E-02-4.54745E-04-5.07374E-14
 -1      3196 1.14920E-02-4.59892E-04-5.20144E-14
 -1      3197 1.12930E-02-4.18248E-04-5.00070E-14
 -1      3198 1.16361E-02-4.67188E-04-5.33032E-14
 -1      3199 1.17796E-02-4.76130E-04-5.46029E-14
 -1      3200 1.15767E-02-4.30590E-04-5.25640E-14
 -1      3201 1.19226E-02-4.86396E-04-5.59106E-14
 -1      3202 1.20654E-02-4.97675E-04-5.72293E-14
 -1      3203 1.18582E-02-4.49369E-04-5.51630E-14
 -1      3204 1.22080E-02-5.09697E-04-5.85589E-14
 -1      3205 1.23506E-02-5.22266E-04-5.98987E-14
 -1      3206 1.21392E-02-4.72136E-04-5.78056E-14
 -1      3207 1.24931E-02-5.35174E-04-6.12452E-14
 -1      3208 1.26356E-02-5.48294E-04-6.26015E-14
 -1      3209 1.24207E-02-4.97116E-04-6.04843E-14
 -1      3210 1.27781E-02-5.61477E-04-6.39687E-14
 -1      3211 1.29207E-02-5.74645E-04-6.53460E-14
 -1      3212 1.27028E-02-5.23029E-04-6.32004E-14
 -1      3213 1.30633E-02-5.87698E-04-6.67320E-14
 -1      3214 1.32060E-02-6.00589E-04-6.81291E-14
 -1      3215 1.29857E-02-5.48988E-04-6.59547E-14
 -1      3216 1.33487E-02-6.13256E-04-6.95368E-14
 -1      3217 1.34914E-02-6.25670E-04-7.09527E-14
 -1      3218 1.32693E-02-5.74404E-04-6.87476E-14
 -1      3219 1.36342E-02-6.37796E-04-7.23800E-14
 -1      3220 1.37769E-02-6.49625E-04-7.38153E-14
 -1      3221 1.35535E-02-5.98915E-04-7.15805E-14
 -1      3222 2.97053E-03 3.99505E-04-4.44759E-15
 -1      3223 2.82744E-03 4.00379E-04-4.03827E-15
 -1      3224 3.82943E-03 3.81104E-04-7.31405E-15
 -1      3225 3.68618E-03 3.85347E-04-6.78869E-15
 -1      3226 4.11618E-03 3.71858E-04-8.42149E-15
 -1      3227 3.97275E-03 3.76587E-04-7.85861E-15
 -1      3228 3.89386E-03 3.43035E-04-7.66725E-15
 -1      3229 4.40343E-03 3.62218E-04-9.60457E-15
 -1      3230 4.25971E-03 3.67040E-04-9.00335E-15
 -1      3231 4.17916E-03 3.33813E-04-8.79754E-15
 -1      3232 4.69150E-03 3.53154E-04-1.08599E-14
 -1      3233 4.54732E-03 3.57548E-04-1.02236E-14
 -1      3234 4.46440E-03 3.24289E-04-1.00028E-14
 -1      3235 4.98092E-03 3.45986E-04-1.21851E-14
 -1      3236 4.83598E-03 3.49237E-04-1.15140E-14
 -1      3237 4.74988E-03 3.15382E-04-1.12793E-14
 -1      3238 5.27259E-03 3.42525E-04-1.35762E-14
 -1      3239 5.12639E-03 3.43652E-04-1.28721E-14
 -1      3240 5.03618E-03 3.08340E-04-1.26244E-14
 -1      3241 5.56794E-03 3.45225E-04-1.50338E-14
 -1      3242 5.41969E-03 3.42901E-04-1.42969E-14
 -1      3243 5.32434E-03 3.04869E-04-1.40355E-14
 -1      3244 5.86910E-03 3.57355E-04-1.65540E-14
 -1      3245 5.71764E-03 3.49819E-04-1.57864E-14
 -1      3246 5.61608E-03 3.07307E-04-1.55127E-14
 -1      3247 6.17906E-03 3.83182E-04-1.81382E-14
 -1      3248 6.02282E-03 3.68150E-04-1.73390E-14
 -1      3249 5.91409E-03 3.18860E-04-1.70532E-14
 -1      3250 6.50131E-03 4.28041E-04-1.97809E-14
 -1      3251 6.33855E-03 4.02711E-04-1.89513E-14
 -1      3252 6.22222E-03 3.43985E-04-1.86532E-14
 -1      3253 6.83872E-03 4.97847E-04-2.14872E-14
 -1      3254 6.66827E-03 4.59284E-04-2.06261E-14
 -1      3255 6.54517E-03 3.88832E-04-2.03125E-14
 -1      3256 7.19099E-03 5.96721E-04-2.32509E-14
 -1      3257 7.01369E-03 5.43562E-04-2.23625E-14
 -1      3258 6.88713E-03 4.61241E-04-2.20327E-14
 -1      3259 7.55133E-03 7.20043E-04-2.50829E-14
 -1      3260 7.37140E-03 6.56075E-04-2.41578E-14
 -1      3261 7.24815E-03 5.67444E-04-2.38130E-14
 -1      3262 7.94434E-03 8.31194E-04-2.73358E-14
 -1      3263 7.76441E-03 7.66470E-04-2.63721E-14
 -1      3264 8.26696E-03 9.17355E-04-2.91751E-14
 -1      3265 8.09631E-03 8.83703E-04-2.81791E-14
 -1      3266 8.85046E-03 8.49653E-04-3.27714E-14
 -1      3267 8.68075E-03 9.00292E-04-3.17127E-14
 -1      3268 9.25473E-03 6.96428E-04-3.52861E-14
 -1      3269 9.07697E-03 7.68886E-04-3.41835E-14
 -1      3270 9.61467E-03 5.53194E-04-3.75446E-14
 -1      3271 9.43511E-03 6.22738E-04-3.64066E-14
 -1      3272 9.37811E-03 6.06748E-04-3.59509E-14
 -1      3273 9.96854E-03 4.33006E-04-3.98768E-14
 -1      3274 9.79346E-03 4.89615E-04-3.87015E-14
 -1      3275 9.74652E-03 4.62504E-04-3.82274E-14
 -1      3276 1.03082E-02 3.41923E-04-4.22815E-14
 -1      3277 1.01406E-02 3.84111E-04-4.10714E-14
 -1      3278 1.01008E-02 3.51572E-04-4.05767E-14
 -1      3279 1.06325E-02 2.76436E-04-4.47539E-14
 -1      3280 1.04723E-02 3.06482E-04-4.35089E-14
 -1      3281 1.04355E-02 2.72538E-04-4.29972E-14
 -1      3282 1.09440E-02 2.30709E-04-4.72923E-14
 -1      3283 1.07897E-02 2.51574E-04-4.60146E-14
 -1      3284 1.07526E-02 2.17936E-04-4.54851E-14
 -1      3285 1.12463E-02 1.99214E-04-4.98946E-14
 -1      3286 1.10962E-02 2.13540E-04-4.85860E-14
 -1      3287 1.10567E-02 1.80572E-04-4.80382E-14
 -1      3288 1.15425E-02 1.77528E-04-5.25541E-14
 -1      3289 1.13950E-02 1.87400E-04-5.12158E-14
 -1      3290 1.13521E-02 1.54891E-04-5.06508E-14
 -1      3291 1.18347E-02 1.62273E-04-5.52680E-14
 -1      3292 1.16889E-02 1.69278E-04-5.39049E-14
 -1      3293 1.16424E-02 1.36950E-04-5.33224E-14
 -1      3294 1.21245E-02 1.50919E-04-5.80333E-14
 -1      3295 1.19798E-02 1.56235E-04-5.66453E-14
 -1      3296 1.19298E-02 1.23895E-04-5.60478E-14
 -1      3297 1.24128E-02 1.41627E-04-6.08398E-14
 -1      3298 1.22688E-02 1.46102E-04-5.94307E-14
 -1      3299 1.22156E-02 1.13662E-04-5.88187E-14
 -1      3300 1.27003E-02 1.33101E-04-6.36820E-14
 -1      3301 1.25566E-02 1.37326E-04-6.22565E-14
 -1      3302 1.25009E-02 1.04775E-04-6.16295E-14
 -1      3303 1.29872E-02 1.24467E-04-6.65564E-14
 -1      3304 1.28438E-02 1.28835E-04-6.51171E-14
 -1      3305 1.27859E-02 9.62059E-05-6.44730E-14
 -1      3306 1.32737E-02 1.15164E-04-6.94581E-14
 -1      3307 1.31305E-02 1.19922E-04-6.80037E-14
 -1      3308 1.30709E-02 8.72688E-05-6.73485E-14
 -1      3309 1.35600E-02 1.04856E-04-7.23904E-14
 -1      3310 1.34169E-02 1.10148E-04-7.09200E-14
 -1      3311 1.33561E-02 7.75306E-05-7.02489E-14
 -1      3312 1.40935E-02-3.26725E-04-7.73346E-14
 -1      3313 1.40850E-02-2.87496E-04-7.72929E-14
 -1      3314 1.41362E-02-5.62757E-04-7.75546E-14
 -1      3315 1.41297E-02-5.22729E-04-7.75209E-14
 -1      3316 1.41089E-02-4.03941E-04-7.74084E-14
 -1      3317 1.41014E-02-3.65296E-04-7.73719E-14
 -1      3318 1.39755E-02-3.37975E-04-7.60887E-14
 -1      3319 7.15975E-03 3.88294E-04-2.44781E-14
 -1      3320 7.36185E-03 4.95249E-04-2.51526E-14
 -1      3321 2.68435E-03 4.00360E-04-3.64853E-15
 -1      3322 2.54122E-03 3.99371E-04-3.27840E-15
 -1      3323 2.74987E-03 3.63978E-04-3.90446E-15
 -1      3324 2.11163E-03 3.88979E-04-2.28822E-15
 -1      3325 1.96833E-03 3.82501E-04-1.99820E-15
 -1      3326 1.04336E-02-2.53643E-04-3.99861E-14
 -1      3327 8.45221E-03-1.11499E-03-3.14771E-14
 -1      3328 1.41231E-02-4.82945E-04-7.74837E-14
 -1      3329 1.41161E-02-4.43358E-04-7.74457E-14
 -1      3330 1.39905E-02-4.15369E-04-7.61647E-14
 -1      3331 1.40040E-02-4.94039E-04-7.62403E-14
 -1      3332 3.54299E-03 3.89212E-04-6.28165E-15
 -1      3333 3.39983E-03 3.92648E-04-5.79369E-15
 -1      3334 3.60833E-03 3.51250E-04-6.61107E-15
 -1      3335 3.25672E-03 3.95553E-04-5.32597E-15
 -1      3336 3.11362E-03 3.97876E-04-4.87762E-15
 -1      3337 3.03635E-03 3.62324E-04-4.72882E-15
 -1      3338 3.32250E-03 3.57869E-04-5.63160E-15
 -1      3339 1.15883E-03-2.74181E-04-9.29554E-16
 -1      3340 1.30174E-03-2.93287E-04-1.13906E-15
 -1      3341 1.36588E-03-2.69520E-04-1.26158E-15
 -1      3342 7.64559E-03 6.81399E-04-2.60025E-14
 -1      3343 1.05518E-02-2.35764E-04-4.09083E-14
 -1      3344 1.04248E-02-2.82689E-04-4.05824E-14
 -1      3345 1.06601E-02-2.27040E-04-4.18408E-14
 -1      3346 1.07528E-02-1.09176E-04-4.07867E-14
 -1      3347 1.08180E-02-1.22448E-04-4.12594E-14
 -1      3348 1.41101E-02 2.53028E-05-7.80290E-14
 -1      3349 2.39807E-03 3.97233E-04-2.92863E-15
 -1      3350 2.25488E-03 3.93847E-04-2.59843E-15
 -1      3351 2.46306E-03 3.62044E-04-3.15905E-15
 -1      3352 7.85779E-04-1.86178E-04-4.92323E-16
 -1      3353 7.93546E-04-2.09645E-04-4.89355E-16
 -1      3354 8.94459E-04-2.31520E-04-5.95945E-16
 -1      3355 9.03836E-04-1.93283E-04-6.27740E-16
 -1      3356 6.75259E-03 1.80660E-04-2.35178E-14
 -1      3357 6.91863E-03 2.63342E-04-2.38476E-14
 -1      3358 1.14519E-03 3.07787E-04-7.10234E-16
 -1      3359 1.08265E-03 2.69188E-04-6.75092E-16
 -1      3360 1.20181E-03 2.70138E-04-8.36611E-16
 -1      3361 1.28839E-03 3.29065E-04-8.84140E-16
 -1      3362 9.04139E-03 7.33683E-04-3.39011E-14
 -1      3363 9.21218E-03 6.36355E-04-3.48392E-14
 -1      3364 1.01704E-03 6.73828E-05-7.57966E-16
 -1      3365 1.01586E-03 4.07211E-05-7.68401E-16
 -1      3366 6.42134E-03-1.60038E-04-2.34013E-14
 -1      3367 6.29547E-03-1.18030E-04-2.31313E-14
 -1      3368 1.01526E-03 1.42768E-05-7.77237E-16
 -1      3369 1.01522E-03-1.20649E-05-7.84488E-16
 -1      3370 1.13586E-03 2.97522E-05-9.35043E-16
 -1      3371 9.79893E-03 2.79641E-04-3.73973E-14
 -1      3372 9.96626E-03 1.90815E-04-3.80292E-14
 -1      3373 1.15355E-03 2.09409E-04-8.35717E-16
 -1      3374 1.02880E-03 1.79288E-04-6.97074E-16
 -1      3375 1.02464E-03 1.50183E-04-7.15614E-16
 -1      3376 1.08696E-02-1.23560E-04-4.22102E-14
 -1      3377 1.08595E-02-1.31855E-04-4.17817E-14
 -1      3378 1.08906E-02-1.40970E-04-4.23083E-14
 -1      3379 1.40357E-02-5.86851E-04-7.64990E-14
 -1      3380 6.88567E-03-3.74844E-04-2.44652E-14
 -1      3381 7.47604E-03 5.84731E-04-2.53353E-14
 -1      3382 1.88864E-03 3.43092E-04-1.90618E-15
 -1      3383 1.82498E-03 3.74115E-04-1.72807E-15
 -1      3384 1.68157E-03 3.63657E-04-1.47773E-15
 -1      3385 1.02135E-03 1.21893E-04-7.31809E-16
 -1      3386 1.01886E-03 9.44002E-05-7.45999E-16
 -1      3387 1.13856E-03 8.74301E-05-9.10825E-16
 -1      3388 1.14421E-03 1.46893E-04-8.78272E-16
 -1      3389 9.34059E-03 5.79345E-04-3.55806E-14
 -1      3390 1.04041E-02 1.18289E-05-3.98901E-14
 -1      3391 1.05111E-02-1.82990E-05-4.04718E-14
 -1      3392 6.08599E-03-6.44702E-05-2.21980E-14
 -1      3393 6.12261E-03-3.02611E-05-2.21430E-14
 -1      3394 6.14082E-03-1.24668E-05-2.18829E-14
 -1      3395 6.06865E-03-3.78708E-05-2.18333E-14
 -1      3396 9.33637E-03-8.45762E-04-3.64998E-14
 -1      3397 9.15709E-03-9.38688E-04-3.55659E-14
 -1      3398 9.53416E-03-7.58993E-04-3.76224E-14
 -1      3399 6.63052E-03 1.58918E-04-2.28644E-14
 -1      3400 6.84851E-03-4.17098E-04-2.37884E-14
 -1      3401 9.97711E-03-5.08238E-04-3.93996E-14
 -1      3402 1.38784E-02-6.25921E-04-7.48603E-14
 -1      3403 8.41189E-03 9.38874E-04-3.00105E-14
 -1      3404 8.35776E-03 9.08077E-04-2.98346E-14
 -1      3405 6.49658E-03-1.94898E-04-2.34568E-14
 -1      3406 6.36705E-03-1.69862E-04-2.27497E-14
 -1      3407 6.57296E-03-2.35646E-04-2.35093E-14
 -1      3408 8.57667E-03 9.24910E-04-3.10399E-14
 -1      3409 1.39587E-02-2.60760E-04-7.60057E-14
 -1      3410 1.40761E-02-2.48245E-04-7.72509E-14
 -1      3411 1.40668E-02-2.08900E-04-7.72070E-14
 -1      3412 1.36735E-02 9.27244E-05-7.35515E-14
 -1      3413 1.36119E-02 6.02644E-05-7.28672E-14
 -1      3414 1.37869E-02 8.03916E-05-7.47143E-14
 -1      3415 7.33917E-03 5.50394E-04-2.45531E-14
 -1      3416 1.39971E-02 3.82184E-05-7.68553E-14
 -1      3417 1.38841E-02 5.09323E-05-7.56870E-14
 -1      3418 1.40318E-02-2.32763E-05-7.71316E-14
 -1      3419 1.40571E-02-1.69436E-04-7.71626E-14
 -1      3420 1.40471E-02-1.29790E-04-7.71202E-14
 -1      3421 1.39399E-02-1.82623E-04-7.59140E-14
 -1      3422 1.40447E-02-9.66032E-05-7.71479E-14
 -1      3423 1.40344E-02-5.68759E-05-7.71060E-14
 -1      3424 1.39220E-02-4.39988E-05-7.59419E-14
 -1      3425 1.39274E-02-1.10415E-04-7.58929E-14
 -1      3426 9.71458E-03 3.43949E-04-3.72447E-14
 -1      3427 9.84221E-03 2.99879E-04-3.80261E-14
 -1      3428 9.64294E-03 4.07376E-04-3.70926E-14
 -1      3429 8.96629E-03-1.01955E-03-3.44754E-14
 -1      3430 7.00421E-03 3.39447E-04-2.37482E-14
 -1      3431 1.55662E-03 3.56439E-04-1.26991E-15
 -1      3432 1.41320E-03 3.41162E-04-1.05764E-15
 -1      3433 1.36945E-03 3.11271E-04-1.03258E-15
 -1      3434 1.61967E-03 3.28569E-04-1.42330E-15
 -1      3435 8.51534E-03 9.04364E-04-3.07822E-14
 -1      3436 8.61483E-03 8.95248E-04-3.13477E-14
 -1      3437 1.03464E-02-3.28627E-04-4.06079E-14
 -1      3438 1.02717E-02-3.79897E-04-4.06320E-14
 -1      3439 1.04816E-02-3.05237E-04-4.15363E-14
 -1      3440 1.07089E-02-8.90070E-05-4.09887E-14
 -1      3441 2.17595E-03 3.55514E-04-2.49307E-15
 -1      3442 9.96145E-04-2.51918E-04-7.14286E-16
 -1      3443 6.34656E-03 4.43347E-05-2.23955E-14
 -1      3444 1.01860E-03-9.18772E-05-7.97146E-16
 -1      3445 1.02099E-03-1.19311E-04-7.98271E-16
 -1      3446 1.08177E-02-1.69195E-04-4.20278E-14
 -1      3447 8.51223E-03-1.12566E-03-3.18362E-14
 -1      3448 1.02418E-03-1.47467E-04-7.97661E-16
 -1      3449 1.02822E-03-1.76489E-04-7.94788E-16
 -1      3450 1.14376E-03-1.44041E-04-9.64574E-16
 -1      3451 6.20728E-03-1.07163E-04-2.25002E-14
 -1      3452 1.06036E-03-2.34777E-04-8.12460E-16
 -1      3453 8.68954E-03-1.11040E-03-3.28777E-14
 -1      3454 1.01121E-02 1.24425E-04-3.86384E-14
 -1      3455 1.02737E-02 5.77288E-05-3.92752E-14
 -1      3456 1.03326E-02 6.17803E-05-4.00247E-14
 -1      3457 1.00637E-02 1.71190E-04-3.87911E-14
 -1      3458 9.53226E-03 4.95585E-04-3.67012E-14
 -1      3459 1.01589E-02-4.59381E-04-4.05641E-14
 -1      3460 6.05744E-03-7.20899E-05-2.17097E-14
 -1      3461 6.03054E-03-5.56378E-05-2.16049E-14
 -1      3462 1.38536E-02-5.72459E-04-7.46387E-14
 -1      3463 1.57437E-03-2.56198E-04-1.63965E-15
 -1      3464 1.71807E-03-2.65772E-04-1.91333E-15
 -1      3465 1.86196E-03-2.73582E-04-2.20810E-15
 -1      3466 2.00600E-03-2.79768E-04-2.52358E-15
 -1      3467 1.78425E-03-2.35899E-04-2.06268E-15
 -1      3468 2.15005E-03-2.84538E-04-2.85991E-15
 -1      3469 2.29408E-03-2.87999E-04-3.21672E-15
 -1      3470 2.07239E-03-2.47147E-04-2.69274E-15
 -1      3471 2.43802E-03-2.90339E-04-3.59436E-15
 -1      3472 2.58184E-03-2.91642E-04-3.99255E-15
 -1      3473 2.36067E-03-2.53492E-04-3.40536E-15
 -1      3474 2.72550E-03-2.92065E-04-4.40990E-15
 -1      3475 2.86896E-03-2.91668E-04-4.84798E-15
 -1      3476 2.64851E-03-2.55922E-04-4.19848E-15
 -1      3477 3.01220E-03-2.90582E-04-5.30665E-15
 -1      3478 3.15520E-03-2.88847E-04-5.78441E-15
 -1      3479 2.93550E-03-2.55258E-04-5.07201E-15
 -1      3480 3.29791E-03-2.86574E-04-6.28161E-15
 -1      3481 3.44033E-03-2.83788E-04-6.79730E-15
 -1      3482 3.22131E-03-2.52156E-04-6.02471E-15
 -1      3483 3.58241E-03-2.80590E-04-7.33147E-15
 -1      3484 3.72415E-03-2.76998E-04-7.88387E-15
 -1      3485 3.50564E-03-2.47139E-04-7.05314E-15
 -1      3486 3.86549E-03-2.73114E-04-8.45386E-15
 -1      3487 4.00643E-03-2.68952E-04-9.04155E-15
 -1      3488 3.78818E-03-2.40659E-04-8.15414E-15
 -1      3489 4.14690E-03-2.64627E-04-9.64678E-15
 -1      3490 4.28693E-03-2.60157E-04-1.02690E-14
 -1      3491 4.06862E-03-2.33142E-04-9.32677E-15
 -1      3492 4.42642E-03-2.55680E-04-1.09065E-14
 -1      3493 4.56542E-03-2.51223E-04-1.15610E-14
 -1      3494 4.34662E-03-2.25054E-04-1.05680E-14
 -1      3495 4.70384E-03-2.46958E-04-1.22322E-14
 -1      3496 4.84178E-03-2.42929E-04-1.29194E-14
 -1      3497 4.62183E-03-2.16948E-04-1.18743E-14
 -1      3498 4.97912E-03-2.39342E-04-1.36226E-14
 -1      3499 5.11606E-03-2.36278E-04-1.43426E-14
 -1      3500 4.89397E-03-2.09502E-04-1.32470E-14
 -1      3501 5.25249E-03-2.33966E-04-1.50786E-14
 -1      3502 5.38874E-03-2.32561E-04-1.58313E-14
 -1      3503 5.16293E-03-2.03552E-04-1.46850E-14
 -1      3504 5.52476E-03-2.32291E-04-1.65999E-14
 -1      3505 5.66112E-03-2.33461E-04-1.73846E-14
 -1      3506 5.42895E-03-2.00103E-04-1.61885E-14
 -1      3507 5.79783E-03-2.36266E-04-1.81841E-14
 -1      3508 5.93593E-03-2.41388E-04-1.90000E-14
 -1      3509 5.69302E-03-2.00393E-04-1.77556E-14
 -1      3510 6.07549E-03-2.49003E-04-1.98319E-14
 -1      3511 6.21835E-03-2.60329E-04-2.06787E-14
 -1      3512 5.95759E-03-2.06335E-04-1.93849E-14
 -1      3513 6.40812E-03-2.60320E-04-2.19692E-14
 -1      3514 6.55956E-03-2.84200E-04-2.28509E-14
 -1      3515 6.49712E-03 1.39993E-04-2.21255E-14
 -1      3516 6.62963E-03 1.99935E-04-2.23860E-14
 -1      3517 4.52400E-03 2.87104E-04-1.04030E-14
 -1      3518 4.38261E-03 2.91751E-04-9.78037E-15
 -1      3519 1.03096E-02-4.21289E-04-4.14916E-14
 -1      3520 1.04719E-02-3.97050E-04-4.26825E-14
 -1      3521 1.06781E-02-3.85059E-04-4.43604E-14
 -1      3522 1.08262E-02-3.77763E-04-4.55818E-14
 -1      3523 1.09702E-02-3.75307E-04-4.68172E-14
 -1      3524 1.11118E-02-3.75913E-04-4.80637E-14
 -1      3525 1.09425E-02-3.34613E-04-4.61387E-14
 -1      3526 1.12513E-02-3.79440E-04-4.93209E-14
 -1      3527 1.13899E-02-3.84990E-04-5.05877E-14
 -1      3528 1.12137E-02-3.41307E-04-4.86335E-14
 -1      3529 1.15277E-02-3.92374E-04-5.18662E-14
 -1      3530 1.16654E-02-4.01131E-04-5.31598E-14
 -1      3531 1.14816E-02-3.55275E-04-5.11694E-14
 -1      3532 1.18029E-02-4.11034E-04-5.44629E-14
 -1      3533 1.19407E-02-4.21843E-04-5.57747E-14
 -1      3534 1.17499E-02-3.73987E-04-5.37567E-14
 -1      3535 1.20787E-02-4.33329E-04-5.70980E-14
 -1      3536 1.22171E-02-4.45357E-04-5.84314E-14
 -1      3537 1.20200E-02-3.95814E-04-5.63887E-14
 -1      3538 1.23559E-02-4.57725E-04-5.97740E-14
 -1      3539 1.24950E-02-4.70354E-04-6.11250E-14
 -1      3540 1.22925E-02-4.19534E-04-5.90591E-14
 -1      3541 1.26345E-02-4.83082E-04-6.24844E-14
 -1      3542 1.27745E-02-4.95863E-04-6.38526E-14
 -1      3543 1.25674E-02-4.44194E-04-6.17670E-14
 -1      3544 1.29147E-02-5.08577E-04-6.52294E-14
 -1      3545 1.30553E-02-5.21200E-04-6.66180E-14
 -1      3546 1.28447E-02-4.69065E-04-6.45056E-14
 -1      3547 1.31962E-02-5.33646E-04-6.80138E-14
 -1      3548 1.33374E-02-5.45908E-04-6.94212E-14
 -1      3549 1.31239E-02-4.93628E-04-6.72820E-14
 -1      3550 1.34788E-02-5.57933E-04-7.08398E-14
 -1      3551 1.36205E-02-5.69709E-04-7.22659E-14
 -1      3552 1.34047E-02-5.17534E-04-7.00987E-14
 -1      3553 4.24111E-03 2.96412E-04-9.17616E-15
 -1      3554 4.09941E-03 3.01027E-04-8.59026E-15
 -1      3555 4.30208E-03 2.59729E-04-9.55719E-15
 -1      3556 3.95755E-03 3.05475E-04-8.02287E-15
 -1      3557 3.81548E-03 3.09716E-04-7.47377E-15
 -1      3558 4.02055E-03 2.68513E-04-8.38119E-15
 -1      3559 4.80653E-03 2.78393E-04-1.17012E-14
 -1      3560 4.66526E-03 2.82618E-04-1.10437E-14
 -1      3561 4.58232E-03 2.50718E-04-1.08057E-14
 -1      3562 5.08929E-03 2.71415E-04-1.30663E-14
 -1      3563 4.94780E-03 2.74603E-04-1.23755E-14
 -1      3564 4.86154E-03 2.42214E-04-1.21243E-14
 -1      3565 5.37344E-03 2.67723E-04-1.44980E-14
 -1      3566 5.23107E-03 2.69028E-04-1.37733E-14
 -1      3567 5.14033E-03 2.35197E-04-1.35101E-14
 -1      3568 5.66095E-03 2.69477E-04-1.59935E-14
 -1      3569 5.51658E-03 2.67711E-04-1.52377E-14
 -1      3570 5.41992E-03 2.31005E-04-1.49615E-14
 -1      3571 5.95501E-03 2.79772E-04-1.75522E-14
 -1      3572 5.80689E-03 2.73217E-04-1.67647E-14
 -1      3573 5.70246E-03 2.31552E-04-1.64755E-14
 -1      3574 6.26034E-03 3.03268E-04-1.91673E-14
 -1      3575 6.10592E-03 2.89313E-04-1.83521E-14
 -1      3576 5.99160E-03 2.39765E-04-1.80504E-14
 -1      3577 6.58310E-03 3.47097E-04-2.08437E-14
 -1      3578 6.41924E-03 3.21768E-04-1.99990E-14
 -1      3579 6.29303E-03 2.60546E-04-1.96847E-14
 -1      3580 7.15059E-03 4.85610E-04-2.36438E-14
 -1      3581 1.07572E-02-2.24875E-04-4.27756E-14
 -1      3582 1.06592E-02-2.56910E-04-4.24423E-14
 -1      3583 8.95735E-03 7.82676E-04-3.34154E-14
 -1      3584 1.05653E-02 2.06075E-04-4.37149E-14
 -1      3585 1.04052E-02 2.35587E-04-4.24901E-14
 -1      3586 1.08727E-02 1.62591E-04-4.62166E-14
 -1      3587 1.07209E-02 1.82342E-04-4.49581E-14
 -1      3588 1.06942E-02 1.45199E-04-4.44341E-14
 -1      3589 1.11681E-02 1.33108E-04-4.87844E-14
 -1      3590 1.10216E-02 1.46587E-04-4.74929E-14
 -1      3591 1.09904E-02 1.12002E-04-4.69508E-14
 -1      3592 1.14563E-02 1.12564E-04-5.14089E-14
 -1      3593 1.13128E-02 1.21994E-04-5.00882E-14
 -1      3594 1.12766E-02 8.92274E-05-4.95288E-14
 -1      3595 1.17407E-02 9.77291E-05-5.40904E-14
 -1      3596 1.15988E-02 1.04609E-04-5.27425E-14
 -1      3597 1.15577E-02 7.28310E-05-5.21661E-14
 -1      3598 1.20234E-02 8.63481E-05-5.68272E-14
 -1      3599 1.18822E-02 9.17203E-05-5.54541E-14
 -1      3600 1.18366E-02 6.03227E-05-5.48604E-14
 -1      3601 1.23057E-02 7.68269E-05-5.96035E-14
 -1      3602 1.21645E-02 8.14298E-05-5.82102E-14
 -1      3603 1.21151E-02 5.00418E-05-5.76033E-14
 -1      3604 1.25880E-02 6.80354E-05-6.24163E-14
 -1      3605 1.24468E-02 7.23887E-05-6.10058E-14
 -1      3606 1.23941E-02 4.08216E-05-6.03845E-14
 -1      3607 1.28709E-02 5.91937E-05-6.52629E-14
 -1      3608 1.27294E-02 6.36516E-05-6.38362E-14
 -1      3609 1.26740E-02 3.18386E-05-6.32020E-14
 -1      3610 1.31542E-02 4.97864E-05-6.81355E-14
 -1      3611 1.30125E-02 5.45791E-05-6.66961E-14
 -1      3612 1.29549E-02 2.25263E-05-6.60461E-14
 -1      3613 1.34382E-02 3.94944E-05-7.10361E-14
 -1      3614 1.32961E-02 4.47611E-05-6.95808E-14
 -1      3615 1.32369E-02 1.25157E-05-6.89181E-14
 -1      3616 1.05869E-02-1.86414E-05-4.13596E-14
 -1      3617 1.06350E-02-5.13428E-05-4.11817E-14
 -1      3618 1.38578E-02-3.49246E-04-7.48465E-14
 -1      3619 1.38500E-02-3.11273E-04-7.48078E-14
 -1      3620 6.22641E-03 3.40420E-05-2.16689E-14
 -1      3621 6.35216E-03 7.96623E-05-2.18709E-14
 -1      3622 2.81576E-03 3.27483E-04-4.16418E-15
 -1      3623 2.67228E-03 3.27494E-04-3.76942E-15
 -1      3624 1.01576E-03-3.84398E-05-7.90234E-16
 -1      3625 1.01686E-03-6.49604E-05-7.94408E-16
 -1      3626 1.13832E-03-8.48015E-05-9.61782E-16
 -1      3627 2.24113E-03 3.21622E-04-2.70193E-15
 -1      3628 2.09725E-03 3.17290E-04-2.38557E-15
 -1      3629 6.71146E-03-3.26450E-04-2.35601E-14
 -1      3630 3.67322E-03 3.13646E-04-6.94347E-15
 -1      3631 3.53076E-03 3.17236E-04-6.43179E-15
 -1      3632 3.73770E-03 2.76498E-04-7.27838E-15
 -1      3633 6.78939E-03 2.81793E-04-2.27067E-14
 -1      3634 7.00476E-03 3.89703E-04-2.33186E-14
 -1      3635 6.93212E-03 4.21024E-04-2.25991E-14
 -1      3636 6.64169E-03 2.53039E-04-2.19683E-14
 -1      3637 2.52867E-03 3.26586E-04-3.39389E-15
 -1      3638 2.38494E-03 3.24689E-04-3.03791E-15
 -1      3639 2.59482E-03 2.90955E-04-3.63271E-15
 -1      3640 1.06500E-03-2.13751E-04-8.29903E-16
 -1      3641 1.02394E-02 2.70868E-04-4.12800E-14
 -1      3642 1.00679E-02 3.15116E-04-4.00863E-14
 -1      3643 1.03808E-02 1.95944E-04-4.19834E-14
 -1      3644 1.08899E-02-1.61572E-04-4.27040E-14
 -1      3645 1.08488E-02-1.85181E-04-4.28497E-14
 -1      3646 6.18921E-03-1.23969E-04-2.19720E-14
 -1      3647 6.11009E-03-9.66270E-05-2.17790E-14
 -1      3648 1.32650E-03 2.82157E-04-1.00516E-15
 -1      3649 1.28434E-03 2.53802E-04-9.76202E-16
 -1      3650 1.45152E-03 2.91833E-04-1.18991E-15
 -1      3651 8.81600E-03-1.08133E-03-3.36386E-14
 -1      3652 9.66041E-03 4.47834E-04-3.74762E-14
 -1      3653 1.07659E-02-8.50382E-05-4.18810E-14
 -1      3654 1.37780E-02-5.31923E-04-7.38873E-14
 -1      3655 1.18454E-03-2.12910E-04-1.00316E-15
 -1      3656 1.08393E-02-1.01526E-04-4.24097E-14
 -1      3657 1.09011E-02-1.14053E-04-4.29403E-14
 -1      3658 1.07915E-02-7.08763E-05-4.26087E-14
 -1      3659 6.02644E-03-8.45630E-05-2.11940E-14
 -1      3660 1.95335E-03 3.11474E-04-2.08911E-15
 -1      3661 1.80946E-03 3.04047E-04-1.81256E-15
 -1      3662 2.01893E-03 2.79304E-04-2.27687E-15
 -1      3663 6.35285E-03 1.17971E-04-2.14035E-14
 -1      3664 6.01254E-03-4.37393E-05-2.13541E-14
 -1      3665 6.00565E-03-3.11840E-05-2.11019E-14
 -1      3666 5.96304E-03-5.02393E-05-2.08762E-14
 -1      3667 6.26598E-03-2.05229E-04-2.14984E-14
 -1      3668 2.30703E-03 2.87380E-04-2.91499E-15
 -1      3669 6.75605E-03 3.78728E-04-2.17245E-14
 -1      3670 1.06127E-02-3.36902E-04-4.32217E-14
 -1      3671 6.06192E-03-1.70608E-06-2.10686E-14
 -1      3672 6.13817E-03 1.29964E-05-2.13691E-14
 -1      3673 6.13113E-03 4.29484E-05-2.08570E-14
 -1      3674 3.10228E-03 3.25188E-04-5.01373E-15
 -1      3675 2.95910E-03 3.26697E-04-4.57898E-15
 -1      3676 2.88197E-03 2.90979E-04-4.42787E-15
 -1      3677 6.61711E-03 3.01689E-04-2.13955E-14
 -1      3678 1.08581E-02-2.08257E-04-4.34612E-14
 -1      3679 1.08704E-02-2.34275E-04-4.40720E-14
 -1      3680 1.09472E-02-1.97210E-04-4.41483E-14
 -1      3681 1.27774E-03 2.19499E-04-1.00451E-15
 -1      3682 1.25772E-03 4.71119E-05-1.10670E-15
 -1      3683 1.25697E-03 1.65314E-05-1.11841E-15
 -1      3684 1.38415E-02-2.72678E-04-7.47637E-14
 -1      3685 1.38325E-02-2.34026E-04-7.47169E-14
 -1      3686 1.37245E-02-2.84272E-04-7.35265E-14
 -1      3687 1.36290E-02-4.94909E-04-7.23821E-14
 -1      3688 1.38605E-02-4.96974E-04-7.47568E-14
 -1      3689 1.35510E-02 2.75681E-05-7.21860E-14
 -1      3690 1.34907E-02-4.70003E-06-7.15077E-14
 -1      3691 1.36638E-02 1.54372E-05-7.33392E-14
 -1      3692 1.05390E-02 1.93660E-05-4.15283E-14
 -1      3693 1.06628E-02-1.56473E-05-4.22484E-14
 -1      3694 1.05997E-02-2.93105E-04-4.24676E-14
 -1      3695 1.38229E-02-1.95278E-04-7.46723E-14
 -1      3696 1.38129E-02-1.56354E-04-7.46219E-14
 -1      3697 1.37063E-02-2.07668E-04-7.34339E-14
 -1      3698 1.38104E-02-1.23768E-04-7.46471E-14
 -1      3699 1.38076E-02-9.09689E-05-7.46696E-14
 -1      3700 1.36937E-02-1.36931E-04-7.34085E-14
 -1      3701 1.38544E-02-4.57770E-04-7.47213E-14
 -1      3702 1.28820E-03-2.31014E-04-1.15549E-15
 -1      3703 1.43105E-03-2.44658E-04-1.38725E-15
 -1      3704 1.26147E-03 1.08965E-04-1.07657E-15
 -1      3705 1.25922E-03 7.78584E-05-1.09263E-15
 -1      3706 1.38073E-03 6.60012E-05-1.29089E-15
 -1      3707 1.25900E-03-7.51419E-05-1.14161E-15
 -1      3708 1.26116E-03-1.06147E-04-1.14549E-15
 -1      3709 3.38812E-03 3.20388E-04-5.93990E-15
 -1      3710 3.24528E-03 3.23072E-04-5.46744E-15
 -1      3711 3.45357E-03 2.83210E-04-6.25175E-15
 -1      3712 9.94535E-03 2.88729E-04-3.88527E-14
 -1      3713 1.00180E-02 2.29638E-04-3.90083E-14
 -1      3714 1.09716E-02-1.44358E-04-4.35712E-14
 -1      3715 1.09368E-02-1.52353E-04-4.31368E-14
 -1      3716 1.09830E-02-1.65986E-04-4.39701E-14
 -1      3717 1.13578E-03-2.72971E-05-9.51875E-16
 -1      3718 9.84528E-03 3.81372E-04-3.86286E-14
 -1      3719 1.25067E-03-1.91194E-04-1.11296E-15
 -1      3720 1.02998E-02 1.01305E-04-4.02742E-14
 -1      3721 1.04236E-02 5.68462E-05-4.08987E-14
 -1      3722 1.05137E-02 5.51339E-05-4.17827E-14
 -1      3723 1.49706E-03-2.18619E-04-1.51554E-15
 -1      3724 1.01501E-02 1.69469E-04-3.96272E-14
 -1      3725 1.38600E-02-4.22807E-04-7.48044E-14
 -1      3726 1.38530E-02-3.84002E-04-7.47654E-14
 -1      3727 1.37281E-02-3.56912E-04-7.34916E-14
 -1      3728 1.37175E-02-4.25873E-04-7.33288E-14
 -1      3729 1.70742E-03-1.99069E-04-1.92022E-15
 -1      3730 1.85129E-03-2.05264E-04-2.21412E-15
 -1      3731 1.38222E-02 1.88489E-05-7.49955E-14
 -1      3732 1.26855E-03 1.72862E-04-1.03648E-15
 -1      3733 1.26457E-03 1.40588E-04-1.05783E-15
 -1      3734 1.38563E-03 1.31688E-04-1.25408E-15
 -1      3735 1.02574E-02 1.56728E-04-4.04966E-14
 -1      3736 1.99538E-03-2.10220E-04-2.52860E-15
 -1      3737 2.13959E-03-2.14028E-04-2.86374E-15
 -1      3738 1.91911E-03-1.73878E-04-2.36746E-15
 -1      3739 2.28380E-03-2.16839E-04-3.21859E-15
 -1      3740 2.42794E-03-2.18715E-04-3.59421E-15
 -1      3741 2.20750E-03-1.80466E-04-3.03564E-15
 -1      3742 2.57192E-03-2.19798E-04-3.99012E-15
 -1      3743 2.71570E-03-2.20138E-04-4.40528E-15
 -1      3744 2.49583E-03-1.83737E-04-3.78408E-15
 -1      3745 2.85921E-03-2.19856E-04-4.84062E-15
 -1      3746 3.00239E-03-2.18980E-04-5.29602E-15
 -1      3747 2.78339E-03-1.84373E-04-4.61285E-15
 -1      3748 3.14520E-03-2.17619E-04-5.77060E-15
 -1      3749 3.28760E-03-2.15786E-04-6.26445E-15
 -1      3750 3.06964E-03-1.82919E-04-5.51955E-15
 -1      3751 3.42953E-03-2.13579E-04-6.77670E-15
 -1      3752 3.57095E-03-2.11002E-04-7.30714E-15
 -1      3753 3.35411E-03-1.79822E-04-6.50302E-15
 -1      3754 3.71180E-03-2.08151E-04-7.85662E-15
 -1      3755 3.85206E-03-2.05021E-04-8.42321E-15
 -1      3756 3.63634E-03-1.75455E-04-7.56094E-15
 -1      3757 3.99163E-03-2.01716E-04-9.00819E-15
 -1      3758 4.13050E-03-1.98224E-04-9.61138E-15
 -1      3759 3.91587E-03-1.70157E-04-8.69209E-15
 -1      3760 4.26858E-03-1.94668E-04-1.02303E-14
 -1      3761 4.40584E-03-1.91030E-04-1.08656E-14
 -1      3762 4.19221E-03-1.64262E-04-9.89368E-15
 -1      3763 4.54218E-03-1.87457E-04-1.15186E-14
 -1      3764 4.67760E-03-1.83927E-04-1.21879E-14
 -1      3765 4.46478E-03-1.58138E-04-1.11637E-14
 -1      3766 4.81196E-03-1.80612E-04-1.28737E-14
 -1      3767 4.94532E-03-1.77487E-04-1.35757E-14
 -1      3768 4.73298E-03-1.52204E-04-1.25008E-14
 -1      3769 5.07750E-03-1.74749E-04-1.42925E-14
 -1      3770 5.20864E-03-1.72367E-04-1.50276E-14
 -1      3771 4.99613E-03-1.46922E-04-1.39025E-14
 -1      3772 5.33851E-03-1.70558E-04-1.57785E-14
 -1      3773 5.46742E-03-1.69291E-04-1.65456E-14
 -1      3774 5.25352E-03-1.42766E-04-1.53690E-14
 -1      3775 5.59504E-03-1.68789E-04-1.73290E-14
 -1      3776 5.72205E-03-1.69058E-04-1.81264E-14
 -1      3777 5.50446E-03-1.40180E-04-1.69015E-14
 -1      3778 5.84795E-03-1.70356E-04-1.89398E-14
 -1      3779 5.97406E-03-1.72981E-04-1.97685E-14
 -1      3780 5.74841E-03-1.39498E-04-1.84965E-14
 -1      3781 6.09414E-03-1.73718E-04-2.06028E-14
 -1      3782 6.25230E-03-1.64033E-04-2.18834E-14
 -1      3783 6.19835E-03-1.37331E-04-2.18315E-14
 -1      3784 5.98076E-03-1.38374E-04-2.01405E-14
 -1      3785 4.63960E-03 2.15245E-04-1.12108E-14
 -1      3786 4.50116E-03 2.19566E-04-1.05667E-14
 -1      3787 1.11798E-02-3.04663E-04-4.79429E-14
 -1      3788 1.13088E-02-3.11648E-04-4.92016E-14
 -1      3789 1.14379E-02-3.19733E-04-5.04721E-14
 -1      3790 1.15679E-02-3.28742E-04-5.17544E-14
 -1      3791 1.13963E-02-2.85754E-04-4.97724E-14
 -1      3792 1.16985E-02-3.38466E-04-5.30491E-14
 -1      3793 1.18301E-02-3.48868E-04-5.43582E-14
 -1      3794 1.16484E-02-3.04492E-04-5.23417E-14
 -1      3795 1.19624E-02-3.59735E-04-5.56738E-14
 -1      3796 1.20958E-02-3.71063E-04-5.70007E-14
 -1      3797 1.19059E-02-3.25117E-04-5.49586E-14
 -1      3798 1.22301E-02-3.82651E-04-5.83407E-14
 -1      3799 1.23652E-02-3.94506E-04-5.96884E-14
 -1      3800 1.21685E-02-3.47102E-04-5.76194E-14
 -1      3801 1.25012E-02-4.06458E-04-6.10445E-14
 -1      3802 1.26379E-02-4.18515E-04-6.24086E-14
 -1      3803 1.24356E-02-3.69907E-04-6.03194E-14
 -1      3804 1.27754E-02-4.30541E-04-6.37794E-14
 -1      3805 1.29135E-02-4.42547E-04-6.51595E-14
 -1      3806 1.27066E-02-3.93040E-04-6.30525E-14
 -1      3807 1.30522E-02-4.54433E-04-6.65502E-14
 -1      3808 1.31914E-02-4.66207E-04-6.79488E-14
 -1      3809 1.29809E-02-4.16097E-04-6.58170E-14
 -1      3810 1.33312E-02-4.77802E-04-6.93571E-14
 -1      3811 1.34713E-02-4.89230E-04-7.07780E-14
 -1      3812 1.32580E-02-4.38772E-04-6.86174E-14
 -1      3813 4.36228E-03 2.23868E-04-9.94003E-15
 -1      3814 4.22289E-03 2.28132E-04-9.33235E-15
 -1      3815 4.42184E-03 1.88893E-04-1.03261E-14
 -1      3816 4.08304E-03 2.32244E-04-8.74232E-15
 -1      3817 3.94268E-03 2.36198E-04-8.17048E-15
 -1      3818 4.14509E-03 1.96744E-04-9.10571E-15
 -1      3819 2.37365E-03 2.52817E-04-3.13248E-15
 -1      3820 2.22953E-03 2.50257E-04-2.79080E-15
 -1      3821 5.18951E-03 1.99862E-04-1.39552E-14
 -1      3822 5.05240E-03 2.03221E-04-1.32442E-14
 -1      3823 5.46383E-03 1.94978E-04-1.54259E-14
 -1      3824 5.32652E-03 1.97042E-04-1.46827E-14
 -1      3825 5.23692E-03 1.65414E-04-1.44019E-14
 -1      3826 5.74032E-03 1.93935E-04-1.69589E-14
 -1      3827 5.60153E-03 1.93782E-04-1.61845E-14
 -1      3828 5.50518E-03 1.59581E-04-1.58918E-14
 -1      3829 6.02286E-03 1.99421E-04-1.85501E-14
 -1      3830 5.88040E-03 1.95499E-04-1.77474E-14
 -1      3831 5.77437E-03 1.56470E-04-1.74419E-14
 -1      3832 6.31795E-03 2.16590E-04-2.02007E-14
 -1      3833 6.16820E-03 2.05802E-04-1.93681E-14
 -1      3834 6.04838E-03 1.58396E-04-1.90518E-14
 -1      3835 2.66151E-03 2.55191E-04-3.87486E-15
 -1      3836 2.51766E-03 2.54441E-04-3.49398E-15
 -1      3837 2.44091E-03 2.18003E-04-3.35418E-15
 -1      3838 6.47726E-03 2.30063E-04-2.10873E-14
 -1      3839 1.07792E-02-2.93970E-04-4.41441E-14
 -1      3840 1.38434E-03-1.29309E-04-1.34265E-15
 -1      3841 1.26326E-03-1.38223E-04-1.14564E-15
 -1      3842 1.35542E-02-4.55395E-04-7.16329E-14
 -1      3843 1.13817E-02 4.88412E-05-5.02774E-14
 -1      3844 1.12437E-02 5.69285E-05-4.89742E-14
 -1      3845 1.08209E-02 9.05519E-05-4.51540E-14
 -1      3846 1.06743E-02 1.07119E-04-4.39128E-14
 -1      3847 1.16559E-02 3.55460E-05-5.29243E-14
 -1      3848 1.15189E-02 4.18355E-05-5.15937E-14
 -1      3849 1.14824E-02 1.15880E-05-5.10243E-14
 -1      3850 1.19298E-02 2.45887E-05-5.56289E-14
 -1      3851 1.17928E-02 2.98533E-05-5.42694E-14
 -1      3852 1.17506E-02 3.13963E-07-5.36832E-14
 -1      3853 1.22045E-02 1.48545E-05-5.83781E-14
 -1      3854 1.20670E-02 1.96168E-05-5.69991E-14
 -1      3855 1.20201E-02-9.82531E-06-5.63946E-14
 -1      3856 1.24807E-02 5.54798E-06-6.11623E-14
 -1      3857 1.23424E-02 1.01770E-05-5.97664E-14
 -1      3858 1.22918E-02-1.95135E-05-5.91494E-14
 -1      3859 1.27586E-02-3.89359E-06-6.39809E-14
 -1      3860 1.26194E-02 8.61722E-07-6.25678E-14
 -1      3861 1.25657E-02-2.92403E-05-6.19387E-14
 -1      3862 1.30380E-02-1.38583E-05-6.68243E-14
 -1      3863 1.28981E-02-8.80111E-06-6.53989E-14
 -1      3864 1.28419E-02-3.93595E-05-6.47548E-14
 -1      3865 1.33188E-02-2.45932E-05-6.96949E-14
 -1      3866 1.31782E-02-1.91246E-05-6.82563E-14
 -1      3867 1.31201E-02-5.01156E-05-6.75978E-14
 -1      3868 1.37044E-03-1.85404E-04-1.30818E-15
 -1      3869 1.51324E-03-1.95299E-04-1.55316E-15
 -1      3870 1.26714E-03-1.70361E-04-1.14520E-15
 -1      3871 1.37609E-02-1.35208E-05-7.43029E-14
 -1      3872 6.33809E-03 1.68769E-04-2.07575E-14
 -1      3873 1.50659E-03-1.17976E-04-1.55476E-15
 -1      3874 1.50909E-03-1.53275E-04-1.55571E-15
 -1      3875 5.97953E-03-9.69461E-05-2.05970E-14
 -1      3876 5.93935E-03-7.23335E-05-2.05316E-14
 -1      3877 1.07501E-02-1.42322E-05-4.32191E-14
 -1      3878 1.07833E-02-4.58413E-05-4.30459E-14
 -1      3879 1.69304E-03 3.02496E-04-1.59489E-15
 -1      3880 1.56762E-03 2.96754E-04-1.37900E-15
 -1      3881 1.52532E-03 2.68158E-04-1.34459E-15
 -1      3882 1.75821E-03 2.72969E-04-1.75917E-15
 -1      3883 1.11047E-02 6.61493E-05-4.76838E-14
 -1      3884 1.09638E-02 7.73533E-05-4.64096E-14
 -1      3885 1.12141E-02 2.49613E-05-4.84180E-14
 -1      3886 1.25760E-03-4.44188E-05-1.13577E-15
 -1      3887 1.38055E-03-6.31452E-05-1.33528E-15
 -1      3888 1.25693E-03-1.39148E-05-1.12802E-15
 -1      3889 6.21242E-03 1.14551E-04-2.05133E-14
 -1      3890 3.80189E-03 2.39895E-04-7.61706E-15
 -1      3891 3.66063E-03 2.43331E-04-7.08212E-15
 -1      3892 3.86584E-03 2.03920E-04-7.95815E-15
 -1      3893 1.08880E-02-2.63863E-04-4.47188E-14
 -1      3894 1.09135E-02-3.02856E-04-4.54889E-14
 -1      3895 1.10450E-02-3.06098E-04-4.67255E-14
 -1      3896 1.09891E-02-2.47264E-04-4.54181E-14
 -1      3897 1.37908E-03 1.41734E-06-1.31764E-15
 -1      3898 1.39821E-03 2.13507E-04-1.19814E-15
 -1      3899 1.01646E-02 2.28418E-04-4.03125E-14
 -1      3900 1.00124E-02 3.15680E-04-3.96213E-14
 -1      3901 4.91516E-03 2.06979E-04-1.25495E-14
 -1      3902 4.77755E-03 2.11033E-04-1.18716E-14
 -1      3903 4.96752E-03 1.72719E-04-1.29763E-14
 -1      3904 2.08536E-03 2.46604E-04-2.46895E-15
 -1      3905 1.94121E-03 2.41765E-04-2.16686E-15
 -1      3906 2.15255E-03 2.13416E-04-2.66557E-15
 -1      3907 5.90321E-03-5.83313E-05-2.02900E-14
 -1      3908 5.87641E-03-4.51940E-05-2.00469E-14
 -1      3909 5.84337E-03-6.84535E-05-1.97075E-14
 -1      3910 1.09579E-02-1.03350E-04-4.39834E-14
 -1      3911 1.09749E-02-1.25769E-04-4.37778E-14
 -1      3912 1.10429E-02-1.37497E-04-4.46201E-14
 -1      3913 1.08665E-02-6.67847E-05-4.35828E-14
 -1      3914 1.11446E-02-2.75747E-04-4.72830E-14
 -1      3915 5.98103E-03-1.17697E-05-2.05996E-14
 -1      3916 5.95894E-03 1.11299E-05-2.00991E-14
 -1      3917 5.90923E-03-1.97631E-05-2.01325E-14
 -1      3918 1.37641E-02-4.68093E-05-7.42841E-14
 -1      3919 1.50244E-03-4.96901E-05-1.54210E-15
 -1      3920 1.50408E-03-8.36799E-05-1.54992E-15
 -1      3921 1.62852E-03-1.05259E-04-1.77945E-15
 -1      3922 4.69596E-03 1.80735E-04-1.16176E-14
 -1      3923 3.16828E-03 2.88200E-04-5.30113E-15
 -1      3924 3.58430E-03 2.10095E-04-6.88439E-15
 -1      3925 3.51896E-03 2.46416E-04-6.56616E-15
 -1      3926 3.37688E-03 2.49146E-04-6.06954E-15
 -1      3927 2.80514E-03 2.55203E-04-4.27508E-15
 -1      3928 2.72869E-03 2.19379E-04-4.12105E-15
 -1      3929 2.94854E-03 2.54519E-04-4.69488E-15
 -1      3930 1.10100E-02-1.83820E-04-4.45884E-14
 -1      3931 1.10355E-02-2.04517E-04-4.52099E-14
 -1      3932 1.10629E-02-1.73079E-04-4.50312E-14
 -1      3933 1.09422E-02 4.23907E-05-4.58758E-14
 -1      3934 1.36079E-02-2.95836E-04-7.22995E-14
 -1      3935 1.35994E-02-2.57982E-04-7.22527E-14
 -1      3936 1.34044E-02-4.16053E-04-7.01130E-14
 -1      3937 1.35607E-02-4.21132E-04-7.17155E-14
 -1      3938 1.35667E-02-3.87030E-04-7.17961E-14
 -1      3939 1.36472E-02-6.07612E-05-7.30443E-14
 -1      3940 1.06048E-02 7.00167E-05-4.28714E-14
 -1      3941 1.04621E-02 1.32401E-04-4.21692E-14
 -1      3942 1.63533E-03-1.84197E-04-1.78350E-15
 -1      3943 1.35390E-02-4.85069E-05-7.19365E-14
 -1      3944 1.34270E-02-3.64361E-05-7.07948E-14
 -1      3945 1.33675E-02-6.76480E-05-7.01232E-14
 -1      3946 1.35830E-02-9.20028E-05-7.23229E-14
 -1      3947 1.35902E-02-2.20085E-04-7.22046E-14
 -1      3948 1.35803E-02-1.82032E-04-7.21557E-14
 -1      3949 1.34744E-02-2.32127E-04-7.09851E-14
 -1      3950 1.35834E-02-1.53264E-04-7.22324E-14
 -1      3951 1.35804E-02-1.21204E-04-7.22518E-14
 -1      3952 1.34730E-02-1.08780E-04-7.11526E-14
 -1      3953 1.34678E-02-1.66186E-04-7.10090E-14
 -1      3954 1.50477E-03 8.61885E-05-1.48773E-15
 -1      3955 1.50306E-03 5.21770E-05-1.50535E-15
 -1      3956 1.51432E-03 2.16931E-04-1.38756E-15
 -1      3957 6.08733E-03-1.24862E-04-2.11190E-14
 -1      3958 5.97758E-03-1.18843E-04-2.03234E-14
 -1      3959 5.97821E-03-1.07463E-04-2.04602E-14
 -1      3960 5.87838E-03-9.33908E-05-1.98097E-14
 -1      3961 1.50218E-03 1.83617E-05-1.52057E-15
 -1      3962 1.50213E-03-1.53870E-05-1.53290E-15
 -1      3963 1.62611E-03 3.66622E-05-1.73607E-15
 -1      3964 1.35853E-02-3.58465E-04-7.20103E-14
 -1      3965 1.35902E-02-3.24480E-04-7.20885E-14
 -1      3966 1.34660E-02-2.97905E-04-7.08241E-14
 -1      3967 1.34297E-02-3.54277E-04-7.04031E-14
 -1      3968 6.10913E-03 7.72791E-05-2.02669E-14
 -1      3969 6.08745E-03 1.22576E-04-1.96378E-14
 -1      3970 5.95426E-03 1.22156E-04-1.88158E-14
 -1      3971 6.02312E-03 5.50941E-05-1.99771E-14
 -1      3972 1.03028E-02 1.61853E-04-4.09678E-14
 -1      3973 5.87001E-03-1.21067E-04-1.94961E-14
 -1      3974 1.13556E-02-2.53910E-04-4.90730E-14
 -1      3975 1.14762E-02-2.63025E-04-5.03473E-14
 -1      3976 2.13190E-03-1.44519E-04-2.85563E-15
 -1      3977 2.27615E-03-1.46486E-04-3.20837E-15
 -1      3978 2.42034E-03-1.47837E-04-3.58150E-15
 -1      3979 2.56437E-03-1.48600E-04-3.97481E-15
 -1      3980 2.34549E-03-1.12158E-04-3.38233E-15
 -1      3981 2.70815E-03-1.48871E-04-4.38760E-15
 -1      3982 2.85162E-03-1.48668E-04-4.81974E-15
 -1      3983 2.63351E-03-1.13371E-04-4.16548E-15
 -1      3984 2.99469E-03-1.48084E-04-5.27206E-15
 -1      3985 3.13732E-03-1.47120E-04-5.74305E-15
 -1      3986 2.92037E-03-1.13097E-04-5.02730E-15
 -1      3987 3.27941E-03-1.45865E-04-6.23297E-15
 -1      3988 3.42093E-03-1.44309E-04-6.74142E-15
 -1      3989 3.20543E-03-1.11653E-04-5.96585E-15
 -1      3990 3.56180E-03-1.42540E-04-7.26893E-15
 -1      3991 3.70196E-03-1.40541E-04-7.81447E-15
 -1      3992 3.48813E-03-1.09310E-04-6.97969E-15
 -1      3993 3.84134E-03-1.38405E-04-8.37817E-15
 -1      3994 3.97987E-03-1.36103E-04-8.96019E-15
 -1      3995 3.76792E-03-1.06316E-04-8.06713E-15
 -1      3996 4.11746E-03-1.33741E-04-9.55972E-15
 -1      3997 4.25407E-03-1.31282E-04-1.01762E-14
 -1      3998 4.04418E-03-1.02901E-04-9.22718E-15
 -1      3999 4.38956E-03-1.28852E-04-1.08094E-14
 -1      4000 4.52389E-03-1.26399E-04-1.14604E-14
 -1      4001 4.31628E-03-9.93139E-05-1.04580E-14
 -1      4002 4.65690E-03-1.24077E-04-1.21277E-14
 -1      4003 4.78855E-03-1.21807E-04-1.28120E-14
 -1      4004 4.58342E-03-9.58295E-05-1.17568E-14
 -1      4005 4.91865E-03-1.19779E-04-1.35125E-14
 -1      4006 5.04715E-03-1.17869E-04-1.42280E-14
 -1      4007 4.84467E-03-9.27449E-05-1.31221E-14
 -1      4008 5.17379E-03-1.16309E-04-1.49607E-14
 -1      4009 5.29857E-03-1.14910E-04-1.57101E-14
 -1      4010 5.09884E-03-9.03378E-05-1.45534E-14
 -1      4011 5.42111E-03-1.13961E-04-1.64751E-14
 -1      4012 5.54147E-03-1.13154E-04-1.72568E-14
 -1      4013 5.34438E-03-8.88300E-05-1.60497E-14
 -1      4014 5.64874E-03-1.16947E-04-1.79602E-14
 -1      4015 5.76487E-03-1.16633E-04-1.87689E-14
 -1      4016 5.77253E-03-9.94032E-05-1.89452E-14
 -1      4017 5.56788E-03-9.21323E-05-1.75184E-14
 -1      4018 1.15987E-02-2.72313E-04-5.16330E-14
 -1      4019 1.17233E-02-2.82090E-04-5.29328E-14
 -1      4020 1.15488E-02-2.41980E-04-5.09233E-14
 -1      4021 1.18495E-02-2.92066E-04-5.42427E-14
 -1      4022 1.19775E-02-3.02425E-04-5.55647E-14
 -1      4023 1.17929E-02-2.60595E-04-5.35252E-14
 -1      4024 1.21070E-02-3.12935E-04-5.68975E-14
 -1      4025 1.22379E-02-3.23715E-04-5.82417E-14
 -1      4026 1.20453E-02-2.80157E-04-5.61750E-14
 -1      4027 1.23701E-02-3.34572E-04-5.95933E-14
 -1      4028 1.25035E-02-3.45583E-04-6.09548E-14
 -1      4029 1.23046E-02-3.00459E-04-5.88647E-14
 -1      4030 1.26380E-02-3.56596E-04-6.23217E-14
 -1      4031 1.27735E-02-3.67660E-04-6.36965E-14
 -1      4032 1.25694E-02-3.21217E-04-6.15899E-14
 -1      4033 1.29098E-02-3.78663E-04-6.50815E-14
 -1      4034 1.30470E-02-3.89636E-04-6.64737E-14
 -1      4035 1.28388E-02-3.42140E-04-6.43447E-14
 -1      4036 1.31560E-02-3.97540E-04-6.75837E-14
 -1      4037 1.32945E-02-4.08329E-04-6.89941E-14
 -1      4038 1.33012E-02-3.75053E-04-6.90709E-14
 -1      4039 1.30832E-02-3.60136E-04-6.68428E-14
 -1      4040 4.48103E-03 1.54886E-04-1.07141E-14
 -1      4041 4.34438E-03 1.58568E-04-1.00840E-14
 -1      4042 4.20694E-03 1.62084E-04-9.47223E-15
 -1      4043 4.06870E-03 1.65471E-04-8.87857E-15
 -1      4044 4.26872E-03 1.28323E-04-9.84134E-15
 -1      4045 4.75176E-03 1.47295E-04-1.20255E-14
 -1      4046 4.61680E-03 1.51141E-04-1.13612E-14
 -1      4047 4.54003E-03 1.21898E-04-1.11037E-14
 -1      4048 5.28298E-03 1.32140E-04-1.48505E-14
 -1      4049 5.15133E-03 1.35833E-04-1.41195E-14
 -1      4050 2.50882E-03 1.82975E-04-3.57940E-15
 -1      4051 2.36471E-03 1.81749E-04-3.21305E-15
 -1      4052 1.21076E-02-4.31243E-05-5.71595E-14
 -1      4053 1.19742E-02-3.81487E-05-5.57942E-14
 -1      4054 1.82431E-03 2.42691E-04-1.92810E-15
 -1      4055 1.70754E-03 2.42446E-04-1.70365E-15
 -1      4056 1.89122E-03 2.11674E-04-2.10217E-15
 -1      4057 1.18416E-02-3.31244E-05-5.44408E-14
 -1      4058 1.17097E-02-2.80691E-05-5.30997E-14
 -1      4059 1.19288E-02-6.53235E-05-5.51977E-14
 -1      4060 1.70327E-03-1.55005E-04-1.92156E-15
 -1      4061 1.15786E-02-2.28664E-05-5.17704E-14
 -1      4062 1.14479E-02-1.74876E-05-5.04567E-14
 -1      4063 1.16698E-02-5.52599E-05-5.25185E-14
 -1      4064 1.23768E-02-5.32180E-05-5.99184E-14
 -1      4065 1.22418E-02-4.81597E-05-5.85342E-14
 -1      4066 1.21922E-02-7.57314E-05-5.79204E-14
 -1      4067 1.26489E-02-6.36598E-05-6.27076E-14
 -1      4068 1.25125E-02-5.83967E-05-6.13093E-14
 -1      4069 1.24596E-02-8.65782E-05-6.06839E-14
 -1      4070 1.29239E-02-7.46457E-05-6.55242E-14
 -1      4071 1.27861E-02-6.90869E-05-6.41126E-14
 -1      4072 1.27306E-02-9.79543E-05-6.34731E-14
 -1      4073 1.32012E-02-8.63129E-05-6.83691E-14
 -1      4074 1.30623E-02-8.03999E-05-6.69439E-14
 -1      4075 1.30047E-02-1.09945E-04-6.62904E-14
 -1      4076 1.50737E-03 1.20511E-04-1.46690E-15
 -1      4077 1.62972E-03 1.07363E-04-1.69649E-15
 -1      4078 1.51086E-03 1.55273E-04-1.44344E-15
 -1      4079 1.33590E-02-2.43778E-04-6.97701E-14
 -1      4080 1.33496E-02-2.06728E-04-6.97207E-14
 -1      4081 1.07138E-02 2.33105E-05-4.33791E-14
 -1      4082 1.08357E-02-9.22727E-06-4.41892E-14
 -1      4083 1.11121E-02-2.48474E-04-4.66238E-14
 -1      4084 1.12342E-02-2.50849E-04-4.78411E-14
 -1      4085 1.13134E-02-2.29246E-04-4.84038E-14
 -1      4086 1.10820E-02-2.22383E-04-4.59653E-14
 -1      4087 1.09710E-02-6.23188E-05-4.48736E-14
 -1      4088 1.09649E-02-8.43076E-05-4.44269E-14
 -1      4089 1.10556E-02-9.92541E-05-4.52781E-14
 -1      4090 3.92973E-03 1.68637E-04-8.30243E-15
 -1      4091 3.79005E-03 1.71612E-04-7.74485E-15
 -1      4092 3.99366E-03 1.34115E-04-8.64970E-15
 -1      4093 1.13179E-02-1.18421E-05-4.91565E-14
 -1      4094 1.11879E-02-5.84862E-06-4.78683E-14
 -1      4095 1.14151E-02-4.53863E-05-4.98907E-14
 -1      4096 5.80342E-03-8.77083E-05-1.92597E-14
 -1      4097 5.81230E-03-7.83754E-05-1.93916E-14
 -1      4098 5.77435E-03-6.31044E-05-1.91575E-14
 -1      4099 5.70548E-03-8.41291E-05-1.85355E-14
 -1      4100 5.01902E-03 1.39602E-04-1.34045E-14
 -1      4101 4.88579E-03 1.43461E-04-1.27067E-14
 -1      4102 5.06987E-03 1.07674E-04-1.38348E-14
 -1      4103 3.23443E-03 2.51429E-04-5.59231E-15
 -1      4104 3.09164E-03 2.53254E-04-5.13379E-15
 -1      4105 3.30073E-03 2.14968E-04-5.88654E-15
 -1      4106 5.80462E-03 1.20064E-04-1.79262E-14
 -1      4107 5.67430E-03 1.22401E-04-1.71350E-14
 -1      4108 5.54433E-03 1.25324E-04-1.63580E-14
 -1      4109 5.41384E-03 1.28611E-04-1.55962E-14
 -1      4110 5.58134E-03 9.22262E-05-1.68254E-14
 -1      4111 1.73741E-03-1.32209E-04-1.99154E-15
 -1      4112 1.80913E-03-1.45868E-04-2.13707E-15
 -1      4113 1.95311E-03-1.49745E-04-2.44538E-15
 -1      4114 1.73456E-03-9.56013E-05-1.98546E-15
 -1      4115 2.22049E-03 1.79782E-04-2.86644E-15
 -1      4116 2.07624E-03 1.77017E-04-2.53917E-15
 -1      4117 2.28912E-03 1.45749E-04-3.07130E-15
 -1      4118 3.71528E-03 1.39131E-04-7.53014E-15
 -1      4119 3.64972E-03 1.74309E-04-7.20611E-15
 -1      4120 3.50876E-03 1.76753E-04-6.68573E-15
 -1      4121 4.80719E-03 1.14975E-04-1.24355E-14
 -1      4122 2.65273E-03 1.83570E-04-3.96533E-15
 -1      4123 2.57733E-03 1.47805E-04-3.80894E-15
 -1      4124 2.79639E-03 1.83563E-04-4.37065E-15
 -1      4125 5.83095E-03-2.79753E-05-1.95592E-14
 -1      4126 1.62553E-03-3.40789E-05-1.76329E-15
 -1      4127 1.11744E-02-6.04542E-05-4.71527E-14
 -1      4128 1.10717E-02-2.68658E-05-4.64313E-14
 -1      4129 5.32790E-03 1.00057E-04-1.52991E-14
 -1      4130 3.01542E-03 2.18198E-04-4.96497E-15
 -1      4131 1.11454E-02-2.08162E-04-4.64138E-14
 -1      4132 1.33906E-02-1.03470E-04-7.03035E-14
 -1      4133 1.32834E-02-9.14017E-05-6.92108E-14
 -1      4134 1.32245E-02-1.21418E-04-6.85496E-14
 -1      4135 1.33884E-02-1.32124E-04-7.02360E-14
 -1      4136 1.11085E-02-1.59165E-04-4.54724E-14
 -1      4137 1.11500E-02-1.76139E-04-4.61005E-14
 -1      4138 5.92705E-03 3.97708E-05-1.95223E-14
 -1      4139 5.84896E-03 8.75549E-05-1.84950E-14
 -1      4140 1.06089E-02 5.52186E-05-4.27370E-14
 -1      4141 1.75543E-03 1.29207E-04-1.91706E-15
 -1      4142 1.75264E-03 9.24904E-05-1.94224E-15
 -1      4143 1.11237E-02-1.38926E-04-4.56879E-14
 -1      4144 1.58125E-03 1.89536E-04-1.53351E-15
 -1      4145 1.70312E-03 1.77383E-04-1.76985E-15
 -1      4146 1.33421E-02-2.71795E-04-6.95638E-14
 -1      4147 1.32185E-02-2.46189E-04-6.83095E-14
 -1      4148 1.33247E-02-2.99668E-04-6.93569E-14
 -1      4149 1.33858E-02-1.60534E-04-7.01638E-14
 -1      4150 1.75077E-03 5.60351E-05-1.96388E-15
 -1      4151 1.74981E-03 1.97266E-05-1.98253E-15
 -1      4152 1.87605E-03 7.62160E-05-2.20399E-15
 -1      4153 2.02224E-03-1.17295E-04-2.60017E-15
 -1      4154 1.09463E-02-2.09806E-05-4.51812E-14
 -1      4155 1.33270E-02-1.80859E-04-6.95216E-14
 -1      4156 1.32480E-02-1.47269E-04-6.87516E-14
 -1      4157 1.31665E-02-1.41836E-04-6.79126E-14
 -1      4158 1.32126E-02-1.92948E-04-6.83131E-14
 -1      4159 5.12071E-03 7.71061E-05-1.42663E-14
 -1      4160 4.99242E-03 8.05909E-05-1.35486E-14
 -1      4161 2.55955E-03-7.79520E-05-3.94727E-15
 -1      4162 2.70331E-03-7.80933E-05-4.35687E-15
 -1      4163 2.84672E-03-7.80061E-05-4.78568E-15
 -1      4164 2.98971E-03-7.76928E-05-5.23464E-15
 -1      4165 2.77374E-03-4.28214E-05-4.54804E-15
 -1      4166 3.13219E-03-7.72073E-05-5.70214E-15
 -1      4167 3.27409E-03-7.65411E-05-6.18793E-15
 -1      4168 3.05964E-03-4.25081E-05-5.44104E-15
 -1      4169 3.41534E-03-7.57619E-05-6.69297E-15
 -1      4170 3.55586E-03-7.48382E-05-7.21659E-15
 -1      4171 3.34332E-03-4.18374E-05-6.40927E-15
 -1      4172 3.69557E-03-7.38578E-05-7.75855E-15
 -1      4173 3.83440E-03-7.27771E-05-8.31849E-15
 -1      4174 3.62417E-03-4.09446E-05-7.45266E-15
 -1      4175 3.97227E-03-7.16799E-05-8.89742E-15
 -1      4176 4.10911E-03-7.05283E-05-9.49369E-15
 -1      4177 3.90155E-03-3.99472E-05-8.56966E-15
 -1      4178 4.24478E-03-6.94232E-05-1.01079E-14
 -1      4179 4.37923E-03-6.83085E-05-1.07391E-14
 -1      4180 4.17481E-03-3.89966E-05-9.75935E-15
 -1      4181 4.51230E-03-6.73118E-05-1.13870E-14
 -1      4182 4.64391E-03-6.63524E-05-1.20525E-14
 -1      4183 4.44317E-03-3.82644E-05-1.10196E-14
 -1      4184 4.77386E-03-6.55952E-05-1.27347E-14
 -1      4185 4.90206E-03-6.49152E-05-1.34326E-14
 -1      4186 4.70570E-03-3.79543E-05-1.23475E-14
 -1      4187 5.02823E-03-6.45322E-05-1.41468E-14
 -1      4188 5.15223E-03-6.42236E-05-1.48781E-14
 -1      4189 4.96120E-03-3.83000E-05-1.37417E-14
 -1      4190 5.27369E-03-6.42715E-05-1.56254E-14
 -1      4191 5.39249E-03-6.44466E-05-1.63887E-14
 -1      4192 5.20795E-03-3.95061E-05-1.52015E-14
 -1      4193 5.49549E-03-6.87468E-05-1.70774E-14
 -1      4194 5.59654E-03-7.26611E-05-1.77784E-14
 -1      4195 5.43008E-03-4.52137E-05-1.66372E-14
 -1      4196 2.27136E-03-7.68074E-05-3.18700E-15
 -1      4197 2.41553E-03-7.75259E-05-3.55721E-15
 -1      4198 2.48627E-03-4.26475E-05-3.73228E-15
 -1      4199 1.13141E-02-7.63109E-05-4.85300E-14
 -1      4200 1.12021E-02-9.40867E-05-4.70843E-14
 -1      4201 1.74928E-03-1.70534E-05-1.99725E-15
 -1      4202 1.74968E-03-5.38853E-05-2.00889E-15
 -1      4203 1.87359E-03 1.09888E-06-2.24405E-15
 -1      4204 1.17348E-02-2.30667E-04-5.28056E-14
 -1      4205 1.18576E-02-2.39646E-04-5.41207E-14
 -1      4206 1.19826E-02-2.48696E-04-5.54482E-14
 -1      4207 1.21096E-02-2.58062E-04-5.67866E-14
 -1      4208 1.19184E-02-2.18509E-04-5.47206E-14
 -1      4209 1.22383E-02-2.67505E-04-5.81343E-14
 -1      4210 1.23686E-02-2.77163E-04-5.94921E-14
 -1      4211 1.21709E-02-2.35665E-04-5.74026E-14
 -1      4212 1.25003E-02-2.86859E-04-6.08568E-14
 -1      4213 1.26333E-02-2.96688E-04-6.22287E-14
 -1      4214 1.24304E-02-2.53492E-04-6.01212E-14
 -1      4215 1.27675E-02-3.06512E-04-6.36074E-14
 -1      4216 1.29027E-02-3.16394E-04-6.49958E-14
 -1      4217 1.26956E-02-2.71759E-04-6.28698E-14
 -1      4218 4.33072E-03 9.54934E-05-1.02122E-14
 -1      4219 4.19479E-03 9.80372E-05-9.59692E-15
 -1      4220 5.37235E-03 6.95755E-05-1.57486E-14
 -1      4221 5.24727E-03 7.34997E-05-1.49997E-14
 -1      4222 5.17194E-03 4.79745E-05-1.46978E-14
 -1      4223 4.86276E-03 8.38545E-05-1.28471E-14
 -1      4224 4.73161E-03 8.70131E-05-1.21630E-14
 -1      4225 4.91877E-03 5.39949E-05-1.32607E-14
 -1      4226 5.79638E-03 4.23983E-05-1.86186E-14
 -1      4227 1.12046E-02-1.91304E-04-4.68656E-14
 -1      4228 1.12600E-02-2.07821E-04-4.76328E-14
 -1      4229 1.12543E-02-1.75986E-04-4.73163E-14
 -1      4230 1.20125E-02-9.65786E-05-5.59492E-14
 -1      4231 1.18836E-02-9.12214E-05-5.46006E-14
 -1      4232 1.82547E-03 1.63463E-04-2.02300E-15
 -1      4233 1.17562E-02-8.59689E-05-5.32638E-14
 -1      4234 1.16302E-02-8.10069E-05-5.19396E-14
 -1      4235 1.18380E-02-1.15814E-04-5.40084E-14
 -1      4236 1.28106E-02-1.32235E-04-6.42344E-14
 -1      4237 1.26750E-02-1.25933E-04-6.28367E-14
 -1      4238 1.30565E-02-1.40268E-04-6.67753E-14
 -1      4239 1.29194E-02-1.33748E-04-6.53632E-14
 -1      4240 1.28619E-02-1.61727E-04-6.47169E-14
 -1      4241 1.30799E-02-1.65532E-04-6.69759E-14
 -1      4242 1.09468E-02-3.25985E-05-4.50416E-14
 -1      4243 1.13723E-02-2.11550E-04-4.88646E-14
 -1      4244 5.75173E-03 7.85913E-06-1.86562E-14
 -1      4245 5.65822E-03 4.87974E-05-1.76569E-14
 -1      4246 4.05786E-03 1.00385E-04-8.99903E-15
 -1      4247 3.91995E-03 1.02595E-04-8.41929E-15
 -1      4248 4.12245E-03 6.75001E-05-9.35066E-15
 -1      4249 1.14970E-02-2.13536E-04-5.02122E-14
 -1      4250 1.16146E-02-2.22094E-04-5.15020E-14
 -1      4251 1.16747E-02-2.02235E-04-5.20840E-14
 -1      4252 4.59922E-03 8.99753E-05-1.14955E-14
 -1      4253 4.46553E-03 9.28297E-05-1.08448E-14
 -1      4254 4.39314E-03 6.36446E-05-1.05849E-14
 -1      4255 4.65885E-03 5.91680E-05-1.18889E-14
 -1      4256 1.25404E-02-1.19747E-04-6.14432E-14
 -1      4257 1.24067E-02-1.13752E-04-6.00576E-14
 -1      4258 1.26193E-02-1.53010E-04-6.22020E-14
 -1      4259 1.33041E-02-3.51216E-04-6.91103E-14
 -1      4260 1.33227E-02-3.23449E-04-6.93181E-14
 -1      4261 1.31999E-02-2.97149E-04-6.80687E-14
 -1      4262 1.31951E-02-3.44082E-04-6.79946E-14
 -1      4263 1.15316E-02-8.07502E-05-5.08711E-14
 -1      4264 1.14090E-02-7.62692E-05-4.95721E-14
 -1      4265 1.14247E-02-1.08749E-04-4.94956E-14
 -1      4266 1.16150E-02-1.09702E-04-5.16082E-14
 -1      4267 5.70981E-03-2.18150E-05-1.85784E-14
 -1      4268 1.11765E-02-1.09810E-04-4.66101E-14
 -1      4269 1.11532E-02-1.26379E-04-4.61552E-14
 -1      4270 1.12333E-02-1.49681E-04-4.70194E-14
 -1      4271 1.13015E-02-1.23288E-04-4.79738E-14
 -1      4272 1.22741E-02-1.07858E-04-5.86819E-14
 -1      4273 1.21426E-02-1.02169E-04-5.73116E-14
 -1      4274 1.20927E-02-1.27451E-04-5.67023E-14
 -1      4275 5.53887E-03 5.35046E-05-1.68701E-14
 -1      4276 3.36725E-03 1.78874E-04-6.18413E-15
 -1      4277 3.22520E-03 1.80669E-04-5.70232E-15
 -1      4278 3.43403E-03 1.43225E-04-6.48632E-15
 -1      4279 1.94267E-03 1.61129E-04-2.26699E-15
 -1      4280 2.01153E-03 1.28816E-04-2.44790E-15
 -1      4281 3.08268E-03 1.82062E-04-5.23945E-15
 -1      4282 2.93972E-03 1.83058E-04-4.79544E-15
 -1      4283 3.15032E-03 1.46194E-04-5.51702E-15
 -1      4284 1.85791E-03-7.95255E-05-2.23636E-15
 -1      4285 3.78118E-03 1.04599E-04-7.85752E-15
 -1      4286 3.64156E-03 1.06437E-04-7.31476E-15
 -1      4287 3.84747E-03 7.07651E-05-8.18776E-15
 -1      4288 2.35847E-03 1.11367E-04-3.28074E-15
 -1      4289 2.21425E-03 1.10122E-04-2.92909E-15
 -1      4290 2.86459E-03 1.47821E-04-4.62453E-15
 -1      4291 5.63519E-03-6.17520E-05-1.80821E-14
 -1      4292 2.12712E-03-7.57111E-05-2.83635E-15
 -1      4293 2.19795E-03-4.18326E-05-2.99496E-15
 -1      4294 1.29944E-02-3.26603E-04-6.59371E-14
 -1      4295 1.31025E-02-3.33774E-04-6.70464E-14
 -1      4296 1.31051E-02-3.10564E-04-6.70825E-14
 -1      4297 1.29212E-02-2.90751E-04-6.51941E-14
 -1      4298 2.64649E-03 1.12533E-04-4.04234E-15
 -1      4299 2.50259E-03 1.12170E-04-3.65181E-15
 -1      4300 2.42850E-03 7.66947E-05-3.49448E-15
 -1      4301 5.46176E-03 2.94310E-05-1.65515E-14
 -1      4302 1.12982E-02-1.63927E-04-4.77945E-14
 -1      4303 1.13622E-02-1.78895E-04-4.85718E-14
 -1      4304 1.13382E-02-1.51541E-04-4.82732E-14
 -1      4305 2.11148E-03 1.00294E-04-2.69846E-15
 -1      4306 1.97851E-03 8.60299E-05-2.41400E-15
 -1      4307 1.97684E-03 4.80075E-05-2.43874E-15
 -1      4308 2.18176E-03 6.66111E-05-2.89088E-15
 -1      4309 1.23535E-02-1.39899E-04-5.94363E-14
 -1      4310 1.14343E-02-1.92902E-04-4.94293E-14
 -1      4311 1.31251E-02-2.15923E-04-6.73745E-14
 -1      4312 1.31028E-02-1.90726E-04-6.71750E-14
 -1      4313 1.29935E-02-1.88507E-04-6.60454E-14
 -1      4314 2.03687E-03-7.31756E-05-2.62694E-15
 -1      4315 1.31088E-02-2.43262E-04-6.71738E-14
 -1      4316 2.45629E-03 1.70612E-05-3.61671E-15
 -1      4317 2.60024E-03 1.71548E-05-4.00736E-15
 -1      4318 5.46944E-03-1.23232E-05-1.68199E-14
 -1      4319 5.30514E-03 7.99915E-07-1.57043E-14
 -1      4320 2.93333E-03 1.12193E-04-4.88256E-15
 -1      4321 2.79010E-03 1.12543E-04-4.45262E-15
 -1      4322 2.71625E-03 7.72252E-05-4.28009E-15
 -1      4323 2.98782E-03-7.59984E-06-5.18308E-15
 -1      4324 3.13025E-03-7.56892E-06-5.64676E-15
 -1      4325 3.27207E-03-7.56349E-06-6.12901E-15
 -1      4326 3.41322E-03-7.54261E-06-6.62979E-15
 -1      4327 3.20151E-03 2.70771E-05-5.85120E-15
 -1      4328 3.59504E-03 1.59630E-05-7.27946E-15
 -1      4329 3.73441E-03 1.55827E-05-7.82185E-15
 -1      4330 3.87284E-03 1.50647E-05-8.38278E-15
 -1      4331 4.01026E-03 1.45241E-05-8.96276E-15
 -1      4332 4.14660E-03 1.38253E-05-9.55997E-15
 -1      4333 4.28175E-03 1.30957E-05-1.01749E-14
 -1      4334 4.41561E-03 1.21634E-05-1.08071E-14
 -1      4335 4.54807E-03 1.11888E-05-1.14565E-14
 -1      4336 4.67901E-03 9.94814E-06-1.21230E-14
 -1      4337 4.80829E-03 8.65219E-06-1.28072E-14
 -1      4338 4.93575E-03 6.99860E-06-1.35075E-14
 -1      4339 5.06118E-03 5.28091E-06-1.42231E-14
 -1      4340 5.18441E-03 3.05736E-06-1.49552E-14
 -1      4341 1.16111E-02-1.74922E-04-5.13621E-14
 -1      4342 1.17300E-02-1.82072E-04-5.26701E-14
 -1      4343 1.21017E-02-2.04734E-04-5.66667E-14
 -1      4344 1.22297E-02-2.12804E-04-5.80210E-14
 -1      4345 1.26228E-02-2.37778E-04-6.21283E-14
 -1      4346 1.27564E-02-2.46354E-04-6.35112E-14
 -1      4347 1.27183E-02-1.86344E-04-6.31805E-14
 -1      4348 1.25845E-02-1.79076E-04-6.17921E-14
 -1      4349 3.17483E-03 8.63693E-05-5.68795E-15
 -1      4350 3.03245E-03 8.70589E-05-5.22476E-15
 -1      4351 1.14814E-02-1.80102E-04-4.99193E-14
 -1      4352 1.18517E-02-1.89301E-04-5.39915E-14
 -1      4353 1.19757E-02-1.96961E-04-5.53236E-14
 -1      4354 1.20303E-02-1.74594E-04-5.59299E-14
 -1      4355 1.17818E-02-1.60946E-04-5.32594E-14
 -1      4356 2.74391E-03 1.71522E-05-4.41822E-15
 -1      4357 2.88719E-03 1.71231E-05-4.84759E-15
 -1      4358 1.14008E-02-1.23835E-04-4.91264E-14
 -1      4359 1.13657E-02-1.38149E-04-4.86391E-14
 -1      4360 1.14376E-02-1.53068E-04-4.94264E-14
 -1      4361 1.14931E-02-1.24563E-04-5.01718E-14
 -1      4362 2.06573E-03 7.96071E-06-2.66094E-15
 -1      4363 2.20992E-03 8.11313E-06-2.99942E-15
 -1      4364 3.45781E-03 8.44166E-05-6.67209E-15
 -1      4365 3.31664E-03 8.55095E-05-6.17048E-15
 -1      4366 1.21907E-02-1.58056E-04-5.76745E-14
 -1      4367 1.20623E-02-1.51461E-04-5.63149E-14
 -1      4368 2.95946E-03 5.21658E-05-5.03647E-15
 -1      4369 3.52610E-03 4.99313E-05-6.97404E-15
 -1      4370 1.23100E-02-1.64991E-04-5.89277E-14
 -1      4371 1.22760E-02-1.89213E-04-5.85274E-14
 -1      4372 1.23486E-02-2.20924E-04-5.92697E-14
 -1      4373 1.24413E-02-1.71962E-04-6.02979E-14
 -1      4374 1.15322E-02-1.60803E-04-5.04885E-14
 -1      4375 5.56722E-03-1.80193E-05-1.75171E-14
 -1      4376 1.28481E-02-2.12993E-04-6.44990E-14
 -1      4377 1.29235E-02-2.47740E-04-6.52460E-14
 -1      4378 1.24796E-02-2.29305E-04-6.06386E-14
 -1      4379 1.25381E-02-2.04522E-04-6.12714E-14
 -1      4380 1.96361E-03-5.60655E-07-2.43742E-15
 -1      4381 1.16883E-02-1.33002E-04-5.23108E-14
 -1      4382 1.15917E-02-1.31931E-04-5.12447E-14
 -1      4383 1.31073E-02-2.87386E-04-6.71179E-14
 -1      4384 1.30154E-02-2.57032E-04-6.61918E-14
 -1      4385 1.19357E-02-1.45002E-04-5.49683E-14
 -1      4386 1.18109E-02-1.38915E-04-5.36346E-14
 -1      4387 1.28848E-02-1.86235E-04-6.49177E-14
 -1      4388 1.96362E-03-3.89662E-05-2.45329E-15
 -1      4389 5.67436E-03-5.17025E-05-1.83883E-14
 -1      4390 2.31216E-03 1.69264E-05-3.24542E-15
 -1      4391 1.08049E-02 4.04603E-05-4.44891E-14
 -1      4392 1.15628E-02-1.46740E-04-5.08660E-14
 -3
    1PSTEP                         2           1           1          
  100CL  101 1.000000000        4392                     0    1           1
 -4  STRESS      6    1
 -5  SXX         1    4    1    1
 -5  SYY         1    4    2    2
 -5  SZZ         1    4    3    3
 -5  SXY         1    4    1    2
 -5  SYZ         1    4    2    3
 -5  SZX         1    4    3    1
 -1         1 6.65988E+01 8.28218E-01 3.63132E+00-4.33489E-01-2.94972E-14-5.23165E-13
 -1         2-7.86563E-01-2.41616E+01-3.32385E+00-2.63782E-01 5.79635E-13 1.58533E-13
 -1         3 1.99989E+01-9.68666E-04 7.03502E-03-1.02551E-03-3.54692E-13-3.91934E-13
 -1         4 1.99989E+01-9.67117E-04 7.22036E-03 1.04108E-03 5.64715E-14 2.02737E-13
 -1         5 3.27039E+01 6.13041E+00 2.73604E+00 6.21518E+00-3.30222E-14 2.23244E-12
 -1         6 3.56834E+01 1.22395E+01 5.11470E+00-8.63305E+00-1.34226E-13 1.74120E-12
 -1         7 2.07889E+01 6.09107E+00-1.28476E-01-4.72028E+00-1.98314E-14 1.59896E-13
 -1         8 1.96573E+01 5.93047E+00 5.10265E-02-3.27128E+00-1.97620E-14-2.96244E-13
 -1         9 1.91349E+01 5.77115E+00 4.93524E-02-2.52318E+00-1.90369E-14-5.20068E-13
 -1        10 1.89030E+01 5.69422E+00 5.15468E-02-1.94705E+00-1.08741E-14-6.28270E-13
 -1        11 1.87873E+01 5.65520E+00 5.05856E-02-1.45162E+00-8.92992E-15-6.62834E-13
 -1        12 1.87278E+01 5.63470E+00 4.88298E-02-1.01122E+00-1.75706E-15-6.66649E-13
 -1        13 1.86967E+01 5.62399E+00 4.73521E-02-5.92633E-01-3.24827E-16-6.50119E-13
 -1        14 1.86837E+01 5.61948E+00 4.65612E-02-1.90216E-01 5.23564E-15-6.33072E-13
 -1        15 1.86842E+01 5.61963E+00 4.66001E-02 2.07261E-01 7.62652E-15-6.09784E-13
 -1        16 1.86982E+01 5.62445E+00 4.74821E-02 6.10491E-01 1.09059E-14-5.79009E-13
 -1        17 1.87304E+01 5.63541E+00 4.91082E-02 1.03103E+00 1.38236E-14-5.30651E-13
 -1        18 1.87911E+01 5.65620E+00 5.09903E-02 1.47460E+00 1.96965E-14-4.59128E-13
 -1        19 1.89079E+01 5.69566E+00 5.18173E-02 1.97590E+00 2.53304E-14-3.46920E-13
 -1        20 1.91403E+01 5.77366E+00 4.91284E-02 2.56008E+00 2.70547E-14-1.46776E-13
 -1        21 1.96530E+01 5.94511E+00 4.61836E-02 3.30537E+00 2.86021E-14 2.03423E-13
 -1        22 2.11710E+01 6.37241E+00 1.39441E-01 4.51817E+00 7.32747E-15 8.63027E-13
 -1        23 2.29793E+01-1.37685E+00-9.37375E-01-7.10409E-01-9.37445E-14 1.28215E-12
 -1        24 1.93221E+01-9.94524E-02-3.09555E-01 6.29399E-02-2.44691E-14 8.74379E-13
 -1        25 1.86367E+01-5.64460E-02-6.87756E-02 6.04444E-02-8.89631E-15 4.97402E-13
 -1        26 1.84384E+01-2.23502E-02-6.59680E-03 3.26266E-02 6.99159E-15 2.53554E-13
 -1        27 1.84569E+01-1.22191E-02 1.29071E-03 2.21955E-02 1.20271E-15 1.66346E-13
 -1        28 1.85831E+01-6.85957E-03 1.27673E-03 1.58677E-02-1.18636E-14 7.37448E-14
 -1        29 1.87630E+01-3.96254E-03 9.51732E-04 1.17251E-02-8.27086E-15-7.26810E-14
 -1        30 1.89688E+01-2.43632E-03 7.79912E-04 8.82932E-03-1.08273E-14-2.16755E-13
 -1        31 1.91877E+01-1.75305E-03 4.75013E-04 6.75417E-03-1.84787E-15-3.54089E-13
 -1        32 1.94160E+01-1.63392E-03-9.51290E-05 5.30995E-03-2.05750E-14-4.56235E-13
 -1        33 1.96564E+01-1.91643E-03-9.49431E-04 4.42463E-03 5.47420E-14-4.51984E-13
 -1        34 1.99170E+01-2.49198E-03-2.07320E-03 4.09501E-03-1.65864E-14-4.31296E-13
 -1        35 2.02094E+01-3.26905E-03-3.44121E-03 4.36820E-03 1.44314E-14-5.75719E-13
 -1        36 2.05484E+01-4.14326E-03-5.00497E-03 5.33403E-03 3.90801E-15-4.59793E-13
 -1        37 2.09507E+01-4.96393E-03-6.65337E-03 7.11568E-03-8.63469E-15-4.45018E-13
 -1        38 2.14332E+01-5.49107E-03-8.13843E-03 9.84298E-03-3.22898E-14-5.36543E-13
 -1        39 2.20092E+01-5.34238E-03-8.95017E-03 1.35813E-02-1.29391E-14-4.25793E-13
 -1        40 2.26824E+01-3.94422E-03-8.13425E-03 1.81694E-02 4.16236E-14-4.09305E-13
 -1        41 2.34363E+01-5.32784E-04-4.10455E-03 2.28964E-02-1.95547E-14-5.91843E-13
 -1        42 2.42188E+01 5.68243E-03 5.32929E-03 2.59619E-02 1.32232E-15-8.20053E-13
 -1        43 2.49221E+01 1.50192E-02 2.22341E-02 2.38161E-02-3.32459E-14-6.73540E-13
 -1        44 2.53666E+01 2.63322E-02 4.63526E-02 1.09570E-02 4.75011E-15-4.58970E-13
 -1        45 2.53105E+01 3.57181E-02 7.12119E-02-1.84794E-02 5.33839E-15-4.50544E-13
 -1        46 2.45181E+01 3.62803E-02 8.09086E-02-6.52492E-02 1.37887E-14-4.93321E-13
 -1        47 2.29162E+01 2.09988E-02 5.39026E-02-1.15818E-01-6.55313E-15 1.51337E-14
 -1        48 2.07933E+01-1.01737E-02-1.73137E-02-1.38889E-01 3.37296E-14 9.83102E-14
 -1        49 1.88597E+01-4.45433E-02-1.03598E-01-1.03066E-01-9.37445E-15 4.53561E-14
 -1        50 1.79620E+01-6.18118E-02-1.49144E-01-1.18549E-02-2.48170E-14 7.85348E-14
 -1        51 1.85454E+01-5.04541E-02-1.18817E-01 8.65732E-02-4.25636E-14-1.82215E-14
 -1        52 2.03176E+01-1.82424E-02-3.67440E-02 1.36620E-01 2.91740E-14-1.56458E-13
 -1        53 2.24718E+01 1.51457E-02 4.13634E-02 1.24489E-01-9.75595E-14-6.69236E-13
 -1        54 2.42307E+01 3.43213E-02 7.84311E-02 7.69221E-02 5.80514E-14-8.78790E-13
 -1        55 2.52087E+01 3.67672E-02 7.52499E-02 2.74996E-02-1.10712E-13-7.94627E-13
 -1        56 2.54144E+01 2.86164E-02 5.20472E-02-6.08449E-03-1.63734E-14-9.27754E-13
 -1        57 2.50648E+01 1.72187E-02 2.68272E-02-2.21616E-02 1.10510E-13-5.31743E-13
 -1        58 2.44101E+01 7.19718E-03 8.06324E-03-2.60950E-02 8.67562E-14-2.80207E-13
 -1        59 2.36472E+01 2.06388E-04-2.97553E-03-2.37279E-02 5.24939E-14-2.80890E-13
 -1        60 2.28999E+01-3.85346E-03-8.11142E-03-1.90581E-02 1.87830E-14 1.38645E-13
 -1        61 2.22325E+01-5.72868E-03-9.61895E-03-1.42033E-02 4.90731E-14 2.53104E-13
 -1        62 2.16694E+01-6.20999E-03-9.23694E-03-1.00444E-02-4.66778E-14-1.88799E-13
 -1        63 2.12124E+01-5.91207E-03-8.04638E-03-6.80939E-03-6.38414E-14-2.47349E-13
 -1        64 2.08517E+01-5.24814E-03-6.63911E-03-4.43932E-03-2.43135E-14-4.41386E-13
 -1        65 2.05735E+01-4.47223E-03-5.31085E-03-2.77662E-03 6.94590E-14-2.58460E-13
 -1        66 2.03634E+01-3.73093E-03-4.20580E-03-1.64685E-03 5.18145E-14-3.83256E-13
 -1        67 2.02086E+01-3.10231E-03-3.40974E-03-8.75200E-04 5.04187E-15-1.87140E-13
 -1        68 2.00990E+01-2.61411E-03-2.97788E-03-2.68654E-04 5.89046E-14-9.57879E-14
 -1        69 2.00280E+01-2.22529E-03-2.85597E-03 4.18048E-04 5.95234E-14-5.14192E-14
 -1        70 1.99923E+01-1.61963E-03-2.42000E-03 1.65309E-03 7.30447E-14 4.27892E-13
 -1        71 1.99900E+01 2.84239E-04 8.66741E-04 3.09826E-03 3.67283E-14 5.98579E-13
 -1        72 2.09948E+01-4.04200E-01-9.79468E-01-3.10671E-01 2.73982E-14 2.07410E-12
 -1        73 1.92868E+01-6.58997E-02-2.90890E-01-5.35771E-02 7.26242E-15 1.67072E-12
 -1        74 1.86464E+01-2.06389E-02-6.42864E-02-2.00252E-02 1.03004E-14 1.36821E-12
 -1        75 1.84478E+01-1.01085E-02-9.48323E-03-1.49985E-02 3.01387E-15 1.09791E-12
 -1        76 1.84662E+01-5.51427E-03 3.42552E-04-1.17894E-02 6.67484E-15 9.18028E-13
 -1        77 1.85919E+01-3.11471E-03 1.19617E-03-9.36682E-03 3.31739E-16 7.87489E-13
 -1        78 1.87709E+01-1.83545E-03 1.05448E-03-7.46877E-03-1.12866E-14 7.44056E-13
 -1        79 1.89759E+01-1.20793E-03 8.85899E-04-5.88243E-03 2.32767E-14 6.91412E-13
 -1        80 1.91938E+01-9.94801E-04 5.62698E-04-4.52011E-03-2.56549E-14 6.30332E-13
 -1        81 1.94206E+01-1.06055E-03-8.39103E-06-3.37020E-03 2.29689E-14 5.72126E-13
 -1        82 1.96586E+01-1.31501E-03-8.27227E-04-2.46100E-03 1.53377E-14 4.52584E-13
 -1        83 1.99146E+01-1.68389E-03-1.85351E-03-1.85036E-03-2.42865E-15 4.02813E-13
 -1        84 2.01984E+01-2.08801E-03-3.02230E-03-1.62752E-03 2.58144E-14 3.71244E-13
 -1        85 2.05220E+01-2.42437E-03-4.22729E-03-1.91907E-03 9.47219E-15 3.31861E-13
 -1        86 2.08972E+01-2.54603E-03-5.28152E-03-2.89210E-03 3.76697E-14 6.09664E-14
 -1        87 2.13340E+01-2.24256E-03-5.85621E-03-4.74384E-03-6.55829E-14 1.26750E-13
 -1        88 2.18357E+01-1.22993E-03-5.39983E-03-7.65646E-03 1.69954E-14 2.32718E-13
 -1        89 2.23937E+01 8.27157E-04-3.06205E-03-1.16787E-02-2.65222E-15 8.72132E-14
 -1        90 2.29780E+01 4.21643E-03 2.29527E-03-1.64797E-02-3.75659E-14 3.24494E-13
 -1        91 2.35271E+01 8.94071E-03 1.18135E-02-2.09306E-02-9.24033E-15 4.18573E-13
 -1        92 2.39380E+01 1.43101E-02 2.57892E-02-2.25827E-02-1.52000E-14 4.04948E-13
 -1        93 2.40662E+01 1.84801E-02 4.20547E-02-1.74392E-02 2.01730E-14 3.33859E-13
 -1        94 2.37500E+01 1.84292E-02 5.41381E-02-9.64563E-04 2.80420E-14-1.47332E-13
 -1        95 2.28743E+01 1.12129E-02 5.13084E-02 2.85113E-02 1.43529E-14-3.97099E-13
 -1        96 2.14745E+01-3.24084E-03 2.39633E-02 6.43644E-02 2.27096E-14-1.48992E-13
 -1        97 1.98293E+01-1.99622E-02-2.59071E-02 8.94218E-02-5.56885E-14 3.72286E-13
 -1        98 1.84412E+01-3.05352E-02-7.79392E-02 8.40505E-02-5.11162E-14 5.72594E-13
 -1        99 1.78379E+01-2.90582E-02-1.02222E-01 4.23554E-02-8.48930E-16 4.25212E-13
 -1       100 1.82743E+01-1.69841E-02-8.25835E-02-1.73343E-02-1.10695E-14 3.88727E-13
 -1       101 1.95656E+01-1.18827E-03-3.23546E-02-6.47696E-02 3.78216E-14-1.75589E-13
 -1       102 2.12096E+01 1.13152E-02 1.92649E-02-8.15087E-02-4.63183E-14-3.23699E-13
 -1       103 2.26799E+01 1.72145E-02 4.98504E-02-7.00734E-02-2.75423E-14-2.49661E-14
 -1       104 2.36550E+01 1.70170E-02 5.52457E-02-4.51086E-02 4.17036E-14-2.36000E-13
 -1       105 2.40649E+01 1.31992E-02 4.42922E-02-2.01917E-02-5.48722E-14-3.27613E-13
 -1       106 2.40080E+01 8.26889E-03 2.78804E-02-2.03961E-03 4.92987E-16-4.29897E-13
 -1       107 2.36444E+01 3.84885E-03 1.31398E-02 8.38145E-03 1.99312E-14-8.20952E-13
 -1       108 2.31249E+01 6.01662E-04 2.76666E-03 1.28140E-02 1.56306E-14-9.00943E-13
 -1       109 2.25608E+01-1.43280E-03-3.28835E-03 1.35094E-02 2.88917E-14-5.22927E-13
 -1       110 2.20215E+01-2.49435E-03-6.12971E-03 1.22691E-02-5.61739E-16-5.71371E-13
 -1       111 2.15433E+01-2.88346E-03-6.94444E-03 1.02610E-02 6.81987E-14-5.48385E-13
 -1       112 2.11400E+01-2.86154E-03-6.64724E-03 8.14218E-03-7.97095E-14-6.48177E-13
 -1       113 2.08120E+01-2.62325E-03-5.84139E-03 6.23401E-03 1.07149E-13-8.53039E-13
 -1       114 2.05529E+01-2.30149E-03-4.89170E-03 4.66171E-03-6.48141E-14-8.34529E-13
 -1       115 2.03535E+01-1.97877E-03-4.01226E-03 3.44103E-03 7.29500E-14-9.79480E-13
 -1       116 2.02043E+01-1.70352E-03-3.33851E-03 2.52538E-03 9.27269E-14-1.39646E-12
 -1       117 2.00976E+01-1.49632E-03-2.98282E-03 1.82872E-03-1.65405E-14-1.53250E-12
 -1       118 2.00279E+01-1.31543E-03-2.91912E-03 1.15039E-03-1.40278E-13-1.00989E-12
 -1       119 1.99929E+01-8.62461E-04-2.43500E-03-9.19099E-05 6.10789E-14-9.19878E-13
 -1       120 1.99908E+01 1.08166E-03 9.65630E-04-2.48587E-03 1.73495E-13-9.15827E-13
 -1       121 2.00000E+01-8.41167E-03 5.54828E-04-3.38304E-03-7.57585E-13 2.31733E-14
 -1       122 1.99985E+01-4.35229E-03-2.63728E-03-7.41622E-04-3.41700E-13 1.30432E-13
 -1       123 1.99987E+01 3.23944E-02-2.35406E-03 1.10261E-03 6.17203E-13-1.03835E-13
 -1       124 1.99993E+01 9.22968E-02-1.12843E-03 2.07203E-03 6.04196E-13 1.00768E-13
 -1       125 2.00001E+01 1.62351E-01 1.82474E-04 2.31717E-03 9.28237E-13-2.34607E-13
 -1       126 2.00008E+01 2.28176E-01 1.27758E-03 2.05704E-03 2.01892E-13 1.94379E-14
 -1       127 2.00013E+01 2.80235E-01 2.06648E-03 1.39416E-03 2.52763E-13 1.21785E-13
 -1       128 2.00016E+01 3.08638E-01 2.48632E-03 4.89698E-04 7.01305E-13-1.83737E-14
 -1       129 2.00016E+01 3.08689E-01 2.49695E-03-5.00513E-04 2.76846E-14 1.90302E-14
 -1       130 2.00013E+01 2.80269E-01 2.09107E-03-1.41489E-03 4.01338E-13 1.14564E-13
 -1       131 2.00008E+01 2.27935E-01 1.28643E-03-2.10809E-03 7.71073E-14-2.09522E-13
 -1       132 2.00001E+01 1.61617E-01 1.82101E-04-2.35727E-03-3.04993E-13 3.82927E-13
 -1       133 1.99993E+01 9.10336E-02-1.14909E-03-2.08622E-03 2.39126E-13-1.46955E-14
 -1       134 1.99985E+01 3.06303E-02-2.53650E-03-1.26823E-03 1.38323E-13-1.14443E-13
 -1       135 1.99989E+01-5.03501E-03-2.40370E-03 1.09396E-03-6.02172E-13 3.66607E-14
 -1       136 1.99989E+01-8.46127E-03 6.45238E-04 5.45870E-03-5.84198E-13-3.43053E-15
 -1       137-1.37898E+00-1.89796E+01-2.99627E+00-3.56565E+00 1.21042E-12 2.35229E-13
 -1       138-1.48978E+00-7.82696E+00-2.19631E+00-2.78783E+00 1.70819E-12 7.07490E-13
 -1       139 4.17030E+00 4.56439E+00-8.89575E-01 4.66112E+00 1.46261E-12 1.12854E-12
 -1       140 1.73197E+01 1.07759E+01 5.39223E-01 1.35251E+01 1.16146E-12 1.30385E-12
 -1       141 3.54572E+01 9.81588E+00 1.85612E+00 1.81172E+01 4.44145E-13 4.12670E-13
 -1       142 5.40367E+01 5.02869E+00 2.94390E+00 1.50773E+01 2.06779E-15 3.30680E-13
 -1       143 6.53058E+01 1.06131E+00 3.51846E+00 3.73737E+00 1.57652E-14 5.76206E-13
 -1       144 6.19227E+01 2.26898E+00 3.33406E+00-9.65828E+00 7.86047E-14-1.52989E-13
 -1       145 4.74583E+01 7.03699E+00 2.57389E+00-1.72996E+01 6.22474E-13-1.61759E-12
 -1       146 2.76048E+01 1.08914E+01 1.33639E+00-1.69864E+01 1.52617E-12-2.18653E-12
 -1       147 1.09629E+01 9.28035E+00-4.64272E-02-1.01011E+01 2.29139E-12-2.33374E-12
 -1       148 1.35925E+00 1.21454E+00-1.34852E+00-1.65891E+00 2.14218E-12-1.51140E-12
 -1       149-1.75870E+00-1.13085E+01-2.48731E+00 3.74852E+00 1.45561E-12-5.40235E-13
 -1       150-1.12356E+00-2.15155E+01-3.17872E+00 3.00666E+00 2.65343E-13-1.75738E-13
 -1       151-8.14381E-01-2.39368E+01-3.33028E+00-1.18306E+00-1.46760E-12-1.44978E-13
 -1       152-1.70529E+00-1.73830E+01-2.93624E+00-4.18582E+00-2.39742E-12-6.59021E-13
 -1       153-8.50146E-01-4.84267E+00-1.98466E+00-1.52462E+00-2.40280E-12-1.28569E-12
 -1       154 6.52677E+00 6.50645E+00-6.37716E-01 6.73348E+00-1.73794E-12-1.35780E-12
 -1       155 2.17426E+01 1.10259E+01 8.67473E-01 1.52581E+01-9.36140E-13-1.10900E-12
 -1       156 4.11152E+01 8.58348E+00 2.22247E+00 1.79931E+01-3.29792E-13-8.57703E-13
 -1       157 6.00418E+01 3.35900E+00 3.31238E+00 1.19324E+01-2.08299E-13-8.61089E-13
 -1       158 6.01121E+01 3.20249E+00 3.28794E+00-1.19535E+01-1.43534E-13 2.19158E-13
 -1       159 4.44639E+01 7.83477E+00 2.40405E+00-1.78038E+01-4.04149E-13 1.12460E-12
 -1       160 2.61242E+01 1.09060E+01 1.19394E+00-1.65819E+01-9.45632E-13 1.41342E-12
 -1       161 1.06997E+01 8.88468E+00-1.37381E-01-9.77500E+00-1.34776E-12 1.36680E-12
 -1       162 1.25288E+00 7.96042E-01-1.42118E+00-1.48448E+00-1.48798E-12 1.02512E-12
 -1       163-1.69510E+00-1.04241E+01-2.44700E+00 3.52477E+00-8.89011E-13 4.44561E-13
 -1       164-1.30958E+00-2.04268E+01-3.12186E+00 3.69876E+00-3.15303E-13 1.19394E-13
 -1       165 2.09912E+01 3.68977E+00-5.72648E-02-3.60424E+00-2.83360E-13-5.89355E-14
 -1       166 1.99825E+01 4.20635E+00-4.58120E-02-2.80238E+00-2.43226E-13-3.34059E-13
 -1       167 1.95135E+01 4.47732E+00-3.12326E-02-2.18944E+00-1.76672E-13-4.79516E-13
 -1       168 1.92783E+01 4.61913E+00-2.34041E-02-1.66811E+00-1.15221E-13-5.49312E-13
 -1       169 1.91522E+01 4.70368E+00-1.94407E-02-1.21310E+00-6.67078E-14-5.59586E-13
 -1       170 1.90811E+01 4.75700E+00-1.73328E-02-7.87483E-01-1.77867E-14-5.65204E-13
 -1       171 1.90452E+01 4.78637E+00-1.63125E-02-3.84379E-01 3.07415E-14-5.38861E-13
 -1       172 1.90347E+01 4.79543E+00-1.60177E-02 8.28969E-03 7.26555E-14-5.19324E-13
 -1       173 1.90468E+01 4.78510E+00-1.63533E-02 4.01288E-01 1.20761E-13-4.91946E-13
 -1       174 1.90846E+01 4.75404E+00-1.74136E-02 8.05427E-01 1.57628E-13-4.67428E-13
 -1       175 1.91566E+01 4.69931E+00-1.95894E-02 1.22550E+00 2.00332E-13-4.08585E-13
 -1       176 1.92875E+01 4.60925E+00-2.39117E-02 1.69156E+00 2.56799E-13-3.20150E-13
 -1       177 1.95270E+01 4.46033E+00-3.27464E-02 2.22000E+00 2.94291E-13-1.86313E-13
 -1       178 2.00057E+01 4.18180E+00-4.70785E-02 2.84068E+00 3.17925E-13 4.93945E-14
 -1       179 2.11122E+01 3.46012E+00-5.96675E-02 3.53093E+00 2.83809E-13 4.69229E-13
 -1       180 2.23827E+01 1.14255E+00-3.35986E-01 3.01045E+00 1.90137E-13 9.90291E-13
 -1       181 2.19391E+01 8.57445E-01 6.97626E-04-1.95549E+00-2.51289E-13 2.91576E-13
 -1       182 2.04192E+01 1.90519E-01-9.87791E-03-7.60911E-01-2.11348E-13 1.73374E-13
 -1       183 1.96493E+01 1.02281E-01 1.36652E-02-2.81202E-01-1.49702E-13 9.28042E-14
 -1       184 1.93177E+01 4.84031E-02 1.01176E-02-6.08804E-02-8.15108E-14-2.29938E-15
 -1       185 1.92003E+01 2.45445E-02 5.31058E-03 5.08634E-02-4.67336E-14-4.05659E-14
 -1       186 1.92055E+01 1.24802E-02 2.64896E-03 1.10259E-01-8.39266E-14-5.87279E-14
 -1       187 1.92818E+01 6.35409E-03 1.42542E-03 1.42398E-01-8.14442E-14-1.19279E-13
 -1       188 1.94011E+01 3.75827E-03 8.88411E-04 1.60920E-01-5.98641E-14-1.19963E-13
 -1       189 1.95489E+01 3.53114E-03 6.70192E-04 1.74268E-01-8.83508E-14-1.27055E-13
 -1       190 1.97194E+01 5.04099E-03 6.20788E-04 1.88240E-01-8.95451E-15-1.65820E-13
 -1       191 1.99128E+01 7.90115E-03 6.73769E-04 2.07116E-01-2.75993E-14-3.03381E-13
 -1       192 2.01331E+01 1.18267E-02 7.88300E-04 2.34167E-01-8.03868E-14-3.22840E-13
 -1       193 2.03877E+01 1.65250E-02 9.26107E-04 2.71809E-01 9.02620E-15-3.51711E-13
 -1       194 2.06855E+01 2.15679E-02 1.03923E-03 3.21434E-01-2.48194E-14-3.65031E-13
 -1       195 2.10358E+01 2.62059E-02 1.06049E-03 3.82849E-01-4.22265E-14-3.32158E-13
 -1       196 2.14463E+01 2.90882E-02 8.97275E-04 4.53143E-01 5.11251E-14-2.87337E-13
 -1       197 2.19195E+01 2.78741E-02 4.36294E-04 5.24780E-01 3.00419E-14-3.04489E-13
 -1       198 2.24483E+01 1.88049E-02-4.25872E-04 5.82771E-01-7.49274E-14-3.97209E-13
 -1       199 2.30091E+01-3.43752E-03-1.70683E-03 6.01277E-01-1.39380E-13-3.56884E-13
 -1       200 2.35538E+01-4.47252E-02-3.22208E-03 5.41378E-01 2.74576E-14-4.63792E-13
 -1       201 2.40028E+01-1.07674E-01-4.44684E-03 3.54551E-01 1.11790E-13-4.53715E-13
 -1       202 2.42454E+01-1.83548E-01-4.58257E-03 2.35616E-05 5.41667E-14-3.94230E-13
 -1       203 2.41582E+01-2.40943E-01-3.05273E-03-5.15538E-01 1.42711E-13-2.35559E-13
 -1       204 2.36547E+01-2.22138E-01-1.43404E-04-1.08028E+00 2.36426E-13 1.24813E-14
 -1       205 2.27713E+01-7.36107E-02 1.72878E-03-1.44774E+00 1.21429E-13 9.67377E-14
 -1       206 2.17506E+01 1.82772E-01 5.61556E-04-1.32646E+00 7.49531E-15 1.57499E-13
 -1       207 2.10131E+01 4.06303E-01-1.62519E-03-6.17805E-01-4.58748E-14 1.04562E-13
 -1       208 2.09301E+01 4.34332E-01-1.39820E-03 4.01839E-01-8.44706E-14-2.51340E-14
 -1       209 2.15476E+01 2.41505E-01 2.80748E-04 1.21712E+00-1.66930E-13-1.52088E-13
 -1       210 2.25455E+01-2.28902E-02 1.61929E-03 1.47168E+00-2.64879E-13-3.15893E-13
 -1       211 2.34894E+01-2.00953E-01 2.74499E-04 1.19066E+00-1.51502E-13-3.27763E-13
 -1       212 2.40890E+01-2.45259E-01-2.47955E-03 6.45496E-01-9.07737E-14-4.17955E-13
 -1       213 2.42674E+01-1.99052E-01-4.36160E-03 1.05883E-01 2.64285E-15-4.35689E-13
 -1       214 2.40926E+01-1.23275E-01-4.55386E-03-2.85924E-01 2.81228E-13-2.27745E-13
 -1       215 2.36864E+01-5.57373E-02-3.48305E-03-5.04713E-01 5.01916E-14-4.40780E-13
 -1       216 2.31655E+01-9.29414E-03-1.95200E-03-5.84993E-01 7.27143E-14-2.75484E-13
 -1       217 2.26176E+01 1.70772E-02-5.67688E-04-5.75687E-01 7.53639E-14-4.31751E-13
 -1       218 2.20981E+01 2.90242E-02 4.16000E-04-5.18319E-01 8.99005E-14-3.60685E-13
 -1       219 2.16367E+01 3.21442E-02 9.83221E-04-4.41347E-01-3.00463E-13-2.68844E-13
 -1       220 2.12446E+01 3.05444E-02 1.22648E-03-3.61698E-01-7.84967E-14-2.55044E-13
 -1       221 2.09221E+01 2.68333E-02 1.25927E-03-2.88143E-01-5.92510E-14-2.15953E-13
 -1       222 2.06636E+01 2.25213E-02 1.17612E-03-2.24345E-01 9.92146E-14-1.62370E-13
 -1       223 2.04611E+01 1.84259E-02 1.04199E-03-1.71008E-01 2.04014E-14-5.22950E-14
 -1       224 2.03058E+01 1.49849E-02 8.93237E-04-1.27209E-01 6.54790E-14-9.64338E-14
 -1       225 2.01900E+01 1.24392E-02 7.38754E-04-9.11491E-02 2.28678E-13-3.98614E-14
 -1       226 2.01069E+01 1.08663E-02 5.68214E-04-6.06444E-02 7.44560E-14 7.34144E-14
 -1       227 2.00513E+01 1.01187E-02 4.37822E-04-3.37153E-02 1.98805E-13 5.93412E-14
 -1       228 2.00170E+01 9.14532E-03 3.31613E-04-9.84938E-03 1.16293E-13 1.97208E-13
 -1       229 2.09305E+01 2.76902E-01-5.12395E-02 1.16212E+00 2.01384E-13 8.50433E-13
 -1       230 1.98404E+01 1.27045E-01 8.35853E-03 4.40276E-01 1.82441E-13 6.80679E-13
 -1       231 1.93403E+01 5.86357E-02 1.27934E-02 1.45814E-01 1.41031E-13 5.12901E-13
 -1       232 1.91399E+01 2.87456E-02 7.71241E-03 3.80163E-03 1.04007E-13 4.13855E-13
 -1       233 1.91045E+01 1.46750E-02 3.93918E-03-6.97151E-02 8.58692E-14 3.41969E-13
 -1       234 1.91620E+01 7.47970E-03 2.06029E-03-1.08641E-01 2.38986E-14 2.54987E-13
 -1       235 1.92733E+01 3.89941E-03 1.20164E-03-1.29606E-01 5.29382E-14 2.37829E-13
 -1       236 1.94173E+01 2.52387E-03 7.89995E-04-1.42023E-01 2.89407E-14 2.32479E-13
 -1       237 1.95840E+01 2.63987E-03 5.77796E-04-1.51891E-01 4.82993E-14 1.69248E-13
 -1       238 1.97704E+01 3.82460E-03 4.66004E-04-1.63329E-01 3.63877E-14 2.12188E-13
 -1       239 1.99784E+01 5.77733E-03 4.06140E-04-1.79244E-01 2.58076E-14 1.89222E-13
 -1       240 2.02128E+01 8.22292E-03 3.63677E-04-2.01578E-01 3.97440E-14 1.47751E-13
 -1       241 2.04804E+01 1.08283E-02 3.06007E-04-2.31268E-01 7.37028E-14 6.85421E-14
 -1       242 2.07880E+01 1.31063E-02 1.99276E-04-2.67934E-01 6.26889E-14 7.20024E-14
 -1       243 2.11408E+01 1.42931E-02 1.13262E-05-3.09239E-01-8.39565E-14 1.90259E-13
 -1       244 2.15390E+01 1.32025E-02-2.76279E-04-3.49881E-01 1.84470E-14 1.27298E-13
 -1       245 2.19744E+01 8.09954E-03-6.42513E-04-3.80223E-01 4.72009E-14 1.29256E-13
 -1       246 2.24248E+01-3.27145E-03-9.87684E-04-3.84862E-01-4.38081E-14 1.10557E-13
 -1       247 2.28488E+01-2.32044E-02-1.09933E-03-3.42032E-01-2.48437E-14 2.90388E-14
 -1       248 2.31815E+01-5.25887E-02-6.76499E-04-2.25877E-01-1.59395E-14 9.75908E-14
 -1       249 2.33362E+01-8.80097E-02 5.13165E-04-1.48823E-02 5.62775E-14 8.60870E-14
 -1       250 2.32198E+01-1.17912E-01 2.23242E-03 2.90213E-01 2.23015E-13 1.33160E-13
 -1       251 2.27671E+01-1.20945E-01 3.45279E-03 6.40962E-01 6.72765E-14-3.69236E-14
 -1       252 2.19953E+01-7.35088E-02 2.60202E-03 9.23771E-01-1.75053E-13 1.61930E-13
 -1       253 2.10564E+01 2.85723E-02-1.16842E-03 9.83945E-01-2.45654E-13 4.18985E-13
 -1       254 2.02335E+01 1.49585E-01-5.96853E-03 7.13993E-01-3.71838E-15 3.73195E-13
 -1       255 1.98378E+01 2.23078E-01-7.95958E-03 1.58187E-01 7.95934E-14 2.91545E-13
 -1       256 2.00394E+01 2.00120E-01-4.99980E-03-4.65283E-01-3.33067E-14 1.13363E-13
 -1       257 2.07520E+01 9.76564E-02 4.08261E-04-8.93493E-01 2.13180E-13 1.82727E-13
 -1       258 2.16929E+01-2.07224E-02 4.44171E-03-9.90330E-01 1.08447E-14 1.92446E-13
 -1       259 2.25506E+01-9.89392E-02 4.98204E-03-7.99321E-01-5.20001E-14 9.83233E-14
 -1       260 2.31238E+01-1.21521E-01 2.89189E-03-4.66202E-01 1.72169E-13 5.33941E-14
 -1       261 2.33549E+01-1.04394E-01 3.37257E-04-1.30879E-01 8.49112E-14-5.53850E-14
 -1       262 2.32891E+01-7.10513E-02-1.34337E-03 1.26932E-01 1.13032E-13-2.45588E-13
 -1       263 2.30161E+01-3.81076E-02-1.88806E-03 2.85978E-01 1.59570E-13-3.84220E-13
 -1       264 2.26277E+01-1.29645E-02-1.65020E-03 3.59224E-01 1.19794E-14-3.65180E-13
 -1       265 2.21976E+01 3.19501E-03-1.08212E-03 3.71579E-01-2.00241E-13-3.31871E-13
 -1       266 2.17758E+01 1.19831E-02-4.96563E-04 3.47112E-01 5.88547E-14-4.20024E-13
 -1       267 2.13917E+01 1.56622E-02-3.71803E-05 3.04198E-01-1.86937E-14-1.59540E-13
 -1       268 2.10592E+01 1.62078E-02 2.64562E-04 2.55033E-01 2.46510E-14-1.60878E-13
 -1       269 2.07818E+01 1.50628E-02 4.30996E-04 2.06800E-01 1.09218E-13-1.54664E-13
 -1       270 2.05573E+01 1.31855E-02 4.99833E-04 1.63143E-01-1.31574E-13-1.96483E-13
 -1       271 2.03804E+01 1.11835E-02 5.05209E-04 1.25382E-01 3.23616E-13-1.49333E-13
 -1       272 2.02448E+01 9.41768E-03 4.61494E-04 9.33783E-02 1.45541E-13-2.88062E-13
 -1       273 2.01445E+01 8.11211E-03 3.59584E-04 6.61718E-02-1.44677E-13-1.17553E-13
 -1       274 2.00744E+01 7.44896E-03 1.99315E-04 4.22930E-02-1.05279E-13-2.41923E-14
 -1       275 2.00305E+01 7.38085E-03 2.18229E-04 2.03160E-02 9.88081E-14-1.89506E-13
 -1       276 2.00076E+01 4.99588E-03 5.99201E-04 1.66866E-03-1.18605E-14-2.91045E-13
 -1       277 2.00090E+01 1.74029E-02 2.84638E-04 1.16888E-02 1.90236E-13 3.54273E-13
 -1       278 2.00084E+01 4.75440E-02 8.54598E-05 3.24209E-02 2.13112E-13 3.20818E-13
 -1       279 2.00049E+01 9.10950E-02 3.01976E-05 4.86275E-02 2.51267E-13 1.52470E-14
 -1       280 2.00007E+01 1.42485E-01-1.95905E-05 5.55115E-02 2.54463E-13-9.44601E-15
 -1       281 1.99968E+01 1.93292E-01-1.27489E-04 5.26029E-02 1.48145E-13-4.40109E-13
 -1       282 1.99936E+01 2.37410E-01-2.28927E-04 4.07647E-02 7.01606E-14-1.93040E-13
 -1       283 1.99915E+01 2.67012E-01-3.04877E-04 2.22296E-02 7.70176E-14 2.88132E-13
 -1       284 1.99907E+01 2.77545E-01-3.32491E-04 8.80955E-05 4.53209E-14-1.04344E-13
 -1       285 1.99914E+01 2.67341E-01-3.06631E-04-2.21448E-02 1.62917E-13 1.26332E-13
 -1       286 1.99935E+01 2.37893E-01-2.32479E-04-4.09057E-02-1.54480E-13-1.56801E-13
 -1       287 1.99967E+01 1.94556E-01-1.25150E-04-5.28300E-02-2.36154E-14-2.46442E-13
 -1       288 2.00008E+01 1.42594E-01-2.37776E-05-5.59184E-02 9.47579E-14 3.04663E-13
 -1       289 2.00050E+01 9.08022E-02 2.59100E-05-4.87915E-02 6.86135E-14-3.22743E-14
 -1       290 2.00087E+01 4.78540E-02 2.47048E-04-3.24265E-02-4.11742E-15-4.14291E-13
 -1       291 2.00157E+01 2.71761E-02 2.48379E-04-2.29656E-02-7.23309E-16-1.20648E-14
 -1       292-3.00235E-01-8.50582E+00-6.14908E-01 1.79948E+00 2.24307E-13 5.52475E-13
 -1       293 2.82591E+00-8.24360E+00-7.80226E-01 3.48884E+00 4.39065E-13 3.60205E-13
 -1       294 1.10392E+01-4.97811E+00-3.50053E-01 6.20847E+00 3.56992E-13 2.41709E-13
 -1       295 1.98237E+01-8.00025E-01-5.63283E-02 7.16251E+00 4.23855E-13 1.20931E-13
 -1       296 2.95215E+01 2.74617E+00 3.46838E-01 7.55436E+00 5.72112E-13-1.35669E-13
 -1       297 3.82152E+01 4.91505E+00 6.57709E-01 5.77090E+00 1.72681E-13 2.09555E-13
 -1       298 4.37186E+01 6.56190E+00 8.26042E-01 2.56936E+00-3.04062E-14 1.90764E-13
 -1       299 4.66467E+01 6.58180E+00 1.04460E+00-9.63513E-01 2.79859E-13 3.53814E-14
 -1       300 4.23109E+01 5.92460E+00 8.15955E-01-4.18521E+00 7.25031E-13 3.32234E-14
 -1       301 3.51084E+01 4.06651E+00 5.45987E-01-6.55415E+00 6.24507E-13-3.51053E-13
 -1       302 2.53864E+01 1.60261E+00 1.90477E-01-7.67968E+00 9.02611E-13-6.03351E-13
 -1       303 1.57043E+01-1.83663E+00-2.15460E-01-6.83502E+00 7.70578E-13-9.94954E-13
 -1       304 7.24588E+00-5.78150E+00-6.05864E-01-4.94790E+00 5.38236E-13-9.21811E-13
 -1       305 1.41651E+00-9.19735E+00-8.73180E-01-2.76540E+00 1.56541E-13-6.92904E-13
 -1       306-1.04225E+00-9.85279E+00-8.28421E-01-7.34900E-01-2.74579E-13-8.45518E-13
 -1       307-1.99157E-01-9.84480E+00-8.57363E-01 1.73123E+00-7.17620E-13-5.98854E-13
 -1       308 4.58752E+00-7.34442E+00-6.19939E-01 4.36358E+00-9.18876E-13-5.06834E-13
 -1       309 1.31968E+01-4.29471E+00-3.11366E-01 6.36109E+00-9.44050E-13-3.71134E-13
 -1       310 2.20836E+01 2.36912E-01 2.05591E-02 7.37663E+00-9.21097E-13-4.31433E-13
 -1       311 3.23639E+01 3.27116E+00 4.56879E-01 7.29503E+00-6.24362E-13-5.60774E-13
 -1       312 3.96423E+01 5.32400E+00 5.77584E-01 3.58188E+00-2.84536E-13-6.97581E-13
 -1       313 4.57125E+01 6.71824E+00 9.43871E-01 1.55997E+00-2.41779E-13-6.53325E-13
 -1       314 4.64838E+01 6.47051E+00 1.03749E+00-1.88195E+00-3.77157E-13-4.24036E-13
 -1       315 4.09480E+01 5.57648E+00 7.10700E-01-4.14393E+00-3.06324E-13-3.95128E-13
 -1       316 3.43430E+01 3.75969E+00 5.34543E-01-6.99988E+00-4.26562E-13 1.15463E-14
 -1       317 2.51398E+01 1.13556E+00 1.50451E-01-7.47543E+00-4.92967E-13 4.02678E-13
 -1       318 1.61715E+01-2.48166E+00-2.20282E-01-6.71258E+00-3.83721E-13 4.47642E-13
 -1       319 7.68415E+00-5.73143E+00-5.81559E-01-4.98757E+00-1.15213E-13 4.34111E-13
 -1       320 2.17753E+00-8.58627E+00-7.83441E-01-3.24346E+00-1.84380E-13 4.58314E-13
 -1       321-9.25399E-01-1.06208E+01-9.51435E-01-8.87829E-01 2.92127E-15 4.30322E-13
 -1       322 2.01355E+01 3.00244E+00-2.19715E-02-2.08813E+00-2.40825E-13-2.98515E-13
 -1       323 2.07433E+01 2.20757E+00-1.76134E-02-2.35724E+00-2.89491E-13-1.34233E-13
 -1       324 1.95959E+01 3.70109E+00-1.55830E-02-1.30763E+00-1.05335E-13-4.30812E-13
 -1       325 1.94754E+01 3.86193E+00-1.36670E-02-9.15639E-01-5.67679E-14-4.50052E-13
 -1       326 1.94076E+01 3.95579E+00-1.26573E-02-5.38543E-01 9.62528E-16-4.34229E-13
 -1       327 1.93774E+01 3.99872E+00-1.22282E-02-1.71387E-01 6.63961E-14-4.05263E-13
 -1       328 1.93787E+01 3.99709E+00-1.22457E-02 1.92513E-01 1.21780E-13-3.86198E-13
 -1       329 1.94116E+01 3.95056E+00-1.26984E-02 5.60021E-01 1.67053E-13-3.70785E-13
 -1       330 1.94812E+01 3.85435E+00-1.37188E-02 9.31304E-01 2.23662E-13-3.30994E-13
 -1       331 1.96055E+01 3.68818E+00-1.56171E-02 1.32375E+00 2.77599E-13-2.58546E-13
 -1       332 1.98160E+01 3.41530E+00-1.88000E-02 1.72878E+00 3.24849E-13-1.67345E-13
 -1       333 2.01782E+01 2.95690E+00-2.28833E-02 2.11819E+00 3.59877E-13-2.26815E-14
 -1       334 2.07353E+01 2.12900E+00-3.03934E-02 2.31510E+00 3.41715E-13 2.37522E-13
 -1       335 2.10725E+01 1.18721E+00-2.48413E-02 1.91681E+00 2.94929E-13 4.86446E-13
 -1       336 2.03733E+01 4.90191E-01 8.38462E-03 9.21346E-01 2.54775E-13 3.63033E-13
 -1       337 2.04470E+01 6.77476E-01 1.26254E-02-1.01623E+00-2.13883E-13-8.08147E-14
 -1       338 2.00322E+01 3.41223E-01 7.22697E-03-4.45039E-01-1.50694E-13-6.83246E-14
 -1       339 1.97880E+01 1.83715E-01 4.18783E-03-1.29074E-01-1.15734E-13-8.79170E-14
 -1       340 1.96671E+01 1.01312E-01 2.01909E-03 5.27155E-02-7.80643E-14-1.49191E-13
 -1       341 1.96325E+01 5.68674E-02 9.76957E-04 1.59128E-01-1.01912E-13-1.28301E-13
 -1       342 1.96563E+01 3.39057E-02 5.32186E-04 2.23509E-01-4.27136E-14-8.52249E-14
 -1       343 1.97205E+01 2.45057E-02 3.64342E-04 2.66304E-01-8.27940E-14-9.58472E-14
 -1       344 1.98146E+01 2.44603E-02 3.39146E-04 3.01063E-01-8.87237E-14-8.01895E-14
 -1       345 1.99332E+01 3.12959E-02 4.02246E-04 3.37359E-01-9.82034E-14-1.69678E-13
 -1       346 2.00753E+01 4.33516E-02 5.25779E-04 3.82237E-01-9.56155E-14-2.44276E-13
 -1       347 2.02426E+01 5.92292E-02 6.87470E-04 4.40852E-01-5.12893E-14-1.67773E-13
 -1       348 2.04386E+01 7.73123E-02 8.60553E-04 5.16565E-01 2.26273E-14-1.71496E-13
 -1       349 2.06679E+01 9.51819E-02 1.00516E-03 6.10485E-01-4.16114E-14-1.60303E-13
 -1       350 2.09356E+01 1.08801E-01 1.05844E-03 7.20351E-01 2.18181E-14-2.16512E-13
 -1       351 2.12457E+01 1.11393E-01 9.24798E-04 8.38535E-01-3.66581E-14-2.67174E-13
 -1       352 2.16009E+01 9.21153E-02 4.72739E-04 9.48968E-01-3.40129E-14-3.21111E-13
 -1       353 2.20010E+01 3.51284E-02-4.47170E-04 1.02307E+00-2.25596E-14-1.94248E-13
 -1       354 2.24418E+01-7.91289E-02-1.93571E-03 1.01562E+00-6.14665E-14-1.19696E-13
 -1       355 2.29111E+01-2.66552E-01-3.94028E-03 8.63771E-01 3.65636E-15-1.27013E-13
 -1       356 2.33812E+01-5.19832E-01-5.94940E-03 4.96865E-01 1.46467E-13-4.33028E-14
 -1       357 2.37947E+01-7.75670E-01-7.02080E-03-1.30740E-01 1.38535E-13 6.15703E-14
 -1       358 2.40467E+01-8.79832E-01-6.36134E-03-9.71398E-01 2.29251E-13 6.80345E-14
 -1       359 2.40012E+01-6.12765E-01-3.43494E-03-1.78846E+00 2.51042E-13 4.78595E-14
 -1       360 2.35931E+01 1.33120E-01-3.10741E-03-2.13351E+00 1.64908E-13 2.06070E-14
 -1       361 2.30085E+01 1.08138E+00-6.93899E-03-1.57150E+00-5.73101E-14-1.11361E-14
 -1       362 2.26839E+01 1.59818E+00-5.69331E-03-1.79608E-01-2.89329E-13-1.12638E-13
 -1       363 2.29008E+01 1.25511E+00-6.56819E-03 1.32122E+00-2.74438E-13-3.78082E-13
 -1       364 2.34671E+01 3.44759E-01-3.88361E-03 2.09660E+00-1.80202E-13-3.21055E-13
 -1       365 2.39422E+01-4.84376E-01-3.48792E-03 1.92591E+00-2.22738E-13-1.96000E-13
 -1       366 2.40716E+01-8.57731E-01-5.61792E-03 1.17145E+00-7.07507E-14-9.01705E-14
 -1       367 2.38767E+01-8.16931E-01-6.87666E-03 3.09218E-01-1.12022E-13-1.33445E-13
 -1       368 2.34919E+01-5.77305E-01-6.24902E-03-3.72162E-01 1.04436E-13-3.64011E-13
 -1       369 2.30331E+01-3.13993E-01-4.39056E-03-7.90865E-01 7.50823E-14-2.46384E-13
 -1       370 2.25677E+01-1.08696E-01-2.31053E-03-9.79052E-01 1.37899E-13-2.03619E-13
 -1       371 2.21290E+01 2.22227E-02-6.62470E-04-1.00578E+00-8.04035E-14-2.11640E-13
 -1       372 2.17321E+01 9.18571E-02 4.07346E-04-9.36795E-01 7.81759E-14-1.86644E-13
 -1       373 2.13832E+01 1.19918E-01 9.77339E-04-8.21088E-01 8.00044E-15-4.30334E-13
 -1       374 2.10838E+01 1.23277E-01 1.19590E-03-6.90386E-01 1.49763E-13 4.90134E-14
 -1       375 2.08324E+01 1.13775E-01 1.20203E-03-5.63014E-01-5.30175E-15 3.37951E-13
 -1       376 2.06255E+01 9.88573E-02 1.09900E-03-4.48161E-01 7.35891E-15 3.91488E-13
 -1       377 2.04584E+01 8.28664E-02 9.53407E-04-3.49290E-01 1.65125E-13 1.70574E-13
 -1       378 2.03259E+01 6.81860E-02 8.02400E-04-2.66517E-01 4.57836E-14 3.35919E-13
 -1       379 2.02227E+01 5.61435E-02 6.64625E-04-1.98096E-01-2.66532E-15 3.65405E-13
 -1       380 2.01440E+01 4.72415E-02 5.55571E-04-1.41305E-01-1.22367E-14 4.94251E-14
 -1       381 2.00853E+01 4.13736E-02 5.45709E-04-9.34125E-02 3.17949E-14-1.04834E-13
 -1       382 2.00458E+01 3.48752E-02 3.25597E-04-5.50390E-02 1.86400E-13-1.46669E-13
 -1       383 1.98782E+01 2.30697E-01 1.08508E-02 3.89977E-01 2.28284E-13 2.95394E-13
 -1       384 1.95990E+01 1.19174E-01 6.26203E-03 1.06398E-01 1.70316E-13 1.96720E-13
 -1       385 1.94784E+01 6.35080E-02 2.93751E-03-5.00714E-02 1.27170E-13 1.27239E-13
 -1       386 1.94589E+01 3.42428E-02 1.36505E-03-1.38083E-01 5.84106E-14 9.49352E-14
 -1       387 1.95038E+01 1.91210E-02 7.08230E-04-1.88890E-01 5.16554E-14 3.89139E-14
 -1       388 1.95907E+01 1.25731E-02 4.45545E-04-2.20535E-01 4.61596E-14 9.62287E-14
 -1       389 1.97071E+01 1.17278E-02 3.63355E-04-2.44471E-01 8.17963E-14 8.71624E-14
 -1       390 1.98473E+01 1.48806E-02 3.80519E-04-2.68450E-01 1.55170E-14 9.56840E-14
 -1       391 2.00099E+01 2.08333E-02 4.57180E-04-2.97853E-01 2.80500E-14 1.37399E-13
 -1       392 2.01969E+01 2.85232E-02 5.62231E-04-3.36226E-01 6.66315E-14 8.00077E-14
 -1       393 2.04117E+01 3.67258E-02 6.61228E-04-3.85325E-01 1.29777E-13 4.53063E-14
 -1       394 2.06587E+01 4.37385E-02 7.09556E-04-4.44702E-01 3.00044E-14 1.40615E-13
 -1       395 2.09414E+01 4.70043E-02 6.47685E-04-5.10831E-01-8.59818E-14 1.30393E-13
 -1       396 2.12606E+01 4.26912E-02 4.00773E-04-5.75716E-01 4.15032E-14 1.03395E-13
 -1       397 2.16125E+01 2.53712E-02-1.11314E-04-6.25035E-01 5.25233E-14 2.86402E-14
 -1       398 2.19858E+01-1.17925E-02-9.44459E-04-6.36241E-01 2.68724E-14 3.03494E-14
 -1       399 2.23582E+01-7.54875E-02-2.07480E-03-5.77815E-01 4.15525E-14-7.02799E-14
 -1       400 2.26939E+01-1.67924E-01-3.32465E-03-4.12262E-01-3.42244E-14-1.33530E-13
 -1       401 2.29409E+01-2.78443E-01-4.29910E-03-1.07201E-01-1.18655E-14-1.17521E-13
 -1       402 2.30335E+01-3.72319E-01-4.40810E-03 3.40694E-01 2.20132E-13-1.14510E-14
 -1       403 2.29049E+01-3.85734E-01-3.41776E-03 8.69519E-01 8.12952E-14 1.02246E-13
 -1       404 2.25213E+01-2.45435E-01-1.33113E-03 1.32197E+00-2.59998E-13 1.49846E-13
 -1       405 2.19376E+01 6.85058E-02 8.46259E-04 1.46655E+00-3.23523E-13 1.00819E-13
 -1       406 2.13405E+01 4.51969E-01 1.97373E-03 1.12019E+00 1.26670E-14 1.94517E-13
 -1       407 2.09951E+01 7.01590E-01 3.75453E-03 3.16060E-01 1.61802E-13 2.42698E-13
 -1       408 2.10874E+01 6.48484E-01 5.30536E-03-6.29630E-01 5.61361E-14 2.33801E-13
 -1       409 2.15668E+01 3.31590E-01 4.66218E-03-1.30087E+00 1.45373E-13 1.96920E-13
 -1       410 2.21949E+01-5.01060E-02 2.32690E-03-1.47005E+00 1.18511E-13 2.12183E-13
 -1       411 2.27198E+01-3.11127E-01-1.11257E-03-1.19253E+00 1.28990E-14 2.96755E-14
 -1       412 2.30062E+01-3.93877E-01-4.04570E-03-6.90199E-01 1.54181E-13-1.12899E-13
 -1       413 2.30426E+01-3.44950E-01-5.15465E-03-1.77970E-01 6.34293E-14-4.95002E-14
 -1       414 2.28835E+01-2.39164E-01-4.67806E-03 2.20825E-01 1.99187E-13-3.95662E-14
 -1       415 2.25994E+01-1.31353E-01-3.34246E-03 4.71177E-01 2.16670E-13 1.17218E-13
 -1       416 2.22527E+01-4.71838E-02-1.85722E-03 5.90104E-01 4.71005E-14 1.21319E-13
 -1       417 2.18894E+01 8.14336E-03-6.27499E-04 6.13695E-01-1.46636E-13-8.60252E-14
 -1       418 2.15403E+01 3.90905E-02 2.15088E-04 5.77951E-01-3.13998E-14-1.15027E-13
 -1       419 2.12233E+01 5.27272E-02 7.01760E-04 5.11143E-01-5.65077E-14-1.27679E-14
 -1       420 2.09473E+01 5.54871E-02 9.21595E-04 4.32601E-01-7.36580E-15 1.15601E-13
 -1       421 2.07146E+01 5.22012E-02 9.68284E-04 3.54131E-01-2.04797E-14 2.91545E-13
 -1       422 2.05237E+01 4.61468E-02 9.17574E-04 2.82040E-01 6.42003E-14 2.35738E-13
 -1       423 2.03708E+01 3.94234E-02 8.22306E-04 2.18930E-01 8.59592E-14 2.62710E-13
 -1       424 2.02513E+01 3.33137E-02 7.16600E-04 1.65018E-01 1.19045E-13 7.17136E-13
 -1       425 2.01604E+01 2.84615E-02 5.90364E-04 1.19182E-01-1.25599E-13 6.84890E-13
 -1       426 2.00935E+01 2.53035E-02 4.57717E-04 7.96959E-02 2.38037E-14 4.74723E-13
 -1       427 2.00465E+01 2.30007E-02 3.50881E-04 4.50121E-02 7.57311E-14 4.37954E-13
 -1       428 2.00252E+01 2.19813E-02 2.11895E-04 2.74135E-02 1.08741E-13 5.37132E-13
 -1       429 2.00098E+01 1.32719E-01 8.35532E-05 9.70474E-02 7.72157E-14-2.16239E-14
 -1       430 2.00246E+01 8.48305E-02 2.73504E-04 8.05697E-02 1.79231E-13 2.72701E-13
 -1       431 2.00285E+01 4.99640E-02 3.11542E-04 5.47345E-02 1.22176E-13 2.99074E-14
 -1       432 1.99946E+01 1.80127E-01-5.02052E-05 9.82346E-02 2.60238E-14-5.19090E-13
 -1       433 1.99804E+01 2.23338E-01-1.71110E-04 8.37886E-02 1.73915E-13-2.83822E-14
 -1       434 1.99699E+01 2.55889E-01-2.69980E-04 5.62522E-02 2.98401E-13 1.89528E-13
 -1       435 1.99642E+01 2.73573E-01-3.24850E-04 2.00282E-02-1.14697E-13-2.59168E-14
 -1       436 1.99640E+01 2.74016E-01-3.26468E-04-1.93623E-02-4.01806E-14-6.72806E-14
 -1       437 1.99695E+01 2.57074E-01-2.73062E-04-5.59444E-02-2.61398E-13-4.95924E-14
 -1       438 1.99798E+01 2.25579E-01-1.72251E-04-8.36441E-02-1.57667E-13-2.07663E-13
 -1       439 1.99942E+01 1.82433E-01-5.55621E-05-9.87725E-02 8.08100E-14 6.58227E-13
 -1       440 2.00100E+01 1.33832E-01 6.57847E-05-9.78531E-02 1.55584E-13 7.44232E-14
 -1       441 2.00254E+01 8.48341E-02 2.40185E-04-8.11166E-02-3.24990E-14-5.27087E-13
 -1       442 1.00149E+01-5.28987E+00-4.80070E-02 6.78979E+00-2.19574E-13 8.45157E-14
 -1       443 1.69263E+00-3.55669E+00 2.23148E-02-3.32715E-01-1.07403E-13 7.59254E-13
 -1       444 4.65007E+00-4.33154E+00 1.45474E-02 4.85642E+00-2.37380E-13 1.05513E-13
 -1       445 1.97251E+01-4.89341E+00-2.18800E-02 6.41018E+00 9.42996E-14-1.82070E-13
 -1       446 2.74755E+01-2.97510E+00 7.37645E-03 3.79387E+00 1.92457E-13-4.59285E-13
 -1       447 1.97980E+01 3.43858E+00-1.86848E-02-1.71007E+00-1.71599E-13-3.94451E-13
 -1       448 3.44600E+01 5.22095E+00 2.42335E-02-1.10188E-01-3.05311E-14 4.30322E-13
 -1       449 3.46649E+01 7.97426E+00-8.73079E-03-1.72800E-01 1.62564E-13 4.43834E-13
 -1       450 3.58748E+01 7.21973E+00 8.80250E-02 7.59902E-02 5.89223E-13 3.06637E-13
 -1       451 3.40800E+01 3.75566E+00 5.96671E-02-5.72991E-01 5.75193E-13 1.44440E-13
 -1       452 3.02880E+01-6.66960E-01 1.81763E-02-2.77830E+00 4.86274E-13 1.18239E-13
 -1       453 2.45196E+01-4.05589E+00-3.25187E-03-5.15357E+00 2.48385E-13-7.00828E-15
 -1       454 1.61145E+01-5.37138E+00-5.18604E-02-6.95971E+00 5.56499E-14-6.89969E-13
 -1       455 8.61601E+00-5.21448E+00-2.69960E-02-6.58698E+00-4.76841E-14-8.61679E-13
 -1       456 2.82834E+00-4.55164E+00-4.25232E-02-3.69026E+00-1.72876E-13-8.55108E-13
 -1       457 1.72084E+00-3.78188E+00-3.17790E-03 1.27260E+00-8.83946E-14-8.16819E-13
 -1       458 4.99910E+00-4.89016E+00-5.10131E-02 5.05029E+00-2.03976E-13-5.26079E-13
 -1       459 1.29391E+01-5.56438E+00-2.19124E-02 7.03962E+00-3.97418E-13-2.32522E-13
 -1       460 2.30180E+01-5.13397E+00 6.89625E-03 5.53747E+00-6.44304E-13 3.19744E-14
 -1       461 2.88558E+01-1.89199E+00 1.76440E-02 3.63614E+00-5.50733E-13-2.99566E-13
 -1       462 3.27588E+01 1.46088E+00-3.76107E-03 5.50577E-01-3.67963E-13-6.05432E-13
 -1       463 3.39981E+01 6.49639E+00-4.51388E-02-8.83653E-01-2.25708E-13-5.76671E-13
 -1       464 3.68003E+01 7.94223E+00 1.15265E-01-3.70014E-03-3.93019E-13-5.45290E-13
 -1       465 3.65137E+01 6.77810E+00 1.43382E-01 7.43643E-02-4.68209E-13-4.75717E-13
 -1       466 3.35070E+01 2.49972E+00 1.58854E-02-5.04456E-01-2.65100E-13-4.32016E-13
 -1       467 3.07236E+01-7.98305E-01 3.26013E-02-2.55220E+00-3.07126E-13-5.35960E-13
 -1       468 2.51698E+01-4.60262E+00-3.38316E-03-4.68621E+00 1.64729E-14-2.30135E-13
 -1       469 1.66347E+01-5.60251E+00-3.58511E-02-6.87143E+00 2.19783E-13 3.34703E-13
 -1       470 9.71917E+00-5.46361E+00-4.52574E-02-6.61691E+00 1.10231E-13 2.01665E-13
 -1       471 3.39083E+00-4.28047E+00-1.44536E-02-3.82455E+00-9.13436E-14 3.94434E-13
 -1       472 3.14629E+01 3.95595E-01-1.30056E-02 1.66325E+00 1.59858E-13-9.97258E-14
 -1       473 4.63486E+00-1.78396E+00 1.60338E-01 2.40309E+00-3.72331E-13 3.98445E-13
 -1       474 1.69617E+01-5.47709E+00 5.88998E-02 6.95513E+00-2.79721E-13-2.46140E-14
 -1       475 2.03697E+01 8.36698E-01 4.04047E-03 9.59344E-01 2.78354E-13 1.05141E-13
 -1       476 1.97458E+01 3.12764E+00-5.38433E-03-6.24020E-01-1.89651E-14-3.97888E-13
 -1       477 1.98415E+01 2.94931E+00-5.98581E-03-9.37543E-01-7.72589E-14-3.95173E-13
 -1       478 1.96779E+01 3.25462E+00-4.99928E-03 8.77738E-03 7.54165E-14-3.45318E-13
 -1       479 1.96964E+01 3.22042E+00-5.07940E-03 3.25037E-01 1.33496E-13-3.51586E-13
 -1       480 1.97503E+01 3.12039E+00-5.39550E-03 6.35976E-01 1.77880E-13-3.14977E-13
 -1       481 1.98481E+01 2.93772E+00-5.95186E-03 9.48407E-01 2.42535E-13-2.55614E-13
 -1       482 2.00014E+01 2.64687E+00-6.52185E-03 1.24253E+00 2.74026E-13-1.83672E-13
 -1       483 2.02382E+01 2.19535E+00-5.68922E-03 1.48809E+00 3.06417E-13-9.05808E-14
 -1       484 2.01148E+01 4.62127E-01 5.11209E-03 4.45351E-01 2.47649E-13 8.70280E-14
 -1       485 2.03449E+01 9.81004E-01 2.68032E-03-9.25700E-01-1.68039E-13-2.02962E-13
 -1       486 3.01143E+01 1.68208E+00-1.24222E-01-1.53429E+00-6.14092E-14 1.80245E-13
 -1       487 2.01800E+01 5.56823E-01 1.92652E-03-4.43827E-01-1.36579E-13-1.73700E-13
 -1       488 2.00420E+01 3.23454E-01 1.09126E-03-1.30677E-01-1.10677E-13-1.39373E-13
 -1       489 1.99542E+01 1.90212E-01 5.12174E-04 6.80383E-02-8.58455E-14-1.03383E-13
 -1       490 1.99133E+01 1.15163E-01 2.50994E-04 1.94691E-01-9.44325E-14-1.17871E-13
 -1       491 1.99097E+01 7.66391E-02 1.49456E-04 2.78604E-01-8.39826E-14-1.94472E-13
 -1       492 1.99352E+01 6.27754E-02 1.23565E-04 3.40372E-01-5.71978E-14-2.02227E-13
 -1       493 1.99835E+01 6.65819E-02 1.40614E-04 3.94804E-01-1.40511E-13-1.49054E-13
 -1       494 2.00510E+01 8.35378E-02 1.87205E-04 4.52810E-01-9.57168E-14-7.81501E-14
 -1       495 2.01359E+01 1.10252E-01 2.54958E-04 5.22470E-01-2.69737E-14-6.63449E-14
 -1       496 2.02382E+01 1.43492E-01 3.35043E-04 6.09506E-01-3.31203E-14-9.67990E-14
 -1       497 2.03591E+01 1.79197E-01 4.14891E-04 7.17241E-01-4.72827E-14-1.74726E-13
 -1       498 2.05009E+01 2.11234E-01 4.74354E-04 8.46003E-01-4.65180E-14-1.45632E-13
 -1       499 2.06678E+01 2.29703E-01 4.80535E-04 9.91851E-01-2.93494E-14-1.06945E-13
 -1       500 2.08669E+01 2.18791E-01 3.82751E-04 1.14446E+00-6.93275E-14-8.31158E-14
 -1       501 2.11103E+01 1.54565E-01 1.11090E-04 1.28398E+00 1.18906E-14-1.61763E-13
 -1       502 2.14188E+01 4.30011E-03-4.13059E-04 1.37667E+00-5.62208E-14-1.54382E-13
 -1       503 2.18241E+01-2.68588E-01-1.22491E-03 1.36980E+00 6.18367E-15-1.30178E-14
 -1       504 2.23659E+01-6.85550E-01-2.37966E-03 1.18711E+00 1.74552E-13 8.40685E-14
 -1       505 2.30693E+01-1.20574E+00-3.26523E-03 7.35971E-01 2.58183E-13 1.48719E-13
 -1       506 2.38985E+01-1.66064E+00-4.28350E-03-6.15225E-02 2.02161E-13 2.09086E-13
 -1       507 2.46717E+01-1.67327E+00-7.90120E-03-1.15913E+00 2.27475E-13 1.80450E-13
 -1       508 2.50807E+01-7.89735E-01-1.28948E-02-2.19608E+00 1.67662E-13 2.53690E-14
 -1       509 2.48616E+01 1.04266E+00-2.48478E-02-2.42301E+00 1.24718E-14-2.08811E-14
 -1       510 2.43635E+01 2.81672E+00-5.23752E-02-1.27098E+00-1.94147E-13-3.05667E-14
 -1       511 2.43457E+01 3.06211E+00-4.99881E-02 8.19020E-01-3.94379E-13 1.12941E-13
 -1       512 2.47733E+01 1.51653E+00-3.77269E-02 2.28560E+00-3.87431E-13-6.38740E-14
 -1       513 2.50793E+01-4.38328E-01-1.82518E-02 2.34125E+00-2.50975E-13-2.93922E-13
 -1       514 2.48045E+01-1.56357E+00-7.32799E-03 1.41283E+00-1.04984E-13-3.20990E-13
 -1       515 2.40841E+01-1.71352E+00-3.79976E-03 2.85553E-01-1.86910E-13-1.26743E-13
 -1       516 2.32486E+01-1.31492E+00-3.08217E-03-5.83877E-01-8.80223E-14-4.38520E-14
 -1       517 2.25152E+01-7.85788E-01-2.46258E-03-1.10069E+00 1.70081E-13-9.62036E-14
 -1       518 2.19443E+01-3.36976E-01-1.38332E-03-1.32712E+00 1.28898E-13-1.63618E-13
 -1       519 2.15186E+01-3.07221E-02-5.12339E-04-1.35717E+00 1.25014E-14-1.24248E-13
 -1       520 2.11993E+01 1.46421E-01 6.44761E-05-1.27139E+00-4.43444E-14-1.61314E-13
 -1       521 2.09525E+01 2.30041E-01 3.79337E-04-1.12699E+00-2.16638E-13-2.14395E-13
 -1       522 2.07556E+01 2.54346E-01 5.09553E-04-9.61146E-01 1.77829E-13-1.85947E-13
 -1       523 2.05951E+01 2.45089E-01 5.29158E-04-7.96211E-01 2.60468E-13-1.01202E-13
 -1       524 2.04630E+01 2.19433E-01 4.90882E-04-6.44347E-01 8.06860E-14 4.98675E-14
 -1       525 2.03542E+01 1.87954E-01 4.30050E-04-5.11053E-01-1.49389E-13-1.16194E-13
 -1       526 2.02653E+01 1.56776E-01 3.63586E-04-3.97654E-01 3.64168E-14-2.15814E-13
 -1       527 2.01933E+01 1.29145E-01 2.80698E-04-3.03130E-01 4.00217E-14-1.98790E-13
 -1       528 2.01353E+01 1.07367E-01 2.61144E-04-2.24990E-01-1.59037E-13-1.06920E-13
 -1       529 2.00894E+01 9.04950E-02 2.49540E-04-1.60435E-01-5.23011E-14-1.21451E-13
 -1       530 1.07714E+01-3.29243E+00 1.48355E-01 6.20250E+00-4.13850E-13-2.52437E-14
 -1       531 1.98368E+01 1.48230E-01 1.08685E-03-6.24328E-02 1.24884E-13 4.19708E-14
 -1       532 1.97986E+01 8.65169E-02 4.98313E-04-1.80913E-01 9.24096E-14 1.98132E-14
 -1       533 1.98067E+01 5.43770E-02 2.66468E-04-2.56162E-01 4.50897E-14 6.73371E-16
 -1       534 1.98489E+01 4.13883E-02 1.87200E-04-3.08687E-01 2.27723E-14-2.29622E-14
 -1       535 1.99172E+01 4.15412E-02 1.83961E-04-3.52533E-01 5.25021E-15 6.36403E-14
 -1       536 2.00072E+01 5.08941E-02 2.25963E-04-3.97549E-01 4.46156E-14 5.64515E-14
 -1       537 2.01173E+01 6.63715E-02 2.94219E-04-4.50530E-01 8.38200E-14-1.10625E-14
 -1       538 2.02479E+01 8.49574E-02 3.70386E-04-5.15659E-01 9.42880E-14-2.74839E-14
 -1       539 2.04006E+01 1.02966E-01 4.31776E-04-5.94386E-01-1.94858E-14 1.31123E-14
 -1       540 2.05783E+01 1.15253E-01 4.47462E-04-6.84770E-01-3.32132E-14 6.18440E-14
 -1       541 2.07842E+01 1.14330E-01 3.74887E-04-7.80269E-01-3.39740E-15 5.56330E-14
 -1       542 2.10220E+01 8.95274E-02 1.59164E-04-8.67946E-01 5.58287E-14 1.73162E-14
 -1       543 2.12957E+01 2.67582E-02-2.60902E-04-9.26250E-01 2.28174E-14 7.36457E-14
 -1       544 2.16091E+01-8.98746E-02-9.30997E-04-9.22955E-01-1.70195E-15 4.62579E-14
 -1       545 2.19639E+01-2.72256E-01-1.83744E-03-8.14797E-01-4.79911E-15 1.66359E-13
 -1       546 2.23538E+01-5.14882E-01-2.84090E-03-5.52194E-01 1.96123E-14 1.26521E-13
 -1       547 2.27525E+01-7.72107E-01-3.56284E-03-9.53788E-02 2.54549E-14 9.27399E-16
 -1       548 2.30959E+01-9.33164E-01-3.33971E-03 5.49806E-01 5.07000E-14 2.70979E-13
 -1       549 2.32749E+01-8.24875E-01-2.95154E-03 1.27415E+00-1.17049E-13 3.55583E-13
 -1       550 2.31769E+01-2.94051E-01-2.30527E-03 1.81351E+00-1.64705E-13 2.10813E-13
 -1       551 2.28091E+01 5.93219E-01-3.24668E-03 1.79955E+00-8.26929E-14-3.51937E-14
 -1       552 2.23860E+01 1.45048E+00-5.69540E-03 1.03477E+00 1.10172E-13-1.25461E-13
 -1       553 2.22612E+01 1.70349E+00-5.61360E-04-2.50446E-01 1.62875E-14-9.43096E-14
 -1       554 2.25317E+01 1.17162E+00-2.84007E-03-1.40211E+00 4.37948E-14-6.82844E-14
 -1       555 2.29691E+01 2.45358E-01-1.71908E-03-1.89361E+00 1.62412E-13-3.56713E-15
 -1       556 2.32532E+01-5.41157E-01-1.40674E-03-1.66119E+00 1.88974E-13 3.63108E-14
 -1       557 2.32412E+01-9.06002E-01-2.84192E-03-1.01590E+00 1.32844E-13-3.86109E-14
 -1       558 2.29898E+01-8.92256E-01-3.62506E-03-3.02081E-01 1.24974E-13-5.90875E-14
 -1       559 2.26193E+01-6.76824E-01-3.50741E-03 2.75565E-01 1.72633E-13-7.71136E-14
 -1       560 2.22236E+01-4.13959E-01-2.62973E-03 6.52962E-01 1.51838E-13 7.55362E-14
 -1       561 2.18513E+01-1.88477E-01-1.54631E-03 8.46327E-01 2.10162E-13 1.23186E-13
 -1       562 2.15201E+01-2.83339E-02-6.14738E-04 9.01821E-01 1.58597E-13-4.97382E-14
 -1       563 2.12326E+01 6.95739E-02 3.00339E-05 8.67577E-01-1.15524E-15-8.70906E-14
 -1       564 2.09863E+01 1.19705E-01 4.11409E-04 7.82717E-01-1.37801E-13 1.63508E-14
 -1       565 2.07775E+01 1.37634E-01 5.93412E-04 6.75180E-01-2.86523E-13 7.64931E-14
 -1       566 2.06026E+01 1.36118E-01 6.43992E-04 5.63035E-01-1.67884E-14 2.42555E-13
 -1       567 2.04578E+01 1.24346E-01 6.18185E-04 4.56815E-01 5.68405E-14 2.71098E-13
 -1       568 2.03398E+01 1.08455E-01 5.53241E-04 3.61745E-01 9.76060E-15 5.00961E-13
 -1       569 2.02450E+01 9.23068E-02 4.97093E-04 2.79598E-01-1.07393E-14 3.69049E-13
 -1       570 2.01703E+01 7.84908E-02 5.56345E-04 2.10187E-01-9.61534E-14 4.65813E-13
 -1       571 2.01119E+01 6.73670E-02 4.01703E-04 1.50854E-01-4.74382E-14 4.93446E-13
 -1       572 2.00658E+01 5.91370E-02 3.29231E-04 1.00250E-01 2.24783E-13 5.08470E-13
 -1       573 1.99711E+01 2.22705E-01-5.39706E-05 1.31374E-01 4.41753E-13-1.60866E-13
 -1       574 1.99452E+01 2.62312E-01-1.05352E-04 1.00274E-01 1.52211E-13 6.55720E-14
 -1       575 2.00325E+01 1.22653E-01 3.11350E-05 1.35410E-01 3.28499E-13-1.33053E-13
 -1       576 2.00022E+01 1.74286E-01 1.15949E-04 1.43279E-01 1.66138E-13-1.68257E-13
 -1       577 1.99280E+01 2.88456E-01-1.36751E-04 5.46027E-02-4.39863E-14-2.17755E-13
 -1       578 1.99217E+01 2.98123E-01-1.51073E-04 9.28343E-04 2.03072E-14 1.20739E-13
 -1       579 1.99272E+01 2.90102E-01-1.38765E-04-5.31007E-02 9.62568E-14-3.28904E-14
 -1       580 1.99437E+01 2.65734E-01-1.05668E-04-9.89942E-02 9.11603E-14 2.13184E-14
 -1       581 1.99696E+01 2.26900E-01-4.53113E-05-1.31465E-01 1.22651E-13 2.64925E-13
 -1       582 2.00016E+01 1.77826E-01 3.54198E-05-1.44590E-01-2.07262E-15 2.17011E-13
 -1       583 2.00338E+01 1.24408E-01 1.33021E-04-1.36605E-01-2.15159E-13-3.64982E-13
 -1       584 2.46452E+01-5.14245E+00 8.49078E-03 4.28004E+00 1.44058E-13-1.81806E-13
 -1       585 1.99375E+01 2.59531E-01 2.50135E-03 1.30174E-01 1.75676E-13 5.25560E-14
 -1       586 2.88360E+01-2.49565E+00-6.65065E-02 5.13842E-01 2.36206E-13 8.27532E-14
 -1       587 9.45358E+00-3.21130E+00 1.38638E-01-5.84468E+00 2.12372E-13-1.77289E-13
 -1       588 2.82277E+01-3.44332E+00-4.43284E-02-1.21361E+00-1.62538E-13-2.24008E-13
 -1       589 3.03133E+01 6.95823E+00-1.67352E-01-4.99832E-01-4.40842E-13-4.03750E-13
 -1       590 1.96937E+01 3.22490E+00-5.08892E-03-3.07561E-01 3.65613E-14-3.91638E-13
 -1       591 3.05578E+01 7.23310E+00-1.57927E-01 5.97219E-01 4.69083E-13-7.96377E-14
 -1       592 2.21987E+01-5.51070E+00 4.87840E-02-5.16294E+00 3.24414E-13-8.81916E-14
 -1       593 2.99076E+01 5.94945E+00-1.74874E-01-1.48061E+00-7.43017E-14-1.83378E-13
 -1       594 3.07032E+01 4.90426E+00-1.28336E-01 1.61940E+00 6.27373E-13 3.01162E-13
 -1       595 3.01272E+01 1.44794E-01-1.01953E-01 7.86273E-01 3.04683E-13 4.16389E-13
 -1       596 2.78233E+01-3.65386E+00-3.17865E-02-1.91646E+00 2.44933E-13 2.95874E-13
 -1       597 2.18795E+01-5.57541E+00 1.77633E-02-5.50501E+00-1.59088E-13-1.43677E-13
 -1       598 1.55496E+01-4.83528E+00 1.03705E-01-6.88092E+00-3.86031E-13-4.94608E-13
 -1       599 9.16141E+00-2.34264E+00 1.72314E-01-5.37329E+00-2.44339E-13-7.86871E-13
 -1       600 5.59152E+00-9.33842E-01 1.99924E-01-1.70551E+00-1.06085E-13-7.73256E-13
 -1       601 5.84342E+00-2.11628E+00 1.48233E-01 3.68119E+00 5.61669E-14-6.83523E-13
 -1       602 1.12868E+01-3.74556E+00 1.15648E-01 6.40476E+00-1.18586E-14-2.92273E-13
 -1       603 2.00219E+01-5.39661E+00 8.36197E-02 5.97964E+00-1.90792E-13-1.82415E-14
 -1       604 2.71764E+01-4.28442E+00-3.11388E-02 2.48917E+00-4.53124E-13-2.25840E-13
 -1       605 2.96542E+01-1.67069E+00-9.68261E-02-4.37700E-01-2.98855E-13-3.59365E-13
 -1       606 2.98864E+01 2.71485E+00-1.31039E-01-2.14096E+00-2.56843E-13-4.08784E-13
 -1       607 3.07750E+01 6.80658E+00-1.64406E-01 8.57169E-01-4.86375E-13-4.94996E-13
 -1       608 3.10704E+01 3.98982E+00-1.33945E-01 1.82791E+00-3.78753E-13-4.70526E-13
 -1       609 2.98616E+01-9.95774E-01-1.12830E-01 8.05393E-01-2.85133E-13-2.99816E-13
 -1       610 1.56518E+01-4.93011E+00 8.76286E-02-6.73860E+00 3.85691E-13 1.46969E-13
 -1       611 5.61126E+00-1.29580E+00 1.91596E-01-2.33767E+00-7.41802E-14 4.62533E-13
 -1       612 2.03899E+01 1.76155E+00-5.25734E-03-1.51220E+00-2.31624E-13-2.27358E-13
 -1       613 2.05760E+01 1.30709E+00-9.80661E-04 1.53885E+00 3.13309E-13 1.52505E-13
 -1       614 2.77579E+01 6.22929E+00-1.63719E-01-5.78150E-01 1.44981E-13-4.65279E-13
 -1       615 1.99885E+01 2.66642E+00-6.75356E-03-1.22975E+00-1.24292E-13-3.69702E-13
 -1       616 9.07205E+00-1.29975E+00 1.53963E-01 4.34247E+00-4.88679E-13 2.80678E-14
 -1       617 2.00635E+01 8.11868E-02 2.46410E-04-1.21727E-01-1.66504E-13-1.83530E-13
 -1       618 2.41510E+01-5.27204E+00 2.34604E-02 3.58148E+00-1.34406E-13 8.83495E-15
 -1       619 2.78959E+01 4.29020E+00-1.41143E-01-2.11260E+00-3.04493E-13-2.58123E-13
 -1       620 2.56997E+01-4.90440E+00-6.96896E-03-2.39131E+00 2.02073E-13-1.54122E-13
 -1       621 2.01691E+01 2.29101E+00-6.09906E-03-1.42196E+00-1.88338E-13-3.22185E-13
 -1       622 1.99683E+01 2.48688E+00-1.57824E-03 3.83022E-01 1.39835E-13-2.93423E-13
 -1       623 1.99355E+01 2.56489E+00-1.50744E-03 1.31816E-01 9.05601E-14-3.21515E-13
 -1       624 2.01308E+01 2.07053E+00-1.57695E-03 8.30264E-01 2.15699E-13-1.96972E-13
 -1       625 2.02474E+01 1.69267E+00-2.24662E-03 9.72422E-01 2.40629E-13-1.07858E-13
 -1       626 2.03255E+01 1.04943E+00 2.91115E-03 8.11144E-01 2.56668E-13-1.20834E-14
 -1       627 2.00543E+01 1.40327E-01 6.92537E-05 1.94688E-01 1.87269E-15 2.53591E-13
 -1       628 2.02175E+01 6.35057E-01 1.14291E-03 3.90147E-01 2.15872E-13 2.37713E-14
 -1       629 2.02537E+01 7.00818E-01 4.45544E-04-3.57748E-01-1.07917E-13-2.18181E-13
 -1       630 2.01869E+01 4.31778E-01 1.94488E-04-8.76596E-02-1.07541E-13-1.79228E-13
 -1       631 2.01291E+01 2.68505E-01 7.75268E-05 9.75413E-02-7.17685E-14-1.62815E-13
 -1       632 2.00884E+01 1.74682E-01 3.82583E-05 2.24166E-01-1.33561E-13-1.71236E-13
 -1       633 2.00654E+01 1.28451E-01 2.89719E-05 3.14877E-01-5.99387E-14-1.64165E-13
 -1       634 2.00575E+01 1.16270E-01 3.31886E-05 3.87465E-01-5.10807E-14-1.42060E-13
 -1       635 2.00618E+01 1.29295E-01 4.60300E-05 4.55664E-01-5.99224E-14-6.85413E-15
 -1       636 2.00757E+01 1.61190E-01 6.61718E-05 5.29962E-01-5.89600E-14 3.63490E-14
 -1       637 2.00971E+01 2.06661E-01 9.22382E-05 6.18196E-01-9.04137E-14-3.67226E-14
 -1       638 2.01247E+01 2.60143E-01 1.22068E-04 7.25870E-01-5.86630E-14-5.11083E-14
 -1       639 2.01581E+01 3.14321E-01 1.52336E-04 8.56136E-01-2.68095E-14-4.21819E-14
 -1       640 2.01993E+01 3.58216E-01 1.77007E-04 1.00942E+00-3.05527E-15-5.39593E-14
 -1       641 2.02541E+01 3.74678E-01 1.84837E-04 1.18268E+00-4.51363E-14-6.79915E-14
 -1       642 2.03357E+01 3.37332E-01 1.57768E-04 1.36806E+00-9.09948E-14-7.04767E-14
 -1       643 2.04705E+01 2.07677E-01 7.46902E-05 1.55064E+00 3.55935E-15 9.48484E-15
 -1       644 2.07058E+01-6.53107E-02-7.05936E-05 1.70392E+00 1.15225E-13 4.64820E-14
 -1       645 2.11176E+01-5.37141E-01-1.88942E-04 1.78107E+00 1.87251E-13 2.49357E-13
 -1       646 2.18136E+01-1.23880E+00-5.33476E-04 1.69278E+00 1.37832E-13 2.15474E-13
 -1       647 2.28848E+01-2.08453E+00 9.47062E-05 1.30962E+00 2.12848E-13 7.78654E-14
 -1       648 2.43406E+01-2.76074E+00-1.36649E-03 4.19062E-01 2.33065E-13 1.01389E-13
 -1       649 2.58898E+01-2.49394E+00-1.98718E-02-1.04695E+00 9.45945E-15 4.52850E-14
 -1       650 2.67803E+01-5.08152E-01-9.48538E-02-2.52491E+00-1.22541E-14-2.62013E-14
 -1       651 2.63735E+01 3.61033E+00-1.22840E-01 2.04417E+00-5.27894E-13-4.45621E-13
 -1       652 2.65917E+01 3.31366E-01-7.35153E-02 2.58706E+00-2.97502E-13-4.46854E-13
 -1       653 2.59902E+01-2.03374E+00-2.09096E-02 1.48051E+00-7.20821E-14-2.38181E-13
 -1       654 2.46754E+01-2.64935E+00-4.60669E-03 3.27208E-02 1.68121E-14-1.28228E-13
 -1       655 2.32757E+01-2.16392E+00-1.04265E-03-9.90110E-01-1.26484E-13 2.02375E-14
 -1       656 2.21610E+01-1.36661E+00-1.55198E-03-1.50797E+00 1.10057E-13 1.08451E-13
 -1       657 2.14016E+01-6.50558E-01-8.03918E-04-1.68279E+00-2.74769E-14-6.65968E-15
 -1       658 2.09292E+01-1.43386E-01-3.01034E-04-1.65506E+00 2.28027E-15-1.77202E-13
 -1       659 2.06466E+01 1.64478E-01 3.03126E-05-1.52304E+00 2.20162E-14-4.34484E-13
 -1       660 2.04766E+01 3.22692E-01 2.00318E-04-1.34343E+00-1.10878E-13-1.69390E-13
 -1       661 2.03691E+01 3.82088E-01 2.59008E-04-1.14919E+00-6.38442E-15-1.41318E-13
 -1       662 2.02951E+01 3.82535E-01 2.61678E-04-9.59407E-01 1.70195E-13-2.72190E-13
 -1       663 2.02390E+01 3.51641E-01 2.38633E-04-7.84700E-01 1.96377E-13-3.61025E-13
 -1       664 2.01934E+01 3.07117E-01 2.07510E-04-6.30210E-01-8.66561E-14-5.39397E-13
 -1       665 2.01549E+01 2.59691E-01 1.83720E-04-4.97531E-01 4.25503E-14-3.00456E-13
 -1       666 2.01215E+01 2.15489E-01 1.56304E-04-3.85821E-01-5.66447E-14-8.40226E-14
 -1       667 2.00923E+01 1.77961E-01 7.29980E-05-2.93555E-01-1.09449E-13-3.77879E-13
 -1       668 2.00667E+01 1.48198E-01-3.42419E-05-2.17048E-01-7.28269E-14-3.68381E-13
 -1       669 2.00570E+01 2.31422E-01 2.07371E-04-8.67142E-02 1.06499E-13 6.37697E-14
 -1       670 2.00114E+01 8.58895E-02 6.44932E-05-3.67333E-01-2.47378E-14 4.83651E-14
 -1       671 2.00367E+01 9.10808E-02 7.42200E-05-4.27282E-01 6.94242E-14-8.23497E-15
 -1       672 2.00769E+01 1.10508E-01 9.60342E-05-4.90488E-01 9.98874E-14-4.57177E-14
 -1       673 2.01306E+01 1.38812E-01 1.24498E-04-5.63900E-01 1.00251E-13-7.69525E-14
 -1       674 2.01979E+01 1.70281E-01 1.53230E-04-6.51629E-01 2.18142E-14 1.15344E-14
 -1       675 2.02805E+01 1.97664E-01 1.74298E-04-7.54731E-01-3.97435E-14-1.48927E-14
 -1       676 2.03821E+01 2.10884E-01 1.75923E-04-8.70537E-01-6.84988E-14-1.78028E-14
 -1       677 2.05096E+01 1.95640E-01 1.40330E-04-9.91498E-01 6.15049E-14-5.66231E-15
 -1       678 2.06747E+01 1.32290E-01 4.08188E-05-1.10341E+00 1.04066E-14 1.67848E-14
 -1       679 2.08959E+01-3.90140E-03-1.61407E-04-1.18297E+00-1.07911E-14 1.03451E-13
 -1       680 2.11997E+01-2.38840E-01-5.01635E-04-1.19478E+00-1.03302E-13 1.25799E-13
 -1       681 2.16186E+01-5.87728E-01-9.88955E-04-1.08827E+00-5.96327E-15 2.27565E-13
 -1       682 2.21783E+01-1.02864E+00-1.60755E-03-7.97987E-01 4.04726E-14 2.85396E-13
 -1       683 2.28674E+01-1.45802E+00-2.13721E-03-2.57684E-01-4.17168E-14 2.61329E-13
 -1       684 2.35900E+01-1.64326E+00-1.96394E-03 5.50801E-01-8.35595E-16 3.06559E-13
 -1       685 2.41306E+01-1.23909E+00-6.15930E-03 1.49418E+00-1.49092E-13 3.18372E-13
 -1       686 2.42321E+01-2.98244E-02 2.23685E-03 2.14792E+00-2.76578E-14 1.59923E-13
 -1       687 2.37444E+01 1.74535E+00-3.52246E-02 1.91991E+00 1.00207E-13 7.10072E-14
 -1       688 2.34544E+01 2.96088E+00-3.17681E-02 5.80381E-01 5.50393E-14 7.86766E-14
 -1       689 2.35826E+01 2.63501E+00-2.88398E-02-1.15235E+00 8.17185E-14-5.54015E-14
 -1       690 2.40233E+01 1.10656E+00-1.58810E-02-2.10668E+00 1.10554E-13-1.90557E-13
 -1       691 2.42510E+01-5.47770E-01-8.92718E-03-1.97305E+00 1.29466E-13-2.59102E-14
 -1       692 2.39673E+01-1.47017E+00-3.55566E-03-1.15442E+00 1.73668E-13-3.17658E-14
 -1       693 2.33358E+01-1.61754E+00-1.27446E-03-2.33571E-01 2.74484E-13-1.90873E-13
 -1       694 2.26081E+01-1.30344E+00-1.37350E-03 4.76472E-01 2.17064E-13-1.55328E-13
 -1       695 2.19640E+01-8.48546E-01-1.23416E-03 9.13078E-01 7.26985E-14-1.32492E-13
 -1       696 2.14609E+01-4.31680E-01-8.03136E-04 1.12047E+00 1.03247E-13-7.98735E-14
 -1       697 2.10923E+01-1.21364E-01-3.56837E-04 1.16770E+00 2.34525E-13-1.75652E-14
 -1       698 2.08274E+01 7.87479E-02-6.89415E-05 1.11518E+00 7.08463E-14 2.46505E-13
 -1       699 2.06354E+01 1.89899E-01 9.88621E-05 1.00728E+00-2.17442E-13 2.98006E-13
 -1       700 2.04926E+01 2.38252E-01 1.82725E-04 8.74418E-01-2.74740E-13 3.76558E-13
 -1       701 2.03833E+01 2.46581E-01 2.13207E-04 7.36217E-01-2.60035E-13 2.82769E-13
 -1       702 2.02974E+01 2.32030E-01 2.11628E-04 6.04471E-01 8.35395E-14 4.06998E-13
 -1       703 2.02287E+01 2.06476E-01 1.91894E-04 4.85472E-01 2.48855E-14 2.50382E-13
 -1       704 2.01732E+01 1.77719E-01 1.88280E-04 3.81875E-01-6.24261E-14 2.19121E-13
 -1       705 2.01279E+01 1.50847E-01 1.63847E-04 2.94242E-01-3.43263E-14 4.34733E-13
 -1       706 2.00855E+01 1.45526E-01 1.05735E-04 2.42297E-01 1.22080E-13 3.38195E-13
 -1       707 9.91397E+00-1.14356E+00 1.36364E-01-4.10016E+00 2.05735E-13-2.47698E-13
 -1       708 1.98688E+01 3.35577E-01-5.32281E-05 3.75290E-02 7.62304E-14 7.71788E-14
 -1       709 1.99251E+01 2.76734E-01-6.74685E-05 1.55296E-01 1.88936E-13-2.72949E-13
 -1       710 1.98681E+01 3.37031E-01-5.64552E-05-3.37853E-02-1.31142E-14-1.31812E-13
 -1       711 1.98887E+01 3.14727E-01-4.83996E-05 1.03447E-01 4.40845E-14-3.39151E-13
 -1       712 1.72309E+01-3.96563E+00 9.13187E-02 5.96871E+00-3.47125E-13 1.04607E-13
 -1       713 1.98861E+01 3.19278E-01-4.92773E-05-9.98150E-02-6.00395E-15 4.02413E-14
 -1       714 1.99218E+01 2.83366E-01-1.83968E-05-1.53904E-01 6.84983E-15 2.47611E-14
 -1       715 1.99702E+01 2.33024E-01-1.87602E-05-1.87680E-01 4.66181E-14 2.32845E-13
 -1       716 2.01249E+01 3.82835E-01 6.07387E-04 1.04249E-01 1.68075E-13 3.61974E-14
 -1       717 2.00471E+01 1.38751E-01 6.32693E-05-1.77111E-01-1.05499E-13-2.88233E-13
 -1       718 2.83116E+01 1.08115E+00-9.71881E-02 2.45290E+00-2.52826E-13-4.58671E-13
 -1       719 2.62978E+01-4.23102E+00-1.54671E-02 1.66153E+00 1.83155E-13-2.59931E-14
 -1       720 2.50261E+01-4.80276E+00-1.08761E-02-2.67829E+00-2.10595E-13 4.83606E-13
 -1       721 2.73811E+01 5.20439E+00-1.45471E-01 1.59119E+00 2.64948E-13-1.36786E-13
 -1       722 2.00036E+01 1.01132E-01 7.23202E-05-3.00609E-01 2.22430E-14 4.93945E-14
 -1       723 2.00173E+01 1.45293E-01 1.11792E-04-2.13307E-01 7.66107E-14 3.21111E-14
 -1       724 2.03015E+01 1.13375E+00-4.06350E-04-7.39348E-01-1.21609E-13-2.26795E-13
 -1       725 2.00335E+01 2.32669E+00-1.65209E-03 6.21390E-01 1.83044E-13-2.46724E-13
 -1       726 2.79074E+01-8.50099E-01-9.31171E-02-1.53499E+00 3.03021E-14-1.06398E-13
 -1       727 8.02431E+00 1.30089E-01 1.57016E-01 6.40072E-01-2.04168E-13 2.55754E-13
 -1       728 2.00285E+01 2.33719E+00-1.62406E-03-6.12820E-01-4.34258E-14-3.36598E-13
 -1       729 2.72339E+01 2.97743E+00-1.06633E-01-2.27382E+00 8.79227E-14-3.54728E-13
 -1       730 1.05609E+01-1.61270E+00 1.30157E-01 4.75278E+00 2.02463E-13-5.02015E-13
 -1       731 2.76703E+01 1.63941E+00-1.10204E-01 2.35304E+00 2.18915E-13 2.79662E-13
 -1       732 2.79167E+01-2.34082E+00-7.91298E-02 5.92528E-01 5.00630E-14 5.72549E-13
 -1       733 2.00556E+01-4.78279E+00 5.58509E-02-5.44995E+00-4.56735E-13-8.13663E-14
 -1       734 1.44984E+01-3.03689E+00 9.26684E-02-5.90112E+00-3.97363E-13-4.91808E-13
 -1       735 9.76894E+00-4.01063E-01 1.26269E-01-3.19019E+00-1.54578E-13-7.70231E-13
 -1       736 1.68592E+01-3.76773E+00 1.00896E-01 5.82319E+00 1.69555E-13-9.85809E-14
 -1       737 2.71581E+01-4.18244E+00-2.22676E-02 1.12095E+00-1.58524E-13-2.29400E-14
 -1       738 7.77962E+00-1.78555E-01 1.46339E-01 1.49695E+00 1.04401E-13-6.17208E-13
 -1       739 2.75752E+01 5.82479E+00-1.60383E-01 4.09781E-01-4.07493E-13-3.99953E-13
 -1       740 2.76258E+01-2.62772E+00-5.25185E-02 8.98163E-01-3.40708E-14-5.41418E-13
 -1       741 2.24201E+01-5.13047E+00 2.59431E-02 4.59211E+00-7.44439E-14-2.34010E-14
 -1       742 2.02769E+01 1.64016E+00 6.92000E-04-1.07069E+00-1.65667E-13-2.68797E-13
 -1       743 2.01275E+01 2.08306E+00-6.67568E-04-8.24323E-01-8.71266E-14-3.60699E-13
 -1       744 1.99346E+01 2.56659E+00-1.50169E-03-1.22664E-01 5.67430E-14-3.58295E-13
 -1       745 1.39802E+01-2.72802E+00 1.19225E-01-5.65834E+00 3.25569E-13-1.15435E-13
 -1       746 2.08866E+01-4.42838E+00 4.30051E-02 4.56801E+00 1.27920E-13 3.80434E-14
 -1       747 2.66063E+01-2.82330E+00-3.51955E-02-4.26125E-01 1.51936E-13-2.18873E-13
 -1       748 1.43326E+01-2.29131E+00 9.85687E-02 5.38215E+00-3.40283E-13 6.11663E-14
 -1       749 9.98887E+00 5.27353E-01 9.81051E-02-6.46114E-01 2.39080E-14-3.72525E-13
 -1       750 1.34301E+01-1.22092E+00 7.21864E-02-4.44752E+00-3.52227E-13-3.48254E-13
 -1       751 2.61635E+01 4.84253E+00-1.34739E-01-2.53688E-01-2.50886E-13-2.83657E-13
 -1       752 1.01389E+01 3.60252E-01 1.00923E-01-1.55759E+00 3.43475E-15 2.88450E-14
 -1       753 1.99724E+01 2.26472E-01-1.53108E-04 1.86606E-01 4.28530E-13-1.87534E-13
 -1       754 2.58727E+01 3.81663E+00-9.64605E-02-1.85964E+00 9.10209E-14-2.98147E-13
 -1       755 1.95869E+01-4.46798E+00 6.99448E-02-5.30676E+00 2.82236E-13 2.73583E-14
 -1       756 1.99655E+01 2.49265E+00-1.54747E-03-3.73328E-01 1.32556E-14-3.31584E-13
 -1       757 2.30414E+01-4.56528E+00 1.90477E-02-3.39049E+00 1.87626E-13-1.44015E-13
 -1       758 2.74504E+01 4.14372E+00-1.70919E-01 2.03929E+00-5.06206E-13-5.22176E-13
 -1       759 2.02745E+01 1.33890E+00 2.25740E-04 6.03466E-01 1.76883E-13-1.35842E-13
 -1       760 1.38204E+01-9.27838E-01 7.69705E-02-4.09695E+00 1.47342E-13-2.68830E-13
 -1       761 2.00137E+01 2.11317E-01 1.38169E-04-2.44389E-01-5.59624E-14 2.12431E-14
 -1       762 1.12715E+01-7.16509E-02 9.13649E-02 2.91057E+00 1.82075E-13-4.61405E-13
 -1       763 2.02996E+01 7.77756E-01-2.88981E-05-2.45782E-01-8.58006E-14-2.56789E-13
 -1       764 2.02721E+01 5.00915E-01 2.97806E-06-2.78417E-02-8.67410E-14-2.11248E-13
 -1       765 2.02305E+01 3.27536E-01-8.42697E-06 1.29020E-01-9.65443E-14-2.01015E-13
 -1       766 2.01858E+01 2.28878E-01-5.63470E-06 2.42809E-01-9.32943E-14-1.55899E-13
 -1       767 2.01424E+01 1.84792E-01-4.62068E-07 3.30022E-01-7.65690E-15-1.55125E-13
 -1       768 2.01009E+01 1.81547E-01 4.86625E-06 4.04899E-01 3.43278E-14-1.04246E-13
 -1       769 2.00599E+01 2.09175E-01 1.04010E-05 4.78998E-01-4.22234E-14-5.16484E-14
 -1       770 2.00171E+01 2.59853E-01 1.73745E-05 5.61359E-01-8.05892E-14-4.05269E-14
 -1       771 1.99699E+01 3.26449E-01 2.62169E-05 6.58890E-01-7.40338E-14 6.08802E-14
 -1       772 1.99156E+01 4.00975E-01 3.78480E-05 7.76682E-01-5.25670E-14-5.70483E-14
 -1       773 1.98529E+01 4.72767E-01 5.30346E-05 9.18293E-01-8.37501E-14-6.90802E-14
 -1       774 1.97829E+01 5.26168E-01 7.18453E-05 1.08607E+00-8.69967E-14-1.58895E-13
 -1       775 1.97125E+01 5.37495E-01 8.95494E-05 1.28160E+00-4.98903E-14-1.76449E-13
 -1       776 1.96593E+01 4.71362E-01 1.01502E-04 1.50612E+00 2.09760E-14-1.20891E-13
 -1       777 1.96599E+01 2.76761E-01 1.37137E-04 1.76016E+00 9.98701E-14-3.83553E-15
 -1       778 1.97837E+01-1.14995E-01 3.96817E-04 2.03917E+00 2.32766E-13 1.27786E-14
 -1       779 2.01447E+01-7.81273E-01 1.10555E-03 2.32297E+00 1.94741E-13-2.38438E-14
 -1       780 2.09797E+01-1.79848E+00-4.96665E-03 2.49464E+00 1.67780E-13 1.67699E-13
 -1       781 2.24868E+01-3.05946E+00 7.14809E-03 2.40079E+00 2.01093E-13 1.51856E-13
 -1       782 2.47439E+01-3.95790E+00 1.20341E-02 1.56618E+00 1.07649E-13 1.55371E-13
 -1       783 1.84411E+01-3.29009E+00 5.53997E-02-4.96754E+00-5.13615E-13-9.33194E-14
 -1       784 2.55626E+01-3.72980E+00-2.00407E-03-6.89238E-01 1.43844E-13-3.13261E-13
 -1       785 2.32956E+01-3.22089E+00 5.41530E-03-1.85610E+00 4.72753E-14-1.88548E-13
 -1       786 2.16500E+01-2.08131E+00-1.21340E-03-2.24362E+00 3.62880E-14 1.02802E-13
 -1       787 2.06501E+01-1.03322E+00 3.23964E-04-2.22786E+00-4.56511E-14-4.93396E-14
 -1       788 2.01364E+01-2.89352E-01 5.69111E-05-2.02455E+00-4.51400E-14-1.72271E-14
 -1       789 1.99083E+01 1.71415E-01 5.09290E-05-1.77566E+00-1.83705E-13-1.36365E-13
 -1       790 1.98352E+01 4.20166E-01 1.11120E-04-1.52563E+00-1.82358E-14-2.67066E-13
 -1       791 1.98373E+01 5.26233E-01 1.20368E-04-1.29049E+00-5.68265E-15-9.03511E-14
 -1       792 1.98694E+01 5.44105E-01 1.08793E-04-1.07605E+00-2.03212E-14 1.35910E-13
 -1       793 1.99085E+01 5.12179E-01 9.29868E-05-8.84578E-01 1.27932E-13 1.06375E-13
 -1       794 1.99438E+01 4.55868E-01 7.97071E-05-7.16879E-01-1.80849E-13-3.26828E-13
 -1       795 1.99718E+01 3.91174E-01 7.50077E-05-5.72646E-01 2.42490E-13-2.71950E-13
 -1       796 1.99921E+01 3.27685E-01 1.43237E-04-4.50873E-01 2.57974E-14-2.31880E-13
 -1       797 2.00032E+01 2.71077E-01-5.01199E-05-3.48622E-01-1.70383E-13-1.92446E-13
 -1       798 2.00907E+01 1.42826E-01 1.43889E-05-3.98956E-01 6.23662E-14-1.03997E-13
 -1       799 2.00560E+01 2.34656E-01 4.23126E-05-6.32960E-01 4.10790E-14-4.21026E-14
 -1       800 2.00550E+01 2.79520E-01 5.31539E-05-7.37764E-01-2.24083E-14-8.07479E-14
 -1       801 2.00617E+01 3.14532E-01 6.40614E-05-8.60509E-01-7.30804E-14-5.24978E-14
 -1       802 2.00822E+01 3.24141E-01 7.26904E-05-9.99742E-01-4.53155E-14-8.85587E-14
 -1       803 2.01286E+01 2.86673E-01 7.37169E-05-1.15037E+00 4.91947E-14-2.57764E-14
 -1       804 2.02224E+01 1.72984E-01 4.55999E-05-1.30217E+00-3.23747E-14-5.85748E-14
 -1       805 2.03994E+01-5.30254E-02-6.03066E-05-1.43692E+00-1.02712E-13-3.50785E-14
 -1       806 2.07130E+01-4.28823E-01-2.52314E-04-1.52275E+00-1.38378E-13-1.31852E-13
 -1       807 2.12348E+01-9.76313E-01-4.52789E-04-1.50327E+00-1.17509E-13-4.17538E-14
 -1       808 2.20369E+01-1.65870E+00-7.23066E-04-1.28255E+00-1.17757E-13 1.78780E-13
 -1       809 2.31380E+01-2.30016E+00-1.53753E-03-7.25221E-01-1.13283E-13 3.24694E-13
 -1       810 2.44064E+01-2.49941E+00-3.37682E-03 2.72394E-01-1.49871E-14 3.03608E-13
 -1       811 2.53542E+01-1.54964E+00-1.97456E-02 1.57412E+00 6.73576E-14 7.63346E-14
 -1       812 2.56789E+01-1.71463E-01-6.13865E-02-2.27689E+00-2.36287E-14-1.93423E-13
 -1       813 2.50973E+01-2.01098E+00-1.17117E-02-1.11413E+00 2.20594E-13-2.21723E-13
 -1       814 2.39673E+01-2.48191E+00 7.76234E-04 1.14136E-01 1.61618E-13-1.71504E-13
 -1       815 2.27141E+01-2.06675E+00 7.71398E-04 9.52323E-01 8.13691E-14 1.09802E-14
 -1       816 2.17209E+01-1.38123E+00-4.68188E-04 1.36607E+00 1.34672E-13 6.25394E-14
 -1       817 2.10300E+01-7.35408E-01-4.30962E-04 1.49709E+00 3.47574E-14 2.43046E-13
 -1       818 2.05940E+01-2.48421E-01-9.52938E-05 1.46390E+00 1.37172E-13 1.81325E-13
 -1       819 2.03366E+01 7.31811E-02 2.14697E-05 1.34744E+00-1.28012E-13 4.17091E-13
 -1       820 2.01934E+01 2.59553E-01 6.61782E-05 1.19285E+00-1.35951E-13 5.65269E-13
 -1       821 2.01177E+01 3.48463E-01 7.89997E-05 1.02634E+00-1.32620E-13 4.61505E-13
 -1       822 2.00794E+01 3.73248E-01 7.99679E-05 8.62916E-01-2.92422E-13 2.77173E-13
 -1       823 2.00605E+01 3.59506E-01 7.29183E-05 7.11111E-01-1.24659E-13-9.40313E-14
 -1       824 2.00506E+01 3.25424E-01 6.23728E-05 5.75368E-01 6.35927E-14 9.76043E-14
 -1       825 2.00446E+01 2.83272E-01 6.81621E-05 4.57458E-01 1.35460E-15 1.78315E-13
 -1       826 2.00395E+01 2.41044E-01 6.56729E-05 3.57539E-01-1.08256E-13 1.54392E-13
 -1       827 1.97947E+01 3.95152E-01-3.24268E-05 3.65647E-03 1.66462E-14-3.65557E-13
 -1       828 1.99092E+01 3.04065E-01 9.40950E-05-2.21399E-01 2.11612E-13 2.97835E-13
 -1       829 1.98073E+01 3.86109E-01-5.33678E-05-8.41250E-02 9.14318E-14 1.09314E-13
 -1       830 2.58467E+01-3.30655E+00-5.45697E-03-1.84939E-01-1.24805E-14 3.56950E-13
 -1       831 2.01150E+01 1.53719E-01 1.08323E-05-3.25938E-01-1.07522E-14-2.17316E-14
 -1       832 2.01890E+01 2.98573E-01 1.48681E-05-1.18438E-01 1.07877E-13-5.31304E-15
 -1       833 1.98476E+01 3.54471E-01-3.53694E-05-1.63289E-01 1.84501E-13 4.45348E-14
 -1       834 2.00624E+01 1.91252E-01 3.15594E-05-5.44661E-01 9.41190E-14-7.91969E-14
 -1       835 2.00736E+01 1.58070E-01 2.11928E-05-4.68824E-01 8.66721E-14-1.04643E-13
 -1       836 2.02925E+01 1.19545E+00-4.85589E-04-5.36750E-01-1.07835E-13-2.77636E-13
 -1       837 1.74034E+01-2.64340E+00 4.68442E-02-4.77602E+00 3.08026E-13-9.88654E-14
 -1       838 1.08960E+01 4.69911E-03 9.54705E-02 2.83832E+00-3.45467E-13 8.16534E-14
 -1       839 2.01477E+01 2.00950E-01 1.23646E-05-2.37628E-01 5.11160E-14-9.30209E-15
 -1       840 2.01993E+01 1.88982E+00-2.03088E-06-9.65125E-01-1.15948E-13-2.98909E-13
 -1       841 2.24995E+01-4.26840E+00 1.23490E-02-3.44949E+00-3.64739E-13 2.80674E-13
 -1       842 2.02888E+01 9.68996E-01 6.49444E-05 5.23007E-01 1.98923E-13-2.12879E-14
 -1       843 2.01388E+01 1.94483E+00-3.14431E-04 1.88378E-01 1.09957E-13-2.85069E-13
 -1       844 1.50288E+01-1.71183E+00 7.14707E-02 4.63549E+00 2.84750E-13-2.09974E-13
 -1       845 2.01260E+01 1.98519E+00-3.11367E-04 3.22459E-03 8.24728E-14-3.09584E-13
 -1       846 2.41253E+01-4.36577E+00 7.93802E-03 2.54038E+00 3.11864E-13 2.85314E-13
 -1       847 2.02286E+01 1.62271E+00 8.38549E-05 5.08941E-01 1.67307E-13-2.08333E-13
 -1       848 1.11743E+01 7.06868E-01 5.77671E-02 8.02672E-01-1.95019E-13-2.16001E-13
 -1       849 2.02353E+01 4.69094E-01 1.03999E-04 5.05519E-02 1.56936E-13-3.32660E-15
 -1       850 2.01744E+01 1.82549E+00-2.84811E-04 3.61604E-01 1.49280E-13-2.22221E-13
 -1       851 1.82672E+01-2.95339E+00 4.46881E-02 4.72400E+00-1.74996E-13 2.52974E-13
 -1       852 1.19946E+01 1.50971E-01 6.87889E-02-2.56620E+00-1.24926E-13-5.82936E-13
 -1       853 2.53558E+01 4.73072E+00-1.28479E-01-5.55990E-01 7.39790E-14-2.98655E-13
 -1       854 1.82025E+01-2.64273E+00 4.11935E-02 4.45658E+00 3.08071E-13-1.04098E-13
 -1       855 1.98105E+01 3.81223E-01-2.70624E-05 9.19187E-02 1.14151E-13-2.19626E-13
 -1       856 2.00166E+01 2.25536E-01-1.17495E-04 2.90481E-01-5.44034E-15 1.72668E-13
 -1       857 1.99701E+01 2.44959E-01-3.97246E-05 2.39410E-01 1.76700E-13-2.77906E-13
 -1       858 1.98533E+01 3.45509E-01-3.04331E-05 1.67916E-01 1.24193E-13-3.36953E-13
 -1       859 1.99076E+01 2.99664E-01 1.02324E-04 2.12443E-01 1.77177E-13-3.69272E-13
 -1       860 2.51198E+01-3.50198E+00-6.85205E-03 6.46148E-01 2.97710E-13-2.91030E-13
 -1       861 2.02630E+01 6.74628E-01-4.17176E-05 2.51416E-01 1.70186E-13 1.14572E-14
 -1       862 2.04922E+01-3.25715E+00 2.69185E-02-3.85123E+00 2.94175E-13 1.57773E-13
 -1       863 2.01722E+01 1.83217E+00-2.53184E-04-3.56118E-01-2.72338E-14-2.95894E-13
 -1       864 2.02208E+01 1.63416E+00-9.34209E-04-5.02030E-01-6.56851E-14-2.90432E-13
 -1       865 2.13014E+01-4.11580E+00 3.44002E-02 4.13727E+00-7.44266E-14 5.02500E-13
 -1       866 1.21100E+01 7.60474E-01 4.52793E-02 1.00381E+00 1.41043E-13-4.37528E-13
 -1       867 2.03327E+01 8.00048E-01-3.57957E-04-1.37995E-01-5.09335E-14-2.66401E-13
 -1       868 2.03199E+01 5.33264E-01-5.17161E-05 2.64444E-02-6.24648E-14-2.31137E-13
 -1       869 2.02804E+01 3.66212E-01-1.74275E-06 1.49068E-01-6.92198E-14-1.94371E-13
 -1       870 2.02243E+01 2.75063E-01-1.26765E-05 2.42454E-01-5.29255E-14-1.36096E-13
 -1       871 2.01569E+01 2.42321E-01-6.29292E-06 3.18282E-01 2.82193E-14-1.55933E-13
 -1       872 2.00798E+01 2.54407E-01-2.90299E-06 3.87425E-01 8.98030E-15-1.78123E-13
 -1       873 1.99920E+01 3.00690E-01-1.74569E-06 4.58756E-01-1.77432E-14-1.39108E-13
 -1       874 1.98908E+01 3.72250E-01-1.87578E-06 5.39381E-01-8.30584E-14-1.01265E-13
 -1       875 1.97724E+01 4.60432E-01-4.74670E-07 6.35009E-01-1.15629E-13-1.14123E-13
 -1       876 1.96324E+01 5.55239E-01 3.03631E-06 7.50392E-01-4.17964E-14-1.42288E-13
 -1       877 1.94673E+01 6.43548E-01 9.16841E-06 8.90154E-01-7.94380E-14-9.97200E-14
 -1       878 1.92751E+01 7.06776E-01 1.33250E-05 1.06016E+00-1.32473E-13-1.42717E-13
 -1       879 1.90590E+01 7.17867E-01-1.27967E-05 1.26960E+00 3.36922E-14-1.21246E-13
 -1       880 1.88315E+01 6.37521E-01-1.04852E-04 1.53409E+00 1.52853E-13 2.22896E-14
 -1       881 1.86244E+01 4.08446E-01-1.62829E-04 1.87937E+00 1.95909E-13 5.78915E-14
 -1       882 1.85077E+01-5.37451E-02-3.16835E-05 2.33984E+00 1.65506E-13 5.19484E-14
 -1       883 1.86527E+01-8.45637E-01 8.81262E-03 2.95715E+00 2.48772E-13-7.81474E-14
 -1       884 2.05708E+01-2.97474E+00 1.76136E-02-3.51979E+00-3.58223E-13 5.76236E-14
 -1       885 1.97563E+01 4.49885E-01 3.27865E-05-9.04883E-01-6.80527E-14-7.72160E-14
 -1       886 1.92231E+01-1.23931E+00 7.18875E-03-3.00457E+00-2.61618E-14 2.21310E-13
 -1       887 1.88731E+01-3.06391E-01 1.45486E-03-2.44417E+00-1.11240E-13 1.76274E-13
 -1       888 1.88464E+01 2.60650E-01-4.42726E-05-1.98335E+00-1.52415E-13 6.48178E-14
 -1       889 1.89626E+01 5.68802E-01 8.74835E-06-1.61908E+00-1.56683E-13-5.79419E-15
 -1       890 1.91321E+01 7.03929E-01 3.97452E-05-1.32976E+00 9.00624E-14-1.84292E-13
 -1       891 1.93075E+01 7.31269E-01 3.38525E-05-1.09363E+00 4.03865E-14-8.86782E-14
 -1       892 1.94672E+01 6.95417E-01 2.02172E-05-8.96194E-01-1.34503E-13-1.82000E-14
 -1       893 1.96030E+01 6.26359E-01 1.35579E-05-7.28976E-01-1.11979E-13-1.99354E-14
 -1       894 1.97134E+01 5.43786E-01 1.01183E-05-5.87061E-01-3.26340E-16 1.08125E-13
 -1       895 1.98003E+01 4.59933E-01 1.01121E-05-4.67092E-01 2.46225E-14-2.45157E-13
 -1       896 1.98653E+01 3.82269E-01-1.97350E-04-3.66388E-01 1.40609E-13-3.94184E-13
 -1       897 1.98317E+01 4.07747E-01 2.31445E-05-7.66793E-01-8.66027E-14-3.60476E-14
 -1       898 1.99054E+01 3.49207E-01 1.70571E-05-6.51115E-01 6.48609E-14-5.22022E-14
 -1       899 1.96870E+01 4.55261E-01 5.20431E-05-1.06769E+00-3.26677E-14-6.86647E-14
 -1       900 1.96393E+01 3.95902E-01 8.20053E-05-1.25667E+00 1.00626E-14-2.68336E-14
 -1       901 1.96424E+01 2.34217E-01 7.80142E-05-1.47176E+00-7.64243E-14 6.89413E-15
 -1       902 1.97464E+01-7.75042E-02-4.91374E-05-1.70814E+00-6.98506E-14-6.05237E-14
 -1       903 2.00315E+01-5.92137E-01-6.46583E-05-1.94775E+00-1.70792E-13-4.38874E-15
 -1       904 2.06241E+01-1.35586E+00 9.17356E-04-2.13513E+00-1.79618E-13-3.27183E-14
 -1       905 2.16783E+01-2.33443E+00 2.40408E-03-2.13324E+00-1.92421E-13-1.42677E-13
 -1       906 1.67911E+01-1.21969E+00 3.11399E-02-3.78907E+00 1.11408E-13-1.52682E-13
 -1       907 2.12492E+01-1.93855E+00 5.65749E-04 2.12382E+00 1.15536E-13-1.80875E-13
 -1       908 2.03721E+01-1.02147E+00-4.82498E-04 2.05096E+00-1.71197E-13 2.47101E-13
 -1       909 1.99125E+01-3.52245E-01 5.76723E-04 1.83115E+00-1.30900E-14 4.71281E-13
 -1       910 1.96967E+01 8.93319E-02 1.96014E-04 1.58422E+00 3.07943E-14 5.22171E-13
 -1       911 1.96301E+01 3.47816E-01 1.09230E-04 1.34562E+00-8.27611E-15 1.52924E-13
 -1       912 1.96417E+01 4.75879E-01 6.20744E-05 1.12875E+00 2.51115E-15 8.02477E-14
 -1       913 1.96895E+01 5.17183E-01 4.28576E-05 9.35880E-01-2.13699E-13 9.88357E-14
 -1       914 1.97497E+01 5.04753E-01 2.94975E-05 7.66784E-01-8.59042E-14 8.40774E-14
 -1       915 1.98094E+01 4.62337E-01 1.85203E-05 6.20419E-01-8.71829E-15-1.49318E-13
 -1       916 1.98626E+01 4.06244E-01 2.64979E-05 4.95534E-01-5.98244E-14-1.09018E-13
 -1       917 1.99062E+01 3.47504E-01 1.24730E-05 3.90888E-01-1.08092E-13 3.00528E-14
 -1       918 1.55139E+01-1.29357E+00 4.33574E-02 4.21276E+00-2.11619E-13 2.11059E-13
 -1       919 1.97090E+01 4.63721E-01-3.46870E-05-4.91868E-02 3.31557E-14-3.04617E-13
 -1       920 1.68867E+01-1.56301E+00 2.55214E-02-4.03776E+00-3.44490E-13-2.42179E-13
 -1       921 2.01577E+01 2.08821E-01-4.27903E-06-3.28122E-01 5.69445E-14-1.53134E-13
 -1       922 2.01376E+01 1.94805E+00-3.07637E-04-1.81862E-01 4.45479E-14-3.14591E-13
 -1       923 2.02612E+01 3.45562E-01-4.19452E-06-1.44876E-01 7.60426E-14-5.95619E-14
 -1       924 1.99749E+01 2.89097E-01 7.99141E-06-5.54676E-01 8.27977E-14-8.29508E-14
 -1       925 2.33494E+01-3.30864E+00 1.42749E-02-1.70358E+00-1.20329E-13-1.38620E-14
 -1       926 2.02120E+01 2.49535E-01 5.88571E-07-2.47119E-01 5.37664E-14-9.55157E-14
 -1       927 2.26321E+01-2.93883E+00-9.25159E-03 1.87698E+00 2.87782E-14-3.77443E-13
 -1       928 1.30223E+01 3.77078E-01 4.03549E-02-2.25337E+00 6.12787E-14-9.69225E-14
 -1       929 1.45209E+01-1.91372E-01 4.30111E-02 3.16251E+00 2.57138E-13-2.68851E-13
 -1       930 2.03060E+01 9.48953E-01-3.90687E-05 3.37174E-01 1.49775E-13-1.46458E-13
 -1       931 1.39935E+01-7.58954E-02 4.42046E-02 3.07262E+00-5.37968E-14 2.08381E-13
 -1       932 2.02991E+01 5.17297E-01-4.96263E-05-7.72627E-03 1.18961E-13-7.01543E-14
 -1       933 1.26207E+01 8.63271E-01 2.28578E-02-7.60601E-01 7.01600E-14-2.66490E-13
 -1       934 1.50536E+01-3.11250E-01 2.15423E-02-3.20190E+00-2.11968E-13-1.96671E-13
 -1       935 2.01002E+01 2.09139E-01 4.09780E-07-4.00108E-01 5.86145E-14-1.53316E-13
 -1       936 1.54264E+01 2.98482E-02 1.70319E-02-2.78643E+00 2.90864E-14-2.05974E-13
 -1       937 2.02632E+01 1.48528E+00-1.12637E-05 6.19811E-02 9.96413E-14-2.57560E-13
 -1       938 1.97117E+01 4.59820E-01-2.92181E-05 6.35456E-02-1.78040E-13-6.78723E-14
 -1       939 1.97913E+01 4.13260E-01 1.13666E-04-2.42719E-01 3.14244E-13 7.14306E-14
 -1       940 1.99121E+01 3.19434E-01 2.53894E-05 3.14489E-01 9.82004E-14-3.40344E-13
 -1       941 1.84047E+01-1.93389E+00 2.36006E-02 3.76098E+00-2.32074E-13 5.36249E-13
 -1       942 1.97541E+01 4.28615E-01-6.32634E-05 1.67645E-01-1.20207E-13-2.74699E-13
 -1       943 1.98189E+01 3.81256E-01-2.63517E-05 2.36635E-01-3.60971E-14-4.62808E-13
 -1       944 2.03008E+01 1.19957E+00 8.58266E-04-3.51159E-01-7.96212E-14-2.65075E-13
 -1       945 2.02770E+01 1.41186E+00 2.68230E-05 1.75529E-01 1.17113E-13-2.34960E-13
 -1       946 2.02760E+01 1.41589E+00-1.00849E-05-1.71975E-01 3.72220E-15-2.40404E-13
 -1       947 2.00395E+01 2.39158E-01 5.12359E-06-4.73025E-01 7.10602E-14-1.08153E-13
 -1       948 2.30989E+01-3.50768E+00 8.68626E-03 2.14124E+00-4.43144E-14-2.56373E-13
 -1       949 1.29970E+01 9.61425E-01 2.73733E-02-5.68833E-01-1.14527E-13-2.77465E-13
 -1       950 2.04599E+01-2.94900E+00 1.62285E-02 3.54938E+00-2.02881E-13 5.37798E-13
 -1       951 1.97335E+01 4.49683E-01-3.61851E-07-1.51900E-01 2.17152E-13 2.29165E-13
 -1       952 2.03540E+01 7.80992E-01 1.12417E-04-5.28868E-02-3.70740E-14-2.59557E-13
 -1       953 2.03022E+01 1.26343E+00 1.04206E-04 2.72568E-01 1.16484E-13-1.86934E-13
 -1       954 2.03405E+01 5.32973E-01-3.83451E-04 6.00751E-02-1.43831E-14-1.70282E-13
 -1       955 2.02922E+01 3.86067E-01 2.81885E-05 1.47241E-01-4.10329E-14-1.11812E-13
 -1       956 2.02179E+01 3.12532E-01-1.81397E-05 2.15428E-01 6.68900E-15-1.09878E-13
 -1       957 2.01236E+01 2.98177E-01-8.31656E-06 2.74060E-01 2.77801E-14-1.01548E-13
 -1       958 2.00102E+01 3.29835E-01-7.15354E-06 3.30184E-01-1.09713E-14-1.30623E-13
 -1       959 1.98762E+01 3.96549E-01-2.14445E-05 3.89856E-01-3.88878E-14-1.12875E-13
 -1       960 1.97178E+01 4.88834E-01-3.25630E-05 4.58065E-01-6.58873E-14-7.12782E-14
 -1       961 1.95295E+01 5.96874E-01-4.69017E-05 5.39119E-01-9.80070E-14 1.62447E-14
 -1       962 1.93042E+01 7.09583E-01-6.22088E-05 6.37174E-01-9.61067E-14-8.81642E-14
 -1       963 1.90336E+01 8.13061E-01-8.85891E-05 7.57751E-01-1.10074E-13-8.41310E-14
 -1       964 1.87088E+01 8.88738E-01-1.52643E-04 9.10001E-01-2.76800E-14 8.60467E-14
 -1       965 1.83205E+01 9.11103E-01-3.65883E-04 1.11020E+00 1.12873E-13 1.00953E-15
 -1       966 1.78606E+01 8.45134E-01-6.87895E-04 1.38711E+00 1.55938E-13-1.29617E-13
 -1       967 1.73220E+01 6.39342E-01-9.30131E-04 1.79258E+00 2.40576E-13-1.02251E-13
 -1       968 1.67272E+01 2.09405E-01 2.32363E-03 2.40570E+00 1.65235E-13-1.25849E-13
 -1       969 1.59016E+01-4.75131E-01 2.76261E-02 3.26358E+00 2.45005E-13-1.60765E-13
 -1       970 1.93779E+01 6.01513E-01-4.03199E-06-8.78182E-01-2.68331E-14 1.20469E-14
 -1       971 1.74536E+01 4.73678E-01-2.45745E-04-2.01637E+00-2.04206E-13 1.39589E-13
 -1       972 1.79129E+01 7.73611E-01 5.61512E-05-1.55105E+00-2.87567E-13-7.46695E-14
 -1       973 1.83241E+01 9.02051E-01-4.94723E-05-1.22577E+00-1.54058E-13-2.94197E-13
 -1       974 1.86797E+01 9.22702E-01-3.83435E-07-9.87384E-01 1.40308E-13-3.44430E-13
 -1       975 1.89779E+01 8.77708E-01 5.79223E-07-8.02906E-01 4.07933E-14-6.12762E-13
 -1       976 1.92229E+01 7.95941E-01-2.84774E-07-6.53688E-01 1.44160E-14-1.92917E-13
 -1       977 1.94208E+01 6.97249E-01-1.66852E-05-5.29786E-01 7.94595E-14 9.32719E-14
 -1       978 1.95781E+01 5.94952E-01-9.99006E-05-4.26130E-01-1.12127E-13 2.90334E-14
 -1       979 1.97017E+01 4.98196E-01-9.05991E-05-3.39380E-01-5.83477E-14 1.63924E-13
 -1       980 1.95437E+01 5.49897E-01-5.16584E-06-7.30812E-01-4.42898E-14 5.27899E-14
 -1       981 1.96947E+01 4.76571E-01 7.88624E-06-6.11880E-01-1.84300E-14 7.77075E-14
 -1       982 2.02897E+01 3.73228E-01-1.63429E-05-1.53858E-01 7.02738E-14-1.65066E-13
 -1       983 1.90315E+01 5.39190E-01 1.05116E-04-1.29391E+00-2.70476E-14 9.55843E-15
 -1       984 1.88920E+01 3.51102E-01 9.81027E-05-1.58988E+00-3.63326E-14 1.40755E-14
 -1       985 1.88384E+01-1.58814E-02-4.49687E-04-1.96775E+00-1.21750E-13 7.48782E-14
 -1       986 1.89635E+01-6.30204E-01 6.83492E-04-2.44186E+00-1.42366E-13-1.01116E-13
 -1       987 1.94608E+01-1.58831E+00 4.98138E-03-2.98233E+00-1.69289E-13-1.28548E-13
 -1       988 2.02256E+01 2.90125E-01 5.30961E-06-2.34058E-01 7.67282E-14-1.15243E-13
 -1       989 2.02979E+01 1.27257E+00 5.02337E-04-2.70113E-01-5.68609E-14-2.66376E-13
 -1       990 1.88364E+01 1.81488E-01 1.04349E-04 1.79576E+00 1.08980E-13 6.55675E-13
 -1       991 1.92176E+01-1.15766E+00 1.39198E-02 2.82210E+00-2.99189E-13 7.46670E-13
 -1       992 1.89253E+01 4.79697E-01 2.35109E-04 1.44088E+00 1.23453E-13 5.02302E-13
 -1       993 1.90679E+01 6.28781E-01 5.34114E-05 1.16259E+00 1.31475E-14 3.36137E-13
 -1       994 1.92277E+01 6.77071E-01 3.20260E-05 9.39374E-01-5.40117E-14 2.06657E-13
 -1       995 1.93827E+01 6.61583E-01 2.13360E-05 7.57779E-01-1.35447E-13 1.31855E-14
 -1       996 1.95220E+01 6.09179E-01 1.27618E-05 6.08341E-01 1.22933E-13-3.46069E-14
 -1       997 1.96414E+01 5.38577E-01-1.49841E-05 4.84674E-01 7.14657E-14-3.46189E-13
 -1       998 1.97399E+01 4.62741E-01-6.94456E-05 3.83201E-01-5.24528E-14-5.83188E-13
 -1       999 2.03433E+01 9.84299E-01-3.18235E-04-1.06408E-01-5.31880E-14-2.14273E-13
 -1      1000 1.44331E+01 7.22815E-01 1.70533E-02 1.64285E+00 1.83764E-13-2.67598E-13
 -1      1001 1.64232E+01-5.68317E-01-3.78031E-03 3.22992E+00-3.42811E-13 2.88838E-13
 -1      1002 2.03100E+01 6.96420E-01-4.20479E-04 1.40948E-01 1.46472E-13-1.01483E-13
 -1      1003 1.89021E+01-3.60118E-01-3.17581E-03 2.26405E+00-1.96689E-13 5.56862E-13
 -1      1004 2.02629E+01 1.48672E+00 7.17894E-06-5.78913E-02 6.15697E-14-3.12329E-13
 -1      1005 1.98291E+01 3.98910E-01 3.39581E-06-5.15077E-01 4.51085E-14 1.33153E-15
 -1      1006 1.74297E+01-2.24936E-01 5.69103E-03-2.74523E+00-2.91991E-14 7.36969E-15
 -1      1007 1.92026E+01 6.08401E-01 2.01609E-05-1.06202E+00-1.01137E-14 5.47888E-14
 -1      1008 2.03337E+01 5.31898E-01-1.84950E-05-5.12410E-02 1.09704E-13-1.55620E-13
 -1      1009 1.41890E+01 1.08252E+00 1.67656E-02 3.92914E-01 8.19590E-14-2.78226E-13
 -1      1010 1.40037E+01 7.67874E-01 1.59510E-02 1.60680E+00-7.34417E-14 6.31834E-14
 -1      1011 1.46480E+01 5.86996E-01 1.33602E-02-1.94093E+00-4.44826E-15-1.72731E-13
 -1      1012 2.03423E+01 1.07616E+00 1.27866E-04-5.87312E-02 1.67903E-14-2.12698E-13
 -1      1013 1.99484E+01 3.29831E-01-3.42493E-05-4.35312E-01 3.45138E-14-5.51228E-15
 -1      1014 2.01461E+01 2.64244E-01-1.59385E-05-3.01726E-01 4.51911E-14-1.20658E-13
 -1      1015 1.46212E+01 7.91025E-01 1.43005E-02-1.59588E+00 4.05202E-14-3.34017E-13
 -1      1016 1.95947E+01 5.47369E-01 3.06408E-05 1.18690E-02 1.11040E-13 2.39177E-13
 -1      1017 1.96107E+01 5.48482E-01 4.18246E-05-2.21758E-01 1.91113E-14 9.63606E-14
 -1      1018 1.97787E+01 4.22670E-01 2.55153E-05 3.03905E-01-6.14412E-14-6.01855E-13
 -1      1019 1.96256E+01 5.24776E-01-1.13881E-04 1.47592E-01-1.30991E-13-2.29131E-13
 -1      1020 1.96937E+01 4.79769E-01 1.91798E-04 2.35367E-01-1.10975E-13-5.23841E-13
 -1      1021 2.03426E+01 1.07284E+00 8.71060E-05 5.90555E-02 1.25455E-13-2.20799E-13
 -1      1022 1.53358E+01 5.35163E-01 1.19486E-02 2.03962E+00 1.88514E-13-2.45239E-13
 -1      1023 2.03401E+01 1.10574E+00 2.83901E-05 1.09428E-03 1.06848E-13-2.20938E-13
 -1      1024 1.95841E+01 5.58887E-01 3.87471E-05-1.03617E-01 3.52074E-13 2.41725E-13
 -1      1025 1.74828E+01-5.84873E-01 1.54380E-02-2.98037E+00-1.26559E-13-1.43493E-13
 -1      1026 1.67354E+01 1.01614E+00 1.32360E-04-1.19392E+00-2.68380E-13-4.77400E-13
 -1      1027 2.03416E+01 5.09916E-01 4.20964E-04 6.38413E-02 1.39530E-14-1.53446E-13
 -1      1028 2.02739E+01 3.90446E-01-7.19920E-05 1.15534E-01-1.39009E-14-1.08140E-13
 -1      1029 2.01788E+01 3.41030E-01-7.35100E-05 1.57132E-01-4.02341E-15-1.49988E-13
 -1      1030 2.00575E+01 3.49237E-01-4.67458E-06 1.94198E-01 4.23303E-14-9.40088E-14
 -1      1031 1.99101E+01 4.01939E-01-9.92985E-06 2.30730E-01-1.71585E-14-1.21323E-14
 -1      1032 1.97344E+01 4.87927E-01-8.01521E-05 2.69868E-01-1.78893E-14-7.26258E-15
 -1      1033 1.95246E+01 5.98128E-01-1.33319E-04 3.14824E-01-3.32387E-14-2.43798E-15
 -1      1034 1.92734E+01 7.21450E-01-1.54893E-04 3.67299E-01-1.63135E-13-1.86877E-14
 -1      1035 1.89696E+01 8.46966E-01-2.05872E-04 4.30097E-01-6.52057E-14-4.90907E-14
 -1      1036 1.85985E+01 9.61589E-01-2.90896E-04 5.07703E-01 1.37226E-14-2.35090E-14
 -1      1037 1.81390E+01 1.04969E+00-5.03423E-04 6.09104E-01-3.15447E-14 5.18588E-14
 -1      1038 1.75635E+01 1.09036E+00-7.26293E-04 7.50834E-01 8.05176E-14-2.72326E-14
 -1      1039 1.68164E+01 1.06556E+00-7.77640E-04 9.56298E-01 1.93382E-13-1.26621E-13
 -1      1040 1.61139E+01 9.02109E-01 2.62305E-03 1.38495E+00 1.36459E-13-1.50908E-13
 -1      1041 1.74674E+01 1.10033E+00-9.24738E-06-9.12959E-01-2.43485E-13-1.32530E-13
 -1      1042 1.80359E+01 1.09804E+00-5.93481E-05-7.22735E-01-1.62967E-14-1.57895E-13
 -1      1043 1.84842E+01 1.03963E+00-3.51263E-05-5.85483E-01 7.74062E-14-2.45870E-13
 -1      1044 1.88403E+01 9.46965E-01-1.73712E-05-4.79196E-01 3.13228E-13 2.11737E-13
 -1      1045 1.91236E+01 8.36603E-01-8.62873E-06-3.92449E-01 6.26769E-14 2.32151E-13
 -1      1046 1.93489E+01 7.20195E-01-1.20645E-04-3.20753E-01 3.02656E-14 8.03457E-14
 -1      1047 1.94916E+01 6.32165E-01-2.61329E-05-2.68263E-01 9.46946E-14 4.01076E-14
 -1      1048 1.92124E+01 6.99708E-01-7.61260E-05-6.20078E-01-2.40884E-14 3.76462E-14
 -1      1049 1.94440E+01 6.09822E-01-5.59084E-05-5.08591E-01 4.78234E-15 5.15387E-14
 -1      1050 1.89459E+01 7.65781E-01-8.20085E-05-7.64711E-01-7.70060E-14 7.06709E-14
 -1      1051 1.83003E+01 7.30301E-01 6.94942E-05-1.21889E+00-1.20136E-14 2.47043E-13
 -1      1052 2.02845E+01 3.84587E-01-7.62801E-05-1.36907E-01 5.64017E-14-1.60085E-13
 -1      1053 1.87092E+01 8.51691E-01-2.58104E-05 8.49472E-01 9.82253E-14 3.79767E-13
 -1      1054 2.03444E+01 7.09114E-01 6.06222E-04 5.77547E-02 1.16691E-13-1.77534E-13
 -1      1055 1.83990E+01 8.14724E-01-2.80178E-04 1.08995E+00 2.44671E-13 4.98797E-13
 -1      1056 1.80541E+01 6.72565E-01-1.41742E-03 1.42054E+00 5.69547E-14 4.57502E-13
 -1      1057 1.89786E+01 8.24283E-01-6.94573E-06 6.68216E-01 2.80262E-14 2.39051E-13
 -1      1058 1.92074E+01 7.58485E-01 1.75942E-05 5.27596E-01 8.83039E-14 7.69526E-14
 -1      1059 1.93988E+01 6.71942E-01-8.49861E-05 4.16663E-01 3.80167E-13-1.39321E-13
 -1      1060 1.95552E+01 5.79859E-01-7.24190E-07 3.27478E-01 2.69096E-13-5.47824E-13
 -1      1061 2.03445E+01 9.76406E-01-6.96283E-04 1.05250E-01 1.08082E-13-2.24894E-13
 -1      1062 1.94717E+01 6.29763E-01 2.57279E-04 1.03479E-01 2.63099E-13 8.82406E-14
 -1      1063 1.86683E+01-1.08535E+00 4.16726E-02 3.00601E+00-3.89966E-13 7.73832E-13
 -1      1064 1.60365E+01 7.04975E-01 2.33334E-03-1.81086E+00 5.20710E-15-3.82215E-13
 -1      1065 1.58207E+01 3.29966E-01-4.01295E-03 2.32079E+00-2.28475E-13-7.96264E-14
 -1      1066 1.96447E+01 5.13308E-01 1.20955E-05-4.21292E-01-2.63974E-14 5.40867E-14
 -1      1067 1.77186E+01 3.86208E-01 1.46518E-03 1.87409E+00-4.59540E-14 3.46760E-13
 -1      1068 1.51670E+01 9.92900E-01 4.21721E-03 1.02163E+00 1.33049E-13-1.66819E-13
 -1      1069 1.86420E+01 7.85871E-01-2.33963E-05-9.56452E-01-4.61474E-14 1.28509E-13
 -1      1070 2.00537E+01 2.81326E-01-3.17403E-05-3.66219E-01 1.98367E-14-8.15958E-14
 -1      1071 1.75885E+01 1.97076E-01 5.30267E-04-2.12385E+00-5.98210E-14-4.01891E-14
 -1      1072 1.79353E+01 5.58133E-01 3.95680E-04-1.59165E+00-5.81064E-14 9.02679E-14
 -1      1073 2.03639E+01 7.74614E-01 3.43501E-04-2.01366E-02-6.28618E-15-1.50819E-13
 -1      1074 2.03411E+01 5.20486E-01-6.56874E-05-6.89018E-02 6.73805E-14-1.49824E-13
 -1      1075 1.98161E+01 4.25546E-01-1.04509E-04-3.51161E-01-7.11968E-16-1.05711E-14
 -1      1076 2.02004E+01 3.22760E-01-7.45200E-05-1.92827E-01 7.83661E-14-2.03920E-13
 -1      1077 1.96278E+01 5.29047E-01 2.30947E-05 2.78398E-01-2.00147E-13-6.46871E-13
 -1      1078 1.46593E+01 1.14009E+00 1.33952E-02-1.74693E-01-1.32132E-13-1.35644E-13
 -1      1079 2.03659E+01 7.52942E-01 6.69861E-05 9.01103E-03 7.60352E-14-2.15835E-13
 -1      1080 1.94256E+01 6.60155E-01-2.58219E-04-3.37272E-02 9.73256E-14 5.67685E-13
 -1      1081 2.03691E+01 8.05669E-01 1.45988E-04 2.76906E-03 8.28144E-14-2.01024E-13
 -1      1082 1.94970E+01 6.13325E-01-4.00108E-05 2.19593E-01 2.77807E-13 1.91874E-13
 -1      1083 1.80256E+01 9.77978E-01-2.46908E-04-7.11471E-01-4.44298E-14-8.47648E-14
 -1      1084 2.02346E+01 3.84899E-01 9.54938E-05 5.29466E-02 6.08882E-15-5.77557E-14
 -1      1085 2.01185E+01 3.62350E-01 1.62825E-05 6.64191E-02 1.04293E-14-3.87491E-14
 -1      1086 1.99747E+01 3.91262E-01-4.90519E-05 7.88297E-02 4.02522E-14-1.47442E-13
 -1      1087 1.97995E+01 4.64732E-01 3.85053E-04 9.20291E-02-3.20025E-14-9.37649E-14
 -1      1088 1.95883E+01 5.68040E-01 2.45326E-04 1.03544E-01-2.46674E-14-1.33721E-13
 -1      1089 1.93375E+01 6.89305E-01 1.10717E-04 1.13699E-01-3.98873E-14-1.03585E-13
 -1      1090 1.90359E+01 8.20107E-01 1.33004E-04 1.23438E-01-1.20880E-13 8.40632E-15
 -1      1091 1.86687E+01 9.48788E-01 1.57026E-04 1.31496E-01-2.21970E-14 1.33809E-14
 -1      1092 1.82144E+01 1.06346E+00 2.06751E-04 1.36990E-01-7.72922E-15-4.17055E-14
 -1      1093 1.76387E+01 1.15384E+00 6.45303E-04 1.38160E-01-9.74421E-15-1.09512E-14
 -1      1094 1.68966E+01 1.19967E+00 2.46156E-04 1.51179E-01 5.13030E-14-8.39457E-15
 -1      1095 1.61290E+01 1.18848E+00 1.04710E-02 3.01948E-01 7.11911E-14-1.06095E-13
 -1      1096 2.03200E+01 4.73567E-01 1.04390E-04 3.31955E-02 3.30907E-14-1.33635E-13
 -1      1097 1.63271E+01 9.22584E-01-2.07820E-03 1.24073E+00-1.98616E-13-1.16713E-13
 -1      1098 2.03693E+01 8.05028E-01-2.45367E-04-7.50133E-03 2.63728E-14-1.26801E-13
 -1      1099 1.74697E+01 1.21220E+00 1.09049E-04-2.66459E-01-3.79545E-14-2.15289E-14
 -1      1100 1.80535E+01 1.14932E+00-3.92316E-05-2.29268E-01 1.69620E-14 1.27755E-14
 -1      1101 1.85058E+01 1.05486E+00-1.36185E-04-1.99571E-01 5.33882E-13 1.57810E-13
 -1      1102 1.88616E+01 9.42587E-01 6.27047E-05-1.72526E-01 2.77933E-13 1.23270E-13
 -1      1103 1.91414E+01 8.22095E-01 7.01806E-05-1.46340E-01-6.00014E-14 1.90093E-13
 -1      1104 1.91743E+01 7.40936E-01-1.29633E-04-3.35632E-01 4.97310E-15-2.23799E-14
 -1      1105 1.74684E+01 9.58554E-01-2.87499E-03-9.51012E-01 4.26291E-14-8.77097E-14
 -1      1106 1.84823E+01 9.33460E-01-1.78348E-04-5.43697E-01-9.13094E-14-7.58288E-14
 -1      1107 1.56802E+01 1.13171E+00 1.91806E-03-7.32364E-01-2.04395E-13-4.90029E-13
 -1      1108 1.81694E+01 1.02755E+00-2.70117E-04 6.30159E-01 1.77627E-13 1.97657E-13
 -1      1109 1.76751E+01 1.02068E+00 4.05340E-04 8.46249E-01 1.19925E-13 1.53328E-13
 -1      1110 1.91576E+01 7.97604E-01 1.05952E-04 2.81970E-01 2.92904E-13-3.30304E-13
 -1      1111 1.93460E+01 7.03180E-01 4.05177E-04 2.48962E-01 2.83090E-13-3.62300E-14
 -1      1112 1.60814E+01 9.36855E-01-3.79899E-03-1.23696E+00-1.04532E-14-1.28671E-13
 -1      1113 1.94389E+01 6.26825E-01-1.30041E-04-2.70116E-01-3.00579E-14-6.91479E-14
 -1      1114 1.67024E+01 1.22719E+00-8.49858E-04-3.16296E-01 7.04206E-15-2.13758E-13
 -1      1115 1.88595E+01 8.48310E-01-1.53823E-04-4.23528E-01-8.04157E-14-2.92861E-14
 -1      1116 1.88936E+01 8.98747E-01 3.14966E-05 3.66032E-01 1.87411E-13-6.74331E-14
 -1      1117 1.94453E+01 6.54153E-01 2.73846E-04-1.51976E-01 2.32699E-14-6.80859E-14
 -1      1118 1.70884E+01 9.96653E-01 6.53025E-04 1.01849E+00-8.06053E-14 5.41970E-14
 -1      1119 1.53969E+01 1.10019E+00 4.29821E-03 6.94438E-01-2.68155E-13-1.16935E-13
 -1      1120 1.85688E+01 9.79986E-01-2.44120E-04 4.77641E-01 1.92057E-13 1.76617E-13
 -1      1121 1.99655E+01 3.57223E-01 7.18948E-05-2.93621E-01-3.67202E-14-6.71093E-14
 -1      1122 2.00937E+01 3.18868E-01 9.65537E-05-2.43301E-01-2.72722E-14-1.31228E-13
 -1      1123 1.96622E+01 5.19008E-01-1.49211E-04-2.19291E-01-3.20613E-14-7.88083E-14
 -1      1124 2.03279E+01 4.90897E-01 1.01206E-04-5.43996E-02 6.53670E-14-1.60934E-13
 -1      1125 2.03626E+01 6.47946E-01-1.35098E-04 1.20714E-02 1.79585E-14-8.39434E-14
 -1      1126 1.93056E+01 7.37572E-01 6.25776E-04-1.51182E-01-1.38315E-13 5.05161E-14
 -1      1127 2.02541E+01 3.85541E-01 3.30979E-05-8.81529E-02 6.98840E-14-1.54627E-13
 -1      1128 1.60184E+01 1.21007E+00-5.43679E-04 4.62511E-02-1.88178E-13-2.96510E-13
 -1      1129 2.03609E+01 6.22924E-01-1.46992E-04-2.24972E-02 1.92682E-14-2.20598E-13
 -1      1130 1.93106E+01 7.25033E-01-3.23846E-04 1.11193E-01 1.55821E-13 2.40202E-14
 -1      1131 2.01474E+01 3.50901E-01 1.78125E-05-1.18286E-01-2.59301E-14-1.16790E-13
 -1      1132 2.00493E+01 3.72760E-01-6.10003E-05-5.37216E-02-6.07485E-14-8.57230E-14
 -1      1133 1.98880E+01 4.23599E-01-2.45746E-04-6.72691E-02-1.26402E-14-1.19050E-13
 -1      1134 1.71335E+01 1.18834E+00-4.82393E-04 3.80778E-01 1.56499E-13-3.81515E-13
 -1      1135 1.82852E+01 1.09020E+00 1.11018E-04 1.77177E-01 2.74782E-13 4.51692E-14
 -1      1136 1.89971E+01 8.78598E-01-2.97018E-04 8.47268E-02 3.55334E-13 6.86838E-14
 -1      1137 1.77817E+01 1.15976E+00-6.39956E-06 2.57242E-01 9.00962E-14-9.89655E-14
 -1      1138 1.64966E+01 1.13718E+00 2.01194E-04 6.19269E-01-4.97541E-14-1.45487E-13
 -1      1139 1.86512E+01 1.00207E+00 7.51764E-05 1.19200E-01 4.15130E-13-5.39360E-14
 -1      1140 2.79149E+01 9.07069E+00 2.32056E+00-6.68894E+00-3.99680E-14 9.30783E-13
 -1      1141 2.05246E+01 6.22020E+00 2.09367E-01-3.90008E+00-1.88183E-14-1.84297E-14
 -1      1142 1.94261E+01 5.85046E+00 7.54432E-02-2.88473E+00-1.24900E-14-3.99191E-13
 -1      1143 1.90287E+01 5.72683E+00 6.07415E-02-2.23152E+00-7.33441E-15-5.61331E-13
 -1      1144 1.88506E+01 5.67262E+00 5.81354E-02-1.69719E+00-4.74620E-15-6.35828E-13
 -1      1145 1.87617E+01 5.64524E+00 5.57515E-02-1.23002E+00-2.26208E-15-6.53318E-13
 -1      1146 1.87161E+01 5.63097E+00 5.38382E-02-8.01057E-01-1.24900E-16-6.48641E-13
 -1      1147 1.86938E+01 5.62390E+00 5.24984E-02-3.91008E-01 1.38453E-15-6.29310E-13
 -1      1148 1.86875E+01 5.62187E+00 5.20652E-02 8.50361E-03 2.40747E-15-6.12718E-13
 -1      1149 1.86948E+01 5.62423E+00 5.26088E-02 4.08415E-01 4.92510E-15-5.85918E-13
 -1      1150 1.87181E+01 5.63166E+00 5.40887E-02 8.19787E-01 5.98003E-15-5.43902E-13
 -1      1151 1.87654E+01 5.64656E+00 5.64250E-02 1.25136E+00 8.55305E-15-4.83242E-13
 -1      1152 1.88553E+01 5.67423E+00 5.87570E-02 1.72302E+00 1.11439E-14-3.91394E-13
 -1      1153 1.90339E+01 5.72842E+00 6.07800E-02 2.26450E+00 1.22471E-14-2.36245E-13
 -1      1154 1.94228E+01 5.84771E+00 6.95268E-02 2.92515E+00 1.49186E-14 3.88647E-14
 -1      1155 2.04310E+01 6.17524E+00 1.53115E-01 3.87475E+00 1.58762E-14 5.40158E-13
 -1      1156 2.51726E+01 7.97988E+00 1.42685E+00 5.83898E+00 2.85327E-14 1.49844E-12
 -1      1157 2.87541E+01 3.60921E+00 1.26771E+00-4.21062E+00-1.52850E-13 1.52289E-12
 -1      1158 2.01813E+01-1.77593E-01-6.15822E-01-1.09987E-01-5.24789E-14 1.15846E-12
 -1      1159 1.87901E+01-9.65016E-02-2.36285E-01 6.22621E-02-1.85373E-14 6.79410E-13
 -1      1160 1.84594E+01-4.83739E-02-5.98090E-02 4.02132E-02-6.48093E-15 3.68400E-13
 -1      1161 1.84095E+01-2.51664E-02-1.56945E-02 2.64291E-02-1.75554E-15 2.00145E-13
 -1      1162 1.85004E+01-1.39104E-02-5.83533E-03 1.86663E-02-1.10625E-14 1.36242E-13
 -1      1163 1.86627E+01-7.84890E-03-2.78255E-03 1.37203E-02-1.16379E-14 4.98560E-15
 -1      1164 1.88603E+01-4.57451E-03-1.32550E-03 1.03375E-02-1.46920E-14-1.46048E-13
 -1      1165 1.90748E+01-2.96948E-03-7.61978E-04 7.92248E-03-2.17811E-15-2.80059E-13
 -1      1166 1.92988E+01-2.45923E-03-9.82079E-04 6.20471E-03-1.39008E-15-4.19697E-13
 -1      1167 1.95324E+01-2.72103E-03-1.88725E-03 5.07128E-03 2.57571E-15-5.22589E-13
 -1      1168 1.97812E+01-3.55405E-03-3.37463E-03 4.49366E-03 1.93655E-14-3.93452E-13
 -1      1169 2.00552E+01-4.80975E-03-5.34800E-03 4.49801E-03-1.19919E-14-5.40052E-13
 -1      1170 2.03680E+01-6.34308E-03-7.69553E-03 5.15318E-03 1.78060E-14-5.39530E-13
 -1      1171 2.07356E+01-7.96299E-03-1.02362E-02 6.56186E-03-3.92449E-15-4.51004E-13
 -1      1172 2.11753E+01-9.36899E-03-1.26268E-02 8.84082E-03-2.18972E-14-5.32128E-13
 -1      1173 2.17031E+01-1.00650E-02-1.42119E-02 1.20698E-02 1.26346E-14-5.00398E-13
 -1      1174 2.23290E+01-9.25239E-03-1.38056E-02 1.61736E-02-5.02072E-15-4.19883E-13
 -1      1175 2.30490E+01-5.73594E-03-9.44510E-03 2.06825E-02-2.53541E-16-4.79915E-13
 -1      1176 2.38321E+01 2.05210E-03 1.68697E-03 2.43153E-02-1.84055E-14-7.52606E-13
 -1      1177 2.46013E+01 1.56512E-02 2.26672E-02 2.44081E-02 8.06061E-15-7.36543E-13
 -1      1178 2.52136E+01 3.53853E-02 5.46815E-02 1.65225E-02-4.04884E-15-5.31413E-13
 -1      1179 2.54516E+01 5.80692E-02 9.25880E-02-4.85253E-03 6.17215E-15-4.15808E-13
 -1      1180 2.50566E+01 7.40459E-02 1.19527E-01-4.29156E-02-1.43748E-14-5.27182E-13
 -1      1181 2.38418E+01 6.69556E-02 1.06888E-01-9.14003E-02 3.64040E-14-2.54324E-13
 -1      1182 2.18893E+01 2.19833E-02 3.11100E-02-1.28190E-01-8.02830E-15 8.82905E-14
 -1      1183 1.97169E+01-5.39235E-02-9.27364E-02-1.21825E-01 4.29518E-14 1.20265E-13
 -1      1184 1.81800E+01-1.19637E-01-1.97724E-01-5.79355E-02-1.19436E-14-1.88669E-14
 -1      1185 1.80083E+01-1.27546E-01-2.10021E-01 3.76669E-02-4.48148E-14 7.95267E-14
 -1      1186 1.92896E+01-7.12183E-02-1.20343E-01 1.12430E-01 1.14622E-14-5.39568E-14
 -1      1187 2.14000E+01 6.79533E-03 6.11802E-03 1.31389E-01-2.31226E-14-4.30322E-13
 -1      1188 2.34622E+01 6.02946E-02 9.54548E-02 1.01551E-01-4.89053E-14-9.17932E-13
 -1      1189 2.48630E+01 7.49544E-02 1.20903E-01 5.32316E-02-1.57964E-14-7.55090E-13
 -1      1190 2.54330E+01 6.24599E-02 1.00099E-01 1.18209E-02-3.23587E-14-8.91648E-13
 -1      1191 2.53180E+01 4.00585E-02 6.25890E-02-1.31818E-02 2.92401E-14-7.50082E-13
 -1      1192 2.47751E+01 1.90912E-02 2.83390E-02-2.35479E-02 9.82491E-14-2.95153E-13
 -1      1193 2.40369E+01 3.95562E-03 4.71761E-03-2.47085E-02 3.93100E-14-3.07428E-13
 -1      1194 2.32644E+01-5.14711E-03-8.53129E-03-2.14750E-02 6.27979E-14-4.69035E-14
 -1      1195 2.25487E+01-9.63292E-03-1.43432E-02-1.68794E-02 4.53649E-14 3.17791E-13
 -1      1196 2.19309E+01-1.11163E-02-1.56883E-02-1.24413E-02-3.02529E-14-6.53973E-14
 -1      1197 2.14215E+01-1.08800E-02-1.47236E-02-8.74881E-03 1.17237E-14-2.31381E-13
 -1      1198 2.10147E+01-9.79483E-03-1.27832E-02-5.91561E-03-7.67972E-14-3.15420E-13
 -1      1199 2.06979E+01-8.39863E-03-1.06133E-02-3.85319E-03 5.53894E-14-4.19743E-13
 -1      1200 2.04563E+01-7.00135E-03-8.60527E-03-2.40707E-03-1.61470E-14-1.95639E-13
 -1      1201 2.02760E+01-5.77443E-03-6.96781E-03-1.40877E-03 4.58567E-14-2.72397E-13
 -1      1202 2.01455E+01-4.80436E-03-5.81998E-03-6.77693E-04-1.93753E-14-3.87089E-14
 -1      1203 2.00564E+01-4.10062E-03-5.17054E-03-1.15973E-06 7.61598E-14-1.14567E-13
 -1      1204 2.00037E+01-3.51415E-03-4.66766E-03 9.11261E-04 4.51142E-14 1.92418E-13
 -1      1205 1.99863E+01-3.18388E-03-2.59930E-03 2.58913E-03 9.74920E-15 5.28149E-13
 -1      1206 1.99947E+01 1.89731E-03 4.38855E-03 1.76314E-03 5.35574E-14 3.42222E-13
 -1      1207 2.77361E+01 5.24815E-01 3.75473E-01 1.96403E+00-2.92891E-14 2.26819E-12
 -1      1208 2.00392E+01-6.62583E-02-5.73212E-01 1.29492E-01 1.39055E-14 1.88347E-12
 -1      1209 1.88651E+01-4.07441E-02-1.93162E-01 1.96265E-02 4.47125E-15 1.53682E-12
 -1      1210 1.84888E+01-2.17041E-02-5.07569E-02 1.82105E-03 5.16297E-15 1.24572E-12
 -1      1211 1.84230E+01-1.28810E-02-1.38600E-02-3.55030E-03 1.78958E-15 1.01811E-12
 -1      1212 1.85078E+01-8.12513E-03-5.42841E-03-4.81763E-03 1.19956E-15 8.58619E-13
 -1      1213 1.86674E+01-5.37659E-03-3.11341E-03-4.79042E-03-5.95227E-16 7.69287E-13
 -1      1214 1.88637E+01-3.82914E-03-2.07433E-03-4.26731E-03-1.07537E-15 7.57555E-13
 -1      1215 1.90775E+01-3.09433E-03-1.66577E-03-3.50725E-03-2.00697E-15 6.29245E-13
 -1      1216 1.93008E+01-2.95368E-03-1.85815E-03-2.63947E-03 5.16533E-15 6.51431E-13
 -1      1217 1.95332E+01-3.26544E-03-2.61080E-03-1.75974E-03 2.29596E-14 5.03276E-13
 -1      1218 1.97793E+01-3.91895E-03-3.84322E-03-9.58887E-04 7.04227E-15 4.19213E-13
 -1      1219 2.00475E+01-4.80163E-03-5.44876E-03-3.40241E-04 1.15736E-14 3.92870E-13
 -1      1220 2.03491E+01-5.76534E-03-7.27392E-03-3.65342E-05-2.29171E-14 3.53227E-13
 -1      1221 2.06961E+01-6.58515E-03-9.06609E-03-2.26757E-04 4.55876E-14 1.73615E-13
 -1      1222 2.11000E+01-6.90816E-03-1.03914E-02-1.14866E-03-1.69309E-15 5.85035E-14
 -1      1223 2.15683E+01-6.19881E-03-1.05242E-02-3.09429E-03-2.15063E-14 2.28435E-13
 -1      1224 2.20996E+01-3.70769E-03-8.33018E-03-6.36025E-03 8.08744E-15 1.12107E-13
 -1      1225 2.26766E+01 1.46721E-03-2.22826E-03-1.11014E-02-1.04837E-14 1.85350E-13
 -1      1226 2.32558E+01 1.00964E-02 9.56879E-03-1.70170E-02-1.20828E-14 4.15584E-13
 -1      1227 2.37570E+01 2.21364E-02 2.81850E-02-2.28276E-02-9.45077E-15 4.30402E-13
 -1      1228 2.40560E+01 3.55962E-02 5.22334E-02-2.56779E-02 2.80245E-15 4.48465E-13
 -1      1229 2.39941E+01 4.53860E-02 7.52422E-02-2.10453E-02 3.46320E-14 6.53193E-14
 -1      1230 2.34193E+01 4.36861E-02 8.42964E-02-4.28511E-03-1.30842E-15-2.63588E-13
 -1      1231 2.22735E+01 2.39750E-02 6.39925E-02 2.52680E-02 1.49433E-14-4.16486E-13
 -1      1232 2.07013E+01-1.16186E-02 8.17020E-03 5.93386E-02-1.13435E-14 9.48547E-14
 -1      1233 1.91031E+01-4.83490E-02-6.71544E-02 8.08641E-02-4.82067E-14 5.51392E-13
 -1      1234 1.80294E+01-6.61330E-02-1.25408E-01 7.35119E-02-3.10012E-14 4.86784E-13
 -1      1235 1.79122E+01-5.55653E-02-1.32861E-01 3.59249E-02-3.00255E-14 4.50293E-13
 -1      1236 1.88004E+01-2.63102E-02-8.72371E-02-1.42172E-02 1.64061E-14 1.90639E-13
 -1      1237 2.03283E+01 3.76931E-03-1.83164E-02-5.29496E-02 3.00444E-14-3.84706E-13
 -1      1238 2.19458E+01 2.23724E-02 3.83377E-02-6.71426E-02-1.12349E-14-2.41335E-13
 -1      1239 2.32062E+01 2.77710E-02 6.46798E-02-5.92961E-02 8.03958E-15-1.39735E-13
 -1      1240 2.39108E+01 2.43920E-02 6.36422E-02-4.02901E-02-1.39016E-14-2.93814E-13
 -1      1241 2.40823E+01 1.73814E-02 4.78482E-02-2.03339E-02-2.50446E-14-3.02445E-13
 -1      1242 2.38598E+01 1.02049E-02 2.88068E-02-4.89068E-03 3.35023E-14-6.96944E-13
 -1      1243 2.34055E+01 4.45226E-03 1.29085E-02 4.76437E-03 5.24828E-14-9.38388E-13
 -1      1244 2.28533E+01 4.87611E-04 2.07651E-03 9.56961E-03-3.24713E-14-6.98538E-13
 -1      1245 2.22944E+01-1.90910E-03-4.17235E-03 1.10855E-02 3.80880E-14-5.84359E-13
 -1      1246 2.17811E+01-3.13736E-03-7.10744E-03 1.07019E-02 1.83708E-14-5.78024E-13
 -1      1247 2.13379E+01-3.58584E-03-7.96082E-03 9.40575E-03-1.36053E-14-5.38508E-13
 -1      1248 2.09712E+01-3.56632E-03-7.66108E-03 7.80882E-03 6.28945E-14-7.57797E-13
 -1      1249 2.06774E+01-3.30825E-03-6.82918E-03 6.25116E-03-3.86454E-14-7.97265E-13
 -1      1250 2.04484E+01-2.97408E-03-5.85942E-03 4.89761E-03 1.20595E-14-9.56501E-13
 -1      1251 2.02744E+01-2.67128E-03-5.00274E-03 3.80470E-03 9.04448E-14-1.05940E-12
 -1      1252 2.01467E+01-2.47708E-03-4.44126E-03 2.96057E-03 7.60133E-14-1.59770E-12
 -1      1253 2.00583E+01-2.42585E-03-4.27103E-03 2.27430E-03-6.02027E-14-1.25446E-12
 -1      1254 2.00054E+01-2.31040E-03-4.12266E-03 1.42620E-03-1.64412E-14-9.39245E-13
 -1      1255 1.99870E+01-1.10853E-03-2.11101E-03-2.91638E-04 8.13522E-14-1.01745E-12
 -1      1256 1.99955E+01 1.56754E-03 4.33274E-03-1.58942E-03-1.65886E-14-5.96490E-13
 -1      1257 2.00012E+01-4.72822E-03 3.96664E-03-1.64348E-03-6.07189E-13-1.00534E-13
 -1      1258 1.99976E+01-1.19334E-02-2.70216E-03-2.07804E-03-6.91899E-13-1.02695E-13
 -1      1259 1.99973E+01 9.10870E-03-4.00032E-03 2.07464E-04 1.27662E-13 1.33217E-14
 -1      1260 1.99982E+01 5.92978E-02-2.65769E-03 1.57305E-03 7.28403E-13 4.13024E-14
 -1      1261 1.99996E+01 1.26804E-01-5.98838E-04 2.16455E-03 8.98584E-13-6.62567E-14
 -1      1262 2.00010E+01 1.97162E-01 1.36702E-03 2.14432E-03 5.05213E-13-1.22894E-13
 -1      1263 2.00021E+01 2.58097E-01 2.92961E-03 1.70700E-03 1.85460E-13-8.83243E-15
 -1      1264 2.00028E+01 2.99662E-01 3.95765E-03 9.30579E-04 6.24168E-13-7.21209E-14
 -1      1265 2.00031E+01 3.14364E-01 4.32388E-03-6.37839E-06 4.74554E-13-3.57412E-14
 -1      1266 2.00029E+01 2.99745E-01 3.98869E-03-9.49469E-04 2.46569E-15 9.53492E-14
 -1      1267 2.00021E+01 2.58049E-01 2.96651E-03-1.73541E-03 3.17535E-13-1.45562E-13
 -1      1268 2.00010E+01 1.96675E-01 1.38251E-03-2.20734E-03-1.97991E-13 6.61626E-14
 -1      1269 1.99996E+01 1.25782E-01-6.13329E-04-2.19590E-03-6.39805E-14 8.32284E-14
 -1      1270 1.99982E+01 5.78076E-02-2.73661E-03-1.60704E-03 4.85112E-13-5.50636E-14
 -1      1271 1.99974E+01 6.86030E-03-4.24176E-03-2.49887E-04-3.83110E-13 6.48423E-14
 -1      1272 1.99972E+01-1.10337E-02-2.19577E-03 3.60281E-03-5.33934E-13-9.31456E-14
 -1      1273 2.00014E+01-5.57071E-03 3.98688E-03 2.02820E-03-3.69754E-13 1.41749E-13
 -1      1274-1.27096E+00-2.31883E+01-3.62877E+00-2.19820E+00 1.19982E-12 1.48867E-13
 -1      1275-1.74909E+00-1.47318E+01-3.05574E+00-3.95243E+00 1.45528E-12 6.12510E-13
 -1      1276 7.39599E-01-1.76627E+00-1.72311E+00 3.82644E-01 1.59495E-12 8.70193E-13
 -1      1277 1.02909E+01 8.24930E+00-1.47103E-01 9.11918E+00 1.37601E-12 1.28386E-12
 -1      1278 2.66894E+01 1.10781E+01 1.50414E+00 1.64378E+01 8.32223E-13 9.71889E-13
 -1      1279 4.60498E+01 8.09217E+00 2.96189E+00 1.74529E+01 1.22846E-13 2.78222E-13
 -1      1280 6.18974E+01 3.29562E+00 3.90240E+00 9.98617E+00 5.88418E-14 4.62075E-13
 -1      1281 6.62129E+01 1.62134E+00 4.13026E+00-3.18528E+00-1.74652E-14 3.77254E-13
 -1      1282 5.64649E+01 5.09976E+00 3.57594E+00-1.41675E+01 3.80168E-13-9.85989E-13
 -1      1283 3.84326E+01 9.67873E+00 2.40631E+00-1.79536E+01 1.00986E-12-1.90248E-12
 -1      1284 1.92347E+01 1.08366E+01 8.50498E-01-1.39249E+01 2.00107E-12-2.32703E-12
 -1      1285 5.70362E+00 5.61088E+00-7.18204E-01-5.70292E+00 2.33347E-12-2.05636E-12
 -1      1286-6.99544E-01-5.41761E+00-2.14620E+00 1.64356E+00 1.84919E-12-1.02052E-12
 -1      1287-1.62584E+00-1.77733E+01-3.25320E+00 4.00795E+00 8.81073E-13-3.76421E-13
 -1      1288-1.03886E+00-2.45134E+01-3.74991E+00 1.04392E+00-5.47978E-13-1.73951E-13
 -1      1289-1.36049E+00-2.24586E+01-3.65347E+00-3.12921E+00-2.03570E-12-3.53904E-13
 -1      1290-1.69795E+00-1.21014E+01-2.82799E+00-3.63121E+00-2.55884E-12-1.01930E-12
 -1      1291 2.16118E+00 8.59419E-01-1.48477E+00 2.12732E+00-2.12941E-12-1.40521E-12
 -1      1292 1.37557E+01 9.40341E+00 1.79042E-01 1.11936E+01-1.33160E-12-1.40954E-12
 -1      1293 3.21005E+01 1.06649E+01 1.99767E+00 1.74172E+01-5.88973E-13-8.87290E-13
 -1      1294 5.22500E+01 6.60173E+00 3.39073E+00 1.58121E+01-2.81830E-13-9.21041E-13
 -1      1295 6.59994E+01 2.20761E+00 4.24627E+00 6.08642E+00-1.23922E-13-7.73437E-13
 -1      1296 6.58169E+01 2.19356E+00 4.20420E+00-6.57707E+00-3.15060E-14-1.52545E-13
 -1      1297 5.38451E+01 6.10474E+00 3.44592E+00-1.55538E+01-3.15303E-13 6.40155E-13
 -1      1298 3.60994E+01 1.01154E+01 2.24563E+00-1.79533E+01-6.93223E-13 1.44040E-12
 -1      1299 1.83115E+01 1.05702E+01 6.90263E-01-1.35074E+01-1.20148E-12 1.44040E-12
 -1      1300 5.47068E+00 5.15562E+00-8.24311E-01-5.42121E+00-1.49281E-12 1.23146E-12
 -1      1301-7.44920E-01-5.25254E+00-2.19756E+00 1.62238E+00-1.38445E-12 8.06355E-13
 -1      1302-1.84077E+00-1.65449E+01-3.18167E+00 4.17302E+00-4.41647E-13 2.66537E-13
 -1      1303-1.07062E+00-2.42535E+01-3.77659E+00 2.00499E+00-1.09690E-13 4.80796E-14
 -1      1304 2.22265E+01 1.83623E+00-7.24872E-01-2.78748E+00-5.96745E-14 7.08378E-13
 -1      1305 2.03410E+01 4.68609E+00-4.84635E-02-3.30259E+00-1.42400E-13-1.97641E-13
 -1      1306 2.08405E+01 4.80433E+00-1.13325E-01-4.15580E+00-1.88821E-13 4.31599E-15
 -1      1307 1.95263E+01 4.99233E+00-1.95029E-02-2.64992E+00-1.34233E-13-4.71033E-13
 -1      1308 1.98182E+01 5.08689E+00 1.60269E-04-3.04079E+00-1.52420E-13-3.59129E-13
 -1      1309 2.05109E+01 3.94982E+00-2.59147E-02-3.06877E+00-2.45120E-13-1.72820E-13
 -1      1310 1.91901E+01 5.08532E+00-3.26279E-03-2.06569E+00-9.37410E-14-5.96922E-13
 -1      1311 1.93337E+01 5.13914E+00 1.07010E-02-2.35919E+00-1.12368E-13-5.40991E-13
 -1      1312 1.97528E+01 4.36663E+00-2.37259E-02-2.48429E+00-2.01948E-13-4.01866E-13
 -1      1313 1.90211E+01 5.13470E+00 3.52563E-03-1.55928E+00-6.35533E-14-6.50877E-13
 -1      1314 1.90961E+01 5.16348E+00 1.29891E-02-1.80922E+00-7.26051E-14-6.30909E-13
 -1      1315 1.94000E+01 4.55765E+00-1.93429E-02-1.92491E+00-1.36729E-13-5.10283E-13
 -1      1316 1.89318E+01 5.16643E+00 6.56347E-03-1.11227E+00-3.09475E-14-6.57314E-13
 -1      1317 1.89723E+01 5.18224E+00 1.29133E-02-1.33334E+00-4.31330E-14-6.53672E-13
 -1      1318 1.92186E+01 4.66702E+00-1.58863E-02-1.43848E+00-9.03782E-14-5.49026E-13
 -1      1319 1.88830E+01 5.18778E+00 8.15687E-03-6.90300E-01-7.62454E-15-6.48936E-13
 -1      1320 1.89049E+01 5.19632E+00 1.20926E-02-8.99785E-01-1.28638E-14-6.58697E-13
 -1      1321 1.91194E+01 4.73498E+00-1.38255E-02-9.98990E-01-3.94778E-14-5.61010E-13
 -1      1322 1.88603E+01 5.20065E+00 9.25025E-03-2.87509E-01 2.47100E-14-6.27352E-13
 -1      1323 1.88697E+01 5.20434E+00 1.11015E-02-4.88634E-01 1.10454E-14-6.35179E-13
 -1      1324 1.90657E+01 4.77586E+00-1.27404E-02-5.85230E-01 6.00865E-16-5.45276E-13
 -1      1325 1.88568E+01 5.20587E+00 1.02075E-02 1.07695E-01 4.63414E-14-6.05179E-13
 -1      1326 1.88565E+01 5.20574E+00 1.01373E-02-9.08866E-02 3.75602E-14-6.18464E-13
 -1      1327 1.90423E+01 4.79488E+00-1.22848E-02-1.87832E-01 5.14235E-14-5.27998E-13
 -1      1328 1.88714E+01 5.20397E+00 1.11920E-02 5.06018E-01 7.44192E-14-5.75647E-13
 -1      1329 1.88612E+01 5.20001E+00 9.18713E-03 3.04479E-01 6.56912E-14-5.93605E-13
 -1      1330 1.90431E+01 4.79425E+00-1.23027E-02 2.04542E-01 9.27938E-14-5.02980E-13
 -1      1331 1.89080E+01 5.19514E+00 1.21826E-02 9.18627E-01 9.61878E-14-5.39253E-13
 -1      1332 1.88853E+01 5.18644E+00 8.09707E-03 7.08191E-01 8.84978E-14-5.64937E-13
 -1      1333 1.90682E+01 4.77379E+00-1.27958E-02 6.02613E-01 1.34146E-13-4.76539E-13
 -1      1334 1.89765E+01 5.18036E+00 1.30414E-02 1.35090E+00 1.21665E-13-4.73840E-13
 -1      1335 1.89351E+01 5.16418E+00 6.44093E-03 1.12839E+00 1.12548E-13-5.12783E-13
 -1      1336 1.91236E+01 4.73145E+00-1.38272E-02 1.01416E+00 1.72610E-13-4.32713E-13
 -1      1337 1.91036E+01 5.15946E+00 1.30058E-02 1.83534E+00 1.58071E-13-3.66283E-13
 -1      1338 1.90271E+01 5.13002E+00 3.19189E-03 1.58259E+00 1.43440E-13-4.25630E-13
 -1      1339 1.92254E+01 4.66046E+00-1.59889E-02 1.45625E+00 2.14542E-13-3.58213E-13
 -1      1340 1.93439E+01 5.13325E+00 1.03533E-02 2.39278E+00 1.82021E-13-1.97835E-13
 -1      1341 1.91984E+01 5.07748E+00-4.25302E-03 2.09535E+00 1.66842E-13-3.01630E-13
 -1      1342 1.94120E+01 4.54497E+00-1.98421E-02 1.95168E+00 2.62778E-13-2.47233E-13
 -1      1343 1.98439E+01 5.09595E+00 6.17614E-03 3.07928E+00 1.98536E-13 9.86711E-14
 -1      1344 1.95382E+01 4.98281E+00-2.03314E-02 2.69187E+00 1.79884E-13-7.75803E-14
 -1      1345 1.97722E+01 4.34591E+00-2.44361E-02 2.52184E+00 2.90438E-13-6.27831E-14
 -1      1346 2.10762E+01 4.90073E+00 8.24907E-03 4.04875E+00 1.61177E-13 6.29830E-13
 -1      1347 2.03155E+01 4.72974E+00-4.77129E-02 3.41192E+00 1.58748E-13 3.08850E-13
 -1      1348 2.05491E+01 3.91304E+00-2.23270E-02 3.17262E+00 2.91711E-13 2.66037E-13
 -1      1349 2.71526E+01 3.19986E+00 9.26636E-01 4.57569E+00 6.59611E-14 1.56242E-12
 -1      1350 2.19859E+01 3.51799E+00-1.81602E-01 3.88023E+00 7.52731E-14 9.22262E-13
 -1      1351 2.20816E+01 2.55899E+00-3.26385E-02 3.45135E+00 2.47287E-13 7.46403E-13
 -1      1352 2.13849E+01 3.59439E-01-7.62705E-01 1.18251E+00 1.25927E-13 1.51518E-12
 -1      1353 2.19601E+01 1.31301E-01-4.00514E-01-1.28373E+00-1.58956E-13 7.66387E-13
 -1      1354 2.06395E+01 3.06518E-01-1.64599E-01-8.04301E-01-1.43864E-13 5.78079E-13
 -1      1355 2.00438E+01 1.53540E-01-7.34011E-02-4.00670E-01-1.12493E-13 5.04919E-13
 -1      1356 1.95757E+01 9.13909E-02-1.48045E-02-3.28457E-01-1.03237E-13 3.40256E-13
 -1      1357 2.09417E+01 3.69125E-01-1.04119E-01-1.27079E+00-2.48968E-13 2.39815E-13
 -1      1358 1.92210E+01 6.47600E-02 3.14008E-03-1.33333E-01-8.39172E-14 2.83596E-13
 -1      1359 1.90690E+01 4.16739E-02 1.33418E-02-1.15380E-01-6.67470E-14 1.77861E-13
 -1      1360 1.98956E+01 1.34134E-01-3.52005E-02-5.00233E-01-1.85001E-13 1.34833E-13
 -1      1361 1.89125E+01 3.20438E-02 1.33510E-02-2.47933E-02-3.75837E-14 1.11165E-13
 -1      1362 1.88969E+01 2.01061E-02 1.11940E-02-1.51218E-02-3.57973E-14 6.97567E-14
 -1      1363 1.94249E+01 5.61122E-02-8.65884E-03-1.64376E-01-1.20617E-13 4.67786E-14
 -1      1364 1.88468E+01 1.68779E-02 8.89887E-03 3.03499E-02-2.24332E-14 5.95080E-14
 -1      1365 1.88956E+01 1.01919E-02 6.60215E-03 3.54609E-02-3.36382E-14 1.77983E-14
 -1      1366 1.92257E+01 2.55748E-02-3.76961E-03-2.03482E-03-6.06017E-14-1.98123E-14
 -1      1367 1.89047E+01 9.17146E-03 4.82058E-03 5.94115E-02-4.61129E-14-4.40620E-16
 -1      1368 1.89855E+01 5.12641E-03 3.86321E-03 6.20243E-02-4.69284E-14-6.78780E-14
 -1      1369 1.91837E+01 1.20525E-02-2.60539E-03 8.22280E-02-6.76221E-14-4.29279E-14
 -1      1370 1.90286E+01 5.08799E-03 2.62265E-03 7.48432E-02-4.08870E-14-9.69667E-14
 -1      1371 1.91255E+01 2.60599E-03 2.49533E-03 7.61470E-02-4.29215E-14-1.71617E-13
 -1      1372 1.92322E+01 5.50401E-03-1.86905E-03 1.27278E-01-8.73206E-14-8.89876E-14
 -1      1373 1.91890E+01 3.10083E-03 1.53941E-03 8.34465E-02-3.52830E-14-1.73821E-13
 -1      1374 1.92944E+01 1.64156E-03 1.79407E-03 8.42063E-02-3.25122E-14-2.24009E-13
 -1      1375 1.93342E+01 2.55895E-03-1.30936E-03 1.52167E-01-6.83315E-14-1.32719E-13
 -1      1376 1.93713E+01 2.48221E-03 9.73587E-04 8.94597E-02-4.80921E-14-2.40611E-13
 -1      1377 1.94829E+01 1.73662E-03 1.40206E-03 9.02184E-02-4.69432E-14-2.77165E-13
 -1      1378 1.94698E+01 1.81606E-03-1.00909E-03 1.67800E-01-7.98685E-14-1.25145E-13
 -1      1379 1.95705E+01 2.84391E-03 6.41369E-04 9.58109E-02-3.15098E-14-3.02841E-13
 -1      1380 1.96892E+01 2.60911E-03 1.16839E-03 9.69815E-02 1.62717E-14-3.21170E-13
 -1      1381 1.96295E+01 2.60132E-03-9.76949E-04 1.81240E-01-5.01768E-14-1.58242E-13
 -1      1382 1.97879E+01 3.95641E-03 4.14984E-04 1.04676E-01 2.14595E-14-3.62862E-13
 -1      1383 1.99173E+01 4.07558E-03 1.02130E-03 1.06588E-01-1.51168E-14-3.63746E-13
 -1      1384 1.98110E+01 4.54459E-03-1.17523E-03 1.97498E-01-9.28597E-15-2.50681E-13
 -1      1385 2.00294E+01 5.66245E-03 2.24255E-04 1.17737E-01-4.99194E-14-3.81843E-13
 -1      1386 2.01749E+01 5.98779E-03 9.12028E-04 1.20658E-01-2.76784E-14-4.34157E-13
 -1      1387 2.00166E+01 7.40768E-03-1.55878E-03 2.20340E-01-6.53960E-14-3.26426E-13
 -1      1388 2.03042E+01 7.81902E-03 1.63146E-05 1.36261E-01 2.37200E-14-4.40200E-13
 -1      1389 2.04730E+01 8.17911E-03 7.93385E-04 1.40394E-01 1.05333E-14-3.90462E-13
 -1      1390 2.02524E+01 1.09842E-02-2.08432E-03 2.52611E-01-2.57046E-14-3.36327E-13
 -1      1391 2.06244E+01 1.02377E-02-2.58072E-04 1.61031E-01-2.77512E-15-3.88750E-13
 -1      1392 2.08242E+01 1.03988E-02 6.12036E-04 1.66484E-01-1.53184E-14-3.87137E-13
 -1      1393 2.05267E+01 1.50039E-02-2.70383E-03 2.96232E-01-1.31197E-14-3.59753E-13
 -1      1394 2.10025E+01 1.26029E-02-6.44671E-04 1.92071E-01-2.54245E-14-3.95713E-13
 -1      1395 2.12411E+01 1.22178E-02 3.10174E-04 1.98781E-01-5.61489E-14-4.28875E-13
 -1      1396 2.08489E+01 1.90022E-02-3.34914E-03 3.51839E-01-3.25026E-14-3.71646E-13
 -1      1397 2.14506E+01 1.43499E-02-1.17110E-03 2.28097E-01-3.86063E-15-4.07384E-13
 -1      1398 2.17337E+01 1.28931E-02-1.56923E-04 2.35683E-01 1.20624E-14-3.63851E-13
 -1      1399 2.12282E+01 2.21224E-02-3.90690E-03 4.17944E-01-2.83497E-15-3.11751E-13
 -1      1400 2.19760E+01 1.44909E-02-1.80665E-03 2.65552E-01-2.13371E-16-3.66870E-13
 -1      1401 2.23042E+01 1.11957E-02-7.73868E-04 2.73067E-01 3.56087E-14-3.66918E-13
 -1      1402 2.16705E+01 2.28275E-02-4.17920E-03 4.89432E-01 3.95732E-14-3.11494E-13
 -1      1403 2.25758E+01 1.14084E-02-2.38263E-03 2.97161E-01-1.62529E-14-4.06784E-13
 -1      1404 2.29397E+01 5.26180E-03-1.37583E-03 3.02706E-01-6.65003E-14-4.59398E-13
 -1      1405 2.21746E+01 1.85439E-02-3.82729E-03 5.55189E-01-1.24781E-14-3.71295E-13
 -1      1406 2.32285E+01 2.72890E-03-2.47444E-03 3.10101E-01-7.34568E-14-4.74868E-13
 -1      1407 2.36009E+01-7.33048E-03-1.53414E-03 3.10363E-01-7.97698E-14-6.02908E-13
 -1      1408 2.27267E+01 5.41106E-03-2.31007E-03 5.94962E-01-1.11335E-13-3.69368E-13
 -1      1409 2.38819E+01-1.43936E-02-1.31532E-03 2.84601E-01 2.93667E-14-6.24842E-13
 -1      1410 2.42095E+01-2.87934E-02-5.02792E-04 2.74561E-01 1.34571E-15-5.97503E-13
 -1      1411 2.32927E+01-2.13297E-02 1.12503E-03 5.76416E-01-6.57976E-14-3.98235E-13
 -1      1412 2.44408E+01-4.18791E-02 2.08036E-03 1.95186E-01 4.32597E-14-5.70748E-13
 -1      1413 2.46383E+01-5.89427E-02 2.52981E-03 1.68725E-01 8.30065E-14-4.57440E-13
 -1      1414 2.38092E+01-6.52034E-02 7.25315E-03 4.55443E-01 6.54563E-14-4.78615E-13
 -1      1415 2.47606E+01-7.74436E-02 8.20755E-03 1.87428E-02 1.06234E-14-4.36182E-13
 -1      1416 2.47183E+01-9.11976E-02 7.58225E-03-2.85794E-02 2.54840E-14-4.28923E-13
 -1      1417 2.41792E+01-1.23317E-01 1.62109E-02 1.86091E-01 8.43657E-14-4.17313E-13
 -1      1418 2.46649E+01-1.09403E-01 1.55827E-02-2.45727E-01 4.95680E-14-3.61123E-13
 -1      1419 2.42828E+01-1.08188E-01 1.25131E-02-3.10429E-01 4.61471E-14-3.53599E-13
 -1      1420 2.42785E+01-1.77892E-01 2.61717E-02-2.51358E-01 9.88393E-14-3.15711E-13
 -1      1421 2.40059E+01-1.13212E-01 1.94415E-02-5.46651E-01 1.41265E-13-1.96898E-13
 -1      1422 2.32646E+01-8.35348E-02 1.21316E-02-6.09018E-01 1.28069E-13-6.38378E-15
 -1      1423 2.39880E+01-1.90836E-01 3.16710E-02-8.00942E-01 2.07797E-13-9.29881E-14
 -1      1424 2.27825E+01-6.10990E-02 1.27196E-02-7.60343E-01 6.04768E-14 7.46764E-14
 -1      1425 2.18239E+01-5.40792E-04 1.13507E-03-7.83884E-01 5.72845E-14 9.09273E-14
 -1      1426 2.32658E+01-1.16386E-01 2.39613E-02-1.28341E+00 1.71856E-13 3.34819E-14
 -1      1427 2.12674E+01 4.82551E-02-6.37241E-03-7.29845E-01 2.71155E-14 1.22777E-13
 -1      1428 2.04087E+01 1.16649E-01-1.82529E-02-6.82001E-01-1.91409E-14 8.67639E-14
 -1      1429 2.22462E+01 5.32729E-02-3.09938E-03-1.42062E+00 7.13956E-14 2.01266E-13
 -1      1430 2.00066E+01 1.62283E-01-2.72309E-02-3.84102E-01-1.80272E-14 4.99184E-14
 -1      1431 1.96114E+01 1.97520E-01-3.31219E-02-2.72448E-01-3.85490E-14 7.15591E-14
 -1      1432 2.12866E+01 2.47038E-01-3.97867E-02-1.00150E+00-4.20549E-14 1.07135E-13
 -1      1433 1.95660E+01 2.03490E-01-3.41421E-02 1.53499E-01-3.05849E-14 6.26168E-14
 -1      1434 1.98226E+01 1.80421E-01-3.01049E-02 2.73307E-01-4.15813E-14-1.67852E-14
 -1      1435 2.08337E+01 3.47174E-01-5.95589E-02-1.11702E-01-4.57620E-14 3.62752E-14
 -1      1436 2.01595E+01 1.40560E-01-2.22218E-02 6.15221E-01-1.25995E-13-9.45008E-14
 -1      1437 2.09444E+01 7.58114E-02-1.12212E-02 6.79687E-01-5.04128E-14-1.54557E-13
 -1      1438 2.11290E+01 2.81813E-01-4.62052E-02 8.34887E-01-1.64792E-13-6.32775E-14
 -1      1439 2.14884E+01 2.43844E-02-2.70533E-03 7.89291E-01-1.00939E-13-2.78139E-13
 -1      1440 2.24571E+01-4.07603E-02 9.30033E-03 7.79621E-01-1.61149E-13-4.52943E-13
 -1      1441 2.20135E+01 9.79144E-02-1.11429E-02 1.37896E+00-1.77349E-13-2.87666E-13
 -1      1442 2.29719E+01-6.99806E-02 1.05642E-02 6.64859E-01-1.27582E-13-5.09405E-13
 -1      1443 2.37809E+01-1.06988E-01 1.89022E-02 6.07711E-01-2.72230E-14-5.65964E-13
 -1      1444 2.30581E+01-8.58516E-02 1.93342E-02 1.35438E+00-2.24765E-13-3.71862E-13
 -1      1445 2.41095E+01-1.07036E-01 1.30197E-02 3.80189E-01 3.96558E-15-5.78579E-13
 -1      1446 2.45753E+01-1.13524E-01 1.69611E-02 3.13725E-01-7.92821E-14-6.03882E-13
 -1      1447 2.38676E+01-1.82739E-01 3.12767E-02 9.24324E-01-9.50438E-14-3.11338E-13
 -1      1448 2.46775E+01-9.68905E-02 8.82660E-03 8.67241E-02-7.16762E-14-6.45496E-13
 -1      1449 2.47901E+01-8.52274E-02 9.87928E-03 3.49175E-02-9.25475E-15-7.29323E-13
 -1      1450 2.42577E+01-1.85703E-01 2.79578E-02 3.70688E-01-6.35117E-14-4.52428E-13
 -1      1451 2.47037E+01-6.59813E-02 3.52964E-03-1.30705E-01 1.30358E-13-5.36459E-13
 -1      1452 2.45526E+01-4.88665E-02 3.25239E-03-1.61371E-01 2.18611E-13-4.04187E-13
 -1      1453 2.42401E+01-1.36260E-01 1.83507E-02-9.87623E-02 1.10276E-13-3.26052E-13
 -1      1454 2.43436E+01-3.43132E-02-3.04000E-06-2.54248E-01 9.42206E-14-4.53464E-13
 -1      1455 2.40411E+01-1.89884E-02-7.40939E-04-2.67114E-01 9.92574E-14-3.63553E-13
 -1      1456 2.39250E+01-7.64468E-02 8.86647E-03-4.03291E-01 1.80630E-13-3.15423E-13
 -1      1457 2.37722E+01-1.05930E-02-1.41627E-03-3.01517E-01 1.10670E-13-3.03230E-13
 -1      1458 2.34109E+01 5.07929E-04-2.29671E-03-3.02681E-01 5.84232E-14-2.46669E-13
 -1      1459 2.34402E+01-2.85095E-02 2.03864E-03-5.50512E-01 8.08195E-14-4.05532E-13
 -1      1460 2.31284E+01 3.99602E-03-1.44610E-03-2.99209E-01 1.27164E-13-3.19859E-13
 -1      1461 2.27691E+01 1.09992E-02-2.38752E-03-2.94031E-01 6.16306E-14-1.87107E-13
 -1      1462 2.28910E+01 2.13252E-03-1.97758E-03-5.83743E-01 9.89213E-14-2.47862E-13
 -1      1463 2.25021E+01 1.14059E-02-8.97768E-04-2.70238E-01 4.07313E-15-7.48776E-14
 -1      1464 2.21777E+01 1.53125E-02-1.85870E-03-2.62377E-01 4.87297E-14-6.62907E-14
 -1      1465 2.23486E+01 1.82017E-02-3.90211E-03-5.48745E-01 4.90047E-14-3.85765E-13
 -1      1466 2.19411E+01 1.41194E-02-2.74906E-04-2.30298E-01-9.83436E-14-6.27727E-14
 -1      1467 2.16651E+01 1.59733E-02-1.20797E-03-2.21904E-01-1.83231E-13-2.54479E-13
 -1      1468 2.18541E+01 2.44769E-02-4.52054E-03-4.80521E-01-6.27291E-14-3.71889E-13
 -1      1469 2.14648E+01 1.41432E-02 2.06647E-04-1.88685E-01-6.20615E-14-2.04287E-13
 -1      1470 2.12392E+01 1.47570E-02-6.51444E-04-1.80862E-01-6.50981E-14-3.31821E-13
 -1      1471 2.14261E+01 2.50907E-02-4.42149E-03-4.01610E-01-1.81651E-13-2.22422E-13
 -1      1472 2.10749E+01 1.28325E-02 5.03825E-04-1.50198E-01-1.08436E-13-2.51144E-13
 -1      1473 2.08959E+01 1.27630E-02-2.45856E-04-1.43409E-01-3.35120E-14-3.21293E-13
 -1      1474 2.10695E+01 2.28866E-02-3.97982E-03-3.24706E-01-8.25477E-14-2.90575E-13
 -1      1475 2.07646E+01 1.10129E-02 6.46851E-04-1.16835E-01 1.82460E-14-2.90157E-13
 -1      1476 2.06259E+01 1.06159E-02 2.02426E-05-1.11186E-01 8.73728E-14-3.11911E-13
 -1      1477 2.07804E+01 1.95914E-02-3.41358E-03-2.55907E-01 1.73585E-14-1.65739E-13
 -1      1478 2.05233E+01 9.15248E-03 6.81152E-04-8.89914E-02 5.83322E-15-1.09943E-13
 -1      1479 2.04181E+01 8.64842E-03 1.74775E-04-8.44013E-02 1.24350E-14-2.04828E-13
 -1      1480 2.05517E+01 1.61678E-02-2.84315E-03-1.97319E-01 7.19093E-14-6.95374E-14
 -1      1481 2.03397E+01 7.51128E-03 6.38315E-04-6.61912E-02 9.15893E-14-3.70529E-13
 -1      1482 2.02619E+01 7.03458E-03 2.33761E-04-6.24796E-02 8.31306E-14-2.52454E-13
 -1      1483 2.03745E+01 1.31317E-02-2.33335E-03-1.48790E-01 1.09921E-14-1.36934E-13
 -1      1484 2.02036E+01 6.23546E-03 5.22099E-04-4.74911E-02 1.19291E-13-1.81711E-13
 -1      1485 2.01484E+01 5.85836E-03 1.93867E-04-4.44200E-02 1.23765E-13-6.91629E-14
 -1      1486 2.02404E+01 1.07544E-02-1.92496E-03-1.08935E-01 1.99280E-13-6.29725E-14
 -1      1487 2.01068E+01 5.38902E-03 3.13532E-04-3.17264E-02 5.75319E-14-9.65051E-14
 -1      1488 2.00708E+01 5.11125E-03 6.05336E-05-2.90315E-02 3.44061E-14-6.12478E-14
 -1      1489 2.01422E+01 9.18660E-03-1.63325E-03-7.57427E-02 1.22347E-13 6.26491E-14
 -1      1490 2.00431E+01 4.90212E-03 2.78967E-05-1.78191E-02 1.02053E-13-4.61841E-14
 -1      1491 2.00243E+01 4.57373E-03-1.84749E-05-1.52421E-02 1.00348E-13 2.24385E-13
 -1      1492 2.00740E+01 8.40784E-03-1.40303E-03-4.71032E-02 1.15003E-13 5.94116E-14
 -1      1493 2.00078E+01 4.95427E-03 5.30656E-05-5.23472E-03 1.41458E-13 3.55212E-13
 -1      1494 2.00043E+01 3.39905E-03 6.73539E-04-2.69361E-03 9.75989E-14 4.48961E-13
 -1      1495 2.00303E+01 7.91716E-03-1.08164E-03-2.18876E-02 1.91065E-13 1.68348E-13
 -1      1496 1.99971E+01-1.10446E-03 1.72996E-03 3.02258E-03-2.89256E-13 3.17146E-13
 -1      1497 2.00054E+01 1.96023E-03 6.27524E-05-1.03056E-03-2.06212E-13 5.93375E-14
 -1      1498 2.02202E+01 7.54829E-02-1.51944E-01 4.82697E-01 1.17007E-13 1.24499E-12
 -1      1499 2.14884E+01 2.15956E-01-2.29181E-01 7.19496E-01 1.08219E-13 1.41911E-12
 -1      1500 2.16933E+01 8.80892E-01-8.53809E-02 2.06139E+00 1.98369E-13 9.67032E-13
 -1      1501 1.92957E+01 3.24984E-02-2.13017E-02 1.84719E-01 1.04578E-13 1.01049E-12
 -1      1502 1.97148E+01 1.13657E-01-6.26086E-02 2.36738E-01 8.68750E-14 1.14864E-12
 -1      1503 2.02722E+01 1.87664E-01-5.51496E-02 7.83525E-01 1.81556E-13 7.81109E-13
 -1      1504 1.89191E+01 1.53582E-02 5.64836E-03 5.14952E-02 7.71336E-14 7.97768E-13
 -1      1505 1.90555E+01 5.18828E-02 1.03650E-03 7.79311E-02 7.35557E-14 9.24188E-13
 -1      1506 1.95322E+01 7.21321E-02-1.21847E-02 2.95552E-01 1.64143E-13 6.15990E-13
 -1      1507 1.88169E+01 7.54598E-03 6.91994E-03-1.23988E-02 5.22911E-14 6.61519E-13
 -1      1508 1.88277E+01 2.63684E-02 1.11505E-02 2.27539E-03 4.35927E-14 7.36893E-13
 -1      1509 1.92043E+01 3.16595E-02-2.54980E-03 7.80173E-02 1.17916E-13 4.64547E-13
 -1      1510 1.88563E+01 3.85459E-03 4.68337E-03-4.49003E-02 4.02055E-14 5.50558E-13
 -1      1511 1.88061E+01 1.46423E-02 8.60007E-03-3.63024E-02 4.38191E-14 6.15341E-13
 -1      1512 1.90991E+01 1.42978E-02-1.77583E-03-3.04693E-02 9.22261E-14 3.93013E-13
 -1      1513 1.89715E+01 1.98331E-03 3.13892E-03-6.16723E-02 1.56912E-14 4.93815E-13
 -1      1514 1.88906E+01 8.54216E-03 5.47309E-03-5.64457E-02 2.14262E-14 5.22714E-13
 -1      1515 1.91178E+01 6.09316E-03-1.89009E-03-8.73153E-02 5.98926E-14 3.11564E-13
 -1      1516 1.91279E+01 1.09963E-03 2.28373E-03-7.03699E-02 2.97316E-14 4.70573E-13
 -1      1517 1.90316E+01 5.26889E-03 3.56853E-03-6.70337E-02 1.08230E-14 4.69916E-13
 -1      1518 1.92068E+01 2.10719E-03-1.77150E-03-1.17687E-01 3.24716E-14 2.34579E-13
 -1      1519 1.93080E+01 8.48496E-04 1.72440E-03-7.53959E-02-8.62754E-16 4.11271E-13
 -1      1520 1.92035E+01 3.65718E-03 2.50392E-03-7.29983E-02 2.91334E-14 4.34300E-13
 -1      1521 1.93371E+01 4.30976E-04-1.58112E-03-1.34630E-01 5.13732E-14 2.60745E-13
 -1      1522 1.95045E+01 1.04296E-03 1.25952E-03-7.96069E-02 3.42487E-14 3.88566E-13
 -1      1523 1.93944E+01 3.15511E-03 1.86781E-03-7.74706E-02 1.05583E-14 4.09593E-13
 -1      1524 1.94939E+01 2.04079E-04-1.48286E-03-1.45887E-01 2.88137E-14 1.96224E-13
 -1      1525 1.97169E+01 1.56350E-03 8.18670E-04-8.49937E-02 3.27944E-14 3.58990E-13
 -1      1526 1.96004E+01 3.45613E-03 1.45171E-03-8.26036E-02 3.50613E-14 3.74785E-13
 -1      1527 1.96709E+01 9.62321E-04-1.53278E-03-1.56546E-01 5.58306E-14 1.81412E-13
 -1      1528 1.99494E+01 2.31568E-03 3.81483E-04-9.29771E-02 1.90081E-14 2.76814E-13
 -1      1529 1.98234E+01 4.35827E-03 1.16142E-03-8.99267E-02 1.66031E-14 3.05591E-13
 -1      1530 1.98679E+01 2.40959E-03-1.73566E-03-1.70141E-01 2.57946E-14 2.24153E-13
 -1      1531 2.02093E+01 3.20234E-03-5.47126E-05-1.04511E-01 4.73288E-14 2.69571E-13
 -1      1532 2.00692E+01 5.69303E-03 9.47014E-04-1.00485E-01 1.69603E-14 2.57211E-13
 -1      1533 2.00883E+01 4.31257E-03-2.07843E-03-1.89119E-01 3.41209E-14 1.71099E-13
 -1      1534 2.05056E+01 4.09546E-03-4.79844E-04-1.20047E-01 1.26509E-14 1.91480E-13
 -1      1535 2.03460E+01 7.27134E-03 7.73198E-04-1.14836E-01 2.12729E-14 2.14355E-13
 -1      1536 2.03381E+01 6.42949E-03-2.53503E-03-2.14949E-01 6.34927E-14 1.26592E-13
 -1      1537 2.08478E+01 4.80139E-03-8.62577E-04-1.39352E-01 4.41589E-14 7.41213E-14
 -1      1538 2.06630E+01 8.82495E-03 6.09944E-04-1.32910E-01 6.40093E-14 1.78634E-13
 -1      1539 2.06243E+01 8.43911E-03-3.05605E-03-2.47955E-01 7.87345E-14 5.32816E-14
 -1      1540 2.12428E+01 5.01685E-03-1.13068E-03-1.61159E-01-7.68958E-14 1.23544E-13
 -1      1541 2.10287E+01 9.93261E-03 4.33552E-04-1.53709E-01-1.52717E-14 1.07420E-13
 -1      1542 2.09533E+01 9.85459E-03-3.54767E-03-2.86852E-01-9.69624E-15 1.38332E-13
 -1      1543 2.16923E+01 4.27998E-03-1.13852E-03-1.82604E-01 1.47179E-14 1.73965E-13
 -1      1544 2.14475E+01 9.92927E-03 2.37604E-04-1.74820E-01-4.26502E-14 1.27824E-13
 -1      1545 2.13284E+01 9.91650E-03-3.83963E-03-3.27935E-01-5.46887E-14 1.62531E-13
 -1      1546 2.21871E+01 1.93822E-03-6.24833E-04-1.98466E-01 2.91133E-15 9.88116E-14
 -1      1547 2.19167E+01 7.81738E-03 5.71809E-05-1.91734E-01 2.98429E-14 1.46660E-13
 -1      1548 2.17463E+01 7.48041E-03-3.64437E-03-3.63903E-01 5.17159E-14 1.07971E-13
 -1      1549 2.27005E+01-2.80801E-03 8.15090E-04-2.00360E-01-7.33196E-14 1.98763E-13
 -1      1550 2.24196E+01 2.24688E-03 6.15833E-06-1.97087E-01-2.56297E-14 9.87439E-14
 -1      1551 2.21930E+01 9.65440E-04-2.52352E-03-3.82446E-01 2.00944E-14 1.34283E-13
 -1      1552 2.31802E+01-1.06656E-02 3.67309E-03-1.76392E-01-1.55878E-14 2.31901E-13
 -1      1553 2.29193E+01-8.28034E-03 3.10080E-04-1.80222E-01-2.92034E-14 1.91713E-13
 -1      1554 2.26381E+01-1.14678E-02 9.02078E-05-3.65178E-01-4.65409E-14 5.00277E-14
 -1      1555 2.35424E+01-2.16333E-02 8.25517E-03-1.12418E-01-2.75422E-14 2.24518E-13
 -1      1556 2.33508E+01-2.47093E-02 1.27917E-03-1.27998E-01-2.29894E-15 2.50286E-13
 -1      1557 2.30291E+01-3.11870E-02 4.71690E-03-2.88321E-01 3.18235E-15 1.14837E-13
 -1      1558 2.36732E+01-3.38924E-02 1.40463E-02 3.22294E-03 4.30732E-14 2.17757E-13
 -1      1559 2.36183E+01-4.59371E-02 3.12133E-03-2.84409E-02-1.01343E-14 2.18116E-13
 -1      1560 2.32902E+01-5.73803E-02 1.13718E-02-1.27783E-01-3.28270E-14 8.36436E-14
 -1      1561 2.34488E+01-4.25546E-02 1.88009E-02 1.69657E-01 1.16903E-13-9.13852E-15
 -1      1562 2.36041E+01-6.66607E-02 5.48718E-03 1.20971E-01 1.19887E-13 1.88494E-13
 -1      1563 2.33283E+01-8.42374E-02 1.88103E-02 1.27990E-01 1.72499E-13 1.68570E-13
 -1      1564 2.27852E+01-3.96746E-02 1.81654E-02 3.59330E-01 4.05873E-14-1.66346E-13
 -1      1565 2.31994E+01-7.59841E-02 6.92166E-03 3.00667E-01 5.59231E-14-7.39166E-14
 -1      1566 2.30569E+01-9.84838E-02 2.38161E-02 4.56261E-01 1.55886E-13 4.43439E-14
 -1      1567 2.17139E+01-1.80294E-02 7.50562E-03 5.08881E-01-8.58402E-14-2.76584E-14
 -1      1568 2.23654E+01-6.01800E-02 4.92252E-03 4.58495E-01-3.87958E-14-1.54342E-13
 -1      1569 2.24427E+01-8.08422E-02 2.19391E-02 7.77662E-01-1.44832E-14 3.43111E-14
 -1      1570 2.04492E+01 2.06939E-02-1.34493E-02 5.33728E-01-1.49965E-13 3.78940E-13
 -1      1571 2.12063E+01-1.26260E-02-2.43692E-03 5.16842E-01-1.25426E-13 2.02310E-13
 -1      1572 2.15634E+01-1.76534E-02 1.03436E-02 9.57232E-01-2.71609E-13 3.19134E-13
 -1      1573 1.93735E+01 6.06329E-02-3.62538E-02 3.77553E-01-1.60861E-14 4.85979E-13
 -1      1574 2.00071E+01 5.41088E-02-1.34818E-02 4.11645E-01-3.21253E-14 4.06057E-13
 -1      1575 2.06410E+01 8.00807E-02-8.00991E-03 8.59556E-01-1.12575E-13 3.83565E-13
 -1      1576 1.88914E+01 7.85184E-02-4.66669E-02 6.88979E-02 4.20879E-14 3.52970E-13
 -1      1577 1.91643E+01 1.08190E-01-2.19703E-02 1.47360E-01 1.33695E-14 4.10998E-13
 -1      1578 1.99897E+01 1.69093E-01-2.38603E-02 4.48098E-01 3.44655E-14 3.19990E-13
 -1      1579 1.92062E+01 6.23169E-02-3.58831E-02-2.70000E-01-1.32620E-14 2.25476E-13
 -1      1580 1.90048E+01 1.18280E-01-2.11137E-02-1.79750E-01-3.14193E-14 2.52695E-13
 -1      1581 1.98699E+01 1.94502E-01-2.85525E-02-1.47018E-01 2.74780E-15 2.04291E-13
 -1      1582 2.01866E+01 2.31450E-02-1.03619E-02-4.96158E-01 1.11062E-13 8.01720E-14
 -1      1583 1.95941E+01 8.05023E-02-1.02061E-02-4.31859E-01 1.22911E-13 2.49821E-13
 -1      1584 2.03307E+01 1.36459E-01-2.15959E-02-6.79788E-01 1.10738E-13 1.13161E-13
 -1      1585 2.14531E+01-1.58047E-02 1.48874E-02-5.39396E-01-4.96994E-14-3.34108E-14
 -1      1586 2.06956E+01 2.04383E-02 4.10856E-03-5.19603E-01 6.04141E-14-5.95912E-14
 -1      1587 2.11799E+01 3.11894E-02-9.44694E-03-9.45889E-01 1.49601E-13 1.50841E-13
 -1      1588 2.25982E+01-3.80173E-02 2.83347E-02-4.28212E-01-5.80074E-14 6.89795E-14
 -1      1589 2.19154E+01-3.01675E-02 1.41076E-02-4.46649E-01-7.24143E-14-9.55555E-14
 -1      1590 2.21064E+01-6.29580E-02 9.61588E-04-8.98364E-01-6.37164E-14 9.70127E-14
 -1      1591 2.33645E+01-4.15156E-02 2.85109E-02-2.44552E-01 1.01185E-13-3.78864E-14
 -1      1592 2.29065E+01-5.50197E-02 1.64335E-02-2.82062E-01 5.99399E-14 1.03903E-13
 -1      1593 2.28433E+01-1.09817E-01 6.47819E-03-6.34379E-01 4.43777E-14 1.23609E-13
 -1      1594 2.36861E+01-3.32811E-02 2.09101E-02-6.41851E-02-6.48179E-15-2.24950E-13
 -1      1595 2.34895E+01-5.60936E-02 1.28921E-02-1.03066E-01 8.33673E-14-1.76640E-13
 -1      1596 2.32573E+01-1.09815E-01 7.69401E-03-2.98753E-01 1.81393E-13-7.16662E-14
 -1      1597 2.36305E+01-2.12551E-02 1.15644E-02 7.15912E-02 4.28815E-14-2.95949E-13
 -1      1598 2.36536E+01-4.37729E-02 7.25787E-03 4.11233E-02 3.46164E-15-3.01442E-13
 -1      1599 2.33434E+01-8.32024E-02 6.52553E-03-1.72359E-03 3.73434E-14-1.52194E-13
 -1      1600 2.33190E+01-1.03849E-02 4.01193E-03 1.53340E-01 9.40580E-14-5.45768E-13
 -1      1601 2.34892E+01-2.77568E-02 2.32301E-03 1.33893E-01 1.13419E-13-4.17999E-13
 -1      1602 2.31717E+01-5.00255E-02 4.59426E-03 2.06634E-01 1.94717E-13-2.96194E-13
 -1      1603 2.28709E+01-2.54203E-03-7.53057E-04 1.89420E-01 2.02147E-14-6.54315E-13
 -1      1604 2.31179E+01-1.36667E-02-8.09699E-04 1.79587E-01 1.60941E-14-6.40672E-13
 -1      1605 2.28362E+01-2.18313E-02 2.79896E-03 3.22592E-01 7.60151E-14-4.52492E-13
 -1      1606 2.23780E+01 2.24940E-03-3.12643E-03 1.93828E-01-8.31482E-14-4.64797E-13
 -1      1607 2.26488E+01-3.50154E-03-2.24146E-03 1.90866E-01-1.28490E-13-5.94779E-13
 -1      1608 2.24218E+01-2.36710E-03 1.44825E-03 3.65285E-01-1.28175E-13-2.39789E-13
 -1      1609 2.19002E+01 4.68793E-03-3.90801E-03 1.79552E-01-2.72764E-15-4.95118E-13
 -1      1610 2.21610E+01 2.80761E-03-2.53097E-03 1.80829E-01 3.17457E-14-4.51949E-13
 -1      1611 2.19914E+01 8.96685E-03 5.45622E-04 3.59225E-01-2.08447E-14-4.59952E-13
 -1      1612 2.14704E+01 5.56583E-03-3.80545E-03 1.56251E-01 5.02198E-14-3.62812E-13
 -1      1613 2.17031E+01 6.12647E-03-2.22943E-03 1.59765E-01 1.11233E-14-3.29920E-13
 -1      1614 2.15851E+01 1.42946E-02-7.81976E-06 3.25596E-01 5.84797E-15-2.83105E-13
 -1      1615 2.11031E+01 5.52570E-03-3.30090E-03 1.30194E-01-6.05775E-14-3.98129E-13
 -1      1616 2.13003E+01 7.42365E-03-1.71431E-03 1.34609E-01 4.33033E-14-3.39710E-13
 -1      1617 2.12246E+01 1.57767E-02-3.18756E-04 2.79639E-01 4.42341E-14-1.92095E-13
 -1      1618 2.08004E+01 5.01790E-03-2.67581E-03 1.04987E-01 1.70526E-13-5.31760E-13
 -1      1619 2.09616E+01 7.49907E-03-1.19167E-03 1.09501E-01 4.80603E-14-4.18576E-13
 -1      1620 2.09184E+01 1.50888E-02-4.72484E-04 2.31015E-01 3.78673E-14-1.58289E-13
 -1      1621 2.05584E+01 4.33340E-03-2.07656E-03 8.23930E-02-9.12081E-14-4.99646E-13
 -1      1622 2.06862E+01 6.93175E-03-7.50349E-04 8.65873E-02-5.01978E-14-4.39422E-13
 -1      1623 2.06669E+01 1.33694E-02-5.31635E-04 1.85129E-01-2.20223E-14-8.71884E-14
 -1      1624 2.03699E+01 3.65349E-03-1.57446E-03 6.29914E-02 1.66764E-13-5.35167E-13
 -1      1625 2.04686E+01 6.11538E-03-4.15563E-04 6.67031E-02 1.23240E-13-4.97221E-13
 -1      1626 2.04660E+01 1.13349E-02-5.44002E-04 1.44465E-01 1.12857E-13-2.45477E-13
 -1      1627 2.02272E+01 3.08097E-03-1.21013E-03 4.66263E-02 8.56611E-14-8.70775E-13
 -1      1628 2.03012E+01 5.30662E-03-1.89557E-04 4.98627E-02 1.55935E-13-7.05515E-13
 -1      1629 2.03096E+01 9.41663E-03-5.50351E-04 1.09626E-01 2.87313E-13-2.20827E-13
 -1      1630 2.01234E+01 2.67946E-03-1.02216E-03 3.27253E-02-9.53246E-14-7.88185E-13
 -1      1631 2.01766E+01 4.67300E-03-7.75495E-05 3.56065E-02-1.29394E-14-8.51896E-13
 -1      1632 2.01917E+01 7.85479E-03-5.95719E-04 8.00674E-02-3.42120E-15-2.61600E-13
 -1      1633 2.00535E+01 2.48630E-03-9.89063E-04 2.04413E-02-1.91689E-13-5.48247E-13
 -1      1634 2.00884E+01 4.33637E-03-8.89530E-05 2.31979E-02-1.05177E-13-7.03984E-13
 -1      1635 2.01066E+01 6.81658E-03-7.14892E-04 5.45923E-02-1.34041E-13-1.58418E-15
 -1      1636 2.00136E+01 2.41679E-03-7.73231E-04 8.92385E-03 1.06676E-13-5.70553E-13
 -1      1637 2.00318E+01 4.27102E-03-1.32703E-04 1.18917E-02-2.14310E-14-5.68125E-13
 -1      1638 2.00494E+01 6.41080E-03-8.08430E-04 3.17984E-02-4.29146E-14-1.19373E-13
 -1      1639 2.00003E+01 1.79664E-03 8.02848E-04-6.46053E-04 8.15597E-15-6.57224E-13
 -1      1640 2.00031E+01 3.52089E-03 1.78771E-04 1.97607E-03 2.63173E-14-6.33559E-13
 -1      1641 2.00160E+01 5.39634E-03-6.07144E-04 1.11138E-02 1.24719E-13-3.02931E-13
 -1      1642 1.99978E+01-1.10195E-03 1.65960E-03-2.43747E-03-2.92830E-13-3.03431E-13
 -1      1643 2.00039E+01 8.93187E-03-5.35828E-04 6.26978E-03-8.33041E-14 2.19583E-13
 -1      1644 2.00036E+01 4.44626E-03 5.38266E-04 3.82730E-03-2.96833E-13 1.13406E-13
 -1      1645 2.00033E+01 4.18864E-02-5.50024E-04 1.73819E-02 3.55355E-13 5.60549E-14
 -1      1646 2.00039E+01 2.39516E-02-3.85136E-04 1.51976E-02 9.11651E-15 2.78751E-13
 -1      1647 2.00079E+01 2.98539E-02-7.72722E-04 2.19728E-02 2.20961E-13 3.06078E-13
 -1      1648 2.00016E+01 9.22733E-02-3.19408E-04 2.54994E-02 3.59415E-13-6.66889E-14
 -1      1649 2.00026E+01 6.39307E-02-3.71432E-04 2.41855E-02 4.66176E-13 6.74940E-15
 -1      1650 2.00055E+01 6.70753E-02-8.78263E-04 4.09242E-02 3.04969E-13 2.21171E-13
 -1      1651 1.99996E+01 1.51692E-01-1.15651E-04 2.86700E-02 5.99692E-13-5.34326E-14
 -1      1652 2.00008E+01 1.18646E-01-1.97455E-04 2.84493E-02 4.31369E-13 1.19731E-13
 -1      1653 2.00024E+01 1.15879E-01-3.53014E-04 5.25729E-02 2.14034E-13-8.76400E-14
 -1      1654 1.99979E+01 2.08910E-01-9.10448E-06 2.67284E-02 1.95746E-13-1.86928E-13
 -1      1655 1.99989E+01 1.77858E-01-6.74537E-05 2.74928E-02 5.29649E-13-3.49741E-13
 -1      1656 1.99991E+01 1.68677E-01 2.24746E-04 5.45268E-02 2.12795E-13-2.63923E-13
 -1      1657 1.99965E+01 2.56284E-01 4.74609E-05 2.02293E-02 1.03502E-13-1.13165E-14
 -1      1658 1.99972E+01 2.31705E-01 1.31810E-05 2.18312E-02 1.18657E-13-5.04348E-14
 -1      1659 1.99963E+01 2.17745E-01 7.43987E-04 4.70922E-02 7.75708E-14-3.05614E-13
 -1      1660 1.99956E+01 2.84992E-01 6.74167E-05 1.04002E-02 3.53472E-13 8.12481E-14
 -1      1661 1.99961E+01 2.71578E-01 5.19391E-05 1.25361E-02 1.00931E-13 3.27910E-13
 -1      1662 1.99941E+01 2.55833E-01 1.13115E-03 3.17622E-02 6.39402E-14 1.21963E-13
 -1      1663 1.99955E+01 2.90451E-01 6.74466E-05-1.12497E-03 1.46238E-13-2.71139E-14
 -1      1664 1.99955E+01 2.90433E-01 7.05336E-05 1.20379E-03 3.00926E-13 1.16646E-14
 -1      1665 1.99930E+01 2.76575E-01 1.33945E-03 1.12539E-02 4.22273E-14-1.95829E-14
 -1      1666 1.99960E+01 2.71739E-01 4.86622E-05-1.25138E-02 1.63857E-13 2.36117E-13
 -1      1667 1.99956E+01 2.85171E-01 7.25290E-05-1.03590E-02 4.92548E-14 8.76236E-14
 -1      1668 1.99930E+01 2.76759E-01 1.34637E-03-1.11164E-02 2.14364E-13-6.59108E-14
 -1      1669 1.99972E+01 2.31804E-01 3.85342E-06-2.19224E-02-3.94097E-14-1.98398E-13
 -1      1670 1.99964E+01 2.56522E-01 5.64654E-05-2.03002E-02 1.70671E-13 1.29665E-15
 -1      1671 1.99941E+01 2.56295E-01 1.14599E-03-3.17890E-02-3.83541E-14 1.13337E-13
 -1      1672 1.99988E+01 1.78163E-01-6.77905E-05-2.76411E-02-1.52308E-13 5.63991E-14
 -1      1673 1.99978E+01 2.09419E-01-6.41708E-06-2.68594E-02 1.11982E-13-3.55372E-13
 -1      1674 1.99962E+01 2.18644E-01 7.73899E-04-4.72659E-02-1.17355E-13-3.62839E-13
 -1      1675 2.00008E+01 1.18093E-01-1.99093E-04-2.86520E-02 4.03024E-14 4.51157E-14
 -1      1676 1.99996E+01 1.51368E-01-1.24193E-04-2.88820E-02-1.05182E-13 4.17299E-13
 -1      1677 1.99991E+01 1.69406E-01 2.38319E-04-5.48763E-02-9.76779E-15 2.72447E-13
 -1      1678 2.00026E+01 6.30024E-02-4.31276E-04-2.42938E-02 5.99055E-14-1.60665E-13
 -1      1679 2.00017E+01 9.15456E-02-3.27054E-04-2.56127E-02 1.41485E-13 3.42359E-15
 -1      1680 2.00025E+01 1.15800E-01-3.54966E-04-5.28939E-02 1.12051E-13 5.75833E-15
 -1      1681 2.00046E+01 2.35777E-02-1.56142E-04-1.52995E-02-3.16068E-13-1.35470E-13
 -1      1682 2.00032E+01 4.11486E-02-6.02525E-04-1.76222E-02 8.13190E-15-2.20517E-13
 -1      1683 2.00054E+01 6.69686E-02-8.85229E-04-4.09394E-02 2.50517E-14-2.54210E-13
 -1      1684 2.00063E+01 9.13891E-03 6.40522E-04-7.47013E-03-2.31012E-13 4.75999E-15
 -1      1685 2.00063E+01 1.42546E-02-5.30796E-04-1.09394E-02-2.57490E-13-1.16838E-15
 -1      1686 2.00120E+01 3.65973E-02-1.97196E-04-2.77821E-02-1.37287E-14-2.18861E-13
 -1      1687 2.00172E+01 1.87272E-02 5.78809E-04-1.67110E-02 9.38987E-16 5.19529E-14
 -1      1688-3.34941E-01-1.32257E+01-1.45460E+00-5.07111E-01 7.52731E-13 2.63845E-13
 -1      1689-4.16039E-01-1.53700E+01-1.63014E+00 5.07716E-01 4.13725E-13 3.53995E-13
 -1      1690 1.22107E+00-7.74245E+00-1.20459E+00 4.05557E-01 1.04228E-12 5.49505E-13
 -1      1691 6.09417E-01-1.26694E+01-1.66414E+00-8.57419E-02 7.57838E-13 4.11261E-13
 -1      1692 8.05578E+00-3.13215E-01-4.44936E-01 5.16375E+00 9.31255E-13 6.18616E-13
 -1      1693 4.62555E+00-5.78461E+00-1.17758E+00 2.13551E+00 9.76108E-13 4.33653E-13
 -1      1694 1.85262E+01 5.10712E+00 3.15252E-01 9.93656E+00 7.75935E-13 6.49480E-13
 -1      1695 1.18938E+01 1.91042E+00-5.49763E-01 6.34433E+00 8.93952E-13 6.69576E-13
 -1      1696 3.18170E+01 6.47844E+00 9.95973E-01 1.25357E+01 5.71321E-13 1.41220E-13
 -1      1697 2.32502E+01 6.23635E+00 1.83818E-01 1.07533E+01 8.18234E-13 5.36460E-13
 -1      1698 4.49145E+01 5.02994E+00 1.49033E+00 1.03776E+01 6.19088E-14 2.88436E-13
 -1      1699 3.65939E+01 6.48171E+00 8.77644E-01 1.17988E+01 3.11418E-13 3.07310E-13
 -1      1700 5.33112E+01 3.69401E+00 1.78736E+00 3.52932E+00 6.38378E-15 3.51663E-13
 -1      1701 4.82976E+01 4.97528E+00 1.43300E+00 8.34219E+00 2.51188E-15 3.01981E-13
 -1      1702 5.35219E+01 3.87238E+00 1.77952E+00-4.89369E+00 2.14023E-13-5.11813E-14
 -1      1703 5.49650E+01 3.41719E+00 1.85239E+00 8.81820E-01 1.41220E-13 2.86875E-13
 -1      1704 4.44417E+01 5.63558E+00 1.27677E+00-1.03772E+01 6.75557E-13-7.88147E-13
 -1      1705 5.09181E+01 4.10848E+00 1.74270E+00-7.05500E+00 4.71512E-13-1.50657E-13
 -1      1706 3.12504E+01 6.67371E+00 6.19124E-01-1.17622E+01 1.00492E-12-1.24545E-12
 -1      1707 4.02787E+01 5.65534E+00 1.32924E+00-1.17062E+01 6.51423E-13-9.51683E-13
 -1      1708 1.80304E+01 5.06422E+00-1.31688E-01-9.17431E+00 1.49936E-12-1.47904E-12
 -1      1709 2.60243E+01 6.37762E+00 7.07557E-01-1.19426E+01 1.28098E-12-1.35980E-12
 -1      1710 8.36509E+00-1.84434E-01-8.39246E-01-4.63459E+00 1.44240E-12-1.31239E-12
 -1      1711 1.34687E+01 3.77514E+00-2.54316E-02-8.11884E+00 1.56020E-12-1.60127E-12
 -1      1712 2.50666E+00-7.92616E+00-1.46906E+00-7.81488E-01 9.84990E-13-7.08378E-13
 -1      1713 4.81000E+00-2.22359E+00-7.64127E-01-3.16090E+00 1.31872E-12-1.13926E-12
 -1      1714 1.10289E-01-1.44916E+01-1.79524E+00 2.37443E-01 2.34035E-13-4.58605E-13
 -1      1715 4.51860E-01-9.97433E+00-1.37883E+00 3.10666E-01 7.99805E-13-5.76678E-13
 -1      1716-6.58702E-01-1.60472E+01-1.74259E+00-6.26966E-01-8.09616E-13-5.23526E-13
 -1      1717-6.52399E-01-1.50344E+01-1.66382E+00 7.72726E-01-2.10942E-14-5.16670E-13
 -1      1718-3.86041E-01-1.31203E+01-1.55661E+00-9.32405E-01-1.50968E-12-5.81937E-13
 -1      1719-4.12142E-01-1.59679E+01-1.79757E+00 3.92524E-02-1.08835E-12-3.45279E-13
 -1      1720 2.53390E+00-5.96593E+00-1.01536E+00 1.47954E+00-1.63558E-12-7.86177E-13
 -1      1721 1.28913E+00-1.14924E+01-1.59075E+00 2.16603E-01-1.61116E-12-6.13842E-13
 -1      1722 1.03859E+01 1.01515E+00-2.79297E-01 6.24670E+00-1.34848E-12-7.51288E-13
 -1      1723 6.14876E+00-4.10889E+00-1.07498E+00 2.90642E+00-1.59817E-12-8.22342E-13
 -1      1724 2.16848E+01 5.83951E+00 4.79901E-01 1.09234E+01-9.44356E-13-7.95142E-13
 -1      1725 1.41309E+01 3.34646E+00-4.22127E-01 7.43764E+00-1.28919E-12-9.18599E-13
 -1      1726 3.56596E+01 6.03572E+00 1.09534E+00 1.23691E+01-4.61520E-13-7.17204E-13
 -1      1727 2.68156E+01 6.53982E+00 3.69026E-01 1.14161E+01-7.54063E-13-7.87592E-13
 -1      1728 4.84057E+01 4.37096E+00 1.55904E+00 7.75872E+00-2.47830E-13-7.28417E-13
 -1      1729 4.01743E+01 5.95612E+00 9.83369E-01 1.04314E+01-3.27849E-13-7.66609E-13
 -1      1730 5.50748E+01 3.53711E+00 1.89117E+00 9.07244E-01-1.64202E-13-5.75984E-13
 -1      1731 5.19752E+01 4.32051E+00 1.62044E+00 6.20711E+00-2.14551E-13-6.70908E-13
 -1      1732 5.24687E+01 4.24088E+00 1.71892E+00-6.52047E+00-2.11581E-13-9.90874E-14
 -1      1733 5.53904E+01 3.42920E+00 1.92719E+00-1.52006E+00-1.62537E-13-4.36595E-13
 -1      1734 4.23628E+01 5.82933E+00 1.15184E+00-1.05939E+01-3.22839E-13 2.86215E-13
 -1      1735 4.92789E+01 4.37786E+00 1.64939E+00-7.98968E+00-2.74711E-13-7.46070E-14
 -1      1736 3.00010E+01 6.67885E+00 5.58360E-01-1.18349E+01-6.18727E-13 7.58948E-13
 -1      1737 3.84417E+01 5.89985E+00 1.24916E+00-1.21688E+01-3.89189E-13 6.12843E-13
 -1      1738 1.77767E+01 4.69995E+00-1.76382E-01-8.90822E+00-8.53206E-13 9.07274E-13
 -1      1739 2.52879E+01 6.15071E+00 6.51687E-01-1.16378E+01-7.68496E-13 8.75744E-13
 -1      1740 8.62311E+00-7.28358E-01-8.58886E-01-4.52126E+00-8.24674E-13 6.81455E-13
 -1      1741 1.36479E+01 3.20650E+00-5.88275E-02-7.90516E+00-8.62421E-13 8.56315E-13
 -1      1742 2.79575E+00-7.47456E+00-1.42246E+00-9.43496E-01-4.88498E-13 4.62408E-13
 -1      1743 4.95624E+00-2.34892E+00-7.76365E-01-3.12602E+00-7.74270E-13 6.70075E-13
 -1      1744 3.94608E-01-1.36446E+01-1.72878E+00 2.32237E-01-2.12608E-13 3.01412E-13
 -1      1745 9.07248E-01-9.25494E+00-1.30719E+00-3.55168E-02-4.83058E-13 4.05481E-13
 -1      1746-6.54628E-01-1.65544E+01-1.82713E+00-3.08459E-01 2.31953E-13 2.82468E-13
 -1      1747-6.93186E-01-1.49605E+01-1.72283E+00 1.10290E+00-1.85740E-13 2.30371E-13
 -1      1748 2.49184E+01 1.21982E+00 2.89163E-01 7.39613E+00 5.03153E-13-2.75335E-14
 -1      1749 1.51863E+01-3.18731E+00-3.23780E-01 6.52796E+00 4.02456E-13 2.55407E-13
 -1      1750 2.00027E+01-4.06976E-04 4.32939E-04-1.33576E-03-3.85863E-13-8.63488E-14
 -1      1751 2.00078E+01 1.11189E-02 1.78538E-04 6.35096E-03 8.27870E-15 1.00175E-13
 -1      1752 7.83021E-01-9.44440E+00-1.08612E+00 2.53639E+00 4.49807E-13 4.37039E-13
 -1      1753 6.54929E+00-6.79615E+00-7.25938E-01 4.90422E+00 3.75699E-13 2.12781E-13
 -1      1754-1.18356E+00-1.04761E+01-1.16763E+00 4.25121E-01 1.29383E-13 5.98799E-13
 -1      1755 3.47218E+01 4.36823E+00 8.89315E-01 6.92411E+00 4.45977E-13 4.35207E-14
 -1      1756 4.22366E+01 6.35619E+00 1.25989E+00 4.30053E+00 2.94764E-14 2.32814E-13
 -1      1757 4.65162E+01 7.32755E+00 1.50754E+00 8.87395E-01 8.85403E-14 8.56537E-14
 -1      1758 4.57743E+01 6.90596E+00 1.47243E+00-2.67931E+00 5.63161E-13 3.64153E-14
 -1      1759 3.96851E+01 5.58140E+00 1.11792E+00-5.52353E+00 6.53352E-13-1.68865E-13
 -1      1760 3.09007E+01 3.24491E+00 6.59370E-01-7.33922E+00 8.06410E-13-4.52749E-13
 -1      1761 2.06837E+01 2.17966E-02 7.24171E-02-7.30142E+00 8.57314E-13-8.37108E-13
 -1      1762 1.13041E+01-4.00216E+00-5.02255E-01-5.84740E+00 6.67022E-13-1.07714E-12
 -1      1763 3.92316E+00-8.08032E+00-1.00610E+00-3.77319E+00 3.54494E-13-7.63486E-13
 -1      1764-2.79122E-01-1.04770E+01-1.22341E+00-1.67495E+00-4.31877E-14-7.88758E-13
 -1      1765-1.14732E+00-1.07657E+01-1.23179E+00 4.79478E-01-5.01488E-13-7.52287E-13
 -1      1766 1.70264E+00-9.33051E+00-1.06756E+00 2.96850E+00-8.74412E-13-6.06487E-13
 -1      1767 8.62352E+00-6.19301E+00-6.37963E-01 5.36932E+00-9.99867E-13-4.68167E-13
 -1      1768 1.74765E+01-2.27196E+00-2.32760E-01 6.68255E+00-9.70557E-13-4.18499E-13
 -1      1769 2.76198E+01 2.12356E+00 4.56119E-01 7.53167E+00-7.79432E-13-4.75397E-13
 -1      1770 3.72730E+01 4.79054E+00 9.85677E-01 5.67428E+00-4.42084E-13-6.88449E-13
 -1      1771 4.37339E+01 6.81801E+00 1.28122E+00 2.67370E+00-2.33147E-13-6.73794E-13
 -1      1772 4.75686E+01 7.25478E+00 1.58002E+00-1.24482E-01-3.32401E-13-5.82367E-13
 -1      1773 4.47900E+01 6.66871E+00 1.36230E+00-3.13888E+00-3.79585E-13-4.01901E-13
 -1      1774 3.87124E+01 5.20444E+00 1.06532E+00-5.77548E+00-3.37806E-13-1.71307E-13
 -1      1775 3.02264E+01 2.83565E+00 5.88506E-01-7.41780E+00-5.27023E-13 2.73670E-13
 -1      1776 2.06978E+01-6.13238E-01 7.16369E-03-7.06550E+00-4.70401E-13 4.79616E-13
 -1      1777 1.17424E+01-4.25888E+00-4.91501E-01-5.86356E+00-2.73004E-13 3.89300E-13
 -1      1778 4.53645E+00-7.79795E+00-9.57722E-01-3.94455E+00-1.10800E-13 4.99007E-13
 -1      1779 1.44257E-01-1.04324E+01-1.22769E+00-2.00858E+00-1.11189E-13 4.16445E-13
 -1      1780 2.28224E+01 1.98244E+00-2.37634E-02-2.71832E+00-1.91756E-13 5.57387E-13
 -1      1781 1.98231E+01 3.71965E+00-3.48822E-02-2.14740E+00-2.07391E-13-3.49651E-13
 -1      1782 2.00471E+01 3.56040E+00-4.28213E-02-2.43403E+00-2.45281E-13-2.78954E-13
 -1      1783 2.03546E+01 3.18098E+00-4.50899E-02-2.57850E+00-2.55380E-13-1.85248E-13
 -1      1784 2.05665E+01 2.80704E+00-1.42414E-01-2.84697E+00-2.84280E-13-6.49758E-14
 -1      1785 2.04229E+01 2.69154E+00-3.02551E-03-2.21334E+00-2.60012E-13-2.07855E-13
 -1      1786 1.93684E+01 4.19692E+00-2.02358E-02-1.26279E+00-8.86266E-14-4.51087E-13
 -1      1787 1.94397E+01 4.15591E+00-1.70966E-02-1.48677E+00-1.16834E-13-4.45173E-13
 -1      1788 1.92744E+01 4.30572E+00-1.68431E-02-8.53409E-01-3.75138E-14-4.69156E-13
 -1      1789 1.93160E+01 4.28073E+00-1.42806E-02-1.06333E+00-6.27918E-14-4.65426E-13
 -1      1790 1.95405E+01 3.79465E+00-9.18382E-03-1.11071E+00-7.73140E-14-4.42348E-13
 -1      1791 1.92242E+01 4.36840E+00-1.48207E-02-4.62935E-01 1.43530E-14-4.43800E-13
 -1      1792 1.92456E+01 4.35489E+00-1.32575E-02-6.62012E-01-9.65786E-15-4.59754E-13
 -1      1793 1.94453E+01 3.91850E+00-9.05736E-03-7.26450E-01-3.12279E-14-4.46794E-13
 -1      1794 1.92051E+01 4.39510E+00-1.36535E-02-8.27693E-02 7.03928E-14-4.21548E-13
 -1      1795 1.92115E+01 4.39095E+00-1.31742E-02-2.76787E-01 4.91470E-14-4.33768E-13
 -1      1796 1.93958E+01 3.98530E+00-8.97319E-03-3.54652E-01 3.08371E-14-4.18263E-13
 -1      1797 1.92130E+01 4.38957E+00-1.31247E-02 2.95851E-01 1.24591E-13-3.96629E-13
 -1      1798 1.92056E+01 4.39426E+00-1.37363E-02 1.01675E-01 9.85599E-14-4.12261E-13
 -1      1799 1.93812E+01 4.00552E+00-8.94657E-03 1.05509E-02 8.95525E-14-4.01370E-13
 -1      1800 1.92495E+01 4.35085E+00-1.32602E-02 6.81787E-01 1.63277E-13-3.79951E-13
 -1      1801 1.92268E+01 4.36521E+00-1.49273E-02 4.82216E-01 1.47516E-13-3.93619E-13
 -1      1802 1.93984E+01 3.98197E+00-8.99812E-03 3.75948E-01 1.44017E-13-3.75699E-13
 -1      1803 1.93212E+01 4.27487E+00-1.43247E-02 1.07739E+00 2.16114E-13-3.29285E-13
 -1      1804 1.92789E+01 4.30035E+00-1.70043E-02 8.70302E-01 1.90163E-13-3.60835E-13
 -1      1805 1.94504E+01 3.91216E+00-9.02826E-03 7.45013E-01 1.90712E-13-3.54205E-13
 -1      1806 1.94493E+01 4.14429E+00-1.73082E-02 1.50628E+00 2.72597E-13-2.55372E-13
 -1      1807 1.93748E+01 4.18818E+00-2.05372E-02 1.27721E+00 2.36951E-13-2.92807E-13
 -1      1808 1.95482E+01 3.78479E+00-9.11432E-03 1.12661E+00 2.40465E-13-2.92495E-13
 -1      1809 1.96724E+01 3.92414E+00-2.50972E-02 1.97126E+00 3.12929E-13-1.46966E-13
 -1      1810 1.95430E+01 4.00233E+00-2.69141E-02 1.71399E+00 2.87950E-13-2.14936E-13
 -1      1811 1.97178E+01 3.57358E+00-8.62353E-03 1.52539E+00 2.96136E-13-2.14538E-13
 -1      1812 2.00716E+01 3.52262E+00-4.50698E-02 2.46437E+00 3.42589E-13 3.74145E-14
 -1      1813 1.98368E+01 3.68442E+00-3.96645E-02 2.17507E+00 3.22641E-13-7.26329E-14
 -1      1814 2.00075E+01 3.22646E+00-5.24472E-03 1.92501E+00 3.35358E-13-8.71594E-14
 -1      1815 2.09033E+01 2.67997E+00-5.75122E-02 2.85131E+00 3.17898E-13 3.73743E-13
 -1      1816 2.04033E+01 3.09579E+00-5.02939E-02 2.60921E+00 3.22997E-13 1.69600E-13
 -1      1817 2.05104E+01 2.61046E+00 3.18605E-03 2.23643E+00 3.44480E-13 1.06026E-13
 -1      1818 2.17022E+01 1.21210E+00-1.21901E-01 2.32524E+00 2.44228E-13 7.56797E-13
 -1      1819 2.12521E+01 2.26111E+00 1.29068E-04 2.73483E+00 2.83419E-13 5.11688E-13
 -1      1820 2.09198E+01 1.68457E+00-2.28553E-02 2.13392E+00 3.26173E-13 3.61884E-13
 -1      1821 2.09254E+01 7.78344E-01-6.23284E-02 1.52010E+00 2.48968E-13 6.73772E-13
 -1      1822 2.17700E+01 2.45545E+00 9.08393E-02-3.04295E+00-2.52905E-13 1.64646E-13
 -1      1823 2.00792E+01 2.98618E-01-8.80854E-03 6.52403E-01 2.25035E-13 5.24525E-13
 -1      1824 2.06289E+01 4.40743E-01-1.23732E-02 1.02965E+00 2.15529E-13 6.07061E-13
 -1      1825 2.07246E+01 8.45223E-01 2.20849E-03 1.40953E+00 2.68917E-13 4.34784E-13
 -1      1826 2.14853E+01 1.74127E+00 7.94524E-02-2.33176E+00-2.69517E-13 7.14220E-14
 -1      1827 2.05020E+01 5.01829E-01 3.25596E-02-9.15613E-01-2.09097E-13 4.26781E-14
 -1      1828 2.00735E+01 3.53757E-01 7.86820E-03-6.22907E-01-1.71784E-13-4.42875E-15
 -1      1829 1.98824E+01 2.59641E-01 2.75316E-02-3.82753E-01-1.51463E-13 1.07778E-14
 -1      1830 1.96957E+01 1.81251E-01 1.07120E-02-2.43261E-01-1.19779E-13-3.28409E-14
 -1      1831 2.01911E+01 4.86386E-01-6.06282E-03-7.11945E-01-1.82054E-13-7.43377E-14
 -1      1832 1.95786E+01 1.36755E-01 1.68046E-02-1.06694E-01-9.39591E-14-3.32026E-14
 -1      1833 1.95069E+01 9.81963E-02 7.37878E-03-3.31570E-02-7.02559E-14-6.60010E-14
 -1      1834 1.98734E+01 2.49309E-01-6.02060E-03-2.79532E-01-1.39303E-13-7.59874E-14
 -1      1835 1.94491E+01 7.45624E-02 8.90747E-03 4.49723E-02-6.03172E-14-8.80509E-14
 -1      1836 1.94443E+01 5.42896E-02 4.71603E-03 8.52645E-02-7.32042E-14-1.03968E-13
 -1      1837 1.97027E+01 1.33724E-01-4.94485E-03-3.40456E-02-9.90037E-14-1.12161E-13
 -1      1838 1.94284E+01 4.12944E-02 4.55033E-03 1.30602E-01-1.01046E-13-9.63862E-14
 -1      1839 1.94624E+01 3.07013E-02 3.27458E-03 1.53259E-01-9.21028E-14-1.28991E-13
 -1      1840 1.96333E+01 7.33085E-02-3.86257E-03 1.08247E-01-9.62975E-14-1.50013E-13
 -1      1841 1.94748E+01 2.37843E-02 2.27307E-03 1.80427E-01-6.98215E-14-9.88173E-14
 -1      1842 1.95325E+01 1.89758E-02 2.58797E-03 1.94009E-01-4.56659E-14-9.68614E-14
 -1      1843 1.96333E+01 4.15004E-02-2.86414E-03 1.92584E-01-7.40680E-14-1.06114E-13
 -1      1844 1.95646E+01 1.59481E-02 1.09268E-03 2.11959E-01-6.91867E-14-8.87811E-14
 -1      1845 1.96379E+01 1.49600E-02 2.34368E-03 2.21773E-01-7.42617E-14-8.51507E-14
 -1      1846 1.96806E+01 2.64486E-02-2.11793E-03 2.45494E-01-6.60577E-14-1.03390E-13
 -1      1847 1.96844E+01 1.46457E-02 5.08209E-04 2.36440E-01-9.26474E-14-9.34819E-14
 -1      1848 1.97701E+01 1.63921E-02 2.39672E-03 2.46111E-01-3.97314E-14-1.15078E-13
 -1      1849 1.97615E+01 2.23166E-02-1.65392E-03 2.83800E-01-7.88504E-14-8.78061E-14
 -1      1850 1.98286E+01 1.80833E-02 2.72125E-04 2.61697E-01-4.20142E-14-1.65784E-13
 -1      1851 1.99264E+01 2.18995E-02 2.67381E-03 2.73875E-01-5.83252E-14-2.09169E-13
 -1      1852 1.98685E+01 2.59127E-02-1.42980E-03 3.18983E-01-9.58683E-14-1.43173E-13
 -1      1853 1.99964E+01 2.51070E-02 2.47862E-04 2.93481E-01-7.92672E-14-2.54115E-13
 -1      1854 2.01082E+01 3.05118E-02 3.12043E-03 3.10162E-01-8.20655E-14-2.83488E-13
 -1      1855 1.99989E+01 3.52761E-02-1.38831E-03 3.59312E-01-1.08102E-13-2.12634E-13
 -1      1856 2.01906E+01 3.48129E-02 3.46202E-04 3.36073E-01-8.12912E-14-2.47486E-13
 -1      1857 2.03199E+01 4.13375E-02 3.67353E-03 3.58699E-01-3.25572E-14-2.62615E-13
 -1      1858 2.01531E+01 4.89614E-02-1.47703E-03 4.10874E-01-6.47535E-14-2.13625E-13
 -1      1859 2.04164E+01 4.62401E-02 4.98306E-04 3.92416E-01 1.25887E-15-2.90079E-13
 -1      1860 2.05675E+01 5.32460E-02 4.23887E-03 4.21789E-01-5.99943E-15-2.65718E-13
 -1      1861 2.03339E+01 6.55382E-02-1.65120E-03 4.77936E-01-2.27611E-14-1.70715E-13
 -1      1862 2.06806E+01 5.80190E-02 6.43730E-04 4.63820E-01-3.78421E-14-2.77396E-13
 -1      1863 2.08578E+01 6.44535E-02 4.66417E-03 4.99784E-01-3.35172E-14-2.35567E-13
 -1      1864 2.05456E+01 8.30701E-02-1.87275E-03 5.62766E-01-3.66569E-15-1.66844E-13
 -1      1865 2.09900E+01 6.78876E-02 7.26559E-04 5.49130E-01 6.35342E-16-2.62202E-13
 -1      1866 2.11968E+01 7.19363E-02 4.70648E-03 5.89948E-01 7.14294E-14-2.33657E-13
 -1      1867 2.07934E+01 9.84262E-02-2.11093E-03 6.64856E-01-2.54064E-14-1.77686E-13
 -1      1868 2.13506E+01 7.20111E-02 7.00299E-04 6.43169E-01 7.51916E-15-2.36415E-13
 -1      1869 2.15875E+01 7.06404E-02 4.00149E-03 6.84476E-01-1.28940E-14-2.58019E-13
 -1      1870 2.10821E+01 1.06321E-01-2.34603E-03 7.79375E-01 5.84623E-15-2.51106E-13
 -1      1871 2.17645E+01 6.41246E-02 5.44836E-04 7.34255E-01-1.72205E-14-3.24087E-13
 -1      1872 2.20269E+01 5.26149E-02 2.05860E-03 7.67548E-01-4.67278E-14-3.71406E-13
 -1      1873 2.14153E+01 9.80928E-02-2.57329E-03 8.94643E-01-4.56009E-14-3.17901E-13
 -1      1874 2.22280E+01 3.47762E-02 2.93906E-04 8.00753E-01-3.49038E-14-3.16632E-13
 -1      1875 2.25026E+01 6.63941E-03-1.66420E-03 8.11622E-01-6.09372E-14-2.79072E-13
 -1      1876 2.17947E+01 6.05656E-02-2.79576E-03 9.88549E-01-2.63954E-14-2.70639E-13
 -1      1877 2.27266E+01-2.83910E-02 5.15040E-05 8.07323E-01-1.01632E-13-2.20136E-13
 -1      1878 2.29881E+01-8.01165E-02-7.51888E-03 7.74377E-01-3.73837E-14-2.70973E-13
 -1      1879 2.22182E+01-2.38060E-02-2.97607E-03 1.02439E+00-4.11293E-14-1.45786E-13
 -1      1880 2.32302E+01-1.37139E-01-9.20044E-05 7.03338E-01-6.79795E-15-2.95157E-13
 -1      1881 2.34379E+01-2.15315E-01-1.50995E-02 6.00152E-01 4.86295E-14-2.94304E-13
 -1      1882 2.26781E+01-1.72608E-01-2.90297E-03 9.48098E-01-5.33525E-14-1.33493E-13
 -1      1883 2.36846E+01-2.92103E-01-2.40974E-04 4.29576E-01 1.17849E-13-2.47128E-13
 -1      1884 2.37849E+01-3.86074E-01-2.24231E-02 2.34028E-01 1.10509E-13-2.06004E-13
 -1      1885 2.31549E+01-3.89894E-01-1.91042E-03 6.92125E-01 9.78193E-14-9.18226E-14
 -1      1886 2.40054E+01-4.63281E-01-1.15907E-03-5.67181E-02 9.46535E-14-1.37965E-13
 -1      1887 2.39434E+01-5.35594E-01-2.52413E-02-3.41686E-01 1.59995E-13-1.05036E-13
 -1      1888 2.36068E+01-6.40193E-01 1.17081E-03 1.96203E-01 1.29888E-13 3.44510E-14
 -1      1889 2.40789E+01-5.65682E-01-4.53221E-03-7.28165E-01 1.94039E-13-1.00495E-13
 -1      1890 2.38251E+01-5.47417E-01-1.79699E-02-1.04351E+00 2.13912E-13-2.53903E-14
 -1      1891 2.39526E+01-8.13618E-01 7.46913E-03-5.43207E-01 1.93463E-13 9.87611E-14
 -1      1892 2.37978E+01-4.62195E-01-1.07624E-02-1.41326E+00 2.31291E-13-2.27249E-16
 -1      1893 2.33848E+01-2.87555E-01 7.81235E-04-1.62522E+00 1.93158E-13 4.86416E-14
 -1      1894 2.40663E+01-7.26064E-01 1.45686E-02-1.38941E+00 2.38118E-13 4.06099E-15
 -1      1895 2.31561E+01-5.31487E-02-1.75275E-02-1.77173E+00 1.41236E-13 2.81546E-14
 -1      1896 2.27038E+01 2.54880E-01 1.99615E-02-1.71512E+00 8.05120E-14 9.32483E-14
 -1      1897 2.38330E+01-2.17394E-01 1.42967E-02-1.99821E+00 2.23202E-13 4.53335E-14
 -1      1898 2.23778E+01 5.51076E-01-1.54858E-02-1.44988E+00-3.16743E-14 6.10935E-14
 -1      1899 2.20627E+01 8.21942E-01 2.28198E-02-1.06108E+00-8.19934E-14 5.29013E-14
 -1      1900 2.33002E+01 6.08056E-01-6.73584E-03-1.90719E+00 2.31516E-14 9.24694E-15
 -1      1901 2.18800E+01 9.84366E-01 2.67030E-03-4.25836E-01-1.38441E-13 1.18404E-14
 -1      1902 2.18452E+01 1.01860E+00 7.99096E-03 1.42737E-01-2.06269E-13-7.40241E-14
 -1      1903 2.28025E+01 1.31270E+00-3.03798E-02-9.06755E-01-1.33008E-13-4.77513E-14
 -1      1904 2.19666E+01 9.11220E-01 2.14616E-02 8.25782E-01-2.06054E-13-2.15488E-13
 -1      1905 2.22293E+01 6.77268E-01-1.21706E-02 1.27545E+00-1.99772E-13-2.40349E-13
 -1      1906 2.27400E+01 1.39473E+00-3.47814E-02 5.92207E-01-3.28028E-13-3.06804E-13
 -1      1907 2.25458E+01 3.91840E-01 2.24415E-02 1.63683E+00-1.72237E-13-2.39779E-13
 -1      1908 2.29843E+01 7.36277E-02-1.82131E-02 1.76819E+00-2.37689E-13-2.88622E-13
 -1      1909 2.31720E+01 7.94093E-01-1.26015E-02 1.76120E+00-2.23589E-13-3.38055E-13
 -1      1910 2.32500E+01-1.86597E-01 5.33473E-03 1.70160E+00-2.96325E-13-2.57025E-13
 -1      1911 2.36854E+01-3.97449E-01-1.27879E-02 1.53663E+00-1.99001E-13-2.71940E-13
 -1      1912 2.37353E+01-5.15170E-02 1.07399E-02 2.05413E+00-2.19238E-13-3.03510E-13
 -1      1913 2.37592E+01-5.15562E-01-1.45808E-02 1.19731E+00-1.48751E-13-2.23224E-13
 -1      1914 2.40549E+01-5.64522E-01-5.67153E-03 8.91720E-01-1.08657E-13-2.15121E-13
 -1      1915 2.40505E+01-6.49141E-01 1.57984E-02 1.56419E+00-1.20874E-13-1.01961E-13
 -1      1916 2.39505E+01-5.53897E-01-2.45094E-02 4.96254E-01-1.45613E-13-2.48769E-13
 -1      1917 2.40555E+01-4.94863E-01-1.55967E-03 1.97711E-01-2.05738E-14-2.22072E-13
 -1      1918 2.40092E+01-8.21513E-01 9.52369E-03 7.35451E-01-1.00675E-13-8.00462E-14
 -1      1919 2.38498E+01-4.22580E-01-2.35223E-02-1.17655E-01 6.57426E-14-3.34037E-13
 -1      1920 2.37836E+01-3.28689E-01-2.15272E-04-3.33648E-01 1.74638E-13-2.53799E-13
 -1      1921 2.37057E+01-6.88102E-01 2.44328E-03-4.40343E-02-1.20745E-14-2.79425E-13
 -1      1922 2.35419E+01-2.48840E-01-1.67770E-02-5.28274E-01 1.64515E-13-2.91853E-13
 -1      1923 2.33568E+01-1.65077E-01 6.28027E-05-6.48942E-01 6.38244E-14-4.02810E-13
 -1      1924 2.32729E+01-4.41456E-01-1.47803E-03-5.93865E-01 9.93220E-14-2.83215E-13
 -1      1925 2.31157E+01-1.02668E-01-9.00339E-03-7.36903E-01 9.76428E-14-3.89835E-13
 -1      1926 2.28676E+01-4.45593E-02 2.58246E-04-7.81031E-01 1.13268E-13-3.17650E-13
 -1      1927 2.28029E+01-2.10587E-01-2.90566E-03-8.94181E-01 1.21386E-13-2.13122E-13
 -1      1928 2.26437E+01-4.55297E-03-2.67399E-03-7.94326E-01-6.32307E-15-2.61746E-13
 -1      1929 2.23767E+01 2.88266E-02 5.70597E-04-7.88492E-01-7.42626E-14-3.12227E-13
 -1      1930 2.23455E+01-4.48362E-02-3.14620E-03-9.98215E-01 8.01579E-14-2.19578E-13
 -1      1931 2.21766E+01 5.04053E-02 1.52475E-03-7.57736E-01 9.13720E-14-3.64703E-13
 -1      1932 2.19199E+01 6.56801E-02 9.20012E-04-7.24698E-01 1.70674E-13-2.81353E-13
 -1      1933 2.19241E+01 5.39283E-02-3.02350E-03-9.74404E-01-2.99481E-14-1.88021E-13
 -1      1934 2.17455E+01 7.47617E-02 3.83482E-03-6.72596E-01 4.73497E-14-4.00017E-13
 -1      1935 2.15152E+01 7.87068E-02 1.19419E-03-6.28175E-01-1.77330E-13-3.37751E-13
 -1      1936 2.15490E+01 1.01962E-01-2.82988E-03-8.80258E-01-6.74580E-15-2.98251E-13
 -1      1937 2.13665E+01 8.03390E-02 4.78226E-03-5.69327E-01-7.36780E-14-5.84228E-14
 -1      1938 2.11695E+01 7.80698E-02 1.34470E-03-5.23098E-01 6.80996E-14 9.81420E-15
 -1      1939 2.12240E+01 1.17398E-01-2.62555E-03-7.55969E-01 1.34969E-13-2.42481E-13
 -1      1940 2.10451E+01 7.57825E-02 4.87575E-03-4.65858E-01-5.62152E-14 3.54677E-14
 -1      1941 2.08821E+01 7.06439E-02 1.37973E-03-4.22893E-01 7.32248E-15 1.27543E-13
 -1      1942 2.09486E+01 1.14425E-01-2.40618E-03-6.26351E-01 3.63436E-14 1.41475E-13
 -1      1943 2.07801E+01 6.66544E-02 4.50266E-03-3.71400E-01-2.52617E-14 1.44670E-13
 -1      1944 2.06489E+01 6.06421E-02 1.33428E-03-3.33896E-01 9.68167E-14 1.39603E-13
 -1      1945 2.07200E+01 1.02539E-01-2.16591E-03-5.04978E-01-1.33230E-14 4.42170E-13
 -1      1946 2.05666E+01 5.62468E-02 3.92045E-03-2.89676E-01 1.49429E-13 1.06862E-13
 -1      1947 2.04635E+01 5.04699E-02 1.24695E-03-2.58129E-01 1.68772E-13 1.19532E-13
 -1      1948 2.05339E+01 8.75217E-02-1.90974E-03-3.98047E-01 7.35383E-14 2.24421E-13
 -1      1949 2.03983E+01 4.63874E-02 3.28065E-03-2.21192E-01 4.38603E-15 1.46751E-13
 -1      1950 2.03191E+01 4.14443E-02 1.15215E-03-1.95158E-01-1.03668E-14 3.31540E-13
 -1      1951 2.03851E+01 7.26501E-02-1.65094E-03-3.07262E-01 1.30758E-13 1.47037E-13
 -1      1952 2.02683E+01 3.80863E-02 2.65966E-03-1.64667E-01 2.24690E-15 3.74893E-13
 -1      1953 2.02091E+01 3.42779E-02 1.06199E-03-1.43176E-01 1.40802E-13 2.46693E-13
 -1      1954 2.02684E+01 5.97494E-02-1.39502E-03-2.31768E-01 1.13142E-14 4.22891E-13
 -1      1955 2.01703E+01 3.18139E-02 2.08649E-03-1.17876E-01 8.59643E-14 2.25847E-14
 -1      1956 2.01277E+01 2.92163E-02 9.79700E-04-9.97789E-02 6.40962E-14 7.50701E-14
 -1      1957 2.01784E+01 4.96595E-02-1.16748E-03-1.69273E-01 2.81671E-14 1.71332E-13
 -1      1958 2.00984E+01 2.75118E-02 1.52066E-03-7.83411E-02 1.59759E-13-2.68251E-14
 -1      1959 2.00699E+01 2.58355E-02 8.72874E-04-6.26251E-02 1.93634E-13 9.69830E-15
 -1      1960 2.01105E+01 4.27723E-02-8.75257E-04-1.17066E-01 8.07882E-15-1.02845E-13
 -1      1961 2.00502E+01 2.40438E-02 1.12394E-03-4.51553E-02 2.43380E-13-3.46642E-14
 -1      1962 2.00325E+01 2.20908E-02 8.22460E-04-3.19720E-02 1.20755E-13 3.67196E-14
 -1      1963 2.00295E+01 2.90146E-02-6.47675E-04-3.86818E-02 7.31123E-14-8.39688E-14
 -1      1964 2.00620E+01 3.65017E-02-1.00866E-03-7.37543E-02 1.28596E-13-1.27106E-13
 -1      1965 1.96029E+01 1.43607E-01 8.01136E-03 2.52650E-01 1.84847E-13 3.97314E-13
 -1      1966 1.98717E+01 2.05309E-01 1.65384E-02 4.26568E-01 2.03684E-13 4.82260E-13
 -1      1967 2.00878E+01 3.51996E-01-1.60367E-03 6.47550E-01 2.47843E-13 3.30558E-13
 -1      1968 1.93701E+01 7.45815E-02 7.13289E-03 4.57629E-02 1.50858E-13 3.00779E-13
 -1      1969 1.94803E+01 1.04035E-01 1.43533E-02 1.36002E-01 1.50378E-13 3.56910E-13
 -1      1970 1.97028E+01 1.68019E-01-2.06609E-03 2.45004E-01 1.91196E-13 2.65961E-13
 -1      1971 1.92940E+01 4.02047E-02 4.69910E-03-6.58413E-02 1.03254E-13 2.30964E-13
 -1      1972 1.93168E+01 5.54900E-02 8.57076E-03-1.58970E-02 1.17390E-13 2.75694E-13
 -1      1973 1.95141E+01 8.52517E-02-2.99452E-03 2.67510E-02 1.53147E-13 1.62588E-13
 -1      1974 1.93136E+01 2.20581E-02 3.24440E-03-1.27329E-01 2.38249E-14 1.69696E-13
 -1      1975 1.92872E+01 3.02602E-02 4.68338E-03-9.86502E-02 7.31758E-14 2.19547E-13
 -1      1976 1.94519E+01 4.42584E-02-3.07774E-03-9.45349E-02 9.55750E-14 1.03127E-13
 -1      1977 1.93918E+01 1.27008E-02 2.51656E-03-1.62048E-01 5.14711E-14 1.34404E-13
 -1      1978 1.93370E+01 1.69229E-02 2.59926E-03-1.44865E-01 2.26655E-14 1.29698E-13
 -1      1979 1.94698E+01 2.32520E-02-2.63216E-03-1.63455E-01 4.96207E-14 7.19433E-14
 -1      1980 1.95073E+01 8.74808E-03 2.15755E-03-1.83428E-01 3.94347E-14 1.81666E-13
 -1      1981 1.94351E+01 1.05154E-02 1.54588E-03-1.72028E-01 5.78706E-14 1.83530E-13
 -1      1982 1.95389E+01 1.32168E-02-2.12041E-03-2.04381E-01 4.86473E-14 6.63110E-14
 -1      1983 1.96489E+01 8.43226E-03 1.99929E-03-2.00034E-01 5.54741E-14 1.09765E-13
 -1      1984 1.95648E+01 8.60592E-03 1.04337E-03-1.90694E-01 4.92060E-14 1.57541E-13
 -1      1985 1.96424E+01 9.98421E-03-1.73382E-03-2.31955E-01 6.50869E-14 9.51675E-14
 -1      1986 1.98124E+01 1.06865E-02 1.97573E-03-2.17707E-01 2.44026E-14 1.34328E-13
 -1      1987 1.97180E+01 9.81645E-03 8.54090E-04-2.07819E-01 4.21906E-14 1.30401E-13
 -1      1988 1.97715E+01 1.13280E-02-1.50645E-03-2.55732E-01 4.66286E-14 1.02647E-13
 -1      1989 1.99979E+01 1.47423E-02 2.04973E-03-2.40526E-01 3.62545E-14 1.78136E-13
 -1      1990 1.98926E+01 1.32369E-02 8.55305E-04-2.28208E-01 2.35717E-14 1.84292E-13
 -1      1991 1.99231E+01 1.58542E-02-1.42055E-03-2.82261E-01 1.72444E-14 1.18456E-13
 -1      1992 2.02090E+01 1.98966E-02 2.18159E-03-2.71182E-01 4.48932E-14 1.24457E-13
 -1      1993 2.00903E+01 1.81264E-02 9.67586E-04-2.55135E-01 3.32735E-14 1.37800E-13
 -1      1994 2.00976E+01 2.24847E-02-1.44941E-03-3.16006E-01 4.01281E-14 8.37969E-14
 -1      1995 2.04506E+01 2.53156E-02 2.31344E-03-3.10959E-01 1.18548E-13 6.03611E-14
 -1      1996 2.03154E+01 2.37013E-02 1.12312E-03-2.90498E-01 8.46785E-14 8.00510E-14
 -1      1997 2.02979E+01 3.01302E-02-1.56705E-03-3.59634E-01 1.15972E-13 6.24905E-14
 -1      1998 2.07283E+01 2.98206E-02 2.35688E-03-3.59356E-01 4.46509E-14 9.25243E-14
 -1      1999 2.05733E+01 2.89264E-02 1.24987E-03-3.34606E-01 6.83423E-14 1.11213E-13
 -1      2000 2.05282E+01 3.73925E-02-1.74704E-03-4.13837E-01 6.76587E-14 1.22744E-13
 -1      2001 2.10460E+01 3.16322E-02 2.18216E-03-4.13317E-01-9.30007E-14 1.83242E-13
 -1      2002 2.08690E+01 3.22711E-02 1.26201E-03-3.85609E-01-2.58999E-14 1.17411E-13
 -1      2003 2.07926E+01 4.22307E-02-1.95775E-03-4.76698E-01-8.72262E-15 1.19940E-13
 -1      2004 2.14040E+01 2.80889E-02 1.61557E-03-4.65997E-01 3.66014E-14 1.39029E-13
 -1      2005 2.12054E+01 3.14255E-02 1.05605E-03-4.38496E-01-3.20606E-14 1.84201E-13
 -1      2006 2.10936E+01 4.15763E-02-2.15419E-03-5.42561E-01-3.56680E-14 1.03425E-13
 -1      2007 2.17959E+01 1.54532E-02 4.61043E-04-5.05143E-01 4.03201E-14 5.96329E-14
 -1      2008 2.15804E+01 2.30399E-02 5.17358E-04-4.83696E-01 5.68846E-14 8.64434E-14
 -1      2009 2.14302E+01 3.09792E-02-2.26361E-03-6.00416E-01 7.06079E-14 7.21428E-14
 -1      2010 2.22043E+01-1.08935E-02-1.42813E-03-5.11424E-01 4.86113E-15 8.65276E-14
 -1      2011 2.19837E+01 2.69651E-03-4.55006E-04-5.05462E-01 3.26413E-14 8.59525E-14
 -1      2012 2.17954E+01 4.55138E-03-2.16219E-03-6.31994E-01 2.39278E-14 8.80177E-15
 -1      2013 2.25973E+01-5.52471E-02-3.99962E-03-4.57829E-01 5.58321E-15-5.17034E-14
 -1      2014 2.23926E+01-3.44121E-02-1.89813E-03-4.80766E-01 9.40155E-15 2.72642E-14
 -1      2015 2.21729E+01-4.41676E-02-1.64438E-03-6.10378E-01 3.59261E-14 1.49080E-14
 -1      2016 2.29246E+01-1.18409E-01-6.77869E-03-3.12483E-01-9.39223E-15-3.58914E-15
 -1      2017 2.27679E+01-9.12470E-02-3.71473E-03-3.80415E-01-4.13901E-14-4.09464E-14
 -1      2018 2.25342E+01-1.19317E-01-4.04094E-04-5.00945E-01-4.68549E-15-1.26128E-13
 -1      2019 2.31189E+01-1.91804E-01-8.67380E-03-4.87969E-02 2.31638E-14-5.16356E-14
 -1      2020 2.30509E+01-1.64136E-01-5.60531E-03-1.75451E-01-3.78716E-14-1.97145E-14
 -1      2021 2.28349E+01-2.16498E-01 1.91285E-03-2.68099E-01-3.23526E-14-9.97661E-14
 -1      2022 2.31042E+01-2.50209E-01-8.16837E-03 3.33070E-01 2.30363E-13 4.45720E-14
 -1      2023 2.31665E+01-2.35478E-01-7.03256E-03 1.47198E-01 1.59915E-13 6.80514E-14
 -1      2024 2.30151E+01-3.13337E-01 5.46985E-03 1.07569E-01 1.06866E-13-2.15494E-14
 -1      2025 2.28184E+01-2.49908E-01-4.38897E-03 7.75076E-01 7.33389E-14 2.49800E-15
 -1      2026 2.30371E+01-2.68107E-01-7.43777E-03 5.58392E-01 1.65454E-13 7.07073E-14
 -1      2027 2.30052E+01-3.61752E-01 9.60450E-03 5.99154E-01 1.56365E-13-5.87507E-15
 -1      2028 2.22536E+01-1.44945E-01 1.35879E-03 1.13825E+00-1.88276E-13 1.23439E-13
 -1      2029 2.26171E+01-2.11819E-01-6.13050E-03 9.59272E-01-9.40784E-14 3.05259E-14
 -1      2030 2.27494E+01-2.96444E-01 1.20310E-02 1.09887E+00-6.89448E-14 1.70346E-13
 -1      2031 2.15069E+01 6.93273E-02 4.74962E-03 1.22856E+00-2.67526E-13 2.65425E-13
 -1      2032 2.19464E+01-3.68254E-02-2.65905E-03 1.18121E+00-3.13644E-13 2.11439E-13
 -1      2033 2.22528E+01-7.53106E-02 9.40046E-03 1.41001E+00-3.40974E-13 1.45355E-13
 -1      2034 2.08027E+01 3.16090E-01 2.09186E-03 9.05258E-01 1.52647E-14 2.96279E-13
 -1      2035 2.11943E+01 2.16453E-01 2.75562E-03 1.05382E+00-7.14602E-14 2.88141E-13
 -1      2036 2.16369E+01 2.57941E-01 1.41723E-04 1.31640E+00-1.02840E-13 1.19294E-13
 -1      2037 2.04246E+01 4.60738E-01-4.34314E-03 2.15861E-01 1.14549E-13 2.93603E-13
 -1      2038 2.06294E+01 4.28467E-01 9.38507E-03 5.32560E-01 6.93907E-14 3.19809E-13
 -1      2039 2.11388E+01 5.55233E-01-1.09087E-02 7.34978E-01 8.28452E-14 2.36595E-13
 -1      2040 2.05601E+01 4.06770E-01-7.87892E-03-5.68053E-01 1.19696E-15 2.35808E-13
 -1      2041 2.04906E+01 4.67426E-01 1.36214E-02-2.13451E-01 6.22141E-14 2.61268E-13
 -1      2042 2.10021E+01 6.49499E-01-1.26227E-02-1.58876E-01 9.91585E-14 1.79936E-13
 -1      2043 2.11522E+01 1.92998E-01-4.96557E-03-1.11028E+00 1.61232E-13 2.07454E-13
 -1      2044 2.08326E+01 3.08887E-01 1.18866E-02-8.67210E-01 3.55393E-14 1.60056E-13
 -1      2045 2.12985E+01 4.75615E-01-5.97100E-03-9.83035E-01 9.81645E-14 2.02795E-13
 -1      2046 2.19431E+01-4.96980E-02 2.13738E-03-1.23444E+00 7.12266E-14 2.08892E-13
 -1      2047 2.14943E+01 5.63801E-02 4.98100E-03-1.17524E+00 1.71229E-13 1.77150E-13
 -1      2048 2.18713E+01 1.42650E-01 2.40138E-03-1.40538E+00 1.54136E-13 1.91018E-13
 -1      2049 2.26439E+01-2.08428E-01 7.63377E-03-9.93611E-01-6.76716E-15 1.77757E-14
 -1      2050 2.22153E+01-1.54335E-01-3.10820E-03-1.09085E+00-1.83378E-14 1.22052E-13
 -1      2051 2.24627E+01-1.69828E-01 5.75623E-03-1.34237E+00 7.23540E-14 1.14520E-13
 -1      2052 2.30789E+01-2.53459E-01 8.64080E-03-5.72252E-01 1.42187E-13-7.00794E-14
 -1      2053 2.27779E+01-2.52432E-01-8.73228E-03-7.46378E-01 6.52091E-14-9.27990E-15
 -1      2054 2.28750E+01-3.41805E-01 3.78310E-03-9.42305E-01 8.08425E-14-5.41650E-14
 -1      2055 2.32122E+01-2.17686E-01 6.40676E-03-1.47387E-01 9.21017E-14-1.43809E-15
 -1      2056 2.30775E+01-2.47802E-01-1.05812E-02-3.24307E-01 1.69699E-13-5.46254E-14
 -1      2057 2.30374E+01-3.62273E-01 6.00371E-04-4.29160E-01 1.43699E-13-6.07126E-14
 -1      2058 2.30957E+01-1.48682E-01 3.20733E-03 1.80243E-01 1.11288E-13-1.27567E-13
 -1      2059 2.31119E+01-1.87240E-01-9.44094E-03 4.24922E-02 8.54455E-14-4.23047E-14
 -1      2060 2.29746E+01-2.88383E-01-1.29896E-03 2.77938E-02 1.24907E-13-5.93622E-14
 -1      2061 2.28124E+01-8.01346E-02 6.14198E-04 3.83363E-01 1.89805E-13-1.02187E-13
 -1      2062 2.29375E+01-1.13555E-01-6.80657E-03 2.96530E-01 1.87058E-13-1.18329E-13
 -1      2063 2.27504E+01-1.83868E-01-1.73136E-03 3.51359E-01 1.90426E-13 3.32863E-14
 -1      2064 2.24410E+01-2.73115E-02-9.01317E-04 4.77662E-01 2.63455E-14-1.06415E-13
 -1      2065 2.26290E+01-5.07797E-02-3.89636E-03 4.35765E-01 4.70119E-14-1.43205E-13
 -1      2066 2.24320E+01-8.91998E-02-1.39724E-03 5.34244E-01 1.37643E-13 1.71661E-13
 -1      2067 2.20419E+01 7.07682E-03-1.50201E-03 4.94062E-01-1.87761E-13-2.19671E-13
 -1      2068 2.22548E+01-6.76026E-03-1.41929E-03 4.84681E-01-7.19292E-14-1.43262E-13
 -1      2069 2.20740E+01-2.01971E-02-9.13731E-04 6.03905E-01-1.18164E-14 4.38902E-14
 -1      2070 2.16553E+01 2.61040E-02-1.53443E-03 4.62773E-01 2.96005E-14-2.33898E-13
 -1      2071 2.18665E+01 1.96066E-02 3.61879E-04 4.73596E-01-9.21331E-14-2.21594E-13
 -1      2072 2.17152E+01 2.25014E-02-5.67749E-04 5.96676E-01-1.09115E-13-1.75074E-13
 -1      2073 2.13044E+01 3.43124E-02-1.29361E-03 4.07132E-01-1.26606E-13-8.96269E-14
 -1      2074 2.14983E+01 3.26534E-02 1.45967E-03 4.28542E-01 4.50920E-15-1.94765E-13
 -1      2075 2.13801E+01 4.45446E-02-4.00126E-04 5.44682E-01-8.39671E-15-6.73376E-15
 -1      2076 2.10004E+01 3.57671E-02-9.66977E-04 3.42834E-01 4.90236E-14 1.54279E-14
 -1      2077 2.11691E+01 3.69205E-02 2.01081E-03 3.68292E-01 1.43193E-14-5.54759E-14
 -1      2078 2.10823E+01 5.26291E-02-3.56208E-04 4.71619E-01-2.94569E-14-9.63633E-15
 -1      2079 2.07458E+01 3.34990E-02-6.49605E-04 2.79283E-01-1.65021E-14 4.75386E-14
 -1      2080 2.08870E+01 3.60385E-02 2.18022E-03 3.04819E-01 2.77914E-14 2.06350E-14
 -1      2081 2.08273E+01 5.23546E-02-3.70954E-04 3.92944E-01-5.21284E-16 2.22510E-13
 -1      2082 2.05386E+01 2.95594E-02-3.77153E-04 2.21367E-01-5.94011E-14 1.17408E-15
 -1      2083 2.06532E+01 3.25631E-02 2.11410E-03 2.44877E-01 2.34114E-14 1.19127E-13
 -1      2084 2.06153E+01 4.77457E-02-3.98840E-04 3.17629E-01-3.01139E-14 2.60718E-13
 -1      2085 2.03742E+01 2.52640E-02-1.53263E-04 1.70976E-01 2.25611E-13 2.02418E-14
 -1      2086 2.04647E+01 2.81686E-02 1.92327E-03 1.91618E-01-2.39107E-14-6.29292E-14
 -1      2087 2.04434E+01 4.14605E-02-4.17251E-04 2.50073E-01 8.46460E-14 1.66943E-13
 -1      2088 2.02471E+01 2.14145E-02 2.16281E-05 1.28085E-01 1.04989E-13 2.60516E-13
 -1      2089 2.03165E+01 2.39135E-02 1.68348E-03 1.45849E-01 2.94762E-13 2.30050E-13
 -1      2090 2.03075E+01 3.51752E-02-4.19387E-04 1.91653E-01 1.44373E-13 5.03252E-13
 -1      2091 2.01519E+01 1.84358E-02 1.36279E-04 9.16363E-02-1.22453E-13 2.34502E-13
 -1      2092 2.02034E+01 2.03691E-02 1.42521E-03 1.06962E-01-3.46782E-14 3.25073E-13
 -1      2093 2.02025E+01 2.97706E-02-4.38383E-04 1.41879E-01-5.84500E-14 8.07862E-13
 -1      2094 2.00839E+01 1.65603E-02 1.78389E-04 6.00181E-02-5.04151E-14 2.68069E-13
 -1      2095 2.01199E+01 1.78965E-02 1.15406E-03 7.36467E-02-1.05707E-13 1.78017E-13
 -1      2096 2.01240E+01 2.58320E-02-4.60261E-04 9.93400E-02-4.09235E-14 4.22461E-13
 -1      2097 2.00390E+01 1.53983E-02 3.90537E-04 3.20266E-02 8.14697E-14 1.51216E-13
 -1      2098 2.00613E+01 1.62464E-02 8.30102E-04 4.43744E-02 7.16530E-14 2.01329E-13
 -1      2099 2.00675E+01 2.33794E-02-4.22391E-04 6.22704E-02 4.39261E-14 4.52827E-13
 -1      2100 2.00164E+01 1.33912E-02 6.05184E-04 1.39763E-02 7.87105E-14 1.74701E-13
 -1      2101 2.00288E+01 1.55594E-02 5.50286E-04 2.41799E-02 1.35260E-13 1.31307E-13
 -1      2102 2.00344E+01 2.22455E-02-2.99826E-04 3.61475E-02 1.14921E-13 4.62542E-13
 -1      2103 2.00170E+01 1.92764E-02 6.76264E-05 1.93016E-02 1.12371E-13 4.89843E-13
 -1      2104 2.00038E+01 1.37148E-01-3.49367E-04 7.61150E-02 2.19345E-13-8.05440E-14
 -1      2105 2.00090E+01 1.12738E-01 5.87783E-04 7.24357E-02 1.78382E-13 3.38377E-14
 -1      2106 2.00137E+01 8.80142E-02-6.46085E-05 6.48807E-02 2.29578E-13 1.50252E-13
 -1      2107 2.00178E+01 6.69365E-02 6.54209E-04 5.56383E-02 1.73888E-13 3.26673E-13
 -1      2108 2.00169E+01 1.08185E-01-1.01866E-04 8.97021E-02 1.18754E-13 1.17999E-13
 -1      2109 2.00182E+01 4.91697E-02 1.60465E-04 4.37109E-02 1.33451E-13 1.45073E-13
 -1      2110 2.00193E+01 3.33772E-02 5.24695E-04 3.22530E-02 2.09647E-13 1.67044E-13
 -1      2111 2.00275E+01 3.55500E-02 3.23996E-04 4.08667E-02 9.81957E-14 2.48873E-13
 -1      2112 2.00252E+01 6.65855E-02-3.35858E-04 6.73939E-02 1.57986E-13 2.08120E-13
 -1      2113 1.99940E+01 1.85632E-01-6.45684E-04 7.48568E-02 7.20856E-14-4.52493E-13
 -1      2114 1.99991E+01 1.61487E-01 2.45787E-04 7.67531E-02 1.33350E-13-2.55290E-13
 -1      2115 2.00023E+01 1.56809E-01 1.20098E-04 9.83665E-02 2.33402E-14-2.62943E-13
 -1      2116 1.99854E+01 2.28774E-01-8.87288E-04 6.14256E-02 1.49823E-13-1.97982E-13
 -1      2117 1.99896E+01 2.07836E-01-1.48233E-04 6.85217E-02 1.33818E-13-2.61924E-13
 -1      2118 1.99882E+01 2.03312E-01 4.97330E-04 9.17072E-02 1.42624E-13-3.19910E-13
 -1      2119 1.99793E+01 2.59546E-01-1.01698E-03 3.82038E-02 2.12089E-13 2.01219E-13
 -1      2120 1.99821E+01 2.45484E-01-5.31946E-04 4.91913E-02 2.39696E-13 4.23883E-14
 -1      2121 1.99763E+01 2.42206E-01 7.84203E-04 7.05414E-02 2.28172E-13 9.55179E-14
 -1      2122 1.99765E+01 2.73619E-01-1.00788E-03 8.98070E-03-1.03196E-13-1.22048E-13
 -1      2123 1.99776E+01 2.68626E-01-8.25734E-04 2.20758E-02 1.62209E-14 4.00615E-14
 -1      2124 1.99685E+01 2.68014E-01 9.79131E-04 3.84239E-02 1.08959E-13 1.10575E-15
 -1      2125 1.99774E+01 2.68983E-01-8.50793E-04-2.17154E-02 1.09840E-13-9.94236E-14
 -1      2126 1.99765E+01 2.73854E-01-9.91187E-04-8.56385E-03 3.12301E-14-8.18405E-14
 -1      2127 1.99657E+01 2.77339E-01 1.05356E-03 3.41160E-04-1.04151E-13 8.29959E-14
 -1      2128 1.99818E+01 2.46277E-01-5.65308E-04-4.91203E-02-2.42564E-13-6.17322E-14
 -1      2129 1.99791E+01 2.60307E-01-1.00647E-03-3.80019E-02-5.44750E-14 8.44673E-14
 -1      2130 1.99682E+01 2.68884E-01 9.93230E-04-3.79259E-02-1.17445E-13-1.07240E-13
 -1      2131 1.99892E+01 2.09528E-01-1.70980E-04-6.85695E-02-1.52682E-13-2.31853E-13
 -1      2132 1.99850E+01 2.30109E-01-8.93544E-04-6.14139E-02-2.71122E-13-1.71348E-13
 -1      2133 1.99759E+01 2.43978E-01 8.26532E-04-7.02985E-02-2.52221E-13-1.12336E-13
 -1      2134 1.99990E+01 1.62702E-01 2.47025E-04-7.72446E-02 1.59777E-13 5.30931E-13
 -1      2135 1.99937E+01 1.87367E-01-6.70915E-04-7.52111E-02 1.77603E-14 3.27668E-13
 -1      2136 1.99877E+01 2.05698E-01 5.33992E-04-9.19169E-02 1.31234E-14 1.26983E-13
 -1      2137 2.00092E+01 1.13100E-01 5.90150E-04-7.29258E-02 2.01952E-13 5.41718E-14
 -1      2138 2.00038E+01 1.37714E-01-3.83216E-04-7.66854E-02 1.44210E-13 9.90158E-14
 -1      2139 2.00022E+01 1.58577E-01 1.34740E-04-9.90492E-02 5.90710E-14 4.01791E-13
 -1      2140 2.00177E+01 6.55216E-02 1.42678E-04-5.58304E-02 3.99737E-14-4.49475E-13
 -1      2141 2.00140E+01 8.80450E-02-7.52848E-05-6.51805E-02 6.78244E-14-1.67045E-13
 -1      2142 2.00172E+01 1.09175E-01-6.21157E-05-9.01921E-02 6.28556E-14-1.84332E-13
 -1      2143 1.04890E+01-5.18459E+00-1.88665E-01 6.45606E+00 3.96905E-14 8.02691E-14
 -1      2144 6.43133E+00-6.71868E+00-4.51159E-01 5.07354E+00 3.13083E-14 1.48326E-13
 -1      2145 7.10679E-01-5.81387E+00-2.36153E-01 8.01248E-01 2.08306E-14 6.90836E-13
 -1      2146 4.85214E-01-6.94959E+00-4.11424E-01-8.39111E-01-7.27612E-14 5.93525E-13
 -1      2147 3.91224E+00-6.35459E+00-3.19039E-01 4.41672E+00 1.27176E-13 1.90875E-13
 -1      2148 2.18910E+00-6.06259E+00-2.20105E-01 3.25961E+00 2.22600E-14 3.51830E-13
 -1      2149 7.15557E+00-5.18868E+00-1.35086E-01 5.82998E+00-2.12774E-13 8.16569E-14
 -1      2150 1.98192E+01-2.84206E+00 2.56770E-02 6.85857E+00 2.99982E-13-1.05527E-13
 -1      2151 1.53688E+01-4.74472E+00-1.86279E-01 6.37971E+00 2.72005E-13 6.25056E-14
 -1      2152 2.83482E+01-2.30040E-01 1.69455E-01 5.54230E+00 3.80362E-13-2.58737E-13
 -1      2153 2.37690E+01-2.14936E+00-1.38589E-01 5.44858E+00 3.40283E-13-1.78746E-13
 -1      2154 1.95316E+01 4.02043E+00-2.56819E-02-1.69265E+00-1.40166E-13-4.33317E-13
 -1      2155 1.96565E+01 3.94549E+00-2.42425E-02-1.94773E+00-1.79191E-13-3.96353E-13
 -1      2156 1.99764E+01 3.25663E+00-7.98163E-03-1.89967E+00-2.08511E-13-3.51320E-13
 -1      2157 1.97035E+01 3.59063E+00-9.20922E-03-1.50782E+00-1.35251E-13-4.14686E-13
 -1      2158 3.84592E+01 5.81522E+00 2.63368E-01 1.41759E+00 9.43690E-16 3.17302E-13
 -1      2159 3.61421E+01 4.75621E+00 1.78303E-01 2.46634E+00 4.37428E-14 3.62821E-13
 -1      2160 4.01326E+01 7.18446E+00 3.57464E-01-1.93182E-01 2.24154E-13 2.61208E-13
 -1      2161 3.87071E+01 7.05669E+00 1.91706E-01 8.09627E-01 1.15685E-13 3.62849E-13
 -1      2162 3.87161E+01 6.32922E+00 2.58873E-01-1.73924E+00 5.92915E-13 1.69254E-13
 -1      2163 4.06340E+01 6.78868E+00 3.85287E-01-6.66209E-01 3.90632E-13 2.16965E-13
 -1      2164 3.44380E+01 3.56022E+00 1.29777E-01-3.29166E+00 5.53488E-13-1.27676E-13
 -1      2165 3.77210E+01 4.84115E+00 3.47849E-01-2.52139E+00 6.39599E-13 9.47575E-14
 -1      2166 2.77957E+01 1.43369E-01-4.41800E-02-5.09501E+00 6.56059E-13-2.14273E-13
 -1      2167 3.23243E+01 1.72389E+00 2.33723E-01-4.69012E+00 5.63521E-13-1.26898E-13
 -1      2168 2.02039E+01-3.16386E+00-2.10310E-01-6.00394E+00 4.52638E-13-4.81060E-13
 -1      2169 2.49016E+01-1.32815E+00 1.13415E-01-6.33179E+00 5.87586E-13-2.83384E-13
 -1      2170 1.15923E+01-5.46729E+00-3.71246E-01-5.95446E+00 3.08864E-13-8.52096E-13
 -1      2171 1.59742E+01-3.55317E+00-6.32560E-02-6.90738E+00 3.92242E-13-8.17096E-13
 -1      2172 5.02550E+00-6.87653E+00-4.11048E-01-4.66037E+00-5.77316E-15-7.37743E-13
 -1      2173 8.22720E+00-5.44119E+00-1.79768E-01-5.95231E+00 2.47691E-13-8.54580E-13
 -1      2174 9.13387E-01-6.90079E+00-3.60161E-01-2.04957E+00-2.40474E-13-8.00582E-13
 -1      2175 2.35254E+00-6.70969E+00-3.41666E-01-3.47783E+00-1.52656E-14-7.77822E-13
 -1      2176 9.49771E-01-6.56045E+00-3.21467E-01 1.74083E+00-3.70898E-13-7.00884E-13
 -1      2177 4.29354E-01-6.49563E+00-3.20040E-01 7.08283E-02-1.97144E-13-7.93643E-13
 -1      2178 4.93348E+00-5.98669E+00-2.39242E-01 4.85581E+00-5.41123E-13-4.83058E-13
 -1      2179 2.39556E+00-7.09332E+00-4.15982E-01 3.27086E+00-4.57134E-13-5.45675E-13
 -1      2180 1.30862E+01-4.85363E+00-1.02736E-01 6.79621E+00-6.73017E-13-3.29285E-13
 -1      2181 8.77873E+00-6.31285E+00-3.34381E-01 5.63716E+00-6.25056E-13-3.95503E-13
 -1      2182 2.27447E+01-2.56783E+00 9.25611E-02 6.43344E+00-7.93587E-13-1.10134E-13
 -1      2183 1.81629E+01-4.59866E+00-1.79413E-01 5.97904E+00-7.37410E-13-1.80078E-13
 -1      2184 3.02404E+01 7.00067E-01 1.88926E-01 5.44911E+00-6.12038E-13-3.62266E-13
 -1      2185 2.53717E+01-1.02271E+00-1.11417E-01 5.49847E+00-7.18481E-13-3.29736E-13
 -1      2186 3.55295E+01 3.26356E+00 1.08992E-01 2.20288E+00-3.19800E-13-6.53533E-13
 -1      2187 3.26821E+01 1.96891E+00 1.27219E-01 3.60628E+00-5.00454E-13-5.85865E-13
 -1      2188 3.94037E+01 6.60884E+00 3.63926E-01 5.93373E-01-2.05835E-13-6.41737E-13
 -1      2189 3.65684E+01 5.69566E+00 9.29561E-02 9.73137E-01-2.44971E-13-6.32383E-13
 -1      2190 4.13405E+01 7.06109E+00 4.51983E-01-6.07936E-01-3.91964E-13-5.65631E-13
 -1      2191 4.07682E+01 7.08814E+00 3.21776E-01 5.56106E-01-2.84328E-13-6.80608E-13
 -1      2192 3.84530E+01 5.94436E+00 2.55826E-01-1.84993E+00-3.39839E-13-4.77896E-13
 -1      2193 4.11503E+01 6.54197E+00 5.03303E-01-1.14860E+00-4.50529E-13-4.97158E-13
 -1      2194 3.72513E+01 7.75484E+00 4.01337E-01 4.02699E-02-4.54969E-13-5.31603E-13
 -1      2195 3.38769E+01 2.71457E+00 1.19035E-01-3.47236E+00-3.70530E-13-2.97873E-13
 -1      2196 3.67856E+01 4.00453E+00 2.71183E-01-2.45567E+00-2.75419E-13-4.04177E-13
 -1      2197 2.78723E+01-7.12789E-02-5.50688E-02-4.97527E+00-3.41727E-13-2.09832E-14
 -1      2198 3.23036E+01 1.52052E+00 2.68679E-01-4.76526E+00-4.22135E-13-3.20521E-13
 -1      2199 3.25733E+01 1.07831E+00 2.15533E-01-1.58362E+00-3.17624E-13-5.01987E-13
 -1      2200 2.07636E+01-3.65644E+00-1.88995E-01-5.72750E+00-1.78746E-13 1.45162E-13
 -1      2201 2.52048E+01-1.82584E+00 1.24518E-01-6.01809E+00-2.56128E-13 3.09752E-14
 -1      2202 1.21395E+01-5.63870E+00-3.59001E-01-5.96703E+00 2.64233E-14 3.60031E-13
 -1      2203 1.64385E+01-4.01490E+00-6.31783E-02-6.80759E+00-1.23013E-13 3.86385E-13
 -1      2204 5.88133E+00-6.74148E+00-3.91808E-01-4.90527E+00-1.04361E-14 3.12833E-13
 -1      2205 9.00836E+00-5.49758E+00-1.87317E-01-5.93885E+00-4.09672E-14 3.29126E-13
 -1      2206 1.31394E+01-5.66468E+00-9.01401E-02-6.75006E+00 1.42386E-13 3.12986E-13
 -1      2207 1.32433E+00-7.08237E+00-3.97786E-01-2.23288E+00-6.17839E-14 3.95572E-13
 -1      2208 2.95344E+00-6.20502E+00-2.65393E-01-3.75038E+00-1.61371E-13 3.88023E-13
 -1      2209 2.39939E+00-4.25883E+00-1.28053E-01-2.03801E+00-6.07292E-14 6.52700E-13
 -1      2210 3.42853E+01 2.63395E+00 2.17869E-01 3.72118E+00 2.10231E-13 1.77636E-15
 -1      2211 3.03497E+01 1.14267E+00-2.07961E-02 4.37107E+00 3.38396E-13-1.39444E-13
 -1      2212 2.97812E+01-1.10340E+00 1.58894E-01 2.69936E+00 1.69864E-13-3.37508E-13
 -1      2213 2.07158E+01 1.10877E+00-2.04306E-02-1.61060E+00-2.52107E-13 1.63723E-14
 -1      2214 3.35841E+01 3.07966E+00 2.30261E-01 8.19574E-01 6.71962E-14 2.42750E-13
 -1      2215 2.06135E+01 1.33017E+00-1.89201E-02-1.66970E+00-2.58729E-13-8.94580E-14
 -1      2216 2.45135E+00-4.74429E+00-1.18696E-01 2.19609E+00-1.21431E-13 4.64129E-13
 -1      2217 3.10558E+00-2.67872E+00 6.90936E-02 1.10505E+00-2.20837E-13 5.57110E-13
 -1      2218 4.51579E+00-3.17211E+00 1.75261E-02 3.54461E+00-3.91812E-13 2.08056E-13
 -1      2219 1.79701E+01-5.52961E+00-1.62488E-01 6.68760E+00-9.50351E-14-1.06151E-13
 -1      2220 1.43886E+01-5.27509E+00-8.15363E-02 6.63574E+00-7.32747E-15 1.74416E-13
 -1      2221 1.36522E+01-5.15601E+00 1.03865E-01 6.94571E+00-2.24654E-13 9.31477E-14
 -1      2222 2.00223E+01 5.46145E-02 3.39414E-04-5.20766E-02 3.59030E-14-3.01090E-13
 -1      2223 2.38971E+01-3.97270E+00 5.31317E-02 5.25910E+00 1.00364E-13-3.02786E-13
 -1      2224 6.26190E+00-5.24256E+00-1.49751E-01-5.24391E+00 9.71445E-15 2.19325E-13
 -1      2225 2.79911E+01-2.75214E+00 3.13290E-02-3.55082E+00-1.52267E-13-2.99538E-13
 -1      2226 3.55663E+01 4.86967E+00 2.58687E-01-2.30691E-01-3.42670E-13-4.45977E-13
 -1      2227 3.58196E+01 7.60242E+00 2.37536E-01-3.99518E-01-2.91156E-13-5.69739E-13
 -1      2228 3.41588E+01 4.25439E+00 1.85721E-01-1.76744E-01-2.95597E-13-5.81035E-13
 -1      2229 3.14240E+01 4.82390E-02 2.41676E-01 2.18377E+00-4.84592E-13-4.50751E-13
 -1      2230 2.58761E+01-3.61180E+00-5.34722E-04 4.49688E+00-6.14536E-13-1.18405E-13
 -1      2231 1.81114E+01-5.47775E+00 8.82772E-03 6.43828E+00-5.35738E-13-8.66390E-14
 -1      2232 8.84987E+00-5.38810E+00-8.81302E-02 6.14298E+00-2.90601E-13-3.89022E-13
 -1      2233 3.16127E+00-4.64038E+00-1.41035E-01 3.14591E+00-1.26787E-13-6.77125E-13
 -1      2234 1.97272E+00-4.53237E+00-1.52467E-01-1.18593E+00-1.98057E-13-8.57536E-13
 -1      2235 5.54590E+00-5.19033E+00-1.60260E-01-5.19153E+00-9.33698E-14-8.41049E-13
 -1      2236 1.22480E+01-5.59378E+00-1.13796E-01-6.74652E+00 5.18474E-14-8.47947E-13
 -1      2237 2.05153E+01-4.71631E+00 1.24937E-02-6.21085E+00 1.19349E-13-3.73368E-13
 -1      2238 2.76691E+01-2.29461E+00 1.15536E-01-3.93552E+00 4.14530E-13 9.58122E-14
 -1      2239 3.26993E+01 1.75135E+00 2.22402E-01-1.71967E+00 4.97560E-13 7.96585E-14
 -1      2240 3.55682E+01 5.81755E+00 3.02094E-01-2.46429E-01 6.26388E-13 1.67644E-13
 -1      2241 3.52978E+01 6.96079E+00 2.48759E-01-1.56183E-01 7.02771E-14 4.35291E-13
 -1      2242 3.58718E+01 8.02138E+00 3.03815E-01-2.17802E-02 3.74423E-13 3.95885E-13
 -1      2243 2.11069E+01-5.07778E+00 4.05628E-02-5.96020E+00 1.24789E-13 7.95752E-14
 -1      2244 2.01407E+01 5.10329E-01 3.96339E-03 6.67057E-01 2.56729E-13 2.00009E-13
 -1      2245 2.04051E+01 7.02674E-01 2.08271E-02 9.60292E-01 2.65104E-13 2.32251E-13
 -1      2246 1.95743E+01 3.53586E+00-1.12204E-02-5.84050E-01-1.00174E-14-4.16412E-13
 -1      2247 1.96096E+01 3.48864E+00-1.04751E-02-7.66889E-01-3.84334E-14-4.26957E-13
 -1      2248 1.96556E+01 3.39800E+00-1.29098E-02-9.30037E-01-6.19744E-14-4.17138E-13
 -1      2249 1.97155E+01 3.31567E+00-1.28098E-02-1.11837E+00-9.00987E-14-4.12991E-13
 -1      2250 1.97996E+01 3.05490E+00 3.15569E-04-7.80766E-01-4.33745E-14-4.03747E-13
 -1      2251 1.95271E+01 3.62137E+00-9.64375E-03 9.83894E-02 1.02101E-13-3.68763E-13
 -1      2252 1.95265E+01 3.62220E+00-9.65235E-03-7.90362E-02 6.98786E-14-3.75988E-13
 -1      2253 1.95531E+01 3.58060E+00-9.70800E-03 4.40130E-01 1.52426E-13-3.58981E-13
 -1      2254 1.95358E+01 3.60390E+00-1.01999E-02 2.61200E-01 1.25857E-13-3.70905E-13
 -1      2255 1.96916E+01 3.24920E+00-6.99361E-04 1.66876E-01 1.08329E-13-3.53370E-13
 -1      2256 1.96145E+01 3.48106E+00-1.05648E-02 7.80639E-01 2.06344E-13-3.26122E-13
 -1      2257 1.95785E+01 3.52938E+00-1.12975E-02 6.00676E-01 1.68584E-13-3.47253E-13
 -1      2258 1.97285E+01 3.18343E+00-3.22134E-04 4.80448E-01 1.52039E-13-3.31547E-13
 -1      2259 1.97237E+01 3.30302E+00-1.28732E-02 1.13170E+00 2.61224E-13-2.62609E-13
 -1      2260 1.96619E+01 3.38810E+00-1.29823E-02 9.43352E-01 2.28118E-13-2.98811E-13
 -1      2261 1.98052E+01 3.04568E+00 3.99335E-04 7.92365E-01 2.07937E-13-2.87051E-13
 -1      2262 1.98994E+01 3.01255E+00-1.80760E-02 1.47812E+00 3.04308E-13-1.75557E-13
 -1      2263 1.98019E+01 3.15570E+00-1.52768E-02 1.28791E+00 2.76113E-13-2.25433E-13
 -1      2264 1.99330E+01 2.81512E+00 2.01385E-03 1.09647E+00 2.53772E-13-2.23850E-13
 -1      2265 2.01710E+01 2.54843E+00-2.83303E-02 1.78334E+00 3.37160E-13-6.29895E-14
 -1      2266 2.00236E+01 2.78954E+00-1.71377E-02 1.60851E+00 3.17467E-13-1.27728E-13
 -1      2267 2.01241E+01 2.45885E+00 5.89492E-03 1.36220E+00 2.89013E-13-1.27232E-13
 -1      2268 1.98720E+01 2.74932E-01 5.06114E-03 2.68855E-01 2.05507E-13 1.38846E-13
 -1      2269 2.00276E+01 3.73153E-01 2.02281E-02 4.28849E-01 2.41238E-13 1.98753E-13
 -1      2270 2.02099E+01 6.41021E-01-2.41865E-03 6.89243E-01 2.67211E-13 1.04145E-13
 -1      2271 2.03972E+01 8.59249E-01 1.32475E-02-9.88373E-01-1.87557E-13-1.38854E-13
 -1      2272 2.01885E+01 6.33733E-01-4.24335E-03-6.76823E-01-1.54706E-13-1.32889E-13
 -1      2273 3.19575E+01 3.29435E+00-1.38228E-01-7.10205E-01-4.43534E-14 3.03674E-13
 -1      2274 3.08571E+01 1.06728E+00-7.51566E-02-5.53615E-02 1.93318E-14 1.96732E-13
 -1      2275 2.01267E+01 4.77898E-01 1.62051E-02-4.57073E-01-1.39313E-13-1.17344E-13
 -1      2276 1.99907E+01 3.55284E-01 3.34993E-04-2.81562E-01-1.30600E-13-1.27743E-13
 -1      2277 2.02477E+01 7.55802E-01-2.38160E-03-6.73538E-01-1.52488E-13-1.88422E-13
 -1      2278 1.99318E+01 2.72609E-01 1.08462E-02-1.38525E-01-1.17200E-13-1.08765E-13
 -1      2279 1.98608E+01 2.04118E-01 1.20733E-03-3.55069E-02-9.53402E-14-1.34518E-13
 -1      2280 2.00923E+01 4.32462E-01-3.98304E-03-2.80847E-01-1.26597E-13-1.52574E-13
 -1      2281 1.98225E+01 1.57677E-01 6.41083E-03 5.45226E-02-7.70821E-14-1.17352E-13
 -1      2282 1.97985E+01 1.19232E-01 1.42340E-03 1.16127E-01-8.07258E-14-1.08316E-13
 -1      2283 1.99826E+01 2.50884E-01-3.94330E-03-2.74469E-02-9.81076E-14-1.21078E-13
 -1      2284 1.97809E+01 9.32370E-02 3.61748E-03 1.72979E-01-8.91173E-14-1.09948E-13
 -1      2285 1.97889E+01 7.26744E-02 1.56464E-03 2.11020E-01-5.93023E-14-1.08673E-13
 -1      2286 1.99219E+01 1.48315E-01-3.29777E-03 1.33710E-01-9.82830E-14-1.10739E-13
 -1      2287 1.97884E+01 5.93589E-02 1.90524E-03 2.48402E-01-5.94246E-14-1.41402E-13
 -1      2288 1.98186E+01 5.03690E-02 1.73513E-03 2.74011E-01-8.14782E-14-1.64910E-13
 -1      2289 1.99027E+01 9.26770E-02-2.57684E-03 2.37958E-01-9.15079E-14-1.59150E-13
 -1      2290 1.98314E+01 4.55911E-02 8.48400E-04 3.01499E-01-7.39560E-14-1.52264E-13
 -1      2291 1.98781E+01 4.46456E-02 1.96996E-03 3.22112E-01-6.04806E-14-1.46813E-13
 -1      2292 1.99158E+01 6.72622E-02-1.99079E-03 3.10071E-01-6.96685E-14-2.02957E-13
 -1      2293 1.99015E+01 4.59920E-02 1.97319E-04 3.46585E-01-1.14955E-13-1.15843E-13
 -1      2294 1.99616E+01 5.09508E-02 2.28474E-03 3.67462E-01-1.18346E-13-1.48392E-13
 -1      2295 1.99540E+01 6.27147E-02-1.58061E-03 3.67640E-01-9.08490E-14-1.89630E-13
 -1      2296 1.99939E+01 5.68621E-02-1.94032E-04 3.93996E-01-1.01857E-13-1.52549E-13
 -1      2297 2.00666E+01 6.62687E-02 2.67776E-03 4.18990E-01-8.52927E-14-1.65106E-13
 -1      2298 2.00127E+01 7.33497E-02-1.32448E-03 4.23465E-01-1.29136E-13-1.25416E-13
 -1      2299 2.01071E+01 7.55655E-02-4.15656E-04 4.51361E-01-6.65079E-14-1.43370E-13
 -1      2300 2.01930E+01 8.82098E-02 3.12814E-03 4.83269E-01-2.06898E-14-1.29905E-13
 -1      2301 2.00893E+01 9.52762E-02-1.18496E-03 4.87008E-01-6.34687E-14-4.82498E-14
 -1      2302 2.02418E+01 9.97499E-02-5.22274E-04 5.24167E-01-3.96495E-14-1.27244E-13
 -1      2303 2.03424E+01 1.14291E-01 3.59019E-03 5.64789E-01-4.58699E-15-1.10217E-13
 -1      2304 2.01830E+01 1.25238E-01-1.12843E-03 5.65163E-01-3.00827E-14-9.02557E-14
 -1      2305 2.04003E+01 1.26615E-01-5.38740E-04 6.15791E-01-4.72625E-15-1.49599E-13
 -1      2306 2.05178E+01 1.41138E-01 3.98256E-03 6.65711E-01-4.05017E-14-1.62968E-13
 -1      2307 2.02945E+01 1.59635E-01-1.13421E-03 6.62465E-01-3.36253E-14-1.28771E-13
 -1      2308 2.05861E+01 1.52011E-01-4.56122E-04 7.26968E-01-6.46472E-14-1.62438E-13
 -1      2309 2.07226E+01 1.63434E-01 4.17209E-03 7.85004E-01-3.37302E-14-1.63157E-13
 -1      2310 2.04256E+01 1.93403E-01-1.20538E-03 7.80780E-01-6.07117E-14-1.87214E-13
 -1      2311 2.08038E+01 1.69217E-01-2.19614E-04 8.54590E-01-1.48437E-14-1.75698E-13
 -1      2312 2.09608E+01 1.72490E-01 3.95409E-03 9.16821E-01-1.69911E-14-1.99872E-13
 -1      2313 2.05797E+01 2.18531E-01-1.38765E-03 9.18374E-01-2.84919E-14-1.31109E-13
 -1      2314 2.10592E+01 1.67332E-01 2.90471E-04 9.89631E-01-4.83986E-14-2.02282E-13
 -1      2315 2.12371E+01 1.54490E-01 3.03456E-03 1.04792E+00-3.56365E-14-1.92124E-13
 -1      2316 2.07621E+01 2.22115E-01-1.79703E-03 1.06823E+00-5.67816E-14-1.08047E-13
 -1      2317 2.13599E+01 1.29514E-01 1.27606E-03 1.11400E+00 1.53555E-14-2.23188E-13
 -1      2318 2.15576E+01 8.89607E-02 1.02573E-03 1.15410E+00 4.88704E-16-1.83197E-13
 -1      2319 2.09820E+01 1.84138E-01-2.64871E-03 1.21542E+00-2.65850E-14-1.12013E-13
 -1      2320 2.17167E+01 3.20750E-02 3.00619E-03 1.19635E+00-5.02677E-14-1.57362E-13
 -1      2321 2.19303E+01-5.07589E-02-2.51420E-03 1.19597E+00-4.55193E-14-1.18257E-13
 -1      2322 2.12551E+01 7.59841E-02-4.25453E-03 1.33337E+00-1.76125E-14-1.97103E-13
 -1      2323 2.21435E+01-1.52782E-01 5.69838E-03 1.18748E+00-2.03074E-14-1.11797E-13
 -1      2324 2.23648E+01-2.90861E-01-7.96953E-03 1.11592E+00 1.99148E-14-7.33439E-14
 -1      2325 2.16068E+01-1.37446E-01-6.90155E-03 1.37912E+00-4.66675E-14-1.07718E-13
 -1      2326 2.26532E+01-4.44870E-01 9.03120E-03 1.01802E+00 1.10476E-13-4.32423E-14
 -1      2327 2.28668E+01-6.36097E-01-1.50128E-02 8.40343E-01 1.90357E-13-1.51209E-14
 -1      2328 2.20729E+01-4.85623E-01-1.04944E-02 1.28848E+00 8.71757E-14 5.14921E-14
 -1      2329 2.32420E+01-8.24847E-01 1.16517E-02 6.07465E-01 2.09029E-13 4.52000E-14
 -1      2330 2.34196E+01-1.02881E+00-2.18637E-02 3.00010E-01 2.18518E-13 1.12387E-13
 -1      2331 2.26885E+01-9.58099E-01-1.34421E-02 9.76068E-01 2.32804E-13 8.89602E-14
 -1      2332 2.38572E+01-1.18658E+00 9.60975E-03-1.01932E-01 1.66901E-13 1.51792E-13
 -1      2333 2.39558E+01-1.29231E+00-2.35705E-02-5.21623E-01 2.41807E-13 1.68483E-13
 -1      2334 2.34563E+01-1.44803E+00-1.25234E-02 3.55697E-01 2.12424E-13 2.30544E-13
 -1      2335 2.43491E+01-1.28011E+00-3.69678E-03-1.05795E+00 2.52646E-13 1.44829E-13
 -1      2336 2.43237E+01-1.11275E+00-1.34469E-02-1.48055E+00 2.41007E-13 1.38939E-13
 -1      2337 2.42773E+01-1.67391E+00-4.74053E-03-5.97677E-01 2.28018E-13 1.57678E-13
 -1      2338 2.44995E+01-7.71836E-01-2.79217E-02-1.96468E+00 1.97098E-13 6.73051E-14
 -1      2339 2.43449E+01-2.15913E-01 9.24755E-03-2.16928E+00 1.89238E-13 1.01058E-13
 -1      2340 2.49034E+01-1.22522E+00 4.41259E-03-1.69089E+00 1.98745E-13 6.81091E-14
 -1      2341 2.41745E+01 4.62182E-01-5.67639E-02-2.24217E+00 1.04562E-13 8.90997E-15
 -1      2342 2.39718E+01 1.21462E+00 1.55043E-02-1.98055E+00-1.66742E-14-4.34379E-14
 -1      2343 2.50315E+01 1.74743E-01 2.73351E-03-2.38365E+00 1.15314E-13 3.91701E-15
 -1      2344 2.36699E+01 1.84157E+00-5.45590E-02-1.39441E+00-9.04450E-14-9.26334E-14
 -1      2345 2.35618E+01 2.26524E+00-6.09147E-03-6.91447E-01-2.21271E-13-5.85088E-14
 -1      2346 2.46607E+01 1.90208E+00-3.39187E-02-1.91885E+00-1.14747E-13-8.10029E-14
 -1      2347 2.35216E+01 2.35452E+00-1.32550E-02 3.01419E-01-3.59799E-13-5.47791E-14
 -1      2348 2.35970E+01 2.07186E+00-4.50090E-02 1.06847E+00-3.67848E-13-7.17308E-14
 -1      2349 2.43862E+01 2.97669E+00-5.24899E-02-2.31938E-01-2.82135E-13 2.07334E-14
 -1      2350 2.38634E+01 1.51470E+00 1.23754E-02 1.78494E+00-3.19494E-13-1.81764E-13
 -1      2351 2.40666E+01 7.90612E-01-5.71096E-02 2.16049E+00-2.44433E-13-1.61747E-13
 -1      2352 2.45814E+01 2.30047E+00-4.58524E-02 1.61735E+00-4.10137E-13 8.04218E-14
 -1      2353 2.42885E+01 7.60231E-02 1.12835E-02 2.22224E+00-1.81560E-13-3.06338E-13
 -1      2354 2.44643E+01-5.51517E-01-3.62836E-02 2.10479E+00-1.71538E-13-2.77629E-13
 -1      2355 2.49860E+01 5.63083E-01-5.39324E-03 2.38535E+00-3.28605E-13-1.77192E-13
 -1      2356 2.43705E+01-9.76846E-01-7.72540E-03 1.68114E+00-1.60218E-13-3.06385E-13
 -1      2357 2.44208E+01-1.23013E+00-9.53557E-03 1.28316E+00-4.77474E-14-2.27263E-13
 -1      2358 2.49882E+01-9.86665E-01 9.80673E-03 1.90235E+00-1.69858E-13-3.66051E-13
 -1      2359 2.40678E+01-1.29964E+00-2.06944E-02 7.38070E-01-1.19145E-13-1.83055E-13
 -1      2360 2.39872E+01-1.24149E+00 6.48170E-03 3.03134E-01-1.75608E-13-1.85572E-13
 -1      2361 2.44531E+01-1.63995E+00 2.61938E-03 8.41958E-01-9.92978E-14-1.78785E-13
 -1      2362 2.35542E+01-1.10313E+00-2.16588E-02-1.31998E-01-1.07178E-13-2.05844E-13
 -1      2363 2.33868E+01-9.10461E-01 1.08486E-02-4.68187E-01 4.39666E-15-2.98169E-13
 -1      2364 2.36484E+01-1.52318E+00-7.27991E-03-1.66104E-01-1.74901E-13-1.08404E-13
 -1      2365 2.29987E+01-7.17462E-01-1.60641E-02-7.33587E-01 1.27965E-13-3.22791E-13
 -1      2366 2.27904E+01-5.18261E-01 9.37640E-03-9.37428E-01 1.28291E-13-2.21611E-13
 -1      2367 2.28575E+01-1.05961E+00-1.08379E-02-8.57015E-01 5.81939E-14-5.62608E-14
 -1      2368 2.24865E+01-3.51795E-01-9.24165E-03-1.05784E+00 8.23183E-14-1.29676E-13
 -1      2369 2.22684E+01-2.00271E-01 6.46754E-03-1.14736E+00 8.35196E-14-1.50181E-13
 -1      2370 2.22091E+01-5.68320E-01-9.56154E-03-1.22440E+00 1.68273E-13-1.42452E-13
 -1      2371 2.20431E+01-8.56858E-02-3.60924E-03-1.16816E+00 3.29144E-14-1.05300E-13
 -1      2372 2.18323E+01 9.77353E-03 3.87491E-03-1.17785E+00-1.32843E-14-1.67464E-13
 -1      2373 2.17170E+01-1.88521E-01-6.75105E-03-1.34860E+00 4.95185E-14-1.34517E-13
 -1      2374 2.16656E+01 7.64396E-02 2.08593E-04-1.13963E+00-3.50438E-14-8.72798E-14
 -1      2375 2.14715E+01 1.26814E-01 2.11460E-03-1.10176E+00-3.76357E-14-9.78468E-14
 -1      2376 2.13491E+01 5.45482E-02-4.38204E-03-1.31785E+00 2.32015E-14-1.58180E-13
 -1      2377 2.13450E+01 1.58558E-01 2.46317E-03-1.03369E+00-1.44623E-13-1.45488E-13
 -1      2378 2.11721E+01 1.78483E-01 1.08276E-03-9.72397E-01-9.26240E-14-2.90245E-13
 -1      2379 2.10688E+01 1.85603E-01-2.84710E-03-1.20085E+00-1.75442E-13-2.25006E-13
 -1      2380 2.10730E+01 1.88077E-01 3.56919E-03-8.93365E-01 1.99699E-13-2.95561E-13
 -1      2381 2.09231E+01 1.89816E-01 5.42141E-04-8.24484E-01 1.92517E-13-1.38554E-13
 -1      2382 2.08484E+01 2.39866E-01-1.98516E-03-1.04453E+00 2.28553E-14-1.69430E-13
 -1      2383 2.08435E+01 1.86908E-01 3.91372E-03-7.45731E-01 1.63449E-13-1.44670E-13
 -1      2384 2.07166E+01 1.79079E-01 2.90735E-04-6.78527E-01 1.94996E-13 1.58442E-14
 -1      2385 2.06704E+01 2.47548E-01-1.53462E-03-8.78458E-01 1.24158E-13-1.74297E-13
 -1      2386 2.06518E+01 1.70079E-01 3.79832E-03-6.06087E-01 2.24384E-14 2.07620E-13
 -1      2387 2.05467E+01 1.58159E-01 1.94722E-04-5.45297E-01 1.49457E-14 1.60379E-13
 -1      2388 2.05244E+01 2.30227E-01-1.29275E-03-7.19709E-01 2.04028E-13 3.06397E-14
 -1      2389 2.04938E+01 1.46993E-01 3.43573E-03-4.81846E-01-7.02368E-14 9.77113E-14
 -1      2390 2.04085E+01 1.34229E-01 1.78241E-04-4.29317E-01-1.73571E-14 1.56007E-14
 -1      2391 2.04043E+01 2.01818E-01-1.13758E-03-5.76994E-01-2.77735E-14-5.81042E-14
 -1      2392 2.03654E+01 1.23156E-01 2.96278E-03-3.75465E-01 5.07518E-14-3.50182E-14
 -1      2393 2.02975E+01 1.11342E-01 1.93252E-04-3.31319E-01 7.27286E-14-1.16963E-14
 -1      2394 2.03059E+01 1.70682E-01-1.00723E-03-4.53645E-01-8.32700E-14-1.20187E-13
 -1      2395 2.02627E+01 1.01566E-01 2.44854E-03-2.86528E-01 1.16912E-13-1.98368E-14
 -1      2396 2.02097E+01 9.17277E-02 2.31290E-04-2.49963E-01 5.22969E-14 6.46803E-14
 -1      2397 2.02259E+01 1.41490E-01-8.88966E-04-3.49728E-01 6.71509E-14-3.04604E-13
 -1      2398 2.01816E+01 8.40660E-02 1.95785E-03-2.12961E-01-5.63089E-14 1.52675E-14
 -1      2399 2.01410E+01 7.65725E-02 2.79518E-04-1.82538E-01-3.73433E-14-3.36834E-14
 -1      2400 2.01615E+01 1.17022E-01-7.28282E-04-2.63580E-01-7.41293E-14-8.13522E-14
 -1      2401 2.01185E+01 7.06464E-02 1.47884E-03-1.51800E-01-1.77296E-14-2.04082E-14
 -1      2402 2.00886E+01 6.56833E-02 5.08969E-04-1.26454E-01-5.93237E-14-9.42807E-14
 -1      2403 2.01097E+01 9.80089E-02-5.76169E-04-1.92110E-01-1.09092E-13-1.13981E-13
 -1      2404 1.04417E+01-4.27754E+00 9.23745E-02 6.64036E+00-2.70090E-13 1.02807E-13
 -1      2405 7.75531E+00-3.62945E+00 1.09943E-01 5.50434E+00-2.90379E-13 4.31322E-14
 -1      2406 1.96543E+01 8.73326E-02 2.70821E-03-1.04336E-01 9.42498E-14 5.94744E-14
 -1      2407 1.96710E+01 1.16551E-01 7.05235E-03-5.18587E-02 1.31812E-13 9.34600E-14
 -1      2408 1.96555E+01 5.12272E-02 2.19923E-03-1.88041E-01 7.71633E-14 2.85626E-14
 -1      2409 1.96372E+01 6.69718E-02 3.88330E-03-1.56719E-01 8.38478E-14 5.53889E-14
 -1      2410 1.98040E+01 1.12440E-01-3.55947E-03-1.24017E-01 1.00313E-13 1.92841E-14
 -1      2411 1.97018E+01 3.33360E-02 2.00164E-03-2.40913E-01 3.78539E-14 4.60339E-14
 -1      2412 1.96606E+01 4.06471E-02 2.08415E-03-2.20768E-01 4.33395E-14 3.81794E-14
 -1      2413 1.97928E+01 6.69357E-02-2.77028E-03-2.19847E-01 7.16063E-14 2.54206E-14
 -1      2414 1.97806E+01 2.74275E-02 1.99980E-03-2.78858E-01 5.95264E-14 2.96626E-14
 -1      2415 1.97233E+01 2.90806E-02 1.06014E-03-2.63489E-01 3.74174E-14 3.58587E-14
 -1      2416 1.98205E+01 4.52812E-02-2.12249E-03-2.83049E-01 4.07158E-14-1.91257E-14
 -1      2417 1.98848E+01 2.98251E-02 2.14072E-03-3.12710E-01 1.04318E-14 8.81428E-14
 -1      2418 1.98147E+01 2.75170E-02 4.91058E-04-2.97760E-01 5.60685E-14 8.69013E-14
 -1      2419 1.98773E+01 3.93937E-02-1.68475E-03-3.30755E-01 1.85791E-14 1.46221E-14
 -1      2420 2.00113E+01 3.80278E-02 2.38505E-03-3.50027E-01 2.07282E-14 9.36320E-14
 -1      2421 1.99293E+01 3.29612E-02 2.07465E-04-3.32466E-01 2.51507E-14 7.77017E-14
 -1      2422 1.99573E+01 4.43952E-02-1.43387E-03-3.74846E-01 2.77988E-14 6.40965E-14
 -1      2423 2.01601E+01 4.99641E-02 2.68425E-03-3.95923E-01 6.66440E-14 1.97111E-14
 -1      2424 2.00656E+01 4.31900E-02 1.08716E-04-3.73752E-01 5.09542E-14 5.11769E-14
 -1      2425 2.00577E+01 5.68588E-02-1.32670E-03-4.23617E-01 7.21699E-14 2.30055E-14
 -1      2426 2.03330E+01 6.34502E-02 2.96762E-03-4.53295E-01 1.16266E-13 1.22728E-14
 -1      2427 2.02245E+01 5.61417E-02 1.29175E-04-4.25524E-01 9.12965E-14 2.09371E-14
 -1      2428 2.01779E+01 7.38070E-02-1.32380E-03-4.82553E-01 7.24928E-14-3.47986E-14
 -1      2429 2.05330E+01 7.56639E-02 3.13013E-03-5.22558E-01-2.85741E-15 8.49570E-14
 -1      2430 2.04086E+01 6.93963E-02 2.24695E-04-4.89412E-01 6.60686E-14 5.53926E-14
 -1      2431 2.03194E+01 9.19505E-02-1.39492E-03-5.54488E-01 5.49551E-14 8.08611E-15
 -1      2432 2.07628E+01 8.25539E-02 3.01942E-03-6.00856E-01-4.68503E-14 1.20939E-13
 -1      2433 2.06212E+01 7.96253E-02 3.67616E-04-5.64238E-01-8.59772E-16 1.07507E-13
 -1      2434 2.04843E+01 1.06932E-01-1.52168E-03-6.39216E-01-3.91161E-14 2.67328E-15
 -1      2435 2.10244E+01 7.81866E-02 2.42549E-03-6.80759E-01 7.07583E-15 5.99204E-14
 -1      2436 2.08655E+01 8.19636E-02 5.46665E-04-6.44965E-01-4.24620E-14 9.29577E-14
 -1      2437 2.06760E+01 1.12487E-01-1.70288E-03-7.32564E-01-1.13926E-14 6.99456E-14
 -1      2438 2.13174E+01 5.42033E-02 1.08483E-03-7.48432E-01 6.41573E-14 4.44768E-14
 -1      2439 2.11438E+01 6.93703E-02 7.68707E-04-7.21102E-01 6.42314E-14 6.79387E-14
 -1      2440 2.08978E+01 9.95761E-02-1.95782E-03-8.24883E-01 2.61224E-14 5.30737E-14
 -1      2441 2.16380E+01-9.16649E-05-1.27963E-03-7.81599E-01 5.16446E-15 2.76117E-14
 -1      2442 2.14561E+01 3.22891E-02 1.05565E-03-7.74658E-01 2.17247E-14 9.63220E-14
 -1      2443 2.11538E+01 5.58462E-02-2.32045E-03-8.99037E-01 3.88291E-14 5.80951E-14
 -1      2444 2.19771E+01-9.58720E-02-4.84719E-03-7.48194E-01 3.93030E-14 6.55791E-15
 -1      2445 2.17984E+01-4.06121E-02 1.42260E-03-7.78178E-01 3.06242E-14 5.88097E-14
 -1      2446 2.14478E+01-3.36894E-02-2.80517E-03-9.28222E-01 6.58436E-16 2.87643E-14
 -1      2447 2.23177E+01-2.39185E-01-9.46528E-03-6.07784E-01-5.23409E-15-9.73180E-15
 -1      2448 2.21604E+01-1.59096E-01 1.80734E-03-6.94251E-01 3.05411E-14 4.75930E-14
 -1      2449 2.17827E+01-1.82900E-01-3.31003E-03-8.74664E-01 9.11597E-16 8.84879E-14
 -1      2450 2.26315E+01-4.19282E-01-1.42477E-02-3.19682E-01-1.23773E-15-6.16944E-15
 -1      2451 2.25207E+01-3.23084E-01 1.92132E-03-4.79546E-01-1.85919E-15-3.47595E-15
 -1      2452 2.21568E+01-3.94798E-01-3.42952E-03-6.91598E-01-2.02833E-15 1.41897E-13
 -1      2453 2.28743E+01-5.91067E-01-1.70699E-02 1.36728E-01 1.12610E-13-2.73906E-14
 -1      2454 2.28395E+01-5.07730E-01 1.08889E-03-9.86930E-02 4.04659E-14-3.45917E-14
 -1      2455 2.25552E+01-6.43250E-01-2.25151E-03-3.33323E-01 3.83660E-14 8.33182E-14
 -1      2456 2.29840E+01-6.61194E-01-1.47958E-02 7.25538E-01 5.84541E-14 2.10208E-13
 -1      2457 2.30518E+01-6.45211E-01-1.67522E-03 4.45744E-01 1.35713E-13 1.03478E-13
 -1      2458 2.29343E+01-8.49103E-01 1.52208E-03 2.19322E-01 2.73121E-14 7.60606E-14
 -1      2459 2.28933E+01-5.04406E-01-4.95650E-03 1.31043E+00-1.95935E-13 2.67254E-13
 -1      2460 2.30707E+01-6.20942E-01-7.58537E-03 1.06700E+00-4.73276E-15 2.54081E-13
 -1      2461 2.32078E+01-8.68955E-01 7.95157E-03 9.12129E-01-1.33632E-14 3.61805E-13
 -1      2462 2.25730E+01-4.69659E-02 1.00599E-02 1.64029E+00-2.40865E-13 1.42089E-13
 -1      2463 2.28277E+01-3.17197E-01-1.46531E-02 1.55609E+00-2.64164E-13 2.33407E-13
 -1      2464 2.32576E+01-5.42581E-01 1.27438E-02 1.56073E+00-1.95837E-13 2.96067E-13
 -1      2465 2.21115E+01 5.95983E-01 1.98698E-02 1.44434E+00-5.44634E-14 8.03051E-14
 -1      2466 2.23604E+01 2.62650E-01-1.77645E-02 1.62065E+00-1.65359E-13-1.83534E-14
 -1      2467 2.30162E+01 1.66350E-01 8.51642E-03 1.84246E+00-9.09802E-14 8.62554E-14
 -1      2468 2.17307E+01 1.10699E+00 1.50812E-02 6.50161E-01 1.46218E-13 5.35472E-14
 -1      2469 2.18744E+01 8.92538E-01-1.07289E-02 1.07421E+00 3.19519E-14 2.68743E-14
 -1      2470 2.25981E+01 1.01966E+00-7.74702E-03 1.45859E+00-8.67275E-15-8.72265E-14
 -1      2471 2.16924E+01 1.14168E+00 1.00464E-03-4.55264E-01 2.07976E-14 5.19003E-14
 -1      2472 2.16617E+01 1.19737E+00 9.08015E-03 4.12609E-02 1.02598E-13 1.47191E-14
 -1      2473 2.23011E+01 1.56013E+00-1.89039E-02 4.03371E-01 1.16048E-13-1.33260E-13
 -1      2474 2.20390E+01 6.77448E-01-1.37969E-02-1.34658E+00 9.38780E-14 1.15128E-13
 -1      2475 2.18483E+01 9.59115E-01 2.10397E-02-1.00455E+00 5.37244E-14 1.38836E-13
 -1      2476 2.23786E+01 1.42365E+00-1.48072E-02-8.52343E-01-4.76355E-15-9.46426E-14
 -1      2477 2.25528E+01 2.88744E-02-1.61301E-02-1.66565E+00 1.21378E-13 1.49426E-13
 -1      2478 2.22879E+01 3.55189E-01 1.80689E-02-1.59074E+00 1.43868E-13 1.24746E-13
 -1      2479 2.27586E+01 7.12084E-01-8.64865E-04-1.68812E+00 1.12946E-13-2.34545E-14
 -1      2480 2.29553E+01-4.60933E-01-9.79019E-03-1.41353E+00 1.17037E-13 4.14356E-14
 -1      2481 2.27179E+01-2.49316E-01 4.36996E-03-1.56713E+00 1.53991E-13 1.35688E-13
 -1      2482 2.31404E+01-1.30173E-01 1.25986E-02-1.80643E+00 1.70096E-13-1.16585E-14
 -1      2483 2.31002E+01-6.51147E-01-2.96813E-03-8.47154E-01 1.28647E-13-9.40142E-14
 -1      2484 2.29567E+01-5.93499E-01-9.39392E-03-1.10928E+00 9.23840E-14 2.04975E-14
 -1      2485 2.32752E+01-7.09906E-01 1.15907E-02-1.34804E+00 1.75261E-13 1.34759E-14
 -1      2486 2.30024E+01-6.01005E-01 1.13520E-03-2.39775E-01 9.63504E-14-1.44102E-14
 -1      2487 2.29699E+01-6.50447E-01-1.60178E-02-5.01733E-01 1.46091E-13-2.08022E-14
 -1      2488 2.31315E+01-8.92211E-01 4.85940E-03-6.55099E-01 9.48972E-14-8.44810E-14
 -1      2489 2.27454E+01-4.35442E-01 2.43829E-03 2.46151E-01 2.05623E-13-8.26268E-14
 -1      2490 2.28074E+01-5.27821E-01-1.57897E-02 4.40582E-02 9.70118E-14-1.16024E-13
 -1      2491 2.28096E+01-7.83001E-01-9.32686E-04-4.23732E-03 1.81991E-13-7.36911E-14
 -1      2492 2.24108E+01-2.52942E-01 2.33584E-03 5.59734E-01 1.69375E-13 1.18286E-13
 -1      2493 2.25377E+01-3.44140E-01-1.19434E-02 4.33470E-01 2.07894E-13 3.26239E-14
 -1      2494 2.24204E+01-5.46232E-01-3.51332E-03 4.73376E-01 1.37280E-13 5.17860E-14
 -1      2495 2.20545E+01-1.03598E-01 1.81949E-03 7.16293E-01 1.01678E-13 1.16012E-13
 -1      2496 2.22171E+01-1.73971E-01-7.22420E-03 6.56745E-01 1.83698E-13 1.66462E-13
 -1      2497 2.20338E+01-3.03020E-01-3.88716E-03 7.56827E-01 1.96668E-13 9.31327E-14
 -1      2498 2.17091E+01-1.16005E-03 1.35018E-03 7.56260E-01 1.89457E-14-3.80512E-14
 -1      2499 2.18840E+01-4.72533E-02-3.12836E-03 7.45218E-01 1.00642E-13 2.88299E-14
 -1      2500 2.16811E+01-1.10556E-01-3.32908E-03 8.78966E-01 1.42002E-13 1.40372E-14
 -1      2501 2.13916E+01 5.91856E-02 1.03513E-03 7.21521E-01-6.90803E-14-1.56527E-13
 -1      2502 2.15626E+01 3.34327E-02-1.67760E-04 7.40883E-01-8.10266E-14-3.96758E-14
 -1      2503 2.13712E+01 1.82659E-02-2.65859E-03 8.87647E-01 1.40222E-13-7.18455E-14
 -1      2504 2.11102E+01 8.83093E-02 8.53088E-04 6.45804E-01-8.96321E-14 4.45125E-14
 -1      2505 2.12674E+01 7.70446E-02 1.68652E-03 6.81258E-01-9.59176E-14-1.06844E-13
 -1      2506 2.11040E+01 9.21679E-02-2.14261E-03 8.26659E-01-1.07217E-13-5.78784E-14
 -1      2507 2.08675E+01 9.69731E-02 7.50937E-04 5.52814E-01-1.49325E-13 1.43800E-13
 -1      2508 2.10057E+01 9.48932E-02 2.66336E-03 5.94475E-01-1.29553E-13 8.59523E-14
 -1      2509 2.08763E+01 1.26166E-01-1.79796E-03 7.29498E-01-2.17372E-13 1.40529E-13
 -1      2510 2.06633E+01 9.36645E-02 6.88753E-04 4.57542E-01-1.78955E-14 3.81932E-13
 -1      2511 2.07806E+01 9.67534E-02 3.02432E-03 4.99293E-01-6.71675E-14 2.48405E-13
 -1      2512 2.06844E+01 1.34434E-01-1.56739E-03 6.19068E-01-1.40735E-13 1.28645E-13
 -1      2513 2.04949E+01 8.43558E-02 6.46290E-04 3.68429E-01 6.75985E-14 1.83068E-13
 -1      2514 2.05917E+01 8.98535E-02 2.99477E-03 4.06949E-01 5.94212E-14 2.89408E-13
 -1      2515 2.05248E+01 1.27934E-01-1.39404E-03 5.09566E-01 7.27622E-14 3.24115E-13
 -1      2516 2.03589E+01 7.29690E-02 6.13301E-04 2.89390E-01 5.06717E-14 4.10580E-13
 -1      2517 2.04368E+01 7.90927E-02 2.74308E-03 3.23269E-01 8.11001E-14 3.90222E-13
 -1      2518 2.03938E+01 1.14306E-01-1.24206E-03 4.08785E-01-2.65357E-14 3.40711E-13
 -1      2519 2.02512E+01 6.20124E-02 6.19985E-04 2.21407E-01 6.23752E-15 4.92145E-13
 -1      2520 2.03123E+01 6.76293E-02 2.38766E-03 2.50466E-01-3.47793E-14 3.42296E-13
 -1      2521 2.02878E+01 9.85252E-02-1.09494E-03 3.20128E-01 5.01590E-15 4.46499E-13
 -1      2522 2.01675E+01 5.28011E-02 5.87700E-04 1.63440E-01-7.96571E-14 6.60206E-13
 -1      2523 2.02141E+01 5.74512E-02 1.99376E-03 1.88336E-01 4.11427E-14 6.76437E-13
 -1      2524 2.02032E+01 8.36771E-02-1.02482E-03 2.44397E-01-1.30150E-14 4.17005E-13
 -1      2525 2.01040E+01 4.58997E-02 5.17440E-04 1.14037E-01 2.85403E-14 5.16879E-13
 -1      2526 2.01387E+01 4.93558E-02 1.64699E-03 1.35619E-01-6.20801E-14 5.84046E-13
 -1      2527 2.01364E+01 7.07393E-02-1.28618E-03 1.79972E-01-8.31406E-14 4.25700E-13
 -1      2528 2.00568E+01 4.11508E-02 5.31092E-04 7.18391E-02 5.01420E-14 4.99717E-13
 -1      2529 2.00819E+01 4.36166E-02 1.38635E-03 9.06875E-02 1.42879E-13 5.42777E-13
 -1      2530 2.00852E+01 6.09140E-02-1.26667E-03 1.24711E-01 8.31927E-14 4.69835E-13
 -1      2531 2.00389E+01 3.71417E-02 7.88199E-04 5.03259E-02 6.32304E-14 2.15870E-13
 -1      2532 1.99734E+01 2.21438E-01-1.06769E-03 1.06820E-01 3.07813E-13-3.91997E-14
 -1      2533 1.99847E+01 2.01583E-01 3.86364E-04 1.14840E-01 2.55995E-13-4.46245E-13
 -1      2534 1.99556E+01 2.57343E-01-1.10201E-03 7.73502E-02 2.26408E-13 1.36370E-13
 -1      2535 1.99641E+01 2.42365E-01-1.07065E-05 9.23258E-02 1.85643E-13 1.21801E-13
 -1      2536 1.99590E+01 2.44549E-01 7.17964E-04 1.16626E-01 3.17715E-13 4.24018E-16
 -1      2537 2.00189E+01 1.26971E-01-6.21772E-04 1.15823E-01 2.01957E-13-9.26041E-14
 -1      2538 2.00310E+01 1.04488E-01 9.48646E-04 1.08066E-01 3.02798E-13 1.42556E-13
 -1      2539 1.99963E+01 1.75871E-01-8.26822E-04 1.20202E-01 3.37871E-15-2.83469E-13
 -1      2540 2.00083E+01 1.54028E-01 7.41638E-04 1.19579E-01 6.28338E-14-6.37161E-14
 -1      2541 2.00155E+01 1.48501E-01-3.87065E-04 1.39384E-01 2.72311E-13-3.07603E-13
 -1      2542 1.99875E+01 1.99660E-01 5.19142E-04 1.38500E-01 2.66189E-13-1.16255E-13
 -1      2543 1.99448E+01 2.79288E-01-1.00396E-03 3.63947E-02-4.46990E-14-1.14228E-13
 -1      2544 1.99494E+01 2.71168E-01-3.99338E-04 5.60051E-02 1.04798E-13-3.83231E-14
 -1      2545 1.99377E+01 2.78037E-01 9.43316E-04 7.79670E-02 1.67778E-14-5.36905E-14
 -1      2546 1.99424E+01 2.84585E-01-7.78501E-04-1.00311E-02-5.71983E-14 5.13345E-14
 -1      2547 1.99425E+01 2.84405E-01-7.39004E-04 1.12758E-02-4.77215E-14 6.55300E-14
 -1      2548 1.99262E+01 2.96308E-01 1.07322E-03 2.79601E-02 5.46115E-14-8.43928E-14
 -1      2549 1.99487E+01 2.72516E-01-4.53657E-04-5.51216E-02-6.86416E-14-1.16377E-13
 -1      2550 1.99444E+01 2.80356E-01-9.75412E-04-3.53122E-02 4.75835E-14-8.01805E-14
 -1      2551 1.99258E+01 2.97179E-01 1.08352E-03-2.62526E-02 4.27060E-14 9.15982E-14
 -1      2552 1.99630E+01 2.45130E-01-5.10879E-05-9.16411E-02-1.48869E-14-6.05183E-14
 -1      2553 1.99547E+01 2.59617E-01-1.09770E-03-7.65452E-02-5.15391E-14-2.62231E-14
 -1      2554 1.99367E+01 2.80651E-01 9.99004E-04-7.65407E-02 1.04018E-13-6.77748E-14
 -1      2555 1.99838E+01 2.04756E-01 3.75967E-04-1.15164E-01 8.73375E-14 4.51810E-13
 -1      2556 1.99724E+01 2.24569E-01-1.08387E-03-1.06741E-01 4.95284E-14 2.14449E-14
 -1      2557 1.99576E+01 2.48466E-01 7.80211E-04-1.16022E-01 6.94565E-14 9.43509E-14
 -1      2558 2.00081E+01 1.56223E-01 6.89679E-04-1.20564E-01 2.94968E-14 1.55263E-13
 -1      2559 1.99958E+01 1.78753E-01-8.46218E-04-1.21084E-01 6.49796E-16 4.76514E-13
 -1      2560 1.99864E+01 2.03693E-01 5.31261E-04-1.39241E-01 8.58460E-14 3.02491E-13
 -1      2561 2.00314E+01 1.05079E-01 7.59710E-04-1.08180E-01-1.87287E-13-4.30258E-13
 -1      2562 2.00197E+01 1.28378E-01-5.89189E-04-1.17074E-01 1.23997E-14-9.12078E-14
 -1      2563 2.00159E+01 1.51182E-01-4.31210E-04-1.41116E-01-5.60389E-14-7.38337E-14
 -1      2564 2.00368E+01 6.04722E-02 7.50606E-04-6.92213E-02 6.40375E-14-3.39937E-13
 -1      2565 2.56755E+01-4.19595E+00-1.03529E-01 4.11783E+00 1.77192E-13-3.59102E-13
 -1      2566 2.24550E+01-5.00772E+00 4.34216E-02 5.22570E+00 1.03278E-13-1.97176E-13
 -1      2567 1.97178E+01 1.53557E-01 3.72788E-03 3.46371E-02 1.50591E-13 9.85693E-14
 -1      2568 1.97889E+01 2.06436E-01 1.24775E-02 1.25217E-01 1.66875E-13 1.14938E-13
 -1      2569 1.98684E+01 1.96806E-01-4.16288E-03 2.99384E-02 1.56662E-13 5.33835E-14
 -1      2570 2.99084E+01-1.18992E+00-1.06500E-01 1.19401E+00 1.88039E-13 1.75415E-14
 -1      2571 2.82187E+01-2.64211E+00-1.92906E-02 2.00594E+00 2.16389E-13-1.77247E-13
 -1      2572 6.41964E+00-3.65026E+00 6.80405E-02-4.80883E+00 4.14113E-14 7.93809E-14
 -1      2573 9.54252E+00-4.40179E+00 3.63946E-02-6.30900E+00 1.60760E-13-3.40561E-14
 -1      2574 2.67723E+01-3.90847E+00-2.16998E-02-2.95726E+00-1.17059E-13-2.21323E-13
 -1      2575 2.93883E+01-2.21977E+00-9.85100E-03-1.95206E+00-2.93016E-13-4.44283E-13
 -1      2576 3.35157E+01 7.37074E+00-4.10615E-02-1.26165E-01-4.40759E-13-3.73564E-13
 -1      2577 3.20009E+01 6.78903E+00-1.45078E-01-6.58113E-01-3.48888E-13-4.87999E-13
 -1      2578 1.95338E+01 3.60698E+00-1.01596E-02-2.41848E-01 5.10188E-14-4.01226E-13
 -1      2579 1.95498E+01 3.58558E+00-9.66315E-03-4.20657E-01 1.77439E-14-4.14015E-13
 -1      2580 1.97247E+01 3.18925E+00-4.18884E-04-4.65752E-01 7.82485E-15-3.86459E-13
 -1      2581 1.96902E+01 3.25135E+00-7.20601E-04-1.49366E-01 4.91358E-14-3.76669E-13
 -1      2582 3.32009E+01 7.18697E+00-3.75513E-02 5.00985E-01 5.43676E-13 1.45522E-13
 -1      2583 3.24352E+01 7.56066E+00-1.27421E-01 1.66387E-01 3.06699E-13 1.24296E-13
 -1      2584 1.95969E+01-5.54053E+00 1.66068E-02-5.91850E+00 3.10307E-13 7.29139E-14
 -1      2585 2.33320E+01-5.17748E+00-6.16665E-02-4.91023E+00 2.09582E-13-1.88655E-13
 -1      2586 3.20763E+01 6.88369E+00-1.61873E-01-7.23204E-01 2.10942E-14 1.45273E-13
 -1      2587 3.21924E+01 5.67841E+00-7.21693E-02-9.80726E-01-2.87548E-14 1.73001E-13
 -1      2588 3.23384E+01 4.35383E+00-6.02558E-02 6.97179E-01 6.18533E-13 2.48912E-13
 -1      2589 3.30383E+01 5.91543E+00-1.01011E-01 7.20028E-01 6.45595E-13 3.34538E-13
 -1      2590 3.02702E+01-2.42557E-01-4.95955E-02-8.69754E-01 3.73784E-13 2.17659E-13
 -1      2591 3.17781E+01 1.78572E+00-1.13741E-01 8.20585E-03 4.14085E-13 2.94487E-13
 -1      2592 2.62756E+01-3.75887E+00-1.93655E-04-3.40069E+00 2.51479E-13 1.64896E-13
 -1      2593 2.87951E+01-2.32174E+00-8.23158E-02-2.42024E+00 3.96128E-13 2.25819E-13
 -1      2594 1.91841E+01-5.39570E+00 1.07598E-02-6.16619E+00-1.21791E-13-3.80057E-13
 -1      2595 2.28828E+01-4.92886E+00-7.36447E-02-5.40889E+00 3.37230E-14-1.11036E-13
 -1      2596 1.21368E+01-4.88913E+00 5.23467E-02-6.69281E+00-2.11497E-13-6.86867E-13
 -1      2597 1.57707E+01-5.19813E+00 8.23153E-03-7.00221E+00-1.66311E-13-6.01783E-13
 -1      2598 1.88249E+01-5.24152E+00 9.33107E-02-6.23588E+00-2.86493E-13-3.35945E-13
 -1      2599 6.10711E+00-3.22707E+00 1.03193E-01-4.49212E+00-1.92207E-13-8.05717E-13
 -1      2600 8.79776E+00-3.70153E+00 8.44872E-02-6.07779E+00-1.54821E-13-8.04384E-13
 -1      2601 3.63230E+00-2.20826E+00 1.29415E-01-1.99522E-01-1.28507E-13-8.19012E-13
 -1      2602 4.20792E+00-2.62289E+00 9.73352E-02-2.78205E+00-1.27204E-13-8.81628E-13
 -1      2603 7.27091E+00-1.74151E+00 1.55795E-01-3.58940E+00-1.42164E-13-8.09658E-13
 -1      2604 5.43588E+00-3.51628E+00 3.80286E-02 4.44615E+00-1.04833E-13-6.19060E-13
 -1      2605 3.76189E+00-2.89256E+00 6.22889E-02 2.41224E+00 7.39686E-15-7.11042E-13
 -1      2606 1.18487E+01-4.73714E+00-3.14616E-02 6.79083E+00-2.21101E-13-2.26180E-13
 -1      2607 8.30777E+00-4.19386E+00 7.13838E-02 5.65125E+00-1.11133E-13-4.39065E-13
 -1      2608 2.11916E+01-5.40214E+00-4.00763E-02 5.76240E+00-4.23606E-13 1.22194E-14
 -1      2609 1.67599E+01-5.41184E+00 7.51076E-02 6.41763E+00-2.88214E-13-9.29534E-14
 -1      2610 2.79769E+01-3.23573E+00-2.48177E-02 3.10776E+00-5.09759E-13-2.70173E-13
 -1      2611 2.51382E+01-4.56191E+00-9.54199E-03 3.97514E+00-5.73874E-13-1.59928E-13
 -1      2612 3.07432E+01-3.04235E-01-1.87546E-01 1.59034E-01-3.33608E-13-4.66766E-13
 -1      2613 2.94250E+01-1.80052E+00-4.01664E-02 1.50816E+00-4.25378E-13-3.29847E-13
 -1      2614 2.85875E+01-2.97891E+00-2.80010E-02 1.13459E+00-4.01516E-13-2.76806E-13
 -1      2615 3.16292E+01 4.49130E+00-1.73261E-01-1.47843E+00-2.54685E-13-4.80088E-13
 -1      2616 3.14306E+01 2.19508E+00-4.92828E-02-1.03173E+00-2.87020E-13-5.49949E-13
 -1      2617 3.34133E+01 6.76940E+00-7.56248E-02 6.51477E-01-4.99600E-13-4.45033E-13
 -1      2618 3.35027E+01 7.22724E+00-1.19651E-01 3.02088E-01-4.64684E-13-4.66242E-13
 -1      2619 3.08388E+01 7.01359E+00-6.31284E-02 1.57178E-01-4.46310E-13-4.36214E-13
 -1      2620 3.22573E+01 3.30137E+00-8.15604E-02 7.57793E-01-2.76390E-13-4.17111E-13
 -1      2621 3.35043E+01 5.26583E+00-8.01786E-02 8.32673E-01-4.25493E-13-4.49141E-13
 -1      2622 3.12283E+01 5.60287E+00-4.13359E-02 1.35797E+00-4.70568E-13-5.52364E-13
 -1      2623 3.02858E+01-9.53501E-01-6.96117E-02-7.48894E-01-3.08356E-13-4.38982E-13
 -1      2624 3.13839E+01 5.73014E-01-1.33933E-01 7.61726E-02-2.36505E-13-3.54494E-13
 -1      2625 2.92615E+01-2.20142E+00-6.12912E-03-2.24004E-01-2.54480E-13-2.38198E-13
 -1      2626 1.28000E+01-5.11339E+00 3.20354E-02-6.58395E+00 2.38420E-13 2.59764E-13
 -1      2627 1.59977E+01-5.31491E+00-1.18533E-02-6.82998E+00 3.36786E-13 2.73837E-13
 -1      2628 1.91106E+01-5.26283E+00 1.05645E-01-6.02835E+00 3.43170E-13 2.10335E-14
 -1      2629 1.25476E+01-4.17992E+00 1.03167E-01-6.37393E+00 2.91128E-13-1.65423E-14
 -1      2630 3.73529E+00-2.37051E+00 1.37451E-01-1.24104E+00-1.30583E-13 6.37268E-13
 -1      2631 4.54770E+00-2.74109E+00 9.65448E-02-3.14954E+00-4.40481E-14 4.24216E-13
 -1      2632 2.05404E+01 1.95728E+00-1.35861E-02-1.89255E+00-2.51979E-13-1.83497E-13
 -1      2633 2.04048E+01 1.22026E+00-6.20878E-03-1.27725E+00-2.26397E-13-1.59844E-13
 -1      2634 2.03740E+01 1.38196E+00 3.77721E-03-1.21817E+00-2.05055E-13-2.11095E-13
 -1      2635 2.02861E+01 2.36783E+00-7.85280E-03-1.81600E+00-2.24343E-13-2.51134E-13
 -1      2636 2.04769E+01 8.76547E-01-7.13111E-03 1.21916E+00 2.85445E-13 2.57805E-13
 -1      2637 2.08250E+01 1.25753E+00-5.98302E-03 1.72048E+00 3.02012E-13 3.10446E-13
 -1      2638 2.06352E+01 1.71630E+00-1.57940E-02 1.91360E+00 3.24617E-13 1.91111E-13
 -1      2639 2.04424E+01 1.06121E+00-9.47678E-03 1.23076E+00 3.01269E-13 1.34224E-13
 -1      2640 2.91270E+01 6.83044E+00-1.39803E-01 9.65584E-03 2.94181E-13-2.24508E-13
 -1      2641 3.09205E+01 6.95449E+00-1.20100E-01-3.95066E-01 9.95037E-14-8.16014E-14
 -1      2642 2.88530E+01 6.15577E+00-1.29277E-01-9.80567E-01 6.88338E-15-4.25632E-13
 -1      2643 1.99231E+01 2.82956E+00 1.21595E-03-1.08537E+00-9.89485E-14-3.83247E-13
 -1      2644 1.97928E+01 3.17270E+00-1.48305E-02-1.27489E+00-1.10710E-13-4.06480E-13
 -1      2645 1.98870E+01 3.03494E+00-1.70739E-02-1.46424E+00-1.50331E-13-3.86236E-13
 -1      2646 2.00022E+01 3.50756E-01-3.80155E-03 2.81082E-01 2.09256E-13 6.14812E-14
 -1      2647 2.04174E+01 2.11762E+00-1.27106E-02 1.86545E+00 3.32828E-13 5.80612E-14
 -1      2648 4.91938E+00-1.64544E+00 1.50585E-01-3.48771E-02-2.58639E-13 5.41567E-13
 -1      2649 2.96910E+01-3.87239E-01-3.92145E-02-5.35327E-01 3.13916E-14 1.98813E-13
 -1      2650 3.07893E+01 1.55531E+00-3.68806E-02 1.39022E+00-3.07587E-13-3.61738E-13
 -1      2651 7.13648E+00-2.74429E+00 1.25159E-01 4.60290E+00-3.65055E-13 7.20257E-14
 -1      2652 6.82761E+00-1.47434E+00 1.50508E-01 3.43763E+00-4.32238E-13 2.06696E-13
 -1      2653 9.76190E+00-2.35927E+00 8.68617E-02 5.20418E+00-4.62699E-13-1.75138E-14
 -1      2654 2.10120E+01-5.26698E+00 9.64243E-02 5.75575E+00-2.12053E-14-1.50588E-13
 -1      2655 1.35942E+01-4.54674E+00 5.69035E-02 6.56243E+00-3.94740E-13 2.00950E-14
 -1      2656 2.69795E+01-3.81120E+00 1.53562E-02 2.43463E+00 2.34673E-13-6.84175E-14
 -1      2657 2.00452E+01 5.49361E-02 2.99459E-05 7.70377E-02 1.71720E-13 3.06456E-13
 -1      2658 7.36126E+00-2.34436E+00 1.38361E-01-4.12051E+00 1.15352E-13 9.37861E-14
 -1      2659 2.00433E+01 7.20187E-02-5.87229E-05 9.05498E-02 2.99280E-13 3.71934E-13
 -1      2660 2.00564E+01 5.81755E-02 8.03560E-04-8.80245E-02 4.17714E-14-1.74308E-13
 -1      2661 2.00419E+01 8.24959E-02-5.33221E-04-1.00982E-01-9.69231E-14-3.97986E-13
 -1      2662 2.00493E+01 1.03333E-01 4.81188E-04-1.29626E-01-2.16658E-13-3.10449E-13
 -1      2663 2.00768E+01 6.25968E-02 1.36863E-03-1.08127E-01-1.28532E-13-5.56192E-14
 -1      2664 3.02323E+01 5.63201E-01-4.17476E-03-1.37867E+00-2.38823E-13-4.10338E-13
 -1      2665 2.04346E+01 1.81259E+00 1.25271E-02 1.55099E+00 3.04544E-13 2.60651E-14
 -1      2666 2.00519E+01 9.10360E-02 7.55307E-04 1.18931E-01 3.22750E-13 2.50443E-13
 -1      2667 2.37140E+01-5.21285E+00 3.89230E-02 4.46137E+00-4.14446E-13-2.41057E-14
 -1      2668 2.21752E+01-5.24164E+00 7.74781E-02 4.83323E+00-1.84658E-13-1.56151E-14
 -1      2669 2.54468E+01-4.94376E+00-7.71021E-02 3.00853E+00-2.94570E-13-1.06651E-13
 -1      2670 1.58054E+01-4.65836E+00 1.39041E-01 6.34301E+00-1.12188E-13-7.47458E-14
 -1      2671 2.90094E+01 5.67152E+00-1.82977E-01-1.34137E+00-3.92325E-13-3.21153E-13
 -1      2672 3.07054E+01 5.20593E+00-1.42326E-01-1.53033E+00-3.09947E-13-3.72119E-13
 -1      2673 2.89497E+01 3.67927E+00-6.98808E-02-2.07290E+00-3.27349E-13-2.98095E-13
 -1      2674 5.39811E+00-1.55283E+00 1.54866E-01 9.74798E-01-3.40405E-14-6.64246E-13
 -1      2675 1.21839E+01-3.74352E+00 1.11161E-01-6.22304E+00-3.37869E-13-6.09124E-13
 -1      2676 2.51009E+01-4.70351E+00 3.83413E-02-3.79173E+00 8.35720E-14 6.10206E-14
 -1      2677 2.92181E+01-1.72514E+00 2.98939E-03-5.43777E-01 2.92521E-13 3.17052E-13
 -1      2678 3.07313E+01 2.62978E+00-2.38520E-02 1.27122E+00 4.66904E-13 3.27044E-13
 -1      2679 2.55585E+01-4.77707E+00 2.79207E-02-3.44224E+00 1.15519E-13-1.58373E-13
 -1      2680 2.67702E+01-4.36777E+00-1.14815E-01-1.77723E+00 3.90590E-14-1.19446E-13
 -1      2681 2.41146E+01-5.10119E+00 7.67329E-02-3.84744E+00 2.79679E-13-3.51386E-14
 -1      2682 3.03579E+01 4.00985E+00-5.07386E-02-1.57743E+00-2.52576E-14 5.12923E-14
 -1      2683 1.99925E+01 2.84610E+00-1.51464E-02-1.57475E+00-1.72613E-13-3.59733E-13
 -1      2684 2.01343E+01 2.61882E+00-2.19213E-02-1.74170E+00-2.13127E-13-3.22341E-13
 -1      2685 2.02826E+01 2.05704E+00 1.42670E-03-1.47275E+00-2.15449E-13-2.73953E-13
 -1      2686 2.00904E+01 2.50403E+00 2.64933E-03-1.32770E+00-1.56961E-13-3.45601E-13
 -1      2687 3.08963E+01 6.20750E+00-5.49211E-02 1.10539E+00 5.22582E-13 1.47160E-13
 -1      2688 8.59597E+00-2.96279E+00 1.47977E-01 5.10764E+00 2.82552E-14-5.34572E-13
 -1      2689 2.00743E+01 8.41986E-02-8.56651E-04-1.40664E-01-1.35289E-13-1.47487E-13
 -1      2690 1.98556E+01 2.79541E+00-6.28140E-03 5.05695E-01 1.58338E-13-3.00579E-13
 -1      2691 1.98304E+01 2.84660E+00-5.83897E-03 3.57294E-01 1.35411E-13-3.16935E-13
 -1      2692 1.98132E+01 2.88576E+00-5.65617E-03 2.25088E-01 1.15552E-13-3.41819E-13
 -1      2693 1.98045E+01 2.90319E+00-5.53071E-03 7.33985E-02 8.62591E-14-3.30370E-13
 -1      2694 1.99576E+01 2.54071E+00 3.87278E-03 2.57647E-01 1.14737E-13-3.12458E-13
 -1      2695 2.00542E+01 2.34267E+00-1.06233E-02 1.02901E+00 2.48497E-13-1.93521E-13
 -1      2696 1.99903E+01 2.49426E+00-6.50796E-03 8.94046E-01 2.32329E-13-2.23596E-13
 -1      2697 2.02237E+01 1.92064E+00-1.18717E-02 1.21099E+00 2.72731E-13-1.02342E-13
 -1      2698 2.01335E+01 2.16095E+00-4.96014E-03 1.11723E+00 2.56513E-13-1.47728E-13
 -1      2699 2.01993E+01 1.90750E+00 6.53944E-03 9.06734E-01 2.32659E-13-1.51757E-13
 -1      2700 2.02180E+01 7.38034E-01-3.18286E-03 6.23080E-01 2.50017E-13 3.83336E-14
 -1      2701 2.03563E+01 9.60245E-01 9.18810E-03 8.90201E-01 2.64643E-13 4.58769E-14
 -1      2702 2.00424E+01 1.30801E-01-2.16009E-04 1.63789E-01 1.31252E-13-1.75681E-14
 -1      2703 2.00641E+01 9.89607E-02 5.93021E-04 1.46991E-01 7.75866E-14 3.55938E-13
 -1      2704 2.00873E+01 1.05368E-01 1.61580E-03 1.74181E-01-6.26893E-14 4.21718E-13
 -1      2705 2.00829E+01 4.33114E-01-1.21703E-03 2.58068E-01 2.07273E-13 4.72743E-14
 -1      2706 2.01789E+01 5.68071E-01 1.04408E-02 4.26279E-01 2.32045E-13 5.73239E-14
 -1      2707 2.02624E+01 8.38130E-01 6.21941E-04 5.92323E-01 2.34768E-13 8.32052E-15
 -1      2708 2.03388E+01 1.50675E+00-1.75574E-03 1.25373E+00 2.88596E-13 2.16493E-15
 -1      2709 2.02280E+01 6.47722E-01 8.48224E-03-4.07262E-01-1.13909E-13-2.02604E-13
 -1      2710 2.01486E+01 4.99898E-01-2.96587E-03-2.42470E-01-1.00603E-13-1.86107E-13
 -1      2711 2.01249E+01 3.91855E-01 6.43775E-03-1.14795E-01-1.06617E-13-1.57982E-13
 -1      2712 2.00729E+01 3.03160E-01-1.23392E-03-8.02476E-03-9.47154E-14-1.48533E-13
 -1      2713 2.02115E+01 5.62331E-01-1.80753E-03-2.18331E-01-1.14667E-13-1.85302E-13
 -1      2714 2.00499E+01 2.39194E-01 4.30703E-03 7.85229E-02-8.38488E-14-1.29569E-13
 -1      2715 2.00239E+01 1.87341E-01-1.25719E-04 1.47694E-01-8.43854E-14-1.29300E-13
 -1      2716 2.01491E+01 3.46625E-01-2.26320E-03 8.04862E-03-8.91842E-14-1.74540E-13
 -1      2717 2.00069E+01 1.51172E-01 2.61075E-03 2.06345E-01-1.06980E-13-1.41698E-13
 -1      2718 2.00018E+01 1.23591E-01 6.16583E-04 2.52770E-01-1.06225E-13-1.66815E-13
 -1      2719 2.01011E+01 2.18695E-01-2.10576E-03 1.62832E-01-1.02315E-13-1.76077E-13
 -1      2720 1.99917E+01 1.06071E-01 1.35363E-03 2.94571E-01-8.33074E-14-1.67150E-13
 -1      2721 2.00030E+01 9.53218E-02 1.15414E-03 3.28868E-01-6.21813E-14-1.81434E-13
 -1      2722 2.00708E+01 1.49271E-01-1.75438E-03 2.70633E-01-1.04931E-13-1.51525E-13
 -1      2723 1.99991E+01 9.10088E-02 4.32190E-04 3.62422E-01-4.73862E-14-1.81770E-13
 -1      2724 2.00231E+01 9.24788E-02 1.58892E-03 3.92299E-01-8.15562E-14-1.52619E-13
 -1      2725 2.00566E+01 1.20573E-01-1.38911E-03 3.51619E-01-5.12885E-14-1.79337E-13
 -1      2726 2.00243E+01 9.78999E-02-2.47903E-04 4.24217E-01-1.11148E-13-8.75106E-14
 -1      2727 2.00591E+01 1.08504E-01 1.97751E-03 4.55368E-01-8.35405E-14-4.82776E-14
 -1      2728 2.00559E+01 1.21391E-01-1.07244E-03 4.21507E-01-5.46725E-14-6.19393E-14
 -1      2729 2.00642E+01 1.21197E-01-7.57284E-04 4.90705E-01-8.11462E-14-1.74741E-15
 -1      2730 2.01085E+01 1.38593E-01 2.34584E-03 5.27335E-01-3.88765E-14-2.07587E-14
 -1      2731 2.00659E+01 1.44159E-01-8.09782E-04 4.92374E-01-5.46191E-14 2.05352E-14
 -1      2732 2.01169E+01 1.56491E-01-1.14268E-03 5.69883E-01-7.07317E-14-6.05936E-14
 -1      2733 2.01705E+01 1.78491E-01 2.69770E-03 6.14954E-01-6.41381E-14-8.70718E-14
 -1      2734 2.00842E+01 1.83091E-01-5.92400E-04 5.73362E-01-8.44994E-14 2.78255E-15
 -1      2735 2.01814E+01 1.99376E-01-1.42240E-03 6.67387E-01-4.58415E-14-1.03694E-13
 -1      2736 2.02447E+01 2.23344E-01 3.01895E-03 7.22615E-01-4.73230E-14-1.03724E-13
 -1      2737 2.01093E+01 2.32778E-01-4.17214E-04 6.71135E-01-7.01917E-14-7.60212E-14
 -1      2738 2.02584E+01 2.44226E-01-1.57823E-03 7.86455E-01-4.92032E-14-1.19632E-13
 -1      2739 2.03324E+01 2.66336E-01 3.28003E-03 8.52044E-01-3.67101E-14-1.07987E-13
 -1      2740 2.01403E+01 2.86786E-01-3.02497E-04 7.90031E-01-4.05402E-14-8.95064E-15
 -1      2741 2.03500E+01 2.82639E-01-1.54071E-03 9.27428E-01-1.79595E-14-8.23180E-14
 -1      2742 2.04365E+01 2.96882E-01 3.43664E-03 1.00150E+00-2.14827E-14-8.46314E-14
 -1      2743 2.01778E+01 3.35932E-01-3.11377E-04 9.31861E-01-1.05361E-14-5.59020E-14
 -1      2744 2.04616E+01 3.01371E-01-1.16531E-03 1.08671E+00-4.39266E-14-6.79317E-14
 -1      2745 2.05636E+01 2.98291E-01 3.42727E-03 1.16437E+00-6.15710E-14-4.02400E-14
 -1      2746 2.02254E+01 3.66047E-01-5.87263E-04 1.09536E+00-3.04685E-14-9.21744E-14
 -1      2747 2.06037E+01 2.79787E-01-1.97887E-04 1.25500E+00-7.09246E-14-5.98399E-14
 -1      2748 2.07268E+01 2.45100E-01 3.15785E-03 1.32698E+00-4.98594E-14-1.00331E-13
 -1      2749 2.02918E+01 3.55135E-01-1.40205E-03 1.27514E+00-6.04878E-14-7.08253E-14
 -1      2750 2.07965E+01 1.87391E-01 1.76564E-03 1.41451E+00 6.71216E-15-9.62266E-14
 -1      2751 2.09501E+01 1.01208E-01 2.44770E-03 1.46530E+00 6.15488E-15-7.27337E-14
 -1      2752 2.03958E+01 2.70317E-01-3.20671E-03 1.45994E+00-6.53217E-14-5.77915E-14
 -1      2753 2.10749E+01-1.66456E-02 5.29484E-03 1.53455E+00 2.36743E-14-4.30374E-14
 -1      2754 2.12732E+01-1.78020E-01 9.27261E-04 1.54012E+00 4.46886E-14 2.09136E-14
 -1      2755 2.05722E+01 6.61005E-02-6.63521E-03 1.62929E+00 8.06602E-14 5.09025E-14
 -1      2756 2.14936E+01-3.76973E-01 1.10493E-02 1.56452E+00 1.15029E-13 1.58456E-13
 -1      2757 2.17531E+01-6.32685E-01-2.50178E-03 1.49046E+00 1.67959E-13 2.06499E-13
 -1      2758 2.08804E+01-3.11766E-01-1.23285E-02 1.74697E+00 1.45649E-13 1.04062E-13
 -1      2759 2.21242E+01-9.18673E-01 1.87969E-02 1.42253E+00 1.44378E-13 1.93926E-13
 -1      2760 2.24530E+01-1.25465E+00-8.21864E-03 1.22430E+00 2.21862E-13 1.62993E-13
 -1      2761 2.14102E+01-9.08241E-01-2.07916E-02 1.74775E+00 1.46296E-13 2.46041E-13
 -1      2762 2.30218E+01-1.58517E+00 2.67865E-02 9.96399E-01 2.26450E-13 1.15893E-13
 -1      2763 2.33988E+01-1.91990E+00-1.77350E-02 6.34471E-01 1.88298E-13 1.23102E-13
 -1      2764 2.22669E+01-1.69553E+00-2.96909E-02 1.51757E+00 1.91109E-13 1.38748E-13
 -1      2765 2.41535E+01-2.14857E+00 2.49530E-02 1.54075E-01 2.23389E-13 1.22495E-13
 -1      2766 2.44982E+01-2.24368E+00-2.62579E-02-3.63404E-01 2.15722E-13 1.51955E-13
 -1      2767 2.35213E+01-2.46913E+00-3.08744E-02 8.95706E-01 2.39289E-13 8.45339E-14
 -1      2768 2.52483E+01-2.06547E+00-4.40239E-03-1.07620E+00 1.03745E-13 1.18322E-13
 -1      2769 2.54477E+01-1.58507E+00-2.29090E-02-1.58156E+00 6.46557E-14 7.32314E-15
 -1      2770 2.50083E+01-2.68428E+00-3.85481E-02-2.84379E-01 1.06511E-13 7.75404E-14
 -1      2771 2.59049E+01-7.58000E-01-6.39255E-02-2.25385E+00 6.61242E-14-5.77264E-14
 -1      2772 2.58208E+01 4.65983E-01-1.01905E-02-2.42075E+00-2.09555E-15-2.46556E-14
 -1      2773 2.63511E+01-1.53252E+00-6.13837E-02-1.77365E+00-9.99201E-16-2.90636E-14
 -1      2774 2.62095E+01 2.39187E+00-1.26843E-01-2.26892E+00-1.18523E-13-1.18728E-13
 -1      2775 2.60501E+01 3.65663E+00-7.16541E-02-1.67797E+00-2.16924E-13-1.42702E-13
 -1      2776 2.53393E+01 3.44388E+00-5.73688E-02 1.42050E+00-4.43812E-13-1.53003E-13
 -1      2777 2.54960E+01 2.35427E+00-1.24768E-01 2.11692E+00-4.87589E-13-2.67392E-13
 -1      2778 2.56931E+01 1.10076E+00-1.56769E-02 2.44291E+00-3.96232E-13-2.91371E-13
 -1      2779 2.57681E+01-2.18660E-01-8.45308E-02 2.41057E+00-3.34283E-13-3.41380E-13
 -1      2780 2.65757E+01 2.00859E+00-6.36517E-02 2.41615E+00-4.67307E-13-4.70284E-13
 -1      2781 2.55280E+01-1.15439E+00-1.46937E-02 1.91220E+00-2.34686E-13-2.33489E-13
 -1      2782 2.53764E+01-1.83276E+00-1.98387E-02 1.42692E+00-1.05795E-13-2.61263E-13
 -1      2783 2.63419E+01-8.59150E-01-2.11739E-02 2.07008E+00-2.02172E-13-3.64889E-13
 -1      2784 2.47297E+01-2.11827E+00-2.28834E-02 7.14428E-01-3.63654E-14-1.46249E-13
 -1      2785 2.44039E+01-2.14122E+00 1.60516E-02 1.68079E-01-5.04026E-14-9.04207E-14
 -1      2786 2.53142E+01-2.37084E+00-1.25072E-02 7.42568E-01 9.12508E-15-1.60297E-13
 -1      2787 2.36729E+01-1.98108E+00-2.06910E-02-3.65781E-01-1.53974E-13 1.35001E-14
 -1      2788 2.32994E+01-1.68398E+00 2.41243E-02-7.69120E-01-1.08486E-13 7.77538E-14
 -1      2789 2.39162E+01-2.43343E+00-1.93309E-02-5.02653E-01-6.16529E-14-1.04195E-13
 -1      2790 2.27036E+01-1.37724E+00-1.36580E-02-1.05792E+00 2.07889E-14 1.20343E-13
 -1      2791 2.23703E+01-1.03112E+00 1.89753E-02-1.28962E+00 1.46175E-13 1.02165E-13
 -1      2792 2.26543E+01-1.79049E+00-2.30325E-02-1.26612E+00 9.99309E-16 8.30967E-14
 -1      2793 2.19603E+01-7.43331E-01-6.99460E-03-1.39944E+00 5.87403E-14 5.01723E-14
 -1      2794 2.16947E+01-4.63796E-01 1.22075E-02-1.49456E+00 1.02872E-13-7.09612E-14
 -1      2795 2.17340E+01-1.02626E+00-1.84686E-02-1.60627E+00 2.49378E-14 3.95419E-14
 -1      2796 2.14396E+01-2.54872E-01-2.26159E-03-1.49475E+00 2.41933E-14-1.49045E-13
 -1      2797 2.12364E+01-6.92905E-02 6.65829E-03-1.49957E+00-3.96197E-14-1.39204E-13
 -1      2798 2.11362E+01-4.07172E-01-1.18666E-02-1.67449E+00 1.23262E-14-8.23620E-14
 -1      2799 2.10852E+01 5.92612E-02 4.06427E-04-1.44144E+00-5.05143E-16-2.76044E-13
 -1      2800 2.09290E+01 1.64955E-01 3.00337E-03-1.39315E+00-1.52270E-14-3.38039E-13
 -1      2801 2.07718E+01 5.05977E-03-6.78557E-03-1.59196E+00-3.47699E-14-3.18971E-13
 -1      2802 2.08403E+01 2.31542E-01 1.85136E-03-1.30770E+00-1.09705E-13-2.68518E-13
 -1      2803 2.07169E+01 2.80670E-01 8.37284E-04-1.23256E+00-1.43082E-13-2.29323E-13
 -1      2804 2.05533E+01 2.40763E-01-3.54335E-03-1.43460E+00-3.05747E-14-3.47781E-13
 -1      2805 2.06632E+01 3.05983E-01 2.56564E-03-1.13809E+00-6.68560E-14-2.21760E-13
 -1      2806 2.05627E+01 3.19425E-01-3.26908E-04-1.05330E+00 1.08803E-13-2.29294E-13
 -1      2807 2.04187E+01 3.50907E-01-1.73726E-03-1.24672E+00-6.92490E-14-8.13658E-14
 -1      2808 2.05278E+01 3.20131E-01 2.83133E-03-9.60347E-01 1.05422E-13-2.46317E-13
 -1      2809 2.04446E+01 3.13299E-01-8.65939E-04-8.76379E-01 1.82383E-13-1.42604E-13
 -1      2810 2.03298E+01 3.81415E-01-8.46491E-04-1.05413E+00 9.46912E-14-1.91717E-13
 -1      2811 2.04195E+01 3.01013E-01 2.81592E-03-7.90708E-01 2.26657E-13-5.88015E-14
 -1      2812 2.03501E+01 2.84170E-01-1.04089E-03-7.13361E-01 1.48767E-13-7.01153E-14
 -1      2813 2.02655E+01 3.66403E-01-4.62723E-04-8.71550E-01 2.15592E-13-3.24237E-13
 -1      2814 2.03306E+01 2.66312E-01 2.62732E-03-6.37702E-01 1.95523E-14-2.14508E-13
 -1      2815 2.02730E+01 2.45848E-01-1.01641E-03-5.69656E-01-9.26649E-14-3.39083E-13
 -1      2816 2.02149E+01 3.28750E-01-3.26225E-04-7.06787E-01 1.00029E-14-5.18899E-13
 -1      2817 2.02568E+01 2.26864E-01 2.34239E-03-5.04825E-01-1.03245E-13-2.42888E-13
 -1      2818 2.02093E+01 2.06551E-01-8.86927E-04-4.46775E-01 3.94847E-14-2.60842E-13
 -1      2819 2.01728E+01 2.82781E-01-2.86702E-04-5.63150E-01-3.30483E-14-4.34009E-13
 -1      2820 2.01954E+01 1.88928E-01 2.00112E-03-3.92347E-01 3.13731E-14-1.87243E-13
 -1      2821 2.01569E+01 1.70736E-01-7.47218E-04-3.43799E-01-5.86150E-15-1.48793E-13
 -1      2822 2.01369E+01 2.37023E-01-2.58562E-04-4.41020E-01 2.38461E-15-1.93765E-13
 -1      2823 2.01446E+01 1.55612E-01 1.51570E-03-2.98922E-01-9.50488E-14-2.26315E-13
 -1      2824 2.01136E+01 1.41342E-01-5.76452E-04-2.58975E-01-1.45007E-13-3.05550E-13
 -1      2825 2.01060E+01 1.96104E-01-2.27743E-04-3.39032E-01-3.26040E-14-1.48543E-13
 -1      2826 2.01024E+01 1.29672E-01 1.23618E-03-2.21162E-01-1.74947E-13-2.18475E-13
 -1      2827 2.00786E+01 1.18487E-01-1.20787E-04-1.88253E-01-5.11717E-14-2.59409E-13
 -1      2828 2.00791E+01 1.64113E-01 3.63917E-04-2.54957E-01-1.39856E-13-4.20385E-13
 -1      2829 2.79952E+01 7.48455E-01-2.32269E-01-2.26151E+00-1.37279E-13-1.48860E-13
 -1      2830 2.83937E+01-9.16175E-01-2.54525E-02-1.66977E+00-1.21902E-13-1.97745E-13
 -1      2831 1.99314E+01 1.54499E-01 4.44212E-04-1.35746E-01 9.55717E-14 4.66559E-14
 -1      2832 1.99565E+01 2.00476E-01 5.09553E-03-6.96229E-02 1.19746E-13 5.59488E-14
 -1      2833 1.99671E+01 6.46232E-02 1.66787E-03-3.61166E-01-1.30887E-14 5.13229E-14
 -1      2834 1.99333E+01 6.55074E-02 6.65495E-04-3.36348E-01 3.26723E-15 2.95520E-14
 -1      2835 2.00248E+01 7.28112E-02 1.97713E-03-4.13609E-01 6.09479E-14 3.44021E-14
 -1      2836 1.99791E+01 6.67507E-02 2.92424E-05-3.88723E-01 2.62363E-14 3.28374E-14
 -1      2837 2.00196E+01 8.68158E-02-1.34241E-03-3.97355E-01 1.54222E-14 1.21614E-14
 -1      2838 2.00999E+01 9.09079E-02 2.27501E-03-4.71710E-01 8.94042E-14-2.89219E-14
 -1      2839 2.00435E+01 8.01752E-02-3.83309E-04-4.43123E-01 8.31251E-14 1.09280E-14
 -1      2840 2.00531E+01 9.93903E-02-1.11481E-03-4.58579E-01 9.59544E-14-1.42797E-14
 -1      2841 2.01921E+01 1.14716E-01 2.54320E-03-5.41001E-01 8.69071E-14-3.21410E-14
 -1      2842 2.01250E+01 1.01498E-01-6.28014E-04-5.06469E-01 9.73179E-14-2.23986E-14
 -1      2843 2.01005E+01 1.23406E-01-9.80774E-04-5.26657E-01 1.01653E-13-6.86664E-14
 -1      2844 2.03022E+01 1.39468E-01 2.73799E-03-6.24228E-01-1.49219E-14 1.51004E-14
 -1      2845 2.02238E+01 1.26358E-01-7.27519E-04-5.82935E-01 6.61887E-14-1.22629E-14
 -1      2846 2.01612E+01 1.53355E-01-9.33810E-04-6.07117E-01 6.35262E-14-5.41955E-14
 -1      2847 2.04324E+01 1.58837E-01 2.78896E-03-7.20916E-01-3.52331E-14-1.55231E-14
 -1      2848 2.03416E+01 1.49360E-01-6.70128E-04-6.73783E-01-3.58808E-14-3.17942E-17
 -1      2849 2.02362E+01 1.82767E-01-9.83077E-04-7.02564E-01-1.54789E-14 3.47600E-14
 -1      2850 2.05859E+01 1.63849E-01 2.59300E-03-8.26443E-01-4.63462E-14 2.12382E-14
 -1      2851 2.04816E+01 1.63045E-01-4.04712E-04-7.76694E-01-4.59469E-14 2.80005E-14
 -1      2852 2.03280E+01 2.02964E-01-1.16809E-03-8.12229E-01-5.06503E-14-4.61225E-14
 -1      2853 2.07683E+01 1.41767E-01 2.00729E-03-9.30568E-01 5.98395E-14-1.67502E-14
 -1      2854 2.06491E+01 1.56756E-01 1.67623E-04-8.84566E-01 3.65367E-14 2.17150E-14
 -1      2855 2.04419E+01 2.01693E-01-1.57538E-03-9.31065E-01-9.93189E-15 8.83611E-16
 -1      2856 2.09871E+01 7.54315E-02 8.42720E-04-1.01545E+00 3.58183E-14 3.28783E-14
 -1      2857 2.08520E+01 1.15658E-01 1.19423E-03-9.83727E-01 2.92023E-14-8.87674E-15
 -1      2858 2.05866E+01 1.61858E-01-2.34759E-03-1.04829E+00 4.86651E-14 1.73987E-15
 -1      2859 2.12537E+01-5.57391E-02-1.13627E-03-1.05342E+00-1.68110E-14 8.68425E-14
 -1      2860 2.11018E+01 2.06813E-02 2.84639E-03-1.05161E+00 3.95294E-14 9.86874E-14
 -1      2861 2.07769E+01 6.10639E-02-3.67609E-03-1.14527E+00-4.24918E-15 7.35710E-14
 -1      2862 2.15820E+01-2.70686E-01-4.18221E-03-1.00519E+00-5.28476E-14 1.63106E-13
 -1      2863 2.14138E+01-1.48891E-01 5.23801E-03-1.05425E+00-4.89041E-14 1.03998E-13
 -1      2864 2.10348E+01-1.26269E-01-5.72451E-03-1.19280E+00-5.32741E-14 8.67083E-14
 -1      2865 2.19844E+01-5.73511E-01-8.40642E-03-8.20633E-01-1.46693E-15 1.74095E-13
 -1      2866 2.18047E+01-4.07056E-01 8.20375E-03-9.44831E-01-1.50410E-14 1.85358E-13
 -1      2867 2.13898E+01-4.20898E-01-8.40864E-03-1.14807E+00-4.87187E-14 1.70471E-13
 -1      2868 2.24601E+01-9.27590E-01-1.32583E-02-4.46699E-01 1.18943E-14 1.63644E-13
 -1      2869 2.22823E+01-7.42256E-01 1.08329E-02-6.66571E-01 4.86686E-14 1.68540E-13
 -1      2870 2.18726E+01-8.19095E-01-1.09293E-02-9.53039E-01 1.71511E-14 2.28966E-13
 -1      2871 2.29719E+01-1.21905E+00-1.63833E-02 1.47647E-01-8.43336E-15 2.43164E-13
 -1      2872 2.28241E+01-1.08540E+00 1.09545E-02-1.68543E-01-2.38787E-14 1.53055E-13
 -1      2873 2.24953E+01-1.25643E+00-1.12239E-02-5.40928E-01-9.18382E-15 3.04679E-13
 -1      2874 2.34202E+01-1.23404E+00-1.38695E-02 9.17015E-01-4.36493E-14 3.07492E-13
 -1      2875 2.33453E+01-1.27442E+00 5.18300E-03 5.52129E-01 3.90757E-14 2.62769E-13
 -1      2876 2.32118E+01-1.56147E+00-5.94543E-03 1.33856E-01-8.84438E-15 2.53119E-13
 -1      2877 2.36489E+01-7.14040E-01-1.74782E-03 1.65828E+00-1.52323E-13 2.00634E-13
 -1      2878 2.36796E+01-1.05861E+00-1.21414E-02 1.37018E+00-1.44589E-13 3.04791E-13
 -1      2879 2.38707E+01-1.43650E+00 5.57393E-03 1.02053E+00-1.11099E-13 3.81454E-13
 -1      2880 2.35391E+01 4.12372E-01 1.84263E-02 1.96377E+00-5.51122E-14 1.08900E-13
 -1      2881 2.36518E+01-2.25192E-01-3.58452E-02 1.94736E+00-6.41943E-14 1.77175E-13
 -1      2882 2.42119E+01-6.00559E-01 5.60605E-03 1.85596E+00-7.37301E-14 2.09567E-13
 -1      2883 2.31519E+01 1.69873E+00 9.86190E-03 1.45707E+00 1.05638E-13-4.11953E-15
 -1      2884 2.32780E+01 1.04365E+00-5.81365E-02 1.81563E+00 3.62939E-14 6.66147E-14
 -1      2885 2.40834E+01 8.78824E-01 9.04011E-03 2.11241E+00 4.12829E-14 1.50236E-13
 -1      2886 2.29009E+01 2.33424E+00-7.96976E-03 1.39047E-01 5.99659E-14 6.09061E-15
 -1      2887 2.29201E+01 2.13952E+00-3.88052E-02 7.73880E-01 1.01124E-13-1.10155E-16
 -1      2888 2.37098E+01 2.37702E+00-1.95575E-03 1.30144E+00 7.82499E-14 7.69246E-14
 -1      2889 2.30443E+01 1.81818E+00-3.79486E-02-1.26504E+00 3.41237E-14-1.45874E-13
 -1      2890 2.29496E+01 2.22553E+00 4.15995E-03-6.89532E-01 2.85744E-14-1.31010E-14
 -1      2891 2.35950E+01 2.84973E+00-1.73826E-02-2.99235E-01 7.68448E-14 4.82279E-14
 -1      2892 2.34488E+01 5.72678E-01-4.44634E-02-1.97184E+00 1.55592E-13-1.18450E-13
 -1      2893 2.33066E+01 1.25222E+00 1.79628E-02-1.73986E+00 8.65488E-14-1.64676E-13
 -1      2894 2.38451E+01 1.83850E+00-2.38480E-02-1.67391E+00 8.86825E-14-1.90676E-13
 -1      2895 2.37151E+01-6.07559E-01-2.49515E-02-1.79335E+00 1.61644E-13-2.88905E-14
 -1      2896 2.36192E+01-6.27715E-02 1.05487E-02-1.93663E+00 1.76650E-13-3.37482E-14
 -1      2897 2.41911E+01 3.19845E-01 8.87528E-03-2.09902E+00 1.33428E-13-7.26997E-14
 -1      2898 2.35930E+01-1.19759E+00-3.96374E-03-1.07799E+00 1.72801E-13-7.22725E-14
 -1      2899 2.36027E+01-9.76178E-01-6.28304E-03-1.41343E+00 2.08198E-13 9.36534E-16
 -1      2900 2.41431E+01-9.97290E-01 1.08070E-02-1.57785E+00 1.38195E-13-2.13822E-14
 -1      2901 2.31702E+01-1.23186E+00 8.54412E-03-2.72832E-01 2.03921E-13-1.87483E-13
 -1      2902 2.32769E+01-1.27220E+00-1.49342E-02-6.28710E-01 1.95916E-13-1.05797E-13
 -1      2903 2.36525E+01-1.54634E+00 2.01422E-03-6.87776E-01 2.20872E-13-1.21737E-13
 -1      2904 2.26295E+01-9.58872E-01 1.16564E-02 3.67237E-01 1.88645E-13-1.21921E-13
 -1      2905 2.27910E+01-1.12389E+00-1.52937E-02 8.60306E-02 1.87283E-13-1.51377E-13
 -1      2906 2.29495E+01-1.47189E+00-7.61074E-03 1.35254E-01 2.71296E-13-1.82628E-13
 -1      2907 2.21094E+01-6.03413E-01 1.01130E-02 7.74884E-01 1.07717E-13-6.18759E-14
 -1      2908 2.22880E+01-7.88252E-01-1.13691E-02 5.94253E-01 1.28876E-13-7.13543E-14
 -1      2909 2.22587E+01-1.08827E+00-1.09628E-02 7.06752E-01 1.02615E-13-1.02109E-13
 -1      2910 2.16683E+01-2.89692E-01 7.18866E-03 9.77330E-01 2.14778E-13 5.30158E-14
 -1      2911 2.18414E+01-4.42383E-01-6.77896E-03 8.87005E-01 1.43110E-13 1.58022E-15
 -1      2912 2.16890E+01-6.49678E-01-9.95115E-03 1.02545E+00 8.85086E-14-1.31349E-13
 -1      2913 2.13146E+01-6.16408E-02 4.47239E-03 1.03064E+00 1.93348E-13-9.64285E-14
 -1      2914 2.14725E+01-1.67710E-01-2.99447E-03 1.00740E+00 2.86907E-13 5.58340E-14
 -1      2915 2.12597E+01-2.82915E-01-7.31527E-03 1.14961E+00 2.02357E-13-1.58998E-14
 -1      2916 2.10355E+01 8.17859E-02 2.43287E-03 9.88660E-01 8.73443E-14-2.74202E-14
 -1      2917 2.11754E+01 1.79999E-02-3.77541E-04 1.00907E+00 1.85142E-13 8.86459E-14
 -1      2918 2.09486E+01-2.54786E-02-4.89717E-03 1.14469E+00 1.28035E-13 1.03520E-13
 -1      2919 2.08143E+01 1.58543E-01 1.09781E-03 8.93165E-01-1.39026E-13 9.48422E-14
 -1      2920 2.09363E+01 1.26622E-01 1.26076E-03 9.38256E-01-1.05115E-13 9.63136E-14
 -1      2921 2.07240E+01 1.31572E-01-3.15798E-03 1.06289E+00-7.50548E-14 2.85583E-13
 -1      2922 2.06374E+01 1.89200E-01 3.12732E-04 7.73492E-01-2.98448E-13 1.98195E-13
 -1      2923 2.07422E+01 1.78612E-01 2.17159E-03 8.29639E-01-1.49070E-13 2.60602E-13
 -1      2924 2.05589E+01 2.12118E-01-2.06261E-03 9.41458E-01-2.43828E-13 3.60485E-13
 -1      2925 2.04946E+01 1.91149E-01-9.65520E-05 6.48630E-01-1.49073E-13 1.55847E-13
 -1      2926 2.05833E+01 1.93425E-01 2.57255E-03 7.06944E-01-2.80445E-13 1.26328E-13
 -1      2927 2.04341E+01 2.40882E-01-1.42507E-03 8.05273E-01-2.43154E-13 2.98839E-13
 -1      2928 2.03788E+01 1.77234E-01-2.70744E-04 5.29838E-01 7.59068E-14 3.58227E-13
 -1      2929 2.04530E+01 1.86292E-01 2.63400E-03 5.85078E-01 3.34458E-14 2.64232E-13
 -1      2930 2.03372E+01 2.38000E-01-1.06765E-03 6.69927E-01-1.20739E-13 3.59618E-13
 -1      2931 2.02852E+01 1.56209E-01-3.12459E-04 4.22931E-01-2.49042E-14 2.63392E-13
 -1      2932 2.03461E+01 1.67983E-01 2.48281E-03 4.72461E-01-6.64589E-15 2.24411E-13
 -1      2933 2.02602E+01 2.18093E-01-8.62224E-04 5.44376E-01 1.05208E-13 3.39575E-13
 -1      2934 2.02100E+01 1.33831E-01-2.07088E-04 3.30117E-01 3.67657E-14 2.93422E-13
 -1      2935 2.02591E+01 1.45672E-01 2.21635E-03 3.73012E-01-3.07900E-15 2.88297E-13
 -1      2936 2.01984E+01 1.91026E-01-7.33938E-04 4.32990E-01-4.19748E-14 2.14348E-13
 -1      2937 2.01512E+01 1.14037E-01 4.62130E-04 2.51380E-01-3.56138E-14 4.59117E-13
 -1      2938 2.01889E+01 1.23736E-01 1.90239E-03 2.87374E-01 6.73575E-14 4.48237E-13
 -1      2939 2.01477E+01 1.63113E-01-8.33335E-04 3.37256E-01-5.84975E-14 3.45986E-13
 -1      2940 2.01024E+01 1.06042E-01 7.99948E-04 1.95780E-01 3.68003E-14 3.71187E-13
 -1      2941 2.01308E+01 1.13705E-01 1.65603E-03 2.26926E-01 4.68365E-15 3.35151E-13
 -1      2942 2.01008E+01 1.45853E-01-2.05804E-03 2.67402E-01 5.95916E-14 3.43349E-13
 -1      2943 2.00657E+01 1.39709E-01-1.99449E-03 2.17638E-01 7.22685E-14 3.61396E-13
 -1      2944 7.74211E+00-1.20673E+00 1.46078E-01-3.27154E+00 1.18808E-13 8.47655E-14
 -1      2945 9.60306E+00-2.17992E+00 1.15079E-01-4.96958E+00 2.22516E-13-1.81383E-13
 -1      2946 1.98943E+01 3.15272E-01-8.11886E-04 1.84048E-02 1.12446E-13 2.24291E-14
 -1      2947 1.98987E+01 3.10954E-01-3.61454E-04 4.66572E-02 3.28465E-14-1.03545E-13
 -1      2948 1.99325E+01 2.67697E-01-1.24251E-03 1.26822E-01 1.82180E-13-1.91586E-13
 -1      2949 1.99502E+01 2.49630E-01 3.99918E-04 1.43390E-01 2.98625E-13-2.08364E-13
 -1      2950 1.98978E+01 3.12405E-01-4.46332E-04-4.40642E-02 3.67104E-14 3.59027E-14
 -1      2951 1.98941E+01 3.16069E-01-7.49199E-04-1.56198E-02 1.71319E-14 1.26376E-13
 -1      2952 1.98697E+01 3.39293E-01 1.20529E-03 1.89786E-03 7.95456E-14-7.99934E-14
 -1      2953 1.99064E+01 2.99757E-01-1.09172E-03 7.80928E-02-3.65084E-14-2.55163E-13
 -1      2954 1.99182E+01 2.87990E-01 5.12201E-05 1.02176E-01 8.46656E-14-1.87672E-13
 -1      2955 1.99077E+01 2.98137E-01 8.95347E-04 1.30134E-01 1.46355E-13-2.86357E-13
 -1      2956 1.98800E+01 3.27927E-01 1.12449E-03 7.09417E-02 1.08499E-15-4.03907E-14
 -1      2957 1.69950E+01-4.69869E+00 6.50275E-02 6.49065E+00-3.39700E-13 9.74082E-14
 -1      2958 1.40253E+01-3.61758E+00 1.07083E-01 6.16629E+00-3.92464E-13 7.28723E-14
 -1      2959 1.99161E+01 2.91869E-01-2.00703E-05-9.97851E-02 3.36152E-14 8.44607E-16
 -1      2960 1.99049E+01 3.02841E-01-1.06213E-03-7.55346E-02 4.48368E-14-1.93187E-15
 -1      2961 1.98784E+01 3.31007E-01 1.17763E-03-6.71776E-02 7.40119E-15-4.26861E-15
 -1      2962 1.99479E+01 2.55085E-01 4.70360E-04-1.42781E-01 5.05879E-14 1.17517E-13
 -1      2963 1.99301E+01 2.72528E-01-1.26192E-03-1.25434E-01 4.90517E-14 6.15960E-14
 -1      2964 1.99051E+01 3.03842E-01 1.01964E-03-1.27600E-01-1.47959E-14 1.38572E-15
 -1      2965 1.99892E+01 2.06608E-01 1.11905E-03-1.66291E-01-6.25739E-15 1.85531E-13
 -1      2966 1.99665E+01 2.27860E-01-1.44906E-03-1.58039E-01 9.78114E-14 2.07331E-13
 -1      2967 1.99470E+01 2.59721E-01 7.17190E-04-1.71433E-01 5.03861E-14 1.97218E-13
 -1      2968 1.99854E+01 2.56669E-01-2.83332E-04 1.83548E-02 1.37106E-13 3.56956E-14
 -1      2969 2.00435E+01 3.36089E-01 7.76974E-03 1.23710E-01 1.70455E-13 4.54746E-14
 -1      2970 2.01613E+01 5.02766E-01-2.05095E-03 2.42925E-01 2.00935E-13 2.31622E-14
 -1      2971 2.00803E+01 3.01678E-01-2.94483E-03 5.42313E-03 1.33401E-13 4.91005E-14
 -1      2972 2.00562E+01 1.10060E-01 2.82346E-04-1.48976E-01-1.02567E-13-2.73038E-13
 -1      2973 2.00408E+01 1.32069E-01 4.73789E-04-1.56390E-01-1.76209E-13-3.55392E-13
 -1      2974 2.00695E+01 1.16290E-01 9.92064E-04-1.68951E-01-1.86847E-14-2.69971E-13
 -1      2975 2.91004E+01 1.69674E-01-8.70763E-02 1.69876E+00-2.81081E-13-4.19234E-13
 -1      2976 2.94730E+01 2.30135E+00-1.92355E-01 2.05368E+00-3.27266E-13-4.69957E-13
 -1      2977 2.73472E+01-3.48828E+00-1.06419E-01 1.12762E+00 2.36460E-13-8.00054E-14
 -1      2978 2.56303E+01-4.57262E+00 4.34158E-02 2.83899E+00 1.37203E-13-5.57471E-14
 -1      2979 2.36913E+01-5.01338E+00 7.66884E-02-3.99157E+00-1.59470E-13 1.63258E-13
 -1      2980 2.61024E+01-4.45071E+00-1.32360E-01-2.39576E+00-7.84095E-16 4.07813E-13
 -1      2981 2.90364E+01 5.11057E+00-1.28441E-01 1.69128E+00 4.31627E-13 1.30243E-13
 -1      2982 2.89022E+01 6.09526E+00-2.09479E-01 9.78004E-01 3.85553E-13-9.93372E-14
 -1      2983 1.99292E+01 7.09257E-02 1.33965E-03-3.06000E-01 2.13385E-14 1.64820E-14
 -1      2984 1.99098E+01 8.16509E-02 1.61788E-03-2.75990E-01 4.98882E-14 8.89129E-15
 -1      2985 2.00018E+01 9.14236E-02-1.67835E-03-3.34515E-01-1.60645E-15 5.17560E-14
 -1      2986 1.99152E+01 9.77950E-02 9.55849E-04-2.36315E-01 6.64614E-14 2.26186E-14
 -1      2987 1.99148E+01 1.22647E-01 3.03315E-03-1.93644E-01 8.43748E-14 3.69044E-14
 -1      2988 2.00031E+01 1.20516E-01-2.12490E-03-2.58179E-01 5.28571E-14 4.85414E-14
 -1      2989 2.03269E+01 1.07308E+00 5.88906E-03-8.36740E-01-1.42047E-13-2.21273E-13
 -1      2990 2.02368E+01 8.31339E-01-5.41726E-03-5.90469E-01-1.28747E-13-2.10670E-13
 -1      2991 2.02718E+01 9.15558E-01-4.94364E-05-5.42157E-01-1.19336E-13-2.29426E-13
 -1      2992 1.99345E+01 2.62123E+00-7.83878E-03 7.79688E-01 2.18137E-13-2.45358E-13
 -1      2993 1.98906E+01 2.71551E+00-6.29269E-03 6.32447E-01 1.82037E-13-2.80606E-13
 -1      2994 2.00074E+01 2.42371E+00 4.52924E-03 5.02848E-01 1.61381E-13-2.74818E-13
 -1      2995 2.00900E+01 2.21943E+00 5.79840E-03 7.27401E-01 1.94619E-13-2.16812E-13
 -1      2996 2.88592E+01 2.42898E-01-1.66698E-01-1.41496E+00-8.02136E-15 1.19349E-14
 -1      2997 2.83670E+01-1.51762E+00-5.32765E-02-5.45570E-01 1.03667E-13 9.72000E-14
 -1      2998 6.42608E+00-7.45763E-01 2.00388E-01 1.51038E+00-2.64407E-13 4.99462E-13
 -1      2999 6.70063E+00-5.59390E-01 1.41288E-01-7.59027E-01-1.69817E-13 4.55247E-13
 -1      3000 1.98858E+01 2.72434E+00-6.26798E-03-6.22206E-01-2.62677E-14-3.72007E-13
 -1      3001 1.99291E+01 2.63246E+00-7.68705E-03-7.69849E-01-6.89079E-14-3.68619E-13
 -1      3002 2.83859E+01 4.36036E+00-1.90472E-01-1.83982E+00-3.04479E-14-3.62543E-13
 -1      3003 2.87200E+01 2.50594E+00-7.43147E-02-2.01353E+00 3.32512E-14-1.63758E-13
 -1      3004 1.06640E+01-2.76553E+00 2.79862E-02 5.59883E+00 1.13187E-13-4.20414E-13
 -1      3005 8.31317E+00-1.82683E+00 1.46255E-01 4.17653E+00 1.32935E-13-6.09068E-13
 -1      3006 2.90298E+01 1.07929E+00-6.50757E-02 1.66843E+00 2.68216E-13 4.12365E-13
 -1      3007 2.89913E+01 3.10408E+00-2.07805E-01 1.86549E+00 4.41702E-13 3.09780E-13
 -1      3008 2.79714E+01-2.79405E+00 5.19426E-03-5.45022E-01 1.50117E-13 4.51778E-13
 -1      3009 2.87529E+01-1.25035E+00-1.86621E-01 5.55199E-01 2.09638E-13 5.30326E-13
 -1      3010 1.79346E+01-4.69989E+00 1.11946E-01-6.06799E+00-4.08604E-13-3.03688E-13
 -1      3011 2.07082E+01-5.28803E+00-5.13663E-02-5.54645E+00-3.08170E-13-1.17385E-13
 -1      3012 1.18934E+01-2.66685E+00 1.38574E-01-5.68424E+00-3.35482E-13-6.46622E-13
 -1      3013 1.48829E+01-3.97780E+00 6.22351E-02-6.42461E+00-3.63876E-13-4.92412E-13
 -1      3014 7.75203E+00-6.89494E-01 1.45677E-01-2.46167E+00-1.30257E-13-7.56950E-13
 -1      3015 9.35909E+00-1.37379E+00 1.16495E-01-4.23942E+00-1.75034E-13-7.74825E-13
 -1      3016 1.81584E+01-4.70899E+00 6.63358E-03 5.92644E+00-4.29101E-14-5.21527E-14
 -1      3017 1.43494E+01-3.68440E+00 1.73324E-01 6.09589E+00 6.50591E-14-1.91680E-13
 -1      3018 2.82180E+01-3.03424E+00-1.18813E-01 3.72919E-01-2.53745E-13-2.32286E-13
 -1      3019 2.72511E+01-4.23624E+00 1.83614E-02 1.76799E+00-2.97554E-13-1.80092E-13
 -1      3020 2.57382E+01-4.76163E+00 4.19346E-02 2.46961E+00-1.55043E-13-6.79318E-14
 -1      3021 6.78359E+00-1.11386E+00 1.44191E-01 2.55509E+00 7.44682E-14-6.78929E-13
 -1      3022 6.60455E+00-5.60996E-01 1.53990E-01-7.21881E-03-1.15220E-14-6.45206E-13
 -1      3023 2.91017E+01 6.27454E+00-1.75935E-01 6.60080E-01-4.46365E-13-4.53707E-13
 -1      3024 2.88991E+01 6.29358E+00-1.91184E-01-8.24671E-02-4.25826E-13-4.56314E-13
 -1      3025 2.80288E+01-2.99213E+00-1.71331E-02-5.45748E-02-1.77636E-14-3.94157E-13
 -1      3026 2.85234E+01-1.97773E+00-1.50392E-01 7.35851E-01-1.43455E-13-4.59605E-13
 -1      3027 2.32547E+01-5.27386E+00-7.83969E-02 4.50807E+00 2.25098E-14-9.78453E-14
 -1      3028 1.98749E+01-5.14214E+00 7.56157E-02 5.72259E+00-1.35905E-13-7.41594E-14
 -1      3029 1.98994E+01-4.59280E+00 8.89705E-02 5.30112E+00-1.95968E-13 2.66002E-14
 -1      3030 2.45494E+01-4.73568E+00 4.28536E-02 3.16649E+00 4.98074E-14-2.21767E-14
 -1      3031 2.03191E+01 1.69746E+00-6.72537E-03-1.28028E+00-2.03025E-13-2.57339E-13
 -1      3032 2.03027E+01 1.31312E+00-2.88212E-03-1.00325E+00-1.73888E-13-2.45096E-13
 -1      3033 2.02883E+01 1.38898E+00 5.26699E-04-9.02763E-01-1.44125E-13-2.40363E-13
 -1      3034 2.02292E+01 1.96332E+00-5.95664E-04-1.25023E+00-1.76567E-13-2.86900E-13
 -1      3035 1.99835E+01 2.50911E+00-6.18200E-03-8.86070E-01-7.83044E-14-3.74969E-13
 -1      3036 2.00475E+01 2.36240E+00-8.91329E-03-1.01811E+00-1.03177E-13-3.59290E-13
 -1      3037 2.00842E+01 2.23365E+00 6.25477E-03-7.21401E-01-7.03069E-14-3.43470E-13
 -1      3038 1.99405E+01 2.57985E+00 3.67279E-03 4.58412E-03 7.82457E-14-3.32760E-13
 -1      3039 1.98039E+01 2.90404E+00-5.58494E-03-6.01148E-02 6.63788E-14-3.49997E-13
 -1      3040 1.98116E+01 2.88892E+00-5.58728E-03-2.11889E-01 4.28875E-14-3.76356E-13
 -1      3041 2.02952E+01 1.59773E+00-1.35474E-03 1.14921E+00 2.80647E-13-4.45425E-14
 -1      3042 1.20487E+01-1.97209E+00 1.56710E-01-4.92030E+00 2.64663E-13-1.53086E-13
 -1      3043 1.18863E+01-2.88874E+00 1.63450E-01-5.67171E+00 2.83967E-13-1.22458E-13
 -1      3044 2.00546E+01 1.41929E-01-1.13416E-03-1.96014E-01-6.78042E-15-3.56152E-13
 -1      3045 2.68267E+01-3.76122E+00-1.08635E-02-8.02438E-01 9.25683E-14-3.87142E-13
 -1      3046 2.77571E+01 5.95993E+00-1.13068E-01 5.73633E-01 2.62096E-13-2.56226E-13
 -1      3047 2.05854E+01-4.84880E+00 1.16240E-01 5.20291E+00-2.96707E-14-2.47233E-14
 -1      3048 1.88074E+01-4.08423E+00 5.51775E-02 5.26129E+00 1.16698E-13-1.64035E-14
 -1      3049 2.22936E+01-4.94162E+00-4.04520E-02 4.07139E+00 2.57433E-14 3.61863E-14
 -1      3050 2.72061E+01-1.86791E+00-7.01668E-02-9.89296E-01 6.25923E-14-1.93318E-13
 -1      3051 2.76706E+01-2.71980E+00-3.97122E-02 2.83024E-02 1.68423E-13-6.08263E-14
 -1      3052 2.64580E+01-3.45899E+00-1.36482E-02 6.56188E-01 1.95202E-13-6.68077E-14
 -1      3053 1.28558E+01-2.76426E+00 1.71709E-01 5.75174E+00-3.91354E-13-2.42306E-14
 -1      3054 1.15896E+01-1.84116E+00 7.84100E-02 4.95222E+00-3.84609E-13 6.48509E-14
 -1      3055 1.56841E+01-3.12996E+00 7.36314E-02 5.62459E+00-3.99222E-13 6.05488E-14
 -1      3056 8.08769E+00-1.87311E-01 1.63606E-01-1.16883E+00-2.44284E-14-5.47201E-13
 -1      3057 9.84554E+00 3.19974E-02 1.00283E-01-1.85210E+00-6.27241E-14-5.58498E-13
 -1      3058 8.80033E+00 1.74526E-01 8.51048E-02 3.67686E-01 8.01299E-14-4.79686E-13
 -1      3059 1.15698E+01-1.74081E+00 1.42643E-01-4.81006E+00-2.84349E-13-5.92498E-13
 -1      3060 1.37854E+01-2.16985E+00 2.05049E-02-5.15802E+00-4.01977E-13-3.90937E-13
 -1      3061 1.16021E+01-8.36059E-01 8.73006E-02-3.89256E+00-2.16889E-13-5.90833E-13
 -1      3062 2.51683E+01 3.85201E+00-1.00524E-01-7.53878E-01-2.28914E-13-8.30889E-14
 -1      3063 2.52201E+01 3.95977E+00-9.41144E-02 2.63636E-01-3.03507E-13-9.23693E-14
 -1      3064 1.73681E+01-3.92465E+00 1.20710E-01-5.72677E+00-4.03566E-13-2.94029E-13
 -1      3065 2.00209E+01 1.57474E-01-8.73031E-04-1.61510E-01-1.09505E-13-3.83906E-14
 -1      3066 2.66948E+01-3.63000E+00 9.01188E-03-1.02185E+00-9.77968E-14 5.32643E-13
 -1      3067 2.00278E+01 1.84846E-01-2.63105E-03-1.52165E-01 9.13126E-14 3.45685E-14
 -1      3068 8.18073E+00-4.18407E-01 1.79002E-01-1.88996E+00 2.62151E-14 3.55882E-13
 -1      3069 9.85502E+00-4.00698E-01 7.40858E-02-2.77844E+00 1.06446E-13-5.15699E-14
 -1      3070 9.03042E+00 1.96299E-01 9.24621E-02-5.25861E-01-9.65113E-14 1.60927E-13
 -1      3071 2.80849E+01-3.17765E-01-4.92013E-02 1.49710E+00 1.25885E-13 4.52791E-13
 -1      3072 1.99497E+01 2.53740E-01 8.16845E-04 1.71417E-01 2.52319E-13-1.59812E-13
 -1      3073 1.99681E+01 2.22955E-01-1.43322E-03 1.57691E-01 3.92616E-13-1.21283E-13
 -1      3074 1.99899E+01 2.01207E-01 8.86111E-04 1.65479E-01 3.44800E-13-1.83819E-13
 -1      3075 2.00237E+01 1.57139E-01-6.30628E-04 1.68404E-01 1.83290E-13-1.05382E-13
 -1      3076 1.37991E+01-2.71705E+00 1.56416E-01 5.42174E+00 2.00201E-13-2.76251E-13
 -1      3077 2.77924E+01 1.00589E+00-8.79837E-02-1.96147E+00 6.54754E-14-2.06529E-13
 -1      3078 2.00084E+01 1.86056E-01-2.62924E-04-1.85005E-01-1.31192E-13 7.53464E-14
 -1      3079 2.77675E+01 4.72987E+00-1.57931E-01-1.65025E+00-1.95677E-14-3.80078E-13
 -1      3080 2.66445E+01 3.53216E+00-3.47542E-02-2.07018E+00 1.08080E-13-3.10432E-13
 -1      3081 2.67006E+01 4.98885E+00-1.64785E-01-1.25756E+00 9.19265E-14-4.82094E-13
 -1      3082 2.71102E+01 4.71762E+00-1.21322E-01-1.11924E+00-2.77112E-13-2.96799E-13
 -1      3083 2.81082E+01-7.70108E-01-2.98541E-02 1.77005E+00-1.57006E-13-4.63213E-13
 -1      3084 2.77438E+01 3.49637E+00-7.51183E-02 2.08211E+00 2.45318E-13 1.07303E-13
 -1      3085 2.27327E+01-4.83982E+00 5.57741E-02-4.14145E+00-3.43545E-13 1.43240E-13
 -1      3086 1.78293E+01-4.63037E+00 1.26933E-01-5.95033E+00 3.31180E-13 1.18100E-14
 -1      3087 2.06409E+01-5.07883E+00-1.04279E-02-5.24164E+00 2.74877E-13-6.74738E-14
 -1      3088 1.98275E+01 2.85181E+00-5.84307E-03-3.43746E-01 2.97141E-14-3.52541E-13
 -1      3089 1.98521E+01 2.80209E+00-6.19163E-03-4.94877E-01-8.33888E-15-3.57379E-13
 -1      3090 2.00035E+01 2.43156E+00 4.50565E-03-4.93794E-01-1.09933E-14-3.39902E-13
 -1      3091 1.99558E+01 2.54432E+00 3.87449E-03-2.48213E-01 3.16638E-14-3.49386E-13
 -1      3092 2.27816E+01-4.98500E+00 8.31024E-02-4.22856E+00 2.57003E-13-5.64965E-14
 -1      3093 2.41018E+01-4.81204E+00-7.26041E-02-2.88066E+00 2.05967E-13-1.44627E-13
 -1      3094 2.13755E+01-4.49606E+00 5.31201E-02-4.40239E+00 2.21295E-13-8.32494E-15
 -1      3095 2.02870E+01 1.38160E+00 2.19044E-03 8.99425E-01 2.47811E-13-6.02873E-14
 -1      3096 2.91804E+01 4.15936E+00-1.43676E-01 2.03959E+00-4.59827E-13-5.10869E-13
 -1      3097 2.89722E+01 5.40441E+00-1.95704E-01 1.37436E+00-4.88665E-13-4.90538E-13
 -1      3098 8.43418E+00-6.33861E-01 1.53742E-01 2.40300E+00-3.61686E-13 1.76387E-13
 -1      3099 2.63252E+01 4.37104E+00-1.11929E-01 9.04568E-01-3.48277E-13-3.38722E-13
 -1      3100 2.76198E+01 5.06289E+00-1.23451E-01 1.16190E+00-4.57162E-13-4.37157E-13
 -1      3101 9.22085E+00-8.48595E-01 1.95759E-01 3.10685E+00 1.26982E-13-5.92887E-13
 -1      3102 2.80526E+01 2.76302E+00-6.53328E-02 2.30032E+00-3.88689E-13-5.27259E-13
 -1      3103 1.45662E+01-3.89646E+00 4.03107E-02-6.23553E+00 3.21992E-13-7.12902E-14
 -1      3104 2.02496E+01 1.50500E+00-6.04316E-03 7.79285E-01 2.08246E-13-1.17245E-13
 -1      3105 2.02112E+01 1.69682E+00-4.54204E-04 7.23223E-01 1.92727E-13-1.66766E-13
 -1      3106 1.20445E+01-9.69131E-01 1.56574E-01-4.09003E+00 1.64244E-13-3.20244E-13
 -1      3107 1.37301E+01-1.85794E+00 3.59664E-02-4.85786E+00 2.66488E-13-2.09194E-13
 -1      3108 2.00412E+01 1.79358E-01 2.21268E-05-2.31245E-01-9.62330E-14-1.54769E-13
 -1      3109 2.00352E+01 1.75456E-01 1.28735E-03-2.10609E-01-9.38335E-14-6.74650E-14
 -1      3110 1.99869E+01 2.20251E-01-1.77172E-03-2.16665E-01 3.79605E-14 1.73434E-13
 -1      3111 2.00530E+01 1.96079E-01 8.37135E-04-2.67923E-01-1.40786E-13-2.14202E-13
 -1      3112 1.07961E+01-8.90731E-01 5.14955E-02 3.80875E+00 1.89682E-13-4.91537E-13
 -1      3113 9.56496E+00-1.23893E-01 1.19554E-01 2.19774E+00 1.48798E-13-5.76567E-13
 -1      3114 2.73561E+01-2.16940E+00-2.50872E-02-8.44309E-01-7.39755E-14 2.00465E-14
 -1      3115 2.02826E+01 7.50883E-01 4.41486E-03-3.05388E-01-1.00700E-13-2.37051E-13
 -1      3116 2.02420E+01 5.95758E-01-3.27208E-03-1.66429E-01-9.49220E-14-2.32584E-13
 -1      3117 2.73527E+01 1.77021E+00-1.06492E-01-2.44657E+00-1.58124E-13-1.38181E-13
 -1      3118 2.02358E+01 4.76336E-01 3.83415E-03-6.11880E-02-9.54292E-14-1.99993E-13
 -1      3119 2.02009E+01 3.78303E-01-1.80783E-03 3.55065E-02-7.98455E-14-1.98722E-13
 -1      3120 2.02822E+01 6.37794E-01-3.31668E-04-1.33724E-01-8.08786E-14-2.27371E-13
 -1      3121 2.01851E+01 3.05256E-01 2.73207E-03 1.10458E-01-9.21569E-14-1.89234E-13
 -1      3122 2.01606E+01 2.47246E-01-6.71364E-04 1.77436E-01-1.20575E-13-1.94285E-13
 -1      3123 2.02469E+01 4.12422E-01-8.39180E-04 5.28347E-02-1.02674E-13-2.02160E-13
 -1      3124 2.01411E+01 2.06447E-01 1.65739E-03 2.31347E-01-1.11521E-13-1.52741E-13
 -1      3125 2.01272E+01 1.76857E-01 1.58586E-04 2.79708E-01-6.74579E-14-1.51156E-13
 -1      3126 2.02039E+01 2.76572E-01-9.61623E-04 1.87398E-01-9.06296E-14-1.76312E-13
 -1      3127 2.01066E+01 1.59111E-01 7.17633E-04 3.20949E-01-3.93397E-14-1.63994E-13
 -1      3128 2.01017E+01 1.50333E-01 7.66201E-04 3.59578E-01-4.31627E-14-1.49324E-13
 -1      3129 2.01605E+01 2.05500E-01-8.45230E-04 2.87230E-01-5.62647E-14-1.56230E-13
 -1      3130 2.00807E+01 1.49625E-01-7.31593E-05 3.95226E-01-2.30948E-14-8.89018E-14
 -1      3131 2.00831E+01 1.56453E-01 1.22420E-03 4.31057E-01-1.65725E-14-4.32034E-14
 -1      3132 2.01190E+01 1.82178E-01-6.25701E-04 3.67721E-01 1.68943E-14-1.21182E-13
 -1      3133 2.00614E+01 1.68543E-01-7.33786E-04 4.66836E-01-4.58092E-14-2.51305E-14
 -1      3134 2.00695E+01 1.87135E-01 1.58425E-03 5.05166E-01-3.49206E-14-5.73589E-15
 -1      3135 2.00787E+01 1.94739E-01-3.54263E-04 4.41777E-01-1.22287E-14-9.24935E-14
 -1      3136 2.00461E+01 2.08726E-01-1.29407E-03 5.45559E-01-8.51527E-14-1.10004E-14
 -1      3137 2.00587E+01 2.35871E-01 1.88252E-03 5.90342E-01-8.44418E-14-1.94251E-14
 -1      3138 2.00378E+01 2.34280E-01-5.34376E-05 5.19677E-01-6.16174E-14-5.36046E-14
 -1      3139 2.00324E+01 2.63920E-01-1.77402E-03 6.38784E-01-6.96028E-14 2.85363E-14
 -1      3140 2.00487E+01 2.96341E-01 2.14572E-03 6.92787E-01-5.32270E-14 1.00627E-14
 -1      3141 1.99939E+01 2.93323E-01 2.62608E-04 6.09376E-01-7.43366E-14 1.60932E-14
 -1      3142 2.00185E+01 3.27341E-01-2.17289E-03 7.51811E-01-6.11980E-14-4.90087E-14
 -1      3143 2.00382E+01 3.60908E-01 2.40354E-03 8.16630E-01-3.96063E-14-2.65270E-14
 -1      3144 1.99442E+01 3.64303E-01 5.71764E-04 7.16865E-01-5.13077E-14-5.67019E-15
 -1      3145 2.00035E+01 3.90032E-01-2.45913E-03 8.87966E-01-3.26718E-14-5.02955E-14
 -1      3146 2.00274E+01 4.18776E-01 2.70374E-03 9.63907E-01-1.54693E-14-7.18717E-14
 -1      3147 1.98867E+01 4.37867E-01 8.24431E-04 8.46456E-01-7.10878E-14-5.83282E-14
 -1      3148 1.99891E+01 4.38764E-01-2.55318E-03 1.04856E+00-4.90303E-14-1.33624E-13
 -1      3149 2.00202E+01 4.53581E-01 3.12898E-03 1.13437E+00-6.35292E-14-1.64148E-13
 -1      3150 1.98209E+01 5.00771E-01 9.10863E-04 1.00108E+00-9.11668E-14-1.17539E-13
 -1      3151 1.99821E+01 4.53308E-01-2.29782E-03 1.23269E+00-3.91247E-14-1.47657E-13
 -1      3152 2.00270E+01 4.40350E-01 3.81016E-03 1.32510E+00-6.71758E-14-1.35710E-13
 -1      3153 1.97504E+01 5.33161E-01 6.15459E-04 1.18269E+00-5.92769E-14-1.93101E-13
 -1      3154 1.99988E+01 4.03175E-01-1.39594E-03 1.43672E+00-2.36115E-14-8.13739E-14
 -1      3155 2.00706E+01 3.42098E-01 4.91170E-03 1.52962E+00 2.04001E-15-2.67569E-14
 -1      3156 1.96862E+01 5.05161E-01-4.50368E-04 1.39265E+00-8.73405E-15-1.75402E-13
 -1      3157 2.00718E+01 2.44485E-01 7.22675E-04 1.65281E+00 2.55914E-14 7.03347E-14
 -1      3158 2.01940E+01 1.07305E-01 6.50864E-03 1.73556E+00 1.12407E-13 4.01462E-14
 -1      3159 1.96536E+01 3.72935E-01-2.93740E-03 1.63187E+00 4.56990E-14-4.65652E-14
 -1      3160 2.02614E+01-8.08091E-02 5.12439E-03 1.86436E+00 1.74750E-13 6.08440E-14
 -1      3161 2.04711E+01-3.27606E-01 8.52914E-03 1.91782E+00 1.99349E-13 1.04780E-13
 -1      3162 1.97024E+01 7.54265E-02-7.81521E-03 1.89866E+00 1.76062E-13-1.21284E-14
 -1      3163 2.06674E+01-6.36000E-01 1.39182E-02 2.03513E+00 1.65405E-13 1.55723E-13
 -1      3164 2.10140E+01-1.02575E+00 8.37173E-03 2.02514E+00 1.50760E-13 1.07054E-13
 -1      3165 1.99209E+01-4.62878E-01-1.62540E-02 2.17953E+00 2.13802E-13-1.39420E-14
 -1      3166 2.14413E+01-1.45317E+00 3.09380E-02 2.07480E+00 1.19088E-13 2.17314E-13
 -1      3167 2.19708E+01-1.95987E+00 1.08715E-02 1.95044E+00 1.68970E-13 1.20911E-13
 -1      3168 2.04440E+01-1.32545E+00-3.66903E-02 2.42011E+00 1.81403E-13 6.13780E-14
 -1      3169 2.27539E+01-2.48687E+00 4.90251E-02 1.80353E+00 2.09346E-13 1.65346E-13
 -1      3170 2.34244E+01-2.97874E+00-9.12570E-03 1.43674E+00 2.15855E-13 1.32059E-13
 -1      3171 2.15674E+01-2.50152E+00-6.27555E-02 2.46592E+00 1.85803E-13 1.93531E-13
 -1      3172 2.66457E+01-3.24812E+00 3.31831E-03-9.35362E-02-4.35580E-14 9.67906E-14
 -1      3173 2.54441E+01-3.29828E+00-4.61906E-03 2.52509E-01 5.53915E-14 1.23960E-13
 -1      3174 2.56355E+01-4.16138E+00-6.58133E-02 1.40835E+00 4.71845E-15 1.38274E-13
 -1      3175 2.45948E+01-4.45280E+00 8.82470E-02 2.48613E+00 2.45325E-14 6.27623E-14
 -1      3176 2.46585E+01-3.27189E+00 6.09416E-02 9.40332E-01 1.30016E-13 1.17641E-13
 -1      3177 1.66328E+01-3.09884E+00 1.22149E-01-5.39478E+00-4.59840E-13-2.96443E-13
 -1      3178 1.90015E+01-4.12103E+00-2.97671E-02-5.23453E+00-4.57107E-13-4.89747E-14
 -1      3179 2.57621E+01-4.18521E+00 5.68490E-02-1.48234E+00 1.89253E-13-3.61003E-13
 -1      3180 2.64673E+01-3.24655E+00-5.46683E-02 7.36372E-02 6.90793E-14-4.69846E-13
 -1      3181 2.57841E+01-2.91142E+00-3.53519E-02 3.82683E-01 6.38203E-14-2.71906E-13
 -1      3182 2.51546E+01-3.12793E+00 2.73517E-02-2.97990E-01 5.04295E-14-1.79140E-13
 -1      3183 2.39947E+01-2.99918E+00-1.98763E-02-9.33711E-01 6.68909E-15-1.82004E-13
 -1      3184 2.33476E+01-2.61563E+00 3.93512E-02-1.38305E+00-2.22324E-14-1.35616E-13
 -1      3185 2.42776E+01-3.53306E+00-3.40740E-02-1.30403E+00 3.42205E-14-2.00721E-13
 -1      3186 2.24826E+01-2.15676E+00-4.41302E-03-1.64731E+00-6.33226E-14 4.28988E-14
 -1      3187 2.19555E+01-1.65690E+00 3.03331E-02-1.84734E+00 4.96667E-14 8.23300E-14
 -1      3188 2.23429E+01-2.68453E+00-3.94228E-02-2.06431E+00 8.84093E-14-1.56411E-14
 -1      3189 2.14284E+01-1.22381E+00 4.08925E-04-1.88361E+00 1.82172E-14-2.74476E-14
 -1      3190 2.10604E+01-8.07030E-01 1.63952E-02-1.93470E+00-3.87633E-14-1.08766E-13
 -1      3191 2.10516E+01-1.59874E+00-3.50013E-02-2.25154E+00-3.53324E-14 3.90304E-14
 -1      3192 2.07868E+01-4.79591E-01 4.12446E-03-1.86122E+00-5.46558E-14-8.23669E-14
 -1      3193 2.05518E+01-1.99256E-01 7.66693E-03-1.82918E+00 3.93002E-14-1.40601E-13
 -1      3194 2.03424E+01-6.78257E-01-1.87629E-02-2.12833E+00-1.93867E-14-7.83503E-14
 -1      3195 2.04301E+01 1.03136E-02 4.30045E-03-1.71873E+00-7.46258E-14-1.80149E-13
 -1      3196 2.02868E+01 1.75526E-01 2.81902E-03-1.64437E+00-7.31032E-14-3.06584E-13
 -1      3197 1.99975E+01-6.61687E-02-9.69487E-03-1.90035E+00-1.38274E-13-3.35280E-14
 -1      3198 2.02477E+01 2.91352E-01 3.76287E-03-1.52554E+00 4.10372E-14-3.36317E-13
 -1      3199 2.01599E+01 3.73807E-01 2.52922E-04-1.43256E+00-2.74864E-14-2.86265E-13
 -1      3200 1.98616E+01 2.93505E-01-4.28611E-03-1.65026E+00-8.70158E-14-2.38633E-13
 -1      3201 2.01611E+01 4.25001E-01 3.19588E-03-1.31721E+00-8.66880E-14-1.51122E-13
 -1      3202 2.01044E+01 4.53743E-01-1.03040E-03-1.21933E+00-5.89761E-14-1.32084E-13
 -1      3203 1.98337E+01 4.73153E-01-1.36562E-03-1.40745E+00 1.55176E-14-2.36808E-13
 -1      3204 2.01221E+01 4.64589E-01 2.76414E-03-1.11257E+00 2.51356E-14-2.83496E-14
 -1      3205 2.00821E+01 4.61447E-01-1.58066E-03-1.01784E+00 8.88139E-14-4.10144E-14
 -1      3206 1.98542E+01 5.35976E-01 1.70246E-05-1.18254E+00 9.18745E-15-4.57342E-15
 -1      3207 2.01040E+01 4.49464E-01 2.45013E-03-9.21968E-01 1.33603E-13-1.45332E-13
 -1      3208 2.00731E+01 4.29364E-01-1.72207E-03-8.34958E-01 1.98413E-13-2.58940E-13
 -1      3209 1.98908E+01 5.29118E-01 5.53209E-04-9.79505E-01-2.56617E-14 2.06929E-13
 -1      3210 2.00934E+01 4.06201E-01 2.19346E-03-7.50889E-01 8.77548E-15-5.06163E-13
 -1      3211 2.00679E+01 3.78747E-01-1.64407E-03-6.73874E-01-1.34797E-13-4.72123E-13
 -1      3212 1.99280E+01 4.84871E-01 6.66131E-04-7.99880E-01 4.61235E-15-2.13274E-13
 -1      3213 2.00845E+01 3.51701E-01 1.95617E-03-6.01659E-01 4.23284E-14-3.29305E-13
 -1      3214 2.00626E+01 3.22761E-01-1.45832E-03-5.35354E-01 1.43670E-13-3.11500E-13
 -1      3215 1.99593E+01 4.24143E-01 5.94381E-04-6.43917E-01 1.83223E-14-2.00015E-13
 -1      3216 2.00751E+01 2.96189E-01 1.73624E-03-4.74466E-01 4.63886E-14-1.66499E-13
 -1      3217 2.00561E+01 2.69325E-01-1.18483E-03-4.18549E-01-6.81976E-14-1.82565E-13
 -1      3218 1.99829E+01 3.59825E-01 4.85615E-04-5.10880E-01 1.49567E-13-2.81671E-13
 -1      3219 2.00647E+01 2.44908E-01 1.31404E-03-3.67772E-01-1.74365E-13-1.56701E-13
 -1      3220 2.00469E+01 2.21774E-01-1.52178E-03-3.21818E-01-1.55024E-13-3.14027E-13
 -1      3221 1.99993E+01 2.99610E-01 5.11286E-04-3.99081E-01-7.71500E-14-2.16873E-13
 -1      3222 2.00659E+01 1.17866E-01 1.34139E-03-4.14071E-01 6.10359E-14-7.05246E-14
 -1      3223 2.00532E+01 1.15559E-01 2.25454E-04-3.81915E-01 1.01997E-14-3.56161E-14
 -1      3224 2.01292E+01 2.05196E-01 2.22015E-03-6.43090E-01 2.68936E-15-3.63247E-14
 -1      3225 2.00934E+01 1.85019E-01-1.15590E-03-5.98166E-01 6.03365E-14-8.15231E-14
 -1      3226 2.01700E+01 2.41309E-01 2.40815E-03-7.46985E-01-3.54715E-14-2.48433E-14
 -1      3227 2.01263E+01 2.22990E-01-1.31011E-03-6.94534E-01 1.63743E-15-2.21247E-14
 -1      3228 2.00545E+01 2.56706E-01-3.50693E-04-6.84626E-01-4.21068E-15-6.76741E-14
 -1      3229 2.02243E+01 2.65030E-01 2.53815E-03-8.66230E-01-6.40627E-14-4.31768E-14
 -1      3230 2.01711E+01 2.54478E-01-1.25660E-03-8.07417E-01-4.29523E-14-1.96284E-14
 -1      3231 2.00574E+01 2.96692E-01-4.21705E-04-7.98404E-01-4.52186E-14-6.00517E-14
 -1      3232 2.02986E+01 2.61326E-01 2.59332E-03-9.96387E-01-7.25006E-16-2.88028E-14
 -1      3233 2.02328E+01 2.66837E-01-8.94049E-04-9.34672E-01-4.50876E-14-4.91081E-14
 -1      3234 2.00704E+01 3.18841E-01-7.43374E-04-9.29529E-01-6.36149E-14-6.60511E-14
 -1      3235 2.04051E+01 2.09371E-01 2.53262E-03-1.12792E+00 2.83066E-14 2.06592E-14
 -1      3236 2.03213E+01 2.42365E-01-5.21001E-05-1.06983E+00 5.71587E-14 2.29542E-14
 -1      3237 2.01022E+01 3.04372E-01-1.49685E-03-1.07477E+00 4.10545E-15-5.99602E-14
 -1      3238 2.05640E+01 8.19293E-02 2.24051E-03-1.24427E+00-3.50440E-14 8.52335E-15
 -1      3239 2.04536E+01 1.57113E-01 1.51769E-03-1.20043E+00-9.62463E-15-5.35562E-16
 -1      3240 2.01687E+01 2.27584E-01-2.96711E-03-1.22654E+00 1.67098E-14-3.35827E-14
 -1      3241 2.08065E+01-1.52528E-01 1.44036E-03-1.31881E+00-1.19533E-13 3.54867E-14
 -1      3242 2.06575E+01-1.86830E-02 4.13642E-03-1.30537E+00-4.59369E-14 1.96179E-14
 -1      3243 2.02976E+01 5.54185E-02-5.54740E-03-1.37079E+00-7.18630E-14-8.96351E-14
 -1      3244 2.11752E+01-5.21252E-01-4.63663E-04-1.31049E+00-7.68048E-14 5.93420E-14
 -1      3245 2.09734E+01-3.15855E-01 8.16394E-03-1.35060E+00-1.37338E-13 2.47924E-14
 -1      3246 2.05322E+01-2.49455E-01-9.62942E-03-1.48277E+00-1.25783E-13-5.83930E-14
 -1      3247 2.17170E+01-1.02488E+00-4.41379E-03-1.15798E+00-5.08692E-14 1.29666E-13
 -1      3248 2.14528E+01-7.52330E-01 1.37124E-02-1.28249E+00-6.93835E-14 1.32418E-13
 -1      3249 2.09343E+01-7.17495E-01-1.53093E-02-1.51913E+00-1.19739E-13-1.13817E-13
 -1      3250 2.24592E+01-1.59086E+00-1.09467E-02-7.78907E-01-5.83847E-14 2.01562E-13
 -1      3251 2.21416E+01-1.30028E+00 1.96185E-02-1.02158E+00-5.53355E-15 2.92842E-13
 -1      3252 2.15781E+01-1.34081E+00-2.13923E-02-1.40468E+00-1.14493E-13 6.64191E-14
 -1      3253 2.33623E+01-2.00352E+00-1.71866E-02-9.38098E-02-4.81117E-14 3.32179E-13
 -1      3254 2.30361E+01-1.82793E+00 2.19240E-02-4.71872E-01-6.66581E-14 2.91772E-13
 -1      3255 2.25173E+01-2.01110E+00-2.49445E-02-1.02401E+00-1.25842E-13 2.20313E-13
 -1      3256 2.42694E+01-1.85586E+00-1.41898E-02 8.88558E-01-1.46923E-13 3.68609E-13
 -1      3257 2.40110E+01-2.03380E+00 1.18350E-02 4.19496E-01-7.80409E-14 3.99920E-13
 -1      3258 2.37135E+01-2.42363E+00-1.94028E-02-2.53034E-01-4.27690E-14 3.72210E-13
 -1      3259 2.48075E+01-7.54776E-01 3.46686E-04 1.81401E+00 1.52916E-14 6.95503E-14
 -1      3260 2.47495E+01-1.43367E+00-2.71239E-02 1.49109E+00-1.47885E-14 1.92755E-13
 -1      3261 2.48938E+01-2.02637E+00-1.04739E-02 9.28932E-01 2.04420E-14 1.66568E-13
 -1      3262 2.55242E+01 1.90147E+00-6.08424E-02 2.16218E+00 1.13451E-13 6.71720E-14
 -1      3263 2.57062E+01 6.23159E-01-7.39997E-02 2.23299E+00 8.35373E-14 1.16922E-13
 -1      3264 2.51833E+01 4.05501E+00-9.94699E-02 1.06499E+00 1.18600E-13-4.17028E-14
 -1      3265 2.52877E+01 3.23200E+00-1.35210E-01 1.71081E+00 1.41040E-13-4.71598E-14
 -1      3266 2.48556E+01 2.27270E+00-9.44397E-02-1.97990E+00 1.07719E-13-1.52975E-13
 -1      3267 2.46785E+01 3.30501E+00-4.15161E-02-1.48096E+00 1.07615E-13-1.67186E-13
 -1      3268 2.49235E+01-4.62455E-01-5.95795E-02-2.05422E+00 2.38316E-14-2.68067E-14
 -1      3269 2.48614E+01 6.36623E-01-1.03824E-03-2.18903E+00 5.53724E-15-1.36354E-13
 -1      3270 2.45166E+01-1.75393E+00-9.31221E-03-1.12194E+00 1.48054E-13-1.22831E-13
 -1      3271 2.46614E+01-1.23767E+00-1.58563E-02-1.54172E+00 1.39016E-13-1.21523E-13
 -1      3272 2.54397E+01-1.09993E+00-1.73682E-02-1.69213E+00 1.33640E-13-1.85376E-13
 -1      3273 2.36560E+01-2.01170E+00 1.53697E-02-6.81674E-02 2.44318E-13-2.00142E-13
 -1      3274 2.39519E+01-1.99391E+00-1.77196E-02-5.14573E-01 1.97557E-13-1.19176E-13
 -1      3275 2.45087E+01-2.26697E+00-1.72906E-03-4.92539E-01 1.78332E-13-2.12187E-13
 -1      3276 2.26944E+01-1.63589E+00 2.24805E-02 6.93801E-01 1.73869E-13-6.85819E-14
 -1      3277 2.30263E+01-1.87572E+00-1.36893E-02 3.66613E-01 1.92705E-13-8.47287E-14
 -1      3278 2.32588E+01-2.29535E+00-1.91703E-02 5.58422E-01 1.32585E-13-1.22697E-13
 -1      3279 2.18736E+01-1.07624E+00 1.77248E-02 1.12322E+00 8.62030E-14 2.66974E-14
 -1      3280 2.21719E+01-1.37119E+00-8.20681E-03 9.29829E-01 1.48057E-13-1.70750E-14
 -1      3281 2.21512E+01-1.75209E+00-2.28042E-02 1.17581E+00 7.89764E-14 5.42244E-14
 -1      3282 2.12676E+01-5.58231E-01 1.15521E-02 1.29765E+00 2.01572E-14 3.86814E-14
 -1      3283 2.15062E+01-8.10921E-01-3.01614E-03 1.21176E+00 3.01634E-14 2.22794E-14
 -1      3284 2.13252E+01-1.07887E+00-1.91481E-02 1.44127E+00 8.15894E-14 1.70574E-13
 -1      3285 2.08570E+01-1.69915E-01 6.65056E-03 1.30910E+00 1.96887E-13 9.09375E-14
 -1      3286 2.10352E+01-3.50531E-01 1.33974E-04 1.29626E+00 1.38958E-13-2.35282E-14
 -1      3287 2.07792E+01-5.03711E-01-1.27426E-02 1.48514E+00 1.16874E-13 1.96117E-13
 -1      3288 2.05897E+01 8.39602E-02 3.21240E-03 1.22755E+00-6.55257E-14 3.27178E-13
 -1      3289 2.07201E+01-2.93248E-02 1.54883E-03 1.25989E+00 4.10706E-14 2.15735E-13
 -1      3290 2.04461E+01-9.44690E-02-7.78421E-03 1.40800E+00 3.56732E-14 3.18513E-13
 -1      3291 2.04182E+01 2.28251E-01 1.04893E-03 1.09809E+00-1.69536E-13 4.57789E-13
 -1      3292 2.05144E+01 1.67256E-01 2.13300E-03 1.15527E+00-3.79998E-14 4.43777E-13
 -1      3293 2.02547E+01 1.62876E-01-4.34999E-03 1.27108E+00-1.46464E-13 4.76451E-13
 -1      3294 2.03067E+01 2.94161E-01-1.94108E-04 9.49403E-01-2.57758E-13 3.56857E-13
 -1      3295 2.03795E+01 2.69369E-01 2.32199E-03 1.01755E+00-2.13478E-13 3.94224E-13
 -1      3296 2.01506E+01 3.02360E-01-2.24943E-03 1.10974E+00-1.37405E-13 5.24782E-13
 -1      3297 2.02317E+01 3.09154E-01-8.27926E-04 7.99109E-01-2.93904E-13 3.25357E-13
 -1      3298 2.02884E+01 3.07216E-01 2.32612E-03 8.69224E-01-3.02528E-13 3.07331E-13
 -1      3299 2.00964E+01 3.60156E-01-1.06296E-03 9.44315E-01-2.12703E-13 3.27861E-13
 -1      3300 2.01787E+01 2.94199E-01-1.08434E-03 6.57580E-01-3.31472E-14 1.43135E-13
 -1      3301 2.02239E+01 3.05231E-01 2.22427E-03 7.24190E-01-1.83003E-13 1.23937E-13
 -1      3302 2.00691E+01 3.66106E-01-4.48957E-04 7.86440E-01-1.98663E-13 8.54186E-14
 -1      3303 2.01392E+01 2.64057E-01-1.12014E-03 5.30313E-01 8.08114E-14 2.43642E-13
 -1      3304 2.01759E+01 2.81238E-01 2.05169E-03 5.90466E-01 1.19519E-13 1.93027E-13
 -1      3305 2.00552E+01 3.42347E-01-1.65684E-04 6.42539E-01-2.53664E-14-4.88033E-14
 -1      3306 2.01085E+01 2.28635E-01-9.73754E-04 4.19553E-01-6.37378E-14 2.21206E-13
 -1      3307 2.01384E+01 2.47442E-01 1.83929E-03 4.71999E-01 2.43924E-15 2.79363E-13
 -1      3308 2.00474E+01 3.04240E-01-5.85072E-05 5.15656E-01 3.01138E-14 1.43066E-13
 -1      3309 2.00848E+01 1.94927E-01-1.96212E-04 3.25755E-01-9.04422E-14 2.14919E-13
 -1      3310 2.01083E+01 2.11648E-01 1.66778E-03 3.69763E-01-9.77541E-14 1.81328E-13
 -1      3311 2.00413E+01 2.61780E-01-2.17880E-04 4.06632E-01-9.77812E-14 1.18638E-13
 -1      3312 1.98309E+01 3.64674E-01-6.39658E-04-1.57819E-02-1.05291E-15-3.48049E-13
 -1      3313 1.98316E+01 3.64127E-01-4.94077E-04 2.12858E-02 6.77354E-14-2.91825E-14
 -1      3314 1.99452E+01 2.70068E-01 1.79764E-03-2.04683E-01 9.58329E-14 2.81624E-13
 -1      3315 1.99125E+01 2.91310E-01-1.53795E-03-1.86470E-01 6.57441E-14 2.04244E-13
 -1      3316 1.98475E+01 3.51816E-01-1.72092E-04-9.24787E-02 5.43168E-14 1.32711E-13
 -1      3317 1.98362E+01 3.59904E-01-9.23712E-04-5.81351E-02 3.01999E-14-9.08238E-14
 -1      3318 1.98023E+01 3.93770E-01 1.32879E-03-4.04080E-02 7.15736E-14-2.67784E-13
 -1      3319 2.56259E+01-3.86411E+00 7.02165E-02-1.29035E+00-1.06489E-13 5.07629E-13
 -1      3320 2.66573E+01-2.91924E+00-1.03087E-01 1.73745E-01-1.16226E-15 4.84557E-13
 -1      3321 2.00653E+01 1.19483E-01 9.04381E-04-3.47646E-01-3.48811E-14-7.21557E-16
 -1      3322 2.00627E+01 1.30451E-01 1.03564E-03-3.11468E-01 3.20593E-15 7.48694E-15
 -1      3323 2.00991E+01 1.46887E-01-1.01828E-03-3.62814E-01 1.69928E-14-6.12291E-14
 -1      3324 2.01049E+01 2.17778E-01-4.64241E-04-1.67019E-01 9.10678E-14 1.29988E-14
 -1      3325 2.01295E+01 2.73260E-01 3.33718E-03-9.91351E-02 1.03800E-13 2.70597E-14
 -1      3326 1.68368E+01-3.66216E+00 1.11976E-01-5.58751E+00 3.04853E-13-2.92960E-14
 -1      3327 2.81697E+01 5.79083E+00-1.54321E-01-4.55055E-01-3.38618E-13-4.22357E-13
 -1      3328 1.98867E+01 3.18818E-01 3.82596E-04-1.58808E-01 7.05677E-14-2.75719E-14
 -1      3329 1.98641E+01 3.34977E-01-1.28070E-03-1.30525E-01 1.11156E-13 8.45607E-14
 -1      3330 1.98287E+01 3.73439E-01 1.31105E-03-1.24352E-01 1.52832E-13 9.10453E-14
 -1      3331 1.98811E+01 3.31500E-01 1.31131E-03-1.93532E-01 1.88825E-13 1.40260E-13
 -1      3332 2.00987E+01 1.67446E-01 1.98046E-03-5.55130E-01 1.07940E-13-9.58028E-14
 -1      3333 2.00701E+01 1.49760E-01-8.44351E-04-5.17097E-01 1.11839E-13-8.06052E-14
 -1      3334 2.00577E+01 2.12417E-01-4.18387E-04-5.88187E-01 8.18940E-14-5.89749E-14
 -1      3335 2.00774E+01 1.36098E-01 1.69043E-03-4.80558E-01 8.89387E-14-8.39889E-14
 -1      3336 2.00564E+01 1.24418E-01-3.89605E-04-4.47259E-01 9.11689E-14-7.71240E-14
 -1      3337 2.00793E+01 1.49398E-01-7.79538E-04-4.33812E-01 8.14524E-14-1.19576E-13
 -1      3338 2.00659E+01 1.73894E-01-5.73371E-04-5.06340E-01 8.61708E-14-8.97517E-14
 -1      3339 2.03031E+01 1.17983E+00 5.62438E-03-6.39542E-01-1.14459E-13-2.47962E-13
 -1      3340 2.02687E+01 9.40406E-01-4.52460E-03-4.47113E-01-1.12052E-13-2.56009E-13
 -1      3341 2.02937E+01 9.86661E-01 3.60480E-04-3.86734E-01-9.26362E-14-2.67092E-13
 -1      3342 2.63710E+01-1.76253E-01-8.29519E-02 1.99014E+00 1.25899E-13 1.74846E-13
 -1      3343 1.58319E+01-2.63918E+00 1.12760E-01-5.17045E+00 3.29646E-13-8.96505E-14
 -1      3344 1.83200E+01-3.58396E+00 1.80727E-02-5.04519E+00 3.32220E-13-5.98618E-14
 -1      3345 1.56750E+01-1.81098E+00 8.61627E-02-4.45625E+00 2.22475E-13-1.93227E-13
 -1      3346 1.00799E+01-5.50724E-01 1.80467E-01 3.52784E+00-4.48509E-13 1.19071E-14
 -1      3347 9.35378E+00 1.82419E-02 7.97593E-02 1.77613E+00-2.67029E-13 7.01939E-14
 -1      3348 2.00139E+01 1.85739E-01 7.95007E-04 1.93334E-01 2.81329E-13-2.24057E-14
 -1      3349 2.00777E+01 1.49064E-01 3.27776E-04-2.70194E-01 2.97928E-14 2.01984E-14
 -1      3350 2.00874E+01 1.78514E-01 2.08300E-03-2.22925E-01 6.31686E-14 9.63739E-15
 -1      3351 2.01266E+01 1.75566E-01-1.26407E-03-2.82738E-01 2.60957E-14-1.57253E-14
 -1      3352 2.00944E+01 2.26632E+00-6.22469E-03-1.10101E+00-1.11887E-13-3.23678E-13
 -1      3353 2.01712E+01 2.08107E+00-8.23590E-03-1.18361E+00-1.55591E-13-3.00592E-13
 -1      3354 2.02428E+01 1.78202E+00 5.84036E-03-1.01976E+00-1.41643E-13-2.77646E-13
 -1      3355 2.01769E+01 2.00231E+00 8.03509E-03-8.95750E-01-9.29185E-14-3.33455E-13
 -1      3356 2.14803E+01-4.36744E+00 1.11586E-01-4.33713E+00-4.33188E-13 9.26160E-14
 -1      3357 2.34766E+01-4.71753E+00-1.14552E-01-3.14989E+00-2.89768E-13 3.60058E-13
 -1      3358 2.02999E+01 1.00810E+00-4.80560E-04 6.65032E-01 2.29110E-13-2.41504E-14
 -1      3359 2.02765E+01 1.32785E+00 2.72714E-03 7.46531E-01 2.16478E-13-6.20460E-14
 -1      3360 2.02816E+01 1.15624E+00 3.11663E-04 5.64430E-01 1.89014E-13-7.82736E-14
 -1      3361 2.02438E+01 7.99646E-01-3.53529E-03 4.54375E-01 2.00162E-13-2.97389E-15
 -1      3362 2.63213E+01 1.14646E+00-1.59086E-01-2.25196E+00 3.74700E-14-2.92710E-13
 -1      3363 2.68683E+01-4.09267E-01-3.25046E-02-1.98423E+00 2.91017E-14-2.63713E-13
 -1      3364 2.00491E+01 2.20721E+00-4.31134E-03 2.81565E-01 1.30813E-13-2.91388E-13
 -1      3365 2.00351E+01 2.24739E+00-3.48609E-03 1.63723E-01 9.31942E-14-3.04440E-13
 -1      3366 1.57332E+01-2.79819E+00 2.48191E-02 5.24038E+00 2.70770E-13-1.41429E-13
 -1      3367 1.29735E+01-1.62306E+00 1.34526E-01 4.71581E+00 2.76092E-13-3.36259E-13
 -1      3368 2.00276E+01 2.26730E+00-3.77662E-03 6.38313E-02 8.34165E-14-3.00964E-13
 -1      3369 2.00272E+01 2.26820E+00-3.73669E-03-5.60084E-02 6.71189E-14-3.27899E-13
 -1      3370 2.01384E+01 1.98029E+00 5.26431E-03 9.60298E-02 9.38816E-14-2.95649E-13
 -1      3371 2.50698E+01-4.38533E+00-4.68637E-02 2.13275E+00 2.34687E-13 1.17451E-13
 -1      3372 2.33621E+01-4.68076E+00 4.35939E-02 3.49712E+00 1.00413E-13 1.72255E-13
 -1      3373 2.02637E+01 1.49753E+00 7.19252E-03 5.60550E-01 1.71947E-13-1.73889E-13
 -1      3374 2.01669E+01 1.83326E+00-7.30114E-03 6.61481E-01 1.90024E-13-2.06894E-13
 -1      3375 2.01301E+01 1.96679E+00-3.07456E-03 5.68995E-01 1.69769E-13-2.30725E-13
 -1      3376 1.08454E+01 2.79819E-01 3.51706E-04 1.73988E+00-2.61711E-13-1.00142E-13
 -1      3377 9.85135E+00 4.35343E-01 1.57878E-01 7.03097E-01-1.89654E-13-1.36210E-13
 -1      3378 1.06310E+01 5.25757E-01 7.86809E-02-3.01569E-01-1.25283E-13-1.40145E-13
 -1      3379 1.99572E+01 2.57598E-01-1.15766E-03-2.35706E-01 8.19328E-14 1.75349E-13
 -1      3380 2.30301E+01-4.25830E+00 3.59718E-02 3.10680E+00 1.29008E-13 4.46258E-14
 -1      3381 2.65880E+01-1.87411E+00-2.92863E-02 1.21469E+00 4.90198E-14 3.30874E-13
 -1      3382 2.02064E+01 3.80173E-01-1.51345E-03-3.67141E-02 1.33498E-13-1.89101E-14
 -1      3383 2.01477E+01 3.42874E-01-1.46113E-03-1.93892E-02 1.25567E-13 2.93683E-14
 -1      3384 2.01867E+01 4.36328E-01 4.11348E-03 8.16970E-02 1.66597E-13 2.72895E-14
 -1      3385 2.00973E+01 2.06562E+00-5.30363E-03 4.86364E-01 1.71862E-13-2.36501E-13
 -1      3386 2.00705E+01 2.14844E+00-3.28131E-03 3.76077E-01 1.42803E-13-2.56842E-13
 -1      3387 2.01630E+01 1.90132E+00 5.56979E-03 2.75761E-01 1.30024E-13-2.58510E-13
 -1      3388 2.02080E+01 1.74273E+00 6.48248E-03 4.37046E-01 1.61280E-13-2.16480E-13
 -1      3389 2.62776E+01-1.38212E+00-2.72559E-02-1.37632E+00 9.76892E-14-2.60264E-13
 -1      3390 1.78289E+01-3.44489E+00 8.21732E-02 5.30076E+00-2.84731E-13 1.37352E-13
 -1      3391 1.62431E+01-2.68108E+00 2.32443E-02 5.09051E+00-2.82926E-13 1.32137E-13
 -1      3392 1.04803E+01 3.01046E-01 1.17947E-01 1.16046E+00 9.82443E-14-5.08538E-13
 -1      3393 1.10212E+01-6.42799E-02 1.53255E-01-2.87657E+00-1.40492E-13-7.11015E-13
 -1      3394 1.25948E+01-5.32829E-01 5.93220E-02-3.45346E+00-2.52215E-13-5.25892E-13
 -1      3395 1.09049E+01 2.90286E-01 5.79601E-02-1.68143E+00-2.23328E-14-4.99781E-13
 -1      3396 2.71934E+01-1.02367E+00-4.93533E-02 1.79269E+00-1.72674E-13-4.42070E-13
 -1      3397 2.73624E+01 5.42477E-01-1.50680E-01 2.48996E+00-2.24099E-13-4.03601E-13
 -1      3398 2.68019E+01-2.33361E+00-3.15153E-02 1.21123E+00-6.31934E-14-3.93095E-13
 -1      3399 2.05716E+01-3.76849E+00 6.62930E-02-4.23285E+00-4.35742E-13 1.10734E-13
 -1      3400 2.33768E+01-3.57919E+00-5.90131E-02 2.01211E+00 1.42315E-13 1.24522E-13
 -1      3401 2.44117E+01-4.19783E+00 8.42882E-03-2.09143E+00 1.73608E-13-2.69434E-13
 -1      3402 2.00100E+01 2.43523E-01 1.32990E-03-2.95530E-01-1.17716E-13-1.46419E-13
 -1      3403 2.42946E+01 3.90496E+00-7.83725E-02 3.10049E-02 4.34930E-14-8.60327E-14
 -1      3404 2.64094E+01 5.16751E+00-1.19928E-01 4.68809E-01 1.51767E-13-2.50041E-13
 -1      3405 1.76557E+01-3.12762E+00 1.22912E-01 5.05656E+00 2.72629E-13-1.27773E-13
 -1      3406 1.64958E+01-2.20955E+00 2.55304E-02 4.61128E+00 2.79214E-13-1.60767E-13
 -1      3407 1.93063E+01-3.59347E+00-1.86985E-02 4.53266E+00 2.19148E-13 1.42837E-14
 -1      3408 2.44063E+01 3.65504E+00-7.71901E-02-8.02735E-01 1.04514E-13-1.10854E-13
 -1      3409 1.98039E+01 3.91181E-01 1.30297E-03 4.80985E-02 4.97283E-14-1.61049E-13
 -1      3410 1.98380E+01 3.56572E-01-1.03110E-03 6.38151E-02 4.02004E-14 1.52238E-14
 -1      3411 1.98507E+01 3.47311E-01-1.61525E-05 9.80770E-02 9.44588E-14-2.99925E-13
 -1      3412 2.00753E+01 1.90431E-01 1.65499E-03 2.94202E-01-6.43196E-14 2.17795E-13
 -1      3413 2.00253E+01 2.32233E-01-9.95221E-04 3.23274E-01-3.80095E-14 1.69024E-13
 -1      3414 2.00545E+01 1.86748E-01 1.20010E-03 2.67537E-01 3.05567E-14 2.55709E-13
 -1      3415 2.56568E+01-2.34809E+00-5.30624E-03 7.04681E-01 1.39368E-14 2.13240E-13
 -1      3416 2.00151E+01 1.93080E-01 4.82330E-04 2.18421E-01 6.99676E-14 8.91032E-14
 -1      3417 2.00288E+01 1.98154E-01 1.18079E-03 2.43705E-01 3.05599E-14 1.44997E-13
 -1      3418 1.99688E+01 2.32756E-01-1.66105E-03 2.12449E-01 3.82550E-13-2.63132E-13
 -1      3419 1.98683E+01 3.28218E-01-1.25859E-03 1.34745E-01 1.00143E-13-3.40810E-13
 -1      3420 1.98911E+01 3.10905E-01 2.94651E-04 1.61577E-01 1.92040E-13-2.42723E-13
 -1      3421 1.98327E+01 3.66086E-01 1.07393E-03 1.30782E-01 8.19180E-14-2.92017E-13
 -1      3422 1.99137E+01 2.85801E-01-1.39722E-03 1.83223E-01 1.88242E-13-2.20575E-13
 -1      3423 1.99423E+01 2.62941E-01 3.89592E-04 1.99001E-01 3.05827E-13-3.14357E-13
 -1      3424 1.99397E+01 2.73772E-01 8.16359E-04 2.26213E-01 3.28862E-13-5.47680E-13
 -1      3425 1.98824E+01 3.24578E-01 1.17328E-03 1.91222E-01 1.31422E-13-3.07122E-13
 -1      3426 2.57211E+01-3.85306E+00 2.40773E-03 1.12540E+00 3.32589E-13-1.08750E-13
 -1      3427 2.46238E+01-3.91889E+00-3.94406E-03 1.61709E+00 3.42814E-13 1.74669E-14
 -1      3428 2.57841E+01-3.16509E+00-3.20864E-02 1.01033E-01 2.72449E-13-2.11647E-13
 -1      3429 2.74271E+01 2.51458E+00-8.03092E-02 2.26794E+00-4.11893E-13-4.59133E-13
 -1      3430 2.43601E+01-3.91944E+00 1.10782E-02-1.83698E+00-1.82306E-13 3.34722E-13
 -1      3431 2.01934E+01 5.21329E-01-2.35914E-03 1.76975E-01 1.81061E-13 3.28040E-14
 -1      3432 2.02442E+01 6.63792E-01 3.69159E-03 3.23931E-01 1.87530E-13 4.31338E-15
 -1      3433 2.02724E+01 8.26106E-01 1.04531E-03 3.84942E-01 1.85297E-13-3.88264E-15
 -1      3434 2.02442E+01 5.71062E-01-8.09191E-04 1.48580E-01 1.64657E-13 1.81238E-14
 -1      3435 2.65655E+01 5.38636E+00-1.72906E-01-6.23685E-01 1.42331E-13-3.96835E-13
 -1      3436 2.57157E+01 4.33844E+00-8.59543E-02-1.12189E+00 7.95058E-14-3.45907E-13
 -1      3437 2.01759E+01-3.80754E+00 8.64200E-02-4.50078E+00 2.91600E-13 1.66284E-13
 -1      3438 2.15989E+01-3.95122E+00-2.15939E-02-3.60615E+00 2.20584E-13-5.71678E-15
 -1      3439 1.89433E+01-2.96702E+00 3.04123E-02-4.35747E+00 3.12882E-13 1.01683E-13
 -1      3440 1.24061E+01-1.15511E+00 8.16181E-02 4.13075E+00-3.17898E-13 1.21680E-13
 -1      3441 2.01627E+01 2.47585E-01-1.46209E-03-1.79762E-01 8.18480E-14-8.46876E-15
 -1      3442 2.02479E+01 1.50184E+00-5.19267E-03-8.56158E-01-1.22412E-13-2.66690E-13
 -1      3443 1.59012E+01-2.24724E+00 8.99829E-02-4.83344E+00-4.71567E-13-2.55629E-13
 -1      3444 2.00678E+01 2.15464E+00-3.31563E-03-3.68404E-01-9.17289E-16-3.14267E-13
 -1      3445 2.00935E+01 2.07425E+00-5.30332E-03-4.79705E-01-3.13916E-14-3.11343E-13
 -1      3446 1.18531E+01-2.82400E-01 9.25380E-02-2.94349E+00 7.47596E-14-1.93401E-13
 -1      3447 2.68765E+01 5.29170E+00-1.48630E-01 6.91203E-02-3.07587E-13-3.46414E-13
 -1      3448 2.01280E+01 1.97623E+00-2.82858E-03-5.62538E-01-5.12087E-14-3.10454E-13
 -1      3449 2.01663E+01 1.84458E+00-6.40086E-03-6.59986E-01-7.90579E-14-3.31466E-13
 -1      3450 2.02042E+01 1.74930E+00 5.53229E-03-4.30759E-01-5.16268E-14-2.91315E-13
 -1      3451 1.32573E+01-9.00875E-01 1.20499E-01 3.83504E+00 2.35562E-13-3.09759E-13
 -1      3452 2.02426E+01 1.52885E+00-2.75666E-03-7.44973E-01-1.18283E-13-2.90132E-13
 -1      3453 2.69854E+01 4.77162E+00-1.29868E-01 1.20123E+00-4.33709E-13-4.14307E-13
 -1      3454 2.17142E+01-4.66152E+00-6.68292E-03 4.40407E+00-9.49657E-14 2.37931E-13
 -1      3455 1.93334E+01-4.05273E+00 5.46260E-02 5.03788E+00-2.15557E-13 1.75505E-13
 -1      3456 1.98081E+01-3.51941E+00 6.22913E-02 4.43347E+00-1.40270E-13 3.52361E-13
 -1      3457 2.28337E+01-4.25634E+00 5.78424E-02 3.31770E+00 1.45189E-13 4.29459E-13
 -1      3458 2.58701E+01-2.39585E+00-1.62551E-02-7.90587E-01 2.18581E-13-2.22992E-13
 -1      3459 2.33008E+01-3.78431E+00 7.08623E-02-2.57680E+00 8.35287E-14-2.12988E-13
 -1      3460 1.15596E+01 3.15723E-01 2.80193E-02 1.93347E+00 1.60830E-13-4.96700E-13
 -1      3461 1.10295E+01 6.33206E-01 6.64682E-02 2.10986E-01 8.08765E-14-4.20934E-13
 -1      3462 1.99512E+01 2.89895E-01 3.20357E-04-2.84776E-01 5.63305E-14 1.13902E-13
 -1      3463 2.03195E+01 7.96913E-01 2.55226E-03-1.93778E-01-6.41743E-14-2.54206E-13
 -1      3464 2.03004E+01 6.44784E-01-2.58553E-03-8.27248E-02-5.95675E-14-2.43592E-13
 -1      3465 2.02994E+01 5.23480E-01 2.06449E-03-2.73185E-03-7.98838E-14-2.27659E-13
 -1      3466 2.02745E+01 4.25581E-01-1.73743E-03 7.77767E-02-7.83758E-14-2.13885E-13
 -1      3467 2.03252E+01 6.65579E-01 2.70138E-04-5.28870E-02-5.84533E-14-2.46029E-13
 -1      3468 2.02585E+01 3.51697E-01 1.52748E-03 1.37362E-01-7.82756E-14-1.94426E-13
 -1      3469 2.02332E+01 2.94544E-01-8.01611E-04 1.96265E-01-8.23329E-14-1.79546E-13
 -1      3470 2.02987E+01 4.49210E-01 1.91978E-04 8.93551E-02-7.38870E-14-2.06954E-13
 -1      3471 2.02073E+01 2.55011E-01 8.08880E-04 2.41364E-01-7.31436E-14-1.46661E-13
 -1      3472 2.01840E+01 2.28547E-01-7.85323E-05 2.86642E-01-1.32447E-14-1.38658E-13
 -1      3473 2.02506E+01 3.20062E-01-2.74372E-05 1.96791E-01-6.38153E-14-1.61208E-13
 -1      3474 2.01510E+01 2.14907E-01 9.21870E-05 3.23335E-01 1.76289E-14-1.36729E-13
 -1      3475 2.01297E+01 2.11853E-01 4.54868E-04 3.61984E-01 3.91310E-14-1.38542E-13
 -1      3476 2.01893E+01 2.58212E-01-3.47964E-05 2.80872E-01-9.86393E-15-1.31307E-13
 -1      3477 2.00906E+01 2.17880E-01-5.69284E-04 3.95807E-01 2.54542E-14-1.65805E-13
 -1      3478 2.00706E+01 2.32686E-01 8.33932E-04 4.33505E-01-2.35095E-14-1.20863E-13
 -1      3479 2.01178E+01 2.48185E-01 1.37842E-04 3.52939E-01 2.18751E-14-1.90336E-13
 -1      3480 2.00253E+01 2.53616E-01-1.18050E-03 4.68979E-01-3.42972E-14-9.27471E-14
 -1      3481 2.00051E+01 2.81873E-01 1.10280E-03 5.10175E-01-3.19787E-14-8.46683E-14
 -1      3482 2.00364E+01 2.77772E-01 4.26907E-04 4.22844E-01-7.74108E-15-1.52433E-13
 -1      3483 1.99523E+01 3.13706E-01-1.75452E-03 5.50928E-01-7.24509E-14-6.02507E-14
 -1      3484 1.99305E+01 3.51444E-01 1.30354E-03 5.99009E-01-8.61604E-14-3.06042E-14
 -1      3485 1.99432E+01 3.37192E-01 8.06038E-04 4.98560E-01-4.78379E-14-9.81146E-14
 -1      3486 1.98686E+01 3.90212E-01-2.30364E-03 6.47962E-01-1.24956E-13-5.16606E-14
 -1      3487 1.98438E+01 4.33141E-01 1.48522E-03 7.05420E-01-8.98362E-14-9.27064E-14
 -1      3488 1.98348E+01 4.17638E-01 1.25121E-03 5.86476E-01-1.04859E-13-1.04174E-13
 -1      3489 1.97706E+01 4.74092E-01-2.83638E-03 7.65005E-01-4.15098E-14-1.07365E-13
 -1      3490 1.97421E+01 5.16741E-01 1.72345E-03 8.33596E-01-6.10330E-14-9.38559E-14
 -1      3491 1.97073E+01 5.09785E-01 1.74086E-03 6.91804E-01-7.76200E-14-1.46381E-13
 -1      3492 1.96558E+01 5.53387E-01-3.35415E-03 9.06121E-01-9.06627E-14-7.36399E-14
 -1      3493 1.96244E+01 5.88037E-01 2.14576E-03 9.87103E-01-9.07734E-14-5.01998E-14
 -1      3494 1.95565E+01 6.02036E-01 2.22265E-03 8.19186E-01-4.26105E-14-1.38983E-13
 -1      3495 1.95243E+01 6.10896E-01-3.84007E-03 1.07534E+00-1.08860E-13-1.14689E-13
 -1      3496 1.94936E+01 6.26186E-01 2.95915E-03 1.16982E+00-8.58779E-14-1.24047E-13
 -1      3497 1.93793E+01 6.78460E-01 2.59145E-03 9.73788E-01-1.23356E-13-1.06882E-13
 -1      3498 1.93812E+01 6.21190E-01-4.24064E-03 1.27789E+00-3.88763E-14-1.54938E-13
 -1      3499 1.93608E+01 6.00388E-01 4.49311E-03 1.38725E+00-1.16846E-14-1.67309E-13
 -1      3500 1.91759E+01 7.16080E-01 2.63903E-03 1.16303E+00-4.45783E-14-1.38308E-13
 -1      3501 1.92427E+01 5.47010E-01-4.36561E-03 1.52187E+00 6.45471E-14-8.39264E-14
 -1      3502 1.92519E+01 4.65884E-01 7.24631E-03 1.64797E+00 1.31906E-13-2.63789E-14
 -1      3503 1.89533E+01 6.81432E-01 1.97989E-03 1.39912E+00 8.80792E-14-7.02745E-14
 -1      3504 1.91446E+01 3.35050E-01-3.55036E-03 1.81962E+00 1.58591E-13 1.57389E-14
 -1      3505 1.92192E+01 1.59278E-01 1.17769E-02 1.96356E+00 2.12331E-13 2.48553E-14
 -1      3506 1.87312E+01 5.25719E-01-7.97908E-05 1.70252E+00 1.86156E-13 3.28744E-14
 -1      3507 1.91605E+01-8.88318E-02-8.15888E-05 2.18436E+00 1.84699E-13 2.50078E-14
 -1      3508 1.93568E+01-4.02858E-01 1.80285E-02 2.33906E+00 2.02843E-13-1.85089E-14
 -1      3509 1.85560E+01 1.76925E-01-4.72370E-03 2.10375E+00 1.65283E-13 6.75815E-14
 -1      3510 1.94316E+01-8.09209E-01 1.36054E-02 2.61577E+00 2.04188E-13-7.02962E-14
 -1      3511 1.99042E+01-1.32333E+00 2.79841E-02 2.72478E+00 2.09538E-13-2.99413E-15
 -1      3512 1.85394E+01-4.62616E-01-8.37623E-03 2.63974E+00 2.24354E-13 2.70763E-15
 -1      3513 1.98184E+01-2.18845E+00 3.74486E-02 3.41073E+00 2.42817E-13 2.58894E-14
 -1      3514 2.05812E+01-2.93586E+00 3.98890E-02 3.50469E+00 2.37074E-13 3.06452E-14
 -1      3515 1.96640E+01-3.04826E+00 8.89858E-02-4.16625E+00-4.41149E-13-3.46771E-15
 -1      3516 2.12754E+01-3.68697E+00-6.59700E-02-3.53042E+00-3.34194E-13 1.77958E-13
 -1      3517 1.99211E+01 3.89921E-01 2.59997E-03-9.52600E-01-5.24994E-14-8.08296E-14
 -1      3518 1.99078E+01 3.79446E-01-1.91505E-03-8.83196E-01-6.89914E-14-5.62989E-14
 -1      3519 2.20114E+01-3.29380E+00 1.37380E-02-2.87717E+00 1.71353E-13-5.59472E-14
 -1      3520 2.11750E+01-2.58827E+00 3.86894E-02-2.96374E+00 1.93066E-13 1.06432E-13
 -1      3521 2.05022E+01-1.68848E+00 1.83297E-02-2.66362E+00-1.12575E-14 1.39439E-13
 -1      3522 2.00017E+01-1.10955E+00 2.37057E-02-2.59574E+00-8.65870E-14 1.58999E-13
 -1      3523 1.97976E+01-6.65430E-01 1.64435E-02-2.35100E+00-3.96547E-14 9.08182E-14
 -1      3524 1.95317E+01-2.94538E-01 5.49840E-03-2.22619E+00-1.24054E-14 1.01814E-13
 -1      3525 1.89925E+01-7.93197E-01-1.79812E-02-2.71774E+00-1.05874E-13 1.76236E-13
 -1      3526 1.95101E+01-5.67756E-03 1.16178E-02-2.01116E+00-1.20431E-13 9.96947E-14
 -1      3527 1.93857E+01 2.12756E-01-7.70718E-04-1.87784E+00-2.04062E-13-1.10728E-14
 -1      3528 1.88388E+01-3.17739E-02-9.47933E-03-2.20876E+00-1.06320E-13 9.24289E-14
 -1      3529 1.94437E+01 3.77170E-01 7.52647E-03-1.70020E+00-1.71831E-13-8.01212E-14
 -1      3530 1.93996E+01 4.89302E-01-2.74169E-03-1.57345E+00-1.03148E-13-1.64830E-13
 -1      3531 1.89004E+01 4.15225E-01-2.53173E-03-1.79741E+00-1.77015E-13 1.24155E-14
 -1      3532 1.94862E+01 5.67057E-01 4.72370E-03-1.42836E+00 2.43924E-14-1.28078E-13
 -1      3533 1.94821E+01 6.09904E-01-3.28877E-03-1.31221E+00 1.20436E-13-8.42867E-14
 -1      3534 1.90518E+01 6.38983E-01 7.28151E-04-1.47181E+00-5.64759E-14-1.40127E-13
 -1      3535 1.95723E+01 6.32384E-01 3.04502E-03-1.19183E+00 5.94270E-15 6.78137E-15
 -1      3536 1.95847E+01 6.32912E-01-3.26823E-03-1.08709E+00-1.51025E-14 7.12665E-14
 -1      3537 1.92271E+01 7.20870E-01 2.03505E-03-1.20991E+00 7.93948E-14-2.20621E-13
 -1      3538 1.96673E+01 6.22681E-01 2.11799E-03-9.85644E-01-1.01511E-13 1.22556E-13
 -1      3539 1.96840E+01 5.99469E-01-3.01404E-03-8.92454E-01-1.17840E-14 1.73522E-13
 -1      3540 1.93950E+01 7.16511E-01 2.36822E-03-9.93589E-01-4.55747E-14-3.29778E-14
 -1      3541 1.97547E+01 5.71865E-01 1.62253E-03-8.06351E-01 3.59672E-14 1.12485E-13
 -1      3542 1.97700E+01 5.37226E-01-2.66172E-03-7.24685E-01-1.06299E-13-6.61195E-14
 -1      3543 1.95419E+01 6.63634E-01 2.24558E-03-8.11504E-01-1.67197E-13-5.02955E-14
 -1      3544 1.98278E+01 5.02250E-01 1.34921E-03-6.51689E-01-6.84503E-14-3.06301E-14
 -1      3545 1.98397E+01 4.64036E-01-2.27813E-03-5.81260E-01 1.60303E-13-5.54716E-14
 -1      3546 1.96639E+01 5.87290E-01 1.93685E-03-6.57078E-01-1.64972E-14 6.43347E-14
 -1      3547 1.98856E+01 4.27887E-01 1.19418E-03-5.19746E-01 2.14376E-13-2.63080E-13
 -1      3548 1.98940E+01 3.90821E-01-1.83162E-03-4.59986E-01 6.95323E-14-3.11986E-13
 -1      3549 1.97612E+01 5.03522E-01 1.54310E-03-5.26210E-01 4.24596E-14 6.04948E-14
 -1      3550 1.99294E+01 3.57653E-01 1.26721E-03-4.08615E-01 5.57977E-14-3.37332E-13
 -1      3551 1.99315E+01 3.24391E-01-1.84095E-03-3.57447E-01-1.25498E-14-2.08506E-13
 -1      3552 1.98361E+01 4.22218E-01 9.59698E-04-4.16345E-01 6.95622E-14-4.07719E-13
 -1      3553 1.99481E+01 3.63975E-01 2.20564E-03-8.13870E-01-1.01445E-13-7.48584E-14
 -1      3554 1.99420E+01 3.40876E-01-1.87578E-03-7.52777E-01-4.55489E-14-4.83452E-14
 -1      3555 1.97955E+01 4.29513E-01 3.67354E-04-8.34867E-01-9.57135E-14-6.88694E-14
 -1      3556 1.99815E+01 3.17008E-01 1.91343E-03-6.94719E-01 1.87374E-14-9.12558E-14
 -1      3557 1.99797E+01 2.89516E-01-1.65040E-03-6.42365E-01 6.79349E-14-4.27260E-14
 -1      3558 1.98699E+01 3.79062E-01 4.28481E-04-7.08095E-01-1.27610E-15-3.57302E-14
 -1      3559 1.99107E+01 3.73860E-01 3.18677E-03-1.10965E+00-1.94828E-14-6.76989E-14
 -1      3560 1.98841E+01 3.87417E-01-1.65055E-03-1.03393E+00-5.09430E-14-9.59014E-14
 -1      3561 1.97225E+01 4.53112E-01-1.79395E-05-9.85239E-01-3.31635E-14-8.04774E-14
 -1      3562 1.99360E+01 2.87172E-01 4.04491E-03-1.28089E+00-9.28725E-15-1.08336E-14
 -1      3563 1.98854E+01 3.40244E-01-8.82865E-04-1.20293E+00 3.61357E-14-2.85542E-14
 -1      3564 1.96617E+01 4.25432E-01-9.87205E-04-1.16108E+00-1.66175E-14-2.27279E-14
 -1      3565 2.00298E+01 9.26508E-02 5.13058E-03-1.45750E+00-1.24802E-13-2.38079E-14
 -1      3566 1.99378E+01 2.05148E-01 7.18246E-04-1.38467E+00-5.90207E-14-2.93346E-14
 -1      3567 1.96344E+01 3.13278E-01-2.97327E-03-1.36313E+00-2.58260E-14-2.02017E-14
 -1      3568 2.02447E+01-2.53225E-01 6.18812E-03-1.62149E+00-1.00416E-13-9.82576E-14
 -1      3569 2.00853E+01-5.85951E-02 3.69966E-03-1.56700E+00-8.70549E-14-4.40865E-14
 -1      3570 1.96783E+01 7.33138E-02-6.66660E-03-1.58916E+00-8.08182E-14-1.24228E-14
 -1      3571 2.06560E+01-7.90938E-01 6.22296E-03-1.73634E+00-1.39886E-13-1.65275E-14
 -1      3572 2.03964E+01-4.94080E-01 9.15568E-03-1.72399E+00-1.32361E-13-7.89363E-14
 -1      3573 1.98559E+01-3.45758E-01-1.28347E-02-1.82801E+00-1.19378E-13-3.15210E-14
 -1      3574 2.13603E+01-1.52778E+00 3.52679E-03-1.72566E+00-1.98425E-13 4.50601E-14
 -1      3575 2.09703E+01-1.13106E+00 1.86033E-02-1.79861E+00-1.73013E-13-2.44273E-14
 -1      3576 2.02662E+01-9.95553E-01-2.22479E-02-2.04576E+00-1.95222E-13-2.99240E-16
 -1      3577 2.24400E+01-2.36148E+00-4.81110E-03-1.45314E+00-1.80625E-13 5.42140E-14
 -1      3578 2.19179E+01-1.93395E+00 3.17344E-02-1.67481E+00-1.85757E-13-9.70122E-15
 -1      3579 2.10489E+01-1.88272E+00-3.39493E-02-2.14610E+00-1.63416E-13-1.10028E-13
 -1      3580 2.51545E+01-2.86619E+00 2.59331E-02 6.29119E-02 3.06630E-14 2.27494E-13
 -1      3581 1.53572E+01-1.08174E+00 4.96186E-02-3.92103E+00 1.23224E-13-1.49155E-13
 -1      3582 1.70398E+01-1.94820E+00 2.61076E-02-4.29537E+00 1.86507E-13-1.28203E-13
 -1      3583 2.58429E+01 1.77827E+00-7.58913E-02-2.17833E+00 8.16014E-15-2.13191E-13
 -1      3584 2.15381E+01-1.60703E+00 2.78247E-02 1.72084E+00 1.36431E-13-9.90330E-14
 -1      3585 2.20110E+01-2.03042E+00 1.40115E-03 1.56305E+00 6.58406E-14-7.56144E-14
 -1      3586 2.07369E+01-8.52696E-01 1.44136E-02 1.75732E+00-4.26070E-14 2.72911E-13
 -1      3587 2.10744E+01-1.22007E+00 3.58262E-03 1.72428E+00 2.90850E-14 2.57893E-14
 -1      3588 2.07239E+01-1.52494E+00-3.30147E-02 2.10375E+00-2.28084E-14-3.95500E-14
 -1      3589 2.02720E+01-2.87811E-01 7.17716E-03 1.63864E+00 2.66688E-14 3.75551E-13
 -1      3590 2.04908E+01-5.47177E-01 6.61063E-03 1.67241E+00 6.42546E-14 3.22970E-13
 -1      3591 2.00956E+01-7.01405E-01-1.71332E-02 1.94086E+00-5.76062E-14 3.87001E-13
 -1      3592 2.00262E+01 8.59790E-02 2.66473E-03 1.46170E+00-2.37737E-14 5.40798E-13
 -1      3593 2.01577E+01-7.92262E-02 5.68235E-03 1.52892E+00 3.94372E-14 4.42345E-13
 -1      3594 1.97785E+01-1.40157E-01-9.91843E-03 1.70779E+00-3.59704E-14 5.24955E-13
 -1      3595 1.99156E+01 3.04367E-01 1.96071E-04 1.26776E+00-8.63616E-14 3.04031E-13
 -1      3596 1.99906E+01 2.12480E-01 4.53056E-03 1.34891E+00-7.84919E-14 3.17171E-13
 -1      3597 1.96517E+01 2.15202E-01-4.87755E-03 1.46401E+00 4.19181E-14 3.85652E-13
 -1      3598 1.98804E+01 4.10844E-01-1.06742E-03 1.07740E+00-4.40959E-14 2.53408E-13
 -1      3599 1.99214E+01 3.70096E-01 3.43664E-03 1.16185E+00-7.02988E-14 2.66953E-13
 -1      3600 1.96320E+01 4.10896E-01-1.98663E-03 1.23620E+00 3.68535E-15 7.41296E-14
 -1      3601 1.98836E+01 4.42905E-01-1.63468E-03 8.99877E-01-2.46415E-13 1.58040E-13
 -1      3602 1.99057E+01 4.35317E-01 2.66141E-03 9.81504E-01-1.43938E-13 2.83916E-13
 -1      3603 1.96656E+01 4.96870E-01-4.02908E-04 1.03133E+00-1.15624E-13 9.12650E-14
 -1      3604 1.99035E+01 4.29416E-01-1.81013E-03 7.39653E-01-1.18081E-13 4.17976E-14
 -1      3605 1.99158E+01 4.41522E-01 2.13730E-03 8.14985E-01-1.44186E-13 1.78769E-13
 -1      3606 1.97214E+01 5.11835E-01 3.76155E-04 8.50384E-01-1.40245E-13 4.45101E-14
 -1      3607 1.99283E+01 3.91093E-01-1.77148E-03 5.98621E-01-1.92190E-14 1.99409E-14
 -1      3608 1.99358E+01 4.13414E-01 1.77317E-03 6.65845E-01-1.04254E-13-4.91601E-14
 -1      3609 1.97818E+01 4.84537E-01 6.88202E-04 6.92704E-01-5.33290E-14 5.97070E-15
 -1      3610 1.99521E+01 3.42168E-01-1.56696E-03 4.77107E-01-1.25185E-15 1.23132E-13
 -1      3611 1.99573E+01 3.68261E-01 1.50936E-03 5.35521E-01-3.88608E-14 5.40121E-14
 -1      3612 1.98382E+01 4.35183E-01 7.43610E-04 5.57105E-01-4.76353E-14-2.07157E-13
 -1      3613 1.99723E+01 2.92480E-01-9.71736E-04 3.74414E-01-1.47391E-13 2.12328E-13
 -1      3614 1.99764E+01 3.17655E-01 1.36802E-03 4.23765E-01-7.59796E-14 2.24298E-13
 -1      3615 1.98859E+01 3.77288E-01 4.60976E-04 4.42255E-01-8.75615E-14 1.95498E-15
 -1      3616 1.68319E+01-2.10902E+00 4.67022E-02 4.45117E+00-1.69562E-13 2.08934E-13
 -1      3617 1.50049E+01-1.69574E+00 1.19510E-01 4.78540E+00-2.23488E-13 1.03417E-13
 -1      3618 1.97579E+01 4.23074E-01-7.49283E-04-6.70637E-02 9.61507E-14-1.06324E-13
 -1      3619 1.97512E+01 4.28041E-01-6.55832E-04-2.21094E-02 4.88746E-14-5.31289E-13
 -1      3620 1.52267E+01-1.36300E+00 6.61196E-02-4.24057E+00-3.85775E-13-2.37123E-13
 -1      3621 1.74399E+01-2.48231E+00-2.39970E-02-4.53002E+00-4.27276E-13-1.95170E-13
 -1      3622 2.01255E+01 1.75692E-01 6.12769E-04-3.64157E-01 5.26104E-14-1.10170E-13
 -1      3623 2.01383E+01 1.83170E-01 4.10612E-04-3.25888E-01 2.16153E-14-7.12775E-14
 -1      3624 2.00339E+01 2.24980E+00-3.51898E-03-1.55840E-01 5.54606E-14-3.34912E-13
 -1      3625 2.00471E+01 2.21175E+00-4.25413E-03-2.73481E-01 2.42805E-14-3.18765E-13
 -1      3626 2.01612E+01 1.90622E+00 5.55804E-03-2.69577E-01 2.98642E-15-3.09178E-13
 -1      3627 2.02051E+01 2.69900E-01-7.26128E-04-1.91789E-01 7.11023E-14-2.17551E-14
 -1      3628 2.02291E+01 3.27855E-01 2.01332E-03-1.29490E-01 9.96387E-14-2.38220E-14
 -1      3629 2.19597E+01-3.61769E+00 1.03817E-01 3.40799E+00 1.65187E-13 3.41732E-14
 -1      3630 2.00168E+01 2.64183E-01 1.65402E-03-5.94200E-01 7.47022E-14-3.58215E-14
 -1      3631 2.00181E+01 2.38416E-01-1.29308E-03-5.49734E-01 7.38834E-14-5.09137E-14
 -1      3632 1.99408E+01 3.19468E-01 3.06285E-04-6.02173E-01 7.59732E-14-6.16871E-14
 -1      3633 2.30974E+01-3.67348E+00 8.21369E-02-2.51471E+00-2.28962E-13 1.83361E-13
 -1      3634 2.44418E+01-3.45407E+00-4.68762E-02-1.00435E+00-4.37879E-14 1.62775E-13
 -1      3635 2.38812E+01-2.96033E+00-1.66213E-02-7.42453E-01-3.28036E-15 1.22060E-13
 -1      3636 2.20545E+01-3.19537E+00 2.26717E-02-2.64109E+00-2.45005E-13 3.83491E-14
 -1      3637 2.01646E+01 2.00069E-01 3.91903E-05-2.87144E-01 1.67430E-14-4.98182E-14
 -1      3638 2.01829E+01 2.28999E-01 1.19659E-03-2.40723E-01 4.47916E-14-3.64875E-14
 -1      3639 2.01824E+01 2.28282E-01-4.39442E-04-2.88253E-01 5.75951E-14-1.23182E-13
 -1      3640 2.02145E+01 1.62354E+00-2.91937E-03-6.85806E-01-1.03813E-13-3.22458E-13
 -1      3641 2.27560E+01-2.45300E+00 3.16137E-02 1.38519E+00 1.14015E-14-1.46787E-13
 -1      3642 2.33901E+01-2.73707E+00 3.69551E-03 9.91232E-01 7.65100E-14-2.40415E-13
 -1      3643 2.18442E+01-2.44090E+00-2.57870E-02 2.02015E+00 4.29001E-14-2.73247E-13
 -1      3644 1.16345E+01 3.81383E-01 8.43666E-02-1.94838E+00 2.87947E-14-1.34788E-13
 -1      3645 1.32860E+01-2.85304E-01 3.34169E-02-3.16676E+00 8.19084E-14-1.92193E-13
 -1      3646 1.46916E+01-9.46055E-01 3.79047E-02 3.84952E+00 2.61877E-13-2.40433E-13
 -1      3647 1.30296E+01-1.09008E-01 9.24760E-02 3.05438E+00 2.12967E-13-2.87367E-13
 -1      3648 2.02972E+01 9.63221E-01 8.29816E-04 4.29054E-01 1.74754E-13-7.61411E-14
 -1      3649 2.02849E+01 1.13807E+00-2.13767E-03 4.66414E-01 1.66774E-13-1.38464E-13
 -1      3650 2.02798E+01 8.09569E-01-2.21516E-03 2.91323E-01 1.63575E-13-6.60601E-14
 -1      3651 2.68452E+01 3.74408E+00-2.08328E-01 2.01633E+00-5.03403E-13-4.99531E-13
 -1      3652 2.51198E+01-2.74441E+00-2.02770E-02-2.09200E-01 2.09431E-13-2.26610E-13
 -1      3653 1.31870E+01-7.04950E-01 5.23174E-02 3.65811E+00-2.34240E-13 1.90493E-13
 -1      3654 1.98872E+01 3.43274E-01 3.77789E-04-2.91439E-01 1.96955E-13 2.88121E-14
 -1      3655 2.02622E+01 1.42986E+00 3.12198E-03-5.24904E-01-8.88191E-14-2.92103E-13
 -1      3656 1.26838E+01 3.32421E-02 1.42320E-01 2.97763E+00-1.61047E-13 2.35707E-13
 -1      3657 1.25609E+01 3.41616E-01 7.30904E-02 2.03213E+00-9.86294E-14 5.75477E-14
 -1      3658 1.45965E+01-7.21027E-01-3.23752E-03 3.63815E+00-1.29983E-13 2.61877E-13
 -1      3659 1.32858E+01 3.10851E-01 6.48872E-02 2.16735E+00 1.93314E-13-3.73354E-13
 -1      3660 2.02444E+01 4.02253E-01-1.54204E-03-6.32959E-02 1.03183E-13-3.78496E-14
 -1      3661 2.02715E+01 5.00136E-01 2.51191E-03 2.36639E-02 1.33259E-13-4.15372E-14
 -1      3662 2.02778E+01 4.29116E-01-4.24836E-04-7.81986E-02 9.58869E-14-6.57335E-14
 -1      3663 1.87803E+01-2.27652E+00 4.78419E-02-3.86518E+00-3.54340E-13-7.99187E-14
 -1      3664 1.14462E+01 7.09968E-01 8.60851E-02-6.81207E-01 4.08859E-14-3.12111E-13
 -1      3665 1.22235E+01 5.13165E-01 2.56234E-02-1.60523E+00 3.60822E-16-4.36012E-13
 -1      3666 1.24130E+01 7.98573E-01 4.66329E-02 4.47927E-02 1.27988E-13-3.17826E-13
 -1      3667 1.83667E+01-1.69547E+00 5.20450E-03 3.65468E+00 2.84631E-13-1.23256E-13
 -1      3668 2.02338E+01 2.96446E-01-4.60357E-04-1.97232E-01 6.38966E-14-6.70856E-14
 -1      3669 2.33059E+01-2.71545E+00 4.19864E-02-1.16421E+00-1.25008E-13 1.05059E-13
 -1      3670 1.96852E+01-2.22314E+00-1.41742E-02-3.43970E+00 1.65872E-13 1.72510E-13
 -1      3671 1.34899E+01-1.09709E-01 1.67887E-02-2.93766E+00-2.05154E-13-3.55101E-13
 -1      3672 1.42783E+01-7.39616E-01 5.10099E-02-3.80249E+00-3.03296E-13-2.63605E-13
 -1      3673 1.60209E+01-9.06919E-01 5.39650E-02-3.56816E+00-2.93384E-13-2.52682E-13
 -1      3674 2.00883E+01 1.84552E-01 1.04275E-03-4.35038E-01 6.83100E-14-1.14115E-13
 -1      3675 2.00965E+01 1.76352E-01-2.64019E-04-3.98850E-01 6.26041E-14-1.06302E-13
 -1      3676 2.01272E+01 2.08354E-01-3.03011E-04-3.64273E-01 5.30619E-14-1.62324E-13
 -1      3677 2.23693E+01-2.88163E+00-4.21930E-02-1.94476E+00-1.68144E-13-8.61707E-14
 -1      3678 1.47221E+01-4.44708E-01 5.48499E-02-3.39664E+00 3.51733E-14-2.06953E-13
 -1      3679 1.61215E+01-5.50979E-01 4.51213E-02-3.25414E+00 9.95211E-14-2.13546E-13
 -1      3680 1.41793E+01 1.72652E-01 1.32723E-03-2.57147E+00-2.27303E-15-1.36505E-13
 -1      3681 2.02755E+01 1.27962E+00 1.39717E-04 4.31907E-01 1.55078E-13-1.71613E-13
 -1      3682 2.01969E+01 1.70684E+00-3.40699E-03 1.21157E-01 1.07814E-13-2.77043E-13
 -1      3683 2.01920E+01 1.72767E+00-2.82344E-03 3.63472E-02 9.44384E-14-2.93808E-13
 -1      3684 1.97519E+01 4.25710E-01-9.86017E-04 3.26884E-02-8.11924E-14-1.85214E-13
 -1      3685 1.97618E+01 4.19603E-01-2.01129E-04 7.81988E-02 2.26213E-15-1.85825E-13
 -1      3686 1.97112E+01 4.65279E-01 1.44662E-03 7.21043E-03-8.64222E-14-2.34003E-13
 -1      3687 1.98288E+01 4.00706E-01 1.50150E-03-3.04138E-01 2.86900E-13-1.21573E-13
 -1      3688 1.98512E+01 3.55882E-01-8.34313E-04-2.31484E-01 3.45014E-13 1.74295E-13
 -1      3689 1.99765E+01 2.82458E-01 1.10428E-03 3.38020E-01 1.93013E-14 4.82759E-14
 -1      3690 1.99078E+01 3.32700E-01-5.61656E-04 3.52162E-01 6.66380E-15-1.53634E-13
 -1      3691 1.99647E+01 2.71701E-01-4.62884E-04 3.03276E-01 8.12723E-14 2.70529E-14
 -1      3692 1.83446E+01-2.44571E+00 3.34541E-02 4.23516E+00-1.93389E-13 3.65714E-13
 -1      3693 1.69356E+01-1.66836E+00 2.60163E-03 3.97722E+00-2.53846E-13 4.01429E-13
 -1      3694 1.85706E+01-2.25752E+00 3.87508E-02-3.92131E+00 2.00760E-13 2.04385E-14
 -1      3695 1.97798E+01 4.03025E-01-1.26482E-03 1.28699E-01-5.69529E-14-2.34115E-13
 -1      3696 1.98053E+01 3.86532E-01 1.22919E-04 1.67890E-01-2.15838E-14-3.16254E-13
 -1      3697 1.97335E+01 4.47241E-01 1.21351E-03 1.16283E-01-1.68520E-13-1.48132E-13
 -1      3698 1.98332E+01 3.61061E-01-1.52022E-03 2.01265E-01 5.82769E-14-3.94112E-13
 -1      3699 1.98650E+01 3.40098E-01 3.28839E-04 2.24403E-01 9.63470E-14-3.17816E-13
 -1      3700 1.97882E+01 4.07449E-01 1.25572E-03 2.02903E-01-9.54113E-14-4.45862E-13
 -1      3701 1.98170E+01 3.80857E-01-1.48824E-03-2.02171E-01 2.42740E-13 1.06094E-13
 -1      3702 2.02940E+01 1.20287E+00-1.84037E-04-4.44064E-01-9.02019E-14-2.79102E-13
 -1      3703 2.02961E+01 9.81449E-01-3.42543E-03-2.98105E-01-8.42972E-14-2.70788E-13
 -1      3704 2.02197E+01 1.60928E+00-4.14404E-03 2.64144E-01 1.33647E-13-2.29103E-13
 -1      3705 2.02069E+01 1.67103E+00-2.30065E-03 1.85589E-01 1.11736E-13-2.63926E-13
 -1      3706 2.02762E+01 1.46344E+00 5.41595E-03 1.19310E-01 1.03604E-13-2.52012E-13
 -1      3707 2.02056E+01 1.67464E+00-2.36039E-03-1.80571E-01 2.11225E-14-2.78703E-13
 -1      3708 2.02184E+01 1.61509E+00-3.94759E-03-2.59301E-01-1.61655E-14-2.75015E-13
 -1      3709 2.00523E+01 2.16947E-01 1.37551E-03-5.09334E-01 6.91770E-14-8.42919E-14
 -1      3710 2.00567E+01 1.97776E-01-8.29735E-04-4.70647E-01 8.97132E-14-8.84138E-14
 -1      3711 2.00071E+01 2.64131E-01 1.09261E-04-5.13356E-01 6.74111E-14-9.03994E-14
 -1      3712 2.40991E+01-3.51723E+00 1.05850E-02 1.40201E+00 1.24072E-13-2.92221E-13
 -1      3713 2.35415E+01-3.97974E+00-1.54260E-02 2.37284E+00 1.34386E-13 1.74483E-14
 -1      3714 1.19812E+01 7.79896E-01-1.06608E-02 8.47014E-02-1.58943E-13-1.96169E-13
 -1      3715 1.16847E+01 6.78078E-01 7.46349E-02-1.04273E+00-1.04155E-13-2.06328E-13
 -1      3716 1.30467E+01 6.74568E-01 5.03779E-02-1.38504E+00-2.97366E-14-2.08982E-13
 -1      3717 2.01378E+01 1.98188E+00 5.26693E-03-8.95128E-02 6.95292E-14-3.20315E-13
 -1      3718 2.45220E+01-2.98958E+00-3.76949E-03 3.80014E-01 1.14377E-13-2.30708E-13
 -1      3719 2.02606E+01 1.41785E+00 2.90614E-04-4.29202E-01-7.13642E-14-2.69040E-13
 -1      3720 2.08215E+01-3.55696E+00 5.58009E-03 3.84652E+00-1.31263E-13 6.11199E-13
 -1      3721 1.93522E+01-2.93865E+00 2.05488E-02 4.11692E+00-1.90818E-13 4.69839E-13
 -1      3722 1.93800E+01-2.45812E+00 7.58515E-03 3.70042E+00-2.08295E-13 5.36524E-13
 -1      3723 2.03156E+01 9.93439E-01-4.69944E-04-2.40971E-01-6.16056E-14-2.65808E-13
 -1      3724 2.22616E+01-3.77550E+00 3.00304E-02 3.09737E+00-5.72251E-14 2.26916E-13
 -1      3725 1.97912E+01 4.00352E-01-4.80311E-04-1.57774E-01 1.76538E-13 1.23025E-13
 -1      3726 1.97687E+01 4.16046E-01-9.81936E-04-1.17105E-01 1.33006E-13 2.29882E-13
 -1      3727 1.97225E+01 4.60199E-01 1.57078E-03-1.00672E-01 1.36096E-13 6.05476E-14
 -1      3728 1.97646E+01 4.34766E-01 1.77921E-03-1.98275E-01 2.10932E-13 6.28260E-14
 -1      3729 2.03429E+01 7.95043E-01 1.12757E-04-9.45881E-02-5.20511E-14-2.59428E-13
 -1      3730 2.03350E+01 6.52682E-01-2.03369E-03-1.32136E-02-5.27463E-14-2.38149E-13
 -1      3731 1.99891E+01 2.34481E-01-1.33499E-03 2.64089E-01-1.34519E-14-2.26196E-14
 -1      3732 2.02546E+01 1.43381E+00-5.43163E-03 3.84053E-01 1.47488E-13-1.95763E-13
 -1      3733 2.02367E+01 1.53887E+00-1.70699E-03 3.19040E-01 1.29309E-13-2.05207E-13
 -1      3734 2.02936E+01 1.35469E+00 5.54471E-03 2.23684E-01 1.17679E-13-1.99164E-13
 -1      3735 2.19033E+01-3.25804E+00 4.15872E-02 2.86938E+00-1.55854E-13 1.47612E-13
 -1      3736 2.03325E+01 5.37931E-01 1.11407E-03 4.23623E-02-4.52814E-14-2.07104E-13
 -1      3737 2.03090E+01 4.47002E-01-1.62869E-03 1.04145E-01-4.39228E-14-1.80237E-13
 -1      3738 2.03477E+01 6.54033E-01 1.17889E-04 6.15473E-03-2.51265E-14-2.18576E-13
 -1      3739 2.02876E+01 3.79269E-01 6.95843E-04 1.47389E-01-4.93788E-14-1.49211E-13
 -1      3740 2.02576E+01 3.28443E-01-7.92195E-04 1.94738E-01-5.55650E-14-1.44738E-13
 -1      3741 2.03163E+01 4.61665E-01 9.91930E-04 1.04884E-01-2.82056E-14-1.11570E-13
 -1      3742 2.02219E+01 2.95365E-01 8.53530E-05 2.28376E-01-2.67042E-14-1.25973E-13
 -1      3743 2.01873E+01 2.76449E-01-2.40911E-04 2.66878E-01 8.65352E-15-1.18186E-13
 -1      3744 2.02552E+01 3.49405E-01 6.23026E-04 1.81820E-01-1.49934E-14-1.26255E-13
 -1      3745 2.01403E+01 2.70606E-01-4.30053E-04 2.95971E-01 3.53482E-14-1.24897E-13
 -1      3746 2.01016E+01 2.76223E-01 1.42071E-04 3.30695E-01 2.90727E-14-1.29136E-13
 -1      3747 2.01713E+01 3.05606E-01 6.24922E-04 2.45007E-01 1.12170E-14-1.03342E-13
 -1      3748 2.00441E+01 2.91358E-01-9.71838E-04 3.59027E-01 3.61323E-15-1.46956E-13
 -1      3749 2.00007E+01 3.15837E-01 3.77629E-04 3.94238E-01-1.58317E-14-1.43884E-13
 -1      3750 2.00683E+01 3.14576E-01 8.24658E-04 3.02093E-01 1.45134E-14-1.19906E-13
 -1      3751 1.99323E+01 3.46855E-01-1.52908E-03 4.25007E-01-4.47204E-14-1.40990E-13
 -1      3752 1.98827E+01 3.85418E-01 5.03071E-04 4.64091E-01-5.48770E-14-1.14702E-13
 -1      3753 1.99458E+01 3.64245E-01 1.17226E-03 3.59775E-01-4.30956E-14-1.21249E-13
 -1      3754 1.98014E+01 4.27827E-01-2.11141E-03 4.99951E-01-8.44272E-14-1.18554E-13
 -1      3755 1.97437E+01 4.75935E-01 5.63691E-04 5.45628E-01-8.36405E-14-7.76588E-14
 -1      3756 1.98013E+01 4.44382E-01 1.65494E-03 4.23516E-01-4.40885E-14-8.83956E-14
 -1      3757 1.96468E+01 5.24998E-01-2.73860E-03 5.88883E-01-9.95257E-14-5.73523E-14
 -1      3758 1.95788E+01 5.77596E-01 6.18293E-04 6.43374E-01-9.84756E-14-6.99360E-14
 -1      3759 1.96300E+01 5.45314E-01 2.26136E-03 4.97990E-01-8.09878E-14-2.48602E-14
 -1      3760 1.94628E+01 6.27684E-01-3.46367E-03 6.96277E-01-7.58957E-14-9.80438E-14
 -1      3761 1.93828E+01 6.78496E-01 7.70076E-04 7.61762E-01-8.04662E-14-1.01328E-13
 -1      3762 1.94256E+01 6.56633E-01 3.00136E-03 5.87371E-01-9.77531E-14-4.25704E-14
 -1      3763 1.92434E+01 7.22155E-01-4.36735E-03 8.27216E-01-1.04491E-13-9.41124E-14
 -1      3764 1.91508E+01 7.62713E-01 1.18412E-03 9.06548E-01-1.29114E-13-1.11395E-13
 -1      3765 1.91806E+01 7.65834E-01 3.85944E-03 6.96419E-01-1.04063E-13-1.02635E-13
 -1      3766 1.89832E+01 7.89518E-01-5.57667E-03 9.89213E-01-7.95882E-14-5.46052E-14
 -1      3767 1.88801E+01 8.07934E-01 2.10745E-03 1.08704E+00 3.01389E-14-3.49802E-15
 -1      3768 1.88863E+01 8.56721E-01 4.82198E-03 8.32345E-01-8.59084E-14 6.55118E-15
 -1      3769 1.86793E+01 8.03029E-01-7.30518E-03 1.19498E+00 1.05551E-13-1.50107E-14
 -1      3770 1.85732E+01 7.82587E-01 3.95104E-03 1.31937E+00 1.41644E-13 2.21165E-14
 -1      3771 1.85336E+01 9.07208E-01 5.79649E-03 1.00769E+00 4.96880E-14 6.98351E-14
 -1      3772 1.83340E+01 7.25091E-01-9.69771E-03 1.46688E+00 1.58881E-13-1.31559E-14
 -1      3773 1.82430E+01 6.42182E-01 7.78338E-03 1.63142E+00 1.77599E-13-5.76501E-14
 -1      3774 1.81137E+01 8.87095E-01 6.66464E-03 1.24479E+00 1.38201E-13-7.22495E-14
 -1      3775 1.79622E+01 5.01510E-01-1.22510E-02 1.84453E+00 2.13641E-13-8.24444E-15
 -1      3776 1.79217E+01 3.18495E-01 1.40691E-02 2.07015E+00 2.01051E-13 1.11083E-14
 -1      3777 1.76168E+01 7.52443E-01 6.49501E-03 1.58304E+00 1.96712E-13-1.48799E-13
 -1      3778 1.76106E+01 4.75501E-02-1.34699E-02 2.38290E+00 1.68546E-13-3.14423E-14
 -1      3779 1.76880E+01-2.87113E-01 2.47814E-02 2.70146E+00 2.25350E-13-8.30447E-14
 -1      3780 1.70527E+01 4.33135E-01 7.26013E-03 2.08720E+00 1.91385E-13-1.11450E-13
 -1      3781 1.72391E+01-7.02940E-01-1.44838E-02 3.14663E+00 2.34454E-13-1.14490E-13
 -1      3782 1.68933E+01-1.50345E+00 3.80443E-02 3.86447E+00 2.75155E-13-1.40114E-13
 -1      3783 1.55442E+01-1.02686E+00 8.38032E-02 3.88319E+00 2.63681E-13-1.90518E-13
 -1      3784 1.63557E+01-1.33477E-01 1.66183E-02 2.81362E+00 1.89043E-13-1.37268E-13
 -1      3785 1.95333E+01 5.32411E-01 2.74274E-03-9.72632E-01-2.77848E-14-3.86293E-14
 -1      3786 1.95639E+01 5.21094E-01-2.89845E-03-8.93023E-01-4.92036E-14-4.82350E-14
 -1      3787 1.81742E+01 1.05735E-01 1.61185E-02-2.24173E+00-2.00717E-13 2.03697E-13
 -1      3788 1.81488E+01 3.49810E-01-8.50411E-03-2.00736E+00-1.58591E-13 1.67712E-13
 -1      3789 1.83850E+01 5.33714E-01 1.02386E-02-1.76731E+00-1.62931E-13 1.57916E-14
 -1      3790 1.84288E+01 6.55598E-01-8.52684E-03-1.59013E+00-1.87778E-13 2.12255E-14
 -1      3791 1.77009E+01 6.29302E-01 3.28422E-03-1.77546E+00-2.42588E-13 4.30814E-14
 -1      3792 1.86429E+01 7.44848E-01 5.38571E-03-1.42045E+00-2.14623E-13-1.42281E-13
 -1      3793 1.87189E+01 7.91511E-01-6.92627E-03-1.28242E+00-9.13350E-14-2.40037E-13
 -1      3794 1.81384E+01 8.45769E-01 5.91507E-03-1.38385E+00-2.51392E-13-2.64266E-13
 -1      3795 1.89032E+01 8.18626E-01 2.85046E-03-1.15611E+00 5.74256E-14-2.80215E-13
 -1      3796 1.89853E+01 8.18608E-01-5.49590E-03-1.04454E+00 9.76501E-14-3.40145E-13
 -1      3797 1.85199E+01 9.19445E-01 5.60570E-03-1.10382E+00 1.34706E-14-2.68049E-13
 -1      3798 1.91394E+01 8.07596E-01 1.52119E-03-9.45899E-01 4.05458E-14-3.89333E-13
 -1      3799 1.92155E+01 7.80199E-01-4.42061E-03-8.52912E-01-5.69500E-14-3.53264E-13
 -1      3800 1.88440E+01 9.06114E-01 4.90703E-03-8.93443E-01 7.22714E-14-5.08068E-13
 -1      3801 1.93420E+01 7.47750E-01 8.84685E-04-7.72914E-01-1.03207E-13-1.60047E-13
 -1      3802 1.94071E+01 7.06090E-01-3.60271E-03-6.94061E-01-1.45146E-13-1.19650E-13
 -1      3803 1.91128E+01 8.41648E-01 4.13152E-03-7.27138E-01 5.68916E-14-4.62899E-13
 -1      3804 1.95094E+01 6.63468E-01 6.15587E-04-6.27768E-01-5.33381E-15 4.27339E-14
 -1      3805 1.95623E+01 6.16322E-01-2.98638E-03-5.60579E-01 1.71453E-14 7.34062E-14
 -1      3806 1.93317E+01 7.50433E-01 3.37877E-03-5.90856E-01 1.45237E-14 1.50143E-14
 -1      3807 1.96439E+01 5.71346E-01 6.31342E-04-5.05307E-01-6.03376E-14 5.25589E-14
 -1      3808 1.96852E+01 5.24184E-01-2.44282E-03-4.47959E-01-6.51627E-14-6.21622E-14
 -1      3809 1.95071E+01 6.48946E-01 2.59319E-03-4.77181E-01-1.20399E-14 3.55618E-14
 -1      3810 1.97497E+01 4.81264E-01 7.52976E-04-4.02192E-01-1.16201E-13-8.39412E-14
 -1      3811 1.97801E+01 4.36872E-01-2.37437E-03-3.53756E-01 5.90829E-14-2.27049E-13
 -1      3812 1.96449E+01 5.47980E-01 1.49406E-03-3.82357E-01-1.17589E-13 1.73818E-13
 -1      3813 1.96503E+01 5.03066E-01 2.01034E-03-8.17434E-01-7.84166E-14-4.56300E-14
 -1      3814 1.96847E+01 4.74872E-01-2.57541E-03-7.50124E-01-6.01884E-14 4.75116E-15
 -1      3815 1.94657E+01 5.77765E-01 1.50176E-03-8.03193E-01-4.23532E-14 2.33718E-14
 -1      3816 1.97633E+01 4.44762E-01 1.57449E-03-6.89001E-01-4.32837E-14 3.02939E-14
 -1      3817 1.97976E+01 4.09667E-01-2.16856E-03-6.32536E-01 3.53924E-14 2.73051E-14
 -1      3818 1.96234E+01 5.14957E-01 1.40395E-03-6.70311E-01-1.92266E-14 7.55334E-14
 -1      3819 2.02507E+01 3.08939E-01-7.32792E-04-2.00621E-01 6.56617E-14-1.41316E-13
 -1      3820 2.02775E+01 3.62983E-01 9.68048E-04-1.48190E-01 6.72009E-14-1.23321E-13
 -1      3821 1.93429E+01 3.94046E-01 5.99428E-03-1.38427E+00-6.65835E-14-6.50618E-15
 -1      3822 1.93341E+01 4.61983E-01-2.92347E-03-1.27610E+00-2.86027E-14-3.22333E-14
 -1      3823 1.93313E+01 1.46334E-01 8.83308E-03-1.65299E+00-4.78995E-14-3.52874E-14
 -1      3824 1.92699E+01 2.87552E-01-2.09412E-03-1.53004E+00-1.78489E-14-1.65620E-14
 -1      3825 1.89607E+01 4.45577E-01-1.17742E-03-1.43865E+00-2.66725E-14-2.20649E-14
 -1      3826 1.94569E+01-2.92439E-01 1.25300E-02-1.96628E+00-1.48676E-13 1.83639E-14
 -1      3827 1.93030E+01-4.81120E-02 1.71696E-04-1.83404E+00-1.02116E-13 3.07833E-15
 -1      3828 1.88534E+01 1.65305E-01-5.31061E-03-1.77514E+00-9.29765E-14 6.33492E-14
 -1      3829 1.98306E+01-9.86690E-01 1.72336E-02-2.30705E+00-1.62311E-13-8.47090E-14
 -1      3830 1.95258E+01-6.01808E-01 7.54583E-03-2.18358E+00-1.46344E-13-4.05048E-14
 -1      3831 1.88685E+01-3.35236E-01-1.34152E-02-2.19981E+00-1.13096E-13 2.64652E-14
 -1      3832 2.06303E+01-1.97280E+00 2.27810E-02-2.59120E+00-1.52264E-13-1.35827E-13
 -1      3833 2.00966E+01-1.43959E+00 2.33098E-02-2.53569E+00-1.21612E-13-8.13999E-14
 -1      3834 1.91263E+01-1.13696E+00-2.74147E-02-2.71018E+00-1.69421E-13-1.89743E-13
 -1      3835 2.01919E+01 2.48408E-01-1.06953E-04-2.81319E-01 7.50587E-14-1.44938E-13
 -1      3836 2.02203E+01 2.72020E-01 4.30040E-04-2.39700E-01 7.59370E-14-1.28361E-13
 -1      3837 2.02569E+01 3.31424E-01 2.92595E-04-1.94741E-01 6.65055E-14-1.46234E-13
 -1      3838 2.12261E+01-2.58007E+00 4.71912E-02-2.76693E+00-2.46919E-13-2.82816E-14
 -1      3839 1.80356E+01-1.24110E+00 1.17817E-02-3.38666E+00 8.61654E-14 6.22835E-14
 -1      3840 2.02927E+01 1.36010E+00 5.54794E-03-2.22768E-01-3.09727E-14-2.52208E-13
 -1      3841 2.02351E+01 1.54673E+00-1.39261E-03-3.17551E-01-4.67192E-14-2.82735E-13
 -1      3842 1.97477E+01 4.55680E-01 3.13087E-04-2.89650E-01 1.61929E-13 9.81019E-14
 -1      3843 1.92755E+01 1.30457E-01-6.67387E-04 1.68707E+00 6.88632E-14 5.16214E-13
 -1      3844 1.93951E+01-7.55699E-02 1.20694E-02 1.81951E+00 6.79175E-14 5.98026E-13
 -1      3845 1.98445E+01-1.06670E+00 1.68087E-02 2.38186E+00-2.85241E-13 4.68482E-13
 -1      3846 2.02627E+01-1.57405E+00 7.80398E-03 2.47409E+00-3.28166E-14 2.72287E-13
 -1      3847 1.92786E+01 4.08427E-01-2.38382E-03 1.39323E+00 2.57640E-14 3.58123E-13
 -1      3848 1.93206E+01 2.93364E-01 7.87393E-03 1.51498E+00 6.23359E-14 4.35213E-13
 -1      3849 1.88766E+01 3.30392E-01-2.40091E-03 1.61374E+00 1.49320E-13 5.22955E-13
 -1      3850 1.93527E+01 5.47064E-01-2.94083E-03 1.14682E+00 1.94612E-14 2.21470E-13
 -1      3851 1.93532E+01 4.94417E-01 4.91260E-03 1.25484E+00 1.42343E-14 2.65292E-13
 -1      3852 1.89982E+01 5.55336E-01-1.75218E-04 1.29912E+00 3.97143E-14 4.81266E-13
 -1      3853 1.94554E+01 5.92263E-01-2.95759E-03 9.39214E-01-1.74515E-13 2.45330E-13
 -1      3854 1.94362E+01 5.80891E-01 3.20574E-03 1.03386E+00-6.74646E-14 1.97746E-13
 -1      3855 1.91526E+01 6.55158E-01 1.15821E-03 1.04901E+00-1.22262E-14 1.98315E-13
 -1      3856 1.95627E+01 5.78815E-01-2.75909E-03 7.63913E-01-9.24632E-14 1.45781E-14
 -1      3857 1.95362E+01 5.92697E-01 2.16261E-03 8.46248E-01-1.36094E-13 1.37133E-13
 -1      3858 1.93110E+01 6.71780E-01 1.71784E-03 8.47096E-01-1.20811E-13 1.47600E-13
 -1      3859 1.96624E+01 5.31928E-01-2.47176E-03 6.15878E-01 9.91054E-14-9.94217E-14
 -1      3860 1.96355E+01 5.59624E-01 1.54060E-03 6.86901E-01 1.59096E-14 2.96758E-14
 -1      3861 1.94581E+01 6.37706E-01 1.83257E-03 6.81887E-01 1.85875E-15-1.74561E-14
 -1      3862 1.97492E+01 4.69064E-01-2.12742E-03 4.91374E-01 2.92734E-14-2.41560E-13
 -1      3863 1.97249E+01 5.02758E-01 1.16912E-03 5.51943E-01 7.41964E-14-2.02653E-13
 -1      3864 1.95868E+01 5.75930E-01 1.69974E-03 5.45541E-01 1.31026E-13-1.39324E-13
 -1      3865 1.98217E+01 4.02886E-01-1.33561E-03 3.87689E-01-5.55964E-14-3.62472E-13
 -1      3866 1.98012E+01 4.36772E-01 1.09300E-03 4.38396E-01-4.78974E-14-3.29540E-13
 -1      3867 1.96945E+01 5.02009E-01 1.20912E-03 4.32981E-01-4.48556E-14-5.09111E-13
 -1      3868 2.03048E+01 1.24533E+00 5.02263E-03-3.10691E-01-6.52288E-14-2.56602E-13
 -1      3869 2.03150E+01 1.02710E+00-2.21540E-03-2.07617E-01-5.22459E-14-2.75532E-13
 -1      3870 2.02517E+01 1.44722E+00-3.49396E-03-3.79850E-01-6.22586E-14-2.78947E-13
 -1      3871 1.99442E+01 2.81433E-01 5.75778E-04 2.74941E-01 1.46429E-13-3.77508E-13
 -1      3872 1.98676E+01-2.33050E+00-4.02841E-02-3.26421E+00-2.63074E-13-3.86965E-14
 -1      3873 2.03106E+01 1.19237E+00-1.59413E-03-1.42731E-01-1.42575E-14-2.24842E-13
 -1      3874 2.03168E+01 1.12049E+00-3.01942E-03-1.84722E-01-5.30044E-14-2.37152E-13
 -1      3875 1.44113E+01 2.63320E-01 1.82977E-02 2.38801E+00 2.33221E-13-3.10519E-13
 -1      3876 1.33252E+01 7.59577E-01 4.15792E-02 1.37158E+00 1.50341E-13-3.45796E-13
 -1      3877 1.73906E+01-1.20970E+00 2.47459E-02 3.47244E+00-3.18892E-13 4.79079E-13
 -1      3878 1.60927E+01-8.93465E-01 5.71970E-02 3.69038E+00-2.90660E-13 2.60623E-13
 -1      3879 2.02697E+01 5.80760E-01-1.78926E-03 9.58855E-02 1.56410E-13-4.35645E-14
 -1      3880 2.02900E+01 6.92622E-01 2.35366E-03 1.97918E-01 1.59938E-13-5.21518E-14
 -1      3881 2.03039E+01 8.19749E-01-1.80737E-03 2.33800E-01 1.48649E-13-1.33684E-13
 -1      3882 2.02996E+01 6.11252E-01 2.87159E-04 6.42729E-02 1.39837E-13-7.98138E-14
 -1      3883 1.94287E+01-3.52856E-01 3.78766E-03 2.02927E+00-4.15476E-14 5.15196E-13
 -1      3884 1.96814E+01-6.78520E-01 1.85662E-02 2.15395E+00-2.06434E-13 4.86234E-13
 -1      3885 1.88498E+01-8.27862E-02-4.32529E-03 2.02371E+00-6.59737E-16 6.18983E-13
 -1      3886 2.01961E+01 1.70918E+00-3.36769E-03-1.15855E-01 5.48386E-14-3.15727E-13
 -1      3887 2.02755E+01 1.46621E+00 5.43163E-03-1.15515E-01 3.17217E-14-2.61558E-13
 -1      3888 2.01917E+01 1.72829E+00-2.87319E-03-3.10659E-02 7.70073E-14-3.19626E-13
 -1      3889 1.82724E+01-1.55422E+00 3.09854E-02-3.50019E+00-2.61374E-13-1.36966E-13
 -1      3890 1.98675E+01 3.76128E-01 1.27615E-03-5.82948E-01 5.44196E-14-2.01782E-15
 -1      3891 1.99003E+01 3.41459E-01-1.74706E-03-5.35551E-01 6.53811E-14-6.88598E-14
 -1      3892 1.97652E+01 4.39047E-01 1.18714E-03-5.62739E-01 1.59144E-14 4.83937E-14
 -1      3893 1.71251E+01-7.35215E-01 5.12651E-03-3.24658E+00 4.59103E-14-1.08137E-13
 -1      3894 1.83681E+01-7.08243E-01 2.93389E-02-2.86724E+00-3.40262E-14 8.18297E-14
 -1      3895 1.81543E+01-2.75401E-01-1.14370E-03-2.58060E+00-1.43814E-13 1.30669E-13
 -1      3896 1.64038E+01-1.30943E-01-8.07698E-03-2.77068E+00 4.57100E-14-1.23642E-13
 -1      3897 2.02691E+01 1.50080E+00 5.39556E-03 2.06826E-03 8.40086E-14-2.80596E-13
 -1      3898 2.03114E+01 1.12534E+00 4.84695E-03 3.13305E-01 1.28282E-13-1.67856E-13
 -1      3899 2.28233E+01-3.24429E+00-2.02780E-02 2.00313E+00 2.66002E-14-3.91228E-13
 -1      3900 2.35854E+01-2.97408E+00 5.49779E-03 1.10365E+00 5.96224E-14-1.88443E-13
 -1      3901 1.94235E+01 5.07521E-01 3.98967E-03-1.15954E+00-3.08268E-15-3.11799E-14
 -1      3902 1.94420E+01 5.26625E-01-3.07504E-03-1.06626E+00-1.31910E-14-2.36249E-14
 -1      3903 1.91204E+01 5.75615E-01 6.07346E-04-1.17566E+00-1.48346E-14 6.23858E-14
 -1      3904 2.02966E+01 4.34797E-01-1.26602E-03-9.79689E-02 7.90495E-14-1.18527E-13
 -1      3905 2.03182E+01 5.28620E-01 1.19428E-03-2.84605E-02 1.18396E-13-1.18394E-13
 -1      3906 2.03110E+01 4.51470E-01 4.43929E-04-1.03794E-01 8.53152E-14-1.53458E-13
 -1      3907 1.32455E+01 9.19063E-01 3.64706E-02 7.12303E-01 8.86348E-14-3.15628E-13
 -1      3908 1.33914E+01 9.86907E-01 2.20995E-02-1.55295E-01 7.10239E-14-2.31721E-13
 -1      3909 1.43713E+01 8.79739E-01 3.01095E-02 1.01967E+00 1.17201E-13-2.92134E-13
 -1      3910 1.39003E+01 3.03532E-01-9.08144E-03 2.32151E+00-2.25193E-14 1.01745E-13
 -1      3911 1.27093E+01 7.88407E-01 7.17469E-02 1.24201E+00-1.13126E-13 1.59699E-14
 -1      3912 1.34549E+01 8.87637E-01 3.33025E-02 5.83637E-01-8.89835E-14-6.88477E-14
 -1      3913 1.51895E+01-3.66922E-01-8.10276E-03 3.16821E+00-1.87547E-13 1.45370E-13
 -1      3914 1.74161E+01 1.23373E-01-3.99215E-03-2.37637E+00-9.37883E-14 1.06856E-13
 -1      3915 1.35015E+01 3.75897E-01 6.56901E-02-2.21374E+00-6.59087E-14-3.44015E-13
 -1      3916 1.47543E+01 1.15315E-01-9.82895E-03-2.56367E+00-8.11085E-14-1.80151E-13
 -1      3917 1.35666E+01 6.97249E-01-6.37911E-03-1.34956E+00 9.68409E-15-2.40141E-13
 -1      3918 1.99060E+01 3.08772E-01-8.99922E-04 2.60872E-01 1.06310E-13-4.65794E-13
 -1      3919 2.03006E+01 1.27402E+00-2.28677E-03-6.19502E-02 3.81782E-14-2.65309E-13
 -1      3920 2.03045E+01 1.23788E+00-3.22312E-03-1.11628E-01 9.90346E-15-2.21706E-13
 -1      3921 2.03482E+01 1.04135E+00 4.15469E-03-8.35792E-02-1.31059E-14-1.96097E-13
 -1      3922 1.92952E+01 6.07121E-01 1.32150E-03-9.68397E-01-2.54592E-14 2.96329E-14
 -1      3923 2.00689E+01 2.23844E-01-1.00405E-04-4.36356E-01 7.44862E-14-1.31268E-13
 -1      3924 1.98909E+01 3.65197E-01 8.73788E-04-4.74520E-01 3.26885E-14 1.80113E-16
 -1      3925 1.99620E+01 3.11073E-01 1.01094E-03-4.94978E-01 4.86263E-14-7.47793E-14
 -1      3926 1.99929E+01 2.82995E-01-1.27472E-03-4.54423E-01 4.56986E-14-7.25561E-14
 -1      3927 2.01526E+01 2.37286E-01-1.69796E-04-3.14428E-01 5.49144E-14-1.40027E-13
 -1      3928 2.01854E+01 2.77016E-01 2.64682E-04-2.68222E-01 6.51679E-14-1.10979E-13
 -1      3929 2.01236E+01 2.36742E-01 3.68800E-04-3.51145E-01 5.35014E-14-1.44074E-13
 -1      3930 1.39063E+01 5.99085E-01 4.67802E-02-1.92526E+00 3.02929E-14-1.13255E-13
 -1      3931 1.50295E+01 4.27418E-01 3.10526E-02-2.18118E+00-6.78125E-15-1.93177E-13
 -1      3932 1.37305E+01 8.29139E-01-1.25048E-02-1.13404E+00-3.41094E-14-3.09267E-13
 -1      3933 1.90309E+01-7.92550E-01-1.63886E-02 2.53341E+00-3.43665E-13 6.59533E-13
 -1      3934 1.96502E+01 5.03119E-01-1.29959E-03-1.93142E-02 6.21608E-15-3.09687E-15
 -1      3935 1.96532E+01 5.02579E-01-3.42988E-04 3.82876E-02-7.46596E-14 5.19550E-14
 -1      3936 1.96572E+01 5.25655E-01 1.21333E-03-2.80855E-01 5.59016E-14 1.50292E-13
 -1      3937 1.97011E+01 4.78841E-01-1.01134E-03-2.33457E-01 1.73791E-13 7.22042E-14
 -1      3938 1.96724E+01 4.97379E-01-5.54624E-04-1.86093E-01 1.62201E-13 1.43810E-13
 -1      3939 1.98650E+01 3.53027E-01 9.25245E-04 2.76639E-01 8.92631E-14-4.83618E-13
 -1      3940 1.97023E+01-2.01506E+00-4.52338E-03 3.16046E+00-1.97297E-13 5.28209E-13
 -1      3941 2.09470E+01-2.39456E+00 2.89036E-02 2.76525E+00-5.62102E-14 1.37338E-13
 -1      3942 2.03406E+01 9.04191E-01 2.24156E-03-1.23975E-01-5.96446E-14-2.44714E-13
 -1      3943 1.98451E+01 3.70193E-01-5.24043E-04 3.10009E-01 6.12714E-14-5.36351E-13
 -1      3944 1.98426E+01 3.87770E-01 1.22014E-03 3.48719E-01-1.66542E-14-4.29131E-13
 -1      3945 1.97587E+01 4.42361E-01-2.62203E-04 3.42655E-01-7.30382E-14-5.93949E-13
 -1      3946 1.97973E+01 3.99936E-01-1.04000E-03 2.69538E-01-1.49552E-14-5.51347E-13
 -1      3947 1.96669E+01 4.90481E-01-1.12876E-03 1.04704E-01-2.42246E-13-1.28762E-13
 -1      3948 1.96912E+01 4.75933E-01-1.17657E-04 1.57747E-01-1.60875E-13-2.83177E-13
 -1      3949 1.96100E+01 5.39580E-01 1.28329E-03 8.04829E-02-2.67075E-14 1.20935E-13
 -1      3950 1.97217E+01 4.51845E-01-1.31571E-03 2.01172E-01-7.84561E-14-3.88457E-13
 -1      3951 1.97577E+01 4.29784E-01-2.75667E-06 2.36027E-01-1.42761E-13-4.96066E-13
 -1      3952 1.97384E+01 4.52690E-01 1.19953E-03 2.69800E-01-1.23863E-13-5.30469E-13
 -1      3953 1.96587E+01 5.03325E-01 2.91246E-04 1.91975E-01-1.24805E-13-3.76402E-13
 -1      3954 2.03053E+01 1.23453E+00-3.17185E-03 1.13408E-01 1.22221E-13-2.38515E-13
 -1      3955 2.03012E+01 1.27217E+00-2.12130E-03 6.40329E-02 1.10752E-13-2.38763E-13
 -1      3956 2.03143E+01 9.74456E-01-3.84217E-04 2.15207E-01 1.24817E-13-1.49599E-13
 -1      3957 1.51765E+01-3.81558E-01 6.45174E-03 3.21795E+00 2.70266E-13-2.20331E-13
 -1      3958 1.56100E+01 4.89817E-02 2.75627E-02 2.62603E+00 2.19641E-13-2.03134E-13
 -1      3959 1.49880E+01 1.86239E-01 4.25456E-02 2.55634E+00 2.26263E-13-3.00523E-13
 -1      3960 1.48378E+01 5.98003E-01-7.35371E-03 1.85596E+00 1.98232E-13-2.58087E-13
 -1      3961 2.02984E+01 1.28803E+00-2.77056E-03 2.78113E-02 9.54650E-14-2.38796E-13
 -1      3962 2.02985E+01 1.28895E+00-2.64013E-03-2.46465E-02 8.28167E-14-2.83831E-13
 -1      3963 2.03467E+01 1.10272E+00 4.86798E-03 3.03006E-02 1.06480E-13-2.12050E-13
 -1      3964 1.96574E+01 5.02066E-01-1.25995E-03-1.28540E-01 2.77608E-13 2.30416E-13
 -1      3965 1.96472E+01 5.09922E-01-3.48815E-04-7.58578E-02 1.90295E-13 4.92132E-14
 -1      3966 1.95913E+01 5.55756E-01 1.58969E-03-4.51448E-02 3.01334E-13 2.19588E-13
 -1      3967 1.95978E+01 5.56668E-01 1.35626E-03-1.62340E-01 9.55574E-14 1.16726E-13
 -1      3968 1.71530E+01-1.08726E+00-3.30643E-03-3.48785E+00-2.40248E-13-2.12622E-13
 -1      3969 1.85152E+01-1.06367E+00 3.32321E-02-2.96866E+00-1.77747E-13-9.78774E-14
 -1      3970 1.82325E+01-6.14892E-01 3.52110E-03-2.66854E+00-1.34248E-13-1.35620E-13
 -1      3971 1.63290E+01-4.44859E-01 3.49094E-02-3.10064E+00-1.50375E-13-1.91248E-13
 -1      3972 2.16538E+01-2.99335E+00 7.06066E-03 2.72581E+00-7.50580E-14 3.45097E-14
 -1      3973 1.59781E+01 3.38064E-01-1.88864E-02 2.23978E+00 1.68638E-13-1.65683E-13
 -1      3974 1.70926E+01 7.67260E-01 1.09742E-02-1.60122E+00-2.09797E-13-2.78075E-13
 -1      3975 1.73005E+01 8.71264E-01-1.41925E-02-1.39004E+00-2.93097E-13-2.46843E-13
 -1      3976 2.03435E+01 5.27720E-01 2.04285E-03 6.24380E-02 8.29632E-16-1.58164E-13
 -1      3977 2.03141E+01 4.46450E-01-1.37592E-03 1.05271E-01-2.35160E-14-1.22920E-13
 -1      3978 2.02831E+01 3.89701E-01-4.75774E-05 1.31062E-01-2.53227E-14-1.12647E-13
 -1      3979 2.02450E+01 3.50170E-01-7.44408E-04 1.65128E-01 5.49441E-15-1.16704E-13
 -1      3980 2.03068E+01 4.51812E-01 7.57600E-04 9.07893E-02-6.22058E-15-1.09820E-13
 -1      3981 2.01980E+01 3.27348E-01-4.40083E-04 1.86268E-01 8.58769E-15-1.25362E-13
 -1      3982 2.01504E+01 3.18960E-01-4.06633E-04 2.15255E-01 8.57645E-15-1.30475E-13
 -1      3983 2.02276E+01 3.66238E-01 8.97382E-04 1.36549E-01-1.35181E-14-1.27850E-13
 -1      3984 2.00895E+01 3.23360E-01-7.90669E-04 2.34404E-01 1.65169E-14-1.19829E-13
 -1      3985 2.00328E+01 3.39295E-01-2.08111E-04 2.61689E-01 6.34803E-15-1.24982E-13
 -1      3986 2.01200E+01 3.45822E-01 1.02919E-03 1.75672E-01 2.37497E-14-1.30929E-13
 -1      3987 1.99584E+01 3.64673E-01-1.21562E-03 2.81149E-01-2.87799E-14-6.26733E-14
 -1      3988 1.98917E+01 3.99178E-01-1.85325E-04 3.09512E-01-2.80093E-14-6.70793E-14
 -1      3989 1.99869E+01 3.76732E-01 1.40408E-03 2.12356E-01 9.52570E-15-2.70067E-14
 -1      3990 1.98025E+01 4.40315E-01-1.74265E-03 3.31105E-01-2.79830E-14-5.72028E-14
 -1      3991 1.97239E+01 4.88573E-01-2.56113E-04 3.62787E-01-2.98444E-14-2.33076E-14
 -1      3992 1.98269E+01 4.46824E-01 1.86619E-03 2.50230E-01-2.54148E-14-3.63634E-14
 -1      3993 1.96171E+01 5.40647E-01-2.34072E-03 3.88246E-01-3.56924E-14-4.83269E-14
 -1      3994 1.95239E+01 5.97573E-01-4.14885E-04 4.25200E-01-4.96116E-14 2.32252E-14
 -1      3995 1.96361E+01 5.45685E-01 2.39525E-03 2.91987E-01-8.78346E-15-4.84454E-15
 -1      3996 1.93959E+01 6.55327E-01-3.05094E-03 4.55756E-01-1.10152E-13 6.76512E-15
 -1      3997 1.92843E+01 7.15544E-01-6.04171E-04 4.99777E-01-1.24608E-13-3.49082E-14
 -1      3998 1.94085E+01 6.63449E-01 3.26421E-03 3.40658E-01-9.56353E-14 1.12501E-14
 -1      3999 1.91294E+01 7.73067E-01-4.00073E-03 5.37105E-01-1.06929E-13-9.46286E-14
 -1      4000 1.89956E+01 8.30188E-01-7.66706E-04 5.90619E-01-7.42985E-14-7.22203E-14
 -1      4001 1.91346E+01 7.89186E-01 4.36482E-03 3.98157E-01-1.34690E-13-4.16178E-14
 -1      4002 1.88059E+01 8.80028E-01-5.37072E-03 6.37417E-01-2.73014E-14-7.99509E-14
 -1      4003 1.86458E+01 9.26053E-01-7.75079E-04 7.04514E-01-9.57773E-15 1.04137E-14
 -1      4004 1.88019E+01 9.10970E-01 5.81758E-03 4.68119E-01-1.42388E-15-3.44657E-14
 -1      4005 1.84103E+01 9.58524E-01-7.48954E-03 7.65898E-01-3.08320E-14 5.81959E-14
 -1      4006 1.82197E+01 9.82905E-01-5.79898E-04 8.54143E-01 1.85111E-14 1.65367E-14
 -1      4007 1.83932E+01 1.01470E+00 7.79619E-03 5.57044E-01-1.06138E-14 4.51993E-15
 -1      4008 1.79225E+01 9.85135E-01-1.08738E-02 9.39239E-01 9.75363E-14-4.64634E-14
 -1      4009 1.76995E+01 9.74620E-01 5.99113E-04 1.06210E+00 1.31602E-13-1.01538E-13
 -1      4010 1.78842E+01 1.08246E+00 1.04087E-02 6.78062E-01 1.81849E-14-2.45030E-16
 -1      4011 1.73142E+01 9.31566E-01-1.53586E-02 1.18845E+00 1.65947E-13-1.33059E-13
 -1      4012 1.70583E+01 8.70627E-01 6.17532E-03 1.37027E+00 2.19037E-13-1.46774E-13
 -1      4013 1.72352E+01 1.09321E+00 1.31137E-02 8.49714E-01 1.33857E-13-7.21628E-14
 -1      4014 1.66747E+01 7.39687E-01-2.13345E-02 1.60461E+00 1.66258E-13-1.14940E-13
 -1      4015 1.64031E+01 5.82811E-01 1.21988E-02 1.88904E+00 1.27637E-13-1.39018E-13
 -1      4016 1.57659E+01 7.32283E-01 1.90578E-02 1.70264E+00 1.51779E-13-1.87395E-13
 -1      4017 1.65072E+01 1.00238E+00 1.59124E-02 1.16231E+00 1.73273E-13-1.35415E-13
 -1      4018 1.76800E+01 9.47313E-01 3.36673E-03-1.22570E+00-3.49406E-13-1.66856E-13
 -1      4019 1.78764E+01 9.83874E-01-1.10395E-02-1.07866E+00-1.65700E-13-2.03636E-13
 -1      4020 1.71418E+01 1.07246E+00 1.25658E-02-1.04866E+00-3.11292E-13-2.77407E-13
 -1      4021 1.81705E+01 1.00467E+00 7.97051E-04-9.68852E-01 5.25610E-15-1.71928E-13
 -1      4022 1.83434E+01 9.98824E-01-7.77149E-03-8.61814E-01 1.09579E-13-2.31990E-13
 -1      4023 1.77851E+01 1.11130E+00 1.08438E-02-8.15163E-01-8.44726E-14-1.44709E-13
 -1      4024 1.85740E+01 9.83121E-01-1.14205E-04-7.82020E-01 7.24448E-14-3.18437E-13
 -1      4025 1.87202E+01 9.50777E-01-5.64920E-03-6.99322E-01 4.75696E-14-3.87383E-13
 -1      4026 1.82850E+01 1.07808E+00 8.20517E-03-6.52496E-01 5.43841E-15-2.78140E-13
 -1      4027 1.89027E+01 9.13067E-01-4.64142E-04-6.37529E-01 1.65354E-13-2.79216E-13
 -1      4028 1.90232E+01 8.65712E-01-4.27138E-03-5.70406E-01 1.92917E-13-8.00990E-14
 -1      4029 1.86811E+01 1.00042E+00 6.30578E-03-5.31410E-01 2.17309E-13 4.12130E-14
 -1      4030 1.91683E+01 8.16538E-01-5.01087E-04-5.20336E-01 5.00230E-14 2.25606E-14
 -1      4031 1.92657E+01 7.62355E-01-3.38494E-03-4.64165E-01 3.45588E-14 1.01785E-13
 -1      4032 1.89965E+01 8.97271E-01 4.94231E-03-4.35274E-01 1.57457E-13 1.98716E-13
 -1      4033 1.93810E+01 7.09756E-01-2.47112E-04-4.22681E-01-1.28083E-14-3.22444E-14
 -1      4034 1.94585E+01 6.54474E-01-2.60579E-03-3.75016E-01-5.79704E-14-3.74107E-14
 -1      4035 1.92471E+01 7.82483E-01 3.67438E-03-3.55884E-01 4.03834E-14 1.24199E-13
 -1      4036 1.95328E+01 6.14820E-01 1.98351E-04-3.46127E-01-1.58401E-14 5.46937E-15
 -1      4037 1.95946E+01 5.62614E-01-1.75836E-03-3.05865E-01-2.33124E-15 1.33200E-13
 -1      4038 1.95537E+01 5.90213E-01 5.95447E-04-2.44886E-01 3.10495E-14 6.26117E-14
 -1      4039 1.94261E+01 6.78468E-01 2.13355E-03-2.94357E-01 9.74063E-14 6.17507E-14
 -1      4040 1.92936E+01 6.53825E-01 1.53019E-03-7.47795E-01-1.57889E-14 3.13299E-14
 -1      4041 1.93730E+01 6.19271E-01-3.48613E-03-6.77745E-01-2.36265E-14 4.82993E-14
 -1      4042 1.94925E+01 5.82174E-01 1.03403E-03-6.18591E-01-1.64708E-14 5.88411E-14
 -1      4043 1.95653E+01 5.38950E-01-2.77297E-03-5.62015E-01-1.29115E-14 6.29423E-14
 -1      4044 1.93364E+01 6.58085E-01 2.76257E-03-5.63118E-01-2.04318E-15 4.09502E-14
 -1      4045 1.90732E+01 6.91883E-01 2.47602E-03-9.11957E-01-4.22813E-14 8.46532E-14
 -1      4046 1.91558E+01 6.76401E-01-4.34748E-03-8.24257E-01-4.08960E-14 4.56760E-14
 -1      4047 1.90896E+01 7.36915E-01 3.35694E-03-6.90689E-01-6.52377E-14 5.23186E-14
 -1      4048 1.86005E+01 5.52072E-01 7.23893E-03-1.40393E+00-5.20982E-14 1.39107E-13
 -1      4049 1.86592E+01 6.21646E-01-6.57270E-03-1.25972E+00-1.24973E-14 9.75515E-14
 -1      4050 2.02544E+01 3.35875E-01-6.84492E-04-1.85335E-01 5.59541E-14-1.31935E-13
 -1      4051 2.02876E+01 3.80797E-01 1.31866E-04-1.44924E-01 6.44506E-14-1.50854E-13
 -1      4052 1.89615E+01 7.56086E-01-4.88134E-03 8.97784E-01 7.34931E-14 2.62956E-13
 -1      4053 1.88877E+01 7.46485E-01 3.24061E-03 1.00458E+00 3.03727E-14 3.79974E-13
 -1      4054 2.03179E+01 6.09259E-01-2.32072E-03 2.33504E-02 1.20799E-13-1.16603E-13
 -1      4055 2.03289E+01 7.05047E-01 9.38537E-04 9.92985E-02 1.17180E-13-1.30549E-13
 -1      4056 2.03371E+01 6.23609E-01 7.49800E-04 7.10901E-04 1.26708E-13-1.65544E-13
 -1      4057 1.87264E+01 7.10726E-01-6.08055E-03 1.12994E+00 6.42328E-14 4.40328E-13
 -1      4058 1.86636E+01 6.56761E-01 5.42449E-03 1.26481E+00 1.96925E-13 5.78622E-13
 -1      4059 1.85680E+01 8.38786E-01 4.12649E-03 9.66633E-01 1.21711E-13 3.91288E-13
 -1      4060 2.03465E+01 8.82389E-01-1.00804E-03-8.17002E-02-5.48402E-14-2.57986E-13
 -1      4061 1.84849E+01 5.61860E-01-7.73712E-03 1.43209E+00 1.00084E-13 5.63905E-13
 -1      4062 1.84504E+01 4.41967E-01 7.70749E-03 1.60530E+00 7.20166E-14 5.83302E-13
 -1      4063 1.82438E+01 7.51111E-01 4.27248E-03 1.25061E+00 1.47865E-13 4.99890E-13
 -1      4064 1.91745E+01 7.36546E-01-3.95775E-03 7.15926E-01-1.13991E-13 6.19134E-14
 -1      4065 1.91013E+01 7.54641E-01 1.85255E-03 8.02180E-01 4.06854E-14 1.75335E-13
 -1      4066 1.88560E+01 8.42740E-01 3.83284E-03 7.56864E-01 8.88142E-14 3.46927E-13
 -1      4067 1.93595E+01 6.78733E-01-3.24483E-03 5.70385E-01 8.39711E-14 2.87727E-14
 -1      4068 1.92929E+01 7.12679E-01 1.09092E-03 6.41158E-01-8.04609E-14 3.81630E-15
 -1      4069 1.91033E+01 7.95442E-01 3.40595E-03 5.96556E-01 3.15377E-14 1.25996E-13
 -1      4070 1.95158E+01 6.01675E-01-2.52858E-03 4.52244E-01 2.44145E-13-2.56634E-13
 -1      4071 1.94582E+01 6.43028E-01 7.40388E-04 5.10945E-01 2.63729E-13-1.26865E-13
 -1      4072 1.93112E+01 7.18648E-01 2.77864E-03 4.71038E-01 2.45358E-13 4.24239E-14
 -1      4073 1.96449E+01 5.19101E-01-1.56724E-03 3.56852E-01 6.26377E-14-6.14418E-13
 -1      4074 1.95964E+01 5.61115E-01 5.35982E-04 4.04795E-01 1.12741E-13-5.14167E-13
 -1      4075 1.94827E+01 6.27627E-01 1.70445E-03 3.71359E-01 3.45026E-13-3.43321E-13
 -1      4076 2.03117E+01 1.18845E+00-1.34255E-03 1.45069E-01 1.12799E-13-2.29987E-13
 -1      4077 2.03496E+01 1.03718E+00 4.34213E-03 8.31563E-02 1.12977E-13-2.29152E-13
 -1      4078 2.03185E+01 1.11159E+00-2.97239E-03 1.83797E-01 1.09229E-13-1.99697E-13
 -1      4079 1.95308E+01 5.86568E-01-1.24657E-03 5.68309E-02 1.93630E-13 2.65074E-13
 -1      4080 1.95487E+01 5.75846E-01-6.06856E-04 1.26268E-01 1.67763E-13-8.95812E-14
 -1      4081 1.85694E+01-1.47025E+00 5.15438E-02 3.34212E+00-3.12395E-13 5.84143E-13
 -1      4082 1.75492E+01-8.80272E-01 2.68397E-03 3.13416E+00-4.25775E-13 6.52643E-13
 -1      4083 1.67194E+01 2.74016E-01 2.06781E-02-2.29736E+00 3.20937E-14-2.19337E-13
 -1      4084 1.67265E+01 5.66544E-01-1.24367E-02-1.91964E+00-7.08295E-14-1.59538E-13
 -1      4085 1.64114E+01 8.66500E-01 6.83515E-03-1.49466E+00-1.31660E-13-4.70624E-13
 -1      4086 1.57243E+01 3.71408E-01 7.71805E-03-2.28695E+00 3.63406E-14-2.55174E-13
 -1      4087 1.60717E+01-1.19855E-01-1.43448E-02 2.76299E+00-2.60846E-13 6.59698E-14
 -1      4088 1.50664E+01 1.35127E-01 4.62943E-02 2.61525E+00-2.04494E-13-4.01068E-14
 -1      4089 1.48975E+01 5.41453E-01-6.08230E-03 1.94803E+00-1.56917E-13-5.35925E-14
 -1      4090 1.96685E+01 4.96741E-01 7.79663E-04-5.15743E-01-4.20635E-14 5.32880E-14
 -1      4091 1.97337E+01 4.53032E-01-2.17648E-03-4.69554E-01 1.06762E-14 1.88087E-14
 -1      4092 1.95505E+01 5.64125E-01 2.20825E-03-4.63990E-01-1.24844E-14 6.84924E-14
 -1      4093 1.82540E+01 2.68648E-01-1.12508E-02 1.82786E+00 1.43141E-14 4.94567E-13
 -1      4094 1.82905E+01 3.26664E-02 8.10541E-04 2.07188E+00-1.18229E-13 4.47352E-13
 -1      4095 1.79046E+01 5.43716E-01 9.12281E-03 1.63486E+00 7.36221E-14 3.48763E-13
 -1      4096 1.52657E+01 7.73762E-01 2.00651E-02 1.51071E+00 1.46058E-13-1.99082E-13
 -1      4097 1.48343E+01 8.71630E-01 2.54864E-02 1.31857E+00 1.42308E-13-1.94010E-13
 -1      4098 1.46974E+01 9.88627E-01-1.42855E-03 7.47486E-01 1.28735E-13-2.48940E-13
 -1      4099 1.56153E+01 9.20183E-01-1.32119E-02 1.20587E+00 1.45329E-13-1.67666E-13
 -1      4100 1.88373E+01 6.70112E-01 4.30765E-03-1.12400E+00-4.85723E-15 1.12744E-13
 -1      4101 1.89153E+01 6.87473E-01-5.39523E-03-1.01252E+00-3.25618E-14 1.54411E-13
 -1      4102 1.84861E+01 7.64386E-01 4.63448E-03-1.08361E+00-2.32736E-14 1.40737E-13
 -1      4103 2.00471E+01 2.61225E-01 7.34036E-04-4.19749E-01 4.30566E-14-1.14309E-13
 -1      4104 2.00768E+01 2.44812E-01-7.34086E-04-3.83067E-01 5.23940E-14-1.25802E-13
 -1      4105 2.00020E+01 3.06126E-01 5.53979E-04-4.00407E-01 3.38125E-14-4.50940E-14
 -1      4106 1.82947E+01-1.85686E-01 2.31052E-02-2.28951E+00-8.34516E-14-3.61276E-14
 -1      4107 1.82016E+01 8.12583E-02-5.79125E-03-2.03765E+00-6.67162E-14 2.18544E-14
 -1      4108 1.83981E+01 2.86403E-01 1.20943E-02-1.77925E+00-1.09737E-13 7.57578E-14
 -1      4109 1.84085E+01 4.37254E-01-7.03606E-03-1.59024E+00-6.31032E-14 6.03081E-14
 -1      4110 1.77470E+01 3.68919E-01-5.52374E-03-1.84895E+00-7.43691E-14 3.57171E-14
 -1      4111 2.03506E+01 8.76945E-01-1.30047E-03-6.12522E-02-3.65314E-14-1.82099E-13
 -1      4112 2.03616E+01 7.85576E-01 3.25268E-03-3.64644E-02-1.52031E-14-2.07149E-13
 -1      4113 2.03485E+01 6.45472E-01-2.99629E-03 1.97886E-02 3.00636E-15-1.73458E-13
 -1      4114 2.03516E+01 9.20708E-01-1.75556E-03-4.35892E-02-4.32251E-16-1.84341E-13
 -1      4115 2.03144E+01 4.44165E-01-1.07791E-03-1.11457E-01 7.53397E-14-1.61286E-13
 -1      4116 2.03370E+01 5.26351E-01-5.21372E-04-5.90931E-02 8.96263E-14-1.57743E-13
 -1      4117 2.03137E+01 4.51501E-01 6.78707E-04-1.04232E-01 6.76349E-14-1.53762E-13
 -1      4118 1.97366E+01 4.70980E-01 2.04123E-03-3.85563E-01-9.93740E-15 3.65755E-14
 -1      4119 1.98228E+01 4.12959E-01 6.00001E-04-4.32931E-01 1.93108E-14 3.12617E-15
 -1      4120 1.98798E+01 3.74639E-01-2.10286E-03-3.94779E-01 1.00710E-14 3.23776E-15
 -1      4121 1.88067E+01 7.80904E-01 3.98091E-03-8.58104E-01-6.88713E-14 9.43094E-14
 -1      4122 2.02132E+01 3.07425E-01-1.77894E-04-2.13132E-01 7.99814E-14-1.43440E-13
 -1      4123 2.02430E+01 3.54084E-01 6.93831E-04-1.65271E-01 6.76717E-14-1.84176E-13
 -1      4124 2.01728E+01 2.92788E-01-3.01297E-04-2.47120E-01 6.08005E-14-1.55778E-13
 -1      4125 1.42492E+01 8.95610E-01 1.47773E-02-7.55086E-01 3.95300E-14-2.11289E-13
 -1      4126 2.03468E+01 1.10386E+00 4.83459E-03-2.89258E-02 7.54625E-14-2.20010E-13
 -1      4127 1.68845E+01 3.55179E-01 8.73911E-03 2.07744E+00-1.52539E-13 9.04103E-14
 -1      4128 1.74644E+01-5.49729E-02 2.54075E-03 2.36006E+00-2.07364E-13 2.94008E-13
 -1      4129 1.81350E+01 6.50689E-01 6.16760E-03-1.39868E+00-1.98982E-14 1.91244E-13
 -1      4130 2.01001E+01 2.72917E-01 3.57272E-04-3.34007E-01 4.09278E-14-1.05534E-13
 -1      4131 1.53081E+01 7.13132E-01-1.22002E-02-1.69578E+00-5.51338E-15-2.97650E-13
 -1      4132 1.97036E+01 4.74748E-01-5.02369E-04 2.92127E-01-2.26416E-13-5.64462E-13
 -1      4133 1.96843E+01 4.97299E-01 7.64136E-04 3.31850E-01-1.09018E-13-6.42975E-13
 -1      4134 1.95937E+01 5.54590E-01 6.90005E-04 3.02386E-01 1.24588E-14-6.57533E-13
 -1      4135 1.96611E+01 5.04655E-01 2.60619E-04 2.56485E-01-1.63635E-13-6.08742E-13
 -1      4136 1.38940E+01 1.10997E+00 5.53936E-02-3.58520E-01-1.20429E-13-1.90813E-13
 -1      4137 1.46161E+01 9.84650E-01 1.98037E-02-8.54167E-01-3.83630E-14-3.17797E-13
 -1      4138 1.60396E+01 1.20934E-02 2.55661E-02-2.54108E+00-4.50941E-14-1.75748E-13
 -1      4139 1.74735E+01-2.25859E-01-2.03717E-02-2.54327E+00-8.30126E-14-9.69836E-14
 -1      4140 1.94448E+01-1.97635E+00 2.77695E-02 3.27650E+00-2.57039E-13 5.25358E-13
 -1      4141 2.03524E+01 8.64221E-01-1.10925E-03 5.28535E-02 9.95045E-14-2.23139E-13
 -1      4142 2.03527E+01 9.06809E-01-1.32801E-03 3.69222E-02 9.49370E-14-2.26107E-13
 -1      4143 1.42417E+01 9.48450E-01-7.40339E-04 6.58330E-01-1.20907E-13-4.34548E-14
 -1      4144 2.03271E+01 9.72451E-01 6.59171E-05 1.63900E-01 1.12187E-13-1.85420E-13
 -1      4145 2.03447E+01 8.43089E-01 4.42549E-05 8.33914E-02 1.15221E-13-2.07216E-13
 -1      4146 1.95128E+01 6.03366E-01 1.46219E-04-1.05143E-02 1.35056E-13 3.40282E-13
 -1      4147 1.94485E+01 6.46679E-01 7.26018E-04 3.67558E-02 1.46613E-13 3.93801E-13
 -1      4148 1.95041E+01 6.07642E-01-1.20550E-03-6.99685E-02 2.66256E-13 4.06490E-13
 -1      4149 1.96250E+01 5.27852E-01 6.65243E-05 2.11631E-01-1.31353E-13-4.18315E-13
 -1      4150 2.03528E+01 9.31810E-01-2.41492E-03 2.82830E-02 1.06762E-13-2.00539E-13
 -1      4151 2.03526E+01 9.48551E-01-2.00760E-03 5.50266E-03 9.72949E-14-2.09263E-13
 -1      4152 2.03707E+01 7.87813E-01 3.33144E-03 5.70106E-03 6.21321E-14-2.08018E-13
 -1      4153 2.03532E+01 6.35114E-01-4.51644E-04 2.60279E-02 3.73596E-15-1.60826E-13
 -1      4154 1.75165E+01-4.46512E-01 1.33706E-02 2.70003E+00-2.90105E-13 5.22462E-13
 -1      4155 1.95633E+01 5.68799E-01 2.22340E-04 1.82710E-01 1.44440E-13-1.09255E-13
 -1      4156 1.95598E+01 5.69688E-01-1.19124E-03 2.48439E-01 5.11810E-14-2.58261E-13
 -1      4157 1.95256E+01 5.97334E-01 2.93365E-04 2.72962E-01 2.86292E-13-1.56176E-13
 -1      4158 1.94841E+01 6.22540E-01 4.99547E-04 1.60934E-01 2.49169E-13 3.91923E-14
 -1      4159 1.81663E+01 8.57426E-01 1.84702E-03-9.57264E-01-5.45213E-15 8.84601E-14
 -1      4160 1.83276E+01 8.62172E-01-9.94312E-03-8.40931E-01-3.75693E-14 5.61587E-14
 -1      4161 2.02528E+01 3.87058E-01-6.96952E-04 8.35467E-02-6.50100E-15-8.59237E-14
 -1      4162 2.02060E+01 3.61815E-01-3.61123E-04 1.04569E-01-5.37767E-15-1.08614E-13
 -1      4163 2.01471E+01 3.50626E-01-9.59546E-04 1.11925E-01 3.63259E-15-9.54291E-14
 -1      4164 2.00872E+01 3.54883E-01-3.32010E-04 1.30066E-01 4.42989E-14-7.61256E-14
 -1      4165 2.01787E+01 3.73626E-01 1.16815E-03 5.92070E-02 4.38815E-15-2.72217E-14
 -1      4166 2.00144E+01 3.69497E-01-9.75046E-04 1.37190E-01 4.61621E-14-9.87552E-14
 -1      4167 1.99405E+01 3.96037E-01-6.63547E-04 1.53856E-01 1.44802E-14-6.71540E-14
 -1      4168 2.00502E+01 3.77061E-01 1.51227E-03 7.28071E-02 2.34469E-14-1.07479E-13
 -1      4169 1.98533E+01 4.31122E-01-1.18172E-03 1.61387E-01-1.90086E-14-4.72585E-14
 -1      4170 1.97643E+01 4.74362E-01-1.12671E-03 1.78049E-01-2.50805E-14-1.50603E-14
 -1      4171 1.98934E+01 4.29508E-01 2.44331E-03 8.54087E-02 1.92197E-14-1.36144E-13
 -1      4172 1.96592E+01 5.24737E-01-1.90825E-03 1.87471E-01-7.70941E-15-3.98667E-14
 -1      4173 1.95547E+01 5.80695E-01-1.14686E-03 2.06082E-01-2.05976E-14-4.90464E-14
 -1      4174 1.97024E+01 5.21371E-01 4.04448E-03 9.80269E-02-4.61716E-14-9.09064E-14
 -1      4175 1.94286E+01 6.38927E-01-2.69261E-03 2.15991E-01-5.66473E-14-4.53059E-14
 -1      4176 1.93033E+01 7.01936E-01-1.73630E-03 2.36409E-01-1.22554E-13-4.93935E-14
 -1      4177 1.94793E+01 6.35090E-01 6.26033E-03 1.09350E-01-9.64127E-15-1.14774E-13
 -1      4178 1.91517E+01 7.64422E-01-3.48923E-03 2.48041E-01-1.70556E-13 2.07110E-16
 -1      4179 1.89997E+01 8.28767E-01-2.49015E-03 2.71172E-01-1.02440E-13 2.36542E-14
 -1      4180 1.92099E+01 7.64254E-01 8.69024E-03 1.19996E-01-9.32084E-14-3.54511E-14
 -1      4181 1.88153E+01 8.89262E-01-4.66613E-03 2.84714E-01-2.98631E-14 1.40610E-14
 -1      4182 1.86292E+01 9.48773E-01-3.50703E-03 3.11990E-01-1.18051E-14 2.77227E-14
 -1      4183 1.88845E+01 8.97787E-01 1.19082E-02 1.29673E-01-7.60649E-14 3.99751E-14
 -1      4184 1.84011E+01 1.00047E+00-6.47651E-03 3.28080E-01-4.85834E-15 9.99095E-15
 -1      4185 1.81702E+01 1.04821E+00-4.94162E-03 3.62616E-01 9.11153E-15 4.05369E-14
 -1      4186 1.84863E+01 1.02465E+00 1.64111E-02 1.37501E-01-1.35621E-14-1.77610E-14
 -1      4187 1.78805E+01 1.08434E+00-9.28274E-03 3.83269E-01 8.55056E-16 6.32276E-14
 -1      4188 1.75924E+01 1.11328E+00-5.69579E-03 4.31351E-01 4.29557E-14 3.43425E-14
 -1      4189 1.79897E+01 1.13364E+00 2.28544E-02 1.42678E-01 4.26677E-15-3.16435E-14
 -1      4190 1.72120E+01 1.11701E+00-1.49440E-02 4.68735E-01 5.56217E-14 3.37028E-14
 -1      4191 1.68523E+01 1.11805E+00-4.94653E-03 5.36898E-01 1.27069E-13-2.14077E-14
 -1      4192 1.73412E+01 1.21641E+00 2.98652E-02 1.47282E-01 2.09218E-14-3.42772E-14
 -1      4193 1.64133E+01 1.10151E+00-1.69103E-02 6.41554E-01 1.33409E-13-1.09409E-13
 -1      4194 1.60872E+01 1.05766E+00 6.55750E-03 8.28697E-01 1.36591E-13-1.38787E-13
 -1      4195 1.65607E+01 1.19647E+00 2.04396E-02 2.45683E-01 5.01342E-14-3.21336E-14
 -1      4196 2.03297E+01 4.92112E-01-1.48173E-04 4.94168E-02 2.68720E-14-1.35910E-13
 -1      4197 2.02958E+01 4.30416E-01-5.66346E-04 7.48210E-02 9.07194E-15-1.25532E-13
 -1      4198 2.02782E+01 4.29284E-01 1.18546E-03 4.35081E-02 2.91908E-14-1.06714E-13
 -1      4199 1.70245E+01 6.41070E-01-2.09131E-03 1.59892E+00-1.50321E-13 1.33540E-13
 -1      4200 1.60397E+01 6.65139E-01-4.35208E-03 1.72135E+00-2.38802E-13-1.72970E-13
 -1      4201 2.03522E+01 9.49731E-01-2.08869E-03-4.44748E-03 8.34629E-14-1.62674E-13
 -1      4202 2.03535E+01 9.35998E-01-1.81101E-03-2.73211E-02 2.67437E-14-1.80442E-13
 -1      4203 2.03734E+01 8.16671E-01 3.83354E-03-3.61275E-03 6.01552E-14-1.58891E-13
 -1      4204 1.74489E+01 1.15569E+00-3.54529E-03-5.80132E-01-4.64859E-14-9.01022E-14
 -1      4205 1.77317E+01 1.14328E+00-9.02540E-03-5.04442E-01-6.81183E-15-3.50948E-14
 -1      4206 1.80302E+01 1.12170E+00-3.26634E-03-4.68865E-01-7.16334E-14-3.27986E-14
 -1      4207 1.82542E+01 1.08658E+00-6.25705E-03-4.14164E-01 7.94241E-14-1.31085E-13
 -1      4208 1.77967E+01 1.19312E+00 1.16551E-02-2.47591E-01-3.27170E-14 5.56756E-14
 -1      4209 1.84844E+01 1.04551E+00-2.56850E-03-3.87056E-01 3.58095E-13 5.00517E-14
 -1      4210 1.86625E+01 9.95878E-01-4.41410E-03-3.44172E-01 4.51333E-13 2.62499E-13
 -1      4211 1.83047E+01 1.11135E+00 8.34254E-03-2.14129E-01 3.33579E-13 8.63458E-14
 -1      4212 1.88429E+01 9.42614E-01-2.09950E-03-3.21735E-01 3.18402E-13 2.49860E-13
 -1      4213 1.89845E+01 8.85417E-01-3.40526E-03-2.86414E-01 1.59495E-13 2.78056E-13
 -1      4214 1.87023E+01 1.00577E+00 6.35245E-03-1.86321E-01 3.96243E-13 5.48719E-14
 -1      4215 1.91277E+01 8.27337E-01-1.44692E-03-2.66539E-01 1.02436E-14 2.77624E-13
 -1      4216 1.92406E+01 7.67371E-01-2.43526E-03-2.37353E-01-5.50056E-15 1.92916E-13
 -1      4217 1.90171E+01 8.87656E-01 5.31203E-03-1.59129E-01 9.66168E-14 1.95978E-13
 -1      4218 1.91935E+01 7.20225E-01-1.32394E-05-4.74782E-01-2.30241E-15 4.58054E-14
 -1      4219 1.93063E+01 6.68126E-01-3.84129E-03-4.25286E-01 9.62696E-15 4.87152E-14
 -1      4220 1.77017E+01 7.66018E-01 3.74776E-04-1.26207E+00 2.69763E-14 4.91480E-14
 -1      4221 1.78695E+01 8.19081E-01-1.46610E-02-1.09348E+00 5.54088E-14 1.31450E-13
 -1      4222 1.78098E+01 9.97626E-01 2.29991E-02-8.21731E-01-2.92561E-15-1.14493E-13
 -1      4223 1.85644E+01 8.60946E-01 9.26419E-04-7.44304E-01-7.35506E-14 2.25186E-14
 -1      4224 1.87095E+01 8.35676E-01-7.09554E-03-6.59627E-01-7.60733E-14 3.75490E-14
 -1      4225 1.83013E+01 9.76464E-01 1.68749E-02-6.22078E-01-7.33424E-14-6.67124E-14
 -1      4226 1.61648E+01 3.84702E-01-6.55033E-04-2.07768E+00-3.97608E-14-1.06848E-13
 -1      4227 1.51629E+01 9.80593E-01 1.37407E-02-1.14938E+00-7.99345E-14-5.20259E-13
 -1      4228 1.58667E+01 9.42156E-01 1.73542E-02-1.26148E+00-1.33955E-13-4.56243E-13
 -1      4229 1.51466E+01 1.09492E+00-1.31853E-02-4.57509E-01-1.66455E-13-3.38847E-13
 -1      4230 1.84269E+01 9.27932E-01-7.23921E-03 7.46478E-01 9.16630E-14 3.16649E-13
 -1      4231 1.82771E+01 9.27096E-01 1.28516E-03 8.56579E-01 1.94278E-13 3.88051E-13
 -1      4232 2.03558E+01 7.39806E-01 1.05750E-03 3.49120E-02 1.09730E-13-2.05199E-13
 -1      4233 1.80191E+01 9.01919E-01-1.01718E-02 9.75752E-01 2.17238E-13 3.35686E-13
 -1      4234 1.78455E+01 8.52760E-01-1.16586E-03 1.13284E+00 1.13064E-13 3.17205E-13
 -1      4235 1.79503E+01 1.03456E+00 8.99321E-03 7.33137E-01 1.88923E-13 1.45430E-13
 -1      4236 1.92728E+01 7.30462E-01-2.69081E-03 3.52168E-01 3.20909E-13-1.61408E-13
 -1      4237 1.91778E+01 7.79457E-01-1.15866E-04 4.02508E-01 2.21775E-13-9.10630E-14
 -1      4238 1.94480E+01 6.39406E-01-1.50870E-03 2.90208E-01 3.48025E-13-2.54062E-13
 -1      4239 1.93691E+01 6.88661E-01-5.00365E-05 3.32007E-01 3.12282E-13-1.45717E-13
 -1      4240 1.92569E+01 7.51226E-01 1.64910E-03 2.63998E-01 2.49396E-13-1.88697E-13
 -1      4241 1.94248E+01 6.58098E-01 8.10482E-04 2.35203E-01 3.13764E-13 1.48179E-13
 -1      4242 1.71037E+01-4.35471E-01-1.83409E-02 2.75737E+00-2.96019E-13 4.93990E-13
 -1      4243 1.61786E+01 1.04937E+00-1.52190E-02-9.72942E-01-2.46453E-13-3.85137E-13
 -1      4244 1.54232E+01 7.66658E-01 1.35528E-02-1.58357E+00-8.73780E-15-1.02795E-13
 -1      4245 1.68924E+01 5.65388E-01 1.76061E-02-1.69243E+00-4.88817E-14-9.89439E-14
 -1      4246 1.94412E+01 6.18131E-01-1.12277E-04-3.87105E-01-2.24220E-14 4.91729E-15
 -1      4247 1.95396E+01 5.64868E-01-2.77171E-03-3.47778E-01-2.69981E-14-1.02669E-14
 -1      4248 1.93249E+01 6.91679E-01 6.62575E-03-3.01378E-01-2.54794E-14-2.73356E-14
 -1      4249 1.67050E+01 1.13267E+00 2.79595E-03-7.43035E-01-1.27253E-13-3.21495E-13
 -1      4250 1.70524E+01 1.14781E+00-1.27855E-02-6.34799E-01-9.15782E-14-1.00923E-13
 -1      4251 1.71279E+01 1.23728E+00 1.45548E-02-2.92034E-01 9.04984E-16-1.07143E-13
 -1      4252 1.89037E+01 8.07356E-01 2.84129E-04-5.89880E-01-8.76840E-14 3.43188E-14
 -1      4253 1.90323E+01 7.64009E-01-5.19432E-03-5.26004E-01-6.65689E-14 1.78929E-14
 -1      4254 1.90422E+01 8.05568E-01 9.08943E-03-3.77186E-01-2.25752E-14-6.02621E-15
 -1      4255 1.87055E+01 9.05931E-01 1.23522E-02-4.79962E-01-8.16554E-14-2.64782E-14
 -1      4256 1.90430E+01 8.22460E-01-3.94821E-03 4.50842E-01 1.37425E-13-4.33545E-16
 -1      4257 1.89310E+01 8.63228E-01 1.11842E-05 5.14596E-01 9.05189E-14 9.93878E-14
 -1      4258 1.90372E+01 8.53361E-01 4.24367E-03 3.22859E-01 2.59468E-13-2.39607E-13
 -1      4259 1.95250E+01 5.99368E-01-1.46645E-03-1.87602E-01-3.01271E-14-6.48086E-15
 -1      4260 1.95156E+01 6.05722E-01 8.95416E-06-1.27677E-01 1.86200E-13 9.72794E-14
 -1      4261 1.94369E+01 6.58410E-01 9.99425E-04-9.32365E-02 1.00881E-13 2.52096E-13
 -1      4262 1.94668E+01 6.44070E-01 1.41624E-04-2.09757E-01 6.21731E-14 2.64300E-14
 -1      4263 1.75360E+01 8.14551E-01-1.48442E-02 1.23586E+00-7.79433E-15 1.97400E-13
 -1      4264 1.73491E+01 6.94509E-01-4.84997E-03 1.45457E+00-3.05346E-14 2.16797E-13
 -1      4265 1.67535E+01 9.92069E-01 1.96108E-02 1.12707E+00-9.77760E-14 1.35626E-14
 -1      4266 1.74249E+01 1.02252E+00 1.47888E-02 9.26447E-01-9.90673E-15 1.33489E-13
 -1      4267 1.50304E+01 1.01623E+00-1.61713E-02-5.10442E-01 2.87964E-14-1.72317E-13
 -1      4268 1.55514E+01 7.74214E-01 1.39705E-02 1.45340E+00-2.41780E-13-5.17123E-14
 -1      4269 1.47675E+01 9.69209E-01 3.39704E-02 1.12091E+00-1.69786E-13-1.11681E-14
 -1      4270 1.49732E+01 1.10485E+00-1.03709E-02 2.71733E-01-2.10675E-13-1.30601E-13
 -1      4271 1.58401E+01 9.84534E-01-1.09834E-02 9.70755E-01-2.22407E-13-1.52334E-13
 -1      4272 1.87642E+01 8.94195E-01-5.25960E-03 5.77973E-01 1.13021E-13 2.01350E-13
 -1      4273 1.86334E+01 9.19646E-01 6.34255E-04 6.60623E-01 1.14283E-13 2.46991E-13
 -1      4274 1.83899E+01 1.01187E+00 6.61640E-03 5.51038E-01 1.01065E-13 1.93651E-13
 -1      4275 1.70557E+01 7.08239E-01-6.45215E-03-1.45005E+00-1.49914E-14-4.21050E-14
 -1      4276 1.99570E+01 3.44182E-01 4.97000E-04-3.63932E-01-1.55746E-15-3.75834E-14
 -1      4277 2.00087E+01 3.17556E-01-1.15131E-03-3.30072E-01-1.63777E-14-7.81491E-14
 -1      4278 1.98944E+01 3.94332E-01 1.87360E-03-3.22183E-01-2.09612E-14-4.42311E-14
 -1      4279 2.03504E+01 6.42782E-01-7.35188E-04-1.86742E-02 1.05253E-13-1.89876E-13
 -1      4280 2.03541E+01 6.35317E-01 5.81109E-04-2.83415E-02 7.10373E-14-1.68497E-13
 -1      4281 2.00733E+01 2.99753E-01 4.14318E-05-3.04174E-01-5.37818E-16-9.33999E-14
 -1      4282 2.01200E+01 2.91124E-01-4.68396E-04-2.71975E-01 1.25282E-14-1.27620E-13
 -1      4283 2.00322E+01 3.38942E-01 1.29886E-03-2.68771E-01-2.61799E-14-1.01526E-13
 -1      4284 2.03713E+01 8.00235E-01 3.48820E-03-1.40931E-02 4.95635E-15-1.44725E-13
 -1      4285 1.96530E+01 5.16324E-01-7.02600E-05-3.18722E-01-2.94127E-14 3.51783E-15
 -1      4286 1.97362E+01 4.68083E-01-2.58807E-03-2.85342E-01-1.84070E-14-2.99849E-14
 -1      4287 1.95626E+01 5.77953E-01 4.29197E-03-2.44581E-01-9.36374E-15-6.49740E-14
 -1      4288 2.03047E+01 4.35089E-01-1.09307E-03-9.57932E-02 6.36042E-14-1.63408E-13
 -1      4289 2.03337E+01 5.04419E-01-8.83191E-04-6.18681E-02 6.38591E-14-1.60338E-13
 -1      4290 2.01490E+01 3.20641E-01 9.64578E-04-2.18085E-01 2.21668E-14-1.77060E-13
 -1      4291 1.56586E+01 1.10258E+00 6.09685E-03 6.34478E-01 1.38994E-13-1.40016E-13
 -1      4292 2.03539E+01 5.83125E-01 1.91359E-03 3.55643E-02 2.53642E-14-1.28664E-13
 -1      4293 2.03422E+01 5.59678E-01 8.99023E-04 2.30415E-02 1.88180E-14-1.09798E-13
 -1      4294 1.93228E+01 7.28144E-01-1.00574E-03-2.35691E-01-3.80587E-15 1.43803E-13
 -1      4295 1.93959E+01 6.82821E-01-1.35904E-03-2.11522E-01 3.15163E-14 8.14604E-14
 -1      4296 1.93787E+01 6.94935E-01 7.83468E-04-1.51344E-01-4.42945E-14-6.86797E-14
 -1      4297 1.92293E+01 7.83312E-01 2.96382E-03-1.49462E-01-1.29489E-13 1.98991E-14
 -1      4298 2.02253E+01 3.52740E-01-7.49655E-04-1.41037E-01 6.12955E-14-1.95782E-13
 -1      4299 2.02694E+01 3.85561E-01 4.10258E-05-1.12664E-01 5.46410E-14-1.76648E-13
 -1      4300 2.02927E+01 4.37394E-01 9.57314E-04-7.27940E-02 7.01216E-14-1.51909E-13
 -1      4301 1.68983E+01 9.59222E-01 2.21879E-02-1.07003E+00 2.13583E-14-1.28409E-13
 -1      4302 1.54013E+01 1.17278E+00 1.63151E-02-6.81124E-02-1.38990E-13-1.95887E-13
 -1      4303 1.58624E+01 1.17880E+00 9.19594E-03-3.24899E-01-1.84201E-13-3.26332E-13
 -1      4304 1.56868E+01 1.14059E+00-9.15221E-03 3.54533E-01-2.47110E-13-2.57908E-13
 -1      4305 2.03525E+01 5.76042E-01 1.10551E-03-4.55416E-02 5.10976E-14-1.76307E-13
 -1      4306 2.03606E+01 6.83654E-01-1.74187E-03-8.77375E-03 4.31759E-14-2.10898E-13
 -1      4307 2.03637E+01 7.13370E-01-2.54857E-04-6.53254E-03 4.06501E-14-2.11803E-13
 -1      4308 2.03451E+01 5.55626E-01 1.02627E-04-3.66940E-02 4.35123E-14-1.92141E-13
 -1      4309 1.87470E+01 9.45599E-01 5.23530E-03 4.20382E-01 2.37068E-13 1.54419E-13
 -1      4310 1.62290E+01 1.18577E+00 8.45749E-03-5.20858E-01-7.90792E-14-3.15152E-13
 -1      4311 1.93967E+01 6.77351E-01 1.26808E-03 1.06895E-01 2.26445E-13-4.29804E-14
 -1      4312 1.94047E+01 6.67489E-01-5.86810E-04 1.67867E-01 2.44205E-13 5.04275E-14
 -1      4313 1.93270E+01 7.13027E-01-4.84370E-04 1.79248E-01 1.89235E-13-3.86707E-14
 -1      4314 2.03543E+01 6.49529E-01-1.91316E-03 2.37648E-02 2.20863E-14-1.65633E-13
 -1      4315 1.93653E+01 6.92270E-01-8.14509E-04 3.64564E-02 1.32814E-13 3.58483E-13
 -1      4316 2.02864E+01 4.28781E-01-1.19721E-03-2.24177E-02 6.76942E-14-1.32954E-13
 -1      4317 2.02439E+01 3.88962E-01-1.01451E-04-1.66861E-02 5.11216E-14-9.82176E-14
 -1      4318 1.64090E+01 1.09937E+00-1.09222E-02-4.92246E-01 1.64354E-14-7.40723E-14
 -1      4319 1.71068E+01 1.07678E+00-1.63603E-02-4.30722E-01 2.48222E-14-1.33778E-13
 -1      4320 2.01173E+01 3.32827E-01-1.23101E-03-1.81114E-01-3.14528E-14-1.42095E-13
 -1      4321 2.01729E+01 3.36140E-01-5.56176E-04-1.55799E-01 3.03294E-14-1.64118E-13
 -1      4322 2.02022E+01 3.68307E-01 1.10026E-03-1.04221E-01 2.68879E-14-1.26050E-13
 -1      4323 2.00816E+01 3.65029E-01-1.65252E-03 7.03115E-03-2.89038E-14-6.89619E-14
 -1      4324 2.00104E+01 3.80344E-01-9.65702E-04 1.19980E-02-8.62136E-15-1.23795E-13
 -1      4325 1.99296E+01 4.06183E-01-1.16431E-03 6.84495E-03 2.31545E-14-1.09601E-13
 -1      4326 1.98393E+01 4.41375E-01-1.94238E-03 1.30418E-02-1.39999E-14-1.32019E-13
 -1      4327 1.99738E+01 3.99817E-01 2.02083E-03-6.06052E-02-2.19308E-14-9.35626E-14
 -1      4328 1.97234E+01 4.92945E-01-1.18155E-03-6.10064E-02-4.37566E-14-1.35347E-13
 -1      4329 1.96138E+01 5.42578E-01-2.86117E-03-6.06799E-02-2.99454E-14-1.39205E-13
 -1      4330 1.94985E+01 5.95802E-01-3.70685E-03-8.06655E-02-1.94939E-14-1.28261E-13
 -1      4331 1.93695E+01 6.56225E-01-4.47923E-03-8.13740E-02-1.43041E-14-9.89288E-14
 -1      4332 1.92333E+01 7.13130E-01-5.37196E-03-1.07953E-01-2.20104E-14-1.28203E-13
 -1      4333 1.90783E+01 7.77008E-01-6.41944E-03-1.10692E-01-4.49504E-14-8.32144E-14
 -1      4334 1.89157E+01 8.31749E-01-7.29173E-03-1.46658E-01-8.46664E-14-6.27502E-14
 -1      4335 1.87266E+01 8.92844E-01-9.02483E-03-1.52711E-01-5.67590E-14-4.29166E-14
 -1      4336 1.85307E+01 9.38097E-01-9.90401E-03-2.02269E-01-5.28127E-14-6.81794E-14
 -1      4337 1.82962E+01 9.89738E-01-1.26822E-02-2.13135E-01-7.61389E-14-1.03598E-13
 -1      4338 1.80575E+01 1.01712E+00-1.34476E-02-2.82794E-01-4.70477E-14-8.35068E-14
 -1      4339 1.77606E+01 1.05243E+00-1.75164E-02-3.01475E-01-5.47196E-14-1.10122E-13
 -1      4340 1.74685E+01 1.04992E+00-1.79618E-02-4.01329E-01-3.01378E-14-9.80264E-14
 -1      4341 1.69080E+01 1.20657E+00-2.01225E-03 4.86566E-02 1.19941E-13-3.19213E-13
 -1      4342 1.72769E+01 1.19333E+00-6.92946E-03 4.21145E-02 3.26690E-14-2.13902E-13
 -1      4343 1.81548E+01 1.11289E+00-5.34234E-03-1.79962E-02 1.69925E-13 4.53893E-15
 -1      4344 1.83837E+01 1.06856E+00-3.88014E-03-1.61909E-02 4.08157E-13 8.91982E-14
 -1      4345 1.89209E+01 9.07572E-01-2.92259E-03-3.95228E-02 3.50857E-13 6.86435E-14
 -1      4346 1.90613E+01 8.48385E-01-2.70649E-03-3.30067E-02 1.80870E-13 1.96247E-13
 -1      4347 1.90740E+01 8.35584E-01-1.57242E-03 1.87073E-01 3.08391E-13-1.66826E-13
 -1      4348 1.89390E+01 8.87715E-01-1.80684E-03 2.21156E-01 2.98181E-13-1.18607E-13
 -1      4349 2.00037E+01 3.64400E-01-9.53565E-04-1.71988E-01-4.37914E-14-7.78551E-14
 -1      4350 2.00697E+01 3.48543E-01-2.97942E-04-1.49686E-01-6.01036E-14-1.01369E-13
 -1      4351 1.63423E+01 1.19985E+00-1.24158E-02-1.35422E-01-1.12941E-13-3.01158E-13
 -1      4352 1.76054E+01 1.17650E+00-7.34326E-03 6.62792E-03-5.47216E-14-1.15542E-13
 -1      4353 1.79011E+01 1.14923E+00-5.32374E-03 6.67082E-03 6.09078E-14-5.54897E-14
 -1      4354 1.80633E+01 1.13602E+00 1.01383E-02 2.15022E-01 1.61807E-13 2.78407E-14
 -1      4355 1.74938E+01 1.18912E+00 1.30790E-02 3.13830E-01 9.63411E-14-1.71867E-13
 -1      4356 2.01905E+01 3.66730E-01-1.07738E-03-2.93141E-02-1.28040E-14-8.63521E-14
 -1      4357 2.01325E+01 3.60356E-01 1.16308E-04-2.61515E-02-2.00842E-14-6.97937E-14
 -1      4358 1.63958E+01 1.03775E+00-2.75091E-03 9.06974E-01-1.05858E-13-1.29643E-13
 -1      4359 1.59991E+01 1.11861E+00 1.16091E-02 6.52454E-01-1.68835E-13-1.76799E-13
 -1      4360 1.62620E+01 1.17072E+00 2.05200E-03 3.40190E-01-1.36930E-13-2.18885E-13
 -1      4361 1.67685E+01 1.04984E+00-1.14373E-02 8.24822E-01-4.10279E-14-4.48148E-14
 -1      4362 2.03635E+01 6.41999E-01 1.31833E-03-6.27795E-03 1.39839E-14-1.50197E-13
 -1      4363 2.03399E+01 5.47347E-01-7.98784E-04-7.24448E-04 1.45821E-14-1.62655E-13
 -1      4364 1.98485E+01 4.26629E-01-1.76212E-04-2.07876E-01-7.89516E-15-1.03987E-13
 -1      4365 1.99229E+01 3.90442E-01-1.52967E-03-1.82889E-01-1.52703E-14-8.80575E-14
 -1      4366 1.84132E+01 1.02641E+00-6.02293E-03 3.32586E-01 2.29681E-13 4.83889E-14
 -1      4367 1.82160E+01 1.05921E+00-2.39539E-03 3.97377E-01 2.07601E-13 1.02358E-13
 -1      4368 2.01015E+01 3.64632E-01 1.63384E-03-8.88698E-02-5.48092E-14-9.24433E-14
 -1      4369 1.97818E+01 4.73108E-01 2.37831E-03-1.40760E-01-3.97124E-14-1.23143E-13
 -1      4370 1.86012E+01 9.90678E-01-1.88537E-03 2.94341E-01 3.97895E-13 1.09735E-13
 -1      4371 1.84886E+01 1.05495E+00 7.71655E-03 1.46705E-01 3.60744E-13 9.38220E-15
 -1      4372 1.85674E+01 1.02327E+00-4.00797E-03-3.51083E-02 3.79172E-13 3.38100E-14
 -1      4373 1.87632E+01 9.44843E-01-3.92346E-03 2.47297E-01 3.58259E-13-3.83884E-14
 -1      4374 1.66020E+01 1.20519E+00 3.71468E-03 2.21336E-01 3.62441E-14-3.36176E-13
 -1      4375 1.59830E+01 1.07639E+00-1.27470E-02-4.42294E-01 3.68824E-15-9.49966E-14
 -1      4376 1.91676E+01 8.04595E-01 3.28623E-03 9.83697E-02 1.92766E-13 7.35611E-14
 -1      4377 1.92194E+01 7.73385E-01-1.50497E-03-1.14743E-02 8.06750E-14 1.94390E-13
 -1      4378 1.87480E+01 9.69574E-01-2.92703E-03-3.10067E-02 3.20603E-13-5.09662E-14
 -1      4379 1.88405E+01 9.46326E-01 5.22604E-03 1.00715E-01 4.20652E-13-2.15270E-14
 -1      4380 2.03637E+01 7.23697E-01-2.25687E-03 4.74951E-03 5.39485E-14-1.39581E-13
 -1      4381 1.73817E+01 1.08907E+00-9.37073E-03 6.25492E-01 5.81728E-14-1.78628E-13
 -1      4382 1.70980E+01 1.08426E+00-4.20738E-03 6.89889E-01-3.81639E-15-2.72163E-13
 -1      4383 1.93649E+01 6.98229E-01-7.45354E-05-9.10804E-02-3.86053E-14 3.38499E-13
 -1      4384 1.92992E+01 7.33542E-01-4.26378E-04-1.96130E-02-1.10492E-14 2.52690E-13
 -1      4385 1.79569E+01 1.08169E+00-8.29559E-03 4.51247E-01 2.05527E-13-1.35073E-15
 -1      4386 1.77137E+01 1.09072E+00-2.75928E-03 5.42838E-01 1.30232E-13-3.78746E-14
 -1      4387 1.92321E+01 7.59929E-01-1.56425E-03 1.92492E-01 1.50339E-13-2.21122E-13
 -1      4388 2.03644E+01 7.20526E-01-1.94648E-03 2.16862E-03 1.73531E-14-1.00129E-13
 -1      4389 1.52630E+01 1.12105E+00 2.16279E-02 3.18310E-01 9.08394E-14-1.90970E-13
 -1      4390 2.03244E+01 4.89479E-01 9.44498E-04-1.20088E-02 4.65239E-14-1.37640E-13
 -1      4391 1.89511E+01-1.09000E+00 4.44448E-02 2.94456E+00-3.22911E-13 7.92988E-13
 -1      4392 1.68300E+01 1.16256E+00 1.95677E-03 4.99007E-01 6.35089E-14-2.71165E-13
 -3
    1PSTEP                         3           1           1          
  100CL  101 1.000000000        4392                     0    1           1
 -4  TOSTRAIN    6    1
 -5  EXX         1    4    1    1
 -5  EYY         1    4    2    2
 -5  EZZ         1    4    3    3
 -5  EXY         1    4    1    2
 -5  EYZ         1    4    2    3
 -5  EZX         1    4    3    1
 -1         1 3.10766E-04-9.63848E-05-7.90323E-05-2.68350E-06-1.82430E-19-3.23855E-18
 -1         2 3.55193E-05-1.09183E-04 1.98123E-05-1.63293E-06 3.58803E-18 9.81420E-19
 -1         3 9.52243E-05-2.85845E-05-2.85350E-05-6.34840E-09-2.19571E-18-2.42626E-18
 -1         4 9.52239E-05-2.85848E-05-2.85341E-05 6.44479E-09 3.49586E-19 1.25504E-18
 -1         5 1.43066E-04-2.14360E-05-4.24488E-05 3.84749E-05-2.04506E-19 1.38200E-17
 -1         6 1.45129E-04 2.57017E-10-4.41056E-05-5.34427E-05-8.30939E-19 1.07788E-17
 -1         7 9.04769E-05-5.09857E-07-3.90118E-05-2.92208E-05-1.22502E-19 9.89811E-19
 -1         8 8.50610E-05 8.56359E-08-3.63109E-05-2.02508E-05-1.22317E-19-1.83390E-18
 -1         9 8.28036E-05 7.55707E-08-3.53451E-05-1.56197E-05-1.17804E-19-3.21947E-18
 -1        10 8.18063E-05 3.73431E-08-3.48935E-05-1.20532E-05-6.72928E-20-3.88928E-18
 -1        11 8.13122E-05 1.82653E-08-3.46770E-05-8.98621E-06-5.52755E-20-4.10326E-18
 -1        12 8.10607E-05 8.13955E-09-3.45711E-05-6.25995E-06-1.08824E-20-4.12687E-18
 -1        13 8.09301E-05 3.65990E-09-3.45184E-05-3.66868E-06-2.00922E-21-4.02455E-18
 -1        14 8.08758E-05 1.88271E-09-3.44972E-05-1.17753E-06 3.24114E-20-3.91902E-18
 -1        15 8.08777E-05 1.87628E-09-3.44978E-05 1.28305E-06 4.72105E-20-3.77486E-18
 -1        16 8.09361E-05 3.59227E-09-3.45205E-05 3.77923E-06 6.75103E-20-3.58434E-18
 -1        17 8.10718E-05 7.33600E-09-3.45745E-05 6.38255E-06 8.55669E-20-3.28499E-18
 -1        18 8.13285E-05 1.69589E-08-3.46820E-05 9.12846E-06 1.21926E-19-2.84223E-18
 -1        19 8.18270E-05 3.68689E-08-3.49012E-05 1.22318E-05 1.56781E-19-2.14759E-18
 -1        20 8.28258E-05 8.01949E-08-3.53574E-05 1.58481E-05 1.67461E-19-9.08598E-19
 -1        21 8.50265E-05 1.68428E-07-3.63488E-05 2.04618E-05 1.77030E-19 1.25926E-18
 -1        22 9.15115E-05-9.86499E-08-3.86837E-05 2.79696E-05 4.52104E-20 5.34247E-18
 -1        23 1.12731E-04-3.80449E-05-3.53243E-05-4.39777E-06-5.80271E-19 7.93723E-18
 -1        24 9.25941E-05-2.76343E-05-2.89349E-05 3.89628E-07-1.51480E-19 5.41286E-18
 -1        25 8.89249E-05-2.67943E-05-2.68707E-05 3.74180E-07-5.50671E-20 3.07918E-18
 -1        26 8.78435E-05-2.64376E-05-2.63401E-05 2.01974E-07 4.32773E-20 1.56959E-18
 -1        27 8.79054E-05-2.64270E-05-2.63433E-05 1.37401E-07 7.44504E-21 1.02977E-18
 -1        28 8.84990E-05-2.65818E-05-2.65314E-05 9.82288E-08-7.34398E-20 4.56518E-19
 -1        29 8.93518E-05-2.68245E-05-2.67941E-05 7.25840E-08-5.12014E-20-4.49913E-19
 -1        30 9.03301E-05-2.71110E-05-2.70911E-05 5.46577E-08-6.70251E-20-1.34182E-18
 -1        31 9.13719E-05-2.74200E-05-2.74062E-05 4.18115E-08-1.14389E-20-2.19197E-18
 -1        32 9.24594E-05-2.77447E-05-2.77352E-05 3.28711E-08-1.27369E-19-2.82431E-18
 -1        33 9.36062E-05-2.80884E-05-2.80824E-05 2.73905E-08 3.38879E-19-2.79800E-18
 -1        34 9.48494E-05-2.84618E-05-2.84592E-05 2.53501E-08-1.02678E-19-2.66994E-18
 -1        35 9.62447E-05-2.88812E-05-2.88822E-05 2.70413E-08 8.93376E-20-3.56397E-18
 -1        36 9.78624E-05-2.93674E-05-2.93727E-05 3.30202E-08 2.41930E-20-2.84634E-18
 -1        37 9.97820E-05-2.99438E-05-2.99542E-05 4.40495E-08-5.34510E-20-2.75488E-18
 -1        38 1.02083E-04-3.06334E-05-3.06498E-05 6.09327E-08-1.99888E-19-3.32146E-18
 -1        39 1.04826E-04-3.14544E-05-3.14767E-05 8.40749E-08-8.01025E-20-2.63586E-18
 -1        40 1.08029E-04-3.24105E-05-3.24365E-05 1.12477E-07 2.57669E-19-2.53380E-18
 -1        41 1.11608E-04-3.34771E-05-3.34992E-05 1.41740E-07-1.21053E-19-3.66380E-18
 -1        42 1.15312E-04-3.45789E-05-3.45811E-05 1.60717E-07 8.18661E-21-5.07650E-18
 -1        43 1.18623E-04-3.55632E-05-3.55185E-05 1.47433E-07-2.05801E-19-4.16954E-18
 -1        44 1.20689E-04-3.61788E-05-3.60549E-05 6.78293E-08 2.94013E-20-2.84124E-18
 -1        45 1.20373E-04-3.60895E-05-3.58698E-05-1.14397E-07 3.30558E-20-2.78903E-18
 -1        46 1.16585E-04-3.49686E-05-3.46924E-05-4.03924E-07 8.53452E-20-3.05392E-18
 -1        47 1.09018E-04-3.27145E-05-3.25108E-05-7.16969E-07-4.05666E-20 9.37824E-20
 -1        48 9.90548E-05-2.97284E-05-2.97726E-05-8.59790E-07 2.08802E-19 6.08620E-19
 -1        49 9.00196E-05-2.70065E-05-2.73721E-05-6.38026E-07-5.80400E-20 2.80633E-19
 -1        50 8.58348E-05-2.57413E-05-2.62819E-05-7.33875E-08-1.53627E-19 4.86164E-19
 -1        51 8.85532E-05-2.65639E-05-2.69871E-05 5.35929E-07-2.63487E-19-1.12841E-19
 -1        52 9.68289E-05-2.90595E-05-2.91740E-05 8.45745E-07 1.80604E-19-9.68662E-19
 -1        53 1.06928E-04-3.20895E-05-3.19272E-05 7.70647E-07-6.03942E-19-4.14286E-18
 -1        54 1.15223E-04-3.45640E-05-3.42909E-05 4.76185E-07 3.59364E-19-5.44004E-18
 -1        55 1.19881E-04-3.59448E-05-3.57066E-05 1.70236E-07-6.85357E-19-4.91906E-18
 -1        56 1.20906E-04-3.62444E-05-3.60994E-05-3.76659E-08-1.01351E-19-5.74324E-18
 -1        57 1.19293E-04-3.57632E-05-3.57037E-05-1.37191E-07 6.84106E-19-3.29172E-18
 -1        58 1.16217E-04-3.48489E-05-3.48435E-05-1.61541E-07 5.37061E-19-1.73461E-18
 -1        59 1.12610E-04-3.37764E-05-3.37961E-05-1.46887E-07 3.24962E-19-1.73885E-18
 -1        60 1.09064E-04-3.27209E-05-3.27472E-05-1.17979E-07 1.16276E-19 8.58256E-19
 -1        61 1.05891E-04-3.17742E-05-3.17983E-05-8.79255E-08 3.03784E-19 1.56684E-18
 -1        62 1.03210E-04-3.09727E-05-3.09914E-05-6.21795E-08-2.88956E-19-1.16874E-18
 -1        63 1.01031E-04-3.03201E-05-3.03333E-05-4.21534E-08-3.95209E-19-1.53120E-18
 -1        64 9.93110E-05-2.98037E-05-2.98123E-05-2.74815E-08-1.50515E-19-2.73240E-18
 -1        65 9.79832E-05-2.94045E-05-2.94097E-05-1.71886E-08 4.29985E-19-1.59999E-18
 -1        66 9.69799E-05-2.91023E-05-2.91053E-05-1.01948E-08 3.20757E-19-2.37254E-18
 -1        67 9.62406E-05-2.88793E-05-2.88812E-05-5.41790E-09 3.12112E-20-1.15848E-18
 -1        68 9.57176E-05-2.87211E-05-2.87233E-05-1.66309E-09 3.64648E-19-5.92973E-19
 -1        69 9.53789E-05-2.86180E-05-2.86219E-05 2.58791E-09 3.68478E-19-3.18310E-19
 -1        70 9.52071E-05-2.85647E-05-2.85696E-05 1.02334E-08 4.52182E-19 2.64885E-18
 -1        71 9.51888E-05-2.85570E-05-2.85534E-05 1.91797E-08 2.27366E-19 3.70549E-18
 -1        72 1.01952E-04-3.05180E-05-3.40792E-05-1.92320E-06 1.69618E-19 1.28397E-17
 -1        73 9.23517E-05-2.74509E-05-2.88437E-05-3.31668E-07 4.49490E-20 1.03425E-17
 -1        74 8.89137E-05-2.66441E-05-2.69143E-05-1.23965E-07 6.37599E-20 8.46989E-18
 -1        75 8.78746E-05-2.63886E-05-2.63847E-05-9.28481E-08 1.86591E-20 6.79659E-18
 -1        76 8.79418E-05-2.64071E-05-2.63708E-05-7.29818E-08 4.13222E-20 5.68305E-18
 -1        77 8.85355E-05-2.65764E-05-2.65497E-05-5.79851E-08 2.05224E-21 4.87493E-18
 -1        78 8.93865E-05-2.68259E-05-2.68080E-05-4.62352E-08-6.98697E-20 4.60608E-18
 -1        79 9.03620E-05-2.71155E-05-2.71025E-05-3.64150E-08 1.44094E-19 4.28018E-18
 -1        80 9.13997E-05-2.74253E-05-2.74156E-05-2.79817E-08-1.58815E-19 3.90206E-18
 -1        81 9.24807E-05-2.77488E-05-2.77423E-05-2.08631E-08 1.42189E-19 3.54174E-18
 -1        82 9.36156E-05-2.80888E-05-2.80858E-05-1.52347E-08 9.49473E-20 2.80171E-18
 -1        83 9.48365E-05-2.84548E-05-2.84558E-05-1.14546E-08-1.50342E-20 2.49360E-18
 -1        84 9.61903E-05-2.88605E-05-2.88663E-05-1.00751E-08 1.59803E-19 2.29818E-18
 -1        85 9.77331E-05-2.93226E-05-2.93338E-05-1.18800E-08 5.86376E-20 2.05438E-18
 -1        86 9.95217E-05-2.98577E-05-2.98747E-05-1.79035E-08 2.33193E-19 3.77409E-19
 -1        87 1.01602E-04-3.04794E-05-3.05018E-05-2.93666E-08-4.05990E-19 7.84644E-19
 -1        88 1.03989E-04-3.11921E-05-3.12179E-05-4.73971E-08 1.05210E-19 1.44063E-18
 -1        89 1.06640E-04-3.19827E-05-3.20068E-05-7.22969E-08-1.64186E-20 5.39894E-19
 -1        90 1.09410E-04-3.28090E-05-3.28209E-05-1.02017E-07-2.32549E-19 2.00875E-18
 -1        91 1.12004E-04-3.35845E-05-3.35667E-05-1.29570E-07-5.72004E-20 2.59116E-18
 -1        92 1.13933E-04-3.41658E-05-3.40948E-05-1.39798E-07-9.40951E-20 2.50682E-18
 -1        93 1.14515E-04-3.43524E-05-3.42065E-05-1.07957E-07 1.24878E-19 2.06676E-18
 -1        94 1.12992E-04-3.39182E-05-3.36972E-05-5.97110E-09 1.73595E-19-9.12010E-19
 -1        95 1.08836E-04-3.26975E-05-3.24493E-05 1.76499E-07 8.88475E-20-2.45827E-18
 -1        96 1.02230E-04-3.07275E-05-3.05591E-05 3.98446E-07 1.40584E-19-9.22392E-19
 -1        97 9.44907E-05-2.83856E-05-2.84224E-05 5.53563E-07-3.44734E-19 2.30456E-18
 -1        98 8.79703E-05-2.63787E-05-2.66721E-05 5.20313E-07-3.16426E-19 3.54466E-18
 -1        99 8.51300E-05-2.54751E-05-2.59280E-05 2.62200E-07-5.26914E-21 2.63228E-18
 -1       100 8.71628E-05-2.60691E-05-2.64752E-05-1.07307E-07-6.85154E-20 2.40645E-18
 -1       101 9.32177E-05-2.79104E-05-2.81033E-05-4.00955E-07 2.34133E-19-1.08698E-18
 -1       102 1.00954E-04-3.02731E-05-3.02239E-05-5.04578E-07-2.86729E-19-2.00400E-18
 -1       103 1.07904E-04-3.23891E-05-3.21870E-05-4.33788E-07-1.70503E-19-1.54478E-19
 -1       104 1.12540E-04-3.37908E-05-3.35542E-05-2.79244E-07 2.58166E-19-1.46095E-18
 -1       105 1.14513E-04-3.43789E-05-3.41864E-05-1.24996E-07-3.39683E-19-2.02810E-18
 -1       106 1.14272E-04-3.42975E-05-3.41761E-05-1.26262E-08 3.05106E-21-2.66127E-18
 -1       107 1.12568E-04-3.37782E-05-3.37206E-05 5.18852E-08 1.23384E-19-5.08210E-18
 -1       108 1.10114E-04-3.30366E-05-3.30232E-05 7.93246E-08 9.67609E-20-5.57728E-18
 -1       109 1.07439E-04-3.22318E-05-3.22433E-05 8.36297E-08 1.78853E-19-3.23719E-18
 -1       110 1.04877E-04-3.14624E-05-3.14849E-05 7.59517E-08-3.47798E-21-3.53705E-18
 -1       111 1.02601E-04-3.07800E-05-3.08051E-05 6.35205E-08 4.22182E-19-3.39477E-18
 -1       112 1.00680E-04-3.02041E-05-3.02275E-05 5.04039E-08-4.93440E-19-4.01252E-18
 -1       113 9.91169E-05-2.97356E-05-2.97555E-05 3.85915E-08 6.63302E-19-5.28071E-18
 -1       114 9.78813E-05-2.93653E-05-2.93813E-05 2.88582E-08-4.01230E-19-5.16614E-18
 -1       115 9.69298E-05-2.90801E-05-2.90927E-05 2.13016E-08 4.51596E-19-6.06344E-18
 -1       116 9.62184E-05-2.88667E-05-2.88768E-05 1.56333E-08 5.74024E-19-8.64476E-18
 -1       117 9.57095E-05-2.87138E-05-2.87230E-05 1.13207E-08-1.02394E-19-9.48691E-18
 -1       118 9.53771E-05-2.86134E-05-2.86233E-05 7.12149E-09-8.68391E-19-6.25168E-18
 -1       119 9.52089E-05-2.85619E-05-2.85716E-05-5.68966E-10 3.78107E-19-5.69448E-18
 -1       120 9.51912E-05-2.85545E-05-2.85552E-05-1.53887E-08 1.07402E-18-5.66940E-18
 -1       121 9.52491E-05-2.86122E-05-2.85567E-05-2.09426E-08-4.68981E-18 1.43453E-19
 -1       122 9.52412E-05-2.85863E-05-2.85757E-05-4.59100E-09-2.11529E-18 8.07438E-19
 -1       123 9.51890E-05-2.84120E-05-2.86271E-05 6.82569E-09 3.82078E-18-6.42785E-19
 -1       124 9.51046E-05-2.81293E-05-2.87077E-05 1.28268E-08 3.74026E-18 6.23803E-19
 -1       125 9.50062E-05-2.77987E-05-2.88026E-05 1.43444E-08 5.74623E-18-1.45233E-18
 -1       126 9.49140E-05-2.74878E-05-2.88924E-05 1.27340E-08 1.24981E-18 1.20330E-19
 -1       127 9.48409E-05-2.72418E-05-2.89638E-05 8.63050E-09 1.56472E-18 7.53907E-19
 -1       128 9.48011E-05-2.71075E-05-2.90027E-05 3.03146E-09 4.34141E-18-1.13742E-19
 -1       129 9.48011E-05-2.71073E-05-2.90028E-05-3.09842E-09 1.71382E-19 1.17806E-19
 -1       130 9.48410E-05-2.72417E-05-2.89637E-05-8.75882E-09 2.48448E-18 7.09206E-19
 -1       131 9.49143E-05-2.74890E-05-2.88920E-05-1.30501E-08 4.77329E-19-1.29704E-18
 -1       132 9.50074E-05-2.78022E-05-2.88016E-05-1.45926E-08-1.88805E-18 2.37050E-18
 -1       133 9.51065E-05-2.81353E-05-2.87060E-05-1.29147E-08 1.48030E-18-9.09721E-20
 -1       134 9.51910E-05-2.84199E-05-2.86252E-05-7.85095E-09 8.56287E-19-7.08457E-19
 -1       135 9.52433E-05-2.85903E-05-2.85740E-05 6.77216E-09-3.72773E-18 2.26947E-19
 -1       136 9.52440E-05-2.86111E-05-2.85547E-05 3.37920E-08-3.61646E-18-2.12367E-20
 -1       137 2.48275E-05-8.41286E-05 1.48157E-05-2.20731E-05 7.49370E-18 1.45605E-18
 -1       138 7.22477E-06-3.20054E-05 2.85099E-06-1.72580E-05 1.05752E-17 4.38001E-18
 -1       139 1.46088E-05 1.70485E-05-1.67142E-05 2.88546E-05 9.05266E-18 6.98675E-18
 -1       140 6.63102E-05 2.58010E-05-3.75688E-05 8.37270E-05 7.18919E-18 8.07095E-18
 -1       141 1.52170E-04-6.56250E-06-5.58372E-05 1.12154E-04 2.74968E-18 2.55169E-18
 -1       142 2.45928E-04-5.74548E-05-7.03606E-05 9.33355E-05 1.30761E-20 2.04601E-18
 -1       143 3.04438E-04-9.32666E-05-7.80556E-05 2.31361E-05 9.75676E-20 3.56691E-18
 -1       144 2.86866E-04-8.24193E-05-7.58260E-05-5.97893E-05 4.86574E-19-9.46348E-19
 -1       145 2.12262E-04-3.79650E-05-6.55937E-05-1.07093E-04 3.85284E-18-1.00149E-17
 -1       146 1.13983E-04 1.05191E-05-4.86307E-05-1.05154E-04 9.44844E-18-1.35369E-17
 -1       147 3.90130E-05 2.85972E-05-2.91400E-05-6.25308E-05 1.41853E-17-1.44483E-17
 -1       148 6.66404E-06 5.76820E-06-1.00984E-05-1.02694E-05 1.32611E-17-9.35738E-18
 -1       149 1.13336E-05-4.77845E-05 6.82316E-06 2.32051E-05 9.01243E-18-3.34419E-18
 -1       150 2.99272E-05-9.63086E-05 1.72048E-05 1.86127E-05 1.64261E-18-1.08784E-18
 -1       151 3.50749E-05-1.08064E-04 1.95003E-05-7.32371E-06-9.08506E-18-8.97590E-19
 -1       152 2.09071E-05-7.61454E-05 1.32869E-05-2.59122E-05-1.48407E-17-4.07968E-18
 -1       153 5.70501E-06-1.90106E-05-1.31816E-06-9.43814E-06-1.48709E-17-7.95893E-18
 -1       154 2.26960E-05 2.25701E-05-2.16556E-05 4.16834E-05-1.07577E-17-8.40299E-18
 -1       155 8.65459E-05 2.02039E-05-4.26813E-05 9.44549E-05-5.79455E-18-6.86605E-18
 -1       156 1.80350E-04-2.10372E-05-6.04149E-05 1.11386E-04-2.04156E-18-5.30878E-18
 -1       157 2.76383E-04-7.45108E-05-7.47994E-05 7.38670E-05-1.28953E-18-5.32995E-18
 -1       158 2.76976E-04-7.53215E-05-7.47926E-05-7.39980E-05-8.88591E-19 1.35674E-18
 -1       159 1.97106E-04-2.96459E-05-6.32646E-05-1.10214E-04-2.50192E-18 6.96388E-18
 -1       160 1.07115E-04 1.29073E-05-4.72148E-05-1.02650E-04-5.85342E-18 8.75070E-18
 -1       161 3.84548E-05 2.72190E-05-2.86319E-05-6.05119E-05-8.34200E-18 8.46186E-18
 -1       162 6.85916E-06 4.03111E-06-9.69457E-06-9.18964E-06-9.21191E-18 6.34597E-18
 -1       163 1.03153E-05-4.37211E-05 5.66073E-06 2.18200E-05-5.50275E-18 2.75212E-18
 -1       164 2.74048E-05-9.09397E-05 1.61859E-05 2.28971E-05-1.95368E-18 7.39169E-19
 -1       165 9.47686E-05-1.23352E-05-3.55312E-05-2.23119E-05-1.75415E-18-3.64807E-19
 -1       166 8.92110E-05-8.45071E-06-3.47736E-05-1.73481E-05-1.50570E-18-2.06798E-18
 -1       167 8.65698E-05-6.51119E-06-3.44213E-05-1.35537E-05-1.09369E-18-2.96847E-18
 -1       168 8.52359E-05-5.51106E-06-3.42506E-05-1.03264E-05-7.13275E-19-3.40047E-18
 -1       169 8.45094E-05-4.93409E-06-3.41725E-05-7.50968E-06-4.12952E-19-3.46407E-18
 -1       170 8.40915E-05-4.58162E-06-3.41370E-05-4.87490E-06-1.10109E-19-3.49889E-18
 -1       171 8.38771E-05-4.39190E-06-3.41228E-05-2.37949E-06 1.90304E-19-3.33578E-18
 -1       172 8.38136E-05-4.33414E-06-3.41193E-05 5.13172E-08 4.49772E-19-3.21486E-18
 -1       173 8.38866E-05-4.40020E-06-3.41235E-05 2.48417E-06 7.47566E-19-3.04537E-18
 -1       174 8.41126E-05-4.60062E-06-3.41382E-05 4.98598E-06 9.75789E-19-2.89362E-18
 -1       175 8.45364E-05-4.96089E-06-3.41731E-05 7.58642E-06 1.24015E-18-2.52933E-18
 -1       176 8.52946E-05-5.57059E-06-3.42520E-05 1.04716E-05 1.58970E-18-1.98189E-18
 -1       177 8.66604E-05-6.60919E-06-3.44235E-05 1.37429E-05 1.82180E-18-1.15339E-18
 -1       178 8.93583E-05-8.59892E-06-3.47777E-05 1.75852E-05 1.96809E-18 3.05752E-19
 -1       179 9.56766E-05-1.35983E-05-3.53875E-05 2.18581E-05 1.75688E-18 2.90487E-18
 -1       180 1.05432E-04-2.60546E-05-3.52074E-05 1.86361E-05 1.17710E-18 6.13061E-18
 -1       181 1.03246E-04-2.72595E-05-3.25632E-05-1.21054E-05-1.55552E-18 1.80497E-18
 -1       182 9.69762E-05-2.82489E-05-2.94895E-05-4.71040E-06-1.30834E-18 1.07329E-18
 -1       183 9.34027E-05-2.76030E-05-2.81515E-05-1.74078E-06-9.26724E-19 5.74507E-19
 -1       184 9.19055E-05-2.73807E-05-2.76177E-05-3.76879E-07-5.04588E-19-1.42374E-20
 -1       185 9.13875E-05-2.73197E-05-2.74388E-05 3.14869E-07-2.89306E-19-2.51117E-19
 -1       186 9.14333E-05-2.73808E-05-2.74417E-05 6.82554E-07-5.19543E-19-3.63551E-19
 -1       187 9.18070E-05-2.75172E-05-2.75477E-05 8.81513E-07-5.04179E-19-7.38394E-19
 -1       188 9.23794E-05-2.76992E-05-2.77170E-05 9.96170E-07-3.70587E-19-7.42630E-19
 -1       189 9.30840E-05-2.79111E-05-2.79288E-05 1.07880E-06-5.46932E-19-7.86530E-19
 -1       190 9.38941E-05-2.81475E-05-2.81749E-05 1.16529E-06-5.54331E-20-1.02650E-18
 -1       191 9.48105E-05-2.84102E-05-2.84549E-05 1.28214E-06-1.70854E-19-1.87807E-18
 -1       192 9.58540E-05-2.87064E-05-2.87748E-05 1.44960E-06-4.97633E-19-1.99853E-18
 -1       193 9.70593E-05-2.90479E-05-2.91445E-05 1.68263E-06 5.58756E-20-2.17726E-18
 -1       194 9.84699E-05-2.94494E-05-2.95765E-05 1.98983E-06-1.53644E-19-2.25972E-18
 -1       195 1.00131E-04-2.99279E-05-3.00835E-05 2.37002E-06-2.61402E-19-2.05622E-18
 -1       196 1.02082E-04-3.05003E-05-3.06748E-05 2.80517E-06 3.16489E-19-1.77875E-18
 -1       197 1.04338E-04-3.11815E-05-3.13513E-05 3.24864E-06 1.85973E-19-1.88493E-18
 -1       198 1.06871E-04-3.19789E-05-3.20979E-05 3.60763E-06-4.63837E-19-2.45892E-18
 -1       199 1.09575E-04-3.28841E-05-3.28734E-05 3.72219E-06-8.62830E-19-2.20928E-18
 -1       200 1.12230E-04-3.38567E-05-3.35998E-05 3.35139E-06 1.69976E-19-2.87109E-18
 -1       201 1.14459E-04-3.47961E-05-3.41571E-05 2.19484E-06 6.92039E-19-2.80872E-18
 -1       202 1.15723E-04-3.55038E-05-3.43959E-05 1.45857E-10 3.35316E-19-2.44047E-18
 -1       203 1.15388E-04-3.56547E-05-3.41821E-05-3.19142E-06 8.83462E-19-1.45823E-18
 -1       204 1.12959E-04-3.48501E-05-3.34758E-05-6.68744E-06 1.46359E-18 7.72620E-20
 -1       205 1.08537E-04-3.28834E-05-3.24170E-05-8.96218E-06 7.51705E-19 5.98832E-19
 -1       206 1.03312E-04-3.02027E-05-3.13307E-05-8.21140E-06 4.64048E-20 9.74988E-19
 -1       207 9.94841E-05-2.80816E-05-3.06068E-05-3.82451E-06-2.83994E-19 6.47275E-19
 -1       208 9.90485E-05-2.78298E-05-3.05272E-05 2.48757E-06-5.22897E-19-1.55574E-19
 -1       209 1.02262E-04-2.96327E-05-3.11260E-05 7.53457E-06-1.03339E-18-9.41497E-19
 -1       210 1.07390E-04-3.23191E-05-3.21674E-05 9.11040E-06-1.63972E-18-1.95555E-18
 -1       211 1.12141E-04-3.45137E-05-3.32680E-05 7.37075E-06-9.37871E-19-2.02901E-18
 -1       212 1.15064E-04-3.55772E-05-3.40743E-05 3.99593E-06-5.61927E-19-2.58734E-18
 -1       213 1.15850E-04-3.56093E-05-3.44041E-05 6.55463E-07 1.63649E-20-2.69712E-18
 -1       214 1.14910E-04-3.49986E-05-3.42636E-05-1.77001E-06 1.74094E-18-1.40986E-18
 -1       215 1.12877E-04-3.40982E-05-3.37747E-05-3.12441E-06 3.10705E-19-2.72864E-18
 -1       216 1.10328E-04-3.31350E-05-3.30896E-05-3.62138E-06 4.50137E-19-1.70539E-18
 -1       217 1.07679E-04-3.22287E-05-3.23379E-05-3.56377E-06 4.66539E-19-2.67274E-18
 -1       218 1.05187E-04-3.14312E-05-3.16083E-05-3.20864E-06 5.56528E-19-2.23281E-18
 -1       219 1.02985E-04-3.07579E-05-3.09508E-05-2.73215E-06-1.86001E-18-1.66427E-18
 -1       220 1.01119E-04-3.02057E-05-3.03872E-05-2.23908E-06-4.85928E-19-1.57885E-18
 -1       221 9.95888E-05-2.97627E-05-2.99210E-05-1.78374E-06-3.66793E-19-1.33685E-18
 -1       222 9.83643E-05-2.94139E-05-2.95460E-05-1.38880E-06 6.14184E-19-1.00515E-18
 -1       223 9.74058E-05-2.91438E-05-2.92514E-05-1.05862E-06 1.26294E-19-3.23731E-19
 -1       224 9.66716E-05-2.89382E-05-2.90254E-05-7.87484E-07 4.05346E-19-5.96971E-19
 -1       225 9.61239E-05-2.87846E-05-2.88571E-05-5.64256E-07 1.41562E-18-2.46760E-19
 -1       226 9.57310E-05-2.86733E-05-2.87370E-05-3.75418E-07 4.60918E-19 4.54471E-19
 -1       227 9.54672E-05-2.85971E-05-2.86571E-05-2.08713E-07 1.23070E-18 3.67350E-19
 -1       228 9.53057E-05-2.85527E-05-2.86072E-05-6.09723E-08 7.19910E-19 1.22081E-18
 -1       229 9.93467E-05-2.85089E-05-3.05403E-05 7.19408E-06 1.24670E-18 5.26460E-18
 -1       230 9.42848E-05-2.77504E-05-2.84852E-05 2.72552E-06 1.12939E-18 4.21374E-18
 -1       231 9.19945E-05-2.73680E-05-2.76518E-05 9.02657E-07 8.73046E-19 3.17511E-18
 -1       232 9.10904E-05-2.72169E-05-2.73471E-05 2.35339E-08 6.43851E-19 2.56196E-18
 -1       233 9.09471E-05-2.72279E-05-2.72943E-05-4.31570E-07 5.31572E-19 2.11695E-18
 -1       234 9.12341E-05-2.73416E-05-2.73752E-05-6.72540E-07 1.47946E-19 1.57849E-18
 -1       235 9.17702E-05-2.75164E-05-2.75331E-05-8.02321E-07 3.27712E-19 1.47228E-18
 -1       236 9.24584E-05-2.77281E-05-2.77388E-05-8.79191E-07 1.79156E-19 1.43915E-18
 -1       237 9.32524E-05-2.79653E-05-2.79781E-05-9.40281E-07 2.98996E-19 1.04773E-18
 -1       238 9.41387E-05-2.82259E-05-2.82467E-05-1.01109E-06 2.25257E-19 1.31354E-18
 -1       239 9.51262E-05-2.85136E-05-2.85468E-05-1.10961E-06 1.59761E-19 1.17137E-18
 -1       240 9.62391E-05-2.88368E-05-2.88854E-05-1.24786E-06 2.46034E-19 9.14652E-19
 -1       241 9.75097E-05-2.92065E-05-2.92717E-05-1.43166E-06 4.56255E-19 4.24307E-19
 -1       242 9.89715E-05-2.96350E-05-2.97149E-05-1.65864E-06 3.88074E-19 4.45730E-19
 -1       243 1.00650E-04-3.01330E-05-3.02215E-05-1.91434E-06-5.19731E-19 1.17779E-18
 -1       244 1.02548E-04-3.07067E-05-3.07902E-05-2.16593E-06 1.14195E-19 7.88034E-19
 -1       245 1.04629E-04-3.13525E-05-3.14066E-05-2.35376E-06 2.92196E-19 8.00158E-19
 -1       246 1.06791E-04-3.20496E-05-3.20355E-05-2.38248E-06-2.71193E-19 6.84406E-19
 -1       247 1.08839E-04-3.27501E-05-3.26133E-05-2.11734E-06-1.53794E-19 1.79771E-19
 -1       248 1.10464E-04-3.33658E-05-3.30445E-05-1.39828E-06-9.86694E-20 6.04135E-19
 -1       249 1.11250E-04-3.37573E-05-3.32093E-05-9.21287E-08 3.48375E-19 5.32916E-19
 -1       250 1.10736E-04-3.37358E-05-3.29921E-05 1.79656E-06 1.38057E-18 8.24322E-19
 -1       251 1.08582E-04-3.31052E-05-3.23351E-05 3.96786E-06 4.16479E-19-2.28563E-19
 -1       252 1.04841E-04-3.17756E-05-3.13045E-05 5.71858E-06-1.08366E-18 1.00242E-18
 -1       253 1.00229E-04-2.99428E-05-3.01270E-05 6.09109E-06-1.52072E-18 2.59371E-18
 -1       254 9.61448E-05-2.81841E-05-2.91471E-05 4.41996E-06-2.30254E-20 2.31024E-18
 -1       255 9.41584E-05-2.72661E-05-2.86963E-05 9.79253E-07 4.92689E-19 1.80480E-18
 -1       256 9.51471E-05-2.76677E-05-2.89375E-05-2.88033E-06-2.06193E-19 7.01770E-19
 -1       257 9.86789E-05-2.91813E-05-2.97833E-05-5.53115E-06 1.31969E-18 1.13117E-18
 -1       258 1.03323E-04-3.10949E-05-3.09391E-05-6.13061E-06 6.71356E-20 1.19133E-18
 -1       259 1.07518E-04-3.26934E-05-3.20501E-05-4.94818E-06-3.21911E-19 6.08669E-19
 -1       260 1.10283E-04-3.36167E-05-3.28466E-05-2.88601E-06 1.06581E-18 3.30541E-19
 -1       261 1.11362E-04-3.38617E-05-3.32134E-05-8.10202E-07 5.25640E-19-3.42859E-19
 -1       262 1.11004E-04-3.36066E-05-3.31751E-05 7.85769E-07 6.99727E-19-1.52031E-18
 -1       263 1.09658E-04-3.30589E-05-3.28347E-05 1.77034E-06 9.87813E-19-2.37850E-18
 -1       264 1.07772E-04-3.23847E-05-3.23147E-05 2.22377E-06 7.41572E-20-2.26064E-18
 -1       265 1.05700E-04-3.16941E-05-3.17206E-05 2.30025E-06-1.23959E-18-2.05444E-18
 -1       266 1.03678E-04-3.10505E-05-3.11278E-05 2.14879E-06 3.64340E-19-2.60014E-18
 -1       267 1.01843E-04-3.04849E-05-3.05821E-05 1.88313E-06-1.15724E-19-9.87630E-19
 -1       268 1.00258E-04-3.00077E-05-3.01064E-05 1.57877E-06 1.52601E-19-9.95914E-19
 -1       269 9.89389E-05-2.96172E-05-2.97078E-05 1.28019E-06 6.76112E-19-9.57445E-19
 -1       270 9.78725E-05-2.93056E-05-2.93841E-05 1.00993E-06-8.14507E-19-1.21632E-18
 -1       271 9.70328E-05-2.90623E-05-2.91284E-05 7.76175E-07 2.00334E-18-9.24442E-19
 -1       272 9.63895E-05-2.88769E-05-2.89323E-05 5.78056E-07 9.00968E-19-1.78324E-18
 -1       273 9.59140E-05-2.87397E-05-2.87877E-05 4.09635E-07-8.95620E-19-7.27707E-19
 -1       274 9.55817E-05-2.86426E-05-2.86875E-05 2.61814E-07-6.51730E-19-1.49762E-19
 -1       275 9.53724E-05-2.85801E-05-2.86245E-05 1.25766E-07 6.11669E-19-1.17313E-18
 -1       276 9.52663E-05-2.85594E-05-2.85866E-05 1.03298E-08-7.34221E-20-1.80171E-18
 -1       277 9.52557E-05-2.85018E-05-2.86078E-05 7.23593E-08 1.17765E-18 2.19312E-18
 -1       278 9.52103E-05-2.83572E-05-2.86510E-05 2.00701E-07 1.31927E-18 1.98602E-18
 -1       279 9.51311E-05-2.81446E-05-2.87084E-05 3.01028E-07 1.55546E-18 9.43860E-20
 -1       280 9.50380E-05-2.78939E-05-2.87761E-05 3.43643E-07 1.57524E-18-5.84753E-20
 -1       281 9.49470E-05-2.76463E-05-2.88436E-05 3.25637E-07 9.17085E-19-2.72449E-18
 -1       282 9.48687E-05-2.74314E-05-2.89025E-05 2.52353E-07 4.34327E-19-1.19501E-18
 -1       283 9.48164E-05-2.72873E-05-2.89421E-05 1.37612E-07 4.76776E-19 1.78367E-18
 -1       284 9.47978E-05-2.72360E-05-2.89562E-05 5.45353E-10 2.80558E-19-6.45939E-19
 -1       285 9.48156E-05-2.72856E-05-2.89425E-05-1.37087E-07 1.00853E-18 7.82056E-19
 -1       286 9.48676E-05-2.74290E-05-2.89031E-05-2.53226E-07-9.56302E-19-9.70673E-19
 -1       287 9.49447E-05-2.76401E-05-2.88453E-05-3.27043E-07-1.46190E-19-1.52560E-18
 -1       288 9.50381E-05-2.78935E-05-2.87763E-05-3.46162E-07 5.86596E-19 1.88601E-18
 -1       289 9.51321E-05-2.81462E-05-2.87081E-05-3.02043E-07 4.24750E-19-1.99794E-19
 -1       290 9.52106E-05-2.83563E-05-2.86510E-05-2.00735E-07-2.54889E-20-2.56466E-18
 -1       291 9.52736E-05-2.84648E-05-2.86315E-05-1.42168E-07-4.47748E-21-7.46868E-20
 -1       292 1.15999E-05-3.91965E-05 9.65194E-06 1.11396E-05 1.38871E-18 3.42011E-18
 -1       293 2.63479E-05-4.21776E-05 4.02420E-06 2.15976E-05 2.71771E-18 2.22992E-18
 -1       294 6.01790E-05-3.89754E-05-1.03256E-05 3.84334E-05 2.20991E-18 1.49623E-18
 -1       295 9.56219E-05-3.20487E-05-2.74449E-05 4.43393E-05 2.62411E-18 7.49201E-19
 -1       296 1.36160E-04-2.95920E-05-4.44450E-05 4.67651E-05 3.54208E-18-8.40468E-19
 -1       297 1.74016E-04-3.21277E-05-5.84827E-05 3.57246E-05 1.06909E-18 1.29765E-18
 -1       298 1.97630E-04-3.23880E-05-6.78957E-05 1.59056E-05-1.88571E-19 1.18098E-18
 -1       299 2.11232E-04-3.67885E-05-7.10664E-05-5.96461E-06 1.73239E-18 2.18958E-19
 -1       300 1.91851E-04-3.33974E-05-6.50223E-05-2.59084E-05 4.48832E-18 2.05617E-19
 -1       301 1.60594E-04-3.15706E-05-5.33643E-05-4.05733E-05 3.86591E-18-2.17370E-18
 -1       302 1.18326E-04-2.89068E-05-3.76486E-05-4.75409E-05 5.58745E-18-3.73478E-18
 -1       303 7.77139E-05-3.08728E-05-2.08370E-05-4.23120E-05 4.77070E-18-6.15941E-18
 -1       304 4.36290E-05-3.70167E-05-4.97704E-06-3.06299E-05 3.33138E-18-5.70641E-18
 -1       305 2.11318E-05-4.45731E-05 6.95748E-06-1.71191E-05 9.69006E-19-4.28937E-18
 -1       306 1.02958E-05-4.42457E-05 1.16195E-05-4.54938E-06-1.69978E-18-5.23466E-18
 -1       307 1.43404E-05-4.53707E-05 1.02658E-05 1.07171E-05-4.44216E-18-3.70704E-18
 -1       308 3.32230E-05-4.06414E-05 9.86331E-07 2.70126E-05-5.68889E-18-3.13738E-18
 -1       309 6.94221E-05-3.88588E-05-1.42000E-05 3.93781E-05-5.84389E-18-2.29747E-18
 -1       310 1.04792E-04-3.04493E-05-3.17886E-05 4.56648E-05-5.70223E-18-2.67091E-18
 -1       311 1.48788E-04-3.13098E-05-4.87316E-05 4.51597E-05-3.86501E-18-3.47262E-18
 -1       312 1.80342E-04-3.21046E-05-6.14872E-05 2.21735E-05-1.76172E-18-4.31839E-18
 -1       313 2.06733E-04-3.46603E-05-7.04064E-05 9.65697E-06-1.49702E-18-4.04416E-18
 -1       314 2.10626E-04-3.70756E-05-7.07087E-05-1.16502E-05-2.33463E-18-2.62485E-18
 -1       315 1.86009E-04-3.29577E-05-6.30792E-05-2.56529E-05-1.89635E-18-2.44581E-18
 -1       316 1.57404E-04-3.19219E-05-5.18870E-05-4.33326E-05-2.64084E-18 7.11508E-20
 -1       317 1.17876E-04-3.07215E-05-3.68198E-05-4.62765E-05-3.05228E-18 2.49282E-18
 -1       318 8.08672E-05-3.46049E-05-2.06059E-05-4.15541E-05-2.37614E-18 2.77096E-18
 -1       319 4.56098E-05-3.74391E-05-5.55893E-06-3.08754E-05-7.12778E-19 2.68758E-18
 -1       320 2.37545E-05-4.28785E-05 5.42466E-06-2.00786E-05-1.14180E-18 2.83693E-18
 -1       321 1.21251E-05-4.78940E-05 1.19639E-05-5.49609E-06 1.82112E-20 2.66360E-18
 -1       322 9.16254E-05-1.44362E-05-3.31588E-05-1.29265E-05-1.49082E-18-1.84796E-18
 -1       323 9.56492E-05-1.90959E-05-3.28709E-05-1.45924E-05-1.79207E-18-8.30979E-19
 -1       324 8.80489E-05-1.03477E-05-3.33557E-05-8.09487E-06-6.52075E-19-2.66693E-18
 -1       325 8.72427E-05-9.41238E-06-3.34042E-05-5.66824E-06-3.51420E-19-2.78603E-18
 -1       326 8.67842E-05-8.86998E-06-3.34366E-05-3.33383E-06 5.95808E-21-2.68809E-18
 -1       327 8.65785E-05-8.62305E-06-3.34527E-05-1.06097E-06 4.11023E-19-2.50877E-18
 -1       328 8.65869E-05-8.63259E-06-3.34523E-05 1.19175E-06 7.53873E-19-2.39076E-18
 -1       329 8.68109E-05-8.90056E-06-3.34350E-05 3.46680E-06 1.03414E-18-2.29533E-18
 -1       330 8.72812E-05-9.45669E-06-3.34019E-05 5.76522E-06 1.38457E-18-2.04901E-18
 -1       331 8.81130E-05-1.04228E-05-3.33511E-05 8.19466E-06 1.71847E-18-1.60053E-18
 -1       332 8.95096E-05-1.20183E-05-3.32771E-05 1.07020E-05 2.01096E-18-1.03595E-18
 -1       333 9.18951E-05-1.47128E-05-3.31591E-05 1.31126E-05 2.22782E-18-1.40409E-19
 -1       334 9.57415E-05-1.94404E-05-3.28080E-05 1.43316E-05 2.11538E-18 1.47040E-18
 -1       335 9.86849E-05-2.44148E-05-3.19179E-05 1.18659E-05 1.82575E-18 3.01140E-18
 -1       336 9.63036E-05-2.67825E-05-2.97651E-05 5.70357E-06 1.57716E-18 2.24734E-18
 -1       337 9.63808E-05-2.60020E-05-3.01177E-05-6.29092E-06-1.32403E-18-5.00287E-19
 -1       338 9.48934E-05-2.70028E-05-2.90704E-05-2.75500E-06-9.32865E-19-4.22957E-19
 -1       339 9.39601E-05-2.73997E-05-2.85111E-05-7.99030E-07-7.16453E-19-5.44246E-19
 -1       340 9.35053E-05-2.76163E-05-2.82310E-05 3.26334E-07-4.83254E-19-9.23560E-19
 -1       341 9.34053E-05-2.77770E-05-2.81230E-05 9.85076E-07-6.30886E-19-7.94247E-19
 -1       342 9.35522E-05-2.79197E-05-2.81263E-05 1.38362E-06-2.64418E-19-5.27582E-19
 -1       343 9.38718E-05-2.80560E-05-2.82055E-05 1.64855E-06-5.12535E-19-5.93340E-19
 -1       344 9.43196E-05-2.81905E-05-2.83398E-05 1.86372E-06-5.49242E-19-4.96411E-19
 -1       345 9.48747E-05-2.83276E-05-2.85188E-05 2.08841E-06-6.07926E-19-1.05039E-18
 -1       346 9.55341E-05-2.84734E-05-2.87385E-05 2.36623E-06-5.91906E-19-1.51218E-18
 -1       347 9.63077E-05-2.86369E-05-2.89993E-05 2.72909E-06-3.17505E-19-1.03859E-18
 -1       348 9.72149E-05-2.88310E-05-2.93043E-05 3.19778E-06 1.40074E-19-1.06164E-18
 -1       349 9.82814E-05-2.90738E-05-2.96568E-05 3.77919E-06-2.57594E-19-9.92351E-19
 -1       350 9.95363E-05-2.93914E-05-3.00584E-05 4.45932E-06 1.35064E-19-1.34031E-18
 -1       351 1.01010E-04-2.98219E-05-3.05057E-05 5.19093E-06-2.26931E-19-1.65394E-18
 -1       352 1.02729E-04-3.04204E-05-3.09878E-05 5.87457E-06-2.10556E-19-1.98783E-18
 -1       353 1.04717E-04-3.12621E-05-3.14824E-05 6.33327E-06-1.39654E-19-1.20249E-18
 -1       354 1.06981E-04-3.24337E-05-3.19558E-05 6.28715E-06-3.80507E-19-7.40975E-19
 -1       355 1.09487E-04-3.39938E-05-3.23681E-05 5.34716E-06 2.26325E-20-7.86274E-19
 -1       356 1.12090E-04-3.58687E-05-3.26875E-05 3.07583E-06 9.06697E-19-2.68064E-19
 -1       357 1.14426E-04-3.76760E-05-3.29177E-05-8.09346E-07 8.57594E-19 3.81150E-19
 -1       358 1.15774E-04-3.85330E-05-3.31258E-05-6.01341E-06 1.41918E-18 4.21168E-19
 -1       359 1.15172E-04-3.72004E-05-3.34284E-05-1.10714E-05 1.55407E-18 2.96274E-19
 -1       360 1.12162E-04-3.30661E-05-3.39094E-05-1.32075E-05 1.02086E-18 1.27568E-19
 -1       361 1.08029E-04-2.77100E-05-3.44472E-05-9.72832E-06-3.54788E-19-6.89356E-20
 -1       362 1.05744E-04-2.47871E-05-3.47159E-05-1.11186E-06-1.79110E-18-6.97284E-19
 -1       363 1.07268E-04-2.67293E-05-3.45397E-05 8.17899E-06-1.69891E-18-2.34051E-18
 -1       364 1.11261E-04-3.18771E-05-3.40354E-05 1.29790E-05-1.11553E-18-1.98749E-18
 -1       365 1.14708E-04-3.65047E-05-3.35278E-05 1.19223E-05-1.37886E-18-1.21333E-18
 -1       366 1.15860E-04-3.84644E-05-3.31894E-05 7.25185E-06-4.37979E-19-5.58200E-19
 -1       367 1.14876E-04-3.79899E-05-3.29753E-05 1.91421E-06-6.93465E-19-8.26087E-19
 -1       368 1.12700E-04-3.63000E-05-3.27649E-05-2.30386E-06 6.46513E-19-2.25340E-18
 -1       369 1.10136E-04-3.43933E-05-3.24767E-05-4.89583E-06 4.64795E-19-1.52523E-18
 -1       370 1.07624E-04-3.27539E-05-3.20953E-05-6.06080E-06 8.53659E-19-1.26050E-18
 -1       371 1.05345E-04-3.15061E-05-3.16478E-05-6.22623E-06-4.97736E-19-1.31015E-18
 -1       372 1.03354E-04-3.06090E-05-3.11751E-05-5.79921E-06 4.83946E-19-1.15542E-18
 -1       373 1.01652E-04-2.99777E-05-3.07140E-05-5.08292E-06 4.95272E-20-2.66397E-18
 -1       374 1.00221E-04-2.95344E-05-3.02901E-05-4.27382E-06 9.27105E-19 3.03416E-19
 -1       375 9.90377E-05-2.92205E-05-2.99174E-05-3.48533E-06-3.28203E-20 2.09208E-18
 -1       376 9.80739E-05-2.89958E-05-2.96010E-05-2.77433E-06 4.55559E-20 2.42350E-18
 -1       377 9.73012E-05-2.88331E-05-2.93401E-05-2.16227E-06 1.02220E-18 1.05593E-18
 -1       378 9.66914E-05-2.87134E-05-2.91306E-05-1.64986E-06 2.83422E-19 2.07950E-18
 -1       379 9.62174E-05-2.86232E-05-2.89666E-05-1.22631E-06-1.64993E-20 2.26203E-18
 -1       380 9.58554E-05-2.85529E-05-2.88419E-05-8.74745E-07-7.57507E-20 3.05965E-19
 -1       381 9.55843E-05-2.84970E-05-2.87497E-05-5.78268E-07 1.96825E-19-6.48973E-19
 -1       382 9.54058E-05-2.84712E-05-2.86851E-05-3.40717E-07 1.15391E-18-9.07954E-19
 -1       383 9.43129E-05-2.73143E-05-2.86753E-05 2.41414E-06 1.41319E-18 1.82864E-18
 -1       384 9.31495E-05-2.74401E-05-2.81390E-05 6.58654E-07 1.05434E-18 1.21779E-18
 -1       385 9.26593E-05-2.75280E-05-2.79030E-05-3.09966E-07 7.87244E-19 7.87668E-19
 -1       386 9.26107E-05-2.76373E-05-2.78409E-05-8.54799E-07 3.61589E-19 5.87694E-19
 -1       387 9.28469E-05-2.77725E-05-2.78865E-05-1.16932E-06 3.19772E-19 2.40896E-19
 -1       388 9.32705E-05-2.79275E-05-2.80026E-05-1.36522E-06 2.85750E-19 5.95702E-19
 -1       389 9.38263E-05-2.80977E-05-2.81681E-05-1.51339E-06 5.06358E-19 5.39577E-19
 -1       390 9.44892E-05-2.82830E-05-2.83727E-05-1.66184E-06 9.60579E-20 5.92329E-19
 -1       391 9.52550E-05-2.84871E-05-2.86132E-05-1.84385E-06 1.73642E-19 8.50568E-19
 -1       392 9.61339E-05-2.87176E-05-2.88907E-05-2.08140E-06 4.12481E-19 4.95285E-19
 -1       393 9.71452E-05-2.89856E-05-2.92089E-05-2.38535E-06 8.03378E-19 2.80468E-19
 -1       394 9.83114E-05-2.93052E-05-2.95716E-05-2.75291E-06 1.85741E-19 8.70473E-19
 -1       395 9.96528E-05-2.96934E-05-2.99803E-05-3.16229E-06-5.32269E-19 8.07193E-19
 -1       396 1.01179E-04-3.01696E-05-3.04314E-05-3.56396E-06 2.56925E-19 6.40062E-19
 -1       397 1.02881E-04-3.07541E-05-3.09118E-05-3.86927E-06 3.25144E-19 1.77298E-19
 -1       398 1.04712E-04-3.14630E-05-3.13959E-05-3.93864E-06 1.66354E-19 1.87876E-19
 -1       399 1.06579E-04-3.22968E-05-3.18424E-05-3.57695E-06 2.57230E-19-4.35064E-19
 -1       400 1.08311E-04-3.32148E-05-3.21959E-05-2.55210E-06-2.11865E-19-8.26616E-19
 -1       401 1.09646E-04-3.40925E-05-3.23954E-05-6.63628E-07-7.34536E-20-7.27508E-19
 -1       402 1.10221E-04-3.46716E-05-3.23941E-05 2.10906E-06 1.36272E-18-7.08857E-20
 -1       403 1.09627E-04-3.45533E-05-3.21866E-05 5.38273E-06 5.03257E-19 6.32947E-19
 -1       404 1.07597E-04-3.33401E-05-3.18290E-05 8.18362E-06-1.60951E-18 9.27617E-19
 -1       405 1.04366E-04-3.10145E-05-3.14333E-05 9.07864E-06-2.00276E-18 6.24131E-19
 -1       406 1.00973E-04-2.83371E-05-3.11228E-05 6.93449E-06 7.84151E-20 1.20416E-18
 -1       407 9.89689E-05-2.66574E-05-3.09773E-05 1.95656E-06 1.00163E-18 1.50242E-18
 -1       408 9.94820E-05-2.70444E-05-3.10259E-05-3.89771E-06 3.47512E-19 1.44735E-18
 -1       409 1.02219E-04-2.92373E-05-3.12612E-05-8.05302E-06 8.99928E-19 1.21902E-18
 -1       410 1.05758E-04-3.19489E-05-3.16243E-05-9.10032E-06 7.33637E-19 1.31352E-18
 -1       411 1.08635E-04-3.39368E-05-3.20176E-05-7.38232E-06 7.98477E-20 1.83709E-19
 -1       412 1.10122E-04-3.47358E-05-3.23226E-05-4.27266E-06 9.54459E-19-6.98899E-19
 -1       413 1.10227E-04-3.45533E-05-3.24498E-05-1.10172E-06 3.92654E-19-3.06430E-19
 -1       414 1.09317E-04-3.38228E-05-3.23713E-05 1.36701E-06 1.23306E-18-2.44931E-19
 -1       415 1.07809E-04-3.29056E-05-3.21132E-05 2.91681E-06 1.34129E-18 7.25638E-19
 -1       416 1.06035E-04-3.20116E-05-3.17310E-05 3.65302E-06 2.91574E-19 7.51025E-19
 -1       417 1.04225E-04-3.12309E-05-3.12852E-05 3.79906E-06-9.07744E-19-5.32538E-19
 -1       418 1.02517E-04-3.05860E-05-3.08267E-05 3.57779E-06-1.94379E-19-7.12070E-19
 -1       419 1.00987E-04-3.00690E-05-3.03910E-05 3.16422E-06-3.49809E-19-7.90400E-20
 -1       420 9.96686E-05-2.96618E-05-2.99996E-05 2.67800E-06-4.55975E-20 7.15625E-19
 -1       421 9.85652E-05-2.93452E-05-2.96623E-05 2.19224E-06-1.26778E-19 1.80480E-18
 -1       422 9.76648E-05-2.91012E-05-2.93812E-05 1.74596E-06 3.97431E-19 1.45933E-18
 -1       423 9.69465E-05-2.89146E-05-2.91536E-05 1.35528E-06 5.32128E-19 1.62630E-18
 -1       424 9.63861E-05-2.87728E-05-2.89746E-05 1.02154E-06 7.36946E-19 4.43941E-18
 -1       425 9.59605E-05-2.86659E-05-2.88384E-05 7.37796E-07-7.77520E-19 4.23979E-18
 -1       426 9.56467E-05-2.85852E-05-2.87390E-05 4.93355E-07 1.47357E-19 2.93876E-18
 -1       427 9.54262E-05-2.85288E-05-2.86691E-05 2.78646E-07 4.68811E-19 2.71115E-18
 -1       428 9.53263E-05-2.85030E-05-2.86378E-05 1.69703E-07 6.73160E-19 3.32510E-18
 -1       429 9.50952E-05-2.79536E-05-2.87747E-05 6.00770E-07 4.78002E-19-1.33862E-19
 -1       430 9.52337E-05-2.82030E-05-2.87265E-05 4.98765E-07 1.10953E-18 1.68815E-18
 -1       431 9.53018E-05-2.83746E-05-2.86820E-05 3.38833E-07 7.56325E-19 1.85141E-19
 -1       432 9.49550E-05-2.77058E-05-2.88212E-05 6.08119E-07 1.61100E-19-3.21342E-18
 -1       433 9.48262E-05-2.74797E-05-2.88634E-05 5.18692E-07 1.07662E-18-1.75699E-19
 -1       434 9.47295E-05-2.73095E-05-2.88952E-05 3.48228E-07 1.84725E-18 1.17327E-18
 -1       435 9.46771E-05-2.72171E-05-2.89126E-05 1.23984E-07-7.10026E-19-1.60437E-19
 -1       436 9.46757E-05-2.72147E-05-2.89130E-05-1.19862E-07-2.48737E-19-4.16499E-19
 -1       437 9.47260E-05-2.73033E-05-2.88964E-05-3.46323E-07-1.61818E-18-3.07000E-19
 -1       438 9.48201E-05-2.74682E-05-2.88657E-05-5.17797E-07-9.76032E-19-1.28554E-18
 -1       439 9.49499E-05-2.76943E-05-2.88240E-05-6.11449E-07 5.00252E-19 4.07474E-18
 -1       440 9.50943E-05-2.79485E-05-2.87766E-05-6.05758E-07 9.63139E-19 4.60715E-19
 -1       441 9.52377E-05-2.82041E-05-2.87278E-05-5.02150E-07-2.01184E-19-3.26292E-18
 -1       442 5.53157E-05-3.94283E-05-6.97868E-06 4.20320E-05-1.35917E-18 5.23202E-19
 -1       443 1.31093E-05-1.93865E-05 2.76920E-06-2.05967E-06-6.64901E-19 4.69997E-18
 -1       444 2.83103E-05-2.72901E-05-3.85767E-07 3.00635E-05-1.46971E-18 6.53168E-19
 -1       445 1.00951E-04-5.14493E-05-2.12923E-05 3.96821E-05 5.83500E-19-1.12692E-18
 -1       446 1.35075E-04-5.34284E-05-3.49655E-05 2.34858E-05 1.19135E-18-2.84317E-18
 -1       447 8.93906E-05-1.18820E-05-3.32841E-05-1.05861E-05-1.06228E-18-2.44185E-18
 -1       448 1.56602E-04-2.44015E-05-5.65717E-05-6.82115E-07-1.88888E-19 2.66402E-18
 -1       449 1.53692E-04-1.15362E-05-6.09546E-05-1.06971E-06 1.00649E-18 2.74760E-18
 -1       450 1.60393E-04-1.69958E-05-6.11445E-05 4.70415E-07 3.64785E-18 1.89815E-18
 -1       451 1.56835E-04-3.08868E-05-5.37668E-05-3.54708E-06 3.56071E-18 8.94361E-19
 -1       452 1.45156E-04-4.64706E-05-4.22293E-05-1.71990E-05 3.01012E-18 7.32048E-19
 -1       453 1.22559E-04-5.43371E-05-2.92493E-05-3.19031E-05 1.53758E-18-4.31987E-20
 -1       454 8.44830E-05-4.85246E-05-1.55942E-05-4.30839E-05 3.45378E-19-4.27119E-18
 -1       455 4.85165E-05-3.71009E-05-4.98788E-06-4.07765E-05-2.95403E-19-5.33414E-18
 -1       456 2.00314E-05-2.56542E-05 2.25935E-06-2.28445E-05-1.07054E-18-5.29311E-18
 -1       457 1.36017E-05-2.04628E-05 2.92921E-06 7.87799E-06-5.47210E-19-5.05626E-18
 -1       458 3.08641E-05-3.03552E-05-3.98551E-07 3.12637E-05-1.26240E-18-3.25663E-18
 -1       459 6.95952E-05-4.49502E-05-1.06397E-05 4.35786E-05-2.46010E-18-1.43940E-18
 -1       460 1.16934E-04-5.73401E-05-2.55157E-05 3.42796E-05-3.98847E-18 1.98100E-19
 -1       461 1.40086E-04-5.02573E-05-3.84357E-05 2.25095E-05-3.40936E-18-1.85373E-18
 -1       462 1.53913E-04-3.98363E-05-4.89031E-05 3.40833E-06-2.27770E-18-3.74791E-18
 -1       463 1.52680E-04-1.75691E-05-5.80642E-05-5.47023E-06-1.39697E-18-3.56993E-18
 -1       464 1.63729E-04-1.49164E-05-6.33690E-05-2.29056E-08-2.43300E-18-3.37566E-18
 -1       465 1.63987E-04-2.00905E-05-6.11626E-05 4.60350E-07-2.89876E-18-2.94503E-18
 -1       466 1.55963E-04-3.59864E-05-5.13625E-05-3.12282E-06-1.64107E-18-2.67472E-18
 -1       467 1.47397E-04-4.77388E-05-4.25951E-05-1.57993E-05-1.90114E-18-3.31762E-18
 -1       468 1.26436E-04-5.78692E-05-2.93978E-05-2.90099E-05 1.01750E-19-1.42466E-18
 -1       469 8.72678E-05-5.03913E-05-1.59310E-05-4.25374E-05 1.36012E-18 2.07195E-18
 -1       470 5.41516E-05-3.98371E-05-6.29488E-06-4.09618E-05 6.82285E-19 1.24847E-18
 -1       471 2.22824E-05-2.52066E-05 1.20209E-06-2.36758E-05-5.65394E-19 2.44136E-18
 -1       472 1.49277E-04-4.30447E-05-4.55741E-05 1.02963E-05 9.89520E-19-6.17381E-19
 -1       473 2.43902E-05-1.53453E-05-3.30919E-06 1.48763E-05-2.30498E-18 2.46667E-18
 -1       474 8.85101E-05-5.03964E-05-1.61261E-05 4.30556E-05-1.73160E-18-1.52347E-19
 -1       475 9.57974E-05-2.51210E-05-3.02756E-05 5.93879E-06 1.72314E-18 6.50869E-19
 -1       476 8.95674E-05-1.33071E-05-3.27020E-05-3.86298E-06-1.17404E-19-2.46311E-18
 -1       477 9.02785E-05-1.42921E-05-3.25868E-05-5.80384E-06-4.78269E-19-2.44631E-18
 -1       478 8.90618E-05-1.26059E-05-3.27845E-05 5.43361E-08 4.66864E-19-2.13768E-18
 -1       479 8.91992E-05-1.27952E-05-3.27626E-05 2.01213E-06 8.26405E-19-2.17648E-18
 -1       480 8.95988E-05-1.33479E-05-3.26981E-05 3.93699E-06 1.10116E-18-1.94986E-18
 -1       481 9.03267E-05-1.43568E-05-3.25796E-05 5.87109E-06 1.50141E-18-1.58238E-18
 -1       482 9.14728E-05-1.59600E-05-3.23857E-05 7.69183E-06 1.69635E-18-1.13701E-18
 -1       483 9.32442E-05-1.84495E-05-3.20750E-05 9.21201E-06 1.89687E-18-5.60736E-19
 -1       484 9.51175E-05-2.65422E-05-2.93713E-05 2.75693E-06 1.53307E-18 5.38746E-19
 -1       485 9.54753E-05-2.43966E-05-3.04529E-05-5.73052E-06-1.04024E-18-1.25643E-18
 -1       486 1.41176E-04-3.48331E-05-4.60150E-05-9.49799E-06-3.80053E-19 1.11565E-18
 -1       487 9.52969E-05-2.61797E-05-2.96148E-05-2.74750E-06-8.45489E-19-1.07528E-18
 -1       488 9.49743E-05-2.70927E-05-2.90883E-05-8.08953E-07-6.85140E-19-8.62785E-19
 -1       489 9.47477E-05-2.76010E-05-2.87753E-05 4.21190E-07-5.31424E-19-6.39991E-19
 -1       490 9.46601E-05-2.78995E-05-2.86108E-05 1.20523E-06-5.84582E-19-7.29677E-19
 -1       491 9.46986E-05-2.80778E-05-2.85513E-05 1.72469E-06-5.19892E-19-1.20387E-18
 -1       492 9.48397E-05-2.81801E-05-2.85680E-05 2.10707E-06-3.54082E-19-1.25188E-18
 -1       493 9.50643E-05-2.82310E-05-2.86423E-05 2.44402E-06-8.69831E-19-9.22714E-19
 -1       494 9.53613E-05-2.82467E-05-2.87627E-05 2.80311E-06-5.92533E-19-4.83786E-19
 -1       495 9.57275E-05-2.82410E-05-2.89219E-05 3.23434E-06-1.66980E-19-4.10707E-19
 -1       496 9.61670E-05-2.82289E-05-2.91151E-05 3.77313E-06-2.05030E-19-5.99232E-19
 -1       497 9.66914E-05-2.82317E-05-2.93384E-05 4.44006E-06-2.92703E-19-1.08164E-18
 -1       498 9.73209E-05-2.82818E-05-2.95865E-05 5.23716E-06-2.87969E-19-9.01532E-19
 -1       499 9.80893E-05-2.84323E-05-2.98513E-05 6.14003E-06-1.81687E-19-6.62041E-19
 -1       500 9.90529E-05-2.87685E-05-3.01205E-05 7.08478E-06-4.29170E-19-5.14526E-19
 -1       501 1.00304E-04-2.94217E-05-3.03779E-05 7.94842E-06 7.36088E-20-1.00139E-18
 -1       502 1.01989E-04-3.05772E-05-3.06064E-05 8.52225E-06-3.48034E-19-9.55696E-19
 -1       503 1.04310E-04-3.24546E-05-3.07995E-05 8.47971E-06 3.82803E-20-8.05863E-20
 -1       504 1.07487E-04-3.52125E-05-3.09833E-05 7.34875E-06 1.08056E-18 5.20424E-19
 -1       505 1.11581E-04-3.86932E-05-3.12493E-05 4.55601E-06 1.59828E-18 9.20644E-19
 -1       506 1.16181E-04-4.20424E-05-3.17888E-05-3.80853E-07 1.25147E-18 1.29434E-18
 -1       507 1.19886E-04-4.32020E-05-3.28925E-05-7.17555E-06 1.40818E-18 1.11707E-18
 -1       508 1.20579E-04-3.95718E-05-3.47628E-05-1.35948E-05 1.03791E-18 1.57044E-19
 -1       509 1.16934E-04-3.05160E-05-3.71244E-05-1.49996E-05 7.71925E-20-1.29239E-19
 -1       510 1.12067E-04-2.13172E-05-3.90782E-05-7.86795E-06-1.20186E-18-1.89226E-19
 -1       511 1.11629E-04-2.01267E-05-3.93921E-05 5.07012E-06-2.44140E-18 6.99160E-19
 -1       512 1.15856E-04-2.81150E-05-3.77366E-05 1.41489E-05-2.39835E-18-3.95415E-19
 -1       513 1.20077E-04-3.78887E-05-3.52882E-05 1.44935E-05-1.55365E-18-1.81953E-18
 -1       514 1.20361E-04-4.28701E-05-3.32363E-05 8.74609E-06-6.49897E-19-1.98708E-18
 -1       515 1.17140E-04-4.25601E-05-3.19761E-05 1.76771E-06-1.15706E-18-7.84603E-19
 -1       516 1.12590E-04-3.94694E-05-3.13485E-05-3.61448E-06-5.44900E-19-2.71465E-19
 -1       517 1.08341E-04-3.59029E-05-3.10537E-05-6.81379E-06 1.05288E-18-5.95546E-19
 -1       518 1.04980E-04-3.29517E-05-3.08742E-05-8.21549E-06 7.97939E-19-1.01287E-18
 -1       519 1.02514E-04-3.08865E-05-3.06995E-05-8.40153E-06 7.73897E-20-7.69151E-19
 -1       520 1.00740E-04-2.95875E-05-3.04935E-05-7.87051E-06-2.74513E-19-9.98610E-19
 -1       521 9.94445E-05-2.88372E-05-3.02589E-05-6.97661E-06-1.34109E-18-1.32721E-18
 -1       522 9.84723E-05-2.84405E-05-3.00118E-05-5.94995E-06 1.10085E-18-1.15110E-18
 -1       523 9.77211E-05-2.82553E-05-2.97692E-05-4.92892E-06 1.61242E-18-6.26491E-19
 -1       524 9.71285E-05-2.81886E-05-2.95439E-05-3.98881E-06 4.99485E-19 3.08703E-19
 -1       525 9.66556E-05-2.81830E-05-2.93439E-05-3.16366E-06-9.24791E-19-7.19294E-19
 -1       526 9.62768E-05-2.82044E-05-2.91726E-05-2.46167E-06 2.25437E-19-1.33599E-18
 -1       527 9.59738E-05-2.82330E-05-2.90308E-05-1.87652E-06 2.47753E-19-1.23060E-18
 -1       528 9.57285E-05-2.82538E-05-2.89168E-05-1.39279E-06-9.84515E-19-6.61884E-19
 -1       529 9.55342E-05-2.82686E-05-2.88273E-05-9.93170E-07-3.23769E-19-7.51841E-19
 -1       530 5.57837E-05-3.12778E-05-9.97774E-06 3.83964E-05-2.56196E-18-1.56066E-19
 -1       531 9.42477E-05-2.76340E-05-2.85449E-05-3.86489E-07 7.73092E-19 2.59819E-19
 -1       532 9.41546E-05-2.78724E-05-2.84049E-05-1.11994E-06 5.72060E-19 1.22653E-19
 -1       533 9.42394E-05-2.80367E-05-2.83716E-05-1.58576E-06 2.79126E-19 4.16832E-21
 -1       534 9.44591E-05-2.81587E-05-2.84138E-05-1.91092E-06 1.40971E-19-1.42147E-19
 -1       535 9.47843E-05-2.82556E-05-2.85116E-05-2.18235E-06 3.25012E-20 3.93964E-19
 -1       536 9.51996E-05-2.83398E-05-2.86534E-05-2.46102E-06 2.76192E-19 3.49462E-19
 -1       537 9.57016E-05-2.84234E-05-2.88325E-05-2.78899E-06 5.18885E-19-6.84818E-20
 -1       538 9.62966E-05-2.85215E-05-2.90451E-05-3.19218E-06 5.83687E-19-1.70139E-19
 -1       539 9.69982E-05-2.86541E-05-2.92888E-05-3.67953E-06-1.20627E-19 8.11714E-20
 -1       540 9.78267E-05-2.88494E-05-2.95601E-05-4.23905E-06-2.05606E-19 3.82844E-19
 -1       541 9.88086E-05-2.91479E-05-2.98533E-05-4.83024E-06-2.10315E-20 3.44395E-19
 -1       542 9.99767E-05-2.96053E-05-3.01586E-05-5.37300E-06 3.45606E-19 1.07195E-19
 -1       543 1.01370E-04-3.02946E-05-3.04619E-05-5.73393E-06 1.41250E-19 4.55902E-19
 -1       544 1.03030E-04-3.12967E-05-3.07461E-05-5.71353E-06-1.05356E-20 2.86358E-19
 -1       545 1.04981E-04-3.26708E-05-3.09968E-05-5.04398E-06-2.97094E-20 1.02984E-18
 -1       546 1.07186E-04-3.43818E-05-3.12120E-05-3.41834E-06 1.21411E-19 7.83229E-19
 -1       547 1.09453E-04-3.61752E-05-3.14175E-05-5.90440E-07 1.57576E-19 5.74167E-21
 -1       548 1.11318E-04-3.74330E-05-3.16770E-05 3.40356E-06 3.13857E-19 1.67749E-18
 -1       549 1.12015E-04-3.71736E-05-3.20855E-05 7.88761E-06-7.24590E-19 2.20123E-18
 -1       550 1.10790E-04-3.45068E-05-3.27008E-05 1.12265E-05-1.01960E-18 1.30503E-18
 -1       551 1.07772E-04-2.97550E-05-3.34474E-05 1.11401E-05-5.11907E-19-2.17869E-19
 -1       552 1.04536E-04-2.50649E-05-3.40793E-05 6.40572E-06 6.82004E-19-7.76665E-19
 -1       553 1.03573E-04-2.36890E-05-3.42379E-05-1.55038E-06 1.00825E-19-5.83821E-19
 -1       554 1.05624E-04-2.66050E-05-3.38754E-05-8.67974E-06 2.71117E-19-4.22712E-19
 -1       555 1.09029E-04-3.16422E-05-3.31717E-05-1.17223E-05 1.00541E-18-2.20824E-20
 -1       556 1.11504E-04-3.57937E-05-3.24524E-05-1.02836E-05 1.16984E-18 2.24781E-19
 -1       557 1.11971E-04-3.75120E-05-3.19210E-05-6.28891E-06 8.22371E-19-2.39020E-19
 -1       558 1.10755E-04-3.70863E-05-3.15852E-05-1.87002E-06 7.73650E-19-3.65780E-19
 -1       559 1.08683E-04-3.55312E-05-3.13631E-05 1.70588E-06 1.06868E-18-4.77371E-19
 -1       560 1.06422E-04-3.37154E-05-3.11691E-05 4.04215E-06 9.39949E-19 4.67605E-19
 -1       561 1.04325E-04-3.21114E-05-3.09543E-05 5.23917E-06 1.30100E-18 7.62578E-19
 -1       562 1.02518E-04-3.08771E-05-3.07055E-05 5.58270E-06 9.81791E-19-3.07902E-19
 -1       563 1.01008E-04-3.00011E-05-3.04316E-05 5.37071E-06-7.15160E-21-5.39133E-19
 -1       564 9.97634E-05-2.94111E-05-3.01495E-05 4.84539E-06-8.53057E-19 1.01219E-19
 -1       565 9.87432E-05-2.90277E-05-2.98760E-05 4.17968E-06-1.77371E-18 4.73529E-19
 -1       566 9.79120E-05-2.87850E-05-2.96236E-05 3.48545E-06-1.03928E-19 1.50153E-18
 -1       567 9.72396E-05-2.86342E-05-2.94001E-05 2.82790E-06 3.51870E-19 1.67823E-18
 -1       568 9.67002E-05-2.85411E-05-2.92091E-05 2.23937E-06 6.04226E-20 3.10119E-18
 -1       569 9.62722E-05-2.84826E-05-2.90509E-05 1.73084E-06-6.64814E-20 2.28459E-18
 -1       570 9.59362E-05-2.84418E-05-2.89242E-05 1.30116E-06-5.95235E-19 2.88361E-18
 -1       571 9.56740E-05-2.84110E-05-2.88256E-05 9.33861E-07-2.93665E-19 3.05466E-18
 -1       572 9.54667E-05-2.83844E-05-2.87484E-05 6.20592E-07 1.39151E-18 3.14767E-18
 -1       573 9.47824E-05-2.74696E-05-2.88486E-05 8.13269E-07 2.73466E-18-9.95836E-19
 -1       574 9.46024E-05-2.72438E-05-2.88683E-05 6.20746E-07 9.42257E-19 4.05922E-19
 -1       575 9.52175E-05-2.80338E-05-2.87929E-05 8.38252E-07 2.03357E-18-8.23663E-19
 -1       576 9.49994E-05-2.77448E-05-2.88230E-05 8.86968E-07 1.02847E-18-1.04159E-18
 -1       577 9.44832E-05-2.70947E-05-2.88813E-05 3.38017E-07-2.72296E-19-1.34801E-18
 -1       578 9.44395E-05-2.70397E-05-2.88862E-05 5.74688E-09 1.25711E-19 7.47435E-19
 -1       579 9.44774E-05-2.70858E-05-2.88826E-05-3.28719E-07 5.95875E-19-2.03607E-19
 -1       580 9.45905E-05-2.72254E-05-2.88711E-05-6.12821E-07 5.64326E-19 1.31971E-19
 -1       581 9.47694E-05-2.74475E-05-2.88524E-05-8.13830E-07 7.59269E-19 1.64001E-18
 -1       582 9.49917E-05-2.77270E-05-2.88276E-05-8.95082E-07-1.28306E-20 1.34340E-18
 -1       583 9.52210E-05-2.80275E-05-2.87968E-05-8.45653E-07-1.33194E-18-2.25941E-18
 -1       584 1.24692E-04-5.97075E-05-2.78207E-05 2.64955E-05 8.91926E-19-1.12550E-18
 -1       585 9.45663E-05-2.72499E-05-2.88410E-05 8.05838E-07 1.08752E-18 3.25347E-19
 -1       586 1.40974E-04-5.29833E-05-3.79457E-05 3.18093E-06 1.46225E-18 5.12137E-19
 -1       587 4.94065E-05-2.89951E-05-8.25735E-06-3.61814E-05 1.31460E-18-1.09738E-18
 -1       588 1.39400E-04-5.66587E-05-3.56173E-05-7.51282E-06-1.00619E-18-1.38680E-18
 -1       589 1.34648E-04-9.93122E-06-5.40420E-05-3.09420E-06-2.72882E-18-2.49941E-18
 -1       590 8.91796E-05-1.27698E-05-3.27650E-05-1.90395E-06 2.26332E-19-2.42443E-18
 -1       591 1.35406E-04-8.98509E-06-5.47391E-05 3.69707E-06 2.90352E-18-4.93026E-19
 -1       592 1.13511E-04-5.80235E-05-2.36076E-05-3.19611E-05 2.00826E-18-5.45959E-19
 -1       593 1.34168E-04-1.41446E-05-5.20571E-05-9.16566E-06-4.60045E-19-1.13529E-18
 -1       594 1.39383E-04-2.03248E-05-5.14790E-05 1.00249E-05 3.88359E-18 1.86427E-18
 -1       595 1.43402E-04-4.22037E-05-4.37312E-05 4.86740E-06 1.88616E-18 2.57784E-18
 -1       596 1.37757E-04-5.71014E-05-3.46791E-05-1.18638E-05 1.51622E-18 1.83160E-18
 -1       597 1.12128E-04-5.78313E-05-2.32070E-05-3.40786E-05-9.84835E-19-8.89385E-19
 -1       598 8.08051E-05-4.53870E-05-1.48123E-05-4.25961E-05-2.38969E-18-3.06179E-18
 -1       599 4.67262E-05-2.44893E-05-8.92056E-06-3.32632E-05-1.51243E-18-4.87102E-18
 -1       600 2.76747E-05-1.27204E-05-5.70180E-06-1.05579E-05-6.56715E-19-4.78669E-18
 -1       601 3.06373E-05-1.86371E-05-4.61861E-06 2.27883E-05 3.47733E-19-4.23104E-18
 -1       602 5.89322E-05-3.41252E-05-1.02225E-05 3.96485E-05-7.32683E-20-1.80916E-18
 -1       603 1.02932E-04-5.44203E-05-2.04951E-05 3.70168E-05-1.18108E-18-1.12907E-19
 -1       604 1.35577E-04-5.91810E-05-3.28512E-05 1.54092E-05-2.80492E-18-1.39808E-18
 -1       605 1.43735E-04-5.01805E-05-4.04375E-05-2.70957E-06-1.85011E-18-2.22468E-18
 -1       606 1.38625E-04-2.95798E-05-4.71972E-05-1.32536E-05-1.58983E-18-2.53038E-18
 -1       607 1.37059E-04-1.13171E-05-5.44708E-05 5.30628E-06-3.01067E-18-3.06431E-18
 -1       608 1.42446E-04-2.51957E-05-5.07238E-05 1.13156E-05-2.34453E-18-2.91273E-18
 -1       609 1.43782E-04-4.72400E-05-4.17741E-05 4.98576E-06-1.76511E-18-1.85611E-18
 -1       610 8.14504E-05-4.59617E-05-1.48995E-05-4.17151E-05 2.38742E-18 9.09872E-19
 -1       611 2.82977E-05-1.44603E-05-5.25257E-06-1.44713E-05-4.59198E-19 2.86324E-18
 -1       612 9.45857E-05-2.07326E-05-3.16699E-05-9.36125E-06-1.43387E-18-1.40746E-18
 -1       613 9.61149E-05-2.31686E-05-3.12662E-05 9.52618E-06 1.93954E-18 9.44086E-19
 -1       614 1.23515E-04-9.75696E-06-4.93327E-05-3.57902E-06 8.97378E-19-2.88029E-18
 -1       615 9.13836E-05-1.58481E-05-3.23963E-05-7.61274E-06-7.69429E-19-2.28863E-18
 -1       616 4.48371E-05-1.93693E-05-1.03701E-05 2.68820E-05-3.02507E-18 1.73801E-19
 -1       617 9.54242E-05-2.82759E-05-2.87770E-05-7.53546E-07-1.03074E-18-1.13614E-18
 -1       618 1.22503E-04-5.96399E-05-2.68582E-05 2.21711E-05-8.31985E-19 5.47263E-20
 -1       619 1.26910E-04-1.92201E-05-4.66522E-05-1.30780E-05-1.88497E-18-1.59794E-18
 -1       620 1.29396E-04-6.00582E-05-2.97408E-05-1.48033E-05 1.25096E-18-9.54143E-19
 -1       621 9.27790E-05-1.78947E-05-3.21149E-05-8.80261E-06-1.16590E-18-1.99448E-18
 -1       622 9.15369E-05-1.66817E-05-3.20864E-05 2.37109E-06 8.65647E-19-1.81643E-18
 -1       623 9.12688E-05-1.62633E-05-3.21505E-05 8.16006E-07 5.60610E-19-1.99033E-18
 -1       624 9.29053E-05-1.88964E-05-3.17237E-05 5.13973E-06 1.33528E-18-1.21935E-18
 -1       625 9.40012E-05-2.08613E-05-3.13536E-05 6.01975E-06 1.48961E-18-6.67694E-19
 -1       626 9.52849E-05-2.40433E-05-3.05218E-05 5.02137E-06 1.58890E-18-7.48036E-20
 -1       627 9.52959E-05-2.79808E-05-2.88491E-05 1.20521E-06 1.15929E-20 1.56985E-18
 -1       628 9.53647E-05-2.58596E-05-2.97839E-05 2.41520E-06 1.33635E-18 1.47156E-19
 -1       629 9.54446E-05-2.55973E-05-2.99330E-05-2.21463E-06-6.68059E-19-1.35065E-18
 -1       630 9.55110E-05-2.67826E-05-2.94543E-05-5.42655E-07-6.65731E-19-1.10951E-18
 -1       631 9.54690E-05-2.74773E-05-2.91390E-05 6.03827E-07-4.44280E-19-1.00790E-18
 -1       632 9.54097E-05-2.78660E-05-2.89471E-05 1.38770E-06-8.26808E-19-1.06003E-18
 -1       633 9.53659E-05-2.80532E-05-2.88482E-05 1.94924E-06-3.71049E-19-1.01626E-18
 -1       634 9.53457E-05-2.80999E-05-2.88195E-05 2.39859E-06-3.16214E-19-8.79418E-19
 -1       635 9.53477E-05-2.80441E-05-2.88442E-05 2.82078E-06-3.70948E-19-4.24304E-20
 -1       636 9.53683E-05-2.79121E-05-2.89095E-05 3.28072E-06-3.64990E-19 2.25018E-19
 -1       637 9.54052E-05-2.77262E-05-2.90050E-05 3.82693E-06-5.59704E-19-2.27330E-19
 -1       638 9.54600E-05-2.75109E-05-2.91206E-05 4.49348E-06-3.63152E-19-3.16385E-19
 -1       639 9.55419E-05-2.73008E-05-2.92456E-05 5.29989E-06-1.65963E-19-2.61126E-19
 -1       640 9.56753E-05-2.71507E-05-2.93671E-05 6.24880E-06-1.89135E-20-3.34034E-19
 -1       641 9.59125E-05-2.71505E-05-2.94688E-05 7.32134E-06-2.79415E-19-4.20899E-19
 -1       642 9.63544E-05-2.74448E-05-2.95321E-05 8.46896E-06-5.63301E-19-4.36284E-19
 -1       643 9.71817E-05-2.82547E-05-2.95399E-05 9.59919E-06 2.20337E-20 5.87158E-20
 -1       644 9.86924E-05-2.98906E-05-2.94867E-05 1.05481E-05 7.13296E-19 2.87745E-19
 -1       645 1.01328E-04-3.27256E-05-2.94016E-05 1.10257E-05 1.15917E-18 1.54364E-18
 -1       646 1.05645E-04-3.70606E-05-2.93952E-05 1.04791E-05 8.53247E-19 1.33389E-18
 -1       647 1.11953E-04-4.26191E-05-2.97143E-05 8.10719E-06 1.31764E-18 4.82023E-19
 -1       648 1.19853E-04-4.79167E-05-3.08349E-05 2.59419E-06 1.44278E-18 6.27632E-19
 -1       649 1.26876E-04-4.88330E-05-3.35173E-05-6.48115E-06 5.85710E-20 2.80361E-19
 -1       650 1.28387E-04-4.05419E-05-3.79834E-05-1.56304E-05-7.58094E-20-1.62233E-19
 -1       651 1.20606E-04-2.03088E-05-4.34189E-05 1.26544E-05-3.26791E-18-2.75859E-18
 -1       652 1.26259E-04-3.63051E-05-3.88115E-05 1.60151E-05-1.84166E-18-2.76622E-18
 -1       653 1.26698E-04-4.67834E-05-3.43230E-05 9.16506E-06-4.46224E-19-1.47443E-18
 -1       654 1.21293E-04-4.78599E-05-3.14877E-05 2.02557E-07 1.04070E-19-7.93789E-19
 -1       655 1.13930E-04-4.35539E-05-3.01647E-05-6.12925E-06-7.82993E-19 1.25280E-19
 -1       656 1.07483E-04-3.81641E-05-2.97137E-05-9.33504E-06 6.81304E-19 6.71359E-19
 -1       657 1.02843E-04-3.36705E-05-2.96482E-05-1.04173E-05-1.70096E-19-4.12269E-20
 -1       658 9.98683E-05-3.05813E-05-2.96955E-05-1.02456E-05 1.41159E-20-1.09696E-18
 -1       659 9.80820E-05-2.87119E-05-2.97299E-05-9.42837E-06 1.36290E-19-2.68966E-18
 -1       660 9.70462E-05-2.77159E-05-2.97123E-05-8.31650E-06-6.86389E-19-1.04860E-18
 -1       661 9.64495E-05-2.72796E-05-2.96433E-05-7.11401E-06-3.95226E-20-8.74825E-19
 -1       662 9.60963E-05-2.71717E-05-2.95382E-05-5.93919E-06 1.05359E-18-1.68499E-18
 -1       663 9.58736E-05-2.72387E-05-2.94141E-05-4.85766E-06 1.21567E-18-2.23492E-18
 -1       664 9.57202E-05-2.73856E-05-2.92855E-05-3.90130E-06-5.36442E-19-3.33913E-18
 -1       665 9.56043E-05-2.75563E-05-2.91628E-05-3.07996E-06 2.63406E-19-1.85996E-18
 -1       666 9.55088E-05-2.77192E-05-2.90522E-05-2.38842E-06-3.50658E-19-5.20140E-19
 -1       667 9.54231E-05-2.78559E-05-2.89571E-05-1.81724E-06-6.77544E-19-2.33925E-18
 -1       668 9.53442E-05-2.79610E-05-2.88786E-05-1.34363E-06-4.50833E-19-2.28046E-18
 -1       669 9.51784E-05-2.75511E-05-2.89824E-05-5.36802E-07 6.59277E-19 3.94765E-19
 -1       670 9.51696E-05-2.81788E-05-2.87101E-05-2.27397E-06-1.53139E-19 2.99403E-19
 -1       671 9.52827E-05-2.81903E-05-2.87536E-05-2.64508E-06 4.29769E-19-5.09785E-20
 -1       672 9.54461E-05-2.81552E-05-2.88387E-05-3.03635E-06 6.18350E-19-2.83014E-19
 -1       673 9.56614E-05-2.80971E-05-2.89557E-05-3.49081E-06 6.20604E-19-4.76372E-19
 -1       674 9.59370E-05-2.80435E-05-2.90967E-05-4.03390E-06 1.35041E-19 7.14034E-20
 -1       675 9.62912E-05-2.80311E-05-2.92537E-05-4.67214E-06-2.46031E-19-9.21928E-20
 -1       676 9.67562E-05-2.81134E-05-2.94177E-05-5.38904E-06-4.24040E-19-1.10208E-19
 -1       677 9.73852E-05-2.83681E-05-2.95783E-05-6.13785E-06 3.80745E-19-3.50524E-20
 -1       678 9.82620E-05-2.89054E-05-2.97241E-05-6.83062E-06 6.44218E-20 1.03906E-19
 -1       679 9.95100E-05-2.98696E-05-2.98465E-05-7.32317E-06-6.68019E-20 6.40410E-19
 -1       680 1.01293E-04-3.14220E-05-2.99465E-05-7.39624E-06-6.39491E-19 7.78757E-19
 -1       681 1.03787E-04-3.36811E-05-3.00489E-05-6.73691E-06-3.69153E-20 1.40874E-18
 -1       682 1.07083E-04-3.65793E-05-3.02215E-05-4.93992E-06 2.50547E-19 1.76674E-18
 -1       683 1.10978E-04-3.96076E-05-3.05949E-05-1.59519E-06-2.58248E-19 1.61775E-18
 -1       684 1.14683E-04-4.15222E-05-3.13618E-05 3.40972E-06-5.17401E-21 1.89775E-18
 -1       685 1.16686E-04-4.03639E-05-3.27315E-05 9.24970E-06-9.22956E-19 1.97088E-18
 -1       686 1.15430E-04-3.47625E-05-3.45640E-05 1.32966E-05-1.71198E-19 9.90012E-19
 -1       687 1.10626E-04-2.55591E-05-3.65817E-05 1.18852E-05 6.20352E-19 4.39568E-19
 -1       688 1.07503E-04-1.93614E-05-3.78874E-05 3.59284E-06 3.40706E-19 4.87031E-19
 -1       689 1.08575E-04-2.11005E-05-3.75910E-05-7.13358E-06 5.05897E-19-3.42961E-19
 -1       690 1.12838E-04-2.90269E-05-3.59754E-05-1.30413E-05 6.84366E-19-1.17964E-18
 -1       691 1.16276E-04-3.72399E-05-3.39043E-05-1.22141E-05 8.01458E-19-1.60397E-19
 -1       692 1.16235E-04-4.12347E-05-3.21556E-05-7.14639E-06 1.07509E-18-1.96644E-19
 -1       693 1.13435E-04-4.10376E-05-3.10321E-05-1.44592E-06 1.69919E-18-1.18159E-18
 -1       694 1.09521E-04-3.85021E-05-3.04417E-05 2.94959E-06 1.34373E-18-9.61555E-19
 -1       695 1.05805E-04-3.54161E-05-3.01709E-05 5.65239E-06 4.50039E-19-8.20188E-19
 -1       696 1.02813E-04-3.27129E-05-3.00455E-05 6.93627E-06 6.39148E-19-4.94455E-19
 -1       697 1.00613E-04-3.07092E-05-2.99601E-05 7.22864E-06 1.45182E-18-1.08737E-19
 -1       698 9.90655E-05-2.93783E-05-2.98662E-05 6.90352E-06 4.38572E-19 1.52598E-18
 -1       699 9.79922E-05-2.85749E-05-2.97499E-05 6.23556E-06-1.34607E-18 1.84480E-18
 -1       700 9.72433E-05-2.81409E-05-2.96147E-05 5.41307E-06-1.70077E-18 2.33107E-18
 -1       701 9.67108E-05-2.79451E-05-2.94702E-05 4.55754E-06-1.60974E-18 1.75047E-18
 -1       702 9.63224E-05-2.78916E-05-2.93267E-05 3.74196E-06 5.17149E-19 2.51951E-18
 -1       703 9.60317E-05-2.79151E-05-2.91921E-05 3.00530E-06 1.54053E-19 1.54999E-18
 -1       704 9.58087E-05-2.79729E-05-2.90719E-05 2.36399E-06-3.86448E-19 1.35646E-18
 -1       705 9.56313E-05-2.80360E-05-2.89688E-05 1.82150E-06-2.12496E-19 2.69121E-18
 -1       706 9.54371E-05-2.80007E-05-2.89009E-05 1.49993E-06 7.55732E-19 2.09359E-18
 -1       707 4.86482E-05-1.98031E-05-1.18798E-05-2.53819E-05 1.27362E-18-1.53339E-18
 -1       708 9.41343E-05-2.67860E-05-2.88637E-05 2.32322E-07 4.71903E-19 4.77773E-19
 -1       709 9.44863E-05-2.71466E-05-2.88601E-05 9.61357E-07 1.16961E-18-1.68968E-18
 -1       710 9.41284E-05-2.67780E-05-2.88647E-05-2.09147E-07-8.11829E-20-8.15981E-19
 -1       711 9.42586E-05-2.69137E-05-2.88623E-05 6.40387E-07 2.72904E-19-2.09951E-18
 -1       712 8.75864E-05-4.36299E-05-1.85155E-05 3.69491E-05-2.14876E-18 6.47543E-19
 -1       713 9.42399E-05-2.68883E-05-2.88651E-05-6.17902E-07-3.71673E-20 2.49113E-19
 -1       714 9.44609E-05-2.71103E-05-2.88646E-05-9.52740E-07 4.24037E-20 1.53283E-19
 -1       715 9.47636E-05-2.74193E-05-2.88619E-05-1.16183E-06 2.88588E-19 1.44142E-18
 -1       716 9.52851E-05-2.69277E-05-2.92939E-05 6.45348E-07 1.04046E-18 2.24079E-19
 -1       717 9.52641E-05-2.79781E-05-2.88366E-05-1.09640E-06-6.53087E-19-1.78430E-18
 -1       718 1.33412E-04-3.51580E-05-4.24525E-05 1.51846E-05-1.56513E-18-2.83939E-18
 -1       719 1.31294E-04-5.76939E-05-3.15977E-05 1.02857E-05 1.13379E-18-1.60870E-19
 -1       720 1.26048E-04-5.86063E-05-2.89423E-05-1.65799E-05-1.30368E-18 2.99380E-18
 -1       721 1.23159E-04-1.41252E-05-4.72434E-05 9.85024E-06 1.64023E-18-8.46742E-19
 -1       722 9.51107E-05-2.80951E-05-2.87207E-05-1.86092E-06 1.37695E-19 3.05775E-19
 -1       723 9.51126E-05-2.79044E-05-2.88031E-05-1.32047E-06 4.74257E-19 1.98783E-19
 -1       724 9.50550E-05-2.36028E-05-3.06238E-05-4.57692E-06-7.52820E-19-1.40397E-18
 -1       725 9.20761E-05-1.75374E-05-3.19510E-05 3.84670E-06 1.13313E-18-1.52734E-18
 -1       726 1.34240E-04-4.37828E-05-3.90968E-05-9.50233E-06 1.87605E-19-6.58727E-19
 -1       727 3.78009E-05-1.10681E-05-1.09015E-05 3.96235E-06-1.26390E-18 1.58337E-18
 -1       728 9.20371E-05-1.74803E-05-3.19587E-05-3.79365E-06-2.68827E-19-2.08370E-18
 -1       729 1.25584E-04-2.45750E-05-4.36668E-05-1.40761E-05 5.44245E-19-2.19595E-18
 -1       730 5.24080E-05-2.29525E-05-1.21634E-05 2.94220E-05 1.25332E-18-3.10771E-18
 -1       731 1.29579E-04-3.15649E-05-4.23958E-05 1.45664E-05 1.35515E-18 1.73120E-18
 -1       732 1.36394E-04-5.09147E-05-3.69137E-05 3.66803E-06 3.09932E-19 3.54436E-18
 -1       733 1.02256E-04-5.15058E-05-2.15523E-05-3.37378E-05-2.82755E-18-5.03720E-19
 -1       734 7.32460E-05-3.53057E-05-1.59323E-05-3.65308E-05-2.45978E-18-3.04463E-18
 -1       735 4.69113E-05-1.60458E-05-1.27814E-05-1.97488E-05-9.56896E-19-4.76805E-18
 -1       736 8.55203E-05-4.21703E-05-1.82217E-05 3.60483E-05 1.04953E-18-6.10234E-19
 -1       737 1.35331E-04-5.86819E-05-3.29284E-05 6.93921E-06-9.81347E-19-1.42010E-19
 -1       738 3.70919E-05-1.21731E-05-1.01618E-05 9.26685E-06 6.46313E-19-3.82075E-18
 -1       739 1.23218E-04-1.14269E-05-4.84780E-05 2.53674E-06-2.52257E-18-2.47585E-18
 -1       740 1.35380E-04-5.19034E-05-3.59617E-05 5.56006E-06-2.10931E-19-3.35163E-18
 -1       741 1.14054E-04-5.64965E-05-2.45759E-05 2.84273E-05-4.60786E-19-1.44867E-19
 -1       742 9.42127E-05-2.11577E-05-3.13068E-05-6.62805E-06-1.02556E-18-1.66398E-18
 -1       743 9.28705E-05-1.88333E-05-3.17326E-05-5.10295E-06-5.39355E-19-2.23290E-18
 -1       744 9.12622E-05-1.62540E-05-3.21517E-05-7.59347E-07 3.51266E-19-2.21802E-18
 -1       745 7.02990E-05-3.31326E-05-1.55067E-05-3.50278E-05 2.01541E-18-7.14684E-19
 -1       746 1.05725E-04-5.09869E-05-2.33069E-05 2.82782E-05 7.91870E-19 2.35492E-19
 -1       747 1.30780E-04-5.14030E-05-3.41433E-05-2.63792E-06 9.40549E-19-1.35492E-18
 -1       748 7.13831E-05-3.15270E-05-1.67325E-05 3.33181E-05-2.10648E-18 3.78610E-19
 -1       749 4.66725E-05-1.18988E-05-1.45560E-05-3.99975E-06 1.48011E-19-2.30621E-18
 -1       750 6.55939E-05-2.51028E-05-1.70979E-05-2.75323E-05-2.18043E-18-2.15583E-18
 -1       751 1.17863E-04-1.41243E-05-4.49360E-05-1.57045E-06-1.55314E-18-1.75597E-18
 -1       752 4.76217E-05-1.29129E-05-1.45182E-05-9.64223E-06 2.12486E-20 1.78565E-19
 -1       753 9.47833E-05-2.74533E-05-2.88562E-05 1.15518E-06 2.65280E-18-1.16093E-18
 -1       754 1.17889E-04-1.86487E-05-4.28726E-05-1.15120E-05 5.63489E-19-1.84568E-18
 -1       755 9.95541E-05-4.93574E-05-2.12655E-05-3.28513E-05 1.74724E-18 1.69314E-19
 -1       756 9.15151E-05-1.66502E-05-3.20904E-05-2.31108E-06 8.20585E-20-2.05266E-18
 -1       757 1.16216E-04-5.46830E-05-2.63038E-05-2.09887E-05 1.16148E-18-8.91539E-19
 -1       758 1.25041E-04-1.92387E-05-4.59484E-05 1.26242E-05-3.13381E-18-3.23252E-18
 -1       759 9.46320E-05-2.25881E-05-3.08752E-05 3.73574E-06 1.09499E-18-8.40926E-19
 -1       760 6.70270E-05-2.42717E-05-1.80514E-05-2.53621E-05 9.12155E-19-1.66416E-18
 -1       761 9.50013E-05-2.75849E-05-2.88922E-05-1.51288E-06-3.46434E-19 1.31505E-19
 -1       762 5.36456E-05-1.65739E-05-1.55647E-05 1.80178E-05 1.12710E-18-2.85630E-18
 -1       763 9.55536E-05-2.52958E-05-3.01106E-05-1.52151E-06-5.31146E-19-1.58965E-18
 -1       764 9.58184E-05-2.65749E-05-2.96758E-05-1.72353E-07-5.36969E-19-1.30772E-18
 -1       765 9.58678E-05-2.73410E-05-2.93687E-05 7.98695E-07-5.97655E-19-1.24438E-18
 -1       766 9.57960E-05-2.77470E-05-2.91639E-05 1.50310E-06-5.77536E-19-9.65087E-19
 -1       767 9.56524E-05-2.78949E-05-2.90389E-05 2.04299E-06-4.74000E-20-9.60296E-19
 -1       768 9.54591E-05-2.78510E-05-2.89749E-05 2.50652E-06 2.12505E-19-6.45333E-19
 -1       769 9.52243E-05-2.76609E-05-2.89557E-05 2.96522E-06-2.61383E-19-3.19728E-19
 -1       770 9.49482E-05-2.73585E-05-2.89670E-05 3.47508E-06-4.98885E-19-2.50881E-19
 -1       771 9.46282E-05-2.69739E-05-2.89946E-05 4.07884E-06-4.58304E-19 3.76877E-19
 -1       772 9.42635E-05-2.65416E-05-2.90235E-05 4.80803E-06-3.25414E-19-3.53156E-19
 -1       773 9.38622E-05-2.61101E-05-2.90364E-05 5.68467E-06-5.18453E-19-4.27640E-19
 -1       774 9.34526E-05-2.57559E-05-2.90126E-05 6.72329E-06-5.38551E-19-9.83635E-19
 -1       775 9.31012E-05-2.56014E-05-2.89282E-05 7.93369E-06-3.08845E-19-1.09230E-18
 -1       776 9.29421E-05-2.58402E-05-2.87576E-05 9.32358E-06 1.29852E-19-7.48370E-19
 -1       777 9.32231E-05-2.67679E-05-2.84803E-05 1.08962E-05 6.18244E-19-2.37442E-20
 -1       778 9.43716E-05-2.88105E-05-2.80962E-05 1.26234E-05 1.44093E-18 7.91045E-20
 -1       779 9.70416E-05-3.25000E-05-2.76567E-05 1.43803E-05 1.20554E-18-1.47603E-19
 -1       780 1.02480E-04-3.85281E-05-2.74254E-05 1.54430E-05 1.03863E-18 1.03814E-18
 -1       781 1.11441E-04-4.67031E-05-2.77193E-05 1.48620E-05 1.24485E-18 9.40061E-19
 -1       782 1.23465E-04-5.42128E-05-2.96370E-05 9.69541E-06 6.66373E-19 9.61859E-19
 -1       783 9.24356E-05-4.20906E-05-2.13805E-05-3.07514E-05-3.17956E-18-5.77710E-19
 -1       784 1.27058E-04-5.42761E-05-3.11992E-05-4.26671E-06 8.90458E-19-1.93923E-18
 -1       785 1.15525E-04-4.86247E-05-2.86524E-05-1.14901E-05 2.92662E-19-1.16721E-18
 -1       786 1.06070E-04-4.08378E-05-2.79611E-05-1.38890E-05 2.24635E-19 6.36391E-19
 -1       787 9.98093E-05-3.44207E-05-2.80225E-05-1.37915E-05-2.82604E-19-3.05436E-19
 -1       788 9.63009E-05-3.01442E-05-2.83527E-05-1.25329E-05-2.79439E-19-1.06643E-19
 -1       789 9.45564E-05-2.76242E-05-2.86850E-05-1.09922E-05-1.13722E-18-8.44164E-19
 -1       790 9.38531E-05-2.63354E-05-2.89357E-05-9.44435E-06-1.12888E-19-1.65326E-18
 -1       791 9.37115E-05-2.58333E-05-2.90902E-05-7.98876E-06-3.51784E-20-5.59317E-19
 -1       792 9.38390E-05-2.57941E-05-2.91617E-05-6.66124E-06-1.25798E-19 8.41346E-19
 -1       793 9.40703E-05-2.60018E-05-2.91719E-05-5.47596E-06 7.91959E-19 6.58512E-19
 -1       794 9.43193E-05-2.63205E-05-2.91420E-05-4.43782E-06-1.11954E-18-2.02322E-18
 -1       795 9.45450E-05-2.66685E-05-2.90896E-05-3.54495E-06 1.50113E-18-1.68350E-18
 -1       796 9.47322E-05-2.70000E-05-2.90276E-05-2.79112E-06 1.59698E-19-1.43544E-18
 -1       797 9.48662E-05-2.72851E-05-2.89635E-05-2.15814E-06-1.05475E-18-1.19133E-18
 -1       798 9.54661E-05-2.80209E-05-2.89050E-05-2.46973E-06 3.86076E-19-6.43789E-19
 -1       799 9.51697E-05-2.75341E-05-2.89865E-05-3.91832E-06 2.54298E-19-2.60635E-19
 -1       800 9.51007E-05-2.73191E-05-2.90491E-05-4.56711E-06-1.38718E-19-4.99868E-19
 -1       801 9.50826E-05-2.71619E-05-2.91086E-05-5.32696E-06-4.52403E-19-3.24986E-19
 -1       802 9.51664E-05-2.71454E-05-2.91516E-05-6.18888E-06-2.80524E-19-5.48221E-19
 -1       803 9.54406E-05-2.73901E-05-2.91643E-05-7.12131E-06 3.04539E-19-1.59568E-19
 -1       804 9.60501E-05-2.80655E-05-2.91361E-05-8.06103E-06-2.00415E-19-3.62606E-19
 -1       805 9.72158E-05-2.93944E-05-2.90665E-05-8.89523E-06-6.35834E-19-2.17152E-19
 -1       806 9.92465E-05-3.16317E-05-2.89786E-05-9.42655E-06-8.56625E-19-8.16226E-19
 -1       807 1.02514E-04-3.49839E-05-2.89429E-05-9.30599E-06-7.27439E-19-2.58476E-19
 -1       808 1.07308E-04-3.93788E-05-2.91152E-05-7.93962E-06-7.28969E-19 1.10673E-18
 -1       809 1.13469E-04-4.40053E-05-2.97757E-05-4.48946E-06-7.01277E-19 2.01000E-18
 -1       810 1.19797E-04-4.67635E-05-3.13118E-05 1.68625E-06-9.27749E-20 1.87948E-18
 -1       811 1.22976E-04-4.35713E-05-3.41005E-05 9.74452E-06 4.16952E-19 4.72552E-19
 -1       812 1.22613E-04-3.74130E-05-3.67315E-05-1.40951E-05-1.46279E-19-1.19737E-18
 -1       813 1.22400E-04-4.54126E-05-3.30362E-05-6.89701E-06 1.36559E-18-1.37257E-18
 -1       814 1.17674E-04-4.60587E-05-3.06897E-05 7.06558E-07 1.00049E-18-1.06169E-18
 -1       815 1.11114E-04-4.22915E-05-2.94925E-05 5.89533E-06 5.03712E-19 6.79719E-20
 -1       816 1.05407E-04-3.76065E-05-2.90589E-05 8.45661E-06 8.33687E-19 3.87152E-19
 -1       817 1.01194E-04-3.35441E-05-2.89943E-05 9.26773E-06 2.15164E-19 1.50457E-18
 -1       818 9.84215E-05-3.06028E-05-2.90655E-05 9.06225E-06 8.49156E-19 1.12249E-18
 -1       819 9.67364E-05-2.87038E-05-2.91567E-05 8.34132E-06-7.92453E-19 2.58199E-18
 -1       820 9.57883E-05-2.76119E-05-2.92182E-05 7.38429E-06-8.41603E-19 3.49928E-18
 -1       821 9.53009E-05-2.70804E-05-2.92371E-05 6.35352E-06-8.20979E-19 2.85693E-18
 -1       822 9.50830E-05-2.69076E-05-2.92177E-05 5.34186E-06-1.81023E-18 1.71583E-18
 -1       823 9.50123E-05-2.69460E-05-2.91710E-05 4.40211E-06-7.71700E-19-5.82099E-19
 -1       824 9.50142E-05-2.70942E-05-2.91084E-05 3.56180E-06 3.93669E-19 6.04217E-19
 -1       825 9.50458E-05-2.72864E-05-2.90395E-05 2.83188E-06 8.38559E-21 1.10385E-18
 -1       826 9.50816E-05-2.74801E-05-2.89718E-05 2.21334E-06-6.70158E-19 9.55762E-19
 -1       827 9.36961E-05-2.63964E-05-2.88428E-05 2.26353E-08 1.03048E-19-2.26297E-18
 -1       828 9.43710E-05-2.69939E-05-2.88756E-05-1.37056E-06 1.30998E-18 1.84374E-18
 -1       829 9.37689E-05-2.64574E-05-2.88479E-05-5.20774E-07 5.66006E-19 6.76707E-19
 -1       830 1.27811E-04-5.26616E-05-3.22262E-05-1.14486E-06-7.72521E-20 2.20970E-18
 -1       831 9.55661E-05-2.80037E-05-2.89553E-05-2.01771E-06-6.65610E-20-1.34529E-19
 -1       832 9.57115E-05-2.74197E-05-2.92679E-05-7.33188E-07 6.67812E-19-3.28902E-20
 -1       833 9.40061E-05-2.66657E-05-2.88603E-05-1.01084E-06 1.14215E-18 2.75692E-19
 -1       834 9.52618E-05-2.77498E-05-2.89336E-05-3.37171E-06 5.82642E-19-4.90267E-19
 -1       835 9.53629E-05-2.79239E-05-2.89023E-05-2.90225E-06 5.36542E-19-6.47789E-19
 -1       836 9.49238E-05-2.32960E-05-3.06994E-05-3.32274E-06-6.67551E-19-1.71870E-18
 -1       837 8.65827E-05-3.75166E-05-2.08626E-05-2.95659E-05 1.90684E-18-6.12034E-19
 -1       838 5.17428E-05-1.56798E-05-1.51179E-05 1.75705E-05-2.13863E-18 5.05361E-19
 -1       839 9.56543E-05-2.78255E-05-2.90694E-05-1.47103E-06 3.16433E-19-5.75844E-20
 -1       840 9.34872E-05-1.98569E-05-3.15558E-05-5.97458E-06-7.17771E-19-1.85039E-18
 -1       841 1.13220E-04-5.24855E-05-2.59856E-05-2.13540E-05-2.25791E-18 1.73751E-18
 -1       842 9.52288E-05-2.43698E-05-3.03679E-05 3.23766E-06 1.23143E-18-1.31782E-19
 -1       843 9.31213E-05-1.95082E-05-3.15496E-05 1.16615E-06 6.80687E-19-1.76471E-18
 -1       844 7.39093E-05-2.97234E-05-1.86840E-05 2.86959E-05 1.76278E-18-1.29979E-18
 -1       845 9.30026E-05-1.92977E-05-3.15889E-05 1.99618E-08 5.10546E-19-1.91647E-18
 -1       846 1.21108E-04-5.52654E-05-2.81901E-05 1.57261E-05 1.93058E-18 1.76621E-18
 -1       847 9.40086E-05-2.11710E-05-3.12158E-05 3.15059E-06 1.03571E-18-1.28968E-18
 -1       848 5.21184E-05-1.26797E-05-1.66980E-05 4.96892E-06-1.20727E-18-1.33716E-18
 -1       849 9.56883E-05-2.66739E-05-2.95772E-05 3.12940E-07 9.71511E-19-2.05932E-20
 -1       850 9.34611E-05-2.01274E-05-3.14298E-05 2.23850E-06 9.24115E-19-1.37565E-18
 -1       851 9.11421E-05-4.02236E-05-2.16641E-05 2.92438E-05-1.08332E-18 1.56599E-18
 -1       852 5.68032E-05-1.65145E-05-1.70233E-05-1.58860E-05-7.73341E-19-3.60865E-18
 -1       853 1.14167E-04-1.35117E-05-4.35925E-05-3.44184E-06 4.57927E-19-1.84878E-18
 -1       854 9.03951E-05-3.86469E-05-2.20321E-05 2.75884E-05 1.90710E-18-6.44420E-19
 -1       855 9.37914E-05-2.64854E-05-2.88455E-05 5.69021E-07 7.06649E-19-1.35959E-18
 -1       856 9.49950E-05-2.75210E-05-2.89179E-05 1.79822E-06-3.36783E-20 1.06890E-18
 -1       857 9.47458E-05-2.73622E-05-2.88788E-05 1.48206E-06 1.09386E-18-1.72037E-18
 -1       858 9.40461E-05-2.67166E-05-2.88556E-05 1.03948E-06 7.68814E-19-2.08590E-18
 -1       859 9.43699E-05-2.70126E-05-2.88671E-05 1.31512E-06 1.09681E-18-2.28597E-18
 -1       860 1.24631E-04-5.25517E-05-3.09152E-05 3.99996E-06 1.84296E-18-1.80163E-18
 -1       861 9.55267E-05-2.57345E-05-2.99111E-05 1.55638E-06 1.05353E-18 7.09258E-20
 -1       862 1.02196E-04-4.48232E-05-2.44932E-05-2.38410E-05 1.82109E-18 9.76692E-19
 -1       863 9.34411E-05-2.00925E-05-3.14360E-05-2.20454E-06-1.68590E-19-1.83172E-18
 -1       864 9.39566E-05-2.11039E-05-3.12259E-05-3.10780E-06-4.06622E-19-1.79791E-18
 -1       865 1.07266E-04-5.00787E-05-2.43870E-05 2.56116E-05-4.60779E-19 3.11072E-18
 -1       866 5.65155E-05-1.37434E-05-1.81707E-05 6.21406E-06 8.73129E-19-2.70851E-18
 -1       867 9.56798E-05-2.52364E-05-3.01913E-05-8.54255E-07-3.15303E-19-1.64915E-18
 -1       868 9.59999E-05-2.64890E-05-2.97905E-05 1.63704E-07-3.86687E-19-1.43085E-18
 -1       869 9.60502E-05-2.72281E-05-2.94952E-05 9.22805E-07-4.28504E-19-1.20325E-18
 -1       870 9.59134E-05-2.75820E-05-2.92849E-05 1.50091E-06-3.27634E-19-8.42500E-19
 -1       871 9.56392E-05-2.76417E-05-2.91418E-05 1.97032E-06 1.74691E-19-9.65302E-19
 -1       872 9.52546E-05-2.74739E-05-2.90489E-05 2.39834E-06 5.55923E-20-1.10266E-18
 -1       873 9.47703E-05-2.71281E-05-2.89895E-05 2.83992E-06-1.09839E-19-8.61144E-19
 -1       874 9.41862E-05-2.66428E-05-2.89472E-05 3.33903E-06-5.14171E-19-6.26878E-19
 -1       875 9.34963E-05-2.60537E-05-2.89040E-05 3.93101E-06-7.15801E-19-7.06473E-19
 -1       876 9.26946E-05-2.54024E-05-2.88395E-05 4.64528E-06-2.58739E-19-8.80830E-19
 -1       877 9.17818E-05-2.47459E-05-2.87297E-05 5.51048E-06-4.91759E-19-6.17314E-19
 -1       878 9.07764E-05-2.41702E-05-2.85454E-05 6.56288E-06-8.20069E-19-8.83484E-19
 -1       879 8.97315E-05-2.38087E-05-2.82527E-05 7.85942E-06 2.08571E-19-7.50568E-19
 -1       880 8.87634E-05-2.38662E-05-2.78135E-05 9.49673E-06 9.46233E-19 1.37983E-19
 -1       881 8.81045E-05-2.46611E-05-2.71906E-05 1.16342E-05 1.21277E-18 3.58375E-19
 -1       882 8.82089E-05-2.66955E-05-2.63630E-05 1.44847E-05 1.02456E-18 3.21585E-19
 -1       883 9.00177E-05-3.06861E-05-2.53966E-05 1.83062E-05 1.54002E-18-4.83767E-19
 -1       884 1.02181E-04-4.35775E-05-2.50534E-05-2.17892E-05-2.21757E-18 3.56710E-19
 -1       885 9.34350E-05-2.60811E-05-2.88659E-05-5.60166E-06-4.21279E-19-4.78004E-19
 -1       886 9.32987E-05-3.33733E-05-2.56569E-05-1.85997E-05-1.61955E-19 1.37001E-18
 -1       887 9.03075E-05-2.84227E-05-2.65169E-05-1.51306E-05-6.88629E-19 1.09122E-18
 -1       888 8.93722E-05-2.56821E-05-2.72959E-05-1.22779E-05-9.43524E-19 4.01252E-19
 -1       889 8.94857E-05-2.43809E-05-2.79020E-05-1.00229E-05-9.69940E-19-3.58693E-20
 -1       890 9.00997E-05-2.39796E-05-2.83370E-05-8.23183E-06 5.57529E-19-1.14085E-18
 -1       891 9.08958E-05-2.41000E-05-2.86267E-05-6.77007E-06 2.50012E-19-5.48960E-19
 -1       892 9.17076E-05-2.44988E-05-2.88037E-05-5.54787E-06-8.32636E-19-1.12667E-19
 -1       893 9.24530E-05-2.50217E-05-2.88991E-05-4.51271E-06-6.93204E-19-1.23409E-19
 -1       894 9.30966E-05-2.55726E-05-2.89388E-05-3.63419E-06-2.01981E-21 6.69345E-19
 -1       895 9.36302E-05-2.60960E-05-2.89432E-05-2.89152E-06 1.52425E-19-1.51764E-18
 -1       896 9.40510E-05-2.65584E-05-2.89261E-05-2.26811E-06 8.70438E-19-2.44019E-18
 -1       897 9.38540E-05-2.63893E-05-2.89133E-05-4.74681E-06-5.36112E-19-2.23152E-19
 -1       898 9.42889E-05-2.67735E-05-2.89351E-05-4.03071E-06 4.01520E-19-3.23157E-19
 -1       899 9.30970E-05-2.59564E-05-2.87744E-05-6.60949E-06-2.02228E-19-4.25067E-19
 -1       900 9.29547E-05-2.61710E-05-2.86213E-05-7.77936E-06 6.22925E-20-1.66113E-19
 -1       901 9.32004E-05-2.69453E-05-2.83948E-05-9.11092E-06-4.73103E-19 4.26778E-20
 -1       902 9.41411E-05-2.85781E-05-2.80986E-05-1.05742E-05-4.32408E-19-3.74671E-19
 -1       903 9.62339E-05-3.14360E-05-2.77708E-05-1.20575E-05-1.05729E-18-2.71692E-20
 -1       904 1.00146E-04-3.59208E-05-2.75217E-05-1.32175E-05-1.11192E-18-2.02541E-19
 -1       905 1.06561E-04-4.20888E-05-2.76226E-05-1.32058E-05-1.19119E-18-8.83236E-19
 -1       906 8.16553E-05-2.98397E-05-2.20965E-05-2.34561E-05 6.89662E-19-9.45163E-19
 -1       907 1.03955E-04-3.95881E-05-2.75840E-05 1.31475E-05 7.15231E-19-1.11970E-18
 -1       908 9.84699E-05-3.39664E-05-2.76461E-05 1.26964E-05-1.05979E-18 1.52968E-18
 -1       909 9.53239E-05-3.01246E-05-2.79405E-05 1.13357E-05-8.10333E-20 2.91745E-18
 -1       910 9.36660E-05-2.77131E-05-2.82649E-05 9.80708E-06 1.90632E-19 3.23249E-18
 -1       911 9.29798E-05-2.63869E-05-2.85394E-05 8.33006E-06-5.12331E-20 9.46674E-19
 -1       912 9.28518E-05-2.57935E-05-2.87390E-05 6.98753E-06 1.55453E-20 4.96771E-19
 -1       913 9.30204E-05-2.56651E-05-2.88664E-05 5.79355E-06-1.32290E-18 6.11840E-19
 -1       914 9.33249E-05-2.58102E-05-2.89347E-05 4.74676E-06-5.31788E-19 5.20479E-19
 -1       915 9.36699E-05-2.60976E-05-2.89595E-05 3.84069E-06-5.39706E-20-9.24348E-19
 -1       916 9.40032E-05-2.64406E-05-2.89553E-05 3.06759E-06-3.70342E-19-6.74874E-19
 -1       917 9.42948E-05-2.67826E-05-2.89338E-05 2.41978E-06-6.69144E-19 1.86041E-19
 -1       918 7.56618E-05-2.83846E-05-2.01083E-05 2.60790E-05-1.31003E-18 1.30659E-18
 -1       919 9.31901E-05-2.59475E-05-2.88184E-05-3.04490E-07 2.05249E-19-1.88573E-18
 -1       920 8.26093E-05-3.16032E-05-2.17695E-05-2.49956E-05-2.13255E-18-1.49921E-18
 -1       921 9.56908E-05-2.78023E-05-2.90951E-05-2.03123E-06 3.52514E-19-9.47972E-19
 -1       922 9.31107E-05-1.94911E-05-3.15524E-05-1.12581E-06 2.75773E-19-1.94747E-18
 -1       923 9.59883E-05-2.72991E-05-2.94383E-05-8.96849E-07 4.70740E-19-3.68716E-19
 -1       924 9.47054E-05-2.71589E-05-2.89485E-05-3.43371E-06 5.12557E-19-5.13505E-19
 -1       925 1.15894E-04-4.91321E-05-2.85617E-05-1.05459E-05-7.44894E-19-8.58059E-20
 -1       926 9.58913E-05-2.76861E-05-2.92308E-05-1.52978E-06 3.32839E-19-5.91288E-19
 -1       927 1.11983E-04-4.63128E-05-2.81773E-05 1.16194E-05 1.78143E-19-2.33655E-18
 -1       928 6.14146E-05-1.68653E-05-1.89498E-05-1.39494E-05 3.79345E-19-6.00004E-19
 -1       929 6.93590E-05-2.17169E-05-2.02659E-05 1.95774E-05 1.59180E-18-1.66430E-18
 -1       930 9.53395E-05-2.44896E-05-3.03644E-05 2.08727E-06 9.27179E-19-9.06644E-19
 -1       931 6.66810E-05-2.04153E-05-1.96718E-05 1.90210E-05-3.33033E-19 1.28998E-18
 -1       932 9.59237E-05-2.65354E-05-2.97380E-05-4.78293E-08 7.36423E-19-4.34288E-19
 -1       933 5.88326E-05-1.39514E-05-1.91540E-05-4.70848E-06 4.34327E-19-1.64974E-18
 -1       934 7.20979E-05-2.30181E-05-2.09580E-05-1.98213E-05-1.31218E-18-1.21747E-18
 -1       935 9.54164E-05-2.77186E-05-2.90133E-05-2.47686E-06 3.62852E-19-9.49100E-19
 -1       936 7.33922E-05-2.19200E-05-2.19993E-05-1.72493E-05 1.80060E-19-1.27507E-18
 -1       937 9.43698E-05-2.18747E-05-3.10694E-05 3.83692E-07 6.16827E-19-1.59442E-18
 -1       938 9.32083E-05-2.59699E-05-2.88166E-05 3.93378E-07-1.10215E-18-4.20162E-19
 -1       939 9.36539E-05-2.63056E-05-2.88632E-05-1.50254E-06 1.94532E-18 4.42189E-19
 -1       940 9.43634E-05-2.69248E-05-2.89021E-05 1.94684E-06 6.07907E-19-2.10689E-18
 -1       941 9.03706E-05-3.55352E-05-2.34174E-05 2.32822E-05-1.43664E-18 3.31964E-18
 -1       942 9.34547E-05-2.61790E-05-2.88327E-05 1.03780E-06-7.44138E-19-1.70052E-18
 -1       943 9.38309E-05-2.64971E-05-2.88574E-05 1.46488E-06-2.23458E-19-2.86500E-18
 -1       944 9.49557E-05-2.32902E-05-3.07108E-05-2.17384E-06-4.92893E-19-1.64094E-18
 -1       945 9.45401E-05-2.22440E-05-3.09839E-05 1.08661E-06 7.24984E-19-1.45452E-18
 -1       946 9.45299E-05-2.22234E-05-3.09885E-05-1.06461E-06 2.30424E-20-1.48821E-18
 -1       947 9.50845E-05-2.74890E-05-2.89695E-05-2.92825E-06 4.39896E-19-6.69518E-19
 -1       948 1.14993E-04-4.97140E-05-2.79461E-05 1.32553E-05-2.74330E-19-1.58707E-18
 -1       949 6.04780E-05-1.40281E-05-1.98103E-05-3.52135E-06-7.08969E-19-1.71762E-18
 -1       950 1.01618E-04-4.32945E-05-2.49383E-05 2.19724E-05-1.25592E-18 3.32922E-18
 -1       951 9.33268E-05-2.60494E-05-2.88332E-05-9.40332E-07 1.34428E-18 1.41864E-18
 -1       952 9.58080E-05-2.53583E-05-3.01923E-05-3.27395E-07-2.29506E-19-1.60678E-18
 -1       953 9.48720E-05-2.29869E-05-3.08075E-05 1.68732E-06 7.21089E-19-1.15721E-18
 -1       954 9.60986E-05-2.65193E-05-2.98210E-05 3.71893E-07-8.90384E-20-1.05413E-18
 -1       955 9.60779E-05-2.71505E-05-2.95402E-05 9.11495E-07-2.54013E-19-6.92169E-19
 -1       956 9.58295E-05-2.73945E-05-2.93293E-05 1.33360E-06 4.14080E-20-6.80197E-19
 -1       957 9.54007E-05-2.73281E-05-2.91740E-05 1.69656E-06 1.71972E-19-6.28633E-19
 -1       958 9.48154E-05-2.70153E-05-2.90572E-05 2.04399E-06-6.79178E-20-8.08621E-19
 -1       959 9.40822E-05-2.65062E-05-2.89612E-05 2.41339E-06-2.40734E-19-6.98752E-19
 -1       960 9.31962E-05-2.58405E-05-2.88668E-05 2.83564E-06-4.07874E-19-4.41246E-19
 -1       961 9.21451E-05-2.50570E-05-2.87522E-05 3.33741E-06-6.06710E-19 1.00562E-19
 -1       962 9.09111E-05-2.41984E-05-2.85914E-05 3.94441E-06-5.94946E-19-5.45778E-19
 -1       963 8.94749E-05-2.33191E-05-2.83528E-05 4.69084E-06-6.81409E-19-5.20811E-19
 -1       964 8.78201E-05-2.24945E-05-2.79972E-05 5.63334E-06-1.71352E-19 5.32670E-19
 -1       965 8.59396E-05-2.18331E-05-2.74755E-05 6.87267E-06 6.98738E-19 6.25028E-21
 -1       966 8.38443E-05-2.14898E-05-2.67258E-05 8.58686E-06 9.65333E-19-8.02390E-19
 -1       967 8.15736E-05-2.16999E-05-2.56635E-05 1.10969E-05 1.48928E-18-6.32980E-19
 -1       968 7.93508E-05-2.29021E-05-2.41841E-05 1.48924E-05 1.02289E-18-7.79065E-19
 -1       969 7.63610E-05-2.50185E-05-2.19062E-05 2.02031E-05 1.51669E-18-9.95217E-19
 -1       970 9.14162E-05-2.48183E-05-2.85420E-05-5.43637E-06-1.66109E-19 7.45757E-20
 -1       971 8.24360E-05-2.26778E-05-2.56116E-05-1.24823E-05-1.26413E-18 8.64118E-19
 -1       972 8.41944E-05-2.19061E-05-2.66948E-05-9.60171E-06-1.78018E-18-4.62238E-19
 -1       973 8.59691E-05-2.18818E-05-2.74662E-05-7.58809E-06-9.53692E-19-1.82122E-18
 -1       974 8.76329E-05-2.22915E-05-2.80035E-05-6.11237E-06 8.68571E-19-2.13219E-18
 -1       975 8.91173E-05-2.29318E-05-2.83652E-05-4.97037E-06 2.52529E-19-3.79329E-18
 -1       976 9.04007E-05-2.36711E-05-2.85984E-05-4.04664E-06 8.92421E-20-1.19425E-18
 -1       977 9.14838E-05-2.44237E-05-2.87401E-05-3.27963E-06 4.91892E-19 5.77397E-19
 -1       978 9.23794E-05-2.51355E-05-2.88192E-05-2.63795E-06-6.94118E-19 1.79731E-19
 -1       979 9.31060E-05-2.57728E-05-2.88574E-05-2.10092E-06-3.61200E-19 1.01477E-18
 -1       980 9.22798E-05-2.53010E-05-2.87052E-05-4.52408E-06-2.74175E-19 3.26795E-19
 -1       981 9.31034E-05-2.58659E-05-2.88160E-05-3.78783E-06-1.14090E-19 4.81047E-19
 -1       982 9.60844E-05-2.72080E-05-2.95185E-05-9.52456E-07 4.35028E-19-1.02184E-18
 -1       983 8.98556E-05-2.46204E-05-2.79576E-05-8.00993E-06-1.67437E-19 5.91710E-20
 -1       984 8.94600E-05-2.53167E-05-2.74896E-05-9.84209E-06-2.24916E-19 8.71338E-20
 -1       985 8.97298E-05-2.69869E-05-2.68914E-05-1.21813E-05-7.53687E-19 4.63532E-19
 -1       986 9.12015E-05-3.00926E-05-2.61871E-05-1.51163E-05-8.81313E-19-6.25956E-19
 -1       987 9.49323E-05-3.53716E-05-2.55084E-05-1.84620E-05-1.04798E-18-7.95778E-19
 -1       988 9.58979E-05-2.75122E-05-2.93082E-05-1.44893E-06 4.74984E-19-7.13408E-19
 -1       989 9.48381E-05-2.29379E-05-3.08126E-05-1.67213E-06-3.51996E-19-1.64899E-18
 -1       990 8.94377E-05-2.60451E-05-2.71679E-05 1.11166E-05 6.74637E-19 4.05894E-18
 -1       991 9.31464E-05-3.29863E-05-2.57337E-05 1.74702E-05-1.85214E-18 4.62224E-18
 -1       992 8.94350E-05-2.47522E-05-2.77203E-05 8.91976E-06 7.64229E-19 3.10949E-18
 -1       993 8.99012E-05-2.42457E-05-2.81379E-05 7.19699E-06 8.13888E-20 2.08085E-18
 -1       994 9.05934E-05-2.42441E-05-2.84353E-05 5.81517E-06-3.34358E-19 1.27931E-18
 -1       995 9.13535E-05-2.45392E-05-2.86346E-05 4.69101E-06-8.38479E-19 8.16244E-20
 -1       996 9.20918E-05-2.49878E-05-2.87588E-05 3.76592E-06 7.61012E-19-2.14233E-19
 -1       997 9.27612E-05-2.54945E-05-2.88286E-05 3.00036E-06 4.42407E-19-2.14307E-18
 -1       998 9.33386E-05-2.59962E-05-2.88613E-05 2.37220E-06-3.24707E-19-3.61021E-18
 -1       999 9.54674E-05-2.43743E-05-3.04696E-05-6.58719E-07-3.29259E-19-1.32645E-18
 -1      1000 6.76719E-05-1.72010E-05-2.15700E-05 1.01700E-05 1.13759E-18-1.65656E-18
 -1      1001 7.90229E-05-2.61626E-05-2.26678E-05 1.99947E-05-2.12217E-18 1.78805E-18
 -1      1002 9.57200E-05-2.56974E-05-3.00112E-05 8.72533E-07 9.06729E-19-6.28227E-19
 -1      1003 9.05292E-05-2.87134E-05-2.65037E-05 1.40155E-05-1.21760E-18 3.44724E-18
 -1      1004 9.43661E-05-2.18674E-05-3.10708E-05-3.58375E-07 3.81145E-19-1.93346E-18
 -1      1005 9.38546E-05-2.64278E-05-2.88972E-05-3.18857E-06 2.79243E-19 8.24278E-21
 -1      1006 8.33119E-05-2.59789E-05-2.45512E-05-1.69943E-05-1.80759E-19 4.56220E-20
 -1      1007 9.05717E-05-2.45352E-05-2.83013E-05-6.57442E-06-6.26081E-20 3.39169E-19
 -1      1008 9.60671E-05-2.65152E-05-2.98080E-05-3.17206E-07 6.79121E-19-9.63359E-19
 -1      1009 6.59962E-05-1.51391E-05-2.17366E-05 2.43233E-06 5.07369E-19-1.72235E-18
 -1      1010 6.55644E-05-1.63715E-05-2.10262E-05 9.94685E-06-4.54638E-19 3.91141E-19
 -1      1011 6.88949E-05-1.81496E-05-2.17007E-05-1.20153E-05-2.75344E-20-1.06928E-18
 -1      1012 9.53306E-05-2.39360E-05-3.05972E-05-3.63574E-07 1.03940E-19-1.31670E-18
 -1      1013 9.45213E-05-2.69270E-05-2.89691E-05-2.69479E-06 2.13656E-19-3.41237E-20
 -1      1014 9.55564E-05-2.75218E-05-2.91577E-05-1.86782E-06 2.79755E-19-7.46931E-19
 -1      1015 6.84745E-05-1.71411E-05-2.19494E-05-9.87924E-06 2.50842E-19-2.06772E-18
 -1      1016 9.25260E-05-2.53859E-05-2.87742E-05 7.34747E-08 6.87391E-19 1.48062E-18
 -1      1017 9.26009E-05-2.54036E-05-2.87987E-05-1.37279E-06 1.18308E-19 5.96518E-19
 -1      1018 9.35803E-05-2.62426E-05-2.88589E-05 1.88132E-06-3.80350E-19-3.72577E-18
 -1      1019 9.27059E-05-2.55375E-05-2.87868E-05 9.13663E-07-8.10896E-19-1.41843E-18
 -1      1020 9.30938E-05-2.58495E-05-2.88183E-05 1.45704E-06-6.86988E-19-3.24283E-18
 -1      1021 9.53368E-05-2.39522E-05-3.05931E-05 3.65582E-07 7.76627E-19-1.36685E-18
 -1      1022 7.22458E-05-1.93769E-05-2.26158E-05 1.26262E-05 1.16699E-18-1.51815E-18
 -1      1023 9.52778E-05-2.37919E-05-3.06367E-05 6.77410E-09 6.61439E-19-1.36771E-18
 -1      1024 9.24593E-05-2.53160E-05-2.87756E-05-6.41441E-07 2.17951E-18 1.49639E-18
 -1      1025 8.40650E-05-2.77826E-05-2.40664E-05-1.84499E-05-7.83472E-19-8.88291E-19
 -1      1026 7.82404E-05-1.90691E-05-2.53587E-05-7.39093E-06-1.66140E-18-2.95533E-18
 -1      1027 9.61357E-05-2.66318E-05-2.97859E-05 3.95208E-07 8.63759E-20-9.49906E-19
 -1      1028 9.59848E-05-2.71034E-05-2.95209E-05 7.15210E-07-8.60533E-20-6.69438E-19
 -1      1029 9.56026E-05-2.72029E-05-2.93144E-05 9.72720E-07-2.49068E-20-9.28497E-19
 -1      1030 9.50128E-05-2.69905E-05-2.91524E-05 1.20218E-06 2.62044E-19-5.81959E-19
 -1      1031 9.42359E-05-2.65290E-05-2.90173E-05 1.42833E-06-1.06219E-19-7.51045E-20
 -1      1032 9.32765E-05-2.58685E-05-2.88895E-05 1.67061E-06-1.10743E-19-4.49587E-20
 -1      1033 9.21200E-05-2.50439E-05-2.87474E-05 1.94891E-06-2.05763E-19-1.50920E-20
 -1      1034 9.07478E-05-2.40978E-05-2.85648E-05 2.27376E-06-1.00989E-18-1.15686E-19
 -1      1035 8.91219E-05-2.30660E-05-2.83104E-05 2.66251E-06-4.03654E-19-3.03895E-19
 -1      1036 8.71911E-05-2.19899E-05-2.79444E-05 3.14292E-06 8.49486E-20-1.45532E-19
 -1      1037 8.48771E-05-2.09135E-05-2.74147E-05 3.77064E-06-1.95276E-19 3.21031E-19
 -1      1038 8.20789E-05-1.98974E-05-2.66518E-05 4.64802E-06 4.98442E-19-1.68582E-19
 -1      1039 7.85570E-05-1.89482E-05-2.55494E-05 5.91994E-06 1.19713E-18-7.83842E-19
 -1      1040 7.54402E-05-1.87278E-05-2.42960E-05 8.57350E-06 8.44748E-19-9.34190E-19
 -1      1041 8.16063E-05-1.97138E-05-2.65254E-05-5.65165E-06-1.50729E-18-8.20422E-19
 -1      1042 8.43165E-05-2.05367E-05-2.73344E-05-4.47408E-06-1.00884E-19-9.77446E-19
 -1      1043 8.65350E-05-2.14554E-05-2.78914E-05-3.62442E-06 4.79181E-19-1.52205E-18
 -1      1044 8.83630E-05-2.24053E-05-2.82676E-05-2.96645E-06 1.93903E-18 1.31075E-18
 -1      1045 8.98698E-05-2.33356E-05-2.85147E-05-2.42945E-06 3.88000E-19 1.43713E-18
 -1      1046 9.11088E-05-2.42116E-05-2.86707E-05-1.98561E-06 1.87359E-19 4.97378E-19
 -1      1047 9.19140E-05-2.48348E-05-2.87483E-05-1.66068E-06 5.86205E-19 2.48285E-19
 -1      1048 9.04880E-05-2.41142E-05-2.84462E-05-3.83858E-06-1.49118E-19 2.33048E-19
 -1      1049 9.17193E-05-2.48731E-05-2.86486E-05-3.14842E-06 2.96051E-20 3.19049E-19
 -1      1050 8.91247E-05-2.34189E-05-2.81599E-05-4.73393E-06-4.76704E-19 4.37487E-19
 -1      1051 8.61008E-05-2.26657E-05-2.71862E-05-7.54553E-06-7.43697E-20 1.52931E-18
 -1      1052 9.60436E-05-2.71464E-05-2.95277E-05-8.47517E-07 3.49153E-19-9.91000E-19
 -1      1053 8.78750E-05-2.26718E-05-2.79443E-05 5.25864E-06 6.08061E-19 2.35094E-18
 -1      1054 9.58642E-05-2.56876E-05-3.00736E-05 3.57529E-07 7.22373E-19-1.09902E-18
 -1      1055 8.64510E-05-2.24043E-05-2.74496E-05 6.74730E-06 1.51463E-18 3.08779E-18
 -1      1056 8.50132E-05-2.25869E-05-2.67592E-05 8.79384E-06 3.52577E-19 2.83215E-18
 -1      1057 8.91967E-05-2.31871E-05-2.82898E-05 4.13657E-06 1.73496E-19 1.47984E-18
 -1      1058 9.03803E-05-2.38274E-05-2.85226E-05 3.26607E-06 5.46643E-19 4.76373E-19
 -1      1059 9.14155E-05-2.45127E-05-2.86729E-05 2.57934E-06 2.35341E-18-8.62462E-19
 -1      1060 9.22918E-05-2.51748E-05-2.87644E-05 2.02724E-06 1.66583E-18-3.39129E-18
 -1      1061 9.54846E-05-2.44130E-05-3.04617E-05 6.51546E-07 6.69079E-19-1.39220E-18
 -1      1062 9.18222E-05-2.48182E-05-2.87151E-05 6.40587E-07 1.62871E-18 5.46251E-19
 -1      1063 9.03876E-05-3.18968E-05-2.49200E-05 1.86086E-05-2.41407E-18 4.79039E-18
 -1      1064 7.53539E-05-1.95556E-05-2.39053E-05-1.12101E-05 3.22344E-20-2.36609E-18
 -1      1065 7.48711E-05-2.10240E-05-2.30915E-05 1.43668E-05-1.41437E-18-4.92921E-19
 -1      1066 9.28130E-05-2.56196E-05-2.87971E-05-2.60800E-06-1.63412E-19 3.34823E-19
 -1      1067 8.38205E-05-2.34753E-05-2.58570E-05 1.16015E-05-2.84475E-19 2.14661E-18
 -1      1068 7.07992E-05-1.69450E-05-2.30654E-05 6.32438E-06 8.23634E-19-1.03269E-18
 -1      1069 8.76488E-05-2.28892E-05-2.77542E-05-5.92089E-06-2.85675E-19 7.95534E-19
 -1      1070 9.50920E-05-2.73085E-05-2.90502E-05-2.26707E-06 1.22798E-19-5.05117E-19
 -1      1071 8.34724E-05-2.41887E-05-2.54054E-05-1.31476E-05-3.70319E-19-2.48790E-19
 -1      1072 8.46081E-05-2.29646E-05-2.64172E-05-9.85308E-06-3.59705E-19 5.58803E-19
 -1      1073 9.58636E-05-2.54031E-05-3.01962E-05-1.24655E-07-3.89144E-20-9.33642E-19
 -1      1074 9.61189E-05-2.65801E-05-2.98026E-05-4.26535E-07 4.17118E-19-9.27483E-19
 -1      1075 9.37548E-05-2.62822E-05-2.89172E-05-2.17385E-06-4.40724E-21-6.54399E-20
 -1      1076 9.57312E-05-2.73206E-05-2.93191E-05-1.19369E-06 4.85124E-19-1.26236E-18
 -1      1077 9.27099E-05-2.55205E-05-2.87954E-05 1.72342E-06-1.23901E-18-4.00444E-18
 -1      1078 6.81585E-05-1.55320E-05-2.25068E-05-1.08143E-06-8.17963E-19-8.39701E-19
 -1      1079 9.59046E-05-2.55087E-05-3.01694E-05 5.57826E-08 4.70694E-19-1.33612E-18
 -1      1080 9.15604E-05-2.46070E-05-2.86952E-05-2.08787E-07 6.02492E-19 3.51424E-18
 -1      1081 9.58445E-05-2.52624E-05-3.02490E-05 1.71418E-08 5.12660E-19-1.24443E-18
 -1      1082 9.19665E-05-2.49321E-05-2.87292E-05 1.35939E-06 1.71976E-18 1.18779E-18
 -1      1083 8.44394E-05-2.10935E-05-2.71491E-05-4.40435E-06-2.75042E-19-5.24733E-19
 -1      1084 9.58052E-05-2.70739E-05-2.94560E-05 3.27765E-07 3.76928E-20-3.57535E-19
 -1      1085 9.52846E-05-2.70152E-05-2.92582E-05 4.11166E-07 6.45626E-20-2.39875E-19
 -1      1086 9.45586E-05-2.66720E-05-2.90944E-05 4.87993E-07 2.49180E-19-9.12733E-19
 -1      1087 9.36187E-05-2.60725E-05-2.89470E-05 5.69704E-07-1.98111E-19-5.80449E-19
 -1      1088 9.24658E-05-2.52787E-05-2.87936E-05 6.40987E-07-1.52703E-19-8.27798E-19
 -1      1089 9.10986E-05-2.43428E-05-2.86092E-05 7.03849E-07-2.46922E-19-6.41238E-19
 -1      1090 8.94753E-05-2.32890E-05-2.83651E-05 7.64143E-07-7.48306E-19 5.20388E-20
 -1      1091 8.75428E-05-2.21517E-05-2.80242E-05 8.14026E-07-1.37409E-19 8.28335E-20
 -1      1092 8.52156E-05-2.09567E-05-2.75388E-05 8.48033E-07-4.78462E-20-2.58178E-19
 -1      1093 8.23447E-05-1.97046E-05-2.68435E-05 8.55279E-07-6.03205E-20-6.77933E-20
 -1      1094 7.87461E-05-1.84257E-05-2.58507E-05 9.35868E-07 3.17589E-19-5.19649E-20
 -1      1095 7.50922E-05-1.73970E-05-2.46894E-05 1.86920E-06 4.40710E-19-6.56776E-19
 -1      1096 9.60851E-05-2.67736E-05-2.97046E-05 2.05496E-07 2.04847E-19-8.27266E-19
 -1      1097 7.64330E-05-1.89282E-05-2.46523E-05 7.68068E-06-1.22953E-18-7.22508E-19
 -1      1098 9.58471E-05-2.52652E-05-3.02502E-05-4.64368E-08 1.63260E-19-7.84956E-19
 -1      1099 8.14570E-05-1.91844E-05-2.66879E-05-1.64951E-06-2.34956E-19-1.33273E-19
 -1      1100 8.43270E-05-2.03176E-05-2.74327E-05-1.41928E-06 1.05004E-19 7.90865E-20
 -1      1101 8.66160E-05-2.14135E-05-2.79444E-05-1.23544E-06 3.30498E-18 9.76918E-19
 -1      1102 8.84706E-05-2.24567E-05-2.82914E-05-1.06802E-06 1.72054E-18 7.63099E-19
 -1      1103 8.99749E-05-2.34302E-05-2.85189E-05-9.05913E-07-3.71437E-19 1.17677E-18
 -1      1104 9.02478E-05-2.38634E-05-2.84509E-05-2.07772E-06 3.07852E-20-1.38542E-19
 -1      1105 8.18177E-05-2.03862E-05-2.63379E-05-5.88722E-06 2.63892E-19-5.42965E-19
 -1      1106 8.66779E-05-2.19580E-05-2.77377E-05-3.36574E-06-5.65250E-19-4.69417E-19
 -1      1107 7.30479E-05-1.70139E-05-2.40078E-05-4.53368E-06-1.26530E-18-3.03351E-18
 -1      1108 8.50532E-05-2.10627E-05-2.74254E-05 3.90098E-06 1.09960E-18 1.22359E-18
 -1      1109 8.27086E-05-2.03904E-05-2.67064E-05 5.23869E-06 7.42393E-19 9.49173E-19
 -1      1110 9.00869E-05-2.35700E-05-2.85069E-05 1.74553E-06 1.81321E-18-2.04474E-18
 -1      1111 9.11188E-05-2.42893E-05-2.86398E-05 1.54119E-06 1.75246E-18-2.24281E-19
 -1      1112 7.52452E-05-1.85068E-05-2.43299E-05-7.65738E-06-6.47103E-20-7.96534E-19
 -1      1113 9.16708E-05-2.47848E-05-2.86659E-05-1.67215E-06-1.86073E-19-4.28059E-19
 -1      1114 7.77833E-05-1.80156E-05-2.56178E-05-1.95802E-06 4.35939E-20-1.32326E-18
 -1      1115 8.85954E-05-2.29023E-05-2.81547E-05-2.62184E-06-4.97811E-19-1.81295E-19
 -1      1116 8.86855E-05-2.27111E-05-2.82746E-05 2.26591E-06 1.16017E-18-4.17443E-19
 -1      1117 9.16616E-05-2.46643E-05-2.87121E-05-9.40801E-07 1.44052E-19-4.21485E-19
 -1      1118 7.99488E-05-1.96670E-05-2.58327E-05 6.30495E-06-4.98985E-19 3.35504E-19
 -1      1119 7.17407E-05-1.67627E-05-2.35468E-05 4.29890E-06-1.66001E-18-7.23882E-19
 -1      1120 8.70233E-05-2.18599E-05-2.79280E-05 2.95682E-06 1.18892E-18 1.09335E-18
 -1      1121 9.45634E-05-2.68212E-05-2.90321E-05-1.81765E-06-2.27316E-19-4.15439E-19
 -1      1122 9.52285E-05-2.71870E-05-2.91603E-05-1.50615E-06-1.68828E-19-8.12363E-19
 -1      1123 9.28884E-05-2.56172E-05-2.88310E-05-1.35752E-06-1.98476E-19-4.87861E-19
 -1      1124 9.60979E-05-2.67023E-05-2.97406E-05-3.36759E-07 4.04653E-19-9.96260E-19
 -1      1125 9.60392E-05-2.60037E-05-3.00157E-05 7.47279E-08 1.11172E-19-5.19649E-19
 -1      1126 9.08770E-05-2.40681E-05-2.86302E-05-9.35886E-07-8.56234E-19 3.12718E-19
 -1      1127 9.58973E-05-2.70986E-05-2.94850E-05-5.45709E-07 4.32615E-19-9.57212E-19
 -1      1128 7.45500E-05-1.71204E-05-2.46146E-05 2.86316E-07-1.16491E-18-1.83554E-18
 -1      1129 9.60669E-05-2.61205E-05-2.99776E-05-1.39269E-07 1.19280E-19-1.36561E-18
 -1      1130 9.09198E-05-2.41335E-05-2.86238E-05 6.88339E-07 9.64606E-19 1.48696E-19
 -1      1131 9.54385E-05-2.71110E-05-2.92832E-05-7.32246E-07-1.60519E-19-7.22983E-19
 -1      1132 9.49405E-05-2.68667E-05-2.91747E-05-3.32562E-07-3.76062E-19-5.30666E-19
 -1      1133 9.41000E-05-2.63939E-05-2.90177E-05-4.16428E-07-7.82491E-20-7.36973E-19
 -1      1134 7.98913E-05-1.88170E-05-2.61764E-05 2.35720E-06 9.68806E-19-2.36176E-18
 -1      1135 8.55150E-05-2.09305E-05-2.76787E-05 1.09681E-06 1.70103E-18 2.79619E-19
 -1      1136 8.92078E-05-2.29545E-05-2.83953E-05 5.24499E-07 2.19969E-18 4.25186E-19
 -1      1137 8.30180E-05-1.98798E-05-2.70593E-05 1.59245E-06 5.57740E-19-6.12645E-19
 -1      1138 7.69305E-05-1.81517E-05-2.51902E-05 3.83357E-06-3.08000E-19-9.00637E-19
 -1      1139 8.73836E-05-2.18729E-05-2.80758E-05 7.37905E-07 2.56985E-18-3.33890E-19
 -1      1140 1.16655E-04 2.57017E-10-4.17863E-05-4.14077E-05-2.46910E-19 5.76194E-18
 -1      1141 8.85510E-05 7.18382E-11-3.72099E-05-2.41433E-05-1.16679E-19-1.14085E-19
 -1      1142 8.40395E-05 4.14395E-11-3.57501E-05-1.78578E-05-7.71859E-20-2.47119E-18
 -1      1143 8.23447E-05 3.20502E-11-3.50757E-05-1.38142E-05-4.53163E-20-3.47491E-18
 -1      1144 8.15779E-05 2.73305E-11-3.47563E-05-1.05064E-05-2.93947E-20-3.93608E-18
 -1      1145 8.11971E-05 2.45624E-11-3.46016E-05-7.61444E-06-1.39959E-20-4.04434E-18
 -1      1146 8.10029E-05 2.28706E-11-3.45251E-05-4.95893E-06-7.74241E-22-4.01540E-18
 -1      1147 8.09091E-05 2.19490E-11-3.44896E-05-2.42053E-06 8.57455E-21-3.89573E-18
 -1      1148 8.08825E-05 2.16683E-11-3.44797E-05 5.26414E-08 1.49008E-20-3.79303E-18
 -1      1149 8.09131E-05 2.19924E-11-3.44909E-05 2.52828E-06 3.04882E-20-3.62712E-18
 -1      1150 8.10112E-05 2.29694E-11-3.45278E-05 5.07487E-06 3.70180E-20-3.36701E-18
 -1      1151 8.12121E-05 2.47227E-11-3.46056E-05 7.74652E-06 5.29462E-20-2.99150E-18
 -1      1152 8.15973E-05 2.76326E-11-3.47624E-05 1.06663E-05 6.89405E-20-2.42290E-18
 -1      1153 8.23675E-05 3.25135E-11-3.50854E-05 1.40183E-05 7.57830E-20-1.46247E-18
 -1      1154 8.40363E-05 4.19268E-11-3.57696E-05 1.81081E-05 9.23266E-20 2.40584E-19
 -1      1155 8.82498E-05 6.66650E-11-3.72798E-05 2.39865E-05 9.83617E-20 3.34377E-18
 -1      1156 1.06432E-04 1.63597E-10-4.05662E-05 3.61461E-05 1.76395E-19 9.27607E-18
 -1      1157 1.29957E-04-2.57016E-05-4.01966E-05-2.60657E-05-9.46136E-19 9.42748E-18
 -1      1158 9.72351E-05-2.87964E-05-3.15093E-05-6.80873E-07-3.24811E-19 7.17162E-18
 -1      1159 8.99519E-05-2.69649E-05-2.78303E-05 3.85432E-07-1.14746E-19 4.20593E-18
 -1      1160 8.80563E-05-2.65154E-05-2.65862E-05 2.48939E-07-4.01216E-20 2.28056E-18
 -1      1161 8.77227E-05-2.63967E-05-2.63381E-05 1.63609E-07-1.08675E-20 1.23900E-18
 -1      1162 8.81252E-05-2.64870E-05-2.64370E-05 1.15553E-07-6.84806E-20 8.43407E-19
 -1      1163 8.88853E-05-2.66944E-05-2.66631E-05 8.49354E-08-7.20449E-20 3.08638E-20
 -1      1164 8.98195E-05-2.69632E-05-2.69431E-05 6.39942E-08-9.09497E-20-9.04102E-19
 -1      1165 9.08378E-05-2.72628E-05-2.72491E-05 4.90439E-08-1.34837E-20-1.73369E-18
 -1      1166 9.19040E-05-2.75800E-05-2.75709E-05 3.84101E-08-8.60516E-21-2.59811E-18
 -1      1167 9.30179E-05-2.79137E-05-2.79085E-05 3.13936E-08 1.59449E-20-3.23508E-18
 -1      1168 9.42060E-05-2.82709E-05-2.82698E-05 2.78179E-08 1.19882E-19-2.43566E-18
 -1      1169 9.55155E-05-2.86656E-05-2.86689E-05 2.78448E-08-7.42353E-20-3.34319E-18
 -1      1170 9.70104E-05-2.91163E-05-2.91247E-05 3.19007E-08 1.10228E-19-3.33995E-18
 -1      1171 9.87668E-05-2.96455E-05-2.96596E-05 4.06211E-08-2.42935E-20-2.79193E-18
 -1      1172 1.00866E-04-3.02770E-05-3.02971E-05 5.47289E-08-1.35552E-19-3.29414E-18
 -1      1173 1.03383E-04-3.10320E-05-3.10577E-05 7.47179E-08 7.82132E-20-3.09771E-18
 -1      1174 1.06361E-04-3.19228E-05-3.19510E-05 1.00122E-07-3.10821E-20-2.59928E-18
 -1      1175 1.09779E-04-3.29410E-05-3.29639E-05 1.28035E-07-1.56916E-21-2.97089E-18
 -1      1176 1.13481E-04-3.40384E-05-3.40407E-05 1.50523E-07-1.13939E-19-4.65895E-18
 -1      1177 1.17094E-04-3.51025E-05-3.50591E-05 1.51098E-07 4.99005E-20-4.55958E-18
 -1      1178 1.19936E-04-3.59290E-05-3.58096E-05 1.02282E-07-2.50636E-20-3.28970E-18
 -1      1179 1.20983E-04-3.62151E-05-3.60015E-05-3.00395E-08 3.82157E-20-2.57405E-18
 -1      1180 1.19040E-04-3.56133E-05-3.53317E-05-2.65668E-07-8.89848E-20-3.26357E-18
 -1      1181 1.13284E-04-3.38935E-05-3.36463E-05-5.65811E-07 2.25357E-19-1.57432E-18
 -1      1182 1.04159E-04-3.12102E-05-3.11537E-05-7.93559E-07-4.96970E-20 5.46760E-19
 -1      1183 9.40993E-05-2.82912E-05-2.85315E-05-7.54157E-07 2.65889E-19 7.44330E-19
 -1      1184 8.70250E-05-2.62587E-05-2.67421E-05-3.58648E-07-7.39367E-20-1.16785E-19
 -1      1185 8.62362E-05-2.60335E-05-2.65441E-05 2.33176E-07-2.77423E-19 4.92258E-19
 -1      1186 9.21290E-05-2.77238E-05-2.80279E-05 6.95998E-07 7.09522E-20-3.34049E-19
 -1      1187 1.01886E-04-3.05478E-05-3.05520E-05 8.13363E-07-1.43140E-19-2.66392E-18
 -1      1188 1.11502E-04-3.33667E-05-3.31490E-05 6.28648E-07-3.02751E-19-5.68253E-18
 -1      1189 1.18116E-04-3.53344E-05-3.50500E-05 3.29529E-07-9.77860E-20-4.67435E-18
 -1      1190 1.20877E-04-3.61784E-05-3.59454E-05 7.31768E-08-2.00300E-19-5.51972E-18
 -1      1191 1.20415E-04-3.60673E-05-3.59278E-05-8.16014E-08 1.81007E-19-4.64336E-18
 -1      1192 1.17909E-04-3.53426E-05-3.52853E-05-1.45773E-07 6.08204E-19-1.82713E-18
 -1      1193 1.14449E-04-3.43264E-05-3.43217E-05-1.52958E-07 2.43349E-19-1.90312E-18
 -1      1194 1.10802E-04-3.32472E-05-3.32681E-05-1.32940E-07 3.88748E-19-2.90373E-19
 -1      1195 1.07409E-04-3.22378E-05-3.22670E-05-1.04491E-07 2.80830E-19 1.96727E-18
 -1      1196 1.04471E-04-3.13604E-05-3.13887E-05-7.70176E-08-1.87281E-19-4.04829E-19
 -1      1197 1.02044E-04-3.06329E-05-3.06567E-05-5.41593E-08 7.25760E-20-1.43235E-18
 -1      1198 1.00102E-04-3.00494E-05-3.00679E-05-3.66204E-08-4.75415E-19-1.95259E-18
 -1      1199 9.85888E-05-2.95933E-05-2.96070E-05-2.38531E-08 3.42887E-19-2.59842E-18
 -1      1200 9.74334E-05-2.92444E-05-2.92543E-05-1.49009E-08-9.99573E-20-1.21110E-18
 -1      1201 9.65708E-05-2.89833E-05-2.89907E-05-8.72095E-09 2.83875E-19-1.68627E-18
 -1      1202 9.59462E-05-2.87939E-05-2.88002E-05-4.19524E-09-1.19942E-19-2.39626E-19
 -1      1203 9.55198E-05-2.86641E-05-2.86707E-05-7.17929E-12 4.71466E-19-7.09222E-19
 -1      1204 9.52673E-05-2.85868E-05-2.85939E-05 5.64114E-09 2.79278E-19 1.19116E-18
 -1      1205 9.51813E-05-2.85633E-05-2.85597E-05 1.60280E-08 6.03525E-20 3.26950E-18
 -1      1206 9.52039E-05-2.85611E-05-2.85457E-05 1.09147E-08 3.31546E-19 2.11852E-18
 -1      1207 1.30790E-04-3.76602E-05-3.85847E-05 1.21583E-05-1.81371E-19 1.40413E-17
 -1      1208 9.63384E-05-2.81241E-05-3.12624E-05 8.01620E-07 8.61591E-20 1.16595E-17
 -1      1209 9.01679E-05-2.68682E-05-2.78117E-05 1.21498E-07 2.76675E-20 9.51364E-18
 -1      1210 8.81455E-05-2.64434E-05-2.66233E-05 1.12732E-08 3.19689E-20 7.71160E-18
 -1      1211 8.77666E-05-2.63600E-05-2.63661E-05-2.19780E-08 1.10793E-20 6.30256E-18
 -1      1212 8.81518E-05-2.64707E-05-2.64540E-05-2.98234E-08 7.42477E-21 5.31526E-18
 -1      1213 8.89046E-05-2.66889E-05-2.66749E-05-2.96550E-08-3.68509E-21 4.76226E-18
 -1      1214 8.98356E-05-2.69634E-05-2.69526E-05-2.64167E-08-6.65715E-21 4.68966E-18
 -1      1215 9.08520E-05-2.72659E-05-2.72571E-05-2.17116E-08-1.24240E-20 3.89533E-18
 -1      1216 9.19156E-05-2.75840E-05-2.75772E-05-1.63396E-08 3.19759E-20 4.03267E-18
 -1      1217 9.30236E-05-2.79164E-05-2.79123E-05-1.08936E-08 1.42130E-19 3.11552E-18
 -1      1218 9.41980E-05-2.82693E-05-2.82688E-05-5.93596E-09 4.35945E-20 2.59512E-18
 -1      1219 9.54791E-05-2.86544E-05-2.86584E-05-2.10626E-09 7.16467E-20 2.43205E-18
 -1      1220 9.69190E-05-2.90872E-05-2.90965E-05-2.26164E-10-1.41868E-19 2.18664E-18
 -1      1221 9.85753E-05-2.95843E-05-2.95996E-05-1.40374E-09 2.82209E-19 1.07477E-18
 -1      1222 1.00501E-04-3.01609E-05-3.01825E-05-7.11077E-09-1.04816E-20 3.62173E-19
 -1      1223 1.02730E-04-3.08263E-05-3.08531E-05-1.91551E-08-1.33135E-19 1.41410E-18
 -1      1224 1.05253E-04-3.15766E-05-3.16053E-05-3.93730E-08 5.00655E-20 6.93971E-19
 -1      1225 1.07985E-04-3.23850E-05-3.24079E-05-6.87230E-08-6.48988E-20 1.14737E-18
 -1      1226 1.10714E-04-3.31882E-05-3.31915E-05-1.05343E-07-7.47970E-20 2.57262E-18
 -1      1227 1.13057E-04-3.38734E-05-3.38360E-05-1.41314E-07-5.85015E-20 2.66441E-18
 -1      1228 1.14427E-04-3.42709E-05-3.41679E-05-1.58959E-07 1.73509E-20 2.77622E-18
 -1      1229 1.14085E-04-3.41686E-05-3.39838E-05-1.30281E-07 2.14385E-19 4.04366E-19
 -1      1230 1.11338E-04-3.33686E-05-3.31172E-05-2.65269E-08-8.09314E-21-1.63170E-18
 -1      1231 1.05939E-04-3.17965E-05-3.15488E-05 1.56421E-07 9.25020E-20-2.57821E-18
 -1      1232 9.85826E-05-2.96403E-05-2.95178E-05 3.67334E-07-7.02214E-20 5.87100E-19
 -1      1233 9.11323E-05-2.74245E-05-2.75409E-05 5.00587E-07-2.98417E-19 3.41349E-18
 -1      1234 8.61279E-05-2.58920E-05-2.62590E-05 4.55074E-07-1.91899E-19 3.01350E-18
 -1      1235 8.55653E-05-2.56636E-05-2.61421E-05 2.22392E-07-1.85884E-19 2.78755E-18
 -1      1236 8.96881E-05-2.68584E-05-2.72356E-05-8.80111E-08 1.01571E-19 1.18018E-18
 -1      1237 9.68222E-05-2.89963E-05-2.91330E-05-3.27783E-07 1.85988E-19-2.38154E-18
 -1      1238 1.04417E-04-3.12994E-05-3.12006E-05-4.15645E-07-6.95460E-20-1.49390E-18
 -1      1239 1.10374E-04-3.31119E-05-3.28834E-05-3.67071E-07 4.97665E-20-8.65032E-19
 -1      1240 1.13735E-04-3.41331E-05-3.38901E-05-2.49415E-07-8.60599E-20-1.81882E-18
 -1      1241 1.14584E-04-3.43888E-05-3.42002E-05-1.25876E-07-1.55040E-19-1.87230E-18
 -1      1242 1.13562E-04-3.40780E-05-3.39629E-05-3.02756E-08 2.07394E-19-4.31442E-18
 -1      1243 1.11430E-04-3.34337E-05-3.33813E-05 2.94937E-08 3.24894E-19-5.80908E-18
 -1      1244 1.08822E-04-3.26483E-05-3.26384E-05 5.92405E-08-2.01013E-19-4.32433E-18
 -1      1245 1.06172E-04-3.18523E-05-3.18663E-05 6.86243E-08 2.35783E-19-3.61745E-18
 -1      1246 1.03734E-04-3.11207E-05-3.11453E-05 6.62501E-08 1.13724E-19-3.57822E-18
 -1      1247 1.01626E-04-3.04885E-05-3.05155E-05 5.82261E-08-8.42235E-20-3.33363E-18
 -1      1248 9.98790E-05-2.99649E-05-2.99903E-05 4.83403E-08 3.89346E-19-4.69112E-18
 -1      1249 9.84785E-05-2.95452E-05-2.95670E-05 3.86977E-08-2.39234E-19-4.93546E-18
 -1      1250 9.73857E-05-2.92177E-05-2.92356E-05 3.03185E-08 7.46547E-20-5.92119E-18
 -1      1251 9.65557E-05-2.89690E-05-2.89834E-05 2.35529E-08 5.59897E-19-6.55821E-18
 -1      1252 9.59465E-05-2.87864E-05-2.87986E-05 1.83273E-08 4.70558E-19-9.89050E-18
 -1      1253 9.55255E-05-2.86602E-05-2.86716E-05 1.40790E-08-3.72683E-19-7.76570E-18
 -1      1254 9.52732E-05-2.85843E-05-2.85955E-05 8.82886E-09-1.01779E-19-5.81437E-18
 -1      1255 9.51810E-05-2.85552E-05-2.85614E-05-1.80538E-09 5.03609E-19-6.29851E-18
 -1      1256 9.52081E-05-2.85637E-05-2.85466E-05-9.83925E-09-1.02691E-19-3.69255E-18
 -1      1257 9.52451E-05-2.86014E-05-2.85475E-05-1.01739E-08-3.75879E-18-6.22355E-19
 -1      1258 9.52478E-05-2.86210E-05-2.85639E-05-1.28640E-08-4.28318E-18-6.35731E-19
 -1      1259 9.52180E-05-2.85185E-05-2.85997E-05 1.28430E-09 7.90288E-19 8.24676E-20
 -1      1260 9.51488E-05-2.82828E-05-2.86663E-05 9.73792E-09 4.50916E-18 2.55681E-19
 -1      1261 9.50560E-05-2.79662E-05-2.87549E-05 1.33996E-08 5.56266E-18-4.10161E-19
 -1      1262 9.49590E-05-2.76359E-05-2.88479E-05 1.32743E-08 3.12751E-18-7.60774E-19
 -1      1263 9.48751E-05-2.73496E-05-2.89292E-05 1.05671E-08 1.14809E-18-5.46771E-20
 -1      1264 9.48178E-05-2.71542E-05-2.89847E-05 5.76073E-09 3.86390E-18-4.46462E-19
 -1      1265 9.47976E-05-2.70851E-05-2.90044E-05-3.94853E-11 2.93771E-18-2.21255E-19
 -1      1266 9.48178E-05-2.71538E-05-2.89847E-05-5.87767E-09 1.52640E-20 5.90257E-19
 -1      1267 9.48752E-05-2.73499E-05-2.89289E-05-1.07430E-08 1.96570E-18-9.01095E-19
 -1      1268 9.49600E-05-2.76383E-05-2.88473E-05-1.36645E-08-1.22566E-18 4.09578E-19
 -1      1269 9.50574E-05-2.79710E-05-2.87535E-05-1.35937E-08-3.96069E-19 5.15224E-19
 -1      1270 9.51509E-05-2.82897E-05-2.86645E-05-9.94832E-09 3.00307E-18-3.40870E-19
 -1      1271 9.52222E-05-2.85291E-05-2.85978E-05-1.54692E-09-2.37163E-18 4.01405E-19
 -1      1272 9.52435E-05-2.86168E-05-2.85621E-05 2.23031E-08-3.30531E-18-5.76616E-19
 -1      1273 9.52470E-05-2.86056E-05-2.85465E-05 1.25555E-08-2.28895E-18 8.77496E-19
 -1      1274 3.22579E-05-1.03421E-04 1.76619E-05-1.36079E-05 7.42678E-18 9.21519E-19
 -1      1275 1.70817E-05-6.32872E-05 8.99295E-06-2.44674E-05 9.00904E-18 3.79132E-18
 -1      1276 8.50673E-06-7.00582E-06-6.73858E-06 2.36875E-06 9.87640E-18 5.38713E-18
 -1      1277 3.74296E-05 2.47913E-05-2.71865E-05 5.64520E-05 8.51776E-18 7.94856E-18
 -1      1278 1.09118E-04 1.24763E-05-4.67910E-05 1.01758E-04 5.15081E-18 6.01393E-18
 -1      1279 2.03493E-04-3.14825E-05-6.32414E-05 1.08042E-04 7.61059E-19 1.72117E-18
 -1      1280 2.84466E-04-7.83062E-05-7.45500E-05 6.18192E-05 3.64436E-19 2.85874E-18
 -1      1281 3.07083E-04-9.27695E-05-7.72381E-05-1.97184E-05-1.08129E-19 2.33506E-18
 -1      1282 2.56486E-04-6.14880E-05-7.09212E-05-8.77035E-05 2.35327E-18-6.10287E-18
 -1      1283 1.65748E-04-1.22521E-05-5.72719E-05-1.11141E-04 6.25026E-18-1.17822E-17
 -1      1284 7.48979E-05 2.29099E-05-3.89090E-05-8.62018E-05 1.23887E-17-1.44080E-17
 -1      1285 2.01705E-05 1.95965E-05-1.95836E-05-3.53038E-05 1.44453E-17-1.27309E-17
 -1      1286 7.47428E-06-2.17328E-05-1.48119E-06 1.01744E-05 1.14485E-17-6.31802E-18
 -1      1287 2.22957E-05-7.76645E-05 1.22216E-05 2.48111E-05 5.45235E-18-2.33061E-18
 -1      1288 3.54292E-05-1.09889E-04 1.86465E-05 6.46235E-06-3.39216E-18-1.07690E-18
 -1      1289 3.08244E-05-9.97827E-05 1.66297E-05-1.93713E-05-1.26013E-17-2.19080E-18
 -1      1290 1.32422E-05-5.11599E-05 6.24671E-06-2.24789E-05-1.58378E-17-6.30997E-18
 -1      1291 1.11847E-05 3.12617E-06-1.13855E-05 1.31691E-05-1.31815E-17-8.69903E-18
 -1      1292 5.18143E-05 2.48713E-05-3.22319E-05 6.92939E-05-8.24332E-18-8.72444E-18
 -1      1293 1.34770E-04 2.07332E-06-5.15807E-05 1.07821E-04-3.64732E-18-5.49216E-18
 -1      1294 2.34534E-04-4.80499E-05-6.79275E-05 9.78843E-05-1.74489E-18-5.70138E-18
 -1      1295 3.05063E-04-8.98385E-05-7.72182E-05 3.76779E-05-7.67213E-19-4.78785E-18
 -1      1296 3.04274E-04-8.95846E-05-7.71378E-05-4.07152E-05-1.94950E-19-9.44442E-19
 -1      1297 2.42761E-04-5.27741E-05-6.92335E-05-9.62857E-05-1.95156E-18 3.96242E-18
 -1      1298 1.54243E-04-6.60986E-06-5.53277E-05-1.11140E-04-4.29022E-18 8.92095E-18
 -1      1299 7.11111E-05 2.31890E-05-3.79726E-05-8.36175E-05-7.43864E-18 8.91587E-18
 -1      1300 1.98633E-05 1.79129E-05-1.91057E-05-3.35599E-05-9.23944E-18 7.62330E-18
 -1      1301 7.09576E-06-2.08085E-05-1.89677E-06 1.00433E-05-8.57197E-18 4.99157E-18
 -1      1302 1.94152E-05-7.16101E-05 1.11144E-05 2.58330E-05-2.73422E-18 1.64981E-18
 -1      1303 3.49448E-05-1.08568E-04 1.81935E-05 1.24118E-05-6.78897E-19 2.97626E-19
 -1      1304 1.04253E-04-2.19727E-05-3.78272E-05-1.72558E-05-3.69306E-19 4.38530E-18
 -1      1305 9.02366E-05-6.67461E-06-3.59837E-05-2.04446E-05-8.81550E-19-1.22354E-18
 -1      1306 9.25392E-05-6.73253E-06-3.71752E-05-2.57264E-05-1.16891E-18 2.68404E-20
 -1      1307 8.58783E-05-4.09382E-06-3.51195E-05-1.64042E-05-8.31019E-19-2.91591E-18
 -1      1308 8.71052E-05-4.08866E-06-3.55779E-05-1.88239E-05-9.43489E-19-2.22317E-18
 -1      1309 9.20653E-05-1.04556E-05-3.50673E-05-1.89971E-05-1.51741E-18-1.06996E-18
 -1      1310 8.41215E-05-3.19402E-06-3.46948E-05-1.27876E-05-5.80297E-19-3.69523E-18
 -1      1311 8.47084E-05-3.16279E-06-3.49103E-05-1.46045E-05-6.95573E-19-3.34901E-18
 -1      1312 8.78567E-05-7.39090E-06-3.45693E-05-1.53789E-05-1.25014E-18-2.48779E-18
 -1      1313 8.32365E-05-2.72716E-06-3.44915E-05-9.65268E-06-3.93427E-19-4.02922E-18
 -1      1314 8.35391E-05-2.71077E-06-3.45948E-05-1.11999E-05-4.49457E-19-3.90562E-18
 -1      1315 8.58974E-05-5.98349E-06-3.43173E-05-1.19161E-05-8.46424E-19-3.15885E-18
 -1      1316 8.27614E-05-2.45275E-06-3.43948E-05-6.88549E-06-1.91575E-19-4.06909E-18
 -1      1317 8.29226E-05-2.44438E-06-3.44450E-05-8.25400E-06-2.67014E-19-4.04651E-18
 -1      1318 8.48727E-05-5.20853E-06-3.41980E-05-8.90486E-06-5.59482E-19-3.39872E-18
 -1      1319 8.24963E-05-2.28365E-06-3.43480E-05-4.27328E-06-4.72006E-20-4.01724E-18
 -1      1320 8.25825E-05-2.27982E-06-3.43727E-05-5.57010E-06-7.96409E-20-4.07764E-18
 -1      1321 8.43004E-05-4.74620E-06-3.41435E-05-6.18423E-06-2.44384E-19-3.47291E-18
 -1      1322 8.23683E-05-2.19152E-06-3.43288E-05-1.77982E-06 1.52966E-19-3.88361E-18
 -1      1323 8.24052E-05-2.19002E-06-3.43387E-05-3.02488E-06 6.83731E-20-3.93205E-18
 -1      1324 8.39846E-05-4.47633E-06-3.41200E-05-3.62285E-06 3.71900E-21-3.37551E-18
 -1      1325 8.23428E-05-2.16300E-06-3.43266E-05 6.66683E-07 2.86875E-19-3.74635E-18
 -1      1326 8.23415E-05-2.16305E-06-3.43263E-05-5.62632E-07 2.32516E-19-3.82856E-18
 -1      1327 8.38456E-05-4.35302E-06-3.41117E-05-1.16277E-06 3.18335E-19-3.26853E-18
 -1      1328 8.24134E-05-2.19426E-06-3.43400E-05 3.13249E-06 4.60692E-19-3.56355E-18
 -1      1329 8.23737E-05-2.19582E-06-3.43295E-05 1.88487E-06 4.06660E-19-3.67469E-18
 -1      1330 8.38503E-05-4.35716E-06-3.41120E-05 1.26621E-06 5.74438E-19-3.11367E-18
 -1      1331 8.25991E-05-2.29006E-06-3.43751E-05 5.68674E-06 5.95451E-19-3.33824E-18
 -1      1332 8.25094E-05-2.29329E-06-3.43497E-05 4.38404E-06 5.47843E-19-3.49721E-18
 -1      1333 8.39995E-05-4.48965E-06-3.41209E-05 3.73046E-06 8.30431E-19-2.95000E-18
 -1      1334 8.29451E-05-2.45951E-06-3.44477E-05 8.36269E-06 7.53164E-19-2.93328E-18
 -1      1335 8.27806E-05-2.46806E-06-3.43969E-05 6.98528E-06 6.96718E-19-3.17438E-18
 -1      1336 8.43253E-05-4.76897E-06-3.41445E-05 6.27812E-06 1.06854E-18-2.67872E-18
 -1      1337 8.35802E-05-2.74056E-06-3.45995E-05 1.13616E-05 9.78482E-19-2.26744E-18
 -1      1338 8.32723E-05-2.75754E-06-3.44950E-05 9.79698E-06 8.87949E-19-2.63485E-18
 -1      1339 8.49147E-05-5.24939E-06-3.41988E-05 9.01491E-06 1.32811E-18-2.21748E-18
 -1      1340 8.47660E-05-3.20496E-06-3.49181E-05 1.48125E-05 1.12674E-18-1.22468E-18
 -1      1341 8.41733E-05-3.24168E-06-3.47000E-05 1.29712E-05 1.03282E-18-1.86726E-18
 -1      1342 8.59738E-05-6.06041E-06-3.43188E-05 1.20819E-05 1.62672E-18-1.53046E-18
 -1      1343 8.72061E-05-4.09084E-06-3.55990E-05 1.90622E-05 1.22904E-18 6.10817E-19
 -1      1344 8.59497E-05-4.15498E-06-3.51268E-05 1.66640E-05 1.11358E-18-4.80268E-19
 -1      1345 8.79800E-05-7.51636E-06-3.45709E-05 1.56114E-05 1.79795E-18-3.88656E-19
 -1      1346 9.33500E-05-6.78381E-06-3.70706E-05 2.50637E-05 9.97699E-19 3.89889E-18
 -1      1347 9.00517E-05-6.43138E-06-3.60061E-05 2.11214E-05 9.82664E-19 1.91197E-18
 -1      1348 9.22946E-05-1.06904E-05-3.50522E-05 1.96400E-05 1.80582E-18 1.64684E-18
 -1      1349 1.23403E-04-2.48757E-05-3.89480E-05 2.83257E-05 4.08270E-19 9.67142E-18
 -1      1350 9.99283E-05-1.43966E-05-3.72988E-05 2.40205E-05 4.65868E-19 5.70911E-18
 -1      1351 1.01542E-04-1.93129E-05-3.53563E-05 2.13655E-05 1.53092E-18 4.62056E-18
 -1      1352 1.02409E-04-2.77487E-05-3.46953E-05 7.32030E-06 7.79509E-19 9.37983E-18
 -1      1353 1.04956E-04-3.01742E-05-3.34663E-05-7.94690E-06-9.83935E-19 4.74423E-18
 -1      1354 9.80805E-05-2.77902E-05-3.07067E-05-4.97901E-06-8.90602E-19 3.57861E-18
 -1      1355 9.53321E-05-2.77980E-05-2.92028E-05-2.48034E-06-6.96420E-19 3.12570E-18
 -1      1356 9.31082E-05-2.75089E-05-2.81663E-05-2.03331E-06-6.39086E-19 2.10633E-18
 -1      1357 9.93440E-05-2.80103E-05-3.09399E-05-7.86678E-06-1.54118E-18 1.48466E-18
 -1      1358 9.14315E-05-2.71547E-05-2.75361E-05-8.25393E-07-5.19483E-19 1.75558E-18
 -1      1359 9.07262E-05-2.70621E-05-2.72374E-05-7.14258E-07-4.13200E-19 1.10101E-18
 -1      1360 9.45998E-05-2.77333E-05-2.87816E-05-3.09668E-06-1.14524E-18 8.34711E-19
 -1      1361 8.99948E-05-2.68844E-05-2.70001E-05-1.53482E-07-2.32663E-19 6.88135E-19
 -1      1362 8.99406E-05-2.69159E-05-2.69710E-05-9.36109E-08-2.21598E-19 4.31828E-19
 -1      1363 9.24316E-05-2.74703E-05-2.78712E-05-1.01757E-06-7.46679E-19 2.89593E-19
 -1      1364 8.97099E-05-2.68563E-05-2.69057E-05 1.87880E-07-1.38872E-19 3.68406E-19
 -1      1365 8.99551E-05-2.69546E-05-2.69768E-05 2.19520E-07-2.08236E-19 1.10180E-19
 -1      1366 9.15197E-05-2.73381E-05-2.75197E-05-1.25965E-08-3.75150E-19-1.22641E-19
 -1      1367 9.00025E-05-2.69700E-05-2.69969E-05 3.67785E-07-2.85460E-19-2.71315E-21
 -1      1368 9.03945E-05-2.71033E-05-2.71111E-05 3.83960E-07-2.90507E-19-4.20188E-19
 -1      1369 9.13376E-05-2.73442E-05-2.74349E-05 5.09030E-07-4.18611E-19-2.65743E-19
 -1      1370 9.06015E-05-2.71633E-05-2.71785E-05 4.63315E-07-2.53110E-19-6.00255E-19
 -1      1371 9.10667E-05-2.73134E-05-2.73140E-05 4.71386E-07-2.65704E-19-1.06240E-18
 -1      1372 9.15769E-05-2.74457E-05-2.74914E-05 7.87909E-07-5.40553E-19-5.50877E-19
 -1      1373 9.13694E-05-2.74002E-05-2.74099E-05 5.16573E-07-2.18419E-19-1.07603E-18
 -1      1374 9.18734E-05-2.75582E-05-2.75573E-05 5.21277E-07-2.01266E-19-1.38672E-18
 -1      1375 9.20659E-05-2.76062E-05-2.76302E-05 9.41987E-07-4.23006E-19-8.21597E-19
 -1      1376 9.22394E-05-2.76629E-05-2.76722E-05 5.53798E-07-2.97712E-19-1.48949E-18
 -1      1377 9.27712E-05-2.78264E-05-2.78285E-05 5.58495E-07-2.90601E-19-1.71578E-18
 -1      1378 9.27120E-05-2.78039E-05-2.78214E-05 1.03876E-06-4.94424E-19-7.74709E-19
 -1      1379 9.31881E-05-2.79453E-05-2.79589E-05 5.93115E-07-1.95061E-19-1.87473E-18
 -1      1380 9.37528E-05-2.81167E-05-2.81256E-05 6.00362E-07 1.00730E-19-1.98819E-18
 -1      1381 9.34716E-05-2.80284E-05-2.80505E-05 1.12196E-06-3.10619E-19-9.79592E-19
 -1      1382 9.42220E-05-2.82502E-05-2.82721E-05 6.47997E-07 1.32845E-19-2.24629E-18
 -1      1383 9.48369E-05-2.84353E-05-2.84542E-05 6.59833E-07-9.35798E-20-2.25176E-18
 -1      1384 9.43333E-05-2.82781E-05-2.83135E-05 1.22261E-06-5.74849E-20-1.55184E-18
 -1      1385 9.53695E-05-2.85867E-05-2.86204E-05 7.28848E-07-3.09025E-19-2.36378E-18
 -1      1386 9.60611E-05-2.87941E-05-2.88255E-05 7.46930E-07-1.71342E-19-2.68764E-18
 -1      1387 9.53090E-05-2.85577E-05-2.86132E-05 1.36401E-06-4.04833E-19-2.02073E-18
 -1      1388 9.66757E-05-2.89689E-05-2.90172E-05 8.43521E-07 1.46839E-19-2.72505E-18
 -1      1389 9.74776E-05-2.92093E-05-2.92550E-05 8.69106E-07 6.52066E-20-2.41714E-18
 -1      1390 9.64274E-05-2.88767E-05-2.89576E-05 1.56378E-06-1.59125E-19-2.08202E-18
 -1      1391 9.81970E-05-2.94143E-05-2.94792E-05 9.96857E-07-1.71789E-20-2.40655E-18
 -1      1392 9.91470E-05-2.97002E-05-2.97608E-05 1.03061E-06-9.48272E-20-2.39657E-18
 -1      1393 9.77285E-05-2.92485E-05-2.93581E-05 1.83382E-06-8.12159E-20-2.22704E-18
 -1      1394 9.99950E-05-2.99427E-05-3.00247E-05 1.18901E-06-1.57388E-19-2.44965E-18
 -1      1395 1.01130E-04-3.02867E-05-3.03605E-05 1.23055E-06-3.47589E-19-2.65494E-18
 -1      1396 9.92583E-05-2.96889E-05-2.98273E-05 2.17805E-06-2.01207E-19-2.30067E-18
 -1      1397 1.02127E-04-3.05738E-05-3.06698E-05 1.41203E-06-2.38997E-20-2.52190E-18
 -1      1398 1.03476E-04-3.09866E-05-3.10674E-05 1.45899E-06 7.46712E-20-2.25241E-18
 -1      1399 1.01061E-04-3.02151E-05-3.03762E-05 2.58727E-06-1.75511E-20-1.92989E-18
 -1      1400 1.04629E-04-3.13227E-05-3.14236E-05 1.64389E-06-1.32018E-21-2.27110E-18
 -1      1401 1.06196E-04-3.18088E-05-3.18829E-05 1.69041E-06 2.20435E-19-2.27142E-18
 -1      1402 1.03166E-04-3.08431E-05-3.10103E-05 3.02982E-06 2.44978E-19-1.92830E-18
 -1      1403 1.07491E-04-3.21934E-05-3.22788E-05 1.83957E-06-1.00614E-19-2.51820E-18
 -1      1404 1.09231E-04-3.27439E-05-3.27850E-05 1.87389E-06-4.11669E-19-2.84391E-18
 -1      1405 1.05572E-04-3.15842E-05-3.17227E-05 3.43689E-06-7.72454E-20-2.29849E-18
 -1      1406 1.10612E-04-3.31670E-05-3.31993E-05 1.91967E-06-4.54733E-19-2.93965E-18
 -1      1407 1.12398E-04-3.37483E-05-3.37124E-05 1.92130E-06-4.93813E-19-3.73228E-18
 -1      1408 1.08218E-04-3.24377E-05-3.24855E-05 3.68310E-06-6.89220E-19-2.28657E-18
 -1      1409 1.13746E-04-3.41837E-05-3.41027E-05 1.76182E-06 1.81796E-19-3.86806E-18
 -1      1410 1.15325E-04-3.47214E-05-3.45463E-05 1.69966E-06 8.33467E-21-3.69883E-18
 -1      1411 1.10946E-04-3.33784E-05-3.32394E-05 3.56829E-06-4.07314E-19-2.46526E-18
 -1      1412 1.16441E-04-3.51178E-05-3.48456E-05 1.20829E-06 2.67805E-19-3.53321E-18
 -1      1413 1.17406E-04-3.54819E-05-3.51013E-05 1.04449E-06 5.13851E-19-2.83177E-18
 -1      1414 1.13460E-04-3.43340E-05-3.38854E-05 2.81941E-06 4.05206E-19-2.96286E-18
 -1      1415 1.18007E-04-3.57528E-05-3.52226E-05 1.16027E-07 6.57642E-20-2.70017E-18
 -1      1416 1.17826E-04-3.57570E-05-3.51455E-05-1.76920E-07 1.57760E-19-2.65522E-18
 -1      1417 1.15292E-04-3.51521E-05-3.42884E-05 1.15199E-06 5.22269E-19-2.58337E-18
 -1      1418 1.17586E-04-3.57787E-05-3.50050E-05-1.52117E-06 3.06864E-19-2.23551E-18
 -1      1419 1.15769E-04-3.52228E-05-3.44756E-05-1.92170E-06 2.85662E-19-2.18900E-18
 -1      1420 1.15829E-04-3.55681E-05-3.43048E-05-1.55602E-06 6.11889E-19-1.95440E-18
 -1      1421 1.14448E-04-3.48610E-05-3.40398E-05-3.38403E-06 8.74489E-19-1.21891E-18
 -1      1422 1.10886E-04-3.36503E-05-3.30581E-05-3.77011E-06 7.92816E-19-3.93870E-20
 -1      1423 1.14456E-04-3.52226E-05-3.38452E-05-4.95821E-06 1.28635E-18-5.75638E-19
 -1      1424 1.08557E-04-3.28556E-05-3.23986E-05-4.70689E-06 3.74385E-19 4.62374E-19
 -1      1425 1.03922E-04-3.11812E-05-3.11708E-05-4.85262E-06 3.54619E-19 5.63118E-19
 -1      1426 1.10922E-04-3.38253E-05-3.29565E-05-7.94490E-06 1.06387E-18 2.07232E-19
 -1      1427 1.01214E-04-3.01431E-05-3.04813E-05-4.51809E-06 1.67858E-19 7.60000E-19
 -1      1428 9.70437E-05-2.85737E-05-2.94088E-05-4.22191E-06-1.18512E-19 5.37072E-19
 -1      1429 1.05863E-04-3.15222E-05-3.18712E-05-8.79433E-06 4.41973E-19 1.24593E-18
 -1      1430 9.50765E-05-2.77692E-05-2.89423E-05-2.37777E-06-1.11597E-19 3.09061E-19
 -1      1431 9.31528E-05-2.70284E-05-2.84562E-05-1.68658E-06-2.38625E-19 4.42985E-19
 -1      1432 1.01069E-04-2.91763E-05-3.09519E-05-6.19976E-06-2.60330E-19 6.63187E-19
 -1      1433 9.29294E-05-2.69336E-05-2.84047E-05 9.50234E-07-1.89325E-19 3.87638E-19
 -1      1434 9.41788E-05-2.74159E-05-2.87192E-05 1.69190E-06-2.57405E-19-1.03867E-19
 -1      1435 9.87970E-05-2.80241E-05-3.05420E-05-6.91490E-07-2.83319E-19 2.24576E-19
 -1      1436 9.58283E-05-2.80981E-05-2.91058E-05 3.80851E-06-7.79985E-19-5.85035E-19
 -1      1437 9.96431E-05-2.95436E-05-3.00824E-05 4.20758E-06-3.12079E-19-9.56830E-19
 -1      1438 1.00278E-04-2.87764E-05-3.08070E-05 5.16835E-06-1.02016E-18-3.91726E-19
 -1      1439 1.02295E-04-3.05777E-05-3.07454E-05 4.88609E-06-6.24861E-19-1.72181E-18
 -1      1440 1.06983E-04-3.22889E-05-3.19790E-05 4.82623E-06-9.97591E-19-2.80400E-18
 -1      1441 1.04702E-04-3.09656E-05-3.16408E-05 8.53642E-06-1.09787E-18-1.78078E-18
 -1      1442 1.09475E-04-3.31653E-05-3.26667E-05 4.11580E-06-7.89792E-19-3.15345E-18
 -1      1443 1.13368E-04-3.45091E-05-3.37298E-05 3.76202E-06-1.68526E-19-3.50354E-18
 -1      1444 1.09896E-04-3.33766E-05-3.27255E-05 8.38429E-06-1.39140E-18-2.30202E-18
 -1      1445 1.14941E-04-3.49704E-05-3.42272E-05 2.35355E-06 2.45507E-20-3.58160E-18
 -1      1446 1.17163E-04-3.56724E-05-3.48647E-05 1.94211E-06-4.90796E-19-3.73830E-18
 -1      1447 1.13872E-04-3.50114E-05-3.36866E-05 5.72201E-06-5.88370E-19-1.92733E-18
 -1      1448 1.17638E-04-3.57275E-05-3.50731E-05 5.36863E-07-4.43706E-19-3.99590E-18
 -1      1449 1.18156E-04-3.58344E-05-3.52456E-05 2.16156E-07-5.72806E-20-4.51485E-18
 -1      1450 1.15738E-04-3.55781E-05-3.42555E-05 2.29473E-06-3.93182E-19-2.80074E-18
 -1      1451 1.17726E-04-3.56102E-05-3.51799E-05-8.09129E-07 8.06978E-19-3.32094E-18
 -1      1452 1.16982E-04-3.53124E-05-3.49898E-05-9.98965E-07 1.35330E-18-2.50212E-18
 -1      1453 1.15598E-04-3.53038E-05-3.43467E-05-6.11386E-07 6.82656E-19-2.01841E-18
 -1      1454 1.15971E-04-3.49399E-05-3.47275E-05-1.57392E-06 5.83268E-19-2.80715E-18
 -1      1455 1.14510E-04-3.44338E-05-3.43209E-05-1.65356E-06 6.14450E-19-2.25057E-18
 -1      1456 1.14025E-04-3.45553E-05-3.40271E-05-2.49657E-06 1.11818E-18-1.95263E-18
 -1      1457 1.13218E-04-3.40086E-05-3.39518E-05-1.86653E-06 6.85101E-19-1.87716E-18
 -1      1458 1.11483E-04-3.34385E-05-3.34558E-05-1.87374E-06 3.61668E-19-1.52700E-18
 -1      1459 1.11658E-04-3.36247E-05-3.34356E-05-3.40793E-06 5.00309E-19-2.51043E-18
 -1      1460 1.10132E-04-3.30195E-05-3.30531E-05-1.85225E-06 7.87208E-19-1.98009E-18
 -1      1461 1.08412E-04-3.24716E-05-3.25544E-05-1.82019E-06 3.81523E-19-1.15829E-18
 -1      1462 1.09005E-04-3.26884E-05-3.27139E-05-3.61365E-06 6.12371E-19-1.53439E-18
 -1      1463 1.07138E-04-3.20902E-05-3.21664E-05-1.67290E-06 2.52149E-20-4.63519E-19
 -1      1464 1.05589E-04-3.16068E-05-3.17131E-05-1.62424E-06 3.01660E-19-4.10361E-19
 -1      1465 1.06402E-04-3.18343E-05-3.19712E-05-3.39699E-06 3.03363E-19-2.38806E-18
 -1      1466 1.04462E-04-3.12768E-05-3.13659E-05-1.42565E-06-6.08795E-19-3.88596E-19
 -1      1467 1.03146E-04-3.08724E-05-3.09787E-05-1.37369E-06-1.13429E-18-1.57534E-18
 -1      1468 1.04038E-04-3.10971E-05-3.12766E-05-2.97465E-06-3.88323E-19-2.30217E-18
 -1      1469 1.02193E-04-3.05969E-05-3.06832E-05-1.16805E-06-3.84189E-19-1.26463E-18
 -1      1470 1.01119E-04-3.02705E-05-3.03659E-05-1.11962E-06-4.02986E-19-2.05413E-18
 -1      1471 1.02000E-04-3.04830E-05-3.06657E-05-2.48616E-06-1.12450E-18-1.37690E-18
 -1      1472 1.00338E-04-3.00466E-05-3.01230E-05-9.29798E-07-6.71269E-19-1.55470E-18
 -1      1473 9.94866E-05-2.97902E-05-2.98707E-05-8.87767E-07-2.07456E-19-1.98896E-18
 -1      1474 1.00304E-04-2.99845E-05-3.01509E-05-2.01008E-06-5.11009E-19-1.79879E-18
 -1      1475 9.88626E-05-2.96123E-05-2.96764E-05-7.23265E-07 1.12951E-19-1.79622E-18
 -1      1476 9.82035E-05-2.94151E-05-2.94807E-05-6.88292E-07 5.40880E-19-1.93088E-18
 -1      1477 9.89313E-05-2.95882E-05-2.97306E-05-1.58419E-06 1.07457E-19-1.02600E-18
 -1      1478 9.77160E-05-2.92764E-05-2.93289E-05-5.50899E-07 3.61097E-20-6.80604E-19
 -1      1479 9.72166E-05-2.91278E-05-2.91803E-05-5.22484E-07 7.69783E-20-1.26798E-18
 -1      1480 9.78461E-05-2.92785E-05-2.93962E-05-1.22150E-06 4.45152E-19-4.30469E-19
 -1      1481 9.68440E-05-2.90218E-05-2.90644E-05-4.09755E-07 5.66980E-19-2.29375E-18
 -1      1482 9.64751E-05-2.89125E-05-2.89546E-05-3.86778E-07 5.14617E-19-1.56281E-18
 -1      1483 9.70059E-05-2.90405E-05-2.91363E-05-9.21083E-07 6.80464E-20-8.47685E-19
 -1      1484 9.61979E-05-2.88333E-05-2.88687E-05-2.93993E-07 7.38465E-19-1.12488E-18
 -1      1485 9.59362E-05-2.87558E-05-2.87909E-05-2.74981E-07 7.66166E-19-4.28151E-19
 -1      1486 9.63704E-05-2.88609E-05-2.89394E-05-6.74362E-07 1.23364E-18-3.89829E-19
 -1      1487 9.57383E-05-2.86987E-05-2.87302E-05-1.96402E-07 3.56149E-19-5.97412E-19
 -1      1488 9.55678E-05-2.86483E-05-2.86796E-05-1.79719E-07 2.12990E-19-3.79153E-19
 -1      1489 9.59046E-05-2.87285E-05-2.87955E-05-4.68883E-07 7.57387E-19 3.87828E-19
 -1      1490 9.54364E-05-2.86097E-05-2.86399E-05-1.10308E-07 6.31758E-19-2.85903E-19
 -1      1491 9.53473E-05-2.85843E-05-2.86128E-05-9.43556E-08 6.21200E-19 1.38905E-18
 -1      1492 9.55803E-05-2.86351E-05-2.86958E-05-2.91591E-07 7.11926E-19 3.67786E-19
 -1      1493 9.52682E-05-2.85591E-05-2.85894E-05-3.24054E-08 8.75694E-19 2.19893E-18
 -1      1494 9.52527E-05-2.85623E-05-2.85792E-05-1.66747E-08 6.04184E-19 2.77928E-18
 -1      1495 9.53728E-05-2.85755E-05-2.86312E-05-1.35495E-07 1.18278E-18 1.04215E-18
 -1      1496 9.52232E-05-2.85749E-05-2.85574E-05 1.87112E-08-1.79063E-18 1.96328E-18
 -1      1497 9.52607E-05-2.85698E-05-2.85816E-05-6.37967E-09-1.27655E-18 3.67327E-19
 -1      1498 9.63959E-05-2.83095E-05-2.97174E-05 2.98812E-06 7.24372E-19 7.70705E-18
 -1      1499 1.02345E-04-2.93419E-05-3.20975E-05 4.45402E-06 6.69950E-19 8.78511E-18
 -1      1500 1.02165E-04-2.66738E-05-3.26555E-05 1.27610E-05 1.22799E-18 5.98641E-18
 -1      1501 9.18684E-05-2.73801E-05-2.77132E-05 1.14350E-06 6.47358E-19 6.25542E-18
 -1      1502 9.38069E-05-2.75333E-05-2.86244E-05 1.46552E-06 5.37787E-19 7.11063E-18
 -1      1503 9.63450E-05-2.79879E-05-2.94910E-05 4.85039E-06 1.12391E-18 4.83543E-18
 -1      1504 9.00610E-05-2.69622E-05-2.70223E-05 3.18780E-07 4.77488E-19 4.93857E-18
 -1      1505 9.06647E-05-2.69765E-05-2.72913E-05 4.82430E-07 4.55346E-19 5.72115E-18
 -1      1506 9.29250E-05-2.75423E-05-2.80643E-05 1.82961E-06 1.01610E-18 3.81330E-18
 -1      1507 8.95835E-05-2.68552E-05-2.68591E-05-7.67542E-08 3.23706E-19 4.09514E-18
 -1      1508 8.96021E-05-2.67871E-05-2.68813E-05 1.40858E-08 2.69858E-19 4.56168E-18
 -1      1509 9.14075E-05-2.72803E-05-2.74921E-05 4.82964E-07 7.29944E-19 2.87577E-18
 -1      1510 8.97795E-05-2.69259E-05-2.69207E-05-2.77954E-07 2.48889E-19 3.40822E-18
 -1      1511 8.95196E-05-2.68084E-05-2.68458E-05-2.24729E-07 2.71261E-19 3.80927E-18
 -1      1512 9.09304E-05-2.72139E-05-2.73134E-05-1.88619E-07 5.70927E-19 2.43293E-18
 -1      1513 9.03329E-05-2.70971E-05-2.70900E-05-3.81781E-07 9.71375E-20 3.05696E-18
 -1      1514 8.99352E-05-2.69537E-05-2.69727E-05-3.49426E-07 1.32638E-19 3.23586E-18
 -1      1515 9.10313E-05-2.72795E-05-2.73289E-05-5.40523E-07 3.70764E-19 1.92873E-18
 -1      1516 9.10803E-05-2.73236E-05-2.73162E-05-4.35623E-07 1.84052E-19 2.91309E-18
 -1      1517 9.06140E-05-2.71680E-05-2.71785E-05-4.14971E-07 6.69996E-20 2.90902E-18
 -1      1518 9.14605E-05-2.74257E-05-2.74498E-05-7.28541E-07 2.01015E-19 1.45215E-18
 -1      1519 9.19392E-05-2.75813E-05-2.75759E-05-4.66737E-07-5.34111E-21 2.54596E-18
 -1      1520 9.14366E-05-2.74198E-05-2.74269E-05-4.51894E-07 1.80349E-19 2.68853E-18
 -1      1521 9.20832E-05-2.76202E-05-2.76326E-05-8.33423E-07 3.18024E-19 1.61414E-18
 -1      1522 9.28754E-05-2.78604E-05-2.78591E-05-4.92805E-07 2.12015E-19 2.40541E-18
 -1      1523 9.23471E-05-2.76939E-05-2.77019E-05-4.79580E-07 6.53615E-20 2.53558E-18
 -1      1524 9.28298E-05-2.78453E-05-2.78558E-05-9.03111E-07 1.78370E-19 1.21472E-18
 -1      1525 9.38868E-05-2.81608E-05-2.81654E-05-5.26151E-07 2.03012E-19 2.22232E-18
 -1      1526 9.33282E-05-2.79862E-05-2.79986E-05-5.11356E-07 2.17046E-19 2.32010E-18
 -1      1527 9.36719E-05-2.80946E-05-2.81100E-05-9.69092E-07 3.45618E-19 1.12303E-18
 -1      1528 9.49933E-05-2.84887E-05-2.85006E-05-5.75572E-07 1.17669E-19 1.71361E-18
 -1      1529 9.43894E-05-2.83001E-05-2.83199E-05-5.56689E-07 1.02781E-19 1.89175E-18
 -1      1530 9.46080E-05-2.83687E-05-2.83944E-05-1.05325E-06 1.59682E-19 1.38761E-18
 -1      1531 9.62300E-05-2.88550E-05-2.88752E-05-6.46974E-07 2.92987E-19 1.66878E-18
 -1      1532 9.55583E-05-2.86446E-05-2.86739E-05-6.22050E-07 1.04992E-19 1.59226E-18
 -1      1533 9.56552E-05-2.86740E-05-2.87136E-05-1.17074E-06 2.11225E-19 1.05918E-18
 -1      1534 9.76406E-05-2.92735E-05-2.93019E-05-7.43147E-07 7.83154E-20 1.18535E-18
 -1      1535 9.68743E-05-2.90322E-05-2.90724E-05-7.10890E-07 1.31689E-19 1.32696E-18
 -1      1536 9.68424E-05-2.90202E-05-2.90756E-05-1.33064E-06 3.93049E-19 7.83665E-19
 -1      1537 9.92694E-05-2.97584E-05-2.97935E-05-8.62655E-07 2.73363E-19 4.58847E-19
 -1      1538 9.83820E-05-2.94775E-05-2.95283E-05-8.22774E-07 3.96249E-19 1.10583E-18
 -1      1539 9.82034E-05-2.94188E-05-2.94899E-05-1.53496E-06 4.87405E-19 3.29839E-19
 -1      1540 1.01151E-04-3.03214E-05-3.03595E-05-9.97651E-07-4.76023E-19 7.64805E-19
 -1      1541 1.00122E-04-2.99943E-05-3.00531E-05-9.51530E-07-9.45401E-20 6.64990E-19
 -1      1542 9.97688E-05-2.98813E-05-2.99643E-05-1.77575E-06-6.00227E-20 8.56341E-19
 -1      1543 1.03292E-04-3.09671E-05-3.10006E-05-1.13041E-06 9.11115E-20 1.07692E-18
 -1      1544 1.02117E-04-3.05924E-05-3.06524E-05-1.08222E-06-2.64026E-19 7.91288E-19
 -1      1545 1.01555E-04-3.04164E-05-3.05016E-05-2.03008E-06-3.38548E-19 1.00614E-18
 -1      1546 1.05651E-04-3.16858E-05-3.17016E-05-1.22860E-06 1.80226E-20 6.11690E-19
 -1      1547 1.04354E-04-3.12724E-05-3.13205E-05-1.18693E-06 1.84742E-19 9.07900E-19
 -1      1548 1.03548E-04-3.10253E-05-3.10942E-05-2.25273E-06 3.20146E-19 6.68388E-19
 -1      1549 1.08100E-04-3.24438E-05-3.24213E-05-1.24032E-06-4.53883E-19 1.23042E-18
 -1      1550 1.06757E-04-3.20174E-05-3.20312E-05-1.22006E-06-1.58659E-19 6.11273E-19
 -1      1551 1.05683E-04-3.16961E-05-3.17177E-05-2.36752E-06 1.24394E-19 8.31277E-19
 -1      1552 1.10392E-04-3.31706E-05-3.30819E-05-1.09195E-06-9.64972E-20 1.43557E-18
 -1      1553 1.09151E-04-3.27817E-05-3.27286E-05-1.11566E-06-1.80782E-19 1.18677E-18
 -1      1554 1.07817E-04-3.23948E-05-3.23233E-05-2.26063E-06-2.88110E-19 3.09696E-19
 -1      1555 1.12126E-04-3.37468E-05-3.35618E-05-6.95918E-07-1.70495E-19 1.38988E-18
 -1      1556 1.11228E-04-3.34778E-05-3.33169E-05-7.92366E-07-1.42308E-20 1.54940E-18
 -1      1557 1.09700E-04-3.30540E-05-3.28318E-05-1.78485E-06 1.96935E-20 7.10905E-19
 -1      1558 1.12758E-04-3.40003E-05-3.37035E-05 1.99515E-08 2.66640E-19 1.34802E-18
 -1      1559 1.12529E-04-3.39637E-05-3.36600E-05-1.76062E-07-6.27367E-20 1.35024E-18
 -1      1560 1.10972E-04-3.35612E-05-3.31356E-05-7.91035E-07-2.03215E-19 5.17795E-19
 -1      1561 1.11695E-04-3.37278E-05-3.33479E-05 1.05026E-06 7.23684E-19-5.65792E-20
 -1      1562 1.12488E-04-3.40454E-05-3.35987E-05 7.48870E-07 7.42160E-19 1.16688E-18
 -1      1563 1.11180E-04-3.37541E-05-3.31162E-05 7.92317E-07 1.06786E-18 1.04352E-18
 -1      1564 1.08532E-04-3.27652E-05-3.24071E-05 2.22443E-06 2.51251E-19-1.02978E-18
 -1      1565 1.10572E-04-3.35138E-05-3.30006E-05 1.86127E-06 3.46198E-19-4.57557E-19
 -1      1566 1.09902E-04-3.34415E-05-3.26844E-05 2.82447E-06 9.65009E-19 2.74505E-19
 -1      1567 1.03415E-04-3.11165E-05-3.09584E-05 3.15022E-06-5.31394E-19-1.71207E-19
 -1      1568 1.06581E-04-3.22441E-05-3.18411E-05 2.83830E-06-2.40174E-19-9.55453E-19
 -1      1569 1.06954E-04-3.24773E-05-3.18410E-05 4.81410E-06-8.96531E-20 2.12407E-19
 -1      1570 9.73666E-05-2.90953E-05-2.93067E-05 3.30403E-06-9.28358E-19 2.34570E-18
 -1      1571 1.01004E-04-3.03513E-05-3.02883E-05 3.19950E-06-7.76447E-19 1.25229E-18
 -1      1572 1.02693E-04-3.09037E-05-3.07304E-05 5.92572E-06-1.68139E-18 1.97557E-18
 -1      1573 9.22199E-05-2.73359E-05-2.79357E-05 2.33723E-06-9.95727E-20 3.00845E-18
 -1      1574 9.52137E-05-2.83046E-05-2.87230E-05 2.54828E-06-1.98861E-19 2.51373E-18
 -1      1575 9.81876E-05-2.90944E-05-2.96397E-05 5.32106E-06-6.96890E-19 2.37447E-18
 -1      1576 8.99134E-05-2.65471E-05-2.73221E-05 4.26510E-07 2.60522E-19 2.18507E-18
 -1      1577 9.11354E-05-2.68310E-05-2.76367E-05 9.12230E-07 8.27710E-20 2.54433E-18
 -1      1578 9.49817E-05-2.77175E-05-2.89119E-05 2.77394E-06 2.13333E-19 1.98088E-18
 -1      1579 9.14201E-05-2.70893E-05-2.76973E-05-1.67143E-06-8.20960E-20 1.39583E-18
 -1      1580 9.03602E-05-2.65563E-05-2.74192E-05-1.11274E-06-1.94513E-19 1.56430E-18
 -1      1581 9.43814E-05-2.74186E-05-2.87994E-05-9.10113E-07 1.70068E-20 1.26465E-18
 -1      1582 9.61082E-05-2.87129E-05-2.89204E-05-3.07145E-06 6.87529E-19 4.96255E-19
 -1      1583 9.32049E-05-2.75937E-05-2.81552E-05-2.67341E-06 7.60887E-19 1.54650E-18
 -1      1584 9.66490E-05-2.83633E-05-2.93417E-05-4.20821E-06 6.85528E-19 7.00483E-19
 -1      1585 1.02159E-04-3.07438E-05-3.05538E-05-3.33912E-06-3.07660E-19-2.06941E-19
 -1      1586 9.85156E-05-2.94737E-05-2.95748E-05-3.21659E-06 3.73993E-19-3.68936E-19
 -1      1587 1.00826E-04-3.00950E-05-3.03465E-05-5.85550E-06 9.26101E-19 9.33801E-19
 -1      1588 1.07624E-04-3.25046E-05-3.20939E-05-2.65084E-06-3.59096E-19 4.27063E-19
 -1      1589 1.04382E-04-3.14716E-05-3.11975E-05-2.76497E-06-4.48279E-19-5.91547E-19
 -1      1590 1.05357E-04-3.18817E-05-3.14860E-05-5.56130E-06-3.94439E-19 6.00533E-19
 -1      1591 1.11278E-04-3.36163E-05-3.31828E-05-1.51389E-06 6.26384E-19-2.34496E-19
 -1      1592 1.09134E-04-3.30090E-05-3.25667E-05-1.74610E-06 3.71053E-19 6.43216E-19
 -1      1593 1.08925E-04-3.31654E-05-3.24455E-05-3.92711E-06 2.74697E-19 7.65202E-19
 -1      1594 1.12809E-04-3.40257E-05-3.36902E-05-3.97336E-07-4.01183E-20-1.39256E-18
 -1      1595 1.11917E-04-3.38420E-05-3.34149E-05-6.38028E-07 5.16088E-19-1.09347E-18
 -1      1596 1.10895E-04-3.37587E-05-3.30312E-05-1.84942E-06 1.12290E-18-4.43640E-19
 -1      1597 1.12540E-04-3.38756E-05-3.36724E-05 4.43184E-07 2.65452E-19-1.83207E-18
 -1      1598 1.12688E-04-3.40097E-05-3.36938E-05 2.54573E-07 2.14306E-20-1.86608E-18
 -1      1599 1.11268E-04-3.37532E-05-3.31977E-05-1.06698E-08 2.31174E-19-9.42154E-19
 -1      1600 1.11052E-04-3.33681E-05-3.32789E-05 9.49246E-07 5.82261E-19-3.37858E-18
 -1      1601 1.11890E-04-3.36914E-05-3.35052E-05 8.28862E-07 7.02114E-19-2.58761E-18
 -1      1602 1.10406E-04-3.33472E-05-3.30091E-05 1.27917E-06 1.20539E-18-1.83357E-18
 -1      1603 1.08914E-04-3.26838E-05-3.26727E-05 1.17260E-06 1.25139E-19-4.05052E-18
 -1      1604 1.10106E-04-3.30895E-05-3.30100E-05 1.11173E-06 9.96289E-20-3.96607E-18
 -1      1605 1.08771E-04-3.27312E-05-3.25787E-05 1.99700E-06 4.70568E-19-2.80114E-18
 -1      1606 1.06563E-04-3.19535E-05-3.19867E-05 1.19989E-06-5.14727E-19-2.87732E-18
 -1      1607 1.07860E-04-3.23690E-05-3.23612E-05 1.18155E-06-7.95414E-19-3.68197E-18
 -1      1608 1.06772E-04-3.20445E-05-3.20208E-05 2.26129E-06-7.93466E-19-1.48441E-18
 -1      1609 1.04285E-04-3.12580E-05-3.13113E-05 1.11151E-06-1.68865E-20-3.06500E-18
 -1      1610 1.05528E-04-3.16415E-05-3.16746E-05 1.11942E-06 1.96521E-19-2.79778E-18
 -1      1611 1.04707E-04-3.13743E-05-3.14265E-05 2.22378E-06-1.29036E-19-2.84731E-18
 -1      1612 1.02238E-04-3.06401E-05-3.06981E-05 9.67270E-07 3.10884E-19-2.24599E-18
 -1      1613 1.03343E-04-3.09721E-05-3.10238E-05 9.89021E-07 6.88562E-20-2.04237E-18
 -1      1614 1.02766E-04-3.07678E-05-3.08564E-05 2.01560E-06 3.62007E-20-1.75256E-18
 -1      1615 1.00488E-04-3.01162E-05-3.01708E-05 8.05965E-07-3.75005E-19-2.46460E-18
 -1      1616 1.01422E-04-3.03912E-05-3.04478E-05 8.33291E-07 2.68068E-19-2.10297E-18
 -1      1617 1.01048E-04-3.02453E-05-3.03450E-05 1.73110E-06 2.73830E-19-1.18916E-18
 -1      1618 9.90463E-05-2.96872E-05-2.97348E-05 6.49917E-07 1.05564E-18-3.29184E-18
 -1      1619 9.98080E-05-2.99077E-05-2.99615E-05 6.77862E-07 2.97515E-19-2.59118E-18
 -1      1620 9.95907E-05-2.98109E-05-2.99073E-05 1.43009E-06 2.34420E-19-9.79881E-19
 -1      1621 9.78939E-05-2.93455E-05-2.93852E-05 5.10052E-07-5.64622E-19-3.09305E-18
 -1      1622 9.84970E-05-2.95177E-05-2.95652E-05 5.36017E-07-3.10749E-19-2.72024E-18
 -1      1623 9.83954E-05-2.94597E-05-2.95458E-05 1.14604E-06-1.36328E-19-5.39738E-19
 -1      1624 9.69964E-05-2.90802E-05-2.91125E-05 3.89947E-07 1.03235E-18-3.31293E-18
 -1      1625 9.74614E-05-2.92111E-05-2.92516E-05 4.12924E-07 7.62914E-19-3.07804E-18
 -1      1626 9.74415E-05-2.91823E-05-2.92559E-05 8.94309E-07 6.98641E-19-1.51962E-18
 -1      1627 9.63172E-05-2.88796E-05-2.89061E-05 2.88639E-07 5.30282E-19-5.39051E-18
 -1      1628 9.66651E-05-2.89762E-05-2.90102E-05 3.08674E-07 9.65314E-19-4.36748E-18
 -1      1629 9.66999E-05-2.89682E-05-2.90299E-05 6.78634E-07 1.77860E-18-1.36703E-18
 -1      1630 9.58235E-05-2.87336E-05-2.87565E-05 2.02585E-07-5.90105E-19-4.87924E-18
 -1      1631 9.60724E-05-2.88013E-05-2.88307E-05 2.20421E-07-8.01009E-20-5.27364E-18
 -1      1632 9.61407E-05-2.88071E-05-2.88594E-05 4.95656E-07-2.11791E-20-1.61943E-18
 -1      1633 9.54905E-05-2.86345E-05-2.86560E-05 1.26541E-07-1.18665E-18-3.39391E-18
 -1      1634 9.56528E-05-2.86769E-05-2.87043E-05 1.43606E-07-6.51096E-19-4.35800E-18
 -1      1635 9.57368E-05-2.86902E-05-2.87368E-05 3.37952E-07-8.29780E-19-9.80685E-21
 -1      1636 9.53005E-05-2.85783E-05-2.85980E-05 5.52429E-08 6.60378E-19-3.53199E-18
 -1      1637 9.53836E-05-2.85963E-05-2.86236E-05 7.36150E-08-1.32668E-19-3.51696E-18
 -1      1638 9.54656E-05-2.86104E-05-2.86551E-05 1.96847E-07-2.65661E-19-7.38978E-19
 -1      1639 9.52357E-05-2.85644E-05-2.85706E-05-3.99938E-09 5.04893E-20-4.06853E-18
 -1      1640 9.52475E-05-2.85593E-05-2.85800E-05 1.22328E-08 1.62917E-19-3.92203E-18
 -1      1641 9.53076E-05-2.85678E-05-2.86049E-05 6.87997E-08 7.72069E-19-1.87529E-18
 -1      1642 9.52269E-05-2.85759E-05-2.85588E-05-1.50891E-08-1.81275E-18-1.87838E-18
 -1      1643 9.52448E-05-2.85337E-05-2.85923E-05 3.88129E-08-5.15692E-19 1.35933E-18
 -1      1644 9.52483E-05-2.85562E-05-2.85804E-05 2.36928E-08-1.83754E-18 7.02034E-19
 -1      1645 9.51949E-05-2.83759E-05-2.86387E-05 1.07602E-07 2.19982E-18 3.47007E-19
 -1      1646 9.52231E-05-2.84624E-05-2.86131E-05 9.40805E-08 5.64352E-20 1.72560E-18
 -1      1647 9.52340E-05-2.84394E-05-2.86290E-05 1.36022E-07 1.36785E-18 1.89477E-18
 -1      1648 9.51144E-05-2.81339E-05-2.87071E-05 1.57854E-07 2.22495E-18-4.12836E-19
 -1      1649 9.51599E-05-2.82702E-05-2.86683E-05 1.49719E-07 2.88585E-18 4.17821E-20
 -1      1650 9.51695E-05-2.82586E-05-2.86792E-05 2.53340E-07 1.88790E-18 1.36916E-18
 -1      1651 9.50198E-05-2.78484E-05-2.87882E-05 1.77481E-07 3.71238E-18-3.30773E-19
 -1      1652 9.50725E-05-2.80073E-05-2.87430E-05 1.76115E-07 2.67038E-18 7.41192E-19
 -1      1653 9.50845E-05-2.80225E-05-2.87421E-05 3.25452E-07 1.32498E-18-5.42534E-19
 -1      1654 9.49295E-05-2.75736E-05-2.88669E-05 1.65462E-07 1.21176E-18-1.15717E-18
 -1      1655 9.49787E-05-2.77228E-05-2.88242E-05 1.70194E-07 3.27878E-18-2.16506E-18
 -1      1656 9.49925E-05-2.77672E-05-2.88100E-05 3.37547E-07 1.31730E-18-1.63381E-18
 -1      1657 9.48550E-05-2.73460E-05-2.89323E-05 1.25229E-07 6.40726E-19-7.00543E-20
 -1      1658 9.48939E-05-2.74641E-05-2.88984E-05 1.35145E-07 7.34541E-19-3.12216E-19
 -1      1659 9.49082E-05-2.75303E-05-2.88736E-05 2.91523E-07 4.80200E-19-1.89190E-18
 -1      1660 9.48101E-05-2.72082E-05-2.89720E-05 6.43823E-08 2.18816E-18 5.02965E-19
 -1      1661 9.48313E-05-2.72726E-05-2.89535E-05 7.76043E-08 6.24809E-19 2.02992E-18
 -1      1662 9.48431E-05-2.73464E-05-2.89231E-05 1.96623E-07 3.95820E-19 7.55011E-19
 -1      1663 9.48016E-05-2.71820E-05-2.89796E-05-6.96408E-09 9.05283E-19-1.67848E-19
 -1      1664 9.48016E-05-2.71821E-05-2.89796E-05 7.45205E-09 1.86287E-18 7.22096E-20
 -1      1665 9.48077E-05-2.72463E-05-2.89502E-05 6.96670E-08 2.61407E-19-1.21227E-19
 -1      1666 9.48309E-05-2.72718E-05-2.89537E-05-7.74662E-08 1.01435E-18 1.46168E-18
 -1      1667 9.48097E-05-2.72073E-05-2.89722E-05-6.41270E-08 3.04911E-19 5.42432E-19
 -1      1668 9.48073E-05-2.72454E-05-2.89503E-05-6.88158E-08 1.32702E-18-4.08020E-19
 -1      1669 9.48935E-05-2.74636E-05-2.88985E-05-1.35710E-07-2.43964E-19-1.22818E-18
 -1      1670 9.48545E-05-2.73449E-05-2.89325E-05-1.25668E-07 1.05653E-18 8.02655E-21
 -1      1671 9.48421E-05-2.73441E-05-2.89236E-05-1.96789E-07-2.37430E-19 7.01610E-19
 -1      1672 9.49781E-05-2.77213E-05-2.88246E-05-1.71112E-07-9.42860E-19 3.49137E-19
 -1      1673 9.49285E-05-2.75710E-05-2.88675E-05-1.66273E-07 6.93223E-19-2.19992E-18
 -1      1674 9.49067E-05-2.75260E-05-2.88747E-05-2.92598E-07-7.26481E-19-2.24614E-18
 -1      1675 9.50735E-05-2.80099E-05-2.87422E-05-1.77369E-07 2.49492E-19 2.79287E-19
 -1      1676 9.50203E-05-2.78499E-05-2.87877E-05-1.78794E-07-6.51125E-19 2.58328E-18
 -1      1677 9.49914E-05-2.77638E-05-2.88110E-05-3.39710E-07-6.04673E-20 1.68658E-18
 -1      1678 9.51612E-05-2.82745E-05-2.86672E-05-1.50390E-07 3.70843E-19-9.94596E-19
 -1      1679 9.51157E-05-2.81374E-05-2.87061E-05-1.58555E-07 8.75858E-19 2.11936E-20
 -1      1680 9.50850E-05-2.80230E-05-2.87421E-05-3.27439E-07 6.93647E-19 3.56468E-20
 -1      1681 9.52264E-05-2.84655E-05-2.86124E-05-9.47111E-08-1.95661E-18-8.38625E-19
 -1      1682 9.51954E-05-2.83792E-05-2.86377E-05-1.09090E-07 5.03401E-20-1.36511E-18
 -1      1683 9.51692E-05-2.82589E-05-2.86790E-05-2.53435E-07 1.55081E-19-1.57368E-18
 -1      1684 9.52541E-05-2.85378E-05-2.85904E-05-4.62437E-08-1.43007E-18 2.94664E-20
 -1      1685 9.52486E-05-2.85118E-05-2.86033E-05-6.77199E-08-1.59398E-18-7.23287E-21
 -1      1686 9.52434E-05-2.84141E-05-2.86418E-05-1.71984E-07-8.49867E-20-1.35486E-18
 -1      1687 9.52926E-05-2.85077E-05-2.86201E-05-1.03449E-07 5.81291E-21 3.21613E-19
 -1      1688 1.93768E-05-6.04228E-05 1.24456E-05-3.13926E-06 4.66038E-18 1.63329E-18
 -1      1689 2.23048E-05-7.02673E-05 1.47889E-05 3.14300E-06 2.56100E-18 2.19149E-18
 -1      1690 1.85961E-05-3.68924E-05 3.58010E-06 2.51059E-06 6.45185E-18 3.40211E-18
 -1      1691 2.33785E-05-5.88238E-05 9.30406E-06-5.30783E-07 4.69172E-18 2.54576E-18
 -1      1692 3.94439E-05-1.23641E-05-1.31796E-05 3.19661E-05 5.76575E-18 3.82986E-18
 -1      1693 3.19724E-05-3.24714E-05-3.95175E-06 1.32198E-05 6.04273E-18 2.68467E-18
 -1      1694 8.04736E-05-2.59672E-06-3.22607E-05 6.15120E-05 4.80183E-18 4.02002E-18
 -1      1695 5.46932E-05-7.10850E-06-2.23382E-05 3.92744E-05 5.53367E-18 4.14538E-18
 -1      1696 1.40832E-04-1.60259E-05-4.99650E-05 7.76019E-05 3.53636E-18 8.71597E-19
 -1      1697 1.01544E-04-3.78027E-06-4.12483E-05 6.65678E-05 5.06441E-18 3.31952E-18
 -1      1698 2.04564E-04-4.23406E-05-6.42524E-05 6.42426E-05 3.83388E-19 1.78555E-18
 -1      1699 1.63743E-04-2.26654E-05-5.73573E-05 7.30404E-05 1.92827E-18 1.90159E-18
 -1      1700 2.46032E-04-6.11217E-05-7.29248E-05 2.18482E-05 3.95988E-20 2.17730E-18
 -1      1701 2.20834E-04-4.73519E-05-6.92803E-05 5.16421E-05 1.56701E-20 1.86855E-18
 -1      1702 2.46792E-04-6.05622E-05-7.35180E-05-3.02943E-05 1.32497E-18-3.16367E-19
 -1      1703 2.54210E-04-6.48954E-05-7.45823E-05 5.45889E-06 8.74562E-19 1.77586E-18
 -1      1704 2.01752E-04-3.84759E-05-6.54591E-05-6.42398E-05 4.18196E-18-4.87891E-18
 -1      1705 2.34108E-04-5.56655E-05-7.03108E-05-4.36738E-05 2.91866E-18-9.32583E-19
 -1      1706 1.38393E-04-1.37484E-05-5.12291E-05-7.28135E-05 6.22019E-18-7.71139E-18
 -1      1707 1.81826E-04-3.25098E-05-5.92904E-05-7.24672E-05 4.03230E-18-5.89281E-18
 -1      1708 7.88127E-05-1.45428E-06-3.36195E-05-5.67933E-05 9.28179E-18-9.15643E-18
 -1      1709 1.13804E-04-7.81879E-06-4.29192E-05-7.39304E-05 7.92992E-18-8.41866E-18
 -1      1710 4.12962E-05-1.16295E-05-1.56831E-05-2.86903E-05 8.93112E-18-8.12559E-18
 -1      1711 5.87798E-05-1.22778E-06-2.47551E-05-5.02595E-05 9.65956E-18-9.91283E-18
 -1      1712 2.53582E-05-3.92259E-05 7.46634E-07-4.83778E-06 6.09864E-18-4.38467E-18
 -1      1713 2.71729E-05-1.63683E-05-7.33357E-06-1.95675E-05 8.16286E-18-7.05240E-18
 -1      1714 2.37921E-05-6.66005E-05 1.19960E-05 1.46988E-06 1.44800E-18-2.83883E-18
 -1      1715 1.83705E-05-4.61726E-05 7.03769E-06 1.92317E-06 4.95091E-18-3.57019E-18
 -1      1716 2.22773E-05-7.29848E-05 1.55675E-05-3.88121E-06-5.01176E-18-3.24096E-18
 -1      1717 2.07480E-05-6.82837E-05 1.44868E-05 4.78354E-06-1.31290E-19-3.19840E-18
 -1      1718 1.91287E-05-5.97023E-05 1.18823E-05-5.77203E-06-9.34489E-18-3.60222E-18
 -1      1719 2.34167E-05-7.28811E-05 1.48402E-05 2.42991E-07-6.73709E-18-2.13728E-18
 -1      1720 2.20395E-05-3.05785E-05 6.78418E-08 9.15904E-06-1.01237E-17-4.86642E-18
 -1      1721 2.48289E-05-5.42947E-05 7.00105E-06 1.34087E-06-9.97635E-18-3.80000E-18
 -1      1722 4.84053E-05-9.60393E-06-1.76171E-05 3.86700E-05-8.34836E-18-4.65106E-18
 -1      1723 3.66854E-05-2.68144E-05-8.03305E-06 1.79921E-05-9.89165E-18-5.09067E-18
 -1      1724 9.42332E-05-3.85666E-06-3.70352E-05 6.76213E-05-5.84453E-18-4.92211E-18
 -1      1725 6.31125E-05-3.64848E-06-2.69778E-05 4.60425E-05-7.98244E-18-5.68529E-18
 -1      1726 1.59620E-04-2.37655E-05-5.43488E-05 7.65708E-05-2.85662E-18-4.43676E-18
 -1      1727 1.17824E-04-7.69320E-06-4.58934E-05 7.06709E-05-4.66715E-18-4.87637E-18
 -1      1728 2.22032E-04-5.05641E-05-6.79712E-05 4.80302E-05-1.53440E-18-4.50791E-18
 -1      1729 1.81392E-04-3.04341E-05-6.12178E-05 6.45753E-05-2.02960E-18-4.74508E-18
 -1      1730 2.54506E-04-6.45366E-05-7.47258E-05 5.61627E-06-1.01665E-18-3.56548E-18
 -1      1731 2.39014E-04-5.59914E-05-7.27061E-05 3.84249E-05-1.32857E-18-4.15343E-18
 -1      1732 2.41337E-04-5.72162E-05-7.28284E-05-4.03648E-05-1.30994E-18-6.13252E-19
 -1      1733 2.56112E-04-6.55528E-05-7.48509E-05-9.40990E-06-1.00585E-18-2.70225E-18
 -1      1734 1.91754E-04-3.44050E-05-6.33610E-05-6.55812E-05-1.99857E-18 1.77369E-18
 -1      1735 2.26051E-04-5.19078E-05-6.87983E-05-4.94599E-05-1.70063E-18-4.62480E-19
 -1      1736 1.32523E-04-1.18521E-05-4.97409E-05-7.32639E-05-3.82986E-18 4.70019E-18
 -1      1737 1.72843E-04-2.86068E-05-5.73968E-05-7.53310E-05-2.40939E-18 3.79471E-18
 -1      1738 7.81885E-05-2.76252E-06-3.29494E-05-5.51461E-05-5.28294E-18 5.61583E-18
 -1      1739 1.10701E-04-7.76749E-06-4.18091E-05-7.20437E-05-4.75694E-18 5.42101E-18
 -1      1740 4.33299E-05-1.45601E-05-1.53682E-05-2.79888E-05-5.10422E-18 4.21738E-18
 -1      1741 6.04931E-05-4.14387E-06-2.43578E-05-4.89367E-05-5.33970E-18 5.30073E-18
 -1      1742 2.60231E-05-3.75550E-05-8.96026E-08-5.84069E-06-3.02306E-18 2.86297E-18
 -1      1743 2.80658E-05-1.71566E-05-7.42172E-06-1.93516E-05-4.79336E-18 4.14792E-18
 -1      1744 2.38410E-05-6.30681E-05 1.06962E-05 1.43766E-06-1.31671E-18 1.86591E-18
 -1      1745 1.94090E-05-4.34998E-05 5.70058E-06-2.19866E-07-2.99087E-18 2.51029E-18
 -1      1746 2.31420E-05-7.52849E-05 1.58837E-05-1.90951E-06 1.43583E-18 1.74870E-18
 -1      1747 2.05324E-05-6.77890E-05 1.41584E-05 6.82748E-06-1.15069E-18 1.42598E-18
 -1      1748 1.16503E-04-3.02021E-05-3.59634E-05 4.57856E-05 3.11454E-18-1.69407E-19
 -1      1749 7.73316E-05-3.64098E-05-1.86832E-05 4.04112E-05 2.49112E-18 1.58141E-18
 -1      1750 9.52508E-05-2.85778E-05-2.85726E-05-8.26901E-09-2.38868E-18-5.34541E-19
 -1      1751 9.52593E-05-2.85299E-05-2.85977E-05 3.93155E-08 5.12488E-20 6.20128E-19
 -1      1752 1.87723E-05-4.45403E-05 7.20142E-06 1.57015E-05 2.78504E-18 2.70521E-18
 -1      1753 4.19329E-05-4.06817E-05-3.10419E-06 3.03595E-05 2.32426E-18 1.31708E-18
 -1      1754 1.09979E-05-4.65273E-05 1.10965E-05 2.63170E-06 8.01081E-19 3.70662E-18
 -1      1755 1.57831E-04-3.00719E-05-5.16081E-05 4.28635E-05 2.76112E-18 2.69356E-19
 -1      1756 1.90247E-04-3.18703E-05-6.34188E-05 2.66223E-05 1.82536E-19 1.44038E-18
 -1      1757 2.08884E-04-3.37122E-05-6.97408E-05 5.49340E-06 5.48030E-19 5.30454E-19
 -1      1758 2.06004E-04-3.46099E-05-6.82460E-05-1.65862E-05 3.48554E-18 2.25734E-19
 -1      1759 1.79406E-04-3.17119E-05-5.93430E-05-3.41933E-05 4.04464E-18-1.04524E-18
 -1      1760 1.41568E-04-2.96338E-05-4.56395E-05-4.54333E-05 4.99199E-18-2.80368E-18
 -1      1761 9.83591E-05-2.95478E-05-2.92344E-05-4.51992E-05 5.30666E-18-5.18045E-18
 -1      1762 6.02640E-05-3.44891E-05-1.28230E-05-3.61982E-05 4.12929E-18-6.66869E-18
 -1      1763 3.16623E-05-4.26450E-05 1.14787E-06-2.33578E-05 2.19466E-18-4.72631E-18
 -1      1764 1.53857E-05-4.77438E-05 9.54009E-06-1.03687E-05-2.68086E-19-4.88230E-18
 -1      1765 1.16758E-05-4.78664E-05 1.11529E-05 2.96820E-06-3.10448E-18-4.65741E-18
 -1      1766 2.29622E-05-4.53383E-05 5.81332E-06 1.83764E-05-5.41296E-18-3.75426E-18
 -1      1767 5.08229E-05-4.08984E-05-6.51008E-06 3.32387E-05-6.19012E-18-2.89802E-18
 -1      1768 8.67997E-05-3.54528E-05-2.28292E-05 4.13682E-05-6.00800E-18-2.59023E-18
 -1      1769 1.27837E-04-2.99962E-05-4.03185E-05 4.66246E-05-4.82385E-18-2.94429E-18
 -1      1770 1.69239E-04-3.18432E-05-5.53971E-05 3.51265E-05-2.73687E-18-4.26142E-18
 -1      1771 1.96686E-04-3.18405E-05-6.61159E-05 1.65515E-05-1.44356E-18-4.17079E-18
 -1      1772 2.13896E-04-3.56657E-05-7.07951E-05-7.70602E-07-2.05787E-18-3.60487E-18
 -1      1773 2.01813E-04-3.41761E-05-6.70253E-05-1.94312E-05-2.34967E-18-2.48816E-18
 -1      1774 1.75388E-04-3.20423E-05-5.76654E-05-3.57529E-05-2.09148E-18-1.06133E-18
 -1      1775 1.39044E-04-3.05182E-05-4.44291E-05-4.59197E-05-3.26277E-18 1.69407E-18
 -1      1776 9.94270E-05-3.24988E-05-2.86582E-05-4.37388E-05-2.91379E-18 2.96800E-18
 -1      1777 6.27023E-05-3.63531E-05-1.30312E-05-3.62982E-05-1.68898E-18 2.40939E-18
 -1      1778 3.41103E-05-4.22456E-05 9.86989E-08-2.44187E-05-6.85250E-19 3.08918E-18
 -1      1779 1.73441E-05-4.81301E-05 8.85115E-06-1.24341E-05-6.88214E-19 2.57731E-18
 -1      1780 1.05880E-04-2.31293E-05-3.55486E-05-1.68277E-05-1.18706E-18 3.45039E-18
 -1      1781 8.91318E-05-1.05563E-05-3.37986E-05-1.32934E-05-1.28385E-18-2.16449E-18
 -1      1782 9.04373E-05-1.16233E-05-3.39289E-05-1.50678E-05-1.51841E-18-1.72689E-18
 -1      1783 9.24470E-05-1.38661E-05-3.38370E-05-1.59622E-05-1.58094E-18-1.14680E-18
 -1      1784 9.41292E-05-1.58104E-05-3.40690E-05-1.76241E-05-1.75982E-18-4.02235E-19
 -1      1785 9.34112E-05-1.63544E-05-3.30350E-05-1.37016E-05-1.60960E-18-1.28675E-18
 -1      1786 8.62636E-05-7.65485E-06-3.37611E-05-7.81727E-06-5.48641E-19-2.79242E-18
 -1      1787 8.66572E-05-7.95646E-06-3.37894E-05-9.20384E-06-7.23260E-19-2.75582E-18
 -1      1788 8.56560E-05-7.00740E-06-3.37661E-05-5.28301E-06-2.32228E-19-2.90428E-18
 -1      1789 8.58862E-05-7.18949E-06-3.37777E-05-6.58251E-06-3.88710E-19-2.88118E-18
 -1      1790 8.76420E-05-9.83207E-06-3.33796E-05-6.87585E-06-4.78610E-19-2.73835E-18
 -1      1791 8.53242E-05-6.63999E-06-3.37742E-05-2.86579E-06 8.88520E-20-2.74731E-18
 -1      1792 8.54435E-05-6.73725E-06-3.37781E-05-4.09817E-06-5.97870E-20-2.84610E-18
 -1      1793 8.70119E-05-9.10660E-06-3.34200E-05-4.49707E-06-1.93315E-19-2.76587E-18
 -1      1794 8.51939E-05-6.48737E-06-3.37797E-05-5.12382E-07 4.35764E-19-2.60958E-18
 -1      1795 8.52292E-05-6.51686E-06-3.37805E-05-1.71344E-06 3.04243E-19-2.68523E-18
 -1      1796 8.66805E-05-8.71782E-06-3.34443E-05-2.19546E-06 1.90897E-19-2.58925E-18
 -1      1797 8.52387E-05-6.52576E-06-3.37805E-05 1.83146E-06 7.71276E-19-2.45530E-18
 -1      1798 8.51974E-05-6.49192E-06-3.37795E-05 6.29416E-07 6.10133E-19-2.55210E-18
 -1      1799 8.65820E-05-8.60074E-06-3.34522E-05 6.53151E-08 5.54372E-19-2.48467E-18
 -1      1800 8.54678E-05-6.76206E-06-3.37779E-05 4.22059E-06 1.01076E-18-2.35209E-18
 -1      1801 8.53414E-05-6.65880E-06-3.37739E-05 2.98515E-06 9.13197E-19-2.43666E-18
 -1      1802 8.66976E-05-8.73737E-06-3.34433E-05 2.32730E-06 8.91534E-19-2.32577E-18
 -1      1803 8.59194E-05-7.22478E-06-3.37769E-05 6.66958E-06 1.33785E-18-2.03844E-18
 -1      1804 8.56852E-05-7.03910E-06-3.37656E-05 5.38758E-06 1.17720E-18-2.23376E-18
 -1      1805 8.70450E-05-9.14403E-06-3.34181E-05 4.61199E-06 1.18060E-18-2.19270E-18
 -1      1806 8.67201E-05-8.02530E-06-3.37876E-05 9.32462E-06 1.68750E-18-1.58088E-18
 -1      1807 8.63074E-05-7.70528E-06-3.37593E-05 7.90654E-06 1.46684E-18-1.81262E-18
 -1      1808 8.76927E-05-9.89013E-06-3.33762E-05 6.97427E-06 1.48859E-18-1.81068E-18
 -1      1809 8.81081E-05-9.38123E-06-3.38289E-05 1.22030E-05 1.93718E-18-9.09766E-19
 -1      1810 8.73826E-05-8.82136E-06-3.37643E-05 1.06104E-05 1.78254E-18-1.33054E-18
 -1      1811 8.88013E-05-1.11388E-05-3.33144E-05 9.44286E-06 1.83322E-18-1.32808E-18
 -1      1812 9.06112E-05-1.18350E-05-3.39207E-05 1.52556E-05 2.12079E-18 2.31584E-19
 -1      1813 8.92539E-05-1.07367E-05-3.37906E-05 1.34647E-05 1.99731E-18-4.49669E-19
 -1      1814 9.06722E-05-1.32106E-05-3.32164E-05 1.19167E-05 2.07602E-18-5.39573E-19
 -1      1815 9.57931E-05-1.70179E-05-3.39642E-05 1.76510E-05 1.96794E-18 2.31356E-18
 -1      1816 9.28078E-05-1.43338E-05-3.38096E-05 1.61523E-05 1.99951E-18 1.04995E-18
 -1      1817 9.39347E-05-1.68743E-05-3.30146E-05 1.38446E-05 2.13249E-18 6.56371E-19
 -1      1818 1.01786E-04-2.50571E-05-3.33152E-05 1.43944E-05 1.51195E-18 4.68515E-18
 -1      1819 9.79699E-05-1.95931E-05-3.35896E-05 1.69299E-05 1.75449E-18 3.16764E-18
 -1      1820 9.72444E-05-2.18311E-05-3.24009E-05 1.32100E-05 2.01918E-18 2.24030E-18
 -1      1821 9.86220E-05-2.60980E-05-3.13022E-05 9.41013E-06 1.54120E-18 4.17100E-18
 -1      1822 1.00029E-04-1.95372E-05-3.41752E-05-1.88373E-05-1.56559E-18 1.01919E-18
 -1      1823 9.52013E-05-2.72500E-05-2.91531E-05 4.03869E-06 1.39306E-18 3.24705E-18
 -1      1824 9.76207E-05-2.73534E-05-3.01584E-05 6.37402E-06 1.33426E-18 3.75799E-18
 -1      1825 9.74782E-05-2.55849E-05-3.08036E-05 8.72565E-06 1.66471E-18 2.69152E-18
 -1      1826 9.97100E-05-2.25151E-05-3.28025E-05-1.44347E-05-1.66842E-18 4.42098E-19
 -1      1827 9.68652E-05-2.69454E-05-2.98504E-05-5.66808E-06-1.29437E-18 2.64189E-19
 -1      1828 9.50715E-05-2.70031E-05-2.91443E-05-3.85609E-06-1.06342E-18-2.73962E-20
 -1      1829 9.42677E-05-2.72063E-05-2.86432E-05-2.36943E-06-9.37626E-19 6.67303E-20
 -1      1830 9.35149E-05-2.72889E-05-2.83446E-05-1.50590E-06-7.41485E-19-2.03291E-19
 -1      1831 9.54619E-05-2.65196E-05-2.95681E-05-4.40728E-06-1.12700E-18-4.60187E-19
 -1      1832 9.30119E-05-2.73422E-05-2.80847E-05-6.60489E-07-5.81647E-19-2.05541E-19
 -1      1833 9.27393E-05-2.74100E-05-2.79722E-05-2.05258E-07-4.34922E-19-4.08578E-19
 -1      1834 9.42877E-05-2.71948E-05-2.87754E-05-1.73044E-06-8.62352E-19-4.70394E-19
 -1      1835 9.24957E-05-2.74422E-05-2.78486E-05 2.78400E-07-3.73393E-19-5.45076E-19
 -1      1836 9.25078E-05-2.75258E-05-2.78327E-05 5.27828E-07-4.53166E-19-6.43612E-19
 -1      1837 9.36384E-05-2.75029E-05-2.83613E-05-2.10758E-07-6.12883E-19-6.94329E-19
 -1      1838 9.24505E-05-2.75647E-05-2.77921E-05 8.08488E-07-6.25519E-19-5.96677E-19
 -1      1839 9.26297E-05-2.76620E-05-2.78317E-05 9.48747E-07-5.70160E-19-7.98516E-19
 -1      1840 9.33927E-05-2.76930E-05-2.81707E-05 6.70098E-07-5.96127E-19-9.28650E-19
 -1      1841 9.27001E-05-2.77112E-05-2.78444E-05 1.11693E-06-4.32228E-19-6.11726E-19
 -1      1842 9.29812E-05-2.78169E-05-2.79184E-05 1.20101E-06-2.82694E-19-5.99618E-19
 -1      1843 9.34366E-05-2.78458E-05-2.81205E-05 1.19219E-06-4.58516E-19-6.56894E-19
 -1      1844 9.31402E-05-2.78750E-05-2.79669E-05 1.31213E-06-4.28299E-19-5.49598E-19
 -1      1845 9.34891E-05-2.79863E-05-2.80644E-05 1.37288E-06-4.59714E-19-5.27123E-19
 -1      1846 9.36823E-05-2.79861E-05-2.81630E-05 1.51972E-06-4.08929E-19-6.40034E-19
 -1      1847 9.37137E-05-2.80516E-05-2.81391E-05 1.46368E-06-5.73531E-19-5.78698E-19
 -1      1848 9.41165E-05-2.81684E-05-2.82550E-05 1.52355E-06-2.45957E-19-7.12385E-19
 -1      1849 9.40727E-05-2.81220E-05-2.82704E-05 1.75686E-06-4.88121E-19-5.43561E-19
 -1      1850 9.43958E-05-2.82409E-05-2.83511E-05 1.62003E-06-2.60088E-19-1.02628E-18
 -1      1851 9.48526E-05-2.83659E-05-2.84849E-05 1.69542E-06-3.61061E-19-1.29486E-18
 -1      1852 9.45771E-05-2.82582E-05-2.84274E-05 1.97465E-06-5.93470E-19-8.86309E-19
 -1      1853 9.51848E-05-2.84471E-05-2.86010E-05 1.81679E-06-4.90702E-19-1.57309E-18
 -1      1854 9.57055E-05-2.85852E-05-2.87548E-05 1.92005E-06-5.08026E-19-1.75493E-18
 -1      1855 9.51844E-05-2.83999E-05-2.86268E-05 2.22431E-06-6.69204E-19-1.31631E-18
 -1      1856 9.60954E-05-2.86784E-05-2.88918E-05 2.08045E-06-5.03231E-19-1.53205E-18
 -1      1857 9.66971E-05-2.88368E-05-2.90700E-05 2.22052E-06-2.01544E-19-1.62571E-18
 -1      1858 9.58991E-05-2.85548E-05-2.88671E-05 2.54351E-06-4.00855E-19-1.32244E-18
 -1      1859 9.71541E-05-2.89468E-05-2.92300E-05 2.42924E-06 7.79287E-21-1.79573E-18
 -1      1860 9.78584E-05-2.91347E-05-2.94380E-05 2.61107E-06-3.71379E-20-1.64492E-18
 -1      1861 9.67366E-05-2.87339E-05-2.91499E-05 2.95865E-06-1.40902E-19-1.05681E-18
 -1      1862 9.83950E-05-2.92683E-05-2.96235E-05 2.87127E-06-2.34261E-19-1.71721E-18
 -1      1863 9.92243E-05-2.94967E-05-2.98668E-05 3.09390E-06-2.07488E-19-1.45827E-18
 -1      1864 9.77204E-05-2.89527E-05-2.94785E-05 3.48379E-06-2.26912E-20-1.03284E-18
 -1      1865 9.98545E-05-2.96635E-05-3.00793E-05 3.39938E-06 3.93407E-21-1.62316E-18
 -1      1866 1.00828E-04-2.99454E-05-3.03615E-05 3.65206E-06 4.42181E-19-1.44645E-18
 -1      1867 9.88788E-05-2.92332E-05-2.98556E-05 4.11577E-06-1.57278E-19-1.09996E-18
 -1      1868 1.01565E-04-3.01589E-05-3.06003E-05 3.98152E-06 4.65479E-20-1.46352E-18
 -1      1869 1.02691E-04-3.05086E-05-3.09211E-05 4.23723E-06-7.98204E-20-1.59726E-18
 -1      1870 1.00242E-04-2.96076E-05-3.02803E-05 4.82470E-06 3.61925E-20-1.55446E-18
 -1      1871 1.03548E-04-3.07876E-05-3.11811E-05 4.54539E-06-1.06603E-19-2.00625E-18
 -1      1872 1.04812E-04-3.12194E-05-3.15323E-05 4.75149E-06-2.89268E-19-2.29918E-18
 -1      1873 1.01841E-04-3.01225E-05-3.07457E-05 5.53827E-06-2.82292E-19-1.96796E-18
 -1      1874 1.05797E-04-3.15890E-05-3.18025E-05 4.95704E-06-2.16071E-19-1.96010E-18
 -1      1875 1.07148E-04-3.21126E-05-3.21640E-05 5.02433E-06-3.77231E-19-1.72759E-18
 -1      1876 1.03702E-04-3.08428E-05-3.12351E-05 6.11959E-06-1.63399E-19-1.67539E-18
 -1      1877 1.08263E-04-3.26019E-05-3.24258E-05 4.99771E-06-6.29153E-19-1.36274E-18
 -1      1878 1.09592E-04-3.32109E-05-3.27615E-05 4.79376E-06-2.31425E-19-1.67745E-18
 -1      1879 1.05839E-04-3.18494E-05-3.17205E-05 6.34144E-06-2.54612E-19-9.02484E-19
 -1      1880 1.10816E-04-3.38389E-05-3.29905E-05 4.35400E-06-4.20836E-20-1.82716E-18
 -1      1881 1.11938E-04-3.44864E-05-3.32470E-05 3.71522E-06 3.01037E-19-1.82189E-18
 -1      1882 1.08242E-04-3.32151E-05-3.21645E-05 5.86918E-06-3.30278E-19-8.26388E-19
 -1      1883 1.13201E-04-3.52257E-05-3.34190E-05 2.65928E-06 7.29540E-19-1.52985E-18
 -1      1884 1.13845E-04-3.57849E-05-3.35337E-05 1.44874E-06 6.84111E-19-1.27526E-18
 -1      1885 1.10821E-04-3.49324E-05-3.25306E-05 4.28458E-06 6.05549E-19-5.68425E-19
 -1      1886 1.14975E-04-3.64979E-05-3.36371E-05-3.51112E-07 5.85962E-19-8.54072E-19
 -1      1887 1.14817E-04-3.67192E-05-3.35599E-05-2.11520E-06 9.90466E-19-6.50225E-19
 -1      1888 1.13326E-04-3.67742E-05-3.28039E-05 1.21459E-06 8.04072E-19 2.13269E-19
 -1      1889 1.15476E-04-3.70857E-05-3.36119E-05-4.50769E-06 1.20119E-18-6.22113E-19
 -1      1890 1.14261E-04-3.66170E-05-3.33394E-05-6.45980E-06 1.32424E-18-1.57184E-19
 -1      1891 1.15212E-04-3.81031E-05-3.30201E-05-3.36271E-06 1.19762E-18 6.11378E-19
 -1      1892 1.13999E-04-3.61825E-05-3.33879E-05-8.74877E-06 1.43181E-18-1.41613E-21
 -1      1893 1.11766E-04-3.47773E-05-3.29924E-05-1.00609E-05 1.19574E-18 3.01094E-19
 -1      1894 1.15618E-04-3.78588E-05-3.32739E-05-8.60110E-06 1.47408E-18 2.51463E-20
 -1      1895 1.10368E-04-3.33082E-05-3.30876E-05-1.09678E-05 8.74317E-19 1.74277E-19
 -1      1896 1.07721E-04-3.12488E-05-3.27031E-05-1.06174E-05 4.98406E-19 5.77213E-19
 -1      1897 1.13781E-04-3.51028E-05-3.36685E-05-1.23699E-05 1.38173E-18 2.80638E-19
 -1      1898 1.05796E-04-2.93220E-05-3.28293E-05-8.97542E-06-1.96088E-19 3.78200E-19
 -1      1899 1.03854E-04-2.76367E-05-3.25837E-05-6.56858E-06-5.07571E-19 3.27491E-19
 -1      1900 1.10094E-04-3.03808E-05-3.41867E-05-1.18064E-05 1.43301E-19 5.72467E-20
 -1      1901 1.02780E-04-2.65735E-05-3.26506E-05-2.63613E-06-8.57012E-19 7.33014E-20
 -1      1902 1.02558E-04-2.63684E-05-3.26246E-05 8.83610E-07-1.27692E-18-4.58242E-19
 -1      1903 1.06751E-04-2.62806E-05-3.45950E-05-5.61325E-06-8.23382E-19-2.95603E-19
 -1      1904 1.03271E-04-2.70724E-05-3.25805E-05 5.11198E-06-1.27557E-18-1.33397E-18
 -1      1905 1.04904E-04-2.85137E-05-3.27816E-05 7.89564E-06-1.23669E-18-1.48789E-18
 -1      1906 1.06343E-04-2.57944E-05-3.46438E-05 3.66604E-06-2.03064E-18-1.89926E-18
 -1      1907 1.06769E-04-3.03744E-05-3.26612E-05 1.01327E-05-1.06624E-18-1.48436E-18
 -1      1908 1.09370E-04-3.24581E-05-3.30266E-05 1.09459E-05-1.47142E-18-1.78674E-18
 -1      1909 1.09226E-04-2.93035E-05-3.42973E-05 1.09026E-05-1.38413E-18-2.09272E-18
 -1      1910 1.10973E-04-3.41105E-05-3.29224E-05 1.05337E-05-1.83439E-18-1.59112E-18
 -1      1911 1.13374E-04-3.57107E-05-3.33294E-05 9.51250E-06-1.23191E-18-1.68345E-18
 -1      1912 1.13083E-04-3.41682E-05-3.37828E-05 1.27161E-05-1.35719E-18-1.87887E-18
 -1      1913 1.13896E-04-3.63759E-05-3.32746E-05 7.41189E-06-9.20824E-19-1.38186E-18
 -1      1914 1.15362E-04-3.70442E-05-3.35847E-05 5.52017E-06-6.72637E-19-1.33171E-18
 -1      1915 1.15431E-04-3.74716E-05-3.33554E-05 9.68305E-06-7.48274E-19-6.31182E-19
 -1      1916 1.14876E-04-3.68176E-05-3.35404E-05 3.07205E-06-9.01408E-19-1.54000E-18
 -1      1917 1.15259E-04-3.67193E-05-3.36655E-05 1.22393E-06-1.27373E-19-1.37473E-18
 -1      1918 1.15490E-04-3.82245E-05-3.30799E-05 4.55279E-06-6.23224E-19-4.95521E-19
 -1      1919 1.14208E-04-3.60499E-05-3.35795E-05-7.28343E-07 4.06986E-19-2.06785E-18
 -1      1920 1.13725E-04-3.55414E-05-3.35080E-05-2.06544E-06 1.08111E-18-1.57113E-18
 -1      1921 1.13864E-04-3.71455E-05-3.28707E-05-2.72593E-07-7.47374E-20-1.72977E-18
 -1      1922 1.12484E-04-3.47922E-05-3.33557E-05-3.27027E-06 1.01843E-18-1.80672E-18
 -1      1923 1.11459E-04-3.41530E-05-3.31307E-05-4.01726E-06 3.95095E-19-2.49359E-18
 -1      1924 1.11456E-04-3.53470E-05-3.26233E-05-3.67631E-06 6.14850E-19-1.75323E-18
 -1      1925 1.10234E-04-3.34984E-05-3.29186E-05-4.56178E-06 6.04456E-19-2.41326E-18
 -1      1926 1.08956E-04-3.28805E-05-3.26030E-05-4.83495E-06 7.01179E-19-1.96640E-18
 -1      1927 1.08890E-04-3.35742E-05-3.22886E-05-5.53541E-06 7.51439E-19-1.31932E-18
 -1      1928 1.07837E-04-3.23660E-05-3.23544E-05-4.91725E-06-3.91422E-20-1.62034E-18
 -1      1929 1.06514E-04-3.18303E-05-3.20052E-05-4.88114E-06-4.59721E-19-1.93283E-18
 -1      1930 1.06476E-04-3.21311E-05-3.18730E-05-6.17942E-06 4.96215E-19-1.35929E-18
 -1      1931 1.05529E-04-3.14430E-05-3.17456E-05-4.69074E-06 5.65636E-19-2.25769E-18
 -1      1932 1.04285E-04-3.10027E-05-3.14036E-05-4.48623E-06 1.05656E-18-1.74171E-18
 -1      1933 1.04328E-04-3.10590E-05-3.14115E-05-6.03202E-06-1.85393E-19-1.16394E-18
 -1      1934 1.03438E-04-3.07145E-05-3.11536E-05-4.16369E-06 2.93119E-19-2.47630E-18
 -1      1935 1.02339E-04-3.03630E-05-3.08428E-05-3.88870E-06-1.09775E-18-2.09084E-18
 -1      1936 1.02473E-04-3.02948E-05-3.09435E-05-5.44921E-06-4.17594E-20-1.84631E-18
 -1      1937 1.01624E-04-3.01479E-05-3.06156E-05-3.52441E-06-4.56101E-19-3.61664E-19
 -1      1938 1.00693E-04-2.98722E-05-3.03472E-05-3.23822E-06 4.21569E-19 6.07548E-20
 -1      1939 1.00903E-04-2.97572E-05-3.05002E-05-4.67981E-06 8.35522E-19-1.50107E-18
 -1      1940 1.00100E-04-2.97105E-05-3.01495E-05-2.88388E-06-3.48000E-19 2.19562E-19
 -1      1941 9.93359E-05-2.94972E-05-2.99260E-05-2.61791E-06 4.53278E-20 7.89552E-19
 -1      1942 9.95951E-05-2.93782E-05-3.01015E-05-3.87741E-06 2.24984E-19 8.75795E-19
 -1      1943 9.88511E-05-2.93748E-05-2.97596E-05-2.29914E-06-1.56380E-19 8.95578E-19
 -1      1944 9.82397E-05-2.92116E-05-2.95787E-05-2.06698E-06 5.99342E-19 8.64206E-19
 -1      1945 9.85234E-05-2.91087E-05-2.97568E-05-3.12606E-06-8.24757E-20 2.73724E-18
 -1      1946 9.78503E-05-2.91186E-05-2.94426E-05-1.79323E-06 9.25040E-19 6.61525E-19
 -1      1947 9.73714E-05-2.89950E-05-2.92997E-05-1.59794E-06 1.04478E-18 7.39961E-19
 -1      1948 9.76583E-05-2.89147E-05-2.94683E-05-2.46410E-06 4.55238E-19 1.38927E-18
 -1      1949 9.70638E-05-2.89242E-05-2.91911E-05-1.36928E-06 2.71514E-20 9.08460E-19
 -1      1950 9.66966E-05-2.88315E-05-2.90810E-05-1.20812E-06-6.41752E-20 2.05239E-18
 -1      1951 9.69707E-05-2.87733E-05-2.92333E-05-1.90210E-06 8.09453E-19 9.10232E-19
 -1      1952 9.64575E-05-2.87771E-05-2.89964E-05-1.01937E-06 1.39090E-20 2.32077E-18
 -1      1953 9.61832E-05-2.87084E-05-2.89140E-05-8.86327E-07 8.71632E-19 1.52715E-18
 -1      1954 9.64326E-05-2.86683E-05-2.90468E-05-1.43476E-06 7.00403E-20 2.61790E-18
 -1      1955 9.60004E-05-2.86661E-05-2.88502E-05-7.29711E-07 5.32160E-19 1.39810E-19
 -1      1956 9.58031E-05-2.86161E-05-2.87909E-05-6.17679E-07 3.96787E-19 4.64720E-19
 -1      1957 9.60182E-05-2.85881E-05-2.89027E-05-1.04788E-06 1.74368E-19 1.06063E-18
 -1      1958 9.56654E-05-2.85832E-05-2.87441E-05-4.84969E-07 9.88985E-19-1.66060E-19
 -1      1959 9.55326E-05-2.85495E-05-2.87040E-05-3.87679E-07 1.19868E-18 6.00374E-20
 -1      1960 9.57044E-05-2.85243E-05-2.87945E-05-7.24696E-07 5.00118E-20-6.36657E-19
 -1      1961 9.54411E-05-2.85302E-05-2.86721E-05-2.79533E-07 1.50664E-18-2.14588E-19
 -1      1962 9.53599E-05-2.85138E-05-2.86454E-05-1.97922E-07 7.47531E-19 2.27312E-19
 -1      1963 9.53381E-05-2.84745E-05-2.86581E-05-2.39459E-07 4.52600E-19-5.19807E-19
 -1      1964 9.54825E-05-2.84847E-05-2.87169E-05-4.56574E-07 7.96072E-19-7.86845E-19
 -1      1965 9.31307E-05-2.73318E-05-2.81712E-05 1.56402E-06 1.14429E-18 2.45956E-18
 -1      1966 9.43104E-05-2.74342E-05-2.86028E-05 2.64066E-06 1.26093E-18 2.98541E-18
 -1      1967 9.51554E-05-2.70183E-05-2.92073E-05 4.00864E-06 1.53427E-18 2.04630E-18
 -1      1968 9.21220E-05-2.73267E-05-2.77442E-05 2.83294E-07 9.33880E-19 1.86197E-18
 -1      1969 9.25941E-05-2.73541E-05-2.79092E-05 8.41920E-07 9.30916E-19 2.20945E-18
 -1      1970 9.35860E-05-2.73439E-05-2.83968E-05 1.51669E-06 1.18360E-18 1.64643E-18
 -1      1971 9.18122E-05-2.73782E-05-2.75980E-05-4.07589E-07 6.39194E-19 1.42978E-18
 -1      1972 9.18930E-05-2.73434E-05-2.76338E-05-9.84098E-08 7.26701E-19 1.70668E-18
 -1      1973 9.28068E-05-2.74671E-05-2.80133E-05 1.65602E-07 9.48053E-19 1.00650E-18
 -1      1974 9.19335E-05-2.74905E-05-2.76070E-05-7.88230E-07 1.47488E-19 1.05050E-18
 -1      1975 9.17939E-05-2.74158E-05-2.75741E-05-6.10692E-07 4.52994E-19 1.35910E-18
 -1      1976 9.25694E-05-2.75733E-05-2.78664E-05-5.85216E-07 5.91655E-19 6.38405E-19
 -1      1977 9.23202E-05-2.76457E-05-2.77087E-05-1.00315E-06 3.18631E-19 8.32025E-19
 -1      1978 9.20530E-05-2.75474E-05-2.76361E-05-8.96784E-07 1.40311E-19 8.02893E-19
 -1      1979 9.26838E-05-2.76995E-05-2.78597E-05-1.01187E-06 3.07176E-19 4.45365E-19
 -1      1980 9.28762E-05-2.78290E-05-2.78698E-05-1.13550E-06 2.44119E-19 1.12460E-18
 -1      1981 9.25310E-05-2.77166E-05-2.77721E-05-1.06493E-06 3.58247E-19 1.13614E-18
 -1      1982 9.30263E-05-2.78467E-05-2.79416E-05-1.26521E-06 3.01150E-19 4.10496E-19
 -1      1983 9.35513E-05-2.80326E-05-2.80724E-05-1.23830E-06 3.43411E-19 6.79496E-19
 -1      1984 9.31519E-05-2.79102E-05-2.79570E-05-1.18049E-06 3.04608E-19 9.75254E-19
 -1      1985 9.35233E-05-2.80105E-05-2.80830E-05-1.43591E-06 4.02918E-19 5.89132E-19
 -1      1986 9.43265E-05-2.82553E-05-2.83092E-05-1.34771E-06 1.51064E-19 8.31556E-19
 -1      1987 9.38801E-05-2.81231E-05-2.81785E-05-1.28650E-06 2.61180E-19 8.07243E-19
 -1      1988 9.41361E-05-2.81890E-05-2.82684E-05-1.58310E-06 2.88653E-19 6.35434E-19
 -1      1989 9.52043E-05-2.85012E-05-2.85798E-05-1.48897E-06 2.24433E-19 1.10274E-18
 -1      1990 9.47065E-05-2.83562E-05-2.84328E-05-1.41271E-06 1.45920E-19 1.14085E-18
 -1      1991 9.48514E-05-2.83841E-05-2.84910E-05-1.74733E-06 1.06751E-19 7.33301E-19
 -1      1992 9.62017E-05-2.87784E-05-2.88880E-05-1.67875E-06 2.77911E-19 7.70450E-19
 -1      1993 9.56409E-05-2.86155E-05-2.87217E-05-1.57941E-06 2.05977E-19 8.53046E-19
 -1      1994 9.56728E-05-2.86017E-05-2.87499E-05-1.95623E-06 2.48411E-19 5.18743E-19
 -1      1995 9.73444E-05-2.90979E-05-2.92403E-05-1.92498E-06 7.33866E-19 3.73664E-19
 -1      1996 9.67046E-05-2.89108E-05-2.90505E-05-1.79832E-06 5.24201E-19 4.95554E-19
 -1      1997 9.66158E-05-2.88513E-05-2.90475E-05-2.22630E-06 7.17923E-19 3.86846E-19
 -1      1998 9.86600E-05-2.94732E-05-2.96432E-05-2.22459E-06 2.76412E-19 5.72770E-19
 -1      1999 9.79250E-05-2.92545E-05-2.94258E-05-2.07137E-06 4.23070E-19 6.88458E-19
 -1      2000 9.77023E-05-2.91454E-05-2.93877E-05-2.56185E-06 4.18840E-19 7.59847E-19
 -1      2001 1.00171E-04-2.99182E-05-3.01005E-05-2.55863E-06-5.75718E-19 1.13436E-18
 -1      2002 9.93285E-05-2.96611E-05-2.98530E-05-2.38710E-06-1.60332E-19 7.26830E-19
 -1      2003 9.89547E-05-2.94998E-05-2.97733E-05-2.95099E-06-5.39984E-20 7.42488E-19
 -1      2004 1.01881E-04-3.04457E-05-3.06096E-05-2.88474E-06 2.26580E-19 8.60658E-19
 -1      2005 1.00932E-04-3.01453E-05-3.03333E-05-2.71450E-06-1.98470E-19 1.14030E-18
 -1      2006 1.00389E-04-2.99326E-05-3.02033E-05-3.35871E-06-2.20802E-19 6.40250E-19
 -1      2007 1.03767E-04-3.10641E-05-3.11569E-05-3.12707E-06 2.49601E-19 3.69159E-19
 -1      2008 1.02730E-04-3.07202E-05-3.08596E-05-2.99431E-06 3.52142E-19 5.35125E-19
 -1      2009 1.02008E-04-3.04638E-05-3.06696E-05-3.71686E-06 4.37097E-19 4.46600E-19
 -1      2010 1.05753E-04-3.17703E-05-3.17117E-05-3.16596E-06 3.00937E-20 5.35642E-19
 -1      2011 1.04681E-04-3.13918E-05-3.14113E-05-3.12905E-06 2.02066E-19 5.32089E-19
 -1      2012 1.03784E-04-3.11115E-05-3.11531E-05-3.91234E-06 1.48125E-19 5.44880E-20
 -1      2013 1.07691E-04-3.25392E-05-3.22219E-05-2.83418E-06 3.45629E-20-3.20069E-19
 -1      2014 1.06683E-04-3.21506E-05-3.19493E-05-2.97617E-06 5.81988E-20 1.68781E-19
 -1      2015 1.05651E-04-3.18836E-05-3.16203E-05-3.77853E-06 2.22399E-19 9.22869E-20
 -1      2016 1.09344E-04-3.33036E-05-3.26126E-05-1.93442E-06-5.81442E-20-2.22214E-20
 -1      2017 1.08554E-04-3.29548E-05-3.24129E-05-2.35495E-06-2.56227E-19-2.53475E-19
 -1      2018 1.07477E-04-3.27592E-05-3.20231E-05-3.10109E-06-2.90043E-20-7.80789E-19
 -1      2019 1.10377E-04-3.39280E-05-3.27944E-05-3.02076E-07 1.43390E-19-3.19648E-19
 -1      2020 1.10009E-04-3.37035E-05-3.27221E-05-1.08613E-06-2.34436E-19-1.22042E-19
 -1      2021 1.09044E-04-3.36550E-05-3.23029E-05-1.65966E-06-2.00280E-19-6.17603E-19
 -1      2022 1.10389E-04-3.41858E-05-3.26874E-05 2.06186E-06 1.42607E-18 2.75914E-19
 -1      2023 1.10663E-04-3.42063E-05-3.27921E-05 9.11224E-07 9.89943E-19 4.21269E-19
 -1      2024 1.10035E-04-3.43786E-05-3.24050E-05 6.65903E-07 6.61546E-19-1.33402E-19
 -1      2025 1.09022E-04-3.37815E-05-3.22616E-05 4.79809E-06 4.53990E-19 1.54517E-20
 -1      2026 1.10094E-04-3.41762E-05-3.25625E-05 3.45671E-06 1.02423E-18 4.37704E-19
 -1      2027 1.10051E-04-3.46009E-05-3.23020E-05 3.70905E-06 9.67973E-19-3.63678E-20
 -1      2028 1.06175E-04-3.24831E-05-3.15774E-05 7.04632E-06-1.16551E-18 7.64130E-19
 -1      2029 1.08012E-04-3.33101E-05-3.20368E-05 5.93835E-06-5.82388E-19 1.88974E-19
 -1      2030 1.08737E-04-3.39280E-05-3.20184E-05 6.80253E-06-4.26809E-19 1.05451E-18
 -1      2031 1.02308E-04-3.04008E-05-3.08006E-05 7.60535E-06-1.65611E-18 1.64312E-18
 -1      2032 1.04563E-04-3.15236E-05-3.13121E-05 7.31228E-06-1.94160E-18 1.30889E-18
 -1      2033 1.06060E-04-3.21618E-05-3.16374E-05 8.72865E-06-2.11079E-18 8.99814E-19
 -1      2034 9.86059E-05-2.82159E-05-3.01597E-05 5.60398E-06 9.44971E-20 1.83410E-18
 -1      2035 1.00612E-04-2.92507E-05-3.05736E-05 6.52363E-06-4.42370E-19 1.78375E-18
 -1      2036 1.02664E-04-2.96817E-05-3.12776E-05 8.14914E-06-6.36625E-19 7.38500E-19
 -1      2037 9.66080E-05-2.69778E-05-2.98569E-05 1.33628E-06 7.09106E-19 1.81754E-18
 -1      2038 9.76099E-05-2.74437E-05-3.00380E-05 3.29680E-06 4.29512E-19 1.97976E-18
 -1      2039 9.98834E-05-2.75388E-05-3.10434E-05 4.54986E-06 5.12839E-19 1.46464E-18
 -1      2040 9.73354E-05-2.74233E-05-2.99902E-05-3.51652E-06 7.40492E-21 1.45978E-18
 -1      2041 9.68873E-05-2.70660E-05-2.98752E-05-1.32136E-06 3.85122E-19 1.61738E-18
 -1      2042 9.91000E-05-2.68921E-05-3.09909E-05-9.83515E-07 6.13847E-19 1.11389E-18
 -1      2043 1.00456E-04-2.92913E-05-3.05168E-05-6.87317E-06 9.98109E-19 1.28422E-18
 -1      2044 9.87446E-05-2.83070E-05-3.01455E-05-5.36844E-06 2.19990E-19 9.90804E-19
 -1      2045 1.00751E-04-2.81531E-05-3.11344E-05-6.08545E-06 6.07687E-19 1.25540E-18
 -1      2046 1.04559E-04-3.15870E-05-3.12661E-05-7.64175E-06 4.40925E-19 1.29314E-18
 -1      2047 1.02266E-04-3.04447E-05-3.07629E-05-7.27531E-06 1.05999E-18 1.09662E-18
 -1      2048 1.03942E-04-3.05688E-05-3.14370E-05-8.69999E-06 9.54176E-19 1.18248E-18
 -1      2049 1.08115E-04-3.33518E-05-3.20143E-05-6.15092E-06-4.18851E-20 1.10035E-19
 -1      2050 1.06012E-04-3.24666E-05-3.15304E-05-6.75291E-06-1.13519E-19 7.55553E-19
 -1      2051 1.07200E-04-3.29065E-05-3.18196E-05-8.30990E-06 4.47902E-19 7.08940E-19
 -1      2052 1.10249E-04-3.41892E-05-3.25667E-05-3.54251E-06 8.80206E-19-4.33823E-19
 -1      2053 1.08840E-04-3.37295E-05-3.22209E-05-4.62044E-06 4.03677E-19-5.74527E-20
 -1      2054 1.09411E-04-3.43116E-05-3.21722E-05-5.83332E-06 5.00451E-19-3.35309E-19
 -1      2055 1.10836E-04-3.42060E-05-3.28188E-05-9.12396E-07 5.70152E-19-8.90046E-21
 -1      2056 1.10262E-04-3.41328E-05-3.26643E-05-2.00761E-06 1.05052E-18-3.38152E-19
 -1      2057 1.10219E-04-3.46366E-05-3.23902E-05-2.65670E-06 8.89570E-19-3.75841E-19
 -1      2058 1.10187E-04-3.37064E-05-3.27662E-05 1.11579E-06 6.88926E-19-7.89703E-19
 -1      2059 1.10337E-04-3.38951E-05-3.27944E-05 2.63047E-07 5.28946E-19-2.61887E-19
 -1      2060 1.09817E-04-3.41922E-05-3.24150E-05 1.72057E-07 7.73235E-19-3.67481E-19
 -1      2061 1.08744E-04-3.29716E-05-3.24718E-05 2.37320E-06 1.17498E-18-6.32585E-19
 -1      2062 1.09398E-04-3.32988E-05-3.26380E-05 1.83566E-06 1.15797E-18-7.32515E-19
 -1      2063 1.08601E-04-3.33737E-05-3.22462E-05 2.17508E-06 1.17883E-18 2.06062E-19
 -1      2064 1.06902E-04-3.21874E-05-3.20239E-05 2.95695E-06 1.63090E-19-6.58757E-19
 -1      2065 1.07835E-04-3.25634E-05-3.22731E-05 2.69759E-06 2.91025E-19-8.86506E-19
 -1      2066 1.06949E-04-3.24685E-05-3.19250E-05 3.30723E-06 8.52075E-19 1.06267E-18
 -1      2067 1.04954E-04-3.14526E-05-3.15057E-05 3.05848E-06-1.16233E-18-1.35987E-18
 -1      2068 1.05987E-04-3.18227E-05-3.17896E-05 3.00041E-06-4.45276E-19-8.86857E-19
 -1      2069 1.05144E-04-3.16291E-05-3.15098E-05 3.73846E-06-7.31484E-20 2.71702E-19
 -1      2070 1.03085E-04-3.08096E-05-3.09807E-05 2.86479E-06 1.83241E-19-1.44794E-18
 -1      2071 1.04098E-04-3.11451E-05-3.12642E-05 2.93179E-06-5.70347E-19-1.37177E-18
 -1      2072 1.03374E-04-3.09137E-05-3.10565E-05 3.69371E-06-6.75477E-19-1.08379E-18
 -1      2073 1.01403E-04-3.02697E-05-3.04901E-05 2.52034E-06-7.83752E-19-5.54834E-19
 -1      2074 1.02324E-04-3.05585E-05-3.07516E-05 2.65288E-06 2.79140E-20-1.20569E-18
 -1      2075 1.01747E-04-3.03303E-05-3.06086E-05 3.37184E-06-5.19800E-20-4.16849E-20
 -1      2076 9.99520E-05-2.98288E-05-3.00562E-05 2.12231E-06 3.03480E-19 9.55054E-20
 -1      2077 1.00749E-04-3.00686E-05-3.02847E-05 2.27990E-06 8.86432E-20-3.43423E-19
 -1      2078 1.00317E-04-2.98665E-05-3.01945E-05 2.91955E-06-1.82353E-19-5.96534E-20
 -1      2079 9.87424E-05-2.94764E-05-2.96878E-05 1.72890E-06-1.02157E-19 2.94286E-19
 -1      2080 9.94073E-05-2.96701E-05-2.98797E-05 1.88697E-06 1.72041E-19 1.27741E-19
 -1      2081 9.91034E-05-2.95034E-05-2.98298E-05 2.43251E-06-3.22849E-21 1.37744E-18
 -1      2082 9.77611E-05-2.91995E-05-2.93848E-05 1.37037E-06-3.67721E-19 7.26813E-21
 -1      2083 9.82990E-05-2.93525E-05-2.95410E-05 1.51590E-06 1.44928E-19 7.37453E-19
 -1      2084 9.81003E-05-2.92225E-05-2.95205E-05 1.96628E-06-1.86419E-19 1.61397E-18
 -1      2085 9.69840E-05-2.89854E-05-2.91428E-05 1.05842E-06 1.39664E-18 1.25306E-19
 -1      2086 9.74079E-05-2.91039E-05-2.92664E-05 1.18621E-06-1.48019E-19-3.89562E-19
 -1      2087 9.72911E-05-2.90069E-05-2.92661E-05 1.54807E-06 5.23999E-19 1.03346E-18
 -1      2088 9.63840E-05-2.88225E-05-2.89549E-05 7.92905E-07 6.49928E-19 1.61272E-18
 -1      2089 9.67089E-05-2.89122E-05-2.90498E-05 9.02872E-07 1.82472E-18 1.42412E-18
 -1      2090 9.66526E-05-2.88426E-05-2.90629E-05 1.18642E-06 8.93736E-19 3.11537E-18
 -1      2091 9.59351E-05-2.87009E-05-2.88142E-05 5.67272E-07-7.58040E-19 1.45168E-18
 -1      2092 9.61754E-05-2.87670E-05-2.88843E-05 6.62143E-07-2.14676E-19 2.01236E-18
 -1      2093 9.61607E-05-2.87184E-05-2.89054E-05 8.78298E-07-3.61834E-19 5.00105E-18
 -1      2094 9.56136E-05-2.86127E-05-2.87141E-05 3.71541E-07-3.12094E-19 1.65948E-18
 -1      2095 9.57818E-05-2.86591E-05-2.87628E-05 4.55908E-07-6.54379E-19 1.10201E-18
 -1      2096 9.57925E-05-2.86250E-05-2.87877E-05 6.14962E-07-2.53336E-19 2.61523E-18
 -1      2097 9.54012E-05-2.85544E-05-2.86473E-05 1.98260E-07 5.04337E-19 9.36099E-19
 -1      2098 9.55058E-05-2.85829E-05-2.86783E-05 2.74699E-07 4.43566E-19 1.24632E-18
 -1      2099 9.55265E-05-2.85559E-05-2.87032E-05 3.85483E-07 2.71924E-19 2.80321E-18
 -1      2100 9.52964E-05-2.85320E-05-2.86112E-05 8.65201E-08 4.87255E-19 1.08148E-18
 -1      2101 9.53522E-05-2.85393E-05-2.86322E-05 1.49685E-07 8.37324E-19 8.12854E-19
 -1      2102 9.53704E-05-2.85142E-05-2.86537E-05 2.23770E-07 7.11415E-19 2.86336E-18
 -1      2103 9.52915E-05-2.85040E-05-2.86229E-05 1.19486E-07 6.95627E-19 3.03236E-18
 -1      2104 9.50607E-05-2.79233E-05-2.87744E-05 4.71188E-07 1.35785E-18-4.98605E-19
 -1      2105 9.51191E-05-2.80483E-05-2.87426E-05 4.48411E-07 1.10427E-18 2.09471E-19
 -1      2106 9.51778E-05-2.81718E-05-2.87171E-05 4.01642E-07 1.42120E-18 9.30131E-19
 -1      2107 9.52262E-05-2.82790E-05-2.86893E-05 3.44428E-07 1.07645E-18 2.02226E-18
 -1      2108 9.51643E-05-2.80803E-05-2.87506E-05 5.55299E-07 7.35146E-19 7.30468E-19
 -1      2109 9.52541E-05-2.83634E-05-2.86668E-05 2.70591E-07 8.26126E-19 8.98068E-19
 -1      2110 9.52818E-05-2.84409E-05-2.86442E-05 1.99662E-07 1.29781E-18 1.03408E-18
 -1      2111 9.53178E-05-2.84419E-05-2.86599E-05 2.52984E-07 6.07878E-19 1.54064E-18
 -1      2112 9.52637E-05-2.82899E-05-2.87042E-05 4.17200E-07 9.78010E-19 1.28836E-18
 -1      2113 9.49453E-05-2.76780E-05-2.88311E-05 4.63399E-07 4.46244E-19-2.80115E-18
 -1      2114 9.50026E-05-2.78015E-05-2.87996E-05 4.75138E-07 8.25501E-19-1.58037E-18
 -1      2115 9.50247E-05-2.78281E-05-2.87981E-05 6.08936E-07 1.44487E-19-1.62774E-18
 -1      2116 9.48428E-05-2.74598E-05-2.88816E-05 3.80253E-07 9.27477E-19-1.22560E-18
 -1      2117 9.48919E-05-2.75667E-05-2.88542E-05 4.24182E-07 8.28399E-19-1.62143E-18
 -1      2118 9.48908E-05-2.75871E-05-2.88427E-05 5.67711E-07 8.82911E-19-1.98040E-18
 -1      2119 9.47702E-05-2.73045E-05-2.89175E-05 2.36500E-07 1.31293E-18 1.24564E-18
 -1      2120 9.48030E-05-2.73761E-05-2.88991E-05 3.04517E-07 1.48383E-18 2.62404E-19
 -1      2121 9.47782E-05-2.73854E-05-2.88799E-05 4.36685E-07 1.41249E-18 5.91301E-19
 -1      2122 9.47369E-05-2.72335E-05-2.89336E-05 5.55948E-08-6.38835E-19-7.55536E-19
 -1      2123 9.47486E-05-2.72590E-05-2.89270E-05 1.36660E-07 1.00415E-19 2.48000E-19
 -1      2124 9.47038E-05-2.72516E-05-2.89046E-05 2.37862E-07 6.74507E-19 6.84533E-21
 -1      2125 9.47474E-05-2.72570E-05-2.89274E-05-1.34429E-07 6.79959E-19-6.15479E-19
 -1      2126 9.47364E-05-2.72324E-05-2.89338E-05-5.30143E-08 1.93329E-19-5.06632E-19
 -1      2127 9.46770E-05-2.72032E-05-2.89136E-05 2.11195E-09-6.44747E-19 5.13785E-19
 -1      2128 9.48005E-05-2.73719E-05-2.89000E-05-3.04078E-07-1.50159E-18-3.82152E-19
 -1      2129 9.47682E-05-2.73006E-05-2.89182E-05-2.35250E-07-3.37226E-19 5.22893E-19
 -1      2130 9.47013E-05-2.72471E-05-2.89054E-05-2.34780E-07-7.27043E-19-6.63869E-19
 -1      2131 9.48878E-05-2.75581E-05-2.88562E-05-4.24478E-07-9.45177E-19-1.43528E-18
 -1      2132 9.48393E-05-2.74530E-05-2.88830E-05-3.80181E-07-1.67837E-18-1.06073E-18
 -1      2133 9.47736E-05-2.73764E-05-2.88816E-05-4.35181E-07-1.56137E-18-6.95414E-19
 -1      2134 9.50004E-05-2.77955E-05-2.88012E-05-4.78181E-07 9.89093E-19 3.28672E-18
 -1      2135 9.49414E-05-2.76692E-05-2.88333E-05-4.65593E-07 1.09945E-19 2.02842E-18
 -1      2136 9.48851E-05-2.75752E-05-2.88452E-05-5.69010E-07 8.12398E-20 7.86085E-19
 -1      2137 9.51197E-05-2.80469E-05-2.87434E-05-4.51445E-07 1.25018E-18 3.35349E-19
 -1      2138 9.50602E-05-2.79206E-05-2.87755E-05-4.74719E-07 8.92728E-19 6.12955E-19
 -1      2139 9.50218E-05-2.78196E-05-2.88005E-05-6.13162E-07 3.65678E-19 2.48728E-18
 -1      2140 9.52286E-05-2.82849E-05-2.86896E-05-3.45617E-07 2.47456E-19-2.78246E-18
 -1      2141 9.51790E-05-2.81720E-05-2.87176E-05-4.03498E-07 4.19865E-19-1.03409E-18
 -1      2142 9.51641E-05-2.80760E-05-2.87523E-05-5.58332E-07 3.89106E-19-1.14110E-18
 -1      2143 5.76235E-05-3.94033E-05-8.47607E-06 3.99661E-05 2.45640E-19 4.96838E-19
 -1      2144 4.08680E-05-4.05368E-05-1.73788E-06 3.14076E-05 1.94394E-19 9.18395E-19
 -1      2145 1.20271E-05-2.83630E-05 6.16573E-06 4.96011E-06 1.28961E-19 4.27709E-18
 -1      2146 1.28263E-05-3.31987E-05 7.27566E-06-5.19449E-06-4.50304E-19 3.67443E-18
 -1      2147 2.81635E-05-3.53931E-05 1.96983E-06 2.73416E-05 7.87317E-19 1.18161E-18
 -1      2148 1.93996E-05-3.16823E-05 4.48544E-06 2.01785E-05 1.37643E-19 2.17815E-18
 -1      2149 4.16795E-05-3.47373E-05-3.45310E-06 3.60904E-05-1.31692E-18 5.04832E-19
 -1      2150 9.84003E-05-4.18834E-05-2.41307E-05 4.24578E-05 1.85754E-18-6.53486E-19
 -1      2151 8.02291E-05-4.42832E-05-1.60643E-05 3.94935E-05 1.68475E-18 3.87094E-19
 -1      2152 1.35078E-04-4.18350E-05-3.93619E-05 3.43095E-05 2.35475E-18-1.60132E-18
 -1      2153 1.16454E-04-4.39927E-05-3.15451E-05 3.37293E-05 2.10615E-18-1.10623E-18
 -1      2154 8.73010E-05-8.72073E-06-3.37681E-05-1.04783E-05-8.67693E-19-2.68243E-18
 -1      2155 8.80008E-05-9.25811E-06-3.38326E-05-1.20574E-05-1.10927E-18-2.45359E-18
 -1      2156 9.04848E-05-1.30185E-05-3.32281E-05-1.17599E-05-1.29078E-18-2.17485E-18
 -1      2157 8.87100E-05-1.10365E-05-3.33212E-05-9.33409E-06-8.37269E-19-2.56709E-18
 -1      2158 1.74456E-04-2.76265E-05-6.19951E-05 8.77555E-06 5.50571E-21 1.96342E-18
 -1      2159 1.65056E-04-2.92377E-05-5.75771E-05 1.52678E-05 2.71262E-19 2.24591E-18
 -1      2160 1.80333E-04-2.36312E-05-6.58936E-05-1.19589E-06 1.38786E-18 1.61699E-18
 -1      2161 1.73965E-04-2.19665E-05-6.44640E-05 5.01198E-06 7.16590E-19 2.24612E-18
 -1      2162 1.74951E-04-2.55393E-05-6.31177E-05-1.07667E-05 3.67019E-18 1.04863E-18
 -1      2163 1.83247E-04-2.62719E-05-6.59119E-05-4.12415E-06 2.41828E-18 1.34329E-18
 -1      2164 1.58719E-04-3.24291E-05-5.36652E-05-2.03769E-05 3.42635E-18-7.89858E-19
 -1      2165 1.72211E-04-3.13309E-05-5.91466E-05-1.56086E-05 3.95946E-18 5.86994E-19
 -1      2166 1.32219E-04-3.89623E-05-4.01233E-05-3.15405E-05 4.06131E-18-1.32730E-18
 -1      2167 1.51129E-04-3.83025E-05-4.75273E-05-2.90341E-05 3.48829E-18-7.86047E-19
 -1      2168 1.01029E-04-4.36283E-05-2.53444E-05-3.71672E-05 2.80156E-18-2.97774E-18
 -1      2169 1.20314E-04-4.20602E-05-3.31363E-05-3.91968E-05 3.63716E-18-1.75421E-18
 -1      2170 6.35421E-05-4.20647E-05-1.05178E-05-3.68609E-05 1.91260E-18-5.27490E-18
 -1      2171 8.12337E-05-3.96497E-05-1.80455E-05-4.27600E-05 2.42887E-18-5.05869E-18
 -1      2172 3.43418E-05-3.93375E-05 6.86963E-07-2.88499E-05-3.59989E-20-4.56678E-18
 -1      2173 4.72071E-05-3.74068E-05-4.83604E-06-3.68476E-05 1.53355E-18-5.29025E-18
 -1      2174 1.47222E-05-3.36512E-05 6.83837E-06-1.26878E-05-1.48866E-18-4.95599E-18
 -1      2175 2.12759E-05-3.48236E-05 4.59753E-06-2.15294E-05-9.44442E-20-4.81475E-18
 -1      2176 1.43540E-05-3.21378E-05 6.48446E-06 1.07766E-05-2.29609E-18-4.33893E-18
 -1      2177 1.17812E-05-3.10877E-05 7.14211E-06 4.38461E-07-1.22044E-18-4.91279E-18
 -1      2178 3.23870E-05-3.52141E-05 3.65340E-07 3.00598E-05-3.34917E-18-2.99045E-18
 -1      2179 2.21350E-05-3.66057E-05 4.73021E-06 2.02482E-05-2.82867E-18-3.37754E-18
 -1      2180 6.93958E-05-4.16604E-05-1.22500E-05 4.20718E-05-4.16656E-18-2.03838E-18
 -1      2181 5.12995E-05-4.21245E-05-5.11498E-06 3.48967E-05-3.86882E-18-2.44835E-18
 -1      2182 1.11844E-04-4.48524E-05-2.83833E-05 3.98260E-05-4.91279E-18-6.81862E-19
 -1      2183 9.33156E-05-4.75890E-05-2.02318E-05 3.70131E-05-4.56466E-18-1.11470E-18
 -1      2184 1.42732E-04-4.01369E-05-4.33011E-05 3.37326E-05-3.78878E-18-2.24210E-18
 -1      2185 1.22438E-04-4.09562E-05-3.53148E-05 3.40381E-05-4.44777E-18-2.04135E-18
 -1      2186 1.64370E-04-3.53714E-05-5.48997E-05 1.36369E-05-1.97983E-18-4.04585E-18
 -1      2187 1.52635E-04-3.74947E-05-4.88957E-05 2.23246E-05-3.09808E-18-3.62615E-18
 -1      2188 1.77675E-04-2.53401E-05-6.39992E-05 3.67326E-06-1.27478E-18-3.97258E-18
 -1      2189 1.65866E-04-2.52512E-05-5.99346E-05 6.02418E-06-1.51661E-18-3.91456E-18
 -1      2190 1.86126E-04-2.60793E-05-6.69928E-05-3.76341E-06-2.42675E-18-3.50163E-18
 -1      2191 1.83549E-04-2.49469E-05-6.68339E-05 3.44256E-06-1.76056E-18-4.21325E-18
 -1      2192 1.74252E-04-2.69919E-05-6.22066E-05-1.14520E-05-2.10361E-18-2.95869E-18
 -1      2193 1.85889E-04-2.83529E-05-6.57351E-05-7.11039E-06-2.78886E-18-3.07791E-18
 -1      2194 1.65735E-04-1.68616E-05-6.23833E-05 2.49290E-07-2.81723E-18-3.29083E-18
 -1      2195 1.57271E-04-3.56391E-05-5.17067E-05-2.14956E-05-2.29369E-18-1.84484E-18
 -1      2196 1.69061E-04-3.38691E-05-5.69803E-05-1.52018E-05-1.70497E-18-2.50214E-18
 -1      2197 1.32906E-04-4.00783E-05-3.99780E-05-3.07993E-05-2.11589E-18-1.30020E-19
 -1      2198 1.51271E-04-3.92913E-05-4.70408E-05-2.94992E-05-2.61310E-18-1.98375E-18
 -1      2199 1.53263E-04-4.17064E-05-4.70474E-05-9.80335E-06-1.96616E-18-3.10692E-18
 -1      2200 1.04368E-04-4.68039E-05-2.53387E-05-3.54560E-05-1.10665E-18 8.98702E-19
 -1      2201 1.22453E-04-4.48792E-05-3.28056E-05-3.72548E-05-1.58565E-18 1.91429E-19
 -1      2202 6.63752E-05-4.36802E-05-1.09964E-05-3.69388E-05 1.63477E-19 2.22876E-18
 -1      2203 8.41045E-05-4.25119E-05-1.80489E-05-4.21422E-05-7.62330E-19 2.39181E-18
 -1      2204 3.81967E-05-3.99445E-05-6.36964E-07-3.03660E-05-6.43745E-20 1.93632E-18
 -1      2205 5.10182E-05-3.87804E-05-5.90738E-06-3.67643E-05-2.53263E-19 2.03751E-18
 -1      2206 7.07899E-05-4.56165E-05-1.11075E-05-4.17861E-05 8.81338E-19 1.93756E-18
 -1      2207 1.69922E-05-3.50492E-05 6.33156E-06-1.38226E-05-3.82647E-19 2.44793E-18
 -1      2208 2.33074E-05-3.33878E-05 3.38134E-06-2.32166E-05-9.98652E-19 2.40155E-18
 -1      2209 1.76926E-05-2.35249E-05 2.04657E-06-1.26163E-05-3.75871E-19 4.03992E-18
 -1      2210 1.59189E-04-3.67477E-05-5.17043E-05 2.30359E-05 1.30144E-18 1.10114E-20
 -1      2211 1.42920E-04-3.78857E-05-4.50881E-05 2.70590E-05 2.09535E-18-8.63974E-19
 -1      2212 1.43164E-04-4.80258E-05-4.02116E-05 1.67103E-05 1.05180E-18-2.08963E-18
 -1      2213 9.70921E-05-2.42850E-05-3.12753E-05-9.97038E-06-1.56066E-18 1.01379E-19
 -1      2214 1.55196E-04-3.36412E-05-5.12803E-05 5.07355E-06 4.16105E-19 1.50306E-18
 -1      2215 9.62862E-05-2.30866E-05-3.14382E-05-1.03363E-05-1.60165E-18-5.53787E-19
 -1      2216 1.86202E-05-2.59242E-05 2.71041E-06 1.35949E-05-7.51742E-19 2.87314E-18
 -1      2217 1.85165E-05-1.72911E-05-2.80781E-07 6.84081E-06-1.36708E-18 3.44912E-18
 -1      2218 2.60103E-05-2.15815E-05-1.83609E-06 2.19428E-05-2.42558E-18 1.28834E-18
 -1      2219 9.37034E-05-5.17709E-05-1.85459E-05 4.13994E-05-5.88688E-19-6.57112E-19
 -1      2220 7.61693E-05-4.55581E-05-1.34075E-05 4.10784E-05-4.48927E-20 1.07991E-18
 -1      2221 7.22280E-05-4.42040E-05-1.16429E-05 4.29973E-05-1.39104E-18 5.76724E-19
 -1      2222 9.52658E-05-2.83437E-05-2.86797E-05-3.22379E-07 2.22257E-19-1.86389E-18
 -1      2223 1.19395E-04-5.31322E-05-2.82104E-05 3.25564E-05 6.21299E-19-1.87427E-18
 -1      2224 3.75219E-05-3.36962E-05-2.16930E-06-3.24623E-05 6.05629E-20 1.35779E-18
 -1      2225 1.37178E-04-5.31375E-05-3.59065E-05-2.19813E-05-9.42536E-19-1.85416E-18
 -1      2226 1.62037E-04-2.79896E-05-5.65338E-05-1.42809E-06-2.12097E-18-2.76090E-18
 -1      2227 1.59370E-04-1.53082E-05-6.09003E-05-2.47321E-06-1.80206E-18-3.52715E-18
 -1      2228 1.56318E-04-2.88046E-05-5.39916E-05-1.09413E-06-1.82959E-18-3.59693E-18
 -1      2229 1.49224E-04-4.50070E-05-4.38095E-05 1.35185E-05-2.99971E-18-2.78928E-18
 -1      2230 1.28380E-04-5.41641E-05-3.18086E-05 2.78379E-05-3.80402E-18-7.32472E-19
 -1      2231 9.40575E-05-5.19706E-05-1.80060E-05 3.98560E-05-3.31613E-18-5.36384E-19
 -1      2232 4.99654E-05-3.81744E-05-5.36506E-06 3.80280E-05-1.79952E-18-2.40769E-18
 -1      2233 2.18842E-05-2.64117E-05 1.44142E-06 1.94747E-05-7.84776E-19-4.19197E-18
 -1      2234 1.60865E-05-2.41831E-05 2.93061E-06-7.34144E-06-1.22608E-18-5.30793E-18
 -1      2235 3.40527E-05-3.24096E-05-1.27110E-06-3.21380E-05-5.78100E-19-5.20608E-18
 -1      2236 6.64777E-05-4.39717E-05-1.00480E-05-4.17642E-05 3.21025E-19-5.24922E-18
 -1      2237 1.04412E-04-5.17841E-05-2.25106E-05-3.84481E-05 7.38613E-19-2.31113E-18
 -1      2238 1.34870E-04-5.06190E-05-3.56991E-05-2.43627E-05 2.56587E-18 5.92500E-19
 -1      2239 1.52891E-04-3.86912E-05-4.81561E-05-1.06456E-05 3.08018E-18 4.92973E-19
 -1      2240 1.60630E-04-2.35407E-05-5.76840E-05-1.52551E-06 3.87772E-18 1.03783E-18
 -1      2241 1.57785E-04-1.76341E-05-5.91848E-05-9.66844E-07 4.35375E-19 2.69441E-18
 -1      2242 1.58925E-04-1.34825E-05-6.12578E-05-1.34830E-07 2.31791E-18 2.45073E-18
 -1      2243 1.07705E-04-5.43905E-05-2.27055E-05-3.68965E-05 7.72071E-19 4.92973E-19
 -1      2244 9.51732E-05-2.63479E-05-2.94825E-05 4.12940E-06 1.58926E-18 1.23816E-18
 -1      2245 9.61335E-05-2.58338E-05-3.00548E-05 5.94467E-06 1.64110E-18 1.43774E-18
 -1      2246 8.81757E-05-1.11098E-05-3.30679E-05-3.61555E-06-6.20125E-20-2.57779E-18
 -1      2247 8.84100E-05-1.13861E-05-3.30473E-05-4.74741E-06-2.37922E-19-2.64307E-18
 -1      2248 8.87623E-05-1.18801E-05-3.29952E-05-5.75737E-06-3.83651E-19-2.58228E-18
 -1      2249 8.91651E-05-1.23578E-05-3.29627E-05-6.92325E-06-5.57754E-19-2.55660E-18
 -1      2250 8.99192E-05-1.37385E-05-3.26478E-05-4.83331E-06-2.68510E-19-2.49939E-18
 -1      2251 8.78267E-05-1.06375E-05-3.31152E-05 6.09077E-07 6.32054E-19-2.28282E-18
 -1      2252 8.78224E-05-1.06326E-05-3.31155E-05-4.89272E-07 4.32582E-19-2.32754E-18
 -1      2253 8.80089E-05-1.08687E-05-3.30944E-05 2.72461E-06 9.43588E-19-2.22227E-18
 -1      2254 8.78936E-05-1.07322E-05-3.31052E-05 1.61696E-06 7.79114E-19-2.29607E-18
 -1      2255 8.91289E-05-1.26575E-05-3.27759E-05 1.03304E-06 6.70607E-19-2.18754E-18
 -1      2256 8.84447E-05-1.14292E-05-3.30440E-05 4.83253E-06 1.27737E-18-2.01884E-18
 -1      2257 8.82052E-05-1.11466E-05-3.30651E-05 3.71847E-06 1.04361E-18-2.14966E-18
 -1      2258 8.93979E-05-1.30239E-05-3.27329E-05 2.97420E-06 9.41191E-19-2.05243E-18
 -1      2259 8.92222E-05-1.24297E-05-3.29566E-05 7.00576E-06 1.61710E-18-1.62568E-18
 -1      2260 8.88066E-05-1.19361E-05-3.29904E-05 5.83980E-06 1.41216E-18-1.84979E-18
 -1      2261 8.99591E-05-1.37905E-05-3.26423E-05 4.90512E-06 1.28723E-18-1.77698E-18
 -1      2262 9.04811E-05-1.40564E-05-3.28174E-05 9.15025E-06 1.88381E-18-1.08677E-18
 -1      2263 8.98085E-05-1.32395E-05-3.28693E-05 7.97278E-06 1.70927E-18-1.39553E-18
 -1      2264 9.08947E-05-1.50733E-05-3.24878E-05 6.78764E-06 1.57097E-18-1.38574E-18
 -1      2265 9.24522E-05-1.66398E-05-3.25912E-05 1.10398E-05 2.08718E-18-3.89926E-19
 -1      2266 9.13899E-05-1.52971E-05-3.26718E-05 9.95745E-06 1.96527E-18-7.90705E-19
 -1      2267 9.23078E-05-1.70483E-05-3.22332E-05 8.43269E-06 1.78913E-18-7.87635E-19
 -1      2268 9.42284E-05-2.70865E-05-2.87572E-05 1.66434E-06 1.27218E-18 8.59522E-19
 -1      2269 9.48077E-05-2.68629E-05-2.90476E-05 2.65478E-06 1.49338E-18 1.23038E-18
 -1      2270 9.53253E-05-2.58153E-05-2.97985E-05 4.26674E-06 1.65417E-18 6.44705E-19
 -1      2271 9.58830E-05-2.50661E-05-3.03032E-05-6.11850E-06-1.16107E-18-8.59576E-19
 -1      2272 9.52363E-05-2.58168E-05-2.97662E-05-4.18986E-06-9.57696E-19-8.22650E-19
 -1      2273 1.47670E-04-2.97687E-05-5.10180E-05-4.39650E-06-2.74650E-19 1.87999E-18
 -1      2274 1.45521E-04-3.88920E-05-4.59642E-05-3.42714E-07 1.19538E-19 1.21761E-18
 -1      2275 9.51355E-05-2.64999E-05-2.93580E-05-2.82950E-06-8.62409E-19-7.26415E-19
 -1      2276 9.46858E-05-2.68668E-05-2.90641E-05-1.74300E-06-8.08476E-19-7.90788E-19
 -1      2277 9.53412E-05-2.53228E-05-3.00163E-05-4.16952E-06-9.43970E-19-1.16642E-18
 -1      2278 9.45084E-05-2.71914E-05-2.88118E-05-8.57539E-07-7.25525E-19-6.73306E-19
 -1      2279 9.42821E-05-2.74024E-05-2.86585E-05-2.19805E-07-5.90199E-19-8.32732E-19
 -1      2280 9.50656E-05-2.66383E-05-2.93401E-05-1.73858E-06-7.83697E-19-9.44508E-19
 -1      2281 9.41585E-05-2.75762E-05-2.85126E-05 3.37521E-07-4.77173E-19-7.26465E-19
 -1      2282 9.41061E-05-2.77178E-05-2.84471E-05 7.18883E-07-4.99732E-19-6.70529E-19
 -1      2283 9.48025E-05-2.73463E-05-2.89238E-05-1.69909E-07-6.07332E-19-7.49529E-19
 -1      2284 9.40562E-05-2.78196E-05-2.83744E-05 1.07082E-06-5.51678E-19-6.80632E-19
 -1      2285 9.41268E-05-2.79260E-05-2.83662E-05 1.30632E-06-3.67110E-19-6.72739E-19
 -1      2286 9.46591E-05-2.77489E-05-2.86875E-05 8.27730E-07-6.08419E-19-6.85525E-19
 -1      2287 9.41427E-05-2.79891E-05-2.83448E-05 1.53772E-06-3.67867E-19-8.75343E-19
 -1      2288 9.43000E-05-2.80750E-05-2.83760E-05 1.69626E-06-5.04390E-19-1.02087E-18
 -1      2289 9.46458E-05-2.79874E-05-2.85770E-05 1.47307E-06-5.66478E-19-9.85214E-19
 -1      2290 9.43691E-05-2.81147E-05-2.83917E-05 1.86642E-06-4.57823E-19-9.42587E-19
 -1      2291 9.45910E-05-2.81875E-05-2.84517E-05 1.99403E-06-3.74403E-19-9.08842E-19
 -1      2292 9.47437E-05-2.81279E-05-2.85566E-05 1.91948E-06-4.31281E-19-1.25640E-18
 -1      2293 9.47030E-05-2.82120E-05-2.84955E-05 2.14553E-06-7.11627E-19-7.17124E-19
 -1      2294 9.49791E-05-2.82772E-05-2.85784E-05 2.27476E-06-7.32615E-19-9.18617E-19
 -1      2295 9.49318E-05-2.82048E-05-2.86029E-05 2.27587E-06-5.62399E-19-1.17390E-18
 -1      2296 9.51281E-05-2.82917E-05-2.86449E-05 2.43902E-06-6.30546E-19-9.44351E-19
 -1      2297 9.54566E-05-2.83548E-05-2.87484E-05 2.59375E-06-5.28002E-19-1.02209E-18
 -1      2298 9.51956E-05-2.82384E-05-2.87007E-05 2.62145E-06-7.99411E-19-7.76383E-19
 -1      2299 9.56408E-05-2.83640E-05-2.88344E-05 2.79414E-06-4.11715E-19-8.87530E-19
 -1      2300 9.60265E-05-2.84315E-05-2.89582E-05 2.99166E-06-1.28080E-19-8.04174E-19
 -1      2301 9.55287E-05-2.82435E-05-2.88407E-05 3.01481E-06-3.92901E-19-2.98689E-19
 -1      2302 9.62478E-05-2.84411E-05-2.90619E-05 3.24484E-06-2.45449E-19-7.87699E-19
 -1      2303 9.67004E-05-2.85215E-05-2.92068E-05 3.49631E-06-2.83955E-20-6.82295E-19
 -1      2304 9.59320E-05-2.82348E-05-2.90171E-05 3.49863E-06-1.86226E-19-5.58726E-19
 -1      2305 9.69642E-05-2.85396E-05-2.93267E-05 3.81204E-06-2.92578E-20-9.26087E-19
 -1      2306 9.74965E-05-2.86447E-05-2.94938E-05 4.12107E-06-2.50724E-19-1.00885E-18
 -1      2307 9.64138E-05-2.82303E-05-2.92255E-05 4.10097E-06-2.08156E-19-7.97151E-19
 -1      2308 9.78126E-05-2.86842E-05-2.96281E-05 4.50028E-06-4.00197E-19-1.00557E-18
 -1      2309 9.84394E-05-2.88314E-05-2.98173E-05 4.85955E-06-2.08807E-19-1.01002E-18
 -1      2310 9.69903E-05-2.82568E-05-2.94615E-05 4.83340E-06-3.75834E-19-1.15894E-18
 -1      2311 9.88243E-05-2.89136E-05-2.99625E-05 5.29032E-06-9.18894E-20-1.08765E-18
 -1      2312 9.95611E-05-2.91282E-05-3.01715E-05 5.67556E-06-1.05183E-19-1.23730E-18
 -1      2313 9.76883E-05-2.83569E-05-2.97183E-05 5.68517E-06-1.76378E-19-8.11626E-19
 -1      2314 1.00042E-04-2.92881E-05-3.03222E-05 6.12629E-06-2.99610E-19-1.25222E-18
 -1      2315 1.00904E-04-2.96074E-05-3.05450E-05 6.48714E-06-2.20607E-19-1.18934E-18
 -1      2316 9.85523E-05-2.85998E-05-2.99860E-05 6.61285E-06-3.51505E-19-6.68861E-19
 -1      2317 1.01527E-04-2.98993E-05-3.06931E-05 6.89621E-06 9.50588E-20-1.38164E-18
 -1      2318 1.02527E-04-3.03745E-05-3.09188E-05 7.14440E-06 3.02562E-21-1.13408E-18
 -1      2319 9.96549E-05-2.90936E-05-3.02499E-05 7.52402E-06-1.64574E-19-6.93416E-19
 -1      2320 1.03363E-04-3.08754E-05-3.10554E-05 7.40599E-06-3.11181E-19-9.74144E-19
 -1      2321 1.04506E-04-3.15671E-05-3.12685E-05 7.40362E-06-2.81786E-19-7.32065E-19
 -1      2322 1.01112E-04-2.99965E-05-3.04932E-05 8.25422E-06-1.09030E-19-1.22016E-18
 -1      2323 1.05655E-04-3.23692E-05-3.13881E-05 7.35104E-06-1.25713E-19-6.92080E-19
 -1      2324 1.06926E-04-3.33234E-05-3.15722E-05 6.90807E-06 1.23285E-19-4.54034E-19
 -1      2325 1.03096E-04-3.15116E-05-3.07034E-05 8.53743E-06-2.88894E-19-6.66823E-19
 -1      2326 1.08495E-04-3.44931E-05-3.16832E-05 6.30206E-06 6.83903E-19-2.67692E-19
 -1      2327 1.09819E-04-3.56744E-05-3.18296E-05 5.20212E-06 1.17840E-18-9.36029E-20
 -1      2328 1.05818E-04-3.38302E-05-3.08889E-05 7.97631E-06 5.39660E-19 3.18762E-19
 -1      2329 1.11838E-04-3.71473E-05-3.19690E-05 3.76050E-06 1.29398E-18 2.79810E-19
 -1      2330 1.13023E-04-3.83244E-05-3.20909E-05 1.85720E-06 1.35272E-18 6.95733E-19
 -1      2331 1.09429E-04-3.69554E-05-3.11075E-05 6.04233E-06 1.44117E-18 5.50706E-19
 -1      2332 1.15287E-04-3.97458E-05-3.23408E-05-6.31006E-07 1.03319E-18 9.39671E-19
 -1      2333 1.15955E-04-4.03427E-05-3.24886E-05-3.22909E-06 1.49689E-18 1.04299E-18
 -1      2334 1.13783E-04-4.03865E-05-3.15000E-05 2.20193E-06 1.31500E-18 1.42718E-18
 -1      2335 1.17782E-04-4.08749E-05-3.29733E-05-6.54921E-06 1.56400E-18 8.96561E-19
 -1      2336 1.17436E-04-4.00278E-05-3.32226E-05-9.16528E-06 1.49196E-18 8.60097E-19
 -1      2337 1.18004E-04-4.26461E-05-3.23132E-05-3.69990E-06 1.41154E-18 9.76100E-19
 -1      2338 1.17807E-04-3.86348E-05-3.40296E-05-1.21623E-05 1.22012E-18 4.16649E-19
 -1      2339 1.16223E-04-3.58197E-05-3.44259E-05-1.34289E-05 1.17147E-18 6.25598E-19
 -1      2340 1.20332E-04-4.14170E-05-3.38050E-05-1.04674E-05 1.23033E-18 4.21627E-19
 -1      2341 1.14537E-04-3.22530E-05-3.54655E-05-1.38801E-05 6.47252E-19 5.51564E-20
 -1      2342 1.12394E-04-2.84837E-05-3.59068E-05-1.22605E-05-1.03232E-19-2.68910E-19
 -1      2343 1.18944E-04-3.49311E-05-3.59960E-05-1.47559E-05 7.13837E-19 2.42728E-20
 -1      2344 1.10161E-04-2.49668E-05-3.67047E-05-8.63205E-06-5.59902E-19-5.73455E-19
 -1      2345 1.08972E-04-2.28642E-05-3.69248E-05-4.28038E-06-1.36978E-18-3.62199E-19
 -1      2346 1.14763E-04-2.61237E-05-3.81084E-05-1.18786E-05-7.10369E-19-5.01444E-19
 -1      2347 1.08663E-04-2.23713E-05-3.70290E-05 1.86593E-06-2.22733E-18-3.39109E-19
 -1      2348 1.09471E-04-2.37797E-05-3.68841E-05 6.61432E-06-2.27720E-18-4.44050E-19
 -1      2349 1.11947E-04-2.05877E-05-3.93398E-05-1.43581E-06-1.74656E-18 1.28352E-19
 -1      2350 1.11454E-04-2.68954E-05-3.61954E-05 1.10496E-05-1.97782E-18-1.12522E-18
 -1      2351 1.13555E-04-3.05345E-05-3.57823E-05 1.33744E-05-1.51313E-18-1.00130E-18
 -1      2352 1.13833E-04-2.40962E-05-3.86210E-05 1.00122E-05-2.53893E-18 4.97844E-19
 -1      2353 1.15535E-04-3.43520E-05-3.47528E-05 1.37567E-05-1.12393E-18-1.89639E-18
 -1      2354 1.17336E-04-3.75234E-05-3.43338E-05 1.30297E-05-1.06190E-18-1.71865E-18
 -1      2355 1.18184E-04-3.30053E-05-3.65244E-05 1.47664E-05-2.03423E-18-1.09691E-18
 -1      2356 1.17457E-04-3.94556E-05-3.34563E-05 1.04071E-05-9.91823E-19-1.89667E-18
 -1      2357 1.18060E-04-4.07310E-05-3.31749E-05 7.94335E-06-2.95581E-19-1.40686E-18
 -1      2358 1.20387E-04-4.04099E-05-3.42412E-05 1.17765E-05-1.05149E-18-2.26604E-18
 -1      2359 1.16495E-04-4.05418E-05-3.26245E-05 4.56900E-06-7.37567E-19-1.13320E-18
 -1      2360 1.15989E-04-4.01886E-05-3.24630E-05 1.87654E-06-1.08710E-18-1.14878E-18
 -1      2361 1.18782E-04-4.27460E-05-3.25778E-05 5.21212E-06-6.14699E-19-1.10676E-18
 -1      2362 1.13770E-04-3.88709E-05-3.21762E-05-8.17133E-07-6.63478E-19-1.27428E-18
 -1      2363 1.12651E-04-3.77608E-05-3.20575E-05-2.89830E-06 2.72176E-20-1.84581E-18
 -1      2364 1.14798E-04-4.10263E-05-3.16421E-05-1.02826E-06-1.08272E-18-6.71070E-19
 -1      2365 1.10565E-04-3.62488E-05-3.19068E-05-4.54125E-06 7.92154E-19-1.99823E-18
 -1      2366 1.09253E-04-3.50390E-05-3.17727E-05-5.80312E-06 7.94179E-19-1.37187E-18
 -1      2367 1.10374E-04-3.76838E-05-3.11914E-05-5.30533E-06 3.60244E-19-3.48281E-19
 -1      2368 1.07594E-04-3.37856E-05-3.16650E-05-6.54855E-06 5.09591E-19-8.02757E-19
 -1      2369 1.06317E-04-3.27749E-05-3.14951E-05-7.10272E-06 5.17026E-19-9.29688E-19
 -1      2370 1.06583E-04-3.44199E-05-3.09610E-05-7.57962E-06 1.04169E-18-8.81848E-19
 -1      2371 1.05095E-04-3.18930E-05-3.13849E-05-7.23148E-06 2.03755E-19-6.51854E-19
 -1      2372 1.03944E-04-3.11481E-05-3.11846E-05-7.29145E-06-8.22366E-20-1.03668E-18
 -1      2373 1.03693E-04-3.19123E-05-3.07871E-05-8.34850E-06 3.06543E-19-8.32724E-19
 -1      2374 1.03060E-04-3.05872E-05-3.10591E-05-7.05486E-06-2.16938E-19-5.40303E-19
 -1      2375 1.02061E-04-3.00727E-05-3.08447E-05-6.82039E-06-2.32983E-19-6.05718E-19
 -1      2376 1.01591E-04-3.02327E-05-3.05975E-05-8.15813E-06 1.43628E-19-9.79211E-19
 -1      2377 1.01413E-04-2.97414E-05-3.07077E-05-6.39901E-06-8.95286E-19-9.00643E-19
 -1      2378 1.00563E-04-2.93974E-05-3.04956E-05-6.01960E-06-5.73387E-19-1.79675E-18
 -1      2379 1.00066E-04-2.92104E-05-3.03770E-05-7.43381E-06-1.08607E-18-1.39290E-18
 -1      2380 1.00074E-04-2.92138E-05-3.03559E-05-5.53036E-06 1.23623E-18-1.82967E-18
 -1      2381 9.93617E-05-2.89870E-05-3.01587E-05-5.10395E-06 1.19177E-18-8.57713E-19
 -1      2382 9.89380E-05-2.86383E-05-3.01355E-05-6.46615E-06 1.41485E-19-1.04885E-18
 -1      2383 9.89821E-05-2.88919E-05-3.00248E-05-4.61643E-06 1.01183E-18-8.95577E-19
 -1      2384 9.83942E-05-2.87428E-05-2.98496E-05-4.20041E-06 1.20712E-18 9.80832E-20
 -1      2385 9.80788E-05-2.83481E-05-2.98900E-05-5.43807E-06 7.68600E-19-1.07898E-18
 -1      2386 9.80935E-05-2.86981E-05-2.97275E-05-3.75197E-06 1.38906E-19 1.28527E-18
 -1      2387 9.76153E-05-2.85996E-05-2.95775E-05-3.37565E-06 9.25214E-20 9.92824E-19
 -1      2388 9.74083E-05-2.82224E-05-2.96557E-05-4.45534E-06 1.26303E-18 1.89675E-19
 -1      2389 9.73746E-05-2.85818E-05-2.94705E-05-2.98286E-06-4.34799E-19 6.04880E-19
 -1      2390 9.69913E-05-2.85161E-05-2.93459E-05-2.65768E-06-1.07449E-19 9.65758E-20
 -1      2391 9.68768E-05-2.81864E-05-2.94428E-05-3.57187E-06-1.71932E-19-3.59693E-19
 -1      2392 9.67981E-05-2.85112E-05-2.92553E-05-2.32431E-06 3.14178E-19-2.16780E-19
 -1      2393 9.64955E-05-2.84665E-05-2.91546E-05-2.05102E-06 4.50224E-19-7.24057E-20
 -1      2394 9.64523E-05-2.81942E-05-2.92570E-05-2.80828E-06-5.15481E-19-7.44017E-19
 -1      2395 9.63406E-05-2.84666E-05-2.90802E-05-1.77375E-06 7.23740E-19-1.22799E-19
 -1      2396 9.61053E-05-2.84345E-05-2.90010E-05-1.54739E-06 3.23743E-19 4.00402E-19
 -1      2397 9.61130E-05-2.82191E-05-2.91005E-05-2.16498E-06 4.15697E-19-1.88564E-18
 -1      2398 9.59799E-05-2.84333E-05-2.89416E-05-1.31833E-06-3.48579E-19 9.45129E-20
 -1      2399 9.57999E-05-2.84087E-05-2.88810E-05-1.13000E-06-2.31173E-19-2.08516E-19
 -1      2400 9.58408E-05-2.82438E-05-2.89727E-05-1.63169E-06-4.58896E-19-5.03609E-19
 -1      2401 9.56992E-05-2.84064E-05-2.88346E-05-9.39712E-07-1.09754E-19-1.26337E-19
 -1      2402 9.55654E-05-2.83860E-05-2.87894E-05-7.82809E-07-3.67242E-19-5.83643E-19
 -1      2403 9.56214E-05-2.82606E-05-2.88709E-05-1.18925E-06-6.75334E-19-7.05600E-19
 -1      2404 5.57011E-05-3.54179E-05-8.36605E-06 4.11070E-05-1.67225E-18 6.36545E-19
 -1      2405 4.19579E-05-2.85192E-05-5.37055E-06 3.40745E-05-1.79740E-18 2.67027E-19
 -1      2406 9.34631E-05-2.76655E-05-2.81894E-05-6.45889E-07 5.83450E-19 3.68175E-19
 -1      2407 9.34947E-05-2.75564E-05-2.82343E-05-3.21030E-07 8.15976E-19 5.78562E-19
 -1      2408 9.35212E-05-2.78385E-05-2.81420E-05-1.16406E-06 4.77677E-19 1.76816E-19
 -1      2409 9.34092E-05-2.77398E-05-2.81303E-05-9.70168E-07 5.19057E-19 3.42883E-19
 -1      2410 9.41493E-05-2.77509E-05-2.84690E-05-7.67727E-07 6.20983E-19 1.19378E-19
 -1      2411 9.37677E-05-2.79896E-05-2.81836E-05-1.49137E-06 2.34334E-19 2.84972E-19
 -1      2412 9.35608E-05-2.78960E-05-2.81347E-05-1.36666E-06 2.68292E-19 2.36349E-19
 -1      2413 9.41597E-05-2.79527E-05-2.83842E-05-1.36096E-06 4.43277E-19 1.57365E-19
 -1      2414 9.41515E-05-2.81303E-05-2.82877E-05-1.72626E-06 3.68497E-19 1.83626E-19
 -1      2415 9.38774E-05-2.80392E-05-2.82126E-05-1.63112E-06 2.31632E-19 2.21983E-19
 -1      2416 9.43217E-05-2.80964E-05-2.83898E-05-1.75221E-06 2.52050E-19-1.18397E-19
 -1      2417 9.46438E-05-2.82679E-05-2.84393E-05-1.93583E-06 6.45776E-20 5.45646E-19
 -1      2418 9.43156E-05-2.81764E-05-2.83437E-05-1.84328E-06 3.47091E-19 5.37960E-19
 -1      2419 9.46001E-05-2.82062E-05-2.84605E-05-2.04753E-06 1.15013E-19 9.05177E-20
 -1      2420 9.52342E-05-2.84099E-05-2.86305E-05-2.16684E-06 1.28317E-19 5.79627E-19
 -1      2421 9.48542E-05-2.83138E-05-2.85166E-05-2.05812E-06 1.55695E-19 4.81010E-19
 -1      2422 9.49735E-05-2.82970E-05-2.85807E-05-2.32048E-06 1.72088E-19 3.96788E-19
 -1      2423 9.59252E-05-2.85660E-05-2.88587E-05-2.45095E-06 4.12558E-19 1.22021E-19
 -1      2424 9.54888E-05-2.84597E-05-2.87264E-05-2.31370E-06 3.15431E-19 3.16809E-19
 -1      2425 9.54334E-05-2.83812E-05-2.87414E-05-2.62239E-06 4.46766E-19 1.42415E-19
 -1      2426 9.67291E-05-2.87493E-05-2.91237E-05-2.80611E-06 7.19739E-19 7.59744E-20
 -1      2427 9.62269E-05-2.86250E-05-2.89718E-05-2.63420E-06 5.65169E-19 1.29611E-19
 -1      2428 9.59818E-05-2.84723E-05-2.89374E-05-2.98723E-06 4.48765E-19-2.15420E-19
 -1      2429 9.76635E-05-2.89770E-05-2.94260E-05-3.23488E-06-1.76888E-20 5.25924E-19
 -1      2430 9.70843E-05-2.88250E-05-2.92532E-05-3.02969E-06 4.08995E-19 3.42906E-19
 -1      2431 9.66295E-05-2.85878E-05-2.91656E-05-3.43254E-06 3.40198E-19 5.00569E-20
 -1      2432 9.87482E-05-2.92723E-05-2.97647E-05-3.71959E-06-2.90026E-19 7.48669E-19
 -1      2433 9.80818E-05-2.90802E-05-2.95708E-05-3.49290E-06-5.32291E-21 6.65521E-19
 -1      2434 9.73938E-05-2.87520E-05-2.94233E-05-3.95705E-06-2.42148E-19 1.65487E-20
 -1      2435 1.00001E-04-2.96660E-05-3.01350E-05-4.21422E-06 4.38025E-20 3.70935E-19
 -1      2436 9.92418E-05-2.94184E-05-2.99224E-05-3.99264E-06-2.62860E-19 5.75452E-19
 -1      2437 9.82987E-05-2.89990E-05-2.97059E-05-4.53492E-06-7.05258E-20 4.32997E-19
 -1      2438 1.01433E-04-3.01969E-05-3.05257E-05-4.63315E-06 3.97165E-19 2.75332E-19
 -1      2439 1.00585E-04-2.98763E-05-3.03009E-05-4.46396E-06 3.97624E-19 4.20572E-19
 -1      2440 9.93740E-05-2.93771E-05-3.00056E-05-5.10642E-06 1.61710E-19 3.28551E-19
 -1      2441 1.03040E-04-3.09101E-05-3.09175E-05-4.83847E-06 3.19709E-20 1.70929E-19
 -1      2442 1.02124E-04-3.04993E-05-3.06926E-05-4.79550E-06 1.34486E-19 5.96279E-19
 -1      2443 1.00656E-04-2.99504E-05-3.03105E-05-5.56547E-06 2.40371E-19 3.59636E-19
 -1      2444 1.04797E-04-3.18455E-05-3.12820E-05-4.63167E-06 2.43305E-19 4.05972E-20
 -1      2445 1.03858E-04-3.13360E-05-3.10757E-05-4.81729E-06 1.89578E-19 3.64059E-19
 -1      2446 1.02184E-04-3.07961E-05-3.06049E-05-5.74614E-06 4.07655E-21 1.78065E-19
 -1      2447 1.06630E-04-3.30079E-05-3.15858E-05-3.76247E-06-3.24007E-20-6.02436E-20
 -1      2448 1.05750E-04-3.24179E-05-3.14218E-05-4.29775E-06 1.89062E-19 2.94625E-19
 -1      2449 1.03993E-04-3.19844E-05-3.08726E-05-5.41459E-06 5.64385E-21 5.47781E-19
 -1      2450 1.08388E-04-3.43070E-05-3.17996E-05-1.97898E-06-7.66300E-21-3.81918E-20
 -1      2451 1.07700E-04-3.37136E-05-3.17017E-05-2.96862E-06-1.15094E-20-2.15183E-20
 -1      2452 1.06078E-04-3.35277E-05-3.11050E-05-4.28132E-06-1.25558E-20 8.78407E-19
 -1      2453 1.09794E-04-3.54678E-05-3.19145E-05 8.46414E-07 6.97108E-19-1.69560E-19
 -1      2454 1.09483E-04-3.50472E-05-3.18974E-05-6.10957E-07 2.50500E-19-2.14141E-19
 -1      2455 1.08328E-04-3.52815E-05-3.13135E-05-2.06343E-06 2.37500E-19 5.15779E-19
 -1      2456 1.10413E-04-3.59617E-05-3.19602E-05 4.49142E-06 3.61855E-19 1.30129E-18
 -1      2457 1.10695E-04-3.60012E-05-3.20174E-05 2.75937E-06 8.40131E-19 6.40580E-19
 -1      2458 1.10422E-04-3.68089E-05-3.15431E-05 1.35771E-06 1.69072E-19 4.70851E-19
 -1      2459 1.09743E-04-3.50996E-05-3.20077E-05 8.11218E-06-1.21293E-18 1.65443E-18
 -1      2460 1.10758E-04-3.59042E-05-3.21072E-05 6.60524E-06-2.93020E-20 1.57288E-18
 -1      2461 1.11743E-04-3.73032E-05-3.18748E-05 5.64651E-06-8.27263E-20 2.23974E-18
 -1      2462 1.07543E-04-3.24852E-05-3.21322E-05 1.01542E-05-1.49107E-18 8.79604E-19
 -1      2463 1.09177E-04-3.41005E-05-3.22276E-05 9.63293E-06-1.63530E-18 1.44491E-18
 -1      2464 1.11507E-04-3.58271E-05-3.23893E-05 9.66169E-06-1.21233E-18 1.83279E-18
 -1      2465 1.04413E-04-2.87782E-05-3.23446E-05 8.94113E-06-3.37159E-19 4.97129E-19
 -1      2466 1.06128E-04-3.06673E-05-3.24032E-05 1.00326E-05-1.02365E-18-1.13615E-19
 -1      2467 1.09351E-04-3.21003E-05-3.30773E-05 1.14057E-05-5.63214E-19 5.33962E-19
 -1      2468 1.01876E-04-2.57940E-05-3.25534E-05 4.02481E-06 9.05147E-19 3.31486E-19
 -1      2469 1.02904E-04-2.69836E-05-3.25753E-05 6.64986E-06 1.97776E-19 1.66369E-19
 -1      2470 1.06164E-04-2.74164E-05-3.37765E-05 9.02936E-06-5.36873E-20-5.39974E-19
 -1      2471 1.01665E-04-2.55540E-05-3.26153E-05-2.81830E-06 1.28749E-19 3.21290E-19
 -1      2472 1.01428E-04-2.52565E-05-3.26126E-05 2.55425E-07 6.35142E-19 9.11189E-20
 -1      2473 1.03994E-04-2.44024E-05-3.41774E-05 2.49706E-06 7.18390E-19-8.24939E-19
 -1      2474 1.04000E-04-2.82387E-05-3.25178E-05-8.33597E-06 5.81157E-19 7.12699E-19
 -1      2475 1.02639E-04-2.66747E-05-3.24819E-05-6.21867E-06 3.32586E-19 8.59457E-19
 -1      2476 1.04552E-04-2.51689E-05-3.40737E-05-5.27641E-06-2.95006E-20-5.85885E-19
 -1      2477 1.07376E-04-3.20577E-05-3.23363E-05-1.03112E-05 7.51388E-19 9.25020E-19
 -1      2478 1.05600E-04-3.01743E-05-3.22613E-05-9.84743E-06 8.90612E-19 7.72233E-19
 -1      2479 1.07358E-04-2.91202E-05-3.35337E-05-1.04503E-05 6.99193E-19-1.45193E-19
 -1      2480 1.09983E-04-3.49742E-05-3.21814E-05-8.75041E-06 7.24511E-19 2.56512E-19
 -1      2481 1.08530E-04-3.36476E-05-3.20772E-05-9.70128E-06 9.53279E-19 8.39975E-19
 -1      2482 1.10360E-04-3.36956E-05-3.28117E-05-1.11826E-05 1.05298E-18-7.21715E-20
 -1      2483 1.10935E-04-3.60967E-05-3.20842E-05-5.24429E-06 7.96390E-19-5.81994E-19
 -1      2484 1.10179E-04-3.56080E-05-3.19922E-05-6.86698E-06 5.71903E-19 1.26893E-19
 -1      2485 1.11832E-04-3.66474E-05-3.21810E-05-8.34503E-06 1.08495E-18 8.34228E-20
 -1      2486 1.10392E-04-3.57241E-05-3.19966E-05-1.48432E-06 5.96450E-19-8.92065E-20
 -1      2487 1.10332E-04-3.58886E-05-3.19611E-05-3.10596E-06 9.04376E-19-1.28775E-19
 -1      2488 1.11418E-04-3.73006E-05-3.17473E-05-4.05538E-06 5.87459E-19-5.22978E-19
 -1      2489 1.08930E-04-3.45705E-05-3.18598E-05 1.52379E-06 1.27291E-18-5.11500E-19
 -1      2490 1.09383E-04-3.50729E-05-3.19032E-05 2.72742E-07 6.00550E-19-7.18243E-19
 -1      2491 1.09737E-04-3.63124E-05-3.14710E-05-2.62310E-08 1.12661E-18-4.56183E-19
 -1      2492 1.07076E-04-3.32233E-05-3.16430E-05 3.46502E-06 1.04851E-18 7.32244E-19
 -1      2493 1.07831E-04-3.38184E-05-3.17620E-05 2.68339E-06 1.28696E-18 2.01959E-19
 -1      2494 1.07549E-04-3.46252E-05-3.12655E-05 2.93042E-06 8.49829E-19 3.20580E-19
 -1      2495 1.05167E-04-3.20024E-05-3.13498E-05 4.43419E-06 6.29433E-19 7.18170E-19
 -1      2496 1.06054E-04-3.25568E-05-3.15245E-05 4.06556E-06 1.13718E-18 1.03048E-18
 -1      2497 1.05361E-04-3.29142E-05-3.10625E-05 4.68512E-06 1.21747E-18 5.76536E-19
 -1      2498 1.03376E-04-3.10204E-05-3.10048E-05 4.68161E-06 1.17282E-19-2.35555E-19
 -1      2499 1.04281E-04-3.14834E-05-3.12102E-05 4.61325E-06 6.23020E-19 1.78469E-19
 -1      2500 1.03406E-04-3.14946E-05-3.08308E-05 5.44122E-06 8.79063E-19 8.68970E-20
 -1      2501 1.01779E-04-3.02790E-05-3.06390E-05 4.46656E-06-4.27640E-19-9.68976E-19
 -1      2502 1.02632E-04-3.06443E-05-3.08523E-05 4.58642E-06-5.01594E-19-2.45614E-19
 -1      2503 1.01745E-04-3.04395E-05-3.05691E-05 5.49496E-06 8.68041E-19-4.44758E-19
 -1      2504 1.00397E-04-2.97381E-05-3.02795E-05 3.99783E-06-5.54865E-19 2.75553E-19
 -1      2505 1.01161E-04-3.00175E-05-3.04840E-05 4.21731E-06-5.93775E-19-6.61414E-19
 -1      2506 1.00367E-04-2.97066E-05-3.02904E-05 5.11741E-06-6.63723E-19-3.58295E-19
 -1      2507 9.92297E-05-2.93501E-05-2.99457E-05 3.42218E-06-9.24391E-19 8.90189E-19
 -1      2508 9.98879E-05-2.95601E-05-3.01311E-05 3.68008E-06-8.01995E-19 5.32085E-19
 -1      2509 9.92331E-05-2.92199E-05-3.00120E-05 4.51594E-06-1.34564E-18 8.69942E-19
 -1      2510 9.82618E-05-2.90739E-05-2.96495E-05 2.83240E-06-1.10781E-19 2.36434E-18
 -1      2511 9.88127E-05-2.92302E-05-2.98104E-05 3.09086E-06-4.15799E-19 1.53775E-18
 -1      2512 9.83073E-05-2.89067E-05-2.97486E-05 3.83233E-06-8.71219E-19 7.96375E-19
 -1      2513 9.74734E-05-2.88777E-05-2.93959E-05 2.28075E-06 4.18467E-19 1.13328E-18
 -1      2514 9.79232E-05-2.89932E-05-2.95308E-05 2.51921E-06 3.67845E-19 1.79157E-18
 -1      2515 9.75561E-05-2.87099E-05-2.95105E-05 3.15446E-06 4.50433E-19 2.00643E-18
 -1      2516 9.68419E-05-2.87375E-05-2.91854E-05 1.79146E-06 3.13682E-19 2.54168E-18
 -1      2517 9.72010E-05-2.88227E-05-2.92953E-05 2.00119E-06 5.02048E-19 2.41566E-18
 -1      2518 9.69516E-05-2.85878E-05-2.93031E-05 2.53057E-06-1.64269E-19 2.10916E-18
 -1      2519 9.63446E-05-2.86358E-05-2.90159E-05 1.37062E-06 3.86132E-20 3.04661E-18
 -1      2520 9.66250E-05-2.86989E-05-2.91028E-05 1.55051E-06-2.15299E-19 2.11897E-18
 -1      2521 9.64695E-05-2.85119E-05-2.91286E-05 1.98175E-06 3.10507E-20 2.76404E-18
 -1      2522 9.59594E-05-2.85601E-05-2.88833E-05 1.01177E-06-4.93115E-19 4.08699E-18
 -1      2523 9.61727E-05-2.86066E-05-2.89499E-05 1.16589E-06 2.54693E-19 4.18747E-18
 -1      2524 9.60874E-05-2.84617E-05-2.89861E-05 1.51293E-06-8.05693E-20 2.58146E-18
 -1      2525 9.56672E-05-2.85022E-05-2.87832E-05 7.05943E-07 1.76678E-19 3.19973E-18
 -1      2526 9.58256E-05-2.85369E-05-2.88322E-05 8.39547E-07-3.84305E-19 3.61552E-18
 -1      2527 9.57886E-05-2.84277E-05-2.88735E-05 1.11411E-06-5.14680E-19 2.63528E-18
 -1      2528 9.54490E-05-2.84574E-05-2.87088E-05 4.44718E-07 3.10403E-19 3.09349E-18
 -1      2529 9.55639E-05-2.84827E-05-2.87442E-05 5.61399E-07 8.84488E-19 3.36005E-18
 -1      2530 9.55584E-05-2.84012E-05-2.87861E-05 7.72021E-07 5.15002E-19 2.90850E-18
 -1      2531 9.53693E-05-2.84513E-05-2.86764E-05 3.11542E-07 3.91426E-19 1.33634E-18
 -1      2532 9.47967E-05-2.74775E-05-2.88549E-05 6.61267E-07 1.90551E-18-2.42665E-19
 -1      2533 9.48766E-05-2.75902E-05-2.88357E-05 7.10917E-07 1.58473E-18-2.76247E-18
 -1      2534 9.46605E-05-2.72809E-05-2.88808E-05 4.78835E-07 1.40157E-18 8.44193E-19
 -1      2535 9.47207E-05-2.73659E-05-2.88664E-05 5.71540E-07 1.14922E-18 7.54004E-19
 -1      2536 9.46923E-05-2.73493E-05-2.88588E-05 7.21968E-07 1.96680E-18 2.62470E-21
 -1      2537 9.51478E-05-2.79930E-05-2.87828E-05 7.17002E-07 1.25021E-18-5.73264E-19
 -1      2538 9.52348E-05-2.81194E-05-2.87604E-05 6.68977E-07 1.87447E-18 8.82488E-19
 -1      2539 9.49704E-05-2.77275E-05-2.88213E-05 7.44108E-07 2.09158E-20-1.75481E-18
 -1      2540 9.50565E-05-2.78509E-05-2.87998E-05 7.40253E-07 3.88972E-19-3.94433E-19
 -1      2541 9.51003E-05-2.78859E-05-2.88075E-05 8.62852E-07 1.68573E-18-1.90421E-18
 -1      2542 9.48925E-05-2.76035E-05-2.88363E-05 8.57378E-07 1.64783E-18-7.19673E-19
 -1      2543 9.45775E-05-2.71611E-05-2.88963E-05 2.25300E-07-2.76708E-19-7.07123E-19
 -1      2544 9.46102E-05-2.72073E-05-2.88884E-05 3.46698E-07 6.48747E-19-2.37238E-19
 -1      2545 9.45431E-05-2.71598E-05-2.88752E-05 4.82653E-07 1.03862E-19-3.32369E-19
 -1      2546 9.45581E-05-2.71328E-05-2.88993E-05-6.20973E-08-3.54085E-19 3.17785E-19
 -1      2547 9.45591E-05-2.71339E-05-2.88991E-05 6.98028E-08-2.95419E-19 4.05662E-19
 -1      2548 9.44617E-05-2.70565E-05-2.88842E-05 1.73086E-07 3.38071E-19-5.22431E-19
 -1      2549 9.46053E-05-2.71998E-05-2.88896E-05-3.41229E-07-4.24924E-19-7.20428E-19
 -1      2550 9.45741E-05-2.71555E-05-2.88971E-05-2.18600E-07 2.94564E-19-4.96355E-19
 -1      2551 9.44587E-05-2.70518E-05-2.88848E-05-1.62516E-07 2.64371E-19 5.67037E-19
 -1      2552 9.47116E-05-2.73511E-05-2.88689E-05-5.67302E-07-9.21567E-20-3.74637E-19
 -1      2553 9.46530E-05-2.72689E-05-2.88828E-05-4.73851E-07-3.19052E-19-1.62333E-19
 -1      2554 9.45345E-05-2.71461E-05-2.88772E-05-4.73823E-07 6.43921E-19-4.19558E-19
 -1      2555 9.48679E-05-2.75738E-05-2.88390E-05-7.12918E-07 5.40661E-19 2.79692E-18
 -1      2556 9.47873E-05-2.74611E-05-2.88580E-05-6.60781E-07 3.06604E-19 1.32754E-19
 -1      2557 9.46801E-05-2.73288E-05-2.88621E-05-7.18228E-07 4.29969E-19 5.84077E-19
 -1      2558 9.50525E-05-2.78401E-05-2.88029E-05-7.46349E-07 1.82599E-19 9.61151E-19
 -1      2559 9.49639E-05-2.77130E-05-2.88248E-05-7.49568E-07 4.02253E-21 2.94985E-18
 -1      2560 9.48814E-05-2.75827E-05-2.88404E-05-8.61968E-07 5.31428E-19 1.87256E-18
 -1      2561 9.52365E-05-2.81170E-05-2.87628E-05-6.69689E-07-1.15939E-18-2.66350E-18
 -1      2562 9.51494E-05-2.79874E-05-2.87858E-05-7.24742E-07 7.67602E-20-5.64620E-19
 -1      2563 9.50982E-05-2.78735E-05-2.88121E-05-8.73573E-07-3.46908E-19-4.57066E-19
 -1      2564 9.53258E-05-2.83371E-05-2.87068E-05-4.28513E-07 3.96423E-19-2.10437E-18
 -1      2565 1.28406E-04-5.65121E-05-3.11781E-05 2.54913E-05 1.09680E-18-2.22304E-18
 -1      2566 1.14020E-04-5.59868E-05-2.47179E-05 3.23496E-05 6.39086E-19-1.22079E-18
 -1      2567 9.36694E-05-2.74423E-05-2.83698E-05 2.14420E-07 9.32229E-19 6.10190E-19
 -1      2568 9.39202E-05-2.73047E-05-2.85054E-05 7.75152E-07 1.03304E-18 7.11518E-19
 -1      2569 9.43361E-05-2.74403E-05-2.86844E-05 1.85333E-07 9.69810E-19 3.30469E-19
 -1      2570 1.44273E-04-4.82404E-05-4.15335E-05 7.39150E-06 1.16404E-18 1.08420E-19
 -1      2571 1.38177E-04-5.28664E-05-3.66299E-05 1.24177E-05 1.33958E-18-1.09733E-18
 -1      2572 3.56872E-05-2.66503E-05-3.63226E-06-2.97690E-05 2.56439E-19 4.91491E-19
 -1      2573 5.16769E-05-3.46451E-05-7.17060E-06-3.90557E-05 9.95052E-19-2.10699E-19
 -1      2574 1.33102E-04-5.68269E-05-3.27660E-05-1.83068E-05-7.24848E-19-1.37050E-18
 -1      2575 1.43130E-04-5.25396E-05-3.88591E-05-1.20842E-05-1.81387E-18-2.75032E-18
 -1      2576 1.49128E-04-1.27222E-05-5.86048E-05-7.81021E-07-2.72872E-18-2.31259E-18
 -1      2577 1.42894E-04-1.31795E-05-5.61050E-05-4.07403E-06-2.15909E-18-3.02126E-18
 -1      2578 8.78797E-05-1.07148E-05-3.31066E-05-1.49715E-06 3.15831E-19-2.48377E-18
 -1      2579 8.79859E-05-1.08403E-05-3.30966E-05-2.60407E-06 1.09843E-19-2.56296E-18
 -1      2580 8.93715E-05-1.29906E-05-3.27361E-05-2.88323E-06 4.84393E-20-2.39237E-18
 -1      2581 8.91192E-05-1.26452E-05-3.27771E-05-9.24647E-07 3.04174E-19-2.33176E-18
 -1      2582 1.47886E-04-1.31526E-05-5.78758E-05 3.10134E-06 3.36569E-18 9.00820E-19
 -1      2583 1.43834E-04-1.01508E-05-5.77437E-05 1.03001E-06 1.89820E-18 7.69450E-19
 -1      2584 1.01210E-04-5.44028E-05-2.00015E-05-3.66384E-05 1.92107E-18 4.51257E-19
 -1      2585 1.18589E-04-5.78980E-05-2.62287E-05-3.03967E-05 1.29765E-18-1.16806E-18
 -1      2586 1.43142E-04-1.28126E-05-5.64280E-05-4.47697E-06 1.30655E-19 8.99284E-19
 -1      2587 1.45288E-04-1.88460E-05-5.44449E-05-6.07116E-06-1.77877E-19 1.07107E-18
 -1      2588 1.47859E-04-2.53791E-05-5.27045E-05 4.31587E-06 3.82859E-18 1.54054E-18
 -1      2589 1.49019E-04-1.88846E-05-5.61292E-05 4.45731E-06 3.99651E-18 2.07089E-18
 -1      2590 1.44561E-04-4.43273E-05-4.31328E-05-5.38419E-06 2.31399E-18 1.34805E-18
 -1      2591 1.48936E-04-3.67315E-05-4.84900E-05 5.07981E-08 2.56323E-18 1.82324E-18
 -1      2592 1.30492E-04-5.54357E-05-3.21677E-05-2.10519E-05 1.55674E-18 1.02067E-18
 -1      2593 1.40554E-04-5.20742E-05-3.82111E-05-1.49825E-05 2.45195E-18 1.39824E-18
 -1      2594 9.90457E-05-5.31151E-05-1.96465E-05-3.81717E-05-7.53859E-19-2.35263E-18
 -1      2595 1.16112E-04-5.60553E-05-2.59992E-05-3.34836E-05 2.09005E-19-6.87261E-19
 -1      2596 6.47040E-05-4.06946E-05-1.01045E-05-4.14317E-05-1.30909E-18-4.25200E-18
 -1      2597 8.25128E-05-4.72944E-05-1.50645E-05-4.33470E-05-1.02915E-18-3.72530E-18
 -1      2598 9.69971E-05-5.19857E-05-1.89605E-05-3.86031E-05-1.77326E-18-2.07962E-18
 -1      2599 3.35442E-05-2.42388E-05-3.62296E-06-2.78083E-05-1.18987E-18-4.98754E-18
 -1      2600 4.70613E-05-3.03153E-05-6.87801E-06-3.76244E-05-9.58841E-19-4.97928E-18
 -1      2601 2.02664E-05-1.58894E-05-1.41807E-06-1.23514E-06-7.95496E-19-5.06992E-18
 -1      2602 2.36456E-05-1.86403E-05-1.80082E-06-1.72222E-05-7.87423E-19-5.45722E-18
 -1      2603 3.68887E-05-1.89025E-05-7.15726E-06-2.22201E-05-8.80067E-19-5.01189E-18
 -1      2604 3.08541E-05-2.45640E-05-2.56121E-06 2.75238E-05-6.48827E-19-3.83219E-18
 -1      2605 2.19570E-05-1.92372E-05-9.45283E-07 1.49329E-05 4.57398E-20-4.40203E-18
 -1      2606 6.32347E-05-3.94396E-05-1.03092E-05 4.20385E-05-1.36881E-18-1.40004E-18
 -1      2607 4.54500E-05-3.19410E-05-5.53709E-06 3.49839E-05-6.87791E-19-2.71771E-18
 -1      2608 1.08687E-04-5.59410E-05-2.27473E-05 3.56720E-05-2.62241E-18 7.57036E-20
 -1      2609 8.74329E-05-4.98207E-05-1.58538E-05 3.97282E-05-1.78385E-18-5.75453E-19
 -1      2610 1.37881E-04-5.53398E-05-3.54627E-05 1.92385E-05-3.15552E-18-1.67247E-18
 -1      2611 1.26236E-04-5.76215E-05-2.94401E-05 2.46080E-05-3.55224E-18-9.90182E-19
 -1      2612 1.47099E-04-4.50997E-05-4.43774E-05 9.84498E-07-2.06512E-18-2.88965E-18
 -1      2613 1.42749E-04-5.05522E-05-3.96548E-05 9.33624E-06-2.63327E-18-2.04198E-18
 -1      2614 1.40427E-04-5.49846E-05-3.67171E-05 7.02365E-06-2.48551E-18-1.71376E-18
 -1      2615 1.44447E-04-2.35500E-05-5.24258E-05-9.15218E-06-1.57654E-18-2.97182E-18
 -1      2616 1.46604E-04-3.43777E-05-4.82714E-05-6.38690E-06-1.77644E-18-3.40465E-18
 -1      2617 1.49548E-04-1.53900E-05-5.77639E-05 4.03295E-06-3.09294E-18-2.75519E-18
 -1      2618 1.49383E-04-1.32746E-05-5.87553E-05 1.87007E-06-2.87652E-18-2.88629E-18
 -1      2619 1.36922E-04-1.05672E-05-5.43754E-05 9.73006E-07-2.76302E-18-2.70035E-18
 -1      2620 1.49007E-04-3.02445E-05-5.11865E-05 4.69110E-06-1.71079E-18-2.58260E-18
 -1      2621 1.52136E-04-2.26733E-05-5.57677E-05 5.15464E-06-2.63364E-18-2.78060E-18
 -1      2622 1.40761E-04-1.78725E-05-5.28128E-05 8.40650E-06-2.91316E-18-3.41947E-18
 -1      2623 1.45680E-04-4.77065E-05-4.22348E-05-4.63601E-06-1.90889E-18-2.71728E-18
 -1      2624 1.48820E-04-4.19142E-05-4.62906E-05 4.71545E-07-1.46410E-18-2.19487E-18
 -1      2625 1.42494E-04-5.22763E-05-3.86864E-05-1.38669E-06-1.57538E-18-1.47447E-18
 -1      2626 6.82112E-05-4.26809E-05-1.08282E-05-4.07578E-05 1.47553E-18 1.60809E-18
 -1      2627 8.37891E-05-4.81460E-05-1.53175E-05-4.22808E-05 2.08434E-18 1.69523E-18
 -1      2628 9.83701E-05-5.25128E-05-1.92794E-05-3.73183E-05 2.12415E-18 1.30205E-19
 -1      2629 6.55743E-05-3.79769E-05-1.14625E-05-3.94576E-05 1.80249E-18-1.02491E-19
 -1      2630 2.09772E-05-1.68206E-05-1.29516E-06-7.68262E-06-8.08414E-19 3.94506E-18
 -1      2631 2.54336E-05-1.96874E-05-2.12113E-06-1.94971E-05-2.72639E-19 2.62665E-18
 -1      2632 9.50349E-05-2.00037E-05-3.22043E-05-1.17158E-05-1.55986E-18-1.13595E-18
 -1      2633 9.54316E-05-2.33301E-05-3.09226E-05-7.90677E-06-1.40151E-18-9.89513E-19
 -1      2634 9.50392E-05-2.25303E-05-3.10619E-05-7.54104E-06-1.26938E-18-1.30678E-18
 -1      2635 9.32290E-05-1.76935E-05-3.24001E-05-1.12419E-05-1.38880E-18-1.55466E-18
 -1      2636 9.62671E-05-2.50685E-05-3.05389E-05 7.54719E-06 1.76702E-18 1.59594E-18
 -1      2637 9.73785E-05-2.37531E-05-3.15749E-05 1.06506E-05 1.86961E-18 1.92181E-18
 -1      2638 9.58334E-05-2.12834E-05-3.20059E-05 1.18461E-05 2.00953E-18 1.18309E-18
 -1      2639 9.58423E-05-2.41365E-05-3.07646E-05 7.61899E-06 1.86500E-18 8.30910E-19
 -1      2640 1.29142E-04-8.88441E-06-5.20336E-05 5.97742E-08 1.82112E-18-1.38978E-18
 -1      2641 1.37477E-04-1.08840E-05-5.46791E-05-2.44564E-06 6.15793E-19-5.05096E-19
 -1      2642 1.28786E-04-1.17207E-05-5.06281E-05-6.07018E-06 4.23516E-20-2.63491E-18
 -1      2643 9.08277E-05-1.49892E-05-3.24979E-05-6.71894E-06-6.12538E-19-2.37248E-18
 -1      2644 8.97400E-05-1.31461E-05-3.28784E-05-7.89220E-06-6.85346E-19-2.51630E-18
 -1      2645 9.03887E-05-1.39335E-05-3.28269E-05-9.06437E-06-9.30619E-19-2.39100E-18
 -1      2646 9.47529E-05-2.68989E-05-2.90937E-05 1.74003E-06 1.29540E-18 3.80596E-19
 -1      2647 9.42186E-05-1.90656E-05-3.22534E-05 1.15480E-05 2.06036E-18 3.59433E-19
 -1      2648 2.55611E-05-1.50782E-05-3.95998E-06-2.15906E-07-1.60106E-18 3.35234E-18
 -1      2649 1.41995E-04-4.42037E-05-4.20493E-05-3.31393E-06 1.94394E-19 1.23074E-18
 -1      2650 1.44446E-04-3.65257E-05-4.63821E-05 8.60614E-06-1.90392E-18-2.23956E-18
 -1      2651 3.77249E-05-2.34418E-05-5.67856E-06 2.84942E-05-2.25967E-18 4.45751E-19
 -1      2652 3.44036E-05-1.69894E-05-6.93083E-06 2.12806E-05-2.67578E-18 1.27966E-18
 -1      2653 4.97315E-05-2.53043E-05-1.01616E-05 3.22163E-05-2.86424E-18-1.08632E-19
 -1      2654 1.07444E-04-5.52358E-05-2.20338E-05 3.56308E-05-1.31078E-19-9.32266E-19
 -1      2655 7.11485E-05-4.11528E-05-1.26540E-05 4.06246E-05-2.44369E-18 1.24726E-19
 -1      2656 1.33896E-04-5.67126E-05-3.30244E-05 1.50715E-05 1.45277E-18-4.23622E-19
 -1      2657 9.53746E-05-2.83744E-05-2.87143E-05 4.76900E-07 1.06303E-18 1.89711E-18
 -1      2658 3.82051E-05-2.18774E-05-6.50814E-06-2.55079E-05 7.14049E-19 5.80641E-19
 -1      2659 9.53416E-05-2.82903E-05-2.87365E-05 5.60546E-07 1.85268E-18 2.30245E-18
 -1      2660 9.54224E-05-2.83761E-05-2.87313E-05-5.44914E-07 2.58585E-19-1.07905E-18
 -1      2661 9.53203E-05-2.82376E-05-2.87516E-05-6.25128E-07-6.00000E-19-2.46372E-18
 -1      2662 9.53246E-05-2.81505E-05-2.87872E-05-8.02446E-07-1.34121E-18-1.92183E-18
 -1      2663 9.55122E-05-2.83850E-05-2.87640E-05-6.69359E-07-7.95677E-19-3.44309E-19
 -1      2664 1.43165E-04-4.05011E-05-4.40135E-05-8.53465E-06-1.47828E-18-2.54068E-18
 -1      2665 9.47002E-05-2.05788E-05-3.17220E-05 9.60134E-06 1.88528E-18 1.61366E-19
 -1      2666 9.53543E-05-2.82132E-05-2.87721E-05 7.36237E-07 1.99798E-18 1.55036E-18
 -1      2667 1.20315E-04-5.87558E-05-2.62448E-05 2.76180E-05-2.56566E-18-1.49290E-19
 -1      2668 1.12974E-04-5.67497E-05-2.38219E-05 2.99200E-05-1.14307E-18-9.66147E-20
 -1      2669 1.28348E-04-5.97842E-05-2.96573E-05 1.86242E-05-1.82350E-18-6.60209E-19
 -1      2670 8.17198E-05-4.49604E-05-1.52622E-05 3.92662E-05-6.94355E-19-4.62639E-19
 -1      2671 1.30299E-04-1.41733E-05-5.04155E-05-8.30374E-06-2.42887E-18-1.98815E-18
 -1      2672 1.38982E-04-1.88713E-05-5.19796E-05-9.47347E-06-1.91874E-18-2.30372E-18
 -1      2673 1.32699E-04-2.37365E-05-4.69455E-05-1.28322E-05-2.02653E-18-1.84537E-18
 -1      2674 2.77024E-05-1.53272E-05-4.75581E-06 6.03446E-06-2.10752E-19-4.11192E-18
 -1      2675 6.32077E-05-3.53907E-05-1.15284E-05-3.85236E-05-2.09175E-18-3.77057E-18
 -1      2676 1.26193E-04-5.83110E-05-2.89566E-05-2.34726E-05 5.17219E-19 3.77671E-19
 -1      2677 1.41594E-04-4.99593E-05-3.92614E-05-3.36624E-06 1.81087E-18 1.96300E-18
 -1      2678 1.42617E-04-3.13449E-05-4.77722E-05 7.86943E-06 2.88986E-18 2.02441E-18
 -1      2679 1.28492E-04-5.93000E-05-2.95548E-05-2.13091E-05 7.15213E-19-9.80441E-19
 -1      2680 1.33881E-04-5.88780E-05-3.25502E-05-1.10019E-05 2.41828E-19-7.39566E-19
 -1      2681 1.22009E-04-5.88504E-05-2.67966E-05-2.38175E-05 1.73112E-18-2.17529E-19
 -1      2682 1.38905E-04-2.42014E-05-4.93384E-05-9.76502E-06-1.56489E-19 3.17426E-19
 -1      2683 9.11583E-05-1.49862E-05-3.26987E-05-9.74847E-06-1.06856E-18-2.22693E-18
 -1      2684 9.21676E-05-1.62613E-05-3.26088E-05-1.07819E-05-1.31936E-18-1.99545E-18
 -1      2685 9.36432E-05-1.91818E-05-3.19070E-05-9.11703E-06-1.33374E-18-1.69590E-18
 -1      2686 9.20878E-05-1.67804E-05-3.22652E-05-8.21911E-06-9.71663E-19-2.13944E-18
 -1      2687 1.38336E-04-1.44996E-05-5.32670E-05 6.84287E-06 3.23503E-18 9.10984E-19
 -1      2688 4.49544E-05-2.65999E-05-7.34275E-06 3.16187E-05 1.74806E-19-3.30936E-18
 -1      2689 9.54730E-05-2.82754E-05-2.88020E-05-8.70779E-07-8.37506E-19-9.13017E-19
 -1      2690 9.05662E-05-1.50447E-05-3.23885E-05 3.13049E-06 9.80187E-19-1.86073E-18
 -1      2691 9.03723E-05-1.47656E-05-3.24235E-05 2.21182E-06 8.38259E-19-1.96198E-18
 -1      2692 9.02343E-05-1.45548E-05-3.24541E-05 1.39340E-06 7.15323E-19-2.11603E-18
 -1      2693 9.01677E-05-1.44596E-05-3.24659E-05 4.54371E-07 5.33985E-19-2.04515E-18
 -1      2694 9.14010E-05-1.64177E-05-3.21220E-05 1.59496E-06 7.10279E-19-1.93427E-18
 -1      2695 9.21648E-05-1.74781E-05-3.20462E-05 6.37004E-06 1.53831E-18-1.19799E-18
 -1      2696 9.16381E-05-1.66709E-05-3.21518E-05 5.53457E-06 1.43823E-18-1.38417E-18
 -1      2697 9.35764E-05-1.97281E-05-3.16912E-05 7.49661E-06 1.68834E-18-6.33543E-19
 -1      2698 9.27936E-05-1.84648E-05-3.18728E-05 6.91618E-06 1.58794E-18-9.14508E-19
 -1      2699 9.34527E-05-1.97821E-05-3.15500E-05 5.61312E-06 1.44027E-18-9.39450E-19
 -1      2700 9.52265E-05-2.53639E-05-2.99524E-05 3.85716E-06 1.54772E-18 2.37305E-19
 -1      2701 9.55500E-05-2.45210E-05-3.04085E-05 5.51077E-06 1.63827E-18 2.83999E-19
 -1      2702 9.52535E-05-2.80088E-05-2.88199E-05 1.01393E-06 8.12510E-19-1.08755E-19
 -1      2703 9.54010E-05-2.81926E-05-2.88015E-05 9.09947E-07 4.80297E-19 2.20342E-18
 -1      2704 9.55009E-05-2.81967E-05-2.88390E-05 1.07826E-06-3.88077E-19 2.61063E-18
 -1      2705 9.50161E-05-2.66257E-05-2.93144E-05 1.59756E-06 1.28312E-18 2.92651E-19
 -1      2706 9.52636E-05-2.61368E-05-2.95888E-05 2.63887E-06 1.43647E-18 3.54863E-19
 -1      2707 9.52894E-05-2.49561E-05-3.01406E-05 3.66676E-06 1.45333E-18 5.15081E-20
 -1      2708 9.47014E-05-2.18779E-05-3.12163E-05 7.76120E-06 1.78654E-18 1.34003E-20
 -1      2709 9.53862E-05-2.58248E-05-2.97820E-05-2.52115E-06-7.05150E-19-1.25422E-18
 -1      2710 9.52359E-05-2.63990E-05-2.95120E-05-1.50100E-06-6.22778E-19-1.15209E-18
 -1      2711 9.52640E-05-2.68931E-05-2.92790E-05-7.10636E-07-6.60010E-19-9.77985E-19
 -1      2712 9.51540E-05-2.72302E-05-2.91146E-05-4.96771E-08-5.86334E-19-9.19492E-19
 -1      2713 9.54445E-05-2.61932E-05-2.96855E-05-1.35157E-06-7.09843E-19-1.14711E-18
 -1      2714 9.51281E-05-2.75099E-05-2.89640E-05 4.86094E-07-5.19063E-19-8.02097E-19
 -1      2715 9.50844E-05-2.77133E-05-2.88738E-05 9.14296E-07-5.22386E-19-8.00429E-19
 -1      2716 9.54563E-05-2.71306E-05-2.92904E-05 4.98248E-08-5.52092E-19-1.08049E-18
 -1      2717 9.50512E-05-2.78651E-05-2.87848E-05 1.27737E-06-6.62255E-19-8.77181E-19
 -1      2718 9.50694E-05-2.79864E-05-2.87477E-05 1.56476E-06-6.57582E-19-1.03267E-18
 -1      2719 9.54103E-05-2.76715E-05-2.90384E-05 1.00801E-06-6.33378E-19-1.09000E-18
 -1      2720 9.50453E-05-2.80565E-05-2.87047E-05 1.82354E-06-5.15712E-19-1.03474E-18
 -1      2721 9.51144E-05-2.81234E-05-2.87063E-05 2.03585E-06-3.84932E-19-1.12316E-18
 -1      2722 9.53644E-05-2.79592E-05-2.88941E-05 1.67535E-06-6.49572E-19-9.38012E-19
 -1      2723 9.51031E-05-2.81374E-05-2.86981E-05 2.24357E-06-2.93343E-19-1.12524E-18
 -1      2724 9.52140E-05-2.81664E-05-2.87290E-05 2.42852E-06-5.04872E-19-9.44782E-19
 -1      2725 9.53374E-05-2.80762E-05-2.88312E-05 2.17669E-06-3.17500E-19-1.11018E-18
 -1      2726 9.52145E-05-2.81396E-05-2.87472E-05 2.62611E-06-6.88058E-19-5.41732E-19
 -1      2727 9.53615E-05-2.81420E-05-2.88014E-05 2.81895E-06-5.17155E-19-2.98861E-19
 -1      2728 9.53324E-05-2.80717E-05-2.88298E-05 2.60933E-06-3.38449E-19-3.83434E-19
 -1      2729 9.53720E-05-2.80850E-05-2.88399E-05 3.03770E-06-5.02334E-19-1.08172E-20
 -1      2730 9.55537E-05-2.80699E-05-2.89133E-05 3.26446E-06-2.40664E-19-1.28506E-19
 -1      2731 9.53470E-05-2.79779E-05-2.88753E-05 3.04803E-06-3.38118E-19 1.27123E-19
 -1      2732 9.55726E-05-2.79915E-05-2.89674E-05 3.52784E-06-4.37863E-19-3.75103E-19
 -1      2733 9.57910E-05-2.79689E-05-2.90571E-05 3.80686E-06-3.97045E-19-5.39016E-19
 -1      2734 9.53785E-05-2.78191E-05-2.89561E-05 3.54938E-06-5.23092E-19 1.72253E-20
 -1      2735 9.58192E-05-2.78791E-05-2.91222E-05 4.13144E-06-2.83780E-19-6.41914E-19
 -1      2736 9.60800E-05-2.78618E-05-2.92257E-05 4.47333E-06-2.92952E-19-6.42101E-19
 -1      2737 9.54266E-05-2.76185E-05-2.90621E-05 4.15465E-06-4.34520E-19-4.70607E-19
 -1      2738 9.61219E-05-2.77753E-05-2.92970E-05 4.86853E-06-3.04591E-19-7.40579E-19
 -1      2739 9.64357E-05-2.77827E-05-2.94111E-05 5.27456E-06-2.27253E-19-6.68492E-19
 -1      2740 9.54968E-05-2.74057E-05-2.91830E-05 4.89067E-06-2.50963E-19-5.54088E-20
 -1      2741 9.65034E-05-2.77234E-05-2.94826E-05 5.74122E-06-1.11178E-19-5.09588E-19
 -1      2742 9.68876E-05-2.77862E-05-2.96027E-05 6.19977E-06-1.32988E-19-5.23909E-19
 -1      2743 9.56053E-05-2.72253E-05-2.93068E-05 5.76867E-06-6.52236E-20-3.46060E-19
 -1      2744 9.70073E-05-2.77941E-05-2.96669E-05 6.72725E-06-2.71927E-19-4.20530E-19
 -1      2745 9.74910E-05-2.79611E-05-2.97864E-05 7.20803E-06-3.81154E-19-2.49105E-19
 -1      2746 9.57892E-05-2.71495E-05-2.94191E-05 6.78079E-06-1.88615E-19-5.70603E-19
 -1      2747 9.77135E-05-2.81013E-05-2.98345E-05 7.76904E-06-4.39057E-19-3.70437E-19
 -1      2748 9.83446E-05-2.84471E-05-2.99449E-05 8.21462E-06-3.08653E-19-6.21095E-19
 -1      2749 9.61224E-05-2.72952E-05-2.95023E-05 7.89374E-06-3.74448E-19-4.38442E-19
 -1      2750 9.87606E-05-2.88194E-05-2.99685E-05 8.75651E-06 4.15515E-20-5.95688E-19
 -1      2751 9.96143E-05-2.94503E-05-3.00616E-05 9.07088E-06 3.81015E-20-4.50256E-19
 -1      2752 9.67412E-05-2.78450E-05-2.95383E-05 9.03774E-06-4.04373E-19-3.57757E-19
 -1      2753 1.00373E-04-3.01938E-05-3.00579E-05 9.49961E-06 1.46555E-19-2.66421E-19
 -1      2754 1.01554E-04-3.12393E-05-3.01316E-05 9.53408E-06 2.76644E-19 1.29465E-19
 -1      2755 9.78778E-05-2.90646E-05-2.95149E-05 1.00861E-05 4.99325E-19 3.15111E-19
 -1      2756 1.02873E-04-3.25161E-05-3.01140E-05 9.68511E-06 7.12087E-19 9.80916E-19
 -1      2757 1.04494E-04-3.40850E-05-3.01839E-05 9.22668E-06 1.03975E-18 1.27833E-18
 -1      2758 9.98936E-05-3.12962E-05-2.94425E-05 1.08146E-05 9.01636E-19 6.44193E-19
 -1      2759 1.06639E-04-3.60075E-05-3.02041E-05 8.80614E-06 8.93767E-19 1.20049E-18
 -1      2760 1.08723E-04-3.80385E-05-3.03226E-05 7.57902E-06 1.37343E-18 1.00900E-18
 -1      2761 1.03280E-04-3.48812E-05-2.93875E-05 1.08194E-05 9.05642E-19 1.52311E-18
 -1      2762 1.11854E-04-4.04750E-05-3.04962E-05 6.16819E-06 1.40183E-18 7.17439E-19
 -1      2763 1.14191E-04-4.25439E-05-3.07686E-05 3.92767E-06 1.16566E-18 7.62050E-19
 -1      2764 1.08497E-04-3.98414E-05-2.95291E-05 9.39450E-06 1.18305E-18 8.58915E-19
 -1      2765 1.18051E-04-4.47720E-05-3.13168E-05 9.53795E-07 1.38289E-18 7.58293E-19
 -1      2766 1.19901E-04-4.56441E-05-3.19172E-05-2.24965E-06 1.33543E-18 9.40666E-19
 -1      2767 1.15578E-04-4.53155E-05-3.02216E-05 5.54485E-06 1.48132E-18 5.23304E-19
 -1      2768 1.23187E-04-4.58982E-05-3.31392E-05-6.66220E-06 6.42230E-19 7.32472E-19
 -1      2769 1.23477E-04-4.38691E-05-3.41986E-05-9.79062E-06 4.00250E-19 4.53295E-20
 -1      2770 1.22977E-04-4.84534E-05-3.20750E-05-1.76044E-06 6.59356E-19 4.80029E-19
 -1      2771 1.24531E-04-4.05252E-05-3.62286E-05-1.39524E-05 4.09342E-19-3.57355E-19
 -1      2772 1.22305E-04-3.46534E-05-3.76011E-05-1.49856E-05-1.29702E-20-1.52578E-19
 -1      2773 1.27758E-04-4.48544E-05-3.57474E-05-1.09797E-05-6.19393E-21-1.79915E-19
 -1      2774 1.21572E-04-2.58712E-05-4.14632E-05-1.40457E-05-7.33742E-19-7.34986E-19
 -1      2775 1.18927E-04-1.96996E-05-4.27795E-05-1.03874E-05-1.34276E-18-8.83376E-19
 -1      2776 1.15826E-04-1.97177E-05-4.13920E-05 8.79355E-06-2.74740E-18-9.47155E-19
 -1      2777 1.18225E-04-2.50339E-05-4.03803E-05 1.31048E-05-3.01840E-18-1.65529E-18
 -1      2778 1.20798E-04-3.14404E-05-3.83516E-05 1.51228E-05-2.45290E-18-1.80373E-18
 -1      2779 1.23138E-04-3.77320E-05-3.69017E-05 1.49225E-05-2.06938E-18-2.11332E-18
 -1      2780 1.23772E-04-2.83096E-05-4.11378E-05 1.49571E-05-2.89278E-18-2.91131E-18
 -1      2781 1.23232E-04-4.19447E-05-3.48894E-05 1.18374E-05-1.45282E-18-1.44540E-18
 -1      2782 1.23486E-04-4.49510E-05-3.37282E-05 8.83333E-06-6.54919E-19-1.61736E-18
 -1      2783 1.26695E-04-4.16922E-05-3.65048E-05 1.28148E-05-1.25157E-18-2.25877E-18
 -1      2784 1.20819E-04-4.53825E-05-3.24110E-05 4.42265E-06-2.25119E-19-9.05346E-19
 -1      2785 1.19245E-04-4.50819E-05-3.17273E-05 1.04049E-06-3.12016E-19-5.59750E-19
 -1      2786 1.23948E-04-4.74349E-05-3.28357E-05 4.59685E-06 5.64832E-20-9.92312E-19
 -1      2787 1.15588E-04-4.32226E-05-3.10868E-05-2.26436E-06-9.53177E-19 8.35701E-20
 -1      2788 1.13321E-04-4.13383E-05-3.07643E-05-4.76122E-06-6.71579E-19 4.81333E-19
 -1      2789 1.17391E-04-4.57262E-05-3.07818E-05-3.11166E-06-3.81664E-19-6.45016E-19
 -1      2790 1.10099E-04-3.89724E-05-3.05312E-05-6.54902E-06 1.28693E-19 7.44976E-19
 -1      2791 1.07971E-04-3.68949E-05-3.03942E-05-7.98336E-06 9.04893E-19 6.32452E-19
 -1      2792 1.10468E-04-4.08565E-05-2.99151E-05-7.83788E-06 6.18814E-21 5.14404E-19
 -1      2793 1.05645E-04-3.49016E-05-3.03433E-05-8.66317E-06 3.63632E-19 3.10591E-19
 -1      2794 1.03953E-04-3.32184E-05-3.02717E-05-9.25204E-06 6.36828E-19-4.39284E-19
 -1      2795 1.04988E-04-3.59091E-05-2.96704E-05-9.94355E-06 1.54376E-19 2.44783E-19
 -1      2796 1.02461E-04-3.18384E-05-3.02746E-05-9.25321E-06 1.49768E-19-9.22659E-19
 -1      2797 1.01215E-04-3.06771E-05-3.02070E-05-9.28308E-06-2.45265E-19-8.61741E-19
 -1      2798 1.01247E-04-3.21165E-05-2.96694E-05-1.03659E-05 7.63049E-20-5.09859E-19
 -1      2799 1.00321E-04-2.98401E-05-3.02045E-05-8.92318E-06-3.12716E-21-1.70884E-18
 -1      2800 9.94220E-05-2.91174E-05-3.01199E-05-8.62423E-06-9.42624E-20-2.09263E-18
 -1      2801 9.89156E-05-2.96401E-05-2.97135E-05-9.85500E-06-2.15243E-19-1.97458E-18
 -1      2802 9.89063E-05-2.86720E-05-3.00939E-05-8.09527E-06-6.79127E-19-1.66225E-18
 -1      2803 9.82496E-05-2.82602E-05-2.99925E-05-7.63014E-06-8.85744E-19-1.41962E-18
 -1      2804 9.75339E-05-2.82103E-05-2.97227E-05-8.88086E-06-1.89272E-19-2.15293E-18
 -1      2805 9.79553E-05-2.80654E-05-2.99437E-05-7.04530E-06-4.13871E-19-1.37280E-18
 -1      2806 9.74620E-05-2.78538E-05-2.98332E-05-6.52042E-06 6.73543E-19-1.41944E-18
 -1      2807 9.67331E-05-2.74961E-05-2.96791E-05-7.71780E-06-4.28684E-19-5.03693E-19
 -1      2808 9.72900E-05-2.78050E-05-2.97692E-05-5.94500E-06 6.52611E-19-1.52482E-18
 -1      2809 9.69087E-05-2.77134E-05-2.96582E-05-5.42521E-06 1.12904E-18-8.82785E-19
 -1      2810 9.62651E-05-2.72251E-05-2.95915E-05-6.52555E-06 5.86184E-19-1.18682E-18
 -1      2811 9.68018E-05-2.77414E-05-2.95874E-05-4.89486E-06 1.40312E-18-3.64009E-19
 -1      2812 9.65010E-05-2.77170E-05-2.94826E-05-4.41604E-06 9.20940E-19-4.34047E-19
 -1      2813 9.59796E-05-2.72053E-05-2.94764E-05-5.39531E-06 1.33461E-18-2.00718E-18
 -1      2814 9.64281E-05-2.77793E-05-2.94116E-05-3.94768E-06 1.21038E-19-1.32791E-18
 -1      2815 9.61882E-05-2.77892E-05-2.93174E-05-3.52644E-06-5.73640E-19-2.09909E-18
 -1      2816 9.57922E-05-2.73125E-05-2.93496E-05-4.37535E-06 6.19227E-20-3.21223E-18
 -1      2817 9.61333E-05-2.78613E-05-2.92512E-05-3.12511E-06-6.39138E-19-1.50359E-18
 -1      2818 9.59411E-05-2.78856E-05-2.91698E-05-2.76575E-06 2.44429E-19-1.61473E-18
 -1      2819 9.56576E-05-2.74713E-05-2.92237E-05-3.48617E-06-2.04585E-19-2.68672E-18
 -1      2820 9.58959E-05-2.79538E-05-2.91110E-05-2.42881E-06 1.94214E-19-1.15912E-18
 -1      2821 9.57423E-05-2.79814E-05-2.90430E-05-2.12828E-06-3.62856E-20-9.21097E-19
 -1      2822 9.55518E-05-2.76380E-05-2.91069E-05-2.73012E-06 1.47617E-20-1.19950E-18
 -1      2823 9.57023E-05-2.80392E-05-2.89931E-05-1.85047E-06-5.88397E-19-1.40100E-18
 -1      2824 9.55777E-05-2.80598E-05-2.89383E-05-1.60318E-06-8.97662E-19-1.89150E-18
 -1      2825 9.54629E-05-2.77887E-05-2.90040E-05-2.09877E-06-2.01834E-19-9.19549E-19
 -1      2826 9.55388E-05-2.81020E-05-2.88971E-05-1.36910E-06-1.08301E-18-1.35246E-18
 -1      2827 9.54435E-05-2.81194E-05-2.88536E-05-1.16538E-06-3.16777E-19-1.60586E-18
 -1      2828 9.53799E-05-2.79035E-05-2.89172E-05-1.57830E-06-8.65778E-19-2.60238E-18
 -1      2829 1.32573E-04-3.60973E-05-4.21684E-05-1.39998E-05-8.49786E-19-9.21360E-19
 -1      2830 1.36553E-04-4.48888E-05-3.93748E-05-1.03367E-05-7.54653E-19-1.22417E-18
 -1      2831 9.46903E-05-2.77384E-05-2.86921E-05-8.40330E-07 5.91634E-19 2.88822E-19
 -1      2832 9.47373E-05-2.75619E-05-2.87714E-05-4.30999E-07 7.41285E-19 3.46349E-19
 -1      2833 9.49868E-05-2.82191E-05-2.86088E-05-2.23579E-06-8.10254E-20 3.17713E-19
 -1      2834 9.48259E-05-2.81651E-05-2.85665E-05-2.08215E-06 2.02258E-20 1.82941E-19
 -1      2835 9.52492E-05-2.82629E-05-2.87014E-05-2.56043E-06 3.77297E-19 2.12966E-19
 -1      2836 9.50430E-05-2.82237E-05-2.86367E-05-2.40638E-06 1.62415E-19 2.03279E-19
 -1      2837 9.52091E-05-2.81840E-05-2.87298E-05-2.45982E-06 9.54711E-20 7.52846E-20
 -1      2838 9.55809E-05-2.82846E-05-2.88332E-05-2.92011E-06 5.53455E-19-1.79040E-19
 -1      2839 9.53311E-05-2.82512E-05-2.87499E-05-2.74315E-06 5.14584E-19 6.76493E-20
 -1      2840 9.53504E-05-2.81724E-05-2.87945E-05-2.83882E-06 5.94003E-19-8.83981E-20
 -1      2841 9.59856E-05-2.83033E-05-2.89977E-05-3.34905E-06 5.37996E-19-1.98968E-19
 -1      2842 9.56892E-05-2.82658E-05-2.88980E-05-3.13528E-06 6.02444E-19-1.38658E-19
 -1      2843 9.55416E-05-2.81259E-05-2.88959E-05-3.26025E-06 6.29280E-19-4.25078E-19
 -1      2844 9.64742E-05-2.83430E-05-2.91894E-05-3.86427E-06-9.23735E-20 9.34784E-20
 -1      2845 9.61243E-05-2.82884E-05-2.90751E-05-3.60865E-06 4.09740E-19-7.59131E-20
 -1      2846 9.57880E-05-2.80701E-05-2.90252E-05-3.75834E-06 3.93257E-19-3.35496E-19
 -1      2847 9.70661E-05-2.84367E-05-2.94027E-05-4.46281E-06-2.18110E-19-9.60950E-20
 -1      2848 9.66522E-05-2.83472E-05-2.92759E-05-4.17104E-06-2.22120E-19-1.96714E-22
 -1      2849 9.61031E-05-2.80371E-05-2.91746E-05-4.34920E-06-9.58222E-20 2.15181E-19
 -1      2850 9.77905E-05-2.86320E-05-2.96302E-05-5.11607E-06-2.86904E-19 1.31474E-19
 -1      2851 9.72991E-05-2.84825E-05-2.94943E-05-4.80811E-06-2.84433E-19 1.73337E-19
 -1      2852 9.65119E-05-2.80719E-05-2.93355E-05-5.02808E-06-3.13549E-19-2.85520E-19
 -1      2853 9.86911E-05-2.89967E-05-2.98619E-05-5.76066E-06 3.70435E-19-1.03692E-19
 -1      2854 9.81050E-05-2.87525E-05-2.97219E-05-5.47588E-06 2.26180E-19 1.34426E-19
 -1      2855 9.70563E-05-2.82400E-05-2.94983E-05-5.76374E-06-6.14833E-20 5.47004E-21
 -1      2856 9.98298E-05-2.96236E-05-3.00854E-05-6.28614E-06 2.21733E-19 2.03532E-19
 -1      2857 9.91285E-05-2.92396E-05-2.99482E-05-6.08974E-06 1.80776E-19-5.49512E-20
 -1      2858 9.78036E-05-2.86353E-05-2.96519E-05-6.48939E-06 3.01260E-19 1.07706E-20
 -1      2859 1.01289E-04-3.06263E-05-3.02882E-05-6.52115E-06-1.04068E-19 5.37597E-19
 -1      2860 1.00451E-04-3.00510E-05-3.01614E-05-6.50996E-06 2.44706E-19 6.10922E-19
 -1      2861 9.88556E-05-2.93852E-05-2.97860E-05-7.08974E-06-2.63043E-20 4.55439E-19
 -1      2862 1.03164E-04-3.21144E-05-3.04646E-05-6.22262E-06-3.27152E-19 1.00970E-18
 -1      2863 1.02176E-04-3.13077E-05-3.03535E-05-6.52634E-06-3.02740E-19 6.43798E-19
 -1      2864 1.00354E-04-3.06428E-05-2.98965E-05-7.38399E-06-3.29792E-19 5.36765E-19
 -1      2865 1.05519E-04-3.41253E-05-3.06270E-05-5.08011E-06-9.07913E-21 1.07773E-18
 -1      2866 1.04402E-04-3.30996E-05-3.05290E-05-5.84895E-06-9.31112E-20 1.14746E-18
 -1      2867 1.02469E-04-3.25491E-05-2.99956E-05-7.10710E-06-3.01594E-19 1.05529E-18
 -1      2868 1.08297E-04-3.64840E-05-3.08239E-05-2.76528E-06 7.36323E-20 1.01303E-18
 -1      2869 1.07151E-04-3.53819E-05-3.07199E-05-4.12639E-06 3.01283E-19 1.04334E-18
 -1      2870 1.05341E-04-3.51314E-05-3.01285E-05-5.89976E-06 1.06173E-19 1.41741E-18
 -1      2871 1.11155E-04-3.85985E-05-3.11535E-05 9.14004E-07-5.22067E-20 1.50530E-18
 -1      2872 1.10221E-04-3.77901E-05-3.10032E-05-1.04336E-06-1.47820E-19 9.47484E-19
 -1      2873 1.08931E-04-3.81030E-05-3.03946E-05-3.34860E-06-5.68494E-20 1.88611E-18
 -1      2874 1.13307E-04-3.93140E-05-3.17605E-05 5.67676E-06-2.70208E-19 1.90352E-18
 -1      2875 1.12981E-04-3.94264E-05-3.15051E-05 3.41794E-06 2.41897E-19 1.62667E-18
 -1      2876 1.12772E-04-4.05868E-05-3.09574E-05 8.28632E-07-5.47544E-20 1.56693E-18
 -1      2877 1.13636E-04-3.71818E-05-3.27724E-05 1.02655E-05-9.42958E-19 1.24202E-18
 -1      2878 1.14290E-04-3.88517E-05-3.23735E-05 8.48205E-06-8.95076E-19 1.88680E-18
 -1      2879 1.15714E-04-4.09494E-05-3.20223E-05 6.31755E-06-6.87756E-19 2.36138E-18
 -1      2880 1.11475E-04-3.16899E-05-3.41286E-05 1.21567E-05-3.41162E-19 6.74140E-19
 -1      2881 1.13001E-04-3.48094E-05-3.36373E-05 1.20551E-05-3.97392E-19 1.09680E-18
 -1      2882 1.16145E-04-3.74563E-05-3.37038E-05 1.14893E-05-4.56418E-19 1.29731E-18
 -1      2883 1.07806E-04-2.49990E-05-3.54539E-05 9.01997E-06 6.53976E-19-2.55003E-20
 -1      2884 1.09440E-04-2.82015E-05-3.50221E-05 1.12396E-05 2.24695E-19 4.12373E-19
 -1      2885 1.13414E-04-3.02329E-05-3.56173E-05 1.30768E-05 2.55579E-19 9.30029E-19
 -1      2886 1.05729E-04-2.15888E-05-3.60881E-05 8.60769E-07 3.71225E-19 3.76930E-20
 -1      2887 1.06143E-04-2.24995E-05-3.59843E-05 4.79069E-06 6.25984E-19-6.98140E-22
 -1      2888 1.09511E-04-2.25492E-05-3.72762E-05 8.05656E-06 4.84410E-19 4.76178E-19
 -1      2889 1.07192E-04-2.42082E-05-3.56985E-05-7.83122E-06 2.11249E-19-9.03023E-19
 -1      2890 1.06098E-04-2.21933E-05-3.59446E-05-4.26853E-06 1.76898E-19-8.11009E-20
 -1      2891 1.08311E-04-2.01121E-05-3.78609E-05-1.85241E-06 4.75715E-19 2.98559E-19
 -1      2892 1.10906E-04-3.07077E-05-3.45281E-05-1.22067E-05 9.63182E-19-7.33263E-19
 -1      2893 1.09169E-04-2.73578E-05-3.49985E-05-1.07705E-05 5.35788E-19-1.01942E-18
 -1      2894 1.10956E-04-2.52756E-05-3.68044E-05-1.03623E-05 5.48983E-19-1.18038E-18
 -1      2895 1.13833E-04-3.67363E-05-3.31297E-05-1.11017E-05 1.00066E-18-1.78850E-19
 -1      2896 1.12547E-04-3.40556E-05-3.36017E-05-1.19887E-05 1.09356E-18-2.08919E-19
 -1      2897 1.14726E-04-3.30483E-05-3.49733E-05-1.29939E-05 8.25989E-19-4.50046E-19
 -1      2898 1.14064E-04-3.94014E-05-3.20123E-05-6.67325E-06 1.06972E-18-4.47401E-19
 -1      2899 1.13797E-04-3.83576E-05-3.23535E-05-8.74983E-06 1.28884E-18 5.79605E-21
 -1      2900 1.16376E-04-3.92546E-05-3.30140E-05-9.76761E-06 8.55492E-19-1.32369E-19
 -1      2901 1.12082E-04-3.89785E-05-3.12998E-05-1.68896E-06 1.26237E-18-1.16061E-18
 -1      2902 1.12681E-04-3.92895E-05-3.15064E-05-3.89201E-06 1.21282E-18-6.54932E-19
 -1      2903 1.14837E-04-4.11557E-05-3.15706E-05-4.25766E-06 1.36730E-18-7.53610E-19
 -1      2904 1.09113E-04-3.69106E-05-3.09026E-05 2.27337E-06 1.16780E-18-7.54752E-19
 -1      2905 1.10156E-04-3.78886E-05-3.10259E-05 5.32570E-07 1.15937E-18-9.37098E-19
 -1      2906 1.11397E-04-3.97832E-05-3.07186E-05 8.37287E-07 1.67945E-18-1.13055E-18
 -1      2907 1.06131E-04-3.44727E-05-3.06747E-05 4.79690E-06 6.66816E-19-3.83041E-19
 -1      2908 1.07276E-04-3.55774E-05-3.07681E-05 3.67871E-06 7.97802E-19-4.41719E-19
 -1      2909 1.07564E-04-3.69648E-05-3.02957E-05 4.37513E-06 6.35236E-19-6.32106E-19
 -1      2910 1.03586E-04-3.23445E-05-3.05066E-05 6.05014E-06 1.32958E-18 3.28193E-19
 -1      2911 1.04648E-04-3.32989E-05-3.06023E-05 5.49098E-06 8.85920E-19 9.78224E-21
 -1      2912 1.04223E-04-3.40638E-05-3.01035E-05 6.34802E-06 5.47911E-19-8.13110E-19
 -1      2913 1.01580E-04-3.07494E-05-3.03401E-05 6.38018E-06 1.19692E-18-5.96938E-19
 -1      2914 1.02494E-04-3.14694E-05-3.04497E-05 6.23626E-06 1.77609E-18 3.45638E-19
 -1      2915 1.01651E-04-3.17078E-05-3.00017E-05 7.11661E-06 1.25269E-18-9.84273E-20
 -1      2916 1.00049E-04-2.96647E-05-3.01559E-05 6.12028E-06 5.40703E-19-1.69744E-19
 -1      2917 1.00810E-04-3.01643E-05-3.02781E-05 6.24665E-06 1.14612E-18 5.48761E-19
 -1      2918 9.97987E-05-3.00409E-05-2.99135E-05 7.08615E-06 7.92599E-19 6.40836E-19
 -1      2919 9.88879E-05-2.89814E-05-2.99560E-05 5.52912E-06-8.60638E-19 5.87119E-19
 -1      2920 9.95138E-05-2.93078E-05-3.00838E-05 5.80825E-06-6.50709E-19 5.96227E-19
 -1      2921 9.85023E-05-2.89747E-05-2.98087E-05 6.57979E-06-4.64625E-19 1.76789E-18
 -1      2922 9.80026E-05-2.85815E-05-2.97508E-05 4.78828E-06-1.84754E-18 1.22692E-18
 -1      2923 9.85140E-05-2.87842E-05-2.98765E-05 5.13586E-06-9.22817E-19 1.61325E-18
 -1      2924 9.75995E-05-2.83569E-05-2.96827E-05 5.82808E-06-1.50941E-18 2.23157E-18
 -1      2925 9.73202E-05-2.83676E-05-2.95515E-05 4.01533E-06-9.22831E-19 9.64768E-19
 -1      2926 9.77359E-05-2.84874E-05-2.96689E-05 4.37632E-06-1.73609E-18 7.82029E-19
 -1      2927 9.69633E-05-2.80425E-05-2.95425E-05 4.98502E-06-1.50524E-18 1.84996E-18
 -1      2928 9.67893E-05-2.82683E-05-2.93671E-05 3.27995E-06 4.69899E-19 2.21760E-18
 -1      2929 9.71251E-05-2.83352E-05-2.94721E-05 3.62191E-06 2.07045E-19 1.63572E-18
 -1      2930 9.65052E-05-2.79182E-05-2.93982E-05 4.14716E-06-7.47431E-19 2.22621E-18
 -1      2931 9.63736E-05-2.82346E-05-2.92035E-05 2.61815E-06-1.54169E-19 1.63052E-18
 -1      2932 9.66428E-05-2.82695E-05-2.92940E-05 2.92476E-06-4.11417E-20 1.38921E-18
 -1      2933 9.61670E-05-2.79034E-05-2.92589E-05 3.36994E-06 6.51285E-19 2.10213E-18
 -1      2934 9.60474E-05-2.82339E-05-2.90636E-05 2.04358E-06 2.27597E-19 1.81642E-18
 -1      2935 9.62607E-05-2.82511E-05-2.91391E-05 2.30912E-06-1.90605E-20 1.78470E-18
 -1      2936 9.59111E-05-2.79442E-05-2.91313E-05 2.68042E-06-2.59844E-19 1.32691E-18
 -1      2937 9.57946E-05-2.82451E-05-2.89482E-05 1.55616E-06-2.20467E-19 2.84215E-18
 -1      2938 9.59580E-05-2.82547E-05-2.90090E-05 1.77898E-06 4.16975E-19 2.77480E-18
 -1      2939 9.57096E-05-2.80045E-05-2.90194E-05 2.08778E-06-3.62127E-19 2.14182E-18
 -1      2940 9.55732E-05-2.82139E-05-2.88654E-05 1.21197E-06 2.27811E-19 2.29783E-18
 -1      2941 9.56964E-05-2.82193E-05-2.89129E-05 1.40478E-06 2.89943E-20 2.07475E-18
 -1      2942 9.55128E-05-2.80180E-05-2.89336E-05 1.65535E-06 3.68900E-19 2.12550E-18
 -1      2943 9.53544E-05-2.79972E-05-2.88744E-05 1.34728E-06 4.47376E-19 2.23721E-18
 -1      2944 3.83824E-05-1.70152E-05-8.64065E-06-2.02524E-05 7.35436E-19 5.24313E-19
 -1      2945 4.86786E-05-2.42636E-05-1.00565E-05-3.07641E-05 1.37759E-18-1.12274E-18
 -1      2946 9.42856E-05-2.69180E-05-2.88747E-05 1.13935E-07 6.96097E-19 1.38847E-19
 -1      2947 9.43119E-05-2.69454E-05-2.88726E-05 2.88830E-07 2.03336E-19-6.40994E-19
 -1      2948 9.45358E-05-2.71984E-05-2.88633E-05 7.85090E-07 1.12778E-18-1.18601E-18
 -1      2949 9.46436E-05-2.73121E-05-2.88549E-05 8.87651E-07 1.84863E-18-1.28987E-18
 -1      2950 9.43055E-05-2.69371E-05-2.88738E-05-2.72779E-07 2.27255E-19 2.22255E-19
 -1      2951 9.42831E-05-2.69139E-05-2.88752E-05-9.66942E-08 1.06055E-19 7.82328E-19
 -1      2952 9.41314E-05-2.67714E-05-2.88643E-05 1.17486E-08 4.92425E-19-4.95197E-19
 -1      2953 9.43659E-05-2.70088E-05-2.88712E-05 4.83432E-07-2.26004E-19-1.57958E-18
 -1      2954 9.44372E-05-2.70833E-05-2.88658E-05 6.32520E-07 5.24120E-19-1.16178E-18
 -1      2955 9.43715E-05-2.70212E-05-2.88613E-05 8.05592E-07 9.06009E-19-1.77269E-18
 -1      2956 9.41966E-05-2.68401E-05-2.88631E-05 4.39163E-07 6.71662E-21-2.50038E-19
 -1      2957 8.75482E-05-4.67462E-05-1.72565E-05 4.01802E-05-2.10297E-18 6.02982E-19
 -1      2958 7.18020E-05-3.74156E-05-1.43582E-05 3.81722E-05-2.42940E-18 4.51257E-19
 -1      2959 9.44215E-05-2.70616E-05-2.88686E-05-6.17717E-07 2.08094E-19 5.22851E-21
 -1      2960 9.43541E-05-2.69920E-05-2.88733E-05-4.67595E-07 2.77561E-19-1.19592E-20
 -1      2961 9.41847E-05-2.68232E-05-2.88650E-05-4.15861E-07 4.58169E-20-2.64246E-20
 -1      2962 9.46251E-05-2.72830E-05-2.88592E-05-8.83884E-07 3.13163E-19 7.27488E-19
 -1      2963 9.45179E-05-2.71721E-05-2.88670E-05-7.76497E-07 3.03654E-19 3.81309E-19
 -1      2964 9.43505E-05-2.69904E-05-2.88650E-05-7.89905E-07-9.15938E-20 8.57822E-21
 -1      2965 9.48898E-05-2.75737E-05-2.88458E-05-1.02942E-06-3.87363E-20 1.14853E-18
 -1      2966 9.47550E-05-2.74364E-05-2.88559E-05-9.78338E-07 6.05499E-19 1.28348E-18
 -1      2967 9.46138E-05-2.72600E-05-2.88634E-05-1.06125E-06 3.11914E-19 1.22087E-18
 -1      2968 9.48024E-05-2.73279E-05-2.89186E-05 1.13625E-07 8.48751E-19 2.20973E-19
 -1      2969 9.49539E-05-2.70442E-05-2.90767E-05 7.65823E-07 1.05520E-18 2.81510E-19
 -1      2970 9.52907E-05-2.64047E-05-2.95298E-05 1.50382E-06 1.24389E-18 1.43385E-19
 -1      2971 9.51939E-05-2.72454E-05-2.91312E-05 3.35718E-08 8.25815E-19 3.03955E-19
 -1      2972 9.53483E-05-2.81281E-05-2.88077E-05-9.22235E-07-6.34941E-19-1.69023E-18
 -1      2973 9.52430E-05-2.80015E-05-2.88161E-05-9.68127E-07-1.09082E-18-2.20005E-18
 -1      2974 9.54014E-05-2.81183E-05-2.88321E-05-1.04588E-06-1.15667E-19-1.67125E-18
 -1      2975 1.38455E-04-4.06396E-05-4.22290E-05 1.05162E-05-1.74002E-18-2.59531E-18
 -1      2976 1.37335E-04-3.08707E-05-4.63079E-05 1.27133E-05-2.02557E-18-2.90935E-18
 -1      2977 1.35360E-04-5.55262E-05-3.45909E-05 6.98051E-06 1.46379E-18-4.95408E-19
 -1      2978 1.28519E-04-5.84511E-05-2.98756E-05 1.75747E-05 8.49415E-19-3.45060E-19
 -1      2979 1.19868E-04-5.78275E-05-2.63175E-05-2.47097E-05-9.87217E-19 1.01072E-18
 -1      2980 1.30845E-04-5.82940E-05-3.15613E-05-1.48309E-05-4.87044E-21 2.52474E-18
 -1      2981 1.31151E-04-1.69610E-05-4.93930E-05 1.04698E-05 2.67218E-18 8.06269E-19
 -1      2982 1.29221E-04-1.19646E-05-5.09939E-05 6.05431E-06 2.38673E-18-6.14946E-19
 -1      2983 9.47978E-05-2.81345E-05-2.85652E-05-1.89429E-06 1.32095E-19 1.02031E-19
 -1      2984 9.46897E-05-2.80561E-05-2.85515E-05-1.70851E-06 3.08831E-19 5.50412E-20
 -1      2985 9.51186E-05-2.81363E-05-2.87127E-05-2.07081E-06-9.94452E-21 3.20394E-19
 -1      2986 9.46934E-05-2.79860E-05-2.85855E-05-1.46290E-06 4.11427E-19 1.40020E-19
 -1      2987 9.46527E-05-2.78700E-05-2.86104E-05-1.19875E-06 5.22320E-19 2.28455E-19
 -1      2988 9.50839E-05-2.79990E-05-2.87582E-05-1.59825E-06 3.27210E-19 3.00494E-19
 -1      2989 9.52536E-05-2.39370E-05-3.05434E-05-5.17982E-06-8.79341E-19-1.36979E-18
 -1      2990 9.51860E-05-2.49433E-05-3.01232E-05-3.65528E-06-7.97003E-19-1.30415E-18
 -1      2991 9.52247E-05-2.45999E-05-3.02680E-05-3.35621E-06-7.38750E-19-1.42026E-18
 -1      2992 9.11927E-05-1.59846E-05-3.22598E-05 4.82664E-06 1.35037E-18-1.51889E-18
 -1      2993 9.08466E-05-1.54751E-05-3.23243E-05 3.91515E-06 1.12690E-18-1.73709E-18
 -1      2994 9.18045E-05-1.70470E-05-3.20229E-05 3.11287E-06 9.99026E-19-1.70126E-18
 -1      2995 9.24876E-05-1.81395E-05-3.18429E-05 4.50296E-06 1.20478E-18-1.34217E-18
 -1      2996 1.37316E-04-3.98327E-05-4.23683E-05-8.75925E-06-4.96573E-20 7.39036E-20
 -1      2997 1.37325E-04-4.76750E-05-3.86100E-05-3.37734E-06 6.41733E-19 6.01711E-19
 -1      2998 3.13795E-05-1.30176E-05-7.16051E-06 9.34996E-06-1.63686E-18 3.09209E-18
 -1      2999 3.25051E-05-1.24379E-05-8.10040E-06-4.69874E-06-1.05126E-18 2.81787E-18
 -1      3000 9.08115E-05-1.54264E-05-3.23301E-05-3.85175E-06-1.62610E-19-2.30290E-18
 -1      3001 9.11507E-05-1.59236E-05-3.22674E-05-4.76573E-06-4.26573E-19-2.28193E-18
 -1      3002 1.29214E-04-1.95156E-05-4.76874E-05-1.13894E-05-1.88253E-19-2.24432E-18
 -1      3003 1.33288E-04-2.89893E-05-4.49623E-05-1.24647E-05 2.05829E-19-1.01358E-18
 -1      3004 5.46917E-05-2.84435E-05-1.11503E-05 3.46594E-05 7.00602E-19-2.60251E-18
 -1      3005 4.19874E-05-2.07841E-05-8.56975E-06 2.58547E-05 8.23051E-19-3.77036E-18
 -1      3006 1.36788E-04-3.62387E-05-4.33228E-05 1.03284E-05 1.66040E-18 2.55264E-18
 -1      3007 1.33916E-04-2.63380E-05-4.68401E-05 1.15482E-05 2.73412E-18 1.91768E-18
 -1      3008 1.37181E-04-5.32716E-05-3.59429E-05-3.37394E-06 9.29321E-19 2.79680E-18
 -1      3009 1.38971E-04-4.67630E-05-4.01780E-05 3.43694E-06 1.29781E-18 3.28299E-18
 -1      3010 9.19571E-05-4.81612E-05-1.83737E-05-3.75637E-05-2.52945E-18-1.87999E-18
 -1      3011 1.06238E-04-5.46909E-05-2.22735E-05-3.43352E-05-1.90773E-18-7.26688E-19
 -1      3012 6.02472E-05-2.98879E-05-1.25210E-05-3.51881E-05-2.07661E-18-4.00297E-18
 -1      3013 7.64648E-05-4.02921E-05-1.52824E-05-3.97714E-05-2.25268E-18-3.04826E-18
 -1      3014 3.76913E-05-1.45657E-05-9.39564E-06-1.52389E-05-8.06322E-19-4.68600E-18
 -1      3015 4.63632E-05-2.00784E-05-1.08528E-05-2.62440E-05-1.08346E-18-4.79643E-18
 -1      3016 9.31863E-05-4.83739E-05-1.91819E-05 3.66875E-05-2.65757E-19-3.22772E-19
 -1      3017 7.33462E-05-3.82915E-05-1.44103E-05 3.77365E-05 4.02552E-19-1.18669E-18
 -1      3018 1.38876E-04-5.45905E-05-3.65426E-05 2.30855E-06-1.57082E-18-1.43773E-18
 -1      3019 1.35793E-04-5.91290E-05-3.27910E-05 1.09447E-05-1.84187E-18-1.11480E-18
 -1      3020 1.29305E-04-5.95032E-05-2.97669E-05 1.52880E-05-9.59741E-19-4.20499E-19
 -1      3021 3.36881E-05-1.52009E-05-7.41300E-06 1.58172E-05 4.60998E-19-4.20298E-18
 -1      3022 3.20317E-05-1.23265E-05-7.90036E-06-4.46878E-08-7.12930E-20-3.99397E-18
 -1      3023 1.29867E-04-1.14438E-05-5.13753E-05 4.08621E-06-2.76344E-18-2.80866E-18
 -1      3024 1.28897E-04-1.10419E-05-5.11857E-05-5.10510E-07-2.63597E-18-2.82476E-18
 -1      3025 1.37769E-04-5.42649E-05-3.58482E-05-3.37844E-07-1.09982E-19-2.44020E-18
 -1      3026 1.38866E-04-4.99507E-05-3.86386E-05 4.55527E-06-8.88088E-19-2.84518E-18
 -1      3027 1.18383E-04-5.82227E-05-2.60603E-05 2.79071E-05 1.39549E-19-6.05655E-19
 -1      3028 1.01880E-04-5.29871E-05-2.06867E-05 3.54256E-05-8.41315E-19-4.59105E-19
 -1      3029 1.01193E-04-5.04253E-05-2.14429E-05 3.28165E-05-1.21306E-18 1.64688E-19
 -1      3030 1.23606E-04-5.76826E-05-2.81013E-05 1.96021E-05 3.08320E-19-1.37219E-19
 -1      3031 9.43423E-05-2.09345E-05-3.14843E-05-7.92554E-06-1.25682E-18-1.59305E-18
 -1      3032 9.48076E-05-2.27467E-05-3.08934E-05-6.21058E-06-1.07645E-18-1.51726E-18
 -1      3033 9.46260E-05-2.23698E-05-3.09650E-05-5.58853E-06-8.92205E-19-1.48796E-18
 -1      3034 9.35259E-05-1.95489E-05-3.17065E-05-7.73952E-06-1.09304E-18-1.77605E-18
 -1      3035 9.15838E-05-1.65909E-05-3.21617E-05-5.48520E-06-4.84741E-19-2.32124E-18
 -1      3036 9.21022E-05-1.73770E-05-3.20566E-05-6.30260E-06-6.38715E-19-2.22418E-18
 -1      3037 9.24392E-05-1.80642E-05-3.18529E-05-4.46581E-06-4.35234E-19-2.12624E-18
 -1      3038 9.12639E-05-1.62066E-05-3.21544E-05 2.83779E-08 4.84378E-19-2.05994E-18
 -1      3039 9.01636E-05-1.44545E-05-3.24665E-05-3.72139E-07 4.10916E-19-2.16665E-18
 -1      3040 9.02219E-05-1.45375E-05-3.24559E-05-1.31169E-06 2.65494E-19-2.32982E-18
 -1      3041 9.43634E-05-2.13830E-05-3.12821E-05 7.11416E-06 1.73734E-18-2.75742E-19
 -1      3042 5.99682E-05-2.68272E-05-1.36489E-05-3.04590E-05 1.63848E-18-9.47724E-19
 -1      3043 6.04946E-05-3.09698E-05-1.20753E-05-3.51106E-05 1.75791E-18-7.57989E-19
 -1      3044 9.52968E-05-2.79719E-05-2.88575E-05-1.21342E-06-4.19741E-20-2.20475E-18
 -1      3045 1.33135E-04-5.62189E-05-3.30024E-05-4.96747E-06 5.73044E-19-2.39663E-18
 -1      3046 1.23824E-04-1.11108E-05-4.87056E-05 3.55106E-06 1.62249E-18-1.58612E-18
 -1      3047 1.04786E-04-5.26632E-05-2.19273E-05 3.22085E-05-1.83700E-19-1.53075E-19
 -1      3048 9.53148E-05-4.63952E-05-2.07703E-05 3.25699E-05 7.22360E-19-1.01485E-19
 -1      3049 1.13277E-04-5.53217E-05-2.49811E-05 2.52038E-05 1.59454E-19 2.24040E-19
 -1      3050 1.32322E-04-4.76605E-05-3.65316E-05-6.12421E-06 3.87518E-19-1.19675E-18
 -1      3051 1.35707E-04-5.24242E-05-3.58331E-05 1.75205E-07 1.04263E-18-3.76559E-19
 -1      3052 1.30951E-04-5.42490E-05-3.29207E-05 4.06212E-06 1.20838E-18-4.13590E-19
 -1      3053 6.49218E-05-3.17739E-05-1.35989E-05 3.56060E-05-2.42262E-18-1.50137E-19
 -1      3054 5.77067E-05-2.54360E-05-1.35529E-05 3.06566E-05-2.38096E-18 4.01705E-19
 -1      3055 7.90523E-05-3.74156E-05-1.75838E-05 3.48189E-05-2.47143E-18 3.74865E-19
 -1      3056 3.85467E-05-1.26795E-05-1.05072E-05-7.23559E-06-1.51195E-19-3.38750E-18
 -1      3057 4.66946E-05-1.40560E-05-1.36332E-05-1.14654E-05-3.88272E-19-3.45748E-18
 -1      3058 4.15355E-05-1.18624E-05-1.24160E-05 2.27615E-06 4.96044E-19-2.96959E-18
 -1      3059 5.73773E-05-2.50216E-05-1.33621E-05-2.97766E-05-1.76019E-18-3.66786E-18
 -1      3060 6.87153E-05-3.00554E-05-1.64960E-05-3.19306E-05-2.48848E-18-2.42018E-18
 -1      3061 5.63176E-05-2.06803E-05-1.49643E-05-2.40968E-05-1.34265E-18-3.65738E-18
 -1      3062 1.14490E-04-1.74683E-05-4.19363E-05-4.66686E-06-1.41709E-18-5.14341E-19
 -1      3063 1.14573E-04-1.70382E-05-4.21337E-05 1.63203E-06-1.87893E-18-5.71808E-19
 -1      3064 8.81393E-05-4.36728E-05-1.86301E-05-3.54515E-05-2.49832E-18-1.82022E-18
 -1      3065 9.51140E-05-2.78502E-05-2.88304E-05-9.99826E-07-6.77886E-19-2.37656E-19
 -1      3066 1.32291E-04-5.54341E-05-3.29068E-05-6.32574E-06-6.05417E-19 3.29739E-18
 -1      3067 9.51101E-05-2.77271E-05-2.88877E-05-9.41976E-07 5.65269E-19 2.13996E-19
 -1      3068 3.92979E-05-1.39349E-05-1.02366E-05-1.16998E-05 1.62260E-19 2.20303E-18
 -1      3069 4.73953E-05-1.60925E-05-1.31534E-05-1.71999E-05 6.58886E-19-3.19331E-19
 -1      3070 4.25895E-05-1.20979E-05-1.27407E-05-3.25533E-06-5.97449E-19 9.96323E-19
 -1      3071 1.34262E-04-4.15642E-05-3.99016E-05 9.26778E-06 7.79297E-19 2.80294E-18
 -1      3072 9.46350E-05-2.72925E-05-2.88582E-05 1.06115E-06 1.56197E-18-9.89313E-19
 -1      3073 9.47696E-05-2.74621E-05-2.88512E-05 9.76181E-07 2.43048E-18-7.50801E-19
 -1      3074 9.49015E-05-2.76002E-05-2.88403E-05 1.02440E-06 2.13448E-18-1.13793E-18
 -1      3075 9.51274E-05-2.78561E-05-2.88328E-05 1.04250E-06 1.13465E-18-6.52362E-19
 -1      3076 6.93680E-05-3.28747E-05-1.50867E-05 3.35632E-05 1.23921E-18-1.71005E-18
 -1      3077 1.31033E-04-3.47878E-05-4.15594E-05-1.21424E-05 4.05305E-19-1.27860E-18
 -1      3078 9.50126E-05-2.76970E-05-2.88505E-05-1.14527E-06-8.12139E-19 4.66430E-19
 -1      3079 1.25695E-04-1.69191E-05-4.71769E-05-1.02158E-05-1.21337E-19-2.35285E-18
 -1      3080 1.21882E-04-2.11941E-05-4.32750E-05-1.28154E-05 6.69050E-19-1.92173E-18
 -1      3081 1.20254E-04-1.41519E-05-4.60554E-05-7.78487E-06 5.69100E-19-2.98439E-18
 -1      3082 1.22530E-04-1.60907E-05-4.60461E-05-6.92861E-06-1.71545E-18-1.83734E-18
 -1      3083 1.34992E-04-4.37792E-05-3.91966E-05 1.09575E-05-9.71917E-19-2.86742E-18
 -1      3084 1.27226E-04-2.28774E-05-4.49866E-05 1.28892E-05 1.51852E-18 6.64391E-19
 -1      3085 1.15085E-04-5.56018E-05-2.52957E-05-2.56375E-05-2.12674E-18 8.86711E-19
 -1      3086 9.13350E-05-4.77012E-05-1.82512E-05-3.68354E-05 2.05024E-18 7.31095E-20
 -1      3087 1.05560E-04-5.36570E-05-2.22812E-05-3.24483E-05 1.70169E-18-4.17746E-19
 -1      3088 9.03510E-05-1.47366E-05-3.24269E-05-2.12795E-06 1.83945E-19-2.18240E-18
 -1      3089 9.05396E-05-1.50080E-05-3.23926E-05-3.06353E-06-5.16218E-20-2.21234E-18
 -1      3090 9.17747E-05-1.70040E-05-3.20286E-05-3.05682E-06-6.80538E-20-2.10415E-18
 -1      3091 9.13872E-05-1.63980E-05-3.21245E-05-1.53655E-06 1.96014E-19-2.16287E-18
 -1      3092 1.15487E-04-5.64020E-05-2.50280E-05-2.61768E-05 1.59094E-18-3.49772E-19
 -1      3093 1.21749E-04-5.72419E-05-2.79026E-05-1.78327E-05 1.27505E-18-8.95327E-19
 -1      3094 1.08135E-04-5.20221E-05-2.38605E-05-2.72529E-05 1.36986E-18-5.15631E-20
 -1      3095 9.46278E-05-2.24055E-05-3.09447E-05 5.56787E-06 1.53407E-18-3.73207E-19
 -1      3096 1.33218E-04-2.16746E-05-4.83125E-05 1.26260E-05-2.84667E-18-3.16250E-18
 -1      3097 1.30522E-04-1.53740E-05-5.00414E-05 8.50795E-06-3.02518E-18-3.03672E-18
 -1      3098 4.08486E-05-1.52868E-05-1.04112E-05 1.48757E-05-2.23903E-18 1.09193E-18
 -1      3099 1.19274E-04-1.66330E-05-4.43847E-05 5.59970E-06-2.15612E-18-2.09686E-18
 -1      3100 1.24466E-04-1.51714E-05-4.72774E-05 7.19271E-06-2.82994E-18-2.70627E-18
 -1      3101 4.48414E-05-1.74932E-05-1.10282E-05 1.92329E-05 7.86100E-19-3.67051E-18
 -1      3102 1.29730E-04-2.68245E-05-4.43333E-05 1.42401E-05-2.40631E-18-3.26394E-18
 -1      3103 7.48719E-05-3.94211E-05-1.50506E-05-3.86009E-05 1.99307E-18-4.41198E-19
 -1      3104 9.42853E-05-2.17527E-05-3.11068E-05 4.82414E-06 1.28914E-18-7.25805E-19
 -1      3105 9.38202E-05-2.07923E-05-3.12993E-05 4.47710E-06 1.19307E-18-1.03236E-18
 -1      3106 5.85156E-05-2.20450E-05-1.50764E-05-2.53192E-05 1.01681E-18-1.98237E-18
 -1      3107 6.79843E-05-2.85132E-05-1.67890E-05-3.00725E-05 1.64965E-18-1.29511E-18
 -1      3108 9.51781E-05-2.77763E-05-2.88864E-05-1.43152E-06-5.95728E-19-9.58094E-19
 -1      3109 9.51534E-05-2.77881E-05-2.88663E-05-1.30377E-06-5.80874E-19-4.17640E-19
 -1      3110 9.48635E-05-2.75013E-05-2.88758E-05-1.34126E-06 2.34994E-19 1.07364E-18
 -1      3111 9.52091E-05-2.77146E-05-2.89232E-05-1.65857E-06-8.71533E-19-1.32602E-18
 -1      3112 5.26088E-05-1.97381E-05-1.39053E-05 2.35780E-05 1.17420E-18-3.04275E-18
 -1      3113 4.55536E-05-1.44250E-05-1.29179E-05 1.36050E-05 9.21148E-19-3.56929E-18
 -1      3114 1.33402E-04-4.93747E-05-3.61004E-05-5.22667E-06-4.57927E-19 1.24090E-19
 -1      3115 9.55050E-05-2.54059E-05-3.00269E-05-1.89050E-06-6.23383E-19-1.46746E-18
 -1      3116 9.55441E-05-2.60755E-05-2.97838E-05-1.03027E-06-5.87613E-19-1.43980E-18
 -1      3117 1.27874E-04-3.04936E-05-4.21112E-05-1.51454E-05-9.78958E-19-8.55450E-19
 -1      3118 9.56749E-05-2.66455E-05-2.95705E-05-3.78783E-07-5.90752E-19-1.23805E-18
 -1      3119 9.56569E-05-2.70544E-05-2.94075E-05 2.19802E-07-4.94282E-19-1.23018E-18
 -1      3120 9.56713E-05-2.59370E-05-2.98873E-05-8.27816E-07-5.00677E-19-1.40754E-18
 -1      3121 9.56796E-05-2.73862E-05-2.92589E-05 6.83786E-07-5.70496E-19-1.17145E-18
 -1      3122 9.56507E-05-2.76226E-05-2.91573E-05 1.09841E-06-7.46419E-19-1.20272E-18
 -1      3123 9.58258E-05-2.69590E-05-2.95173E-05 3.27072E-07-6.35602E-19-1.25146E-18
 -1      3124 9.56129E-05-2.77924E-05-2.90601E-05 1.43215E-06-6.90370E-19-9.45539E-19
 -1      3125 9.55907E-05-2.79111E-05-2.90050E-05 1.73152E-06-4.17597E-19-9.35729E-19
 -1      3126 9.58153E-05-2.75443E-05-2.92624E-05 1.16008E-06-5.61040E-19-1.09146E-18
 -1      3127 9.55175E-05-2.79671E-05-2.89476E-05 1.98682E-06-2.43532E-19-1.01520E-18
 -1      3128 9.55065E-05-2.80019E-05-2.89278E-05 2.22596E-06-2.67197E-19-9.24389E-19
 -1      3129 9.57102E-05-2.78210E-05-2.90984E-05 1.77809E-06-3.48306E-19-9.67135E-19
 -1      3130 9.54089E-05-2.79742E-05-2.89009E-05 2.44664E-06-1.42968E-19-5.50345E-19
 -1      3131 9.54086E-05-2.79469E-05-2.89078E-05 2.66845E-06-1.02592E-19-2.67450E-19
 -1      3132 9.55453E-05-2.78730E-05-2.90046E-05 2.27637E-06 1.04584E-19-7.50176E-19
 -1      3133 9.52907E-05-2.78555E-05-2.89034E-05 2.88993E-06-2.83580E-19-1.55570E-19
 -1      3134 9.52995E-05-2.77819E-05-2.89305E-05 3.12722E-06-2.16175E-19-3.55079E-20
 -1      3135 9.53350E-05-2.77560E-05-2.89637E-05 2.73481E-06-7.57014E-20-5.72579E-19
 -1      3136 9.51613E-05-2.76415E-05-2.89416E-05 3.37727E-06-5.27136E-19-6.80979E-20
 -1      3137 9.51781E-05-2.75348E-05-2.89833E-05 3.65450E-06-5.22735E-19-1.20250E-19
 -1      3138 9.50835E-05-2.75097E-05-2.89604E-05 3.21705E-06-3.81441E-19-3.31838E-19
 -1      3139 9.50181E-05-2.73585E-05-2.90032E-05 3.95438E-06-4.30875E-19 1.76654E-19
 -1      3140 9.50438E-05-2.72330E-05-2.90542E-05 4.28868E-06-3.29500E-19 6.22930E-20
 -1      3141 9.47894E-05-2.71663E-05-2.89804E-05 3.77233E-06-4.60179E-19 9.96248E-20
 -1      3142 9.48617E-05-2.70360E-05-2.90758E-05 4.65407E-06-3.78845E-19-3.03387E-19
 -1      3143 9.49010E-05-2.69108E-05-2.91301E-05 5.05533E-06-2.45182E-19-1.64215E-19
 -1      3144 9.44511E-05-2.67578E-05-2.90094E-05 4.43774E-06-3.17619E-19-3.51011E-20
 -1      3145 9.47010E-05-2.67156E-05-2.91453E-05 5.49693E-06-2.02254E-19-3.11353E-19
 -1      3146 9.47666E-05-2.66203E-05-2.91960E-05 5.96704E-06-9.57626E-20-4.44920E-19
 -1      3147 9.40718E-05-2.63256E-05-2.90312E-05 5.23997E-06-4.40068E-19-3.61079E-19
 -1      3148 9.45631E-05-2.64629E-05-2.91948E-05 6.49110E-06-3.03521E-19-8.27195E-19
 -1      3149 9.46816E-05-2.64448E-05-2.92333E-05 7.02229E-06-3.93276E-19-1.01615E-18
 -1      3150 9.36687E-05-2.59323E-05-2.90267E-05 6.19719E-06-5.64366E-19-7.27620E-19
 -1      3151 9.45088E-05-2.63840E-05-2.92045E-05 7.63097E-06-2.42200E-19-9.14068E-19
 -1      3152 9.47319E-05-2.65185E-05-2.92209E-05 8.20299E-06-4.15850E-19-8.40107E-19
 -1      3153 9.32869E-05-2.56768E-05-2.89736E-05 7.32140E-06-3.66953E-19-1.19539E-18
 -1      3154 9.46582E-05-2.66478E-05-2.91523E-05 8.89401E-06-1.46166E-19-5.03743E-19
 -1      3155 9.50784E-05-2.70502E-05-2.91376E-05 9.46909E-06 1.26286E-20-1.65638E-19
 -1      3156 9.30227E-05-2.57170E-05-2.88469E-05 8.62117E-06-5.40680E-20-1.08582E-18
 -1      3157 9.52296E-05-2.75108E-05-2.90198E-05 1.02317E-05 1.58423E-19 4.35405E-19
 -1      3158 9.59994E-05-2.83469E-05-2.89709E-05 1.07440E-05 6.95852E-19 2.48524E-19
 -1      3159 9.30599E-05-2.62965E-05-2.86233E-05 1.01020E-05 2.82898E-19-2.88261E-19
 -1      3160 9.65909E-05-2.93370E-05-2.88050E-05 1.15413E-05 1.08179E-18 3.76653E-19
 -1      3161 9.79372E-05-3.08166E-05-2.87358E-05 1.18722E-05 1.23407E-18 6.48637E-19
 -1      3162 9.37242E-05-2.77759E-05-2.82912E-05 1.17536E-05 1.08991E-18-7.50790E-20
 -1      3163 9.93051E-05-3.25734E-05-2.85501E-05 1.25984E-05 1.02393E-18 9.64000E-19
 -1      3164 1.01520E-04-3.49165E-05-2.85148E-05 1.25366E-05 9.33270E-19 6.62716E-19
 -1      3165 9.55461E-05-3.06395E-05-2.78746E-05 1.34923E-05 1.32354E-18-8.63080E-20
 -1      3166 1.04133E-04-3.75944E-05-2.84071E-05 1.28440E-05 7.37212E-19 1.34528E-18
 -1      3167 1.07407E-04-4.07351E-05-2.85352E-05 1.20742E-05 1.04600E-18 7.48496E-19
 -1      3168 9.92981E-05-3.54649E-05-2.74869E-05 1.49816E-05 1.12297E-18 3.79960E-19
 -1      3169 1.11835E-04-4.44179E-05-2.87195E-05 1.11647E-05 1.29596E-18 1.02357E-18
 -1      3170 1.15813E-04-4.76349E-05-2.92515E-05 8.89412E-06 1.33625E-18 8.17494E-19
 -1      3171 1.06365E-04-4.26329E-05-2.75358E-05 1.52652E-05 1.15020E-18 1.19804E-18
 -1      3172 1.31520E-04-5.35373E-05-3.34094E-05-5.79034E-07-2.69634E-19 5.99143E-19
 -1      3173 1.25881E-04-5.20481E-05-3.16588E-05 1.56315E-06 3.42903E-19 7.67438E-19
 -1      3174 1.28113E-04-5.63442E-05-3.09907E-05 8.71834E-06 2.91697E-20 8.56006E-19
 -1      3175 1.23353E-04-5.64653E-05-2.83541E-05 1.53904E-05 1.51857E-19 3.88537E-19
 -1      3176 1.22008E-04-5.08939E-05-3.02621E-05 5.82110E-06 8.04843E-19 7.28247E-19
 -1      3177 8.34565E-05-3.86921E-05-1.87526E-05-3.33963E-05-2.84667E-18-1.83520E-18
 -1      3178 9.64128E-05-4.67264E-05-2.13995E-05-3.24042E-05-2.82973E-18-3.03264E-19
 -1      3179 1.28574E-04-5.68138E-05-3.05535E-05-9.17637E-06 1.17159E-18-2.23474E-18
 -1      3180 1.30751E-04-5.31920E-05-3.34328E-05 4.55849E-07 4.27639E-19-2.90855E-18
 -1      3181 1.26991E-04-5.06479E-05-3.28437E-05 2.36899E-06 3.95077E-19-1.68321E-18
 -1      3182 1.24213E-04-5.08691E-05-3.13364E-05-1.84470E-06 3.12182E-19-1.10894E-18
 -1      3183 1.18573E-04-4.85316E-05-3.00883E-05-5.78012E-06 4.14120E-20-1.12669E-18
 -1      3184 1.14859E-04-4.58653E-05-2.94297E-05-8.56174E-06-1.37625E-19-8.39530E-19
 -1      3185 1.20703E-04-5.14576E-05-2.97973E-05-8.07254E-06 2.11821E-19-1.24256E-18
 -1      3186 1.10147E-04-4.23820E-05-2.90579E-05-1.01976E-05-3.91994E-19 2.65561E-19
 -1      3187 1.06873E-04-3.92983E-05-2.88535E-05-1.14359E-05 3.07461E-19 5.09656E-19
 -1      3188 1.10286E-04-4.46455E-05-2.82711E-05-1.27791E-05 5.47292E-19-9.68331E-20
 -1      3189 1.03788E-04-3.64403E-05-2.88618E-05-1.16605E-05 1.12774E-19-1.69918E-19
 -1      3190 1.01417E-04-3.39528E-05-2.88554E-05-1.19767E-05-2.39964E-19-6.73314E-19
 -1      3191 1.02580E-04-3.76368E-05-2.79565E-05-1.39381E-05-2.18728E-19 2.41616E-19
 -1      3192 9.96640E-05-3.19851E-05-2.89907E-05-1.15218E-05-3.38345E-19-5.09892E-19
 -1      3193 9.81394E-05-3.03195E-05-2.90386E-05-1.13235E-05 2.43288E-19-8.70386E-19
 -1      3194 9.78641E-05-3.22635E-05-2.81809E-05-1.31754E-05-1.20013E-19-4.85024E-19
 -1      3195 9.72651E-05-2.91428E-05-2.91801E-05-1.06398E-05-4.61969E-19-1.11521E-18
 -1      3196 9.63489E-05-2.81493E-05-2.92184E-05-1.01794E-05-4.52544E-19-1.89790E-18
 -1      3197 9.53347E-05-2.88691E-05-2.85195E-05-1.17641E-05-8.55979E-19-2.07555E-19
 -1      3198 9.59959E-05-2.75432E-05-2.93235E-05-9.44379E-06 2.54039E-19-2.08196E-18
 -1      3199 9.54650E-05-2.70201E-05-2.93326E-05-8.86821E-06-1.70154E-19-1.77212E-18
 -1      3200 9.41661E-05-2.69700E-05-2.88135E-05-1.02159E-05-5.38669E-19-1.47725E-18
 -1      3201 9.53935E-05-2.67823E-05-2.93935E-05-8.15414E-06-5.36640E-19-9.35517E-19
 -1      3202 9.50884E-05-2.65584E-05-2.93736E-05-7.54823E-06-3.65090E-19-8.17663E-19
 -1      3203 9.37723E-05-2.60788E-05-2.90163E-05-8.71276E-06 9.60614E-20-1.46596E-18
 -1      3204 9.51518E-05-2.65375E-05-2.93964E-05-6.88735E-06 1.55602E-19-1.75498E-19
 -1      3205 9.49721E-05-2.64891E-05-2.93554E-05-6.30092E-06 5.49801E-19-2.53899E-19
 -1      3206 9.37780E-05-2.58109E-05-2.91287E-05-7.32050E-06 5.68748E-20-2.83117E-20
 -1      3207 9.50877E-05-2.65832E-05-2.93504E-05-5.70742E-06 8.27065E-19-8.99676E-19
 -1      3208 9.49751E-05-2.66288E-05-2.92974E-05-5.16879E-06 1.22827E-18-1.60296E-18
 -1      3209 9.39616E-05-2.58967E-05-2.91687E-05-6.06360E-06-1.58858E-19 1.28099E-18
 -1      3210 9.50995E-05-2.67737E-05-2.92747E-05-4.64836E-06 5.43242E-20-3.13339E-18
 -1      3211 9.50225E-05-2.68625E-05-2.92173E-05-4.17160E-06-8.34458E-19-2.92267E-18
 -1      3212 9.42018E-05-2.61607E-05-2.91581E-05-4.95164E-06 2.85528E-20-1.32027E-18
 -1      3213 9.51352E-05-2.70201E-05-2.91852E-05-3.72456E-06 2.62033E-19-2.03856E-18
 -1      3214 9.50773E-05-2.71218E-05-2.91289E-05-3.31409E-06 8.89386E-19-1.92833E-18
 -1      3215 9.44377E-05-2.64945E-05-2.91164E-05-3.98615E-06 1.13424E-19-1.23819E-18
 -1      3216 9.51702E-05-2.72708E-05-2.90936E-05-2.93717E-06 2.87167E-19-1.03071E-18
 -1      3217 9.51222E-05-2.73674E-05-2.90420E-05-2.59102E-06-4.22175E-19-1.13017E-18
 -1      3218 9.46421E-05-2.68343E-05-2.90588E-05-3.16259E-06 9.25889E-19-1.74368E-18
 -1      3219 9.51944E-05-2.74995E-05-2.90075E-05-2.27669E-06-1.07940E-18-9.70052E-19
 -1      3220 9.51469E-05-2.75802E-05-2.89625E-05-1.99221E-06-9.59673E-19-1.94397E-18
 -1      3221 9.48062E-05-2.71445E-05-2.89961E-05-2.47050E-06-4.77595E-19-1.34255E-18
 -1      3222 9.53816E-05-2.81062E-05-2.88276E-05-2.56330E-06 3.77842E-19-4.36581E-19
 -1      3223 9.53262E-05-2.80975E-05-2.88115E-05-2.36424E-06 6.31408E-20-2.20481E-19
 -1      3224 9.55569E-05-2.77820E-05-2.90385E-05-3.98103E-06 1.66484E-20-2.24867E-19
 -1      3225 9.54201E-05-2.78221E-05-2.89746E-05-3.70293E-06 3.73511E-19-5.04667E-19
 -1      3226 9.56995E-05-2.76686E-05-2.91475E-05-4.62419E-06-2.19586E-19-1.53792E-19
 -1      3227 9.55229E-05-2.76881E-05-2.90767E-05-4.29949E-06 1.01364E-20-1.36962E-19
 -1      3228 9.51313E-05-2.74263E-05-2.90176E-05-4.23816E-06-2.60660E-20-4.18935E-19
 -1      3229 9.59239E-05-2.76334E-05-2.92584E-05-5.36238E-06-3.96579E-19-2.67285E-19
 -1      3230 9.56911E-05-2.76023E-05-2.91854E-05-4.99830E-06-2.65895E-19-1.21509E-19
 -1      3231 9.50881E-05-2.72400E-05-2.90792E-05-4.94250E-06-2.79925E-19-3.71749E-19
 -1      3232 9.62831E-05-2.77573E-05-2.93590E-05-6.16811E-06-4.48808E-21-1.78303E-19
 -1      3233 9.59669E-05-2.76321E-05-2.92895E-05-5.78607E-06-2.79114E-19-3.04003E-19
 -1      3234 9.51190E-05-2.71527E-05-2.91310E-05-5.75423E-06-3.93807E-19-4.08888E-19
 -1      3235 9.68644E-05-2.81568E-05-2.94372E-05-6.98238E-06 1.75231E-19 1.27890E-19
 -1      3236 9.64219E-05-2.78762E-05-2.93769E-05-6.62275E-06 3.53840E-19 1.42097E-19
 -1      3237 9.52919E-05-2.72659E-05-2.91593E-05-6.65332E-06 2.54146E-20-3.71182E-19
 -1      3238 9.78036E-05-2.89902E-05-2.94835E-05-7.70262E-06-2.16939E-19 5.27636E-20
 -1      3239 9.71716E-05-2.84735E-05-2.94367E-05-7.43124E-06-5.95810E-20-3.31549E-21
 -1      3240 9.57207E-05-2.77245E-05-2.91517E-05-7.59286E-06 1.03442E-19-2.07893E-19
 -1      3241 9.92946E-05-3.04520E-05-2.94989E-05-8.16408E-06-7.39964E-19 2.19680E-19
 -1      3242 9.83897E-05-2.96056E-05-2.94643E-05-8.08088E-06-2.84371E-19 1.21444E-19
 -1      3243 9.65841E-05-2.87248E-05-2.91022E-05-8.48582E-06-4.44866E-19-5.54884E-19
 -1      3244 1.01580E-04-3.27318E-05-2.95079E-05-8.11258E-06-4.75458E-19 3.67355E-19
 -1      3245 1.00313E-04-3.14777E-05-2.94719E-05-8.36087E-06-8.50189E-19 1.53476E-19
 -1      3246 9.81425E-05-3.05058E-05-2.90212E-05-9.17908E-06-7.78654E-19-3.61480E-19
 -1      3247 1.04885E-04-3.58983E-05-2.95811E-05-7.16843E-06-3.14904E-19 8.02694E-19
 -1      3248 1.03212E-04-3.42490E-05-2.95069E-05-7.93922E-06-4.29517E-19 8.19732E-19
 -1      3249 1.00734E-04-3.33010E-05-2.89541E-05-9.40417E-06-7.41239E-19-7.04582E-19
 -1      3250 1.09237E-04-3.96445E-05-2.98640E-05-4.82181E-06-3.61430E-19 1.24776E-18
 -1      3251 1.07266E-04-3.78507E-05-2.96799E-05-6.32404E-06-3.42519E-20 1.81283E-18
 -1      3252 1.04699E-04-3.71801E-05-2.90123E-05-8.69567E-06-7.08768E-19 4.11168E-19
 -1      3253 1.14136E-04-4.28907E-05-3.05943E-05-5.80727E-07-2.97836E-19 2.05635E-18
 -1      3254 1.12276E-04-4.16444E-05-3.01930E-05-2.92111E-06-4.12647E-19 1.80621E-18
 -1      3255 1.10134E-04-4.17086E-05-2.94133E-05-6.33909E-06-7.79019E-19 1.36385E-18
 -1      3256 1.18240E-04-4.34877E-05-3.20869E-05 5.50060E-06-9.09521E-19 2.28186E-18
 -1      3257 1.17227E-04-4.40031E-05-3.13396E-05 2.59688E-06-4.83110E-19 2.47569E-18
 -1      3258 1.16411E-04-4.53897E-05-3.05064E-05-1.56640E-06-2.64760E-19 2.30416E-18
 -1      3259 1.19209E-04-3.90339E-05-3.43593E-05 1.12296E-05 9.46890E-20 4.30571E-19
 -1      3260 1.19942E-04-4.21447E-05-3.34375E-05 9.23054E-06-9.15457E-20 1.19325E-18
 -1      3261 1.21452E-04-4.51970E-05-3.27176E-05 5.75053E-06 1.26539E-19 1.03114E-18
 -1      3262 1.18914E-04-2.73216E-05-3.94692E-05 1.33850E-05 7.02190E-19 4.15840E-19
 -1      3263 1.21626E-04-3.36501E-05-3.79658E-05 1.38233E-05 5.17140E-19 7.23816E-19
 -1      3264 1.14270E-04-1.65245E-05-4.22427E-05 6.59282E-06 7.34166E-19-2.58173E-19
 -1      3265 1.15994E-04-2.05417E-05-4.13863E-05 1.05907E-05 8.73185E-19-2.91978E-19
 -1      3266 1.15248E-04-2.45507E-05-3.92044E-05-1.22565E-05 6.66853E-19-9.47009E-19
 -1      3267 1.12854E-04-1.94575E-05-4.01741E-05-9.16784E-06 6.66297E-19-1.03496E-18
 -1      3268 1.19429E-04-3.77221E-05-3.52281E-05-1.27166E-05 1.47529E-19-1.65939E-19
 -1      3269 1.17480E-04-3.24833E-05-3.64307E-05-1.35511E-05 3.42519E-20-8.44088E-19
 -1      3270 1.19265E-04-4.33625E-05-3.25624E-05-6.94532E-06 9.16526E-19-7.60384E-19
 -1      3271 1.19226E-04-4.11015E-05-3.35379E-05-9.54399E-06 8.60585E-19-7.52276E-19
 -1      3272 1.22737E-04-4.15553E-05-3.48538E-05-1.04751E-05 8.27286E-19-1.14756E-18
 -1      3273 1.15500E-04-4.33958E-05-3.08473E-05-4.21989E-07 1.51244E-18-1.23898E-18
 -1      3274 1.16930E-04-4.36865E-05-3.14529E-05-3.18545E-06 1.22297E-18-7.37754E-19
 -1      3275 1.19949E-04-4.58050E-05-3.17821E-05-3.04905E-06 1.10397E-18-1.31354E-18
 -1      3276 1.10373E-04-4.02426E-05-2.99765E-05 4.29496E-06 1.07633E-18-4.24554E-19
 -1      3277 1.12348E-04-4.18072E-05-3.02803E-05 2.26951E-06 1.19294E-18-5.24510E-19
 -1      3278 1.14062E-04-4.41297E-05-3.00390E-05 3.45690E-06 8.20763E-19-7.59555E-19
 -1      3279 1.05672E-04-3.63982E-05-2.96261E-05 6.95328E-06 5.33637E-19 1.65271E-19
 -1      3280 1.07551E-04-3.81918E-05-2.97543E-05 5.75608E-06 9.16546E-19-1.05700E-19
 -1      3281 1.08018E-04-3.99553E-05-2.92502E-05 7.27882E-06 4.88899E-19 3.35677E-19
 -1      3282 1.02055E-04-3.30570E-05-2.95298E-05 8.03306E-06 1.24783E-19 2.39455E-19
 -1      3283 1.03573E-04-3.45804E-05-2.95791E-05 7.50140E-06 1.86726E-19 1.37921E-19
 -1      3284 1.03117E-04-3.55747E-05-2.90145E-05 8.92215E-06 5.05076E-19 1.05594E-18
 -1      3285 9.95521E-05-3.06143E-05-2.95212E-05 8.10393E-06 1.21883E-18 5.62946E-19
 -1      3286 1.00668E-04-3.17197E-05-2.95489E-05 8.02445E-06 8.60217E-19-1.45651E-19
 -1      3287 9.96865E-05-3.20650E-05-2.90257E-05 9.19372E-06 7.23507E-19 1.21406E-18
 -1      3288 9.79218E-05-2.90187E-05-2.95185E-05 7.59913E-06-4.05635E-19 2.02539E-18
 -1      3289 9.87069E-05-2.97420E-05-2.95509E-05 7.79931E-06 2.54247E-19 1.33550E-18
 -1      3290 9.75084E-05-2.96474E-05-2.91108E-05 8.71617E-06 2.20835E-19 1.97175E-18
 -1      3291 9.69020E-05-2.80835E-05-2.94900E-05 6.79771E-06-1.04951E-18 2.83393E-18
 -1      3292 9.74456E-05-2.85129E-05-2.95351E-05 7.15167E-06-2.35237E-19 2.74719E-18
 -1      3293 9.62246E-05-2.81535E-05-2.91887E-05 7.86859E-06-9.06681E-19 2.94946E-18
 -1      3294 9.62787E-05-2.76086E-05-2.94308E-05 5.87725E-06-1.59564E-18 2.20911E-18
 -1      3295 9.66570E-05-2.78341E-05-2.94873E-05 6.29914E-06-1.32153E-18 2.44043E-18
 -1      3296 9.55264E-05-2.73435E-05-2.92292E-05 6.86983E-06-8.50605E-19 3.24865E-18
 -1      3297 9.59009E-05-2.74291E-05-2.93480E-05 4.94687E-06-1.81940E-18 2.01412E-18
 -1      3298 9.61692E-05-2.75238E-05-2.94112E-05 5.38091E-06-1.87279E-18 1.90253E-18
 -1      3299 9.51841E-05-2.69926E-05-2.92287E-05 5.84576E-06-1.31673E-18 2.02962E-18
 -1      3300 9.56702E-05-2.74242E-05-2.92521E-05 4.07073E-06-2.05197E-19 8.86077E-19
 -1      3301 9.58653E-05-2.74410E-05-2.93168E-05 4.48308E-06-1.13287E-18 7.67229E-19
 -1      3302 9.50446E-05-2.69261E-05-2.91952E-05 4.86844E-06-1.22982E-18 5.28782E-19
 -1      3303 9.55253E-05-2.75113E-05-2.91529E-05 3.28289E-06 5.00261E-19 1.50826E-18
 -1      3304 9.56710E-05-2.74864E-05-2.92147E-05 3.65526E-06 7.39877E-19 1.19493E-18
 -1      3305 9.50121E-05-2.70198E-05-2.91401E-05 3.97762E-06-1.57030E-19-3.02116E-19
 -1      3306 9.54298E-05-2.76364E-05-2.90578E-05 2.59723E-06-3.94568E-19 1.36937E-18
 -1      3307 9.55409E-05-2.75934E-05-2.91138E-05 2.92190E-06 1.50999E-20 1.72939E-18
 -1      3308 9.50292E-05-2.71903E-05-2.90740E-05 3.19215E-06 1.86419E-19 8.85645E-19
 -1      3309 9.53637E-05-2.77641E-05-2.89720E-05 2.01658E-06-5.59880E-19 1.33045E-18
 -1      3310 9.54489E-05-2.77206E-05-2.90205E-05 2.28901E-06-6.05145E-19 1.12250E-18
 -1      3311 9.50613E-05-2.73836E-05-2.90055E-05 2.51725E-06-6.05312E-19 7.34427E-19
 -1      3312 9.39129E-05-2.65924E-05-2.88539E-05-9.76973E-08-6.51803E-21-2.15459E-18
 -1      3313 9.39167E-05-2.65962E-05-2.88534E-05 1.31770E-07 4.19315E-19-1.80654E-19
 -1      3314 9.45887E-05-2.72097E-05-2.88704E-05-1.26709E-06 5.93252E-19 1.74338E-18
 -1      3315 9.44076E-05-2.70571E-05-2.88700E-05-1.15434E-06 4.06987E-19 1.26437E-18
 -1      3316 9.40096E-05-2.66780E-05-2.88570E-05-5.72487E-07 3.36247E-19 8.21545E-19
 -1      3317 9.39455E-05-2.66223E-05-2.88560E-05-3.59884E-07 1.86952E-19-5.62243E-19
 -1      3318 9.37321E-05-2.64157E-05-2.88451E-05-2.50145E-07 4.43074E-19-1.65771E-18
 -1      3319 1.27448E-04-5.51092E-05-3.07539E-05-7.98788E-06-6.59230E-19 3.14244E-18
 -1      3320 1.31257E-04-5.18357E-05-3.44024E-05 1.07556E-06-7.20971E-21 2.99966E-18
 -1      3321 9.53772E-05-2.80971E-05-2.88311E-05-2.15209E-06-2.15931E-19-4.46667E-21
 -1      3322 9.53488E-05-2.80413E-05-2.88424E-05-1.92813E-06 1.98463E-20 4.63479E-20
 -1      3323 9.55017E-05-2.80121E-05-2.89277E-05-2.24599E-06 1.05194E-19-3.79037E-19
 -1      3324 9.54273E-05-2.76836E-05-2.90347E-05-1.03393E-06 5.63754E-19 8.04688E-20
 -1      3325 9.54596E-05-2.74600E-05-2.91309E-05-6.13693E-07 6.42569E-19 1.67513E-19
 -1      3326 8.52471E-05-4.16515E-05-1.82878E-05-3.45894E-05 1.88719E-18-1.81371E-19
 -1      3327 1.26089E-04-1.24466E-05-4.92499E-05-2.81701E-06-2.09598E-18-2.61460E-18
 -1      3328 9.42425E-05-2.68919E-05-2.88632E-05-9.83100E-07 4.36847E-19-1.70683E-19
 -1      3329 9.41144E-05-2.67804E-05-2.88620E-05-8.08012E-07 6.88108E-19 5.23471E-19
 -1      3330 9.38869E-05-2.65503E-05-2.88539E-05-7.69796E-07 9.46104E-19 5.63614E-19
 -1      3331 9.41963E-05-2.68248E-05-2.88688E-05-1.19805E-06 1.16891E-18 8.68276E-19
 -1      3332 9.54659E-05-2.79178E-05-2.89422E-05-3.43652E-06 6.68198E-19-5.93065E-19
 -1      3333 9.53594E-05-2.79573E-05-2.88896E-05-3.20108E-06 6.92335E-19-4.98985E-19
 -1      3334 9.52102E-05-2.76418E-05-2.89594E-05-3.64116E-06 5.06963E-19-3.65082E-19
 -1      3335 9.54100E-05-2.80364E-05-2.88684E-05-2.97488E-06 5.50573E-19-5.19932E-19
 -1      3336 9.53295E-05-2.80590E-05-2.88316E-05-2.76874E-06 5.64379E-19-4.77434E-19
 -1      3337 9.54036E-05-2.79722E-05-2.89019E-05-2.68550E-06 5.04229E-19-7.40233E-19
 -1      3338 9.53044E-05-2.78367E-05-2.89168E-05-3.13449E-06 5.33438E-19-5.55606E-19
 -1      3339 9.49880E-05-2.33942E-05-3.06631E-05-3.95907E-06-7.08554E-19-1.53500E-18
 -1      3340 9.51807E-05-2.44707E-05-3.03203E-05-2.76784E-06-6.93653E-19-1.58482E-18
 -1      3341 9.52269E-05-2.42932E-05-3.03989E-05-2.39407E-06-5.73462E-19-1.65343E-18
 -1      3342 1.25946E-04-3.83936E-05-3.78160E-05 1.23199E-05 7.79376E-19 1.08232E-18
 -1      3343 7.89993E-05-3.53457E-05-1.83098E-05-3.20075E-05 2.04061E-18-5.55018E-19
 -1      3344 9.23323E-05-4.32637E-05-2.09655E-05-3.12321E-05 2.05660E-18-3.70683E-19
 -1      3345 7.71067E-05-3.11396E-05-1.93954E-05-2.75863E-05 1.37725E-18-1.19620E-18
 -1      3346 4.85287E-05-1.72802E-05-1.27538E-05 2.18390E-05-2.77652E-18 7.39036E-20
 -1      3347 4.44018E-05-1.33896E-05-1.30088E-05 1.09951E-05-1.65304E-18 4.34422E-19
 -1      3348 9.50376E-05-2.77079E-05-2.88528E-05 1.19683E-06 1.74156E-18-1.38702E-19
 -1      3349 9.53946E-05-2.79731E-05-2.88938E-05-1.67263E-06 1.84432E-19 1.25038E-19
 -1      3350 9.53961E-05-2.78491E-05-2.89413E-05-1.38001E-06 3.91044E-19 5.96602E-20
 -1      3351 9.55921E-05-2.79145E-05-2.90091E-05-1.75028E-06 1.61545E-19-9.73466E-20
 -1      3352 9.24589E-05-1.79054E-05-3.19735E-05-6.81578E-06-6.92637E-19-2.00372E-18
 -1      3353 9.30920E-05-1.88943E-05-3.18281E-05-7.32711E-06-9.63185E-19-1.86081E-18
 -1      3354 9.38403E-05-2.04408E-05-3.14363E-05-6.31279E-06-8.76837E-19-1.71876E-18
 -1      3355 9.32087E-05-1.93008E-05-3.16464E-05-5.54512E-06-5.75208E-19-2.06425E-18
 -1      3356 1.08367E-04-5.16429E-05-2.39156E-05-2.68489E-05-2.68160E-18 5.73342E-19
 -1      3357 1.18696E-04-5.58387E-05-2.73441E-05-1.94993E-05-1.79380E-18 2.22896E-18
 -1      3358 9.52267E-05-2.41987E-05-3.04423E-05 4.11686E-06 1.41830E-18-1.49503E-19
 -1      3359 9.46539E-05-2.26472E-05-3.08504E-05 4.62138E-06 1.34010E-18-3.84093E-19
 -1      3360 9.49266E-05-2.34682E-05-3.06239E-05 3.49409E-06 1.17009E-18-4.84551E-19
 -1      3361 9.52618E-05-2.51069E-05-3.00789E-05 2.81280E-06 1.23910E-18-1.84098E-20
 -1      3362 1.23929E-04-3.19152E-05-3.99972E-05-1.39407E-05 2.32034E-19-1.81199E-18
 -1      3363 1.28575E-04-4.02857E-05-3.79534E-05-1.22833E-05 1.80206E-19-1.63255E-18
 -1      3364 9.23250E-05-1.81249E-05-3.18153E-05 1.74302E-06 8.09797E-19-1.80383E-18
 -1      3365 9.21995E-05-1.79147E-05-3.18487E-05 1.01352E-06 5.76917E-19-1.88463E-18
 -1      3366 7.88821E-05-3.58362E-05-1.83604E-05 3.24404E-05 1.67617E-18-8.75461E-19
 -1      3367 6.39053E-05-2.64547E-05-1.55744E-05 2.91931E-05 1.70910E-18-2.08158E-18
 -1      3368 9.21358E-05-1.78088E-05-3.18678E-05 3.95146E-07 5.16388E-19-1.86311E-18
 -1      3369 9.21328E-05-1.78040E-05-3.18684E-05-3.46718E-07 4.15498E-19-2.02985E-18
 -1      3370 9.30607E-05-1.93468E-05-3.15731E-05 5.94470E-07 5.81172E-19-1.83021E-18
 -1      3371 1.25712E-04-5.66296E-05-2.97724E-05 1.32027E-05 1.45282E-18 7.27059E-19
 -1      3372 1.17873E-04-5.57260E-05-2.64800E-05 2.16489E-05 6.21616E-19 1.06632E-18
 -1      3373 9.43441E-05-2.18273E-05-3.10532E-05 3.47007E-06 1.06444E-18-1.07646E-18
 -1      3374 9.34244E-05-2.00697E-05-3.14636E-05 4.09488E-06 1.17634E-18-1.28077E-18
 -1      3375 9.30525E-05-1.93873E-05-3.15817E-05 3.52235E-06 1.05095E-18-1.42829E-18
 -1      3376 5.12445E-05-1.41614E-05-1.58915E-05 1.07707E-05-1.62012E-18-6.19922E-19
 -1      3377 4.60637E-05-1.22258E-05-1.39435E-05 4.35251E-06-1.17404E-18-8.43168E-19
 -1      3378 4.97603E-05-1.27959E-05-1.55635E-05-1.86685E-06-7.75565E-19-8.67626E-19
 -1      3379 9.46682E-05-2.72820E-05-2.88839E-05-1.45913E-06 5.07203E-19 1.08550E-18
 -1      3380 1.15699E-04-5.32292E-05-2.66456E-05 1.92326E-05 7.98620E-19 2.76282E-19
 -1      3381 1.29329E-04-4.68654E-05-3.54451E-05 7.51953E-06 3.03450E-19 2.04818E-18
 -1      3382 9.56799E-05-2.70537E-05-2.94166E-05-2.27278E-07 8.26419E-19-1.17063E-19
 -1      3383 9.54536E-05-2.71476E-05-2.92792E-05-1.20029E-07 7.77320E-19 1.81804E-19
 -1      3384 9.54980E-05-2.67663E-05-2.94419E-05 5.05743E-07 1.03132E-18 1.68935E-19
 -1      3385 9.27580E-05-1.88665E-05-3.16865E-05 3.01083E-06 1.06391E-18-1.46405E-18
 -1      3386 9.25095E-05-1.84368E-05-3.17570E-05 2.32809E-06 8.84017E-19-1.58997E-18
 -1      3387 9.32902E-05-1.97583E-05-3.14939E-05 1.70709E-06 8.04912E-19-1.60030E-18
 -1      3388 9.37295E-05-2.05791E-05-3.13273E-05 2.70552E-06 9.98402E-19-1.34012E-18
 -1      3389 1.27145E-04-4.40821E-05-3.56948E-05-8.52009E-06 6.04729E-19-1.61114E-18
 -1      3390 8.97035E-05-4.19915E-05-2.01573E-05 3.28142E-05-1.76262E-18 8.50262E-19
 -1      3391 8.11448E-05-3.60046E-05-1.92636E-05 3.15126E-05-1.75148E-18 8.17916E-19
 -1      3392 4.93077E-05-1.37068E-05-1.48403E-05 7.18382E-06 6.08170E-19-3.14800E-18
 -1      3393 5.23548E-05-1.62696E-05-1.49229E-05-1.78073E-05-8.69691E-19-4.40139E-18
 -1      3394 6.06516E-05-2.06146E-05-1.69489E-05-2.13786E-05-1.56132E-18-3.25541E-18
 -1      3395 5.14306E-05-1.42789E-05-1.57171E-05-1.04089E-05-1.38238E-19-3.09400E-18
 -1      3396 1.31025E-04-4.36519E-05-3.76204E-05 1.10976E-05-1.06890E-18-2.73660E-18
 -1      3397 1.29737E-04-3.62906E-05-4.05816E-05 1.54140E-05-1.38728E-18-2.49843E-18
 -1      3398 1.31007E-04-4.93558E-05-3.51047E-05 7.49810E-06-3.91190E-19-2.43347E-18
 -1      3399 1.03249E-04-4.74278E-05-2.36887E-05-2.62033E-05-2.69748E-18 6.85481E-19
 -1      3400 1.16515E-04-5.03548E-05-2.85633E-05 1.24559E-05 8.80997E-19 7.70879E-19
 -1      3401 1.22231E-04-5.48755E-05-2.88368E-05-1.29469E-05 1.07470E-18-1.66794E-18
 -1      3402 9.49360E-05-2.74280E-05-2.89273E-05-1.82947E-06-7.28716E-19-9.06401E-19
 -1      3403 1.10222E-04-1.59995E-05-4.06583E-05 1.91935E-07 2.69304E-19-5.32579E-19
 -1      3404 1.18548E-04-1.29492E-05-4.56809E-05 2.90215E-06 9.39465E-19-1.54786E-18
 -1      3405 8.83674E-05-4.02915E-05-2.01692E-05 3.13025E-05 1.68771E-18-7.90996E-19
 -1      3406 8.16715E-05-3.41236E-05-2.02874E-05 2.85460E-05 1.72848E-18-9.95158E-19
 -1      3407 9.70951E-05-4.46655E-05-2.25360E-05 2.80593E-05 1.35660E-18 8.84355E-20
 -1      3408 1.11109E-04-1.73509E-05-4.04552E-05-4.96931E-06 6.46974E-19-6.86232E-19
 -1      3409 9.37437E-05-2.64304E-05-2.88439E-05 2.97753E-07 3.07842E-19-9.96969E-19
 -1      3410 9.39590E-05-2.66406E-05-2.88544E-05 3.95046E-07 2.48860E-19 9.42426E-20
 -1      3411 9.40310E-05-2.67043E-05-2.88544E-05 6.07143E-07 5.84745E-19-1.85668E-18
 -1      3412 9.53220E-05-2.77745E-05-2.89431E-05 1.82125E-06-3.98169E-19 1.34826E-18
 -1      3413 9.50283E-05-2.75003E-05-2.89441E-05 2.00122E-06-2.35297E-19 1.04634E-18
 -1      3414 9.52293E-05-2.77618E-05-2.89104E-05 1.65618E-06 1.89160E-19 1.58296E-18
 -1      3415 1.25537E-04-4.78264E-05-3.33235E-05 4.36231E-06 8.62253E-20 1.32007E-18
 -1      3416 9.50336E-05-2.76743E-05-2.88666E-05 1.35213E-06 4.33133E-19 5.51591E-19
 -1      3417 9.50905E-05-2.76707E-05-2.88900E-05 1.50865E-06 1.89181E-19 8.97601E-19
 -1      3418 9.47592E-05-2.74161E-05-2.88672E-05 1.31516E-06 2.36817E-18-1.62891E-18
 -1      3419 9.41441E-05-2.68186E-05-2.88582E-05 8.34135E-07 6.19935E-19-2.10978E-18
 -1      3420 9.42748E-05-2.69357E-05-2.88586E-05 1.00024E-06 1.18882E-18-1.50257E-18
 -1      3421 9.39169E-05-2.65907E-05-2.88503E-05 8.09601E-07 5.07111E-19-1.80772E-18
 -1      3422 9.44210E-05-2.70852E-05-2.88631E-05 1.13424E-06 1.16531E-18-1.36546E-18
 -1      3423 9.45873E-05-2.72375E-05-2.88628E-05 1.23191E-06 1.89322E-18-1.94602E-18
 -1      3424 9.45588E-05-2.71828E-05-2.88725E-05 1.40037E-06 2.03581E-18-3.39040E-18
 -1      3425 9.42127E-05-2.68595E-05-2.88615E-05 1.18376E-06 8.13567E-19-1.90123E-18
 -1      3426 1.27983E-04-5.50958E-05-3.12287E-05 6.96673E-06 2.05888E-18-6.73232E-19
 -1      3427 1.22860E-04-5.38326E-05-2.95972E-05 1.00106E-05 2.12217E-18 1.08113E-19
 -1      3428 1.27349E-04-5.18604E-05-3.24656E-05 6.25440E-07 1.68657E-18-1.31017E-18
 -1      3429 1.27128E-04-2.70927E-05-4.31563E-05 1.40396E-05-2.54989E-18-2.84222E-18
 -1      3430 1.21584E-04-5.34800E-05-2.91482E-05-1.13718E-05-1.12858E-18 2.07211E-18
 -1      3431 9.54176E-05-2.63618E-05-2.96037E-05 1.09556E-06 1.12085E-18 2.03072E-19
 -1      3432 9.54473E-05-2.57646E-05-2.98509E-05 2.00529E-06 1.16090E-18 2.67023E-20
 -1      3433 9.53535E-05-2.50282E-05-3.01357E-05 2.38297E-06 1.14707E-18-2.40353E-20
 -1      3434 9.55864E-05-2.61998E-05-2.97400E-05 9.19780E-07 1.01931E-18 1.12195E-19
 -1      3435 1.19055E-04-1.20544E-05-4.64689E-05-3.86091E-06 8.80914E-19-2.45655E-18
 -1      3436 1.16381E-04-1.59546E-05-4.33437E-05-6.94506E-06 4.92232E-19-2.14133E-18
 -1      3437 1.01391E-04-4.70773E-05-2.29718E-05-2.78620E-05 1.80519E-18 1.02936E-18
 -1      3438 1.08528E-04-4.96401E-05-2.53139E-05-2.23238E-05 1.36554E-18-3.53901E-20
 -1      3439 9.44014E-05-4.12340E-05-2.26785E-05-2.69748E-05 1.93690E-18 6.29451E-19
 -1      3440 6.06104E-05-2.33402E-05-1.56842E-05 2.55713E-05-1.96795E-18 7.53224E-19
 -1      3441 9.56611E-05-2.76228E-05-2.91645E-05-1.11281E-06 5.06678E-19-5.24256E-20
 -1      3442 9.42804E-05-2.17665E-05-3.10957E-05-5.30003E-06-7.57789E-19-1.65094E-18
 -1      3443 7.88018E-05-3.35457E-05-1.90772E-05-2.99213E-05-2.91925E-18-1.58250E-18
 -1      3444 9.24877E-05-1.84034E-05-3.17622E-05-2.28059E-06-5.67828E-21-1.94546E-18
 -1      3445 9.27277E-05-1.88200E-05-3.16934E-05-2.96960E-06-1.94329E-19-1.92736E-18
 -1      3446 5.67148E-05-1.84100E-05-1.60890E-05-1.82216E-05 4.62851E-19-1.19723E-18
 -1      3447 1.20636E-04-1.29840E-05-4.66623E-05 4.27887E-07-1.90424E-18-2.14445E-18
 -1      3448 9.30284E-05-1.93396E-05-3.15909E-05-3.48238E-06-3.17006E-19-1.92186E-18
 -1      3449 9.34039E-05-2.00161E-05-3.14746E-05-4.08562E-06-4.89405E-19-2.05193E-18
 -1      3450 9.37037E-05-2.05411E-05-3.13358E-05-2.66660E-06-3.19594E-19-1.80338E-18
 -1      3451 6.42449E-05-2.34010E-05-1.70782E-05 2.37407E-05 1.45830E-18-1.91758E-18
 -1      3452 9.42133E-05-2.16339E-05-3.11152E-05-4.61174E-06-7.32230E-19-1.79606E-18
 -1      3453 1.21871E-04-1.56431E-05-4.59856E-05 7.43620E-06-2.68488E-18-2.56471E-18
 -1      3454 1.10070E-04-5.32084E-05-2.43928E-05 2.72633E-05-5.87894E-19 1.47291E-18
 -1      3455 9.77753E-05-4.69959E-05-2.15694E-05 3.11869E-05-1.33439E-18 1.08651E-18
 -1      3456 9.92632E-05-4.51454E-05-2.29730E-05 2.74453E-05-8.68341E-19 2.18127E-18
 -1      3457 1.14730E-04-5.29706E-05-2.62637E-05 2.05381E-05 8.98808E-19 2.65855E-18
 -1      3458 1.26637E-04-4.83429E-05-3.36121E-05-4.89411E-06 1.35311E-18-1.38040E-18
 -1      3459 1.16261E-04-5.14086E-05-2.75433E-05-1.59516E-05 5.17087E-19-1.31852E-18
 -1      3460 5.45547E-05-1.50503E-05-1.68313E-05 1.19691E-05 9.95608E-19-3.07478E-18
 -1      3461 5.15221E-05-1.28362E-05-1.63446E-05 1.30610E-06 5.00663E-19-2.60579E-18
 -1      3462 9.45911E-05-2.71217E-05-2.89143E-05-1.76290E-06 3.48712E-19 7.05109E-19
 -1      3463 9.56174E-05-2.52367E-05-3.01542E-05-1.19958E-06-3.97269E-19-1.57365E-18
 -1      3464 9.57514E-05-2.59265E-05-2.99341E-05-5.12106E-07-3.68751E-19-1.50795E-18
 -1      3465 9.59133E-05-2.65094E-05-2.97372E-05-1.69115E-08-4.94518E-19-1.40932E-18
 -1      3466 9.59399E-05-2.69346E-05-2.95799E-05 4.81475E-07-4.85184E-19-1.32405E-18
 -1      3467 9.58357E-05-2.58670E-05-2.99856E-05-3.27396E-07-3.61853E-19-1.52303E-18
 -1      3468 9.59644E-05-2.72681E-05-2.94358E-05 8.50335E-07-4.84563E-19-1.20359E-18
 -1      3469 9.59291E-05-2.75009E-05-2.93292E-05 1.21498E-06-5.09680E-19-1.11147E-18
 -1      3470 9.60183E-05-2.68593E-05-2.96389E-05 5.53151E-07-4.57396E-19-1.28114E-18
 -1      3471 9.58598E-05-2.76544E-05-2.92280E-05 1.49416E-06-4.52793E-19-9.07900E-19
 -1      3472 9.57878E-05-2.77458E-05-2.91611E-05 1.77445E-06-8.19912E-20-8.58358E-19
 -1      3473 9.59744E-05-2.74053E-05-2.93868E-05 1.21823E-06-3.95047E-19-9.97953E-19
 -1      3474 9.56498E-05-2.77638E-05-2.90937E-05 2.00159E-06 1.09131E-19-8.46415E-19
 -1      3475 9.55524E-05-2.77485E-05-2.90572E-05 2.24085E-06 2.42240E-19-8.57640E-19
 -1      3476 9.57707E-05-2.76122E-05-2.92109E-05 1.73873E-06-6.10626E-20-8.12852E-19
 -1      3477 9.53593E-05-2.76626E-05-2.90149E-05 2.45023E-06 1.57573E-19-1.02641E-18
 -1      3478 9.52406E-05-2.75654E-05-2.90007E-05 2.68360E-06-1.45535E-19-7.48203E-19
 -1      3479 9.54443E-05-2.75581E-05-2.90936E-05 2.18486E-06 1.35418E-19-1.17827E-18
 -1      3480 9.49977E-05-2.73981E-05-2.89754E-05 2.90320E-06-2.12316E-19-5.74148E-19
 -1      3481 9.48581E-05-2.72380E-05-2.89761E-05 3.15822E-06-1.97963E-19-5.24137E-19
 -1      3482 9.50139E-05-2.73013E-05-2.90182E-05 2.61760E-06-4.79212E-20-9.43632E-19
 -1      3483 9.45654E-05-2.70070E-05-2.89598E-05 3.41051E-06-4.48505E-19-3.72981E-19
 -1      3484 9.44035E-05-2.68005E-05-2.89681E-05 3.70815E-06-5.33374E-19-1.89455E-19
 -1      3485 9.44845E-05-2.68857E-05-2.89681E-05 3.08632E-06-2.96139E-19-6.07376E-19
 -1      3486 9.40580E-05-2.65222E-05-2.89521E-05 4.01119E-06-7.73537E-19-3.19804E-19
 -1      3487 9.38735E-05-2.62879E-05-2.89600E-05 4.36688E-06-5.56129E-19-5.73896E-19
 -1      3488 9.38531E-05-2.63485E-05-2.89261E-05 3.63057E-06-6.49126E-19-6.44886E-19
 -1      3489 9.34724E-05-2.59820E-05-2.89345E-05 4.73575E-06-2.56966E-19-6.64639E-19
 -1      3490 9.32695E-05-2.57448E-05-2.89330E-05 5.16035E-06-3.77823E-19-5.81013E-19
 -1      3491 9.31136E-05-2.57282E-05-2.88733E-05 4.28260E-06-4.80505E-19-9.06167E-19
 -1      3492 9.28135E-05-2.54398E-05-2.88863E-05 5.60932E-06-5.61245E-19-4.55866E-19
 -1      3493 9.26065E-05-2.52378E-05-2.88647E-05 6.11064E-06-5.61930E-19-3.10760E-19
 -1      3494 9.22628E-05-2.50741E-05-2.87873E-05 5.07115E-06-2.63780E-19-8.60373E-19
 -1      3495 9.21055E-05-2.49773E-05-2.87828E-05 6.65687E-06-6.73898E-19-7.09979E-19
 -1      3496 9.19281E-05-2.48704E-05-2.87285E-05 7.24174E-06-5.31625E-19-7.67908E-19
 -1      3497 9.13094E-05-2.44576E-05-2.86416E-05 6.02821E-06-7.63630E-19-6.61654E-19
 -1      3498 9.14103E-05-2.47234E-05-2.85951E-05 7.91077E-06-2.40663E-19-9.59142E-19
 -1      3499 9.13303E-05-2.48058E-05-2.84946E-05 8.58772E-06-7.23335E-20-1.03572E-18
 -1      3500 9.02873E-05-2.39881E-05-2.84046E-05 7.19969E-06-2.75961E-19-8.56193E-19
 -1      3501 9.08568E-05-2.48785E-05-2.82918E-05 9.42110E-06 3.99577E-19-5.19544E-19
 -1      3502 9.10000E-05-2.52946E-05-2.81338E-05 1.02017E-05 8.16558E-19-1.63298E-19
 -1      3503 8.92774E-05-2.38340E-05-2.80402E-05 8.66119E-06 5.45252E-19-4.35033E-19
 -1      3504 9.06914E-05-2.57490E-05-2.78450E-05 1.12643E-05 9.81751E-19 9.74307E-20
 -1      3505 9.12755E-05-2.67143E-05-2.76274E-05 1.21554E-05 1.31443E-18 1.53866E-19
 -1      3506 8.84451E-05-2.42553E-05-2.75102E-05 1.05394E-05 1.15239E-18 2.03508E-19
 -1      3507 9.13673E-05-2.77950E-05-2.72456E-05 1.35223E-05 1.14337E-18 1.54810E-19
 -1      3508 9.27248E-05-2.95967E-05-2.69912E-05 1.44799E-05 1.25569E-18-1.14578E-19
 -1      3509 8.81157E-05-2.56593E-05-2.67837E-05 1.30232E-05 1.02318E-18 4.18362E-19
 -1      3510 9.36678E-05-3.16322E-05-2.65386E-05 1.61929E-05 1.26402E-18-4.35166E-19
 -1      3511 9.66323E-05-3.47761E-05-2.64108E-05 1.68677E-05 1.29714E-18-1.85288E-20
 -1      3512 8.89557E-05-2.86758E-05-2.58639E-05 1.63412E-05 1.38886E-18 1.67595E-20
 -1      3513 9.74461E-05-3.87866E-05-2.50073E-05 2.11140E-05 1.50315E-18 1.60283E-19
 -1      3514 1.02143E-04-4.34390E-05-2.50177E-05 2.16957E-05 1.46759E-18 1.89719E-19
 -1      3515 9.78657E-05-4.27341E-05-2.33131E-05-2.57911E-05-2.73094E-18-2.14538E-20
 -1      3516 1.06673E-04-4.78562E-05-2.54405E-05-2.18550E-05-2.06883E-18 1.10163E-18
 -1      3517 9.43017E-05-2.66057E-05-2.90034E-05-5.89705E-06-3.24996E-19-5.00374E-19
 -1      3518 9.42595E-05-2.66300E-05-2.89908E-05-5.46740E-06-4.27090E-19-3.48517E-19
 -1      3519 1.09502E-04-4.71493E-05-2.66741E-05-1.78110E-05 1.06078E-18-3.46347E-19
 -1      3520 1.04475E-04-4.26303E-05-2.63682E-05-1.83470E-05 1.19516E-18 6.58859E-19
 -1      3521 1.00016E-04-3.73555E-05-2.67895E-05-1.64891E-05-6.96949E-20 8.63189E-19
 -1      3522 9.67973E-05-3.38913E-05-2.68759E-05-1.60689E-05-5.36017E-19 9.84276E-19
 -1      3523 9.52014E-05-3.14745E-05-2.72534E-05-1.45538E-05-2.45479E-19 5.62207E-19
 -1      3524 9.34210E-05-2.93128E-05-2.74555E-05-1.37812E-05-7.67959E-20 6.30277E-19
 -1      3525 9.15991E-05-3.08835E-05-2.60846E-05-1.68241E-05-6.55405E-19 1.09099E-18
 -1      3526 9.28969E-05-2.79153E-05-2.78082E-05-1.24501E-05-7.45525E-19 6.17157E-19
 -1      3527 9.20100E-05-2.66796E-05-2.80015E-05-1.16247E-05-1.26324E-18-6.85460E-20
 -1      3528 8.97675E-05-2.70503E-05-2.69123E-05-1.36733E-05-6.58173E-19 5.72179E-19
 -1      3529 9.20395E-05-2.59914E-05-2.82797E-05-1.05250E-05-1.06372E-18-4.95988E-19
 -1      3530 9.16842E-05-2.53799E-05-2.84258E-05-9.74039E-06-6.38537E-19-1.02038E-18
 -1      3531 8.94125E-05-2.50197E-05-2.76058E-05-1.11268E-05-1.09580E-18 7.68577E-20
 -1      3532 9.19744E-05-2.51439E-05-2.86250E-05-8.84223E-06 1.51001E-19-7.92866E-19
 -1      3533 9.19052E-05-2.49225E-05-2.87185E-05-8.12319E-06 7.45556E-19-5.21775E-19
 -1      3534 8.98091E-05-2.41751E-05-2.81262E-05-9.11123E-06-3.49613E-19-8.67455E-19
 -1      3535 9.22937E-05-2.49534E-05-2.88493E-05-7.37801E-06 3.67880E-20 4.19794E-20
 -1      3536 9.23611E-05-2.49596E-05-2.88979E-05-6.72959E-06-9.34916E-20 4.41173E-19
 -1      3537 9.05249E-05-2.40375E-05-2.84874E-05-7.48994E-06 4.91492E-19-1.36575E-18
 -1      3538 9.27614E-05-2.51341E-05-2.89756E-05-6.10161E-06-6.28404E-19 7.58679E-19
 -1      3539 9.28814E-05-2.52611E-05-2.89908E-05-5.52472E-06-7.29484E-20 1.07419E-18
 -1      3540 9.13300E-05-2.42985E-05-2.87194E-05-6.15079E-06-2.82129E-19-2.04148E-19
 -1      3541 9.32506E-05-2.55001E-05-2.90302E-05-4.99170E-06 2.22654E-19 6.96333E-19
 -1      3542 9.33792E-05-2.56808E-05-2.90230E-05-4.48614E-06-6.58044E-19-4.09311E-19
 -1      3543 9.21056E-05-2.47601E-05-2.88544E-05-5.02360E-06-1.03503E-18-3.11353E-19
 -1      3544 9.36988E-05-2.59357E-05-2.90366E-05-4.03427E-06-4.23740E-19-1.89615E-19
 -1      3545 9.38153E-05-2.61295E-05-2.90162E-05-3.59828E-06 9.92350E-19-3.43395E-19
 -1      3546 9.27957E-05-2.52974E-05-2.89210E-05-4.06763E-06-1.02125E-19 3.98262E-19
 -1      3547 9.40806E-05-2.63722E-05-2.90136E-05-3.21748E-06 1.32709E-18-1.62859E-18
 -1      3548 9.41776E-05-2.65563E-05-2.89870E-05-2.84753E-06 4.30438E-19-1.93134E-18
 -1      3549 9.33795E-05-2.58348E-05-2.89423E-05-3.25749E-06 2.62845E-19 3.74492E-19
 -1      3550 9.43890E-05-2.67692E-05-2.89754E-05-2.52952E-06 3.45415E-19-2.08825E-18
 -1      3551 9.44510E-05-2.69262E-05-2.89457E-05-2.21277E-06-7.76892E-20-1.29075E-18
 -1      3552 9.38529E-05-2.63280E-05-2.89358E-05-2.57738E-06 4.30624E-19-2.52397E-18
 -1      3553 9.44678E-05-2.67672E-05-2.90067E-05-5.03824E-06-6.27995E-19-4.63409E-19
 -1      3554 9.44775E-05-2.68626E-05-2.89844E-05-4.66005E-06-2.81969E-19-2.99280E-19
 -1      3555 9.36501E-05-2.62345E-05-2.88911E-05-5.16823E-06-5.92512E-19-4.26334E-19
 -1      3556 9.46945E-05-2.70382E-05-2.89888E-05-4.30064E-06 1.15993E-19-5.64917E-19
 -1      3557 9.47300E-05-2.71614E-05-2.89638E-05-3.97655E-06 4.20549E-19-2.64494E-19
 -1      3558 9.40762E-05-2.65811E-05-2.89250E-05-4.38344E-06-7.89972E-21-2.21187E-19
 -1      3559 9.42743E-05-2.66681E-05-2.89628E-05-6.86928E-06-1.20608E-19-4.19088E-19
 -1      3560 9.41352E-05-2.65587E-05-2.89672E-05-6.40051E-06-3.15361E-19-5.93675E-19
 -1      3561 9.32692E-05-2.60172E-05-2.88223E-05-6.09910E-06-2.05298E-19-4.98194E-19
 -1      3562 9.45173E-05-2.71183E-05-2.88710E-05-7.92930E-06-5.74924E-20-6.70654E-20
 -1      3563 9.42076E-05-2.67863E-05-2.88980E-05-7.44669E-06 2.23697E-19-1.76764E-19
 -1      3564 9.30209E-05-2.60609E-05-2.87006E-05-7.18763E-06-1.02870E-19-1.40696E-19
 -1      3565 9.52405E-05-2.81802E-05-2.87220E-05-9.02260E-06-7.72586E-19-1.47382E-19
 -1      3566 9.46478E-05-2.75067E-05-2.87722E-05-8.57176E-06-3.65366E-19-1.81595E-19
 -1      3567 9.30540E-05-2.65531E-05-2.85109E-05-8.43840E-06-1.59875E-19-1.25058E-19
 -1      3568 9.67561E-05-3.01356E-05-2.85297E-05-1.00378E-05-6.21623E-19-6.08260E-19
 -1      3569 9.57225E-05-2.89775E-05-2.85919E-05-9.70049E-06-5.38911E-19-2.72917E-19
 -1      3570 9.36109E-05-2.77532E-05-2.82483E-05-9.83765E-06-5.00304E-19-7.69030E-20
 -1      3571 9.94827E-05-3.32838E-05-2.83490E-05-1.07488E-05-8.65960E-19-1.02316E-19
 -1      3572 9.78187E-05-3.15036E-05-2.83884E-05-1.06723E-05-8.19380E-19-4.88652E-19
 -1      3573 9.50644E-05-2.99938E-05-2.79328E-05-1.13163E-05-7.39005E-19-1.95129E-19
 -1      3574 1.03893E-04-3.77949E-05-2.83154E-05-1.06827E-05-1.22835E-18 2.78941E-19
 -1      3575 1.01448E-04-3.53702E-05-2.82532E-05-1.11343E-05-1.07104E-18-1.51218E-19
 -1      3576 9.79599E-05-3.36607E-05-2.76355E-05-1.26643E-05-1.20852E-18-1.84958E-21
 -1      3577 1.10237E-04-4.32954E-05-2.87065E-05-8.99564E-06-1.11815E-18 3.35612E-19
 -1      3578 1.07088E-04-4.05658E-05-2.83973E-05-1.03679E-05-1.14993E-18-6.00616E-20
 -1      3579 1.02971E-04-3.89867E-05-2.75419E-05-1.32854E-05-1.01162E-18-6.81127E-19
 -1      3580 1.23841E-04-4.96206E-05-3.17170E-05 3.89454E-07 1.89816E-19 1.40830E-18
 -1      3581 7.46039E-05-2.71609E-05-2.01572E-05-2.42730E-05 7.62833E-19-9.23345E-19
 -1      3582 8.38878E-05-3.36570E-05-2.14351E-05-2.65904E-05 1.15461E-18-7.93643E-19
 -1      3583 1.20629E-04-2.83420E-05-3.98202E-05-1.34849E-05 5.05043E-20-1.31973E-18
 -1      3584 1.04818E-04-3.84609E-05-2.83404E-05 1.06528E-05 8.44581E-19-6.13058E-19
 -1      3585 1.07713E-04-4.11149E-05-2.85370E-05 9.67603E-06 4.07588E-19-4.68092E-19
 -1      3586 9.99445E-05-3.37051E-05-2.83373E-05 1.08787E-05-2.63758E-19 1.68945E-18
 -1      3587 1.02092E-04-3.59213E-05-2.83463E-05 1.06741E-05 1.80052E-19 1.59652E-19
 -1      3588 1.00911E-04-3.68201E-05-2.75843E-05 1.30232E-05-1.41196E-19-2.44831E-19
 -1      3589 9.69343E-05-3.03408E-05-2.85147E-05 1.01439E-05 1.65092E-19 2.32484E-18
 -1      3590 9.83476E-05-3.18877E-05-2.84595E-05 1.03530E-05 3.97766E-19 1.99934E-18
 -1      3591 9.67198E-05-3.20235E-05-2.77876E-05 1.20149E-05-3.56608E-19 2.39572E-18
 -1      3592 9.52363E-05-2.82033E-05-2.87190E-05 9.04864E-06-1.47170E-19 3.34780E-18
 -1      3593 9.60940E-05-2.91821E-05-2.86564E-05 9.46476E-06 2.44135E-19 2.73832E-18
 -1      3594 9.43976E-05-2.89082E-05-2.81020E-05 1.05720E-05-2.22673E-19 3.24972E-18
 -1      3595 9.44011E-05-2.70018E-05-2.88847E-05 7.84802E-06-5.34619E-19 1.88210E-18
 -1      3596 9.48831E-05-2.75526E-05-2.88399E-05 8.35041E-06-4.85902E-19 1.96344E-18
 -1      3597 9.32790E-05-2.70421E-05-2.84045E-05 9.06293E-06 2.59493E-19 2.38737E-18
 -1      3598 9.40830E-05-2.64426E-05-2.89925E-05 6.66964E-06-2.72975E-19 1.56871E-18
 -1      3599 9.43303E-05-2.67017E-05-2.89715E-05 7.19239E-06-4.35183E-19 1.65257E-18
 -1      3600 9.29017E-05-2.60863E-05-2.86422E-05 7.65267E-06 2.28139E-20 4.58898E-19
 -1      3601 9.40532E-05-2.62937E-05-2.90456E-05 5.57067E-06-1.52543E-18 9.78345E-19
 -1      3602 9.41634E-05-2.63676E-05-2.90459E-05 6.07598E-06-8.91042E-19 1.75758E-18
 -1      3603 9.29366E-05-2.57271E-05-2.88055E-05 6.38445E-06-7.15766E-19 5.64974E-19
 -1      3604 9.41678E-05-2.63862E-05-2.90557E-05 4.57880E-06-7.30978E-19 2.58747E-19
 -1      3605 9.42031E-05-2.63517E-05-2.90716E-05 5.04515E-06-8.92582E-19 1.10667E-18
 -1      3606 9.31795E-05-2.57366E-05-2.89028E-05 5.26428E-06-8.68181E-19 2.75539E-19
 -1      3607 9.43407E-05-2.66042E-05-2.90362E-05 3.70575E-06-1.18975E-19 1.23444E-19
 -1      3608 9.43390E-05-2.65135E-05-2.90618E-05 4.12190E-06-6.45380E-19-3.04324E-19
 -1      3609 9.35061E-05-2.59534E-05-2.89487E-05 4.28817E-06-3.30132E-19 3.69615E-20
 -1      3610 9.45233E-05-2.68713E-05-2.89992E-05 2.95352E-06-7.74949E-21 7.62248E-19
 -1      3611 9.45063E-05-2.67589E-05-2.90293E-05 3.31513E-06-2.40567E-19 3.34360E-19
 -1      3612 9.38448E-05-2.62690E-05-2.89584E-05 3.44874E-06-2.94885E-19-1.28240E-18
 -1      3613 9.46896E-05-2.71377E-05-2.89543E-05 2.31780E-06-9.12421E-19 1.31441E-18
 -1      3614 9.46697E-05-2.70270E-05-2.89849E-05 2.62331E-06-4.70350E-19 1.38851E-18
 -1      3615 9.41550E-05-2.66124E-05-2.89452E-05 2.73777E-06-5.42047E-19 1.21022E-20
 -1      3616 8.30980E-05-3.41552E-05-2.08103E-05 2.75549E-05-1.04967E-18 1.29339E-18
 -1      3617 7.37036E-05-2.96812E-05-1.84440E-05 2.96239E-05-1.38350E-18 6.40198E-19
 -1      3618 9.34818E-05-2.62098E-05-2.88335E-05-4.15156E-07 5.95219E-19-6.58196E-19
 -1      3619 9.34426E-05-2.61767E-05-2.88305E-05-1.36868E-07 3.02557E-19-3.28893E-18
 -1      3620 7.43606E-05-2.83373E-05-1.94904E-05-2.62512E-05-2.38813E-18-1.46796E-18
 -1      3621 8.66274E-05-3.67003E-05-2.14822E-05-2.80430E-05-2.64505E-18-1.20819E-18
 -1      3622 9.55839E-05-2.79150E-05-2.89988E-05-2.25430E-06 3.25684E-19-6.82003E-19
 -1      3623 9.56346E-05-2.78974E-05-2.90288E-05-2.01740E-06 1.33809E-19-4.41242E-19
 -1      3624 9.21906E-05-1.79015E-05-3.18506E-05-9.64726E-07 3.43327E-19-2.07327E-18
 -1      3625 9.23090E-05-1.81005E-05-3.18187E-05-1.69298E-06 1.50308E-19-1.97331E-18
 -1      3626 9.32746E-05-1.97324E-05-3.14984E-05-1.66881E-06 1.84875E-20-1.91396E-18
 -1      3627 9.58300E-05-2.75781E-05-2.92534E-05-1.18727E-06 4.40157E-19-1.34674E-19
 -1      3628 9.58577E-05-2.73403E-05-2.93575E-05-8.01604E-07 6.16811E-19-1.47470E-19
 -1      3629 1.09590E-04-4.87464E-05-2.57085E-05 2.10971E-05 1.02253E-18 2.11573E-19
 -1      3630 9.49381E-05-2.73397E-05-2.89649E-05-3.67838E-06 4.62442E-19-2.21752E-19
 -1      3631 9.49853E-05-2.74601E-05-2.89440E-05-3.40312E-06 4.57373E-19-3.15180E-19
 -1      3632 9.44996E-05-2.69661E-05-2.89418E-05-3.72774E-06 4.70310E-19-3.81872E-19
 -1      3633 1.15118E-04-5.06063E-05-2.73573E-05-1.55673E-05-1.41737E-18 1.13510E-18
 -1      3634 1.21391E-04-5.12979E-05-3.02057E-05-6.21742E-06-2.71057E-19 1.00766E-18
 -1      3635 1.17973E-04-4.81891E-05-2.99661E-05-4.59614E-06-2.03156E-20 7.55616E-19
 -1      3636 1.09554E-04-4.67549E-05-2.68337E-05-1.63496E-05-1.51669E-18 2.37399E-19
 -1      3637 9.57358E-05-2.78539E-05-2.90921E-05-1.77756E-06 1.03647E-19-3.08399E-19
 -1      3638 9.57801E-05-2.77439E-05-2.91541E-05-1.49019E-06 2.77281E-19-2.25875E-19
 -1      3639 9.57814E-05-2.77444E-05-2.91603E-05-1.78442E-06 3.56541E-19-7.62554E-19
 -1      3640 9.39445E-05-2.11426E-05-3.12112E-05-4.24547E-06-6.42651E-19-1.99617E-18
 -1      3641 1.11821E-04-4.42347E-05-2.88538E-05 8.57497E-06 7.05808E-20-9.08684E-19
 -1      3642 1.15286E-04-4.64533E-05-2.94867E-05 6.13620E-06 4.73627E-19-1.48828E-18
 -1      3643 1.07544E-04-4.27926E-05-2.78419E-05 1.25057E-05 2.65581E-19-1.69153E-18
 -1      3644 5.47370E-05-1.49251E-05-1.67638E-05-1.20614E-05 1.78261E-19-8.34486E-19
 -1      3645 6.36267E-05-2.03864E-05-1.84133E-05-1.96038E-05 5.07075E-19-1.18966E-18
 -1      3646 7.12572E-05-2.55471E-05-1.94559E-05 2.38304E-05 1.62117E-18-1.48842E-18
 -1      3647 6.20694E-05-1.92649E-05-1.80176E-05 1.89081E-05 1.31837E-18-1.77890E-18
 -1      3648 9.52761E-05-2.44104E-05-3.03681E-05 2.65605E-06 1.08181E-18-4.71349E-19
 -1      3649 9.49720E-05-2.35560E-05-3.06144E-05 2.88732E-06 1.03241E-18-8.57157E-19
 -1      3650 9.54170E-05-2.51129E-05-3.01382E-05 1.80343E-06 1.01261E-18-4.08944E-19
 -1      3651 1.22783E-04-2.02237E-05-4.46910E-05 1.24820E-05-3.11623E-18-3.09231E-18
 -1      3652 1.23568E-04-4.89251E-05-3.20615E-05-1.29505E-06 1.29647E-18-1.40285E-18
 -1      3653 6.37273E-05-2.22701E-05-1.75823E-05 2.26454E-05-1.45007E-18 1.17912E-18
 -1      3654 9.42102E-05-2.67762E-05-2.88989E-05-1.80415E-06 1.21925E-18 1.78361E-19
 -1      3655 9.44393E-05-2.21415E-05-3.09737E-05-3.24940E-06-5.49833E-19-1.80826E-18
 -1      3656 6.01484E-05-1.81648E-05-1.74896E-05 1.84329E-05-9.96984E-19 1.45915E-18
 -1      3657 5.92215E-05-1.64218E-05-1.80841E-05 1.25798E-05-6.10578E-19 3.56257E-19
 -1      3658 7.05418E-05-2.42810E-05-1.98375E-05 2.25219E-05-8.04681E-19 1.62112E-18
 -1      3659 6.27289E-05-1.75922E-05-1.91148E-05 1.34169E-05 1.19671E-18-2.31118E-18
 -1      3660 9.58294E-05-2.70029E-05-2.95025E-05-3.91832E-07 6.38750E-19-2.34307E-19
 -1      3661 9.58128E-05-2.65813E-05-2.96618E-05 1.46491E-07 8.24935E-19-2.57135E-19
 -1      3662 9.59485E-05-2.69242E-05-2.95833E-05-4.84087E-07 5.93586E-19-4.06921E-19
 -1      3663 9.26138E-05-3.77379E-05-2.33490E-05-2.39273E-05-2.19350E-18-4.94760E-19
 -1      3664 5.33686E-05-1.30939E-05-1.69561E-05-4.21700E-06 2.53107E-19-1.93214E-18
 -1      3665 5.74373E-05-1.50551E-05-1.80732E-05-9.93716E-06 2.24001E-21-2.69915E-18
 -1      3666 5.79022E-05-1.39968E-05-1.86516E-05 2.77288E-07 7.92313E-19-1.96753E-18
 -1      3667 8.98754E-05-3.43193E-05-2.37913E-05 2.26242E-05 1.76201E-18-7.62978E-19
 -1      3668 9.59285E-05-2.74931E-05-2.93311E-05-1.22096E-06 3.95551E-19-4.15292E-19
 -1      3669 1.14800E-04-4.62848E-05-2.92150E-05-7.20704E-06-7.73857E-19 6.50361E-19
 -1      3670 9.69350E-05-3.86878E-05-2.50132E-05-2.12934E-05 1.02684E-18 1.06790E-18
 -1      3671 6.43705E-05-1.98177E-05-1.90347E-05-1.81855E-05-1.26999E-18-2.19826E-18
 -1      3672 6.89755E-05-2.39924E-05-1.90980E-05-2.35392E-05-1.87755E-18-1.63184E-18
 -1      3673 7.75084E-05-2.72827E-05-2.13344E-05-2.20886E-05-1.81618E-18-1.56423E-18
 -1      3674 9.53933E-05-2.78202E-05-2.89562E-05-2.69309E-06 4.22871E-19-7.06424E-19
 -1      3675 9.54459E-05-2.78691E-05-2.89624E-05-2.46907E-06 3.87549E-19-6.58059E-19
 -1      3676 9.55466E-05-2.77606E-05-2.90522E-05-2.25502E-06 3.28479E-19-1.00486E-18
 -1      3677 1.10697E-04-4.56179E-05-2.80404E-05-1.20390E-05-1.04090E-18-5.33445E-19
 -1      3678 7.06623E-05-2.32276E-05-2.01351E-05-2.10268E-05 2.17747E-19-1.28114E-18
 -1      3679 7.74916E-05-2.57189E-05-2.20287E-05-2.01447E-05 6.16084E-19-1.32194E-18
 -1      3680 6.72718E-05-1.94359E-05-2.04964E-05-1.59186E-05-1.40703E-20-8.45021E-19
 -1      3681 9.47217E-05-2.28718E-05-3.07923E-05 2.67371E-06 9.60006E-19-1.06237E-18
 -1      3682 9.37421E-05-2.07200E-05-3.13072E-05 7.50022E-07 6.67419E-19-1.71503E-18
 -1      3683 9.36885E-05-2.06147E-05-3.13273E-05 2.25007E-07 5.84619E-19-1.81881E-18
 -1      3684 9.34497E-05-2.61883E-05-2.88298E-05 2.02357E-07-5.02620E-19-1.14656E-18
 -1      3685 9.35048E-05-2.62328E-05-2.88316E-05 4.84088E-07 1.40037E-20-1.15034E-18
 -1      3686 9.31962E-05-2.59453E-05-2.88167E-05 4.46360E-08-5.34995E-19-1.44859E-18
 -1      3687 9.38482E-05-2.64209E-05-2.88921E-05-1.88276E-06 1.77605E-18-7.52594E-19
 -1      3688 9.40221E-05-2.66629E-05-2.88712E-05-1.43300E-06 2.13580E-18 1.07897E-18
 -1      3689 9.47212E-05-2.71944E-05-2.89361E-05 2.09251E-06 1.19484E-19 2.98851E-19
 -1      3690 9.43244E-05-2.68546E-05-2.89176E-05 2.18005E-06 4.12521E-20-9.51068E-19
 -1      3691 9.46826E-05-2.72265E-05-2.89114E-05 1.87742E-06 5.03114E-19 1.67470E-19
 -1      3692 9.08013E-05-3.79006E-05-2.25534E-05 2.62177E-05-1.19716E-18 2.26393E-18
 -1      3693 8.30254E-05-3.21420E-05-2.17980E-05 2.46209E-05-1.57143E-18 2.48504E-18
 -1      3694 9.16009E-05-3.73348E-05-2.31198E-05-2.42748E-05 1.24284E-18 1.26539E-19
 -1      3695 9.36154E-05-2.63358E-05-2.88386E-05 7.96708E-07-3.52566E-19-1.44928E-18
 -1      3696 9.37586E-05-2.64528E-05-2.88449E-05 1.03932E-06-1.33614E-19-1.95777E-18
 -1      3697 9.33285E-05-2.60628E-05-2.88239E-05 7.19848E-07-1.04322E-18-9.17006E-19
 -1      3698 9.39300E-05-2.66116E-05-2.88561E-05 1.24593E-06 3.60762E-19-2.43974E-18
 -1      3699 9.41088E-05-2.67595E-05-2.88628E-05 1.38916E-06 5.96434E-19-1.96743E-18
 -1      3700 9.36455E-05-2.63304E-05-2.88449E-05 1.25607E-06-5.90641E-19-2.76009E-18
 -1      3701 9.38245E-05-2.64942E-05-2.88611E-05-1.25154E-06 1.50267E-18 6.56771E-19
 -1      3702 9.49202E-05-2.32633E-05-3.07108E-05-2.74896E-06-5.58392E-19-1.72777E-18
 -1      3703 9.52509E-05-2.43160E-05-3.04128E-05-1.84541E-06-5.21839E-19-1.67631E-18
 -1      3704 9.39914E-05-2.12162E-05-3.12041E-05 1.63518E-06 8.27337E-19-1.41825E-18
 -1      3705 9.38393E-05-2.09064E-05-3.12651E-05 1.14888E-06 6.91697E-19-1.63383E-18
 -1      3706 9.44548E-05-2.20049E-05-3.10308E-05 7.38588E-07 6.41358E-19-1.56007E-18
 -1      3707 9.38282E-05-2.08873E-05-3.12687E-05-1.11782E-06 1.30758E-19-1.72531E-18
 -1      3708 9.39766E-05-2.11869E-05-3.12095E-05-1.60520E-06-1.00072E-19-1.70247E-18
 -1      3709 9.51752E-05-2.76150E-05-2.89495E-05-3.15302E-06 4.28238E-19-5.21807E-19
 -1      3710 9.52269E-05-2.77095E-05-2.89390E-05-2.91353E-06 5.55367E-19-5.47324E-19
 -1      3711 9.48943E-05-2.73239E-05-2.89583E-05-3.17792E-06 4.17307E-19-5.59615E-19
 -1      3712 1.19767E-04-5.11911E-05-2.93523E-05 8.67910E-06 7.68060E-19-1.80900E-18
 -1      3713 1.17810E-04-5.25598E-05-2.80188E-05 1.46890E-05 8.31919E-19 1.08013E-19
 -1      3714 5.59542E-05-1.33869E-05-1.82808E-05 5.24342E-07-9.83925E-19-1.21438E-18
 -1      3715 5.45663E-05-1.35702E-05-1.73057E-05-6.45502E-06-6.44764E-19-1.27733E-18
 -1      3716 6.10913E-05-1.54978E-05-1.93619E-05-8.57408E-06-1.84084E-19-1.29370E-18
 -1      3717 9.30555E-05-1.93383E-05-3.15744E-05-5.54127E-07 4.30419E-19-1.98290E-18
 -1      3718 1.21048E-04-4.92621E-05-3.07785E-05 2.35247E-06 7.08045E-19-1.42819E-18
 -1      3719 9.44530E-05-2.21924E-05-3.09678E-05-2.65697E-06-4.41779E-19-1.66548E-18
 -1      3720 1.04223E-04-4.66908E-05-2.46370E-05 2.38118E-05-8.12596E-19 3.78359E-18
 -1      3721 9.63219E-05-4.16689E-05-2.33500E-05 2.54857E-05-1.18125E-18 2.90853E-18
 -1      3722 9.57865E-05-3.94019E-05-2.41380E-05 2.29074E-05-1.28944E-18 3.32134E-18
 -1      3723 9.53227E-05-2.42910E-05-3.04438E-05-1.49172E-06-3.81368E-19-1.64548E-18
 -1      3724 1.11358E-04-4.98237E-05-2.62657E-05 1.91742E-05-3.54252E-19 1.40470E-18
 -1      3725 9.36726E-05-2.63660E-05-2.88474E-05-9.76699E-07 1.09286E-18 7.61582E-19
 -1      3726 9.35437E-05-2.62584E-05-2.88400E-05-7.24936E-07 8.23370E-19 1.42308E-18
 -1      3727 9.32571E-05-2.59859E-05-2.88250E-05-6.23207E-07 8.42502E-19 3.74819E-19
 -1      3728 9.34933E-05-2.61673E-05-2.88477E-05-1.22741E-06 1.30577E-18 3.88923E-19
 -1      3729 9.57350E-05-2.52755E-05-3.01965E-05-5.85545E-07-3.22221E-19-1.60598E-18
 -1      3730 9.59037E-05-2.59391E-05-2.99921E-05-8.17983E-08-3.26525E-19-1.47426E-18
 -1      3731 9.48531E-05-2.74374E-05-2.88972E-05 1.63484E-06-8.32734E-20-1.40026E-19
 -1      3732 9.44099E-05-2.20997E-05-3.10093E-05 2.37747E-06 9.13021E-19-1.21187E-18
 -1      3733 9.41695E-05-2.15793E-05-3.11161E-05 1.97501E-06 8.00487E-19-1.27033E-18
 -1      3734 9.46931E-05-2.25479E-05-3.08997E-05 1.38471E-06 7.28487E-19-1.23292E-18
 -1      3735 1.08896E-04-4.68643E-05-2.64380E-05 1.77628E-05-9.64797E-19 9.13793E-19
 -1      3736 9.60512E-05-2.64864E-05-2.98096E-05 2.62243E-07-2.80313E-19-1.28207E-18
 -1      3737 9.60731E-05-2.68819E-05-2.96591E-05 6.44707E-07-2.71903E-19-1.11576E-18
 -1      3738 9.59594E-05-2.59539E-05-3.00019E-05 3.81007E-08-1.55545E-19-1.35309E-18
 -1      3739 9.60648E-05-2.71772E-05-2.95208E-05 9.12411E-07-3.05678E-19-9.23688E-19
 -1      3740 9.59968E-05-2.73743E-05-2.94124E-05 1.20552E-06-3.43974E-19-8.95999E-19
 -1      3741 9.60836E-05-2.68264E-05-2.96782E-05 6.49282E-07-1.74606E-19-6.90669E-19
 -1      3742 9.58726E-05-2.74820E-05-2.93099E-05 1.41376E-06-1.65312E-19-7.79830E-19
 -1      3743 9.57353E-05-2.75222E-05-2.92350E-05 1.65210E-06 5.35694E-20-7.31626E-19
 -1      3744 9.59531E-05-2.72730E-05-2.94321E-05 1.12555E-06-9.28163E-20-7.81577E-19
 -1      3745 9.55202E-05-2.74826E-05-2.91605E-05 1.83220E-06 2.18822E-19-7.73171E-19
 -1      3746 9.53270E-05-2.74014E-05-2.91105E-05 2.04716E-06 1.79974E-19-7.99416E-19
 -1      3747 9.56164E-05-2.73618E-05-2.92498E-05 1.51671E-06 6.94388E-20-6.39738E-19
 -1      3748 9.50334E-05-2.72457E-05-2.90553E-05 2.22255E-06 2.23676E-20-9.09727E-19
 -1      3749 9.47899E-05-2.70690E-05-2.90219E-05 2.44052E-06-9.80059E-20-8.90712E-19
 -1      3750 9.51126E-05-2.71722E-05-2.91144E-05 1.87010E-06 8.98449E-20-7.42272E-19
 -1      3751 9.44222E-05-2.68208E-05-2.89775E-05 2.63099E-06-2.76840E-19-8.72793E-19
 -1      3752 9.41283E-05-2.65693E-05-2.89521E-05 2.87294E-06-3.39715E-19-7.10060E-19
 -1      3753 9.44582E-05-2.67612E-05-2.90088E-05 2.22718E-06-2.66783E-19-7.50587E-19
 -1      3754 9.36841E-05-2.62474E-05-2.89089E-05 3.09493E-06-5.22644E-19-7.33907E-19
 -1      3755 9.33368E-05-2.59397E-05-2.88825E-05 3.37770E-06-5.17775E-19-4.80745E-19
 -1      3756 9.36547E-05-2.61738E-05-2.89145E-05 2.62176E-06-2.72929E-19-5.47211E-19
 -1      3757 9.28102E-05-2.55630E-05-2.88299E-05 3.64547E-06-6.16112E-19-3.55038E-19
 -1      3758 9.24064E-05-2.52202E-05-2.87919E-05 3.98279E-06-6.09611E-19-4.32937E-19
 -1      3759 9.26938E-05-2.54493E-05-2.88111E-05 3.08280E-06-5.01353E-19-1.53897E-19
 -1      3760 9.17884E-05-2.48101E-05-2.87172E-05 4.31029E-06-4.69830E-19-6.06938E-19
 -1      3761 9.13285E-05-2.44598E-05-2.86553E-05 4.71567E-06-4.98124E-19-6.27268E-19
 -1      3762 9.15606E-05-2.46283E-05-2.86746E-05 3.63610E-06-6.05139E-19-2.63531E-19
 -1      3763 9.06100E-05-2.40455E-05-2.85431E-05 5.12086E-06-6.46848E-19-5.82601E-19
 -1      3764 9.01028E-05-2.37279E-05-2.84422E-05 5.61196E-06-7.99276E-19-6.89587E-19
 -1      3765 9.02365E-05-2.37595E-05-2.84765E-05 4.31116E-06-6.44198E-19-6.35358E-19
 -1      3766 8.92764E-05-2.33513E-05-2.82733E-05 6.12370E-06-4.92689E-19-3.38032E-19
 -1      3767 8.87482E-05-2.31273E-05-2.81158E-05 6.72930E-06 1.86574E-19-2.16542E-20
 -1      3768 8.87038E-05-2.29077E-05-2.81813E-05 5.15261E-06-5.31813E-19 4.05550E-20
 -1      3769 8.78122E-05-2.28503E-05-2.78667E-05 7.39753E-06 6.53413E-19-9.29228E-20
 -1      3770 8.73203E-05-2.28122E-05-2.76324E-05 8.16754E-06 8.76846E-19 1.36912E-19
 -1      3771 8.69510E-05-2.21648E-05-2.77450E-05 6.23808E-06 3.07592E-19 4.32312E-19
 -1      3772 8.62830E-05-2.27248E-05-2.72735E-05 9.08068E-06 9.83548E-19-8.14421E-20
 -1      3773 8.59430E-05-2.30146E-05-2.69418E-05 1.00993E-05 1.09942E-18-3.56883E-19
 -1      3774 8.49788E-05-2.16619E-05-2.71122E-05 7.70587E-06 8.55533E-19-4.47257E-19
 -1      3775 8.48355E-05-2.32547E-05-2.64351E-05 1.14185E-05 1.32254E-18-5.10383E-20
 -1      3776 8.48666E-05-2.41060E-05-2.59905E-05 1.28152E-05 1.24460E-18 6.87644E-20
 -1      3777 8.28052E-05-2.15930E-05-2.62108E-05 9.79980E-06 1.21774E-18-9.21135E-19
 -1      3778 8.38114E-05-2.49124E-05-2.52901E-05 1.47513E-05 1.04338E-18-1.94642E-19
 -1      3779 8.46031E-05-2.66711E-05-2.47403E-05 1.67233E-05 1.39504E-18-5.14086E-19
 -1      3780 8.05742E-05-2.23088E-05-2.49452E-05 1.29208E-05 1.18477E-18-6.89931E-19
 -1      3781 8.31157E-05-2.79539E-05-2.36920E-05 1.94791E-05 1.45139E-18-7.08761E-19
 -1      3782 8.25376E-05-3.13469E-05-2.18043E-05 2.39229E-05 1.70333E-18-8.67388E-19
 -1      3783 7.53673E-05-2.72155E-05-2.03400E-05 2.40388E-05 1.63233E-18-1.17939E-18
 -1      3784 7.80511E-05-2.40246E-05-2.30954E-05 1.74176E-05 1.17027E-18-8.49746E-19
 -1      3785 9.22514E-05-2.53734E-05-2.86523E-05-6.02105E-06-1.72001E-19-2.39133E-19
 -1      3786 9.24211E-05-2.54629E-05-2.87066E-05-5.52823E-06-3.04594E-19-2.98598E-19
 -1      3787 8.63698E-05-2.54827E-05-2.60374E-05-1.38774E-05-1.24253E-18 1.26098E-18
 -1      3788 8.59351E-05-2.42489E-05-2.64670E-05-1.24265E-05-9.81752E-19 1.03822E-18
 -1      3789 8.67704E-05-2.37374E-05-2.69779E-05-1.09405E-05-1.00862E-18 9.77572E-20
 -1      3790 8.68318E-05-2.31928E-05-2.73040E-05-9.84363E-06-1.16243E-18 1.31395E-19
 -1      3791 8.33861E-05-2.22950E-05-2.61703E-05-1.09909E-05-1.50174E-18 2.66695E-19
 -1      3792 8.77039E-05-2.30935E-05-2.76711E-05-8.79327E-06-1.32862E-18-8.80790E-19
 -1      3793 8.80169E-05-2.29623E-05-2.79050E-05-7.93876E-06-5.65407E-19-1.48594E-18
 -1      3794 8.51566E-05-2.18930E-05-2.70921E-05-8.56669E-06-1.55624E-18-1.63593E-18
 -1      3795 8.88415E-05-2.31104E-05-2.81604E-05-7.15690E-06 3.55492E-19-1.73466E-18
 -1      3796 8.92446E-05-2.32159E-05-2.83175E-05-6.46623E-06 6.04502E-19-2.10566E-18
 -1      3797 8.68684E-05-2.20867E-05-2.77438E-05-6.83317E-06 8.33888E-20-1.65935E-18
 -1      3798 8.99841E-05-2.34985E-05-2.84885E-05-5.85557E-06 2.50998E-19-2.41016E-18
 -1      3799 9.03941E-05-2.37292E-05-2.85863E-05-5.27993E-06-3.52548E-19-2.18687E-18
 -1      3800 8.84317E-05-2.26121E-05-2.81910E-05-5.53084E-06 4.47394E-19-3.14518E-18
 -1      3801 9.10352E-05-2.40720E-05-2.86954E-05-4.78470E-06-6.38904E-19-9.90765E-19
 -1      3802 9.14112E-05-2.43570E-05-2.87503E-05-4.29657E-06-8.98524E-19-7.40690E-19
 -1      3803 8.98051E-05-2.33021E-05-2.84867E-05-4.50133E-06 3.52186E-19-2.86557E-18
 -1      3804 9.19531E-05-2.47120E-05-2.88154E-05-3.88618E-06-3.30188E-20 2.64543E-19
 -1      3805 9.22776E-05-2.50070E-05-2.88408E-05-3.47025E-06 1.06138E-19 4.54419E-19
 -1      3806 9.09790E-05-2.40481E-05-2.86727E-05-3.65768E-06 8.99087E-20 9.29455E-20
 -1      3807 9.27252E-05-2.53429E-05-2.88759E-05-3.12809E-06-3.73518E-19 3.25364E-19
 -1      3808 9.29939E-05-2.56222E-05-2.88822E-05-2.77308E-06-4.03388E-19-3.84814E-19
 -1      3809 9.19601E-05-2.47807E-05-2.87820E-05-2.95398E-06-7.45324E-20 2.20145E-19
 -1      3810 9.33576E-05-2.59232E-05-2.88978E-05-2.48976E-06-7.19342E-19-5.19636E-19
 -1      3811 9.35701E-05-2.61735E-05-2.88926E-05-2.18992E-06 3.65752E-19-1.40554E-18
 -1      3812 9.27619E-05-2.54568E-05-2.88398E-05-2.36697E-06-7.27932E-19 1.07602E-18
 -1      3813 9.28513E-05-2.56792E-05-2.87809E-05-5.06031E-06-4.85436E-19-2.82471E-19
 -1      3814 9.30620E-05-2.58561E-05-2.88117E-05-4.64363E-06-3.72595E-19 2.94121E-20
 -1      3815 9.18665E-05-2.50591E-05-2.86264E-05-4.97215E-06-2.62186E-19 1.44683E-19
 -1      3816 9.34733E-05-2.61176E-05-2.88611E-05-4.26525E-06-2.67947E-19 1.87534E-19
 -1      3817 9.36922E-05-2.63284E-05-2.88779E-05-3.91570E-06 2.19096E-19 1.69032E-19
 -1      3818 9.27073E-05-2.55833E-05-2.87624E-05-4.14955E-06-1.19021E-19 4.67587E-19
 -1      3819 9.59918E-05-2.74575E-05-2.93745E-05-1.24194E-06 4.06477E-19-8.74811E-19
 -1      3820 9.60397E-05-2.72408E-05-2.94818E-05-9.17367E-07 4.16006E-19-7.63418E-19
 -1      3821 9.15375E-05-2.57649E-05-2.81671E-05-8.56929E-06-4.12184E-19-4.02761E-20
 -1      3822 9.14116E-05-2.54161E-05-2.82941E-05-7.89968E-06-1.77065E-19-1.99540E-19
 -1      3823 9.18320E-05-2.69319E-05-2.77831E-05-1.02328E-05-2.96521E-19-2.18446E-19
 -1      3824 9.13536E-05-2.61561E-05-2.79492E-05-9.47166E-06-1.10493E-19-1.02527E-19
 -1      3825 8.96541E-05-2.49632E-05-2.77288E-05-8.90595E-06-1.65115E-19-1.36592E-19
 -1      3826 9.30516E-05-2.92060E-05-2.73181E-05-1.21722E-05-9.20377E-19 1.13681E-19
 -1      3827 9.19878E-05-2.78051E-05-2.75062E-05-1.13536E-05-6.32144E-19 1.90559E-20
 -1      3828 8.95495E-05-2.61387E-05-2.71949E-05-1.09889E-05-5.75569E-19 3.92162E-19
 -1      3829 9.58165E-05-3.30526E-05-2.68379E-05-1.42817E-05-1.00478E-18-5.24390E-19
 -1      3830 9.38290E-05-3.07705E-05-2.69984E-05-1.35174E-05-9.05940E-19-2.50746E-19
 -1      3831 9.03482E-05-2.85322E-05-2.65400E-05-1.36179E-05-7.00119E-19 1.63831E-19
 -1      3832 1.01025E-04-3.88987E-05-2.65451E-05-1.60408E-05-9.42579E-19-8.40836E-19
 -1      3833 9.77213E-05-3.55979E-05-2.65419E-05-1.56971E-05-7.52838E-19-5.03906E-19
 -1      3834 9.27408E-05-3.26982E-05-2.58295E-05-1.67773E-05-1.04879E-18-1.17460E-18
 -1      3835 9.57973E-05-2.76626E-05-2.92010E-05-1.74150E-06 4.64649E-19-8.97237E-19
 -1      3836 9.58977E-05-2.75914E-05-2.92726E-05-1.48386E-06 4.70086E-19-7.94613E-19
 -1      3837 9.59876E-05-2.73606E-05-2.94105E-05-1.20554E-06 4.11701E-19-9.05259E-19
 -1      3838 1.04695E-04-4.26764E-05-2.64124E-05-1.71286E-05-1.52856E-18-1.75083E-19
 -1      3839 8.76402E-05-3.16920E-05-2.39361E-05-2.09650E-05 5.33406E-19 3.85559E-19
 -1      3840 9.46808E-05-2.25208E-05-3.09061E-05-1.37904E-06-1.91736E-19-1.56129E-18
 -1      3841 9.41498E-05-2.15399E-05-3.11235E-05-1.96579E-06-2.89214E-19-1.75026E-18
 -1      3842 9.33853E-05-2.60416E-05-2.88605E-05-1.79307E-06 1.00242E-18 6.07297E-19
 -1      3843 9.16027E-05-2.69143E-05-2.77260E-05 1.04437E-05 4.26297E-19 3.19561E-18
 -1      3844 9.24485E-05-2.80844E-05-2.75419E-05 1.12636E-05 4.20443E-19 3.70206E-18
 -1      3845 9.59973E-05-3.34528E-05-2.67453E-05 1.47449E-05-1.76578E-18 2.90013E-18
 -1      3846 9.87267E-05-3.64534E-05-2.66610E-05 1.53158E-05-2.03156E-19 1.68559E-18
 -1      3847 9.12226E-05-2.55925E-05-2.81356E-05 8.62476E-06 1.59491E-19 2.21695E-18
 -1      3848 9.15723E-05-2.62151E-05-2.79824E-05 9.37846E-06 3.85889E-19 2.69417E-18
 -1      3849 8.94199E-05-2.53898E-05-2.74500E-05 9.98985E-06 9.24363E-19 3.23734E-18
 -1      3850 9.13785E-05-2.50375E-05-2.84423E-05 7.09937E-06 1.20474E-19 1.37101E-18
 -1      3851 9.14446E-05-2.53000E-05-2.83303E-05 7.76804E-06 8.81170E-20 1.64228E-18
 -1      3852 8.96745E-05-2.44956E-05-2.79344E-05 8.04215E-06 2.45850E-19 2.97926E-18
 -1      3853 9.18028E-05-2.49689E-05-2.86536E-05 5.81418E-06-1.08033E-18 1.51871E-18
 -1      3854 9.17187E-05-2.50044E-05-2.85805E-05 6.40008E-06-4.17638E-19 1.22414E-18
 -1      3855 9.02652E-05-2.42427E-05-2.82913E-05 6.49385E-06-7.56862E-20 1.22767E-18
 -1      3856 9.23328E-05-2.51865E-05-2.87867E-05 4.72899E-06-5.72391E-19 9.02456E-20
 -1      3857 9.21799E-05-2.50896E-05-2.87453E-05 5.23868E-06-8.42487E-19 8.48916E-19
 -1      3858 9.09952E-05-2.43907E-05-2.85387E-05 5.24393E-06-7.47875E-19 9.13711E-19
 -1      3859 9.28741E-05-2.55526E-05-2.88608E-05 3.81258E-06 6.13510E-19-6.15468E-19
 -1      3860 9.27005E-05-2.53880E-05-2.88428E-05 4.25224E-06 9.84879E-20 1.83707E-19
 -1      3861 9.17439E-05-2.47632E-05-2.86995E-05 4.22121E-06 1.15063E-20-1.08062E-19
 -1      3862 9.33765E-05-2.59764E-05-2.88933E-05 3.04184E-06 1.81216E-19-1.49537E-18
 -1      3863 9.32083E-05-2.57860E-05-2.88911E-05 3.41679E-06 4.59311E-19-1.25452E-18
 -1      3864 9.24451E-05-2.52410E-05-2.87958E-05 3.37716E-06 8.11113E-19-8.62484E-19
 -1      3865 9.38153E-05-2.63963E-05-2.88986E-05 2.39998E-06-3.44168E-19-2.24387E-18
 -1      3866 9.36659E-05-2.62091E-05-2.89062E-05 2.71388E-06-2.96508E-19-2.04001E-18
 -1      3867 9.30644E-05-2.57462E-05-2.88464E-05 2.68036E-06-2.77678E-19-3.15164E-18
 -1      3868 9.49033E-05-2.30839E-05-3.07620E-05-1.92332E-06-4.03798E-19-1.58849E-18
 -1      3869 9.52739E-05-2.41273E-05-3.04992E-05-1.28525E-06-3.23427E-19-1.70568E-18
 -1      3870 9.43744E-05-2.20346E-05-3.10152E-05-2.35145E-06-3.85410E-19-1.72681E-18
 -1      3871 9.45695E-05-2.71524E-05-2.88910E-05 1.70202E-06 9.06464E-19-2.33696E-18
 -1      3872 9.79947E-05-3.94224E-05-2.52449E-05-2.02070E-05-1.62855E-18-2.39565E-19
 -1      3873 9.50159E-05-2.33349E-05-3.07261E-05-8.83572E-07-8.82608E-20-1.39188E-18
 -1      3874 9.51503E-05-2.36840E-05-3.06391E-05-1.14352E-06-3.28123E-19-1.46808E-18
 -1      3875 6.82229E-05-1.93598E-05-2.08766E-05 1.47829E-05 1.44374E-18-1.92226E-18
 -1      3876 6.23090E-05-1.54784E-05-1.99232E-05 8.49072E-06 9.30679E-19-2.14068E-18
 -1      3877 8.45052E-05-3.06396E-05-2.29977E-05 2.14960E-05-1.97410E-18 2.96573E-18
 -1      3878 7.78266E-05-2.73259E-05-2.14408E-05 2.28452E-05-1.79935E-18 1.61340E-18
 -1      3879 9.56954E-05-2.61887E-05-2.97949E-05 5.93577E-07 9.68255E-19-2.69685E-19
 -1      3880 9.56263E-05-2.56909E-05-2.99640E-05 1.22520E-06 9.90094E-19-3.22845E-19
 -1      3881 9.55168E-05-2.50994E-05-3.01853E-05 1.44734E-06 9.20211E-19-8.27570E-19
 -1      3882 9.57913E-05-2.60892E-05-2.98713E-05 3.97880E-07 8.65660E-19-4.94086E-19
 -1      3883 9.30164E-05-2.94410E-05-2.72332E-05 1.25621E-05-2.57198E-19 3.18931E-18
 -1      3884 9.46638E-05-3.13739E-05-2.70586E-05 1.33340E-05-1.27793E-18 3.01002E-18
 -1      3885 8.98853E-05-2.73163E-05-2.68306E-05 1.25277E-05-4.08358E-21 3.83180E-18
 -1      3886 9.37352E-05-2.07079E-05-3.13094E-05-7.17199E-07 3.39477E-19-1.95450E-18
 -1      3887 9.44478E-05-2.19908E-05-3.10338E-05-7.15094E-07 1.96372E-19-1.61917E-18
 -1      3888 9.36863E-05-2.06113E-05-3.13280E-05-1.92313E-07 4.76712E-19-1.97864E-18
 -1      3889 8.91875E-05-3.35487E-05-2.37356E-05-2.16678E-05-1.61803E-18-8.47887E-19
 -1      3890 9.40682E-05-2.65930E-05-2.89135E-05-3.60872E-06 3.36883E-19-1.24912E-20
 -1      3891 9.42779E-05-2.68005E-05-2.89251E-05-3.31532E-06 4.04740E-19-4.26275E-19
 -1      3892 9.34910E-05-2.61470E-05-2.88575E-05-3.48362E-06 9.85178E-20 2.99580E-19
 -1      3893 8.25909E-05-2.79727E-05-2.33896E-05-2.00979E-05 2.84202E-19-6.69414E-19
 -1      3894 8.84372E-05-2.96547E-05-2.50887E-05-1.77496E-05-2.10637E-19 5.06564E-19
 -1      3895 8.68439E-05-2.72445E-05-2.55467E-05-1.59752E-05-8.90273E-19 8.08904E-19
 -1      3896 7.83118E-05-2.40460E-05-2.32854E-05-1.71518E-05 2.82965E-19-7.65400E-19
 -1      3897 9.43676E-05-2.18168E-05-3.10741E-05 1.28035E-08 5.20053E-19-1.73702E-18
 -1      3898 9.51064E-05-2.36645E-05-3.06008E-05 1.93951E-06 7.94129E-19-1.03911E-18
 -1      3899 1.13346E-04-4.80247E-05-2.80666E-05 1.24004E-05 1.64655E-19-2.42189E-18
 -1      3900 1.16552E-04-4.78636E-05-2.94185E-05 6.83210E-06 3.69095E-19-1.16655E-18
 -1      3901 9.17624E-05-2.53369E-05-2.84540E-05-7.17813E-06-1.90835E-20-1.93018E-19
 -1      3902 9.18329E-05-2.52621E-05-2.85412E-05-6.60066E-06-8.16585E-20-1.46249E-19
 -1      3903 9.02265E-05-2.45747E-05-2.81343E-05-7.27787E-06-9.18332E-20 3.86197E-19
 -1      3904 9.60312E-05-2.69229E-05-2.96223E-05-6.06474E-07 4.89354E-19-7.33739E-19
 -1      3905 9.59964E-05-2.65105E-05-2.97755E-05-1.76184E-07 7.32929E-19-7.32916E-19
 -1      3906 9.60735E-05-2.68665E-05-2.96586E-05-6.42533E-07 5.28141E-19-9.49980E-19
 -1      3907 6.17089E-05-1.45978E-05-2.00615E-05 4.40949E-06 5.48699E-19-1.95388E-18
 -1      3908 6.23270E-05-1.44626E-05-2.04352E-05-9.61350E-07 4.39676E-19-1.43446E-18
 -1      3909 6.71351E-05-1.63842E-05-2.16438E-05 6.31224E-06 7.25525E-19-1.80845E-18
 -1      3910 6.57713E-05-1.83992E-05-2.03344E-05 1.43713E-05-1.39407E-19 6.29888E-19
 -1      3911 5.92918E-05-1.45044E-05-1.89408E-05 7.68866E-06-7.00304E-19 9.88382E-20
 -1      3912 6.27555E-05-1.50421E-05-2.03308E-05 3.61299E-06-5.50846E-19-4.26177E-19
 -1      3913 7.28669E-05-2.34350E-05-2.12138E-05 1.96127E-05-1.16100E-18 8.99893E-19
 -1      3914 8.27633E-05-2.42870E-05-2.50754E-05-1.47109E-05-5.80595E-19 6.61487E-19
 -1      3915 6.36620E-05-1.75917E-05-1.95120E-05-1.37041E-05-4.07992E-19-2.12957E-18
 -1      3916 7.01078E-05-2.05144E-05-2.12891E-05-1.58704E-05-5.02099E-19-1.11521E-18
 -1      3917 6.36157E-05-1.60514E-05-2.04072E-05-8.35440E-06 5.99574E-20-1.48657E-18
 -1      3918 9.43507E-05-2.69655E-05-2.88826E-05 1.61492E-06 6.58107E-19-2.88349E-18
 -1      3919 9.48529E-05-2.29309E-05-3.08318E-05-3.83502E-07 2.36341E-19-1.64239E-18
 -1      3920 9.49243E-05-2.31071E-05-3.07902E-05-6.91028E-07 6.13070E-20-1.37247E-18
 -1      3921 9.54026E-05-2.41160E-05-3.05367E-05-5.17395E-07-8.11318E-20-1.21393E-18
 -1      3922 9.10126E-05-2.46754E-05-2.84256E-05-5.99484E-06-1.57604E-19 1.83442E-19
 -1      3923 9.52466E-05-2.76038E-05-2.89901E-05-2.70125E-06 4.61105E-19-8.12614E-19
 -1      3924 9.41958E-05-2.66778E-05-2.89332E-05-2.93750E-06 2.02357E-19 1.11483E-21
 -1      3925 9.46114E-05-2.70373E-05-2.89567E-05-3.06415E-06 3.01020E-19-4.62920E-19
 -1      3926 9.48019E-05-2.72119E-05-2.89717E-05-2.81310E-06 2.82896E-19-4.49157E-19
 -1      3927 9.56260E-05-2.76593E-05-2.91292E-05-1.94646E-06 3.39947E-19-8.66831E-19
 -1      3928 9.57250E-05-2.75176E-05-2.92308E-05-1.66042E-06 4.03420E-19-6.87013E-19
 -1      3929 9.54880E-05-2.76212E-05-2.90845E-05-2.17375E-06 3.31199E-19-8.91887E-19
 -1      3930 6.52976E-05-1.70801E-05-2.04992E-05-1.19182E-05 1.87526E-19-7.01092E-19
 -1      3931 7.09140E-05-1.94797E-05-2.19334E-05-1.35025E-05-4.19794E-20-1.19586E-18
 -1      3932 6.42165E-05-1.56488E-05-2.08590E-05-7.02025E-06-2.11149E-19-1.91449E-18
 -1      3933 9.17791E-05-3.09377E-05-2.61329E-05 1.56830E-05-2.12746E-18 4.08282E-18
 -1      3934 9.28555E-05-2.56741E-05-2.87966E-05-1.19564E-07 3.84805E-20-1.91712E-20
 -1      3935 9.28693E-05-2.56823E-05-2.87956E-05 2.37018E-07-4.62179E-19 3.21626E-19
 -1      3936 9.28532E-05-2.55804E-05-2.88269E-05-1.73862E-06 3.46058E-19 9.30377E-19
 -1      3937 9.31322E-05-2.58628E-05-2.88333E-05-1.44521E-06 1.07585E-18 4.46978E-19
 -1      3938 9.29686E-05-2.57342E-05-2.88167E-05-1.15200E-06 1.00410E-18 8.90254E-19
 -1      3939 9.40894E-05-2.66988E-05-2.88784E-05 1.71253E-06 5.52581E-19-2.99383E-18
 -1      3940 9.67056E-05-3.77352E-05-2.52890E-05 1.95647E-05-1.22137E-18 3.26985E-18
 -1      3941 1.03127E-04-4.13683E-05-2.63659E-05 1.71182E-05-3.47960E-19 8.50188E-19
 -1      3942 9.55650E-05-2.47555E-05-3.03390E-05-7.67462E-07-3.69229E-19-1.51490E-18
 -1      3943 9.39722E-05-2.65865E-05-2.88814E-05 1.91910E-06 3.79299E-19-3.32027E-18
 -1      3944 9.39328E-05-2.65018E-05-2.88947E-05 2.15874E-06-1.03098E-19-2.65653E-18
 -1      3945 9.34575E-05-2.61199E-05-2.88599E-05 2.12119E-06-4.52141E-19-3.67683E-18
 -1      3946 9.37029E-05-2.63759E-05-2.88581E-05 1.66857E-06-9.25798E-20-3.41310E-18
 -1      3947 9.29528E-05-2.57583E-05-2.88016E-05 6.48165E-07-1.49962E-18-7.97096E-19
 -1      3948 9.30881E-05-2.58638E-05-2.88108E-05 9.76531E-07-9.95891E-19-1.75300E-18
 -1      3949 9.26084E-05-2.54467E-05-2.87790E-05 4.98227E-07-1.65332E-19 7.48643E-19
 -1      3950 9.32691E-05-2.60203E-05-2.88256E-05 1.24535E-06-4.85680E-19-2.40473E-18
 -1      3951 9.34704E-05-2.61787E-05-2.88393E-05 1.46112E-06-8.83757E-19-3.07089E-18
 -1      3952 9.33439E-05-2.60437E-05-2.88387E-05 1.67019E-06-7.66771E-19-3.28385E-18
 -1      3953 9.28932E-05-2.56874E-05-2.88014E-05 1.18841E-06-7.72604E-19-2.33011E-18
 -1      3954 9.49328E-05-2.31243E-05-3.07863E-05 7.02048E-07 7.56604E-19-1.47652E-18
 -1      3955 9.48582E-05-2.29408E-05-3.08293E-05 3.96394E-07 6.85610E-19-1.47806E-18
 -1      3956 9.53433E-05-2.43796E-05-3.04144E-05 1.33223E-06 7.72679E-19-9.26089E-19
 -1      3957 7.28051E-05-2.35069E-05-2.11050E-05 1.99206E-05 1.67307E-18-1.36393E-18
 -1      3958 7.42242E-05-2.21062E-05-2.22388E-05 1.62564E-05 1.35969E-18-1.25749E-18
 -1      3959 7.10446E-05-2.05853E-05-2.14749E-05 1.58250E-05 1.40068E-18-1.86040E-18
 -1      3960 6.98125E-05-1.83387E-05-2.20862E-05 1.14893E-05 1.22715E-18-1.59768E-18
 -1      3961 9.48230E-05-2.28603E-05-3.08510E-05 1.72165E-07 5.90974E-19-1.47826E-18
 -1      3962 9.48219E-05-2.28562E-05-3.08518E-05-1.52573E-07 5.12675E-19-1.75705E-18
 -1      3963 9.53068E-05-2.38226E-05-3.06189E-05 1.87575E-07 6.59163E-19-1.31269E-18
 -1      3964 9.28914E-05-2.56895E-05-2.88053E-05-7.95725E-07 1.71853E-18 1.42638E-18
 -1      3965 9.28300E-05-2.56387E-05-2.87975E-05-4.69596E-07 1.17802E-18 3.04653E-19
 -1      3966 9.24958E-05-2.53434E-05-2.87740E-05-2.79468E-07 1.86540E-18 1.35935E-18
 -1      3967 9.25256E-05-2.53480E-05-2.87856E-05-1.00496E-06 5.91546E-19 7.22590E-19
 -1      3968 8.32389E-05-2.96770E-05-2.29668E-05-2.15915E-05-1.48726E-18-1.31624E-18
 -1      3969 8.96396E-05-3.15628E-05-2.47725E-05-1.83774E-05-1.10035E-18-6.05910E-19
 -1      3970 8.76948E-05-2.89795E-05-2.51512E-05-1.65195E-05-8.31063E-19-8.39557E-19
 -1      3971 7.83428E-05-2.54954E-05-2.25254E-05-1.91945E-05-9.30886E-19-1.18391E-18
 -1      3972 1.07379E-04-4.51981E-05-2.66241E-05 1.68740E-05-4.64637E-19 2.13631E-19
 -1      3973 7.56300E-05-2.11890E-05-2.33987E-05 1.38653E-05 1.04394E-18-1.02566E-18
 -1      3974 8.02814E-05-2.07800E-05-2.54618E-05-9.91234E-06-1.29874E-18-1.72142E-18
 -1      3975 8.11588E-05-2.05458E-05-2.60272E-05-8.60501E-06-1.81441E-18-1.52807E-18
 -1      3976 9.61168E-05-2.65521E-05-2.98062E-05 3.86521E-07 5.13576E-21-9.79109E-19
 -1      3977 9.60981E-05-2.68922E-05-2.96645E-05 6.51675E-07-1.45575E-19-7.60935E-19
 -1      3978 9.60297E-05-2.71201E-05-2.95328E-05 8.11335E-07-1.56759E-19-6.97336E-19
 -1      3979 9.59055E-05-2.72529E-05-2.94252E-05 1.02222E-06 3.40128E-20-7.22452E-19
 -1      3980 9.60524E-05-2.68593E-05-2.96515E-05 5.62029E-07-3.85084E-20-6.79836E-19
 -1      3981 9.57138E-05-2.72948E-05-2.93240E-05 1.15309E-06 5.31619E-20-7.76052E-19
 -1      3982 9.54993E-05-2.72669E-05-2.92439E-05 1.33253E-06 5.30923E-20-8.07703E-19
 -1      3983 9.57976E-05-2.71539E-05-2.94155E-05 8.45303E-07-8.36835E-20-7.91453E-19
 -1      3984 9.52035E-05-2.71584E-05-2.91650E-05 1.45107E-06 1.02248E-19-7.41796E-19
 -1      3985 9.49100E-05-2.70023E-05-2.91040E-05 1.61998E-06 3.92973E-20-7.73697E-19
 -1      3986 9.53141E-05-2.70976E-05-2.92320E-05 1.08749E-06 1.47022E-19-8.10514E-19
 -1      3987 9.45207E-05-2.67737E-05-2.90387E-05 1.74044E-06-1.78161E-19-3.87978E-19
 -1      3988 9.41524E-05-2.65156E-05-2.89879E-05 1.91603E-06-1.73391E-19-4.15253E-19
 -1      3989 9.46356E-05-2.67608E-05-2.90842E-05 1.31458E-06 5.89686E-20-1.67184E-19
 -1      3990 9.36709E-05-2.61900E-05-2.89266E-05 2.04970E-06-1.73228E-19-3.54113E-19
 -1      3991 9.32256E-05-2.58500E-05-2.88761E-05 2.24583E-06-1.84751E-19-1.44285E-19
 -1      3992 9.37730E-05-2.61991E-05-2.89536E-05 1.54904E-06-1.57330E-19-2.25107E-19
 -1      3993 9.26460E-05-2.54466E-05-2.88080E-05 2.40343E-06-2.20953E-19-2.99167E-19
 -1      3994 9.21177E-05-2.50451E-05-2.87469E-05 2.63219E-06-3.07119E-19 1.43776E-19
 -1      3995 9.27224E-05-2.54565E-05-2.88197E-05 1.80754E-06-5.43735E-20-2.99903E-20
 -1      3996 9.14294E-05-2.45834E-05-2.86591E-05 2.82135E-06-6.81896E-19 4.18795E-20
 -1      3997 9.08088E-05-2.41408E-05-2.85741E-05 3.09386E-06-7.71383E-19-2.16098E-19
 -1      3998 9.14690E-05-2.45718E-05-2.86587E-05 2.10883E-06-5.92028E-19 6.96439E-20
 -1      3999 8.99936E-05-2.36407E-05-2.84511E-05 3.32493E-06-6.61939E-19-5.85796E-19
 -1      4000 8.92703E-05-2.31822E-05-2.83262E-05 3.65621E-06-4.59943E-19-4.47078E-19
 -1      4001 8.99835E-05-2.35833E-05-2.84418E-05 2.46478E-06-8.33798E-19-2.57634E-19
 -1      4002 8.83026E-05-2.26674E-05-2.81484E-05 3.94592E-06-1.69009E-19-4.94934E-19
 -1      4003 8.74676E-05-2.22259E-05-2.79635E-05 4.36128E-06-5.92911E-20 6.44656E-20
 -1      4004 8.82232E-05-2.25302E-05-2.81336E-05 2.89788E-06-8.81423E-21-2.13359E-19
 -1      4005 8.63093E-05-2.17253E-05-2.77054E-05 4.74127E-06-1.90865E-19 3.60260E-19
 -1      4006 8.53572E-05-2.13468E-05-2.74351E-05 5.28755E-06 1.14593E-19 1.02370E-19
 -1      4007 8.61260E-05-2.14552E-05-2.76885E-05 3.44837E-06-6.57061E-20 2.79806E-20
 -1      4008 8.39534E-05-2.08969E-05-2.70627E-05 5.81434E-06 6.03797E-19-2.87630E-19
 -1      4009 8.28903E-05-2.06449E-05-2.66745E-05 6.57489E-06 8.14682E-19-6.28568E-19
 -1      4010 8.36015E-05-2.04091E-05-2.70456E-05 4.19753E-06 1.12574E-19-1.51705E-21
 -1      4011 8.11398E-05-2.02766E-05-2.61385E-05 7.35704E-06 1.02729E-18-8.23701E-19
 -1      4012 7.99775E-05-2.02320E-05-2.55834E-05 8.48262E-06 1.35594E-18-9.08602E-19
 -1      4013 8.04918E-05-1.94347E-05-2.61209E-05 5.26013E-06 8.28637E-19-4.46724E-19
 -1      4014 7.83770E-05-2.02682E-05-2.49793E-05 9.93330E-06 1.02922E-18-7.11537E-19
 -1      4015 7.72599E-05-2.06751E-05-2.42075E-05 1.16940E-05 7.90139E-19-8.60587E-19
 -1      4016 7.40022E-05-1.90628E-05-2.34780E-05 1.05402E-05 9.39586E-19-1.16007E-18
 -1      4017 7.71510E-05-1.88312E-05-2.49379E-05 7.19528E-06 1.07264E-18-8.38286E-19
 -1      4018 8.28322E-05-2.07509E-05-2.65944E-05-7.58765E-06-2.16299E-18-1.03292E-18
 -1      4019 8.37357E-05-2.08368E-05-2.69958E-05-6.67741E-06-1.02576E-18-1.26060E-18
 -1      4020 8.00775E-05-1.93992E-05-2.59605E-05-6.49168E-06-1.92705E-18-1.71728E-18
 -1      4021 8.50897E-05-2.11748E-05-2.73893E-05-5.99766E-06 3.25380E-20-1.06431E-18
 -1      4022 8.59339E-05-2.14375E-05-2.76688E-05-5.33504E-06 6.78344E-19-1.43613E-18
 -1      4023 8.30880E-05-2.01309E-05-2.69433E-05-5.04625E-06-5.22925E-19-8.95816E-19
 -1      4024 8.70435E-05-2.18526E-05-2.79393E-05-4.84108E-06 4.48468E-19-1.97128E-18
 -1      4025 8.77935E-05-2.22075E-05-2.81283E-05-4.32914E-06 2.94478E-19-2.39808E-18
 -1      4026 8.55196E-05-2.09994E-05-2.76225E-05-4.03926E-06 3.36654E-20-1.72182E-18
 -1      4027 8.87091E-05-2.26552E-05-2.83104E-05-3.94660E-06 1.02362E-18-1.72848E-18
 -1      4028 8.93562E-05-2.30475E-05-2.84331E-05-3.53109E-06 1.19425E-18-4.95851E-19
 -1      4029 8.75193E-05-2.19324E-05-2.80864E-05-3.28968E-06 1.34525E-18 2.55128E-19
 -1      4030 9.01116E-05-2.34942E-05-2.85521E-05-3.22113E-06 3.09666E-19 1.39661E-19
 -1      4031 9.06571E-05-2.38873E-05-2.86276E-05-2.87340E-06 2.13935E-19 6.30096E-19
 -1      4032 8.91704E-05-2.28721E-05-2.83961E-05-2.69455E-06 9.74736E-19 1.23014E-18
 -1      4033 9.12769E-05-2.43070E-05-2.87023E-05-2.61660E-06-7.92894E-20-1.99608E-19
 -1      4034 9.17281E-05-2.46775E-05-2.87452E-05-2.32153E-06-3.58865E-19-2.31590E-19
 -1      4035 9.05299E-05-2.37750E-05-2.85962E-05-2.20309E-06 2.49993E-19 7.68854E-19
 -1      4036 9.21347E-05-2.49766E-05-2.87814E-05-2.14269E-06-9.80576E-20 3.38580E-20
 -1      4037 9.25063E-05-2.53106E-05-2.88044E-05-1.89345E-06-1.44315E-20 8.24574E-19
 -1      4038 9.22689E-05-2.51242E-05-2.87742E-05-1.51596E-06 1.92211E-19 3.87597E-19
 -1      4039 9.15330E-05-2.45238E-05-2.87107E-05-1.82221E-06 6.02991E-19 3.82266E-19
 -1      4040 9.09383E-05-2.44511E-05-2.84891E-05-4.62921E-06-9.77409E-20 1.93947E-19
 -1      4041 9.13726E-05-2.47218E-05-2.85770E-05-4.19556E-06-1.46259E-19 2.98996E-19
 -1      4042 9.19882E-05-2.50756E-05-2.86732E-05-3.82937E-06-1.01962E-19 3.64255E-19
 -1      4043 9.24022E-05-2.53801E-05-2.87336E-05-3.47914E-06-7.99285E-20 3.89643E-19
 -1      4044 9.11343E-05-2.44937E-05-2.85505E-05-3.48597E-06-1.26481E-20 2.53502E-19
 -1      4045 8.98328E-05-2.39563E-05-2.82240E-05-5.64545E-06-2.61741E-19 5.24044E-19
 -1      4046 9.02578E-05-2.41382E-05-2.83524E-05-5.10254E-06-2.53166E-19 2.82756E-19
 -1      4047 8.98452E-05-2.37665E-05-2.83076E-05-4.27569E-06-4.03852E-19 3.23877E-19
 -1      4048 8.77747E-05-2.39535E-05-2.73263E-05-8.69099E-06-3.22513E-19 8.61137E-19
 -1      4049 8.79745E-05-2.36863E-05-2.75753E-05-7.79827E-06-7.73637E-20 6.03889E-19
 -1      4050 9.59706E-05-2.73345E-05-2.94179E-05-1.14731E-06 3.46383E-19-8.16738E-19
 -1      4051 9.60637E-05-2.71692E-05-2.95257E-05-8.97151E-07 3.98980E-19-9.33861E-19
 -1      4052 8.92199E-05-2.34805E-05-2.81913E-05 5.55771E-06 4.54957E-19 1.62782E-18
 -1      4053 8.88704E-05-2.34324E-05-2.80334E-05 6.21885E-06 1.88021E-19 2.35222E-18
 -1      4054 9.58848E-05-2.61210E-05-2.99070E-05 1.44550E-07 7.47801E-19-7.21831E-19
 -1      4055 9.57956E-05-2.56852E-05-3.00440E-05 6.14705E-07 7.25400E-19-8.08159E-19
 -1      4056 9.59514E-05-2.60845E-05-2.99403E-05 4.40082E-09 7.84380E-19-1.02480E-18
 -1      4057 8.81665E-05-2.33588E-05-2.77962E-05 6.99484E-06 3.97632E-19 2.72584E-18
 -1      4058 8.79283E-05-2.35426E-05-2.75747E-05 7.82975E-06 1.21906E-18 3.58195E-18
 -1      4059 8.72151E-05-2.25375E-05-2.77044E-05 5.98392E-06 7.53446E-19 2.42226E-18
 -1      4060 9.56288E-05-2.48631E-05-3.03317E-05-5.05763E-07-3.39487E-19-1.59706E-18
 -1      4061 8.72317E-05-2.37204E-05-2.72465E-05 8.86529E-06 6.19568E-19 3.49084E-18
 -1      4062 8.72166E-05-2.42641E-05-2.69524E-05 9.93757E-06 4.45818E-19 3.61092E-18
 -1      4063 8.57961E-05-2.24919E-05-2.71152E-05 7.74185E-06 9.15355E-19 3.09456E-18
 -1      4064 9.02606E-05-2.38791E-05-2.84632E-05 4.43192E-06-7.05662E-19 3.83273E-19
 -1      4065 8.98777E-05-2.36966E-05-2.83567E-05 4.96588E-06 2.51862E-19 1.08541E-18
 -1      4066 8.85812E-05-2.29296E-05-2.81228E-05 4.68535E-06 5.49802E-19 2.14764E-18
 -1      4067 9.12230E-05-2.44197E-05-2.86415E-05 3.53096E-06 5.19821E-19 1.78117E-19
 -1      4068 9.08514E-05-2.41692E-05-2.85742E-05 3.96908E-06-4.98091E-19 2.36248E-20
 -1      4069 8.98269E-05-2.35075E-05-2.84106E-05 3.69297E-06 1.95233E-19 7.79973E-19
 -1      4070 9.20764E-05-2.50110E-05-2.87513E-05 2.79961E-06 1.51138E-18-1.58869E-18
 -1      4071 9.17383E-05-2.47364E-05-2.87125E-05 3.16300E-06 1.63261E-18-7.85352E-19
 -1      4072 9.09274E-05-2.41692E-05-2.86008E-05 2.91595E-06 1.51888E-18 2.62624E-19
 -1      4073 9.28077E-05-2.55900E-05-2.88132E-05 2.20908E-06 3.87757E-19-3.80354E-18
 -1      4074 9.25139E-05-2.53237E-05-2.87939E-05 2.50588E-06 6.97923E-19-3.18294E-18
 -1      4075 9.18759E-05-2.48462E-05-2.87210E-05 2.29889E-06 2.13588E-18-2.12532E-18
 -1      4076 9.50263E-05-2.33555E-05-3.07208E-05 8.98048E-07 6.98282E-19-1.42373E-18
 -1      4077 9.54148E-05-2.41381E-05-3.05318E-05 5.14777E-07 6.99383E-19-1.41856E-18
 -1      4078 9.51710E-05-2.37289E-05-3.06286E-05 1.13779E-06 6.76179E-19-1.23622E-18
 -1      4079 9.21675E-05-2.51061E-05-2.87450E-05 3.51810E-07 1.19866E-18 1.64093E-18
 -1      4080 9.22675E-05-2.51838E-05-2.87523E-05 7.81662E-07 1.03854E-18-5.54550E-19
 -1      4081 9.04526E-05-3.36026E-05-2.41820E-05 2.06893E-05-1.93387E-18 3.61612E-18
 -1      4082 8.48215E-05-2.92660E-05-2.38000E-05 1.94019E-05-2.63575E-18 4.04017E-18
 -1      4083 7.91951E-05-2.26095E-05-2.41778E-05-1.42218E-05 1.98679E-19-1.35780E-18
 -1      4084 7.88585E-05-2.11794E-05-2.47636E-05-1.18835E-05-4.38468E-19-9.87619E-19
 -1      4085 7.69021E-05-1.93285E-05-2.46502E-05-9.25264E-06-8.15038E-19-2.91339E-18
 -1      4086 7.43359E-05-2.07057E-05-2.29571E-05-1.41573E-05 2.24965E-19-1.57964E-18
 -1      4087 7.67234E-05-2.35098E-05-2.28566E-05 1.71042E-05-1.61476E-18 4.08389E-19
 -1      4088 7.14855E-05-2.09461E-05-2.14960E-05 1.61896E-05-1.26592E-18-2.48280E-19
 -1      4089 7.01757E-05-1.86951E-05-2.20846E-05 1.20592E-05-9.71386E-19-3.31759E-19
 -1      4090 9.29490E-05-2.57336E-05-2.88038E-05-3.19270E-06-2.60393E-19 3.29878E-19
 -1      4091 9.33261E-05-2.60306E-05-2.88486E-05-2.90676E-06 6.60909E-20 1.16435E-19
 -1      4092 9.22887E-05-2.52462E-05-2.87247E-05-2.87232E-06-7.72844E-20 4.24001E-19
 -1      4093 8.65560E-05-2.47818E-05-2.65145E-05 1.13153E-05 8.86109E-20 3.06160E-18
 -1      4094 8.70498E-05-2.59749E-05-2.61721E-05 1.28259E-05-7.31893E-19 2.76932E-18
 -1      4095 8.44701E-05-2.30019E-05-2.63113E-05 1.01205E-05 4.55757E-19 2.15901E-18
 -1      4096 7.15597E-05-1.81522E-05-2.28180E-05 9.35200E-06 9.04168E-19-1.23241E-18
 -1      4097 6.93579E-05-1.70776E-05-2.23157E-05 8.16257E-06 8.80951E-19-1.20101E-18
 -1      4098 6.85772E-05-1.62865E-05-2.24154E-05 4.62730E-06 7.96929E-19-1.54106E-18
 -1      4099 7.30630E-05-1.79069E-05-2.36851E-05 7.46490E-06 8.99655E-19-1.03793E-18
 -1      4100 8.87378E-05-2.37255E-05-2.78472E-05-6.95810E-06-3.00688E-20 6.97942E-19
 -1      4101 8.90986E-05-2.37405E-05-2.80297E-05-6.26799E-06-2.01573E-19 9.55880E-19
 -1      4102 8.69304E-05-2.27754E-05-2.74786E-05-6.70803E-06-1.44074E-19 8.71227E-19
 -1      4103 9.50880E-05-2.73958E-05-2.90084E-05-2.59844E-06 2.66541E-19-7.07626E-19
 -1      4104 9.52550E-05-2.75143E-05-2.90343E-05-2.37137E-06 3.24344E-19-7.78776E-19
 -1      4105 9.48094E-05-2.71173E-05-2.90089E-05-2.47871E-06 2.09315E-19-2.79154E-19
 -1      4106 8.73497E-05-2.70525E-05-2.57599E-05-1.41732E-05-5.16607E-19-2.23646E-19
 -1      4107 8.65666E-05-2.56071E-05-2.61460E-05-1.26140E-05-4.13002E-19 1.35290E-19
 -1      4108 8.71834E-05-2.49364E-05-2.66345E-05-1.10144E-05-6.79321E-19 4.68978E-19
 -1      4109 8.70448E-05-2.42056E-05-2.69560E-05-9.84433E-06-3.90639E-19 3.73336E-19
 -1      4110 8.39905E-05-2.35882E-05-2.59062E-05-1.14459E-05-4.60377E-19 2.21105E-19
 -1      4111 9.56568E-05-2.48945E-05-3.03313E-05-3.79180E-07-2.26147E-19-1.12728E-18
 -1      4112 9.58331E-05-2.53518E-05-3.01948E-05-2.25732E-07-9.41145E-20-1.28235E-18
 -1      4113 9.59800E-05-2.59914E-05-3.00057E-05 1.22501E-07 1.86108E-20-1.07379E-18
 -1      4114 9.55995E-05-2.46869E-05-3.03974E-05-2.69838E-07-2.67557E-21-1.14116E-18
 -1      4115 9.61022E-05-2.69039E-05-2.96602E-05-6.89974E-07 4.66388E-19-9.98438E-19
 -1      4116 9.60915E-05-2.65456E-05-2.98072E-05-3.65815E-07 5.54829E-19-9.76507E-19
 -1      4117 9.60861E-05-2.68706E-05-2.96614E-05-6.45243E-07 4.18692E-19-9.51862E-19
 -1      4118 9.33079E-05-2.59552E-05-2.88582E-05-2.38682E-06-6.15172E-20 2.26419E-19
 -1      4119 9.38036E-05-2.63527E-05-2.89054E-05-2.68005E-06 1.19543E-19 1.93523E-20
 -1      4120 9.41337E-05-2.66128E-05-2.89450E-05-2.44387E-06 6.23441E-20 2.00432E-20
 -1      4121 8.84342E-05-2.31538E-05-2.79633E-05-5.31208E-06-4.26346E-19 5.83820E-19
 -1      4122 9.58146E-05-2.74119E-05-2.93161E-05-1.31939E-06 4.95123E-19-8.87961E-19
 -1      4123 9.58884E-05-2.72334E-05-2.94211E-05-1.02311E-06 4.18920E-19-1.14014E-18
 -1      4124 9.56433E-05-2.74237E-05-2.92381E-05-1.52979E-06 3.76384E-19-9.64341E-19
 -1      4125 6.65528E-05-1.61123E-05-2.15651E-05-4.67434E-06 2.44710E-19-1.30798E-18
 -1      4126 9.53059E-05-2.38173E-05-3.06208E-05-1.79064E-07 4.67149E-19-1.36197E-18
 -1      4127 7.98826E-05-2.24419E-05-2.45865E-05 1.28603E-05-9.44289E-19 5.59690E-19
 -1      4128 8.32385E-05-2.52145E-05-2.48584E-05 1.46099E-05-1.28368E-18 1.82005E-18
 -1      4129 8.54186E-05-2.28174E-05-2.68073E-05-8.65848E-06-1.23178E-19 1.18390E-18
 -1      4130 9.53242E-05-2.74153E-05-2.91026E-05-2.06766E-06 2.53363E-19-6.53308E-19
 -1      4131 7.18944E-05-1.84554E-05-2.29456E-05-1.04977E-05-3.41286E-20-1.84259E-18
 -1      4132 9.31492E-05-2.58866E-05-2.88286E-05 1.80841E-06-1.40162E-18-3.49429E-18
 -1      4133 9.30232E-05-2.57534E-05-2.88272E-05 2.05431E-06-6.74876E-19-3.98032E-18
 -1      4134 9.25102E-05-2.53511E-05-2.87800E-05 1.87191E-06 7.71257E-20-4.07045E-18
 -1      4135 9.29029E-05-2.56845E-05-2.88070E-05 1.58776E-06-1.01298E-18-3.76840E-18
 -1      4136 6.44969E-05-1.46421E-05-2.11704E-05-2.21941E-06-7.45517E-19-1.18120E-18
 -1      4137 6.81655E-05-1.62196E-05-2.21925E-05-5.28770E-06-2.37485E-19-1.96732E-18
 -1      4138 7.63251E-05-2.28926E-05-2.28092E-05-1.57305E-05-2.79150E-19-1.08796E-18
 -1      4139 8.35590E-05-2.60086E-05-2.47365E-05-1.57440E-05-5.13894E-19-6.00374E-19
 -1      4140 9.53777E-05-3.72291E-05-2.48226E-05 2.02831E-05-1.59119E-18 3.25221E-18
 -1      4141 9.56831E-05-2.49579E-05-3.03147E-05 3.27188E-07 6.15980E-19-1.38134E-18
 -1      4142 9.56242E-05-2.47553E-05-3.03771E-05 2.28566E-07 5.87705E-19-1.39971E-18
 -1      4143 6.64638E-05-1.58278E-05-2.17037E-05 4.07538E-06-7.48459E-19-2.68993E-19
 -1      4144 9.54066E-05-2.44081E-05-3.04277E-05 1.01462E-06 6.94493E-19-1.14784E-18
 -1      4145 9.56751E-05-2.50492E-05-3.02681E-05 5.16232E-07 7.13273E-19-1.28277E-18
 -1      4146 9.20562E-05-2.50025E-05-2.87368E-05-6.50886E-08 8.36061E-19 2.10651E-18
 -1      4147 9.16870E-05-2.47052E-05-2.87039E-05 2.27536E-07 9.07607E-19 2.43782E-18
 -1      4148 9.20105E-05-2.49678E-05-2.87368E-05-4.33138E-07 1.64825E-18 2.51637E-18
 -1      4149 9.26982E-05-2.55222E-05-2.87895E-05 1.31010E-06-8.13139E-19-2.58957E-18
 -1      4150 9.55905E-05-2.46348E-05-3.04181E-05 1.75085E-07 6.60910E-19-1.24143E-18
 -1      4151 9.55650E-05-2.45554E-05-3.04398E-05 3.40641E-08 6.02302E-19-1.29544E-18
 -1      4152 9.58732E-05-2.53543E-05-3.02106E-05 3.52923E-08 3.84627E-19-1.28773E-18
 -1      4153 9.60133E-05-2.60510E-05-2.99855E-05 1.61125E-07 2.31271E-20-9.95589E-19
 -1      4154 8.40305E-05-2.71689E-05-2.43220E-05 1.67145E-05-1.79590E-18 3.23429E-18
 -1      4155 9.23457E-05-2.52393E-05-2.87591E-05 1.13106E-06 8.94151E-19-6.76338E-19
 -1      4156 9.23300E-05-2.52281E-05-2.87622E-05 1.53796E-06 3.16835E-19-1.59876E-18
 -1      4157 9.21254E-05-2.50497E-05-2.87457E-05 1.68977E-06 1.77229E-18-9.66806E-19
 -1      4158 9.18913E-05-2.48706E-05-2.87214E-05 9.96255E-07 1.54247E-18 2.42619E-19
 -1      4159 8.52787E-05-2.18715E-05-2.71680E-05-5.92592E-06-3.37506E-20 5.47611E-19
 -1      4160 8.60569E-05-2.20625E-05-2.74613E-05-5.20577E-06-2.32572E-19 3.47650E-19
 -1      4161 9.58898E-05-2.70884E-05-2.94888E-05 5.17194E-07-4.02442E-20-5.31908E-19
 -1      4162 9.57027E-05-2.71423E-05-2.93843E-05 6.47329E-07-3.32905E-20-6.72371E-19
 -1      4163 9.54390E-05-2.71105E-05-2.92870E-05 6.92872E-07 2.24875E-20-5.90751E-19
 -1      4164 9.51470E-05-2.70057E-05-2.92046E-05 8.05168E-07 2.74231E-19-4.71254E-19
 -1      4165 9.55536E-05-2.70492E-05-2.93549E-05 3.66520E-07 2.71648E-20-1.68516E-19
 -1      4166 9.47802E-05-2.68311E-05-2.91245E-05 8.49274E-07 2.85766E-19-6.11341E-19
 -1      4167 9.43901E-05-2.65996E-05-2.90554E-05 9.52444E-07 8.96394E-20-4.15715E-19
 -1      4168 9.49365E-05-2.68498E-05-2.91747E-05 4.50711E-07 1.45147E-19-6.65346E-19
 -1      4169 9.39252E-05-2.63072E-05-2.89833E-05 9.99061E-07-1.17673E-19-2.92553E-19
 -1      4170 9.34395E-05-2.59742E-05-2.89177E-05 1.10221E-06-1.55260E-19-9.32305E-20
 -1      4171 9.41133E-05-2.63773E-05-2.90211E-05 5.28721E-07 1.18979E-19-8.42799E-19
 -1      4172 9.28682E-05-2.55831E-05-2.88432E-05 1.16054E-06-4.77249E-20-2.46794E-19
 -1      4173 9.22896E-05-2.51684E-05-2.87703E-05 1.27574E-06-1.27509E-19-3.03620E-19
 -1      4174 9.30706E-05-2.56694E-05-2.88719E-05 6.06833E-07-2.85824E-19-5.62754E-19
 -1      4175 9.16083E-05-2.47088E-05-2.86807E-05 1.33709E-06-3.50674E-19-2.80465E-19
 -1      4176 9.09202E-05-2.42311E-05-2.85872E-05 1.46348E-06-7.58668E-19-3.05770E-19
 -1      4177 9.18422E-05-2.48122E-05-2.87050E-05 6.76930E-07-5.96844E-20-7.10507E-19
 -1      4178 9.01114E-05-2.37145E-05-2.84682E-05 1.53549E-06-1.05582E-18 1.28161E-21
 -1      4179 8.92944E-05-2.31924E-05-2.83383E-05 1.67868E-06-6.34153E-19 1.46431E-19
 -1      4180 9.03715E-05-2.38158E-05-2.84931E-05 7.42835E-07-5.77005E-19-2.19459E-19
 -1      4181 8.83331E-05-2.26378E-05-2.81716E-05 1.76252E-06-1.84866E-19 8.70444E-20
 -1      4182 8.73603E-05-2.20902E-05-2.79853E-05 1.93137E-06-7.30793E-20 1.71615E-19
 -1      4183 8.86264E-05-2.27196E-05-2.82036E-05 8.02737E-07-4.70878E-19 2.47464E-19
 -1      4184 8.62044E-05-2.15139E-05-2.77474E-05 2.03097E-06-3.00763E-20 6.18483E-20
 -1      4185 8.50342E-05-2.09588E-05-2.74783E-05 2.24477E-06 5.64038E-20 2.50943E-19
 -1      4186 8.65428E-05-2.15532E-05-2.77946E-05 8.51197E-07-8.39539E-20-1.09950E-19
 -1      4187 8.36094E-05-2.03668E-05-2.71368E-05 2.37262E-06 5.29396E-21 3.91409E-19
 -1      4188 8.21912E-05-1.98226E-05-2.67496E-05 2.67027E-06 2.65916E-19 2.12597E-19
 -1      4189 8.40131E-05-2.03339E-05-2.72102E-05 8.83247E-07 2.64144E-20-1.95890E-19
 -1      4190 8.03875E-05-1.92481E-05-2.62555E-05 2.90169E-06 3.44325E-19 2.08638E-19
 -1      4191 7.86587E-05-1.87435E-05-2.56954E-05 3.32366E-06 7.86614E-19-1.32522E-19
 -1      4192 8.07966E-05-1.90233E-05-2.63686E-05 9.11748E-07 1.29520E-19-2.12190E-19
 -1      4193 7.66093E-05-1.81782E-05-2.51017E-05 3.97152E-06 8.25866E-19-6.77295E-19
 -1      4194 7.50853E-05-1.79546E-05-2.44614E-05 5.13003E-06 8.45566E-19-8.59161E-19
 -1      4195 7.71221E-05-1.79899E-05-2.52701E-05 1.52089E-06 3.10355E-19-1.98917E-19
 -1      4196 9.61053E-05-2.66988E-05-2.97462E-05 3.05913E-07 1.66350E-19-8.41350E-19
 -1      4197 9.60324E-05-2.69435E-05-2.96115E-05 4.63178E-07 5.61599E-20-7.77103E-19
 -1      4198 9.59481E-05-2.69264E-05-2.95765E-05 2.69336E-07 1.80705E-19-6.60613E-19
 -1      4199 8.01565E-05-2.12651E-05-2.52466E-05 9.89810E-06-9.30552E-19 8.26676E-19
 -1      4200 7.54355E-05-1.97403E-05-2.38848E-05 1.06559E-05-1.47830E-18-1.07077E-18
 -1      4201 9.55615E-05-2.45491E-05-3.04413E-05-2.75320E-08 5.16675E-19-1.00703E-18
 -1      4202 9.55869E-05-2.46167E-05-3.04222E-05-1.69131E-07 1.65556E-19-1.11702E-18
 -1      4203 9.58440E-05-2.52214E-05-3.02532E-05-2.23647E-08 3.72389E-19-9.83611E-19
 -1      4204 8.14443E-05-1.94187E-05-2.65949E-05-3.59129E-06-2.87769E-19-5.57775E-19
 -1      4205 8.28162E-05-1.98739E-05-2.70072E-05-3.12274E-06-4.21680E-20-2.17255E-19
 -1      4206 8.42601E-05-2.04113E-05-2.73753E-05-2.90250E-06-4.43444E-19-2.03039E-19
 -1      4207 8.53812E-05-2.08943E-05-2.76594E-05-2.56387E-06 4.91673E-19-8.11479E-19
 -1      4208 8.30253E-05-1.97591E-05-2.70729E-05-1.53271E-06-2.02532E-19 3.44658E-19
 -1      4209 8.65309E-05-2.14240E-05-2.79121E-05-2.39606E-06 2.21678E-18 3.09845E-19
 -1      4210 8.74525E-05-2.19121E-05-2.81044E-05-2.13059E-06 2.79396E-18 1.62500E-18
 -1      4211 8.55658E-05-2.08694E-05-2.76975E-05-1.32556E-06 2.06501E-18 5.34522E-19
 -1      4212 8.83843E-05-2.24267E-05-2.82750E-05-1.99169E-06 1.97106E-18 1.54675E-18
 -1      4213 8.91424E-05-2.28996E-05-2.84018E-05-1.77304E-06 9.87352E-19 1.72130E-18
 -1      4214 8.76129E-05-2.19373E-05-2.81242E-05-1.15342E-06 2.45293E-18 3.39683E-19
 -1      4215 8.99046E-05-2.33836E-05-2.85141E-05-1.65000E-06 6.34127E-20 1.71863E-18
 -1      4216 9.05290E-05-2.38289E-05-2.85944E-05-1.46933E-06-3.40513E-20 1.19424E-18
 -1      4217 8.92819E-05-2.29479E-05-2.84101E-05-9.85086E-07 5.98104E-19 1.21320E-18
 -1      4218 9.03688E-05-2.39896E-05-2.84482E-05-2.93912E-06-1.42527E-20 2.83558E-19
 -1      4219 9.09856E-05-2.43933E-05-2.85531E-05-2.63272E-06 5.95955E-20 3.01570E-19
 -1      4220 8.31991E-05-2.16410E-05-2.63807E-05-7.81279E-06 1.66995E-19 3.04252E-19
 -1      4221 8.39435E-05-2.16065E-05-2.67677E-05-6.76918E-06 3.43005E-19 8.13735E-19
 -1      4222 8.33504E-05-2.07248E-05-2.67582E-05-5.08691E-06-1.81136E-20-7.08765E-19
 -1      4223 8.71709E-05-2.24222E-05-2.77462E-05-4.60759E-06-4.55315E-19 1.39401E-19
 -1      4224 8.79094E-05-2.27384E-05-2.79555E-05-4.08341E-06-4.70930E-19 2.32446E-19
 -1      4225 8.57300E-05-2.15190E-05-2.74593E-05-3.85096E-06-4.54027E-19-4.12982E-19
 -1      4226 7.64265E-05-2.12597E-05-2.36452E-05-1.28618E-05-2.46142E-19-6.61437E-19
 -1      4227 7.07840E-05-1.70115E-05-2.29968E-05-7.11522E-06-4.94830E-19-3.22065E-18
 -1      4228 7.41852E-05-1.82051E-05-2.39301E-05-7.80913E-06-8.29245E-19-2.82436E-18
 -1      4229 7.05816E-05-1.64053E-05-2.32650E-05-2.83220E-06-1.03044E-18-2.09763E-18
 -1      4230 8.64319E-05-2.18951E-05-2.76842E-05 4.62105E-06 5.67436E-19 1.96021E-18
 -1      4231 8.57077E-05-2.16973E-05-2.74285E-05 5.30263E-06 1.20268E-18 2.40222E-18
 -1      4232 9.58738E-05-2.55583E-05-3.01315E-05 2.16122E-07 6.79283E-19-1.27028E-18
 -1      4233 8.45312E-05-2.14322E-05-2.70784E-05 6.04037E-06 1.34481E-18 2.07806E-18
 -1      4234 8.37622E-05-2.14312E-05-2.67174E-05 7.01280E-06 6.99919E-19 1.96365E-18
 -1      4235 8.39869E-05-2.07297E-05-2.70784E-05 4.53847E-06 1.16952E-18 9.00279E-19
 -1      4236 9.07356E-05-2.40504E-05-2.85889E-05 2.18009E-06 1.98658E-18-9.99191E-19
 -1      4237 9.02096E-05-2.36850E-05-2.85109E-05 2.49172E-06 1.37290E-18-5.63723E-19
 -1      4238 9.16982E-05-2.47359E-05-2.87035E-05 1.79652E-06 2.15444E-18-1.57276E-18
 -1      4239 9.12501E-05-2.43907E-05-2.86542E-05 2.05528E-06 1.93317E-18-9.02059E-19
 -1      4240 9.06239E-05-2.39349E-05-2.85752E-05 1.63427E-06 1.54388E-18-1.16813E-18
 -1      4241 9.15578E-05-2.46171E-05-2.86860E-05 1.45602E-06 1.94235E-18 9.17301E-19
 -1      4242 8.20944E-05-2.64813E-05-2.38991E-05 1.70694E-05-1.83250E-18 3.05803E-18
 -1      4243 7.55637E-05-1.80936E-05-2.46839E-05-6.02297E-06-1.52567E-18-2.38418E-18
 -1      4244 7.23291E-05-1.84017E-05-2.30638E-05-9.80302E-06-5.40910E-20-6.36347E-19
 -1      4245 7.96070E-05-2.14648E-05-2.48558E-05-1.04769E-05-3.02598E-19-6.12506E-19
 -1      4246 9.16942E-05-2.48295E-05-2.86567E-05-2.39636E-06-1.38803E-19 3.04400E-20
 -1      4247 9.22429E-05-2.52200E-05-2.87339E-05-2.15291E-06-1.67131E-19-6.35568E-20
 -1      4248 9.10260E-05-2.43228E-05-2.85636E-05-1.86567E-06-1.57731E-19-1.69221E-19
 -1      4249 7.79254E-05-1.84746E-05-2.54691E-05-4.59974E-06-7.87754E-19-1.99021E-18
 -1      4250 7.95804E-05-1.88766E-05-2.60612E-05-3.92971E-06-5.66912E-19-6.24763E-19
 -1      4251 7.97732E-05-1.85974E-05-2.61667E-05-1.80783E-06 5.60291E-21-6.63263E-19
 -1      4252 8.88637E-05-2.31611E-05-2.81572E-05-3.65164E-06-5.42806E-19 2.12450E-19
 -1      4253 8.95460E-05-2.35435E-05-2.83052E-05-3.25621E-06-4.12093E-19 1.10766E-19
 -1      4254 8.95134E-05-2.33801E-05-2.83107E-05-2.33496E-06-1.39752E-19-3.73050E-20
 -1      4255 8.77619E-05-2.24258E-05-2.79575E-05-2.97120E-06-5.05485E-19-1.63911E-19
 -1      4256 8.95116E-05-2.32822E-05-2.83980E-05 2.79093E-06 8.50727E-19-2.68389E-21
 -1      4257 8.89142E-05-2.29336E-05-2.82774E-05 3.18559E-06 5.60355E-19 6.15258E-19
 -1      4258 8.94282E-05-2.31384E-05-2.83949E-05 1.99865E-06 1.60623E-18-1.48328E-18
 -1      4259 9.21218E-05-2.50366E-05-2.87560E-05-1.16135E-06-1.86501E-19-4.01198E-20
 -1      4260 9.20663E-05-2.49951E-05-2.87448E-05-7.90379E-07 1.15267E-18 6.02205E-19
 -1      4261 9.16147E-05-2.46332E-05-2.87028E-05-5.77179E-07 6.24504E-19 1.56059E-18
 -1      4262 9.17788E-05-2.47429E-05-2.87291E-05-1.29850E-06 3.84881E-19 1.63614E-19
 -1      4263 8.23621E-05-2.11514E-05-2.62857E-05 7.65053E-06-4.82503E-20 1.22200E-18
 -1      4264 8.16297E-05-2.14704E-05-2.57997E-05 9.00450E-06-1.89023E-19 1.34208E-18
 -1      4265 7.83333E-05-1.92375E-05-2.52574E-05 6.97710E-06-6.05281E-19 8.39584E-20
 -1      4266 8.14938E-05-2.00447E-05-2.62830E-05 5.73515E-06-6.13272E-20 8.26361E-19
 -1      4267 7.01445E-05-1.66097E-05-2.30007E-05-3.15988E-06 1.78257E-19-1.06672E-18
 -1      4268 7.29283E-05-1.85495E-05-2.32558E-05 8.99721E-06-1.49673E-18-3.20124E-19
 -1      4269 6.88885E-05-1.65297E-05-2.23193E-05 6.93897E-06-1.05106E-18-6.91225E-20
 -1      4270 6.97375E-05-1.61143E-05-2.30181E-05 1.68216E-06-1.30418E-18-8.08486E-19
 -1      4271 7.40380E-05-1.79247E-05-2.40874E-05 6.00944E-06-1.37680E-18-9.43016E-19
 -1      4272 8.80834E-05-2.25404E-05-2.81085E-05 3.57793E-06 6.99656E-19 1.24645E-18
 -1      4273 8.74156E-05-2.22407E-05-2.79298E-05 4.08957E-06 7.07467E-19 1.52899E-18
 -1      4274 8.61158E-05-2.14623E-05-2.76853E-05 3.41119E-06 6.25642E-19 1.19879E-18
 -1      4275 8.02151E-05-2.09835E-05-2.54078E-05-8.97649E-06-9.28014E-20-2.60647E-19
 -1      4276 9.45411E-05-2.68718E-05-2.89994E-05-2.25292E-06-9.64141E-21-2.32659E-19
 -1      4277 9.48276E-05-2.70701E-05-2.90430E-05-2.04330E-06-1.01386E-19-4.83780E-19
 -1      4278 9.41690E-05-2.65454E-05-2.89749E-05-1.99446E-06-1.29760E-19-2.73812E-19
 -1      4279 9.59894E-05-2.60101E-05-2.99937E-05-1.15602E-07 6.51565E-19-1.17542E-18
 -1      4280 9.60157E-05-2.60528E-05-2.99821E-05-1.75448E-07 4.39754E-19-1.04308E-18
 -1      4281 9.51590E-05-2.72488E-05-2.91042E-05-1.88298E-06-3.32961E-21-5.78190E-19
 -1      4282 9.53941E-05-2.73558E-05-2.91609E-05-1.68366E-06 7.75558E-20-7.90028E-19
 -1      4283 9.49054E-05-2.70053E-05-2.90955E-05-1.66382E-06-1.62066E-19-6.28496E-19
 -1      4284 9.58580E-05-2.52962E-05-3.02284E-05-8.72431E-08 3.06825E-20-8.95917E-19
 -1      4285 9.28481E-05-2.56169E-05-2.88136E-05-1.97304E-06-1.82079E-19 2.17768E-20
 -1      4286 9.33168E-05-2.59619E-05-2.88756E-05-1.76640E-06-1.13948E-19-1.85621E-19
 -1      4287 9.23234E-05-2.52005E-05-2.87518E-05-1.51407E-06-5.79667E-20-4.02220E-19
 -1      4288 9.60689E-05-2.69333E-05-2.96334E-05-5.93005E-07 3.93740E-19-1.01157E-18
 -1      4289 9.61080E-05-2.66450E-05-2.97730E-05-3.82993E-07 3.95318E-19-9.92571E-19
 -1      4290 9.54881E-05-2.72588E-05-2.92377E-05-1.35005E-06 1.37223E-19-1.09609E-18
 -1      4291 7.29809E-05-1.71277E-05-2.39155E-05 3.92772E-06 8.60443E-19-8.66761E-19
 -1      4292 9.60875E-05-2.63029E-05-2.99009E-05 2.20160E-07 1.57017E-19-7.96491E-19
 -1      4293 9.60669E-05-2.63965E-05-2.98556E-05 1.42638E-07 1.16492E-19-6.79703E-19
 -1      4294 9.09744E-05-2.41352E-05-2.86489E-05-1.45904E-06-2.35597E-20 8.90207E-19
 -1      4295 9.13879E-05-2.44550E-05-2.86904E-05-1.30942E-06 1.95101E-19 5.04279E-19
 -1      4296 9.12858E-05-2.43758E-05-2.86729E-05-9.36894E-07-2.74204E-19-4.25160E-19
 -1      4297 9.04449E-05-2.37446E-05-2.85754E-05-9.25239E-07-8.01596E-19 1.23184E-19
 -1      4298 9.58081E-05-2.72125E-05-2.94008E-05-8.73087E-07 3.79448E-19-1.21198E-18
 -1      4299 9.59699E-05-2.71203E-05-2.95068E-05-6.97441E-07 3.38254E-19-1.09353E-18
 -1      4300 9.60058E-05-2.69081E-05-2.96099E-05-4.50629E-07 4.34086E-19-9.40391E-19
 -1      4301 7.90662E-05-1.96044E-05-2.54051E-05-6.62398E-06 1.32214E-19-7.94917E-19
 -1      4302 7.16410E-05-1.64405E-05-2.35996E-05-4.21648E-07-8.60413E-19-1.21263E-18
 -1      4303 7.38381E-05-1.70604E-05-2.43008E-05-2.01128E-06-1.14029E-18-2.02015E-18
 -1      4304 7.30829E-05-1.69653E-05-2.40828E-05 2.19473E-06-1.52973E-18-1.59657E-18
 -1      4305 9.60921E-05-2.63335E-05-2.98926E-05-2.81924E-07 3.16319E-19-1.09142E-18
 -1      4306 9.59810E-05-2.58286E-05-3.00715E-05-5.43137E-08 2.67279E-19-1.30556E-18
 -1      4307 9.59515E-05-2.56937E-05-3.01114E-05-4.04396E-08 2.51643E-19-1.31116E-18
 -1      4308 9.60877E-05-2.64188E-05-2.98578E-05-2.27153E-07 2.69362E-19-1.18945E-18
 -1      4309 8.79131E-05-2.22860E-05-2.81073E-05 2.60237E-06 1.46756E-18 9.55928E-19
 -1      4310 7.55750E-05-1.75499E-05-2.48380E-05-3.22436E-06-4.89537E-19-1.95094E-18
 -1      4311 9.13957E-05-2.44859E-05-2.86712E-05 6.61734E-07 1.40181E-18-2.66069E-19
 -1      4312 9.14506E-05-2.45416E-05-2.86773E-05 1.03917E-06 1.51175E-18 3.12170E-19
 -1      4313 9.10155E-05-2.42140E-05-2.86309E-05 1.10963E-06 1.17146E-18-2.39390E-19
 -1      4314 9.60000E-05-2.59818E-05-3.00146E-05 1.47115E-07 1.36725E-19-1.02535E-18
 -1      4315 9.12281E-05-2.43671E-05-2.86576E-05 2.25682E-07 8.22182E-19 2.21918E-18
 -1      4316 9.59913E-05-2.69371E-05-2.95989E-05-1.38776E-07 4.19060E-19-8.23048E-19
 -1      4317 9.58441E-05-2.70676E-05-2.94760E-05-1.03295E-07 3.16467E-19-6.08013E-19
 -1      4318 7.65833E-05-1.81908E-05-2.50640E-05-3.04724E-06 1.01742E-19-4.58544E-19
 -1      4319 7.99461E-05-1.92874E-05-2.60545E-05-2.66638E-06 1.53664E-19-8.28152E-19
 -1      4320 9.53228E-05-2.71523E-05-2.92203E-05-1.12118E-06-1.94708E-19-8.79638E-19
 -1      4321 9.55819E-05-2.72169E-05-2.93012E-05-9.64470E-07 1.87754E-19-1.01597E-18
 -1      4322 9.56731E-05-2.71080E-05-2.93812E-05-6.45177E-07 1.66449E-19-7.80310E-19
 -1      4323 9.51075E-05-2.69474E-05-2.92173E-05 4.35261E-08-1.78928E-19-4.26907E-19
 -1      4324 9.47454E-05-2.67737E-05-2.91342E-05 7.42735E-08-5.33704E-20-7.66348E-19
 -1      4325 9.43242E-05-2.65350E-05-2.90567E-05 4.23735E-08 1.43337E-19-6.78480E-19
 -1      4326 9.38452E-05-2.62373E-05-2.89817E-05 8.07351E-08-8.66663E-20-8.17259E-19
 -1      4327 9.45392E-05-2.66330E-05-2.90955E-05-3.75175E-07-1.35762E-19-5.79197E-19
 -1      4328 9.32186E-05-2.58273E-05-2.88862E-05-3.77659E-07-2.70875E-19-8.37860E-19
 -1      4329 9.26279E-05-2.54319E-05-2.88084E-05-3.75637E-07-1.85377E-19-8.61745E-19
 -1      4330 9.20043E-05-2.50126E-05-2.87239E-05-4.99358E-07-1.20677E-19-7.93997E-19
 -1      4331 9.13048E-05-2.45395E-05-2.86295E-05-5.03744E-07-8.85497E-20-6.12417E-19
 -1      4332 9.05758E-05-2.40725E-05-2.85204E-05-6.68281E-07-1.36256E-19-7.93637E-19
 -1      4333 8.97482E-05-2.35455E-05-2.83953E-05-6.85238E-07-2.78265E-19-5.15137E-19
 -1      4334 8.88970E-05-2.30513E-05-2.82454E-05-9.07886E-07-5.24125E-19-3.88456E-19
 -1      4335 8.79118E-05-2.24878E-05-2.80708E-05-9.45353E-07-3.51365E-19-2.65675E-19
 -1      4336 8.69157E-05-2.19912E-05-2.78598E-05-1.25214E-06-3.26935E-19-4.22063E-19
 -1      4337 8.57289E-05-2.14062E-05-2.76117E-05-1.31941E-06-4.71337E-19-6.41321E-19
 -1      4338 8.45543E-05-2.09338E-05-2.73135E-05-1.75063E-06-2.91245E-19-5.16947E-19
 -1      4339 8.30958E-05-2.03357E-05-2.69591E-05-1.86628E-06-3.38739E-19-6.81704E-19
 -1      4340 8.17091E-05-1.99297E-05-2.65404E-05-2.48442E-06-1.86567E-19-6.06831E-19
 -1      4341 7.87935E-05-1.84059E-05-2.58875E-05 3.01208E-07 7.42493E-19-1.97608E-18
 -1      4342 8.05760E-05-1.89889E-05-2.64190E-05 2.60709E-07 2.02236E-19-1.32415E-18
 -1      4343 8.48692E-05-2.06283E-05-2.75507E-05-1.11405E-07 1.05192E-18 2.80981E-20
 -1      4344 8.60203E-05-2.11684E-05-2.78074E-05-1.00230E-07 2.52669E-18 5.52179E-19
 -1      4345 8.88070E-05-2.27038E-05-2.83402E-05-2.44665E-07 2.17197E-18 4.24936E-19
 -1      4346 8.95601E-05-2.31867E-05-2.84553E-05-2.04327E-07 1.11967E-18 1.21486E-18
 -1      4347 8.96369E-05-2.32673E-05-2.84497E-05 1.15807E-06 1.90909E-18-1.03273E-18
 -1      4348 8.89201E-05-2.28259E-05-2.83325E-05 1.36906E-06 1.84588E-18-7.34235E-19
 -1      4349 9.47366E-05-2.68402E-05-2.91019E-05-1.06469E-06-2.71089E-19-4.81961E-19
 -1      4350 9.50727E-05-2.70109E-05-2.91704E-05-9.26626E-07-3.72070E-19-6.27521E-19
 -1      4351 7.61240E-05-1.76148E-05-2.51193E-05-8.38329E-07-6.99156E-19-1.86431E-18
 -1      4352 8.21651E-05-1.95377E-05-2.68663E-05 4.10300E-08-3.38752E-19-7.15261E-19
 -1      4353 8.36090E-05-2.00928E-05-2.72401E-05 4.12956E-08 3.77049E-19-3.43508E-19
 -1      4354 8.43784E-05-2.04096E-05-2.73793E-05 1.33109E-06 1.00166E-18 1.72347E-19
 -1      4355 8.15863E-05-1.93473E-05-2.66276E-05 1.94276E-06 5.96400E-19-1.06394E-18
 -1      4356 9.56227E-05-2.70956E-05-2.93725E-05-1.81468E-07-7.92627E-20-5.34560E-19
 -1      4357 9.53539E-05-2.70448E-05-2.92749E-05-1.61890E-07-1.24331E-19-4.32056E-19
 -1      4358 7.65965E-05-1.84769E-05-2.49181E-05 5.61460E-06-6.55307E-19-8.02555E-19
 -1      4359 7.45718E-05-1.75458E-05-2.43987E-05 4.03900E-06-1.04517E-18-1.09447E-18
 -1      4360 7.57626E-05-1.76594E-05-2.48941E-05 2.10594E-06-8.47663E-19-1.35500E-18
 -1      4361 7.83664E-05-1.89394E-05-2.55092E-05 5.10604E-06-2.53982E-19-2.77426E-19
 -1      4362 9.60502E-05-2.60355E-05-3.00016E-05-3.88635E-08 8.65669E-20-9.29792E-19
 -1      4363 9.60760E-05-2.64495E-05-2.98428E-05-4.48468E-09 9.02700E-20-1.00691E-18
 -1      4364 9.39074E-05-2.63232E-05-2.89653E-05-1.28685E-06-4.88746E-20-6.43728E-19
 -1      4365 9.43152E-05-2.65998E-05-2.90263E-05-1.13217E-06-9.45304E-20-5.45118E-19
 -1      4366 8.62243E-05-2.14083E-05-2.77996E-05 2.05886E-06 1.42183E-18 2.99550E-19
 -1      4367 8.52331E-05-2.09756E-05-2.75474E-05 2.45996E-06 1.28515E-18 6.33647E-19
 -1      4368 9.51983E-05-2.69824E-05-2.92296E-05-5.50147E-07-3.39295E-19-5.72268E-19
 -1      4369 9.35196E-05-2.60102E-05-2.89242E-05-8.71372E-07-2.45838E-19-7.62314E-19
 -1      4370 8.71645E-05-2.18529E-05-2.79974E-05 1.82211E-06 2.46316E-18 6.79313E-19
 -1      4371 8.65229E-05-2.13998E-05-2.78826E-05 9.08173E-07 2.23318E-18 5.80805E-20
 -1      4372 8.69599E-05-2.16464E-05-2.80057E-05-2.17337E-07 2.34725E-18 2.09300E-19
 -1      4373 8.80046E-05-2.22998E-05-2.81731E-05 1.53089E-06 2.21779E-18-2.37643E-19
 -1      4374 7.73302E-05-1.79835E-05-2.54212E-05 1.37018E-06 2.24369E-19-2.08109E-18
 -1      4375 7.45901E-05-1.76890E-05-2.44313E-05-2.73801E-06 2.28294E-20-5.88078E-19
 -1      4376 9.01200E-05-2.35555E-05-2.85160E-05 6.08955E-07 1.19332E-18 4.55379E-19
 -1      4377 9.04180E-05-2.37713E-05-2.85682E-05-7.10312E-08 4.99416E-19 1.20337E-18
 -1      4378 8.78954E-05-2.21617E-05-2.81819E-05-1.91946E-07 1.98469E-18-3.15505E-19
 -1      4379 8.83572E-05-2.24161E-05-2.82420E-05 6.23472E-07 2.60403E-18-1.33262E-19
 -1      4380 9.59392E-05-2.56416E-05-3.01356E-05 2.94018E-08 3.33967E-19-8.64073E-19
 -1      4381 8.12274E-05-1.96315E-05-2.64314E-05 3.87209E-06 3.60117E-19-1.10579E-18
 -1      4382 7.98762E-05-1.92566E-05-2.59947E-05 4.27074E-06-2.36243E-20-1.68482E-18
 -1      4383 9.12163E-05-2.43391E-05-2.86619E-05-5.63831E-07-2.38985E-19 2.09547E-18
 -1      4384 9.08537E-05-2.40766E-05-2.86203E-05-1.21414E-07-6.83996E-20 1.56427E-18
 -1      4385 8.39757E-05-2.04900E-05-2.72375E-05 2.79343E-06 1.27231E-18-8.36259E-21
 -1      4386 8.27968E-05-2.01075E-05-2.68766E-05 3.36042E-06 8.06201E-19-2.34462E-19
 -1      4387 9.04982E-05-2.38535E-05-2.85675E-05 1.19162E-06 9.30668E-19-1.36885E-18
 -1      4388 9.59467E-05-2.56581E-05-3.01306E-05 1.34248E-08 1.07424E-19-6.19845E-19
 -1      4389 7.10484E-05-1.64968E-05-2.33027E-05 1.97049E-06 5.62342E-19-1.18220E-18
 -1      4390 9.60822E-05-2.67053E-05-2.97296E-05-7.43399E-08 2.88005E-19-8.52055E-19
 -1      4391 9.17371E-05-3.23270E-05-2.53042E-05 1.82282E-05-1.99898E-18 4.90897E-18
 -1      4392 7.84793E-05-1.85097E-05-2.56944E-05 3.08909E-06 3.93152E-19-1.67864E-18
 -3
    1PSTEP                         4           1           1          
  100CL  101 1.000000000        4392                     0    1           1
 -4  ERROR       1    1
 -5  STR(%)      1    1    0    0
 -1         1 1.23013E+01
 -1         2 2.67144E+01
 -1         3 1.33798E-02
 -1         4 1.57842E-02
 -1         5 1.40449E+01
 -1         6 1.31489E+01
 -1         7 1.31489E+01
 -1         8 3.64653E+00
 -1         9 1.81031E+00
 -1        10 1.28173E+00
 -1        11 1.03631E+00
 -1        12 8.93011E-01
 -1        13 8.02111E-01
 -1        14 7.48544E-01
 -1        15 7.50442E-01
 -1        16 8.06352E-01
 -1        17 8.93917E-01
 -1        18 1.04514E+00
 -1        19 1.29931E+00
 -1        20 1.81926E+00
 -1        21 3.48820E+00
 -1        22 8.63417E+00
 -1        23 1.31489E+01
 -1        24 4.33761E+00
 -1        25 3.36356E+00
 -1        26 2.13633E+00
 -1        27 1.39044E+00
 -1        28 1.05956E+00
 -1        29 8.31996E-01
 -1        30 6.65831E-01
 -1        31 5.41354E-01
 -1        32 4.48385E-01
 -1        33 3.80103E-01
 -1        34 3.45498E-01
 -1        35 3.97253E-01
 -1        36 4.63667E-01
 -1        37 5.41553E-01
 -1        38 6.23306E-01
 -1        39 7.42163E-01
 -1        40 9.41619E-01
 -1        41 1.18150E+00
 -1        42 1.42113E+00
 -1        43 1.55935E+00
 -1        44 1.55935E+00
 -1        45 1.56759E+00
 -1        46 1.56759E+00
 -1        47 2.04170E+00
 -1        48 3.68099E+00
 -1        49 4.51574E+00
 -1        50 4.51574E+00
 -1        51 4.50276E+00
 -1        52 3.97763E+00
 -1        53 2.36151E+00
 -1        54 1.69407E+00
 -1        55 1.53176E+00
 -1        56 1.55525E+00
 -1        57 1.55525E+00
 -1        58 1.45339E+00
 -1        59 1.22481E+00
 -1        60 9.75320E-01
 -1        61 7.74031E-01
 -1        62 6.07379E-01
 -1        63 5.14984E-01
 -1        64 4.21451E-01
 -1        65 3.35352E-01
 -1        66 2.60465E-01
 -1        67 1.97399E-01
 -1        68 1.52361E-01
 -1        69 1.32194E-01
 -1        70 1.03175E-01
 -1        71 5.48753E-02
 -1        72 1.40449E+01
 -1        73 3.41237E+00
 -1        74 2.43355E+00
 -1        75 1.68938E+00
 -1        76 1.17212E+00
 -1        77 9.53228E-01
 -1        78 7.92755E-01
 -1        79 6.67165E-01
 -1        80 5.69394E-01
 -1        81 4.95608E-01
 -1        82 4.42922E-01
 -1        83 4.08105E-01
 -1        84 3.86907E-01
 -1        85 4.26646E-01
 -1        86 4.82747E-01
 -1        87 5.34188E-01
 -1        88 5.66370E-01
 -1        89 5.77490E-01
 -1        90 7.04841E-01
 -1        91 8.72378E-01
 -1        92 9.71369E-01
 -1        93 1.16855E+00
 -1        94 1.34228E+00
 -1        95 1.39956E+00
 -1        96 1.68824E+00
 -1        97 2.30742E+00
 -1        98 2.97698E+00
 -1        99 3.31494E+00
 -1       100 3.35254E+00
 -1       101 3.35254E+00
 -1       102 2.50950E+00
 -1       103 1.45821E+00
 -1       104 1.01163E+00
 -1       105 9.90886E-01
 -1       106 1.12907E+00
 -1       107 1.12907E+00
 -1       108 1.09438E+00
 -1       109 9.66030E-01
 -1       110 8.14767E-01
 -1       111 6.72152E-01
 -1       112 5.30280E-01
 -1       113 4.01622E-01
 -1       114 3.09490E-01
 -1       115 2.45522E-01
 -1       116 1.89245E-01
 -1       117 1.40561E-01
 -1       118 9.73801E-02
 -1       119 7.39615E-02
 -1       120 4.34405E-02
 -1       121 1.74958E-02
 -1       122 1.82398E-02
 -1       123 1.82398E-02
 -1       124 1.17431E-02
 -1       125 6.99731E-03
 -1       126 1.36093E-02
 -1       127 1.80153E-02
 -1       128 1.94308E-02
 -1       129 1.94308E-02
 -1       130 1.81599E-02
 -1       131 1.37014E-02
 -1       132 7.34772E-03
 -1       133 1.21711E-02
 -1       134 1.84216E-02
 -1       135 2.36098E-02
 -1       136 2.53666E-02
 -1       137 2.67144E+01
 -1       138 4.61472E+01
 -1       139 4.61472E+01
 -1       140 1.86373E+01
 -1       141 1.22293E+01
 -1       142 1.26420E+01
 -1       143 1.26420E+01
 -1       144 1.23149E+01
 -1       145 1.23149E+01
 -1       146 1.22881E+01
 -1       147 2.58160E+01
 -1       148 3.00020E+01
 -1       149 3.00020E+01
 -1       150 2.51863E+01
 -1       151 2.52516E+01
 -1       152 2.52516E+01
 -1       153 4.15547E+01
 -1       154 4.15547E+01
 -1       155 1.54842E+01
 -1       156 1.33813E+01
 -1       157 1.33813E+01
 -1       158 1.26175E+01
 -1       159 1.26175E+01
 -1       160 1.19993E+01
 -1       161 2.64987E+01
 -1       162 2.85986E+01
 -1       163 2.85986E+01
 -1       164 2.49323E+01
 -1       165 6.05681E+00
 -1       166 2.28475E+00
 -1       167 1.49777E+00
 -1       168 1.15142E+00
 -1       169 9.65934E-01
 -1       170 8.58540E-01
 -1       171 7.90338E-01
 -1       172 7.50442E-01
 -1       173 7.93703E-01
 -1       174 8.61410E-01
 -1       175 9.74832E-01
 -1       176 1.16562E+00
 -1       177 1.51943E+00
 -1       178 2.25119E+00
 -1       179 3.91832E+00
 -1       180 1.40449E+01
 -1       181 4.33761E+00
 -1       182 3.36356E+00
 -1       183 2.13633E+00
 -1       184 1.46815E+00
 -1       185 1.05956E+00
 -1       186 8.31996E-01
 -1       187 6.65831E-01
 -1       188 5.41354E-01
 -1       189 4.48385E-01
 -1       190 3.80103E-01
 -1       191 3.30561E-01
 -1       192 3.45498E-01
 -1       193 3.97253E-01
 -1       194 4.63667E-01
 -1       195 5.41553E-01
 -1       196 6.95046E-01
 -1       197 8.52017E-01
 -1       198 9.89401E-01
 -1       199 1.18150E+00
 -1       200 1.42113E+00
 -1       201 1.55935E+00
 -1       202 1.47311E+00
 -1       203 1.56759E+00
 -1       204 1.55272E+00
 -1       205 2.23553E+00
 -1       206 3.68099E+00
 -1       207 4.51574E+00
 -1       208 4.50276E+00
 -1       209 3.97763E+00
 -1       210 2.46751E+00
 -1       211 1.69407E+00
 -1       212 1.53176E+00
 -1       213 1.51778E+00
 -1       214 1.55525E+00
 -1       215 1.45339E+00
 -1       216 1.22481E+00
 -1       217 1.02294E+00
 -1       218 8.84320E-01
 -1       219 7.33172E-01
 -1       220 5.79767E-01
 -1       221 4.39953E-01
 -1       222 3.35352E-01
 -1       223 2.60465E-01
 -1       224 2.02952E-01
 -1       225 1.54347E-01
 -1       226 1.32194E-01
 -1       227 1.03175E-01
 -1       228 5.80146E-02
 -1       229 3.41237E+00
 -1       230 2.43355E+00
 -1       231 1.68938E+00
 -1       232 1.17212E+00
 -1       233 9.53228E-01
 -1       234 7.92755E-01
 -1       235 6.67165E-01
 -1       236 5.69394E-01
 -1       237 4.95608E-01
 -1       238 4.42922E-01
 -1       239 4.08105E-01
 -1       240 3.86907E-01
 -1       241 3.75062E-01
 -1       242 4.26646E-01
 -1       243 4.82747E-01
 -1       244 5.34188E-01
 -1       245 5.66370E-01
 -1       246 6.05584E-01
 -1       247 7.13338E-01
 -1       248 8.72378E-01
 -1       249 9.71369E-01
 -1       250 1.16855E+00
 -1       251 1.34228E+00
 -1       252 1.39956E+00
 -1       253 1.68824E+00
 -1       254 2.30742E+00
 -1       255 2.97698E+00
 -1       256 3.31494E+00
 -1       257 3.35254E+00
 -1       258 2.50950E+00
 -1       259 1.45821E+00
 -1       260 1.01163E+00
 -1       261 9.37424E-01
 -1       262 9.90886E-01
 -1       263 1.12907E+00
 -1       264 1.09438E+00
 -1       265 9.66030E-01
 -1       266 8.14767E-01
 -1       267 6.77122E-01
 -1       268 5.50052E-01
 -1       269 4.28891E-01
 -1       270 3.21559E-01
 -1       271 2.45522E-01
 -1       272 1.89245E-01
 -1       273 1.40561E-01
 -1       274 9.97985E-02
 -1       275 7.39615E-02
 -1       276 4.34405E-02
 -1       277 2.75145E-02
 -1       278 3.06397E-02
 -1       279 3.06397E-02
 -1       280 1.62563E-02
 -1       281 2.55643E-02
 -1       282 3.45621E-02
 -1       283 3.84657E-02
 -1       284 3.85520E-02
 -1       285 3.85520E-02
 -1       286 3.48902E-02
 -1       287 2.64491E-02
 -1       288 1.66106E-02
 -1       289 3.16378E-02
 -1       290 3.16378E-02
 -1       291 3.65634E-02
 -1       292 3.14938E+01
 -1       293 2.73642E+01
 -1       294 4.61472E+01
 -1       295 1.96228E+01
 -1       296 1.04309E+01
 -1       297 1.22293E+01
 -1       298 1.26420E+01
 -1       299 1.16341E+01
 -1       300 1.23149E+01
 -1       301 1.17692E+01
 -1       302 1.22881E+01
 -1       303 2.81888E+01
 -1       304 3.40659E+01
 -1       305 3.40659E+01
 -1       306 3.03340E+01
 -1       307 3.03340E+01
 -1       308 3.65321E+01
 -1       309 4.15547E+01
 -1       310 1.54842E+01
 -1       311 1.12031E+01
 -1       312 1.33813E+01
 -1       313 1.23013E+01
 -1       314 1.19701E+01
 -1       315 1.26175E+01
 -1       316 1.12598E+01
 -1       317 1.19993E+01
 -1       318 2.84273E+01
 -1       319 3.20001E+01
 -1       320 3.20001E+01
 -1       321 3.14938E+01
 -1       322 1.05621E+00
 -1       323 2.46127E+00
 -1       324 7.82885E-01
 -1       325 6.89403E-01
 -1       326 6.26338E-01
 -1       327 5.82213E-01
 -1       328 5.85337E-01
 -1       329 6.28897E-01
 -1       330 6.95447E-01
 -1       331 7.90407E-01
 -1       332 9.25413E-01
 -1       333 1.14589E+00
 -1       334 1.31333E+00
 -1       335 2.20077E+00
 -1       336 1.91230E+00
 -1       337 1.74520E+00
 -1       338 1.28353E+00
 -1       339 9.22787E-01
 -1       340 6.82247E-01
 -1       341 5.81358E-01
 -1       342 4.91211E-01
 -1       343 4.12278E-01
 -1       344 3.44226E-01
 -1       345 2.85423E-01
 -1       346 2.73193E-01
 -1       347 3.15000E-01
 -1       348 3.66241E-01
 -1       349 4.73977E-01
 -1       350 6.17719E-01
 -1       351 7.64027E-01
 -1       352 8.95518E-01
 -1       353 1.00667E+00
 -1       354 1.13309E+00
 -1       355 1.19622E+00
 -1       356 1.09293E+00
 -1       357 9.99442E-01
 -1       358 1.07754E+00
 -1       359 1.49490E+00
 -1       360 2.04539E+00
 -1       361 2.62485E+00
 -1       362 2.52937E+00
 -1       363 2.66254E+00
 -1       364 2.22872E+00
 -1       365 1.65382E+00
 -1       366 1.02971E+00
 -1       367 1.01176E+00
 -1       368 1.06329E+00
 -1       369 1.18569E+00
 -1       370 1.15112E+00
 -1       371 1.03035E+00
 -1       372 9.26845E-01
 -1       373 8.06307E-01
 -1       374 6.67641E-01
 -1       375 5.31139E-01
 -1       376 4.08032E-01
 -1       377 3.03209E-01
 -1       378 2.17684E-01
 -1       379 1.54347E-01
 -1       380 1.13328E-01
 -1       381 8.02725E-02
 -1       382 5.48037E-02
 -1       383 1.14512E+00
 -1       384 9.02169E-01
 -1       385 7.12233E-01
 -1       386 5.48986E-01
 -1       387 4.68955E-01
 -1       388 4.21542E-01
 -1       389 3.79117E-01
 -1       390 3.44046E-01
 -1       391 3.16832E-01
 -1       392 2.96288E-01
 -1       393 3.24400E-01
 -1       394 3.87890E-01
 -1       395 5.00938E-01
 -1       396 6.08131E-01
 -1       397 6.98022E-01
 -1       398 7.78669E-01
 -1       399 7.95300E-01
 -1       400 7.95300E-01
 -1       401 7.04862E-01
 -1       402 5.69444E-01
 -1       403 6.40189E-01
 -1       404 1.21700E+00
 -1       405 1.68680E+00
 -1       406 1.77895E+00
 -1       407 1.77895E+00
 -1       408 1.81075E+00
 -1       409 2.05001E+00
 -1       410 1.74789E+00
 -1       411 1.14404E+00
 -1       412 7.18518E-01
 -1       413 5.59336E-01
 -1       414 7.47158E-01
 -1       415 7.96642E-01
 -1       416 8.33445E-01
 -1       417 7.85123E-01
 -1       418 7.03669E-01
 -1       419 6.15915E-01
 -1       420 5.12705E-01
 -1       421 4.09346E-01
 -1       422 3.14715E-01
 -1       423 2.33019E-01
 -1       424 1.81371E-01
 -1       425 1.37818E-01
 -1       426 9.97985E-02
 -1       427 6.54110E-02
 -1       428 3.50138E-02
 -1       429 3.42709E-02
 -1       430 5.31882E-02
 -1       431 5.31882E-02
 -1       432 3.50372E-02
 -1       433 4.86577E-02
 -1       434 5.56540E-02
 -1       435 5.56540E-02
 -1       436 5.59594E-02
 -1       437 5.59594E-02
 -1       438 4.99686E-02
 -1       439 3.66878E-02
 -1       440 3.67672E-02
 -1       441 5.05375E-02
 -1       442 2.73642E+01
 -1       443 3.18212E+01
 -1       444 2.40904E+01
 -1       445 1.55702E+01
 -1       446 8.78423E+00
 -1       447 9.06522E-01
 -1       448 9.62543E+00
 -1       449 1.13947E+01
 -1       450 1.05416E+01
 -1       451 8.71235E+00
 -1       452 6.87248E+00
 -1       453 1.11505E+01
 -1       454 1.95571E+01
 -1       455 3.40659E+01
 -1       456 3.68214E+01
 -1       457 3.68214E+01
 -1       458 2.45124E+01
 -1       459 2.38813E+01
 -1       460 1.34977E+01
 -1       461 7.71304E+00
 -1       462 7.60102E+00
 -1       463 1.08252E+01
 -1       464 1.00709E+01
 -1       465 9.69501E+00
 -1       466 7.97842E+00
 -1       467 6.76446E+00
 -1       468 1.09370E+01
 -1       469 1.88961E+01
 -1       470 3.20001E+01
 -1       471 3.18212E+01
 -1       472 7.70210E+00
 -1       473 3.08993E+01
 -1       474 1.45650E+01
 -1       475 1.05989E+00
 -1       476 4.81324E-01
 -1       477 5.06160E-01
 -1       478 4.25865E-01
 -1       479 4.51896E-01
 -1       480 4.81745E-01
 -1       481 5.06275E-01
 -1       482 5.06275E-01
 -1       483 5.93158E-01
 -1       484 9.02169E-01
 -1       485 7.96810E-01
 -1       486 5.02852E+00
 -1       487 7.09332E-01
 -1       488 5.92026E-01
 -1       489 4.73365E-01
 -1       490 3.93921E-01
 -1       491 3.44169E-01
 -1       492 2.89536E-01
 -1       493 2.33070E-01
 -1       494 1.84344E-01
 -1       495 2.15430E-01
 -1       496 2.71837E-01
 -1       497 3.91813E-01
 -1       498 5.25972E-01
 -1       499 6.71454E-01
 -1       500 8.20618E-01
 -1       501 9.58887E-01
 -1       502 1.06275E+00
 -1       503 1.23301E+00
 -1       504 1.41530E+00
 -1       505 1.53001E+00
 -1       506 1.75891E+00
 -1       507 1.95645E+00
 -1       508 2.23980E+00
 -1       509 2.90501E+00
 -1       510 4.81338E+00
 -1       511 3.34554E+00
 -1       512 2.46500E+00
 -1       513 1.84258E+00
 -1       514 1.82241E+00
 -1       515 1.73596E+00
 -1       516 1.35346E+00
 -1       517 1.27058E+00
 -1       518 1.12967E+00
 -1       519 1.08370E+00
 -1       520 9.78689E-01
 -1       521 8.38585E-01
 -1       522 6.89817E-01
 -1       523 5.52349E-01
 -1       524 4.29945E-01
 -1       525 3.25632E-01
 -1       526 2.39751E-01
 -1       527 1.71861E-01
 -1       528 1.21766E-01
 -1       529 8.31196E-02
 -1       530 1.94836E+01
 -1       531 5.48986E-01
 -1       532 4.68790E-01
 -1       533 4.04061E-01
 -1       534 3.40101E-01
 -1       535 2.79062E-01
 -1       536 2.20813E-01
 -1       537 2.30635E-01
 -1       538 2.63124E-01
 -1       539 3.29552E-01
 -1       540 4.37028E-01
 -1       541 5.43606E-01
 -1       542 6.38265E-01
 -1       543 7.20086E-01
 -1       544 7.78669E-01
 -1       545 8.38763E-01
 -1       546 8.39405E-01
 -1       547 8.29488E-01
 -1       548 9.58875E-01
 -1       549 1.11212E+00
 -1       550 1.43461E+00
 -1       551 1.69831E+00
 -1       552 2.23385E+00
 -1       553 1.88316E+00
 -1       554 2.01903E+00
 -1       555 1.59210E+00
 -1       556 1.30471E+00
 -1       557 9.70112E-01
 -1       558 9.24029E-01
 -1       559 7.93596E-01
 -1       560 8.55319E-01
 -1       561 8.30050E-01
 -1       562 7.60250E-01
 -1       563 6.98756E-01
 -1       564 6.23239E-01
 -1       565 5.30293E-01
 -1       566 4.32885E-01
 -1       567 3.40739E-01
 -1       568 2.59150E-01
 -1       569 1.90426E-01
 -1       570 1.33369E-01
 -1       571 9.05365E-02
 -1       572 6.45698E-02
 -1       573 6.14410E-02
 -1       574 7.32163E-02
 -1       575 7.31027E-02
 -1       576 7.47308E-02
 -1       577 7.52110E-02
 -1       578 7.52110E-02
 -1       579 7.49962E-02
 -1       580 7.46567E-02
 -1       581 6.40154E-02
 -1       582 7.09201E-02
 -1       583 6.71559E-02
 -1       584 1.01697E+01
 -1       585 7.12233E-01
 -1       586 5.47202E+00
 -1       587 2.21914E+01
 -1       588 5.51771E+00
 -1       589 7.93304E+00
 -1       590 4.51887E-01
 -1       591 7.53643E+00
 -1       592 9.34126E+00
 -1       593 6.86352E+00
 -1       594 6.59464E+00
 -1       595 4.22989E+00
 -1       596 7.05219E+00
 -1       597 9.08520E+00
 -1       598 1.45765E+01
 -1       599 2.25166E+01
 -1       600 3.68214E+01
 -1       601 2.45124E+01
 -1       602 1.86228E+01
 -1       603 1.32153E+01
 -1       604 6.53857E+00
 -1       605 3.62292E+00
 -1       606 5.43572E+00
 -1       607 8.06595E+00
 -1       608 6.39905E+00
 -1       609 3.66680E+00
 -1       610 1.30395E+01
 -1       611 3.18212E+01
 -1       612 8.76660E-01
 -1       613 1.32498E+00
 -1       614 7.11226E+00
 -1       615 5.06160E-01
 -1       616 1.84012E+01
 -1       617 5.48037E-02
 -1       618 6.50790E+00
 -1       619 6.35744E+00
 -1       620 5.68282E+00
 -1       621 4.59675E-01
 -1       622 3.54897E-01
 -1       623 3.38253E-01
 -1       624 3.59562E-01
 -1       625 3.36996E-01
 -1       626 5.36789E-01
 -1       627 1.19624E-01
 -1       628 5.17456E-01
 -1       629 3.96137E-01
 -1       630 3.76019E-01
 -1       631 3.25058E-01
 -1       632 2.60944E-01
 -1       633 2.22997E-01
 -1       634 1.77765E-01
 -1       635 1.23893E-01
 -1       636 1.20734E-01
 -1       637 1.92947E-01
 -1       638 2.95529E-01
 -1       639 4.14797E-01
 -1       640 5.53230E-01
 -1       641 7.12913E-01
 -1       642 8.94554E-01
 -1       643 1.09517E+00
 -1       644 1.30273E+00
 -1       645 1.55326E+00
 -1       646 2.00196E+00
 -1       647 2.40671E+00
 -1       648 2.93291E+00
 -1       649 2.64495E+00
 -1       650 3.62292E+00
 -1       651 3.34554E+00
 -1       652 2.25300E+00
 -1       653 2.76127E+00
 -1       654 2.80113E+00
 -1       655 2.16477E+00
 -1       656 1.82164E+00
 -1       657 1.47220E+00
 -1       658 1.19969E+00
 -1       659 1.03820E+00
 -1       660 8.70348E-01
 -1       661 7.12616E-01
 -1       662 5.72045E-01
 -1       663 4.50807E-01
 -1       664 3.48720E-01
 -1       665 2.64454E-01
 -1       666 1.96239E-01
 -1       667 1.42556E-01
 -1       668 1.03726E-01
 -1       669 3.84227E-01
 -1       670 2.25623E-01
 -1       671 1.72221E-01
 -1       672 1.46200E-01
 -1       673 1.70520E-01
 -1       674 2.61030E-01
 -1       675 3.63570E-01
 -1       676 4.73432E-01
 -1       677 5.86105E-01
 -1       678 6.93050E-01
 -1       679 7.80214E-01
 -1       680 9.15972E-01
 -1       681 1.06337E+00
 -1       682 1.16879E+00
 -1       683 1.32969E+00
 -1       684 1.65660E+00
 -1       685 1.61271E+00
 -1       686 3.16298E+00
 -1       687 5.09709E+00
 -1       688 5.14832E+00
 -1       689 3.59599E+00
 -1       690 2.04752E+00
 -1       691 1.82655E+00
 -1       692 1.56984E+00
 -1       693 1.52784E+00
 -1       694 1.18737E+00
 -1       695 1.13230E+00
 -1       696 1.00594E+00
 -1       697 8.60782E-01
 -1       698 7.56257E-01
 -1       699 6.65691E-01
 -1       700 5.64235E-01
 -1       701 4.63057E-01
 -1       702 3.69304E-01
 -1       703 2.86671E-01
 -1       704 2.16547E-01
 -1       705 1.56563E-01
 -1       706 1.62160E-01
 -1       707 1.49919E+01
 -1       708 1.01223E-01
 -1       709 9.28851E-02
 -1       710 1.01984E-01
 -1       711 1.01223E-01
 -1       712 1.12661E+01
 -1       713 1.01984E-01
 -1       714 9.73882E-02
 -1       715 1.17006E-01
 -1       716 4.60449E-01
 -1       717 1.17006E-01
 -1       718 3.09608E+00
 -1       719 5.05781E+00
 -1       720 6.26398E+00
 -1       721 5.22485E+00
 -1       722 2.73555E-01
 -1       723 3.12689E-01
 -1       724 3.96498E-01
 -1       725 3.59562E-01
 -1       726 2.67526E+00
 -1       727 1.23635E+01
 -1       728 3.58366E-01
 -1       729 4.20155E+00
 -1       730 1.42356E+01
 -1       731 5.09709E+00
 -1       732 4.02743E+00
 -1       733 7.67500E+00
 -1       734 1.20922E+01
 -1       735 1.33278E+01
 -1       736 1.13152E+01
 -1       737 4.41728E+00
 -1       738 1.16903E+01
 -1       739 5.53055E+00
 -1       740 3.49729E+00
 -1       741 7.41881E+00
 -1       742 3.60658E-01
 -1       743 3.58366E-01
 -1       744 3.37873E-01
 -1       745 1.06124E+01
 -1       746 6.36711E+00
 -1       747 3.17841E+00
 -1       748 1.19967E+01
 -1       749 1.05047E+01
 -1       750 8.50321E+00
 -1       751 5.01058E+00
 -1       752 1.08609E+01
 -1       753 1.10351E-01
 -1       754 5.13023E+00
 -1       755 8.55719E+00
 -1       756 3.54115E-01
 -1       757 5.37045E+00
 -1       758 5.31994E+00
 -1       759 2.42935E-01
 -1       760 9.54042E+00
 -1       761 1.44644E-01
 -1       762 9.39259E+00
 -1       763 2.25110E-01
 -1       764 2.38446E-01
 -1       765 2.19286E-01
 -1       766 1.80298E-01
 -1       767 1.39668E-01
 -1       768 9.91637E-02
 -1       769 1.06010E-01
 -1       770 1.53236E-01
 -1       771 2.38532E-01
 -1       772 3.49813E-01
 -1       773 4.78855E-01
 -1       774 6.24906E-01
 -1       775 7.89413E-01
 -1       776 1.01151E+00
 -1       777 1.32804E+00
 -1       778 1.76233E+00
 -1       779 2.22983E+00
 -1       780 3.14502E+00
 -1       781 5.68225E+00
 -1       782 5.27342E+00
 -1       783 7.95827E+00
 -1       784 3.94002E+00
 -1       785 3.85422E+00
 -1       786 3.03566E+00
 -1       787 2.17223E+00
 -1       788 1.79174E+00
 -1       789 1.40440E+00
 -1       790 1.08619E+00
 -1       791 8.53011E-01
 -1       792 6.65713E-01
 -1       793 5.25868E-01
 -1       794 4.04955E-01
 -1       795 3.04561E-01
 -1       796 2.27129E-01
 -1       797 1.65580E-01
 -1       798 1.23236E-01
 -1       799 1.85671E-01
 -1       800 2.77550E-01
 -1       801 3.83945E-01
 -1       802 5.09631E-01
 -1       803 6.48112E-01
 -1       804 8.00833E-01
 -1       805 9.63666E-01
 -1       806 1.14899E+00
 -1       807 1.46291E+00
 -1       808 1.78613E+00
 -1       809 2.02823E+00
 -1       810 3.08678E+00
 -1       811 3.16298E+00
 -1       812 2.67526E+00
 -1       813 2.13222E+00
 -1       814 2.38096E+00
 -1       815 1.97368E+00
 -1       816 1.66522E+00
 -1       817 1.34239E+00
 -1       818 1.06841E+00
 -1       819 9.17054E-01
 -1       820 7.62043E-01
 -1       821 6.23771E-01
 -1       822 4.99007E-01
 -1       823 3.90256E-01
 -1       824 3.01336E-01
 -1       825 2.28839E-01
 -1       826 1.68467E-01
 -1       827 1.28649E-01
 -1       828 1.56301E-01
 -1       829 1.47223E-01
 -1       830 4.51289E+00
 -1       831 1.66180E-01
 -1       832 2.61551E-01
 -1       833 1.56301E-01
 -1       834 1.08920E-01
 -1       835 7.66186E-02
 -1       836 2.55206E-01
 -1       837 6.55961E+00
 -1       838 9.79233E+00
 -1       839 2.12953E-01
 -1       840 2.67696E-01
 -1       841 5.25769E+00
 -1       842 2.76347E-01
 -1       843 2.83466E-01
 -1       844 8.74222E+00
 -1       845 2.74788E-01
 -1       846 3.51445E+00
 -1       847 2.76606E-01
 -1       848 7.92757E+00
 -1       849 2.91794E-01
 -1       850 2.83466E-01
 -1       851 6.33209E+00
 -1       852 6.06191E+00
 -1       853 5.14832E+00
 -1       854 5.68225E+00
 -1       855 1.28649E-01
 -1       856 1.62160E-01
 -1       857 1.62160E-01
 -1       858 1.28360E-01
 -1       859 1.17640E-01
 -1       860 2.86610E+00
 -1       861 2.65811E-01
 -1       862 4.56603E+00
 -1       863 2.83858E-01
 -1       864 2.79949E-01
 -1       865 6.05689E+00
 -1       866 6.37120E+00
 -1       867 1.30866E-01
 -1       868 1.53268E-01
 -1       869 1.48035E-01
 -1       870 1.23189E-01
 -1       871 1.18327E-01
 -1       872 1.36383E-01
 -1       873 1.55485E-01
 -1       874 2.26616E-01
 -1       875 3.29470E-01
 -1       876 4.54175E-01
 -1       877 6.05579E-01
 -1       878 7.89413E-01
 -1       879 1.01151E+00
 -1       880 1.27440E+00
 -1       881 1.71969E+00
 -1       882 2.51394E+00
 -1       883 3.78399E+00
 -1       884 4.94755E+00
 -1       885 4.67134E-01
 -1       886 4.25760E+00
 -1       887 2.19705E+00
 -1       888 1.80738E+00
 -1       889 1.34605E+00
 -1       890 1.05477E+00
 -1       891 8.44585E-01
 -1       892 6.65713E-01
 -1       893 5.17311E-01
 -1       894 3.95962E-01
 -1       895 2.98078E-01
 -1       896 2.20950E-01
 -1       897 3.58912E-01
 -1       898 2.60701E-01
 -1       899 5.92179E-01
 -1       900 7.50754E-01
 -1       901 9.69638E-01
 -1       902 1.28026E+00
 -1       903 1.64554E+00
 -1       904 2.06416E+00
 -1       905 2.76630E+00
 -1       906 5.25929E+00
 -1       907 2.69054E+00
 -1       908 1.85578E+00
 -1       909 1.49686E+00
 -1       910 1.17419E+00
 -1       911 8.89729E-01
 -1       912 7.04290E-01
 -1       913 5.63422E-01
 -1       914 4.59224E-01
 -1       915 3.64072E-01
 -1       916 2.81123E-01
 -1       917 2.11667E-01
 -1       918 9.11460E+00
 -1       919 1.88084E-01
 -1       920 6.19788E+00
 -1       921 1.14847E-01
 -1       922 2.83858E-01
 -1       923 1.76478E-01
 -1       924 1.74937E-01
 -1       925 3.68335E+00
 -1       926 1.45998E-01
 -1       927 2.79971E+00
 -1       928 6.42508E+00
 -1       929 6.37120E+00
 -1       930 1.64964E-01
 -1       931 7.86893E+00
 -1       932 1.86864E-01
 -1       933 6.26703E+00
 -1       934 5.66235E+00
 -1       935 1.13672E-01
 -1       936 4.25075E+00
 -1       937 2.09101E-01
 -1       938 1.64337E-01
 -1       939 2.27067E-01
 -1       940 1.65208E-01
 -1       941 4.42210E+00
 -1       942 1.64337E-01
 -1       943 1.65208E-01
 -1       944 1.43305E-01
 -1       945 2.09101E-01
 -1       946 2.09118E-01
 -1       947 1.24788E-01
 -1       948 3.11854E+00
 -1       949 6.51437E+00
 -1       950 3.98551E+00
 -1       951 2.27067E-01
 -1       952 8.08505E-02
 -1       953 2.00358E-01
 -1       954 1.03065E-01
 -1       955 1.04931E-01
 -1       956 1.21647E-01
 -1       957 1.47592E-01
 -1       958 1.72725E-01
 -1       959 2.03157E-01
 -1       960 2.82043E-01
 -1       961 3.88962E-01
 -1       962 5.24250E-01
 -1       963 6.99569E-01
 -1       964 9.33629E-01
 -1       965 1.25638E+00
 -1       966 1.71969E+00
 -1       967 2.33095E+00
 -1       968 3.30144E+00
 -1       969 3.78399E+00
 -1       970 5.92179E-01
 -1       971 2.11445E+00
 -1       972 1.80738E+00
 -1       973 1.34605E+00
 -1       974 1.01677E+00
 -1       975 7.73591E-01
 -1       976 5.90889E-01
 -1       977 4.50740E-01
 -1       978 3.41776E-01
 -1       979 2.69857E-01
 -1       980 4.56957E-01
 -1       981 3.42884E-01
 -1       982 1.21156E-01
 -1       983 9.36137E-01
 -1       984 1.22749E+00
 -1       985 1.71841E+00
 -1       986 2.23644E+00
 -1       987 3.72171E+00
 -1       988 1.09063E-01
 -1       989 1.99132E-01
 -1       990 1.63115E+00
 -1       991 4.90464E+00
 -1       992 1.11848E+00
 -1       993 8.70451E-01
 -1       994 7.04290E-01
 -1       995 5.60192E-01
 -1       996 4.39534E-01
 -1       997 3.39891E-01
 -1       998 2.59046E-01
 -1       999 1.33627E-01
 -1      1000 4.59548E+00
 -1      1001 4.11850E+00
 -1      1002 1.52738E-01
 -1      1003 4.01314E+00
 -1      1004 2.09118E-01
 -1      1005 2.47021E-01
 -1      1006 2.86140E+00
 -1      1007 7.50754E-01
 -1      1008 1.23985E-01
 -1      1009 4.59548E+00
 -1      1010 6.51437E+00
 -1      1011 4.88394E+00
 -1      1012 1.39369E-01
 -1      1013 1.76982E-01
 -1      1014 1.28399E-01
 -1      1015 3.89935E+00
 -1      1016 2.19973E-01
 -1      1017 2.54622E-01
 -1      1018 2.02187E-01
 -1      1019 1.99942E-01
 -1      1020 1.91642E-01
 -1      1021 1.40146E-01
 -1      1022 2.17968E+00
 -1      1023 1.40146E-01
 -1      1024 2.19973E-01
 -1      1025 4.88394E+00
 -1      1026 2.11445E+00
 -1      1027 9.43296E-02
 -1      1028 1.24334E-01
 -1      1029 1.48593E-01
 -1      1030 1.74574E-01
 -1      1031 2.03157E-01
 -1      1032 2.51927E-01
 -1      1033 3.12031E-01
 -1      1034 4.00339E-01
 -1      1035 5.34528E-01
 -1      1036 7.21000E-01
 -1      1037 9.93756E-01
 -1      1038 1.42878E+00
 -1      1039 1.79296E+00
 -1      1040 2.09958E+00
 -1      1041 1.62111E+00
 -1      1042 1.12703E+00
 -1      1043 8.18863E-01
 -1      1044 6.09878E-01
 -1      1045 4.60452E-01
 -1      1046 3.50168E-01
 -1      1047 2.70243E-01
 -1      1048 5.34483E-01
 -1      1049 4.01659E-01
 -1      1050 7.06893E-01
 -1      1051 1.22749E+00
 -1      1052 1.13545E-01
 -1      1053 8.52262E-01
 -1      1054 9.60426E-02
 -1      1055 1.11848E+00
 -1      1056 1.55840E+00
 -1      1057 6.47884E-01
 -1      1058 4.94705E-01
 -1      1059 3.78017E-01
 -1      1060 2.85901E-01
 -1      1061 1.33032E-01
 -1      1062 2.19164E-01
 -1      1063 4.90464E+00
 -1      1064 2.84823E+00
 -1      1065 4.90464E+00
 -1      1066 2.97183E-01
 -1      1067 3.39265E+00
 -1      1068 3.01512E+00
 -1      1069 9.36137E-01
 -1      1070 1.51009E-01
 -1      1071 4.44657E+00
 -1      1072 2.38833E+00
 -1      1073 7.46670E-02
 -1      1074 8.89692E-02
 -1      1075 2.73495E-01
 -1      1076 1.30315E-01
 -1      1077 2.24995E-01
 -1      1078 3.40109E+00
 -1      1079 7.48356E-02
 -1      1080 2.19973E-01
 -1      1081 7.84220E-02
 -1      1082 2.58187E-01
 -1      1083 1.07603E+00
 -1      1084 1.48593E-01
 -1      1085 1.74574E-01
 -1      1086 1.98068E-01
 -1      1087 2.48403E-01
 -1      1088 3.08057E-01
 -1      1089 3.80959E-01
 -1      1090 4.76913E-01
 -1      1091 6.07348E-01
 -1      1092 7.93438E-01
 -1      1093 1.11390E+00
 -1      1094 2.02125E+00
 -1      1095 3.06022E+00
 -1      1096 1.16275E-01
 -1      1097 2.87891E+00
 -1      1098 7.84220E-02
 -1      1099 1.16516E+00
 -1      1100 8.31071E-01
 -1      1101 6.23022E-01
 -1      1102 4.75709E-01
 -1      1103 4.12142E-01
 -1      1104 4.20313E-01
 -1      1105 2.28582E+00
 -1      1106 7.74237E-01
 -1      1107 2.50178E+00
 -1      1108 9.45880E-01
 -1      1109 1.23397E+00
 -1      1110 3.82571E-01
 -1      1111 2.85726E-01
 -1      1112 4.44657E+00
 -1      1113 3.35174E-01
 -1      1114 1.82476E+00
 -1      1115 5.66942E-01
 -1      1116 5.08228E-01
 -1      1117 2.21864E-01
 -1      1118 1.78704E+00
 -1      1119 2.97622E+00
 -1      1120 6.88301E-01
 -1      1121 1.87560E-01
 -1      1122 1.51009E-01
 -1      1123 2.73495E-01
 -1      1124 1.03343E-01
 -1      1125 7.12086E-02
 -1      1126 2.56133E-01
 -1      1127 1.34674E-01
 -1      1128 2.33320E+00
 -1      1129 7.12086E-02
 -1      1130 4.12142E-01
 -1      1131 1.45748E-01
 -1      1132 1.87560E-01
 -1      1133 2.73495E-01
 -1      1134 1.82476E+00
 -1      1135 7.07551E-01
 -1      1136 4.53653E-01
 -1      1137 9.58497E-01
 -1      1138 1.79110E+00
 -1      1139 5.06201E-01
 -1      1140 1.31489E+01
 -1      1141 8.39771E+00
 -1      1142 2.72842E+00
 -1      1143 1.54602E+00
 -1      1144 1.15902E+00
 -1      1145 9.64658E-01
 -1      1146 8.47561E-01
 -1      1147 7.75327E-01
 -1      1148 7.49493E-01
 -1      1149 7.78397E-01
 -1      1150 8.50135E-01
 -1      1151 9.69528E-01
 -1      1152 1.17222E+00
 -1      1153 1.55929E+00
 -1      1154 2.65373E+00
 -1      1155 6.06118E+00
 -1      1156 1.13395E+01
 -1      1157 1.31489E+01
 -1      1158 8.74325E+00
 -1      1159 3.85058E+00
 -1      1160 2.74994E+00
 -1      1161 1.76338E+00
 -1      1162 1.22500E+00
 -1      1163 9.45777E-01
 -1      1164 7.48914E-01
 -1      1165 6.03593E-01
 -1      1166 4.94870E-01
 -1      1167 4.14244E-01
 -1      1168 3.62800E-01
 -1      1169 3.71375E-01
 -1      1170 4.30460E-01
 -1      1171 5.02610E-01
 -1      1172 5.82429E-01
 -1      1173 6.82734E-01
 -1      1174 8.41891E-01
 -1      1175 1.06156E+00
 -1      1176 1.30132E+00
 -1      1177 1.49024E+00
 -1      1178 1.55935E+00
 -1      1179 1.56347E+00
 -1      1180 1.56759E+00
 -1      1181 1.80465E+00
 -1      1182 2.86135E+00
 -1      1183 4.09836E+00
 -1      1184 4.51574E+00
 -1      1185 4.50925E+00
 -1      1186 4.24019E+00
 -1      1187 3.16957E+00
 -1      1188 2.02779E+00
 -1      1189 1.61291E+00
 -1      1190 1.54351E+00
 -1      1191 1.55525E+00
 -1      1192 1.50432E+00
 -1      1193 1.33910E+00
 -1      1194 1.10006E+00
 -1      1195 8.74675E-01
 -1      1196 6.90705E-01
 -1      1197 5.61182E-01
 -1      1198 4.68218E-01
 -1      1199 3.78402E-01
 -1      1200 2.97908E-01
 -1      1201 2.28932E-01
 -1      1202 1.74880E-01
 -1      1203 1.42278E-01
 -1      1204 1.17684E-01
 -1      1205 7.90253E-02
 -1      1206 3.53298E-02
 -1      1207 1.40449E+01
 -1      1208 8.72863E+00
 -1      1209 2.92296E+00
 -1      1210 2.06147E+00
 -1      1211 1.43075E+00
 -1      1212 1.06267E+00
 -1      1213 8.72991E-01
 -1      1214 7.29960E-01
 -1      1215 6.18280E-01
 -1      1216 5.32501E-01
 -1      1217 4.69265E-01
 -1      1218 4.25514E-01
 -1      1219 3.97506E-01
 -1      1220 4.06777E-01
 -1      1221 4.54697E-01
 -1      1222 5.08468E-01
 -1      1223 5.50279E-01
 -1      1224 5.71930E-01
 -1      1225 6.41166E-01
 -1      1226 7.88610E-01
 -1      1227 9.21873E-01
 -1      1228 1.06996E+00
 -1      1229 1.25542E+00
 -1      1230 1.37092E+00
 -1      1231 1.54390E+00
 -1      1232 1.99783E+00
 -1      1233 2.64220E+00
 -1      1234 3.14596E+00
 -1      1235 3.33374E+00
 -1      1236 3.35254E+00
 -1      1237 2.93102E+00
 -1      1238 1.98385E+00
 -1      1239 1.23492E+00
 -1      1240 1.00126E+00
 -1      1241 1.05998E+00
 -1      1242 1.12907E+00
 -1      1243 1.11172E+00
 -1      1244 1.03020E+00
 -1      1245 8.90398E-01
 -1      1246 7.43460E-01
 -1      1247 6.01216E-01
 -1      1248 4.65951E-01
 -1      1249 3.55556E-01
 -1      1250 2.77506E-01
 -1      1251 2.17383E-01
 -1      1252 1.64903E-01
 -1      1253 1.18970E-01
 -1      1254 8.56708E-02
 -1      1255 5.87010E-02
 -1      1256 2.84101E-02
 -1      1257 1.54378E-02
 -1      1258 1.78678E-02
 -1      1259 1.82398E-02
 -1      1260 1.49915E-02
 -1      1261 9.37023E-03
 -1      1262 1.03033E-02
 -1      1263 1.58123E-02
 -1      1264 1.87231E-02
 -1      1265 1.94308E-02
 -1      1266 1.87954E-02
 -1      1267 1.59307E-02
 -1      1268 1.05246E-02
 -1      1269 9.75941E-03
 -1      1270 1.52963E-02
 -1      1271 2.10157E-02
 -1      1272 2.44882E-02
 -1      1273 2.05754E-02
 -1      1274 2.67144E+01
 -1      1275 3.64308E+01
 -1      1276 4.61472E+01
 -1      1277 3.23922E+01
 -1      1278 1.54333E+01
 -1      1279 1.24357E+01
 -1      1280 1.26420E+01
 -1      1281 1.24784E+01
 -1      1282 1.23149E+01
 -1      1283 1.23015E+01
 -1      1284 1.90521E+01
 -1      1285 2.79090E+01
 -1      1286 3.00020E+01
 -1      1287 2.75942E+01
 -1      1288 2.52189E+01
 -1      1289 2.52516E+01
 -1      1290 3.34031E+01
 -1      1291 4.15547E+01
 -1      1292 2.85194E+01
 -1      1293 1.44327E+01
 -1      1294 1.33813E+01
 -1      1295 1.28413E+01
 -1      1296 1.24594E+01
 -1      1297 1.26175E+01
 -1      1298 1.23084E+01
 -1      1299 1.92490E+01
 -1      1300 2.75486E+01
 -1      1301 2.85986E+01
 -1      1302 2.67654E+01
 -1      1303 2.58234E+01
 -1      1304 1.31489E+01
 -1      1305 4.85167E+00
 -1      1306 9.60285E+00
 -1      1307 2.04753E+00
 -1      1308 2.96564E+00
 -1      1309 4.17078E+00
 -1      1310 1.38975E+00
 -1      1311 1.65404E+00
 -1      1312 1.89126E+00
 -1      1313 1.09386E+00
 -1      1314 1.21658E+00
 -1      1315 1.32460E+00
 -1      1316 9.29473E-01
 -1      1317 1.00112E+00
 -1      1318 1.05868E+00
 -1      1319 8.30325E-01
 -1      1320 8.75775E-01
 -1      1321 9.12237E-01
 -1      1322 7.69441E-01
 -1      1323 7.96224E-01
 -1      1324 8.24439E-01
 -1      1325 7.50442E-01
 -1      1326 7.49493E-01
 -1      1327 7.70390E-01
 -1      1328 8.00027E-01
 -1      1329 7.72072E-01
 -1      1330 7.72072E-01
 -1      1331 8.77664E-01
 -1      1332 8.33881E-01
 -1      1333 8.27556E-01
 -1      1334 1.00999E+00
 -1      1335 9.34375E-01
 -1      1336 9.18121E-01
 -1      1337 1.23247E+00
 -1      1338 1.10538E+00
 -1      1339 1.07023E+00
 -1      1340 1.66935E+00
 -1      1341 1.40937E+00
 -1      1342 1.34253E+00
 -1      1343 2.86969E+00
 -1      1344 2.03523E+00
 -1      1345 1.88531E+00
 -1      1346 6.27625E+00
 -1      1347 3.70326E+00
 -1      1348 3.08476E+00
 -1      1349 1.40449E+01
 -1      1350 1.13395E+01
 -1      1351 8.98161E+00
 -1      1352 1.40449E+01
 -1      1353 8.74325E+00
 -1      1354 4.33761E+00
 -1      1355 3.85058E+00
 -1      1356 3.36356E+00
 -1      1357 3.85058E+00
 -1      1358 2.74994E+00
 -1      1359 2.13633E+00
 -1      1360 2.74994E+00
 -1      1361 1.80224E+00
 -1      1362 1.42930E+00
 -1      1363 1.80224E+00
 -1      1364 1.22500E+00
 -1      1365 1.05956E+00
 -1      1366 1.26385E+00
 -1      1367 9.45777E-01
 -1      1368 8.31996E-01
 -1      1369 9.45777E-01
 -1      1370 7.48914E-01
 -1      1371 6.65831E-01
 -1      1372 7.48914E-01
 -1      1373 6.03593E-01
 -1      1374 5.41354E-01
 -1      1375 6.03593E-01
 -1      1376 4.94870E-01
 -1      1377 4.48385E-01
 -1      1378 4.94870E-01
 -1      1379 4.14244E-01
 -1      1380 3.80103E-01
 -1      1381 4.14244E-01
 -1      1382 3.55332E-01
 -1      1383 3.38029E-01
 -1      1384 3.55332E-01
 -1      1385 3.45498E-01
 -1      1386 3.71375E-01
 -1      1387 3.38029E-01
 -1      1388 3.97253E-01
 -1      1389 4.30460E-01
 -1      1390 3.71375E-01
 -1      1391 4.63667E-01
 -1      1392 5.02610E-01
 -1      1393 4.30460E-01
 -1      1394 5.41553E-01
 -1      1395 5.82429E-01
 -1      1396 5.02610E-01
 -1      1397 6.59176E-01
 -1      1398 7.18604E-01
 -1      1399 6.18299E-01
 -1      1400 7.97090E-01
 -1      1401 8.96818E-01
 -1      1402 7.73531E-01
 -1      1403 9.65510E-01
 -1      1404 1.08545E+00
 -1      1405 9.20709E-01
 -1      1406 1.18150E+00
 -1      1407 1.30132E+00
 -1      1408 1.08545E+00
 -1      1409 1.42113E+00
 -1      1410 1.49024E+00
 -1      1411 1.30132E+00
 -1      1412 1.55935E+00
 -1      1413 1.55935E+00
 -1      1414 1.49024E+00
 -1      1415 1.51623E+00
 -1      1416 1.52035E+00
 -1      1417 1.51623E+00
 -1      1418 1.56759E+00
 -1      1419 1.56759E+00
 -1      1420 1.52035E+00
 -1      1421 1.56016E+00
 -1      1422 1.79721E+00
 -1      1423 1.56016E+00
 -1      1424 2.13862E+00
 -1      1425 2.95826E+00
 -1      1426 1.89413E+00
 -1      1427 3.68099E+00
 -1      1428 4.09836E+00
 -1      1429 2.95826E+00
 -1      1430 4.51574E+00
 -1      1431 4.51574E+00
 -1      1432 4.09836E+00
 -1      1433 4.50925E+00
 -1      1434 4.50276E+00
 -1      1435 4.50925E+00
 -1      1436 4.24019E+00
 -1      1437 3.97763E+00
 -1      1438 4.24019E+00
 -1      1439 3.22257E+00
 -1      1440 2.41451E+00
 -1      1441 3.22257E+00
 -1      1442 2.02779E+00
 -1      1443 1.69407E+00
 -1      1444 2.08079E+00
 -1      1445 1.61291E+00
 -1      1446 1.53176E+00
 -1      1447 1.61291E+00
 -1      1448 1.52477E+00
 -1      1449 1.53652E+00
 -1      1450 1.52477E+00
 -1      1451 1.55525E+00
 -1      1452 1.55525E+00
 -1      1453 1.53652E+00
 -1      1454 1.50432E+00
 -1      1455 1.45339E+00
 -1      1456 1.50432E+00
 -1      1457 1.33910E+00
 -1      1458 1.22481E+00
 -1      1459 1.33910E+00
 -1      1460 1.12387E+00
 -1      1461 9.99129E-01
 -1      1462 1.12387E+00
 -1      1463 9.29820E-01
 -1      1464 8.29176E-01
 -1      1465 9.53629E-01
 -1      1466 7.53601E-01
 -1      1467 6.70276E-01
 -1      1468 8.08746E-01
 -1      1469 5.93573E-01
 -1      1470 5.47376E-01
 -1      1471 6.56470E-01
 -1      1472 4.77469E-01
 -1      1473 4.30702E-01
 -1      1474 5.09860E-01
 -1      1475 3.78402E-01
 -1      1476 3.35352E-01
 -1      1477 3.87652E-01
 -1      1478 2.97908E-01
 -1      1479 2.60465E-01
 -1      1480 2.97908E-01
 -1      1481 2.31708E-01
 -1      1482 2.00176E-01
 -1      1483 2.31708E-01
 -1      1484 1.75873E-01
 -1      1485 1.53354E-01
 -1      1486 1.78650E-01
 -1      1487 1.42278E-01
 -1      1488 1.32194E-01
 -1      1489 1.43271E-01
 -1      1490 1.17684E-01
 -1      1491 1.03175E-01
 -1      1492 1.17684E-01
 -1      1493 8.05949E-02
 -1      1494 5.64450E-02
 -1      1495 8.05949E-02
 -1      1496 4.01210E-02
 -1      1497 4.16906E-02
 -1      1498 3.41237E+00
 -1      1499 8.72863E+00
 -1      1500 8.72863E+00
 -1      1501 2.43355E+00
 -1      1502 2.92296E+00
 -1      1503 2.92296E+00
 -1      1504 1.68938E+00
 -1      1505 2.06147E+00
 -1      1506 2.06147E+00
 -1      1507 1.17212E+00
 -1      1508 1.43075E+00
 -1      1509 1.43075E+00
 -1      1510 9.53228E-01
 -1      1511 1.06267E+00
 -1      1512 1.06267E+00
 -1      1513 7.92755E-01
 -1      1514 8.72991E-01
 -1      1515 8.72991E-01
 -1      1516 6.67165E-01
 -1      1517 7.29960E-01
 -1      1518 7.29960E-01
 -1      1519 5.69394E-01
 -1      1520 6.18280E-01
 -1      1521 6.18280E-01
 -1      1522 4.95608E-01
 -1      1523 5.32501E-01
 -1      1524 5.32501E-01
 -1      1525 4.42922E-01
 -1      1526 4.69265E-01
 -1      1527 4.69265E-01
 -1      1528 4.08105E-01
 -1      1529 4.25514E-01
 -1      1530 4.25514E-01
 -1      1531 3.86907E-01
 -1      1532 3.97506E-01
 -1      1533 3.97506E-01
 -1      1534 4.00854E-01
 -1      1535 3.80985E-01
 -1      1536 3.80985E-01
 -1      1537 4.54697E-01
 -1      1538 4.26646E-01
 -1      1539 4.00854E-01
 -1      1540 5.08468E-01
 -1      1541 4.82747E-01
 -1      1542 4.54697E-01
 -1      1543 5.50279E-01
 -1      1544 5.34188E-01
 -1      1545 5.08468E-01
 -1      1546 5.71930E-01
 -1      1547 5.66370E-01
 -1      1548 5.50279E-01
 -1      1549 6.55213E-01
 -1      1550 5.91537E-01
 -1      1551 5.85977E-01
 -1      1552 7.92858E-01
 -1      1553 7.09090E-01
 -1      1554 6.59461E-01
 -1      1555 9.21873E-01
 -1      1556 8.72378E-01
 -1      1557 7.92858E-01
 -1      1558 1.06996E+00
 -1      1559 9.71369E-01
 -1      1560 9.21873E-01
 -1      1561 1.25542E+00
 -1      1562 1.16855E+00
 -1      1563 1.06996E+00
 -1      1564 1.37092E+00
 -1      1565 1.34228E+00
 -1      1566 1.25542E+00
 -1      1567 1.54390E+00
 -1      1568 1.39956E+00
 -1      1569 1.37092E+00
 -1      1570 1.99783E+00
 -1      1571 1.68824E+00
 -1      1572 1.54390E+00
 -1      1573 2.64220E+00
 -1      1574 2.30742E+00
 -1      1575 1.99783E+00
 -1      1576 3.14596E+00
 -1      1577 2.97698E+00
 -1      1578 2.64220E+00
 -1      1579 3.33374E+00
 -1      1580 3.31494E+00
 -1      1581 3.14596E+00
 -1      1582 3.35254E+00
 -1      1583 3.35254E+00
 -1      1584 3.33374E+00
 -1      1585 2.50950E+00
 -1      1586 2.93102E+00
 -1      1587 2.93102E+00
 -1      1588 1.45821E+00
 -1      1589 1.98385E+00
 -1      1590 1.98385E+00
 -1      1591 1.01163E+00
 -1      1592 1.23492E+00
 -1      1593 1.23492E+00
 -1      1594 9.64155E-01
 -1      1595 9.74525E-01
 -1      1596 9.74525E-01
 -1      1597 1.05998E+00
 -1      1598 9.90886E-01
 -1      1599 9.64155E-01
 -1      1600 1.12907E+00
 -1      1601 1.12907E+00
 -1      1602 1.05998E+00
 -1      1603 1.09438E+00
 -1      1604 1.11172E+00
 -1      1605 1.11172E+00
 -1      1606 9.66030E-01
 -1      1607 1.03020E+00
 -1      1608 1.03020E+00
 -1      1609 8.14767E-01
 -1      1610 8.90398E-01
 -1      1611 8.90398E-01
 -1      1612 6.74637E-01
 -1      1613 7.45945E-01
 -1      1614 7.45945E-01
 -1      1615 5.40166E-01
 -1      1616 6.11102E-01
 -1      1617 6.13587E-01
 -1      1618 4.15257E-01
 -1      1619 4.79585E-01
 -1      1620 4.89471E-01
 -1      1621 3.15524E-01
 -1      1622 3.61590E-01
 -1      1623 3.75225E-01
 -1      1624 2.45522E-01
 -1      1625 2.77506E-01
 -1      1626 2.83540E-01
 -1      1627 1.89245E-01
 -1      1628 2.17383E-01
 -1      1629 2.17383E-01
 -1      1630 1.40561E-01
 -1      1631 1.64903E-01
 -1      1632 1.64903E-01
 -1      1633 9.85893E-02
 -1      1634 1.20180E-01
 -1      1635 1.20180E-01
 -1      1636 7.39615E-02
 -1      1637 8.56708E-02
 -1      1638 8.68800E-02
 -1      1639 4.34405E-02
 -1      1640 5.87010E-02
 -1      1641 5.87010E-02
 -1      1642 3.04682E-02
 -1      1643 2.28772E-02
 -1      1644 2.25052E-02
 -1      1645 2.44397E-02
 -1      1646 2.44397E-02
 -1      1647 2.90771E-02
 -1      1648 2.11914E-02
 -1      1649 2.44397E-02
 -1      1650 3.06397E-02
 -1      1651 1.16268E-02
 -1      1652 1.39997E-02
 -1      1653 2.34480E-02
 -1      1654 1.95868E-02
 -1      1655 1.62808E-02
 -1      1656 2.09103E-02
 -1      1657 2.62887E-02
 -1      1658 2.40857E-02
 -1      1659 3.00632E-02
 -1      1660 2.89483E-02
 -1      1661 2.82405E-02
 -1      1662 3.65139E-02
 -1      1663 2.89914E-02
 -1      1664 2.89914E-02
 -1      1665 3.85089E-02
 -1      1666 2.83559E-02
 -1      1667 2.89914E-02
 -1      1668 3.85520E-02
 -1      1669 2.42958E-02
 -1      1670 2.65250E-02
 -1      1671 3.67211E-02
 -1      1672 1.68984E-02
 -1      1673 2.00753E-02
 -1      1674 3.06696E-02
 -1      1675 1.43908E-02
 -1      1676 1.19791E-02
 -1      1677 2.15298E-02
 -1      1678 2.50297E-02
 -1      1679 2.19044E-02
 -1      1680 2.41242E-02
 -1      1681 2.76238E-02
 -1      1682 2.50297E-02
 -1      1683 3.16378E-02
 -1      1684 3.09650E-02
 -1      1685 3.00866E-02
 -1      1686 3.41006E-02
 -1      1687 4.72890E-02
 -1      1688 2.91041E+01
 -1      1689 2.91041E+01
 -1      1690 3.67557E+01
 -1      1691 2.70393E+01
 -1      1692 4.61472E+01
 -1      1693 4.61472E+01
 -1      1694 1.91301E+01
 -1      1695 3.28850E+01
 -1      1696 1.13301E+01
 -1      1697 1.45341E+01
 -1      1698 1.24357E+01
 -1      1699 1.22293E+01
 -1      1700 1.26420E+01
 -1      1701 1.26420E+01
 -1      1702 1.19745E+01
 -1      1703 1.21381E+01
 -1      1704 1.23149E+01
 -1      1705 1.23149E+01
 -1      1706 1.20287E+01
 -1      1707 1.20420E+01
 -1      1708 1.90521E+01
 -1      1709 1.22881E+01
 -1      1710 2.90954E+01
 -1      1711 2.70024E+01
 -1      1712 3.20339E+01
 -1      1713 3.20339E+01
 -1      1714 2.96261E+01
 -1      1715 3.20339E+01
 -1      1716 2.77928E+01
 -1      1717 2.77602E+01
 -1      1718 2.77928E+01
 -1      1719 2.77928E+01
 -1      1720 3.90434E+01
 -1      1721 3.08918E+01
 -1      1722 4.15547E+01
 -1      1723 4.15547E+01
 -1      1724 1.54842E+01
 -1      1725 2.85194E+01
 -1      1726 1.22922E+01
 -1      1727 1.33436E+01
 -1      1728 1.33813E+01
 -1      1729 1.33813E+01
 -1      1730 1.23013E+01
 -1      1731 1.28413E+01
 -1      1732 1.22938E+01
 -1      1733 1.21357E+01
 -1      1734 1.26175E+01
 -1      1735 1.26175E+01
 -1      1736 1.16296E+01
 -1      1737 1.19387E+01
 -1      1738 1.92490E+01
 -1      1739 1.19993E+01
 -1      1740 2.85129E+01
 -1      1741 2.74630E+01
 -1      1742 3.02993E+01
 -1      1743 3.02993E+01
 -1      1744 2.84662E+01
 -1      1745 3.02993E+01
 -1      1746 2.91041E+01
 -1      1747 2.82131E+01
 -1      1748 1.50269E+01
 -1      1749 3.28850E+01
 -1      1750 3.04682E-02
 -1      1751 3.54775E-02
 -1      1752 2.94290E+01
 -1      1753 3.67557E+01
 -1      1754 3.14938E+01
 -1      1755 1.13301E+01
 -1      1756 1.24357E+01
 -1      1757 1.21381E+01
 -1      1758 1.19745E+01
 -1      1759 1.20420E+01
 -1      1760 1.20287E+01
 -1      1761 2.02385E+01
 -1      1762 3.11273E+01
 -1      1763 3.40659E+01
 -1      1764 3.21999E+01
 -1      1765 3.03340E+01
 -1      1766 3.34331E+01
 -1      1767 3.90434E+01
 -1      1768 2.85194E+01
 -1      1769 1.33436E+01
 -1      1770 1.22922E+01
 -1      1771 1.28413E+01
 -1      1772 1.21357E+01
 -1      1773 1.22938E+01
 -1      1774 1.19387E+01
 -1      1775 1.16296E+01
 -1      1776 2.02133E+01
 -1      1777 3.02137E+01
 -1      1778 3.20001E+01
 -1      1779 3.17469E+01
 -1      1780 9.60285E+00
 -1      1781 1.27699E+00
 -1      1782 1.67048E+00
 -1      1783 2.37301E+00
 -1      1784 4.25904E+00
 -1      1785 1.75874E+00
 -1      1786 8.74410E-01
 -1      1787 9.67152E-01
 -1      1788 7.73972E-01
 -1      1789 8.27669E-01
 -1      1790 7.36144E-01
 -1      1791 7.08338E-01
 -1      1792 7.42439E-01
 -1      1793 6.57871E-01
 -1      1794 6.66327E-01
 -1      1795 6.86275E-01
 -1      1796 6.04275E-01
 -1      1797 6.89520E-01
 -1      1798 6.67889E-01
 -1      1799 5.83775E-01
 -1      1800 7.45154E-01
 -1      1801 7.11300E-01
 -1      1802 6.07117E-01
 -1      1803 8.35139E-01
 -1      1804 7.78429E-01
 -1      1805 6.62172E-01
 -1      1806 9.78015E-01
 -1      1807 8.82619E-01
 -1      1808 7.42927E-01
 -1      1809 1.22242E+00
 -1      1810 1.04552E+00
 -1      1811 8.57910E-01
 -1      1812 1.69854E+00
 -1      1813 1.33266E+00
 -1      1814 1.03565E+00
 -1      1815 2.61583E+00
 -1      1816 1.78226E+00
 -1      1817 1.22961E+00
 -1      1818 8.12283E+00
 -1      1819 3.05955E+00
 -1      1820 1.75705E+00
 -1      1821 2.80657E+00
 -1      1822 5.19721E+00
 -1      1823 2.17293E+00
 -1      1824 2.66234E+00
 -1      1825 2.05654E+00
 -1      1826 3.39944E+00
 -1      1827 2.55438E+00
 -1      1828 1.94076E+00
 -1      1829 1.70993E+00
 -1      1830 1.37584E+00
 -1      1831 1.51437E+00
 -1      1832 1.19547E+00
 -1      1833 9.91173E-01
 -1      1834 1.10316E+00
 -1      1835 8.70903E-01
 -1      1836 7.57121E-01
 -1      1837 8.02517E-01
 -1      1838 7.06677E-01
 -1      1839 6.23594E-01
 -1      1840 6.31802E-01
 -1      1841 5.78521E-01
 -1      1842 5.16282E-01
 -1      1843 5.36284E-01
 -1      1844 4.76816E-01
 -1      1845 4.30331E-01
 -1      1846 4.51744E-01
 -1      1847 3.96306E-01
 -1      1848 3.62165E-01
 -1      1849 3.78252E-01
 -1      1850 3.32763E-01
 -1      1851 3.07992E-01
 -1      1852 3.14824E-01
 -1      1853 3.01877E-01
 -1      1854 3.09346E-01
 -1      1855 2.79308E-01
 -1      1856 3.30249E-01
 -1      1857 3.56126E-01
 -1      1858 2.94097E-01
 -1      1859 3.81747E-01
 -1      1860 4.14954E-01
 -1      1861 3.40620E-01
 -1      1862 4.68822E-01
 -1      1863 5.07765E-01
 -1      1864 4.20109E-01
 -1      1865 5.79636E-01
 -1      1866 6.56383E-01
 -1      1867 5.45848E-01
 -1      1868 7.29537E-01
 -1      1869 8.08022E-01
 -1      1870 6.90873E-01
 -1      1871 8.73767E-01
 -1      1872 9.42459E-01
 -1      1873 8.29772E-01
 -1      1874 9.98036E-01
 -1      1875 1.09409E+00
 -1      1876 9.51095E-01
 -1      1877 1.15730E+00
 -1      1878 1.27711E+00
 -1      1879 1.06988E+00
 -1      1880 1.30867E+00
 -1      1881 1.37778E+00
 -1      1882 1.16466E+00
 -1      1883 1.32614E+00
 -1      1884 1.28302E+00
 -1      1885 1.14458E+00
 -1      1886 1.23627E+00
 -1      1887 1.28352E+00
 -1      1888 1.04619E+00
 -1      1889 1.32257E+00
 -1      1890 1.31513E+00
 -1      1891 1.03849E+00
 -1      1892 1.52381E+00
 -1      1893 1.86522E+00
 -1      1894 1.28622E+00
 -1      1895 2.14046E+00
 -1      1896 2.86319E+00
 -1      1897 1.77015E+00
 -1      1898 3.15292E+00
 -1      1899 3.57029E+00
 -1      1900 2.33512E+00
 -1      1901 3.52255E+00
 -1      1902 3.51606E+00
 -1      1903 2.57711E+00
 -1      1904 3.58265E+00
 -1      1905 3.32009E+00
 -1      1906 2.59596E+00
 -1      1907 3.10317E+00
 -1      1908 2.34811E+00
 -1      1909 2.44563E+00
 -1      1910 2.06066E+00
 -1      1911 1.67394E+00
 -1      1912 1.94127E+00
 -1      1913 1.36189E+00
 -1      1914 1.28073E+00
 -1      1915 1.34176E+00
 -1      1916 1.27176E+00
 -1      1917 1.26477E+00
 -1      1918 1.02073E+00
 -1      1919 1.29054E+00
 -1      1920 1.30927E+00
 -1      1921 1.03752E+00
 -1      1922 1.37047E+00
 -1      1923 1.31954E+00
 -1      1924 1.12449E+00
 -1      1925 1.30226E+00
 -1      1926 1.18796E+00
 -1      1927 1.16841E+00
 -1      1928 1.12758E+00
 -1      1929 1.02664E+00
 -1      1930 1.09074E+00
 -1      1931 9.74892E-01
 -1      1932 9.05583E-01
 -1      1933 9.78596E-01
 -1      1934 8.45314E-01
 -1      1935 7.69740E-01
 -1      1936 8.66576E-01
 -1      1937 7.00406E-01
 -1      1938 6.23704E-01
 -1      1939 7.36974E-01
 -1      1940 5.55453E-01
 -1      1941 4.85546E-01
 -1      1942 5.99390E-01
 -1      1943 4.23992E-01
 -1      1944 3.71692E-01
 -1      1945 4.69586E-01
 -1      1946 3.19280E-01
 -1      1947 2.81837E-01
 -1      1948 3.55621E-01
 -1      1949 2.39074E-01
 -1      1950 2.10318E-01
 -1      1951 2.60447E-01
 -1      1952 1.78650E-01
 -1      1953 1.54347E-01
 -1      1954 1.86016E-01
 -1      1955 1.33838E-01
 -1      1956 1.22761E-01
 -1      1957 1.33838E-01
 -1      1958 1.06233E-01
 -1      1959 9.17239E-02
 -1      1960 9.68004E-02
 -1      1961 7.89895E-02
 -1      1962 5.64091E-02
 -1      1963 4.56835E-02
 -1      1964 6.75381E-02
 -1      1965 1.41725E+00
 -1      1966 1.78933E+00
 -1      1967 1.52871E+00
 -1      1968 1.03714E+00
 -1      1969 1.29578E+00
 -1      1970 1.02364E+00
 -1      1971 8.32731E-01
 -1      1972 9.42177E-01
 -1      1973 8.07201E-01
 -1      1974 6.70870E-01
 -1      1975 7.51107E-01
 -1      1976 6.30610E-01
 -1      1977 5.68060E-01
 -1      1978 6.30855E-01
 -1      1979 5.08970E-01
 -1      1980 4.95468E-01
 -1      1981 5.44354E-01
 -1      1982 4.45249E-01
 -1      1983 4.37363E-01
 -1      1984 4.74255E-01
 -1      1985 4.00330E-01
 -1      1986 3.93484E-01
 -1      1987 4.19827E-01
 -1      1988 3.61581E-01
 -1      1989 3.62468E-01
 -1      1990 3.79877E-01
 -1      1991 3.30439E-01
 -1      1992 3.41597E-01
 -1      1993 3.52196E-01
 -1      1994 3.06560E-01
 -1      1995 3.49731E-01
 -1      1996 3.55653E-01
 -1      1997 3.10344E-01
 -1      1998 4.07268E-01
 -1      1999 3.81476E-01
 -1      2000 3.56145E-01
 -1      2001 4.91843E-01
 -1      2002 4.63792E-01
 -1      2003 4.44414E-01
 -1      2004 5.71160E-01
 -1      2005 5.45439E-01
 -1      2006 5.54534E-01
 -1      2007 6.32196E-01
 -1      2008 6.16105E-01
 -1      2009 6.53077E-01
 -1      2010 6.92127E-01
 -1      2011 6.72520E-01
 -1      2012 7.38346E-01
 -1      2013 7.54319E-01
 -1      2014 7.00442E-01
 -1      2015 7.86985E-01
 -1      2016 8.33839E-01
 -1      2017 7.54319E-01
 -1      2018 7.95300E-01
 -1      2019 8.38115E-01
 -1      2020 7.88620E-01
 -1      2021 7.50081E-01
 -1      2022 8.68999E-01
 -1      2023 7.70406E-01
 -1      2024 6.37153E-01
 -1      2025 9.91237E-01
 -1      2026 9.04372E-01
 -1      2027 6.04817E-01
 -1      2028 1.30828E+00
 -1      2029 1.27964E+00
 -1      2030 9.28594E-01
 -1      2031 1.68752E+00
 -1      2032 1.54318E+00
 -1      2033 1.45190E+00
 -1      2034 2.04319E+00
 -1      2035 1.73360E+00
 -1      2036 1.73288E+00
 -1      2037 2.37796E+00
 -1      2038 2.04319E+00
 -1      2039 1.77895E+00
 -1      2040 2.56285E+00
 -1      2041 2.39386E+00
 -1      2042 1.79485E+00
 -1      2043 2.70128E+00
 -1      2044 2.68248E+00
 -1      2045 1.93038E+00
 -1      2046 2.12869E+00
 -1      2047 2.55022E+00
 -1      2048 1.89895E+00
 -1      2049 1.30112E+00
 -1      2050 1.82677E+00
 -1      2051 1.44596E+00
 -1      2052 8.65072E-01
 -1      2053 1.08836E+00
 -1      2054 9.31278E-01
 -1      2055 7.48380E-01
 -1      2056 7.85480E-01
 -1      2057 6.38927E-01
 -1      2058 8.69022E-01
 -1      2059 8.42291E-01
 -1      2060 6.53247E-01
 -1      2061 9.62855E-01
 -1      2062 8.93764E-01
 -1      2063 7.71900E-01
 -1      2064 9.63910E-01
 -1      2065 9.81256E-01
 -1      2066 8.15043E-01
 -1      2067 8.75576E-01
 -1      2068 9.39749E-01
 -1      2069 8.09284E-01
 -1      2070 7.59218E-01
 -1      2071 8.34849E-01
 -1      2072 7.44396E-01
 -1      2073 6.46519E-01
 -1      2074 7.15341E-01
 -1      2075 6.59792E-01
 -1      2076 5.31378E-01
 -1      2077 5.94913E-01
 -1      2078 5.64310E-01
 -1      2079 4.19119E-01
 -1      2080 4.79699E-01
 -1      2081 4.61026E-01
 -1      2082 3.18137E-01
 -1      2083 3.71803E-01
 -1      2084 3.62031E-01
 -1      2085 2.39270E-01
 -1      2086 2.77289E-01
 -1      2087 2.73867E-01
 -1      2088 1.85308E-01
 -1      2089 2.13446E-01
 -1      2090 2.07195E-01
 -1      2091 1.39189E-01
 -1      2092 1.63531E-01
 -1      2093 1.59594E-01
 -1      2094 9.97985E-02
 -1      2095 1.20180E-01
 -1      2096 1.18808E-01
 -1      2097 6.96862E-02
 -1      2098 8.26048E-02
 -1      2099 8.26048E-02
 -1      2100 3.92271E-02
 -1      2101 5.44876E-02
 -1      2102 5.02124E-02
 -1      2103 3.12642E-02
 -1      2104 2.52636E-02
 -1      2105 3.24553E-02
 -1      2106 4.19139E-02
 -1      2107 4.19139E-02
 -1      2108 4.37295E-02
 -1      2109 4.19139E-02
 -1      2110 4.03514E-02
 -1      2111 4.41010E-02
 -1      2112 5.31882E-02
 -1      2113 3.03008E-02
 -1      2114 2.56467E-02
 -1      2115 3.46540E-02
 -1      2116 4.16099E-02
 -1      2117 3.71110E-02
 -1      2118 4.18474E-02
 -1      2119 4.70599E-02
 -1      2120 4.51081E-02
 -1      2121 5.21559E-02
 -1      2122 4.71030E-02
 -1      2123 4.70599E-02
 -1      2124 5.56540E-02
 -1      2125 4.72557E-02
 -1      2126 4.72557E-02
 -1      2127 5.58067E-02
 -1      2128 4.54248E-02
 -1      2129 4.72557E-02
 -1      2130 5.59594E-02
 -1      2131 3.82089E-02
 -1      2132 4.24294E-02
 -1      2133 5.29640E-02
 -1      2134 2.66492E-02
 -1      2135 3.15684E-02
 -1      2136 4.33282E-02
 -1      2137 3.42025E-02
 -1      2138 2.66889E-02
 -1      2139 3.67275E-02
 -1      2140 4.10877E-02
 -1      2141 4.10877E-02
 -1      2142 4.36524E-02
 -1      2143 3.67557E+01
 -1      2144 2.73642E+01
 -1      2145 3.16575E+01
 -1      2146 3.16575E+01
 -1      2147 2.57273E+01
 -1      2148 2.77921E+01
 -1      2149 2.57273E+01
 -1      2150 1.75965E+01
 -1      2151 3.08587E+01
 -1      2152 9.60755E+00
 -1      2153 1.42035E+01
 -1      2154 1.02897E+00
 -1      2155 1.20215E+00
 -1      2156 9.81366E-01
 -1      2157 8.44704E-01
 -1      2158 1.11337E+01
 -1      2159 1.09274E+01
 -1      2160 1.15144E+01
 -1      2161 1.20184E+01
 -1      2162 1.14282E+01
 -1      2163 1.10878E+01
 -1      2164 1.02408E+01
 -1      2165 1.05136E+01
 -1      2166 9.58031E+00
 -1      2167 9.32082E+00
 -1      2168 1.96696E+01
 -1      2169 1.17193E+01
 -1      2170 2.68115E+01
 -1      2171 2.38730E+01
 -1      2172 3.40659E+01
 -1      2173 3.40659E+01
 -1      2174 3.35777E+01
 -1      2175 3.54437E+01
 -1      2176 3.35777E+01
 -1      2177 3.35777E+01
 -1      2178 3.05223E+01
 -1      2179 2.74232E+01
 -1      2180 3.27180E+01
 -1      2181 3.02067E+01
 -1      2182 1.44909E+01
 -1      2183 2.75262E+01
 -1      2184 9.45806E+00
 -1      2185 1.15986E+01
 -1      2186 1.04912E+01
 -1      2187 9.40205E+00
 -1      2188 1.15633E+01
 -1      2189 1.21033E+01
 -1      2190 1.10205E+01
 -1      2191 1.11861E+01
 -1      2192 1.11563E+01
 -1      2193 1.08326E+01
 -1      2194 9.88296E+00
 -1      2195 9.61912E+00
 -1      2196 1.02980E+01
 -1      2197 9.38189E+00
 -1      2198 9.01214E+00
 -1      2199 7.37144E+00
 -1      2200 1.96821E+01
 -1      2201 1.14682E+01
 -1      2202 2.54481E+01
 -1      2203 2.36617E+01
 -1      2204 3.20001E+01
 -1      2205 3.20001E+01
 -1      2206 2.54481E+01
 -1      2207 3.16575E+01
 -1      2208 3.19106E+01
 -1      2209 3.18212E+01
 -1      2210 9.96573E+00
 -1      2211 9.06649E+00
 -1      2212 8.24317E+00
 -1      2213 2.91242E+00
 -1      2214 8.66377E+00
 -1      2215 2.10324E+00
 -1      2216 3.11966E+01
 -1      2217 3.13603E+01
 -1      2218 2.74949E+01
 -1      2219 1.50676E+01
 -1      2220 3.03561E+01
 -1      2221 2.09646E+01
 -1      2222 4.35505E-02
 -1      2223 1.21772E+01
 -1      2224 3.19106E+01
 -1      2225 8.85074E+00
 -1      2226 8.83672E+00
 -1      2227 1.04481E+01
 -1      2228 9.21313E+00
 -1      2229 7.65703E+00
 -1      2230 1.06053E+01
 -1      2231 1.86895E+01
 -1      2232 2.41969E+01
 -1      2233 3.06669E+01
 -1      2234 3.68214E+01
 -1      2235 3.54437E+01
 -1      2236 2.68115E+01
 -1      2237 1.53538E+01
 -1      2238 9.01147E+00
 -1      2239 7.79242E+00
 -1      2240 9.62696E+00
 -1      2241 1.05101E+01
 -1      2242 1.09681E+01
 -1      2243 1.49165E+01
 -1      2244 1.10250E+00
 -1      2245 1.48610E+00
 -1      2246 5.53831E-01
 -1      2247 5.85364E-01
 -1      2248 5.97782E-01
 -1      2249 6.44522E-01
 -1      2250 4.93742E-01
 -1      2251 5.05601E-01
 -1      2252 5.04039E-01
 -1      2253 5.40397E-01
 -1      2254 5.18616E-01
 -1      2255 4.38881E-01
 -1      2256 5.88596E-01
 -1      2257 5.55321E-01
 -1      2258 4.66821E-01
 -1      2259 6.48341E-01
 -1      2260 6.00861E-01
 -1      2261 4.94010E-01
 -1      2262 7.15844E-01
 -1      2263 6.48341E-01
 -1      2264 5.06275E-01
 -1      2265 8.69526E-01
 -1      2266 7.59286E-01
 -1      2267 5.49717E-01
 -1      2268 9.02169E-01
 -1      2269 1.02364E+00
 -1      2270 9.81029E-01
 -1      2271 1.27100E+00
 -1      2272 1.04017E+00
 -1      2273 7.32698E+00
 -1      2274 6.36531E+00
 -1      2275 9.96433E-01
 -1      2276 8.16060E-01
 -1      2277 7.53071E-01
 -1      2278 7.57407E-01
 -1      2279 6.37136E-01
 -1      2280 6.50679E-01
 -1      2281 5.77806E-01
 -1      2282 5.27361E-01
 -1      2283 5.32695E-01
 -1      2284 4.87639E-01
 -1      2285 4.42566E-01
 -1      2286 4.33643E-01
 -1      2287 4.17690E-01
 -1      2288 3.78224E-01
 -1      2289 3.69045E-01
 -1      2290 3.50907E-01
 -1      2291 3.16881E-01
 -1      2292 3.16853E-01
 -1      2293 2.88648E-01
 -1      2294 2.59247E-01
 -1      2295 2.61303E-01
 -1      2296 2.34883E-01
 -1      2297 2.28769E-01
 -1      2298 2.08707E-01
 -1      2299 2.44312E-01
 -1      2300 2.65215E-01
 -1      2301 1.99887E-01
 -1      2302 2.93418E-01
 -1      2303 3.19039E-01
 -1      2304 2.43633E-01
 -1      2305 3.79027E-01
 -1      2306 4.32895E-01
 -1      2307 3.31825E-01
 -1      2308 4.99975E-01
 -1      2309 5.71846E-01
 -1      2310 4.58893E-01
 -1      2311 6.44587E-01
 -1      2312 7.17741E-01
 -1      2313 5.98713E-01
 -1      2314 7.92323E-01
 -1      2315 8.58068E-01
 -1      2316 7.46036E-01
 -1      2317 9.27202E-01
 -1      2318 9.82779E-01
 -1      2319 8.89752E-01
 -1      2320 1.03471E+00
 -1      2321 1.09792E+00
 -1      2322 1.01082E+00
 -1      2323 1.18305E+00
 -1      2324 1.21461E+00
 -1      2325 1.14788E+00
 -1      2326 1.30576E+00
 -1      2327 1.25411E+00
 -1      2328 1.32415E+00
 -1      2329 1.31147E+00
 -1      2330 1.26473E+00
 -1      2331 1.47265E+00
 -1      2332 1.37918E+00
 -1      2333 1.41822E+00
 -1      2334 1.64446E+00
 -1      2335 1.51699E+00
 -1      2336 1.72568E+00
 -1      2337 1.85768E+00
 -1      2338 1.86735E+00
 -1      2339 2.14259E+00
 -1      2340 2.09813E+00
 -1      2341 2.47520E+00
 -1      2342 2.76493E+00
 -1      2343 2.57240E+00
 -1      2344 3.71912E+00
 -1      2345 3.67138E+00
 -1      2346 3.85920E+00
 -1      2347 2.93745E+00
 -1      2348 3.00404E+00
 -1      2349 4.07946E+00
 -1      2350 2.56377E+00
 -1      2351 2.34686E+00
 -1      2352 2.90527E+00
 -1      2353 2.03565E+00
 -1      2354 1.74820E+00
 -1      2355 2.15379E+00
 -1      2356 1.73812E+00
 -1      2357 1.42606E+00
 -1      2358 1.83250E+00
 -1      2359 1.38283E+00
 -1      2360 1.37386E+00
 -1      2361 1.77918E+00
 -1      2362 1.18261E+00
 -1      2363 1.20837E+00
 -1      2364 1.54471E+00
 -1      2365 1.16694E+00
 -1      2366 1.22814E+00
 -1      2367 1.31202E+00
 -1      2368 1.15768E+00
 -1      2369 1.14040E+00
 -1      2370 1.20012E+00
 -1      2371 1.11741E+00
 -1      2372 1.05702E+00
 -1      2373 1.10668E+00
 -1      2374 1.00452E+00
 -1      2375 9.52767E-01
 -1      2376 1.03119E+00
 -1      2377 8.82715E-01
 -1      2378 8.22446E-01
 -1      2379 9.08637E-01
 -1      2380 7.48062E-01
 -1      2381 6.78729E-01
 -1      2382 7.64201E-01
 -1      2383 6.09995E-01
 -1      2384 5.41744E-01
 -1      2385 6.21083E-01
 -1      2386 4.80542E-01
 -1      2387 4.18988E-01
 -1      2388 4.91147E-01
 -1      2389 3.66832E-01
 -1      2390 3.14420E-01
 -1      2391 3.77788E-01
 -1      2392 2.71480E-01
 -1      2393 2.28718E-01
 -1      2394 2.82692E-01
 -1      2395 1.94772E-01
 -1      2396 1.63104E-01
 -1      2397 2.05806E-01
 -1      2398 1.38057E-01
 -1      2399 1.17547E-01
 -1      2400 1.46813E-01
 -1      2401 9.82240E-02
 -1      2402 8.16961E-02
 -1      2403 1.02443E-01
 -1      2404 2.34239E+01
 -1      2405 2.17870E+01
 -1      2406 5.48986E-01
 -1      2407 6.30610E-01
 -1      2408 4.68873E-01
 -1      2409 5.08888E-01
 -1      2410 5.08888E-01
 -1      2411 4.12802E-01
 -1      2412 4.36508E-01
 -1      2413 4.36425E-01
 -1      2414 3.59609E-01
 -1      2415 3.80822E-01
 -1      2416 3.72081E-01
 -1      2417 3.11554E-01
 -1      2418 3.29089E-01
 -1      2419 3.09581E-01
 -1      2420 2.68822E-01
 -1      2421 2.82429E-01
 -1      2422 2.49937E-01
 -1      2423 2.63462E-01
 -1      2424 2.73734E-01
 -1      2425 2.25724E-01
 -1      2426 2.93762E-01
 -1      2427 2.79706E-01
 -1      2428 2.46880E-01
 -1      2429 3.58721E-01
 -1      2430 3.26976E-01
 -1      2431 2.96338E-01
 -1      2432 4.68983E-01
 -1      2433 4.12459E-01
 -1      2434 3.83290E-01
 -1      2435 5.75868E-01
 -1      2436 5.22272E-01
 -1      2437 4.90317E-01
 -1      2438 6.68144E-01
 -1      2439 6.23198E-01
 -1      2440 5.90935E-01
 -1      2441 7.49377E-01
 -1      2442 7.09054E-01
 -1      2443 6.79175E-01
 -1      2444 7.86985E-01
 -1      2445 7.78669E-01
 -1      2446 7.49377E-01
 -1      2447 8.17032E-01
 -1      2448 8.17032E-01
 -1      2449 8.08716E-01
 -1      2450 7.72133E-01
 -1      2451 8.17353E-01
 -1      2452 8.39084E-01
 -1      2453 6.99466E-01
 -1      2454 7.67175E-01
 -1      2455 8.34447E-01
 -1      2456 7.99532E-01
 -1      2457 7.64159E-01
 -1      2458 8.94181E-01
 -1      2459 1.16456E+00
 -1      2460 8.76152E-01
 -1      2461 1.03549E+00
 -1      2462 1.56071E+00
 -1      2463 1.32580E+00
 -1      2464 1.27336E+00
 -1      2465 1.73863E+00
 -1      2466 1.69256E+00
 -1      2467 1.56646E+00
 -1      2468 2.00640E+00
 -1      2469 2.00640E+00
 -1      2470 1.96608E+00
 -1      2471 1.84695E+00
 -1      2472 1.83105E+00
 -1      2473 2.05850E+00
 -1      2474 2.03452E+00
 -1      2475 1.91489E+00
 -1      2476 1.95109E+00
 -1      2477 1.66999E+00
 -1      2478 1.82105E+00
 -1      2479 1.80556E+00
 -1      2480 1.22437E+00
 -1      2481 1.52630E+00
 -1      2482 1.44840E+00
 -1      2483 8.44315E-01
 -1      2484 1.05707E+00
 -1      2485 1.13741E+00
 -1      2486 7.41682E-01
 -1      2487 8.21273E-01
 -1      2488 9.47070E-01
 -1      2489 7.70377E-01
 -1      2490 6.76466E-01
 -1      2491 8.58812E-01
 -1      2492 8.25981E-01
 -1      2493 8.01239E-01
 -1      2494 8.24458E-01
 -1      2495 8.31747E-01
 -1      2496 8.13346E-01
 -1      2497 8.42685E-01
 -1      2498 7.72687E-01
 -1      2499 7.96847E-01
 -1      2500 7.95150E-01
 -1      2501 7.01213E-01
 -1      2502 7.41940E-01
 -1      2503 7.29503E-01
 -1      2504 6.19577E-01
 -1      2505 6.63454E-01
 -1      2506 6.60998E-01
 -1      2507 5.21499E-01
 -1      2508 5.73104E-01
 -1      2509 5.76766E-01
 -1      2510 4.21116E-01
 -1      2511 4.72795E-01
 -1      2512 4.81589E-01
 -1      2513 3.27727E-01
 -1      2514 3.75043E-01
 -1      2515 3.86812E-01
 -1      2516 2.46085E-01
 -1      2517 2.86933E-01
 -1      2518 2.99945E-01
 -1      2519 1.85899E-01
 -1      2520 2.11723E-01
 -1      2521 2.24788E-01
 -1      2522 1.35593E-01
 -1      2523 1.57370E-01
 -1      2524 1.61898E-01
 -1      2525 9.51675E-02
 -1      2526 1.14177E-01
 -1      2527 1.11953E-01
 -1      2528 6.49904E-02
 -1      2529 8.21842E-02
 -1      2530 7.75531E-02
 -1      2531 5.92996E-02
 -1      2532 5.50493E-02
 -1      2533 4.82391E-02
 -1      2534 6.44351E-02
 -1      2535 6.09370E-02
 -1      2536 6.73286E-02
 -1      2537 5.36868E-02
 -1      2538 6.31454E-02
 -1      2539 5.48840E-02
 -1      2540 5.45008E-02
 -1      2541 7.39167E-02
 -1      2542 6.80859E-02
 -1      2543 6.54325E-02
 -1      2544 6.54325E-02
 -1      2545 7.42136E-02
 -1      2546 6.55852E-02
 -1      2547 6.54325E-02
 -1      2548 7.52110E-02
 -1      2549 6.54778E-02
 -1      2550 6.54778E-02
 -1      2551 7.51036E-02
 -1      2552 6.23127E-02
 -1      2553 6.53081E-02
 -1      2554 7.48265E-02
 -1      2555 5.03516E-02
 -1      2556 5.69920E-02
 -1      2557 6.93361E-02
 -1      2558 5.38437E-02
 -1      2559 5.38039E-02
 -1      2560 6.74678E-02
 -1      2561 5.88467E-02
 -1      2562 5.19616E-02
 -1      2563 6.90380E-02
 -1      2564 5.26706E-02
 -1      2565 9.47697E+00
 -1      2566 1.28700E+01
 -1      2567 7.12233E-01
 -1      2568 8.07201E-01
 -1      2569 6.30610E-01
 -1      2570 6.58706E+00
 -1      2571 7.12813E+00
 -1      2572 2.70063E+01
 -1      2573 2.70957E+01
 -1      2574 8.22737E+00
 -1      2575 6.14108E+00
 -1      2576 9.00197E+00
 -1      2577 9.37913E+00
 -1      2578 5.17050E-01
 -1      2579 5.39112E-01
 -1      2580 4.66606E-01
 -1      2581 4.38876E-01
 -1      2582 9.03900E+00
 -1      2583 9.46558E+00
 -1      2584 1.41187E+01
 -1      2585 1.01391E+01
 -1      2586 9.12913E+00
 -1      2587 8.24448E+00
 -1      2588 7.65349E+00
 -1      2589 8.56810E+00
 -1      2590 5.55119E+00
 -1      2591 6.47112E+00
 -1      2592 9.10133E+00
 -1      2593 6.96234E+00
 -1      2594 1.43212E+01
 -1      2595 1.01178E+01
 -1      2596 2.43212E+01
 -1      2597 1.70668E+01
 -1      2598 1.18309E+01
 -1      2599 2.96690E+01
 -1      2600 2.82912E+01
 -1      2601 3.68214E+01
 -1      2602 3.68214E+01
 -1      2603 2.96690E+01
 -1      2604 2.45124E+01
 -1      2605 3.06669E+01
 -1      2606 2.12521E+01
 -1      2607 2.15676E+01
 -1      2608 1.33565E+01
 -1      2609 1.85483E+01
 -1      2610 7.12581E+00
 -1      2611 1.00181E+01
 -1      2612 5.61197E+00
 -1      2613 5.66798E+00
 -1      2614 5.08075E+00
 -1      2615 8.13047E+00
 -1      2616 6.51837E+00
 -1      2617 8.88048E+00
 -1      2618 9.06843E+00
 -1      2619 7.99949E+00
 -1      2620 7.18874E+00
 -1      2621 8.04703E+00
 -1      2622 7.23250E+00
 -1      2623 5.21563E+00
 -1      2624 5.82261E+00
 -1      2625 4.59225E+00
 -1      2626 2.25198E+01
 -1      2627 1.59678E+01
 -1      2628 1.11904E+01
 -1      2629 1.76155E+01
 -1      2630 3.18212E+01
 -1      2631 3.18212E+01
 -1      2632 1.66897E+00
 -1      2633 1.31093E+00
 -1      2634 8.36735E-01
 -1      2635 9.66435E-01
 -1      2636 1.61864E+00
 -1      2637 1.76288E+00
 -1      2638 1.31916E+00
 -1      2639 1.19243E+00
 -1      2640 7.32434E+00
 -1      2641 9.25350E+00
 -1      2642 6.98789E+00
 -1      2643 5.06160E-01
 -1      2644 6.44522E-01
 -1      2645 7.06341E-01
 -1      2646 8.07201E-01
 -1      2647 1.23544E+00
 -1      2648 3.13603E+01
 -1      2649 5.25027E+00
 -1      2650 5.03292E+00
 -1      2651 2.12458E+01
 -1      2652 2.46503E+01
 -1      2653 1.89424E+01
 -1      2654 1.23674E+01
 -1      2655 1.70243E+01
 -1      2656 7.82086E+00
 -1      2657 5.88790E-02
 -1      2658 2.70063E+01
 -1      2659 5.88790E-02
 -1      2660 5.48037E-02
 -1      2661 5.26706E-02
 -1      2662 6.09798E-02
 -1      2663 6.75381E-02
 -1      2664 4.52932E+00
 -1      2665 9.59069E-01
 -1      2666 6.88363E-02
 -1      2667 1.00028E+01
 -1      2668 9.86161E+00
 -1      2669 6.52323E+00
 -1      2670 1.59190E+01
 -1      2671 7.14524E+00
 -1      2672 8.59134E+00
 -1      2673 5.89658E+00
 -1      2674 3.06669E+01
 -1      2675 1.85465E+01
 -1      2676 8.06870E+00
 -1      2677 5.64104E+00
 -1      2678 5.41227E+00
 -1      2679 8.30992E+00
 -1      2680 5.60027E+00
 -1      2681 7.51204E+00
 -1      2682 5.94602E+00
 -1      2683 6.83099E-01
 -1      2684 7.57942E-01
 -1      2685 6.68168E-01
 -1      2686 4.82917E-01
 -1      2687 7.06553E+00
 -1      2688 2.15676E+01
 -1      2689 6.89617E-02
 -1      2690 4.18321E-01
 -1      2691 4.03396E-01
 -1      2692 3.95075E-01
 -1      2693 3.82059E-01
 -1      2694 3.46575E-01
 -1      2695 4.32919E-01
 -1      2696 4.32919E-01
 -1      2697 4.65077E-01
 -1      2698 4.21636E-01
 -1      2699 3.48279E-01
 -1      2700 7.19479E-01
 -1      2701 7.98339E-01
 -1      2702 9.63633E-02
 -1      2703 9.20969E-02
 -1      2704 1.05080E-01
 -1      2705 6.14845E-01
 -1      2706 7.09813E-01
 -1      2707 5.27122E-01
 -1      2708 8.26524E-01
 -1      2709 5.52735E-01
 -1      2710 4.94081E-01
 -1      2711 4.84022E-01
 -1      2712 4.24692E-01
 -1      2713 3.86078E-01
 -1      2714 3.99211E-01
 -1      2715 3.59489E-01
 -1      2716 3.50538E-01
 -1      2717 3.27432E-01
 -1      2718 3.02556E-01
 -1      2719 2.93001E-01
 -1      2720 2.83583E-01
 -1      2721 2.56267E-01
 -1      2722 2.41970E-01
 -1      2723 2.33650E-01
 -1      2724 2.05418E-01
 -1      2725 2.00381E-01
 -1      2726 1.78482E-01
 -1      2727 1.54118E-01
 -1      2728 1.50829E-01
 -1      2729 1.52539E-01
 -1      2730 1.68082E-01
 -1      2731 1.22313E-01
 -1      2732 2.04188E-01
 -1      2733 2.32392E-01
 -1      2734 1.56840E-01
 -1      2735 2.83683E-01
 -1      2736 3.43671E-01
 -1      2737 2.44238E-01
 -1      2738 4.03305E-01
 -1      2739 4.70385E-01
 -1      2740 3.55163E-01
 -1      2741 5.39601E-01
 -1      2742 6.12342E-01
 -1      2743 4.84014E-01
 -1      2744 6.92183E-01
 -1      2745 7.66765E-01
 -1      2746 6.33071E-01
 -1      2747 8.57586E-01
 -1      2748 9.26720E-01
 -1      2749 8.03733E-01
 -1      2750 1.02703E+00
 -1      2751 1.07896E+00
 -1      2752 9.94860E-01
 -1      2753 1.18274E+00
 -1      2754 1.26787E+00
 -1      2755 1.19895E+00
 -1      2756 1.39313E+00
 -1      2757 1.48428E+00
 -1      2758 1.42799E+00
 -1      2759 1.70863E+00
 -1      2760 1.76599E+00
 -1      2761 1.77761E+00
 -1      2762 1.96836E+00
 -1      2763 2.08281E+00
 -1      2764 2.20434E+00
 -1      2765 2.34591E+00
 -1      2766 2.44468E+00
 -1      2767 2.66981E+00
 -1      2768 2.30070E+00
 -1      2769 2.44238E+00
 -1      2770 2.78893E+00
 -1      2771 2.93136E+00
 -1      2772 3.26396E+00
 -1      2773 3.13394E+00
 -1      2774 4.63122E+00
 -1      2775 5.58541E+00
 -1      2776 3.34554E+00
 -1      2777 2.90527E+00
 -1      2778 2.35900E+00
 -1      2779 2.04779E+00
 -1      2780 2.79927E+00
 -1      2781 2.30193E+00
 -1      2782 2.29184E+00
 -1      2783 2.50713E+00
 -1      2784 2.31177E+00
 -1      2785 2.26854E+00
 -1      2786 2.78120E+00
 -1      2787 1.95037E+00
 -1      2788 1.75912E+00
 -1      2789 2.48295E+00
 -1      2790 1.58755E+00
 -1      2791 1.54611E+00
 -1      2792 1.99321E+00
 -1      2793 1.37139E+00
 -1      2794 1.30093E+00
 -1      2795 1.64692E+00
 -1      2796 1.16468E+00
 -1      2797 1.14169E+00
 -1      2798 1.33594E+00
 -1      2799 1.06095E+00
 -1      2800 1.00844E+00
 -1      2801 1.11894E+00
 -1      2802 9.24519E-01
 -1      2803 8.54467E-01
 -1      2804 9.54273E-01
 -1      2805 7.75600E-01
 -1      2806 7.01217E-01
 -1      2807 7.91482E-01
 -1      2808 6.30931E-01
 -1      2809 5.62197E-01
 -1      2810 6.42331E-01
 -1      2811 5.01578E-01
 -1      2812 4.40376E-01
 -1      2813 5.11426E-01
 -1      2814 3.89333E-01
 -1      2815 3.37176E-01
 -1      2816 3.99763E-01
 -1      2817 2.95043E-01
 -1      2818 2.52103E-01
 -1      2819 3.06587E-01
 -1      2820 2.17995E-01
 -1      2821 1.84050E-01
 -1      2822 2.30347E-01
 -1      2823 1.57208E-01
 -1      2824 1.32161E-01
 -1      2825 1.69398E-01
 -1      2826 1.12746E-01
 -1      2827 9.34226E-02
 -1      2828 1.23141E-01
 -1      2829 4.52932E+00
 -1      2830 3.62292E+00
 -1      2831 4.26508E-01
 -1      2832 4.66606E-01
 -1      2833 2.52343E-01
 -1      2834 2.82862E-01
 -1      2835 1.96517E-01
 -1      2836 2.25642E-01
 -1      2837 1.98922E-01
 -1      2838 1.88418E-01
 -1      2839 1.83506E-01
 -1      2840 1.59211E-01
 -1      2841 2.16822E-01
 -1      2842 2.00578E-01
 -1      2843 1.58360E-01
 -1      2844 2.95291E-01
 -1      2845 2.62077E-01
 -1      2846 2.15775E-01
 -1      2847 4.00299E-01
 -1      2848 3.46561E-01
 -1      2849 3.12300E-01
 -1      2850 5.08519E-01
 -1      2851 4.55230E-01
 -1      2852 4.18501E-01
 -1      2853 6.12185E-01
 -1      2854 5.64855E-01
 -1      2855 5.29769E-01
 -1      2856 7.06568E-01
 -1      2857 6.65657E-01
 -1      2858 6.39578E-01
 -1      2859 7.79442E-01
 -1      2860 7.50150E-01
 -1      2861 7.36632E-01
 -1      2862 8.77367E-01
 -1      2863 8.47320E-01
 -1      2864 8.48093E-01
 -1      2865 9.51386E-01
 -1      2866 9.51065E-01
 -1      2867 9.89670E-01
 -1      2868 9.99138E-01
 -1      2869 1.00410E+00
 -1      2870 1.11608E+00
 -1      2871 1.14428E+00
 -1      2872 1.07959E+00
 -1      2873 1.24924E+00
 -1      2874 1.38436E+00
 -1      2875 1.30774E+00
 -1      2876 1.49314E+00
 -1      2877 1.52366E+00
 -1      2878 1.36241E+00
 -1      2879 1.63466E+00
 -1      2880 2.43064E+00
 -1      2881 2.29879E+00
 -1      2882 2.38785E+00
 -1      2883 3.66547E+00
 -1      2884 3.39770E+00
 -1      2885 4.13004E+00
 -1      2886 3.51574E+00
 -1      2887 3.69108E+00
 -1      2888 5.12271E+00
 -1      2889 2.80751E+00
 -1      2890 2.73957E+00
 -1      2891 4.37216E+00
 -1      2892 1.81981E+00
 -1      2893 2.03328E+00
 -1      2894 2.82176E+00
 -1      2895 1.56563E+00
 -1      2896 1.70932E+00
 -1      2897 1.93704E+00
 -1      2898 1.26997E+00
 -1      2899 1.43727E+00
 -1      2900 1.69819E+00
 -1      2901 1.22594E+00
 -1      2902 1.24898E+00
 -1      2903 1.54884E+00
 -1      2904 9.90482E-01
 -1      2905 1.05570E+00
 -1      2906 1.35761E+00
 -1      2907 9.93808E-01
 -1      2908 9.62947E-01
 -1      2909 1.15983E+00
 -1      2910 9.17995E-01
 -1      2911 9.30629E-01
 -1      2912 1.06912E+00
 -1      2913 8.10516E-01
 -1      2914 8.45416E-01
 -1      2915 9.33361E-01
 -1      2916 7.27507E-01
 -1      2917 7.58254E-01
 -1      2918 8.08520E-01
 -1      2919 6.44465E-01
 -1      2920 6.82224E-01
 -1      2921 7.10974E-01
 -1      2922 5.47264E-01
 -1      2923 5.93737E-01
 -1      2924 6.14963E-01
 -1      2925 4.47971E-01
 -1      2926 4.96675E-01
 -1      2927 5.13646E-01
 -1      2928 3.55021E-01
 -1      2929 4.01094E-01
 -1      2930 4.16180E-01
 -1      2931 2.72911E-01
 -1      2932 3.13705E-01
 -1      2933 3.27987E-01
 -1      2934 2.03487E-01
 -1      2935 2.37849E-01
 -1      2936 2.51609E-01
 -1      2937 1.44966E-01
 -1      2938 1.73495E-01
 -1      2939 1.86555E-01
 -1      2940 1.26348E-01
 -1      2941 1.47764E-01
 -1      2942 1.59361E-01
 -1      2943 1.40892E-01
 -1      2944 2.34066E+01
 -1      2945 1.85917E+01
 -1      2946 8.82168E-02
 -1      2947 8.82168E-02
 -1      2948 8.30507E-02
 -1      2949 7.71630E-02
 -1      2950 8.84903E-02
 -1      2951 8.85977E-02
 -1      2952 1.01603E-01
 -1      2953 8.82168E-02
 -1      2954 8.72194E-02
 -1      2955 9.70538E-02
 -1      2956 1.01223E-01
 -1      2957 1.29155E+01
 -1      2958 1.53748E+01
 -1      2959 8.83206E-02
 -1      2960 8.84903E-02
 -1      2961 1.01984E-01
 -1      2962 8.07018E-02
 -1      2963 8.60224E-02
 -1      2964 9.96863E-02
 -1      2965 9.39633E-02
 -1      2966 9.05109E-02
 -1      2967 1.07197E-01
 -1      2968 5.04718E-01
 -1      2969 5.86341E-01
 -1      2970 4.88953E-01
 -1      2971 4.22338E-01
 -1      2972 8.59050E-02
 -1      2973 9.20812E-02
 -1      2974 1.00063E-01
 -1      2975 3.38144E+00
 -1      2976 4.74757E+00
 -1      2977 5.26492E+00
 -1      2978 7.61376E+00
 -1      2979 7.67459E+00
 -1      2980 6.65808E+00
 -1      2981 5.90974E+00
 -1      2982 6.38064E+00
 -1      2983 3.06828E-01
 -1      2984 3.38808E-01
 -1      2985 2.49589E-01
 -1      2986 3.58375E-01
 -1      2987 3.90740E-01
 -1      2988 2.93122E-01
 -1      2989 5.96654E-01
 -1      2990 5.52915E-01
 -1      2991 3.96318E-01
 -1      2992 4.32919E-01
 -1      2993 4.20654E-01
 -1      2994 3.57229E-01
 -1      2995 3.59562E-01
 -1      2996 3.85189E+00
 -1      2997 4.07364E+00
 -1      2998 2.16314E+01
 -1      2999 2.20923E+01
 -1      3000 4.19845E-01
 -1      3001 4.32263E-01
 -1      3002 5.53254E+00
 -1      3003 4.61504E+00
 -1      3004 1.64292E+01
 -1      3005 1.93740E+01
 -1      3006 4.66349E+00
 -1      3007 5.84586E+00
 -1      3008 5.53981E+00
 -1      3009 4.12866E+00
 -1      3010 1.11258E+01
 -1      3011 8.38010E+00
 -1      3012 1.73044E+01
 -1      3013 1.33344E+01
 -1      3014 2.50746E+01
 -1      3015 1.79222E+01
 -1      3016 1.22653E+01
 -1      3017 1.49690E+01
 -1      3018 4.02010E+00
 -1      3019 5.47793E+00
 -1      3020 5.46259E+00
 -1      3021 1.81014E+01
 -1      3022 2.42559E+01
 -1      3023 6.79825E+00
 -1      3024 6.73180E+00
 -1      3025 4.50750E+00
 -1      3026 3.58204E+00
 -1      3027 8.79426E+00
 -1      3028 1.09919E+01
 -1      3029 9.34243E+00
 -1      3030 6.23831E+00
 -1      3031 6.18659E-01
 -1      3032 5.78734E-01
 -1      3033 3.78578E-01
 -1      3034 4.10166E-01
 -1      3035 4.32263E-01
 -1      3036 4.32263E-01
 -1      3037 3.58366E-01
 -1      3038 3.38063E-01
 -1      3039 3.81869E-01
 -1      3040 3.94880E-01
 -1      3041 5.64973E-01
 -1      3042 1.28022E+01
 -1      3043 1.64019E+01
 -1      3044 1.10366E-01
 -1      3045 4.59006E+00
 -1      3046 6.16855E+00
 -1      3047 9.79122E+00
 -1      3048 8.84116E+00
 -1      3049 6.43750E+00
 -1      3050 2.92683E+00
 -1      3051 4.32521E+00
 -1      3052 4.11811E+00
 -1      3053 1.57401E+01
 -1      3054 1.51990E+01
 -1      3055 1.16314E+01
 -1      3056 2.36631E+01
 -1      3057 1.19163E+01
 -1      3058 1.10975E+01
 -1      3059 1.55099E+01
 -1      3060 1.02977E+01
 -1      3061 1.09155E+01
 -1      3062 4.91198E+00
 -1      3063 4.17806E+00
 -1      3064 9.88361E+00
 -1      3065 9.39633E-02
 -1      3066 5.14571E+00
 -1      3067 3.48458E-01
 -1      3068 2.13410E+01
 -1      3069 1.29264E+01
 -1      3070 1.16122E+01
 -1      3071 4.56226E+00
 -1      3072 1.01618E-01
 -1      3073 8.58959E-02
 -1      3074 9.25407E-02
 -1      3075 9.71774E-02
 -1      3076 1.27754E+01
 -1      3077 3.43841E+00
 -1      3078 1.17006E-01
 -1      3079 5.99687E+00
 -1      3080 4.66589E+00
 -1      3081 6.12124E+00
 -1      3082 5.68401E+00
 -1      3083 3.29669E+00
 -1      3084 5.16097E+00
 -1      3085 6.96949E+00
 -1      3086 1.07984E+01
 -1      3087 8.94922E+00
 -1      3088 4.03001E-01
 -1      3089 4.17720E-01
 -1      3090 3.56240E-01
 -1      3091 3.45994E-01
 -1      3092 7.35585E+00
 -1      3093 5.52663E+00
 -1      3094 6.96382E+00
 -1      3095 4.36892E-01
 -1      3096 5.85950E+00
 -1      3097 6.69295E+00
 -1      3098 1.53823E+01
 -1      3099 4.17806E+00
 -1      3100 5.42525E+00
 -1      3101 1.29630E+01
 -1      3102 4.20801E+00
 -1      3103 1.18260E+01
 -1      3104 2.89966E-01
 -1      3105 3.01249E-01
 -1      3106 1.22662E+01
 -1      3107 1.00764E+01
 -1      3108 1.24185E-01
 -1      3109 1.30825E-01
 -1      3110 1.30825E-01
 -1      3111 1.43600E-01
 -1      3112 1.18141E+01
 -1      3113 1.05414E+01
 -1      3114 4.02010E+00
 -1      3115 3.10623E-01
 -1      3116 3.00564E-01
 -1      3117 4.99018E+00
 -1      3118 3.07233E-01
 -1      3119 2.81752E-01
 -1      3120 2.31778E-01
 -1      3121 2.72172E-01
 -1      3122 2.40115E-01
 -1      3123 2.28866E-01
 -1      3124 2.20621E-01
 -1      3125 2.01648E-01
 -1      3126 1.99792E-01
 -1      3127 1.81333E-01
 -1      3128 1.58717E-01
 -1      3129 1.59983E-01
 -1      3130 1.38464E-01
 -1      3131 1.11528E-01
 -1      3132 1.19416E-01
 -1      3133 1.14951E-01
 -1      3134 1.13372E-01
 -1      3135 1.02587E-01
 -1      3136 1.36985E-01
 -1      3137 1.73091E-01
 -1      3138 1.29623E-01
 -1      3139 2.15739E-01
 -1      3140 2.67030E-01
 -1      3141 1.95884E-01
 -1      3142 3.22671E-01
 -1      3143 3.82305E-01
 -1      3144 2.94173E-01
 -1      3145 4.46826E-01
 -1      3146 5.16042E-01
 -1      3147 4.14334E-01
 -1      3148 5.89068E-01
 -1      3149 6.68909E-01
 -1      3150 5.51880E-01
 -1      3151 7.51163E-01
 -1      3152 8.41983E-01
 -1      3153 7.07159E-01
 -1      3154 9.53035E-01
 -1      3155 1.05334E+00
 -1      3156 9.00464E-01
 -1      3157 1.21160E+00
 -1      3158 1.31538E+00
 -1      3159 1.16978E+00
 -1      3160 1.53253E+00
 -1      3161 1.65779E+00
 -1      3162 1.54518E+00
 -1      3163 1.89154E+00
 -1      3164 2.11589E+00
 -1      3165 1.99608E+00
 -1      3166 2.57349E+00
 -1      3167 2.77587E+00
 -1      3168 2.68743E+00
 -1      3169 4.04448E+00
 -1      3170 4.30758E+00
 -1      3171 4.41363E+00
 -1      3172 3.53112E+00
 -1      3173 3.95919E+00
 -1      3174 4.84535E+00
 -1      3175 5.89066E+00
 -1      3176 4.10316E+00
 -1      3177 1.00252E+01
 -1      3178 7.81663E+00
 -1      3179 4.81142E+00
 -1      3180 3.71865E+00
 -1      3181 3.35064E+00
 -1      3182 3.37057E+00
 -1      3183 3.32767E+00
 -1      3184 3.00950E+00
 -1      3185 3.89712E+00
 -1      3186 2.60022E+00
 -1      3187 2.42865E+00
 -1      3188 3.44494E+00
 -1      3189 1.99694E+00
 -1      3190 1.82222E+00
 -1      3191 2.60395E+00
 -1      3192 1.63197E+00
 -1      3193 1.49571E+00
 -1      3194 1.98199E+00
 -1      3195 1.30204E+00
 -1      3196 1.22130E+00
 -1      3197 1.59807E+00
 -1      3198 1.06219E+00
 -1      3199 9.78268E-01
 -1      3200 1.24529E+00
 -1      3201 8.61680E-01
 -1      3202 7.82814E-01
 -1      3203 9.69600E-01
 -1      3204 6.89164E-01
 -1      3205 6.18879E-01
 -1      3206 7.59362E-01
 -1      3207 5.48957E-01
 -1      3208 4.88337E-01
 -1      3209 5.95790E-01
 -1      3210 4.27881E-01
 -1      3211 3.76837E-01
 -1      3212 4.65411E-01
 -1      3213 3.26641E-01
 -1      3214 2.84508E-01
 -1      3215 3.54758E-01
 -1      3216 2.45792E-01
 -1      3217 2.11684E-01
 -1      3218 2.65845E-01
 -1      3219 1.80910E-01
 -1      3220 1.54068E-01
 -1      3221 1.96355E-01
 -1      3222 1.47729E-01
 -1      3223 1.74430E-01
 -1      3224 2.23350E-01
 -1      3225 1.78095E-01
 -1      3226 3.20560E-01
 -1      3227 2.69290E-01
 -1      3228 2.31610E-01
 -1      3229 4.28689E-01
 -1      3230 3.73758E-01
 -1      3231 3.30747E-01
 -1      3232 5.47868E-01
 -1      3233 4.91532E-01
 -1      3234 4.46788E-01
 -1      3235 6.70581E-01
 -1      3236 6.17109E-01
 -1      3237 5.78872E-01
 -1      3238 7.90524E-01
 -1      3239 7.46941E-01
 -1      3240 7.24472E-01
 -1      3241 9.39819E-01
 -1      3242 8.71940E-01
 -1      3243 8.82250E-01
 -1      3244 1.10618E+00
 -1      3245 1.03248E+00
 -1      3246 1.05633E+00
 -1      3247 1.31585E+00
 -1      3248 1.26314E+00
 -1      3249 1.30595E+00
 -1      3250 1.55791E+00
 -1      3251 1.47746E+00
 -1      3252 1.62452E+00
 -1      3253 1.84241E+00
 -1      3254 1.67896E+00
 -1      3255 1.90718E+00
 -1      3256 2.34975E+00
 -1      3257 2.37169E+00
 -1      3258 2.55751E+00
 -1      3259 3.16298E+00
 -1      3260 2.38785E+00
 -1      3261 3.12488E+00
 -1      3262 5.09709E+00
 -1      3263 4.13004E+00
 -1      3264 5.18658E+00
 -1      3265 5.16097E+00
 -1      3266 3.58887E+00
 -1      3267 4.36311E+00
 -1      3268 2.25090E+00
 -1      3269 2.36139E+00
 -1      3270 1.85103E+00
 -1      3271 1.97938E+00
 -1      3272 2.40374E+00
 -1      3273 1.95440E+00
 -1      3274 1.97540E+00
 -1      3275 2.25659E+00
 -1      3276 1.58052E+00
 -1      3277 1.75076E+00
 -1      3278 2.17732E+00
 -1      3279 1.39876E+00
 -1      3280 1.42629E+00
 -1      3281 1.81945E+00
 -1      3282 1.17417E+00
 -1      3283 1.23734E+00
 -1      3284 1.50381E+00
 -1      3285 9.64598E-01
 -1      3286 1.03718E+00
 -1      3287 1.20540E+00
 -1      3288 8.36656E-01
 -1      3289 8.88918E-01
 -1      3290 9.92734E-01
 -1      3291 7.13867E-01
 -1      3292 7.59150E-01
 -1      3293 8.39549E-01
 -1      3294 5.94003E-01
 -1      3295 6.44731E-01
 -1      3296 6.92907E-01
 -1      3297 4.81032E-01
 -1      3298 5.31621E-01
 -1      3299 5.61389E-01
 -1      3300 3.79780E-01
 -1      3301 4.26656E-01
 -1      3302 4.44631E-01
 -1      3303 2.94004E-01
 -1      3304 3.35320E-01
 -1      3305 3.45796E-01
 -1      3306 2.22693E-01
 -1      3307 2.57755E-01
 -1      3308 2.65088E-01
 -1      3309 1.62515E-01
 -1      3310 1.92507E-01
 -1      3311 1.98653E-01
 -1      3312 1.15317E-01
 -1      3313 1.14936E-01
 -1      3314 1.36654E-01
 -1      3315 1.26845E-01
 -1      3316 1.24604E-01
 -1      3317 1.24604E-01
 -1      3318 1.37936E-01
 -1      3319 5.38843E+00
 -1      3320 4.27016E+00
 -1      3321 1.95902E-01
 -1      3322 2.19868E-01
 -1      3323 1.44708E-01
 -1      3324 2.87120E-01
 -1      3325 3.22889E-01
 -1      3326 9.58480E+00
 -1      3327 6.47181E+00
 -1      3328 1.26845E-01
 -1      3329 1.29143E-01
 -1      3330 1.51762E-01
 -1      3331 1.56301E-01
 -1      3332 1.39720E-01
 -1      3333 1.27560E-01
 -1      3334 1.47295E-01
 -1      3335 1.11410E-01
 -1      3336 1.24420E-01
 -1      3337 9.99274E-02
 -1      3338 9.27692E-02
 -1      3339 3.25852E-01
 -1      3340 3.25671E-01
 -1      3341 2.40158E-01
 -1      3342 4.13004E+00
 -1      3343 8.58601E+00
 -1      3344 7.55840E+00
 -1      3345 8.05001E+00
 -1      3346 1.40968E+01
 -1      3347 1.10779E+01
 -1      3348 1.14987E-01
 -1      3349 2.43254E-01
 -1      3350 2.62821E-01
 -1      3351 1.89566E-01
 -1      3352 3.86928E-01
 -1      3353 3.63686E-01
 -1      3354 3.14177E-01
 -1      3355 3.13031E-01
 -1      3356 6.46635E+00
 -1      3357 5.76084E+00
 -1      3358 4.06568E-01
 -1      3359 3.06671E-01
 -1      3360 2.59641E-01
 -1      3361 3.96901E-01
 -1      3362 3.43841E+00
 -1      3363 2.67526E+00
 -1      3364 3.19181E-01
 -1      3365 3.10860E-01
 -1      3366 1.00287E+01
 -1      3367 1.14889E+01
 -1      3368 3.06521E-01
 -1      3369 3.06331E-01
 -1      3370 2.79127E-01
 -1      3371 4.28613E+00
 -1      3372 5.46663E+00
 -1      3373 2.59770E-01
 -1      3374 3.18084E-01
 -1      3375 3.18084E-01
 -1      3376 8.85995E+00
 -1      3377 1.01455E+01
 -1      3378 9.39422E+00
 -1      3379 1.50472E-01
 -1      3380 5.82026E+00
 -1      3381 3.59521E+00
 -1      3382 2.76673E-01
 -1      3383 3.38010E-01
 -1      3384 3.76122E-01
 -1      3385 3.21514E-01
 -1      3386 3.19181E-01
 -1      3387 2.83466E-01
 -1      3388 2.80036E-01
 -1      3389 2.92683E+00
 -1      3390 8.79907E+00
 -1      3391 9.16438E+00
 -1      3392 9.94866E+00
 -1      3393 9.69483E+00
 -1      3394 7.28256E+00
 -1      3395 8.28333E+00
 -1      3396 2.87515E+00
 -1      3397 2.67454E+00
 -1      3398 3.12928E+00
 -1      3399 6.60798E+00
 -1      3400 5.47783E+00
 -1      3401 4.65523E+00
 -1      3402 1.55112E-01
 -1      3403 5.14832E+00
 -1      3404 5.18658E+00
 -1      3405 8.49873E+00
 -1      3406 7.21223E+00
 -1      3407 6.02468E+00
 -1      3408 4.37216E+00
 -1      3409 1.28649E-01
 -1      3410 1.14936E-01
 -1      3411 1.14936E-01
 -1      3412 1.59361E-01
 -1      3413 1.65314E-01
 -1      3414 1.62160E-01
 -1      3415 3.83794E+00
 -1      3416 1.40892E-01
 -1      3417 1.62160E-01
 -1      3418 1.36255E-01
 -1      3419 1.14791E-01
 -1      3420 1.10623E-01
 -1      3421 1.28505E-01
 -1      3422 1.05262E-01
 -1      3423 1.13995E-01
 -1      3424 1.39900E-01
 -1      3425 1.23000E-01
 -1      3426 3.96196E+00
 -1      3427 3.19028E+00
 -1      3428 3.02225E+00
 -1      3429 3.22081E+00
 -1      3430 4.88529E+00
 -1      3431 3.63130E-01
 -1      3432 3.91633E-01
 -1      3433 2.71079E-01
 -1      3434 2.78802E-01
 -1      3435 6.13029E+00
 -1      3436 5.13927E+00
 -1      3437 6.56161E+00
 -1      3438 4.96824E+00
 -1      3439 5.56282E+00
 -1      3440 1.08945E+01
 -1      3441 2.37252E-01
 -1      3442 3.32097E-01
 -1      3443 8.23074E+00
 -1      3444 3.18986E-01
 -1      3445 3.21112E-01
 -1      3446 1.02006E+01
 -1      3447 5.27057E+00
 -1      3448 3.19157E-01
 -1      3449 3.19157E-01
 -1      3450 2.81903E-01
 -1      3451 9.06740E+00
 -1      3452 2.61451E-01
 -1      3453 4.43805E+00
 -1      3454 6.73785E+00
 -1      3455 8.66147E+00
 -1      3456 6.19449E+00
 -1      3457 4.78567E+00
 -1      3458 2.65531E+00
 -1      3459 4.61233E+00
 -1      3460 7.88189E+00
 -1      3461 8.43797E+00
 -1      3462 1.60940E-01
 -1      3463 1.77988E-01
 -1      3464 1.84656E-01
 -1      3465 1.95857E-01
 -1      3466 1.86277E-01
 -1      3467 1.42067E-01
 -1      3468 1.83660E-01
 -1      3469 1.64167E-01
 -1      3470 1.50652E-01
 -1      3471 1.51744E-01
 -1      3472 1.31429E-01
 -1      3473 1.35612E-01
 -1      3474 1.28998E-01
 -1      3475 1.08745E-01
 -1      3476 1.20758E-01
 -1      3477 1.17773E-01
 -1      3478 1.21196E-01
 -1      3479 1.27355E-01
 -1      3480 1.30747E-01
 -1      3481 1.54360E-01
 -1      3482 1.45934E-01
 -1      3483 1.89926E-01
 -1      3484 2.32574E-01
 -1      3485 1.91050E-01
 -1      3486 2.84001E-01
 -1      3487 3.39642E-01
 -1      3488 2.78043E-01
 -1      3489 4.01994E-01
 -1      3490 4.66515E-01
 -1      3491 3.91822E-01
 -1      3492 5.42217E-01
 -1      3493 6.15243E-01
 -1      3494 5.29877E-01
 -1      3495 7.07159E-01
 -1      3496 7.89413E-01
 -1      3497 6.97496E-01
 -1      3498 9.00464E-01
 -1      3499 1.01151E+00
 -1      3500 9.00464E-01
 -1      3501 1.14296E+00
 -1      3502 1.30122E+00
 -1      3503 1.14296E+00
 -1      3504 1.52386E+00
 -1      3505 1.74101E+00
 -1      3506 1.49704E+00
 -1      3507 2.13813E+00
 -1      3508 2.37189E+00
 -1      3509 2.11681E+00
 -1      3510 3.00691E+00
 -1      3511 3.46451E+00
 -1      3512 3.14897E+00
 -1      3513 4.41363E+00
 -1      3514 5.68225E+00
 -1      3515 6.45291E+00
 -1      3516 5.10262E+00
 -1      3517 4.88383E-01
 -1      3518 4.25540E-01
 -1      3519 4.21012E+00
 -1      3520 3.80084E+00
 -1      3521 3.64663E+00
 -1      3522 3.21492E+00
 -1      3523 2.18464E+00
 -1      3524 1.99439E+00
 -1      3525 3.22732E+00
 -1      3526 1.79956E+00
 -1      3527 1.60589E+00
 -1      3528 2.00222E+00
 -1      3529 1.37522E+00
 -1      3530 1.21612E+00
 -1      3531 1.57672E+00
 -1      3532 1.07048E+00
 -1      3533 9.53891E-01
 -1      3534 1.20041E+00
 -1      3535 8.48798E-01
 -1      3536 7.55149E-01
 -1      3537 9.49678E-01
 -1      3538 6.65713E-01
 -1      3539 5.95790E-01
 -1      3540 7.55149E-01
 -1      3541 5.21589E-01
 -1      3542 4.61133E-01
 -1      3543 5.91512E-01
 -1      3544 4.00458E-01
 -1      3545 3.50262E-01
 -1      3546 4.56636E-01
 -1      3547 3.01320E-01
 -1      3548 2.62604E-01
 -1      3549 3.47020E-01
 -1      3550 2.24039E-01
 -1      3551 1.93265E-01
 -1      3552 2.59514E-01
 -1      3553 3.71429E-01
 -1      3554 3.18231E-01
 -1      3555 4.13023E-01
 -1      3556 2.69125E-01
 -1      3557 2.23186E-01
 -1      3558 3.09807E-01
 -1      3559 6.20145E-01
 -1      3560 5.50905E-01
 -1      3561 5.29657E-01
 -1      3562 7.75794E-01
 -1      3563 6.99433E-01
 -1      3564 6.71467E-01
 -1      3565 9.66652E-01
 -1      3566 8.85235E-01
 -1      3567 8.60196E-01
 -1      3568 1.21463E+00
 -1      3569 1.12196E+00
 -1      3570 1.12495E+00
 -1      3571 1.55422E+00
 -1      3572 1.39727E+00
 -1      3573 1.46290E+00
 -1      3574 1.92514E+00
 -1      3575 1.76353E+00
 -1      3576 1.85485E+00
 -1      3577 2.39726E+00
 -1      3578 2.27622E+00
 -1      3579 2.41523E+00
 -1      3580 3.79984E+00
 -1      3581 7.39985E+00
 -1      3582 5.90945E+00
 -1      3583 3.90274E+00
 -1      3584 2.17788E+00
 -1      3585 2.33211E+00
 -1      3586 1.59909E+00
 -1      3587 1.76050E+00
 -1      3588 2.27316E+00
 -1      3589 1.28264E+00
 -1      3590 1.41963E+00
 -1      3591 1.67632E+00
 -1      3592 1.04562E+00
 -1      3593 1.12130E+00
 -1      3594 1.33553E+00
 -1      3595 8.25886E-01
 -1      3596 9.03392E-01
 -1      3597 1.03196E+00
 -1      3598 6.64031E-01
 -1      3599 7.33167E-01
 -1      3600 7.97010E-01
 -1      3601 5.31214E-01
 -1      3602 5.93596E-01
 -1      3603 6.33856E-01
 -1      3604 4.24740E-01
 -1      3605 4.79116E-01
 -1      3606 5.11323E-01
 -1      3607 3.32704E-01
 -1      3608 3.77164E-01
 -1      3609 4.11648E-01
 -1      3610 2.54981E-01
 -1      3611 2.91229E-01
 -1      3612 3.22597E-01
 -1      3613 1.90067E-01
 -1      3614 2.20253E-01
 -1      3615 2.46395E-01
 -1      3616 7.72334E+00
 -1      3617 1.05556E+01
 -1      3618 1.67654E-01
 -1      3619 1.58367E-01
 -1      3620 7.35055E+00
 -1      3621 7.07808E+00
 -1      3622 1.19042E-01
 -1      3623 1.40514E-01
 -1      3624 3.10865E-01
 -1      3625 3.18986E-01
 -1      3626 2.83858E-01
 -1      3627 1.94715E-01
 -1      3628 2.19014E-01
 -1      3629 6.02468E+00
 -1      3630 1.80304E-01
 -1      3631 1.41929E-01
 -1      3632 2.17819E-01
 -1      3633 4.47052E+00
 -1      3634 4.09812E+00
 -1      3635 3.38507E+00
 -1      3636 4.31545E+00
 -1      3637 1.56089E-01
 -1      3638 1.79475E-01
 -1      3639 1.30423E-01
 -1      3640 3.06786E-01
 -1      3641 2.38670E+00
 -1      3642 2.59034E+00
 -1      3643 2.74513E+00
 -1      3644 8.64298E+00
 -1      3645 7.98275E+00
 -1      3646 7.55671E+00
 -1      3647 7.88189E+00
 -1      3648 2.20656E-01
 -1      3649 2.03950E-01
 -1      3650 2.15388E-01
 -1      3651 4.33274E+00
 -1      3652 2.49916E+00
 -1      3653 9.45346E+00
 -1      3654 1.88625E-01
 -1      3655 2.67577E-01
 -1      3656 8.83063E+00
 -1      3657 7.89825E+00
 -1      3658 8.49176E+00
 -1      3659 6.37120E+00
 -1      3660 2.24207E-01
 -1      3661 2.39329E-01
 -1      3662 1.81671E-01
 -1      3663 5.57272E+00
 -1      3664 8.38588E+00
 -1      3665 6.16447E+00
 -1      3666 6.31911E+00
 -1      3667 4.73312E+00
 -1      3668 1.61238E-01
 -1      3669 2.85579E+00
 -1      3670 4.41181E+00
 -1      3671 5.86213E+00
 -1      3672 7.08278E+00
 -1      3673 5.93011E+00
 -1      3674 9.51454E-02
 -1      3675 1.18454E-01
 -1      3676 1.14260E-01
 -1      3677 3.22482E+00
 -1      3678 6.89559E+00
 -1      3679 4.75502E+00
 -1      3680 5.33792E+00
 -1      3681 2.20785E-01
 -1      3682 2.46284E-01
 -1      3683 2.41945E-01
 -1      3684 1.46493E-01
 -1      3685 1.46493E-01
 -1      3686 1.76211E-01
 -1      3687 2.24008E-01
 -1      3688 1.91684E-01
 -1      3689 1.66838E-01
 -1      3690 1.88437E-01
 -1      3691 1.63684E-01
 -1      3692 5.37709E+00
 -1      3693 6.76835E+00
 -1      3694 4.91266E+00
 -1      3695 1.46493E-01
 -1      3696 1.46349E-01
 -1      3697 1.64337E-01
 -1      3698 1.46784E-01
 -1      3699 1.41424E-01
 -1      3700 1.64773E-01
 -1      3701 1.91684E-01
 -1      3702 1.99256E-01
 -1      3703 1.84208E-01
 -1      3704 2.46284E-01
 -1      3705 2.46284E-01
 -1      3706 2.09101E-01
 -1      3707 2.46488E-01
 -1      3708 2.46488E-01
 -1      3709 1.16854E-01
 -1      3710 1.00703E-01
 -1      3711 1.49863E-01
 -1      3712 2.99232E+00
 -1      3713 3.31650E+00
 -1      3714 7.22097E+00
 -1      3715 8.68762E+00
 -1      3716 6.46973E+00
 -1      3717 2.79323E-01
 -1      3718 2.62353E+00
 -1      3719 2.11627E-01
 -1      3720 5.02120E+00
 -1      3721 5.15880E+00
 -1      3722 4.20380E+00
 -1      3723 1.37086E-01
 -1      3724 4.58771E+00
 -1      3725 1.91684E-01
 -1      3726 1.87145E-01
 -1      3727 2.07576E-01
 -1      3728 2.27067E-01
 -1      3729 1.05858E-01
 -1      3730 1.17059E-01
 -1      3731 1.62160E-01
 -1      3732 2.38482E-01
 -1      3733 2.41912E-01
 -1      3734 2.04730E-01
 -1      3735 3.55202E+00
 -1      3736 1.28167E-01
 -1      3737 1.25550E-01
 -1      3738 9.19577E-02
 -1      3739 1.26483E-01
 -1      3740 1.14060E-01
 -1      3741 1.03998E-01
 -1      3742 1.22418E-01
 -1      3743 1.19987E-01
 -1      3744 1.13289E-01
 -1      3745 1.32960E-01
 -1      3746 1.41987E-01
 -1      3747 1.34620E-01
 -1      3748 1.54554E-01
 -1      3749 1.64105E-01
 -1      3750 1.60158E-01
 -1      3751 1.79321E-01
 -1      3752 2.14887E-01
 -1      3753 1.87941E-01
 -1      3754 2.54330E-01
 -1      3755 3.05757E-01
 -1      3756 2.42600E-01
 -1      3757 3.59216E-01
 -1      3758 4.21569E-01
 -1      3759 3.35503E-01
 -1      3760 4.89213E-01
 -1      3761 5.64915E-01
 -1      3762 4.56606E-01
 -1      3763 6.52574E-01
 -1      3764 7.44491E-01
 -1      3765 6.11910E-01
 -1      3766 8.61521E-01
 -1      3767 9.72572E-01
 -1      3768 8.16599E-01
 -1      3769 1.13395E+00
 -1      3770 1.26539E+00
 -1      3771 1.09500E+00
 -1      3772 1.49704E+00
 -1      3773 1.71969E+00
 -1      3774 1.48803E+00
 -1      3775 2.02532E+00
 -1      3776 2.42245E+00
 -1      3777 2.02532E+00
 -1      3778 2.90769E+00
 -1      3779 3.54272E+00
 -1      3780 2.81619E+00
 -1      3781 3.78399E+00
 -1      3782 4.73312E+00
 -1      3783 6.26311E+00
 -1      3784 3.54272E+00
 -1      3785 5.92179E-01
 -1      3786 5.29657E-01
 -1      3787 2.15575E+00
 -1      3788 1.96092E+00
 -1      3789 1.80738E+00
 -1      3790 1.57672E+00
 -1      3791 1.96092E+00
 -1      3792 1.34605E+00
 -1      3793 1.20041E+00
 -1      3794 1.57672E+00
 -1      3795 1.03577E+00
 -1      3796 9.30678E-01
 -1      3797 1.18141E+00
 -1      3798 8.09088E-01
 -1      3799 7.19652E-01
 -1      3800 8.95181E-01
 -1      3801 6.28301E-01
 -1      3802 5.54100E-01
 -1      3803 6.82240E-01
 -1      3804 4.84026E-01
 -1      3805 4.23351E-01
 -1      3806 5.20815E-01
 -1      3807 3.68869E-01
 -1      3808 3.19927E-01
 -1      3809 3.96258E-01
 -1      3810 2.83967E-01
 -1      3811 2.45403E-01
 -1      3812 3.05816E-01
 -1      3813 4.62045E-01
 -1      3814 4.07934E-01
 -1      3815 5.24568E-01
 -1      3816 3.50898E-01
 -1      3817 3.01792E-01
 -1      3818 3.99920E-01
 -1      3819 1.33577E-01
 -1      3820 1.48817E-01
 -1      3821 9.52888E-01
 -1      3822 8.43446E-01
 -1      3823 1.25388E+00
 -1      3824 1.09856E+00
 -1      3825 1.08181E+00
 -1      3826 1.68198E+00
 -1      3827 1.49934E+00
 -1      3828 1.47295E+00
 -1      3829 2.15030E+00
 -1      3830 1.94099E+00
 -1      3831 1.97743E+00
 -1      3832 3.24401E+00
 -1      3833 2.89293E+00
 -1      3834 2.97907E+00
 -1      3835 1.11955E-01
 -1      3836 1.27531E-01
 -1      3837 1.15110E-01
 -1      3838 3.85693E+00
 -1      3839 4.75844E+00
 -1      3840 2.04125E-01
 -1      3841 2.41495E-01
 -1      3842 2.48462E-01
 -1      3843 1.40267E+00
 -1      3844 1.56401E+00
 -1      3845 3.38021E+00
 -1      3846 3.79759E+00
 -1      3847 1.00410E+00
 -1      3848 1.14633E+00
 -1      3849 1.37481E+00
 -1      3850 7.87371E-01
 -1      3851 8.80090E-01
 -1      3852 9.94464E-01
 -1      3853 6.33856E-01
 -1      3854 7.04290E-01
 -1      3855 7.87371E-01
 -1      3856 5.09708E-01
 -1      3857 5.61807E-01
 -1      3858 6.32241E-01
 -1      3859 4.01803E-01
 -1      3860 4.49379E-01
 -1      3861 4.99863E-01
 -1      3862 3.10507E-01
 -1      3863 3.51982E-01
 -1      3864 3.89713E-01
 -1      3865 2.35356E-01
 -1      3866 2.70084E-01
 -1      3867 2.99468E-01
 -1      3868 1.71219E-01
 -1      3869 1.64999E-01
 -1      3870 2.39540E-01
 -1      3871 1.63684E-01
 -1      3872 4.33463E+00
 -1      3873 1.71373E-01
 -1      3874 1.66379E-01
 -1      3875 5.48334E+00
 -1      3876 5.48334E+00
 -1      3877 4.27030E+00
 -1      3878 6.61655E+00
 -1      3879 2.22266E-01
 -1      3880 2.09275E-01
 -1      3881 1.58851E-01
 -1      3882 1.69801E-01
 -1      3883 2.75500E+00
 -1      3884 2.93446E+00
 -1      3885 2.82214E+00
 -1      3886 2.46488E-01
 -1      3887 2.09118E-01
 -1      3888 2.41953E-01
 -1      3889 4.95980E+00
 -1      3890 2.53861E-01
 -1      3891 2.10979E-01
 -1      3892 2.94953E-01
 -1      3893 4.06034E+00
 -1      3894 3.55950E+00
 -1      3895 2.52922E+00
 -1      3896 3.55607E+00
 -1      3897 2.09110E-01
 -1      3898 1.82661E-01
 -1      3899 2.95913E+00
 -1      3900 2.74975E+00
 -1      3901 7.50754E-01
 -1      3902 6.71467E-01
 -1      3903 8.43446E-01
 -1      3904 1.50231E-01
 -1      3905 1.55425E-01
 -1      3906 1.22571E-01
 -1      3907 5.48334E+00
 -1      3908 5.43125E+00
 -1      3909 4.59548E+00
 -1      3910 7.19165E+00
 -1      3911 7.22097E+00
 -1      3912 6.51437E+00
 -1      3913 5.99371E+00
 -1      3914 2.48792E+00
 -1      3915 5.47293E+00
 -1      3916 5.27314E+00
 -1      3917 5.57548E+00
 -1      3918 1.41424E-01
 -1      3919 1.74244E-01
 -1      3920 1.74244E-01
 -1      3921 1.36498E-01
 -1      3922 6.71467E-01
 -1      3923 1.19230E-01
 -1      3924 2.12002E-01
 -1      3925 1.75960E-01
 -1      3926 1.50885E-01
 -1      3927 1.21623E-01
 -1      3928 1.18731E-01
 -1      3929 1.21036E-01
 -1      3930 5.16222E+00
 -1      3931 4.07505E+00
 -1      3932 5.20686E+00
 -1      3933 4.45889E+00
 -1      3934 2.04029E-01
 -1      3935 1.92155E-01
 -1      3936 2.62239E-01
 -1      3937 2.40844E-01
 -1      3938 2.40844E-01
 -1      3939 1.65208E-01
 -1      3940 4.44507E+00
 -1      3941 3.33802E+00
 -1      3942 1.32246E-01
 -1      3943 1.83698E-01
 -1      3944 2.06927E-01
 -1      3945 2.30617E-01
 -1      3946 1.83698E-01
 -1      3947 1.82139E-01
 -1      3948 1.82139E-01
 -1      3949 2.09957E-01
 -1      3950 1.77990E-01
 -1      3951 1.78425E-01
 -1      3952 1.96915E-01
 -1      3953 1.95792E-01
 -1      3954 1.74624E-01
 -1      3955 1.74624E-01
 -1      3956 1.76548E-01
 -1      3957 5.07760E+00
 -1      3958 2.98184E+00
 -1      3959 4.27544E+00
 -1      3960 3.38758E+00
 -1      3961 1.74624E-01
 -1      3962 1.74632E-01
 -1      3963 1.40146E-01
 -1      3964 2.23520E-01
 -1      3965 2.04029E-01
 -1      3966 2.19973E-01
 -1      3967 2.37297E-01
 -1      3968 5.54091E+00
 -1      3969 4.30282E+00
 -1      3970 3.56019E+00
 -1      3971 5.27314E+00
 -1      3972 3.39261E+00
 -1      3973 2.74056E+00
 -1      3974 2.11445E+00
 -1      3975 1.96092E+00
 -1      3976 9.86973E-02
 -1      3977 9.96301E-02
 -1      3978 1.14632E-01
 -1      3979 1.22991E-01
 -1      3980 1.09332E-01
 -1      3981 1.35120E-01
 -1      3982 1.48093E-01
 -1      3983 1.36464E-01
 -1      3984 1.61083E-01
 -1      3985 1.73649E-01
 -1      3986 1.61584E-01
 -1      3987 1.87941E-01
 -1      3988 2.03157E-01
 -1      3989 1.88865E-01
 -1      3990 2.27542E-01
 -1      3991 2.66985E-01
 -1      3992 2.27542E-01
 -1      3993 2.97037E-01
 -1      3994 3.50497E-01
 -1      3995 2.81979E-01
 -1      3996 3.94650E-01
 -1      3997 4.62295E-01
 -1      3998 3.56185E-01
 -1      3999 5.29389E-01
 -1      4000 6.17048E-01
 -1      4001 4.67433E-01
 -1      4002 7.10284E-01
 -1      4003 8.27314E-01
 -1      4004 6.27764E-01
 -1      4005 9.63692E-01
 -1      4006 1.12507E+00
 -1      4007 8.57378E-01
 -1      4008 1.34258E+00
 -1      4009 1.57423E+00
 -1      4010 1.21127E+00
 -1      4011 1.75632E+00
 -1      4012 2.06195E+00
 -1      4013 1.61087E+00
 -1      4014 2.21526E+00
 -1      4015 2.70051E+00
 -1      4016 2.13963E+00
 -1      4017 1.94627E+00
 -1      4018 1.71425E+00
 -1      4019 1.48358E+00
 -1      4020 1.86778E+00
 -1      4021 1.23654E+00
 -1      4022 1.07190E+00
 -1      4023 1.37407E+00
 -1      4024 9.17817E-01
 -1      4025 7.96227E-01
 -1      4026 9.72947E-01
 -1      4027 6.91734E-01
 -1      4028 6.00383E-01
 -1      4029 7.14370E-01
 -1      4030 5.25670E-01
 -1      4031 4.55596E-01
 -1      4032 5.35165E-01
 -1      4033 4.00454E-01
 -1      4034 3.45972E-01
 -1      4035 4.05310E-01
 -1      4036 3.06010E-01
 -1      4037 2.70050E-01
 -1      4038 2.62432E-01
 -1      4039 3.10206E-01
 -1      4040 5.63331E-01
 -1      4041 4.95720E-01
 -1      4042 4.29308E-01
 -1      4043 3.72271E-01
 -1      4044 4.68071E-01
 -1      4045 7.28824E-01
 -1      4046 6.49536E-01
 -1      4047 6.20688E-01
 -1      4048 1.22749E+00
 -1      4049 1.08181E+00
 -1      4050 1.11304E-01
 -1      4051 1.17351E-01
 -1      4052 7.78276E-01
 -1      4053 8.61357E-01
 -1      4054 1.41453E-01
 -1      4055 1.24391E-01
 -1      4056 1.10014E-01
 -1      4057 9.94464E-01
 -1      4058 1.11848E+00
 -1      4059 9.85370E-01
 -1      4060 1.07239E-01
 -1      4061 1.33844E+00
 -1      4062 1.59478E+00
 -1      4063 1.33844E+00
 -1      4064 6.04038E-01
 -1      4065 6.76087E-01
 -1      4066 7.50073E-01
 -1      4067 4.67120E-01
 -1      4068 5.27448E-01
 -1      4069 5.71294E-01
 -1      4070 3.58954E-01
 -1      4071 4.08776E-01
 -1      4072 4.36361E-01
 -1      4073 2.72473E-01
 -1      4074 3.12896E-01
 -1      4075 3.31959E-01
 -1      4076 1.71067E-01
 -1      4077 1.36589E-01
 -1      4078 1.66695E-01
 -1      4079 2.19568E-01
 -1      4080 2.09553E-01
 -1      4081 4.66337E+00
 -1      4082 4.51157E+00
 -1      4083 2.85481E+00
 -1      4084 2.48134E+00
 -1      4085 2.48134E+00
 -1      4086 3.54949E+00
 -1      4087 4.51157E+00
 -1      4088 6.38679E+00
 -1      4089 5.70951E+00
 -1      4090 3.20034E-01
 -1      4091 2.72102E-01
 -1      4092 3.49421E-01
 -1      4093 2.51190E+00
 -1      4094 3.70289E+00
 -1      4095 2.47553E+00
 -1      4096 2.59740E+00
 -1      4097 3.80530E+00
 -1      4098 3.80530E+00
 -1      4099 2.55735E+00
 -1      4100 9.36137E-01
 -1      4101 8.43446E-01
 -1      4102 1.08181E+00
 -1      4103 1.37899E-01
 -1      4104 1.32340E-01
 -1      4105 1.63996E-01
 -1      4106 3.34150E+00
 -1      4107 3.08249E+00
 -1      4108 2.05337E+00
 -1      4109 1.80791E+00
 -1      4110 3.41745E+00
 -1      4111 1.04147E-01
 -1      4112 7.77587E-02
 -1      4113 8.88660E-02
 -1      4114 1.07018E-01
 -1      4115 1.05063E-01
 -1      4116 1.06477E-01
 -1      4117 1.01257E-01
 -1      4118 2.85339E-01
 -1      4119 2.60258E-01
 -1      4120 2.25239E-01
 -1      4121 8.21515E-01
 -1      4122 1.19689E-01
 -1      4123 1.21930E-01
 -1      4124 1.29357E-01
 -1      4125 4.73971E+00
 -1      4126 1.39757E-01
 -1      4127 4.14865E+00
 -1      4128 4.45889E+00
 -1      4129 1.80791E+00
 -1      4130 1.39704E-01
 -1      4131 3.37379E+00
 -1      4132 2.13591E-01
 -1      4133 2.42021E-01
 -1      4134 2.55448E-01
 -1      4135 2.08319E-01
 -1      4136 4.95773E+00
 -1      4137 3.65022E+00
 -1      4138 4.88394E+00
 -1      4139 4.66525E+00
 -1      4140 4.44507E+00
 -1      4141 1.03934E-01
 -1      4142 1.07491E-01
 -1      4143 4.95773E+00
 -1      4144 1.48200E-01
 -1      4145 1.14538E-01
 -1      4146 2.19973E-01
 -1      4147 2.19568E-01
 -1      4148 2.19973E-01
 -1      4149 2.12469E-01
 -1      4150 1.09284E-01
 -1      4151 1.09284E-01
 -1      4152 7.66288E-02
 -1      4153 8.44983E-02
 -1      4154 4.90464E+00
 -1      4155 2.29065E-01
 -1      4156 2.41591E-01
 -1      4157 2.72044E-01
 -1      4158 2.38675E-01
 -1      4159 1.15176E+00
 -1      4160 1.00609E+00
 -1      4161 1.36464E-01
 -1      4162 1.48593E-01
 -1      4163 1.61584E-01
 -1      4164 1.74574E-01
 -1      4165 1.61584E-01
 -1      4166 1.86321E-01
 -1      4167 2.00613E-01
 -1      4168 1.86321E-01
 -1      4169 2.25780E-01
 -1      4170 2.50165E-01
 -1      4171 2.23236E-01
 -1      4172 2.79992E-01
 -1      4173 3.10044E-01
 -1      4174 2.78230E-01
 -1      4175 3.46495E-01
 -1      4176 3.90649E-01
 -1      4177 3.44508E-01
 -1      4178 4.38626E-01
 -1      4179 5.05720E-01
 -1      4180 4.28936E-01
 -1      4181 5.70938E-01
 -1      4182 6.64174E-01
 -1      4183 5.42130E-01
 -1      4184 7.57219E-01
 -1      4185 8.93597E-01
 -1      4186 7.00393E-01
 -1      4187 1.05383E+00
 -1      4188 1.27134E+00
 -1      4189 9.53667E-01
 -1      4190 1.72502E+00
 -1      4191 1.90711E+00
 -1      4192 1.56757E+00
 -1      4193 2.42659E+00
 -1      4194 2.57990E+00
 -1      4195 2.54074E+00
 -1      4196 1.05302E-01
 -1      4197 1.20305E-01
 -1      4198 1.32434E-01
 -1      4199 3.13578E+00
 -1      4200 3.89178E+00
 -1      4201 1.09284E-01
 -1      4202 1.08895E-01
 -1      4203 7.84220E-02
 -1      4204 1.39314E+00
 -1      4205 1.14610E+00
 -1      4206 9.79051E-01
 -1      4207 8.24967E-01
 -1      4208 9.98117E-01
 -1      4209 7.20943E-01
 -1      4210 6.16450E-01
 -1      4211 7.27047E-01
 -1      4212 5.42794E-01
 -1      4213 4.68081E-01
 -1      4214 5.49366E-01
 -1      4215 4.36297E-01
 -1      4216 3.81155E-01
 -1      4217 4.43926E-01
 -1      4218 4.77398E-01
 -1      4219 4.10986E-01
 -1      4220 2.33707E+00
 -1      4221 1.75665E+00
 -1      4222 1.68092E+00
 -1      4223 8.55187E-01
 -1      4224 7.40565E-01
 -1      4225 9.25136E-01
 -1      4226 4.66525E+00
 -1      4227 3.20057E+00
 -1      4228 2.67501E+00
 -1      4229 2.95144E+00
 -1      4230 8.99071E-01
 -1      4231 1.03218E+00
 -1      4232 8.54391E-02
 -1      4233 1.17622E+00
 -1      4234 1.39618E+00
 -1      4235 1.08992E+00
 -1      4236 3.80294E-01
 -1      4237 4.38638E-01
 -1      4238 2.85814E-01
 -1      4239 3.31872E-01
 -1      4240 3.34148E-01
 -1      4241 2.71957E-01
 -1      4242 4.90464E+00
 -1      4243 2.30812E+00
 -1      4244 4.66525E+00
 -1      4245 4.44657E+00
 -1      4246 3.68416E-01
 -1      4247 3.16179E-01
 -1      4248 3.77744E-01
 -1      4249 1.96960E+00
 -1      4250 1.72294E+00
 -1      4251 1.49496E+00
 -1      4252 6.36918E-01
 -1      4253 5.50712E-01
 -1      4254 4.93628E-01
 -1      4255 6.70590E-01
 -1      4256 5.01467E-01
 -1      4257 5.78056E-01
 -1      4258 4.45399E-01
 -1      4259 2.38243E-01
 -1      4260 2.20918E-01
 -1      4261 2.20918E-01
 -1      4262 2.46053E-01
 -1      4263 1.67272E+00
 -1      4264 2.58984E+00
 -1      4265 2.33298E+00
 -1      4266 1.51050E+00
 -1      4267 4.52102E+00
 -1      4268 3.94043E+00
 -1      4269 4.74529E+00
 -1      4270 3.18866E+00
 -1      4271 2.92757E+00
 -1      4272 6.68092E-01
 -1      4273 7.70282E-01
 -1      4274 8.17090E-01
 -1      4275 3.41745E+00
 -1      4276 1.82271E-01
 -1      4277 1.69284E-01
 -1      4278 2.30528E-01
 -1      4279 9.94105E-02
 -1      4280 8.19024E-02
 -1      4281 1.51009E-01
 -1      4282 1.39704E-01
 -1      4283 1.69284E-01
 -1      4284 7.65445E-02
 -1      4285 2.85339E-01
 -1      4286 2.73495E-01
 -1      4287 3.04335E-01
 -1      4288 1.08444E-01
 -1      4289 9.61563E-02
 -1      4290 1.40662E-01
 -1      4291 3.03767E+00
 -1      4292 8.27691E-02
 -1      4293 9.37417E-02
 -1      4294 3.03151E-01
 -1      4295 2.63188E-01
 -1      4296 2.38998E-01
 -1      4297 3.34137E-01
 -1      4298 1.32495E-01
 -1      4299 1.24110E-01
 -1      4300 1.19009E-01
 -1      4301 3.36619E+00
 -1      4302 2.86715E+00
 -1      4303 2.41749E+00
 -1      4304 2.65471E+00
 -1      4305 8.00889E-02
 -1      4306 7.30221E-02
 -1      4307 7.48153E-02
 -1      4308 8.72760E-02
 -1      4309 5.98264E-01
 -1      4310 2.16327E+00
 -1      4311 3.15653E-01
 -1      4312 3.35165E-01
 -1      4313 3.48934E-01
 -1      4314 8.63758E-02
 -1      4315 3.16057E-01
 -1      4316 1.25475E-01
 -1      4317 1.41634E-01
 -1      4318 3.23391E+00
 -1      4319 2.15353E+00
 -1      4320 1.48378E-01
 -1      4321 1.38032E-01
 -1      4322 1.40211E-01
 -1      4323 1.81067E-01
 -1      4324 1.92814E-01
 -1      4325 2.35782E-01
 -1      4326 2.60949E-01
 -1      4327 2.30528E-01
 -1      4328 2.60949E-01
 -1      4329 2.90776E-01
 -1      4330 3.21615E-01
 -1      4331 3.58067E-01
 -1      4332 4.00636E-01
 -1      4333 4.48613E-01
 -1      4334 5.21927E-01
 -1      4335 5.87145E-01
 -1      4336 6.90793E-01
 -1      4337 7.83838E-01
 -1      4338 9.34736E-01
 -1      4339 1.09497E+00
 -1      4340 1.69986E+00
 -1      4341 1.82476E+00
 -1      4342 1.49496E+00
 -1      4343 7.69311E-01
 -1      4344 6.65287E-01
 -1      4345 4.64681E-01
 -1      4346 4.32897E-01
 -1      4347 4.18112E-01
 -1      4348 4.80940E-01
 -1      4349 1.87560E-01
 -1      4350 1.69284E-01
 -1      4351 2.07898E+00
 -1      4352 1.06183E+00
 -1      4353 8.94784E-01
 -1      4354 8.33024E-01
 -1      4355 1.39163E+00
 -1      4356 1.47170E-01
 -1      4357 1.60161E-01
 -1      4358 2.33501E+00
 -1      4359 2.38366E+00
 -1      4360 2.06215E+00
 -1      4361 1.78907E+00
 -1      4362 7.12086E-02
 -1      4363 9.37417E-02
 -1      4364 2.73495E-01
 -1      4365 2.30528E-01
 -1      4366 6.97926E-01
 -1      4367 8.26715E-01
 -1      4368 1.66654E-01
 -1      4369 2.73495E-01
 -1      4370 5.97251E-01
 -1      4371 6.06876E-01
 -1      4372 5.64612E-01
 -1      4373 5.07215E-01
 -1      4374 2.07898E+00
 -1      4375 3.75340E+00
 -1      4376 4.32897E-01
 -1      4377 4.12142E-01
 -1      4378 4.90955E-01
 -1      4379 4.79927E-01
 -1      4380 7.48153E-02
 -1      4381 1.52936E+00
 -1      4382 1.80590E+00
 -1      4383 2.38053E-01
 -1      4384 3.34137E-01
 -1      4385 9.52188E-01
 -1      4386 1.09623E+00
 -1      4387 3.97356E-01
 -1      4388 7.48153E-02
 -1      4389 3.82785E+00
 -1      4390 1.09809E-01
 -1      4391 4.90464E+00
 -1      4392 1.80793E+00
 -3
 9999
