    1C
    1UUSER                                                              
    1UDATE              27.october.2022                                 
    1UTIME              01:00:48                                        
    1UHOST                                                              
    1UPGM               CalculiX                                        
    1UVERSION           Version 2.17                             
    1UCOMPILETIME       Thu Jul 23 21:43:50 CEST 2020                    
    1UDIR                                                               
    1UDBN                                                               
    1UMAT    1SOLIDMATERIAL                                             
    2C                          4215                                     1
 -1         1 2.09669E+01 1.94086E+01 0.00000E+00
 -1         2 2.79906E+01 1.24087E+01 0.00000E+00
 -1         3 1.50000E+02 0.00000E+00 0.00000E+00
 -1         4 1.50000E+02 5.00000E+01 0.00000E+00
 -1         5 0.00000E+00 0.00000E+00 0.00000E+00
 -1         6 0.00000E+00 5.00000E+01 0.00000E+00
 -1         7 0.00000E+00 4.70000E+01 0.00000E+00
 -1         8 0.00000E+00 4.40500E+01 0.00000E+00
 -1         9 0.00000E+00 4.11000E+01 0.00000E+00
 -1        10 0.00000E+00 3.81500E+01 0.00000E+00
 -1        11 0.00000E+00 3.52000E+01 0.00000E+00
 -1        12 0.00000E+00 3.22500E+01 0.00000E+00
 -1        13 0.00000E+00 2.93000E+01 0.00000E+00
 -1        14 0.00000E+00 2.63500E+01 0.00000E+00
 -1        15 0.00000E+00 2.34000E+01 0.00000E+00
 -1        16 0.00000E+00 2.04500E+01 0.00000E+00
 -1        17 0.00000E+00 1.75000E+01 0.00000E+00
 -1        18 0.00000E+00 1.45500E+01 0.00000E+00
 -1        19 0.00000E+00 1.17000E+01 0.00000E+00
 -1        20 0.00000E+00 8.85000E+00 0.00000E+00
 -1        21 0.00000E+00 5.90000E+00 0.00000E+00
 -1        22 0.00000E+00 2.95000E+00 0.00000E+00
 -1        23 3.15000E+00 5.00000E+01 0.00000E+00
 -1        24 6.15000E+00 5.00000E+01 0.00000E+00
 -1        25 9.15000E+00 5.00000E+01 0.00000E+00
 -1        26 1.21500E+01 5.00000E+01 0.00000E+00
 -1        27 1.51500E+01 5.00000E+01 0.00000E+00
 -1        28 1.81500E+01 5.00000E+01 0.00000E+00
 -1        29 2.11500E+01 5.00000E+01 0.00000E+00
 -1        30 2.41500E+01 5.00000E+01 0.00000E+00
 -1        31 2.71500E+01 5.00000E+01 0.00000E+00
 -1        32 3.01500E+01 5.00000E+01 0.00000E+00
 -1        33 3.31500E+01 5.00000E+01 0.00000E+00
 -1        34 3.61500E+01 5.00000E+01 0.00000E+00
 -1        35 3.91500E+01 5.00000E+01 0.00000E+00
 -1        36 4.21500E+01 5.00000E+01 0.00000E+00
 -1        37 4.51500E+01 5.00000E+01 0.00000E+00
 -1        38 4.81500E+01 5.00000E+01 0.00000E+00
 -1        39 5.11500E+01 5.00000E+01 0.00000E+00
 -1        40 5.41500E+01 5.00000E+01 0.00000E+00
 -1        41 5.71500E+01 5.00000E+01 0.00000E+00
 -1        42 6.01500E+01 5.00000E+01 0.00000E+00
 -1        43 6.31500E+01 5.00000E+01 0.00000E+00
 -1        44 6.61500E+01 5.00000E+01 0.00000E+00
 -1        45 6.91500E+01 5.00000E+01 0.00000E+00
 -1        46 7.21500E+01 5.00000E+01 0.00000E+00
 -1        47 7.51500E+01 5.00000E+01 0.00000E+00
 -1        48 7.81500E+01 5.00000E+01 0.00000E+00
 -1        49 8.11500E+01 5.00000E+01 0.00000E+00
 -1        50 8.41500E+01 5.00000E+01 0.00000E+00
 -1        51 8.71500E+01 5.00000E+01 0.00000E+00
 -1        52 9.01500E+01 5.00000E+01 0.00000E+00
 -1        53 9.31500E+01 5.00000E+01 0.00000E+00
 -1        54 9.61500E+01 5.00000E+01 0.00000E+00
 -1        55 9.91500E+01 5.00000E+01 0.00000E+00
 -1        56 1.02150E+02 5.00000E+01 0.00000E+00
 -1        57 1.05150E+02 5.00000E+01 0.00000E+00
 -1        58 1.08150E+02 5.00000E+01 0.00000E+00
 -1        59 1.11150E+02 5.00000E+01 0.00000E+00
 -1        60 1.14150E+02 5.00000E+01 0.00000E+00
 -1        61 1.17150E+02 5.00000E+01 0.00000E+00
 -1        62 1.20150E+02 5.00000E+01 0.00000E+00
 -1        63 1.23150E+02 5.00000E+01 0.00000E+00
 -1        64 1.26150E+02 5.00000E+01 0.00000E+00
 -1        65 1.29150E+02 5.00000E+01 0.00000E+00
 -1        66 1.32150E+02 5.00000E+01 0.00000E+00
 -1        67 1.35150E+02 5.00000E+01 0.00000E+00
 -1        68 1.38150E+02 5.00000E+01 0.00000E+00
 -1        69 1.41150E+02 5.00000E+01 0.00000E+00
 -1        70 1.44150E+02 5.00000E+01 0.00000E+00
 -1        71 1.47150E+02 5.00000E+01 0.00000E+00
 -1        72 3.15000E+00 0.00000E+00 0.00000E+00
 -1        73 6.15000E+00 0.00000E+00 0.00000E+00
 -1        74 9.00000E+00 0.00000E+00 0.00000E+00
 -1        75 1.18500E+01 0.00000E+00 0.00000E+00
 -1        76 1.45500E+01 0.00000E+00 0.00000E+00
 -1        77 1.74000E+01 0.00000E+00 0.00000E+00
 -1        78 1.99500E+01 0.00000E+00 0.00000E+00
 -1        79 2.20500E+01 0.00000E+00 0.00000E+00
 -1        80 2.43000E+01 0.00000E+00 0.00000E+00
 -1        81 2.70000E+01 0.00000E+00 0.00000E+00
 -1        82 3.00000E+01 0.00000E+00 0.00000E+00
 -1        83 3.30000E+01 0.00000E+00 0.00000E+00
 -1        84 3.60000E+01 0.00000E+00 0.00000E+00
 -1        85 3.90000E+01 0.00000E+00 0.00000E+00
 -1        86 4.20000E+01 0.00000E+00 0.00000E+00
 -1        87 4.50000E+01 0.00000E+00 0.00000E+00
 -1        88 4.80000E+01 0.00000E+00 0.00000E+00
 -1        89 5.10000E+01 0.00000E+00 0.00000E+00
 -1        90 5.40000E+01 0.00000E+00 0.00000E+00
 -1        91 5.70000E+01 0.00000E+00 0.00000E+00
 -1        92 6.00000E+01 0.00000E+00 0.00000E+00
 -1        93 6.30000E+01 0.00000E+00 0.00000E+00
 -1        94 6.60000E+01 0.00000E+00 0.00000E+00
 -1        95 6.90000E+01 0.00000E+00 0.00000E+00
 -1        96 7.20000E+01 0.00000E+00 0.00000E+00
 -1        97 7.50000E+01 0.00000E+00 0.00000E+00
 -1        98 7.80000E+01 0.00000E+00 0.00000E+00
 -1        99 8.10000E+01 0.00000E+00 0.00000E+00
 -1       100 8.40000E+01 0.00000E+00 0.00000E+00
 -1       101 8.70000E+01 0.00000E+00 0.00000E+00
 -1       102 9.00000E+01 0.00000E+00 0.00000E+00
 -1       103 9.30000E+01 0.00000E+00 0.00000E+00
 -1       104 9.60000E+01 0.00000E+00 0.00000E+00
 -1       105 9.90000E+01 0.00000E+00 0.00000E+00
 -1       106 1.02000E+02 0.00000E+00 0.00000E+00
 -1       107 1.05000E+02 0.00000E+00 0.00000E+00
 -1       108 1.08000E+02 0.00000E+00 0.00000E+00
 -1       109 1.11000E+02 0.00000E+00 0.00000E+00
 -1       110 1.14000E+02 0.00000E+00 0.00000E+00
 -1       111 1.17000E+02 0.00000E+00 0.00000E+00
 -1       112 1.20000E+02 0.00000E+00 0.00000E+00
 -1       113 1.23000E+02 0.00000E+00 0.00000E+00
 -1       114 1.26000E+02 0.00000E+00 0.00000E+00
 -1       115 1.29000E+02 0.00000E+00 0.00000E+00
 -1       116 1.32000E+02 0.00000E+00 0.00000E+00
 -1       117 1.35000E+02 0.00000E+00 0.00000E+00
 -1       118 1.38000E+02 0.00000E+00 0.00000E+00
 -1       119 1.41000E+02 0.00000E+00 0.00000E+00
 -1       120 1.44000E+02 0.00000E+00 0.00000E+00
 -1       121 1.47000E+02 0.00000E+00 0.00000E+00
 -1       122 1.50000E+02 2.95000E+00 0.00000E+00
 -1       123 1.50000E+02 5.90000E+00 0.00000E+00
 -1       124 1.50000E+02 8.85000E+00 0.00000E+00
 -1       125 1.50000E+02 1.18000E+01 0.00000E+00
 -1       126 1.50000E+02 1.47500E+01 0.00000E+00
 -1       127 1.50000E+02 1.76500E+01 0.00000E+00
 -1       128 1.50000E+02 2.06000E+01 0.00000E+00
 -1       129 1.50000E+02 2.35500E+01 0.00000E+00
 -1       130 1.50000E+02 2.65000E+01 0.00000E+00
 -1       131 1.50000E+02 2.94500E+01 0.00000E+00
 -1       132 1.50000E+02 3.24000E+01 0.00000E+00
 -1       133 1.50000E+02 3.53000E+01 0.00000E+00
 -1       134 1.50000E+02 3.82500E+01 0.00000E+00
 -1       135 1.50000E+02 4.12000E+01 0.00000E+00
 -1       136 1.50000E+02 4.41500E+01 0.00000E+00
 -1       137 1.50000E+02 4.71000E+01 0.00000E+00
 -1       138 2.78404E+01 1.09661E+01 0.00000E+00
 -1       139 2.73833E+01 9.55669E+00 0.00000E+00
 -1       140 2.66378E+01 8.27237E+00 0.00000E+00
 -1       141 2.56914E+01 7.22190E+00 0.00000E+00
 -1       142 2.43701E+01 6.27850E+00 0.00000E+00
 -1       143 2.30345E+01 5.71371E+00 0.00000E+00
 -1       144 2.15335E+01 5.42976E+00 0.00000E+00
 -1       145 1.99037E+01 5.49358E+00 0.00000E+00
 -1       146 1.85216E+01 5.85857E+00 0.00000E+00
 -1       147 1.72487E+01 6.49281E+00 0.00000E+00
 -1       148 1.60319E+01 7.46794E+00 0.00000E+00
 -1       149 1.51014E+01 8.62487E+00 0.00000E+00
 -1       150 1.44533E+01 9.90601E+00 0.00000E+00
 -1       151 1.40661E+01 1.13838E+01 0.00000E+00
 -1       152 1.40033E+01 1.28299E+01 0.00000E+00
 -1       153 1.42653E+01 1.43501E+01 0.00000E+00
 -1       154 1.47912E+01 1.56594E+01 0.00000E+00
 -1       155 1.56328E+01 1.69135E+01 0.00000E+00
 -1       156 1.68087E+01 1.80222E+01 0.00000E+00
 -1       157 1.80644E+01 1.87677E+01 0.00000E+00
 -1       158 1.94321E+01 1.92330E+01 0.00000E+00
 -1       159 2.23657E+01 1.92723E+01 0.00000E+00
 -1       160 2.36531E+01 1.88826E+01 0.00000E+00
 -1       161 2.48592E+01 1.82426E+01 0.00000E+00
 -1       162 2.58963E+01 1.74021E+01 0.00000E+00
 -1       163 2.67805E+01 1.63428E+01 0.00000E+00
 -1       164 2.74469E+01 1.51136E+01 0.00000E+00
 -1       165 2.78606E+01 1.37517E+01 0.00000E+00
 -1       166 2.59800E+00 4.55250E+01 0.00000E+00
 -1       167 2.59800E+00 4.25750E+01 0.00000E+00
 -1       168 2.59800E+00 3.96250E+01 0.00000E+00
 -1       169 2.59800E+00 3.66750E+01 0.00000E+00
 -1       170 2.59800E+00 3.37250E+01 0.00000E+00
 -1       171 2.59800E+00 3.07750E+01 0.00000E+00
 -1       172 2.59800E+00 2.78250E+01 0.00000E+00
 -1       173 2.59800E+00 2.48750E+01 0.00000E+00
 -1       174 2.59800E+00 2.19250E+01 0.00000E+00
 -1       175 2.59800E+00 1.89750E+01 0.00000E+00
 -1       176 2.59800E+00 1.60250E+01 0.00000E+00
 -1       177 2.59800E+00 1.31750E+01 0.00000E+00
 -1       178 2.59800E+00 1.03250E+01 0.00000E+00
 -1       179 2.59800E+00 7.37500E+00 0.00000E+00
 -1       180 2.59800E+00 4.42500E+00 0.00000E+00
 -1       181 2.87400E+00 2.21250E+00 0.00000E+00
 -1       182 4.65000E+00 4.74020E+01 0.00000E+00
 -1       183 7.65000E+00 4.74020E+01 0.00000E+00
 -1       184 1.06500E+01 4.74020E+01 0.00000E+00
 -1       185 1.36500E+01 4.74020E+01 0.00000E+00
 -1       186 1.66500E+01 4.74020E+01 0.00000E+00
 -1       187 1.96500E+01 4.74020E+01 0.00000E+00
 -1       188 2.26500E+01 4.74020E+01 0.00000E+00
 -1       189 2.56500E+01 4.74020E+01 0.00000E+00
 -1       190 2.86500E+01 4.74020E+01 0.00000E+00
 -1       191 3.16500E+01 4.74020E+01 0.00000E+00
 -1       192 3.46500E+01 4.74020E+01 0.00000E+00
 -1       193 3.76500E+01 4.74020E+01 0.00000E+00
 -1       194 4.06500E+01 4.74020E+01 0.00000E+00
 -1       195 4.36500E+01 4.74020E+01 0.00000E+00
 -1       196 4.66500E+01 4.74020E+01 0.00000E+00
 -1       197 4.96500E+01 4.74020E+01 0.00000E+00
 -1       198 5.26500E+01 4.74020E+01 0.00000E+00
 -1       199 5.56500E+01 4.74020E+01 0.00000E+00
 -1       200 5.86500E+01 4.74020E+01 0.00000E+00
 -1       201 6.16500E+01 4.74020E+01 0.00000E+00
 -1       202 6.46500E+01 4.74020E+01 0.00000E+00
 -1       203 6.76500E+01 4.74020E+01 0.00000E+00
 -1       204 7.06500E+01 4.74020E+01 0.00000E+00
 -1       205 7.36500E+01 4.74020E+01 0.00000E+00
 -1       206 7.66500E+01 4.74020E+01 0.00000E+00
 -1       207 7.96500E+01 4.74020E+01 0.00000E+00
 -1       208 8.26500E+01 4.74020E+01 0.00000E+00
 -1       209 8.56500E+01 4.74020E+01 0.00000E+00
 -1       210 8.86500E+01 4.74020E+01 0.00000E+00
 -1       211 9.16500E+01 4.74020E+01 0.00000E+00
 -1       212 9.46500E+01 4.74020E+01 0.00000E+00
 -1       213 9.76500E+01 4.74020E+01 0.00000E+00
 -1       214 1.00650E+02 4.74020E+01 0.00000E+00
 -1       215 1.03650E+02 4.74020E+01 0.00000E+00
 -1       216 1.06650E+02 4.74020E+01 0.00000E+00
 -1       217 1.09650E+02 4.74020E+01 0.00000E+00
 -1       218 1.12650E+02 4.74020E+01 0.00000E+00
 -1       219 1.15650E+02 4.74020E+01 0.00000E+00
 -1       220 1.18650E+02 4.74020E+01 0.00000E+00
 -1       221 1.21650E+02 4.74020E+01 0.00000E+00
 -1       222 1.24650E+02 4.74020E+01 0.00000E+00
 -1       223 1.27650E+02 4.74020E+01 0.00000E+00
 -1       224 1.30650E+02 4.74020E+01 0.00000E+00
 -1       225 1.33650E+02 4.74020E+01 0.00000E+00
 -1       226 1.36650E+02 4.74020E+01 0.00000E+00
 -1       227 1.39650E+02 4.74020E+01 0.00000E+00
 -1       228 1.42650E+02 4.74020E+01 0.00000E+00
 -1       229 1.45650E+02 4.74020E+01 0.00000E+00
 -1       230 5.87400E+00 2.21250E+00 0.00000E+00
 -1       231 8.72400E+00 2.21250E+00 0.00000E+00
 -1       232 1.15740E+01 2.21250E+00 0.00000E+00
 -1       233 1.42740E+01 2.21250E+00 0.00000E+00
 -1       234 1.71240E+01 2.21250E+00 0.00000E+00
 -1       235 1.96740E+01 2.21250E+00 0.00000E+00
 -1       236 2.17740E+01 2.21250E+00 0.00000E+00
 -1       237 2.40240E+01 2.21250E+00 0.00000E+00
 -1       238 2.67240E+01 2.21250E+00 0.00000E+00
 -1       239 2.97240E+01 2.21250E+00 0.00000E+00
 -1       240 3.27240E+01 2.21250E+00 0.00000E+00
 -1       241 3.57240E+01 2.21250E+00 0.00000E+00
 -1       242 3.87240E+01 2.21250E+00 0.00000E+00
 -1       243 4.17240E+01 2.21250E+00 0.00000E+00
 -1       244 4.47240E+01 2.21250E+00 0.00000E+00
 -1       245 4.77240E+01 2.21250E+00 0.00000E+00
 -1       246 5.07240E+01 2.21250E+00 0.00000E+00
 -1       247 5.37240E+01 2.21250E+00 0.00000E+00
 -1       248 5.67240E+01 2.21250E+00 0.00000E+00
 -1       249 5.97240E+01 2.21250E+00 0.00000E+00
 -1       250 6.27240E+01 2.21250E+00 0.00000E+00
 -1       251 6.57240E+01 2.21250E+00 0.00000E+00
 -1       252 6.87240E+01 2.21250E+00 0.00000E+00
 -1       253 7.17240E+01 2.21250E+00 0.00000E+00
 -1       254 7.47240E+01 2.21250E+00 0.00000E+00
 -1       255 7.77240E+01 2.21250E+00 0.00000E+00
 -1       256 8.07240E+01 2.21250E+00 0.00000E+00
 -1       257 8.37240E+01 2.21250E+00 0.00000E+00
 -1       258 8.67240E+01 2.21250E+00 0.00000E+00
 -1       259 8.97240E+01 2.21250E+00 0.00000E+00
 -1       260 9.27240E+01 2.21250E+00 0.00000E+00
 -1       261 9.57240E+01 2.21250E+00 0.00000E+00
 -1       262 9.87240E+01 2.21250E+00 0.00000E+00
 -1       263 1.01724E+02 2.21250E+00 0.00000E+00
 -1       264 1.04724E+02 2.21250E+00 0.00000E+00
 -1       265 1.07724E+02 2.21250E+00 0.00000E+00
 -1       266 1.10724E+02 2.21250E+00 0.00000E+00
 -1       267 1.13724E+02 2.21250E+00 0.00000E+00
 -1       268 1.16724E+02 2.21250E+00 0.00000E+00
 -1       269 1.19724E+02 2.21250E+00 0.00000E+00
 -1       270 1.22724E+02 2.21250E+00 0.00000E+00
 -1       271 1.25724E+02 2.21250E+00 0.00000E+00
 -1       272 1.28724E+02 2.21250E+00 0.00000E+00
 -1       273 1.31724E+02 2.21250E+00 0.00000E+00
 -1       274 1.34724E+02 2.21250E+00 0.00000E+00
 -1       275 1.37724E+02 2.21250E+00 0.00000E+00
 -1       276 1.40724E+02 2.21250E+00 0.00000E+00
 -1       277 1.43724E+02 2.21250E+00 0.00000E+00
 -1       278 1.46724E+02 2.21250E+00 0.00000E+00
 -1       279 1.47402E+02 4.42500E+00 0.00000E+00
 -1       280 1.47402E+02 7.37500E+00 0.00000E+00
 -1       281 1.47402E+02 1.03250E+01 0.00000E+00
 -1       282 1.47402E+02 1.32750E+01 0.00000E+00
 -1       283 1.47402E+02 1.61750E+01 0.00000E+00
 -1       284 1.47402E+02 1.91250E+01 0.00000E+00
 -1       285 1.47402E+02 2.20750E+01 0.00000E+00
 -1       286 1.47402E+02 2.50250E+01 0.00000E+00
 -1       287 1.47402E+02 2.79750E+01 0.00000E+00
 -1       288 1.47402E+02 3.09250E+01 0.00000E+00
 -1       289 1.47402E+02 3.38250E+01 0.00000E+00
 -1       290 1.47402E+02 3.67750E+01 0.00000E+00
 -1       291 1.47402E+02 3.97250E+01 0.00000E+00
 -1       292 1.47402E+02 4.26750E+01 0.00000E+00
 -1       293 1.46526E+02 4.50385E+01 0.00000E+00
 -1       294 2.92047E+01 1.15531E+01 0.00000E+00
 -1       295 2.88448E+01 9.86152E+00 0.00000E+00
 -1       296 2.81316E+01 8.26385E+00 0.00000E+00
 -1       297 2.71276E+01 6.87952E+00 0.00000E+00
 -1       298 2.58813E+01 5.55893E+00 0.00000E+00
 -1       299 2.41745E+01 4.87944E+00 0.00000E+00
 -1       300 2.25093E+01 4.38047E+00 0.00000E+00
 -1       301 2.06580E+01 3.91532E+00 0.00000E+00
 -1       302 1.88817E+01 4.42285E+00 0.00000E+00
 -1       303 1.73445E+01 5.09052E+00 0.00000E+00
 -1       304 1.56725E+01 5.77279E+00 0.00000E+00
 -1       305 1.45566E+01 7.23407E+00 0.00000E+00
 -1       306 1.36955E+01 8.71815E+00 0.00000E+00
 -1       307 1.30058E+01 1.03164E+01 0.00000E+00
 -1       308 1.28234E+01 1.20543E+01 0.00000E+00
 -1       309 1.27744E+01 1.38243E+01 0.00000E+00
 -1       310 1.34032E+01 1.54567E+01 0.00000E+00
 -1       311 1.42052E+01 1.69620E+01 0.00000E+00
 -1       312 1.52166E+01 1.85329E+01 0.00000E+00
 -1       313 1.68176E+01 1.94374E+01 0.00000E+00
 -1       314 1.83578E+01 2.01481E+01 0.00000E+00
 -1       315 2.00331E+01 2.07751E+01 0.00000E+00
 -1       316 2.17839E+01 2.05472E+01 0.00000E+00
 -1       317 2.33607E+01 2.02378E+01 0.00000E+00
 -1       318 2.48245E+01 1.96335E+01 0.00000E+00
 -1       319 2.61411E+01 1.87643E+01 0.00000E+00
 -1       320 2.72692E+01 1.76494E+01 0.00000E+00
 -1       321 2.81796E+01 1.63060E+01 0.00000E+00
 -1       322 2.88138E+01 1.47850E+01 0.00000E+00
 -1       323 2.91324E+01 1.31970E+01 0.00000E+00
 -1       324 5.19600E+00 4.11000E+01 0.00000E+00
 -1       325 5.19600E+00 4.40500E+01 0.00000E+00
 -1       326 5.19600E+00 3.52000E+01 0.00000E+00
 -1       327 5.19600E+00 3.22500E+01 0.00000E+00
 -1       328 5.19600E+00 2.93000E+01 0.00000E+00
 -1       329 5.19600E+00 2.63500E+01 0.00000E+00
 -1       330 5.19600E+00 2.34000E+01 0.00000E+00
 -1       331 5.19600E+00 2.04500E+01 0.00000E+00
 -1       332 5.19600E+00 1.75000E+01 0.00000E+00
 -1       333 5.19600E+00 1.46500E+01 0.00000E+00
 -1       334 5.19600E+00 1.18000E+01 0.00000E+00
 -1       335 5.19600E+00 8.85000E+00 0.00000E+00
 -1       336 5.19600E+00 5.90000E+00 0.00000E+00
 -1       337 5.53500E+00 4.05625E+00 0.00000E+00
 -1       338 8.38500E+00 4.05625E+00 0.00000E+00
 -1       339 9.15000E+00 4.48040E+01 0.00000E+00
 -1       340 1.21500E+01 4.48040E+01 0.00000E+00
 -1       341 1.51500E+01 4.48040E+01 0.00000E+00
 -1       342 1.81500E+01 4.48040E+01 0.00000E+00
 -1       343 2.11500E+01 4.48040E+01 0.00000E+00
 -1       344 2.41500E+01 4.48040E+01 0.00000E+00
 -1       345 2.71500E+01 4.48040E+01 0.00000E+00
 -1       346 3.01500E+01 4.48040E+01 0.00000E+00
 -1       347 3.31500E+01 4.48040E+01 0.00000E+00
 -1       348 3.61500E+01 4.48040E+01 0.00000E+00
 -1       349 3.91500E+01 4.48040E+01 0.00000E+00
 -1       350 4.21500E+01 4.48040E+01 0.00000E+00
 -1       351 4.51500E+01 4.48040E+01 0.00000E+00
 -1       352 4.81500E+01 4.48040E+01 0.00000E+00
 -1       353 5.11500E+01 4.48040E+01 0.00000E+00
 -1       354 5.41500E+01 4.48040E+01 0.00000E+00
 -1       355 5.71500E+01 4.48040E+01 0.00000E+00
 -1       356 6.01500E+01 4.48040E+01 0.00000E+00
 -1       357 6.31500E+01 4.48040E+01 0.00000E+00
 -1       358 6.61500E+01 4.48040E+01 0.00000E+00
 -1       359 6.91500E+01 4.48040E+01 0.00000E+00
 -1       360 7.21500E+01 4.48040E+01 0.00000E+00
 -1       361 7.51500E+01 4.48040E+01 0.00000E+00
 -1       362 7.81500E+01 4.48040E+01 0.00000E+00
 -1       363 8.11500E+01 4.48040E+01 0.00000E+00
 -1       364 8.41500E+01 4.48040E+01 0.00000E+00
 -1       365 8.71500E+01 4.48040E+01 0.00000E+00
 -1       366 9.01500E+01 4.48040E+01 0.00000E+00
 -1       367 9.31500E+01 4.48040E+01 0.00000E+00
 -1       368 9.61500E+01 4.48040E+01 0.00000E+00
 -1       369 9.91500E+01 4.48040E+01 0.00000E+00
 -1       370 1.02150E+02 4.48040E+01 0.00000E+00
 -1       371 1.05150E+02 4.48040E+01 0.00000E+00
 -1       372 1.08150E+02 4.48040E+01 0.00000E+00
 -1       373 1.11150E+02 4.48040E+01 0.00000E+00
 -1       374 1.14150E+02 4.48040E+01 0.00000E+00
 -1       375 1.17150E+02 4.48040E+01 0.00000E+00
 -1       376 1.20150E+02 4.48040E+01 0.00000E+00
 -1       377 1.23150E+02 4.48040E+01 0.00000E+00
 -1       378 1.26150E+02 4.48040E+01 0.00000E+00
 -1       379 1.29150E+02 4.48040E+01 0.00000E+00
 -1       380 1.32150E+02 4.48040E+01 0.00000E+00
 -1       381 1.35150E+02 4.48040E+01 0.00000E+00
 -1       382 1.38150E+02 4.48040E+01 0.00000E+00
 -1       383 1.41150E+02 4.48040E+01 0.00000E+00
 -1       384 1.43838E+02 4.49212E+01 0.00000E+00
 -1       385 1.12350E+01 4.05625E+00 0.00000E+00
 -1       386 2.82240E+01 4.59789E+00 0.00000E+00
 -1       387 3.12240E+01 4.59789E+00 0.00000E+00
 -1       388 3.42240E+01 4.59789E+00 0.00000E+00
 -1       389 3.72240E+01 4.59789E+00 0.00000E+00
 -1       390 4.02240E+01 4.59789E+00 0.00000E+00
 -1       391 4.32240E+01 4.59789E+00 0.00000E+00
 -1       392 4.62240E+01 4.59789E+00 0.00000E+00
 -1       393 4.92240E+01 4.59789E+00 0.00000E+00
 -1       394 5.22240E+01 4.59789E+00 0.00000E+00
 -1       395 5.52240E+01 4.59789E+00 0.00000E+00
 -1       396 5.82240E+01 4.59789E+00 0.00000E+00
 -1       397 6.12240E+01 4.59789E+00 0.00000E+00
 -1       398 6.42240E+01 4.59789E+00 0.00000E+00
 -1       399 6.72240E+01 4.59789E+00 0.00000E+00
 -1       400 7.02240E+01 4.59789E+00 0.00000E+00
 -1       401 7.32240E+01 4.59789E+00 0.00000E+00
 -1       402 7.62240E+01 4.59789E+00 0.00000E+00
 -1       403 7.92240E+01 4.59789E+00 0.00000E+00
 -1       404 8.22240E+01 4.59789E+00 0.00000E+00
 -1       405 8.52240E+01 4.59789E+00 0.00000E+00
 -1       406 8.82240E+01 4.59789E+00 0.00000E+00
 -1       407 9.12240E+01 4.59789E+00 0.00000E+00
 -1       408 9.42240E+01 4.59789E+00 0.00000E+00
 -1       409 9.72240E+01 4.59789E+00 0.00000E+00
 -1       410 1.00224E+02 4.59789E+00 0.00000E+00
 -1       411 1.03224E+02 4.59789E+00 0.00000E+00
 -1       412 1.06224E+02 4.59789E+00 0.00000E+00
 -1       413 1.09224E+02 4.59789E+00 0.00000E+00
 -1       414 1.12224E+02 4.59789E+00 0.00000E+00
 -1       415 1.15224E+02 4.59789E+00 0.00000E+00
 -1       416 1.18224E+02 4.59789E+00 0.00000E+00
 -1       417 1.21224E+02 4.59789E+00 0.00000E+00
 -1       418 1.24224E+02 4.59789E+00 0.00000E+00
 -1       419 1.27224E+02 4.59789E+00 0.00000E+00
 -1       420 1.30224E+02 4.59789E+00 0.00000E+00
 -1       421 1.33224E+02 4.59789E+00 0.00000E+00
 -1       422 1.36224E+02 4.59789E+00 0.00000E+00
 -1       423 1.39224E+02 4.59789E+00 0.00000E+00
 -1       424 1.42224E+02 4.59789E+00 0.00000E+00
 -1       425 1.44813E+02 4.51145E+00 0.00000E+00
 -1       426 1.44804E+02 1.18000E+01 0.00000E+00
 -1       427 1.44804E+02 8.85000E+00 0.00000E+00
 -1       428 1.44804E+02 1.47000E+01 0.00000E+00
 -1       429 1.44804E+02 1.76500E+01 0.00000E+00
 -1       430 1.44804E+02 2.06000E+01 0.00000E+00
 -1       431 1.44804E+02 2.35500E+01 0.00000E+00
 -1       432 1.44804E+02 2.65000E+01 0.00000E+00
 -1       433 1.44804E+02 2.94500E+01 0.00000E+00
 -1       434 1.44804E+02 3.23500E+01 0.00000E+00
 -1       435 1.44804E+02 3.53000E+01 0.00000E+00
 -1       436 1.44804E+02 3.82500E+01 0.00000E+00
 -1       437 1.44804E+02 4.12000E+01 0.00000E+00
 -1       438 3.00544E+01 8.36355E+00 0.00000E+00
 -1       439 3.07146E+01 1.24431E+01 0.00000E+00
 -1       440 3.02926E+01 1.04376E+01 0.00000E+00
 -1       441 2.88824E+01 6.66312E+00 0.00000E+00
 -1       442 5.19600E+00 3.81500E+01 0.00000E+00
 -1       443 1.75300E+01 3.41409E+00 0.00000E+00
 -1       444 1.58580E+01 4.09636E+00 0.00000E+00
 -1       445 1.39512E+01 5.61506E+00 0.00000E+00
 -1       446 1.29325E+01 7.28356E+00 0.00000E+00
 -1       447 1.19298E+01 8.90407E+00 0.00000E+00
 -1       448 1.15422E+01 1.10413E+01 0.00000E+00
 -1       449 1.14194E+01 1.29010E+01 0.00000E+00
 -1       450 1.16447E+01 1.51968E+01 0.00000E+00
 -1       451 1.24467E+01 1.67021E+01 0.00000E+00
 -1       452 1.34097E+01 1.85851E+01 0.00000E+00
 -1       453 1.53795E+01 2.01137E+01 0.00000E+00
 -1       454 1.69393E+01 2.11980E+01 0.00000E+00
 -1       455 1.86146E+01 2.18249E+01 0.00000E+00
 -1       456 2.11083E+01 2.21957E+01 0.00000E+00
 -1       457 2.26850E+01 2.18864E+01 0.00000E+00
 -1       458 2.46192E+01 2.12112E+01 0.00000E+00
 -1       459 2.62431E+01 2.03505E+01 0.00000E+00
 -1       460 2.76163E+01 1.91287E+01 0.00000E+00
 -1       461 2.87974E+01 1.77049E+01 0.00000E+00
 -1       462 2.97704E+01 1.60766E+01 0.00000E+00
 -1       463 3.03960E+01 1.40311E+01 0.00000E+00
 -1       464 2.57280E+01 3.45406E+00 0.00000E+00
 -1       465 1.29240E+01 4.09518E+00 0.00000E+00
 -1       466 1.96898E+01 2.32455E+01 0.00000E+00
 -1       467 1.35726E+01 2.01659E+01 0.00000E+00
 -1       468 9.81000E+00 6.44165E+00 0.00000E+00
 -1       469 7.79400E+00 3.07750E+01 0.00000E+00
 -1       470 7.79400E+00 3.37250E+01 0.00000E+00
 -1       471 7.79400E+00 2.48750E+01 0.00000E+00
 -1       472 7.79400E+00 2.19250E+01 0.00000E+00
 -1       473 7.79400E+00 1.89750E+01 0.00000E+00
 -1       474 7.79400E+00 1.61250E+01 0.00000E+00
 -1       475 7.79400E+00 1.32750E+01 0.00000E+00
 -1       476 7.79400E+00 1.03250E+01 0.00000E+00
 -1       477 3.27240E+01 7.15085E+00 0.00000E+00
 -1       478 3.57240E+01 7.15085E+00 0.00000E+00
 -1       479 1.06500E+01 4.22060E+01 0.00000E+00
 -1       480 7.92300E+00 4.16530E+01 0.00000E+00
 -1       481 1.36500E+01 4.22060E+01 0.00000E+00
 -1       482 1.66500E+01 4.22060E+01 0.00000E+00
 -1       483 1.96500E+01 4.22060E+01 0.00000E+00
 -1       484 2.26500E+01 4.22060E+01 0.00000E+00
 -1       485 2.56500E+01 4.22060E+01 0.00000E+00
 -1       486 2.86500E+01 4.22060E+01 0.00000E+00
 -1       487 3.16500E+01 4.22060E+01 0.00000E+00
 -1       488 3.46500E+01 4.22060E+01 0.00000E+00
 -1       489 3.76500E+01 4.22060E+01 0.00000E+00
 -1       490 4.06500E+01 4.22060E+01 0.00000E+00
 -1       491 4.36500E+01 4.22060E+01 0.00000E+00
 -1       492 4.66500E+01 4.22060E+01 0.00000E+00
 -1       493 4.96500E+01 4.22060E+01 0.00000E+00
 -1       494 5.26500E+01 4.22060E+01 0.00000E+00
 -1       495 5.56500E+01 4.22060E+01 0.00000E+00
 -1       496 5.86500E+01 4.22060E+01 0.00000E+00
 -1       497 6.16500E+01 4.22060E+01 0.00000E+00
 -1       498 6.46500E+01 4.22060E+01 0.00000E+00
 -1       499 6.76500E+01 4.22060E+01 0.00000E+00
 -1       500 7.06500E+01 4.22060E+01 0.00000E+00
 -1       501 7.36500E+01 4.22060E+01 0.00000E+00
 -1       502 7.66500E+01 4.22060E+01 0.00000E+00
 -1       503 7.96500E+01 4.22060E+01 0.00000E+00
 -1       504 8.26500E+01 4.22060E+01 0.00000E+00
 -1       505 8.56500E+01 4.22060E+01 0.00000E+00
 -1       506 8.86500E+01 4.22060E+01 0.00000E+00
 -1       507 9.16500E+01 4.22060E+01 0.00000E+00
 -1       508 9.46500E+01 4.22060E+01 0.00000E+00
 -1       509 9.76500E+01 4.22060E+01 0.00000E+00
 -1       510 1.00650E+02 4.22060E+01 0.00000E+00
 -1       511 1.03650E+02 4.22060E+01 0.00000E+00
 -1       512 1.06650E+02 4.22060E+01 0.00000E+00
 -1       513 1.09650E+02 4.22060E+01 0.00000E+00
 -1       514 1.12650E+02 4.22060E+01 0.00000E+00
 -1       515 1.15650E+02 4.22060E+01 0.00000E+00
 -1       516 1.18650E+02 4.22060E+01 0.00000E+00
 -1       517 1.21650E+02 4.22060E+01 0.00000E+00
 -1       518 1.24650E+02 4.22060E+01 0.00000E+00
 -1       519 1.27650E+02 4.22060E+01 0.00000E+00
 -1       520 1.30650E+02 4.22060E+01 0.00000E+00
 -1       521 1.33650E+02 4.22060E+01 0.00000E+00
 -1       522 1.36650E+02 4.22060E+01 0.00000E+00
 -1       523 1.39650E+02 4.22060E+01 0.00000E+00
 -1       524 3.87240E+01 7.15085E+00 0.00000E+00
 -1       525 4.17240E+01 7.15085E+00 0.00000E+00
 -1       526 4.47240E+01 7.15085E+00 0.00000E+00
 -1       527 4.77240E+01 7.15085E+00 0.00000E+00
 -1       528 5.07240E+01 7.15085E+00 0.00000E+00
 -1       529 5.37240E+01 7.15085E+00 0.00000E+00
 -1       530 5.67240E+01 7.15085E+00 0.00000E+00
 -1       531 5.97240E+01 7.15085E+00 0.00000E+00
 -1       532 6.27240E+01 7.15085E+00 0.00000E+00
 -1       533 6.57240E+01 7.15085E+00 0.00000E+00
 -1       534 6.87240E+01 7.15085E+00 0.00000E+00
 -1       535 7.17240E+01 7.15085E+00 0.00000E+00
 -1       536 7.47240E+01 7.15085E+00 0.00000E+00
 -1       537 7.77240E+01 7.15085E+00 0.00000E+00
 -1       538 8.07240E+01 7.15085E+00 0.00000E+00
 -1       539 8.37240E+01 7.15085E+00 0.00000E+00
 -1       540 8.67240E+01 7.15085E+00 0.00000E+00
 -1       541 8.97240E+01 7.15085E+00 0.00000E+00
 -1       542 9.27240E+01 7.15085E+00 0.00000E+00
 -1       543 9.57240E+01 7.15085E+00 0.00000E+00
 -1       544 9.87240E+01 7.15085E+00 0.00000E+00
 -1       545 1.01724E+02 7.15085E+00 0.00000E+00
 -1       546 1.04724E+02 7.15085E+00 0.00000E+00
 -1       547 1.07724E+02 7.15085E+00 0.00000E+00
 -1       548 1.10724E+02 7.15085E+00 0.00000E+00
 -1       549 1.13724E+02 7.15085E+00 0.00000E+00
 -1       550 1.16724E+02 7.15085E+00 0.00000E+00
 -1       551 1.19724E+02 7.15085E+00 0.00000E+00
 -1       552 1.22724E+02 7.15085E+00 0.00000E+00
 -1       553 1.25724E+02 7.15085E+00 0.00000E+00
 -1       554 1.28724E+02 7.15085E+00 0.00000E+00
 -1       555 1.31724E+02 7.15085E+00 0.00000E+00
 -1       556 1.34724E+02 7.15085E+00 0.00000E+00
 -1       557 1.37724E+02 7.15085E+00 0.00000E+00
 -1       558 1.40724E+02 7.15085E+00 0.00000E+00
 -1       559 1.42206E+02 1.61750E+01 0.00000E+00
 -1       560 1.42206E+02 1.32750E+01 0.00000E+00
 -1       561 1.42206E+02 1.03250E+01 0.00000E+00
 -1       562 3.21819E+01 1.10871E+01 0.00000E+00
 -1       563 1.42206E+02 1.91250E+01 0.00000E+00
 -1       564 1.42206E+02 2.20750E+01 0.00000E+00
 -1       565 1.42206E+02 2.50250E+01 0.00000E+00
 -1       566 1.42206E+02 2.79750E+01 0.00000E+00
 -1       567 1.42206E+02 3.08750E+01 0.00000E+00
 -1       568 1.42206E+02 3.38250E+01 0.00000E+00
 -1       569 1.42206E+02 3.67750E+01 0.00000E+00
 -1       570 1.42206E+02 3.97250E+01 0.00000E+00
 -1       571 1.00484E+01 9.66660E+00 0.00000E+00
 -1       572 3.19437E+01 9.01314E+00 0.00000E+00
 -1       573 1.18806E+01 6.02835E+00 0.00000E+00
 -1       574 3.19905E+01 1.35250E+01 0.00000E+00
 -1       575 1.53239E+01 2.18577E+01 0.00000E+00
 -1       576 3.17233E+01 1.55555E+01 0.00000E+00
 -1       577 7.79400E+00 2.78250E+01 0.00000E+00
 -1       578 9.65838E+00 1.42328E+01 0.00000E+00
 -1       579 1.09645E+01 7.84748E+00 0.00000E+00
 -1       580 1.00202E+01 1.18748E+01 0.00000E+00
 -1       581 1.05320E+01 1.67560E+01 0.00000E+00
 -1       582 2.62159E+01 2.22615E+01 0.00000E+00
 -1       583 1.14951E+01 1.86390E+01 0.00000E+00
 -1       584 1.71758E+01 2.31177E+01 0.00000E+00
 -1       585 2.21946E+01 2.35596E+01 0.00000E+00
 -1       586 2.42044E+01 2.31309E+01 0.00000E+00
 -1       587 2.79583E+01 2.08958E+01 0.00000E+00
 -1       588 2.93979E+01 1.94048E+01 0.00000E+00
 -1       589 3.07561E+01 1.77705E+01 0.00000E+00
 -1       590 7.50300E+00 6.17082E+00 0.00000E+00
 -1       591 7.79400E+00 3.66750E+01 0.00000E+00
 -1       592 7.50726E+00 7.80456E+00 0.00000E+00
 -1       593 2.07761E+01 2.46094E+01 0.00000E+00
 -1       594 1.41678E+02 4.22645E+01 0.00000E+00
 -1       595 1.16579E+01 2.02198E+01 0.00000E+00
 -1       596 7.85850E+00 3.91640E+01 0.00000E+00
 -1       597 3.38896E+01 1.48077E+01 0.00000E+00
 -1       598 3.49437E+01 9.01314E+00 0.00000E+00
 -1       599 3.40811E+01 1.23699E+01 0.00000E+00
 -1       600 1.21500E+01 3.96080E+01 0.00000E+00
 -1       601 1.00042E+01 3.93860E+01 0.00000E+00
 -1       602 4.02240E+01 9.74885E+00 0.00000E+00
 -1       603 1.51500E+01 3.96080E+01 0.00000E+00
 -1       604 1.81500E+01 3.96080E+01 0.00000E+00
 -1       605 2.11500E+01 3.96080E+01 0.00000E+00
 -1       606 2.41500E+01 3.96080E+01 0.00000E+00
 -1       607 2.71500E+01 3.96080E+01 0.00000E+00
 -1       608 3.01500E+01 3.96080E+01 0.00000E+00
 -1       609 3.31500E+01 3.96080E+01 0.00000E+00
 -1       610 3.61500E+01 3.96080E+01 0.00000E+00
 -1       611 3.91500E+01 3.96080E+01 0.00000E+00
 -1       612 4.21500E+01 3.96080E+01 0.00000E+00
 -1       613 4.51500E+01 3.96080E+01 0.00000E+00
 -1       614 4.81500E+01 3.96080E+01 0.00000E+00
 -1       615 5.11500E+01 3.96080E+01 0.00000E+00
 -1       616 5.41500E+01 3.96080E+01 0.00000E+00
 -1       617 5.71500E+01 3.96080E+01 0.00000E+00
 -1       618 6.01500E+01 3.96080E+01 0.00000E+00
 -1       619 6.31500E+01 3.96080E+01 0.00000E+00
 -1       620 6.61500E+01 3.96080E+01 0.00000E+00
 -1       621 6.91500E+01 3.96080E+01 0.00000E+00
 -1       622 7.21500E+01 3.96080E+01 0.00000E+00
 -1       623 7.51500E+01 3.96080E+01 0.00000E+00
 -1       624 7.81500E+01 3.96080E+01 0.00000E+00
 -1       625 8.11500E+01 3.96080E+01 0.00000E+00
 -1       626 8.41500E+01 3.96080E+01 0.00000E+00
 -1       627 8.71500E+01 3.96080E+01 0.00000E+00
 -1       628 9.01500E+01 3.96080E+01 0.00000E+00
 -1       629 9.31500E+01 3.96080E+01 0.00000E+00
 -1       630 9.61500E+01 3.96080E+01 0.00000E+00
 -1       631 9.91500E+01 3.96080E+01 0.00000E+00
 -1       632 1.02150E+02 3.96080E+01 0.00000E+00
 -1       633 1.05150E+02 3.96080E+01 0.00000E+00
 -1       634 1.08150E+02 3.96080E+01 0.00000E+00
 -1       635 1.11150E+02 3.96080E+01 0.00000E+00
 -1       636 1.14150E+02 3.96080E+01 0.00000E+00
 -1       637 1.17150E+02 3.96080E+01 0.00000E+00
 -1       638 1.20150E+02 3.96080E+01 0.00000E+00
 -1       639 1.23150E+02 3.96080E+01 0.00000E+00
 -1       640 1.26150E+02 3.96080E+01 0.00000E+00
 -1       641 1.29150E+02 3.96080E+01 0.00000E+00
 -1       642 1.32150E+02 3.96080E+01 0.00000E+00
 -1       643 1.35150E+02 3.96080E+01 0.00000E+00
 -1       644 1.38150E+02 3.96080E+01 0.00000E+00
 -1       645 1.53322E+01 2.38365E+01 0.00000E+00
 -1       646 1.39206E+02 1.03250E+01 0.00000E+00
 -1       647 1.03920E+01 3.22500E+01 0.00000E+00
 -1       648 1.39608E+02 2.35500E+01 0.00000E+00
 -1       649 1.39608E+02 1.47250E+01 0.00000E+00
 -1       650 4.32240E+01 9.74885E+00 0.00000E+00
 -1       651 4.62240E+01 9.74885E+00 0.00000E+00
 -1       652 4.92240E+01 9.74885E+00 0.00000E+00
 -1       653 5.22240E+01 9.74885E+00 0.00000E+00
 -1       654 5.52240E+01 9.74885E+00 0.00000E+00
 -1       655 5.82240E+01 9.74885E+00 0.00000E+00
 -1       656 6.12240E+01 9.74885E+00 0.00000E+00
 -1       657 6.42240E+01 9.74885E+00 0.00000E+00
 -1       658 6.72240E+01 9.74885E+00 0.00000E+00
 -1       659 7.02240E+01 9.74885E+00 0.00000E+00
 -1       660 7.32240E+01 9.74885E+00 0.00000E+00
 -1       661 7.62240E+01 9.74885E+00 0.00000E+00
 -1       662 7.92240E+01 9.74885E+00 0.00000E+00
 -1       663 8.22240E+01 9.74885E+00 0.00000E+00
 -1       664 8.52240E+01 9.74885E+00 0.00000E+00
 -1       665 8.82240E+01 9.74885E+00 0.00000E+00
 -1       666 9.12240E+01 9.74885E+00 0.00000E+00
 -1       667 9.42240E+01 9.74885E+00 0.00000E+00
 -1       668 9.72240E+01 9.74885E+00 0.00000E+00
 -1       669 1.00224E+02 9.74885E+00 0.00000E+00
 -1       670 1.03224E+02 9.74885E+00 0.00000E+00
 -1       671 1.06224E+02 9.74885E+00 0.00000E+00
 -1       672 1.09224E+02 9.74885E+00 0.00000E+00
 -1       673 1.12224E+02 9.74885E+00 0.00000E+00
 -1       674 1.15224E+02 9.74885E+00 0.00000E+00
 -1       675 1.18224E+02 9.74885E+00 0.00000E+00
 -1       676 1.21224E+02 9.74885E+00 0.00000E+00
 -1       677 1.24224E+02 9.74885E+00 0.00000E+00
 -1       678 1.27224E+02 9.74885E+00 0.00000E+00
 -1       679 1.30224E+02 9.74885E+00 0.00000E+00
 -1       680 1.33224E+02 9.74885E+00 0.00000E+00
 -1       681 1.36215E+02 1.00369E+01 0.00000E+00
 -1       682 1.39608E+02 2.06000E+01 0.00000E+00
 -1       683 2.60236E+01 2.45781E+01 0.00000E+00
 -1       684 1.39608E+02 1.76625E+01 0.00000E+00
 -1       685 1.39608E+02 2.65000E+01 0.00000E+00
 -1       686 1.39608E+02 2.94000E+01 0.00000E+00
 -1       687 1.39608E+02 3.23500E+01 0.00000E+00
 -1       688 1.39608E+02 3.53000E+01 0.00000E+00
 -1       689 2.81451E+01 2.29285E+01 0.00000E+00
 -1       690 1.40178E+02 3.96665E+01 0.00000E+00
 -1       691 3.75839E+01 9.38100E+00 0.00000E+00
 -1       692 1.33149E+01 2.21851E+01 0.00000E+00
 -1       693 2.35923E+01 2.51865E+01 0.00000E+00
 -1       694 3.29651E+01 1.74164E+01 0.00000E+00
 -1       695 3.01530E+01 2.15744E+01 0.00000E+00
 -1       696 3.15113E+01 1.99401E+01 0.00000E+00
 -1       697 1.83287E+01 2.52292E+01 0.00000E+00
 -1       698 1.03920E+01 3.52000E+01 0.00000E+00
 -1       699 1.64851E+01 2.59480E+01 0.00000E+00
 -1       700 1.01794E+01 2.34000E+01 0.00000E+00
 -1       701 1.03920E+01 2.93000E+01 0.00000E+00
 -1       702 2.21738E+01 2.62363E+01 0.00000E+00
 -1       703 1.03920E+01 2.63500E+01 0.00000E+00
 -1       704 1.38879E+02 3.74540E+01 0.00000E+00
 -1       705 3.55177E+01 1.68529E+01 0.00000E+00
 -1       706 4.47240E+01 1.23469E+01 0.00000E+00
 -1       707 1.36500E+01 3.70100E+01 0.00000E+00
 -1       708 1.97264E+01 2.68561E+01 0.00000E+00
 -1       709 1.66500E+01 3.70100E+01 0.00000E+00
 -1       710 1.96500E+01 3.70100E+01 0.00000E+00
 -1       711 2.26500E+01 3.70100E+01 0.00000E+00
 -1       712 2.56500E+01 3.70100E+01 0.00000E+00
 -1       713 2.86500E+01 3.70100E+01 0.00000E+00
 -1       714 3.16500E+01 3.70100E+01 0.00000E+00
 -1       715 3.46500E+01 3.70100E+01 0.00000E+00
 -1       716 3.76500E+01 3.70100E+01 0.00000E+00
 -1       717 4.06500E+01 3.70100E+01 0.00000E+00
 -1       718 4.36500E+01 3.70100E+01 0.00000E+00
 -1       719 4.66500E+01 3.70100E+01 0.00000E+00
 -1       720 4.96500E+01 3.70100E+01 0.00000E+00
 -1       721 5.26500E+01 3.70100E+01 0.00000E+00
 -1       722 5.56500E+01 3.70100E+01 0.00000E+00
 -1       723 5.86500E+01 3.70100E+01 0.00000E+00
 -1       724 6.16500E+01 3.70100E+01 0.00000E+00
 -1       725 6.46500E+01 3.70100E+01 0.00000E+00
 -1       726 6.76500E+01 3.70100E+01 0.00000E+00
 -1       727 7.06500E+01 3.70100E+01 0.00000E+00
 -1       728 7.36500E+01 3.70100E+01 0.00000E+00
 -1       729 7.66500E+01 3.70100E+01 0.00000E+00
 -1       730 7.96500E+01 3.70100E+01 0.00000E+00
 -1       731 8.26500E+01 3.70100E+01 0.00000E+00
 -1       732 8.56500E+01 3.70100E+01 0.00000E+00
 -1       733 8.86500E+01 3.70100E+01 0.00000E+00
 -1       734 9.16500E+01 3.70100E+01 0.00000E+00
 -1       735 9.46500E+01 3.70100E+01 0.00000E+00
 -1       736 9.76500E+01 3.70100E+01 0.00000E+00
 -1       737 1.00650E+02 3.70100E+01 0.00000E+00
 -1       738 1.03650E+02 3.70100E+01 0.00000E+00
 -1       739 1.06650E+02 3.70100E+01 0.00000E+00
 -1       740 1.09650E+02 3.70100E+01 0.00000E+00
 -1       741 1.12650E+02 3.70100E+01 0.00000E+00
 -1       742 1.15650E+02 3.70100E+01 0.00000E+00
 -1       743 1.18650E+02 3.70100E+01 0.00000E+00
 -1       744 1.21650E+02 3.70100E+01 0.00000E+00
 -1       745 1.24650E+02 3.70100E+01 0.00000E+00
 -1       746 1.27650E+02 3.70100E+01 0.00000E+00
 -1       747 1.30650E+02 3.70100E+01 0.00000E+00
 -1       748 1.33650E+02 3.70100E+01 0.00000E+00
 -1       749 1.36264E+02 3.72320E+01 0.00000E+00
 -1       750 1.37010E+02 2.50250E+01 0.00000E+00
 -1       751 4.17240E+01 1.23469E+01 0.00000E+00
 -1       752 5.07240E+01 1.23469E+01 0.00000E+00
 -1       753 5.37240E+01 1.23469E+01 0.00000E+00
 -1       754 5.67240E+01 1.23469E+01 0.00000E+00
 -1       755 5.97240E+01 1.23469E+01 0.00000E+00
 -1       756 6.27240E+01 1.23469E+01 0.00000E+00
 -1       757 6.57240E+01 1.23469E+01 0.00000E+00
 -1       758 6.87240E+01 1.23469E+01 0.00000E+00
 -1       759 7.17240E+01 1.23469E+01 0.00000E+00
 -1       760 7.47240E+01 1.23469E+01 0.00000E+00
 -1       761 7.77240E+01 1.23469E+01 0.00000E+00
 -1       762 8.07240E+01 1.23469E+01 0.00000E+00
 -1       763 8.37240E+01 1.23469E+01 0.00000E+00
 -1       764 8.67240E+01 1.23469E+01 0.00000E+00
 -1       765 8.97240E+01 1.23469E+01 0.00000E+00
 -1       766 9.27240E+01 1.23469E+01 0.00000E+00
 -1       767 9.57240E+01 1.23469E+01 0.00000E+00
 -1       768 9.87240E+01 1.23469E+01 0.00000E+00
 -1       769 1.01724E+02 1.23469E+01 0.00000E+00
 -1       770 1.04724E+02 1.23469E+01 0.00000E+00
 -1       771 1.07724E+02 1.23469E+01 0.00000E+00
 -1       772 1.10724E+02 1.23469E+01 0.00000E+00
 -1       773 1.13724E+02 1.23469E+01 0.00000E+00
 -1       774 1.16724E+02 1.23469E+01 0.00000E+00
 -1       775 1.19724E+02 1.23469E+01 0.00000E+00
 -1       776 1.22724E+02 1.23469E+01 0.00000E+00
 -1       777 1.25724E+02 1.23469E+01 0.00000E+00
 -1       778 1.28724E+02 1.23469E+01 0.00000E+00
 -1       779 1.31724E+02 1.23469E+01 0.00000E+00
 -1       780 1.37010E+02 2.20750E+01 0.00000E+00
 -1       781 2.84457E+01 2.55041E+01 0.00000E+00
 -1       782 3.67212E+01 1.27377E+01 0.00000E+00
 -1       783 1.37010E+02 3.38250E+01 0.00000E+00
 -1       784 1.31310E+01 2.44676E+01 0.00000E+00
 -1       785 4.77240E+01 1.23469E+01 0.00000E+00
 -1       786 1.37010E+02 3.08750E+01 0.00000E+00
 -1       787 1.01981E+01 3.72930E+01 0.00000E+00
 -1       788 1.37010E+02 2.79500E+01 0.00000E+00
 -1       789 2.53463E+01 2.70338E+01 0.00000E+00
 -1       790 3.43051E+01 1.98689E+01 0.00000E+00
 -1       791 1.36617E+02 1.44369E+01 0.00000E+00
 -1       792 3.24089E+01 2.20677E+01 0.00000E+00
 -1       793 3.61195E+01 1.47953E+01 0.00000E+00
 -1       794 3.04537E+01 2.41500E+01 0.00000E+00
 -1       795 1.78828E+01 2.75748E+01 0.00000E+00
 -1       796 1.42839E+01 2.65791E+01 0.00000E+00
 -1       797 1.36617E+02 1.73744E+01 0.00000E+00
 -1       798 1.34171E+02 1.33919E+01 0.00000E+00
 -1       799 1.36814E+02 1.97247E+01 0.00000E+00
 -1       800 2.39278E+01 2.80836E+01 0.00000E+00
 -1       801 1.29900E+01 3.37250E+01 0.00000E+00
 -1       802 3.92226E+01 1.25423E+01 0.00000E+00
 -1       803 1.29900E+01 3.07750E+01 0.00000E+00
 -1       804 1.36637E+02 3.55285E+01 0.00000E+00
 -1       805 1.56816E+01 2.82060E+01 0.00000E+00
 -1       806 3.72801E+01 1.93132E+01 0.00000E+00
 -1       807 1.51500E+01 3.44120E+01 0.00000E+00
 -1       808 1.81500E+01 3.44120E+01 0.00000E+00
 -1       809 2.11500E+01 3.44120E+01 0.00000E+00
 -1       810 2.41500E+01 3.44120E+01 0.00000E+00
 -1       811 2.71500E+01 3.44120E+01 0.00000E+00
 -1       812 3.01500E+01 3.44120E+01 0.00000E+00
 -1       813 3.31500E+01 3.44120E+01 0.00000E+00
 -1       814 3.61500E+01 3.44120E+01 0.00000E+00
 -1       815 3.91500E+01 3.44120E+01 0.00000E+00
 -1       816 4.21500E+01 3.44120E+01 0.00000E+00
 -1       817 4.51500E+01 3.44120E+01 0.00000E+00
 -1       818 4.81500E+01 3.44120E+01 0.00000E+00
 -1       819 5.11500E+01 3.44120E+01 0.00000E+00
 -1       820 5.41500E+01 3.44120E+01 0.00000E+00
 -1       821 5.71500E+01 3.44120E+01 0.00000E+00
 -1       822 6.01500E+01 3.44120E+01 0.00000E+00
 -1       823 6.31500E+01 3.44120E+01 0.00000E+00
 -1       824 6.61500E+01 3.44120E+01 0.00000E+00
 -1       825 6.91500E+01 3.44120E+01 0.00000E+00
 -1       826 7.21500E+01 3.44120E+01 0.00000E+00
 -1       827 7.51500E+01 3.44120E+01 0.00000E+00
 -1       828 7.81500E+01 3.44120E+01 0.00000E+00
 -1       829 8.11500E+01 3.44120E+01 0.00000E+00
 -1       830 8.41500E+01 3.44120E+01 0.00000E+00
 -1       831 8.71500E+01 3.44120E+01 0.00000E+00
 -1       832 9.01500E+01 3.44120E+01 0.00000E+00
 -1       833 9.31500E+01 3.44120E+01 0.00000E+00
 -1       834 9.61500E+01 3.44120E+01 0.00000E+00
 -1       835 9.91500E+01 3.44120E+01 0.00000E+00
 -1       836 1.02150E+02 3.44120E+01 0.00000E+00
 -1       837 1.05150E+02 3.44120E+01 0.00000E+00
 -1       838 1.08150E+02 3.44120E+01 0.00000E+00
 -1       839 1.11150E+02 3.44120E+01 0.00000E+00
 -1       840 1.14150E+02 3.44120E+01 0.00000E+00
 -1       841 1.17150E+02 3.44120E+01 0.00000E+00
 -1       842 1.20150E+02 3.44120E+01 0.00000E+00
 -1       843 1.23150E+02 3.44120E+01 0.00000E+00
 -1       844 1.26150E+02 3.44120E+01 0.00000E+00
 -1       845 1.29150E+02 3.44120E+01 0.00000E+00
 -1       846 1.32150E+02 3.44120E+01 0.00000E+00
 -1       847 5.82240E+01 1.49449E+01 0.00000E+00
 -1       848 5.52240E+01 1.49449E+01 0.00000E+00
 -1       849 5.22240E+01 1.49449E+01 0.00000E+00
 -1       850 6.12240E+01 1.49449E+01 0.00000E+00
 -1       851 6.42240E+01 1.49449E+01 0.00000E+00
 -1       852 6.72240E+01 1.49449E+01 0.00000E+00
 -1       853 7.02240E+01 1.49449E+01 0.00000E+00
 -1       854 7.32240E+01 1.49449E+01 0.00000E+00
 -1       855 7.62240E+01 1.49449E+01 0.00000E+00
 -1       856 7.92240E+01 1.49449E+01 0.00000E+00
 -1       857 8.22240E+01 1.49449E+01 0.00000E+00
 -1       858 8.52240E+01 1.49449E+01 0.00000E+00
 -1       859 8.82240E+01 1.49449E+01 0.00000E+00
 -1       860 9.12240E+01 1.49449E+01 0.00000E+00
 -1       861 9.42240E+01 1.49449E+01 0.00000E+00
 -1       862 9.72240E+01 1.49449E+01 0.00000E+00
 -1       863 1.00224E+02 1.49449E+01 0.00000E+00
 -1       864 1.03224E+02 1.49449E+01 0.00000E+00
 -1       865 1.06224E+02 1.49449E+01 0.00000E+00
 -1       866 1.09224E+02 1.49449E+01 0.00000E+00
 -1       867 1.12224E+02 1.49449E+01 0.00000E+00
 -1       868 1.15224E+02 1.49449E+01 0.00000E+00
 -1       869 1.18224E+02 1.49449E+01 0.00000E+00
 -1       870 1.21224E+02 1.49449E+01 0.00000E+00
 -1       871 1.24224E+02 1.49449E+01 0.00000E+00
 -1       872 1.27224E+02 1.49449E+01 0.00000E+00
 -1       873 1.30224E+02 1.49449E+01 0.00000E+00
 -1       874 4.62240E+01 1.49449E+01 0.00000E+00
 -1       875 1.34412E+02 2.35500E+01 0.00000E+00
 -1       876 1.34412E+02 3.23500E+01 0.00000E+00
 -1       877 2.80258E+01 2.85583E+01 0.00000E+00
 -1       878 3.30481E+01 2.46270E+01 0.00000E+00
 -1       879 3.50366E+01 2.24167E+01 0.00000E+00
 -1       880 4.92240E+01 1.49449E+01 0.00000E+00
 -1       881 2.14804E+01 2.87034E+01 0.00000E+00
 -1       882 3.06897E+01 2.66659E+01 0.00000E+00
 -1       883 4.32240E+01 1.49449E+01 0.00000E+00
 -1       884 3.83381E+01 1.66940E+01 0.00000E+00
 -1       885 1.96368E+01 2.94221E+01 0.00000E+00
 -1       886 4.07226E+01 1.51403E+01 0.00000E+00
 -1       887 1.34394E+02 3.49702E+01 0.00000E+00
 -1       888 1.34171E+02 1.63294E+01 0.00000E+00
 -1       889 1.34215E+02 2.11997E+01 0.00000E+00
 -1       890 1.34412E+02 2.94250E+01 0.00000E+00
 -1       891 2.66074E+01 2.96081E+01 0.00000E+00
 -1       892 3.84210E+01 1.49678E+01 0.00000E+00
 -1       893 1.34412E+02 2.64875E+01 0.00000E+00
 -1       894 1.51500E+01 3.14620E+01 0.00000E+00
 -1       895 1.96500E+01 3.18140E+01 0.00000E+00
 -1       896 2.26500E+01 3.18140E+01 0.00000E+00
 -1       897 3.16500E+01 3.18140E+01 0.00000E+00
 -1       898 3.46500E+01 3.18140E+01 0.00000E+00
 -1       899 3.76500E+01 3.18140E+01 0.00000E+00
 -1       900 4.06500E+01 3.18140E+01 0.00000E+00
 -1       901 4.36500E+01 3.18140E+01 0.00000E+00
 -1       902 4.66500E+01 3.18140E+01 0.00000E+00
 -1       903 4.96500E+01 3.18140E+01 0.00000E+00
 -1       904 5.26500E+01 3.18140E+01 0.00000E+00
 -1       905 5.56500E+01 3.18140E+01 0.00000E+00
 -1       906 5.86500E+01 3.18140E+01 0.00000E+00
 -1       907 6.16500E+01 3.18140E+01 0.00000E+00
 -1       908 6.46500E+01 3.18140E+01 0.00000E+00
 -1       909 6.76500E+01 3.18140E+01 0.00000E+00
 -1       910 7.06500E+01 3.18140E+01 0.00000E+00
 -1       911 7.36500E+01 3.18140E+01 0.00000E+00
 -1       912 7.66500E+01 3.18140E+01 0.00000E+00
 -1       913 7.96500E+01 3.18140E+01 0.00000E+00
 -1       914 8.26500E+01 3.18140E+01 0.00000E+00
 -1       915 8.56500E+01 3.18140E+01 0.00000E+00
 -1       916 8.86500E+01 3.18140E+01 0.00000E+00
 -1       917 9.16500E+01 3.18140E+01 0.00000E+00
 -1       918 9.46500E+01 3.18140E+01 0.00000E+00
 -1       919 9.76500E+01 3.18140E+01 0.00000E+00
 -1       920 1.00650E+02 3.18140E+01 0.00000E+00
 -1       921 1.03650E+02 3.18140E+01 0.00000E+00
 -1       922 1.06650E+02 3.18140E+01 0.00000E+00
 -1       923 1.09650E+02 3.18140E+01 0.00000E+00
 -1       924 1.12650E+02 3.18140E+01 0.00000E+00
 -1       925 1.15650E+02 3.18140E+01 0.00000E+00
 -1       926 1.18650E+02 3.18140E+01 0.00000E+00
 -1       927 1.21650E+02 3.18140E+01 0.00000E+00
 -1       928 1.24650E+02 3.18140E+01 0.00000E+00
 -1       929 1.27650E+02 3.18140E+01 0.00000E+00
 -1       930 1.30650E+02 3.18140E+01 0.00000E+00
 -1       931 5.67240E+01 1.75429E+01 0.00000E+00
 -1       932 6.27240E+01 1.75429E+01 0.00000E+00
 -1       933 3.35680E+01 2.76118E+01 0.00000E+00
 -1       934 5.97240E+01 1.75429E+01 0.00000E+00
 -1       935 5.37240E+01 1.75429E+01 0.00000E+00
 -1       936 6.57240E+01 1.75429E+01 0.00000E+00
 -1       937 6.87240E+01 1.75429E+01 0.00000E+00
 -1       938 7.17240E+01 1.75429E+01 0.00000E+00
 -1       939 7.47240E+01 1.75429E+01 0.00000E+00
 -1       940 7.77240E+01 1.75429E+01 0.00000E+00
 -1       941 8.07240E+01 1.75429E+01 0.00000E+00
 -1       942 8.37240E+01 1.75429E+01 0.00000E+00
 -1       943 8.67240E+01 1.75429E+01 0.00000E+00
 -1       944 8.97240E+01 1.75429E+01 0.00000E+00
 -1       945 9.27240E+01 1.75429E+01 0.00000E+00
 -1       946 9.57240E+01 1.75429E+01 0.00000E+00
 -1       947 9.87240E+01 1.75429E+01 0.00000E+00
 -1       948 1.01724E+02 1.75429E+01 0.00000E+00
 -1       949 1.04724E+02 1.75429E+01 0.00000E+00
 -1       950 1.07724E+02 1.75429E+01 0.00000E+00
 -1       951 1.10724E+02 1.75429E+01 0.00000E+00
 -1       952 1.13724E+02 1.75429E+01 0.00000E+00
 -1       953 1.16724E+02 1.75429E+01 0.00000E+00
 -1       954 1.19724E+02 1.75429E+01 0.00000E+00
 -1       955 1.22724E+02 1.75429E+01 0.00000E+00
 -1       956 1.25724E+02 1.75429E+01 0.00000E+00
 -1       957 1.28724E+02 1.75429E+01 0.00000E+00
 -1       958 4.00209E+01 1.88970E+01 0.00000E+00
 -1       959 4.47240E+01 1.75429E+01 0.00000E+00
 -1       960 5.07240E+01 1.75429E+01 0.00000E+00
 -1       961 4.77240E+01 1.75429E+01 0.00000E+00
 -1       962 1.74356E+01 3.00533E+01 0.00000E+00
 -1       963 3.59737E+01 2.52595E+01 0.00000E+00
 -1       964 1.34193E+02 1.87646E+01 0.00000E+00
 -1       965 3.82638E+01 2.23871E+01 0.00000E+00
 -1       966 1.74000E+01 3.16380E+01 0.00000E+00
 -1       967 3.08624E+01 2.97300E+01 0.00000E+00
 -1       968 4.22226E+01 1.77383E+01 0.00000E+00
 -1       969 2.86500E+01 3.18140E+01 0.00000E+00
 -1       970 1.31458E+02 1.81537E+01 0.00000E+00
 -1       971 1.31725E+02 2.25913E+01 0.00000E+00
 -1       972 1.31725E+02 2.55288E+01 0.00000E+00
 -1       973 4.36757E+01 2.02307E+01 0.00000E+00
 -1       974 6.42240E+01 2.01409E+01 0.00000E+00
 -1       975 3.65872E+01 2.82932E+01 0.00000E+00
 -1       976 3.95872E+01 2.82932E+01 0.00000E+00
 -1       977 4.25872E+01 2.82932E+01 0.00000E+00
 -1       978 4.55872E+01 2.82932E+01 0.00000E+00
 -1       979 4.85872E+01 2.82932E+01 0.00000E+00
 -1       980 5.15872E+01 2.82932E+01 0.00000E+00
 -1       981 5.45872E+01 2.82932E+01 0.00000E+00
 -1       982 5.75872E+01 2.82932E+01 0.00000E+00
 -1       983 6.05872E+01 2.82932E+01 0.00000E+00
 -1       984 6.35872E+01 2.82932E+01 0.00000E+00
 -1       985 6.65872E+01 2.82932E+01 0.00000E+00
 -1       986 6.95872E+01 2.82932E+01 0.00000E+00
 -1       987 7.25872E+01 2.82932E+01 0.00000E+00
 -1       988 7.55872E+01 2.82932E+01 0.00000E+00
 -1       989 7.85872E+01 2.82932E+01 0.00000E+00
 -1       990 8.15872E+01 2.82932E+01 0.00000E+00
 -1       991 8.45872E+01 2.82932E+01 0.00000E+00
 -1       992 8.75872E+01 2.82932E+01 0.00000E+00
 -1       993 9.05872E+01 2.82932E+01 0.00000E+00
 -1       994 9.35872E+01 2.82932E+01 0.00000E+00
 -1       995 9.65872E+01 2.82932E+01 0.00000E+00
 -1       996 9.95872E+01 2.82932E+01 0.00000E+00
 -1       997 1.02587E+02 2.82932E+01 0.00000E+00
 -1       998 1.05587E+02 2.82932E+01 0.00000E+00
 -1       999 1.08587E+02 2.82932E+01 0.00000E+00
 -1      1000 1.11587E+02 2.82932E+01 0.00000E+00
 -1      1001 1.14587E+02 2.82932E+01 0.00000E+00
 -1      1002 1.17587E+02 2.82932E+01 0.00000E+00
 -1      1003 1.20587E+02 2.82932E+01 0.00000E+00
 -1      1004 1.23587E+02 2.82932E+01 0.00000E+00
 -1      1005 1.26587E+02 2.82932E+01 0.00000E+00
 -1      1006 1.30500E+02 2.88591E+01 0.00000E+00
 -1      1007 5.52240E+01 2.01409E+01 0.00000E+00
 -1      1008 7.02240E+01 2.01409E+01 0.00000E+00
 -1      1009 7.32240E+01 2.01409E+01 0.00000E+00
 -1      1010 7.62240E+01 2.01409E+01 0.00000E+00
 -1      1011 7.92240E+01 2.01409E+01 0.00000E+00
 -1      1012 8.22240E+01 2.01409E+01 0.00000E+00
 -1      1013 8.52240E+01 2.01409E+01 0.00000E+00
 -1      1014 8.82240E+01 2.01409E+01 0.00000E+00
 -1      1015 9.12240E+01 2.01409E+01 0.00000E+00
 -1      1016 9.42240E+01 2.01409E+01 0.00000E+00
 -1      1017 9.72240E+01 2.01409E+01 0.00000E+00
 -1      1018 1.00224E+02 2.01409E+01 0.00000E+00
 -1      1019 1.03224E+02 2.01409E+01 0.00000E+00
 -1      1020 1.06224E+02 2.01409E+01 0.00000E+00
 -1      1021 1.09224E+02 2.01409E+01 0.00000E+00
 -1      1022 1.12224E+02 2.01409E+01 0.00000E+00
 -1      1023 1.15224E+02 2.01409E+01 0.00000E+00
 -1      1024 1.18224E+02 2.01409E+01 0.00000E+00
 -1      1025 1.21224E+02 2.01409E+01 0.00000E+00
 -1      1026 1.24224E+02 2.01409E+01 0.00000E+00
 -1      1027 1.27224E+02 2.01409E+01 0.00000E+00
 -1      1028 4.14628E+01 2.18103E+01 0.00000E+00
 -1      1029 5.22240E+01 2.01409E+01 0.00000E+00
 -1      1030 6.72240E+01 2.01409E+01 0.00000E+00
 -1      1031 3.91502E+01 2.54428E+01 0.00000E+00
 -1      1032 5.82240E+01 2.01409E+01 0.00000E+00
 -1      1033 4.92240E+01 2.01409E+01 0.00000E+00
 -1      1034 4.64498E+01 2.01858E+01 0.00000E+00
 -1      1035 6.12240E+01 2.01409E+01 0.00000E+00
 -1      1036 1.29127E+02 2.40601E+01 0.00000E+00
 -1      1037 1.31703E+02 1.96275E+01 0.00000E+00
 -1      1038 1.27857E+02 2.61766E+01 0.00000E+00
 -1      1039 4.40872E+01 2.56952E+01 0.00000E+00
 -1      1040 4.70872E+01 2.56952E+01 0.00000E+00
 -1      1041 5.00872E+01 2.56952E+01 0.00000E+00
 -1      1042 5.30872E+01 2.56952E+01 0.00000E+00
 -1      1043 5.60872E+01 2.56952E+01 0.00000E+00
 -1      1044 5.90872E+01 2.56952E+01 0.00000E+00
 -1      1045 6.20872E+01 2.56952E+01 0.00000E+00
 -1      1046 6.50872E+01 2.56952E+01 0.00000E+00
 -1      1047 6.80872E+01 2.56952E+01 0.00000E+00
 -1      1048 7.10872E+01 2.56952E+01 0.00000E+00
 -1      1049 7.40872E+01 2.56952E+01 0.00000E+00
 -1      1050 7.70872E+01 2.56952E+01 0.00000E+00
 -1      1051 8.00872E+01 2.56952E+01 0.00000E+00
 -1      1052 8.30872E+01 2.56952E+01 0.00000E+00
 -1      1053 8.60872E+01 2.56952E+01 0.00000E+00
 -1      1054 8.90872E+01 2.56952E+01 0.00000E+00
 -1      1055 9.20872E+01 2.56952E+01 0.00000E+00
 -1      1056 9.50872E+01 2.56952E+01 0.00000E+00
 -1      1057 9.80872E+01 2.56952E+01 0.00000E+00
 -1      1058 1.01087E+02 2.56952E+01 0.00000E+00
 -1      1059 1.04087E+02 2.56952E+01 0.00000E+00
 -1      1060 1.07087E+02 2.56952E+01 0.00000E+00
 -1      1061 1.10087E+02 2.56952E+01 0.00000E+00
 -1      1062 1.13087E+02 2.56952E+01 0.00000E+00
 -1      1063 1.16087E+02 2.56952E+01 0.00000E+00
 -1      1064 1.19087E+02 2.56952E+01 0.00000E+00
 -1      1065 1.22087E+02 2.56952E+01 0.00000E+00
 -1      1066 1.25087E+02 2.56952E+01 0.00000E+00
 -1      1067 7.47240E+01 2.27389E+01 0.00000E+00
 -1      1068 7.17240E+01 2.27389E+01 0.00000E+00
 -1      1069 8.07240E+01 2.27389E+01 0.00000E+00
 -1      1070 8.37240E+01 2.27389E+01 0.00000E+00
 -1      1071 8.67240E+01 2.27389E+01 0.00000E+00
 -1      1072 8.97240E+01 2.27389E+01 0.00000E+00
 -1      1073 9.27240E+01 2.27389E+01 0.00000E+00
 -1      1074 9.57240E+01 2.27389E+01 0.00000E+00
 -1      1075 9.87240E+01 2.27389E+01 0.00000E+00
 -1      1076 1.01724E+02 2.27389E+01 0.00000E+00
 -1      1077 1.04724E+02 2.27389E+01 0.00000E+00
 -1      1078 1.07724E+02 2.27389E+01 0.00000E+00
 -1      1079 1.10724E+02 2.27389E+01 0.00000E+00
 -1      1080 1.13724E+02 2.27389E+01 0.00000E+00
 -1      1081 1.16724E+02 2.27389E+01 0.00000E+00
 -1      1082 1.19724E+02 2.27389E+01 0.00000E+00
 -1      1083 1.22724E+02 2.27389E+01 0.00000E+00
 -1      1084 1.25925E+02 2.33995E+01 0.00000E+00
 -1      1085 5.37240E+01 2.27389E+01 0.00000E+00
 -1      1086 4.40787E+01 2.31350E+01 0.00000E+00
 -1      1087 4.18329E+01 2.57141E+01 0.00000E+00
 -1      1088 7.77240E+01 2.27389E+01 0.00000E+00
 -1      1089 5.07240E+01 2.27389E+01 0.00000E+00
 -1      1090 5.67240E+01 2.27389E+01 0.00000E+00
 -1      1091 6.57240E+01 2.27389E+01 0.00000E+00
 -1      1092 6.27240E+01 2.27389E+01 0.00000E+00
 -1      1093 6.87240E+01 2.27389E+01 0.00000E+00
 -1      1094 4.85872E+01 2.30972E+01 0.00000E+00
 -1      1095 6.05872E+01 2.30972E+01 0.00000E+00
 -1      1096 0.00000E+00 4.85000E+01 0.00000E+00
 -1      1097 0.00000E+00 4.55250E+01 0.00000E+00
 -1      1098 0.00000E+00 4.25750E+01 0.00000E+00
 -1      1099 0.00000E+00 3.96250E+01 0.00000E+00
 -1      1100 0.00000E+00 3.66750E+01 0.00000E+00
 -1      1101 0.00000E+00 3.37250E+01 0.00000E+00
 -1      1102 0.00000E+00 3.07750E+01 0.00000E+00
 -1      1103 0.00000E+00 2.78250E+01 0.00000E+00
 -1      1104 0.00000E+00 2.48750E+01 0.00000E+00
 -1      1105 0.00000E+00 2.19250E+01 0.00000E+00
 -1      1106 0.00000E+00 1.89750E+01 0.00000E+00
 -1      1107 0.00000E+00 1.60250E+01 0.00000E+00
 -1      1108 0.00000E+00 1.31250E+01 0.00000E+00
 -1      1109 0.00000E+00 1.02750E+01 0.00000E+00
 -1      1110 0.00000E+00 7.37500E+00 0.00000E+00
 -1      1111 0.00000E+00 4.42500E+00 0.00000E+00
 -1      1112 0.00000E+00 1.47500E+00 0.00000E+00
 -1      1113 1.57500E+00 5.00000E+01 0.00000E+00
 -1      1114 4.65000E+00 5.00000E+01 0.00000E+00
 -1      1115 7.65000E+00 5.00000E+01 0.00000E+00
 -1      1116 1.06500E+01 5.00000E+01 0.00000E+00
 -1      1117 1.36500E+01 5.00000E+01 0.00000E+00
 -1      1118 1.66500E+01 5.00000E+01 0.00000E+00
 -1      1119 1.96500E+01 5.00000E+01 0.00000E+00
 -1      1120 2.26500E+01 5.00000E+01 0.00000E+00
 -1      1121 2.56500E+01 5.00000E+01 0.00000E+00
 -1      1122 2.86500E+01 5.00000E+01 0.00000E+00
 -1      1123 3.16500E+01 5.00000E+01 0.00000E+00
 -1      1124 3.46500E+01 5.00000E+01 0.00000E+00
 -1      1125 3.76500E+01 5.00000E+01 0.00000E+00
 -1      1126 4.06500E+01 5.00000E+01 0.00000E+00
 -1      1127 4.36500E+01 5.00000E+01 0.00000E+00
 -1      1128 4.66500E+01 5.00000E+01 0.00000E+00
 -1      1129 4.96500E+01 5.00000E+01 0.00000E+00
 -1      1130 5.26500E+01 5.00000E+01 0.00000E+00
 -1      1131 5.56500E+01 5.00000E+01 0.00000E+00
 -1      1132 5.86500E+01 5.00000E+01 0.00000E+00
 -1      1133 6.16500E+01 5.00000E+01 0.00000E+00
 -1      1134 6.46500E+01 5.00000E+01 0.00000E+00
 -1      1135 6.76500E+01 5.00000E+01 0.00000E+00
 -1      1136 7.06500E+01 5.00000E+01 0.00000E+00
 -1      1137 7.36500E+01 5.00000E+01 0.00000E+00
 -1      1138 7.66500E+01 5.00000E+01 0.00000E+00
 -1      1139 7.96500E+01 5.00000E+01 0.00000E+00
 -1      1140 8.26500E+01 5.00000E+01 0.00000E+00
 -1      1141 8.56500E+01 5.00000E+01 0.00000E+00
 -1      1142 8.86500E+01 5.00000E+01 0.00000E+00
 -1      1143 9.16500E+01 5.00000E+01 0.00000E+00
 -1      1144 9.46500E+01 5.00000E+01 0.00000E+00
 -1      1145 9.76500E+01 5.00000E+01 0.00000E+00
 -1      1146 1.00650E+02 5.00000E+01 0.00000E+00
 -1      1147 1.03650E+02 5.00000E+01 0.00000E+00
 -1      1148 1.06650E+02 5.00000E+01 0.00000E+00
 -1      1149 1.09650E+02 5.00000E+01 0.00000E+00
 -1      1150 1.12650E+02 5.00000E+01 0.00000E+00
 -1      1151 1.15650E+02 5.00000E+01 0.00000E+00
 -1      1152 1.18650E+02 5.00000E+01 0.00000E+00
 -1      1153 1.21650E+02 5.00000E+01 0.00000E+00
 -1      1154 1.24650E+02 5.00000E+01 0.00000E+00
 -1      1155 1.27650E+02 5.00000E+01 0.00000E+00
 -1      1156 1.30650E+02 5.00000E+01 0.00000E+00
 -1      1157 1.33650E+02 5.00000E+01 0.00000E+00
 -1      1158 1.36650E+02 5.00000E+01 0.00000E+00
 -1      1159 1.39650E+02 5.00000E+01 0.00000E+00
 -1      1160 1.42650E+02 5.00000E+01 0.00000E+00
 -1      1161 1.45650E+02 5.00000E+01 0.00000E+00
 -1      1162 1.48575E+02 5.00000E+01 0.00000E+00
 -1      1163 1.57500E+00 0.00000E+00 0.00000E+00
 -1      1164 4.65000E+00 0.00000E+00 0.00000E+00
 -1      1165 7.57500E+00 0.00000E+00 0.00000E+00
 -1      1166 1.04250E+01 0.00000E+00 0.00000E+00
 -1      1167 1.32000E+01 0.00000E+00 0.00000E+00
 -1      1168 1.59750E+01 0.00000E+00 0.00000E+00
 -1      1169 1.86750E+01 0.00000E+00 0.00000E+00
 -1      1170 2.10000E+01 0.00000E+00 0.00000E+00
 -1      1171 2.31750E+01 0.00000E+00 0.00000E+00
 -1      1172 2.56500E+01 0.00000E+00 0.00000E+00
 -1      1173 2.85000E+01 0.00000E+00 0.00000E+00
 -1      1174 3.15000E+01 0.00000E+00 0.00000E+00
 -1      1175 3.45000E+01 0.00000E+00 0.00000E+00
 -1      1176 3.75000E+01 0.00000E+00 0.00000E+00
 -1      1177 4.05000E+01 0.00000E+00 0.00000E+00
 -1      1178 4.35000E+01 0.00000E+00 0.00000E+00
 -1      1179 4.65000E+01 0.00000E+00 0.00000E+00
 -1      1180 4.95000E+01 0.00000E+00 0.00000E+00
 -1      1181 5.25000E+01 0.00000E+00 0.00000E+00
 -1      1182 5.55000E+01 0.00000E+00 0.00000E+00
 -1      1183 5.85000E+01 0.00000E+00 0.00000E+00
 -1      1184 6.15000E+01 0.00000E+00 0.00000E+00
 -1      1185 6.45000E+01 0.00000E+00 0.00000E+00
 -1      1186 6.75000E+01 0.00000E+00 0.00000E+00
 -1      1187 7.05000E+01 0.00000E+00 0.00000E+00
 -1      1188 7.35000E+01 0.00000E+00 0.00000E+00
 -1      1189 7.65000E+01 0.00000E+00 0.00000E+00
 -1      1190 7.95000E+01 0.00000E+00 0.00000E+00
 -1      1191 8.25000E+01 0.00000E+00 0.00000E+00
 -1      1192 8.55000E+01 0.00000E+00 0.00000E+00
 -1      1193 8.85000E+01 0.00000E+00 0.00000E+00
 -1      1194 9.15000E+01 0.00000E+00 0.00000E+00
 -1      1195 9.45000E+01 0.00000E+00 0.00000E+00
 -1      1196 9.75000E+01 0.00000E+00 0.00000E+00
 -1      1197 1.00500E+02 0.00000E+00 0.00000E+00
 -1      1198 1.03500E+02 0.00000E+00 0.00000E+00
 -1      1199 1.06500E+02 0.00000E+00 0.00000E+00
 -1      1200 1.09500E+02 0.00000E+00 0.00000E+00
 -1      1201 1.12500E+02 0.00000E+00 0.00000E+00
 -1      1202 1.15500E+02 0.00000E+00 0.00000E+00
 -1      1203 1.18500E+02 0.00000E+00 0.00000E+00
 -1      1204 1.21500E+02 0.00000E+00 0.00000E+00
 -1      1205 1.24500E+02 0.00000E+00 0.00000E+00
 -1      1206 1.27500E+02 0.00000E+00 0.00000E+00
 -1      1207 1.30500E+02 0.00000E+00 0.00000E+00
 -1      1208 1.33500E+02 0.00000E+00 0.00000E+00
 -1      1209 1.36500E+02 0.00000E+00 0.00000E+00
 -1      1210 1.39500E+02 0.00000E+00 0.00000E+00
 -1      1211 1.42500E+02 0.00000E+00 0.00000E+00
 -1      1212 1.45500E+02 0.00000E+00 0.00000E+00
 -1      1213 1.48500E+02 0.00000E+00 0.00000E+00
 -1      1214 1.50000E+02 1.47500E+00 0.00000E+00
 -1      1215 1.50000E+02 4.42500E+00 0.00000E+00
 -1      1216 1.50000E+02 7.37500E+00 0.00000E+00
 -1      1217 1.50000E+02 1.03250E+01 0.00000E+00
 -1      1218 1.50000E+02 1.32750E+01 0.00000E+00
 -1      1219 1.50000E+02 1.62000E+01 0.00000E+00
 -1      1220 1.50000E+02 1.91250E+01 0.00000E+00
 -1      1221 1.50000E+02 2.20750E+01 0.00000E+00
 -1      1222 1.50000E+02 2.50250E+01 0.00000E+00
 -1      1223 1.50000E+02 2.79750E+01 0.00000E+00
 -1      1224 1.50000E+02 3.09250E+01 0.00000E+00
 -1      1225 1.50000E+02 3.38500E+01 0.00000E+00
 -1      1226 1.50000E+02 3.67750E+01 0.00000E+00
 -1      1227 1.50000E+02 3.97250E+01 0.00000E+00
 -1      1228 1.50000E+02 4.26750E+01 0.00000E+00
 -1      1229 1.50000E+02 4.56250E+01 0.00000E+00
 -1      1230 1.50000E+02 4.85500E+01 0.00000E+00
 -1      1231 2.79530E+01 1.16835E+01 0.00000E+00
 -1      1232 2.76492E+01 1.02493E+01 0.00000E+00
 -1      1233 2.70447E+01 8.89470E+00 0.00000E+00
 -1      1234 2.61912E+01 7.72318E+00 0.00000E+00
 -1      1235 2.50582E+01 6.71176E+00 0.00000E+00
 -1      1236 2.37170E+01 5.96142E+00 0.00000E+00
 -1      1237 2.22917E+01 5.53066E+00 0.00000E+00
 -1      1238 2.07167E+01 5.41404E+00 0.00000E+00
 -1      1239 1.92033E+01 5.64070E+00 0.00000E+00
 -1      1240 1.78690E+01 6.14328E+00 0.00000E+00
 -1      1241 1.66130E+01 6.94639E+00 0.00000E+00
 -1      1242 1.55359E+01 8.02167E+00 0.00000E+00
 -1      1243 1.47444E+01 9.24878E+00 0.00000E+00
 -1      1244 1.42193E+01 1.06343E+01 0.00000E+00
 -1      1245 1.39972E+01 1.21052E+01 0.00000E+00
 -1      1246 1.40923E+01 1.35972E+01 0.00000E+00
 -1      1247 1.44952E+01 1.50180E+01 0.00000E+00
 -1      1248 1.51781E+01 1.63092E+01 0.00000E+00
 -1      1249 1.61886E+01 1.75019E+01 0.00000E+00
 -1      1250 1.74171E+01 1.84278E+01 0.00000E+00
 -1      1251 1.87362E+01 1.90357E+01 0.00000E+00
 -1      1252 2.01947E+01 1.93633E+01 0.00000E+00
 -1      1253 2.16697E+01 1.93757E+01 0.00000E+00
 -1      1254 2.30188E+01 1.91084E+01 0.00000E+00
 -1      1255 2.42718E+01 1.85920E+01 0.00000E+00
 -1      1256 2.53978E+01 1.78471E+01 0.00000E+00
 -1      1257 2.63646E+01 1.68943E+01 0.00000E+00
 -1      1258 2.71445E+01 1.57449E+01 0.00000E+00
 -1      1259 2.76885E+01 1.44432E+01 0.00000E+00
 -1      1260 2.79581E+01 1.30833E+01 0.00000E+00
 -1      1261 1.57500E+00 4.85000E+01 0.00000E+00
 -1      1262 1.29900E+00 4.47875E+01 0.00000E+00
 -1      1263 1.29900E+00 4.62625E+01 0.00000E+00
 -1      1264 1.29900E+00 4.18375E+01 0.00000E+00
 -1      1265 1.29900E+00 4.33125E+01 0.00000E+00
 -1      1266 2.59800E+00 4.40500E+01 0.00000E+00
 -1      1267 1.29900E+00 3.88875E+01 0.00000E+00
 -1      1268 1.29900E+00 4.03625E+01 0.00000E+00
 -1      1269 2.59800E+00 4.11000E+01 0.00000E+00
 -1      1270 1.29900E+00 3.59375E+01 0.00000E+00
 -1      1271 1.29900E+00 3.74125E+01 0.00000E+00
 -1      1272 2.59800E+00 3.81500E+01 0.00000E+00
 -1      1273 1.29900E+00 3.29875E+01 0.00000E+00
 -1      1274 1.29900E+00 3.44625E+01 0.00000E+00
 -1      1275 2.59800E+00 3.52000E+01 0.00000E+00
 -1      1276 1.29900E+00 3.00375E+01 0.00000E+00
 -1      1277 1.29900E+00 3.15125E+01 0.00000E+00
 -1      1278 2.59800E+00 3.22500E+01 0.00000E+00
 -1      1279 1.29900E+00 2.70875E+01 0.00000E+00
 -1      1280 1.29900E+00 2.85625E+01 0.00000E+00
 -1      1281 2.59800E+00 2.93000E+01 0.00000E+00
 -1      1282 1.29900E+00 2.41375E+01 0.00000E+00
 -1      1283 1.29900E+00 2.56125E+01 0.00000E+00
 -1      1284 2.59800E+00 2.63500E+01 0.00000E+00
 -1      1285 1.29900E+00 2.11875E+01 0.00000E+00
 -1      1286 1.29900E+00 2.26625E+01 0.00000E+00
 -1      1287 2.59800E+00 2.34000E+01 0.00000E+00
 -1      1288 1.29900E+00 1.82375E+01 0.00000E+00
 -1      1289 1.29900E+00 1.97125E+01 0.00000E+00
 -1      1290 2.59800E+00 2.04500E+01 0.00000E+00
 -1      1291 1.29900E+00 1.52875E+01 0.00000E+00
 -1      1292 1.29900E+00 1.67625E+01 0.00000E+00
 -1      1293 2.59800E+00 1.75000E+01 0.00000E+00
 -1      1294 1.29900E+00 1.24375E+01 0.00000E+00
 -1      1295 1.29900E+00 1.38625E+01 0.00000E+00
 -1      1296 2.59800E+00 1.46000E+01 0.00000E+00
 -1      1297 1.29900E+00 9.58750E+00 0.00000E+00
 -1      1298 1.29900E+00 1.10125E+01 0.00000E+00
 -1      1299 2.59800E+00 1.17500E+01 0.00000E+00
 -1      1300 1.29900E+00 6.63750E+00 0.00000E+00
 -1      1301 1.29900E+00 8.11250E+00 0.00000E+00
 -1      1302 2.59800E+00 8.85000E+00 0.00000E+00
 -1      1303 1.29900E+00 3.68750E+00 0.00000E+00
 -1      1304 1.29900E+00 5.16250E+00 0.00000E+00
 -1      1305 2.59800E+00 5.90000E+00 0.00000E+00
 -1      1306 1.43700E+00 1.10625E+00 0.00000E+00
 -1      1307 1.43700E+00 2.58125E+00 0.00000E+00
 -1      1308 2.73600E+00 3.31875E+00 0.00000E+00
 -1      1309 3.01200E+00 1.10625E+00 0.00000E+00
 -1      1310 3.90000E+00 4.87010E+01 0.00000E+00
 -1      1311 5.40000E+00 4.87010E+01 0.00000E+00
 -1      1312 6.90000E+00 4.87010E+01 0.00000E+00
 -1      1313 8.40000E+00 4.87010E+01 0.00000E+00
 -1      1314 6.15000E+00 4.74020E+01 0.00000E+00
 -1      1315 9.90000E+00 4.87010E+01 0.00000E+00
 -1      1316 1.14000E+01 4.87010E+01 0.00000E+00
 -1      1317 9.15000E+00 4.74020E+01 0.00000E+00
 -1      1318 1.29000E+01 4.87010E+01 0.00000E+00
 -1      1319 1.44000E+01 4.87010E+01 0.00000E+00
 -1      1320 1.21500E+01 4.74020E+01 0.00000E+00
 -1      1321 1.59000E+01 4.87010E+01 0.00000E+00
 -1      1322 1.74000E+01 4.87010E+01 0.00000E+00
 -1      1323 1.51500E+01 4.74020E+01 0.00000E+00
 -1      1324 1.89000E+01 4.87010E+01 0.00000E+00
 -1      1325 2.04000E+01 4.87010E+01 0.00000E+00
 -1      1326 1.81500E+01 4.74020E+01 0.00000E+00
 -1      1327 2.19000E+01 4.87010E+01 0.00000E+00
 -1      1328 2.34000E+01 4.87010E+01 0.00000E+00
 -1      1329 2.11500E+01 4.74020E+01 0.00000E+00
 -1      1330 2.49000E+01 4.87010E+01 0.00000E+00
 -1      1331 2.64000E+01 4.87010E+01 0.00000E+00
 -1      1332 2.41500E+01 4.74020E+01 0.00000E+00
 -1      1333 2.79000E+01 4.87010E+01 0.00000E+00
 -1      1334 2.94000E+01 4.87010E+01 0.00000E+00
 -1      1335 2.71500E+01 4.74020E+01 0.00000E+00
 -1      1336 3.09000E+01 4.87010E+01 0.00000E+00
 -1      1337 3.24000E+01 4.87010E+01 0.00000E+00
 -1      1338 3.01500E+01 4.74020E+01 0.00000E+00
 -1      1339 3.39000E+01 4.87010E+01 0.00000E+00
 -1      1340 3.54000E+01 4.87010E+01 0.00000E+00
 -1      1341 3.31500E+01 4.74020E+01 0.00000E+00
 -1      1342 3.69000E+01 4.87010E+01 0.00000E+00
 -1      1343 3.84000E+01 4.87010E+01 0.00000E+00
 -1      1344 3.61500E+01 4.74020E+01 0.00000E+00
 -1      1345 3.99000E+01 4.87010E+01 0.00000E+00
 -1      1346 4.14000E+01 4.87010E+01 0.00000E+00
 -1      1347 3.91500E+01 4.74020E+01 0.00000E+00
 -1      1348 4.29000E+01 4.87010E+01 0.00000E+00
 -1      1349 4.44000E+01 4.87010E+01 0.00000E+00
 -1      1350 4.21500E+01 4.74020E+01 0.00000E+00
 -1      1351 4.59000E+01 4.87010E+01 0.00000E+00
 -1      1352 4.74000E+01 4.87010E+01 0.00000E+00
 -1      1353 4.51500E+01 4.74020E+01 0.00000E+00
 -1      1354 4.89000E+01 4.87010E+01 0.00000E+00
 -1      1355 5.04000E+01 4.87010E+01 0.00000E+00
 -1      1356 4.81500E+01 4.74020E+01 0.00000E+00
 -1      1357 5.19000E+01 4.87010E+01 0.00000E+00
 -1      1358 5.34000E+01 4.87010E+01 0.00000E+00
 -1      1359 5.11500E+01 4.74020E+01 0.00000E+00
 -1      1360 5.49000E+01 4.87010E+01 0.00000E+00
 -1      1361 5.64000E+01 4.87010E+01 0.00000E+00
 -1      1362 5.41500E+01 4.74020E+01 0.00000E+00
 -1      1363 5.79000E+01 4.87010E+01 0.00000E+00
 -1      1364 5.94000E+01 4.87010E+01 0.00000E+00
 -1      1365 5.71500E+01 4.74020E+01 0.00000E+00
 -1      1366 6.09000E+01 4.87010E+01 0.00000E+00
 -1      1367 6.24000E+01 4.87010E+01 0.00000E+00
 -1      1368 6.01500E+01 4.74020E+01 0.00000E+00
 -1      1369 6.39000E+01 4.87010E+01 0.00000E+00
 -1      1370 6.54000E+01 4.87010E+01 0.00000E+00
 -1      1371 6.31500E+01 4.74020E+01 0.00000E+00
 -1      1372 6.69000E+01 4.87010E+01 0.00000E+00
 -1      1373 6.84000E+01 4.87010E+01 0.00000E+00
 -1      1374 6.61500E+01 4.74020E+01 0.00000E+00
 -1      1375 6.99000E+01 4.87010E+01 0.00000E+00
 -1      1376 7.14000E+01 4.87010E+01 0.00000E+00
 -1      1377 6.91500E+01 4.74020E+01 0.00000E+00
 -1      1378 7.29000E+01 4.87010E+01 0.00000E+00
 -1      1379 7.44000E+01 4.87010E+01 0.00000E+00
 -1      1380 7.21500E+01 4.74020E+01 0.00000E+00
 -1      1381 7.59000E+01 4.87010E+01 0.00000E+00
 -1      1382 7.74000E+01 4.87010E+01 0.00000E+00
 -1      1383 7.51500E+01 4.74020E+01 0.00000E+00
 -1      1384 7.89000E+01 4.87010E+01 0.00000E+00
 -1      1385 8.04000E+01 4.87010E+01 0.00000E+00
 -1      1386 7.81500E+01 4.74020E+01 0.00000E+00
 -1      1387 8.19000E+01 4.87010E+01 0.00000E+00
 -1      1388 8.34000E+01 4.87010E+01 0.00000E+00
 -1      1389 8.11500E+01 4.74020E+01 0.00000E+00
 -1      1390 8.49000E+01 4.87010E+01 0.00000E+00
 -1      1391 8.64000E+01 4.87010E+01 0.00000E+00
 -1      1392 8.41500E+01 4.74020E+01 0.00000E+00
 -1      1393 8.79000E+01 4.87010E+01 0.00000E+00
 -1      1394 8.94000E+01 4.87010E+01 0.00000E+00
 -1      1395 8.71500E+01 4.74020E+01 0.00000E+00
 -1      1396 9.09000E+01 4.87010E+01 0.00000E+00
 -1      1397 9.24000E+01 4.87010E+01 0.00000E+00
 -1      1398 9.01500E+01 4.74020E+01 0.00000E+00
 -1      1399 9.39000E+01 4.87010E+01 0.00000E+00
 -1      1400 9.54000E+01 4.87010E+01 0.00000E+00
 -1      1401 9.31500E+01 4.74020E+01 0.00000E+00
 -1      1402 9.69000E+01 4.87010E+01 0.00000E+00
 -1      1403 9.84000E+01 4.87010E+01 0.00000E+00
 -1      1404 9.61500E+01 4.74020E+01 0.00000E+00
 -1      1405 9.99000E+01 4.87010E+01 0.00000E+00
 -1      1406 1.01400E+02 4.87010E+01 0.00000E+00
 -1      1407 9.91500E+01 4.74020E+01 0.00000E+00
 -1      1408 1.02900E+02 4.87010E+01 0.00000E+00
 -1      1409 1.04400E+02 4.87010E+01 0.00000E+00
 -1      1410 1.02150E+02 4.74020E+01 0.00000E+00
 -1      1411 1.05900E+02 4.87010E+01 0.00000E+00
 -1      1412 1.07400E+02 4.87010E+01 0.00000E+00
 -1      1413 1.05150E+02 4.74020E+01 0.00000E+00
 -1      1414 1.08900E+02 4.87010E+01 0.00000E+00
 -1      1415 1.10400E+02 4.87010E+01 0.00000E+00
 -1      1416 1.08150E+02 4.74020E+01 0.00000E+00
 -1      1417 1.11900E+02 4.87010E+01 0.00000E+00
 -1      1418 1.13400E+02 4.87010E+01 0.00000E+00
 -1      1419 1.11150E+02 4.74020E+01 0.00000E+00
 -1      1420 1.14900E+02 4.87010E+01 0.00000E+00
 -1      1421 1.16400E+02 4.87010E+01 0.00000E+00
 -1      1422 1.14150E+02 4.74020E+01 0.00000E+00
 -1      1423 1.17900E+02 4.87010E+01 0.00000E+00
 -1      1424 1.19400E+02 4.87010E+01 0.00000E+00
 -1      1425 1.17150E+02 4.74020E+01 0.00000E+00
 -1      1426 1.20900E+02 4.87010E+01 0.00000E+00
 -1      1427 1.22400E+02 4.87010E+01 0.00000E+00
 -1      1428 1.20150E+02 4.74020E+01 0.00000E+00
 -1      1429 1.23900E+02 4.87010E+01 0.00000E+00
 -1      1430 1.25400E+02 4.87010E+01 0.00000E+00
 -1      1431 1.23150E+02 4.74020E+01 0.00000E+00
 -1      1432 1.26900E+02 4.87010E+01 0.00000E+00
 -1      1433 1.28400E+02 4.87010E+01 0.00000E+00
 -1      1434 1.26150E+02 4.74020E+01 0.00000E+00
 -1      1435 1.29900E+02 4.87010E+01 0.00000E+00
 -1      1436 1.31400E+02 4.87010E+01 0.00000E+00
 -1      1437 1.29150E+02 4.74020E+01 0.00000E+00
 -1      1438 1.32900E+02 4.87010E+01 0.00000E+00
 -1      1439 1.34400E+02 4.87010E+01 0.00000E+00
 -1      1440 1.32150E+02 4.74020E+01 0.00000E+00
 -1      1441 1.35900E+02 4.87010E+01 0.00000E+00
 -1      1442 1.37400E+02 4.87010E+01 0.00000E+00
 -1      1443 1.35150E+02 4.74020E+01 0.00000E+00
 -1      1444 1.38900E+02 4.87010E+01 0.00000E+00
 -1      1445 1.40400E+02 4.87010E+01 0.00000E+00
 -1      1446 1.38150E+02 4.74020E+01 0.00000E+00
 -1      1447 1.41900E+02 4.87010E+01 0.00000E+00
 -1      1448 1.43400E+02 4.87010E+01 0.00000E+00
 -1      1449 1.41150E+02 4.74020E+01 0.00000E+00
 -1      1450 1.44900E+02 4.87010E+01 0.00000E+00
 -1      1451 1.46400E+02 4.87010E+01 0.00000E+00
 -1      1452 1.44150E+02 4.74020E+01 0.00000E+00
 -1      1453 1.48575E+02 4.85500E+01 0.00000E+00
 -1      1454 1.47825E+02 4.72510E+01 0.00000E+00
 -1      1455 6.01200E+00 1.10625E+00 0.00000E+00
 -1      1456 4.51200E+00 1.10625E+00 0.00000E+00
 -1      1457 4.37400E+00 2.21250E+00 0.00000E+00
 -1      1458 8.86200E+00 1.10625E+00 0.00000E+00
 -1      1459 7.43700E+00 1.10625E+00 0.00000E+00
 -1      1460 7.29900E+00 2.21250E+00 0.00000E+00
 -1      1461 1.17120E+01 1.10625E+00 0.00000E+00
 -1      1462 1.02870E+01 1.10625E+00 0.00000E+00
 -1      1463 1.01490E+01 2.21250E+00 0.00000E+00
 -1      1464 1.44120E+01 1.10625E+00 0.00000E+00
 -1      1465 1.30620E+01 1.10625E+00 0.00000E+00
 -1      1466 1.29240E+01 2.21250E+00 0.00000E+00
 -1      1467 1.72620E+01 1.10625E+00 0.00000E+00
 -1      1468 1.58370E+01 1.10625E+00 0.00000E+00
 -1      1469 1.56990E+01 2.21250E+00 0.00000E+00
 -1      1470 1.98120E+01 1.10625E+00 0.00000E+00
 -1      1471 1.85370E+01 1.10625E+00 0.00000E+00
 -1      1472 1.83990E+01 2.21250E+00 0.00000E+00
 -1      1473 2.19120E+01 1.10625E+00 0.00000E+00
 -1      1474 2.08620E+01 1.10625E+00 0.00000E+00
 -1      1475 2.07240E+01 2.21250E+00 0.00000E+00
 -1      1476 2.41620E+01 1.10625E+00 0.00000E+00
 -1      1477 2.30370E+01 1.10625E+00 0.00000E+00
 -1      1478 2.28990E+01 2.21250E+00 0.00000E+00
 -1      1479 2.68620E+01 1.10625E+00 0.00000E+00
 -1      1480 2.55120E+01 1.10625E+00 0.00000E+00
 -1      1481 2.53740E+01 2.21250E+00 0.00000E+00
 -1      1482 2.98620E+01 1.10625E+00 0.00000E+00
 -1      1483 2.83620E+01 1.10625E+00 0.00000E+00
 -1      1484 2.82240E+01 2.21250E+00 0.00000E+00
 -1      1485 3.28620E+01 1.10625E+00 0.00000E+00
 -1      1486 3.13620E+01 1.10625E+00 0.00000E+00
 -1      1487 3.12240E+01 2.21250E+00 0.00000E+00
 -1      1488 3.58620E+01 1.10625E+00 0.00000E+00
 -1      1489 3.43620E+01 1.10625E+00 0.00000E+00
 -1      1490 3.42240E+01 2.21250E+00 0.00000E+00
 -1      1491 3.88620E+01 1.10625E+00 0.00000E+00
 -1      1492 3.73620E+01 1.10625E+00 0.00000E+00
 -1      1493 3.72240E+01 2.21250E+00 0.00000E+00
 -1      1494 4.18620E+01 1.10625E+00 0.00000E+00
 -1      1495 4.03620E+01 1.10625E+00 0.00000E+00
 -1      1496 4.02240E+01 2.21250E+00 0.00000E+00
 -1      1497 4.48620E+01 1.10625E+00 0.00000E+00
 -1      1498 4.33620E+01 1.10625E+00 0.00000E+00
 -1      1499 4.32240E+01 2.21250E+00 0.00000E+00
 -1      1500 4.78620E+01 1.10625E+00 0.00000E+00
 -1      1501 4.63620E+01 1.10625E+00 0.00000E+00
 -1      1502 4.62240E+01 2.21250E+00 0.00000E+00
 -1      1503 5.08620E+01 1.10625E+00 0.00000E+00
 -1      1504 4.93620E+01 1.10625E+00 0.00000E+00
 -1      1505 4.92240E+01 2.21250E+00 0.00000E+00
 -1      1506 5.38620E+01 1.10625E+00 0.00000E+00
 -1      1507 5.23620E+01 1.10625E+00 0.00000E+00
 -1      1508 5.22240E+01 2.21250E+00 0.00000E+00
 -1      1509 5.68620E+01 1.10625E+00 0.00000E+00
 -1      1510 5.53620E+01 1.10625E+00 0.00000E+00
 -1      1511 5.52240E+01 2.21250E+00 0.00000E+00
 -1      1512 5.98620E+01 1.10625E+00 0.00000E+00
 -1      1513 5.83620E+01 1.10625E+00 0.00000E+00
 -1      1514 5.82240E+01 2.21250E+00 0.00000E+00
 -1      1515 6.28620E+01 1.10625E+00 0.00000E+00
 -1      1516 6.13620E+01 1.10625E+00 0.00000E+00
 -1      1517 6.12240E+01 2.21250E+00 0.00000E+00
 -1      1518 6.58620E+01 1.10625E+00 0.00000E+00
 -1      1519 6.43620E+01 1.10625E+00 0.00000E+00
 -1      1520 6.42240E+01 2.21250E+00 0.00000E+00
 -1      1521 6.88620E+01 1.10625E+00 0.00000E+00
 -1      1522 6.73620E+01 1.10625E+00 0.00000E+00
 -1      1523 6.72240E+01 2.21250E+00 0.00000E+00
 -1      1524 7.18620E+01 1.10625E+00 0.00000E+00
 -1      1525 7.03620E+01 1.10625E+00 0.00000E+00
 -1      1526 7.02240E+01 2.21250E+00 0.00000E+00
 -1      1527 7.48620E+01 1.10625E+00 0.00000E+00
 -1      1528 7.33620E+01 1.10625E+00 0.00000E+00
 -1      1529 7.32240E+01 2.21250E+00 0.00000E+00
 -1      1530 7.78620E+01 1.10625E+00 0.00000E+00
 -1      1531 7.63620E+01 1.10625E+00 0.00000E+00
 -1      1532 7.62240E+01 2.21250E+00 0.00000E+00
 -1      1533 8.08620E+01 1.10625E+00 0.00000E+00
 -1      1534 7.93620E+01 1.10625E+00 0.00000E+00
 -1      1535 7.92240E+01 2.21250E+00 0.00000E+00
 -1      1536 8.38620E+01 1.10625E+00 0.00000E+00
 -1      1537 8.23620E+01 1.10625E+00 0.00000E+00
 -1      1538 8.22240E+01 2.21250E+00 0.00000E+00
 -1      1539 8.68620E+01 1.10625E+00 0.00000E+00
 -1      1540 8.53620E+01 1.10625E+00 0.00000E+00
 -1      1541 8.52240E+01 2.21250E+00 0.00000E+00
 -1      1542 8.98620E+01 1.10625E+00 0.00000E+00
 -1      1543 8.83620E+01 1.10625E+00 0.00000E+00
 -1      1544 8.82240E+01 2.21250E+00 0.00000E+00
 -1      1545 9.28620E+01 1.10625E+00 0.00000E+00
 -1      1546 9.13620E+01 1.10625E+00 0.00000E+00
 -1      1547 9.12240E+01 2.21250E+00 0.00000E+00
 -1      1548 9.58620E+01 1.10625E+00 0.00000E+00
 -1      1549 9.43620E+01 1.10625E+00 0.00000E+00
 -1      1550 9.42240E+01 2.21250E+00 0.00000E+00
 -1      1551 9.88620E+01 1.10625E+00 0.00000E+00
 -1      1552 9.73620E+01 1.10625E+00 0.00000E+00
 -1      1553 9.72240E+01 2.21250E+00 0.00000E+00
 -1      1554 1.01862E+02 1.10625E+00 0.00000E+00
 -1      1555 1.00362E+02 1.10625E+00 0.00000E+00
 -1      1556 1.00224E+02 2.21250E+00 0.00000E+00
 -1      1557 1.04862E+02 1.10625E+00 0.00000E+00
 -1      1558 1.03362E+02 1.10625E+00 0.00000E+00
 -1      1559 1.03224E+02 2.21250E+00 0.00000E+00
 -1      1560 1.07862E+02 1.10625E+00 0.00000E+00
 -1      1561 1.06362E+02 1.10625E+00 0.00000E+00
 -1      1562 1.06224E+02 2.21250E+00 0.00000E+00
 -1      1563 1.10862E+02 1.10625E+00 0.00000E+00
 -1      1564 1.09362E+02 1.10625E+00 0.00000E+00
 -1      1565 1.09224E+02 2.21250E+00 0.00000E+00
 -1      1566 1.13862E+02 1.10625E+00 0.00000E+00
 -1      1567 1.12362E+02 1.10625E+00 0.00000E+00
 -1      1568 1.12224E+02 2.21250E+00 0.00000E+00
 -1      1569 1.16862E+02 1.10625E+00 0.00000E+00
 -1      1570 1.15362E+02 1.10625E+00 0.00000E+00
 -1      1571 1.15224E+02 2.21250E+00 0.00000E+00
 -1      1572 1.19862E+02 1.10625E+00 0.00000E+00
 -1      1573 1.18362E+02 1.10625E+00 0.00000E+00
 -1      1574 1.18224E+02 2.21250E+00 0.00000E+00
 -1      1575 1.22862E+02 1.10625E+00 0.00000E+00
 -1      1576 1.21362E+02 1.10625E+00 0.00000E+00
 -1      1577 1.21224E+02 2.21250E+00 0.00000E+00
 -1      1578 1.25862E+02 1.10625E+00 0.00000E+00
 -1      1579 1.24362E+02 1.10625E+00 0.00000E+00
 -1      1580 1.24224E+02 2.21250E+00 0.00000E+00
 -1      1581 1.28862E+02 1.10625E+00 0.00000E+00
 -1      1582 1.27362E+02 1.10625E+00 0.00000E+00
 -1      1583 1.27224E+02 2.21250E+00 0.00000E+00
 -1      1584 1.31862E+02 1.10625E+00 0.00000E+00
 -1      1585 1.30362E+02 1.10625E+00 0.00000E+00
 -1      1586 1.30224E+02 2.21250E+00 0.00000E+00
 -1      1587 1.34862E+02 1.10625E+00 0.00000E+00
 -1      1588 1.33362E+02 1.10625E+00 0.00000E+00
 -1      1589 1.33224E+02 2.21250E+00 0.00000E+00
 -1      1590 1.37862E+02 1.10625E+00 0.00000E+00
 -1      1591 1.36362E+02 1.10625E+00 0.00000E+00
 -1      1592 1.36224E+02 2.21250E+00 0.00000E+00
 -1      1593 1.40862E+02 1.10625E+00 0.00000E+00
 -1      1594 1.39362E+02 1.10625E+00 0.00000E+00
 -1      1595 1.39224E+02 2.21250E+00 0.00000E+00
 -1      1596 1.43862E+02 1.10625E+00 0.00000E+00
 -1      1597 1.42362E+02 1.10625E+00 0.00000E+00
 -1      1598 1.42224E+02 2.21250E+00 0.00000E+00
 -1      1599 1.46862E+02 1.10625E+00 0.00000E+00
 -1      1600 1.45362E+02 1.10625E+00 0.00000E+00
 -1      1601 1.45224E+02 2.21250E+00 0.00000E+00
 -1      1602 1.48500E+02 1.47500E+00 0.00000E+00
 -1      1603 1.48701E+02 5.16250E+00 0.00000E+00
 -1      1604 1.48701E+02 3.68750E+00 0.00000E+00
 -1      1605 1.48701E+02 8.11250E+00 0.00000E+00
 -1      1606 1.48701E+02 6.63750E+00 0.00000E+00
 -1      1607 1.47402E+02 5.90000E+00 0.00000E+00
 -1      1608 1.48701E+02 1.10625E+01 0.00000E+00
 -1      1609 1.48701E+02 9.58750E+00 0.00000E+00
 -1      1610 1.47402E+02 8.85000E+00 0.00000E+00
 -1      1611 1.48701E+02 1.40125E+01 0.00000E+00
 -1      1612 1.48701E+02 1.25375E+01 0.00000E+00
 -1      1613 1.47402E+02 1.18000E+01 0.00000E+00
 -1      1614 1.48701E+02 1.69125E+01 0.00000E+00
 -1      1615 1.48701E+02 1.54625E+01 0.00000E+00
 -1      1616 1.47402E+02 1.47250E+01 0.00000E+00
 -1      1617 1.48701E+02 1.98625E+01 0.00000E+00
 -1      1618 1.48701E+02 1.83875E+01 0.00000E+00
 -1      1619 1.47402E+02 1.76500E+01 0.00000E+00
 -1      1620 1.48701E+02 2.28125E+01 0.00000E+00
 -1      1621 1.48701E+02 2.13375E+01 0.00000E+00
 -1      1622 1.47402E+02 2.06000E+01 0.00000E+00
 -1      1623 1.48701E+02 2.57625E+01 0.00000E+00
 -1      1624 1.48701E+02 2.42875E+01 0.00000E+00
 -1      1625 1.47402E+02 2.35500E+01 0.00000E+00
 -1      1626 1.48701E+02 2.87125E+01 0.00000E+00
 -1      1627 1.48701E+02 2.72375E+01 0.00000E+00
 -1      1628 1.47402E+02 2.65000E+01 0.00000E+00
 -1      1629 1.48701E+02 3.16625E+01 0.00000E+00
 -1      1630 1.48701E+02 3.01875E+01 0.00000E+00
 -1      1631 1.47402E+02 2.94500E+01 0.00000E+00
 -1      1632 1.48701E+02 3.45625E+01 0.00000E+00
 -1      1633 1.48701E+02 3.31125E+01 0.00000E+00
 -1      1634 1.47402E+02 3.23750E+01 0.00000E+00
 -1      1635 1.48701E+02 3.75125E+01 0.00000E+00
 -1      1636 1.48701E+02 3.60375E+01 0.00000E+00
 -1      1637 1.47402E+02 3.53000E+01 0.00000E+00
 -1      1638 1.48701E+02 4.04625E+01 0.00000E+00
 -1      1639 1.48701E+02 3.89875E+01 0.00000E+00
 -1      1640 1.47402E+02 3.82500E+01 0.00000E+00
 -1      1641 1.48701E+02 4.34125E+01 0.00000E+00
 -1      1642 1.48701E+02 4.19375E+01 0.00000E+00
 -1      1643 1.47402E+02 4.12000E+01 0.00000E+00
 -1      1644 1.48263E+02 4.60692E+01 0.00000E+00
 -1      1645 1.48263E+02 4.45942E+01 0.00000E+00
 -1      1646 1.46964E+02 4.38568E+01 0.00000E+00
 -1      1647 1.46088E+02 4.62202E+01 0.00000E+00
 -1      1648 2.85225E+01 1.12596E+01 0.00000E+00
 -1      1649 2.85977E+01 1.19809E+01 0.00000E+00
 -1      1650 2.81141E+01 9.70910E+00 0.00000E+00
 -1      1651 2.83426E+01 1.04138E+01 0.00000E+00
 -1      1652 2.73847E+01 8.26811E+00 0.00000E+00
 -1      1653 2.77575E+01 8.91027E+00 0.00000E+00
 -1      1654 2.64095E+01 7.05071E+00 0.00000E+00
 -1      1655 2.68827E+01 7.57595E+00 0.00000E+00
 -1      1656 2.51257E+01 5.91871E+00 0.00000E+00
 -1      1657 2.57864E+01 6.39041E+00 0.00000E+00
 -1      1658 2.36045E+01 5.29657E+00 0.00000E+00
 -1      1659 2.42723E+01 5.57897E+00 0.00000E+00
 -1      1660 2.20214E+01 4.90512E+00 0.00000E+00
 -1      1661 2.27719E+01 5.04709E+00 0.00000E+00
 -1      1662 2.02809E+01 4.70445E+00 0.00000E+00
 -1      1663 2.10957E+01 4.67254E+00 0.00000E+00
 -1      1664 1.87017E+01 5.14071E+00 0.00000E+00
 -1      1665 1.93927E+01 4.95822E+00 0.00000E+00
 -1      1666 1.72966E+01 5.79167E+00 0.00000E+00
 -1      1667 1.79330E+01 5.47455E+00 0.00000E+00
 -1      1668 1.58522E+01 6.62036E+00 0.00000E+00
 -1      1669 1.64606E+01 6.13280E+00 0.00000E+00
 -1      1670 1.48290E+01 7.92947E+00 0.00000E+00
 -1      1671 1.52943E+01 7.35100E+00 0.00000E+00
 -1      1672 1.40744E+01 9.31208E+00 0.00000E+00
 -1      1673 1.43985E+01 8.67151E+00 0.00000E+00
 -1      1674 1.35360E+01 1.08501E+01 0.00000E+00
 -1      1675 1.37296E+01 1.01112E+01 0.00000E+00
 -1      1676 1.34134E+01 1.24421E+01 0.00000E+00
 -1      1677 1.34448E+01 1.17191E+01 0.00000E+00
 -1      1678 1.35198E+01 1.40872E+01 0.00000E+00
 -1      1679 1.33888E+01 1.33271E+01 0.00000E+00
 -1      1680 1.40972E+01 1.55580E+01 0.00000E+00
 -1      1681 1.38342E+01 1.49034E+01 0.00000E+00
 -1      1682 1.49190E+01 1.69377E+01 0.00000E+00
 -1      1683 1.44982E+01 1.63107E+01 0.00000E+00
 -1      1684 1.60127E+01 1.82775E+01 0.00000E+00
 -1      1685 1.54247E+01 1.77232E+01 0.00000E+00
 -1      1686 1.74410E+01 1.91026E+01 0.00000E+00
 -1      1687 1.68132E+01 1.87298E+01 0.00000E+00
 -1      1688 1.88949E+01 1.96906E+01 0.00000E+00
 -1      1689 1.82111E+01 1.94579E+01 0.00000E+00
 -1      1690 2.05000E+01 2.00919E+01 0.00000E+00
 -1      1691 1.97326E+01 2.00040E+01 0.00000E+00
 -1      1692 2.20748E+01 1.99097E+01 0.00000E+00
 -1      1693 2.13754E+01 1.99779E+01 0.00000E+00
 -1      1694 2.35069E+01 1.95602E+01 0.00000E+00
 -1      1695 2.28632E+01 1.97551E+01 0.00000E+00
 -1      1696 2.48418E+01 1.89380E+01 0.00000E+00
 -1      1697 2.42388E+01 1.92580E+01 0.00000E+00
 -1      1698 2.60187E+01 1.80832E+01 0.00000E+00
 -1      1699 2.55001E+01 1.85034E+01 0.00000E+00
 -1      1700 2.70248E+01 1.69961E+01 0.00000E+00
 -1      1701 2.65827E+01 1.75258E+01 0.00000E+00
 -1      1702 2.78132E+01 1.57098E+01 0.00000E+00
 -1      1703 2.74800E+01 1.63244E+01 0.00000E+00
 -1      1704 2.83372E+01 1.42683E+01 0.00000E+00
 -1      1705 2.81304E+01 1.49493E+01 0.00000E+00
 -1      1706 2.85615E+01 1.28028E+01 0.00000E+00
 -1      1707 2.84965E+01 1.34743E+01 0.00000E+00
 -1      1708 2.65045E+01 6.21922E+00 0.00000E+00
 -1      1709 2.76296E+01 7.57168E+00 0.00000E+00
 -1      1710 1.48362E+02 2.58125E+00 0.00000E+00
 -1      1711 1.47063E+02 3.31875E+00 0.00000E+00
 -1      1712 2.90248E+01 1.07073E+01 0.00000E+00
 -1      1713 2.84882E+01 9.06268E+00 0.00000E+00
 -1      1714 2.91685E+01 1.23751E+01 0.00000E+00
 -1      1715 2.50279E+01 5.21918E+00 0.00000E+00
 -1      1716 2.33419E+01 4.62995E+00 0.00000E+00
 -1      1717 2.15837E+01 4.14789E+00 0.00000E+00
 -1      1718 1.97699E+01 4.16909E+00 0.00000E+00
 -1      1719 1.81131E+01 4.75669E+00 0.00000E+00
 -1      1720 1.65085E+01 5.43165E+00 0.00000E+00
 -1      1721 1.51146E+01 6.50343E+00 0.00000E+00
 -1      1722 1.41261E+01 7.97611E+00 0.00000E+00
 -1      1723 1.33507E+01 9.51725E+00 0.00000E+00
 -1      1724 1.29146E+01 1.11853E+01 0.00000E+00
 -1      1725 1.27989E+01 1.29393E+01 0.00000E+00
 -1      1726 1.30888E+01 1.46405E+01 0.00000E+00
 -1      1727 1.38042E+01 1.62093E+01 0.00000E+00
 -1      1728 1.47109E+01 1.77474E+01 0.00000E+00
 -1      1729 1.60171E+01 1.89852E+01 0.00000E+00
 -1      1730 1.75877E+01 1.97928E+01 0.00000E+00
 -1      1731 1.91954E+01 2.04616E+01 0.00000E+00
 -1      1732 2.09085E+01 2.06611E+01 0.00000E+00
 -1      1733 2.25723E+01 2.03925E+01 0.00000E+00
 -1      1734 2.40926E+01 1.99357E+01 0.00000E+00
 -1      1735 2.54828E+01 1.91989E+01 0.00000E+00
 -1      1736 2.67051E+01 1.82068E+01 0.00000E+00
 -1      1737 2.77244E+01 1.69777E+01 0.00000E+00
 -1      1738 2.84967E+01 1.55455E+01 0.00000E+00
 -1      1739 2.89731E+01 1.39910E+01 0.00000E+00
 -1      1740 2.87400E+00 4.77625E+01 0.00000E+00
 -1      1741 3.89700E+00 4.03625E+01 0.00000E+00
 -1      1742 3.89700E+00 4.18375E+01 0.00000E+00
 -1      1743 3.89700E+00 4.33125E+01 0.00000E+00
 -1      1744 3.89700E+00 4.47875E+01 0.00000E+00
 -1      1745 5.19600E+00 4.25750E+01 0.00000E+00
 -1      1746 3.89700E+00 3.44625E+01 0.00000E+00
 -1      1747 3.89700E+00 3.59375E+01 0.00000E+00
 -1      1748 3.89700E+00 3.15125E+01 0.00000E+00
 -1      1749 3.89700E+00 3.29875E+01 0.00000E+00
 -1      1750 5.19600E+00 3.37250E+01 0.00000E+00
 -1      1751 3.89700E+00 2.85625E+01 0.00000E+00
 -1      1752 3.89700E+00 3.00375E+01 0.00000E+00
 -1      1753 5.19600E+00 3.07750E+01 0.00000E+00
 -1      1754 3.89700E+00 2.56125E+01 0.00000E+00
 -1      1755 3.89700E+00 2.70875E+01 0.00000E+00
 -1      1756 5.19600E+00 2.78250E+01 0.00000E+00
 -1      1757 3.89700E+00 2.26625E+01 0.00000E+00
 -1      1758 3.89700E+00 2.41375E+01 0.00000E+00
 -1      1759 5.19600E+00 2.48750E+01 0.00000E+00
 -1      1760 3.89700E+00 1.97125E+01 0.00000E+00
 -1      1761 3.89700E+00 2.11875E+01 0.00000E+00
 -1      1762 5.19600E+00 2.19250E+01 0.00000E+00
 -1      1763 3.89700E+00 1.67625E+01 0.00000E+00
 -1      1764 3.89700E+00 1.82375E+01 0.00000E+00
 -1      1765 5.19600E+00 1.89750E+01 0.00000E+00
 -1      1766 3.89700E+00 1.39125E+01 0.00000E+00
 -1      1767 3.89700E+00 1.53375E+01 0.00000E+00
 -1      1768 5.19600E+00 1.60750E+01 0.00000E+00
 -1      1769 3.89700E+00 1.10625E+01 0.00000E+00
 -1      1770 3.89700E+00 1.24875E+01 0.00000E+00
 -1      1771 5.19600E+00 1.32250E+01 0.00000E+00
 -1      1772 3.89700E+00 8.11250E+00 0.00000E+00
 -1      1773 3.89700E+00 9.58750E+00 0.00000E+00
 -1      1774 5.19600E+00 1.03250E+01 0.00000E+00
 -1      1775 3.89700E+00 5.16250E+00 0.00000E+00
 -1      1776 3.89700E+00 6.63750E+00 0.00000E+00
 -1      1777 5.19600E+00 7.37500E+00 0.00000E+00
 -1      1778 4.20450E+00 3.13438E+00 0.00000E+00
 -1      1779 4.06650E+00 4.24062E+00 0.00000E+00
 -1      1780 5.36550E+00 4.97813E+00 0.00000E+00
 -1      1781 5.70450E+00 3.13438E+00 0.00000E+00
 -1      1782 3.62400E+00 4.64635E+01 0.00000E+00
 -1      1783 8.55450E+00 3.13438E+00 0.00000E+00
 -1      1784 7.12950E+00 3.13438E+00 0.00000E+00
 -1      1785 6.96000E+00 4.05625E+00 0.00000E+00
 -1      1786 4.92300E+00 4.57260E+01 0.00000E+00
 -1      1787 8.40000E+00 4.61030E+01 0.00000E+00
 -1      1788 9.90000E+00 4.61030E+01 0.00000E+00
 -1      1789 1.14000E+01 4.61030E+01 0.00000E+00
 -1      1790 1.29000E+01 4.61030E+01 0.00000E+00
 -1      1791 1.06500E+01 4.48040E+01 0.00000E+00
 -1      1792 1.44000E+01 4.61030E+01 0.00000E+00
 -1      1793 1.59000E+01 4.61030E+01 0.00000E+00
 -1      1794 1.36500E+01 4.48040E+01 0.00000E+00
 -1      1795 1.74000E+01 4.61030E+01 0.00000E+00
 -1      1796 1.89000E+01 4.61030E+01 0.00000E+00
 -1      1797 1.66500E+01 4.48040E+01 0.00000E+00
 -1      1798 2.04000E+01 4.61030E+01 0.00000E+00
 -1      1799 2.19000E+01 4.61030E+01 0.00000E+00
 -1      1800 1.96500E+01 4.48040E+01 0.00000E+00
 -1      1801 2.34000E+01 4.61030E+01 0.00000E+00
 -1      1802 2.49000E+01 4.61030E+01 0.00000E+00
 -1      1803 2.26500E+01 4.48040E+01 0.00000E+00
 -1      1804 2.64000E+01 4.61030E+01 0.00000E+00
 -1      1805 2.79000E+01 4.61030E+01 0.00000E+00
 -1      1806 2.56500E+01 4.48040E+01 0.00000E+00
 -1      1807 2.94000E+01 4.61030E+01 0.00000E+00
 -1      1808 3.09000E+01 4.61030E+01 0.00000E+00
 -1      1809 2.86500E+01 4.48040E+01 0.00000E+00
 -1      1810 3.24000E+01 4.61030E+01 0.00000E+00
 -1      1811 3.39000E+01 4.61030E+01 0.00000E+00
 -1      1812 3.16500E+01 4.48040E+01 0.00000E+00
 -1      1813 3.54000E+01 4.61030E+01 0.00000E+00
 -1      1814 3.69000E+01 4.61030E+01 0.00000E+00
 -1      1815 3.46500E+01 4.48040E+01 0.00000E+00
 -1      1816 3.84000E+01 4.61030E+01 0.00000E+00
 -1      1817 3.99000E+01 4.61030E+01 0.00000E+00
 -1      1818 3.76500E+01 4.48040E+01 0.00000E+00
 -1      1819 4.14000E+01 4.61030E+01 0.00000E+00
 -1      1820 4.29000E+01 4.61030E+01 0.00000E+00
 -1      1821 4.06500E+01 4.48040E+01 0.00000E+00
 -1      1822 4.44000E+01 4.61030E+01 0.00000E+00
 -1      1823 4.59000E+01 4.61030E+01 0.00000E+00
 -1      1824 4.36500E+01 4.48040E+01 0.00000E+00
 -1      1825 4.74000E+01 4.61030E+01 0.00000E+00
 -1      1826 4.89000E+01 4.61030E+01 0.00000E+00
 -1      1827 4.66500E+01 4.48040E+01 0.00000E+00
 -1      1828 5.04000E+01 4.61030E+01 0.00000E+00
 -1      1829 5.19000E+01 4.61030E+01 0.00000E+00
 -1      1830 4.96500E+01 4.48040E+01 0.00000E+00
 -1      1831 5.34000E+01 4.61030E+01 0.00000E+00
 -1      1832 5.49000E+01 4.61030E+01 0.00000E+00
 -1      1833 5.26500E+01 4.48040E+01 0.00000E+00
 -1      1834 5.64000E+01 4.61030E+01 0.00000E+00
 -1      1835 5.79000E+01 4.61030E+01 0.00000E+00
 -1      1836 5.56500E+01 4.48040E+01 0.00000E+00
 -1      1837 5.94000E+01 4.61030E+01 0.00000E+00
 -1      1838 6.09000E+01 4.61030E+01 0.00000E+00
 -1      1839 5.86500E+01 4.48040E+01 0.00000E+00
 -1      1840 6.24000E+01 4.61030E+01 0.00000E+00
 -1      1841 6.39000E+01 4.61030E+01 0.00000E+00
 -1      1842 6.16500E+01 4.48040E+01 0.00000E+00
 -1      1843 6.54000E+01 4.61030E+01 0.00000E+00
 -1      1844 6.69000E+01 4.61030E+01 0.00000E+00
 -1      1845 6.46500E+01 4.48040E+01 0.00000E+00
 -1      1846 6.84000E+01 4.61030E+01 0.00000E+00
 -1      1847 6.99000E+01 4.61030E+01 0.00000E+00
 -1      1848 6.76500E+01 4.48040E+01 0.00000E+00
 -1      1849 7.14000E+01 4.61030E+01 0.00000E+00
 -1      1850 7.29000E+01 4.61030E+01 0.00000E+00
 -1      1851 7.06500E+01 4.48040E+01 0.00000E+00
 -1      1852 7.44000E+01 4.61030E+01 0.00000E+00
 -1      1853 7.59000E+01 4.61030E+01 0.00000E+00
 -1      1854 7.36500E+01 4.48040E+01 0.00000E+00
 -1      1855 7.74000E+01 4.61030E+01 0.00000E+00
 -1      1856 7.89000E+01 4.61030E+01 0.00000E+00
 -1      1857 7.66500E+01 4.48040E+01 0.00000E+00
 -1      1858 8.04000E+01 4.61030E+01 0.00000E+00
 -1      1859 8.19000E+01 4.61030E+01 0.00000E+00
 -1      1860 7.96500E+01 4.48040E+01 0.00000E+00
 -1      1861 8.34000E+01 4.61030E+01 0.00000E+00
 -1      1862 8.49000E+01 4.61030E+01 0.00000E+00
 -1      1863 8.26500E+01 4.48040E+01 0.00000E+00
 -1      1864 8.64000E+01 4.61030E+01 0.00000E+00
 -1      1865 8.79000E+01 4.61030E+01 0.00000E+00
 -1      1866 8.56500E+01 4.48040E+01 0.00000E+00
 -1      1867 8.94000E+01 4.61030E+01 0.00000E+00
 -1      1868 9.09000E+01 4.61030E+01 0.00000E+00
 -1      1869 8.86500E+01 4.48040E+01 0.00000E+00
 -1      1870 9.24000E+01 4.61030E+01 0.00000E+00
 -1      1871 9.39000E+01 4.61030E+01 0.00000E+00
 -1      1872 9.16500E+01 4.48040E+01 0.00000E+00
 -1      1873 9.54000E+01 4.61030E+01 0.00000E+00
 -1      1874 9.69000E+01 4.61030E+01 0.00000E+00
 -1      1875 9.46500E+01 4.48040E+01 0.00000E+00
 -1      1876 9.84000E+01 4.61030E+01 0.00000E+00
 -1      1877 9.99000E+01 4.61030E+01 0.00000E+00
 -1      1878 9.76500E+01 4.48040E+01 0.00000E+00
 -1      1879 1.01400E+02 4.61030E+01 0.00000E+00
 -1      1880 1.02900E+02 4.61030E+01 0.00000E+00
 -1      1881 1.00650E+02 4.48040E+01 0.00000E+00
 -1      1882 1.04400E+02 4.61030E+01 0.00000E+00
 -1      1883 1.05900E+02 4.61030E+01 0.00000E+00
 -1      1884 1.03650E+02 4.48040E+01 0.00000E+00
 -1      1885 1.07400E+02 4.61030E+01 0.00000E+00
 -1      1886 1.08900E+02 4.61030E+01 0.00000E+00
 -1      1887 1.06650E+02 4.48040E+01 0.00000E+00
 -1      1888 1.10400E+02 4.61030E+01 0.00000E+00
 -1      1889 1.11900E+02 4.61030E+01 0.00000E+00
 -1      1890 1.09650E+02 4.48040E+01 0.00000E+00
 -1      1891 1.13400E+02 4.61030E+01 0.00000E+00
 -1      1892 1.14900E+02 4.61030E+01 0.00000E+00
 -1      1893 1.12650E+02 4.48040E+01 0.00000E+00
 -1      1894 1.16400E+02 4.61030E+01 0.00000E+00
 -1      1895 1.17900E+02 4.61030E+01 0.00000E+00
 -1      1896 1.15650E+02 4.48040E+01 0.00000E+00
 -1      1897 1.19400E+02 4.61030E+01 0.00000E+00
 -1      1898 1.20900E+02 4.61030E+01 0.00000E+00
 -1      1899 1.18650E+02 4.48040E+01 0.00000E+00
 -1      1900 1.22400E+02 4.61030E+01 0.00000E+00
 -1      1901 1.23900E+02 4.61030E+01 0.00000E+00
 -1      1902 1.21650E+02 4.48040E+01 0.00000E+00
 -1      1903 1.25400E+02 4.61030E+01 0.00000E+00
 -1      1904 1.26900E+02 4.61030E+01 0.00000E+00
 -1      1905 1.24650E+02 4.48040E+01 0.00000E+00
 -1      1906 1.28400E+02 4.61030E+01 0.00000E+00
 -1      1907 1.29900E+02 4.61030E+01 0.00000E+00
 -1      1908 1.27650E+02 4.48040E+01 0.00000E+00
 -1      1909 1.31400E+02 4.61030E+01 0.00000E+00
 -1      1910 1.32900E+02 4.61030E+01 0.00000E+00
 -1      1911 1.30650E+02 4.48040E+01 0.00000E+00
 -1      1912 1.34400E+02 4.61030E+01 0.00000E+00
 -1      1913 1.35900E+02 4.61030E+01 0.00000E+00
 -1      1914 1.33650E+02 4.48040E+01 0.00000E+00
 -1      1915 1.37400E+02 4.61030E+01 0.00000E+00
 -1      1916 1.38900E+02 4.61030E+01 0.00000E+00
 -1      1917 1.36650E+02 4.48040E+01 0.00000E+00
 -1      1918 1.40400E+02 4.61030E+01 0.00000E+00
 -1      1919 1.41900E+02 4.61030E+01 0.00000E+00
 -1      1920 1.39650E+02 4.48040E+01 0.00000E+00
 -1      1921 1.43244E+02 4.61616E+01 0.00000E+00
 -1      1922 1.44744E+02 4.61616E+01 0.00000E+00
 -1      1923 1.45182E+02 4.49799E+01 0.00000E+00
 -1      1924 1.42494E+02 4.48626E+01 0.00000E+00
 -1      1925 1.14045E+01 3.13438E+00 0.00000E+00
 -1      1926 9.97950E+00 3.13438E+00 0.00000E+00
 -1      1927 9.81000E+00 4.05625E+00 0.00000E+00
 -1      1928 2.12160E+01 3.06391E+00 0.00000E+00
 -1      1929 2.01660E+01 3.06391E+00 0.00000E+00
 -1      1930 2.32667E+01 3.29648E+00 0.00000E+00
 -1      1931 2.21417E+01 3.29648E+00 0.00000E+00
 -1      1932 2.89740E+01 3.40520E+00 0.00000E+00
 -1      1933 2.74740E+01 3.40520E+00 0.00000E+00
 -1      1934 3.19740E+01 3.40520E+00 0.00000E+00
 -1      1935 3.04740E+01 3.40520E+00 0.00000E+00
 -1      1936 2.97240E+01 4.59789E+00 0.00000E+00
 -1      1937 3.49740E+01 3.40520E+00 0.00000E+00
 -1      1938 3.34740E+01 3.40520E+00 0.00000E+00
 -1      1939 3.27240E+01 4.59789E+00 0.00000E+00
 -1      1940 3.79740E+01 3.40520E+00 0.00000E+00
 -1      1941 3.64740E+01 3.40520E+00 0.00000E+00
 -1      1942 3.57240E+01 4.59789E+00 0.00000E+00
 -1      1943 4.09740E+01 3.40520E+00 0.00000E+00
 -1      1944 3.94740E+01 3.40520E+00 0.00000E+00
 -1      1945 3.87240E+01 4.59789E+00 0.00000E+00
 -1      1946 4.39740E+01 3.40520E+00 0.00000E+00
 -1      1947 4.24740E+01 3.40520E+00 0.00000E+00
 -1      1948 4.17240E+01 4.59789E+00 0.00000E+00
 -1      1949 4.69740E+01 3.40520E+00 0.00000E+00
 -1      1950 4.54740E+01 3.40520E+00 0.00000E+00
 -1      1951 4.47240E+01 4.59789E+00 0.00000E+00
 -1      1952 4.99740E+01 3.40520E+00 0.00000E+00
 -1      1953 4.84740E+01 3.40520E+00 0.00000E+00
 -1      1954 4.77240E+01 4.59789E+00 0.00000E+00
 -1      1955 5.29740E+01 3.40520E+00 0.00000E+00
 -1      1956 5.14740E+01 3.40520E+00 0.00000E+00
 -1      1957 5.07240E+01 4.59789E+00 0.00000E+00
 -1      1958 5.59740E+01 3.40520E+00 0.00000E+00
 -1      1959 5.44740E+01 3.40520E+00 0.00000E+00
 -1      1960 5.37240E+01 4.59789E+00 0.00000E+00
 -1      1961 5.89740E+01 3.40520E+00 0.00000E+00
 -1      1962 5.74740E+01 3.40520E+00 0.00000E+00
 -1      1963 5.67240E+01 4.59789E+00 0.00000E+00
 -1      1964 6.19740E+01 3.40520E+00 0.00000E+00
 -1      1965 6.04740E+01 3.40520E+00 0.00000E+00
 -1      1966 5.97240E+01 4.59789E+00 0.00000E+00
 -1      1967 6.49740E+01 3.40520E+00 0.00000E+00
 -1      1968 6.34740E+01 3.40520E+00 0.00000E+00
 -1      1969 6.27240E+01 4.59789E+00 0.00000E+00
 -1      1970 6.79740E+01 3.40520E+00 0.00000E+00
 -1      1971 6.64740E+01 3.40520E+00 0.00000E+00
 -1      1972 6.57240E+01 4.59789E+00 0.00000E+00
 -1      1973 7.09740E+01 3.40520E+00 0.00000E+00
 -1      1974 6.94740E+01 3.40520E+00 0.00000E+00
 -1      1975 6.87240E+01 4.59789E+00 0.00000E+00
 -1      1976 7.39740E+01 3.40520E+00 0.00000E+00
 -1      1977 7.24740E+01 3.40520E+00 0.00000E+00
 -1      1978 7.17240E+01 4.59789E+00 0.00000E+00
 -1      1979 7.69740E+01 3.40520E+00 0.00000E+00
 -1      1980 7.54740E+01 3.40520E+00 0.00000E+00
 -1      1981 7.47240E+01 4.59789E+00 0.00000E+00
 -1      1982 7.99740E+01 3.40520E+00 0.00000E+00
 -1      1983 7.84740E+01 3.40520E+00 0.00000E+00
 -1      1984 7.77240E+01 4.59789E+00 0.00000E+00
 -1      1985 8.29740E+01 3.40520E+00 0.00000E+00
 -1      1986 8.14740E+01 3.40520E+00 0.00000E+00
 -1      1987 8.07240E+01 4.59789E+00 0.00000E+00
 -1      1988 8.59740E+01 3.40520E+00 0.00000E+00
 -1      1989 8.44740E+01 3.40520E+00 0.00000E+00
 -1      1990 8.37240E+01 4.59789E+00 0.00000E+00
 -1      1991 8.89740E+01 3.40520E+00 0.00000E+00
 -1      1992 8.74740E+01 3.40520E+00 0.00000E+00
 -1      1993 8.67240E+01 4.59789E+00 0.00000E+00
 -1      1994 9.19740E+01 3.40520E+00 0.00000E+00
 -1      1995 9.04740E+01 3.40520E+00 0.00000E+00
 -1      1996 8.97240E+01 4.59789E+00 0.00000E+00
 -1      1997 9.49740E+01 3.40520E+00 0.00000E+00
 -1      1998 9.34740E+01 3.40520E+00 0.00000E+00
 -1      1999 9.27240E+01 4.59789E+00 0.00000E+00
 -1      2000 9.79740E+01 3.40520E+00 0.00000E+00
 -1      2001 9.64740E+01 3.40520E+00 0.00000E+00
 -1      2002 9.57240E+01 4.59789E+00 0.00000E+00
 -1      2003 1.00974E+02 3.40520E+00 0.00000E+00
 -1      2004 9.94740E+01 3.40520E+00 0.00000E+00
 -1      2005 9.87240E+01 4.59789E+00 0.00000E+00
 -1      2006 1.03974E+02 3.40520E+00 0.00000E+00
 -1      2007 1.02474E+02 3.40520E+00 0.00000E+00
 -1      2008 1.01724E+02 4.59789E+00 0.00000E+00
 -1      2009 1.06974E+02 3.40520E+00 0.00000E+00
 -1      2010 1.05474E+02 3.40520E+00 0.00000E+00
 -1      2011 1.04724E+02 4.59789E+00 0.00000E+00
 -1      2012 1.09974E+02 3.40520E+00 0.00000E+00
 -1      2013 1.08474E+02 3.40520E+00 0.00000E+00
 -1      2014 1.07724E+02 4.59789E+00 0.00000E+00
 -1      2015 1.12974E+02 3.40520E+00 0.00000E+00
 -1      2016 1.11474E+02 3.40520E+00 0.00000E+00
 -1      2017 1.10724E+02 4.59789E+00 0.00000E+00
 -1      2018 1.15974E+02 3.40520E+00 0.00000E+00
 -1      2019 1.14474E+02 3.40520E+00 0.00000E+00
 -1      2020 1.13724E+02 4.59789E+00 0.00000E+00
 -1      2021 1.18974E+02 3.40520E+00 0.00000E+00
 -1      2022 1.17474E+02 3.40520E+00 0.00000E+00
 -1      2023 1.16724E+02 4.59789E+00 0.00000E+00
 -1      2024 1.21974E+02 3.40520E+00 0.00000E+00
 -1      2025 1.20474E+02 3.40520E+00 0.00000E+00
 -1      2026 1.19724E+02 4.59789E+00 0.00000E+00
 -1      2027 1.24974E+02 3.40520E+00 0.00000E+00
 -1      2028 1.23474E+02 3.40520E+00 0.00000E+00
 -1      2029 1.22724E+02 4.59789E+00 0.00000E+00
 -1      2030 1.27974E+02 3.40520E+00 0.00000E+00
 -1      2031 1.26474E+02 3.40520E+00 0.00000E+00
 -1      2032 1.25724E+02 4.59789E+00 0.00000E+00
 -1      2033 1.30974E+02 3.40520E+00 0.00000E+00
 -1      2034 1.29474E+02 3.40520E+00 0.00000E+00
 -1      2035 1.28724E+02 4.59789E+00 0.00000E+00
 -1      2036 1.33974E+02 3.40520E+00 0.00000E+00
 -1      2037 1.32474E+02 3.40520E+00 0.00000E+00
 -1      2038 1.31724E+02 4.59789E+00 0.00000E+00
 -1      2039 1.36974E+02 3.40520E+00 0.00000E+00
 -1      2040 1.35474E+02 3.40520E+00 0.00000E+00
 -1      2041 1.34724E+02 4.59789E+00 0.00000E+00
 -1      2042 1.39974E+02 3.40520E+00 0.00000E+00
 -1      2043 1.38474E+02 3.40520E+00 0.00000E+00
 -1      2044 1.37724E+02 4.59789E+00 0.00000E+00
 -1      2045 1.42974E+02 3.40520E+00 0.00000E+00
 -1      2046 1.41474E+02 3.40520E+00 0.00000E+00
 -1      2047 1.40724E+02 4.59789E+00 0.00000E+00
 -1      2048 1.45768E+02 3.36197E+00 0.00000E+00
 -1      2049 1.44268E+02 3.36197E+00 0.00000E+00
 -1      2050 1.43518E+02 4.55467E+00 0.00000E+00
 -1      2051 1.46107E+02 4.46822E+00 0.00000E+00
 -1      2052 1.46103E+02 1.25375E+01 0.00000E+00
 -1      2053 1.46103E+02 1.10625E+01 0.00000E+00
 -1      2054 1.46103E+02 9.58750E+00 0.00000E+00
 -1      2055 1.46103E+02 8.11250E+00 0.00000E+00
 -1      2056 1.44804E+02 1.03250E+01 0.00000E+00
 -1      2057 1.46107E+02 5.94322E+00 0.00000E+00
 -1      2058 1.46103E+02 1.54375E+01 0.00000E+00
 -1      2059 1.46103E+02 1.39875E+01 0.00000E+00
 -1      2060 1.44804E+02 1.32500E+01 0.00000E+00
 -1      2061 1.46103E+02 1.83875E+01 0.00000E+00
 -1      2062 1.46103E+02 1.69125E+01 0.00000E+00
 -1      2063 1.44804E+02 1.61750E+01 0.00000E+00
 -1      2064 1.46103E+02 2.13375E+01 0.00000E+00
 -1      2065 1.46103E+02 1.98625E+01 0.00000E+00
 -1      2066 1.44804E+02 1.91250E+01 0.00000E+00
 -1      2067 1.46103E+02 2.42875E+01 0.00000E+00
 -1      2068 1.46103E+02 2.28125E+01 0.00000E+00
 -1      2069 1.44804E+02 2.20750E+01 0.00000E+00
 -1      2070 1.46103E+02 2.72375E+01 0.00000E+00
 -1      2071 1.46103E+02 2.57625E+01 0.00000E+00
 -1      2072 1.44804E+02 2.50250E+01 0.00000E+00
 -1      2073 1.46103E+02 3.01875E+01 0.00000E+00
 -1      2074 1.46103E+02 2.87125E+01 0.00000E+00
 -1      2075 1.44804E+02 2.79750E+01 0.00000E+00
 -1      2076 1.46103E+02 3.30875E+01 0.00000E+00
 -1      2077 1.46103E+02 3.16375E+01 0.00000E+00
 -1      2078 1.44804E+02 3.09000E+01 0.00000E+00
 -1      2079 1.46103E+02 3.60375E+01 0.00000E+00
 -1      2080 1.46103E+02 3.45625E+01 0.00000E+00
 -1      2081 1.44804E+02 3.38250E+01 0.00000E+00
 -1      2082 1.46103E+02 3.89875E+01 0.00000E+00
 -1      2083 1.46103E+02 3.75125E+01 0.00000E+00
 -1      2084 1.44804E+02 3.67750E+01 0.00000E+00
 -1      2085 1.46103E+02 4.19375E+01 0.00000E+00
 -1      2086 1.46103E+02 4.04625E+01 0.00000E+00
 -1      2087 1.44804E+02 3.97250E+01 0.00000E+00
 -1      2088 2.90930E+01 8.31370E+00 0.00000E+00
 -1      2089 2.94496E+01 9.11254E+00 0.00000E+00
 -1      2090 2.99597E+01 1.19981E+01 0.00000E+00
 -1      2091 2.99235E+01 1.28201E+01 0.00000E+00
 -1      2092 2.95687E+01 1.01495E+01 0.00000E+00
 -1      2093 2.97486E+01 1.09953E+01 0.00000E+00
 -1      2094 2.80050E+01 6.77132E+00 0.00000E+00
 -1      2095 2.85070E+01 7.46348E+00 0.00000E+00
 -1      2096 2.70527E+01 5.07841E+00 0.00000E+00
 -1      2097 2.76758E+01 5.73871E+00 0.00000E+00
 -1      2098 3.89700E+00 3.74125E+01 0.00000E+00
 -1      2099 3.89700E+00 3.88875E+01 0.00000E+00
 -1      2100 5.19600E+00 3.96250E+01 0.00000E+00
 -1      2101 5.19600E+00 3.66750E+01 0.00000E+00
 -1      2102 2.40992E+01 3.54597E+00 0.00000E+00
 -1      2103 1.92779E+01 3.31768E+00 0.00000E+00
 -1      2104 1.74372E+01 4.25231E+00 0.00000E+00
 -1      2105 1.82058E+01 3.91847E+00 0.00000E+00
 -1      2106 1.57652E+01 4.93457E+00 0.00000E+00
 -1      2107 1.66012E+01 4.59344E+00 0.00000E+00
 -1      2108 1.66940E+01 3.75523E+00 0.00000E+00
 -1      2109 1.42539E+01 6.42457E+00 0.00000E+00
 -1      2110 1.48118E+01 5.69392E+00 0.00000E+00
 -1      2111 1.33140E+01 8.00085E+00 0.00000E+00
 -1      2112 1.37446E+01 7.25882E+00 0.00000E+00
 -1      2113 1.24678E+01 9.61021E+00 0.00000E+00
 -1      2114 1.28127E+01 8.81111E+00 0.00000E+00
 -1      2115 1.21828E+01 1.15478E+01 0.00000E+00
 -1      2116 1.22740E+01 1.06788E+01 0.00000E+00
 -1      2117 1.20969E+01 1.33627E+01 0.00000E+00
 -1      2118 1.21214E+01 1.24777E+01 0.00000E+00
 -1      2119 1.25240E+01 1.53268E+01 0.00000E+00
 -1      2120 1.22095E+01 1.45106E+01 0.00000E+00
 -1      2121 1.33260E+01 1.68321E+01 0.00000E+00
 -1      2122 1.29250E+01 1.60794E+01 0.00000E+00
 -1      2123 1.20457E+01 1.59495E+01 0.00000E+00
 -1      2124 1.43132E+01 1.85590E+01 0.00000E+00
 -1      2125 1.38075E+01 1.77736E+01 0.00000E+00
 -1      2126 1.60985E+01 1.97756E+01 0.00000E+00
 -1      2127 1.52980E+01 1.93233E+01 0.00000E+00
 -1      2128 1.76485E+01 2.06730E+01 0.00000E+00
 -1      2129 1.68785E+01 2.03177E+01 0.00000E+00
 -1      2130 1.93239E+01 2.13000E+01 0.00000E+00
 -1      2131 1.84862E+01 2.09865E+01 0.00000E+00
 -1      2132 1.77770E+01 2.15114E+01 0.00000E+00
 -1      2133 2.14461E+01 2.13714E+01 0.00000E+00
 -1      2134 2.05707E+01 2.14854E+01 0.00000E+00
 -1      2135 2.30229E+01 2.10621E+01 0.00000E+00
 -1      2136 2.22345E+01 2.12168E+01 0.00000E+00
 -1      2137 2.18967E+01 2.20410E+01 0.00000E+00
 -1      2138 2.47218E+01 2.04224E+01 0.00000E+00
 -1      2139 2.39899E+01 2.07245E+01 0.00000E+00
 -1      2140 2.61921E+01 1.95574E+01 0.00000E+00
 -1      2141 2.55338E+01 1.99920E+01 0.00000E+00
 -1      2142 2.74427E+01 1.83891E+01 0.00000E+00
 -1      2143 2.68787E+01 1.89465E+01 0.00000E+00
 -1      2144 2.84885E+01 1.70055E+01 0.00000E+00
 -1      2145 2.80333E+01 1.76771E+01 0.00000E+00
 -1      2146 2.92921E+01 1.54308E+01 0.00000E+00
 -1      2147 2.89750E+01 1.61913E+01 0.00000E+00
 -1      2148 2.97642E+01 1.36140E+01 0.00000E+00
 -1      2149 2.96049E+01 1.44080E+01 0.00000E+00
 -1      2150 3.05553E+01 1.32371E+01 0.00000E+00
 -1      2151 6.42300E+00 4.57260E+01 0.00000E+00
 -1      2152 2.48760E+01 2.83328E+00 0.00000E+00
 -1      2153 2.49512E+01 4.16675E+00 0.00000E+00
 -1      2154 7.17300E+00 4.44270E+01 0.00000E+00
 -1      2155 1.17360E+01 9.97267E+00 0.00000E+00
 -1      2156 1.49046E+01 4.85571E+00 0.00000E+00
 -1      2157 1.35990E+01 3.15384E+00 0.00000E+00
 -1      2158 1.22490E+01 3.15384E+00 0.00000E+00
 -1      2159 1.64910E+01 3.15443E+00 0.00000E+00
 -1      2160 1.50660E+01 3.15443E+00 0.00000E+00
 -1      2161 1.86020E+01 2.81330E+00 0.00000E+00
 -1      2162 1.73270E+01 2.81330E+00 0.00000E+00
 -1      2163 2.62260E+01 2.83328E+00 0.00000E+00
 -1      2164 1.44809E+02 6.68072E+00 0.00000E+00
 -1      2165 3.05036E+01 1.14403E+01 0.00000E+00
 -1      2166 3.01735E+01 9.40056E+00 0.00000E+00
 -1      2167 1.45665E+02 4.31193E+01 0.00000E+00
 -1      2168 2.94684E+01 7.51334E+00 0.00000E+00
 -1      2169 1.20795E+01 4.07572E+00 0.00000E+00
 -1      2170 2.85532E+01 5.63051E+00 0.00000E+00
 -1      2171 3.00832E+01 1.50539E+01 0.00000E+00
 -1      2172 2.92839E+01 1.68908E+01 0.00000E+00
 -1      2173 2.82068E+01 1.84168E+01 0.00000E+00
 -1      2174 2.69297E+01 1.97396E+01 0.00000E+00
 -1      2175 2.36521E+01 2.15488E+01 0.00000E+00
 -1      2176 1.98614E+01 2.20103E+01 0.00000E+00
 -1      2177 1.91522E+01 2.25352E+01 0.00000E+00
 -1      2178 2.03990E+01 2.27206E+01 0.00000E+00
 -1      2179 1.61594E+01 2.06558E+01 0.00000E+00
 -1      2180 1.29282E+01 1.76436E+01 0.00000E+00
 -1      2181 1.15321E+01 1.40489E+01 0.00000E+00
 -1      2182 1.14808E+01 1.19712E+01 0.00000E+00
 -1      2183 1.24312E+01 8.09382E+00 0.00000E+00
 -1      2184 1.34418E+01 6.44931E+00 0.00000E+00
 -1      2185 1.43946E+01 1.93494E+01 0.00000E+00
 -1      2186 1.34912E+01 1.93755E+01 0.00000E+00
 -1      2187 1.44760E+01 2.01398E+01 0.00000E+00
 -1      2188 2.54311E+01 2.07809E+01 0.00000E+00
 -1      2189 2.58047E+01 4.50649E+00 0.00000E+00
 -1      2190 2.69760E+01 4.02598E+00 0.00000E+00
 -1      2191 1.43910E+01 4.09577E+00 0.00000E+00
 -1      2192 1.05225E+01 5.24895E+00 0.00000E+00
 -1      2193 9.09750E+00 5.24895E+00 0.00000E+00
 -1      2194 6.49500E+00 3.00375E+01 0.00000E+00
 -1      2195 6.49500E+00 3.15125E+01 0.00000E+00
 -1      2196 6.49500E+00 3.29875E+01 0.00000E+00
 -1      2197 6.49500E+00 3.44625E+01 0.00000E+00
 -1      2198 7.79400E+00 3.22500E+01 0.00000E+00
 -1      2199 6.49500E+00 2.41375E+01 0.00000E+00
 -1      2200 6.49500E+00 2.56125E+01 0.00000E+00
 -1      2201 6.49500E+00 2.11875E+01 0.00000E+00
 -1      2202 6.49500E+00 2.26625E+01 0.00000E+00
 -1      2203 7.79400E+00 2.34000E+01 0.00000E+00
 -1      2204 6.49500E+00 1.82375E+01 0.00000E+00
 -1      2205 6.49500E+00 1.97125E+01 0.00000E+00
 -1      2206 7.79400E+00 2.04500E+01 0.00000E+00
 -1      2207 6.49500E+00 1.53875E+01 0.00000E+00
 -1      2208 6.49500E+00 1.68125E+01 0.00000E+00
 -1      2209 7.79400E+00 1.75500E+01 0.00000E+00
 -1      2210 6.49500E+00 1.25375E+01 0.00000E+00
 -1      2211 6.49500E+00 1.39625E+01 0.00000E+00
 -1      2212 7.79400E+00 1.47000E+01 0.00000E+00
 -1      2213 6.49500E+00 9.58750E+00 0.00000E+00
 -1      2214 6.49500E+00 1.10625E+01 0.00000E+00
 -1      2215 7.79400E+00 1.18000E+01 0.00000E+00
 -1      2216 3.34740E+01 5.87437E+00 0.00000E+00
 -1      2217 3.19740E+01 5.87437E+00 0.00000E+00
 -1      2218 3.64740E+01 5.87437E+00 0.00000E+00
 -1      2219 3.49740E+01 5.87437E+00 0.00000E+00
 -1      2220 3.42240E+01 7.15085E+00 0.00000E+00
 -1      2221 9.90000E+00 4.35050E+01 0.00000E+00
 -1      2222 1.14000E+01 4.35050E+01 0.00000E+00
 -1      2223 6.55950E+00 4.28515E+01 0.00000E+00
 -1      2224 8.53650E+00 4.32285E+01 0.00000E+00
 -1      2225 9.28650E+00 4.19295E+01 0.00000E+00
 -1      2226 6.55950E+00 4.13765E+01 0.00000E+00
 -1      2227 1.29000E+01 4.35050E+01 0.00000E+00
 -1      2228 1.44000E+01 4.35050E+01 0.00000E+00
 -1      2229 1.21500E+01 4.22060E+01 0.00000E+00
 -1      2230 1.59000E+01 4.35050E+01 0.00000E+00
 -1      2231 1.74000E+01 4.35050E+01 0.00000E+00
 -1      2232 1.51500E+01 4.22060E+01 0.00000E+00
 -1      2233 1.89000E+01 4.35050E+01 0.00000E+00
 -1      2234 2.04000E+01 4.35050E+01 0.00000E+00
 -1      2235 1.81500E+01 4.22060E+01 0.00000E+00
 -1      2236 2.19000E+01 4.35050E+01 0.00000E+00
 -1      2237 2.34000E+01 4.35050E+01 0.00000E+00
 -1      2238 2.11500E+01 4.22060E+01 0.00000E+00
 -1      2239 2.49000E+01 4.35050E+01 0.00000E+00
 -1      2240 2.64000E+01 4.35050E+01 0.00000E+00
 -1      2241 2.41500E+01 4.22060E+01 0.00000E+00
 -1      2242 2.79000E+01 4.35050E+01 0.00000E+00
 -1      2243 2.94000E+01 4.35050E+01 0.00000E+00
 -1      2244 2.71500E+01 4.22060E+01 0.00000E+00
 -1      2245 3.09000E+01 4.35050E+01 0.00000E+00
 -1      2246 3.24000E+01 4.35050E+01 0.00000E+00
 -1      2247 3.01500E+01 4.22060E+01 0.00000E+00
 -1      2248 3.39000E+01 4.35050E+01 0.00000E+00
 -1      2249 3.54000E+01 4.35050E+01 0.00000E+00
 -1      2250 3.31500E+01 4.22060E+01 0.00000E+00
 -1      2251 3.69000E+01 4.35050E+01 0.00000E+00
 -1      2252 3.84000E+01 4.35050E+01 0.00000E+00
 -1      2253 3.61500E+01 4.22060E+01 0.00000E+00
 -1      2254 3.99000E+01 4.35050E+01 0.00000E+00
 -1      2255 4.14000E+01 4.35050E+01 0.00000E+00
 -1      2256 3.91500E+01 4.22060E+01 0.00000E+00
 -1      2257 4.29000E+01 4.35050E+01 0.00000E+00
 -1      2258 4.44000E+01 4.35050E+01 0.00000E+00
 -1      2259 4.21500E+01 4.22060E+01 0.00000E+00
 -1      2260 4.59000E+01 4.35050E+01 0.00000E+00
 -1      2261 4.74000E+01 4.35050E+01 0.00000E+00
 -1      2262 4.51500E+01 4.22060E+01 0.00000E+00
 -1      2263 4.89000E+01 4.35050E+01 0.00000E+00
 -1      2264 5.04000E+01 4.35050E+01 0.00000E+00
 -1      2265 4.81500E+01 4.22060E+01 0.00000E+00
 -1      2266 5.19000E+01 4.35050E+01 0.00000E+00
 -1      2267 5.34000E+01 4.35050E+01 0.00000E+00
 -1      2268 5.11500E+01 4.22060E+01 0.00000E+00
 -1      2269 5.49000E+01 4.35050E+01 0.00000E+00
 -1      2270 5.64000E+01 4.35050E+01 0.00000E+00
 -1      2271 5.41500E+01 4.22060E+01 0.00000E+00
 -1      2272 5.79000E+01 4.35050E+01 0.00000E+00
 -1      2273 5.94000E+01 4.35050E+01 0.00000E+00
 -1      2274 5.71500E+01 4.22060E+01 0.00000E+00
 -1      2275 6.09000E+01 4.35050E+01 0.00000E+00
 -1      2276 6.24000E+01 4.35050E+01 0.00000E+00
 -1      2277 6.01500E+01 4.22060E+01 0.00000E+00
 -1      2278 6.39000E+01 4.35050E+01 0.00000E+00
 -1      2279 6.54000E+01 4.35050E+01 0.00000E+00
 -1      2280 6.31500E+01 4.22060E+01 0.00000E+00
 -1      2281 6.69000E+01 4.35050E+01 0.00000E+00
 -1      2282 6.84000E+01 4.35050E+01 0.00000E+00
 -1      2283 6.61500E+01 4.22060E+01 0.00000E+00
 -1      2284 6.99000E+01 4.35050E+01 0.00000E+00
 -1      2285 7.14000E+01 4.35050E+01 0.00000E+00
 -1      2286 6.91500E+01 4.22060E+01 0.00000E+00
 -1      2287 7.29000E+01 4.35050E+01 0.00000E+00
 -1      2288 7.44000E+01 4.35050E+01 0.00000E+00
 -1      2289 7.21500E+01 4.22060E+01 0.00000E+00
 -1      2290 7.59000E+01 4.35050E+01 0.00000E+00
 -1      2291 7.74000E+01 4.35050E+01 0.00000E+00
 -1      2292 7.51500E+01 4.22060E+01 0.00000E+00
 -1      2293 7.89000E+01 4.35050E+01 0.00000E+00
 -1      2294 8.04000E+01 4.35050E+01 0.00000E+00
 -1      2295 7.81500E+01 4.22060E+01 0.00000E+00
 -1      2296 8.19000E+01 4.35050E+01 0.00000E+00
 -1      2297 8.34000E+01 4.35050E+01 0.00000E+00
 -1      2298 8.11500E+01 4.22060E+01 0.00000E+00
 -1      2299 8.49000E+01 4.35050E+01 0.00000E+00
 -1      2300 8.64000E+01 4.35050E+01 0.00000E+00
 -1      2301 8.41500E+01 4.22060E+01 0.00000E+00
 -1      2302 8.79000E+01 4.35050E+01 0.00000E+00
 -1      2303 8.94000E+01 4.35050E+01 0.00000E+00
 -1      2304 8.71500E+01 4.22060E+01 0.00000E+00
 -1      2305 9.09000E+01 4.35050E+01 0.00000E+00
 -1      2306 9.24000E+01 4.35050E+01 0.00000E+00
 -1      2307 9.01500E+01 4.22060E+01 0.00000E+00
 -1      2308 9.39000E+01 4.35050E+01 0.00000E+00
 -1      2309 9.54000E+01 4.35050E+01 0.00000E+00
 -1      2310 9.31500E+01 4.22060E+01 0.00000E+00
 -1      2311 9.69000E+01 4.35050E+01 0.00000E+00
 -1      2312 9.84000E+01 4.35050E+01 0.00000E+00
 -1      2313 9.61500E+01 4.22060E+01 0.00000E+00
 -1      2314 9.99000E+01 4.35050E+01 0.00000E+00
 -1      2315 1.01400E+02 4.35050E+01 0.00000E+00
 -1      2316 9.91500E+01 4.22060E+01 0.00000E+00
 -1      2317 1.02900E+02 4.35050E+01 0.00000E+00
 -1      2318 1.04400E+02 4.35050E+01 0.00000E+00
 -1      2319 1.02150E+02 4.22060E+01 0.00000E+00
 -1      2320 1.05900E+02 4.35050E+01 0.00000E+00
 -1      2321 1.07400E+02 4.35050E+01 0.00000E+00
 -1      2322 1.05150E+02 4.22060E+01 0.00000E+00
 -1      2323 1.08900E+02 4.35050E+01 0.00000E+00
 -1      2324 1.10400E+02 4.35050E+01 0.00000E+00
 -1      2325 1.08150E+02 4.22060E+01 0.00000E+00
 -1      2326 1.11900E+02 4.35050E+01 0.00000E+00
 -1      2327 1.13400E+02 4.35050E+01 0.00000E+00
 -1      2328 1.11150E+02 4.22060E+01 0.00000E+00
 -1      2329 1.14900E+02 4.35050E+01 0.00000E+00
 -1      2330 1.16400E+02 4.35050E+01 0.00000E+00
 -1      2331 1.14150E+02 4.22060E+01 0.00000E+00
 -1      2332 1.17900E+02 4.35050E+01 0.00000E+00
 -1      2333 1.19400E+02 4.35050E+01 0.00000E+00
 -1      2334 1.17150E+02 4.22060E+01 0.00000E+00
 -1      2335 1.20900E+02 4.35050E+01 0.00000E+00
 -1      2336 1.22400E+02 4.35050E+01 0.00000E+00
 -1      2337 1.20150E+02 4.22060E+01 0.00000E+00
 -1      2338 1.23900E+02 4.35050E+01 0.00000E+00
 -1      2339 1.25400E+02 4.35050E+01 0.00000E+00
 -1      2340 1.23150E+02 4.22060E+01 0.00000E+00
 -1      2341 1.26900E+02 4.35050E+01 0.00000E+00
 -1      2342 1.28400E+02 4.35050E+01 0.00000E+00
 -1      2343 1.26150E+02 4.22060E+01 0.00000E+00
 -1      2344 1.29900E+02 4.35050E+01 0.00000E+00
 -1      2345 1.31400E+02 4.35050E+01 0.00000E+00
 -1      2346 1.29150E+02 4.22060E+01 0.00000E+00
 -1      2347 1.32900E+02 4.35050E+01 0.00000E+00
 -1      2348 1.34400E+02 4.35050E+01 0.00000E+00
 -1      2349 1.32150E+02 4.22060E+01 0.00000E+00
 -1      2350 1.35900E+02 4.35050E+01 0.00000E+00
 -1      2351 1.37400E+02 4.35050E+01 0.00000E+00
 -1      2352 1.35150E+02 4.22060E+01 0.00000E+00
 -1      2353 1.38900E+02 4.35050E+01 0.00000E+00
 -1      2354 1.40400E+02 4.35050E+01 0.00000E+00
 -1      2355 1.38150E+02 4.22060E+01 0.00000E+00
 -1      2356 1.34376E+01 4.85512E+00 0.00000E+00
 -1      2357 3.00532E+01 5.63051E+00 0.00000E+00
 -1      2358 3.94740E+01 5.87437E+00 0.00000E+00
 -1      2359 3.79740E+01 5.87437E+00 0.00000E+00
 -1      2360 3.72240E+01 7.15085E+00 0.00000E+00
 -1      2361 4.24740E+01 5.87437E+00 0.00000E+00
 -1      2362 4.09740E+01 5.87437E+00 0.00000E+00
 -1      2363 4.02240E+01 7.15085E+00 0.00000E+00
 -1      2364 4.54740E+01 5.87437E+00 0.00000E+00
 -1      2365 4.39740E+01 5.87437E+00 0.00000E+00
 -1      2366 4.32240E+01 7.15085E+00 0.00000E+00
 -1      2367 4.84740E+01 5.87437E+00 0.00000E+00
 -1      2368 4.69740E+01 5.87437E+00 0.00000E+00
 -1      2369 4.62240E+01 7.15085E+00 0.00000E+00
 -1      2370 5.14740E+01 5.87437E+00 0.00000E+00
 -1      2371 4.99740E+01 5.87437E+00 0.00000E+00
 -1      2372 4.92240E+01 7.15085E+00 0.00000E+00
 -1      2373 5.44740E+01 5.87437E+00 0.00000E+00
 -1      2374 5.29740E+01 5.87437E+00 0.00000E+00
 -1      2375 5.22240E+01 7.15085E+00 0.00000E+00
 -1      2376 5.74740E+01 5.87437E+00 0.00000E+00
 -1      2377 5.59740E+01 5.87437E+00 0.00000E+00
 -1      2378 5.52240E+01 7.15085E+00 0.00000E+00
 -1      2379 6.04740E+01 5.87437E+00 0.00000E+00
 -1      2380 5.89740E+01 5.87437E+00 0.00000E+00
 -1      2381 5.82240E+01 7.15085E+00 0.00000E+00
 -1      2382 6.34740E+01 5.87437E+00 0.00000E+00
 -1      2383 6.19740E+01 5.87437E+00 0.00000E+00
 -1      2384 6.12240E+01 7.15085E+00 0.00000E+00
 -1      2385 6.64740E+01 5.87437E+00 0.00000E+00
 -1      2386 6.49740E+01 5.87437E+00 0.00000E+00
 -1      2387 6.42240E+01 7.15085E+00 0.00000E+00
 -1      2388 6.94740E+01 5.87437E+00 0.00000E+00
 -1      2389 6.79740E+01 5.87437E+00 0.00000E+00
 -1      2390 6.72240E+01 7.15085E+00 0.00000E+00
 -1      2391 7.24740E+01 5.87437E+00 0.00000E+00
 -1      2392 7.09740E+01 5.87437E+00 0.00000E+00
 -1      2393 7.02240E+01 7.15085E+00 0.00000E+00
 -1      2394 7.54740E+01 5.87437E+00 0.00000E+00
 -1      2395 7.39740E+01 5.87437E+00 0.00000E+00
 -1      2396 7.32240E+01 7.15085E+00 0.00000E+00
 -1      2397 7.84740E+01 5.87437E+00 0.00000E+00
 -1      2398 7.69740E+01 5.87437E+00 0.00000E+00
 -1      2399 7.62240E+01 7.15085E+00 0.00000E+00
 -1      2400 8.14740E+01 5.87437E+00 0.00000E+00
 -1      2401 7.99740E+01 5.87437E+00 0.00000E+00
 -1      2402 7.92240E+01 7.15085E+00 0.00000E+00
 -1      2403 8.44740E+01 5.87437E+00 0.00000E+00
 -1      2404 8.29740E+01 5.87437E+00 0.00000E+00
 -1      2405 8.22240E+01 7.15085E+00 0.00000E+00
 -1      2406 8.74740E+01 5.87437E+00 0.00000E+00
 -1      2407 8.59740E+01 5.87437E+00 0.00000E+00
 -1      2408 8.52240E+01 7.15085E+00 0.00000E+00
 -1      2409 9.04740E+01 5.87437E+00 0.00000E+00
 -1      2410 8.89740E+01 5.87437E+00 0.00000E+00
 -1      2411 8.82240E+01 7.15085E+00 0.00000E+00
 -1      2412 9.34740E+01 5.87437E+00 0.00000E+00
 -1      2413 9.19740E+01 5.87437E+00 0.00000E+00
 -1      2414 9.12240E+01 7.15085E+00 0.00000E+00
 -1      2415 9.64740E+01 5.87437E+00 0.00000E+00
 -1      2416 9.49740E+01 5.87437E+00 0.00000E+00
 -1      2417 9.42240E+01 7.15085E+00 0.00000E+00
 -1      2418 9.94740E+01 5.87437E+00 0.00000E+00
 -1      2419 9.79740E+01 5.87437E+00 0.00000E+00
 -1      2420 9.72240E+01 7.15085E+00 0.00000E+00
 -1      2421 1.02474E+02 5.87437E+00 0.00000E+00
 -1      2422 1.00974E+02 5.87437E+00 0.00000E+00
 -1      2423 1.00224E+02 7.15085E+00 0.00000E+00
 -1      2424 1.05474E+02 5.87437E+00 0.00000E+00
 -1      2425 1.03974E+02 5.87437E+00 0.00000E+00
 -1      2426 1.03224E+02 7.15085E+00 0.00000E+00
 -1      2427 1.08474E+02 5.87437E+00 0.00000E+00
 -1      2428 1.06974E+02 5.87437E+00 0.00000E+00
 -1      2429 1.06224E+02 7.15085E+00 0.00000E+00
 -1      2430 1.11474E+02 5.87437E+00 0.00000E+00
 -1      2431 1.09974E+02 5.87437E+00 0.00000E+00
 -1      2432 1.09224E+02 7.15085E+00 0.00000E+00
 -1      2433 1.14474E+02 5.87437E+00 0.00000E+00
 -1      2434 1.12974E+02 5.87437E+00 0.00000E+00
 -1      2435 1.12224E+02 7.15085E+00 0.00000E+00
 -1      2436 1.17474E+02 5.87437E+00 0.00000E+00
 -1      2437 1.15974E+02 5.87437E+00 0.00000E+00
 -1      2438 1.15224E+02 7.15085E+00 0.00000E+00
 -1      2439 1.20474E+02 5.87437E+00 0.00000E+00
 -1      2440 1.18974E+02 5.87437E+00 0.00000E+00
 -1      2441 1.18224E+02 7.15085E+00 0.00000E+00
 -1      2442 1.23474E+02 5.87437E+00 0.00000E+00
 -1      2443 1.21974E+02 5.87437E+00 0.00000E+00
 -1      2444 1.21224E+02 7.15085E+00 0.00000E+00
 -1      2445 1.26474E+02 5.87437E+00 0.00000E+00
 -1      2446 1.24974E+02 5.87437E+00 0.00000E+00
 -1      2447 1.24224E+02 7.15085E+00 0.00000E+00
 -1      2448 1.29474E+02 5.87437E+00 0.00000E+00
 -1      2449 1.27974E+02 5.87437E+00 0.00000E+00
 -1      2450 1.27224E+02 7.15085E+00 0.00000E+00
 -1      2451 1.32474E+02 5.87437E+00 0.00000E+00
 -1      2452 1.30974E+02 5.87437E+00 0.00000E+00
 -1      2453 1.30224E+02 7.15085E+00 0.00000E+00
 -1      2454 1.35474E+02 5.87437E+00 0.00000E+00
 -1      2455 1.33974E+02 5.87437E+00 0.00000E+00
 -1      2456 1.33224E+02 7.15085E+00 0.00000E+00
 -1      2457 1.38474E+02 5.87437E+00 0.00000E+00
 -1      2458 1.36974E+02 5.87437E+00 0.00000E+00
 -1      2459 1.36224E+02 7.15085E+00 0.00000E+00
 -1      2460 1.41474E+02 5.87437E+00 0.00000E+00
 -1      2461 1.39974E+02 5.87437E+00 0.00000E+00
 -1      2462 1.39224E+02 7.15085E+00 0.00000E+00
 -1      2463 1.43505E+02 1.69125E+01 0.00000E+00
 -1      2464 1.43505E+02 1.54375E+01 0.00000E+00
 -1      2465 1.43505E+02 1.39875E+01 0.00000E+00
 -1      2466 1.43505E+02 1.25375E+01 0.00000E+00
 -1      2467 1.42206E+02 1.47250E+01 0.00000E+00
 -1      2468 1.43505E+02 1.10625E+01 0.00000E+00
 -1      2469 1.43505E+02 9.58750E+00 0.00000E+00
 -1      2470 1.42206E+02 1.18000E+01 0.00000E+00
 -1      2471 3.12372E+01 1.07624E+01 0.00000E+00
 -1      2472 3.14483E+01 1.17651E+01 0.00000E+00
 -1      2473 1.43505E+02 1.98625E+01 0.00000E+00
 -1      2474 1.43505E+02 1.83875E+01 0.00000E+00
 -1      2475 1.42206E+02 1.76500E+01 0.00000E+00
 -1      2476 1.43505E+02 2.28125E+01 0.00000E+00
 -1      2477 1.43505E+02 2.13375E+01 0.00000E+00
 -1      2478 1.42206E+02 2.06000E+01 0.00000E+00
 -1      2479 1.43505E+02 2.57625E+01 0.00000E+00
 -1      2480 1.43505E+02 2.42875E+01 0.00000E+00
 -1      2481 1.42206E+02 2.35500E+01 0.00000E+00
 -1      2482 1.43505E+02 2.87125E+01 0.00000E+00
 -1      2483 1.43505E+02 2.72375E+01 0.00000E+00
 -1      2484 1.42206E+02 2.65000E+01 0.00000E+00
 -1      2485 1.43505E+02 3.16125E+01 0.00000E+00
 -1      2486 1.43505E+02 3.01625E+01 0.00000E+00
 -1      2487 1.42206E+02 2.94250E+01 0.00000E+00
 -1      2488 1.43505E+02 3.45625E+01 0.00000E+00
 -1      2489 1.43505E+02 3.30875E+01 0.00000E+00
 -1      2490 1.42206E+02 3.23500E+01 0.00000E+00
 -1      2491 1.43505E+02 3.75125E+01 0.00000E+00
 -1      2492 1.43505E+02 3.60375E+01 0.00000E+00
 -1      2493 1.42206E+02 3.53000E+01 0.00000E+00
 -1      2494 1.43505E+02 4.04625E+01 0.00000E+00
 -1      2495 1.43505E+02 3.89875E+01 0.00000E+00
 -1      2496 1.42206E+02 3.82500E+01 0.00000E+00
 -1      2497 1.07953E+01 1.03539E+01 0.00000E+00
 -1      2498 1.09891E+01 9.28534E+00 0.00000E+00
 -1      2499 3.09990E+01 8.68835E+00 0.00000E+00
 -1      2500 3.11181E+01 9.72535E+00 0.00000E+00
 -1      2501 3.20628E+01 1.00501E+01 0.00000E+00
 -1      2502 1.24023E+01 5.06177E+00 0.00000E+00
 -1      2503 1.15578E+01 5.04230E+00 0.00000E+00
 -1      2504 1.08453E+01 6.23500E+00 0.00000E+00
 -1      2505 1.29159E+01 5.82171E+00 0.00000E+00
 -1      2506 3.13525E+01 1.29840E+01 0.00000E+00
 -1      2507 3.11933E+01 1.37780E+01 0.00000E+00
 -1      2508 1.61316E+01 2.15278E+01 0.00000E+00
 -1      2509 1.53517E+01 2.09857E+01 0.00000E+00
 -1      2510 3.10597E+01 1.47933E+01 0.00000E+00
 -1      2511 3.07468E+01 1.58161E+01 0.00000E+00
 -1      2512 1.44321E+02 4.30606E+01 0.00000E+00
 -1      2513 6.49500E+00 2.70875E+01 0.00000E+00
 -1      2514 6.49500E+00 2.85625E+01 0.00000E+00
 -1      2515 7.79400E+00 2.93000E+01 0.00000E+00
 -1      2516 7.79400E+00 2.63500E+01 0.00000E+00
 -1      2517 1.06515E+01 1.47148E+01 0.00000E+00
 -1      2518 1.05389E+01 1.35669E+01 0.00000E+00
 -1      2519 1.24065E+01 6.65596E+00 0.00000E+00
 -1      2520 3.08032E+01 6.90699E+00 0.00000E+00
 -1      2521 1.14472E+01 8.37578E+00 0.00000E+00
 -1      2522 1.19485E+01 7.56552E+00 0.00000E+00
 -1      2523 1.14226E+01 6.93792E+00 0.00000E+00
 -1      2524 1.05065E+01 8.75704E+00 0.00000E+00
 -1      2525 1.07198E+01 1.23879E+01 0.00000E+00
 -1      2526 1.07812E+01 1.14580E+01 0.00000E+00
 -1      2527 1.14894E+01 1.67290E+01 0.00000E+00
 -1      2528 1.10884E+01 1.59764E+01 0.00000E+00
 -1      2529 2.62295E+01 2.13060E+01 0.00000E+00
 -1      2530 2.54175E+01 2.17363E+01 0.00000E+00
 -1      2531 1.24524E+01 1.86121E+01 0.00000E+00
 -1      2532 1.19709E+01 1.76706E+01 0.00000E+00
 -1      2533 1.10135E+01 1.76975E+01 0.00000E+00
 -1      2534 1.78952E+01 2.24713E+01 0.00000E+00
 -1      2535 1.70576E+01 2.21578E+01 0.00000E+00
 -1      2536 2.24398E+01 2.27230E+01 0.00000E+00
 -1      2537 2.16514E+01 2.28777E+01 0.00000E+00
 -1      2538 2.44118E+01 2.21710E+01 0.00000E+00
 -1      2539 2.34447E+01 2.25086E+01 0.00000E+00
 -1      2540 2.77873E+01 2.00123E+01 0.00000E+00
 -1      2541 2.71007E+01 2.06231E+01 0.00000E+00
 -1      2542 2.90976E+01 1.85549E+01 0.00000E+00
 -1      2543 2.85071E+01 1.92668E+01 0.00000E+00
 -1      2544 3.02632E+01 1.69236E+01 0.00000E+00
 -1      2545 2.97767E+01 1.77377E+01 0.00000E+00
 -1      2546 7.94400E+00 5.11354E+00 0.00000E+00
 -1      2547 6.51900E+00 5.11354E+00 0.00000E+00
 -1      2548 6.34950E+00 6.03541E+00 0.00000E+00
 -1      2549 8.65650E+00 6.30623E+00 0.00000E+00
 -1      2550 9.83931E+00 1.30538E+01 0.00000E+00
 -1      2551 7.79400E+00 3.52000E+01 0.00000E+00
 -1      2552 6.49500E+00 3.59375E+01 0.00000E+00
 -1      2553 6.49500E+00 3.74125E+01 0.00000E+00
 -1      2554 6.35163E+00 8.32728E+00 0.00000E+00
 -1      2555 7.65063E+00 9.06478E+00 0.00000E+00
 -1      2556 3.18569E+01 1.45402E+01 0.00000E+00
 -1      2557 6.35163E+00 6.85228E+00 0.00000E+00
 -1      2558 1.42764E+02 8.00043E+00 0.00000E+00
 -1      2559 1.42768E+02 5.83115E+00 0.00000E+00
 -1      2560 3.20862E+01 1.23061E+01 0.00000E+00
 -1      2561 2.52101E+01 2.26962E+01 0.00000E+00
 -1      2562 2.31995E+01 2.33453E+01 0.00000E+00
 -1      2563 3.13892E+01 7.75720E+00 0.00000E+00
 -1      2564 3.23339E+01 8.08200E+00 0.00000E+00
 -1      2565 1.41465E+02 8.73793E+00 0.00000E+00
 -1      2566 1.00343E+01 1.07707E+01 0.00000E+00
 -1      2567 1.62499E+01 2.24877E+01 0.00000E+00
 -1      2568 1.44483E+01 2.10118E+01 0.00000E+00
 -1      2569 2.09422E+01 2.34026E+01 0.00000E+00
 -1      2570 2.02329E+01 2.39275E+01 0.00000E+00
 -1      2571 2.14853E+01 2.40845E+01 0.00000E+00
 -1      2572 3.12397E+01 1.66630E+01 0.00000E+00
 -1      2573 1.42758E+02 4.35929E+01 0.00000E+00
 -1      2574 1.43241E+02 4.17323E+01 0.00000E+00
 -1      2575 1.41942E+02 4.09948E+01 0.00000E+00
 -1      2576 1.41414E+02 4.35342E+01 0.00000E+00
 -1      2577 1.25338E+01 1.94025E+01 0.00000E+00
 -1      2578 1.15765E+01 1.94294E+01 0.00000E+00
 -1      2579 1.26153E+01 2.01929E+01 0.00000E+00
 -1      2580 1.40664E+02 4.22352E+01 0.00000E+00
 -1      2581 6.52725E+00 3.86570E+01 0.00000E+00
 -1      2582 6.52725E+00 4.01320E+01 0.00000E+00
 -1      2583 7.89075E+00 4.04085E+01 0.00000E+00
 -1      2584 7.82625E+00 3.79195E+01 0.00000E+00
 -1      2585 2.70871E+01 2.15786E+01 0.00000E+00
 -1      2586 1.00952E+01 1.54944E+01 0.00000E+00
 -1      2587 3.00770E+01 1.85877E+01 0.00000E+00
 -1      2588 1.84328E+01 2.31816E+01 0.00000E+00
 -1      2589 2.86781E+01 2.01503E+01 0.00000E+00
 -1      2590 9.72597E+00 1.95974E+01 0.00000E+00
 -1      2591 9.72597E+00 2.10724E+01 0.00000E+00
 -1      2592 8.72619E+00 1.37539E+01 0.00000E+00
 -1      2593 8.72619E+00 1.51789E+01 0.00000E+00
 -1      2594 8.90712E+00 1.10999E+01 0.00000E+00
 -1      2595 8.90712E+00 1.25749E+01 0.00000E+00
 -1      2596 3.29400E+01 1.41663E+01 0.00000E+00
 -1      2597 3.28065E+01 1.51816E+01 0.00000E+00
 -1      2598 8.92122E+00 9.99580E+00 0.00000E+00
 -1      2599 3.53339E+01 8.08200E+00 0.00000E+00
 -1      2600 3.38339E+01 8.08200E+00 0.00000E+00
 -1      2601 3.34437E+01 9.01314E+00 0.00000E+00
 -1      2602 3.31315E+01 1.17285E+01 0.00000E+00
 -1      2603 3.30358E+01 1.29474E+01 0.00000E+00
 -1      2604 3.39853E+01 1.35888E+01 0.00000E+00
 -1      2605 1.14000E+01 4.09070E+01 0.00000E+00
 -1      2606 1.29000E+01 4.09070E+01 0.00000E+00
 -1      2607 8.96362E+00 4.05195E+01 0.00000E+00
 -1      2608 1.03271E+01 4.07960E+01 0.00000E+00
 -1      2609 1.10771E+01 3.94970E+01 0.00000E+00
 -1      2610 8.93137E+00 3.92750E+01 0.00000E+00
 -1      2611 4.09740E+01 8.44985E+00 0.00000E+00
 -1      2612 3.94740E+01 8.44985E+00 0.00000E+00
 -1      2613 1.44000E+01 4.09070E+01 0.00000E+00
 -1      2614 1.59000E+01 4.09070E+01 0.00000E+00
 -1      2615 1.36500E+01 3.96080E+01 0.00000E+00
 -1      2616 1.74000E+01 4.09070E+01 0.00000E+00
 -1      2617 1.89000E+01 4.09070E+01 0.00000E+00
 -1      2618 1.66500E+01 3.96080E+01 0.00000E+00
 -1      2619 2.04000E+01 4.09070E+01 0.00000E+00
 -1      2620 2.19000E+01 4.09070E+01 0.00000E+00
 -1      2621 1.96500E+01 3.96080E+01 0.00000E+00
 -1      2622 2.34000E+01 4.09070E+01 0.00000E+00
 -1      2623 2.49000E+01 4.09070E+01 0.00000E+00
 -1      2624 2.26500E+01 3.96080E+01 0.00000E+00
 -1      2625 2.64000E+01 4.09070E+01 0.00000E+00
 -1      2626 2.79000E+01 4.09070E+01 0.00000E+00
 -1      2627 2.56500E+01 3.96080E+01 0.00000E+00
 -1      2628 2.94000E+01 4.09070E+01 0.00000E+00
 -1      2629 3.09000E+01 4.09070E+01 0.00000E+00
 -1      2630 2.86500E+01 3.96080E+01 0.00000E+00
 -1      2631 3.24000E+01 4.09070E+01 0.00000E+00
 -1      2632 3.39000E+01 4.09070E+01 0.00000E+00
 -1      2633 3.16500E+01 3.96080E+01 0.00000E+00
 -1      2634 3.54000E+01 4.09070E+01 0.00000E+00
 -1      2635 3.69000E+01 4.09070E+01 0.00000E+00
 -1      2636 3.46500E+01 3.96080E+01 0.00000E+00
 -1      2637 3.84000E+01 4.09070E+01 0.00000E+00
 -1      2638 3.99000E+01 4.09070E+01 0.00000E+00
 -1      2639 3.76500E+01 3.96080E+01 0.00000E+00
 -1      2640 4.14000E+01 4.09070E+01 0.00000E+00
 -1      2641 4.29000E+01 4.09070E+01 0.00000E+00
 -1      2642 4.06500E+01 3.96080E+01 0.00000E+00
 -1      2643 4.44000E+01 4.09070E+01 0.00000E+00
 -1      2644 4.59000E+01 4.09070E+01 0.00000E+00
 -1      2645 4.36500E+01 3.96080E+01 0.00000E+00
 -1      2646 4.74000E+01 4.09070E+01 0.00000E+00
 -1      2647 4.89000E+01 4.09070E+01 0.00000E+00
 -1      2648 4.66500E+01 3.96080E+01 0.00000E+00
 -1      2649 5.04000E+01 4.09070E+01 0.00000E+00
 -1      2650 5.19000E+01 4.09070E+01 0.00000E+00
 -1      2651 4.96500E+01 3.96080E+01 0.00000E+00
 -1      2652 5.34000E+01 4.09070E+01 0.00000E+00
 -1      2653 5.49000E+01 4.09070E+01 0.00000E+00
 -1      2654 5.26500E+01 3.96080E+01 0.00000E+00
 -1      2655 5.64000E+01 4.09070E+01 0.00000E+00
 -1      2656 5.79000E+01 4.09070E+01 0.00000E+00
 -1      2657 5.56500E+01 3.96080E+01 0.00000E+00
 -1      2658 5.94000E+01 4.09070E+01 0.00000E+00
 -1      2659 6.09000E+01 4.09070E+01 0.00000E+00
 -1      2660 5.86500E+01 3.96080E+01 0.00000E+00
 -1      2661 6.24000E+01 4.09070E+01 0.00000E+00
 -1      2662 6.39000E+01 4.09070E+01 0.00000E+00
 -1      2663 6.16500E+01 3.96080E+01 0.00000E+00
 -1      2664 6.54000E+01 4.09070E+01 0.00000E+00
 -1      2665 6.69000E+01 4.09070E+01 0.00000E+00
 -1      2666 6.46500E+01 3.96080E+01 0.00000E+00
 -1      2667 6.84000E+01 4.09070E+01 0.00000E+00
 -1      2668 6.99000E+01 4.09070E+01 0.00000E+00
 -1      2669 6.76500E+01 3.96080E+01 0.00000E+00
 -1      2670 7.14000E+01 4.09070E+01 0.00000E+00
 -1      2671 7.29000E+01 4.09070E+01 0.00000E+00
 -1      2672 7.06500E+01 3.96080E+01 0.00000E+00
 -1      2673 7.44000E+01 4.09070E+01 0.00000E+00
 -1      2674 7.59000E+01 4.09070E+01 0.00000E+00
 -1      2675 7.36500E+01 3.96080E+01 0.00000E+00
 -1      2676 7.74000E+01 4.09070E+01 0.00000E+00
 -1      2677 7.89000E+01 4.09070E+01 0.00000E+00
 -1      2678 7.66500E+01 3.96080E+01 0.00000E+00
 -1      2679 8.04000E+01 4.09070E+01 0.00000E+00
 -1      2680 8.19000E+01 4.09070E+01 0.00000E+00
 -1      2681 7.96500E+01 3.96080E+01 0.00000E+00
 -1      2682 8.34000E+01 4.09070E+01 0.00000E+00
 -1      2683 8.49000E+01 4.09070E+01 0.00000E+00
 -1      2684 8.26500E+01 3.96080E+01 0.00000E+00
 -1      2685 8.64000E+01 4.09070E+01 0.00000E+00
 -1      2686 8.79000E+01 4.09070E+01 0.00000E+00
 -1      2687 8.56500E+01 3.96080E+01 0.00000E+00
 -1      2688 8.94000E+01 4.09070E+01 0.00000E+00
 -1      2689 9.09000E+01 4.09070E+01 0.00000E+00
 -1      2690 8.86500E+01 3.96080E+01 0.00000E+00
 -1      2691 9.24000E+01 4.09070E+01 0.00000E+00
 -1      2692 9.39000E+01 4.09070E+01 0.00000E+00
 -1      2693 9.16500E+01 3.96080E+01 0.00000E+00
 -1      2694 9.54000E+01 4.09070E+01 0.00000E+00
 -1      2695 9.69000E+01 4.09070E+01 0.00000E+00
 -1      2696 9.46500E+01 3.96080E+01 0.00000E+00
 -1      2697 9.84000E+01 4.09070E+01 0.00000E+00
 -1      2698 9.99000E+01 4.09070E+01 0.00000E+00
 -1      2699 9.76500E+01 3.96080E+01 0.00000E+00
 -1      2700 1.01400E+02 4.09070E+01 0.00000E+00
 -1      2701 1.02900E+02 4.09070E+01 0.00000E+00
 -1      2702 1.00650E+02 3.96080E+01 0.00000E+00
 -1      2703 1.04400E+02 4.09070E+01 0.00000E+00
 -1      2704 1.05900E+02 4.09070E+01 0.00000E+00
 -1      2705 1.03650E+02 3.96080E+01 0.00000E+00
 -1      2706 1.07400E+02 4.09070E+01 0.00000E+00
 -1      2707 1.08900E+02 4.09070E+01 0.00000E+00
 -1      2708 1.06650E+02 3.96080E+01 0.00000E+00
 -1      2709 1.10400E+02 4.09070E+01 0.00000E+00
 -1      2710 1.11900E+02 4.09070E+01 0.00000E+00
 -1      2711 1.09650E+02 3.96080E+01 0.00000E+00
 -1      2712 1.13400E+02 4.09070E+01 0.00000E+00
 -1      2713 1.14900E+02 4.09070E+01 0.00000E+00
 -1      2714 1.12650E+02 3.96080E+01 0.00000E+00
 -1      2715 1.16400E+02 4.09070E+01 0.00000E+00
 -1      2716 1.17900E+02 4.09070E+01 0.00000E+00
 -1      2717 1.15650E+02 3.96080E+01 0.00000E+00
 -1      2718 1.19400E+02 4.09070E+01 0.00000E+00
 -1      2719 1.20900E+02 4.09070E+01 0.00000E+00
 -1      2720 1.18650E+02 3.96080E+01 0.00000E+00
 -1      2721 1.22400E+02 4.09070E+01 0.00000E+00
 -1      2722 1.23900E+02 4.09070E+01 0.00000E+00
 -1      2723 1.21650E+02 3.96080E+01 0.00000E+00
 -1      2724 1.25400E+02 4.09070E+01 0.00000E+00
 -1      2725 1.26900E+02 4.09070E+01 0.00000E+00
 -1      2726 1.24650E+02 3.96080E+01 0.00000E+00
 -1      2727 1.28400E+02 4.09070E+01 0.00000E+00
 -1      2728 1.29900E+02 4.09070E+01 0.00000E+00
 -1      2729 1.27650E+02 3.96080E+01 0.00000E+00
 -1      2730 1.31400E+02 4.09070E+01 0.00000E+00
 -1      2731 1.32900E+02 4.09070E+01 0.00000E+00
 -1      2732 1.30650E+02 3.96080E+01 0.00000E+00
 -1      2733 1.34400E+02 4.09070E+01 0.00000E+00
 -1      2734 1.35900E+02 4.09070E+01 0.00000E+00
 -1      2735 1.33650E+02 3.96080E+01 0.00000E+00
 -1      2736 1.37400E+02 4.09070E+01 0.00000E+00
 -1      2737 1.38900E+02 4.09070E+01 0.00000E+00
 -1      2738 1.36650E+02 3.96080E+01 0.00000E+00
 -1      2739 1.62540E+01 2.34771E+01 0.00000E+00
 -1      2740 1.53281E+01 2.28471E+01 0.00000E+00
 -1      2741 1.40706E+02 1.03250E+01 0.00000E+00
 -1      2742 1.39965E+02 8.73793E+00 0.00000E+00
 -1      2743 1.38465E+02 8.73793E+00 0.00000E+00
 -1      2744 9.09300E+00 3.15125E+01 0.00000E+00
 -1      2745 9.09300E+00 3.29875E+01 0.00000E+00
 -1      2746 1.40907E+02 2.42875E+01 0.00000E+00
 -1      2747 1.40907E+02 2.28125E+01 0.00000E+00
 -1      2748 1.40907E+02 1.54500E+01 0.00000E+00
 -1      2749 1.40907E+02 1.40000E+01 0.00000E+00
 -1      2750 4.39740E+01 8.44985E+00 0.00000E+00
 -1      2751 4.24740E+01 8.44985E+00 0.00000E+00
 -1      2752 4.17240E+01 9.74885E+00 0.00000E+00
 -1      2753 4.69740E+01 8.44985E+00 0.00000E+00
 -1      2754 4.54740E+01 8.44985E+00 0.00000E+00
 -1      2755 4.47240E+01 9.74885E+00 0.00000E+00
 -1      2756 4.99740E+01 8.44985E+00 0.00000E+00
 -1      2757 4.84740E+01 8.44985E+00 0.00000E+00
 -1      2758 4.77240E+01 9.74885E+00 0.00000E+00
 -1      2759 5.29740E+01 8.44985E+00 0.00000E+00
 -1      2760 5.14740E+01 8.44985E+00 0.00000E+00
 -1      2761 5.07240E+01 9.74885E+00 0.00000E+00
 -1      2762 5.59740E+01 8.44985E+00 0.00000E+00
 -1      2763 5.44740E+01 8.44985E+00 0.00000E+00
 -1      2764 5.37240E+01 9.74885E+00 0.00000E+00
 -1      2765 5.89740E+01 8.44985E+00 0.00000E+00
 -1      2766 5.74740E+01 8.44985E+00 0.00000E+00
 -1      2767 5.67240E+01 9.74885E+00 0.00000E+00
 -1      2768 6.19740E+01 8.44985E+00 0.00000E+00
 -1      2769 6.04740E+01 8.44985E+00 0.00000E+00
 -1      2770 5.97240E+01 9.74885E+00 0.00000E+00
 -1      2771 6.49740E+01 8.44985E+00 0.00000E+00
 -1      2772 6.34740E+01 8.44985E+00 0.00000E+00
 -1      2773 6.27240E+01 9.74885E+00 0.00000E+00
 -1      2774 6.79740E+01 8.44985E+00 0.00000E+00
 -1      2775 6.64740E+01 8.44985E+00 0.00000E+00
 -1      2776 6.57240E+01 9.74885E+00 0.00000E+00
 -1      2777 7.09740E+01 8.44985E+00 0.00000E+00
 -1      2778 6.94740E+01 8.44985E+00 0.00000E+00
 -1      2779 6.87240E+01 9.74885E+00 0.00000E+00
 -1      2780 7.39740E+01 8.44985E+00 0.00000E+00
 -1      2781 7.24740E+01 8.44985E+00 0.00000E+00
 -1      2782 7.17240E+01 9.74885E+00 0.00000E+00
 -1      2783 7.69740E+01 8.44985E+00 0.00000E+00
 -1      2784 7.54740E+01 8.44985E+00 0.00000E+00
 -1      2785 7.47240E+01 9.74885E+00 0.00000E+00
 -1      2786 7.99740E+01 8.44985E+00 0.00000E+00
 -1      2787 7.84740E+01 8.44985E+00 0.00000E+00
 -1      2788 7.77240E+01 9.74885E+00 0.00000E+00
 -1      2789 8.29740E+01 8.44985E+00 0.00000E+00
 -1      2790 8.14740E+01 8.44985E+00 0.00000E+00
 -1      2791 8.07240E+01 9.74885E+00 0.00000E+00
 -1      2792 8.59740E+01 8.44985E+00 0.00000E+00
 -1      2793 8.44740E+01 8.44985E+00 0.00000E+00
 -1      2794 8.37240E+01 9.74885E+00 0.00000E+00
 -1      2795 8.89740E+01 8.44985E+00 0.00000E+00
 -1      2796 8.74740E+01 8.44985E+00 0.00000E+00
 -1      2797 8.67240E+01 9.74885E+00 0.00000E+00
 -1      2798 9.19740E+01 8.44985E+00 0.00000E+00
 -1      2799 9.04740E+01 8.44985E+00 0.00000E+00
 -1      2800 8.97240E+01 9.74885E+00 0.00000E+00
 -1      2801 9.49740E+01 8.44985E+00 0.00000E+00
 -1      2802 9.34740E+01 8.44985E+00 0.00000E+00
 -1      2803 9.27240E+01 9.74885E+00 0.00000E+00
 -1      2804 9.79740E+01 8.44985E+00 0.00000E+00
 -1      2805 9.64740E+01 8.44985E+00 0.00000E+00
 -1      2806 9.57240E+01 9.74885E+00 0.00000E+00
 -1      2807 1.00974E+02 8.44985E+00 0.00000E+00
 -1      2808 9.94740E+01 8.44985E+00 0.00000E+00
 -1      2809 9.87240E+01 9.74885E+00 0.00000E+00
 -1      2810 1.03974E+02 8.44985E+00 0.00000E+00
 -1      2811 1.02474E+02 8.44985E+00 0.00000E+00
 -1      2812 1.01724E+02 9.74885E+00 0.00000E+00
 -1      2813 1.06974E+02 8.44985E+00 0.00000E+00
 -1      2814 1.05474E+02 8.44985E+00 0.00000E+00
 -1      2815 1.04724E+02 9.74885E+00 0.00000E+00
 -1      2816 1.09974E+02 8.44985E+00 0.00000E+00
 -1      2817 1.08474E+02 8.44985E+00 0.00000E+00
 -1      2818 1.07724E+02 9.74885E+00 0.00000E+00
 -1      2819 1.12974E+02 8.44985E+00 0.00000E+00
 -1      2820 1.11474E+02 8.44985E+00 0.00000E+00
 -1      2821 1.10724E+02 9.74885E+00 0.00000E+00
 -1      2822 1.15974E+02 8.44985E+00 0.00000E+00
 -1      2823 1.14474E+02 8.44985E+00 0.00000E+00
 -1      2824 1.13724E+02 9.74885E+00 0.00000E+00
 -1      2825 1.18974E+02 8.44985E+00 0.00000E+00
 -1      2826 1.17474E+02 8.44985E+00 0.00000E+00
 -1      2827 1.16724E+02 9.74885E+00 0.00000E+00
 -1      2828 1.21974E+02 8.44985E+00 0.00000E+00
 -1      2829 1.20474E+02 8.44985E+00 0.00000E+00
 -1      2830 1.19724E+02 9.74885E+00 0.00000E+00
 -1      2831 1.24974E+02 8.44985E+00 0.00000E+00
 -1      2832 1.23474E+02 8.44985E+00 0.00000E+00
 -1      2833 1.22724E+02 9.74885E+00 0.00000E+00
 -1      2834 1.27974E+02 8.44985E+00 0.00000E+00
 -1      2835 1.26474E+02 8.44985E+00 0.00000E+00
 -1      2836 1.25724E+02 9.74885E+00 0.00000E+00
 -1      2837 1.30974E+02 8.44985E+00 0.00000E+00
 -1      2838 1.29474E+02 8.44985E+00 0.00000E+00
 -1      2839 1.28724E+02 9.74885E+00 0.00000E+00
 -1      2840 1.33974E+02 8.44985E+00 0.00000E+00
 -1      2841 1.32474E+02 8.44985E+00 0.00000E+00
 -1      2842 1.31724E+02 9.74885E+00 0.00000E+00
 -1      2843 1.36969E+02 8.59389E+00 0.00000E+00
 -1      2844 1.35469E+02 8.59389E+00 0.00000E+00
 -1      2845 1.34719E+02 9.89289E+00 0.00000E+00
 -1      2846 1.37710E+02 1.01810E+01 0.00000E+00
 -1      2847 1.40907E+02 2.13375E+01 0.00000E+00
 -1      2848 1.40907E+02 1.98625E+01 0.00000E+00
 -1      2849 1.39608E+02 2.20750E+01 0.00000E+00
 -1      2850 2.61197E+01 2.34198E+01 0.00000E+00
 -1      2851 2.51140E+01 2.38545E+01 0.00000E+00
 -1      2852 1.40706E+02 1.18000E+01 0.00000E+00
 -1      2853 1.03873E+01 7.14456E+00 0.00000E+00
 -1      2854 1.40907E+02 1.83937E+01 0.00000E+00
 -1      2855 1.40907E+02 1.69188E+01 0.00000E+00
 -1      2856 1.39608E+02 1.61938E+01 0.00000E+00
 -1      2857 1.39608E+02 1.91313E+01 0.00000E+00
 -1      2858 1.40907E+02 2.72375E+01 0.00000E+00
 -1      2859 1.40907E+02 2.57625E+01 0.00000E+00
 -1      2860 1.39608E+02 2.50250E+01 0.00000E+00
 -1      2861 1.40907E+02 3.01375E+01 0.00000E+00
 -1      2862 1.40907E+02 2.86875E+01 0.00000E+00
 -1      2863 1.39608E+02 2.79500E+01 0.00000E+00
 -1      2864 1.40907E+02 3.30875E+01 0.00000E+00
 -1      2865 1.40907E+02 3.16125E+01 0.00000E+00
 -1      2866 1.39608E+02 3.08750E+01 0.00000E+00
 -1      2867 1.40907E+02 3.60375E+01 0.00000E+00
 -1      2868 1.40907E+02 3.45625E+01 0.00000E+00
 -1      2869 1.39608E+02 3.38250E+01 0.00000E+00
 -1      2870 3.35628E+01 1.00501E+01 0.00000E+00
 -1      2871 8.77785E+00 8.73558E+00 0.00000E+00
 -1      2872 2.80517E+01 2.19121E+01 0.00000E+00
 -1      2873 2.71805E+01 2.25950E+01 0.00000E+00
 -1      2874 1.40928E+02 4.09655E+01 0.00000E+00
 -1      2875 1.41192E+02 3.96958E+01 0.00000E+00
 -1      2876 1.39914E+02 4.09362E+01 0.00000E+00
 -1      2877 3.81539E+01 8.26592E+00 0.00000E+00
 -1      2878 3.66539E+01 8.26592E+00 0.00000E+00
 -1      2879 3.62638E+01 9.19707E+00 0.00000E+00
 -1      2880 3.89039E+01 9.56492E+00 0.00000E+00
 -1      2881 7.50513E+00 6.98769E+00 0.00000E+00
 -1      2882 1.43194E+01 2.20214E+01 0.00000E+00
 -1      2883 1.34437E+01 2.11755E+01 0.00000E+00
 -1      2884 2.38983E+01 2.41587E+01 0.00000E+00
 -1      2885 2.28934E+01 2.43731E+01 0.00000E+00
 -1      2886 3.23442E+01 1.64859E+01 0.00000E+00
 -1      2887 3.18606E+01 1.75935E+01 0.00000E+00
 -1      2888 2.97755E+01 2.04896E+01 0.00000E+00
 -1      2889 2.90557E+01 2.12351E+01 0.00000E+00
 -1      2890 3.11337E+01 1.88553E+01 0.00000E+00
 -1      2891 3.04546E+01 1.96725E+01 0.00000E+00
 -1      2892 3.08322E+01 2.07573E+01 0.00000E+00
 -1      2893 9.16302E+00 1.64405E+01 0.00000E+00
 -1      2894 1.90093E+01 2.42374E+01 0.00000E+00
 -1      2895 1.77523E+01 2.41735E+01 0.00000E+00
 -1      2896 9.16302E+00 1.78655E+01 0.00000E+00
 -1      2897 8.65863E+00 7.12310E+00 0.00000E+00
 -1      2898 9.09300E+00 3.44625E+01 0.00000E+00
 -1      2899 9.09300E+00 3.59375E+01 0.00000E+00
 -1      2900 1.03920E+01 3.37250E+01 0.00000E+00
 -1      2901 2.70843E+01 2.37533E+01 0.00000E+00
 -1      2902 1.74069E+01 2.55886E+01 0.00000E+00
 -1      2903 1.68305E+01 2.45328E+01 0.00000E+00
 -1      2904 1.59087E+01 2.48922E+01 0.00000E+00
 -1      2905 8.98669E+00 2.26625E+01 0.00000E+00
 -1      2906 8.98669E+00 2.41375E+01 0.00000E+00
 -1      2907 3.34273E+01 1.61120E+01 0.00000E+00
 -1      2908 2.48079E+01 2.48823E+01 0.00000E+00
 -1      2909 3.45124E+01 1.06915E+01 0.00000E+00
 -1      2910 1.43235E+01 2.30108E+01 0.00000E+00
 -1      2911 9.09300E+00 2.85625E+01 0.00000E+00
 -1      2912 9.09300E+00 3.00375E+01 0.00000E+00
 -1      2913 1.03920E+01 3.07750E+01 0.00000E+00
 -1      2914 9.92922E+00 8.05412E+00 0.00000E+00
 -1      2915 1.39407E+02 1.25250E+01 0.00000E+00
 -1      2916 1.41192E+02 3.82207E+01 0.00000E+00
 -1      2917 1.24864E+01 2.12025E+01 0.00000E+00
 -1      2918 2.21842E+01 2.48980E+01 0.00000E+00
 -1      2919 2.14749E+01 2.54229E+01 0.00000E+00
 -1      2920 2.28830E+01 2.57114E+01 0.00000E+00
 -1      2921 3.22382E+01 1.86783E+01 0.00000E+00
 -1      2922 1.39164E+02 3.96372E+01 0.00000E+00
 -1      2923 9.09300E+00 2.56125E+01 0.00000E+00
 -1      2924 9.09300E+00 2.70875E+01 0.00000E+00
 -1      2925 1.03920E+01 2.78250E+01 0.00000E+00
 -1      2926 1.95524E+01 2.49193E+01 0.00000E+00
 -1      2927 9.64453E+00 1.88070E+01 0.00000E+00
 -1      2928 2.91491E+01 2.22515E+01 0.00000E+00
 -1      2929 1.09187E+01 2.18099E+01 0.00000E+00
 -1      2930 1.39529E+02 3.85602E+01 0.00000E+00
 -1      2931 1.40542E+02 3.71145E+01 0.00000E+00
 -1      2932 1.39243E+02 3.63770E+01 0.00000E+00
 -1      2933 1.38514E+02 3.85310E+01 0.00000E+00
 -1      2934 1.02857E+01 2.48750E+01 0.00000E+00
 -1      2935 3.47037E+01 1.58303E+01 0.00000E+00
 -1      2936 3.42414E+01 1.71346E+01 0.00000E+00
 -1      2937 4.54740E+01 1.10479E+01 0.00000E+00
 -1      2938 4.39740E+01 1.10479E+01 0.00000E+00
 -1      2939 1.29000E+01 3.83090E+01 0.00000E+00
 -1      2940 1.44000E+01 3.83090E+01 0.00000E+00
 -1      2941 2.02513E+01 2.57328E+01 0.00000E+00
 -1      2942 1.90276E+01 2.60427E+01 0.00000E+00
 -1      2943 2.09501E+01 2.65462E+01 0.00000E+00
 -1      2944 1.59000E+01 3.83090E+01 0.00000E+00
 -1      2945 1.74000E+01 3.83090E+01 0.00000E+00
 -1      2946 1.51500E+01 3.70100E+01 0.00000E+00
 -1      2947 1.89000E+01 3.83090E+01 0.00000E+00
 -1      2948 2.04000E+01 3.83090E+01 0.00000E+00
 -1      2949 1.81500E+01 3.70100E+01 0.00000E+00
 -1      2950 2.19000E+01 3.83090E+01 0.00000E+00
 -1      2951 2.34000E+01 3.83090E+01 0.00000E+00
 -1      2952 2.11500E+01 3.70100E+01 0.00000E+00
 -1      2953 2.49000E+01 3.83090E+01 0.00000E+00
 -1      2954 2.64000E+01 3.83090E+01 0.00000E+00
 -1      2955 2.41500E+01 3.70100E+01 0.00000E+00
 -1      2956 2.79000E+01 3.83090E+01 0.00000E+00
 -1      2957 2.94000E+01 3.83090E+01 0.00000E+00
 -1      2958 2.71500E+01 3.70100E+01 0.00000E+00
 -1      2959 3.09000E+01 3.83090E+01 0.00000E+00
 -1      2960 3.24000E+01 3.83090E+01 0.00000E+00
 -1      2961 3.01500E+01 3.70100E+01 0.00000E+00
 -1      2962 3.39000E+01 3.83090E+01 0.00000E+00
 -1      2963 3.54000E+01 3.83090E+01 0.00000E+00
 -1      2964 3.31500E+01 3.70100E+01 0.00000E+00
 -1      2965 3.69000E+01 3.83090E+01 0.00000E+00
 -1      2966 3.84000E+01 3.83090E+01 0.00000E+00
 -1      2967 3.61500E+01 3.70100E+01 0.00000E+00
 -1      2968 3.99000E+01 3.83090E+01 0.00000E+00
 -1      2969 4.14000E+01 3.83090E+01 0.00000E+00
 -1      2970 3.91500E+01 3.70100E+01 0.00000E+00
 -1      2971 4.29000E+01 3.83090E+01 0.00000E+00
 -1      2972 4.44000E+01 3.83090E+01 0.00000E+00
 -1      2973 4.21500E+01 3.70100E+01 0.00000E+00
 -1      2974 4.59000E+01 3.83090E+01 0.00000E+00
 -1      2975 4.74000E+01 3.83090E+01 0.00000E+00
 -1      2976 4.51500E+01 3.70100E+01 0.00000E+00
 -1      2977 4.89000E+01 3.83090E+01 0.00000E+00
 -1      2978 5.04000E+01 3.83090E+01 0.00000E+00
 -1      2979 4.81500E+01 3.70100E+01 0.00000E+00
 -1      2980 5.19000E+01 3.83090E+01 0.00000E+00
 -1      2981 5.34000E+01 3.83090E+01 0.00000E+00
 -1      2982 5.11500E+01 3.70100E+01 0.00000E+00
 -1      2983 5.49000E+01 3.83090E+01 0.00000E+00
 -1      2984 5.64000E+01 3.83090E+01 0.00000E+00
 -1      2985 5.41500E+01 3.70100E+01 0.00000E+00
 -1      2986 5.79000E+01 3.83090E+01 0.00000E+00
 -1      2987 5.94000E+01 3.83090E+01 0.00000E+00
 -1      2988 5.71500E+01 3.70100E+01 0.00000E+00
 -1      2989 6.09000E+01 3.83090E+01 0.00000E+00
 -1      2990 6.24000E+01 3.83090E+01 0.00000E+00
 -1      2991 6.01500E+01 3.70100E+01 0.00000E+00
 -1      2992 6.39000E+01 3.83090E+01 0.00000E+00
 -1      2993 6.54000E+01 3.83090E+01 0.00000E+00
 -1      2994 6.31500E+01 3.70100E+01 0.00000E+00
 -1      2995 6.69000E+01 3.83090E+01 0.00000E+00
 -1      2996 6.84000E+01 3.83090E+01 0.00000E+00
 -1      2997 6.61500E+01 3.70100E+01 0.00000E+00
 -1      2998 6.99000E+01 3.83090E+01 0.00000E+00
 -1      2999 7.14000E+01 3.83090E+01 0.00000E+00
 -1      3000 6.91500E+01 3.70100E+01 0.00000E+00
 -1      3001 7.29000E+01 3.83090E+01 0.00000E+00
 -1      3002 7.44000E+01 3.83090E+01 0.00000E+00
 -1      3003 7.21500E+01 3.70100E+01 0.00000E+00
 -1      3004 7.59000E+01 3.83090E+01 0.00000E+00
 -1      3005 7.74000E+01 3.83090E+01 0.00000E+00
 -1      3006 7.51500E+01 3.70100E+01 0.00000E+00
 -1      3007 7.89000E+01 3.83090E+01 0.00000E+00
 -1      3008 8.04000E+01 3.83090E+01 0.00000E+00
 -1      3009 7.81500E+01 3.70100E+01 0.00000E+00
 -1      3010 8.19000E+01 3.83090E+01 0.00000E+00
 -1      3011 8.34000E+01 3.83090E+01 0.00000E+00
 -1      3012 8.11500E+01 3.70100E+01 0.00000E+00
 -1      3013 8.49000E+01 3.83090E+01 0.00000E+00
 -1      3014 8.64000E+01 3.83090E+01 0.00000E+00
 -1      3015 8.41500E+01 3.70100E+01 0.00000E+00
 -1      3016 8.79000E+01 3.83090E+01 0.00000E+00
 -1      3017 8.94000E+01 3.83090E+01 0.00000E+00
 -1      3018 8.71500E+01 3.70100E+01 0.00000E+00
 -1      3019 9.09000E+01 3.83090E+01 0.00000E+00
 -1      3020 9.24000E+01 3.83090E+01 0.00000E+00
 -1      3021 9.01500E+01 3.70100E+01 0.00000E+00
 -1      3022 9.39000E+01 3.83090E+01 0.00000E+00
 -1      3023 9.54000E+01 3.83090E+01 0.00000E+00
 -1      3024 9.31500E+01 3.70100E+01 0.00000E+00
 -1      3025 9.69000E+01 3.83090E+01 0.00000E+00
 -1      3026 9.84000E+01 3.83090E+01 0.00000E+00
 -1      3027 9.61500E+01 3.70100E+01 0.00000E+00
 -1      3028 9.99000E+01 3.83090E+01 0.00000E+00
 -1      3029 1.01400E+02 3.83090E+01 0.00000E+00
 -1      3030 9.91500E+01 3.70100E+01 0.00000E+00
 -1      3031 1.02900E+02 3.83090E+01 0.00000E+00
 -1      3032 1.04400E+02 3.83090E+01 0.00000E+00
 -1      3033 1.02150E+02 3.70100E+01 0.00000E+00
 -1      3034 1.05900E+02 3.83090E+01 0.00000E+00
 -1      3035 1.07400E+02 3.83090E+01 0.00000E+00
 -1      3036 1.05150E+02 3.70100E+01 0.00000E+00
 -1      3037 1.08900E+02 3.83090E+01 0.00000E+00
 -1      3038 1.10400E+02 3.83090E+01 0.00000E+00
 -1      3039 1.08150E+02 3.70100E+01 0.00000E+00
 -1      3040 1.11900E+02 3.83090E+01 0.00000E+00
 -1      3041 1.13400E+02 3.83090E+01 0.00000E+00
 -1      3042 1.11150E+02 3.70100E+01 0.00000E+00
 -1      3043 1.14900E+02 3.83090E+01 0.00000E+00
 -1      3044 1.16400E+02 3.83090E+01 0.00000E+00
 -1      3045 1.14150E+02 3.70100E+01 0.00000E+00
 -1      3046 1.17900E+02 3.83090E+01 0.00000E+00
 -1      3047 1.19400E+02 3.83090E+01 0.00000E+00
 -1      3048 1.17150E+02 3.70100E+01 0.00000E+00
 -1      3049 1.20900E+02 3.83090E+01 0.00000E+00
 -1      3050 1.22400E+02 3.83090E+01 0.00000E+00
 -1      3051 1.20150E+02 3.70100E+01 0.00000E+00
 -1      3052 1.23900E+02 3.83090E+01 0.00000E+00
 -1      3053 1.25400E+02 3.83090E+01 0.00000E+00
 -1      3054 1.23150E+02 3.70100E+01 0.00000E+00
 -1      3055 1.26900E+02 3.83090E+01 0.00000E+00
 -1      3056 1.28400E+02 3.83090E+01 0.00000E+00
 -1      3057 1.26150E+02 3.70100E+01 0.00000E+00
 -1      3058 1.29900E+02 3.83090E+01 0.00000E+00
 -1      3059 1.31400E+02 3.83090E+01 0.00000E+00
 -1      3060 1.29150E+02 3.70100E+01 0.00000E+00
 -1      3061 1.32900E+02 3.83090E+01 0.00000E+00
 -1      3062 1.34400E+02 3.83090E+01 0.00000E+00
 -1      3063 1.32150E+02 3.70100E+01 0.00000E+00
 -1      3064 1.35707E+02 3.84200E+01 0.00000E+00
 -1      3065 1.37207E+02 3.84200E+01 0.00000E+00
 -1      3066 1.37572E+02 3.73430E+01 0.00000E+00
 -1      3067 1.34957E+02 3.71210E+01 0.00000E+00
 -1      3068 1.38309E+02 2.57625E+01 0.00000E+00
 -1      3069 1.38309E+02 2.42875E+01 0.00000E+00
 -1      3070 4.24740E+01 1.10479E+01 0.00000E+00
 -1      3071 4.09740E+01 1.10479E+01 0.00000E+00
 -1      3072 4.32240E+01 1.23469E+01 0.00000E+00
 -1      3073 5.14740E+01 1.10479E+01 0.00000E+00
 -1      3074 4.99740E+01 1.10479E+01 0.00000E+00
 -1      3075 5.44740E+01 1.10479E+01 0.00000E+00
 -1      3076 5.29740E+01 1.10479E+01 0.00000E+00
 -1      3077 5.22240E+01 1.23469E+01 0.00000E+00
 -1      3078 5.74740E+01 1.10479E+01 0.00000E+00
 -1      3079 5.59740E+01 1.10479E+01 0.00000E+00
 -1      3080 5.52240E+01 1.23469E+01 0.00000E+00
 -1      3081 6.04740E+01 1.10479E+01 0.00000E+00
 -1      3082 5.89740E+01 1.10479E+01 0.00000E+00
 -1      3083 5.82240E+01 1.23469E+01 0.00000E+00
 -1      3084 6.34740E+01 1.10479E+01 0.00000E+00
 -1      3085 6.19740E+01 1.10479E+01 0.00000E+00
 -1      3086 6.12240E+01 1.23469E+01 0.00000E+00
 -1      3087 6.64740E+01 1.10479E+01 0.00000E+00
 -1      3088 6.49740E+01 1.10479E+01 0.00000E+00
 -1      3089 6.42240E+01 1.23469E+01 0.00000E+00
 -1      3090 6.94740E+01 1.10479E+01 0.00000E+00
 -1      3091 6.79740E+01 1.10479E+01 0.00000E+00
 -1      3092 6.72240E+01 1.23469E+01 0.00000E+00
 -1      3093 7.24740E+01 1.10479E+01 0.00000E+00
 -1      3094 7.09740E+01 1.10479E+01 0.00000E+00
 -1      3095 7.02240E+01 1.23469E+01 0.00000E+00
 -1      3096 7.54740E+01 1.10479E+01 0.00000E+00
 -1      3097 7.39740E+01 1.10479E+01 0.00000E+00
 -1      3098 7.32240E+01 1.23469E+01 0.00000E+00
 -1      3099 7.84740E+01 1.10479E+01 0.00000E+00
 -1      3100 7.69740E+01 1.10479E+01 0.00000E+00
 -1      3101 7.62240E+01 1.23469E+01 0.00000E+00
 -1      3102 8.14740E+01 1.10479E+01 0.00000E+00
 -1      3103 7.99740E+01 1.10479E+01 0.00000E+00
 -1      3104 7.92240E+01 1.23469E+01 0.00000E+00
 -1      3105 8.44740E+01 1.10479E+01 0.00000E+00
 -1      3106 8.29740E+01 1.10479E+01 0.00000E+00
 -1      3107 8.22240E+01 1.23469E+01 0.00000E+00
 -1      3108 8.74740E+01 1.10479E+01 0.00000E+00
 -1      3109 8.59740E+01 1.10479E+01 0.00000E+00
 -1      3110 8.52240E+01 1.23469E+01 0.00000E+00
 -1      3111 9.04740E+01 1.10479E+01 0.00000E+00
 -1      3112 8.89740E+01 1.10479E+01 0.00000E+00
 -1      3113 8.82240E+01 1.23469E+01 0.00000E+00
 -1      3114 9.34740E+01 1.10479E+01 0.00000E+00
 -1      3115 9.19740E+01 1.10479E+01 0.00000E+00
 -1      3116 9.12240E+01 1.23469E+01 0.00000E+00
 -1      3117 9.64740E+01 1.10479E+01 0.00000E+00
 -1      3118 9.49740E+01 1.10479E+01 0.00000E+00
 -1      3119 9.42240E+01 1.23469E+01 0.00000E+00
 -1      3120 9.94740E+01 1.10479E+01 0.00000E+00
 -1      3121 9.79740E+01 1.10479E+01 0.00000E+00
 -1      3122 9.72240E+01 1.23469E+01 0.00000E+00
 -1      3123 1.02474E+02 1.10479E+01 0.00000E+00
 -1      3124 1.00974E+02 1.10479E+01 0.00000E+00
 -1      3125 1.00224E+02 1.23469E+01 0.00000E+00
 -1      3126 1.05474E+02 1.10479E+01 0.00000E+00
 -1      3127 1.03974E+02 1.10479E+01 0.00000E+00
 -1      3128 1.03224E+02 1.23469E+01 0.00000E+00
 -1      3129 1.08474E+02 1.10479E+01 0.00000E+00
 -1      3130 1.06974E+02 1.10479E+01 0.00000E+00
 -1      3131 1.06224E+02 1.23469E+01 0.00000E+00
 -1      3132 1.11474E+02 1.10479E+01 0.00000E+00
 -1      3133 1.09974E+02 1.10479E+01 0.00000E+00
 -1      3134 1.09224E+02 1.23469E+01 0.00000E+00
 -1      3135 1.14474E+02 1.10479E+01 0.00000E+00
 -1      3136 1.12974E+02 1.10479E+01 0.00000E+00
 -1      3137 1.12224E+02 1.23469E+01 0.00000E+00
 -1      3138 1.17474E+02 1.10479E+01 0.00000E+00
 -1      3139 1.15974E+02 1.10479E+01 0.00000E+00
 -1      3140 1.15224E+02 1.23469E+01 0.00000E+00
 -1      3141 1.20474E+02 1.10479E+01 0.00000E+00
 -1      3142 1.18974E+02 1.10479E+01 0.00000E+00
 -1      3143 1.18224E+02 1.23469E+01 0.00000E+00
 -1      3144 1.23474E+02 1.10479E+01 0.00000E+00
 -1      3145 1.21974E+02 1.10479E+01 0.00000E+00
 -1      3146 1.21224E+02 1.23469E+01 0.00000E+00
 -1      3147 1.26474E+02 1.10479E+01 0.00000E+00
 -1      3148 1.24974E+02 1.10479E+01 0.00000E+00
 -1      3149 1.24224E+02 1.23469E+01 0.00000E+00
 -1      3150 1.29474E+02 1.10479E+01 0.00000E+00
 -1      3151 1.27974E+02 1.10479E+01 0.00000E+00
 -1      3152 1.27224E+02 1.23469E+01 0.00000E+00
 -1      3153 1.32474E+02 1.10479E+01 0.00000E+00
 -1      3154 1.30974E+02 1.10479E+01 0.00000E+00
 -1      3155 1.30224E+02 1.23469E+01 0.00000E+00
 -1      3156 1.38309E+02 2.28125E+01 0.00000E+00
 -1      3157 1.38309E+02 2.13375E+01 0.00000E+00
 -1      3158 1.37010E+02 2.35500E+01 0.00000E+00
 -1      3159 2.82954E+01 2.42163E+01 0.00000E+00
 -1      3160 2.72346E+01 2.50411E+01 0.00000E+00
 -1      3161 3.58325E+01 1.08754E+01 0.00000E+00
 -1      3162 3.54011E+01 1.25538E+01 0.00000E+00
 -1      3163 3.71525E+01 1.10594E+01 0.00000E+00
 -1      3164 1.38309E+02 3.45625E+01 0.00000E+00
 -1      3165 1.38309E+02 3.30875E+01 0.00000E+00
 -1      3166 1.42316E+01 2.41520E+01 0.00000E+00
 -1      3167 1.32229E+01 2.33264E+01 0.00000E+00
 -1      3168 4.84740E+01 1.10479E+01 0.00000E+00
 -1      3169 4.69740E+01 1.10479E+01 0.00000E+00
 -1      3170 4.92240E+01 1.23469E+01 0.00000E+00
 -1      3171 1.38309E+02 3.16125E+01 0.00000E+00
 -1      3172 1.38309E+02 3.01375E+01 0.00000E+00
 -1      3173 1.37010E+02 3.23500E+01 0.00000E+00
 -1      3174 8.99606E+00 3.69840E+01 0.00000E+00
 -1      3175 9.02831E+00 3.82285E+01 0.00000E+00
 -1      3176 1.01012E+01 3.83395E+01 0.00000E+00
 -1      3177 1.02951E+01 3.62465E+01 0.00000E+00
 -1      3178 1.38309E+02 2.86750E+01 0.00000E+00
 -1      3179 1.38309E+02 2.72250E+01 0.00000E+00
 -1      3180 1.37010E+02 2.64875E+01 0.00000E+00
 -1      3181 1.37010E+02 2.94125E+01 0.00000E+00
 -1      3182 1.17471E+01 2.27926E+01 0.00000E+00
 -1      3183 2.56849E+01 2.58060E+01 0.00000E+00
 -1      3184 2.44693E+01 2.61102E+01 0.00000E+00
 -1      3185 3.36351E+01 1.86427E+01 0.00000E+00
 -1      3186 3.29082E+01 1.99045E+01 0.00000E+00
 -1      3187 1.38113E+02 1.45810E+01 0.00000E+00
 -1      3188 1.37911E+02 1.23810E+01 0.00000E+00
 -1      3189 1.36416E+02 1.22369E+01 0.00000E+00
 -1      3190 3.19601E+01 2.10039E+01 0.00000E+00
 -1      3191 3.12810E+01 2.18211E+01 0.00000E+00
 -1      3192 3.51003E+01 1.35826E+01 0.00000E+00
 -1      3193 3.50045E+01 1.48015E+01 0.00000E+00
 -1      3194 3.58186E+01 1.58241E+01 0.00000E+00
 -1      3195 3.64203E+01 1.37665E+01 0.00000E+00
 -1      3196 3.03034E+01 2.28622E+01 0.00000E+00
 -1      3197 2.92994E+01 2.35393E+01 0.00000E+00
 -1      3198 2.94497E+01 2.48271E+01 0.00000E+00
 -1      3199 1.16552E+01 2.39338E+01 0.00000E+00
 -1      3200 1.81058E+01 2.64020E+01 0.00000E+00
 -1      3201 1.71840E+01 2.67614E+01 0.00000E+00
 -1      3202 1.88046E+01 2.72155E+01 0.00000E+00
 -1      3203 3.49114E+01 1.83609E+01 0.00000E+00
 -1      3204 1.53845E+01 2.62635E+01 0.00000E+00
 -1      3205 1.48081E+01 2.52078E+01 0.00000E+00
 -1      3206 1.37075E+01 2.55234E+01 0.00000E+00
 -1      3207 1.38113E+02 1.75185E+01 0.00000E+00
 -1      3208 1.38113E+02 1.60497E+01 0.00000E+00
 -1      3209 1.36617E+02 1.59057E+01 0.00000E+00
 -1      3210 2.68960E+01 2.62690E+01 0.00000E+00
 -1      3211 1.11741E+01 3.84505E+01 0.00000E+00
 -1      3212 3.14313E+01 2.31089E+01 0.00000E+00
 -1      3213 1.35193E+02 1.17144E+01 0.00000E+00
 -1      3214 1.33697E+02 1.15704E+01 0.00000E+00
 -1      3215 1.32947E+02 1.28694E+01 0.00000E+00
 -1      3216 1.35394E+02 1.39144E+01 0.00000E+00
 -1      3217 1.17615E+01 2.54088E+01 0.00000E+00
 -1      3218 1.19241E+01 3.71515E+01 0.00000E+00
 -1      3219 1.38211E+02 2.01624E+01 0.00000E+00
 -1      3220 1.38211E+02 1.86936E+01 0.00000E+00
 -1      3221 1.36715E+02 1.85496E+01 0.00000E+00
 -1      3222 1.36912E+02 2.08999E+01 0.00000E+00
 -1      3223 4.62240E+01 1.23469E+01 0.00000E+00
 -1      3224 2.37600E+01 2.66351E+01 0.00000E+00
 -1      3225 2.30508E+01 2.71600E+01 0.00000E+00
 -1      3226 2.46370E+01 2.75587E+01 0.00000E+00
 -1      3227 1.16910E+01 3.29875E+01 0.00000E+00
 -1      3228 1.16910E+01 3.44625E+01 0.00000E+00
 -1      3229 3.97233E+01 1.11456E+01 0.00000E+00
 -1      3230 3.84032E+01 1.09616E+01 0.00000E+00
 -1      3231 3.79719E+01 1.26400E+01 0.00000E+00
 -1      3232 4.04733E+01 1.24446E+01 0.00000E+00
 -1      3233 3.33570E+01 2.09683E+01 0.00000E+00
 -1      3234 1.16910E+01 3.00375E+01 0.00000E+00
 -1      3235 1.16910E+01 3.15125E+01 0.00000E+00
 -1      3236 1.29900E+01 3.22500E+01 0.00000E+00
 -1      3237 1.23380E+01 2.64646E+01 0.00000E+00
 -1      3238 1.23380E+01 2.79396E+01 0.00000E+00
 -1      3239 1.37758E+02 3.64912E+01 0.00000E+00
 -1      3240 1.38123E+02 3.54142E+01 0.00000E+00
 -1      3241 1.36824E+02 3.46768E+01 0.00000E+00
 -1      3242 1.36451E+02 3.63802E+01 0.00000E+00
 -1      3243 1.60834E+01 2.70770E+01 0.00000E+00
 -1      3244 1.49828E+01 2.73925E+01 0.00000E+00
 -1      3245 1.67822E+01 2.78904E+01 0.00000E+00
 -1      3246 3.63989E+01 1.80831E+01 0.00000E+00
 -1      3247 3.57926E+01 1.95911E+01 0.00000E+00
 -1      3248 1.44000E+01 3.57110E+01 0.00000E+00
 -1      3249 1.59000E+01 3.57110E+01 0.00000E+00
 -1      3250 1.74000E+01 3.57110E+01 0.00000E+00
 -1      3251 1.89000E+01 3.57110E+01 0.00000E+00
 -1      3252 1.66500E+01 3.44120E+01 0.00000E+00
 -1      3253 2.04000E+01 3.57110E+01 0.00000E+00
 -1      3254 2.19000E+01 3.57110E+01 0.00000E+00
 -1      3255 1.96500E+01 3.44120E+01 0.00000E+00
 -1      3256 2.34000E+01 3.57110E+01 0.00000E+00
 -1      3257 2.49000E+01 3.57110E+01 0.00000E+00
 -1      3258 2.26500E+01 3.44120E+01 0.00000E+00
 -1      3259 2.64000E+01 3.57110E+01 0.00000E+00
 -1      3260 2.79000E+01 3.57110E+01 0.00000E+00
 -1      3261 2.56500E+01 3.44120E+01 0.00000E+00
 -1      3262 2.94000E+01 3.57110E+01 0.00000E+00
 -1      3263 3.09000E+01 3.57110E+01 0.00000E+00
 -1      3264 2.86500E+01 3.44120E+01 0.00000E+00
 -1      3265 3.24000E+01 3.57110E+01 0.00000E+00
 -1      3266 3.39000E+01 3.57110E+01 0.00000E+00
 -1      3267 3.16500E+01 3.44120E+01 0.00000E+00
 -1      3268 3.54000E+01 3.57110E+01 0.00000E+00
 -1      3269 3.69000E+01 3.57110E+01 0.00000E+00
 -1      3270 3.46500E+01 3.44120E+01 0.00000E+00
 -1      3271 3.84000E+01 3.57110E+01 0.00000E+00
 -1      3272 3.99000E+01 3.57110E+01 0.00000E+00
 -1      3273 3.76500E+01 3.44120E+01 0.00000E+00
 -1      3274 4.14000E+01 3.57110E+01 0.00000E+00
 -1      3275 4.29000E+01 3.57110E+01 0.00000E+00
 -1      3276 4.06500E+01 3.44120E+01 0.00000E+00
 -1      3277 4.44000E+01 3.57110E+01 0.00000E+00
 -1      3278 4.59000E+01 3.57110E+01 0.00000E+00
 -1      3279 4.36500E+01 3.44120E+01 0.00000E+00
 -1      3280 4.74000E+01 3.57110E+01 0.00000E+00
 -1      3281 4.89000E+01 3.57110E+01 0.00000E+00
 -1      3282 4.66500E+01 3.44120E+01 0.00000E+00
 -1      3283 5.04000E+01 3.57110E+01 0.00000E+00
 -1      3284 5.19000E+01 3.57110E+01 0.00000E+00
 -1      3285 4.96500E+01 3.44120E+01 0.00000E+00
 -1      3286 5.34000E+01 3.57110E+01 0.00000E+00
 -1      3287 5.49000E+01 3.57110E+01 0.00000E+00
 -1      3288 5.26500E+01 3.44120E+01 0.00000E+00
 -1      3289 5.64000E+01 3.57110E+01 0.00000E+00
 -1      3290 5.79000E+01 3.57110E+01 0.00000E+00
 -1      3291 5.56500E+01 3.44120E+01 0.00000E+00
 -1      3292 5.94000E+01 3.57110E+01 0.00000E+00
 -1      3293 6.09000E+01 3.57110E+01 0.00000E+00
 -1      3294 5.86500E+01 3.44120E+01 0.00000E+00
 -1      3295 6.24000E+01 3.57110E+01 0.00000E+00
 -1      3296 6.39000E+01 3.57110E+01 0.00000E+00
 -1      3297 6.16500E+01 3.44120E+01 0.00000E+00
 -1      3298 6.54000E+01 3.57110E+01 0.00000E+00
 -1      3299 6.69000E+01 3.57110E+01 0.00000E+00
 -1      3300 6.46500E+01 3.44120E+01 0.00000E+00
 -1      3301 6.84000E+01 3.57110E+01 0.00000E+00
 -1      3302 6.99000E+01 3.57110E+01 0.00000E+00
 -1      3303 6.76500E+01 3.44120E+01 0.00000E+00
 -1      3304 7.14000E+01 3.57110E+01 0.00000E+00
 -1      3305 7.29000E+01 3.57110E+01 0.00000E+00
 -1      3306 7.06500E+01 3.44120E+01 0.00000E+00
 -1      3307 7.44000E+01 3.57110E+01 0.00000E+00
 -1      3308 7.59000E+01 3.57110E+01 0.00000E+00
 -1      3309 7.36500E+01 3.44120E+01 0.00000E+00
 -1      3310 7.74000E+01 3.57110E+01 0.00000E+00
 -1      3311 7.89000E+01 3.57110E+01 0.00000E+00
 -1      3312 7.66500E+01 3.44120E+01 0.00000E+00
 -1      3313 8.04000E+01 3.57110E+01 0.00000E+00
 -1      3314 8.19000E+01 3.57110E+01 0.00000E+00
 -1      3315 7.96500E+01 3.44120E+01 0.00000E+00
 -1      3316 8.34000E+01 3.57110E+01 0.00000E+00
 -1      3317 8.49000E+01 3.57110E+01 0.00000E+00
 -1      3318 8.26500E+01 3.44120E+01 0.00000E+00
 -1      3319 8.64000E+01 3.57110E+01 0.00000E+00
 -1      3320 8.79000E+01 3.57110E+01 0.00000E+00
 -1      3321 8.56500E+01 3.44120E+01 0.00000E+00
 -1      3322 8.94000E+01 3.57110E+01 0.00000E+00
 -1      3323 9.09000E+01 3.57110E+01 0.00000E+00
 -1      3324 8.86500E+01 3.44120E+01 0.00000E+00
 -1      3325 9.24000E+01 3.57110E+01 0.00000E+00
 -1      3326 9.39000E+01 3.57110E+01 0.00000E+00
 -1      3327 9.16500E+01 3.44120E+01 0.00000E+00
 -1      3328 9.54000E+01 3.57110E+01 0.00000E+00
 -1      3329 9.69000E+01 3.57110E+01 0.00000E+00
 -1      3330 9.46500E+01 3.44120E+01 0.00000E+00
 -1      3331 9.84000E+01 3.57110E+01 0.00000E+00
 -1      3332 9.99000E+01 3.57110E+01 0.00000E+00
 -1      3333 9.76500E+01 3.44120E+01 0.00000E+00
 -1      3334 1.01400E+02 3.57110E+01 0.00000E+00
 -1      3335 1.02900E+02 3.57110E+01 0.00000E+00
 -1      3336 1.00650E+02 3.44120E+01 0.00000E+00
 -1      3337 1.04400E+02 3.57110E+01 0.00000E+00
 -1      3338 1.05900E+02 3.57110E+01 0.00000E+00
 -1      3339 1.03650E+02 3.44120E+01 0.00000E+00
 -1      3340 1.07400E+02 3.57110E+01 0.00000E+00
 -1      3341 1.08900E+02 3.57110E+01 0.00000E+00
 -1      3342 1.06650E+02 3.44120E+01 0.00000E+00
 -1      3343 1.10400E+02 3.57110E+01 0.00000E+00
 -1      3344 1.11900E+02 3.57110E+01 0.00000E+00
 -1      3345 1.09650E+02 3.44120E+01 0.00000E+00
 -1      3346 1.13400E+02 3.57110E+01 0.00000E+00
 -1      3347 1.14900E+02 3.57110E+01 0.00000E+00
 -1      3348 1.12650E+02 3.44120E+01 0.00000E+00
 -1      3349 1.16400E+02 3.57110E+01 0.00000E+00
 -1      3350 1.17900E+02 3.57110E+01 0.00000E+00
 -1      3351 1.15650E+02 3.44120E+01 0.00000E+00
 -1      3352 1.19400E+02 3.57110E+01 0.00000E+00
 -1      3353 1.20900E+02 3.57110E+01 0.00000E+00
 -1      3354 1.18650E+02 3.44120E+01 0.00000E+00
 -1      3355 1.22400E+02 3.57110E+01 0.00000E+00
 -1      3356 1.23900E+02 3.57110E+01 0.00000E+00
 -1      3357 1.21650E+02 3.44120E+01 0.00000E+00
 -1      3358 1.25400E+02 3.57110E+01 0.00000E+00
 -1      3359 1.26900E+02 3.57110E+01 0.00000E+00
 -1      3360 1.24650E+02 3.44120E+01 0.00000E+00
 -1      3361 1.28400E+02 3.57110E+01 0.00000E+00
 -1      3362 1.29900E+02 3.57110E+01 0.00000E+00
 -1      3363 1.27650E+02 3.44120E+01 0.00000E+00
 -1      3364 1.31400E+02 3.57110E+01 0.00000E+00
 -1      3365 1.32900E+02 3.57110E+01 0.00000E+00
 -1      3366 1.30650E+02 3.44120E+01 0.00000E+00
 -1      3367 1.36370E+01 2.86771E+01 0.00000E+00
 -1      3368 5.89740E+01 1.36459E+01 0.00000E+00
 -1      3369 5.74740E+01 1.36459E+01 0.00000E+00
 -1      3370 5.59740E+01 1.36459E+01 0.00000E+00
 -1      3371 5.44740E+01 1.36459E+01 0.00000E+00
 -1      3372 5.67240E+01 1.49449E+01 0.00000E+00
 -1      3373 5.29740E+01 1.36459E+01 0.00000E+00
 -1      3374 5.14740E+01 1.36459E+01 0.00000E+00
 -1      3375 5.37240E+01 1.49449E+01 0.00000E+00
 -1      3376 6.19740E+01 1.36459E+01 0.00000E+00
 -1      3377 6.04740E+01 1.36459E+01 0.00000E+00
 -1      3378 5.97240E+01 1.49449E+01 0.00000E+00
 -1      3379 6.49740E+01 1.36459E+01 0.00000E+00
 -1      3380 6.34740E+01 1.36459E+01 0.00000E+00
 -1      3381 6.27240E+01 1.49449E+01 0.00000E+00
 -1      3382 6.79740E+01 1.36459E+01 0.00000E+00
 -1      3383 6.64740E+01 1.36459E+01 0.00000E+00
 -1      3384 6.57240E+01 1.49449E+01 0.00000E+00
 -1      3385 7.09740E+01 1.36459E+01 0.00000E+00
 -1      3386 6.94740E+01 1.36459E+01 0.00000E+00
 -1      3387 6.87240E+01 1.49449E+01 0.00000E+00
 -1      3388 7.39740E+01 1.36459E+01 0.00000E+00
 -1      3389 7.24740E+01 1.36459E+01 0.00000E+00
 -1      3390 7.17240E+01 1.49449E+01 0.00000E+00
 -1      3391 7.69740E+01 1.36459E+01 0.00000E+00
 -1      3392 7.54740E+01 1.36459E+01 0.00000E+00
 -1      3393 7.47240E+01 1.49449E+01 0.00000E+00
 -1      3394 7.99740E+01 1.36459E+01 0.00000E+00
 -1      3395 7.84740E+01 1.36459E+01 0.00000E+00
 -1      3396 7.77240E+01 1.49449E+01 0.00000E+00
 -1      3397 8.29740E+01 1.36459E+01 0.00000E+00
 -1      3398 8.14740E+01 1.36459E+01 0.00000E+00
 -1      3399 8.07240E+01 1.49449E+01 0.00000E+00
 -1      3400 8.59740E+01 1.36459E+01 0.00000E+00
 -1      3401 8.44740E+01 1.36459E+01 0.00000E+00
 -1      3402 8.37240E+01 1.49449E+01 0.00000E+00
 -1      3403 8.89740E+01 1.36459E+01 0.00000E+00
 -1      3404 8.74740E+01 1.36459E+01 0.00000E+00
 -1      3405 8.67240E+01 1.49449E+01 0.00000E+00
 -1      3406 9.19740E+01 1.36459E+01 0.00000E+00
 -1      3407 9.04740E+01 1.36459E+01 0.00000E+00
 -1      3408 8.97240E+01 1.49449E+01 0.00000E+00
 -1      3409 9.49740E+01 1.36459E+01 0.00000E+00
 -1      3410 9.34740E+01 1.36459E+01 0.00000E+00
 -1      3411 9.27240E+01 1.49449E+01 0.00000E+00
 -1      3412 9.79740E+01 1.36459E+01 0.00000E+00
 -1      3413 9.64740E+01 1.36459E+01 0.00000E+00
 -1      3414 9.57240E+01 1.49449E+01 0.00000E+00
 -1      3415 1.00974E+02 1.36459E+01 0.00000E+00
 -1      3416 9.94740E+01 1.36459E+01 0.00000E+00
 -1      3417 9.87240E+01 1.49449E+01 0.00000E+00
 -1      3418 1.03974E+02 1.36459E+01 0.00000E+00
 -1      3419 1.02474E+02 1.36459E+01 0.00000E+00
 -1      3420 1.01724E+02 1.49449E+01 0.00000E+00
 -1      3421 1.06974E+02 1.36459E+01 0.00000E+00
 -1      3422 1.05474E+02 1.36459E+01 0.00000E+00
 -1      3423 1.04724E+02 1.49449E+01 0.00000E+00
 -1      3424 1.09974E+02 1.36459E+01 0.00000E+00
 -1      3425 1.08474E+02 1.36459E+01 0.00000E+00
 -1      3426 1.07724E+02 1.49449E+01 0.00000E+00
 -1      3427 1.12974E+02 1.36459E+01 0.00000E+00
 -1      3428 1.11474E+02 1.36459E+01 0.00000E+00
 -1      3429 1.10724E+02 1.49449E+01 0.00000E+00
 -1      3430 1.15974E+02 1.36459E+01 0.00000E+00
 -1      3431 1.14474E+02 1.36459E+01 0.00000E+00
 -1      3432 1.13724E+02 1.49449E+01 0.00000E+00
 -1      3433 1.18974E+02 1.36459E+01 0.00000E+00
 -1      3434 1.17474E+02 1.36459E+01 0.00000E+00
 -1      3435 1.16724E+02 1.49449E+01 0.00000E+00
 -1      3436 1.21974E+02 1.36459E+01 0.00000E+00
 -1      3437 1.20474E+02 1.36459E+01 0.00000E+00
 -1      3438 1.19724E+02 1.49449E+01 0.00000E+00
 -1      3439 1.24974E+02 1.36459E+01 0.00000E+00
 -1      3440 1.23474E+02 1.36459E+01 0.00000E+00
 -1      3441 1.22724E+02 1.49449E+01 0.00000E+00
 -1      3442 1.27974E+02 1.36459E+01 0.00000E+00
 -1      3443 1.26474E+02 1.36459E+01 0.00000E+00
 -1      3444 1.25724E+02 1.49449E+01 0.00000E+00
 -1      3445 1.30974E+02 1.36459E+01 0.00000E+00
 -1      3446 1.29474E+02 1.36459E+01 0.00000E+00
 -1      3447 1.28724E+02 1.49449E+01 0.00000E+00
 -1      3448 4.69740E+01 1.36459E+01 0.00000E+00
 -1      3449 4.54740E+01 1.36459E+01 0.00000E+00
 -1      3450 1.35711E+02 2.42875E+01 0.00000E+00
 -1      3451 1.35711E+02 2.28125E+01 0.00000E+00
 -1      3452 1.35711E+02 3.30875E+01 0.00000E+00
 -1      3453 1.35711E+02 3.16125E+01 0.00000E+00
 -1      3454 1.20210E+01 3.61050E+01 0.00000E+00
 -1      3455 2.82358E+01 2.70312E+01 0.00000E+00
 -1      3456 2.66861E+01 2.77961E+01 0.00000E+00
 -1      3457 3.27285E+01 2.33473E+01 0.00000E+00
 -1      3458 3.17509E+01 2.43885E+01 0.00000E+00
 -1      3459 3.46709E+01 2.11428E+01 0.00000E+00
 -1      3460 3.37228E+01 2.22422E+01 0.00000E+00
 -1      3461 4.99740E+01 1.36459E+01 0.00000E+00
 -1      3462 4.84740E+01 1.36459E+01 0.00000E+00
 -1      3463 5.07240E+01 1.49449E+01 0.00000E+00
 -1      3464 2.18271E+01 2.74699E+01 0.00000E+00
 -1      3465 2.06034E+01 2.77798E+01 0.00000E+00
 -1      3466 2.27041E+01 2.83935E+01 0.00000E+00
 -1      3467 3.05717E+01 2.54080E+01 0.00000E+00
 -1      3468 2.95677E+01 2.60850E+01 0.00000E+00
 -1      3469 4.39740E+01 1.36459E+01 0.00000E+00
 -1      3470 4.24740E+01 1.36459E+01 0.00000E+00
 -1      3471 4.47240E+01 1.49449E+01 0.00000E+00
 -1      3472 3.69279E+01 1.67734E+01 0.00000E+00
 -1      3473 3.78091E+01 1.80036E+01 0.00000E+00
 -1      3474 1.96816E+01 2.81391E+01 0.00000E+00
 -1      3475 1.87598E+01 2.84985E+01 0.00000E+00
 -1      3476 2.05586E+01 2.90628E+01 0.00000E+00
 -1      3477 4.12233E+01 1.37436E+01 0.00000E+00
 -1      3478 3.99726E+01 1.38413E+01 0.00000E+00
 -1      3479 4.19733E+01 1.50426E+01 0.00000E+00
 -1      3480 1.34022E+02 3.59901E+01 0.00000E+00
 -1      3481 1.35329E+02 3.61011E+01 0.00000E+00
 -1      3482 1.35515E+02 3.52494E+01 0.00000E+00
 -1      3483 1.33272E+02 3.46911E+01 0.00000E+00
 -1      3484 1.35394E+02 1.68519E+01 0.00000E+00
 -1      3485 1.35394E+02 1.53832E+01 0.00000E+00
 -1      3486 1.34171E+02 1.48606E+01 0.00000E+00
 -1      3487 1.32197E+02 1.41684E+01 0.00000E+00
 -1      3488 4.77240E+01 1.49449E+01 0.00000E+00
 -1      3489 1.34314E+02 2.23749E+01 0.00000E+00
 -1      3490 1.35613E+02 2.16374E+01 0.00000E+00
 -1      3491 1.35514E+02 2.04622E+01 0.00000E+00
 -1      3492 1.34412E+02 3.08875E+01 0.00000E+00
 -1      3493 1.35711E+02 3.01500E+01 0.00000E+00
 -1      3494 1.35711E+02 2.86875E+01 0.00000E+00
 -1      3495 3.61583E+01 2.08650E+01 0.00000E+00
 -1      3496 2.59768E+01 2.83210E+01 0.00000E+00
 -1      3497 2.52676E+01 2.88459E+01 0.00000E+00
 -1      3498 2.73166E+01 2.90832E+01 0.00000E+00
 -1      3499 2.93578E+01 2.76121E+01 0.00000E+00
 -1      3500 1.35702E+02 3.43976E+01 0.00000E+00
 -1      3501 3.88218E+01 1.37550E+01 0.00000E+00
 -1      3502 3.75711E+01 1.38528E+01 0.00000E+00
 -1      3503 3.72703E+01 1.48815E+01 0.00000E+00
 -1      3504 3.95718E+01 1.50540E+01 0.00000E+00
 -1      3505 1.33200E+01 3.53675E+01 0.00000E+00
 -1      3506 1.34403E+02 3.36601E+01 0.00000E+00
 -1      3507 3.18689E+01 2.56464E+01 0.00000E+00
 -1      3508 1.35711E+02 2.72188E+01 0.00000E+00
 -1      3509 1.35711E+02 2.57563E+01 0.00000E+00
 -1      3510 1.34412E+02 2.50187E+01 0.00000E+00
 -1      3511 1.34412E+02 2.79562E+01 0.00000E+00
 -1      3512 3.40423E+01 2.35219E+01 0.00000E+00
 -1      3513 1.40700E+01 3.40685E+01 0.00000E+00
 -1      3514 1.40700E+01 3.25935E+01 0.00000E+00
 -1      3515 1.51500E+01 3.29370E+01 0.00000E+00
 -1      3516 1.40700E+01 3.11185E+01 0.00000E+00
 -1      3517 3.72288E+01 1.57446E+01 0.00000E+00
 -1      3518 1.33281E+02 3.33810E+01 0.00000E+00
 -1      3519 1.43358E+01 2.94905E+01 0.00000E+00
 -1      3520 1.89000E+01 3.31130E+01 0.00000E+00
 -1      3521 2.04000E+01 3.31130E+01 0.00000E+00
 -1      3522 2.19000E+01 3.31130E+01 0.00000E+00
 -1      3523 2.34000E+01 3.31130E+01 0.00000E+00
 -1      3524 2.11500E+01 3.18140E+01 0.00000E+00
 -1      3525 2.53787E+01 3.20101E+01 0.00000E+00
 -1      3526 2.68787E+01 3.20101E+01 0.00000E+00
 -1      3527 3.09000E+01 3.31130E+01 0.00000E+00
 -1      3528 3.24000E+01 3.31130E+01 0.00000E+00
 -1      3529 3.39000E+01 3.31130E+01 0.00000E+00
 -1      3530 3.54000E+01 3.31130E+01 0.00000E+00
 -1      3531 3.31500E+01 3.18140E+01 0.00000E+00
 -1      3532 3.69000E+01 3.31130E+01 0.00000E+00
 -1      3533 3.84000E+01 3.31130E+01 0.00000E+00
 -1      3534 3.61500E+01 3.18140E+01 0.00000E+00
 -1      3535 3.99000E+01 3.31130E+01 0.00000E+00
 -1      3536 4.14000E+01 3.31130E+01 0.00000E+00
 -1      3537 3.91500E+01 3.18140E+01 0.00000E+00
 -1      3538 4.29000E+01 3.31130E+01 0.00000E+00
 -1      3539 4.44000E+01 3.31130E+01 0.00000E+00
 -1      3540 4.21500E+01 3.18140E+01 0.00000E+00
 -1      3541 4.59000E+01 3.31130E+01 0.00000E+00
 -1      3542 4.74000E+01 3.31130E+01 0.00000E+00
 -1      3543 4.51500E+01 3.18140E+01 0.00000E+00
 -1      3544 4.89000E+01 3.31130E+01 0.00000E+00
 -1      3545 5.04000E+01 3.31130E+01 0.00000E+00
 -1      3546 4.81500E+01 3.18140E+01 0.00000E+00
 -1      3547 5.19000E+01 3.31130E+01 0.00000E+00
 -1      3548 5.34000E+01 3.31130E+01 0.00000E+00
 -1      3549 5.11500E+01 3.18140E+01 0.00000E+00
 -1      3550 5.49000E+01 3.31130E+01 0.00000E+00
 -1      3551 5.64000E+01 3.31130E+01 0.00000E+00
 -1      3552 5.41500E+01 3.18140E+01 0.00000E+00
 -1      3553 5.79000E+01 3.31130E+01 0.00000E+00
 -1      3554 5.94000E+01 3.31130E+01 0.00000E+00
 -1      3555 5.71500E+01 3.18140E+01 0.00000E+00
 -1      3556 6.09000E+01 3.31130E+01 0.00000E+00
 -1      3557 6.24000E+01 3.31130E+01 0.00000E+00
 -1      3558 6.01500E+01 3.18140E+01 0.00000E+00
 -1      3559 6.39000E+01 3.31130E+01 0.00000E+00
 -1      3560 6.54000E+01 3.31130E+01 0.00000E+00
 -1      3561 6.31500E+01 3.18140E+01 0.00000E+00
 -1      3562 6.69000E+01 3.31130E+01 0.00000E+00
 -1      3563 6.84000E+01 3.31130E+01 0.00000E+00
 -1      3564 6.61500E+01 3.18140E+01 0.00000E+00
 -1      3565 6.99000E+01 3.31130E+01 0.00000E+00
 -1      3566 7.14000E+01 3.31130E+01 0.00000E+00
 -1      3567 6.91500E+01 3.18140E+01 0.00000E+00
 -1      3568 7.29000E+01 3.31130E+01 0.00000E+00
 -1      3569 7.44000E+01 3.31130E+01 0.00000E+00
 -1      3570 7.21500E+01 3.18140E+01 0.00000E+00
 -1      3571 7.59000E+01 3.31130E+01 0.00000E+00
 -1      3572 7.74000E+01 3.31130E+01 0.00000E+00
 -1      3573 7.51500E+01 3.18140E+01 0.00000E+00
 -1      3574 7.89000E+01 3.31130E+01 0.00000E+00
 -1      3575 8.04000E+01 3.31130E+01 0.00000E+00
 -1      3576 7.81500E+01 3.18140E+01 0.00000E+00
 -1      3577 8.19000E+01 3.31130E+01 0.00000E+00
 -1      3578 8.34000E+01 3.31130E+01 0.00000E+00
 -1      3579 8.11500E+01 3.18140E+01 0.00000E+00
 -1      3580 8.49000E+01 3.31130E+01 0.00000E+00
 -1      3581 8.64000E+01 3.31130E+01 0.00000E+00
 -1      3582 8.41500E+01 3.18140E+01 0.00000E+00
 -1      3583 8.79000E+01 3.31130E+01 0.00000E+00
 -1      3584 8.94000E+01 3.31130E+01 0.00000E+00
 -1      3585 8.71500E+01 3.18140E+01 0.00000E+00
 -1      3586 9.09000E+01 3.31130E+01 0.00000E+00
 -1      3587 9.24000E+01 3.31130E+01 0.00000E+00
 -1      3588 9.01500E+01 3.18140E+01 0.00000E+00
 -1      3589 9.39000E+01 3.31130E+01 0.00000E+00
 -1      3590 9.54000E+01 3.31130E+01 0.00000E+00
 -1      3591 9.31500E+01 3.18140E+01 0.00000E+00
 -1      3592 9.69000E+01 3.31130E+01 0.00000E+00
 -1      3593 9.84000E+01 3.31130E+01 0.00000E+00
 -1      3594 9.61500E+01 3.18140E+01 0.00000E+00
 -1      3595 9.99000E+01 3.31130E+01 0.00000E+00
 -1      3596 1.01400E+02 3.31130E+01 0.00000E+00
 -1      3597 9.91500E+01 3.18140E+01 0.00000E+00
 -1      3598 1.02900E+02 3.31130E+01 0.00000E+00
 -1      3599 1.04400E+02 3.31130E+01 0.00000E+00
 -1      3600 1.02150E+02 3.18140E+01 0.00000E+00
 -1      3601 1.05900E+02 3.31130E+01 0.00000E+00
 -1      3602 1.07400E+02 3.31130E+01 0.00000E+00
 -1      3603 1.05150E+02 3.18140E+01 0.00000E+00
 -1      3604 1.08900E+02 3.31130E+01 0.00000E+00
 -1      3605 1.10400E+02 3.31130E+01 0.00000E+00
 -1      3606 1.08150E+02 3.18140E+01 0.00000E+00
 -1      3607 1.11900E+02 3.31130E+01 0.00000E+00
 -1      3608 1.13400E+02 3.31130E+01 0.00000E+00
 -1      3609 1.11150E+02 3.18140E+01 0.00000E+00
 -1      3610 1.14900E+02 3.31130E+01 0.00000E+00
 -1      3611 1.16400E+02 3.31130E+01 0.00000E+00
 -1      3612 1.14150E+02 3.18140E+01 0.00000E+00
 -1      3613 1.17900E+02 3.31130E+01 0.00000E+00
 -1      3614 1.19400E+02 3.31130E+01 0.00000E+00
 -1      3615 1.17150E+02 3.18140E+01 0.00000E+00
 -1      3616 1.20900E+02 3.31130E+01 0.00000E+00
 -1      3617 1.22400E+02 3.31130E+01 0.00000E+00
 -1      3618 1.20150E+02 3.18140E+01 0.00000E+00
 -1      3619 1.23900E+02 3.31130E+01 0.00000E+00
 -1      3620 1.25400E+02 3.31130E+01 0.00000E+00
 -1      3621 1.23150E+02 3.18140E+01 0.00000E+00
 -1      3622 1.26900E+02 3.31130E+01 0.00000E+00
 -1      3623 1.28400E+02 3.31130E+01 0.00000E+00
 -1      3624 1.26150E+02 3.18140E+01 0.00000E+00
 -1      3625 1.29900E+02 3.31130E+01 0.00000E+00
 -1      3626 1.31400E+02 3.31130E+01 0.00000E+00
 -1      3627 1.29150E+02 3.18140E+01 0.00000E+00
 -1      3628 5.74740E+01 1.62439E+01 0.00000E+00
 -1      3629 5.59740E+01 1.62439E+01 0.00000E+00
 -1      3630 6.34740E+01 1.62439E+01 0.00000E+00
 -1      3631 6.19740E+01 1.62439E+01 0.00000E+00
 -1      3632 3.33080E+01 2.61194E+01 0.00000E+00
 -1      3633 3.21288E+01 2.71388E+01 0.00000E+00
 -1      3634 1.32197E+02 1.56371E+01 0.00000E+00
 -1      3635 6.04740E+01 1.62439E+01 0.00000E+00
 -1      3636 5.89740E+01 1.62439E+01 0.00000E+00
 -1      3637 5.82240E+01 1.75429E+01 0.00000E+00
 -1      3638 6.12240E+01 1.75429E+01 0.00000E+00
 -1      3639 5.44740E+01 1.62439E+01 0.00000E+00
 -1      3640 5.29740E+01 1.62439E+01 0.00000E+00
 -1      3641 5.52240E+01 1.75429E+01 0.00000E+00
 -1      3642 6.64740E+01 1.62439E+01 0.00000E+00
 -1      3643 6.49740E+01 1.62439E+01 0.00000E+00
 -1      3644 6.42240E+01 1.75429E+01 0.00000E+00
 -1      3645 6.94740E+01 1.62439E+01 0.00000E+00
 -1      3646 6.79740E+01 1.62439E+01 0.00000E+00
 -1      3647 6.72240E+01 1.75429E+01 0.00000E+00
 -1      3648 7.24740E+01 1.62439E+01 0.00000E+00
 -1      3649 7.09740E+01 1.62439E+01 0.00000E+00
 -1      3650 7.02240E+01 1.75429E+01 0.00000E+00
 -1      3651 7.54740E+01 1.62439E+01 0.00000E+00
 -1      3652 7.39740E+01 1.62439E+01 0.00000E+00
 -1      3653 7.32240E+01 1.75429E+01 0.00000E+00
 -1      3654 7.84740E+01 1.62439E+01 0.00000E+00
 -1      3655 7.69740E+01 1.62439E+01 0.00000E+00
 -1      3656 7.62240E+01 1.75429E+01 0.00000E+00
 -1      3657 8.14740E+01 1.62439E+01 0.00000E+00
 -1      3658 7.99740E+01 1.62439E+01 0.00000E+00
 -1      3659 7.92240E+01 1.75429E+01 0.00000E+00
 -1      3660 8.44740E+01 1.62439E+01 0.00000E+00
 -1      3661 8.29740E+01 1.62439E+01 0.00000E+00
 -1      3662 8.22240E+01 1.75429E+01 0.00000E+00
 -1      3663 8.74740E+01 1.62439E+01 0.00000E+00
 -1      3664 8.59740E+01 1.62439E+01 0.00000E+00
 -1      3665 8.52240E+01 1.75429E+01 0.00000E+00
 -1      3666 9.04740E+01 1.62439E+01 0.00000E+00
 -1      3667 8.89740E+01 1.62439E+01 0.00000E+00
 -1      3668 8.82240E+01 1.75429E+01 0.00000E+00
 -1      3669 9.34740E+01 1.62439E+01 0.00000E+00
 -1      3670 9.19740E+01 1.62439E+01 0.00000E+00
 -1      3671 9.12240E+01 1.75429E+01 0.00000E+00
 -1      3672 9.64740E+01 1.62439E+01 0.00000E+00
 -1      3673 9.49740E+01 1.62439E+01 0.00000E+00
 -1      3674 9.42240E+01 1.75429E+01 0.00000E+00
 -1      3675 9.94740E+01 1.62439E+01 0.00000E+00
 -1      3676 9.79740E+01 1.62439E+01 0.00000E+00
 -1      3677 9.72240E+01 1.75429E+01 0.00000E+00
 -1      3678 1.02474E+02 1.62439E+01 0.00000E+00
 -1      3679 1.00974E+02 1.62439E+01 0.00000E+00
 -1      3680 1.00224E+02 1.75429E+01 0.00000E+00
 -1      3681 1.05474E+02 1.62439E+01 0.00000E+00
 -1      3682 1.03974E+02 1.62439E+01 0.00000E+00
 -1      3683 1.03224E+02 1.75429E+01 0.00000E+00
 -1      3684 1.08474E+02 1.62439E+01 0.00000E+00
 -1      3685 1.06974E+02 1.62439E+01 0.00000E+00
 -1      3686 1.06224E+02 1.75429E+01 0.00000E+00
 -1      3687 1.11474E+02 1.62439E+01 0.00000E+00
 -1      3688 1.09974E+02 1.62439E+01 0.00000E+00
 -1      3689 1.09224E+02 1.75429E+01 0.00000E+00
 -1      3690 1.14474E+02 1.62439E+01 0.00000E+00
 -1      3691 1.12974E+02 1.62439E+01 0.00000E+00
 -1      3692 1.12224E+02 1.75429E+01 0.00000E+00
 -1      3693 1.17474E+02 1.62439E+01 0.00000E+00
 -1      3694 1.15974E+02 1.62439E+01 0.00000E+00
 -1      3695 1.15224E+02 1.75429E+01 0.00000E+00
 -1      3696 1.20474E+02 1.62439E+01 0.00000E+00
 -1      3697 1.18974E+02 1.62439E+01 0.00000E+00
 -1      3698 1.18224E+02 1.75429E+01 0.00000E+00
 -1      3699 1.23474E+02 1.62439E+01 0.00000E+00
 -1      3700 1.21974E+02 1.62439E+01 0.00000E+00
 -1      3701 1.21224E+02 1.75429E+01 0.00000E+00
 -1      3702 1.26474E+02 1.62439E+01 0.00000E+00
 -1      3703 1.24974E+02 1.62439E+01 0.00000E+00
 -1      3704 1.24224E+02 1.75429E+01 0.00000E+00
 -1      3705 1.29474E+02 1.62439E+01 0.00000E+00
 -1      3706 1.27974E+02 1.62439E+01 0.00000E+00
 -1      3707 1.27224E+02 1.75429E+01 0.00000E+00
 -1      3708 3.91795E+01 1.77955E+01 0.00000E+00
 -1      3709 3.86505E+01 1.91051E+01 0.00000E+00
 -1      3710 4.54740E+01 1.62439E+01 0.00000E+00
 -1      3711 4.39740E+01 1.62439E+01 0.00000E+00
 -1      3712 5.14740E+01 1.62439E+01 0.00000E+00
 -1      3713 4.99740E+01 1.62439E+01 0.00000E+00
 -1      3714 5.22240E+01 1.75429E+01 0.00000E+00
 -1      3715 4.84740E+01 1.62439E+01 0.00000E+00
 -1      3716 4.69740E+01 1.62439E+01 0.00000E+00
 -1      3717 4.62240E+01 1.75429E+01 0.00000E+00
 -1      3718 4.92240E+01 1.75429E+01 0.00000E+00
 -1      3719 1.76592E+01 2.88141E+01 0.00000E+00
 -1      3720 1.65586E+01 2.91296E+01 0.00000E+00
 -1      3721 1.85362E+01 2.97377E+01 0.00000E+00
 -1      3722 3.55051E+01 2.38381E+01 0.00000E+00
 -1      3723 3.45109E+01 2.49432E+01 0.00000E+00
 -1      3724 1.35503E+02 1.92446E+01 0.00000E+00
 -1      3725 1.35405E+02 1.80695E+01 0.00000E+00
 -1      3726 1.34182E+02 1.75470E+01 0.00000E+00
 -1      3727 1.34204E+02 1.99821E+01 0.00000E+00
 -1      3728 3.77720E+01 2.08501E+01 0.00000E+00
 -1      3729 3.66502E+01 2.24019E+01 0.00000E+00
 -1      3730 1.62750E+01 3.30250E+01 0.00000E+00
 -1      3731 1.77750E+01 3.30250E+01 0.00000E+00
 -1      3732 1.85250E+01 3.17260E+01 0.00000E+00
 -1      3733 1.62750E+01 3.15500E+01 0.00000E+00
 -1      3734 3.07760E+01 2.81979E+01 0.00000E+00
 -1      3735 2.94441E+01 2.91442E+01 0.00000E+00
 -1      3736 3.83796E+01 1.58309E+01 0.00000E+00
 -1      3737 2.32889E+01 2.99488E+01 0.00000E+00
 -1      3738 2.20652E+01 3.02587E+01 0.00000E+00
 -1      3739 1.54158E+01 2.98340E+01 0.00000E+00
 -1      3740 1.32531E+02 3.20820E+01 0.00000E+00
 -1      3741 3.47709E+01 2.64356E+01 0.00000E+00
 -1      3742 4.27233E+01 1.63416E+01 0.00000E+00
 -1      3743 4.14726E+01 1.64393E+01 0.00000E+00
 -1      3744 4.34733E+01 1.76406E+01 0.00000E+00
 -1      3745 3.22152E+01 2.86709E+01 0.00000E+00
 -1      3746 2.46287E+01 3.07111E+01 0.00000E+00
 -1      3747 2.79000E+01 3.31130E+01 0.00000E+00
 -1      3748 2.94000E+01 3.31130E+01 0.00000E+00
 -1      3749 1.32814E+02 1.72415E+01 0.00000E+00
 -1      3750 1.30841E+02 1.65493E+01 0.00000E+00
 -1      3751 1.30091E+02 1.78483E+01 0.00000E+00
 -1      3752 1.32826E+02 1.84591E+01 0.00000E+00
 -1      3753 3.91423E+01 2.06420E+01 0.00000E+00
 -1      3754 4.02804E+01 1.72161E+01 0.00000E+00
 -1      3755 4.11217E+01 1.83176E+01 0.00000E+00
 -1      3756 1.33068E+02 2.30707E+01 0.00000E+00
 -1      3757 1.32970E+02 2.18955E+01 0.00000E+00
 -1      3758 1.32531E+02 3.06195E+01 0.00000E+00
 -1      3759 3.71188E+01 2.38233E+01 0.00000E+00
 -1      3760 2.83379E+01 3.01862E+01 0.00000E+00
 -1      3761 2.76287E+01 3.07111E+01 0.00000E+00
 -1      3762 3.95304E+01 1.59171E+01 0.00000E+00
 -1      3763 1.33068E+02 2.60082E+01 0.00000E+00
 -1      3764 1.33068E+02 2.45394E+01 0.00000E+00
 -1      3765 1.31725E+02 2.40601E+01 0.00000E+00
 -1      3766 3.01500E+01 3.18140E+01 0.00000E+00
 -1      3767 2.05652E+01 3.02587E+01 0.00000E+00
 -1      3768 4.41998E+01 1.88868E+01 0.00000E+00
 -1      3769 4.29491E+01 1.89845E+01 0.00000E+00
 -1      3770 6.49740E+01 1.88419E+01 0.00000E+00
 -1      3771 6.34740E+01 1.88419E+01 0.00000E+00
 -1      3772 3.62805E+01 2.67763E+01 0.00000E+00
 -1      3773 3.50776E+01 2.79525E+01 0.00000E+00
 -1      3774 3.56186E+01 3.00536E+01 0.00000E+00
 -1      3775 3.71186E+01 3.00536E+01 0.00000E+00
 -1      3776 3.86186E+01 3.00536E+01 0.00000E+00
 -1      3777 4.01186E+01 3.00536E+01 0.00000E+00
 -1      3778 3.80872E+01 2.82932E+01 0.00000E+00
 -1      3779 4.16186E+01 3.00536E+01 0.00000E+00
 -1      3780 4.31186E+01 3.00536E+01 0.00000E+00
 -1      3781 4.10872E+01 2.82932E+01 0.00000E+00
 -1      3782 4.46186E+01 3.00536E+01 0.00000E+00
 -1      3783 4.61186E+01 3.00536E+01 0.00000E+00
 -1      3784 4.40872E+01 2.82932E+01 0.00000E+00
 -1      3785 4.76186E+01 3.00536E+01 0.00000E+00
 -1      3786 4.91186E+01 3.00536E+01 0.00000E+00
 -1      3787 4.70872E+01 2.82932E+01 0.00000E+00
 -1      3788 5.06186E+01 3.00536E+01 0.00000E+00
 -1      3789 5.21186E+01 3.00536E+01 0.00000E+00
 -1      3790 5.00872E+01 2.82932E+01 0.00000E+00
 -1      3791 5.36186E+01 3.00536E+01 0.00000E+00
 -1      3792 5.51186E+01 3.00536E+01 0.00000E+00
 -1      3793 5.30872E+01 2.82932E+01 0.00000E+00
 -1      3794 5.66186E+01 3.00536E+01 0.00000E+00
 -1      3795 5.81186E+01 3.00536E+01 0.00000E+00
 -1      3796 5.60872E+01 2.82932E+01 0.00000E+00
 -1      3797 5.96186E+01 3.00536E+01 0.00000E+00
 -1      3798 6.11186E+01 3.00536E+01 0.00000E+00
 -1      3799 5.90872E+01 2.82932E+01 0.00000E+00
 -1      3800 6.26186E+01 3.00536E+01 0.00000E+00
 -1      3801 6.41186E+01 3.00536E+01 0.00000E+00
 -1      3802 6.20872E+01 2.82932E+01 0.00000E+00
 -1      3803 6.56186E+01 3.00536E+01 0.00000E+00
 -1      3804 6.71186E+01 3.00536E+01 0.00000E+00
 -1      3805 6.50872E+01 2.82932E+01 0.00000E+00
 -1      3806 6.86186E+01 3.00536E+01 0.00000E+00
 -1      3807 7.01186E+01 3.00536E+01 0.00000E+00
 -1      3808 6.80872E+01 2.82932E+01 0.00000E+00
 -1      3809 7.16186E+01 3.00536E+01 0.00000E+00
 -1      3810 7.31186E+01 3.00536E+01 0.00000E+00
 -1      3811 7.10872E+01 2.82932E+01 0.00000E+00
 -1      3812 7.46186E+01 3.00536E+01 0.00000E+00
 -1      3813 7.61186E+01 3.00536E+01 0.00000E+00
 -1      3814 7.40872E+01 2.82932E+01 0.00000E+00
 -1      3815 7.76186E+01 3.00536E+01 0.00000E+00
 -1      3816 7.91186E+01 3.00536E+01 0.00000E+00
 -1      3817 7.70872E+01 2.82932E+01 0.00000E+00
 -1      3818 8.06186E+01 3.00536E+01 0.00000E+00
 -1      3819 8.21186E+01 3.00536E+01 0.00000E+00
 -1      3820 8.00872E+01 2.82932E+01 0.00000E+00
 -1      3821 8.36186E+01 3.00536E+01 0.00000E+00
 -1      3822 8.51186E+01 3.00536E+01 0.00000E+00
 -1      3823 8.30872E+01 2.82932E+01 0.00000E+00
 -1      3824 8.66186E+01 3.00536E+01 0.00000E+00
 -1      3825 8.81186E+01 3.00536E+01 0.00000E+00
 -1      3826 8.60872E+01 2.82932E+01 0.00000E+00
 -1      3827 8.96186E+01 3.00536E+01 0.00000E+00
 -1      3828 9.11186E+01 3.00536E+01 0.00000E+00
 -1      3829 8.90872E+01 2.82932E+01 0.00000E+00
 -1      3830 9.26186E+01 3.00536E+01 0.00000E+00
 -1      3831 9.41186E+01 3.00536E+01 0.00000E+00
 -1      3832 9.20872E+01 2.82932E+01 0.00000E+00
 -1      3833 9.56186E+01 3.00536E+01 0.00000E+00
 -1      3834 9.71186E+01 3.00536E+01 0.00000E+00
 -1      3835 9.50872E+01 2.82932E+01 0.00000E+00
 -1      3836 9.86186E+01 3.00536E+01 0.00000E+00
 -1      3837 1.00119E+02 3.00536E+01 0.00000E+00
 -1      3838 9.80872E+01 2.82932E+01 0.00000E+00
 -1      3839 1.01619E+02 3.00536E+01 0.00000E+00
 -1      3840 1.03119E+02 3.00536E+01 0.00000E+00
 -1      3841 1.01087E+02 2.82932E+01 0.00000E+00
 -1      3842 1.04619E+02 3.00536E+01 0.00000E+00
 -1      3843 1.06119E+02 3.00536E+01 0.00000E+00
 -1      3844 1.04087E+02 2.82932E+01 0.00000E+00
 -1      3845 1.07619E+02 3.00536E+01 0.00000E+00
 -1      3846 1.09119E+02 3.00536E+01 0.00000E+00
 -1      3847 1.07087E+02 2.82932E+01 0.00000E+00
 -1      3848 1.10619E+02 3.00536E+01 0.00000E+00
 -1      3849 1.12119E+02 3.00536E+01 0.00000E+00
 -1      3850 1.10087E+02 2.82932E+01 0.00000E+00
 -1      3851 1.13619E+02 3.00536E+01 0.00000E+00
 -1      3852 1.15119E+02 3.00536E+01 0.00000E+00
 -1      3853 1.13087E+02 2.82932E+01 0.00000E+00
 -1      3854 1.16619E+02 3.00536E+01 0.00000E+00
 -1      3855 1.18119E+02 3.00536E+01 0.00000E+00
 -1      3856 1.16087E+02 2.82932E+01 0.00000E+00
 -1      3857 1.19619E+02 3.00536E+01 0.00000E+00
 -1      3858 1.21119E+02 3.00536E+01 0.00000E+00
 -1      3859 1.19087E+02 2.82932E+01 0.00000E+00
 -1      3860 1.22619E+02 3.00536E+01 0.00000E+00
 -1      3861 1.24119E+02 3.00536E+01 0.00000E+00
 -1      3862 1.22087E+02 2.82932E+01 0.00000E+00
 -1      3863 1.25619E+02 3.00536E+01 0.00000E+00
 -1      3864 1.27119E+02 3.00536E+01 0.00000E+00
 -1      3865 1.25087E+02 2.82932E+01 0.00000E+00
 -1      3866 1.29075E+02 3.03365E+01 0.00000E+00
 -1      3867 1.30575E+02 3.03365E+01 0.00000E+00
 -1      3868 1.32456E+02 2.91420E+01 0.00000E+00
 -1      3869 1.28543E+02 2.85762E+01 0.00000E+00
 -1      3870 5.59740E+01 1.88419E+01 0.00000E+00
 -1      3871 5.44740E+01 1.88419E+01 0.00000E+00
 -1      3872 7.09740E+01 1.88419E+01 0.00000E+00
 -1      3873 6.94740E+01 1.88419E+01 0.00000E+00
 -1      3874 7.39740E+01 1.88419E+01 0.00000E+00
 -1      3875 7.24740E+01 1.88419E+01 0.00000E+00
 -1      3876 7.17240E+01 2.01409E+01 0.00000E+00
 -1      3877 7.69740E+01 1.88419E+01 0.00000E+00
 -1      3878 7.54740E+01 1.88419E+01 0.00000E+00
 -1      3879 7.47240E+01 2.01409E+01 0.00000E+00
 -1      3880 7.99740E+01 1.88419E+01 0.00000E+00
 -1      3881 7.84740E+01 1.88419E+01 0.00000E+00
 -1      3882 7.77240E+01 2.01409E+01 0.00000E+00
 -1      3883 8.29740E+01 1.88419E+01 0.00000E+00
 -1      3884 8.14740E+01 1.88419E+01 0.00000E+00
 -1      3885 8.07240E+01 2.01409E+01 0.00000E+00
 -1      3886 8.59740E+01 1.88419E+01 0.00000E+00
 -1      3887 8.44740E+01 1.88419E+01 0.00000E+00
 -1      3888 8.37240E+01 2.01409E+01 0.00000E+00
 -1      3889 8.89740E+01 1.88419E+01 0.00000E+00
 -1      3890 8.74740E+01 1.88419E+01 0.00000E+00
 -1      3891 8.67240E+01 2.01409E+01 0.00000E+00
 -1      3892 9.19740E+01 1.88419E+01 0.00000E+00
 -1      3893 9.04740E+01 1.88419E+01 0.00000E+00
 -1      3894 8.97240E+01 2.01409E+01 0.00000E+00
 -1      3895 9.49740E+01 1.88419E+01 0.00000E+00
 -1      3896 9.34740E+01 1.88419E+01 0.00000E+00
 -1      3897 9.27240E+01 2.01409E+01 0.00000E+00
 -1      3898 9.79740E+01 1.88419E+01 0.00000E+00
 -1      3899 9.64740E+01 1.88419E+01 0.00000E+00
 -1      3900 9.57240E+01 2.01409E+01 0.00000E+00
 -1      3901 1.00974E+02 1.88419E+01 0.00000E+00
 -1      3902 9.94740E+01 1.88419E+01 0.00000E+00
 -1      3903 9.87240E+01 2.01409E+01 0.00000E+00
 -1      3904 1.03974E+02 1.88419E+01 0.00000E+00
 -1      3905 1.02474E+02 1.88419E+01 0.00000E+00
 -1      3906 1.01724E+02 2.01409E+01 0.00000E+00
 -1      3907 1.06974E+02 1.88419E+01 0.00000E+00
 -1      3908 1.05474E+02 1.88419E+01 0.00000E+00
 -1      3909 1.04724E+02 2.01409E+01 0.00000E+00
 -1      3910 1.09974E+02 1.88419E+01 0.00000E+00
 -1      3911 1.08474E+02 1.88419E+01 0.00000E+00
 -1      3912 1.07724E+02 2.01409E+01 0.00000E+00
 -1      3913 1.12974E+02 1.88419E+01 0.00000E+00
 -1      3914 1.11474E+02 1.88419E+01 0.00000E+00
 -1      3915 1.10724E+02 2.01409E+01 0.00000E+00
 -1      3916 1.15974E+02 1.88419E+01 0.00000E+00
 -1      3917 1.14474E+02 1.88419E+01 0.00000E+00
 -1      3918 1.13724E+02 2.01409E+01 0.00000E+00
 -1      3919 1.18974E+02 1.88419E+01 0.00000E+00
 -1      3920 1.17474E+02 1.88419E+01 0.00000E+00
 -1      3921 1.16724E+02 2.01409E+01 0.00000E+00
 -1      3922 1.21974E+02 1.88419E+01 0.00000E+00
 -1      3923 1.20474E+02 1.88419E+01 0.00000E+00
 -1      3924 1.19724E+02 2.01409E+01 0.00000E+00
 -1      3925 1.24974E+02 1.88419E+01 0.00000E+00
 -1      3926 1.23474E+02 1.88419E+01 0.00000E+00
 -1      3927 1.22724E+02 2.01409E+01 0.00000E+00
 -1      3928 1.27974E+02 1.88419E+01 0.00000E+00
 -1      3929 1.26474E+02 1.88419E+01 0.00000E+00
 -1      3930 1.25724E+02 2.01409E+01 0.00000E+00
 -1      3931 2.97562E+01 3.07720E+01 0.00000E+00
 -1      3932 3.12562E+01 3.07720E+01 0.00000E+00
 -1      3933 1.62928E+01 3.07576E+01 0.00000E+00
 -1      3934 4.07419E+01 2.03537E+01 0.00000E+00
 -1      3935 3.98633E+01 2.20987E+01 0.00000E+00
 -1      3936 1.32456E+02 2.76733E+01 0.00000E+00
 -1      3937 5.29740E+01 1.88419E+01 0.00000E+00
 -1      3938 5.14740E+01 1.88419E+01 0.00000E+00
 -1      3939 5.37240E+01 2.01409E+01 0.00000E+00
 -1      3940 6.79740E+01 1.88419E+01 0.00000E+00
 -1      3941 6.64740E+01 1.88419E+01 0.00000E+00
 -1      3942 6.57240E+01 2.01409E+01 0.00000E+00
 -1      3943 6.87240E+01 2.01409E+01 0.00000E+00
 -1      3944 3.87070E+01 2.39149E+01 0.00000E+00
 -1      3945 3.75620E+01 2.53511E+01 0.00000E+00
 -1      3946 4.18483E+01 1.95638E+01 0.00000E+00
 -1      3947 1.74178E+01 3.08456E+01 0.00000E+00
 -1      3948 3.41090E+01 2.97129E+01 0.00000E+00
 -1      3949 5.89740E+01 1.88419E+01 0.00000E+00
 -1      3950 5.74740E+01 1.88419E+01 0.00000E+00
 -1      3951 5.67240E+01 2.01409E+01 0.00000E+00
 -1      3952 3.78687E+01 2.68680E+01 0.00000E+00
 -1      3953 1.96434E+01 3.06181E+01 0.00000E+00
 -1      3954 5.07240E+01 2.01409E+01 0.00000E+00
 -1      3955 4.99740E+01 1.88419E+01 0.00000E+00
 -1      3956 4.84740E+01 1.88419E+01 0.00000E+00
 -1      3957 1.85428E+01 3.09336E+01 0.00000E+00
 -1      3958 4.70869E+01 1.88643E+01 0.00000E+00
 -1      3959 4.55869E+01 1.88643E+01 0.00000E+00
 -1      3960 4.50627E+01 2.02082E+01 0.00000E+00
 -1      3961 4.78369E+01 2.01633E+01 0.00000E+00
 -1      3962 6.19740E+01 1.88419E+01 0.00000E+00
 -1      3963 6.04740E+01 1.88419E+01 0.00000E+00
 -1      3964 6.27240E+01 2.01409E+01 0.00000E+00
 -1      3965 4.03065E+01 2.36266E+01 0.00000E+00
 -1      3966 1.30426E+02 2.47944E+01 0.00000E+00
 -1      3967 1.30426E+02 2.33257E+01 0.00000E+00
 -1      3968 1.31714E+02 2.11094E+01 0.00000E+00
 -1      3969 1.32959E+02 2.04136E+01 0.00000E+00
 -1      3970 3.27562E+01 3.07720E+01 0.00000E+00
 -1      3971 1.31112E+02 2.71940E+01 0.00000E+00
 -1      3972 4.25693E+01 2.10205E+01 0.00000E+00
 -1      3973 1.28175E+02 2.21005E+01 0.00000E+00
 -1      3974 1.29474E+02 2.13661E+01 0.00000E+00
 -1      3975 1.29463E+02 1.98842E+01 0.00000E+00
 -1      3976 1.29178E+02 2.75179E+01 0.00000E+00
 -1      3977 1.29791E+02 2.58527E+01 0.00000E+00
 -1      3978 1.28492E+02 2.51183E+01 0.00000E+00
 -1      3979 1.27222E+02 2.72349E+01 0.00000E+00
 -1      3980 1.32948E+02 1.91960E+01 0.00000E+00
 -1      3981 1.31581E+02 1.88906E+01 0.00000E+00
 -1      3982 1.29341E+02 1.91473E+01 0.00000E+00
 -1      3983 4.33372E+01 2.69942E+01 0.00000E+00
 -1      3984 4.48372E+01 2.69942E+01 0.00000E+00
 -1      3985 4.63372E+01 2.69942E+01 0.00000E+00
 -1      3986 4.78372E+01 2.69942E+01 0.00000E+00
 -1      3987 4.55872E+01 2.56952E+01 0.00000E+00
 -1      3988 4.93372E+01 2.69942E+01 0.00000E+00
 -1      3989 5.08372E+01 2.69942E+01 0.00000E+00
 -1      3990 4.85872E+01 2.56952E+01 0.00000E+00
 -1      3991 5.23372E+01 2.69942E+01 0.00000E+00
 -1      3992 5.38372E+01 2.69942E+01 0.00000E+00
 -1      3993 5.15872E+01 2.56952E+01 0.00000E+00
 -1      3994 5.53372E+01 2.69942E+01 0.00000E+00
 -1      3995 5.68372E+01 2.69942E+01 0.00000E+00
 -1      3996 5.45872E+01 2.56952E+01 0.00000E+00
 -1      3997 5.83372E+01 2.69942E+01 0.00000E+00
 -1      3998 5.98372E+01 2.69942E+01 0.00000E+00
 -1      3999 5.75872E+01 2.56952E+01 0.00000E+00
 -1      4000 6.13372E+01 2.69942E+01 0.00000E+00
 -1      4001 6.28372E+01 2.69942E+01 0.00000E+00
 -1      4002 6.05872E+01 2.56952E+01 0.00000E+00
 -1      4003 6.43372E+01 2.69942E+01 0.00000E+00
 -1      4004 6.58372E+01 2.69942E+01 0.00000E+00
 -1      4005 6.35872E+01 2.56952E+01 0.00000E+00
 -1      4006 6.73372E+01 2.69942E+01 0.00000E+00
 -1      4007 6.88372E+01 2.69942E+01 0.00000E+00
 -1      4008 6.65872E+01 2.56952E+01 0.00000E+00
 -1      4009 7.03372E+01 2.69942E+01 0.00000E+00
 -1      4010 7.18372E+01 2.69942E+01 0.00000E+00
 -1      4011 6.95872E+01 2.56952E+01 0.00000E+00
 -1      4012 7.33372E+01 2.69942E+01 0.00000E+00
 -1      4013 7.48372E+01 2.69942E+01 0.00000E+00
 -1      4014 7.25872E+01 2.56952E+01 0.00000E+00
 -1      4015 7.63372E+01 2.69942E+01 0.00000E+00
 -1      4016 7.78372E+01 2.69942E+01 0.00000E+00
 -1      4017 7.55872E+01 2.56952E+01 0.00000E+00
 -1      4018 7.93372E+01 2.69942E+01 0.00000E+00
 -1      4019 8.08372E+01 2.69942E+01 0.00000E+00
 -1      4020 7.85872E+01 2.56952E+01 0.00000E+00
 -1      4021 8.23372E+01 2.69942E+01 0.00000E+00
 -1      4022 8.38372E+01 2.69942E+01 0.00000E+00
 -1      4023 8.15872E+01 2.56952E+01 0.00000E+00
 -1      4024 8.53372E+01 2.69942E+01 0.00000E+00
 -1      4025 8.68372E+01 2.69942E+01 0.00000E+00
 -1      4026 8.45872E+01 2.56952E+01 0.00000E+00
 -1      4027 8.83372E+01 2.69942E+01 0.00000E+00
 -1      4028 8.98372E+01 2.69942E+01 0.00000E+00
 -1      4029 8.75872E+01 2.56952E+01 0.00000E+00
 -1      4030 9.13372E+01 2.69942E+01 0.00000E+00
 -1      4031 9.28372E+01 2.69942E+01 0.00000E+00
 -1      4032 9.05872E+01 2.56952E+01 0.00000E+00
 -1      4033 9.43372E+01 2.69942E+01 0.00000E+00
 -1      4034 9.58372E+01 2.69942E+01 0.00000E+00
 -1      4035 9.35872E+01 2.56952E+01 0.00000E+00
 -1      4036 9.73372E+01 2.69942E+01 0.00000E+00
 -1      4037 9.88372E+01 2.69942E+01 0.00000E+00
 -1      4038 9.65872E+01 2.56952E+01 0.00000E+00
 -1      4039 1.00337E+02 2.69942E+01 0.00000E+00
 -1      4040 1.01837E+02 2.69942E+01 0.00000E+00
 -1      4041 9.95872E+01 2.56952E+01 0.00000E+00
 -1      4042 1.03337E+02 2.69942E+01 0.00000E+00
 -1      4043 1.04837E+02 2.69942E+01 0.00000E+00
 -1      4044 1.02587E+02 2.56952E+01 0.00000E+00
 -1      4045 1.06337E+02 2.69942E+01 0.00000E+00
 -1      4046 1.07837E+02 2.69942E+01 0.00000E+00
 -1      4047 1.05587E+02 2.56952E+01 0.00000E+00
 -1      4048 1.09337E+02 2.69942E+01 0.00000E+00
 -1      4049 1.10837E+02 2.69942E+01 0.00000E+00
 -1      4050 1.08587E+02 2.56952E+01 0.00000E+00
 -1      4051 1.12337E+02 2.69942E+01 0.00000E+00
 -1      4052 1.13837E+02 2.69942E+01 0.00000E+00
 -1      4053 1.11587E+02 2.56952E+01 0.00000E+00
 -1      4054 1.15337E+02 2.69942E+01 0.00000E+00
 -1      4055 1.16837E+02 2.69942E+01 0.00000E+00
 -1      4056 1.14587E+02 2.56952E+01 0.00000E+00
 -1      4057 1.18337E+02 2.69942E+01 0.00000E+00
 -1      4058 1.19837E+02 2.69942E+01 0.00000E+00
 -1      4059 1.17587E+02 2.56952E+01 0.00000E+00
 -1      4060 1.21337E+02 2.69942E+01 0.00000E+00
 -1      4061 1.22837E+02 2.69942E+01 0.00000E+00
 -1      4062 1.20587E+02 2.56952E+01 0.00000E+00
 -1      4063 1.24337E+02 2.69942E+01 0.00000E+00
 -1      4064 1.25837E+02 2.69942E+01 0.00000E+00
 -1      4065 1.23587E+02 2.56952E+01 0.00000E+00
 -1      4066 7.54740E+01 2.14399E+01 0.00000E+00
 -1      4067 7.39740E+01 2.14399E+01 0.00000E+00
 -1      4068 7.24740E+01 2.14399E+01 0.00000E+00
 -1      4069 7.09740E+01 2.14399E+01 0.00000E+00
 -1      4070 7.32240E+01 2.27389E+01 0.00000E+00
 -1      4071 8.14740E+01 2.14399E+01 0.00000E+00
 -1      4072 7.99740E+01 2.14399E+01 0.00000E+00
 -1      4073 8.44740E+01 2.14399E+01 0.00000E+00
 -1      4074 8.29740E+01 2.14399E+01 0.00000E+00
 -1      4075 8.22240E+01 2.27389E+01 0.00000E+00
 -1      4076 8.74740E+01 2.14399E+01 0.00000E+00
 -1      4077 8.59740E+01 2.14399E+01 0.00000E+00
 -1      4078 8.52240E+01 2.27389E+01 0.00000E+00
 -1      4079 9.04740E+01 2.14399E+01 0.00000E+00
 -1      4080 8.89740E+01 2.14399E+01 0.00000E+00
 -1      4081 8.82240E+01 2.27389E+01 0.00000E+00
 -1      4082 9.34740E+01 2.14399E+01 0.00000E+00
 -1      4083 9.19740E+01 2.14399E+01 0.00000E+00
 -1      4084 9.12240E+01 2.27389E+01 0.00000E+00
 -1      4085 9.64740E+01 2.14399E+01 0.00000E+00
 -1      4086 9.49740E+01 2.14399E+01 0.00000E+00
 -1      4087 9.42240E+01 2.27389E+01 0.00000E+00
 -1      4088 9.94740E+01 2.14399E+01 0.00000E+00
 -1      4089 9.79740E+01 2.14399E+01 0.00000E+00
 -1      4090 9.72240E+01 2.27389E+01 0.00000E+00
 -1      4091 1.02474E+02 2.14399E+01 0.00000E+00
 -1      4092 1.00974E+02 2.14399E+01 0.00000E+00
 -1      4093 1.00224E+02 2.27389E+01 0.00000E+00
 -1      4094 1.05474E+02 2.14399E+01 0.00000E+00
 -1      4095 1.03974E+02 2.14399E+01 0.00000E+00
 -1      4096 1.03224E+02 2.27389E+01 0.00000E+00
 -1      4097 1.08474E+02 2.14399E+01 0.00000E+00
 -1      4098 1.06974E+02 2.14399E+01 0.00000E+00
 -1      4099 1.06224E+02 2.27389E+01 0.00000E+00
 -1      4100 1.11474E+02 2.14399E+01 0.00000E+00
 -1      4101 1.09974E+02 2.14399E+01 0.00000E+00
 -1      4102 1.09224E+02 2.27389E+01 0.00000E+00
 -1      4103 1.14474E+02 2.14399E+01 0.00000E+00
 -1      4104 1.12974E+02 2.14399E+01 0.00000E+00
 -1      4105 1.12224E+02 2.27389E+01 0.00000E+00
 -1      4106 1.17474E+02 2.14399E+01 0.00000E+00
 -1      4107 1.15974E+02 2.14399E+01 0.00000E+00
 -1      4108 1.15224E+02 2.27389E+01 0.00000E+00
 -1      4109 1.20474E+02 2.14399E+01 0.00000E+00
 -1      4110 1.18974E+02 2.14399E+01 0.00000E+00
 -1      4111 1.18224E+02 2.27389E+01 0.00000E+00
 -1      4112 1.23474E+02 2.14399E+01 0.00000E+00
 -1      4113 1.21974E+02 2.14399E+01 0.00000E+00
 -1      4114 1.21224E+02 2.27389E+01 0.00000E+00
 -1      4115 1.26575E+02 2.17702E+01 0.00000E+00
 -1      4116 1.25075E+02 2.17702E+01 0.00000E+00
 -1      4117 1.24325E+02 2.30692E+01 0.00000E+00
 -1      4118 1.27526E+02 2.37298E+01 0.00000E+00
 -1      4119 3.93687E+01 2.68680E+01 0.00000E+00
 -1      4120 5.44740E+01 2.14399E+01 0.00000E+00
 -1      4121 5.29740E+01 2.14399E+01 0.00000E+00
 -1      4122 4.38772E+01 2.16828E+01 0.00000E+00
 -1      4123 4.27708E+01 2.24727E+01 0.00000E+00
 -1      4124 4.16479E+01 2.37622E+01 0.00000E+00
 -1      4125 4.04916E+01 2.55785E+01 0.00000E+00
 -1      4126 4.07101E+01 2.70037E+01 0.00000E+00
 -1      4127 4.29558E+01 2.44246E+01 0.00000E+00
 -1      4128 7.84740E+01 2.14399E+01 0.00000E+00
 -1      4129 7.69740E+01 2.14399E+01 0.00000E+00
 -1      4130 7.62240E+01 2.27389E+01 0.00000E+00
 -1      4131 7.92240E+01 2.27389E+01 0.00000E+00
 -1      4132 5.97240E+01 2.01409E+01 0.00000E+00
 -1      4133 5.14740E+01 2.14399E+01 0.00000E+00
 -1      4134 4.99740E+01 2.14399E+01 0.00000E+00
 -1      4135 5.22240E+01 2.27389E+01 0.00000E+00
 -1      4136 5.74740E+01 2.14399E+01 0.00000E+00
 -1      4137 5.59740E+01 2.14399E+01 0.00000E+00
 -1      4138 5.52240E+01 2.27389E+01 0.00000E+00
 -1      4139 6.64740E+01 2.14399E+01 0.00000E+00
 -1      4140 6.49740E+01 2.14399E+01 0.00000E+00
 -1      4141 4.22101E+01 2.70037E+01 0.00000E+00
 -1      4142 1.26472E+02 2.59359E+01 0.00000E+00
 -1      4143 1.26891E+02 2.47880E+01 0.00000E+00
 -1      4144 4.52643E+01 2.16604E+01 0.00000E+00
 -1      4145 6.42240E+01 2.27389E+01 0.00000E+00
 -1      4146 6.34740E+01 2.14399E+01 0.00000E+00
 -1      4147 6.19740E+01 2.14399E+01 0.00000E+00
 -1      4148 6.94740E+01 2.14399E+01 0.00000E+00
 -1      4149 6.79740E+01 2.14399E+01 0.00000E+00
 -1      4150 6.72240E+01 2.27389E+01 0.00000E+00
 -1      4151 7.02240E+01 2.27389E+01 0.00000E+00
 -1      4152 4.29601E+01 2.57047E+01 0.00000E+00
 -1      4153 4.78372E+01 2.43962E+01 0.00000E+00
 -1      4154 4.93372E+01 2.43962E+01 0.00000E+00
 -1      4155 5.04056E+01 2.42170E+01 0.00000E+00
 -1      4156 5.19056E+01 2.42170E+01 0.00000E+00
 -1      4157 5.34056E+01 2.42170E+01 0.00000E+00
 -1      4158 5.49056E+01 2.42170E+01 0.00000E+00
 -1      4159 5.64056E+01 2.42170E+01 0.00000E+00
 -1      4160 5.79056E+01 2.42170E+01 0.00000E+00
 -1      4161 5.98372E+01 2.43962E+01 0.00000E+00
 -1      4162 6.13372E+01 2.43962E+01 0.00000E+00
 -1      4163 6.24056E+01 2.42170E+01 0.00000E+00
 -1      4164 6.39056E+01 2.42170E+01 0.00000E+00
 -1      4165 6.54056E+01 2.42170E+01 0.00000E+00
 -1      4166 6.69056E+01 2.42170E+01 0.00000E+00
 -1      4167 6.84056E+01 2.42170E+01 0.00000E+00
 -1      4168 6.99056E+01 2.42170E+01 0.00000E+00
 -1      4169 7.14056E+01 2.42170E+01 0.00000E+00
 -1      4170 7.29056E+01 2.42170E+01 0.00000E+00
 -1      4171 7.44056E+01 2.42170E+01 0.00000E+00
 -1      4172 7.59056E+01 2.42170E+01 0.00000E+00
 -1      4173 7.74056E+01 2.42170E+01 0.00000E+00
 -1      4174 7.89056E+01 2.42170E+01 0.00000E+00
 -1      4175 8.04056E+01 2.42170E+01 0.00000E+00
 -1      4176 8.19056E+01 2.42170E+01 0.00000E+00
 -1      4177 8.34056E+01 2.42170E+01 0.00000E+00
 -1      4178 8.49056E+01 2.42170E+01 0.00000E+00
 -1      4179 8.64056E+01 2.42170E+01 0.00000E+00
 -1      4180 8.79056E+01 2.42170E+01 0.00000E+00
 -1      4181 8.94056E+01 2.42170E+01 0.00000E+00
 -1      4182 9.09056E+01 2.42170E+01 0.00000E+00
 -1      4183 9.24056E+01 2.42170E+01 0.00000E+00
 -1      4184 9.39056E+01 2.42170E+01 0.00000E+00
 -1      4185 9.54056E+01 2.42170E+01 0.00000E+00
 -1      4186 9.69056E+01 2.42170E+01 0.00000E+00
 -1      4187 9.84056E+01 2.42170E+01 0.00000E+00
 -1      4188 9.99056E+01 2.42170E+01 0.00000E+00
 -1      4189 1.01406E+02 2.42170E+01 0.00000E+00
 -1      4190 1.02906E+02 2.42170E+01 0.00000E+00
 -1      4191 1.04406E+02 2.42170E+01 0.00000E+00
 -1      4192 1.05906E+02 2.42170E+01 0.00000E+00
 -1      4193 1.07406E+02 2.42170E+01 0.00000E+00
 -1      4194 1.08906E+02 2.42170E+01 0.00000E+00
 -1      4195 1.10406E+02 2.42170E+01 0.00000E+00
 -1      4196 1.11906E+02 2.42170E+01 0.00000E+00
 -1      4197 1.13406E+02 2.42170E+01 0.00000E+00
 -1      4198 1.14906E+02 2.42170E+01 0.00000E+00
 -1      4199 1.16406E+02 2.42170E+01 0.00000E+00
 -1      4200 1.17906E+02 2.42170E+01 0.00000E+00
 -1      4201 1.19406E+02 2.42170E+01 0.00000E+00
 -1      4202 1.20906E+02 2.42170E+01 0.00000E+00
 -1      4203 1.22406E+02 2.42170E+01 0.00000E+00
 -1      4204 1.23906E+02 2.42170E+01 0.00000E+00
 -1      4205 4.40829E+01 2.44151E+01 0.00000E+00
 -1      4206 4.89056E+01 2.16190E+01 0.00000E+00
 -1      4207 4.75185E+01 2.16415E+01 0.00000E+00
 -1      4208 4.55829E+01 2.44151E+01 0.00000E+00
 -1      4209 4.63329E+01 2.31161E+01 0.00000E+00
 -1      4210 1.25506E+02 2.45473E+01 0.00000E+00
 -1      4211 6.09056E+01 2.16190E+01 0.00000E+00
 -1      4212 5.94056E+01 2.16190E+01 0.00000E+00
 -1      4213 5.86556E+01 2.29180E+01 0.00000E+00
 -1      4214 4.96556E+01 2.29180E+01 0.00000E+00
 -1      4215 6.16556E+01 2.29180E+01 0.00000E+00
 -3
    3C                          2025                                     1
 -1       166    8    0    1
 -2         6         7        23      1096      1261      1113
 -1       167    8    0    1
 -2         7         8       166      1097      1262      1263
 -1       168    8    0    1
 -2         8         9       167      1098      1264      1265
 -1       169    8    0    1
 -2         8       167       166      1265      1266      1262
 -1       170    8    0    1
 -2         9        10       168      1099      1267      1268
 -1       171    8    0    1
 -2         9       168       167      1268      1269      1264
 -1       172    8    0    1
 -2        10        11       169      1100      1270      1271
 -1       173    8    0    1
 -2        10       169       168      1271      1272      1267
 -1       174    8    0    1
 -2        11        12       170      1101      1273      1274
 -1       175    8    0    1
 -2        11       170       169      1274      1275      1270
 -1       176    8    0    1
 -2        12        13       171      1102      1276      1277
 -1       177    8    0    1
 -2        12       171       170      1277      1278      1273
 -1       178    8    0    1
 -2        13        14       172      1103      1279      1280
 -1       179    8    0    1
 -2        13       172       171      1280      1281      1276
 -1       180    8    0    1
 -2        14        15       173      1104      1282      1283
 -1       181    8    0    1
 -2        14       173       172      1283      1284      1279
 -1       182    8    0    1
 -2        15        16       174      1105      1285      1286
 -1       183    8    0    1
 -2        15       174       173      1286      1287      1282
 -1       184    8    0    1
 -2        16        17       175      1106      1288      1289
 -1       185    8    0    1
 -2        16       175       174      1289      1290      1285
 -1       186    8    0    1
 -2        17        18       176      1107      1291      1292
 -1       187    8    0    1
 -2        17       176       175      1292      1293      1288
 -1       188    8    0    1
 -2        18        19       177      1108      1294      1295
 -1       189    8    0    1
 -2        18       177       176      1295      1296      1291
 -1       190    8    0    1
 -2        19        20       178      1109      1297      1298
 -1       191    8    0    1
 -2        19       178       177      1298      1299      1294
 -1       192    8    0    1
 -2        20        21       179      1110      1300      1301
 -1       193    8    0    1
 -2        20       179       178      1301      1302      1297
 -1       194    8    0    1
 -2        21        22       180      1111      1303      1304
 -1       195    8    0    1
 -2        21       180       179      1304      1305      1300
 -1       196    8    0    1
 -2        22         5       181      1112      1306      1307
 -1       197    8    0    1
 -2       180        22       181      1303      1307      1308
 -1       198    8    0    1
 -2         5        72       181      1163      1309      1306
 -1       199    8    0    1
 -2        24        23       182      1114      1310      1311
 -1       200    8    0    1
 -2        25        24       183      1115      1312      1313
 -1       201    8    0    1
 -2        24       182       183      1311      1314      1312
 -1       202    8    0    1
 -2        26        25       184      1116      1315      1316
 -1       203    8    0    1
 -2        25       183       184      1313      1317      1315
 -1       204    8    0    1
 -2        27        26       185      1117      1318      1319
 -1       205    8    0    1
 -2        26       184       185      1316      1320      1318
 -1       206    8    0    1
 -2        28        27       186      1118      1321      1322
 -1       207    8    0    1
 -2        27       185       186      1319      1323      1321
 -1       208    8    0    1
 -2        29        28       187      1119      1324      1325
 -1       209    8    0    1
 -2        28       186       187      1322      1326      1324
 -1       210    8    0    1
 -2        30        29       188      1120      1327      1328
 -1       211    8    0    1
 -2        29       187       188      1325      1329      1327
 -1       212    8    0    1
 -2        31        30       189      1121      1330      1331
 -1       213    8    0    1
 -2        30       188       189      1328      1332      1330
 -1       214    8    0    1
 -2        32        31       190      1122      1333      1334
 -1       215    8    0    1
 -2        31       189       190      1331      1335      1333
 -1       216    8    0    1
 -2        33        32       191      1123      1336      1337
 -1       217    8    0    1
 -2        32       190       191      1334      1338      1336
 -1       218    8    0    1
 -2        34        33       192      1124      1339      1340
 -1       219    8    0    1
 -2        33       191       192      1337      1341      1339
 -1       220    8    0    1
 -2        35        34       193      1125      1342      1343
 -1       221    8    0    1
 -2        34       192       193      1340      1344      1342
 -1       222    8    0    1
 -2        36        35       194      1126      1345      1346
 -1       223    8    0    1
 -2        35       193       194      1343      1347      1345
 -1       224    8    0    1
 -2        37        36       195      1127      1348      1349
 -1       225    8    0    1
 -2        36       194       195      1346      1350      1348
 -1       226    8    0    1
 -2        38        37       196      1128      1351      1352
 -1       227    8    0    1
 -2        37       195       196      1349      1353      1351
 -1       228    8    0    1
 -2        39        38       197      1129      1354      1355
 -1       229    8    0    1
 -2        38       196       197      1352      1356      1354
 -1       230    8    0    1
 -2        40        39       198      1130      1357      1358
 -1       231    8    0    1
 -2        39       197       198      1355      1359      1357
 -1       232    8    0    1
 -2        41        40       199      1131      1360      1361
 -1       233    8    0    1
 -2        40       198       199      1358      1362      1360
 -1       234    8    0    1
 -2        42        41       200      1132      1363      1364
 -1       235    8    0    1
 -2        41       199       200      1361      1365      1363
 -1       236    8    0    1
 -2        43        42       201      1133      1366      1367
 -1       237    8    0    1
 -2        42       200       201      1364      1368      1366
 -1       238    8    0    1
 -2        44        43       202      1134      1369      1370
 -1       239    8    0    1
 -2        43       201       202      1367      1371      1369
 -1       240    8    0    1
 -2        45        44       203      1135      1372      1373
 -1       241    8    0    1
 -2        44       202       203      1370      1374      1372
 -1       242    8    0    1
 -2        46        45       204      1136      1375      1376
 -1       243    8    0    1
 -2        45       203       204      1373      1377      1375
 -1       244    8    0    1
 -2        47        46       205      1137      1378      1379
 -1       245    8    0    1
 -2        46       204       205      1376      1380      1378
 -1       246    8    0    1
 -2        48        47       206      1138      1381      1382
 -1       247    8    0    1
 -2        47       205       206      1379      1383      1381
 -1       248    8    0    1
 -2        49        48       207      1139      1384      1385
 -1       249    8    0    1
 -2        48       206       207      1382      1386      1384
 -1       250    8    0    1
 -2        50        49       208      1140      1387      1388
 -1       251    8    0    1
 -2        49       207       208      1385      1389      1387
 -1       252    8    0    1
 -2        51        50       209      1141      1390      1391
 -1       253    8    0    1
 -2        50       208       209      1388      1392      1390
 -1       254    8    0    1
 -2        52        51       210      1142      1393      1394
 -1       255    8    0    1
 -2        51       209       210      1391      1395      1393
 -1       256    8    0    1
 -2        53        52       211      1143      1396      1397
 -1       257    8    0    1
 -2        52       210       211      1394      1398      1396
 -1       258    8    0    1
 -2        54        53       212      1144      1399      1400
 -1       259    8    0    1
 -2        53       211       212      1397      1401      1399
 -1       260    8    0    1
 -2        55        54       213      1145      1402      1403
 -1       261    8    0    1
 -2        54       212       213      1400      1404      1402
 -1       262    8    0    1
 -2        56        55       214      1146      1405      1406
 -1       263    8    0    1
 -2        55       213       214      1403      1407      1405
 -1       264    8    0    1
 -2        57        56       215      1147      1408      1409
 -1       265    8    0    1
 -2        56       214       215      1406      1410      1408
 -1       266    8    0    1
 -2        58        57       216      1148      1411      1412
 -1       267    8    0    1
 -2        57       215       216      1409      1413      1411
 -1       268    8    0    1
 -2        59        58       217      1149      1414      1415
 -1       269    8    0    1
 -2        58       216       217      1412      1416      1414
 -1       270    8    0    1
 -2        60        59       218      1150      1417      1418
 -1       271    8    0    1
 -2        59       217       218      1415      1419      1417
 -1       272    8    0    1
 -2        61        60       219      1151      1420      1421
 -1       273    8    0    1
 -2        60       218       219      1418      1422      1420
 -1       274    8    0    1
 -2        62        61       220      1152      1423      1424
 -1       275    8    0    1
 -2        61       219       220      1421      1425      1423
 -1       276    8    0    1
 -2        63        62       221      1153      1426      1427
 -1       277    8    0    1
 -2        62       220       221      1424      1428      1426
 -1       278    8    0    1
 -2        64        63       222      1154      1429      1430
 -1       279    8    0    1
 -2        63       221       222      1427      1431      1429
 -1       280    8    0    1
 -2        65        64       223      1155      1432      1433
 -1       281    8    0    1
 -2        64       222       223      1430      1434      1432
 -1       282    8    0    1
 -2        66        65       224      1156      1435      1436
 -1       283    8    0    1
 -2        65       223       224      1433      1437      1435
 -1       284    8    0    1
 -2        67        66       225      1157      1438      1439
 -1       285    8    0    1
 -2        66       224       225      1436      1440      1438
 -1       286    8    0    1
 -2        68        67       226      1158      1441      1442
 -1       287    8    0    1
 -2        67       225       226      1439      1443      1441
 -1       288    8    0    1
 -2        69        68       227      1159      1444      1445
 -1       289    8    0    1
 -2        68       226       227      1442      1446      1444
 -1       290    8    0    1
 -2        70        69       228      1160      1447      1448
 -1       291    8    0    1
 -2        69       227       228      1445      1449      1447
 -1       292    8    0    1
 -2        71        70       229      1161      1450      1451
 -1       293    8    0    1
 -2        70       228       229      1448      1452      1450
 -1       294    8    0    1
 -2         4        71       137      1162      1453      1230
 -1       295    8    0    1
 -2       137        71       229      1453      1451      1454
 -1       296    8    0    1
 -2        72        73       230      1164      1455      1456
 -1       297    8    0    1
 -2        72       230       181      1456      1457      1309
 -1       298    8    0    1
 -2        73        74       231      1165      1458      1459
 -1       299    8    0    1
 -2        73       231       230      1459      1460      1455
 -1       300    8    0    1
 -2        74        75       232      1166      1461      1462
 -1       301    8    0    1
 -2        74       232       231      1462      1463      1458
 -1       302    8    0    1
 -2        75        76       233      1167      1464      1465
 -1       303    8    0    1
 -2        75       233       232      1465      1466      1461
 -1       304    8    0    1
 -2        76        77       234      1168      1467      1468
 -1       305    8    0    1
 -2        76       234       233      1468      1469      1464
 -1       306    8    0    1
 -2        77        78       235      1169      1470      1471
 -1       307    8    0    1
 -2        77       235       234      1471      1472      1467
 -1       308    8    0    1
 -2        78        79       236      1170      1473      1474
 -1       309    8    0    1
 -2        78       236       235      1474      1475      1470
 -1       310    8    0    1
 -2        79        80       237      1171      1476      1477
 -1       311    8    0    1
 -2        79       237       236      1477      1478      1473
 -1       312    8    0    1
 -2        80        81       238      1172      1479      1480
 -1       313    8    0    1
 -2        80       238       237      1480      1481      1476
 -1       314    8    0    1
 -2        81        82       239      1173      1482      1483
 -1       315    8    0    1
 -2        81       239       238      1483      1484      1479
 -1       316    8    0    1
 -2        82        83       240      1174      1485      1486
 -1       317    8    0    1
 -2        82       240       239      1486      1487      1482
 -1       318    8    0    1
 -2        83        84       241      1175      1488      1489
 -1       319    8    0    1
 -2        83       241       240      1489      1490      1485
 -1       320    8    0    1
 -2        84        85       242      1176      1491      1492
 -1       321    8    0    1
 -2        84       242       241      1492      1493      1488
 -1       322    8    0    1
 -2        85        86       243      1177      1494      1495
 -1       323    8    0    1
 -2        85       243       242      1495      1496      1491
 -1       324    8    0    1
 -2        86        87       244      1178      1497      1498
 -1       325    8    0    1
 -2        86       244       243      1498      1499      1494
 -1       326    8    0    1
 -2        87        88       245      1179      1500      1501
 -1       327    8    0    1
 -2        87       245       244      1501      1502      1497
 -1       328    8    0    1
 -2        88        89       246      1180      1503      1504
 -1       329    8    0    1
 -2        88       246       245      1504      1505      1500
 -1       330    8    0    1
 -2        89        90       247      1181      1506      1507
 -1       331    8    0    1
 -2        89       247       246      1507      1508      1503
 -1       332    8    0    1
 -2        90        91       248      1182      1509      1510
 -1       333    8    0    1
 -2        90       248       247      1510      1511      1506
 -1       334    8    0    1
 -2        91        92       249      1183      1512      1513
 -1       335    8    0    1
 -2        91       249       248      1513      1514      1509
 -1       336    8    0    1
 -2        92        93       250      1184      1515      1516
 -1       337    8    0    1
 -2        92       250       249      1516      1517      1512
 -1       338    8    0    1
 -2        93        94       251      1185      1518      1519
 -1       339    8    0    1
 -2        93       251       250      1519      1520      1515
 -1       340    8    0    1
 -2        94        95       252      1186      1521      1522
 -1       341    8    0    1
 -2        94       252       251      1522      1523      1518
 -1       342    8    0    1
 -2        95        96       253      1187      1524      1525
 -1       343    8    0    1
 -2        95       253       252      1525      1526      1521
 -1       344    8    0    1
 -2        96        97       254      1188      1527      1528
 -1       345    8    0    1
 -2        96       254       253      1528      1529      1524
 -1       346    8    0    1
 -2        97        98       255      1189      1530      1531
 -1       347    8    0    1
 -2        97       255       254      1531      1532      1527
 -1       348    8    0    1
 -2        98        99       256      1190      1533      1534
 -1       349    8    0    1
 -2        98       256       255      1534      1535      1530
 -1       350    8    0    1
 -2        99       100       257      1191      1536      1537
 -1       351    8    0    1
 -2        99       257       256      1537      1538      1533
 -1       352    8    0    1
 -2       100       101       258      1192      1539      1540
 -1       353    8    0    1
 -2       100       258       257      1540      1541      1536
 -1       354    8    0    1
 -2       101       102       259      1193      1542      1543
 -1       355    8    0    1
 -2       101       259       258      1543      1544      1539
 -1       356    8    0    1
 -2       102       103       260      1194      1545      1546
 -1       357    8    0    1
 -2       102       260       259      1546      1547      1542
 -1       358    8    0    1
 -2       103       104       261      1195      1548      1549
 -1       359    8    0    1
 -2       103       261       260      1549      1550      1545
 -1       360    8    0    1
 -2       104       105       262      1196      1551      1552
 -1       361    8    0    1
 -2       104       262       261      1552      1553      1548
 -1       362    8    0    1
 -2       105       106       263      1197      1554      1555
 -1       363    8    0    1
 -2       105       263       262      1555      1556      1551
 -1       364    8    0    1
 -2       106       107       264      1198      1557      1558
 -1       365    8    0    1
 -2       106       264       263      1558      1559      1554
 -1       366    8    0    1
 -2       107       108       265      1199      1560      1561
 -1       367    8    0    1
 -2       107       265       264      1561      1562      1557
 -1       368    8    0    1
 -2       108       109       266      1200      1563      1564
 -1       369    8    0    1
 -2       108       266       265      1564      1565      1560
 -1       370    8    0    1
 -2       109       110       267      1201      1566      1567
 -1       371    8    0    1
 -2       109       267       266      1567      1568      1563
 -1       372    8    0    1
 -2       110       111       268      1202      1569      1570
 -1       373    8    0    1
 -2       110       268       267      1570      1571      1566
 -1       374    8    0    1
 -2       111       112       269      1203      1572      1573
 -1       375    8    0    1
 -2       111       269       268      1573      1574      1569
 -1       376    8    0    1
 -2       112       113       270      1204      1575      1576
 -1       377    8    0    1
 -2       112       270       269      1576      1577      1572
 -1       378    8    0    1
 -2       113       114       271      1205      1578      1579
 -1       379    8    0    1
 -2       113       271       270      1579      1580      1575
 -1       380    8    0    1
 -2       114       115       272      1206      1581      1582
 -1       381    8    0    1
 -2       114       272       271      1582      1583      1578
 -1       382    8    0    1
 -2       115       116       273      1207      1584      1585
 -1       383    8    0    1
 -2       115       273       272      1585      1586      1581
 -1       384    8    0    1
 -2       116       117       274      1208      1587      1588
 -1       385    8    0    1
 -2       116       274       273      1588      1589      1584
 -1       386    8    0    1
 -2       117       118       275      1209      1590      1591
 -1       387    8    0    1
 -2       117       275       274      1591      1592      1587
 -1       388    8    0    1
 -2       118       119       276      1210      1593      1594
 -1       389    8    0    1
 -2       118       276       275      1594      1595      1590
 -1       390    8    0    1
 -2       119       120       277      1211      1596      1597
 -1       391    8    0    1
 -2       119       277       276      1597      1598      1593
 -1       392    8    0    1
 -2       120       121       278      1212      1599      1600
 -1       393    8    0    1
 -2       120       278       277      1600      1601      1596
 -1       394    8    0    1
 -2       121         3       122      1213      1214      1602
 -1       395    8    0    1
 -2       122       123       279      1215      1603      1604
 -1       396    8    0    1
 -2       123       124       280      1216      1605      1606
 -1       397    8    0    1
 -2       123       280       279      1606      1607      1603
 -1       398    8    0    1
 -2       124       125       281      1217      1608      1609
 -1       399    8    0    1
 -2       124       281       280      1609      1610      1605
 -1       400    8    0    1
 -2       125       126       282      1218      1611      1612
 -1       401    8    0    1
 -2       125       282       281      1612      1613      1608
 -1       402    8    0    1
 -2       126       127       283      1219      1614      1615
 -1       403    8    0    1
 -2       126       283       282      1615      1616      1611
 -1       404    8    0    1
 -2       127       128       284      1220      1617      1618
 -1       405    8    0    1
 -2       127       284       283      1618      1619      1614
 -1       406    8    0    1
 -2       128       129       285      1221      1620      1621
 -1       407    8    0    1
 -2       128       285       284      1621      1622      1617
 -1       408    8    0    1
 -2       129       130       286      1222      1623      1624
 -1       409    8    0    1
 -2       129       286       285      1624      1625      1620
 -1       410    8    0    1
 -2       130       131       287      1223      1626      1627
 -1       411    8    0    1
 -2       130       287       286      1627      1628      1623
 -1       412    8    0    1
 -2       131       132       288      1224      1629      1630
 -1       413    8    0    1
 -2       131       288       287      1630      1631      1626
 -1       414    8    0    1
 -2       132       133       289      1225      1632      1633
 -1       415    8    0    1
 -2       132       289       288      1633      1634      1629
 -1       416    8    0    1
 -2       133       134       290      1226      1635      1636
 -1       417    8    0    1
 -2       133       290       289      1636      1637      1632
 -1       418    8    0    1
 -2       134       135       291      1227      1638      1639
 -1       419    8    0    1
 -2       134       291       290      1639      1640      1635
 -1       420    8    0    1
 -2       135       136       292      1228      1641      1642
 -1       421    8    0    1
 -2       135       292       291      1642      1643      1638
 -1       422    8    0    1
 -2       136       137       293      1229      1644      1645
 -1       423    8    0    1
 -2       292       136       293      1641      1645      1646
 -1       424    8    0    1
 -2       137       229       293      1454      1647      1644
 -1       425    8    0    1
 -2         2       138       294      1231      1648      1649
 -1       426    8    0    1
 -2       138       139       295      1232      1650      1651
 -1       427    8    0    1
 -2       139       140       296      1233      1652      1653
 -1       428    8    0    1
 -2       140       141       297      1234      1654      1655
 -1       429    8    0    1
 -2       141       142       298      1235      1656      1657
 -1       430    8    0    1
 -2       142       143       299      1236      1658      1659
 -1       431    8    0    1
 -2       143       144       300      1237      1660      1661
 -1       432    8    0    1
 -2       144       145       301      1238      1662      1663
 -1       433    8    0    1
 -2       145       146       302      1239      1664      1665
 -1       434    8    0    1
 -2       146       147       303      1240      1666      1667
 -1       435    8    0    1
 -2       147       148       304      1241      1668      1669
 -1       436    8    0    1
 -2       148       149       305      1242      1670      1671
 -1       437    8    0    1
 -2       149       150       306      1243      1672      1673
 -1       438    8    0    1
 -2       150       151       307      1244      1674      1675
 -1       439    8    0    1
 -2       151       152       308      1245      1676      1677
 -1       440    8    0    1
 -2       152       153       309      1246      1678      1679
 -1       441    8    0    1
 -2       153       154       310      1247      1680      1681
 -1       442    8    0    1
 -2       154       155       311      1248      1682      1683
 -1       443    8    0    1
 -2       155       156       312      1249      1684      1685
 -1       444    8    0    1
 -2       156       157       313      1250      1686      1687
 -1       445    8    0    1
 -2       157       158       314      1251      1688      1689
 -1       446    8    0    1
 -2       158         1       315      1252      1690      1691
 -1       447    8    0    1
 -2         1       159       316      1253      1692      1693
 -1       448    8    0    1
 -2       159       160       317      1254      1694      1695
 -1       449    8    0    1
 -2       160       161       318      1255      1696      1697
 -1       450    8    0    1
 -2       161       162       319      1256      1698      1699
 -1       451    8    0    1
 -2       162       163       320      1257      1700      1701
 -1       452    8    0    1
 -2       163       164       321      1258      1702      1703
 -1       453    8    0    1
 -2       164       165       322      1259      1704      1705
 -1       454    8    0    1
 -2       165         2       323      1260      1706      1707
 -1       455    8    0    1
 -2       297       141       298      1654      1657      1708
 -1       456    8    0    1
 -2       296       140       297      1652      1655      1709
 -1       457    8    0    1
 -2       121       122       278      1602      1710      1599
 -1       458    8    0    1
 -2       122       279       278      1604      1711      1710
 -1       459    8    0    1
 -2       294       138       295      1648      1651      1712
 -1       460    8    0    1
 -2       295       139       296      1650      1653      1713
 -1       461    8    0    1
 -2         2       294       323      1649      1714      1706
 -1       462    8    0    1
 -2       142       299       298      1659      1715      1656
 -1       463    8    0    1
 -2       143       300       299      1661      1716      1658
 -1       464    8    0    1
 -2       144       301       300      1663      1717      1660
 -1       465    8    0    1
 -2       145       302       301      1665      1718      1662
 -1       466    8    0    1
 -2       146       303       302      1667      1719      1664
 -1       467    8    0    1
 -2       147       304       303      1669      1720      1666
 -1       468    8    0    1
 -2       148       305       304      1671      1721      1668
 -1       469    8    0    1
 -2       149       306       305      1673      1722      1670
 -1       470    8    0    1
 -2       150       307       306      1675      1723      1672
 -1       471    8    0    1
 -2       151       308       307      1677      1724      1674
 -1       472    8    0    1
 -2       152       309       308      1679      1725      1676
 -1       473    8    0    1
 -2       153       310       309      1681      1726      1678
 -1       474    8    0    1
 -2       154       311       310      1683      1727      1680
 -1       475    8    0    1
 -2       155       312       311      1685      1728      1682
 -1       476    8    0    1
 -2       156       313       312      1687      1729      1684
 -1       477    8    0    1
 -2       157       314       313      1689      1730      1686
 -1       478    8    0    1
 -2       158       315       314      1691      1731      1688
 -1       479    8    0    1
 -2         1       316       315      1693      1732      1690
 -1       480    8    0    1
 -2       159       317       316      1695      1733      1692
 -1       481    8    0    1
 -2       160       318       317      1697      1734      1694
 -1       482    8    0    1
 -2       161       319       318      1699      1735      1696
 -1       483    8    0    1
 -2       162       320       319      1701      1736      1698
 -1       484    8    0    1
 -2       163       321       320      1703      1737      1700
 -1       485    8    0    1
 -2       164       322       321      1705      1738      1702
 -1       486    8    0    1
 -2       165       323       322      1707      1739      1704
 -1       487    8    0    1
 -2        23         7       166      1261      1263      1740
 -1       488    8    0    1
 -2       167       168       324      1269      1741      1742
 -1       489    8    0    1
 -2       166       167       325      1266      1743      1744
 -1       490    8    0    1
 -2       167       324       325      1742      1745      1743
 -1       491    8    0    1
 -2       169       170       326      1275      1746      1747
 -1       492    8    0    1
 -2       170       171       327      1278      1748      1749
 -1       493    8    0    1
 -2       170       327       326      1749      1750      1746
 -1       494    8    0    1
 -2       171       172       328      1281      1751      1752
 -1       495    8    0    1
 -2       171       328       327      1752      1753      1748
 -1       496    8    0    1
 -2       172       173       329      1284      1754      1755
 -1       497    8    0    1
 -2       172       329       328      1755      1756      1751
 -1       498    8    0    1
 -2       173       174       330      1287      1757      1758
 -1       499    8    0    1
 -2       173       330       329      1758      1759      1754
 -1       500    8    0    1
 -2       174       175       331      1290      1760      1761
 -1       501    8    0    1
 -2       174       331       330      1761      1762      1757
 -1       502    8    0    1
 -2       175       176       332      1293      1763      1764
 -1       503    8    0    1
 -2       175       332       331      1764      1765      1760
 -1       504    8    0    1
 -2       176       177       333      1296      1766      1767
 -1       505    8    0    1
 -2       176       333       332      1767      1768      1763
 -1       506    8    0    1
 -2       177       178       334      1299      1769      1770
 -1       507    8    0    1
 -2       177       334       333      1770      1771      1766
 -1       508    8    0    1
 -2       178       179       335      1302      1772      1773
 -1       509    8    0    1
 -2       178       335       334      1773      1774      1769
 -1       510    8    0    1
 -2       179       180       336      1305      1775      1776
 -1       511    8    0    1
 -2       179       336       335      1776      1777      1772
 -1       512    8    0    1
 -2       180       181       337      1308      1778      1779
 -1       513    8    0    1
 -2       336       180       337      1775      1779      1780
 -1       514    8    0    1
 -2       181       230       337      1457      1781      1778
 -1       515    8    0    1
 -2       182        23       166      1310      1740      1782
 -1       516    8    0    1
 -2       230       231       338      1460      1783      1784
 -1       517    8    0    1
 -2       230       338       337      1784      1785      1781
 -1       518    8    0    1
 -2       182       166       325      1782      1744      1786
 -1       519    8    0    1
 -2       184       183       339      1317      1787      1788
 -1       520    8    0    1
 -2       185       184       340      1320      1789      1790
 -1       521    8    0    1
 -2       184       339       340      1788      1791      1789
 -1       522    8    0    1
 -2       186       185       341      1323      1792      1793
 -1       523    8    0    1
 -2       185       340       341      1790      1794      1792
 -1       524    8    0    1
 -2       187       186       342      1326      1795      1796
 -1       525    8    0    1
 -2       186       341       342      1793      1797      1795
 -1       526    8    0    1
 -2       188       187       343      1329      1798      1799
 -1       527    8    0    1
 -2       187       342       343      1796      1800      1798
 -1       528    8    0    1
 -2       189       188       344      1332      1801      1802
 -1       529    8    0    1
 -2       188       343       344      1799      1803      1801
 -1       530    8    0    1
 -2       190       189       345      1335      1804      1805
 -1       531    8    0    1
 -2       189       344       345      1802      1806      1804
 -1       532    8    0    1
 -2       191       190       346      1338      1807      1808
 -1       533    8    0    1
 -2       190       345       346      1805      1809      1807
 -1       534    8    0    1
 -2       192       191       347      1341      1810      1811
 -1       535    8    0    1
 -2       191       346       347      1808      1812      1810
 -1       536    8    0    1
 -2       193       192       348      1344      1813      1814
 -1       537    8    0    1
 -2       192       347       348      1811      1815      1813
 -1       538    8    0    1
 -2       194       193       349      1347      1816      1817
 -1       539    8    0    1
 -2       193       348       349      1814      1818      1816
 -1       540    8    0    1
 -2       195       194       350      1350      1819      1820
 -1       541    8    0    1
 -2       194       349       350      1817      1821      1819
 -1       542    8    0    1
 -2       196       195       351      1353      1822      1823
 -1       543    8    0    1
 -2       195       350       351      1820      1824      1822
 -1       544    8    0    1
 -2       197       196       352      1356      1825      1826
 -1       545    8    0    1
 -2       196       351       352      1823      1827      1825
 -1       546    8    0    1
 -2       198       197       353      1359      1828      1829
 -1       547    8    0    1
 -2       197       352       353      1826      1830      1828
 -1       548    8    0    1
 -2       199       198       354      1362      1831      1832
 -1       549    8    0    1
 -2       198       353       354      1829      1833      1831
 -1       550    8    0    1
 -2       200       199       355      1365      1834      1835
 -1       551    8    0    1
 -2       199       354       355      1832      1836      1834
 -1       552    8    0    1
 -2       201       200       356      1368      1837      1838
 -1       553    8    0    1
 -2       200       355       356      1835      1839      1837
 -1       554    8    0    1
 -2       202       201       357      1371      1840      1841
 -1       555    8    0    1
 -2       201       356       357      1838      1842      1840
 -1       556    8    0    1
 -2       203       202       358      1374      1843      1844
 -1       557    8    0    1
 -2       202       357       358      1841      1845      1843
 -1       558    8    0    1
 -2       204       203       359      1377      1846      1847
 -1       559    8    0    1
 -2       203       358       359      1844      1848      1846
 -1       560    8    0    1
 -2       205       204       360      1380      1849      1850
 -1       561    8    0    1
 -2       204       359       360      1847      1851      1849
 -1       562    8    0    1
 -2       206       205       361      1383      1852      1853
 -1       563    8    0    1
 -2       205       360       361      1850      1854      1852
 -1       564    8    0    1
 -2       207       206       362      1386      1855      1856
 -1       565    8    0    1
 -2       206       361       362      1853      1857      1855
 -1       566    8    0    1
 -2       208       207       363      1389      1858      1859
 -1       567    8    0    1
 -2       207       362       363      1856      1860      1858
 -1       568    8    0    1
 -2       209       208       364      1392      1861      1862
 -1       569    8    0    1
 -2       208       363       364      1859      1863      1861
 -1       570    8    0    1
 -2       210       209       365      1395      1864      1865
 -1       571    8    0    1
 -2       209       364       365      1862      1866      1864
 -1       572    8    0    1
 -2       211       210       366      1398      1867      1868
 -1       573    8    0    1
 -2       210       365       366      1865      1869      1867
 -1       574    8    0    1
 -2       212       211       367      1401      1870      1871
 -1       575    8    0    1
 -2       211       366       367      1868      1872      1870
 -1       576    8    0    1
 -2       213       212       368      1404      1873      1874
 -1       577    8    0    1
 -2       212       367       368      1871      1875      1873
 -1       578    8    0    1
 -2       214       213       369      1407      1876      1877
 -1       579    8    0    1
 -2       213       368       369      1874      1878      1876
 -1       580    8    0    1
 -2       215       214       370      1410      1879      1880
 -1       581    8    0    1
 -2       214       369       370      1877      1881      1879
 -1       582    8    0    1
 -2       216       215       371      1413      1882      1883
 -1       583    8    0    1
 -2       215       370       371      1880      1884      1882
 -1       584    8    0    1
 -2       217       216       372      1416      1885      1886
 -1       585    8    0    1
 -2       216       371       372      1883      1887      1885
 -1       586    8    0    1
 -2       218       217       373      1419      1888      1889
 -1       587    8    0    1
 -2       217       372       373      1886      1890      1888
 -1       588    8    0    1
 -2       219       218       374      1422      1891      1892
 -1       589    8    0    1
 -2       218       373       374      1889      1893      1891
 -1       590    8    0    1
 -2       220       219       375      1425      1894      1895
 -1       591    8    0    1
 -2       219       374       375      1892      1896      1894
 -1       592    8    0    1
 -2       221       220       376      1428      1897      1898
 -1       593    8    0    1
 -2       220       375       376      1895      1899      1897
 -1       594    8    0    1
 -2       222       221       377      1431      1900      1901
 -1       595    8    0    1
 -2       221       376       377      1898      1902      1900
 -1       596    8    0    1
 -2       223       222       378      1434      1903      1904
 -1       597    8    0    1
 -2       222       377       378      1901      1905      1903
 -1       598    8    0    1
 -2       224       223       379      1437      1906      1907
 -1       599    8    0    1
 -2       223       378       379      1904      1908      1906
 -1       600    8    0    1
 -2       225       224       380      1440      1909      1910
 -1       601    8    0    1
 -2       224       379       380      1907      1911      1909
 -1       602    8    0    1
 -2       226       225       381      1443      1912      1913
 -1       603    8    0    1
 -2       225       380       381      1910      1914      1912
 -1       604    8    0    1
 -2       227       226       382      1446      1915      1916
 -1       605    8    0    1
 -2       226       381       382      1913      1917      1915
 -1       606    8    0    1
 -2       228       227       383      1449      1918      1919
 -1       607    8    0    1
 -2       227       382       383      1916      1920      1918
 -1       608    8    0    1
 -2       229       228       384      1452      1921      1922
 -1       609    8    0    1
 -2       293       229       384      1647      1922      1923
 -1       610    8    0    1
 -2       228       383       384      1919      1924      1921
 -1       611    8    0    1
 -2       231       232       385      1463      1925      1926
 -1       612    8    0    1
 -2       231       385       338      1926      1927      1783
 -1       613    8    0    1
 -2       235       236       301      1475      1928      1929
 -1       614    8    0    1
 -2       236       237       300      1478      1930      1931
 -1       615    8    0    1
 -2       238       239       386      1484      1932      1933
 -1       616    8    0    1
 -2       239       240       387      1487      1934      1935
 -1       617    8    0    1
 -2       239       387       386      1935      1936      1932
 -1       618    8    0    1
 -2       240       241       388      1490      1937      1938
 -1       619    8    0    1
 -2       240       388       387      1938      1939      1934
 -1       620    8    0    1
 -2       241       242       389      1493      1940      1941
 -1       621    8    0    1
 -2       241       389       388      1941      1942      1937
 -1       622    8    0    1
 -2       242       243       390      1496      1943      1944
 -1       623    8    0    1
 -2       242       390       389      1944      1945      1940
 -1       624    8    0    1
 -2       243       244       391      1499      1946      1947
 -1       625    8    0    1
 -2       243       391       390      1947      1948      1943
 -1       626    8    0    1
 -2       244       245       392      1502      1949      1950
 -1       627    8    0    1
 -2       244       392       391      1950      1951      1946
 -1       628    8    0    1
 -2       245       246       393      1505      1952      1953
 -1       629    8    0    1
 -2       245       393       392      1953      1954      1949
 -1       630    8    0    1
 -2       246       247       394      1508      1955      1956
 -1       631    8    0    1
 -2       246       394       393      1956      1957      1952
 -1       632    8    0    1
 -2       247       248       395      1511      1958      1959
 -1       633    8    0    1
 -2       247       395       394      1959      1960      1955
 -1       634    8    0    1
 -2       248       249       396      1514      1961      1962
 -1       635    8    0    1
 -2       248       396       395      1962      1963      1958
 -1       636    8    0    1
 -2       249       250       397      1517      1964      1965
 -1       637    8    0    1
 -2       249       397       396      1965      1966      1961
 -1       638    8    0    1
 -2       250       251       398      1520      1967      1968
 -1       639    8    0    1
 -2       250       398       397      1968      1969      1964
 -1       640    8    0    1
 -2       251       252       399      1523      1970      1971
 -1       641    8    0    1
 -2       251       399       398      1971      1972      1967
 -1       642    8    0    1
 -2       252       253       400      1526      1973      1974
 -1       643    8    0    1
 -2       252       400       399      1974      1975      1970
 -1       644    8    0    1
 -2       253       254       401      1529      1976      1977
 -1       645    8    0    1
 -2       253       401       400      1977      1978      1973
 -1       646    8    0    1
 -2       254       255       402      1532      1979      1980
 -1       647    8    0    1
 -2       254       402       401      1980      1981      1976
 -1       648    8    0    1
 -2       255       256       403      1535      1982      1983
 -1       649    8    0    1
 -2       255       403       402      1983      1984      1979
 -1       650    8    0    1
 -2       256       257       404      1538      1985      1986
 -1       651    8    0    1
 -2       256       404       403      1986      1987      1982
 -1       652    8    0    1
 -2       257       258       405      1541      1988      1989
 -1       653    8    0    1
 -2       257       405       404      1989      1990      1985
 -1       654    8    0    1
 -2       258       259       406      1544      1991      1992
 -1       655    8    0    1
 -2       258       406       405      1992      1993      1988
 -1       656    8    0    1
 -2       259       260       407      1547      1994      1995
 -1       657    8    0    1
 -2       259       407       406      1995      1996      1991
 -1       658    8    0    1
 -2       260       261       408      1550      1997      1998
 -1       659    8    0    1
 -2       260       408       407      1998      1999      1994
 -1       660    8    0    1
 -2       261       262       409      1553      2000      2001
 -1       661    8    0    1
 -2       261       409       408      2001      2002      1997
 -1       662    8    0    1
 -2       262       263       410      1556      2003      2004
 -1       663    8    0    1
 -2       262       410       409      2004      2005      2000
 -1       664    8    0    1
 -2       263       264       411      1559      2006      2007
 -1       665    8    0    1
 -2       263       411       410      2007      2008      2003
 -1       666    8    0    1
 -2       264       265       412      1562      2009      2010
 -1       667    8    0    1
 -2       264       412       411      2010      2011      2006
 -1       668    8    0    1
 -2       265       266       413      1565      2012      2013
 -1       669    8    0    1
 -2       265       413       412      2013      2014      2009
 -1       670    8    0    1
 -2       266       267       414      1568      2015      2016
 -1       671    8    0    1
 -2       266       414       413      2016      2017      2012
 -1       672    8    0    1
 -2       267       268       415      1571      2018      2019
 -1       673    8    0    1
 -2       267       415       414      2019      2020      2015
 -1       674    8    0    1
 -2       268       269       416      1574      2021      2022
 -1       675    8    0    1
 -2       268       416       415      2022      2023      2018
 -1       676    8    0    1
 -2       269       270       417      1577      2024      2025
 -1       677    8    0    1
 -2       269       417       416      2025      2026      2021
 -1       678    8    0    1
 -2       270       271       418      1580      2027      2028
 -1       679    8    0    1
 -2       270       418       417      2028      2029      2024
 -1       680    8    0    1
 -2       271       272       419      1583      2030      2031
 -1       681    8    0    1
 -2       271       419       418      2031      2032      2027
 -1       682    8    0    1
 -2       272       273       420      1586      2033      2034
 -1       683    8    0    1
 -2       272       420       419      2034      2035      2030
 -1       684    8    0    1
 -2       273       274       421      1589      2036      2037
 -1       685    8    0    1
 -2       273       421       420      2037      2038      2033
 -1       686    8    0    1
 -2       274       275       422      1592      2039      2040
 -1       687    8    0    1
 -2       274       422       421      2040      2041      2036
 -1       688    8    0    1
 -2       275       276       423      1595      2042      2043
 -1       689    8    0    1
 -2       275       423       422      2043      2044      2039
 -1       690    8    0    1
 -2       276       277       424      1598      2045      2046
 -1       691    8    0    1
 -2       276       424       423      2046      2047      2042
 -1       692    8    0    1
 -2       277       278       425      1601      2048      2049
 -1       693    8    0    1
 -2       424       277       425      2045      2049      2050
 -1       694    8    0    1
 -2       278       279       425      1711      2051      2048
 -1       695    8    0    1
 -2       281       282       426      1613      2052      2053
 -1       696    8    0    1
 -2       280       281       427      1610      2054      2055
 -1       697    8    0    1
 -2       281       426       427      2053      2056      2054
 -1       698    8    0    1
 -2       279       280       425      1607      2057      2051
 -1       699    8    0    1
 -2       282       283       428      1616      2058      2059
 -1       700    8    0    1
 -2       282       428       426      2059      2060      2052
 -1       701    8    0    1
 -2       283       284       429      1619      2061      2062
 -1       702    8    0    1
 -2       283       429       428      2062      2063      2058
 -1       703    8    0    1
 -2       284       285       430      1622      2064      2065
 -1       704    8    0    1
 -2       284       430       429      2065      2066      2061
 -1       705    8    0    1
 -2       285       286       431      1625      2067      2068
 -1       706    8    0    1
 -2       285       431       430      2068      2069      2064
 -1       707    8    0    1
 -2       286       287       432      1628      2070      2071
 -1       708    8    0    1
 -2       286       432       431      2071      2072      2067
 -1       709    8    0    1
 -2       287       288       433      1631      2073      2074
 -1       710    8    0    1
 -2       287       433       432      2074      2075      2070
 -1       711    8    0    1
 -2       288       289       434      1634      2076      2077
 -1       712    8    0    1
 -2       288       434       433      2077      2078      2073
 -1       713    8    0    1
 -2       289       290       435      1637      2079      2080
 -1       714    8    0    1
 -2       289       435       434      2080      2081      2076
 -1       715    8    0    1
 -2       290       291       436      1640      2082      2083
 -1       716    8    0    1
 -2       290       436       435      2083      2084      2079
 -1       717    8    0    1
 -2       291       292       437      1643      2085      2086
 -1       718    8    0    1
 -2       291       437       436      2086      2087      2082
 -1       719    8    0    1
 -2       295       296       438      1713      2088      2089
 -1       720    8    0    1
 -2       323       294       439      1714      2090      2091
 -1       721    8    0    1
 -2       294       295       440      1712      2092      2093
 -1       722    8    0    1
 -2       296       297       441      1709      2094      2095
 -1       723    8    0    1
 -2       297       298       386      1708      2096      2097
 -1       724    8    0    1
 -2       168       169       442      1272      2098      2099
 -1       725    8    0    1
 -2       324       168       442      1741      2099      2100
 -1       726    8    0    1
 -2       169       326       442      1747      2101      2098
 -1       727    8    0    1
 -2       299       300       237      1716      1930      2102
 -1       728    8    0    1
 -2       300       301       236      1717      1928      1931
 -1       729    8    0    1
 -2       301       302       235      1718      2103      1929
 -1       730    8    0    1
 -2       302       303       443      1719      2104      2105
 -1       731    8    0    1
 -2       303       304       444      1720      2106      2107
 -1       732    8    0    1
 -2       303       444       443      2107      2108      2104
 -1       733    8    0    1
 -2       304       305       445      1721      2109      2110
 -1       734    8    0    1
 -2       305       306       446      1722      2111      2112
 -1       735    8    0    1
 -2       306       307       447      1723      2113      2114
 -1       736    8    0    1
 -2       307       308       448      1724      2115      2116
 -1       737    8    0    1
 -2       308       309       449      1725      2117      2118
 -1       738    8    0    1
 -2       309       310       450      1726      2119      2120
 -1       739    8    0    1
 -2       310       311       451      1727      2121      2122
 -1       740    8    0    1
 -2       310       451       450      2122      2123      2119
 -1       741    8    0    1
 -2       311       312       452      1728      2124      2125
 -1       742    8    0    1
 -2       312       313       453      1729      2126      2127
 -1       743    8    0    1
 -2       313       314       454      1730      2128      2129
 -1       744    8    0    1
 -2       314       315       455      1731      2130      2131
 -1       745    8    0    1
 -2       314       455       454      2131      2132      2128
 -1       746    8    0    1
 -2       315       316       456      1732      2133      2134
 -1       747    8    0    1
 -2       316       317       457      1733      2135      2136
 -1       748    8    0    1
 -2       316       457       456      2136      2137      2133
 -1       749    8    0    1
 -2       317       318       458      1734      2138      2139
 -1       750    8    0    1
 -2       318       319       459      1735      2140      2141
 -1       751    8    0    1
 -2       319       320       460      1736      2142      2143
 -1       752    8    0    1
 -2       320       321       461      1737      2144      2145
 -1       753    8    0    1
 -2       321       322       462      1738      2146      2147
 -1       754    8    0    1
 -2       322       323       463      1739      2148      2149
 -1       755    8    0    1
 -2       323       439       463      2091      2150      2148
 -1       756    8    0    1
 -2       182       325       183      1786      2151      1314
 -1       757    8    0    1
 -2       299       237       464      2102      2152      2153
 -1       758    8    0    1
 -2       339       183       325      1787      2151      2154
 -1       759    8    0    1
 -2       447       307       448      2113      2116      2155
 -1       760    8    0    1
 -2       444       304       445      2106      2110      2156
 -1       761    8    0    1
 -2       232       233       465      1466      2157      2158
 -1       762    8    0    1
 -2       233       234       444      1469      2159      2160
 -1       763    8    0    1
 -2       234       235       443      1472      2161      2162
 -1       764    8    0    1
 -2       235       302       443      2103      2105      2161
 -1       765    8    0    1
 -2       237       238       464      1481      2163      2152
 -1       766    8    0    1
 -2       425       280       427      2057      2055      2164
 -1       767    8    0    1
 -2       439       294       440      2090      2093      2165
 -1       768    8    0    1
 -2       295       438       440      2089      2166      2092
 -1       769    8    0    1
 -2       437       292       293      2085      1646      2167
 -1       770    8    0    1
 -2       438       296       441      2088      2095      2168
 -1       771    8    0    1
 -2       385       232       465      1925      2158      2169
 -1       772    8    0    1
 -2       297       386       441      2097      2170      2094
 -1       773    8    0    1
 -2       462       322       463      2146      2149      2171
 -1       774    8    0    1
 -2       461       321       462      2144      2147      2172
 -1       775    8    0    1
 -2       460       320       461      2142      2145      2173
 -1       776    8    0    1
 -2       459       319       460      2140      2143      2174
 -1       777    8    0    1
 -2       457       317       458      2135      2139      2175
 -1       778    8    0    1
 -2       455       315       466      2130      2176      2177
 -1       779    8    0    1
 -2       315       456       466      2134      2178      2176
 -1       780    8    0    1
 -2       453       313       454      2126      2129      2179
 -1       781    8    0    1
 -2       451       311       452      2121      2125      2180
 -1       782    8    0    1
 -2       449       309       450      2117      2120      2181
 -1       783    8    0    1
 -2       448       308       449      2115      2118      2182
 -1       784    8    0    1
 -2       446       306       447      2111      2114      2183
 -1       785    8    0    1
 -2       445       305       446      2109      2112      2184
 -1       786    8    0    1
 -2       452       312       467      2124      2185      2186
 -1       787    8    0    1
 -2       312       453       467      2127      2187      2185
 -1       788    8    0    1
 -2       458       318       459      2138      2141      2188
 -1       789    8    0    1
 -2       298       299       464      1715      2153      2189
 -1       790    8    0    1
 -2       464       238       386      2163      1933      2190
 -1       791    8    0    1
 -2       465       233       444      2157      2160      2191
 -1       792    8    0    1
 -2       298       464       386      2189      2190      2096
 -1       793    8    0    1
 -2       338       385       468      1927      2192      2193
 -1       794    8    0    1
 -2       327       328       469      1753      2194      2195
 -1       795    8    0    1
 -2       326       327       470      1750      2196      2197
 -1       796    8    0    1
 -2       327       469       470      2195      2198      2196
 -1       797    8    0    1
 -2       329       330       471      1759      2199      2200
 -1       798    8    0    1
 -2       330       331       472      1762      2201      2202
 -1       799    8    0    1
 -2       330       472       471      2202      2203      2199
 -1       800    8    0    1
 -2       331       332       473      1765      2204      2205
 -1       801    8    0    1
 -2       331       473       472      2205      2206      2201
 -1       802    8    0    1
 -2       332       333       474      1768      2207      2208
 -1       803    8    0    1
 -2       332       474       473      2208      2209      2204
 -1       804    8    0    1
 -2       333       334       475      1771      2210      2211
 -1       805    8    0    1
 -2       333       475       474      2211      2212      2207
 -1       806    8    0    1
 -2       334       335       476      1774      2213      2214
 -1       807    8    0    1
 -2       334       476       475      2214      2215      2210
 -1       808    8    0    1
 -2       387       388       477      1939      2216      2217
 -1       809    8    0    1
 -2       388       389       478      1942      2218      2219
 -1       810    8    0    1
 -2       388       478       477      2219      2220      2216
 -1       811    8    0    1
 -2       340       339       479      1791      2221      2222
 -1       812    8    0    1
 -2       339       325       480      2154      2223      2224
 -1       813    8    0    1
 -2       479       339       480      2221      2224      2225
 -1       814    8    0    1
 -2       325       324       480      1745      2226      2223
 -1       815    8    0    1
 -2       341       340       481      1794      2227      2228
 -1       816    8    0    1
 -2       340       479       481      2222      2229      2227
 -1       817    8    0    1
 -2       342       341       482      1797      2230      2231
 -1       818    8    0    1
 -2       341       481       482      2228      2232      2230
 -1       819    8    0    1
 -2       343       342       483      1800      2233      2234
 -1       820    8    0    1
 -2       342       482       483      2231      2235      2233
 -1       821    8    0    1
 -2       344       343       484      1803      2236      2237
 -1       822    8    0    1
 -2       343       483       484      2234      2238      2236
 -1       823    8    0    1
 -2       345       344       485      1806      2239      2240
 -1       824    8    0    1
 -2       344       484       485      2237      2241      2239
 -1       825    8    0    1
 -2       346       345       486      1809      2242      2243
 -1       826    8    0    1
 -2       345       485       486      2240      2244      2242
 -1       827    8    0    1
 -2       347       346       487      1812      2245      2246
 -1       828    8    0    1
 -2       346       486       487      2243      2247      2245
 -1       829    8    0    1
 -2       348       347       488      1815      2248      2249
 -1       830    8    0    1
 -2       347       487       488      2246      2250      2248
 -1       831    8    0    1
 -2       349       348       489      1818      2251      2252
 -1       832    8    0    1
 -2       348       488       489      2249      2253      2251
 -1       833    8    0    1
 -2       350       349       490      1821      2254      2255
 -1       834    8    0    1
 -2       349       489       490      2252      2256      2254
 -1       835    8    0    1
 -2       351       350       491      1824      2257      2258
 -1       836    8    0    1
 -2       350       490       491      2255      2259      2257
 -1       837    8    0    1
 -2       352       351       492      1827      2260      2261
 -1       838    8    0    1
 -2       351       491       492      2258      2262      2260
 -1       839    8    0    1
 -2       353       352       493      1830      2263      2264
 -1       840    8    0    1
 -2       352       492       493      2261      2265      2263
 -1       841    8    0    1
 -2       354       353       494      1833      2266      2267
 -1       842    8    0    1
 -2       353       493       494      2264      2268      2266
 -1       843    8    0    1
 -2       355       354       495      1836      2269      2270
 -1       844    8    0    1
 -2       354       494       495      2267      2271      2269
 -1       845    8    0    1
 -2       356       355       496      1839      2272      2273
 -1       846    8    0    1
 -2       355       495       496      2270      2274      2272
 -1       847    8    0    1
 -2       357       356       497      1842      2275      2276
 -1       848    8    0    1
 -2       356       496       497      2273      2277      2275
 -1       849    8    0    1
 -2       358       357       498      1845      2278      2279
 -1       850    8    0    1
 -2       357       497       498      2276      2280      2278
 -1       851    8    0    1
 -2       359       358       499      1848      2281      2282
 -1       852    8    0    1
 -2       358       498       499      2279      2283      2281
 -1       853    8    0    1
 -2       360       359       500      1851      2284      2285
 -1       854    8    0    1
 -2       359       499       500      2282      2286      2284
 -1       855    8    0    1
 -2       361       360       501      1854      2287      2288
 -1       856    8    0    1
 -2       360       500       501      2285      2289      2287
 -1       857    8    0    1
 -2       362       361       502      1857      2290      2291
 -1       858    8    0    1
 -2       361       501       502      2288      2292      2290
 -1       859    8    0    1
 -2       363       362       503      1860      2293      2294
 -1       860    8    0    1
 -2       362       502       503      2291      2295      2293
 -1       861    8    0    1
 -2       364       363       504      1863      2296      2297
 -1       862    8    0    1
 -2       363       503       504      2294      2298      2296
 -1       863    8    0    1
 -2       365       364       505      1866      2299      2300
 -1       864    8    0    1
 -2       364       504       505      2297      2301      2299
 -1       865    8    0    1
 -2       366       365       506      1869      2302      2303
 -1       866    8    0    1
 -2       365       505       506      2300      2304      2302
 -1       867    8    0    1
 -2       367       366       507      1872      2305      2306
 -1       868    8    0    1
 -2       366       506       507      2303      2307      2305
 -1       869    8    0    1
 -2       368       367       508      1875      2308      2309
 -1       870    8    0    1
 -2       367       507       508      2306      2310      2308
 -1       871    8    0    1
 -2       369       368       509      1878      2311      2312
 -1       872    8    0    1
 -2       368       508       509      2309      2313      2311
 -1       873    8    0    1
 -2       370       369       510      1881      2314      2315
 -1       874    8    0    1
 -2       369       509       510      2312      2316      2314
 -1       875    8    0    1
 -2       371       370       511      1884      2317      2318
 -1       876    8    0    1
 -2       370       510       511      2315      2319      2317
 -1       877    8    0    1
 -2       372       371       512      1887      2320      2321
 -1       878    8    0    1
 -2       371       511       512      2318      2322      2320
 -1       879    8    0    1
 -2       373       372       513      1890      2323      2324
 -1       880    8    0    1
 -2       372       512       513      2321      2325      2323
 -1       881    8    0    1
 -2       374       373       514      1893      2326      2327
 -1       882    8    0    1
 -2       373       513       514      2324      2328      2326
 -1       883    8    0    1
 -2       375       374       515      1896      2329      2330
 -1       884    8    0    1
 -2       374       514       515      2327      2331      2329
 -1       885    8    0    1
 -2       376       375       516      1899      2332      2333
 -1       886    8    0    1
 -2       375       515       516      2330      2334      2332
 -1       887    8    0    1
 -2       377       376       517      1902      2335      2336
 -1       888    8    0    1
 -2       376       516       517      2333      2337      2335
 -1       889    8    0    1
 -2       378       377       518      1905      2338      2339
 -1       890    8    0    1
 -2       377       517       518      2336      2340      2338
 -1       891    8    0    1
 -2       379       378       519      1908      2341      2342
 -1       892    8    0    1
 -2       378       518       519      2339      2343      2341
 -1       893    8    0    1
 -2       380       379       520      1911      2344      2345
 -1       894    8    0    1
 -2       379       519       520      2342      2346      2344
 -1       895    8    0    1
 -2       381       380       521      1914      2347      2348
 -1       896    8    0    1
 -2       380       520       521      2345      2349      2347
 -1       897    8    0    1
 -2       382       381       522      1917      2350      2351
 -1       898    8    0    1
 -2       381       521       522      2348      2352      2350
 -1       899    8    0    1
 -2       383       382       523      1920      2353      2354
 -1       900    8    0    1
 -2       382       522       523      2351      2355      2353
 -1       901    8    0    1
 -2       444       234       443      2159      2162      2108
 -1       902    8    0    1
 -2       465       444       445      2191      2156      2356
 -1       903    8    0    1
 -2       386       387       441      1936      2357      2170
 -1       904    8    0    1
 -2       389       390       524      1945      2358      2359
 -1       905    8    0    1
 -2       389       524       478      2359      2360      2218
 -1       906    8    0    1
 -2       390       391       525      1948      2361      2362
 -1       907    8    0    1
 -2       390       525       524      2362      2363      2358
 -1       908    8    0    1
 -2       391       392       526      1951      2364      2365
 -1       909    8    0    1
 -2       391       526       525      2365      2366      2361
 -1       910    8    0    1
 -2       392       393       527      1954      2367      2368
 -1       911    8    0    1
 -2       392       527       526      2368      2369      2364
 -1       912    8    0    1
 -2       393       394       528      1957      2370      2371
 -1       913    8    0    1
 -2       393       528       527      2371      2372      2367
 -1       914    8    0    1
 -2       394       395       529      1960      2373      2374
 -1       915    8    0    1
 -2       394       529       528      2374      2375      2370
 -1       916    8    0    1
 -2       395       396       530      1963      2376      2377
 -1       917    8    0    1
 -2       395       530       529      2377      2378      2373
 -1       918    8    0    1
 -2       396       397       531      1966      2379      2380
 -1       919    8    0    1
 -2       396       531       530      2380      2381      2376
 -1       920    8    0    1
 -2       397       398       532      1969      2382      2383
 -1       921    8    0    1
 -2       397       532       531      2383      2384      2379
 -1       922    8    0    1
 -2       398       399       533      1972      2385      2386
 -1       923    8    0    1
 -2       398       533       532      2386      2387      2382
 -1       924    8    0    1
 -2       399       400       534      1975      2388      2389
 -1       925    8    0    1
 -2       399       534       533      2389      2390      2385
 -1       926    8    0    1
 -2       400       401       535      1978      2391      2392
 -1       927    8    0    1
 -2       400       535       534      2392      2393      2388
 -1       928    8    0    1
 -2       401       402       536      1981      2394      2395
 -1       929    8    0    1
 -2       401       536       535      2395      2396      2391
 -1       930    8    0    1
 -2       402       403       537      1984      2397      2398
 -1       931    8    0    1
 -2       402       537       536      2398      2399      2394
 -1       932    8    0    1
 -2       403       404       538      1987      2400      2401
 -1       933    8    0    1
 -2       403       538       537      2401      2402      2397
 -1       934    8    0    1
 -2       404       405       539      1990      2403      2404
 -1       935    8    0    1
 -2       404       539       538      2404      2405      2400
 -1       936    8    0    1
 -2       405       406       540      1993      2406      2407
 -1       937    8    0    1
 -2       405       540       539      2407      2408      2403
 -1       938    8    0    1
 -2       406       407       541      1996      2409      2410
 -1       939    8    0    1
 -2       406       541       540      2410      2411      2406
 -1       940    8    0    1
 -2       407       408       542      1999      2412      2413
 -1       941    8    0    1
 -2       407       542       541      2413      2414      2409
 -1       942    8    0    1
 -2       408       409       543      2002      2415      2416
 -1       943    8    0    1
 -2       408       543       542      2416      2417      2412
 -1       944    8    0    1
 -2       409       410       544      2005      2418      2419
 -1       945    8    0    1
 -2       409       544       543      2419      2420      2415
 -1       946    8    0    1
 -2       410       411       545      2008      2421      2422
 -1       947    8    0    1
 -2       410       545       544      2422      2423      2418
 -1       948    8    0    1
 -2       411       412       546      2011      2424      2425
 -1       949    8    0    1
 -2       411       546       545      2425      2426      2421
 -1       950    8    0    1
 -2       412       413       547      2014      2427      2428
 -1       951    8    0    1
 -2       412       547       546      2428      2429      2424
 -1       952    8    0    1
 -2       413       414       548      2017      2430      2431
 -1       953    8    0    1
 -2       413       548       547      2431      2432      2427
 -1       954    8    0    1
 -2       414       415       549      2020      2433      2434
 -1       955    8    0    1
 -2       414       549       548      2434      2435      2430
 -1       956    8    0    1
 -2       415       416       550      2023      2436      2437
 -1       957    8    0    1
 -2       415       550       549      2437      2438      2433
 -1       958    8    0    1
 -2       416       417       551      2026      2439      2440
 -1       959    8    0    1
 -2       416       551       550      2440      2441      2436
 -1       960    8    0    1
 -2       417       418       552      2029      2442      2443
 -1       961    8    0    1
 -2       417       552       551      2443      2444      2439
 -1       962    8    0    1
 -2       418       419       553      2032      2445      2446
 -1       963    8    0    1
 -2       418       553       552      2446      2447      2442
 -1       964    8    0    1
 -2       419       420       554      2035      2448      2449
 -1       965    8    0    1
 -2       419       554       553      2449      2450      2445
 -1       966    8    0    1
 -2       420       421       555      2038      2451      2452
 -1       967    8    0    1
 -2       420       555       554      2452      2453      2448
 -1       968    8    0    1
 -2       421       422       556      2041      2454      2455
 -1       969    8    0    1
 -2       421       556       555      2455      2456      2451
 -1       970    8    0    1
 -2       422       423       557      2044      2457      2458
 -1       971    8    0    1
 -2       422       557       556      2458      2459      2454
 -1       972    8    0    1
 -2       423       424       558      2047      2460      2461
 -1       973    8    0    1
 -2       423       558       557      2461      2462      2457
 -1       974    8    0    1
 -2       428       429       559      2063      2463      2464
 -1       975    8    0    1
 -2       426       428       560      2060      2465      2466
 -1       976    8    0    1
 -2       428       559       560      2464      2467      2465
 -1       977    8    0    1
 -2       427       426       561      2056      2468      2469
 -1       978    8    0    1
 -2       426       560       561      2466      2470      2468
 -1       979    8    0    1
 -2       439       440       562      2165      2471      2472
 -1       980    8    0    1
 -2       429       430       563      2066      2473      2474
 -1       981    8    0    1
 -2       429       563       559      2474      2475      2463
 -1       982    8    0    1
 -2       430       431       564      2069      2476      2477
 -1       983    8    0    1
 -2       430       564       563      2477      2478      2473
 -1       984    8    0    1
 -2       431       432       565      2072      2479      2480
 -1       985    8    0    1
 -2       431       565       564      2480      2481      2476
 -1       986    8    0    1
 -2       432       433       566      2075      2482      2483
 -1       987    8    0    1
 -2       432       566       565      2483      2484      2479
 -1       988    8    0    1
 -2       433       434       567      2078      2485      2486
 -1       989    8    0    1
 -2       433       567       566      2486      2487      2482
 -1       990    8    0    1
 -2       434       435       568      2081      2488      2489
 -1       991    8    0    1
 -2       434       568       567      2489      2490      2485
 -1       992    8    0    1
 -2       435       436       569      2084      2491      2492
 -1       993    8    0    1
 -2       435       569       568      2492      2493      2488
 -1       994    8    0    1
 -2       436       437       570      2087      2494      2495
 -1       995    8    0    1
 -2       436       570       569      2495      2496      2491
 -1       996    8    0    1
 -2       447       448       571      2155      2497      2498
 -1       997    8    0    1
 -2       440       438       572      2166      2499      2500
 -1       998    8    0    1
 -2       440       572       562      2500      2501      2471
 -1       999    8    0    1
 -2       385       465       573      2169      2502      2503
 -1      1000    8    0    1
 -2       468       385       573      2192      2503      2504
 -1      1001    8    0    1
 -2       465       445       573      2356      2505      2502
 -1      1002    8    0    1
 -2       463       439       574      2150      2506      2507
 -1      1003    8    0    1
 -2       453       454       575      2179      2508      2509
 -1      1004    8    0    1
 -2       462       463       576      2171      2510      2511
 -1      1005    8    0    1
 -2       437       293       384      2167      1923      2512
 -1      1006    8    0    1
 -2       328       329       577      1756      2513      2514
 -1      1007    8    0    1
 -2       469       328       577      2194      2514      2515
 -1      1008    8    0    1
 -2       329       471       577      2200      2516      2513
 -1      1009    8    0    1
 -2       449       450       578      2181      2517      2518
 -1      1010    8    0    1
 -2       445       446       573      2184      2519      2505
 -1      1011    8    0    1
 -2       441       387       477      2357      2217      2520
 -1      1012    8    0    1
 -2       446       447       579      2183      2521      2522
 -1      1013    8    0    1
 -2       573       446       579      2519      2522      2523
 -1      1014    8    0    1
 -2       447       571       579      2498      2524      2521
 -1      1015    8    0    1
 -2       448       449       580      2182      2525      2526
 -1      1016    8    0    1
 -2       450       451       581      2123      2527      2528
 -1      1017    8    0    1
 -2       458       459       582      2188      2529      2530
 -1      1018    8    0    1
 -2       451       452       583      2180      2531      2532
 -1      1019    8    0    1
 -2       451       583       581      2532      2533      2527
 -1      1020    8    0    1
 -2       454       455       584      2132      2534      2535
 -1      1021    8    0    1
 -2       456       457       585      2137      2536      2537
 -1      1022    8    0    1
 -2       457       458       586      2175      2538      2539
 -1      1023    8    0    1
 -2       459       460       587      2174      2540      2541
 -1      1024    8    0    1
 -2       460       461       588      2173      2542      2543
 -1      1025    8    0    1
 -2       461       462       589      2172      2544      2545
 -1      1026    8    0    1
 -2       337       338       590      1785      2546      2547
 -1      1027    8    0    1
 -2       336       337       590      1780      2547      2548
 -1      1028    8    0    1
 -2       338       468       590      2193      2549      2546
 -1      1029    8    0    1
 -2       449       578       580      2518      2550      2525
 -1      1030    8    0    1
 -2       326       470       591      2197      2551      2552
 -1      1031    8    0    1
 -2       326       591       442      2552      2553      2101
 -1      1032    8    0    1
 -2       476       335       592      2213      2554      2555
 -1      1033    8    0    1
 -2       576       463       574      2510      2507      2556
 -1      1034    8    0    1
 -2       335       336       592      1777      2557      2554
 -1      1035    8    0    1
 -2       425       427       558      2164      2558      2559
 -1      1036    8    0    1
 -2       574       439       562      2506      2472      2560
 -1      1037    8    0    1
 -2       586       458       582      2538      2530      2561
 -1      1038    8    0    1
 -2       585       457       586      2536      2539      2562
 -1      1039    8    0    1
 -2       572       438       477      2499      2563      2564
 -1      1040    8    0    1
 -2       427       561       558      2469      2565      2558
 -1      1041    8    0    1
 -2       448       580       571      2526      2566      2497
 -1      1042    8    0    1
 -2       438       441       477      2168      2520      2563
 -1      1043    8    0    1
 -2       575       454       584      2508      2535      2567
 -1      1044    8    0    1
 -2       453       575       467      2509      2568      2187
 -1      1045    8    0    1
 -2       466       456       593      2178      2569      2570
 -1      1046    8    0    1
 -2       456       585       593      2537      2571      2569
 -1      1047    8    0    1
 -2       462       576       589      2511      2572      2544
 -1      1048    8    0    1
 -2       437       384       594      2512      2573      2574
 -1      1049    8    0    1
 -2       570       437       594      2494      2574      2575
 -1      1050    8    0    1
 -2       384       383       594      1924      2576      2573
 -1      1051    8    0    1
 -2       583       452       595      2531      2577      2578
 -1      1052    8    0    1
 -2       452       467       595      2186      2579      2577
 -1      1053    8    0    1
 -2       383       523       594      2354      2580      2576
 -1      1054    8    0    1
 -2       324       442       596      2100      2581      2582
 -1      1055    8    0    1
 -2       480       324       596      2226      2582      2583
 -1      1056    8    0    1
 -2       442       591       596      2553      2584      2581
 -1      1057    8    0    1
 -2       582       459       587      2529      2541      2585
 -1      1058    8    0    1
 -2       450       581       578      2528      2586      2517
 -1      1059    8    0    1
 -2       588       461       589      2542      2545      2587
 -1      1060    8    0    1
 -2       584       455       466      2534      2177      2588
 -1      1061    8    0    1
 -2       587       460       588      2540      2543      2589
 -1      1062    8    0    1
 -2       472       473       595      2206      2590      2591
 -1      1063    8    0    1
 -2       474       475       578      2212      2592      2593
 -1      1064    8    0    1
 -2       475       476       580      2215      2594      2595
 -1      1065    8    0    1
 -2       576       574       597      2556      2596      2597
 -1      1066    8    0    1
 -2       571       580       476      2566      2594      2598
 -1      1067    8    0    1
 -2       477       478       598      2220      2599      2600
 -1      1068    8    0    1
 -2       477       598       572      2600      2601      2564
 -1      1069    8    0    1
 -2       574       562       599      2560      2602      2603
 -1      1070    8    0    1
 -2       574       599       597      2603      2604      2596
 -1      1071    8    0    1
 -2       481       479       600      2229      2605      2606
 -1      1072    8    0    1
 -2       479       480       601      2225      2607      2608
 -1      1073    8    0    1
 -2       600       479       601      2605      2608      2609
 -1      1074    8    0    1
 -2       480       596       601      2583      2610      2607
 -1      1075    8    0    1
 -2       524       525       602      2363      2611      2612
 -1      1076    8    0    1
 -2       482       481       603      2232      2613      2614
 -1      1077    8    0    1
 -2       481       600       603      2606      2615      2613
 -1      1078    8    0    1
 -2       483       482       604      2235      2616      2617
 -1      1079    8    0    1
 -2       482       603       604      2614      2618      2616
 -1      1080    8    0    1
 -2       484       483       605      2238      2619      2620
 -1      1081    8    0    1
 -2       483       604       605      2617      2621      2619
 -1      1082    8    0    1
 -2       485       484       606      2241      2622      2623
 -1      1083    8    0    1
 -2       484       605       606      2620      2624      2622
 -1      1084    8    0    1
 -2       486       485       607      2244      2625      2626
 -1      1085    8    0    1
 -2       485       606       607      2623      2627      2625
 -1      1086    8    0    1
 -2       487       486       608      2247      2628      2629
 -1      1087    8    0    1
 -2       486       607       608      2626      2630      2628
 -1      1088    8    0    1
 -2       488       487       609      2250      2631      2632
 -1      1089    8    0    1
 -2       487       608       609      2629      2633      2631
 -1      1090    8    0    1
 -2       489       488       610      2253      2634      2635
 -1      1091    8    0    1
 -2       488       609       610      2632      2636      2634
 -1      1092    8    0    1
 -2       490       489       611      2256      2637      2638
 -1      1093    8    0    1
 -2       489       610       611      2635      2639      2637
 -1      1094    8    0    1
 -2       491       490       612      2259      2640      2641
 -1      1095    8    0    1
 -2       490       611       612      2638      2642      2640
 -1      1096    8    0    1
 -2       492       491       613      2262      2643      2644
 -1      1097    8    0    1
 -2       491       612       613      2641      2645      2643
 -1      1098    8    0    1
 -2       493       492       614      2265      2646      2647
 -1      1099    8    0    1
 -2       492       613       614      2644      2648      2646
 -1      1100    8    0    1
 -2       494       493       615      2268      2649      2650
 -1      1101    8    0    1
 -2       493       614       615      2647      2651      2649
 -1      1102    8    0    1
 -2       495       494       616      2271      2652      2653
 -1      1103    8    0    1
 -2       494       615       616      2650      2654      2652
 -1      1104    8    0    1
 -2       496       495       617      2274      2655      2656
 -1      1105    8    0    1
 -2       495       616       617      2653      2657      2655
 -1      1106    8    0    1
 -2       497       496       618      2277      2658      2659
 -1      1107    8    0    1
 -2       496       617       618      2656      2660      2658
 -1      1108    8    0    1
 -2       498       497       619      2280      2661      2662
 -1      1109    8    0    1
 -2       497       618       619      2659      2663      2661
 -1      1110    8    0    1
 -2       499       498       620      2283      2664      2665
 -1      1111    8    0    1
 -2       498       619       620      2662      2666      2664
 -1      1112    8    0    1
 -2       500       499       621      2286      2667      2668
 -1      1113    8    0    1
 -2       499       620       621      2665      2669      2667
 -1      1114    8    0    1
 -2       501       500       622      2289      2670      2671
 -1      1115    8    0    1
 -2       500       621       622      2668      2672      2670
 -1      1116    8    0    1
 -2       502       501       623      2292      2673      2674
 -1      1117    8    0    1
 -2       501       622       623      2671      2675      2673
 -1      1118    8    0    1
 -2       503       502       624      2295      2676      2677
 -1      1119    8    0    1
 -2       502       623       624      2674      2678      2676
 -1      1120    8    0    1
 -2       504       503       625      2298      2679      2680
 -1      1121    8    0    1
 -2       503       624       625      2677      2681      2679
 -1      1122    8    0    1
 -2       505       504       626      2301      2682      2683
 -1      1123    8    0    1
 -2       504       625       626      2680      2684      2682
 -1      1124    8    0    1
 -2       506       505       627      2304      2685      2686
 -1      1125    8    0    1
 -2       505       626       627      2683      2687      2685
 -1      1126    8    0    1
 -2       507       506       628      2307      2688      2689
 -1      1127    8    0    1
 -2       506       627       628      2686      2690      2688
 -1      1128    8    0    1
 -2       508       507       629      2310      2691      2692
 -1      1129    8    0    1
 -2       507       628       629      2689      2693      2691
 -1      1130    8    0    1
 -2       509       508       630      2313      2694      2695
 -1      1131    8    0    1
 -2       508       629       630      2692      2696      2694
 -1      1132    8    0    1
 -2       510       509       631      2316      2697      2698
 -1      1133    8    0    1
 -2       509       630       631      2695      2699      2697
 -1      1134    8    0    1
 -2       511       510       632      2319      2700      2701
 -1      1135    8    0    1
 -2       510       631       632      2698      2702      2700
 -1      1136    8    0    1
 -2       512       511       633      2322      2703      2704
 -1      1137    8    0    1
 -2       511       632       633      2701      2705      2703
 -1      1138    8    0    1
 -2       513       512       634      2325      2706      2707
 -1      1139    8    0    1
 -2       512       633       634      2704      2708      2706
 -1      1140    8    0    1
 -2       514       513       635      2328      2709      2710
 -1      1141    8    0    1
 -2       513       634       635      2707      2711      2709
 -1      1142    8    0    1
 -2       515       514       636      2331      2712      2713
 -1      1143    8    0    1
 -2       514       635       636      2710      2714      2712
 -1      1144    8    0    1
 -2       516       515       637      2334      2715      2716
 -1      1145    8    0    1
 -2       515       636       637      2713      2717      2715
 -1      1146    8    0    1
 -2       517       516       638      2337      2718      2719
 -1      1147    8    0    1
 -2       516       637       638      2716      2720      2718
 -1      1148    8    0    1
 -2       518       517       639      2340      2721      2722
 -1      1149    8    0    1
 -2       517       638       639      2719      2723      2721
 -1      1150    8    0    1
 -2       519       518       640      2343      2724      2725
 -1      1151    8    0    1
 -2       518       639       640      2722      2726      2724
 -1      1152    8    0    1
 -2       520       519       641      2346      2727      2728
 -1      1153    8    0    1
 -2       519       640       641      2725      2729      2727
 -1      1154    8    0    1
 -2       521       520       642      2349      2730      2731
 -1      1155    8    0    1
 -2       520       641       642      2728      2732      2730
 -1      1156    8    0    1
 -2       522       521       643      2352      2733      2734
 -1      1157    8    0    1
 -2       521       642       643      2731      2735      2733
 -1      1158    8    0    1
 -2       523       522       644      2355      2736      2737
 -1      1159    8    0    1
 -2       522       643       644      2734      2738      2736
 -1      1160    8    0    1
 -2       575       584       645      2567      2739      2740
 -1      1161    8    0    1
 -2       558       561       646      2565      2741      2742
 -1      1162    8    0    1
 -2       558       646       557      2742      2743      2462
 -1      1163    8    0    1
 -2       470       469       647      2198      2744      2745
 -1      1164    8    0    1
 -2       564       565       648      2481      2746      2747
 -1      1165    8    0    1
 -2       560       559       649      2467      2748      2749
 -1      1166    8    0    1
 -2       525       526       650      2366      2750      2751
 -1      1167    8    0    1
 -2       525       650       602      2751      2752      2611
 -1      1168    8    0    1
 -2       526       527       651      2369      2753      2754
 -1      1169    8    0    1
 -2       526       651       650      2754      2755      2750
 -1      1170    8    0    1
 -2       527       528       652      2372      2756      2757
 -1      1171    8    0    1
 -2       527       652       651      2757      2758      2753
 -1      1172    8    0    1
 -2       528       529       653      2375      2759      2760
 -1      1173    8    0    1
 -2       528       653       652      2760      2761      2756
 -1      1174    8    0    1
 -2       529       530       654      2378      2762      2763
 -1      1175    8    0    1
 -2       529       654       653      2763      2764      2759
 -1      1176    8    0    1
 -2       530       531       655      2381      2765      2766
 -1      1177    8    0    1
 -2       530       655       654      2766      2767      2762
 -1      1178    8    0    1
 -2       531       532       656      2384      2768      2769
 -1      1179    8    0    1
 -2       531       656       655      2769      2770      2765
 -1      1180    8    0    1
 -2       532       533       657      2387      2771      2772
 -1      1181    8    0    1
 -2       532       657       656      2772      2773      2768
 -1      1182    8    0    1
 -2       533       534       658      2390      2774      2775
 -1      1183    8    0    1
 -2       533       658       657      2775      2776      2771
 -1      1184    8    0    1
 -2       534       535       659      2393      2777      2778
 -1      1185    8    0    1
 -2       534       659       658      2778      2779      2774
 -1      1186    8    0    1
 -2       535       536       660      2396      2780      2781
 -1      1187    8    0    1
 -2       535       660       659      2781      2782      2777
 -1      1188    8    0    1
 -2       536       537       661      2399      2783      2784
 -1      1189    8    0    1
 -2       536       661       660      2784      2785      2780
 -1      1190    8    0    1
 -2       537       538       662      2402      2786      2787
 -1      1191    8    0    1
 -2       537       662       661      2787      2788      2783
 -1      1192    8    0    1
 -2       538       539       663      2405      2789      2790
 -1      1193    8    0    1
 -2       538       663       662      2790      2791      2786
 -1      1194    8    0    1
 -2       539       540       664      2408      2792      2793
 -1      1195    8    0    1
 -2       539       664       663      2793      2794      2789
 -1      1196    8    0    1
 -2       540       541       665      2411      2795      2796
 -1      1197    8    0    1
 -2       540       665       664      2796      2797      2792
 -1      1198    8    0    1
 -2       541       542       666      2414      2798      2799
 -1      1199    8    0    1
 -2       541       666       665      2799      2800      2795
 -1      1200    8    0    1
 -2       542       543       667      2417      2801      2802
 -1      1201    8    0    1
 -2       542       667       666      2802      2803      2798
 -1      1202    8    0    1
 -2       543       544       668      2420      2804      2805
 -1      1203    8    0    1
 -2       543       668       667      2805      2806      2801
 -1      1204    8    0    1
 -2       544       545       669      2423      2807      2808
 -1      1205    8    0    1
 -2       544       669       668      2808      2809      2804
 -1      1206    8    0    1
 -2       545       546       670      2426      2810      2811
 -1      1207    8    0    1
 -2       545       670       669      2811      2812      2807
 -1      1208    8    0    1
 -2       546       547       671      2429      2813      2814
 -1      1209    8    0    1
 -2       546       671       670      2814      2815      2810
 -1      1210    8    0    1
 -2       547       548       672      2432      2816      2817
 -1      1211    8    0    1
 -2       547       672       671      2817      2818      2813
 -1      1212    8    0    1
 -2       548       549       673      2435      2819      2820
 -1      1213    8    0    1
 -2       548       673       672      2820      2821      2816
 -1      1214    8    0    1
 -2       549       550       674      2438      2822      2823
 -1      1215    8    0    1
 -2       549       674       673      2823      2824      2819
 -1      1216    8    0    1
 -2       550       551       675      2441      2825      2826
 -1      1217    8    0    1
 -2       550       675       674      2826      2827      2822
 -1      1218    8    0    1
 -2       551       552       676      2444      2828      2829
 -1      1219    8    0    1
 -2       551       676       675      2829      2830      2825
 -1      1220    8    0    1
 -2       552       553       677      2447      2831      2832
 -1      1221    8    0    1
 -2       552       677       676      2832      2833      2828
 -1      1222    8    0    1
 -2       553       554       678      2450      2834      2835
 -1      1223    8    0    1
 -2       553       678       677      2835      2836      2831
 -1      1224    8    0    1
 -2       554       555       679      2453      2837      2838
 -1      1225    8    0    1
 -2       554       679       678      2838      2839      2834
 -1      1226    8    0    1
 -2       555       556       680      2456      2840      2841
 -1      1227    8    0    1
 -2       555       680       679      2841      2842      2837
 -1      1228    8    0    1
 -2       556       557       681      2459      2843      2844
 -1      1229    8    0    1
 -2       680       556       681      2840      2844      2845
 -1      1230    8    0    1
 -2       557       646       681      2743      2846      2843
 -1      1231    8    0    1
 -2       563       564       682      2478      2847      2848
 -1      1232    8    0    1
 -2       564       648       682      2747      2849      2847
 -1      1233    8    0    1
 -2       424       425       558      2050      2559      2460
 -1      1234    8    0    1
 -2       586       582       683      2561      2850      2851
 -1      1235    8    0    1
 -2       561       560       646      2470      2852      2741
 -1      1236    8    0    1
 -2       468       573       579      2504      2523      2853
 -1      1237    8    0    1
 -2       559       563       684      2475      2854      2855
 -1      1238    8    0    1
 -2       649       559       684      2748      2855      2856
 -1      1239    8    0    1
 -2       563       682       684      2848      2857      2854
 -1      1240    8    0    1
 -2       565       566       685      2484      2858      2859
 -1      1241    8    0    1
 -2       565       685       648      2859      2860      2746
 -1      1242    8    0    1
 -2       566       567       686      2487      2861      2862
 -1      1243    8    0    1
 -2       566       686       685      2862      2863      2858
 -1      1244    8    0    1
 -2       567       568       687      2490      2864      2865
 -1      1245    8    0    1
 -2       567       687       686      2865      2866      2861
 -1      1246    8    0    1
 -2       568       569       688      2493      2867      2868
 -1      1247    8    0    1
 -2       568       688       687      2868      2869      2864
 -1      1248    8    0    1
 -2       562       572       598      2501      2601      2870
 -1      1249    8    0    1
 -2       476       592       571      2555      2871      2598
 -1      1250    8    0    1
 -2       580       578       475      2550      2592      2595
 -1      1251    8    0    1
 -2       582       587       689      2585      2872      2873
 -1      1252    8    0    1
 -2       570       594       690      2575      2874      2875
 -1      1253    8    0    1
 -2       594       523       690      2580      2876      2874
 -1      1254    8    0    1
 -2       478       524       691      2360      2877      2878
 -1      1255    8    0    1
 -2       598       478       691      2599      2878      2879
 -1      1256    8    0    1
 -2       524       602       691      2612      2880      2877
 -1      1257    8    0    1
 -2       592       336       590      2557      2548      2881
 -1      1258    8    0    1
 -2       467       575       692      2568      2882      2883
 -1      1259    8    0    1
 -2       585       586       693      2562      2884      2885
 -1      1260    8    0    1
 -2       589       576       694      2572      2886      2887
 -1      1261    8    0    1
 -2       587       588       695      2589      2888      2889
 -1      1262    8    0    1
 -2       588       589       696      2587      2890      2891
 -1      1263    8    0    1
 -2       588       696       695      2891      2892      2888
 -1      1264    8    0    1
 -2       578       581       474      2586      2893      2593
 -1      1265    8    0    1
 -2       584       466       697      2588      2894      2895
 -1      1266    8    0    1
 -2       474       581       473      2893      2896      2209
 -1      1267    8    0    1
 -2       592       590       468      2881      2549      2897
 -1      1268    8    0    1
 -2       591       470       698      2551      2898      2899
 -1      1269    8    0    1
 -2       470       647       698      2745      2900      2898
 -1      1270    8    0    1
 -2       683       582       689      2850      2873      2901
 -1      1271    8    0    1
 -2       584       697       699      2895      2902      2903
 -1      1272    8    0    1
 -2       584       699       645      2903      2904      2739
 -1      1273    8    0    1
 -2       471       472       700      2203      2905      2906
 -1      1274    8    0    1
 -2       576       597       694      2597      2907      2886
 -1      1275    8    0    1
 -2       693       586       683      2884      2851      2908
 -1      1276    8    0    1
 -2       599       562       598      2602      2870      2909
 -1      1277    8    0    1
 -2       575       645       692      2740      2910      2882
 -1      1278    8    0    1
 -2       469       577       701      2515      2911      2912
 -1      1279    8    0    1
 -2       469       701       647      2912      2913      2744
 -1      1280    8    0    1
 -2       592       468       571      2897      2914      2871
 -1      1281    8    0    1
 -2       560       649       646      2749      2915      2852
 -1      1282    8    0    1
 -2       569       570       690      2496      2875      2916
 -1      1283    8    0    1
 -2       595       467       692      2579      2883      2917
 -1      1284    8    0    1
 -2       593       585       702      2571      2918      2919
 -1      1285    8    0    1
 -2       585       693       702      2885      2920      2918
 -1      1286    8    0    1
 -2       696       589       694      2890      2887      2921
 -1      1287    8    0    1
 -2       690       523       644      2876      2737      2922
 -1      1288    8    0    1
 -2       577       471       703      2516      2923      2924
 -1      1289    8    0    1
 -2       577       703       701      2924      2925      2911
 -1      1290    8    0    1
 -2       466       593       697      2570      2926      2894
 -1      1291    8    0    1
 -2       581       583       473      2533      2927      2896
 -1      1292    8    0    1
 -2       689       587       695      2872      2889      2928
 -1      1293    8    0    1
 -2       700       472       595      2905      2591      2929
 -1      1294    8    0    1
 -2       569       690       704      2916      2930      2931
 -1      1295    8    0    1
 -2       688       569       704      2867      2931      2932
 -1      1296    8    0    1
 -2       690       644       704      2922      2933      2930
 -1      1297    8    0    1
 -2       703       471       700      2923      2906      2934
 -1      1298    8    0    1
 -2       694       597       705      2907      2935      2936
 -1      1299    8    0    1
 -2       650       651       706      2755      2937      2938
 -1      1300    8    0    1
 -2       603       600       707      2615      2939      2940
 -1      1301    8    0    1
 -2       697       593       708      2926      2941      2942
 -1      1302    8    0    1
 -2       593       702       708      2919      2943      2941
 -1      1303    8    0    1
 -2       604       603       709      2618      2944      2945
 -1      1304    8    0    1
 -2       603       707       709      2940      2946      2944
 -1      1305    8    0    1
 -2       605       604       710      2621      2947      2948
 -1      1306    8    0    1
 -2       604       709       710      2945      2949      2947
 -1      1307    8    0    1
 -2       606       605       711      2624      2950      2951
 -1      1308    8    0    1
 -2       605       710       711      2948      2952      2950
 -1      1309    8    0    1
 -2       607       606       712      2627      2953      2954
 -1      1310    8    0    1
 -2       606       711       712      2951      2955      2953
 -1      1311    8    0    1
 -2       608       607       713      2630      2956      2957
 -1      1312    8    0    1
 -2       607       712       713      2954      2958      2956
 -1      1313    8    0    1
 -2       609       608       714      2633      2959      2960
 -1      1314    8    0    1
 -2       608       713       714      2957      2961      2959
 -1      1315    8    0    1
 -2       610       609       715      2636      2962      2963
 -1      1316    8    0    1
 -2       609       714       715      2960      2964      2962
 -1      1317    8    0    1
 -2       611       610       716      2639      2965      2966
 -1      1318    8    0    1
 -2       610       715       716      2963      2967      2965
 -1      1319    8    0    1
 -2       612       611       717      2642      2968      2969
 -1      1320    8    0    1
 -2       611       716       717      2966      2970      2968
 -1      1321    8    0    1
 -2       613       612       718      2645      2971      2972
 -1      1322    8    0    1
 -2       612       717       718      2969      2973      2971
 -1      1323    8    0    1
 -2       614       613       719      2648      2974      2975
 -1      1324    8    0    1
 -2       613       718       719      2972      2976      2974
 -1      1325    8    0    1
 -2       615       614       720      2651      2977      2978
 -1      1326    8    0    1
 -2       614       719       720      2975      2979      2977
 -1      1327    8    0    1
 -2       616       615       721      2654      2980      2981
 -1      1328    8    0    1
 -2       615       720       721      2978      2982      2980
 -1      1329    8    0    1
 -2       617       616       722      2657      2983      2984
 -1      1330    8    0    1
 -2       616       721       722      2981      2985      2983
 -1      1331    8    0    1
 -2       618       617       723      2660      2986      2987
 -1      1332    8    0    1
 -2       617       722       723      2984      2988      2986
 -1      1333    8    0    1
 -2       619       618       724      2663      2989      2990
 -1      1334    8    0    1
 -2       618       723       724      2987      2991      2989
 -1      1335    8    0    1
 -2       620       619       725      2666      2992      2993
 -1      1336    8    0    1
 -2       619       724       725      2990      2994      2992
 -1      1337    8    0    1
 -2       621       620       726      2669      2995      2996
 -1      1338    8    0    1
 -2       620       725       726      2993      2997      2995
 -1      1339    8    0    1
 -2       622       621       727      2672      2998      2999
 -1      1340    8    0    1
 -2       621       726       727      2996      3000      2998
 -1      1341    8    0    1
 -2       623       622       728      2675      3001      3002
 -1      1342    8    0    1
 -2       622       727       728      2999      3003      3001
 -1      1343    8    0    1
 -2       624       623       729      2678      3004      3005
 -1      1344    8    0    1
 -2       623       728       729      3002      3006      3004
 -1      1345    8    0    1
 -2       625       624       730      2681      3007      3008
 -1      1346    8    0    1
 -2       624       729       730      3005      3009      3007
 -1      1347    8    0    1
 -2       626       625       731      2684      3010      3011
 -1      1348    8    0    1
 -2       625       730       731      3008      3012      3010
 -1      1349    8    0    1
 -2       627       626       732      2687      3013      3014
 -1      1350    8    0    1
 -2       626       731       732      3011      3015      3013
 -1      1351    8    0    1
 -2       628       627       733      2690      3016      3017
 -1      1352    8    0    1
 -2       627       732       733      3014      3018      3016
 -1      1353    8    0    1
 -2       629       628       734      2693      3019      3020
 -1      1354    8    0    1
 -2       628       733       734      3017      3021      3019
 -1      1355    8    0    1
 -2       630       629       735      2696      3022      3023
 -1      1356    8    0    1
 -2       629       734       735      3020      3024      3022
 -1      1357    8    0    1
 -2       631       630       736      2699      3025      3026
 -1      1358    8    0    1
 -2       630       735       736      3023      3027      3025
 -1      1359    8    0    1
 -2       632       631       737      2702      3028      3029
 -1      1360    8    0    1
 -2       631       736       737      3026      3030      3028
 -1      1361    8    0    1
 -2       633       632       738      2705      3031      3032
 -1      1362    8    0    1
 -2       632       737       738      3029      3033      3031
 -1      1363    8    0    1
 -2       634       633       739      2708      3034      3035
 -1      1364    8    0    1
 -2       633       738       739      3032      3036      3034
 -1      1365    8    0    1
 -2       635       634       740      2711      3037      3038
 -1      1366    8    0    1
 -2       634       739       740      3035      3039      3037
 -1      1367    8    0    1
 -2       636       635       741      2714      3040      3041
 -1      1368    8    0    1
 -2       635       740       741      3038      3042      3040
 -1      1369    8    0    1
 -2       637       636       742      2717      3043      3044
 -1      1370    8    0    1
 -2       636       741       742      3041      3045      3043
 -1      1371    8    0    1
 -2       638       637       743      2720      3046      3047
 -1      1372    8    0    1
 -2       637       742       743      3044      3048      3046
 -1      1373    8    0    1
 -2       639       638       744      2723      3049      3050
 -1      1374    8    0    1
 -2       638       743       744      3047      3051      3049
 -1      1375    8    0    1
 -2       640       639       745      2726      3052      3053
 -1      1376    8    0    1
 -2       639       744       745      3050      3054      3052
 -1      1377    8    0    1
 -2       641       640       746      2729      3055      3056
 -1      1378    8    0    1
 -2       640       745       746      3053      3057      3055
 -1      1379    8    0    1
 -2       642       641       747      2732      3058      3059
 -1      1380    8    0    1
 -2       641       746       747      3056      3060      3058
 -1      1381    8    0    1
 -2       643       642       748      2735      3061      3062
 -1      1382    8    0    1
 -2       642       747       748      3059      3063      3061
 -1      1383    8    0    1
 -2       644       643       749      2738      3064      3065
 -1      1384    8    0    1
 -2       704       644       749      2933      3065      3066
 -1      1385    8    0    1
 -2       643       748       749      3062      3067      3064
 -1      1386    8    0    1
 -2       648       685       750      2860      3068      3069
 -1      1387    8    0    1
 -2       571       468       579      2914      2853      2524
 -1      1388    8    0    1
 -2       602       650       751      2752      3070      3071
 -1      1389    8    0    1
 -2       650       706       751      2938      3072      3070
 -1      1390    8    0    1
 -2       652       653       752      2761      3073      3074
 -1      1391    8    0    1
 -2       653       654       753      2764      3075      3076
 -1      1392    8    0    1
 -2       653       753       752      3076      3077      3073
 -1      1393    8    0    1
 -2       654       655       754      2767      3078      3079
 -1      1394    8    0    1
 -2       654       754       753      3079      3080      3075
 -1      1395    8    0    1
 -2       655       656       755      2770      3081      3082
 -1      1396    8    0    1
 -2       655       755       754      3082      3083      3078
 -1      1397    8    0    1
 -2       656       657       756      2773      3084      3085
 -1      1398    8    0    1
 -2       656       756       755      3085      3086      3081
 -1      1399    8    0    1
 -2       657       658       757      2776      3087      3088
 -1      1400    8    0    1
 -2       657       757       756      3088      3089      3084
 -1      1401    8    0    1
 -2       658       659       758      2779      3090      3091
 -1      1402    8    0    1
 -2       658       758       757      3091      3092      3087
 -1      1403    8    0    1
 -2       659       660       759      2782      3093      3094
 -1      1404    8    0    1
 -2       659       759       758      3094      3095      3090
 -1      1405    8    0    1
 -2       660       661       760      2785      3096      3097
 -1      1406    8    0    1
 -2       660       760       759      3097      3098      3093
 -1      1407    8    0    1
 -2       661       662       761      2788      3099      3100
 -1      1408    8    0    1
 -2       661       761       760      3100      3101      3096
 -1      1409    8    0    1
 -2       662       663       762      2791      3102      3103
 -1      1410    8    0    1
 -2       662       762       761      3103      3104      3099
 -1      1411    8    0    1
 -2       663       664       763      2794      3105      3106
 -1      1412    8    0    1
 -2       663       763       762      3106      3107      3102
 -1      1413    8    0    1
 -2       664       665       764      2797      3108      3109
 -1      1414    8    0    1
 -2       664       764       763      3109      3110      3105
 -1      1415    8    0    1
 -2       665       666       765      2800      3111      3112
 -1      1416    8    0    1
 -2       665       765       764      3112      3113      3108
 -1      1417    8    0    1
 -2       666       667       766      2803      3114      3115
 -1      1418    8    0    1
 -2       666       766       765      3115      3116      3111
 -1      1419    8    0    1
 -2       667       668       767      2806      3117      3118
 -1      1420    8    0    1
 -2       667       767       766      3118      3119      3114
 -1      1421    8    0    1
 -2       668       669       768      2809      3120      3121
 -1      1422    8    0    1
 -2       668       768       767      3121      3122      3117
 -1      1423    8    0    1
 -2       669       670       769      2812      3123      3124
 -1      1424    8    0    1
 -2       669       769       768      3124      3125      3120
 -1      1425    8    0    1
 -2       670       671       770      2815      3126      3127
 -1      1426    8    0    1
 -2       670       770       769      3127      3128      3123
 -1      1427    8    0    1
 -2       671       672       771      2818      3129      3130
 -1      1428    8    0    1
 -2       671       771       770      3130      3131      3126
 -1      1429    8    0    1
 -2       672       673       772      2821      3132      3133
 -1      1430    8    0    1
 -2       672       772       771      3133      3134      3129
 -1      1431    8    0    1
 -2       673       674       773      2824      3135      3136
 -1      1432    8    0    1
 -2       673       773       772      3136      3137      3132
 -1      1433    8    0    1
 -2       674       675       774      2827      3138      3139
 -1      1434    8    0    1
 -2       674       774       773      3139      3140      3135
 -1      1435    8    0    1
 -2       675       676       775      2830      3141      3142
 -1      1436    8    0    1
 -2       675       775       774      3142      3143      3138
 -1      1437    8    0    1
 -2       676       677       776      2833      3144      3145
 -1      1438    8    0    1
 -2       676       776       775      3145      3146      3141
 -1      1439    8    0    1
 -2       677       678       777      2836      3147      3148
 -1      1440    8    0    1
 -2       677       777       776      3148      3149      3144
 -1      1441    8    0    1
 -2       678       679       778      2839      3150      3151
 -1      1442    8    0    1
 -2       678       778       777      3151      3152      3147
 -1      1443    8    0    1
 -2       679       680       779      2842      3153      3154
 -1      1444    8    0    1
 -2       679       779       778      3154      3155      3150
 -1      1445    8    0    1
 -2       682       648       780      2849      3156      3157
 -1      1446    8    0    1
 -2       648       750       780      3069      3158      3156
 -1      1447    8    0    1
 -2       683       689       781      2901      3159      3160
 -1      1448    8    0    1
 -2       599       598       782      2909      3161      3162
 -1      1449    8    0    1
 -2       598       691       782      2879      3163      3161
 -1      1450    8    0    1
 -2       687       688       783      2869      3164      3165
 -1      1451    8    0    1
 -2       692       645       784      2910      3166      3167
 -1      1452    8    0    1
 -2       651       652       785      2758      3168      3169
 -1      1453    8    0    1
 -2       652       752       785      3074      3170      3168
 -1      1454    8    0    1
 -2       686       687       786      2866      3171      3172
 -1      1455    8    0    1
 -2       687       783       786      3165      3173      3171
 -1      1456    8    0    1
 -2       596       591       787      2584      3174      3175
 -1      1457    8    0    1
 -2       601       596       787      2610      3175      3176
 -1      1458    8    0    1
 -2       591       698       787      2899      3177      3174
 -1      1459    8    0    1
 -2       685       686       788      2863      3178      3179
 -1      1460    8    0    1
 -2       750       685       788      3068      3179      3180
 -1      1461    8    0    1
 -2       686       786       788      3172      3181      3178
 -1      1462    8    0    1
 -2       595       692       700      2917      3182      2929
 -1      1463    8    0    1
 -2       693       683       789      2908      3183      3184
 -1      1464    8    0    1
 -2       696       694       790      2921      3185      3186
 -1      1465    8    0    1
 -2       646       649       791      2915      3187      3188
 -1      1466    8    0    1
 -2       646       791       681      3188      3189      2846
 -1      1467    8    0    1
 -2       695       696       792      2892      3190      3191
 -1      1468    8    0    1
 -2       597       599       793      2604      3192      3193
 -1      1469    8    0    1
 -2       705       597       793      2935      3193      3194
 -1      1470    8    0    1
 -2       599       782       793      3162      3195      3192
 -1      1471    8    0    1
 -2       473       583       595      2927      2578      2590
 -1      1472    8    0    1
 -2       689       695       794      2928      3196      3197
 -1      1473    8    0    1
 -2       689       794       781      3197      3198      3159
 -1      1474    8    0    1
 -2       700       692       784      3182      3167      3199
 -1      1475    8    0    1
 -2       699       697       795      2902      3200      3201
 -1      1476    8    0    1
 -2       697       708       795      2942      3202      3200
 -1      1477    8    0    1
 -2       790       694       705      3185      2936      3203
 -1      1478    8    0    1
 -2       645       699       796      2904      3204      3205
 -1      1479    8    0    1
 -2       645       796       784      3205      3206      3166
 -1      1480    8    0    1
 -2       649       684       797      2856      3207      3208
 -1      1481    8    0    1
 -2       649       797       791      3208      3209      3187
 -1      1482    8    0    1
 -2       683       781       789      3160      3210      3183
 -1      1483    8    0    1
 -2       600       601       787      2609      3176      3211
 -1      1484    8    0    1
 -2       794       695       792      3196      3191      3212
 -1      1485    8    0    1
 -2       680       681       798      2845      3213      3214
 -1      1486    8    0    1
 -2       779       680       798      3153      3214      3215
 -1      1487    8    0    1
 -2       681       791       798      3189      3216      3213
 -1      1488    8    0    1
 -2       700       784       703      3199      3217      2934
 -1      1489    8    0    1
 -2       707       600       787      2939      3211      3218
 -1      1490    8    0    1
 -2       684       682       799      2857      3219      3220
 -1      1491    8    0    1
 -2       797       684       799      3207      3220      3221
 -1      1492    8    0    1
 -2       682       780       799      3157      3222      3219
 -1      1493    8    0    1
 -2       651       785       706      3169      3223      2937
 -1      1494    8    0    1
 -2       702       693       800      2920      3224      3225
 -1      1495    8    0    1
 -2       693       789       800      3184      3226      3224
 -1      1496    8    0    1
 -2       698       647       801      2900      3227      3228
 -1      1497    8    0    1
 -2       691       602       802      2880      3229      3230
 -1      1498    8    0    1
 -2       782       691       802      3163      3230      3231
 -1      1499    8    0    1
 -2       602       751       802      3071      3232      3229
 -1      1500    8    0    1
 -2       696       790       792      3186      3233      3190
 -1      1501    8    0    1
 -2       647       701       803      2913      3234      3235
 -1      1502    8    0    1
 -2       647       803       801      3235      3236      3227
 -1      1503    8    0    1
 -2       703       784       796      3217      3206      3237
 -1      1504    8    0    1
 -2       701       703       796      2925      3237      3238
 -1      1505    8    0    1
 -2       688       704       804      2932      3239      3240
 -1      1506    8    0    1
 -2       783       688       804      3164      3240      3241
 -1      1507    8    0    1
 -2       704       749       804      3066      3242      3239
 -1      1508    8    0    1
 -2       796       699       805      3204      3243      3244
 -1      1509    8    0    1
 -2       699       795       805      3201      3245      3243
 -1      1510    8    0    1
 -2       790       705       806      3203      3246      3247
 -1      1511    8    0    1
 -2       709       707       807      2946      3248      3249
 -1      1512    8    0    1
 -2       710       709       808      2949      3250      3251
 -1      1513    8    0    1
 -2       709       807       808      3249      3252      3250
 -1      1514    8    0    1
 -2       711       710       809      2952      3253      3254
 -1      1515    8    0    1
 -2       710       808       809      3251      3255      3253
 -1      1516    8    0    1
 -2       712       711       810      2955      3256      3257
 -1      1517    8    0    1
 -2       711       809       810      3254      3258      3256
 -1      1518    8    0    1
 -2       713       712       811      2958      3259      3260
 -1      1519    8    0    1
 -2       712       810       811      3257      3261      3259
 -1      1520    8    0    1
 -2       714       713       812      2961      3262      3263
 -1      1521    8    0    1
 -2       713       811       812      3260      3264      3262
 -1      1522    8    0    1
 -2       715       714       813      2964      3265      3266
 -1      1523    8    0    1
 -2       714       812       813      3263      3267      3265
 -1      1524    8    0    1
 -2       716       715       814      2967      3268      3269
 -1      1525    8    0    1
 -2       715       813       814      3266      3270      3268
 -1      1526    8    0    1
 -2       717       716       815      2970      3271      3272
 -1      1527    8    0    1
 -2       716       814       815      3269      3273      3271
 -1      1528    8    0    1
 -2       718       717       816      2973      3274      3275
 -1      1529    8    0    1
 -2       717       815       816      3272      3276      3274
 -1      1530    8    0    1
 -2       719       718       817      2976      3277      3278
 -1      1531    8    0    1
 -2       718       816       817      3275      3279      3277
 -1      1532    8    0    1
 -2       720       719       818      2979      3280      3281
 -1      1533    8    0    1
 -2       719       817       818      3278      3282      3280
 -1      1534    8    0    1
 -2       721       720       819      2982      3283      3284
 -1      1535    8    0    1
 -2       720       818       819      3281      3285      3283
 -1      1536    8    0    1
 -2       722       721       820      2985      3286      3287
 -1      1537    8    0    1
 -2       721       819       820      3284      3288      3286
 -1      1538    8    0    1
 -2       723       722       821      2988      3289      3290
 -1      1539    8    0    1
 -2       722       820       821      3287      3291      3289
 -1      1540    8    0    1
 -2       724       723       822      2991      3292      3293
 -1      1541    8    0    1
 -2       723       821       822      3290      3294      3292
 -1      1542    8    0    1
 -2       725       724       823      2994      3295      3296
 -1      1543    8    0    1
 -2       724       822       823      3293      3297      3295
 -1      1544    8    0    1
 -2       726       725       824      2997      3298      3299
 -1      1545    8    0    1
 -2       725       823       824      3296      3300      3298
 -1      1546    8    0    1
 -2       727       726       825      3000      3301      3302
 -1      1547    8    0    1
 -2       726       824       825      3299      3303      3301
 -1      1548    8    0    1
 -2       728       727       826      3003      3304      3305
 -1      1549    8    0    1
 -2       727       825       826      3302      3306      3304
 -1      1550    8    0    1
 -2       729       728       827      3006      3307      3308
 -1      1551    8    0    1
 -2       728       826       827      3305      3309      3307
 -1      1552    8    0    1
 -2       730       729       828      3009      3310      3311
 -1      1553    8    0    1
 -2       729       827       828      3308      3312      3310
 -1      1554    8    0    1
 -2       731       730       829      3012      3313      3314
 -1      1555    8    0    1
 -2       730       828       829      3311      3315      3313
 -1      1556    8    0    1
 -2       732       731       830      3015      3316      3317
 -1      1557    8    0    1
 -2       731       829       830      3314      3318      3316
 -1      1558    8    0    1
 -2       733       732       831      3018      3319      3320
 -1      1559    8    0    1
 -2       732       830       831      3317      3321      3319
 -1      1560    8    0    1
 -2       734       733       832      3021      3322      3323
 -1      1561    8    0    1
 -2       733       831       832      3320      3324      3322
 -1      1562    8    0    1
 -2       735       734       833      3024      3325      3326
 -1      1563    8    0    1
 -2       734       832       833      3323      3327      3325
 -1      1564    8    0    1
 -2       736       735       834      3027      3328      3329
 -1      1565    8    0    1
 -2       735       833       834      3326      3330      3328
 -1      1566    8    0    1
 -2       737       736       835      3030      3331      3332
 -1      1567    8    0    1
 -2       736       834       835      3329      3333      3331
 -1      1568    8    0    1
 -2       738       737       836      3033      3334      3335
 -1      1569    8    0    1
 -2       737       835       836      3332      3336      3334
 -1      1570    8    0    1
 -2       739       738       837      3036      3337      3338
 -1      1571    8    0    1
 -2       738       836       837      3335      3339      3337
 -1      1572    8    0    1
 -2       740       739       838      3039      3340      3341
 -1      1573    8    0    1
 -2       739       837       838      3338      3342      3340
 -1      1574    8    0    1
 -2       741       740       839      3042      3343      3344
 -1      1575    8    0    1
 -2       740       838       839      3341      3345      3343
 -1      1576    8    0    1
 -2       742       741       840      3045      3346      3347
 -1      1577    8    0    1
 -2       741       839       840      3344      3348      3346
 -1      1578    8    0    1
 -2       743       742       841      3048      3349      3350
 -1      1579    8    0    1
 -2       742       840       841      3347      3351      3349
 -1      1580    8    0    1
 -2       744       743       842      3051      3352      3353
 -1      1581    8    0    1
 -2       743       841       842      3350      3354      3352
 -1      1582    8    0    1
 -2       745       744       843      3054      3355      3356
 -1      1583    8    0    1
 -2       744       842       843      3353      3357      3355
 -1      1584    8    0    1
 -2       746       745       844      3057      3358      3359
 -1      1585    8    0    1
 -2       745       843       844      3356      3360      3358
 -1      1586    8    0    1
 -2       747       746       845      3060      3361      3362
 -1      1587    8    0    1
 -2       746       844       845      3359      3363      3361
 -1      1588    8    0    1
 -2       748       747       846      3063      3364      3365
 -1      1589    8    0    1
 -2       747       845       846      3362      3366      3364
 -1      1590    8    0    1
 -2       701       796       803      3238      3367      3234
 -1      1591    8    0    1
 -2       754       755       847      3083      3368      3369
 -1      1592    8    0    1
 -2       753       754       848      3080      3370      3371
 -1      1593    8    0    1
 -2       754       847       848      3369      3372      3370
 -1      1594    8    0    1
 -2       752       753       849      3077      3373      3374
 -1      1595    8    0    1
 -2       753       848       849      3371      3375      3373
 -1      1596    8    0    1
 -2       755       756       850      3086      3376      3377
 -1      1597    8    0    1
 -2       755       850       847      3377      3378      3368
 -1      1598    8    0    1
 -2       756       757       851      3089      3379      3380
 -1      1599    8    0    1
 -2       756       851       850      3380      3381      3376
 -1      1600    8    0    1
 -2       757       758       852      3092      3382      3383
 -1      1601    8    0    1
 -2       757       852       851      3383      3384      3379
 -1      1602    8    0    1
 -2       758       759       853      3095      3385      3386
 -1      1603    8    0    1
 -2       758       853       852      3386      3387      3382
 -1      1604    8    0    1
 -2       759       760       854      3098      3388      3389
 -1      1605    8    0    1
 -2       759       854       853      3389      3390      3385
 -1      1606    8    0    1
 -2       760       761       855      3101      3391      3392
 -1      1607    8    0    1
 -2       760       855       854      3392      3393      3388
 -1      1608    8    0    1
 -2       761       762       856      3104      3394      3395
 -1      1609    8    0    1
 -2       761       856       855      3395      3396      3391
 -1      1610    8    0    1
 -2       762       763       857      3107      3397      3398
 -1      1611    8    0    1
 -2       762       857       856      3398      3399      3394
 -1      1612    8    0    1
 -2       763       764       858      3110      3400      3401
 -1      1613    8    0    1
 -2       763       858       857      3401      3402      3397
 -1      1614    8    0    1
 -2       764       765       859      3113      3403      3404
 -1      1615    8    0    1
 -2       764       859       858      3404      3405      3400
 -1      1616    8    0    1
 -2       765       766       860      3116      3406      3407
 -1      1617    8    0    1
 -2       765       860       859      3407      3408      3403
 -1      1618    8    0    1
 -2       766       767       861      3119      3409      3410
 -1      1619    8    0    1
 -2       766       861       860      3410      3411      3406
 -1      1620    8    0    1
 -2       767       768       862      3122      3412      3413
 -1      1621    8    0    1
 -2       767       862       861      3413      3414      3409
 -1      1622    8    0    1
 -2       768       769       863      3125      3415      3416
 -1      1623    8    0    1
 -2       768       863       862      3416      3417      3412
 -1      1624    8    0    1
 -2       769       770       864      3128      3418      3419
 -1      1625    8    0    1
 -2       769       864       863      3419      3420      3415
 -1      1626    8    0    1
 -2       770       771       865      3131      3421      3422
 -1      1627    8    0    1
 -2       770       865       864      3422      3423      3418
 -1      1628    8    0    1
 -2       771       772       866      3134      3424      3425
 -1      1629    8    0    1
 -2       771       866       865      3425      3426      3421
 -1      1630    8    0    1
 -2       772       773       867      3137      3427      3428
 -1      1631    8    0    1
 -2       772       867       866      3428      3429      3424
 -1      1632    8    0    1
 -2       773       774       868      3140      3430      3431
 -1      1633    8    0    1
 -2       773       868       867      3431      3432      3427
 -1      1634    8    0    1
 -2       774       775       869      3143      3433      3434
 -1      1635    8    0    1
 -2       774       869       868      3434      3435      3430
 -1      1636    8    0    1
 -2       775       776       870      3146      3436      3437
 -1      1637    8    0    1
 -2       775       870       869      3437      3438      3433
 -1      1638    8    0    1
 -2       776       777       871      3149      3439      3440
 -1      1639    8    0    1
 -2       776       871       870      3440      3441      3436
 -1      1640    8    0    1
 -2       777       778       872      3152      3442      3443
 -1      1641    8    0    1
 -2       777       872       871      3443      3444      3439
 -1      1642    8    0    1
 -2       778       779       873      3155      3445      3446
 -1      1643    8    0    1
 -2       778       873       872      3446      3447      3442
 -1      1644    8    0    1
 -2       706       785       874      3223      3448      3449
 -1      1645    8    0    1
 -2       780       750       875      3158      3450      3451
 -1      1646    8    0    1
 -2       786       783       876      3173      3452      3453
 -1      1647    8    0    1
 -2       787       698       707      3177      3454      3218
 -1      1648    8    0    1
 -2       789       781       877      3210      3455      3456
 -1      1649    8    0    1
 -2       794       792       878      3212      3457      3458
 -1      1650    8    0    1
 -2       792       790       879      3233      3459      3460
 -1      1651    8    0    1
 -2       785       752       880      3170      3461      3462
 -1      1652    8    0    1
 -2       752       849       880      3374      3463      3461
 -1      1653    8    0    1
 -2       708       702       881      2943      3464      3465
 -1      1654    8    0    1
 -2       702       800       881      3225      3466      3464
 -1      1655    8    0    1
 -2       781       794       882      3198      3467      3468
 -1      1656    8    0    1
 -2       751       706       883      3072      3469      3470
 -1      1657    8    0    1
 -2       706       874       883      3449      3471      3469
 -1      1658    8    0    1
 -2       806       705       884      3246      3472      3473
 -1      1659    8    0    1
 -2       795       708       885      3202      3474      3475
 -1      1660    8    0    1
 -2       708       881       885      3465      3476      3474
 -1      1661    8    0    1
 -2       802       751       886      3232      3477      3478
 -1      1662    8    0    1
 -2       751       883       886      3470      3479      3477
 -1      1663    8    0    1
 -2       749       748       887      3067      3480      3481
 -1      1664    8    0    1
 -2       804       749       887      3242      3481      3482
 -1      1665    8    0    1
 -2       748       846       887      3365      3483      3480
 -1      1666    8    0    1
 -2       791       797       888      3209      3484      3485
 -1      1667    8    0    1
 -2       791       888       798      3485      3486      3216
 -1      1668    8    0    1
 -2       873       779       798      3445      3215      3487
 -1      1669    8    0    1
 -2       874       785       880      3448      3462      3488
 -1      1670    8    0    1
 -2       780       875       889      3451      3489      3490
 -1      1671    8    0    1
 -2       780       889       799      3490      3491      3222
 -1      1672    8    0    1
 -2       786       876       890      3453      3492      3493
 -1      1673    8    0    1
 -2       786       890       788      3493      3494      3181
 -1      1674    8    0    1
 -2       879       790       806      3459      3247      3495
 -1      1675    8    0    1
 -2       800       789       891      3226      3496      3497
 -1      1676    8    0    1
 -2       789       877       891      3456      3498      3496
 -1      1677    8    0    1
 -2       781       882       877      3468      3499      3455
 -1      1678    8    0    1
 -2       783       804       887      3241      3482      3500
 -1      1679    8    0    1
 -2       782       802       892      3231      3501      3502
 -1      1680    8    0    1
 -2       793       782       892      3195      3502      3503
 -1      1681    8    0    1
 -2       802       886       892      3478      3504      3501
 -1      1682    8    0    1
 -2       707       698       801      3454      3228      3505
 -1      1683    8    0    1
 -2       783       887       876      3500      3506      3452
 -1      1684    8    0    1
 -2       794       878       882      3458      3507      3467
 -1      1685    8    0    1
 -2       750       788       893      3180      3508      3509
 -1      1686    8    0    1
 -2       875       750       893      3450      3509      3510
 -1      1687    8    0    1
 -2       788       890       893      3494      3511      3508
 -1      1688    8    0    1
 -2       878       792       879      3457      3460      3512
 -1      1689    8    0    1
 -2       707       801       807      3505      3513      3248
 -1      1690    8    0    1
 -2       807       801       894      3513      3514      3515
 -1      1691    8    0    1
 -2       801       803       894      3236      3516      3514
 -1      1692    8    0    1
 -2       705       793       884      3194      3517      3472
 -1      1693    8    0    1
 -2       887       846       876      3483      3518      3506
 -1      1694    8    0    1
 -2       803       796       805      3367      3244      3519
 -1      1695    8    0    1
 -2       809       808       895      3255      3520      3521
 -1      1696    8    0    1
 -2       810       809       896      3258      3522      3523
 -1      1697    8    0    1
 -2       809       895       896      3521      3524      3522
 -1      1698    8    0    1
 -2       811       810       891      3261      3525      3526
 -1      1699    8    0    1
 -2       813       812       897      3267      3527      3528
 -1      1700    8    0    1
 -2       814       813       898      3270      3529      3530
 -1      1701    8    0    1
 -2       813       897       898      3528      3531      3529
 -1      1702    8    0    1
 -2       815       814       899      3273      3532      3533
 -1      1703    8    0    1
 -2       814       898       899      3530      3534      3532
 -1      1704    8    0    1
 -2       816       815       900      3276      3535      3536
 -1      1705    8    0    1
 -2       815       899       900      3533      3537      3535
 -1      1706    8    0    1
 -2       817       816       901      3279      3538      3539
 -1      1707    8    0    1
 -2       816       900       901      3536      3540      3538
 -1      1708    8    0    1
 -2       818       817       902      3282      3541      3542
 -1      1709    8    0    1
 -2       817       901       902      3539      3543      3541
 -1      1710    8    0    1
 -2       819       818       903      3285      3544      3545
 -1      1711    8    0    1
 -2       818       902       903      3542      3546      3544
 -1      1712    8    0    1
 -2       820       819       904      3288      3547      3548
 -1      1713    8    0    1
 -2       819       903       904      3545      3549      3547
 -1      1714    8    0    1
 -2       821       820       905      3291      3550      3551
 -1      1715    8    0    1
 -2       820       904       905      3548      3552      3550
 -1      1716    8    0    1
 -2       822       821       906      3294      3553      3554
 -1      1717    8    0    1
 -2       821       905       906      3551      3555      3553
 -1      1718    8    0    1
 -2       823       822       907      3297      3556      3557
 -1      1719    8    0    1
 -2       822       906       907      3554      3558      3556
 -1      1720    8    0    1
 -2       824       823       908      3300      3559      3560
 -1      1721    8    0    1
 -2       823       907       908      3557      3561      3559
 -1      1722    8    0    1
 -2       825       824       909      3303      3562      3563
 -1      1723    8    0    1
 -2       824       908       909      3560      3564      3562
 -1      1724    8    0    1
 -2       826       825       910      3306      3565      3566
 -1      1725    8    0    1
 -2       825       909       910      3563      3567      3565
 -1      1726    8    0    1
 -2       827       826       911      3309      3568      3569
 -1      1727    8    0    1
 -2       826       910       911      3566      3570      3568
 -1      1728    8    0    1
 -2       828       827       912      3312      3571      3572
 -1      1729    8    0    1
 -2       827       911       912      3569      3573      3571
 -1      1730    8    0    1
 -2       829       828       913      3315      3574      3575
 -1      1731    8    0    1
 -2       828       912       913      3572      3576      3574
 -1      1732    8    0    1
 -2       830       829       914      3318      3577      3578
 -1      1733    8    0    1
 -2       829       913       914      3575      3579      3577
 -1      1734    8    0    1
 -2       831       830       915      3321      3580      3581
 -1      1735    8    0    1
 -2       830       914       915      3578      3582      3580
 -1      1736    8    0    1
 -2       832       831       916      3324      3583      3584
 -1      1737    8    0    1
 -2       831       915       916      3581      3585      3583
 -1      1738    8    0    1
 -2       833       832       917      3327      3586      3587
 -1      1739    8    0    1
 -2       832       916       917      3584      3588      3586
 -1      1740    8    0    1
 -2       834       833       918      3330      3589      3590
 -1      1741    8    0    1
 -2       833       917       918      3587      3591      3589
 -1      1742    8    0    1
 -2       835       834       919      3333      3592      3593
 -1      1743    8    0    1
 -2       834       918       919      3590      3594      3592
 -1      1744    8    0    1
 -2       836       835       920      3336      3595      3596
 -1      1745    8    0    1
 -2       835       919       920      3593      3597      3595
 -1      1746    8    0    1
 -2       837       836       921      3339      3598      3599
 -1      1747    8    0    1
 -2       836       920       921      3596      3600      3598
 -1      1748    8    0    1
 -2       838       837       922      3342      3601      3602
 -1      1749    8    0    1
 -2       837       921       922      3599      3603      3601
 -1      1750    8    0    1
 -2       839       838       923      3345      3604      3605
 -1      1751    8    0    1
 -2       838       922       923      3602      3606      3604
 -1      1752    8    0    1
 -2       840       839       924      3348      3607      3608
 -1      1753    8    0    1
 -2       839       923       924      3605      3609      3607
 -1      1754    8    0    1
 -2       841       840       925      3351      3610      3611
 -1      1755    8    0    1
 -2       840       924       925      3608      3612      3610
 -1      1756    8    0    1
 -2       842       841       926      3354      3613      3614
 -1      1757    8    0    1
 -2       841       925       926      3611      3615      3613
 -1      1758    8    0    1
 -2       843       842       927      3357      3616      3617
 -1      1759    8    0    1
 -2       842       926       927      3614      3618      3616
 -1      1760    8    0    1
 -2       844       843       928      3360      3619      3620
 -1      1761    8    0    1
 -2       843       927       928      3617      3621      3619
 -1      1762    8    0    1
 -2       845       844       929      3363      3622      3623
 -1      1763    8    0    1
 -2       844       928       929      3620      3624      3622
 -1      1764    8    0    1
 -2       846       845       930      3366      3625      3626
 -1      1765    8    0    1
 -2       845       929       930      3623      3627      3625
 -1      1766    8    0    1
 -2       848       847       931      3372      3628      3629
 -1      1767    8    0    1
 -2       850       851       932      3381      3630      3631
 -1      1768    8    0    1
 -2       882       878       933      3507      3632      3633
 -1      1769    8    0    1
 -2       873       798       888      3487      3486      3634
 -1      1770    8    0    1
 -2       847       850       934      3378      3635      3636
 -1      1771    8    0    1
 -2       931       847       934      3628      3636      3637
 -1      1772    8    0    1
 -2       850       932       934      3631      3638      3635
 -1      1773    8    0    1
 -2       849       848       935      3375      3639      3640
 -1      1774    8    0    1
 -2       848       931       935      3629      3641      3639
 -1      1775    8    0    1
 -2       851       852       936      3384      3642      3643
 -1      1776    8    0    1
 -2       851       936       932      3643      3644      3630
 -1      1777    8    0    1
 -2       852       853       937      3387      3645      3646
 -1      1778    8    0    1
 -2       852       937       936      3646      3647      3642
 -1      1779    8    0    1
 -2       853       854       938      3390      3648      3649
 -1      1780    8    0    1
 -2       853       938       937      3649      3650      3645
 -1      1781    8    0    1
 -2       854       855       939      3393      3651      3652
 -1      1782    8    0    1
 -2       854       939       938      3652      3653      3648
 -1      1783    8    0    1
 -2       855       856       940      3396      3654      3655
 -1      1784    8    0    1
 -2       855       940       939      3655      3656      3651
 -1      1785    8    0    1
 -2       856       857       941      3399      3657      3658
 -1      1786    8    0    1
 -2       856       941       940      3658      3659      3654
 -1      1787    8    0    1
 -2       857       858       942      3402      3660      3661
 -1      1788    8    0    1
 -2       857       942       941      3661      3662      3657
 -1      1789    8    0    1
 -2       858       859       943      3405      3663      3664
 -1      1790    8    0    1
 -2       858       943       942      3664      3665      3660
 -1      1791    8    0    1
 -2       859       860       944      3408      3666      3667
 -1      1792    8    0    1
 -2       859       944       943      3667      3668      3663
 -1      1793    8    0    1
 -2       860       861       945      3411      3669      3670
 -1      1794    8    0    1
 -2       860       945       944      3670      3671      3666
 -1      1795    8    0    1
 -2       861       862       946      3414      3672      3673
 -1      1796    8    0    1
 -2       861       946       945      3673      3674      3669
 -1      1797    8    0    1
 -2       862       863       947      3417      3675      3676
 -1      1798    8    0    1
 -2       862       947       946      3676      3677      3672
 -1      1799    8    0    1
 -2       863       864       948      3420      3678      3679
 -1      1800    8    0    1
 -2       863       948       947      3679      3680      3675
 -1      1801    8    0    1
 -2       864       865       949      3423      3681      3682
 -1      1802    8    0    1
 -2       864       949       948      3682      3683      3678
 -1      1803    8    0    1
 -2       865       866       950      3426      3684      3685
 -1      1804    8    0    1
 -2       865       950       949      3685      3686      3681
 -1      1805    8    0    1
 -2       866       867       951      3429      3687      3688
 -1      1806    8    0    1
 -2       866       951       950      3688      3689      3684
 -1      1807    8    0    1
 -2       867       868       952      3432      3690      3691
 -1      1808    8    0    1
 -2       867       952       951      3691      3692      3687
 -1      1809    8    0    1
 -2       868       869       953      3435      3693      3694
 -1      1810    8    0    1
 -2       868       953       952      3694      3695      3690
 -1      1811    8    0    1
 -2       869       870       954      3438      3696      3697
 -1      1812    8    0    1
 -2       869       954       953      3697      3698      3693
 -1      1813    8    0    1
 -2       870       871       955      3441      3699      3700
 -1      1814    8    0    1
 -2       870       955       954      3700      3701      3696
 -1      1815    8    0    1
 -2       871       872       956      3444      3702      3703
 -1      1816    8    0    1
 -2       871       956       955      3703      3704      3699
 -1      1817    8    0    1
 -2       872       873       957      3447      3705      3706
 -1      1818    8    0    1
 -2       872       957       956      3706      3707      3702
 -1      1819    8    0    1
 -2       806       884       958      3473      3708      3709
 -1      1820    8    0    1
 -2       883       874       959      3471      3710      3711
 -1      1821    8    0    1
 -2       880       849       960      3463      3712      3713
 -1      1822    8    0    1
 -2       849       935       960      3640      3714      3712
 -1      1823    8    0    1
 -2       874       880       961      3488      3715      3716
 -1      1824    8    0    1
 -2       959       874       961      3710      3716      3717
 -1      1825    8    0    1
 -2       880       960       961      3713      3718      3715
 -1      1826    8    0    1
 -2       805       795       962      3245      3719      3720
 -1      1827    8    0    1
 -2       795       885       962      3475      3721      3719
 -1      1828    8    0    1
 -2       878       879       963      3512      3722      3723
 -1      1829    8    0    1
 -2       797       799       964      3221      3724      3725
 -1      1830    8    0    1
 -2       888       797       964      3484      3725      3726
 -1      1831    8    0    1
 -2       799       889       964      3491      3727      3724
 -1      1832    8    0    1
 -2       879       806       965      3495      3728      3729
 -1      1833    8    0    1
 -2       808       807       966      3252      3730      3731
 -1      1834    8    0    1
 -2       895       808       966      3520      3731      3732
 -1      1835    8    0    1
 -2       807       894       966      3515      3733      3730
 -1      1836    8    0    1
 -2       877       882       967      3499      3734      3735
 -1      1837    8    0    1
 -2       884       793       892      3517      3503      3736
 -1      1838    8    0    1
 -2       881       800       896      3466      3737      3738
 -1      1839    8    0    1
 -2       803       805       894      3519      3739      3516
 -1      1840    8    0    1
 -2       876       846       930      3518      3626      3740
 -1      1841    8    0    1
 -2       878       963       933      3723      3741      3632
 -1      1842    8    0    1
 -2       886       883       968      3479      3742      3743
 -1      1843    8    0    1
 -2       883       959       968      3711      3744      3742
 -1      1844    8    0    1
 -2       967       882       933      3734      3633      3745
 -1      1845    8    0    1
 -2       810       896       891      3523      3746      3525
 -1      1846    8    0    1
 -2       812       811       969      3264      3747      3748
 -1      1847    8    0    1
 -2       873       888       970      3634      3749      3750
 -1      1848    8    0    1
 -2       957       873       970      3705      3750      3751
 -1      1849    8    0    1
 -2       888       964       970      3726      3752      3749
 -1      1850    8    0    1
 -2       806       958       965      3709      3753      3728
 -1      1851    8    0    1
 -2       958       884       968      3708      3754      3755
 -1      1852    8    0    1
 -2       889       875       971      3489      3756      3757
 -1      1853    8    0    1
 -2       890       876       930      3492      3740      3758
 -1      1854    8    0    1
 -2       963       879       965      3722      3729      3759
 -1      1855    8    0    1
 -2       891       877       969      3498      3760      3761
 -1      1856    8    0    1
 -2       800       891       896      3497      3746      3737
 -1      1857    8    0    1
 -2       884       892       886      3736      3504      3762
 -1      1858    8    0    1
 -2       884       886       968      3762      3743      3754
 -1      1859    8    0    1
 -2       875       893       972      3510      3763      3764
 -1      1860    8    0    1
 -2       875       972       971      3764      3765      3756
 -1      1861    8    0    1
 -2       897       812       969      3527      3748      3766
 -1      1862    8    0    1
 -2       881       896       895      3738      3524      3767
 -1      1863    8    0    1
 -2       968       959       973      3744      3768      3769
 -1      1864    8    0    1
 -2       969       811       891      3747      3526      3761
 -1      1865    8    0    1
 -2       932       936       974      3644      3770      3771
 -1      1866    8    0    1
 -2       933       963       975      3741      3772      3773
 -1      1867    8    0    1
 -2       899       898       975      3534      3774      3775
 -1      1868    8    0    1
 -2       900       899       976      3537      3776      3777
 -1      1869    8    0    1
 -2       899       975       976      3775      3778      3776
 -1      1870    8    0    1
 -2       901       900       977      3540      3779      3780
 -1      1871    8    0    1
 -2       900       976       977      3777      3781      3779
 -1      1872    8    0    1
 -2       902       901       978      3543      3782      3783
 -1      1873    8    0    1
 -2       901       977       978      3780      3784      3782
 -1      1874    8    0    1
 -2       903       902       979      3546      3785      3786
 -1      1875    8    0    1
 -2       902       978       979      3783      3787      3785
 -1      1876    8    0    1
 -2       904       903       980      3549      3788      3789
 -1      1877    8    0    1
 -2       903       979       980      3786      3790      3788
 -1      1878    8    0    1
 -2       905       904       981      3552      3791      3792
 -1      1879    8    0    1
 -2       904       980       981      3789      3793      3791
 -1      1880    8    0    1
 -2       906       905       982      3555      3794      3795
 -1      1881    8    0    1
 -2       905       981       982      3792      3796      3794
 -1      1882    8    0    1
 -2       907       906       983      3558      3797      3798
 -1      1883    8    0    1
 -2       906       982       983      3795      3799      3797
 -1      1884    8    0    1
 -2       908       907       984      3561      3800      3801
 -1      1885    8    0    1
 -2       907       983       984      3798      3802      3800
 -1      1886    8    0    1
 -2       909       908       985      3564      3803      3804
 -1      1887    8    0    1
 -2       908       984       985      3801      3805      3803
 -1      1888    8    0    1
 -2       910       909       986      3567      3806      3807
 -1      1889    8    0    1
 -2       909       985       986      3804      3808      3806
 -1      1890    8    0    1
 -2       911       910       987      3570      3809      3810
 -1      1891    8    0    1
 -2       910       986       987      3807      3811      3809
 -1      1892    8    0    1
 -2       912       911       988      3573      3812      3813
 -1      1893    8    0    1
 -2       911       987       988      3810      3814      3812
 -1      1894    8    0    1
 -2       913       912       989      3576      3815      3816
 -1      1895    8    0    1
 -2       912       988       989      3813      3817      3815
 -1      1896    8    0    1
 -2       914       913       990      3579      3818      3819
 -1      1897    8    0    1
 -2       913       989       990      3816      3820      3818
 -1      1898    8    0    1
 -2       915       914       991      3582      3821      3822
 -1      1899    8    0    1
 -2       914       990       991      3819      3823      3821
 -1      1900    8    0    1
 -2       916       915       992      3585      3824      3825
 -1      1901    8    0    1
 -2       915       991       992      3822      3826      3824
 -1      1902    8    0    1
 -2       917       916       993      3588      3827      3828
 -1      1903    8    0    1
 -2       916       992       993      3825      3829      3827
 -1      1904    8    0    1
 -2       918       917       994      3591      3830      3831
 -1      1905    8    0    1
 -2       917       993       994      3828      3832      3830
 -1      1906    8    0    1
 -2       919       918       995      3594      3833      3834
 -1      1907    8    0    1
 -2       918       994       995      3831      3835      3833
 -1      1908    8    0    1
 -2       920       919       996      3597      3836      3837
 -1      1909    8    0    1
 -2       919       995       996      3834      3838      3836
 -1      1910    8    0    1
 -2       921       920       997      3600      3839      3840
 -1      1911    8    0    1
 -2       920       996       997      3837      3841      3839
 -1      1912    8    0    1
 -2       922       921       998      3603      3842      3843
 -1      1913    8    0    1
 -2       921       997       998      3840      3844      3842
 -1      1914    8    0    1
 -2       923       922       999      3606      3845      3846
 -1      1915    8    0    1
 -2       922       998       999      3843      3847      3845
 -1      1916    8    0    1
 -2       924       923      1000      3609      3848      3849
 -1      1917    8    0    1
 -2       923       999      1000      3846      3850      3848
 -1      1918    8    0    1
 -2       925       924      1001      3612      3851      3852
 -1      1919    8    0    1
 -2       924      1000      1001      3849      3853      3851
 -1      1920    8    0    1
 -2       926       925      1002      3615      3854      3855
 -1      1921    8    0    1
 -2       925      1001      1002      3852      3856      3854
 -1      1922    8    0    1
 -2       927       926      1003      3618      3857      3858
 -1      1923    8    0    1
 -2       926      1002      1003      3855      3859      3857
 -1      1924    8    0    1
 -2       928       927      1004      3621      3860      3861
 -1      1925    8    0    1
 -2       927      1003      1004      3858      3862      3860
 -1      1926    8    0    1
 -2       929       928      1005      3624      3863      3864
 -1      1927    8    0    1
 -2       928      1004      1005      3861      3865      3863
 -1      1928    8    0    1
 -2       930       929      1006      3627      3866      3867
 -1      1929    8    0    1
 -2       890       930      1006      3758      3867      3868
 -1      1930    8    0    1
 -2       929      1005      1006      3864      3869      3866
 -1      1931    8    0    1
 -2       935       931      1007      3641      3870      3871
 -1      1932    8    0    1
 -2       937       938      1008      3650      3872      3873
 -1      1933    8    0    1
 -2       938       939      1009      3653      3874      3875
 -1      1934    8    0    1
 -2       938      1009      1008      3875      3876      3872
 -1      1935    8    0    1
 -2       939       940      1010      3656      3877      3878
 -1      1936    8    0    1
 -2       939      1010      1009      3878      3879      3874
 -1      1937    8    0    1
 -2       940       941      1011      3659      3880      3881
 -1      1938    8    0    1
 -2       940      1011      1010      3881      3882      3877
 -1      1939    8    0    1
 -2       941       942      1012      3662      3883      3884
 -1      1940    8    0    1
 -2       941      1012      1011      3884      3885      3880
 -1      1941    8    0    1
 -2       942       943      1013      3665      3886      3887
 -1      1942    8    0    1
 -2       942      1013      1012      3887      3888      3883
 -1      1943    8    0    1
 -2       943       944      1014      3668      3889      3890
 -1      1944    8    0    1
 -2       943      1014      1013      3890      3891      3886
 -1      1945    8    0    1
 -2       944       945      1015      3671      3892      3893
 -1      1946    8    0    1
 -2       944      1015      1014      3893      3894      3889
 -1      1947    8    0    1
 -2       945       946      1016      3674      3895      3896
 -1      1948    8    0    1
 -2       945      1016      1015      3896      3897      3892
 -1      1949    8    0    1
 -2       946       947      1017      3677      3898      3899
 -1      1950    8    0    1
 -2       946      1017      1016      3899      3900      3895
 -1      1951    8    0    1
 -2       947       948      1018      3680      3901      3902
 -1      1952    8    0    1
 -2       947      1018      1017      3902      3903      3898
 -1      1953    8    0    1
 -2       948       949      1019      3683      3904      3905
 -1      1954    8    0    1
 -2       948      1019      1018      3905      3906      3901
 -1      1955    8    0    1
 -2       949       950      1020      3686      3907      3908
 -1      1956    8    0    1
 -2       949      1020      1019      3908      3909      3904
 -1      1957    8    0    1
 -2       950       951      1021      3689      3910      3911
 -1      1958    8    0    1
 -2       950      1021      1020      3911      3912      3907
 -1      1959    8    0    1
 -2       951       952      1022      3692      3913      3914
 -1      1960    8    0    1
 -2       951      1022      1021      3914      3915      3910
 -1      1961    8    0    1
 -2       952       953      1023      3695      3916      3917
 -1      1962    8    0    1
 -2       952      1023      1022      3917      3918      3913
 -1      1963    8    0    1
 -2       953       954      1024      3698      3919      3920
 -1      1964    8    0    1
 -2       953      1024      1023      3920      3921      3916
 -1      1965    8    0    1
 -2       954       955      1025      3701      3922      3923
 -1      1966    8    0    1
 -2       954      1025      1024      3923      3924      3919
 -1      1967    8    0    1
 -2       955       956      1026      3704      3925      3926
 -1      1968    8    0    1
 -2       955      1026      1025      3926      3927      3922
 -1      1969    8    0    1
 -2       956       957      1027      3707      3928      3929
 -1      1970    8    0    1
 -2       956      1027      1026      3929      3930      3925
 -1      1971    8    0    1
 -2       897       969       967      3766      3931      3932
 -1      1972    8    0    1
 -2       805       962       894      3720      3933      3739
 -1      1973    8    0    1
 -2       969       877       967      3760      3735      3931
 -1      1974    8    0    1
 -2       965       958      1028      3753      3934      3935
 -1      1975    8    0    1
 -2       893       890      1006      3511      3868      3936
 -1      1976    8    0    1
 -2       960       935      1029      3714      3937      3938
 -1      1977    8    0    1
 -2       935      1007      1029      3871      3939      3937
 -1      1978    8    0    1
 -2       936       937      1030      3647      3940      3941
 -1      1979    8    0    1
 -2       974       936      1030      3770      3941      3942
 -1      1980    8    0    1
 -2       937      1008      1030      3873      3943      3940
 -1      1981    8    0    1
 -2       963       965      1031      3759      3944      3945
 -1      1982    8    0    1
 -2       958       968       973      3755      3769      3946
 -1      1983    8    0    1
 -2       894       962       966      3933      3947      3733
 -1      1984    8    0    1
 -2       975       898       933      3774      3948      3773
 -1      1985    8    0    1
 -2       931       934      1032      3637      3949      3950
 -1      1986    8    0    1
 -2       931      1032      1007      3950      3951      3870
 -1      1987    8    0    1
 -2       975       963      1031      3772      3945      3952
 -1      1988    8    0    1
 -2       881       895       885      3767      3953      3476
 -1      1989    8    0    1
 -2       960      1029      1033      3938      3954      3955
 -1      1990    8    0    1
 -2       960      1033       961      3955      3956      3718
 -1      1991    8    0    1
 -2       885       895       962      3953      3957      3721
 -1      1992    8    0    1
 -2       959       961      1034      3717      3958      3959
 -1      1993    8    0    1
 -2       973       959      1034      3768      3959      3960
 -1      1994    8    0    1
 -2       961      1033      1034      3956      3961      3958
 -1      1995    8    0    1
 -2       934       932      1035      3638      3962      3963
 -1      1996    8    0    1
 -2       932       974      1035      3771      3964      3962
 -1      1997    8    0    1
 -2       965      1028      1031      3935      3965      3944
 -1      1998    8    0    1
 -2       971       972      1036      3765      3966      3967
 -1      1999    8    0    1
 -2       889       971      1037      3757      3968      3969
 -1      2000    8    0    1
 -2       967       933       898      3745      3948      3970
 -1      2001    8    0    1
 -2       962       895       966      3957      3732      3947
 -1      2002    8    0    1
 -2       893      1006       972      3936      3971      3763
 -1      2003    8    0    1
 -2       958       973      1028      3946      3972      3934
 -1      2004    8    0    1
 -2       971      1036      1027      3967      3973      3974
 -1      2005    8    0    1
 -2       971      1027      1037      3974      3975      3968
 -1      2006    8    0    1
 -2       972      1006      1038      3971      3976      3977
 -1      2007    8    0    1
 -2      1036       972      1038      3966      3977      3978
 -1      2008    8    0    1
 -2      1006      1005      1038      3869      3979      3976
 -1      2009    8    0    1
 -2       970       964      1037      3752      3980      3981
 -1      2010    8    0    1
 -2       957       970      1027      3751      3982      3928
 -1      2011    8    0    1
 -2       978       977      1039      3784      3983      3984
 -1      2012    8    0    1
 -2       979       978      1040      3787      3985      3986
 -1      2013    8    0    1
 -2       978      1039      1040      3984      3987      3985
 -1      2014    8    0    1
 -2       980       979      1041      3790      3988      3989
 -1      2015    8    0    1
 -2       979      1040      1041      3986      3990      3988
 -1      2016    8    0    1
 -2       981       980      1042      3793      3991      3992
 -1      2017    8    0    1
 -2       980      1041      1042      3989      3993      3991
 -1      2018    8    0    1
 -2       982       981      1043      3796      3994      3995
 -1      2019    8    0    1
 -2       981      1042      1043      3992      3996      3994
 -1      2020    8    0    1
 -2       983       982      1044      3799      3997      3998
 -1      2021    8    0    1
 -2       982      1043      1044      3995      3999      3997
 -1      2022    8    0    1
 -2       984       983      1045      3802      4000      4001
 -1      2023    8    0    1
 -2       983      1044      1045      3998      4002      4000
 -1      2024    8    0    1
 -2       985       984      1046      3805      4003      4004
 -1      2025    8    0    1
 -2       984      1045      1046      4001      4005      4003
 -1      2026    8    0    1
 -2       986       985      1047      3808      4006      4007
 -1      2027    8    0    1
 -2       985      1046      1047      4004      4008      4006
 -1      2028    8    0    1
 -2       987       986      1048      3811      4009      4010
 -1      2029    8    0    1
 -2       986      1047      1048      4007      4011      4009
 -1      2030    8    0    1
 -2       988       987      1049      3814      4012      4013
 -1      2031    8    0    1
 -2       987      1048      1049      4010      4014      4012
 -1      2032    8    0    1
 -2       989       988      1050      3817      4015      4016
 -1      2033    8    0    1
 -2       988      1049      1050      4013      4017      4015
 -1      2034    8    0    1
 -2       990       989      1051      3820      4018      4019
 -1      2035    8    0    1
 -2       989      1050      1051      4016      4020      4018
 -1      2036    8    0    1
 -2       991       990      1052      3823      4021      4022
 -1      2037    8    0    1
 -2       990      1051      1052      4019      4023      4021
 -1      2038    8    0    1
 -2       992       991      1053      3826      4024      4025
 -1      2039    8    0    1
 -2       991      1052      1053      4022      4026      4024
 -1      2040    8    0    1
 -2       993       992      1054      3829      4027      4028
 -1      2041    8    0    1
 -2       992      1053      1054      4025      4029      4027
 -1      2042    8    0    1
 -2       994       993      1055      3832      4030      4031
 -1      2043    8    0    1
 -2       993      1054      1055      4028      4032      4030
 -1      2044    8    0    1
 -2       995       994      1056      3835      4033      4034
 -1      2045    8    0    1
 -2       994      1055      1056      4031      4035      4033
 -1      2046    8    0    1
 -2       996       995      1057      3838      4036      4037
 -1      2047    8    0    1
 -2       995      1056      1057      4034      4038      4036
 -1      2048    8    0    1
 -2       997       996      1058      3841      4039      4040
 -1      2049    8    0    1
 -2       996      1057      1058      4037      4041      4039
 -1      2050    8    0    1
 -2       998       997      1059      3844      4042      4043
 -1      2051    8    0    1
 -2       997      1058      1059      4040      4044      4042
 -1      2052    8    0    1
 -2       999       998      1060      3847      4045      4046
 -1      2053    8    0    1
 -2       998      1059      1060      4043      4047      4045
 -1      2054    8    0    1
 -2      1000       999      1061      3850      4048      4049
 -1      2055    8    0    1
 -2       999      1060      1061      4046      4050      4048
 -1      2056    8    0    1
 -2      1001      1000      1062      3853      4051      4052
 -1      2057    8    0    1
 -2      1000      1061      1062      4049      4053      4051
 -1      2058    8    0    1
 -2      1002      1001      1063      3856      4054      4055
 -1      2059    8    0    1
 -2      1001      1062      1063      4052      4056      4054
 -1      2060    8    0    1
 -2      1003      1002      1064      3859      4057      4058
 -1      2061    8    0    1
 -2      1002      1063      1064      4055      4059      4057
 -1      2062    8    0    1
 -2      1004      1003      1065      3862      4060      4061
 -1      2063    8    0    1
 -2      1003      1064      1065      4058      4062      4060
 -1      2064    8    0    1
 -2      1005      1004      1066      3865      4063      4064
 -1      2065    8    0    1
 -2      1004      1065      1066      4061      4065      4063
 -1      2066    8    0    1
 -2      1009      1010      1067      3879      4066      4067
 -1      2067    8    0    1
 -2      1008      1009      1068      3876      4068      4069
 -1      2068    8    0    1
 -2      1009      1067      1068      4067      4070      4068
 -1      2069    8    0    1
 -2      1011      1012      1069      3885      4071      4072
 -1      2070    8    0    1
 -2      1012      1013      1070      3888      4073      4074
 -1      2071    8    0    1
 -2      1012      1070      1069      4074      4075      4071
 -1      2072    8    0    1
 -2      1013      1014      1071      3891      4076      4077
 -1      2073    8    0    1
 -2      1013      1071      1070      4077      4078      4073
 -1      2074    8    0    1
 -2      1014      1015      1072      3894      4079      4080
 -1      2075    8    0    1
 -2      1014      1072      1071      4080      4081      4076
 -1      2076    8    0    1
 -2      1015      1016      1073      3897      4082      4083
 -1      2077    8    0    1
 -2      1015      1073      1072      4083      4084      4079
 -1      2078    8    0    1
 -2      1016      1017      1074      3900      4085      4086
 -1      2079    8    0    1
 -2      1016      1074      1073      4086      4087      4082
 -1      2080    8    0    1
 -2      1017      1018      1075      3903      4088      4089
 -1      2081    8    0    1
 -2      1017      1075      1074      4089      4090      4085
 -1      2082    8    0    1
 -2      1018      1019      1076      3906      4091      4092
 -1      2083    8    0    1
 -2      1018      1076      1075      4092      4093      4088
 -1      2084    8    0    1
 -2      1019      1020      1077      3909      4094      4095
 -1      2085    8    0    1
 -2      1019      1077      1076      4095      4096      4091
 -1      2086    8    0    1
 -2      1020      1021      1078      3912      4097      4098
 -1      2087    8    0    1
 -2      1020      1078      1077      4098      4099      4094
 -1      2088    8    0    1
 -2      1021      1022      1079      3915      4100      4101
 -1      2089    8    0    1
 -2      1021      1079      1078      4101      4102      4097
 -1      2090    8    0    1
 -2      1022      1023      1080      3918      4103      4104
 -1      2091    8    0    1
 -2      1022      1080      1079      4104      4105      4100
 -1      2092    8    0    1
 -2      1023      1024      1081      3921      4106      4107
 -1      2093    8    0    1
 -2      1023      1081      1080      4107      4108      4103
 -1      2094    8    0    1
 -2      1024      1025      1082      3924      4109      4110
 -1      2095    8    0    1
 -2      1024      1082      1081      4110      4111      4106
 -1      2096    8    0    1
 -2      1025      1026      1083      3927      4112      4113
 -1      2097    8    0    1
 -2      1025      1083      1082      4113      4114      4109
 -1      2098    8    0    1
 -2      1026      1027      1084      3930      4115      4116
 -1      2099    8    0    1
 -2      1083      1026      1084      4112      4116      4117
 -1      2100    8    0    1
 -2      1027      1036      1084      3973      4118      4115
 -1      2101    8    0    1
 -2       897       967       898      3932      3970      3531
 -1      2102    8    0    1
 -2      1037       964       889      3980      3727      3969
 -1      2103    8    0    1
 -2       975      1031       976      3952      4119      3778
 -1      2104    8    0    1
 -2      1029      1007      1085      3939      4120      4121
 -1      2105    8    0    1
 -2      1028       973      1086      3972      4122      4123
 -1      2106    8    0    1
 -2      1031      1028      1087      3965      4124      4125
 -1      2107    8    0    1
 -2       976      1031      1087      4119      4125      4126
 -1      2108    8    0    1
 -2      1028      1086      1087      4123      4127      4124
 -1      2109    8    0    1
 -2      1010      1011      1088      3882      4128      4129
 -1      2110    8    0    1
 -2      1067      1010      1088      4066      4129      4130
 -1      2111    8    0    1
 -2      1011      1069      1088      4072      4131      4128
 -1      2112    8    0    1
 -2      1032       934      1035      3949      3963      4132
 -1      2113    8    0    1
 -2      1033      1029      1089      3954      4133      4134
 -1      2114    8    0    1
 -2      1029      1085      1089      4121      4135      4133
 -1      2115    8    0    1
 -2      1007      1032      1090      3951      4136      4137
 -1      2116    8    0    1
 -2      1007      1090      1085      4137      4138      4120
 -1      2117    8    0    1
 -2       974      1030      1091      3942      4139      4140
 -1      2118    8    0    1
 -2       977       976      1087      3781      4126      4141
 -1      2119    8    0    1
 -2      1005      1066      1038      4064      4142      3979
 -1      2120    8    0    1
 -2      1036      1038      1084      3978      4143      4118
 -1      2121    8    0    1
 -2       973      1034      1086      3960      4144      4122
 -1      2122    8    0    1
 -2       974      1091      1092      4140      4145      4146
 -1      2123    8    0    1
 -2       974      1092      1035      4146      4147      3964
 -1      2124    8    0    1
 -2      1030      1008      1093      3943      4148      4149
 -1      2125    8    0    1
 -2      1091      1030      1093      4139      4149      4150
 -1      2126    8    0    1
 -2      1008      1068      1093      4069      4151      4148
 -1      2127    8    0    1
 -2       977      1087      1039      4141      4152      3983
 -1      2128    8    0    1
 -2      1041      1040      1094      3990      4153      4154
 -1      2129    8    0    1
 -2      1042      1041      1089      3993      4155      4156
 -1      2130    8    0    1
 -2      1043      1042      1085      3996      4157      4158
 -1      2131    8    0    1
 -2      1044      1043      1090      3999      4159      4160
 -1      2132    8    0    1
 -2      1045      1044      1095      4002      4161      4162
 -1      2133    8    0    1
 -2      1046      1045      1092      4005      4163      4164
 -1      2134    8    0    1
 -2      1047      1046      1091      4008      4165      4166
 -1      2135    8    0    1
 -2      1048      1047      1093      4011      4167      4168
 -1      2136    8    0    1
 -2      1049      1048      1068      4014      4169      4170
 -1      2137    8    0    1
 -2      1050      1049      1067      4017      4171      4172
 -1      2138    8    0    1
 -2      1051      1050      1088      4020      4173      4174
 -1      2139    8    0    1
 -2      1052      1051      1069      4023      4175      4176
 -1      2140    8    0    1
 -2      1053      1052      1070      4026      4177      4178
 -1      2141    8    0    1
 -2      1054      1053      1071      4029      4179      4180
 -1      2142    8    0    1
 -2      1055      1054      1072      4032      4181      4182
 -1      2143    8    0    1
 -2      1056      1055      1073      4035      4183      4184
 -1      2144    8    0    1
 -2      1057      1056      1074      4038      4185      4186
 -1      2145    8    0    1
 -2      1058      1057      1075      4041      4187      4188
 -1      2146    8    0    1
 -2      1059      1058      1076      4044      4189      4190
 -1      2147    8    0    1
 -2      1060      1059      1077      4047      4191      4192
 -1      2148    8    0    1
 -2      1061      1060      1078      4050      4193      4194
 -1      2149    8    0    1
 -2      1062      1061      1079      4053      4195      4196
 -1      2150    8    0    1
 -2      1063      1062      1080      4056      4197      4198
 -1      2151    8    0    1
 -2      1064      1063      1081      4059      4199      4200
 -1      2152    8    0    1
 -2      1065      1064      1082      4062      4201      4202
 -1      2153    8    0    1
 -2      1066      1065      1083      4065      4203      4204
 -1      2154    8    0    1
 -2      1091      1046      1092      4165      4164      4145
 -1      2155    8    0    1
 -2      1039      1087      1086      4152      4127      4205
 -1      2156    8    0    1
 -2      1034      1033      1094      3961      4206      4207
 -1      2157    8    0    1
 -2      1076      1058      1075      4189      4188      4093
 -1      2158    8    0    1
 -2      1039      1086      1040      4205      4208      3987
 -1      2159    8    0    1
 -2      1070      1071      1053      4078      4179      4178
 -1      2160    8    0    1
 -2      1069      1070      1052      4075      4177      4176
 -1      2161    8    0    1
 -2      1072      1073      1055      4084      4183      4182
 -1      2162    8    0    1
 -2      1073      1074      1056      4087      4185      4184
 -1      2163    8    0    1
 -2      1074      1075      1057      4090      4187      4186
 -1      2164    8    0    1
 -2      1040      1086      1094      4208      4209      4153
 -1      2165    8    0    1
 -2      1076      1077      1059      4096      4191      4190
 -1      2166    8    0    1
 -2      1077      1078      1060      4099      4193      4192
 -1      2167    8    0    1
 -2      1078      1079      1061      4102      4195      4194
 -1      2168    8    0    1
 -2      1079      1080      1062      4105      4197      4196
 -1      2169    8    0    1
 -2      1080      1081      1063      4108      4199      4198
 -1      2170    8    0    1
 -2      1081      1082      1064      4111      4201      4200
 -1      2171    8    0    1
 -2      1082      1083      1065      4114      4203      4202
 -1      2172    8    0    1
 -2      1083      1084      1066      4117      4210      4204
 -1      2173    8    0    1
 -2      1086      1034      1094      4144      4207      4209
 -1      2174    8    0    1
 -2      1072      1054      1071      4181      4180      4081
 -1      2175    8    0    1
 -2      1069      1051      1088      4175      4174      4131
 -1      2176    8    0    1
 -2      1032      1035      1095      4132      4211      4212
 -1      2177    8    0    1
 -2      1068      1067      1049      4070      4171      4170
 -1      2178    8    0    1
 -2      1085      1042      1089      4157      4156      4135
 -1      2179    8    0    1
 -2      1038      1066      1084      4142      4210      4143
 -1      2180    8    0    1
 -2      1068      1048      1093      4169      4168      4151
 -1      2181    8    0    1
 -2      1043      1085      1090      4158      4138      4159
 -1      2182    8    0    1
 -2      1047      1091      1093      4166      4150      4167
 -1      2183    8    0    1
 -2      1050      1067      1088      4172      4130      4173
 -1      2184    8    0    1
 -2      1027       970      1037      3982      3981      3975
 -1      2185    8    0    1
 -2      1090      1032      1095      4136      4212      4213
 -1      2186    8    0    1
 -2      1089      1041      1094      4155      4154      4214
 -1      2187    8    0    1
 -2      1092      1045      1095      4163      4162      4215
 -1      2188    8    0    1
 -2      1095      1044      1090      4161      4160      4213
 -1      2189    8    0    1
 -2      1095      1035      1092      4211      4147      4215
 -1      2190    8    0    1
 -2      1094      1033      1089      4206      4134      4214
 -3
    1PSTEP                         1           1           1          
  100CL  101 1.000000000        4215                     0    1           1
 -4  DISP        4    1
 -5  D1          1    2    1    0
 -5  D2          1    2    2    0
 -5  D3          1    2    3    0
 -5  ALL         1    2    0    0    1ALL
 -1         1 2.67007E-03 9.41622E-05-2.94198E-16
 -1         2 5.48037E-03 1.16131E-03 2.88466E-17
 -1         3 1.70940E-02 9.69356E-03-2.51534E-14
 -1         4 1.36097E-02 8.26496E-03-4.76043E-14
 -1         5 0.00000E+00 0.00000E+00 0.00000E+00
 -1         6 0.00000E+00 0.00000E+00 0.00000E+00
 -1         7 0.00000E+00 0.00000E+00 0.00000E+00
 -1         8 0.00000E+00 0.00000E+00 0.00000E+00
 -1         9 0.00000E+00 0.00000E+00 0.00000E+00
 -1        10 0.00000E+00 0.00000E+00 0.00000E+00
 -1        11 0.00000E+00 0.00000E+00 0.00000E+00
 -1        12 0.00000E+00 0.00000E+00 0.00000E+00
 -1        13 0.00000E+00 0.00000E+00 0.00000E+00
 -1        14 0.00000E+00 0.00000E+00 0.00000E+00
 -1        15 0.00000E+00 0.00000E+00 0.00000E+00
 -1        16 0.00000E+00 0.00000E+00 0.00000E+00
 -1        17 0.00000E+00 0.00000E+00 0.00000E+00
 -1        18 0.00000E+00 0.00000E+00 0.00000E+00
 -1        19 0.00000E+00 0.00000E+00 0.00000E+00
 -1        20 0.00000E+00 0.00000E+00 0.00000E+00
 -1        21 0.00000E+00 0.00000E+00 0.00000E+00
 -1        22 0.00000E+00 0.00000E+00 0.00000E+00
 -1        23 3.98363E-04-2.76735E-04-6.06984E-17
 -1        24 6.61995E-04-4.28894E-04-2.09532E-16
 -1        25 8.91242E-04-5.24354E-04-4.33901E-16
 -1        26 1.10527E-03-5.73088E-04-7.21699E-16
 -1        27 1.31012E-03-5.80683E-04-1.06623E-15
 -1        28 1.51007E-03-5.49151E-04-1.46268E-15
 -1        29 1.70935E-03-4.79877E-04-1.90622E-15
 -1        30 1.91237E-03-3.75070E-04-2.39208E-15
 -1        31 2.12318E-03-2.38452E-04-2.91952E-15
 -1        32 2.34482E-03-7.51980E-05-3.48474E-15
 -1        33 2.57891E-03 1.08669E-04-4.08714E-15
 -1        34 2.82554E-03 3.07098E-04-4.72222E-15
 -1        35 3.08355E-03 5.14738E-04-5.38694E-15
 -1        36 3.35103E-03 7.27370E-04-6.08219E-15
 -1        37 3.62578E-03 9.42025E-04-6.80359E-15
 -1        38 3.90571E-03 1.15685E-03-7.54640E-15
 -1        39 4.18905E-03 1.37088E-03-8.30909E-15
 -1        40 4.47444E-03 1.58374E-03-9.09205E-15
 -1        41 4.76091E-03 1.79541E-03-9.89804E-15
 -1        42 5.04783E-03 2.00605E-03-1.07333E-14
 -1        43 5.33483E-03 2.21590E-03-1.16013E-14
 -1        44 5.62169E-03 2.42520E-03-1.25035E-14
 -1        45 5.90834E-03 2.63414E-03-1.34424E-14
 -1        46 6.19477E-03 2.84287E-03-1.44217E-14
 -1        47 6.48098E-03 3.05151E-03-1.54340E-14
 -1        48 6.76702E-03 3.26013E-03-1.64852E-14
 -1        49 7.05293E-03 3.46877E-03-1.75703E-14
 -1        50 7.33873E-03 3.67746E-03-1.86915E-14
 -1        51 7.62447E-03 3.88620E-03-1.98526E-14
 -1        52 7.91017E-03 4.09500E-03-2.10494E-14
 -1        53 8.19585E-03 4.30385E-03-2.22573E-14
 -1        54 8.48151E-03 4.51275E-03-2.34874E-14
 -1        55 8.76716E-03 4.72168E-03-2.47286E-14
 -1        56 9.05282E-03 4.93065E-03-2.59678E-14
 -1        57 9.33848E-03 5.13965E-03-2.72213E-14
 -1        58 9.62415E-03 5.34866E-03-2.84906E-14
 -1        59 9.90983E-03 5.55769E-03-2.97678E-14
 -1        60 1.01955E-02 5.76673E-03-3.10447E-14
 -1        61 1.04812E-02 5.97578E-03-3.23296E-14
 -1        62 1.07669E-02 6.18483E-03-3.36460E-14
 -1        63 1.10526E-02 6.39389E-03-3.49957E-14
 -1        64 1.13383E-02 6.60295E-03-3.63734E-14
 -1        65 1.16240E-02 6.81200E-03-3.77789E-14
 -1        66 1.19097E-02 7.02106E-03-3.91848E-14
 -1        67 1.21954E-02 7.23012E-03-4.05838E-14
 -1        68 1.24811E-02 7.43918E-03-4.19835E-14
 -1        69 1.27668E-02 7.64824E-03-4.33869E-14
 -1        70 1.30526E-02 7.85730E-03-4.48060E-14
 -1        71 1.33383E-02 8.06636E-03-4.62366E-14
 -1        72 5.49382E-04 2.47031E-04 7.77102E-17
 -1        73 1.04094E-03 4.13940E-04 1.93110E-16
 -1        74 1.55426E-03 6.31906E-04 3.27300E-16
 -1        75 2.11705E-03 9.75410E-04 4.77442E-16
 -1        76 2.65356E-03 1.45689E-03 6.29915E-16
 -1        77 3.11952E-03 2.06680E-03 8.02262E-16
 -1        78 3.38443E-03 2.49233E-03 9.56043E-16
 -1        79 3.54174E-03 2.60104E-03 1.07512E-15
 -1        80 3.75682E-03 2.46251E-03 1.17981E-15
 -1        81 4.15879E-03 2.14067E-03 1.25930E-15
 -1        82 4.73031E-03 1.85536E-03 1.29221E-15
 -1        83 5.30683E-03 1.75481E-03 1.27567E-15
 -1        84 5.82001E-03 1.80598E-03 1.21754E-15
 -1        85 6.26207E-03 1.94644E-03 1.12927E-15
 -1        86 6.64848E-03 2.13150E-03 1.00215E-15
 -1        87 6.99702E-03 2.33646E-03 8.31817E-16
 -1        88 7.32133E-03 2.54922E-03 6.13570E-16
 -1        89 7.63061E-03 2.76431E-03 3.54649E-16
 -1        90 7.93066E-03 2.97944E-03 6.29379E-17
 -1        91 8.22510E-03 3.19379E-03-2.79850E-16
 -1        92 8.51609E-03 3.40718E-03-6.66937E-16
 -1        93 8.80499E-03 3.61967E-03-1.06682E-15
 -1        94 9.09261E-03 3.83140E-03-1.49065E-15
 -1        95 9.37942E-03 4.04252E-03-1.93717E-15
 -1        96 9.66575E-03 4.25317E-03-2.42591E-15
 -1        97 9.95178E-03 4.46345E-03-2.95778E-15
 -1        98 1.02376E-02 4.67344E-03-3.53134E-15
 -1        99 1.05234E-02 4.88321E-03-4.14210E-15
 -1       100 1.08090E-02 5.09281E-03-4.78527E-15
 -1       101 1.10947E-02 5.30228E-03-5.47733E-15
 -1       102 1.13803E-02 5.51165E-03-6.19010E-15
 -1       103 1.16659E-02 5.72094E-03-6.93001E-15
 -1       104 1.19516E-02 5.93017E-03-7.69937E-15
 -1       105 1.22372E-02 6.13935E-03-8.46117E-15
 -1       106 1.25228E-02 6.34849E-03-9.23166E-15
 -1       107 1.28085E-02 6.55761E-03-1.00417E-14
 -1       108 1.30942E-02 6.76671E-03-1.09090E-14
 -1       109 1.33798E-02 6.97580E-03-1.17787E-14
 -1       110 1.36655E-02 7.18487E-03-1.26668E-14
 -1       111 1.39512E-02 7.39394E-03-1.36041E-14
 -1       112 1.42369E-02 7.60300E-03-1.45710E-14
 -1       113 1.45226E-02 7.81206E-03-1.55470E-14
 -1       114 1.48083E-02 8.02111E-03-1.65370E-14
 -1       115 1.50940E-02 8.23017E-03-1.75505E-14
 -1       116 1.53797E-02 8.43922E-03-1.85817E-14
 -1       117 1.56654E-02 8.64828E-03-1.96264E-14
 -1       118 1.59511E-02 8.85733E-03-2.07101E-14
 -1       119 1.62369E-02 9.06639E-03-2.18120E-14
 -1       120 1.65226E-02 9.27545E-03-2.29310E-14
 -1       121 1.68083E-02 9.48450E-03-2.40325E-14
 -1       122 1.68884E-02 9.60928E-03-2.64491E-14
 -1       123 1.66828E-02 9.52499E-03-2.77656E-14
 -1       124 1.64773E-02 9.44070E-03-2.90810E-14
 -1       125 1.62717E-02 9.35642E-03-3.03965E-14
 -1       126 1.60661E-02 9.27213E-03-3.17178E-14
 -1       127 1.58640E-02 9.18927E-03-3.30290E-14
 -1       128 1.56585E-02 9.10498E-03-3.43540E-14
 -1       129 1.54529E-02 9.02069E-03-3.57042E-14
 -1       130 1.52473E-02 8.93640E-03-3.70575E-14
 -1       131 1.50417E-02 8.85211E-03-3.84265E-14
 -1       132 1.48362E-02 8.76782E-03-3.97949E-14
 -1       133 1.46341E-02 8.68496E-03-4.11406E-14
 -1       134 1.44285E-02 8.60068E-03-4.24927E-14
 -1       135 1.42229E-02 8.51639E-03-4.38133E-14
 -1       136 1.40174E-02 8.43210E-03-4.51001E-14
 -1       137 1.38118E-02 8.34782E-03-4.63593E-14
 -1       138 5.53226E-03 1.34809E-03 1.62522E-16
 -1       139 5.47486E-03 1.54387E-03 3.02437E-16
 -1       140 5.30005E-03 1.74687E-03 4.37377E-16
 -1       141 5.02089E-03 1.94501E-03 5.42027E-16
 -1       142 4.56672E-03 2.16028E-03 6.21783E-16
 -1       143 4.05112E-03 2.30444E-03 6.51877E-16
 -1       144 3.42428E-03 2.34950E-03 6.44382E-16
 -1       145 2.72967E-03 2.23397E-03 5.96623E-16
 -1       146 2.13757E-03 2.00839E-03 5.32736E-16
 -1       147 1.61354E-03 1.71781E-03 4.58407E-16
 -1       148 1.14188E-03 1.38598E-03 3.75049E-16
 -1       149 8.04149E-04 1.09297E-03 2.98604E-16
 -1       150 5.85065E-04 8.47088E-04 2.30911E-16
 -1       151 4.63778E-04 6.31214E-04 1.67198E-16
 -1       152 4.49825E-04 4.65185E-04 1.13335E-16
 -1       153 5.35187E-04 3.26337E-04 5.85791E-17
 -1       154 6.98032E-04 2.25524E-04 7.99769E-18
 -1       155 9.57185E-04 1.43332E-04-4.86739E-17
 -1       156 1.32153E-03 8.33289E-05-1.13387E-16
 -1       157 1.71912E-03 5.63519E-05-1.75092E-16
 -1       158 2.16298E-03 5.82062E-05-2.35746E-16
 -1       159 3.14948E-03 1.58898E-04-3.36387E-16
 -1       160 3.60355E-03 2.48140E-04-3.60768E-16
 -1       161 4.04510E-03 3.63105E-04-3.64292E-16
 -1       162 4.44337E-03 4.95367E-04-3.40595E-16
 -1       163 4.80637E-03 6.47931E-04-2.85282E-16
 -1       164 5.11047E-03 8.13898E-04-2.00406E-16
 -1       165 5.34229E-03 9.90143E-04-9.06664E-17
 -1       166 2.30318E-04-1.46889E-04-5.35054E-17
 -1       167 2.23884E-04-1.19540E-04-4.89890E-17
 -1       168 2.28428E-04-9.72834E-05-4.24668E-17
 -1       169 2.35879E-04-7.46859E-05-3.53924E-17
 -1       170 2.43140E-04-4.91493E-05-2.82164E-17
 -1       171 2.47585E-04-1.91311E-05-2.08777E-17
 -1       172 2.46085E-04 1.55750E-05-1.38778E-17
 -1       173 2.35119E-04 5.26548E-05-6.98972E-18
 -1       174 2.12349E-04 8.59982E-05-5.65818E-19
 -1       175 1.80017E-04 1.06139E-04 5.24144E-18
 -1       176 1.48595E-04 1.04816E-04 1.05981E-17
 -1       177 1.35401E-04 8.37676E-05 1.64291E-17
 -1       178 1.52923E-04 5.62542E-05 2.36864E-17
 -1       179 2.06025E-04 4.28541E-05 3.36001E-17
 -1       180 2.85295E-04 6.65344E-05 4.56856E-17
 -1       181 3.99565E-04 1.38749E-04 6.25381E-17
 -1       182 4.42129E-04-2.94090E-04-1.34411E-16
 -1       183 7.15665E-04-4.20161E-04-3.11718E-16
 -1       184 9.68393E-04-4.94563E-04-5.52289E-16
 -1       185 1.20844E-03-5.24822E-04-8.49476E-16
 -1       186 1.44059E-03-5.14124E-04-1.19760E-15
 -1       187 1.66881E-03-4.63907E-04-1.59237E-15
 -1       188 1.89683E-03-3.75807E-04-2.03012E-15
 -1       189 2.12803E-03-2.52852E-04-2.50825E-15
 -1       190 2.36520E-03-9.97928E-05-3.02526E-15
 -1       191 2.61013E-03 7.73228E-05-3.57927E-15
 -1       192 2.86354E-03 2.71996E-04-4.16705E-15
 -1       193 3.12516E-03 4.78167E-04-4.78650E-15
 -1       194 3.39402E-03 6.90848E-04-5.43691E-15
 -1       195 3.66876E-03 9.06393E-04-6.11585E-15
 -1       196 3.94794E-03 1.12245E-03-6.82071E-15
 -1       197 4.23027E-03 1.33771E-03-7.54667E-15
 -1       198 4.51465E-03 1.55162E-03-8.29438E-15
 -1       199 4.80026E-03 1.76411E-03-9.06450E-15
 -1       200 5.08653E-03 1.97534E-03-9.86234E-15
 -1       201 5.37307E-03 2.18558E-03-1.06921E-14
 -1       202 5.65965E-03 2.39510E-03-1.15545E-14
 -1       203 5.94615E-03 2.60415E-03-1.24515E-14
 -1       204 6.23251E-03 2.81292E-03-1.33858E-14
 -1       205 6.51872E-03 3.02155E-03-1.43563E-14
 -1       206 6.80480E-03 3.23013E-03-1.53610E-14
 -1       207 7.09076E-03 3.43872E-03-1.64033E-14
 -1       208 7.37663E-03 3.64736E-03-1.74801E-14
 -1       209 7.66243E-03 3.85606E-03-1.85937E-14
 -1       210 7.94818E-03 4.06482E-03-1.97402E-14
 -1       211 8.23389E-03 4.27364E-03-2.09124E-14
 -1       212 8.51959E-03 4.48251E-03-2.21003E-14
 -1       213 8.80528E-03 4.69143E-03-2.33046E-14
 -1       214 9.09096E-03 4.90038E-03-2.45161E-14
 -1       215 9.37664E-03 5.10937E-03-2.57369E-14
 -1       216 9.66232E-03 5.31837E-03-2.69775E-14
 -1       217 9.94800E-03 5.52740E-03-2.82271E-14
 -1       218 1.02337E-02 5.73643E-03-2.94867E-14
 -1       219 1.05194E-02 5.94548E-03-3.07530E-14
 -1       220 1.08051E-02 6.15453E-03-3.20368E-14
 -1       221 1.10908E-02 6.36358E-03-3.33517E-14
 -1       222 1.13765E-02 6.57264E-03-3.46889E-14
 -1       223 1.16622E-02 6.78170E-03-3.60474E-14
 -1       224 1.19479E-02 6.99076E-03-3.74250E-14
 -1       225 1.22336E-02 7.19982E-03-3.88116E-14
 -1       226 1.25193E-02 7.40888E-03-4.02054E-14
 -1       227 1.28050E-02 7.61794E-03-4.16024E-14
 -1       228 1.30907E-02 7.82700E-03-4.30038E-14
 -1       229 1.33765E-02 8.03606E-03-4.44164E-14
 -1       230 8.39337E-04 2.92218E-04 1.58321E-16
 -1       231 1.27277E-03 4.91170E-04 2.70508E-16
 -1       232 1.73362E-03 8.08745E-04 3.96628E-16
 -1       233 2.19614E-03 1.27422E-03 5.26021E-16
 -1       234 2.69618E-03 1.90767E-03 6.70247E-16
 -1       235 3.13111E-03 2.39116E-03 7.96509E-16
 -1       236 3.48277E-03 2.53554E-03 8.90252E-16
 -1       237 3.86155E-03 2.39978E-03 9.69141E-16
 -1       238 4.32431E-03 2.05136E-03 1.02264E-15
 -1       239 4.83348E-03 1.74698E-03 1.02919E-15
 -1       240 5.30956E-03 1.64351E-03 9.91286E-16
 -1       241 5.74196E-03 1.69893E-03 9.11062E-16
 -1       242 6.13319E-03 1.84526E-03 7.94510E-16
 -1       243 6.49146E-03 2.03561E-03 6.41882E-16
 -1       244 6.82562E-03 2.24469E-03 4.49632E-16
 -1       245 7.14308E-03 2.46045E-03 2.13029E-16
 -1       246 7.44937E-03 2.67762E-03-6.39408E-17
 -1       247 7.74832E-03 2.89416E-03-3.79688E-16
 -1       248 8.04253E-03 3.10946E-03-7.36204E-16
 -1       249 8.33368E-03 3.32348E-03-1.13367E-15
 -1       250 8.62285E-03 3.53638E-03-1.55745E-15
 -1       251 8.91075E-03 3.74839E-03-2.00262E-15
 -1       252 9.19784E-03 3.95970E-03-2.47268E-15
 -1       253 9.48440E-03 4.17047E-03-2.97982E-15
 -1       254 9.77062E-03 4.38084E-03-3.53016E-15
 -1       255 1.00566E-02 4.59089E-03-4.12017E-15
 -1       256 1.03425E-02 4.80070E-03-4.74824E-15
 -1       257 1.06283E-02 5.01033E-03-5.41474E-15
 -1       258 1.09140E-02 5.21981E-03-6.11495E-15
 -1       259 1.11997E-02 5.42919E-03-6.84366E-15
 -1       260 1.14853E-02 5.63849E-03-7.59662E-15
 -1       261 1.17710E-02 5.84772E-03-8.37163E-15
 -1       262 1.20567E-02 6.05690E-03-9.16039E-15
 -1       263 1.23423E-02 6.26605E-03-9.95934E-15
 -1       264 1.26280E-02 6.47517E-03-1.07900E-14
 -1       265 1.29137E-02 6.68427E-03-1.16582E-14
 -1       266 1.31994E-02 6.89335E-03-1.25485E-14
 -1       267 1.34850E-02 7.10243E-03-1.34613E-14
 -1       268 1.37707E-02 7.31149E-03-1.44034E-14
 -1       269 1.40564E-02 7.52055E-03-1.53784E-14
 -1       270 1.43421E-02 7.72961E-03-1.63674E-14
 -1       271 1.46278E-02 7.93867E-03-1.73705E-14
 -1       272 1.49135E-02 8.14772E-03-1.83917E-14
 -1       273 1.51993E-02 8.35678E-03-1.94368E-14
 -1       274 1.54850E-02 8.56583E-03-2.04943E-14
 -1       275 1.57707E-02 8.77489E-03-2.15700E-14
 -1       276 1.60564E-02 8.98394E-03-2.26712E-14
 -1       277 1.63421E-02 9.19300E-03-2.37870E-14
 -1       278 1.66278E-02 9.40206E-03-2.49000E-14
 -1       279 1.65382E-02 9.38609E-03-2.61270E-14
 -1       280 1.63326E-02 9.30180E-03-2.74325E-14
 -1       281 1.61271E-02 9.21752E-03-2.87382E-14
 -1       282 1.59215E-02 9.13323E-03-3.00488E-14
 -1       283 1.57194E-02 9.05037E-03-3.13299E-14
 -1       284 1.55138E-02 8.96608E-03-3.26310E-14
 -1       285 1.53082E-02 8.88179E-03-3.39535E-14
 -1       286 1.51027E-02 8.79750E-03-3.52822E-14
 -1       287 1.48971E-02 8.71321E-03-3.66169E-14
 -1       288 1.46915E-02 8.62893E-03-3.79562E-14
 -1       289 1.44894E-02 8.54607E-03-3.92782E-14
 -1       290 1.42839E-02 8.46178E-03-4.06126E-14
 -1       291 1.40783E-02 8.37749E-03-4.19264E-14
 -1       292 1.38727E-02 8.29320E-03-4.32171E-14
 -1       293 1.36246E-02 8.16463E-03-4.38251E-14
 -1       294 5.55303E-03 1.27989E-03 3.80911E-17
 -1       295 5.52429E-03 1.37937E-03 2.23370E-16
 -1       296 5.34222E-03 1.51342E-03 4.04893E-16
 -1       297 5.03374E-03 1.70006E-03 5.60123E-16
 -1       298 4.59967E-03 1.95180E-03 6.93530E-16
 -1       299 4.13793E-03 2.23833E-03 7.40978E-16
 -1       300 3.66825E-03 2.42519E-03 7.49008E-16
 -1       301 3.18779E-03 2.42914E-03 7.24870E-16
 -1       302 2.67435E-03 2.15993E-03 6.25930E-16
 -1       303 2.15709E-03 1.78474E-03 5.29518E-16
 -1       304 1.67094E-03 1.33753E-03 4.34182E-16
 -1       305 1.13823E-03 1.00767E-03 3.35659E-16
 -1       306 7.56940E-04 7.74052E-04 2.56063E-16
 -1       307 5.15919E-04 6.05280E-04 1.87079E-16
 -1       308 4.21579E-04 5.10289E-04 1.30369E-16
 -1       309 4.69668E-04 4.38346E-04 7.81955E-17
 -1       310 6.40401E-04 3.67591E-04 2.95945E-17
 -1       311 9.02396E-04 2.85720E-04-2.36898E-17
 -1       312 1.26782E-03 1.90514E-04-9.16693E-17
 -1       313 1.64115E-03 8.08358E-05-1.65138E-16
 -1       314 2.02160E-03 1.06030E-05-2.44549E-16
 -1       315 2.41723E-03-1.57501E-05-3.42499E-16
 -1       316 2.82317E-03 5.19769E-05-4.06183E-16
 -1       317 3.21503E-03 1.73804E-04-4.63056E-16
 -1       318 3.62177E-03 3.45534E-04-4.95880E-16
 -1       319 4.04117E-03 5.43329E-04-4.97242E-16
 -1       320 4.46160E-03 7.42268E-04-4.61403E-16
 -1       321 4.86170E-03 9.23371E-04-3.85188E-16
 -1       322 5.20176E-03 1.07147E-03-2.69490E-16
 -1       323 5.43765E-03 1.18408E-03-1.25125E-16
 -1       324 4.62796E-04-2.05114E-04-1.38348E-16
 -1       325 4.60281E-04-2.51495E-04-1.53238E-16
 -1       326 4.93306E-04-1.18901E-04-1.01485E-16
 -1       327 5.08372E-04-6.99199E-05-8.21622E-17
 -1       328 5.15371E-04-1.34430E-05-6.22874E-17
 -1       329 5.06254E-04 5.03227E-05-4.23279E-17
 -1       330 4.72076E-04 1.16293E-04-2.29919E-17
 -1       331 4.08657E-04 1.72449E-04-4.63496E-18
 -1       332 3.27130E-04 2.01977E-04 1.25530E-17
 -1       333 2.63881E-04 1.95217E-04 2.91515E-17
 -1       334 2.58225E-04 1.63244E-04 4.76168E-17
 -1       335 3.38936E-04 1.35406E-04 7.03918E-17
 -1       336 4.94408E-04 1.49542E-04 9.73343E-17
 -1       337 6.55228E-04 2.07350E-04 1.26106E-16
 -1       338 1.01314E-03 3.85277E-04 2.20805E-16
 -1       339 8.25102E-04-4.00363E-04-4.03079E-16
 -1       340 1.09176E-03-4.52804E-04-6.55309E-16
 -1       341 1.35037E-03-4.63825E-04-9.57869E-16
 -1       342 1.60325E-03-4.34292E-04-1.30627E-15
 -1       343 1.85324E-03-3.64959E-04-1.69678E-15
 -1       344 2.10340E-03-2.57883E-04-2.12747E-15
 -1       345 2.35647E-03-1.17141E-04-2.59670E-15
 -1       346 2.61444E-03 5.13584E-05-3.10251E-15
 -1       347 2.87824E-03 2.40733E-04-3.64402E-15
 -1       348 3.14787E-03 4.44215E-04-4.21803E-15
 -1       349 3.42264E-03 6.56015E-04-4.82288E-15
 -1       350 3.70151E-03 8.71769E-04-5.45852E-15
 -1       351 3.98339E-03 1.08857E-03-6.12214E-15
 -1       352 4.26734E-03 1.30475E-03-6.81121E-15
 -1       353 4.55260E-03 1.51955E-03-7.52178E-15
 -1       354 4.83859E-03 1.73277E-03-8.25588E-15
 -1       355 5.12496E-03 1.94455E-03-9.01546E-15
 -1       356 5.41145E-03 2.15517E-03-9.80544E-15
 -1       357 5.69793E-03 2.36493E-03-1.06293E-14
 -1       358 5.98432E-03 2.57411E-03-1.14866E-14
 -1       359 6.27060E-03 2.78294E-03-1.23772E-14
 -1       360 6.55675E-03 2.99157E-03-1.33045E-14
 -1       361 6.84280E-03 3.20013E-03-1.42655E-14
 -1       362 7.12875E-03 3.40869E-03-1.52626E-14
 -1       363 7.41462E-03 3.61728E-03-1.62982E-14
 -1       364 7.70044E-03 3.82593E-03-1.73670E-14
 -1       365 7.98621E-03 4.03466E-03-1.84686E-14
 -1       366 8.27195E-03 4.24344E-03-1.95993E-14
 -1       367 8.55767E-03 4.45229E-03-2.07482E-14
 -1       368 8.84338E-03 4.66118E-03-2.19143E-14
 -1       369 9.12908E-03 4.87012E-03-2.30936E-14
 -1       370 9.41477E-03 5.07909E-03-2.42845E-14
 -1       371 9.70047E-03 5.28809E-03-2.54910E-14
 -1       372 9.98616E-03 5.49711E-03-2.67117E-14
 -1       373 1.02719E-02 5.70614E-03-2.79492E-14
 -1       374 1.05576E-02 5.91518E-03-2.91953E-14
 -1       375 1.08433E-02 6.12423E-03-3.04500E-14
 -1       376 1.11290E-02 6.33328E-03-3.17297E-14
 -1       377 1.14147E-02 6.54234E-03-3.30310E-14
 -1       378 1.17004E-02 6.75140E-03-3.43567E-14
 -1       379 1.19861E-02 6.96046E-03-3.57013E-14
 -1       380 1.22718E-02 7.16952E-03-3.70610E-14
 -1       381 1.25575E-02 7.37858E-03-3.84346E-14
 -1       382 1.28432E-02 7.58764E-03-3.98178E-14
 -1       383 1.31289E-02 7.79670E-03-4.12043E-14
 -1       384 1.33768E-02 7.98067E-03-4.25075E-14
 -1       385 1.39384E-03 6.63670E-04 3.27490E-16
 -1       386 4.81696E-03 1.72087E-03 7.77231E-16
 -1       387 5.23400E-03 1.54882E-03 7.27489E-16
 -1       388 5.59284E-03 1.56197E-03 6.37846E-16
 -1       389 5.92206E-03 1.68455E-03 5.09656E-16
 -1       390 6.23789E-03 1.86307E-03 3.43994E-16
 -1       391 6.54605E-03 2.06733E-03 1.41946E-16
 -1       392 6.84865E-03 2.28184E-03-9.94755E-17
 -1       393 7.14686E-03 2.49935E-03-3.81263E-16
 -1       394 7.44162E-03 2.71678E-03-7.02018E-16
 -1       395 7.73377E-03 2.93305E-03-1.06020E-15
 -1       396 8.02399E-03 3.14792E-03-1.46113E-15
 -1       397 8.31283E-03 3.36152E-03-1.89470E-15
 -1       398 8.60068E-03 3.57408E-03-2.35255E-15
 -1       399 8.88785E-03 3.78580E-03-2.83590E-15
 -1       400 9.17453E-03 3.99688E-03-3.35132E-15
 -1       401 9.46089E-03 4.20748E-03-3.90301E-15
 -1       402 9.74701E-03 4.41770E-03-4.49716E-15
 -1       403 1.00330E-02 4.62765E-03-5.12879E-15
 -1       404 1.03188E-02 4.83737E-03-5.79856E-15
 -1       405 1.06046E-02 5.04693E-03-6.49768E-15
 -1       406 1.08904E-02 5.25637E-03-7.23067E-15
 -1       407 1.11761E-02 5.46570E-03-7.99148E-15
 -1       408 1.14618E-02 5.67497E-03-8.77829E-15
 -1       409 1.17475E-02 5.88417E-03-9.58087E-15
 -1       410 1.20332E-02 6.09334E-03-1.03943E-14
 -1       411 1.23189E-02 6.30247E-03-1.12323E-14
 -1       412 1.26046E-02 6.51158E-03-1.21025E-14
 -1       413 1.28902E-02 6.72066E-03-1.29984E-14
 -1       414 1.31759E-02 6.92974E-03-1.39172E-14
 -1       415 1.34616E-02 7.13881E-03-1.48614E-14
 -1       416 1.37473E-02 7.34787E-03-1.58364E-14
 -1       417 1.40330E-02 7.55693E-03-1.68372E-14
 -1       418 1.43187E-02 7.76599E-03-1.78485E-14
 -1       419 1.46045E-02 7.97504E-03-1.88750E-14
 -1       420 1.48902E-02 8.18410E-03-1.99185E-14
 -1       421 1.51759E-02 8.39315E-03-2.09815E-14
 -1       422 1.54616E-02 8.60220E-03-2.20566E-14
 -1       423 1.57473E-02 8.81126E-03-2.31490E-14
 -1       424 1.60330E-02 9.02032E-03-2.42628E-14
 -1       425 1.62856E-02 9.20320E-03-2.51951E-14
 -1       426 1.57768E-02 8.99433E-03-2.83829E-14
 -1       427 1.59824E-02 9.07862E-03-2.70920E-14
 -1       428 1.55747E-02 8.91147E-03-2.96487E-14
 -1       429 1.53692E-02 8.82718E-03-3.09314E-14
 -1       430 1.51636E-02 8.74289E-03-3.22203E-14
 -1       431 1.49580E-02 8.65860E-03-3.35221E-14
 -1       432 1.47524E-02 8.57432E-03-3.48355E-14
 -1       433 1.45469E-02 8.49003E-03-3.61540E-14
 -1       434 1.43448E-02 8.40717E-03-3.74499E-14
 -1       435 1.41392E-02 8.32288E-03-3.87651E-14
 -1       436 1.39336E-02 8.23859E-03-4.00682E-14
 -1       437 1.37281E-02 8.15430E-03-4.13546E-14
 -1       438 5.45539E-03 1.40412E-03 3.32330E-16
 -1       439 5.52497E-03 1.29765E-03-1.45560E-16
 -1       440 5.57441E-03 1.33541E-03 9.76159E-17
 -1       441 5.17283E-03 1.53376E-03 5.49064E-16
 -1       442 4.76311E-04-1.62706E-04-1.20634E-16
 -1       443 2.57256E-03 1.93000E-03 6.25408E-16
 -1       444 2.12166E-03 1.49346E-03 5.16995E-16
 -1       445 1.47235E-03 9.82136E-04 3.77316E-16
 -1       446 9.99408E-04 7.20674E-04 2.84149E-16
 -1       447 6.63312E-04 5.41626E-04 2.07892E-16
 -1       448 4.45569E-04 4.68315E-04 1.43011E-16
 -1       449 4.13938E-04 4.38880E-04 9.60879E-17
 -1       450 5.49103E-04 4.09421E-04 4.36366E-17
 -1       451 7.49797E-04 3.69468E-04 4.13352E-18
 -1       452 1.07528E-03 2.80654E-04-5.76457E-17
 -1       453 1.51591E-03 1.33427E-04-1.49498E-16
 -1       454 1.85800E-03 2.53481E-05-2.41486E-16
 -1       455 2.16740E-03-3.83536E-05-3.37492E-16
 -1       456 2.59502E-03-1.85371E-05-4.82307E-16
 -1       457 2.88597E-03 7.49613E-05-5.51269E-16
 -1       458 3.29711E-03 2.73856E-04-6.20231E-16
 -1       459 3.70271E-03 5.02977E-04-6.55990E-16
 -1       460 4.14431E-03 7.37731E-04-6.37589E-16
 -1       461 4.58793E-03 9.52247E-04-5.79896E-16
 -1       462 4.99918E-03 1.12470E-03-4.79390E-16
 -1       463 5.35986E-03 1.24206E-03-3.00219E-16
 -1       464 4.25856E-03 2.10937E-03 8.89757E-16
 -1       465 1.63398E-03 9.03340E-04 3.93586E-16
 -1       466 2.33922E-03-6.08652E-05-4.67400E-16
 -1       467 1.27121E-03 2.08595E-04-1.06177E-16
 -1       468 8.72632E-04 4.18534E-04 2.16159E-16
 -1       469 7.93479E-04-7.23468E-05-1.52696E-16
 -1       470 7.71028E-04-1.39172E-04-1.89390E-16
 -1       471 7.74323E-04 9.27653E-05-7.78254E-17
 -1       472 7.00276E-04 1.84470E-04-4.05322E-17
 -1       473 5.72834E-04 2.61343E-04-5.59042E-18
 -1       474 4.30829E-04 2.98792E-04 2.69560E-17
 -1       475 3.45280E-04 2.90150E-04 6.05832E-17
 -1       476 3.97909E-04 2.60721E-04 9.91571E-17
 -1       477 5.55424E-03 1.44909E-03 3.68581E-16
 -1       478 5.79122E-03 1.55085E-03 2.28347E-16
 -1       479 9.70409E-04-3.70684E-04-4.84804E-16
 -1       480 7.17022E-04-2.99170E-04-2.86877E-16
 -1       481 1.24863E-03-4.01499E-04-7.43465E-16
 -1       482 1.52174E-03-3.93149E-04-1.04704E-15
 -1       483 1.79064E-03-3.44216E-04-1.39263E-15
 -1       484 2.05768E-03-2.54917E-04-1.77720E-15
 -1       485 2.32569E-03-1.28102E-04-2.19934E-15
 -1       486 2.59699E-03 3.06606E-05-2.65808E-15
 -1       487 2.87277E-03 2.14022E-04-3.15197E-15
 -1       488 3.15303E-03 4.14287E-04-3.68049E-15
 -1       489 3.43691E-03 6.24693E-04-4.24087E-15
 -1       490 3.72323E-03 8.40087E-04-4.83206E-15
 -1       491 4.01088E-03 1.05703E-03-5.45147E-15
 -1       492 4.29903E-03 1.27354E-03-6.09916E-15
 -1       493 4.58715E-03 1.48869E-03-6.77401E-15
 -1       494 4.87498E-03 1.70222E-03-7.47254E-15
 -1       495 5.16243E-03 1.91424E-03-8.19475E-15
 -1       496 5.44949E-03 2.12503E-03-8.94513E-15
 -1       497 5.73622E-03 2.33489E-03-9.72865E-15
 -1       498 6.02268E-03 2.54412E-03-1.05457E-14
 -1       499 6.30894E-03 2.75296E-03-1.13978E-14
 -1       500 6.59503E-03 2.96159E-03-1.22834E-14
 -1       501 6.88102E-03 3.17012E-03-1.31998E-14
 -1       502 7.16691E-03 3.37863E-03-1.41519E-14
 -1       503 7.45275E-03 3.58719E-03-1.51422E-14
 -1       504 7.73854E-03 3.79581E-03-1.61694E-14
 -1       505 8.02430E-03 4.00449E-03-1.72289E-14
 -1       506 8.31004E-03 4.21325E-03-1.83160E-14
 -1       507 8.59577E-03 4.42207E-03-1.94274E-14
 -1       508 8.88148E-03 4.63094E-03-2.05555E-14
 -1       509 9.16719E-03 4.83986E-03-2.17003E-14
 -1       510 9.45290E-03 5.04882E-03-2.28598E-14
 -1       511 9.73861E-03 5.25781E-03-2.40336E-14
 -1       512 1.00243E-02 5.46682E-03-2.52232E-14
 -1       513 1.03100E-02 5.67584E-03-2.64330E-14
 -1       514 1.05957E-02 5.88488E-03-2.76557E-14
 -1       515 1.08814E-02 6.09393E-03-2.88853E-14
 -1       516 1.11671E-02 6.30298E-03-3.01323E-14
 -1       517 1.14528E-02 6.51204E-03-3.14012E-14
 -1       518 1.17386E-02 6.72110E-03-3.26948E-14
 -1       519 1.20243E-02 6.93016E-03-3.40044E-14
 -1       520 1.23100E-02 7.13922E-03-3.53322E-14
 -1       521 1.25957E-02 7.34828E-03-3.66782E-14
 -1       522 1.28814E-02 7.55734E-03-3.80377E-14
 -1       523 1.31671E-02 7.76640E-03-3.94014E-14
 -1       524 6.03868E-03 1.71219E-03 4.96124E-17
 -1       525 6.30028E-03 1.90383E-03-1.66134E-16
 -1       526 6.57285E-03 2.11053E-03-4.16849E-16
 -1       527 6.85237E-03 2.32373E-03-7.05507E-16
 -1       528 7.13583E-03 2.53904E-03-1.03441E-15
 -1       529 7.42128E-03 2.75442E-03-1.39971E-15
 -1       530 7.70762E-03 2.96903E-03-1.80361E-15
 -1       531 7.99424E-03 3.18268E-03-2.24566E-15
 -1       532 8.28086E-03 3.39540E-03-2.71597E-15
 -1       533 8.56736E-03 3.60733E-03-3.21288E-15
 -1       534 8.85371E-03 3.81861E-03-3.73884E-15
 -1       535 9.13990E-03 4.02937E-03-4.29996E-15
 -1       536 9.42597E-03 4.23974E-03-4.89674E-15
 -1       537 9.71193E-03 4.44980E-03-5.53299E-15
 -1       538 9.99782E-03 4.65961E-03-6.20857E-15
 -1       539 1.02836E-02 4.86925E-03-6.91531E-15
 -1       540 1.05694E-02 5.07874E-03-7.64896E-15
 -1       541 1.08552E-02 5.28812E-03-8.41744E-15
 -1       542 1.11409E-02 5.49741E-03-9.21538E-15
 -1       543 1.14266E-02 5.70664E-03-1.00314E-14
 -1       544 1.17123E-02 5.91583E-03-1.08631E-14
 -1       545 1.19980E-02 6.12497E-03-1.17111E-14
 -1       546 1.22837E-02 6.33409E-03-1.25811E-14
 -1       547 1.25694E-02 6.54318E-03-1.34816E-14
 -1       548 1.28552E-02 6.75227E-03-1.44081E-14
 -1       549 1.31409E-02 6.96134E-03-1.53613E-14
 -1       550 1.34266E-02 7.17040E-03-1.63447E-14
 -1       551 1.37123E-02 7.37946E-03-1.73495E-14
 -1       552 1.39980E-02 7.58852E-03-1.83693E-14
 -1       553 1.42837E-02 7.79757E-03-1.94027E-14
 -1       554 1.45694E-02 8.00663E-03-2.04524E-14
 -1       555 1.48551E-02 8.21568E-03-2.15205E-14
 -1       556 1.51408E-02 8.42474E-03-2.26000E-14
 -1       557 1.54265E-02 8.63379E-03-2.36951E-14
 -1       558 1.57123E-02 8.84285E-03-2.48085E-14
 -1       559 1.52245E-02 8.68828E-03-2.92523E-14
 -1       560 1.54266E-02 8.77114E-03-2.80093E-14
 -1       561 1.56322E-02 8.85543E-03-2.67409E-14
 -1       562 5.61053E-03 1.36809E-03-7.86800E-17
 -1       563 1.50190E-02 8.60399E-03-3.05180E-14
 -1       564 1.48134E-02 8.51971E-03-3.17943E-14
 -1       565 1.46078E-02 8.43542E-03-3.30809E-14
 -1       566 1.44022E-02 8.35113E-03-3.43738E-14
 -1       567 1.42001E-02 8.26827E-03-3.56476E-14
 -1       568 1.39946E-02 8.18398E-03-3.69413E-14
 -1       569 1.37890E-02 8.09969E-03-3.82308E-14
 -1       570 1.35834E-02 8.01540E-03-3.95075E-14
 -1       571 5.14734E-04 3.83615E-04 1.50247E-16
 -1       572 5.58795E-03 1.38982E-03 1.78531E-16
 -1       573 1.14052E-03 6.43115E-04 2.91640E-16
 -1       574 5.45751E-03 1.33576E-03-3.52184E-16
 -1       575 1.64775E-03 7.04707E-05-2.11555E-16
 -1       576 5.19334E-03 1.28247E-03-5.67050E-16
 -1       577 7.99685E-04 4.85097E-06-1.15434E-16
 -1       578 4.23410E-04 3.70618E-04 5.91619E-17
 -1       579 7.65237E-04 4.78770E-04 2.13383E-16
 -1       580 3.98579E-04 3.81861E-04 1.04817E-16
 -1       581 6.30516E-04 3.66127E-04 1.45944E-17
 -1       582 3.41511E-03 4.21436E-04-8.24400E-16
 -1       583 8.83648E-04 3.15200E-04-3.13809E-17
 -1       584 1.96652E-03-3.15744E-05-3.35601E-16
 -1       585 2.69687E-03 2.29507E-05-6.37348E-16
 -1       586 3.02251E-03 1.83424E-04-7.44996E-16
 -1       587 3.86636E-03 6.88864E-04-8.36076E-16
 -1       588 4.31499E-03 9.29556E-04-8.02909E-16
 -1       589 4.75692E-03 1.13649E-03-7.38389E-16
 -1       590 6.91983E-04 2.64684E-04 1.55336E-16
 -1       591 7.43116E-04-1.98886E-04-2.24515E-16
 -1       592 5.47980E-04 2.43969E-04 1.30175E-16
 -1       593 2.45378E-03-4.59508E-05-6.11768E-16
 -1       594 1.33562E-02 7.90605E-03-4.03615E-14
 -1       595 1.03789E-03 2.50379E-04-6.95414E-17
 -1       596 7.27264E-04-2.48374E-04-2.56458E-16
 -1       597 5.39632E-03 1.40335E-03-6.43498E-16
 -1       598 5.74525E-03 1.48966E-03 2.23481E-17
 -1       599 5.61325E-03 1.43312E-03-3.55202E-16
 -1       600 1.14109E-03-3.30916E-04-5.55610E-16
 -1       601 9.34699E-04-2.96845E-04-3.92705E-16
 -1       602 6.07974E-03 1.76641E-03-4.51360E-16
 -1       603 1.43054E-03-3.42453E-04-8.15794E-16
 -1       604 1.71569E-03-3.15065E-04-1.11676E-15
 -1       605 1.99757E-03-2.45637E-04-1.45685E-15
 -1       606 2.27897E-03-1.34522E-04-1.83363E-15
 -1       607 2.56283E-03 1.36471E-05-2.24544E-15
 -1       608 2.85088E-03 1.91012E-04-2.69309E-15
 -1       609 3.14315E-03 3.88460E-04-3.17535E-15
 -1       610 3.43833E-03 5.97766E-04-3.68980E-15
 -1       611 3.73467E-03 8.12744E-04-4.23602E-15
 -1       612 4.03063E-03 1.02941E-03-4.81236E-15
 -1       613 4.32523E-03 1.24559E-03-5.41669E-15
 -1       614 4.61806E-03 1.46036E-03-6.05053E-15
 -1       615 4.90911E-03 1.67350E-03-6.71242E-15
 -1       616 5.19863E-03 1.88516E-03-7.39969E-15
 -1       617 5.48693E-03 2.09566E-03-8.11160E-15
 -1       618 5.77432E-03 2.30530E-03-8.85495E-15
 -1       619 6.06109E-03 2.51437E-03-9.63150E-15
 -1       620 6.34744E-03 2.72309E-03-1.04434E-14
 -1       621 6.63352E-03 2.93162E-03-1.12883E-14
 -1       622 6.91943E-03 3.14008E-03-1.21633E-14
 -1       623 7.20525E-03 3.34855E-03-1.30705E-14
 -1       624 7.49102E-03 3.55706E-03-1.40158E-14
 -1       625 7.77675E-03 3.76565E-03-1.49986E-14
 -1       626 8.06247E-03 3.97431E-03-1.60146E-14
 -1       627 8.34819E-03 4.18304E-03-1.70620E-14
 -1       628 8.63390E-03 4.39184E-03-1.81363E-14
 -1       629 8.91961E-03 4.60070E-03-1.92292E-14
 -1       630 9.20532E-03 4.80960E-03-2.03373E-14
 -1       631 9.49103E-03 5.01855E-03-2.14620E-14
 -1       632 9.77674E-03 5.22753E-03-2.26038E-14
 -1       633 1.00625E-02 5.43653E-03-2.37642E-14
 -1       634 1.03482E-02 5.64555E-03-2.49417E-14
 -1       635 1.06339E-02 5.85459E-03-2.61390E-14
 -1       636 1.09196E-02 6.06363E-03-2.73423E-14
 -1       637 1.12053E-02 6.27268E-03-2.85584E-14
 -1       638 1.14910E-02 6.48174E-03-2.97974E-14
 -1       639 1.17767E-02 6.69080E-03-3.10585E-14
 -1       640 1.20624E-02 6.89986E-03-3.23354E-14
 -1       641 1.23482E-02 7.10892E-03-3.36298E-14
 -1       642 1.26339E-02 7.31798E-03-3.49448E-14
 -1       643 1.29196E-02 7.52704E-03-3.62731E-14
 -1       644 1.32053E-02 7.73610E-03-3.76137E-14
 -1       645 1.71350E-03 3.32143E-06-2.86236E-16
 -1       646 1.53465E-02 8.64637E-03-2.56047E-14
 -1       647 1.06680E-03-1.43480E-04-2.90166E-16
 -1       648 1.44632E-02 8.29652E-03-3.13682E-14
 -1       649 1.50781E-02 8.54867E-03-2.76230E-14
 -1       650 6.31569E-03 1.95775E-03-7.13300E-16
 -1       651 6.57083E-03 2.16033E-03-1.01075E-15
 -1       652 6.83838E-03 2.36885E-03-1.34682E-15
 -1       653 7.11365E-03 2.58013E-03-1.72294E-15
 -1       654 7.39356E-03 2.79239E-03-2.13379E-15
 -1       655 7.67619E-03 3.00473E-03-2.57969E-15
 -1       656 7.96035E-03 3.21678E-03-3.06022E-15
 -1       657 8.24536E-03 3.42837E-03-3.56872E-15
 -1       658 8.53081E-03 3.63952E-03-4.10549E-15
 -1       659 8.81648E-03 3.85026E-03-4.67735E-15
 -1       660 9.10224E-03 4.06065E-03-5.28167E-15
 -1       661 9.38804E-03 4.27075E-03-5.92045E-15
 -1       662 9.67383E-03 4.48062E-03-6.60007E-15
 -1       663 9.95962E-03 4.69030E-03-7.31242E-15
 -1       664 1.02454E-02 4.89983E-03-8.05812E-15
 -1       665 1.05311E-02 5.10924E-03-8.83380E-15
 -1       666 1.08169E-02 5.31857E-03-9.63960E-15
 -1       667 1.11026E-02 5.52782E-03-1.04698E-14
 -1       668 1.13883E-02 5.73702E-03-1.13144E-14
 -1       669 1.16741E-02 5.94618E-03-1.21770E-14
 -1       670 1.19598E-02 6.15531E-03-1.30545E-14
 -1       671 1.22455E-02 6.36441E-03-1.39572E-14
 -1       672 1.25312E-02 6.57350E-03-1.48902E-14
 -1       673 1.28169E-02 6.78257E-03-1.58518E-14
 -1       674 1.31026E-02 6.99164E-03-1.68402E-14
 -1       675 1.33884E-02 7.20070E-03-1.78570E-14
 -1       676 1.36741E-02 7.40976E-03-1.88885E-14
 -1       677 1.39598E-02 7.61882E-03-1.99282E-14
 -1       678 1.42455E-02 7.82787E-03-2.09829E-14
 -1       679 1.45312E-02 8.03693E-03-2.20578E-14
 -1       680 1.48169E-02 8.24598E-03-2.31485E-14
 -1       681 1.50817E-02 8.44618E-03-2.43671E-14
 -1       682 1.46687E-02 8.38081E-03-3.01114E-14
 -1       683 3.16462E-03 3.21748E-04-1.00190E-15
 -1       684 1.48734E-02 8.46474E-03-2.88650E-14
 -1       685 1.42576E-02 8.21223E-03-3.26296E-14
 -1       686 1.40555E-02 8.12937E-03-3.38772E-14
 -1       687 1.38499E-02 8.04508E-03-3.51525E-14
 -1       688 1.36444E-02 7.96079E-03-3.64243E-14
 -1       689 3.62203E-03 6.04687E-04-1.04164E-15
 -1       690 1.33944E-02 7.87575E-03-3.85552E-14
 -1       691 5.90493E-03 1.61699E-03-1.97067E-16
 -1       692 1.37817E-03 1.27798E-04-1.59683E-16
 -1       693 2.79730E-03 1.00068E-04-8.49730E-16
 -1       694 5.00097E-03 1.29476E-03-8.78722E-16
 -1       695 4.07209E-03 8.78926E-04-1.08692E-15
 -1       696 4.47840E-03 1.08586E-03-1.03584E-15
 -1       697 2.11608E-03-8.10893E-05-4.95108E-16
 -1       698 1.02705E-03-2.11673E-04-3.45911E-16
 -1       699 1.86829E-03-7.42572E-05-4.25244E-16
 -1       700 1.02080E-03 1.33314E-04-1.07760E-16
 -1       701 1.09622E-03-6.67258E-05-2.32331E-16
 -1       702 2.56643E-03 3.04219E-06-8.10929E-16
 -1       703 1.09856E-03 2.43165E-05-1.72781E-16
 -1       704 1.34248E-02 7.84844E-03-3.70243E-14
 -1       705 5.26565E-03 1.44003E-03-1.03236E-15
 -1       706 6.29308E-03 2.01260E-03-1.28746E-15
 -1       707 1.33209E-03-2.83252E-04-6.12669E-16
 -1       708 2.24824E-03-8.38592E-05-6.68221E-16
 -1       709 1.63217E-03-2.77873E-04-8.69998E-16
 -1       710 1.92777E-03-2.31033E-04-1.16564E-15
 -1       711 2.22125E-03-1.38427E-04-1.49796E-15
 -1       712 2.51650E-03-2.20534E-06-1.86512E-15
 -1       713 2.81636E-03 1.69538E-04-2.26663E-15
 -1       714 3.12130E-03 3.65552E-04-2.70241E-15
 -1       715 3.42936E-03 5.75142E-04-3.17163E-15
 -1       716 3.73777E-03 7.90483E-04-3.67281E-15
 -1       717 4.04413E-03 1.00691E-03-4.20454E-15
 -1       718 4.34703E-03 1.22224E-03-4.76471E-15
 -1       719 4.64605E-03 1.43578E-03-5.35545E-15
 -1       720 4.94144E-03 1.64762E-03-5.97734E-15
 -1       721 5.23382E-03 1.85811E-03-6.62759E-15
 -1       722 5.52387E-03 2.06764E-03-7.30285E-15
 -1       723 5.81227E-03 2.27655E-03-8.00804E-15
 -1       724 6.09953E-03 2.48509E-03-8.74504E-15
 -1       725 6.38608E-03 2.69345E-03-9.51473E-15
 -1       726 6.67218E-03 2.90174E-03-1.03197E-14
 -1       727 6.95803E-03 3.11006E-03-1.11545E-14
 -1       728 7.24376E-03 3.31843E-03-1.20211E-14
 -1       729 7.52942E-03 3.52689E-03-1.29214E-14
 -1       730 7.81507E-03 3.73544E-03-1.38599E-14
 -1       731 8.10073E-03 3.94407E-03-1.48339E-14
 -1       732 8.38639E-03 4.15279E-03-1.58382E-14
 -1       733 8.67207E-03 4.36158E-03-1.68732E-14
 -1       734 8.95776E-03 4.57043E-03-1.79309E-14
 -1       735 9.24346E-03 4.77933E-03-1.90066E-14
 -1       736 9.52917E-03 4.98827E-03-2.01011E-14
 -1       737 9.81488E-03 5.19725E-03-2.12057E-14
 -1       738 1.01006E-02 5.40625E-03-2.23280E-14
 -1       739 1.03863E-02 5.61527E-03-2.34759E-14
 -1       740 1.06720E-02 5.82430E-03-2.46449E-14
 -1       741 1.09578E-02 6.03334E-03-2.58237E-14
 -1       742 1.12435E-02 6.24239E-03-2.70114E-14
 -1       743 1.15292E-02 6.45144E-03-2.82186E-14
 -1       744 1.18149E-02 6.66050E-03-2.94442E-14
 -1       745 1.21006E-02 6.86956E-03-3.06901E-14
 -1       746 1.23863E-02 7.07862E-03-3.19485E-14
 -1       747 1.26721E-02 7.28768E-03-3.32306E-14
 -1       748 1.29578E-02 7.49674E-03-3.45324E-14
 -1       749 1.31913E-02 7.67259E-03-3.57703E-14
 -1       750 1.41129E-02 8.07333E-03-3.09338E-14
 -1       751 6.05886E-03 1.82607E-03-9.79831E-16
 -1       752 6.81040E-03 2.41350E-03-2.01705E-15
 -1       753 7.08314E-03 2.62087E-03-2.43730E-15
 -1       754 7.36095E-03 2.83016E-03-2.88816E-15
 -1       755 7.64194E-03 3.04034E-03-3.37329E-15
 -1       756 7.92488E-03 3.25083E-03-3.89468E-15
 -1       757 8.20900E-03 3.46134E-03-4.44377E-15
 -1       758 8.49382E-03 3.67172E-03-5.02341E-15
 -1       759 8.77904E-03 3.88192E-03-5.63546E-15
 -1       760 9.06451E-03 4.09193E-03-6.27963E-15
 -1       761 9.35010E-03 4.30176E-03-6.96414E-15
 -1       762 9.63577E-03 4.51143E-03-7.68484E-15
 -1       763 9.92147E-03 4.72097E-03-8.43909E-15
 -1       764 1.02072E-02 4.93040E-03-9.22439E-15
 -1       765 1.04929E-02 5.13974E-03-1.00395E-14
 -1       766 1.07786E-02 5.34901E-03-1.08797E-14
 -1       767 1.10644E-02 5.55822E-03-1.17372E-14
 -1       768 1.13501E-02 5.76739E-03-1.26114E-14
 -1       769 1.16358E-02 5.97652E-03-1.35015E-14
 -1       770 1.19215E-02 6.18564E-03-1.44098E-14
 -1       771 1.22073E-02 6.39473E-03-1.53475E-14
 -1       772 1.24930E-02 6.60381E-03-1.63157E-14
 -1       773 1.27787E-02 6.81288E-03-1.73091E-14
 -1       774 1.30644E-02 7.02194E-03-1.83321E-14
 -1       775 1.33501E-02 7.23100E-03-1.93756E-14
 -1       776 1.36359E-02 7.44006E-03-2.04300E-14
 -1       777 1.39216E-02 7.64911E-03-2.14973E-14
 -1       778 1.42073E-02 7.85817E-03-2.25758E-14
 -1       779 1.44930E-02 8.06722E-03-2.36745E-14
 -1       780 1.43185E-02 8.15762E-03-2.96986E-14
 -1       781 3.41884E-03 5.18769E-04-1.30024E-15
 -1       782 5.71005E-03 1.55040E-03-5.97331E-16
 -1       783 1.34997E-02 7.82189E-03-3.46540E-14
 -1       784 1.42487E-03 4.16098E-05-2.21679E-16
 -1       785 6.54562E-03 2.20981E-03-1.63262E-15
 -1       786 1.37053E-02 7.90618E-03-3.34024E-14
 -1       787 9.78966E-04-2.54777E-04-3.71227E-16
 -1       788 1.39091E-02 7.98975E-03-3.21627E-14
 -1       789 2.91612E-03 2.00213E-04-1.13204E-15
 -1       790 4.78864E-03 1.27571E-03-1.28525E-15
 -1       791 1.48134E-02 8.34847E-03-2.63600E-14
 -1       792 4.29737E-03 1.04083E-03-1.34764E-15
 -1       793 5.51737E-03 1.50440E-03-8.21751E-16
 -1       794 3.81048E-03 7.66720E-04-1.37035E-15
 -1       795 2.00937E-03-1.08749E-04-5.80048E-16
 -1       796 1.58389E-03-5.06318E-05-3.36936E-16
 -1       797 1.46087E-02 8.26454E-03-2.75835E-14
 -1       798 1.46532E-02 8.20785E-03-2.50085E-14
 -1       799 1.44636E-02 8.21108E-03-2.86407E-14
 -1       800 2.69322E-03 8.22659E-05-1.07833E-15
 -1       801 1.32589E-03-2.06988E-04-4.77174E-16
 -1       802 5.87202E-03 1.68063E-03-7.78650E-16
 -1       803 1.37808E-03-1.39026E-04-3.96981E-16
 -1       804 1.33455E-02 7.74724E-03-3.52132E-14
 -1       805 1.73478E-03-1.09210E-04-4.70124E-16
 -1       806 5.13571E-03 1.46039E-03-1.51802E-15
 -1       807 1.53998E-03-2.30836E-04-6.53100E-16
 -1       808 1.85016E-03-2.10060E-04-9.04834E-16
 -1       809 2.15574E-03-1.40922E-04-1.19280E-15
 -1       810 2.46188E-03-1.96225E-05-1.51551E-15
 -1       811 2.77254E-03 1.46238E-04-1.87315E-15
 -1       812 3.09068E-03 3.43196E-04-2.26247E-15
 -1       813 3.41302E-03 5.55844E-04-2.68635E-15
 -1       814 3.73540E-03 7.73471E-04-3.14254E-15
 -1       815 4.05400E-03 9.90386E-04-3.62908E-15
 -1       816 4.36667E-03 1.20458E-03-4.14548E-15
 -1       817 4.67291E-03 1.41605E-03-4.69199E-15
 -1       818 4.97328E-03 1.62553E-03-5.26929E-15
 -1       819 5.26889E-03 1.83380E-03-5.88046E-15
 -1       820 5.56091E-03 2.04149E-03-6.52026E-15
 -1       821 5.85040E-03 2.24899E-03-7.18703E-15
 -1       822 6.13821E-03 2.45651E-03-7.88552E-15
 -1       823 6.42495E-03 2.66418E-03-8.61439E-15
 -1       824 6.71106E-03 2.87203E-03-9.37624E-15
 -1       825 6.99682E-03 3.08007E-03-1.01718E-14
 -1       826 7.28243E-03 3.28828E-03-1.09983E-14
 -1       827 7.56797E-03 3.49666E-03-1.18560E-14
 -1       828 7.85351E-03 3.70516E-03-1.27512E-14
 -1       829 8.13907E-03 3.91378E-03-1.36826E-14
 -1       830 8.42466E-03 4.12249E-03-1.46474E-14
 -1       831 8.71029E-03 4.33128E-03-1.56406E-14
 -1       832 8.99594E-03 4.54013E-03-1.66622E-14
 -1       833 9.28162E-03 4.74904E-03-1.77036E-14
 -1       834 9.56732E-03 4.95798E-03-1.87651E-14
 -1       835 9.85303E-03 5.16696E-03-1.98425E-14
 -1       836 1.01387E-02 5.37596E-03-2.09276E-14
 -1       837 1.04245E-02 5.58497E-03-2.20392E-14
 -1       838 1.07102E-02 5.79401E-03-2.31756E-14
 -1       839 1.09959E-02 6.00305E-03-2.43275E-14
 -1       840 1.12816E-02 6.21209E-03-2.54856E-14
 -1       841 1.15674E-02 6.42115E-03-2.66621E-14
 -1       842 1.18531E-02 6.63020E-03-2.78584E-14
 -1       843 1.21388E-02 6.83926E-03-2.90703E-14
 -1       844 1.24245E-02 7.04832E-03-3.02966E-14
 -1       845 1.27102E-02 7.25738E-03-3.15412E-14
 -1       846 1.29959E-02 7.46644E-03-3.28140E-14
 -1       847 7.32445E-03 2.86660E-03-3.66599E-15
 -1       848 7.04641E-03 2.65949E-03-3.17282E-15
 -1       849 6.77263E-03 2.45487E-03-2.71003E-15
 -1       850 7.60530E-03 3.07512E-03-4.19055E-15
 -1       851 7.88795E-03 3.28439E-03-4.75039E-15
 -1       852 8.17177E-03 3.49400E-03-5.34107E-15
 -1       853 8.45632E-03 3.70374E-03-5.96331E-15
 -1       854 8.74133E-03 3.91347E-03-6.61520E-15
 -1       855 9.02663E-03 4.12314E-03-7.30324E-15
 -1       856 9.31210E-03 4.33272E-03-8.02844E-15
 -1       857 9.59767E-03 4.54222E-03-8.79200E-15
 -1       858 9.88332E-03 4.75162E-03-9.58687E-15
 -1       859 1.01690E-02 4.96095E-03-1.04140E-14
 -1       860 1.04547E-02 5.17022E-03-1.12646E-14
 -1       861 1.07404E-02 5.37943E-03-1.21329E-14
 -1       862 1.10261E-02 5.58861E-03-1.30203E-14
 -1       863 1.13119E-02 5.79775E-03-1.39219E-14
 -1       864 1.15976E-02 6.00686E-03-1.48394E-14
 -1       865 1.18833E-02 6.21596E-03-1.57838E-14
 -1       866 1.21691E-02 6.42504E-03-1.67567E-14
 -1       867 1.24548E-02 6.63411E-03-1.77600E-14
 -1       868 1.27405E-02 6.84318E-03-1.87877E-14
 -1       869 1.30262E-02 7.05224E-03-1.98397E-14
 -1       870 1.33119E-02 7.26130E-03-2.09049E-14
 -1       871 1.35977E-02 7.47035E-03-2.19795E-14
 -1       872 1.38834E-02 7.67941E-03-2.30745E-14
 -1       873 1.41691E-02 7.88846E-03-2.41812E-14
 -1       874 6.24696E-03 2.06062E-03-1.89018E-15
 -1       875 1.39683E-02 7.93443E-03-2.92788E-14
 -1       876 1.33551E-02 7.68299E-03-3.29214E-14
 -1       877 3.15689E-03 3.71466E-04-1.51752E-15
 -1       878 4.09688E-03 9.57533E-04-1.68727E-15
 -1       879 4.56491E-03 1.20745E-03-1.65758E-15
 -1       880 6.50518E-03 2.25443E-03-2.28144E-15
 -1       881 2.38732E-03-4.86396E-05-9.05397E-16
 -1       882 3.61813E-03 6.67088E-04-1.63654E-15
 -1       883 6.00179E-03 1.87683E-03-1.53709E-15
 -1       884 5.48858E-03 1.58069E-03-1.27847E-15
 -1       885 2.15692E-03-1.09740E-04-7.96258E-16
 -1       886 5.79602E-03 1.73094E-03-1.29865E-15
 -1       887 1.31707E-02 7.60684E-03-3.40090E-14
 -1       888 1.44485E-02 8.12391E-03-2.62168E-14
 -1       889 1.41134E-02 7.98789E-03-2.82385E-14
 -1       890 1.35589E-02 7.76656E-03-3.17010E-14
 -1       891 2.93168E-03 2.33090E-04-1.44952E-15
 -1       892 5.64727E-03 1.61274E-03-1.04928E-15
 -1       893 1.37636E-02 7.85050E-03-3.04890E-14
 -1       894 1.60665E-03-1.71110E-04-5.53743E-16
 -1       895 2.08285E-03-1.40118E-04-9.18394E-16
 -1       896 2.40016E-03-4.13772E-05-1.19667E-15
 -1       897 3.39279E-03 5.37819E-04-2.23278E-15
 -1       898 3.73148E-03 7.61286E-04-2.64313E-15
 -1       899 4.06409E-03 9.80335E-04-3.08550E-15
 -1       900 4.38767E-03 1.19346E-03-3.55765E-15
 -1       901 4.70154E-03 1.40199E-03-4.06018E-15
 -1       902 5.00687E-03 1.60788E-03-4.59319E-15
 -1       903 5.30546E-03 1.81274E-03-5.16104E-15
 -1       904 5.59913E-03 2.01756E-03-5.76103E-15
 -1       905 5.88942E-03 2.22285E-03-6.39071E-15
 -1       906 6.17752E-03 2.42878E-03-7.04753E-15
 -1       907 6.46428E-03 2.63537E-03-7.73903E-15
 -1       908 6.75027E-03 2.84252E-03-8.45905E-15
 -1       909 7.03586E-03 3.05013E-03-9.21213E-15
 -1       910 7.32127E-03 3.25810E-03-9.99729E-15
 -1       911 7.60664E-03 3.46635E-03-1.08152E-14
 -1       912 7.89204E-03 3.67480E-03-1.16707E-14
 -1       913 8.17748E-03 3.88340E-03-1.25611E-14
 -1       914 8.46299E-03 4.09212E-03-1.34827E-14
 -1       915 8.74855E-03 4.30092E-03-1.44372E-14
 -1       916 9.03416E-03 4.50979E-03-1.54197E-14
 -1       917 9.31981E-03 4.71871E-03-1.64277E-14
 -1       918 9.60549E-03 4.92766E-03-1.74582E-14
 -1       919 9.89118E-03 5.13665E-03-1.85015E-14
 -1       920 1.01769E-02 5.34565E-03-1.95599E-14
 -1       921 1.04626E-02 5.55468E-03-2.06355E-14
 -1       922 1.07483E-02 5.76371E-03-2.17347E-14
 -1       923 1.10341E-02 5.97275E-03-2.28526E-14
 -1       924 1.13198E-02 6.18180E-03-2.39802E-14
 -1       925 1.16055E-02 6.39085E-03-2.51285E-14
 -1       926 1.18912E-02 6.59991E-03-2.62963E-14
 -1       927 1.21770E-02 6.80897E-03-2.74778E-14
 -1       928 1.24627E-02 7.01802E-03-2.86737E-14
 -1       929 1.27484E-02 7.22708E-03-2.98845E-14
 -1       930 1.30341E-02 7.43614E-03-3.11185E-14
 -1       931 7.00603E-03 2.69541E-03-3.93049E-15
 -1       932 7.56702E-03 3.10879E-03-5.02874E-15
 -1       933 3.89984E-03 8.55676E-04-2.06226E-15
 -1       934 7.28548E-03 2.90129E-03-4.46412E-15
 -1       935 6.72955E-03 2.49215E-03-3.42873E-15
 -1       936 7.84997E-03 3.31724E-03-5.62821E-15
 -1       937 8.13387E-03 3.52622E-03-6.25916E-15
 -1       938 8.41841E-03 3.73548E-03-6.92260E-15
 -1       939 8.70336E-03 3.94484E-03-7.61780E-15
 -1       940 8.98860E-03 4.15424E-03-8.34937E-15
 -1       941 9.27401E-03 4.36361E-03-9.11947E-15
 -1       942 9.55954E-03 4.57295E-03-9.92245E-15
 -1       943 9.84515E-03 4.78223E-03-1.07597E-14
 -1       944 1.01308E-02 4.99148E-03-1.16214E-14
 -1       945 1.04165E-02 5.20068E-03-1.25030E-14
 -1       946 1.07022E-02 5.40984E-03-1.34062E-14
 -1       947 1.09879E-02 5.61898E-03-1.43204E-14
 -1       948 1.12737E-02 5.82809E-03-1.52508E-14
 -1       949 1.15594E-02 6.03719E-03-1.62033E-14
 -1       950 1.18451E-02 6.24627E-03-1.71821E-14
 -1       951 1.21308E-02 6.45535E-03-1.81928E-14
 -1       952 1.24166E-02 6.66441E-03-1.92250E-14
 -1       953 1.27023E-02 6.87347E-03-2.02807E-14
 -1       954 1.29880E-02 7.08253E-03-2.13561E-14
 -1       955 1.32738E-02 7.29159E-03-2.24453E-14
 -1       956 1.35595E-02 7.50065E-03-2.35506E-14
 -1       957 1.38452E-02 7.70970E-03-2.46674E-14
 -1       958 5.41761E-03 1.61800E-03-1.75986E-15
 -1       959 5.93103E-03 1.91550E-03-2.12115E-15
 -1       960 6.45723E-03 2.29297E-03-2.95775E-15
 -1       961 6.19052E-03 2.09990E-03-2.52072E-15
 -1       962 1.89420E-03-1.45306E-04-6.59988E-16
 -1       963 4.38632E-03 1.13951E-03-2.09700E-15
 -1       964 1.42809E-02 8.05590E-03-2.72287E-14
 -1       965 4.91304E-03 1.40765E-03-2.02307E-15
 -1       966 1.84773E-03-1.70676E-04-7.24654E-16
 -1       967 3.42599E-03 5.54866E-04-1.94170E-15
 -1       968 5.70498E-03 1.76603E-03-1.84704E-15
 -1       969 3.05455E-03 3.17726E-04-1.85507E-15
 -1       970 1.40631E-02 7.88280E-03-2.59404E-14
 -1       971 1.37792E-02 7.77456E-03-2.78372E-14
 -1       972 1.35745E-02 7.69063E-03-2.90143E-14
 -1       973 5.62328E-03 1.78902E-03-2.39825E-15
 -1       974 7.52784E-03 3.14136E-03-5.88892E-15
 -1       975 4.20039E-03 1.04835E-03-2.52729E-15
 -1       976 4.53413E-03 1.25678E-03-2.94882E-15
 -1       977 4.85262E-03 1.45766E-03-3.39927E-15
 -1       978 5.15921E-03 1.65567E-03-3.88427E-15
 -1       979 5.45730E-03 1.85379E-03-4.40519E-15
 -1       980 5.74975E-03 2.05341E-03-4.95935E-15
 -1       981 6.03868E-03 2.25496E-03-5.54360E-15
 -1       982 6.32553E-03 2.45836E-03-6.15734E-15
 -1       983 6.61125E-03 2.66332E-03-6.80127E-15
 -1       984 6.89644E-03 2.86949E-03-7.47899E-15
 -1       985 7.18142E-03 3.07656E-03-8.18570E-15
 -1       986 7.46639E-03 3.28427E-03-8.92530E-15
 -1       987 7.75144E-03 3.49243E-03-9.69791E-15
 -1       988 8.03661E-03 3.70088E-03-1.05065E-14
 -1       989 8.32189E-03 3.90953E-03-1.13547E-14
 -1       990 8.60729E-03 4.11832E-03-1.22345E-14
 -1       991 8.89277E-03 4.32719E-03-1.31447E-14
 -1       992 9.17833E-03 4.53613E-03-1.40855E-14
 -1       993 9.46395E-03 4.74510E-03-1.50529E-14
 -1       994 9.74960E-03 4.95410E-03-1.60425E-14
 -1       995 1.00353E-02 5.16312E-03-1.70493E-14
 -1       996 1.03210E-02 5.37215E-03-1.80695E-14
 -1       997 1.06067E-02 5.58119E-03-1.91080E-14
 -1       998 1.08924E-02 5.79023E-03-2.01651E-14
 -1       999 1.11782E-02 5.99928E-03-2.12447E-14
 -1      1000 1.14639E-02 6.20834E-03-2.23380E-14
 -1      1001 1.17496E-02 6.41739E-03-2.34493E-14
 -1      1002 1.20354E-02 6.62645E-03-2.45831E-14
 -1      1003 1.23211E-02 6.83550E-03-2.57307E-14
 -1      1004 1.26068E-02 7.04456E-03-2.68922E-14
 -1      1005 1.28925E-02 7.25362E-03-2.80693E-14
 -1      1006 1.32257E-02 7.51009E-03-2.98631E-14
 -1      1007 6.68459E-03 2.52574E-03-4.16988E-15
 -1      1008 8.09552E-03 3.55798E-03-7.20175E-15
 -1      1009 8.38019E-03 3.76691E-03-7.90521E-15
 -1      1010 8.66519E-03 3.97601E-03-8.64553E-15
 -1      1011 8.95044E-03 4.18520E-03-9.42147E-15
 -1      1012 9.23585E-03 4.39441E-03-1.02342E-14
 -1      1013 9.52137E-03 4.60361E-03-1.10780E-14
 -1      1014 9.80697E-03 4.81280E-03-1.19513E-14
 -1      1015 1.00926E-02 5.02197E-03-1.28478E-14
 -1      1016 1.03783E-02 5.23111E-03-1.37642E-14
 -1      1017 1.06640E-02 5.44023E-03-1.46971E-14
 -1      1018 1.09497E-02 5.64934E-03-1.56413E-14
 -1      1019 1.12355E-02 5.85843E-03-1.66046E-14
 -1      1020 1.15212E-02 6.06751E-03-1.75919E-14
 -1      1021 1.18069E-02 6.27658E-03-1.86076E-14
 -1      1022 1.20927E-02 6.48565E-03-1.96461E-14
 -1      1023 1.23784E-02 6.69471E-03-2.07092E-14
 -1      1024 1.26641E-02 6.90377E-03-2.17918E-14
 -1      1025 1.29498E-02 7.11283E-03-2.28900E-14
 -1      1026 1.32356E-02 7.32189E-03-2.40032E-14
 -1      1027 1.35213E-02 7.53094E-03-2.51301E-14
 -1      1028 5.28242E-03 1.61454E-03-2.34052E-15
 -1      1029 6.40729E-03 2.32623E-03-3.66082E-15
 -1      1030 7.81133E-03 3.34937E-03-6.53122E-15
 -1      1031 4.72271E-03 1.34223E-03-2.52531E-15
 -1      1032 6.96408E-03 2.72883E-03-4.70981E-15
 -1      1033 6.13259E-03 2.13181E-03-3.18040E-15
 -1      1034 5.87735E-03 1.95693E-03-2.77275E-15
 -1      1035 7.24531E-03 2.93431E-03-5.28276E-15
 -1      1036 1.34294E-02 7.55155E-03-2.74061E-14
 -1      1037 1.39836E-02 7.85773E-03-2.66308E-14
 -1      1038 1.31610E-02 7.40259E-03-2.77416E-14
 -1      1039 5.21119E-03 1.64672E-03-3.26277E-15
 -1      1040 5.50689E-03 1.83797E-03-3.73972E-15
 -1      1041 5.79678E-03 2.03248E-03-4.25376E-15
 -1      1042 6.08341E-03 2.23028E-03-4.79696E-15
 -1      1043 6.36841E-03 2.43117E-03-5.36869E-15
 -1      1044 6.65274E-03 2.63452E-03-5.97077E-15
 -1      1045 6.93689E-03 2.83973E-03-6.60658E-15
 -1      1046 7.22115E-03 3.04625E-03-7.27521E-15
 -1      1047 7.50562E-03 3.25369E-03-7.97604E-15
 -1      1048 7.79032E-03 3.46173E-03-8.70645E-15
 -1      1049 8.07525E-03 3.67017E-03-9.47110E-15
 -1      1050 8.36037E-03 3.87886E-03-1.02761E-14
 -1      1051 8.64566E-03 4.08771E-03-1.11174E-14
 -1      1052 8.93107E-03 4.29665E-03-1.19892E-14
 -1      1053 9.21658E-03 4.50564E-03-1.28929E-14
 -1      1054 9.50216E-03 4.71466E-03-1.38228E-14
 -1      1055 9.78780E-03 4.92370E-03-1.47771E-14
 -1      1056 1.00735E-02 5.13275E-03-1.57529E-14
 -1      1057 1.03592E-02 5.34181E-03-1.67410E-14
 -1      1058 1.06449E-02 5.55086E-03-1.77458E-14
 -1      1059 1.09306E-02 5.75992E-03-1.87692E-14
 -1      1060 1.12163E-02 5.96898E-03-1.98134E-14
 -1      1061 1.15021E-02 6.17804E-03-2.08755E-14
 -1      1062 1.17878E-02 6.38709E-03-2.19612E-14
 -1      1063 1.20735E-02 6.59615E-03-2.30655E-14
 -1      1064 1.23593E-02 6.80521E-03-2.41896E-14
 -1      1065 1.26450E-02 7.01427E-03-2.53250E-14
 -1      1066 1.29307E-02 7.22333E-03-2.64751E-14
 -1      1067 8.34178E-03 3.79805E-03-8.91451E-15
 -1      1068 8.05692E-03 3.58931E-03-8.16958E-15
 -1      1069 8.91220E-03 4.21602E-03-1.05193E-14
 -1      1070 9.19764E-03 4.42510E-03-1.13716E-14
 -1      1071 9.48317E-03 4.63421E-03-1.22552E-14
 -1      1072 9.76878E-03 4.84331E-03-1.31645E-14
 -1      1073 1.00544E-02 5.05242E-03-1.40936E-14
 -1      1074 1.03401E-02 5.26151E-03-1.50435E-14
 -1      1075 1.06258E-02 5.47060E-03-1.60075E-14
 -1      1076 1.09115E-02 5.67968E-03-1.69855E-14
 -1      1077 1.11973E-02 5.88875E-03-1.79832E-14
 -1      1078 1.14830E-02 6.09782E-03-1.90060E-14
 -1      1079 1.17687E-02 6.30688E-03-2.00538E-14
 -1      1080 1.20545E-02 6.51595E-03-2.11222E-14
 -1      1081 1.23402E-02 6.72501E-03-2.22131E-14
 -1      1082 1.26259E-02 6.93406E-03-2.33204E-14
 -1      1083 1.29117E-02 7.14312E-03-2.44390E-14
 -1      1084 1.31705E-02 7.34734E-03-2.59104E-14
 -1      1085 6.35856E-03 2.35581E-03-4.38518E-15
 -1      1086 5.41915E-03 1.72932E-03-2.88630E-15
 -1      1087 4.98136E-03 1.50320E-03-2.93217E-15
 -1      1088 8.62690E-03 4.00699E-03-9.70051E-15
 -1      1089 6.07771E-03 2.15886E-03-3.86615E-15
 -1      1090 6.63989E-03 2.55664E-03-4.93341E-15
 -1      1091 7.48832E-03 3.17301E-03-6.77808E-15
 -1      1092 7.20481E-03 2.96600E-03-6.13029E-15
 -1      1093 7.77240E-03 3.38089E-03-7.45851E-15
 -1      1094 5.85020E-03 2.01147E-03-3.57126E-15
 -1      1095 6.97804E-03 2.80943E-03-5.76043E-15
 -1      1096 0.00000E+00 0.00000E+00 0.00000E+00
 -1      1097 0.00000E+00 0.00000E+00 0.00000E+00
 -1      1098 0.00000E+00 0.00000E+00 0.00000E+00
 -1      1099 0.00000E+00 0.00000E+00 0.00000E+00
 -1      1100 0.00000E+00 0.00000E+00 0.00000E+00
 -1      1101 0.00000E+00 0.00000E+00 0.00000E+00
 -1      1102 0.00000E+00 0.00000E+00 0.00000E+00
 -1      1103 0.00000E+00 0.00000E+00 0.00000E+00
 -1      1104 0.00000E+00 0.00000E+00 0.00000E+00
 -1      1105 0.00000E+00 0.00000E+00 0.00000E+00
 -1      1106 0.00000E+00 0.00000E+00 0.00000E+00
 -1      1107 0.00000E+00 0.00000E+00 0.00000E+00
 -1      1108 0.00000E+00 0.00000E+00 0.00000E+00
 -1      1109 0.00000E+00 0.00000E+00 0.00000E+00
 -1      1110 0.00000E+00 0.00000E+00 0.00000E+00
 -1      1111 0.00000E+00 0.00000E+00 0.00000E+00
 -1      1112 0.00000E+00 0.00000E+00 0.00000E+00
 -1      1113 2.06711E-04-1.56170E-04-3.14283E-17
 -1      1114 5.24386E-04-3.63371E-04-1.46896E-16
 -1      1115 7.70947E-04-4.92026E-04-3.30126E-16
 -1      1116 9.94939E-04-5.64285E-04-5.85727E-16
 -1      1117 1.20598E-03-5.91970E-04-9.01392E-16
 -1      1118 1.40931E-03-5.79451E-04-1.27123E-15
 -1      1119 1.60949E-03-5.28335E-04-1.69082E-15
 -1      1120 1.81101E-03-4.40187E-04-2.15537E-15
 -1      1121 2.01819E-03-3.17890E-04-2.66191E-15
 -1      1122 2.23461E-03-1.65992E-04-3.20764E-15
 -1      1123 2.46260E-03 9.69256E-06-3.79104E-15
 -1      1124 2.70301E-03 2.02882E-04-4.41029E-15
 -1      1125 2.95532E-03 4.07680E-04-5.05969E-15
 -1      1126 3.21800E-03 6.19198E-04-5.73924E-15
 -1      1127 3.48900E-03 8.33822E-04-6.44763E-15
 -1      1128 3.76622E-03 1.04919E-03-7.17880E-15
 -1      1129 4.04773E-03 1.26397E-03-7.93204E-15
 -1      1130 4.33199E-03 1.47758E-03-8.70465E-15
 -1      1131 4.61783E-03 1.68988E-03-9.49867E-15
 -1      1132 4.90446E-03 1.90101E-03-1.03196E-14
 -1      1133 5.19137E-03 2.11120E-03-1.11721E-14
 -1      1134 5.47827E-03 2.32072E-03-1.20592E-14
 -1      1135 5.76502E-03 2.52978E-03-1.29795E-14
 -1      1136 6.05154E-03 2.73857E-03-1.39369E-14
 -1      1137 6.33786E-03 2.94722E-03-1.49329E-14
 -1      1138 6.62398E-03 3.15583E-03-1.59644E-14
 -1      1139 6.90996E-03 3.36444E-03-1.70324E-14
 -1      1140 7.19582E-03 3.57310E-03-1.81346E-14
 -1      1141 7.48160E-03 3.78181E-03-1.92762E-14
 -1      1142 7.76732E-03 3.99058E-03-2.04581E-14
 -1      1143 8.05300E-03 4.19940E-03-2.16582E-14
 -1      1144 8.33867E-03 4.40828E-03-2.28743E-14
 -1      1145 8.62433E-03 4.61720E-03-2.41095E-14
 -1      1146 8.90999E-03 4.82616E-03-2.53510E-14
 -1      1147 9.19565E-03 5.03514E-03-2.65982E-14
 -1      1148 9.48132E-03 5.24415E-03-2.78600E-14
 -1      1149 9.76699E-03 5.45317E-03-2.91323E-14
 -1      1150 1.00527E-02 5.66221E-03-3.04128E-14
 -1      1151 1.03384E-02 5.87125E-03-3.16935E-14
 -1      1152 1.06240E-02 6.08030E-03-3.29907E-14
 -1      1153 1.09097E-02 6.28936E-03-3.43243E-14
 -1      1154 1.11954E-02 6.49842E-03-3.56847E-14
 -1      1155 1.14812E-02 6.70748E-03-3.70810E-14
 -1      1156 1.17669E-02 6.91653E-03-3.84897E-14
 -1      1157 1.20526E-02 7.12559E-03-3.98905E-14
 -1      1158 1.23383E-02 7.33465E-03-4.12828E-14
 -1      1159 1.26240E-02 7.54371E-03-4.26825E-14
 -1      1160 1.29097E-02 7.75277E-03-4.40948E-14
 -1      1161 1.31954E-02 7.96183E-03-4.55240E-14
 -1      1162 1.34740E-02 8.16566E-03-4.69273E-14
 -1      1163 2.91054E-04 1.46556E-04 3.74050E-17
 -1      1164 7.88581E-04 3.03705E-04 1.39374E-16
 -1      1165 1.29190E-03 4.81232E-04 2.62973E-16
 -1      1166 1.83305E-03 7.50060E-04 4.04109E-16
 -1      1167 2.39329E-03 1.17286E-03 5.53973E-16
 -1      1168 2.91123E-03 1.76537E-03 7.13242E-16
 -1      1169 3.27246E-03 2.35076E-03 8.75398E-16
 -1      1170 3.46273E-03 2.63516E-03 1.00943E-15
 -1      1171 3.63216E-03 2.60115E-03 1.11961E-15
 -1      1172 3.93365E-03 2.31516E-03 1.21344E-15
 -1      1173 4.43192E-03 1.95295E-03 1.27228E-15
 -1      1174 5.01727E-03 1.74729E-03 1.27895E-15
 -1      1175 5.56419E-03 1.73566E-03 1.24082E-15
 -1      1176 6.04038E-03 1.84825E-03 1.16781E-15
 -1      1177 6.45342E-03 2.02353E-03 1.05966E-15
 -1      1178 6.82063E-03 2.22615E-03 9.11529E-16
 -1      1179 7.15734E-03 2.43917E-03 7.15953E-16
 -1      1180 7.47457E-03 2.65521E-03 4.76941E-16
 -1      1181 7.77965E-03 2.87134E-03 2.04155E-16
 -1      1182 8.07720E-03 3.08654E-03-1.07594E-16
 -1      1183 8.37014E-03 3.30059E-03-4.78540E-16
 -1      1184 8.66025E-03 3.51359E-03-8.71617E-16
 -1      1185 8.94860E-03 3.72570E-03-1.28204E-15
 -1      1186 9.23589E-03 3.93711E-03-1.71808E-15
 -1      1187 9.52250E-03 4.14797E-03-2.18816E-15
 -1      1188 9.80871E-03 4.35841E-03-2.69942E-15
 -1      1189 1.00947E-02 4.56853E-03-3.25376E-15
 -1      1190 1.03805E-02 4.77839E-03-3.84549E-15
 -1      1191 1.06662E-02 4.98807E-03-4.46687E-15
 -1      1192 1.09519E-02 5.19759E-03-5.13324E-15
 -1      1193 1.12375E-02 5.40700E-03-5.83644E-15
 -1      1194 1.15231E-02 5.61632E-03-6.55763E-15
 -1      1195 1.18087E-02 5.82557E-03-7.31507E-15
 -1      1196 1.20944E-02 6.03477E-03-8.08807E-15
 -1      1197 1.23800E-02 6.24393E-03-8.85065E-15
 -1      1198 1.26657E-02 6.45306E-03-9.63731E-15
 -1      1199 1.29513E-02 6.66217E-03-1.04801E-14
 -1      1200 1.32370E-02 6.87126E-03-1.13521E-14
 -1      1201 1.35227E-02 7.08034E-03-1.22225E-14
 -1      1202 1.38084E-02 7.28940E-03-1.31347E-14
 -1      1203 1.40941E-02 7.49847E-03-1.40886E-14
 -1      1204 1.43797E-02 7.70753E-03-1.50603E-14
 -1      1205 1.46654E-02 7.91658E-03-1.60440E-14
 -1      1206 1.49512E-02 8.12564E-03-1.70448E-14
 -1      1207 1.52369E-02 8.33470E-03-1.80637E-14
 -1      1208 1.55226E-02 8.54375E-03-1.90990E-14
 -1      1209 1.58083E-02 8.75281E-03-2.01656E-14
 -1      1210 1.60940E-02 8.96186E-03-2.12609E-14
 -1      1211 1.63797E-02 9.17092E-03-2.23757E-14
 -1      1212 1.66654E-02 9.37997E-03-2.34886E-14
 -1      1213 1.69511E-02 9.58903E-03-2.45954E-14
 -1      1214 1.69912E-02 9.65142E-03-2.58047E-14
 -1      1215 1.67856E-02 9.56713E-03-2.71033E-14
 -1      1216 1.65801E-02 9.48285E-03-2.84210E-14
 -1      1217 1.63745E-02 9.39856E-03-2.97331E-14
 -1      1218 1.61689E-02 9.31427E-03-3.10514E-14
 -1      1219 1.59651E-02 9.23070E-03-3.23763E-14
 -1      1220 1.57612E-02 9.14713E-03-3.36997E-14
 -1      1221 1.55557E-02 9.06284E-03-3.50300E-14
 -1      1222 1.53501E-02 8.97855E-03-3.63831E-14
 -1      1223 1.51445E-02 8.89426E-03-3.77444E-14
 -1      1224 1.49389E-02 8.80997E-03-3.91077E-14
 -1      1225 1.47351E-02 8.72639E-03-4.04688E-14
 -1      1226 1.45313E-02 8.64282E-03-4.18164E-14
 -1      1227 1.43257E-02 8.55853E-03-4.31545E-14
 -1      1228 1.41202E-02 8.47425E-03-4.44607E-14
 -1      1229 1.39146E-02 8.38996E-03-4.57335E-14
 -1      1230 1.37107E-02 8.30639E-03-4.69899E-14
 -1      1231 5.56970E-03 1.24207E-03 9.10594E-17
 -1      1232 5.55699E-03 1.40531E-03 2.20859E-16
 -1      1233 5.41670E-03 1.58894E-03 3.57072E-16
 -1      1234 5.15927E-03 1.79565E-03 4.74637E-16
 -1      1235 4.77186E-03 2.03526E-03 5.63839E-16
 -1      1236 4.27712E-03 2.26421E-03 6.16857E-16
 -1      1237 3.72049E-03 2.40288E-03 6.33255E-16
 -1      1238 3.08314E-03 2.37939E-03 6.13062E-16
 -1      1239 2.45992E-03 2.17909E-03 5.64598E-16
 -1      1240 1.90774E-03 1.87400E-03 5.02121E-16
 -1      1241 1.39418E-03 1.51658E-03 4.26213E-16
 -1      1242 9.61193E-04 1.18011E-03 3.47392E-16
 -1      1243 6.54610E-04 9.13087E-04 2.73087E-16
 -1      1244 4.64176E-04 7.03300E-04 2.03905E-16
 -1      1245 3.94531E-04 5.42903E-04 1.41468E-16
 -1      1246 4.42538E-04 4.17446E-04 8.23723E-17
 -1      1247 5.91960E-04 3.14243E-04 2.45479E-17
 -1      1248 8.28700E-04 2.22730E-04-3.35967E-17
 -1      1249 1.16289E-03 1.35964E-04-9.79983E-17
 -1      1250 1.55569E-03 6.67719E-05-1.62739E-16
 -1      1251 1.97028E-03 2.84752E-05-2.22451E-16
 -1      1252 2.42680E-03 3.07287E-05-2.78965E-16
 -1      1253 2.89665E-03 7.95115E-05-3.24827E-16
 -1      1254 3.34335E-03 1.70602E-04-3.54968E-16
 -1      1255 3.78230E-03 2.96018E-04-3.67301E-16
 -1      1256 4.20707E-03 4.45238E-04-3.55361E-16
 -1      1257 4.60634E-03 6.07621E-04-3.14148E-16
 -1      1258 4.96702E-03 7.75002E-04-2.41946E-16
 -1      1259 5.26350E-03 9.38542E-04-1.42769E-16
 -1      1260 5.46748E-03 1.09156E-03-2.96936E-17
 -1      1261 1.58603E-04-1.20020E-04-3.75947E-17
 -1      1262 1.08567E-04-7.05414E-05-3.38000E-17
 -1      1263 1.11952E-04-7.94190E-05-3.42337E-17
 -1      1264 1.08938E-04-5.90644E-05-3.19433E-17
 -1      1265 1.08523E-04-6.46221E-05-3.31901E-17
 -1      1266 2.19876E-04-1.34004E-04-7.94585E-17
 -1      1267 1.12243E-04-4.84871E-05-2.82299E-17
 -1      1268 1.10653E-04-5.38943E-05-2.97342E-17
 -1      1269 2.22608E-04-1.10814E-04-7.32243E-17
 -1      1270 1.16060E-04-3.65519E-05-2.41099E-17
 -1      1271 1.14267E-04-4.26408E-05-2.55465E-17
 -1      1272 2.29844E-04-8.88170E-05-6.43338E-17
 -1      1273 1.19217E-04-2.21319E-05-1.96783E-17
 -1      1274 1.17850E-04-2.93881E-05-2.11284E-17
 -1      1275 2.37860E-04-6.43062E-05-5.45760E-17
 -1      1276 1.20515E-04-4.58560E-06-1.51246E-17
 -1      1277 1.20235E-04-1.32497E-05-1.65747E-17
 -1      1278 2.44263E-04-3.51974E-05-4.42354E-17
 -1      1279 1.18512E-04 1.58138E-05-1.08149E-17
 -1      1280 1.20074E-04 6.00837E-06-1.21295E-17
 -1      1281 2.46324E-04-5.26676E-07-3.38678E-17
 -1      1282 1.11770E-04 3.70022E-05-6.30193E-18
 -1      1283 1.15828E-04 2.72456E-05-7.65718E-18
 -1      1284 2.40627E-04 3.86130E-05-2.35136E-17
 -1      1285 9.97415E-05 5.44081E-05-2.27682E-18
 -1      1286 1.06287E-04 4.70381E-05-3.37458E-18
 -1      1287 2.23788E-04 7.74828E-05-1.32950E-17
 -1      1288 8.45069E-05 6.16182E-05 1.78893E-18
 -1      1289 9.20486E-05 5.94896E-05 8.53809E-19
 -1      1290 1.95109E-04 1.06773E-04-3.44234E-18
 -1      1291 7.17958E-05 5.40895E-05 5.75982E-18
 -1      1292 7.70598E-05 5.86341E-05 4.77049E-18
 -1      1293 1.60697E-04 1.15194E-04 6.07153E-18
 -1      1294 6.93173E-05 3.48308E-05 1.00424E-17
 -1      1295 6.86846E-05 4.35330E-05 8.79559E-18
 -1      1296 1.35559E-04 9.76247E-05 1.55719E-17
 -1      1297 8.15386E-05 1.37110E-05 1.50298E-17
 -1      1298 7.33657E-05 2.15414E-05 1.32815E-17
 -1      1299 1.35944E-04 6.30221E-05 2.57769E-17
 -1      1300 1.09112E-04 4.53124E-06 2.12368E-17
 -1      1301 9.37335E-05 5.06644E-06 1.88245E-17
 -1      1302 1.71164E-04 3.15769E-05 3.77709E-17
 -1      1303 1.46612E-04 2.26582E-05 2.80131E-17
 -1      1304 1.27298E-04 9.00056E-06 2.50180E-17
 -1      1305 2.38601E-04 2.95801E-05 5.14589E-17
 -1      1306 2.12473E-04 8.34210E-05 3.53450E-17
 -1      1307 1.81251E-04 4.53388E-05 3.29191E-17
 -1      1308 3.32577E-04 7.59765E-05 6.68682E-17
 -1      1309 4.63593E-04 1.69668E-04 8.17217E-17
 -1      1310 3.98344E-04-2.87295E-04-1.21431E-16
 -1      1311 5.38364E-04-3.69967E-04-1.90156E-16
 -1      1312 6.70514E-04-4.34713E-04-2.80239E-16
 -1      1313 7.96662E-04-4.84299E-04-3.88185E-16
 -1      1314 5.72332E-04-3.70355E-04-2.34418E-16
 -1      1315 9.17672E-04-5.21229E-04-5.11493E-16
 -1      1316 1.03459E-03-5.46265E-04-6.49945E-16
 -1      1317 8.37735E-04-4.72239E-04-4.41867E-16
 -1      1318 1.14840E-03-5.60800E-04-8.02398E-16
 -1      1319 1.25975E-03-5.64863E-04-9.68965E-16
 -1      1320 1.08615E-03-5.24524E-04-7.09488E-16
 -1      1321 1.36935E-03-5.59027E-04-1.14824E-15
 -1      1322 1.47772E-03-5.43249E-04-1.33979E-15
 -1      1323 1.32343E-03-5.33991E-04-1.03121E-15
 -1      1324 1.58545E-03-5.17792E-04-1.54300E-15
 -1      1325 1.69302E-03-4.82761E-04-1.75738E-15
 -1      1326 1.55433E-03-5.03084E-04-1.40206E-15
 -1      1327 1.80097E-03-4.38463E-04-1.98299E-15
 -1      1328 1.90973E-03-3.85225E-04-2.21919E-15
 -1      1329 1.78293E-03-4.33114E-04-1.81794E-15
 -1      1330 2.01978E-03-3.23563E-04-2.46508E-15
 -1      1331 2.13148E-03-2.54029E-04-2.72078E-15
 -1      1332 2.01289E-03-3.26270E-04-2.27554E-15
 -1      1333 2.24519E-03-1.77352E-04-2.98650E-15
 -1      1334 2.36112E-03-9.42506E-05-3.26133E-15
 -1      1335 2.24734E-03-1.86473E-04-2.77275E-15
 -1      1336 2.47948E-03-5.57133E-06-3.54515E-15
 -1      1337 2.60036E-03 8.79017E-05-3.83835E-15
 -1      1338 2.48857E-03-1.93068E-05-3.30751E-15
 -1      1339 2.72378E-03 1.85336E-04-4.14008E-15
 -1      1340 2.84970E-03 2.85986E-04-4.44981E-15
 -1      1341 2.73782E-03 1.68701E-04-3.87816E-15
 -1      1342 2.97803E-03 3.89144E-04-4.76747E-15
 -1      1343 3.10861E-03 4.94177E-04-5.09187E-15
 -1      1344 2.99533E-03 3.71039E-04-4.48205E-15
 -1      1345 3.24127E-03 6.00564E-04-5.42413E-15
 -1      1346 3.37581E-03 7.07818E-04-5.76420E-15
 -1      1347 3.26049E-03 5.82032E-04-5.11735E-15
 -1      1348 3.51200E-03 8.15612E-04-6.11074E-15
 -1      1349 3.64963E-03 9.23605E-04-6.46331E-15
 -1      1350 3.53216E-03 7.97309E-04-5.78126E-15
 -1      1351 3.78850E-03 1.03163E-03-6.82202E-15
 -1      1352 3.92842E-03 1.13948E-03-7.18620E-15
 -1      1353 3.80896E-03 1.01389E-03-6.47252E-15
 -1      1354 4.06918E-03 1.24710E-03-7.55590E-15
 -1      1355 4.21064E-03 1.35437E-03-7.93156E-15
 -1      1356 4.08956E-03 1.23002E-03-7.18750E-15
 -1      1357 4.35265E-03 1.46131E-03-8.31134E-15
 -1      1358 4.49509E-03 1.56786E-03-8.69616E-15
 -1      1359 4.37277E-03 1.44485E-03-7.92397E-15
 -1      1360 4.63785E-03 1.67409E-03-9.08864E-15
 -1      1361 4.78084E-03 1.77996E-03-9.48701E-15
 -1      1362 4.65766E-03 1.65814E-03-8.68422E-15
 -1      1363 4.92399E-03 1.88556E-03-9.89169E-15
 -1      1364 5.06725E-03 1.99088E-03-1.03040E-14
 -1      1365 4.94351E-03 1.87000E-03-9.46880E-15
 -1      1366 5.21057E-03 2.09599E-03-1.07237E-14
 -1      1367 5.35392E-03 2.20089E-03-1.11534E-14
 -1      1368 5.22986E-03 2.08070E-03-1.02823E-14
 -1      1369 5.49727E-03 2.30564E-03-1.15905E-14
 -1      1370 5.64060E-03 2.41026E-03-1.20366E-14
 -1      1371 5.51638E-03 2.29052E-03-1.11283E-14
 -1      1372 5.78389E-03 2.51478E-03-1.24923E-14
 -1      1373 5.92716E-03 2.61921E-03-1.29554E-14
 -1      1374 5.80290E-03 2.49975E-03-1.20095E-14
 -1      1375 6.07038E-03 2.72360E-03-1.34286E-14
 -1      1376 6.21355E-03 2.82794E-03-1.39103E-14
 -1      1377 6.08932E-03 2.70861E-03-1.29261E-14
 -1      1378 6.35669E-03 2.93225E-03-1.44008E-14
 -1      1379 6.49978E-03 3.03655E-03-1.49020E-14
 -1      1380 6.37560E-03 2.91728E-03-1.38776E-14
 -1      1381 6.64283E-03 3.14084E-03-1.54114E-14
 -1      1382 6.78585E-03 3.24513E-03-1.59294E-14
 -1      1383 6.66174E-03 3.12586E-03-1.48646E-14
 -1      1384 6.92884E-03 3.34943E-03-1.64570E-14
 -1      1385 7.07180E-03 3.45374E-03-1.69933E-14
 -1      1386 6.94776E-03 3.33443E-03-1.58888E-14
 -1      1387 7.21474E-03 3.55806E-03-1.75375E-14
 -1      1388 7.35765E-03 3.66240E-03-1.80927E-14
 -1      1389 7.23368E-03 3.54303E-03-1.69490E-14
 -1      1390 7.50055E-03 3.76675E-03-1.86562E-14
 -1      1391 7.64343E-03 3.87111E-03-1.92290E-14
 -1      1392 7.51952E-03 3.75169E-03-1.80434E-14
 -1      1393 7.78630E-03 3.97549E-03-1.98099E-14
 -1      1394 7.92916E-03 4.07989E-03-2.03983E-14
 -1      1395 7.80529E-03 3.96042E-03-1.91726E-14
 -1      1396 8.07202E-03 4.18430E-03-2.09910E-14
 -1      1397 8.21486E-03 4.28873E-03-2.15864E-14
 -1      1398 8.09103E-03 4.16921E-03-2.03312E-14
 -1      1399 8.35771E-03 4.39317E-03-2.21888E-14
 -1      1400 8.50055E-03 4.49762E-03-2.27943E-14
 -1      1401 8.37674E-03 4.37806E-03-2.15103E-14
 -1      1402 8.64339E-03 4.60208E-03-2.34022E-14
 -1      1403 8.78622E-03 4.70655E-03-2.40148E-14
 -1      1404 8.66243E-03 4.58695E-03-2.27060E-14
 -1      1405 8.92906E-03 4.81102E-03-2.46293E-14
 -1      1406 9.07189E-03 4.91551E-03-2.52441E-14
 -1      1407 8.94812E-03 4.79589E-03-2.39140E-14
 -1      1408 9.21473E-03 5.02000E-03-2.58611E-14
 -1      1409 9.35756E-03 5.12450E-03-2.64831E-14
 -1      1410 9.23380E-03 5.00487E-03-2.51316E-14
 -1      1411 9.50040E-03 5.22901E-03-2.71073E-14
 -1      1412 9.64324E-03 5.33351E-03-2.77340E-14
 -1      1413 9.51948E-03 5.21386E-03-2.63618E-14
 -1      1414 9.78608E-03 5.43803E-03-2.83650E-14
 -1      1415 9.92892E-03 5.54254E-03-2.89985E-14
 -1      1416 9.80516E-03 5.42288E-03-2.76050E-14
 -1      1417 1.00718E-02 5.64706E-03-2.96325E-14
 -1      1418 1.02146E-02 5.75158E-03-3.02715E-14
 -1      1419 1.00908E-02 5.63191E-03-2.88616E-14
 -1      1420 1.03574E-02 5.85610E-03-3.09087E-14
 -1      1421 1.05003E-02 5.96063E-03-3.15456E-14
 -1      1422 1.03765E-02 5.84095E-03-3.01245E-14
 -1      1423 1.06431E-02 6.06515E-03-3.21921E-14
 -1      1424 1.07860E-02 6.16968E-03-3.28476E-14
 -1      1425 1.06622E-02 6.05000E-03-3.13990E-14
 -1      1426 1.09288E-02 6.27421E-03-3.35088E-14
 -1      1427 1.10717E-02 6.37874E-03-3.41757E-14
 -1      1428 1.09479E-02 6.25906E-03-3.26974E-14
 -1      1429 1.12145E-02 6.48326E-03-3.48535E-14
 -1      1430 1.13574E-02 6.58779E-03-3.55343E-14
 -1      1431 1.12336E-02 6.46811E-03-3.40240E-14
 -1      1432 1.15002E-02 6.69232E-03-3.62207E-14
 -1      1433 1.16431E-02 6.79685E-03-3.69163E-14
 -1      1434 1.15193E-02 6.67717E-03-3.53744E-14
 -1      1435 1.17860E-02 6.90138E-03-3.76130E-14
 -1      1436 1.19288E-02 7.00591E-03-3.83078E-14
 -1      1437 1.18050E-02 6.88623E-03-3.67423E-14
 -1      1438 1.20717E-02 7.11044E-03-3.90040E-14
 -1      1439 1.22145E-02 7.21497E-03-3.97015E-14
 -1      1440 1.20908E-02 7.09529E-03-3.81241E-14
 -1      1441 1.23574E-02 7.31950E-03-4.03968E-14
 -1      1442 1.25002E-02 7.42403E-03-4.10902E-14
 -1      1443 1.23765E-02 7.30435E-03-3.95095E-14
 -1      1444 1.26431E-02 7.52856E-03-4.17892E-14
 -1      1445 1.27859E-02 7.63309E-03-4.24925E-14
 -1      1446 1.26622E-02 7.51341E-03-4.08999E-14
 -1      1447 1.29288E-02 7.73762E-03-4.31961E-14
 -1      1448 1.30717E-02 7.84215E-03-4.39033E-14
 -1      1449 1.29479E-02 7.72247E-03-4.22988E-14
 -1      1450 1.32145E-02 7.94668E-03-4.46148E-14
 -1      1451 1.33574E-02 8.05121E-03-4.53281E-14
 -1      1452 1.32336E-02 7.93153E-03-4.37081E-14
 -1      1453 1.35750E-02 8.20709E-03-4.63054E-14
 -1      1454 1.35941E-02 8.19194E-03-4.53901E-14
 -1      1455 9.41842E-04 3.25183E-04 1.82119E-16
 -1      1456 7.00941E-04 2.44319E-04 1.27475E-16
 -1      1457 6.14964E-04 1.89212E-04 1.16619E-16
 -1      1458 1.41777E-03 5.25015E-04 3.03224E-16
 -1      1459 1.17589E-03 4.14037E-04 2.40530E-16
 -1      1460 1.05275E-03 3.52007E-04 2.17925E-16
 -1      1461 1.92641E-03 8.52952E-04 4.39671E-16
 -1      1462 1.66853E-03 6.68743E-04 3.69903E-16
 -1      1463 1.50033E-03 5.94465E-04 3.36048E-16
 -1      1464 2.42290E-03 1.34609E-03 5.78774E-16
 -1      1465 2.17610E-03 1.07828E-03 5.08410E-16
 -1      1466 1.96667E-03 9.87403E-04 4.62697E-16
 -1      1467 2.90878E-03 2.00972E-03 7.33368E-16
 -1      1468 2.67538E-03 1.67380E-03 6.55346E-16
 -1      1469 2.45779E-03 1.57614E-03 5.97504E-16
 -1      1470 3.26287E-03 2.50465E-03 8.68554E-16
 -1      1471 3.09366E-03 2.28991E-03 8.01266E-16
 -1      1472 2.92844E-03 2.21376E-03 7.29804E-16
 -1      1473 3.51762E-03 2.63412E-03 9.70632E-16
 -1      1474 3.38960E-03 2.60482E-03 9.21314E-16
 -1      1475 3.30958E-03 2.56058E-03 8.35974E-16
 -1      1476 3.81190E-03 2.46755E-03 1.05702E-15
 -1      1477 3.65808E-03 2.57934E-03 1.01717E-15
 -1      1478 3.66002E-03 2.55000E-03 9.19620E-16
 -1      1479 4.24054E-03 2.08735E-03 1.12581E-15
 -1      1480 4.01807E-03 2.28201E-03 1.09743E-15
 -1      1481 4.07494E-03 2.24496E-03 9.86570E-16
 -1      1482 4.77341E-03 1.76503E-03 1.14885E-15
 -1      1483 4.50600E-03 1.90313E-03 1.14443E-15
 -1      1484 4.57214E-03 1.85342E-03 1.01995E-15
 -1      1485 5.29255E-03 1.66137E-03 1.12052E-15
 -1      1486 5.03765E-03 1.68926E-03 1.14039E-15
 -1      1487 5.07226E-03 1.63536E-03 1.00461E-15
 -1      1488 5.76329E-03 1.72451E-03 1.05406E-15
 -1      1489 5.53448E-03 1.67782E-03 1.09187E-15
 -1      1490 5.52566E-03 1.62446E-03 9.45872E-16
 -1      1491 6.18196E-03 1.87849E-03 9.50371E-16
 -1      1492 5.97862E-03 1.79376E-03 1.00694E-15
 -1      1493 5.93510E-03 1.74251E-03 8.47846E-16
 -1      1494 6.55797E-03 2.07378E-03 8.09763E-16
 -1      1495 6.37456E-03 1.97268E-03 8.84966E-16
 -1      1496 6.30885E-03 1.92371E-03 7.12917E-16
 -1      1497 6.90288E-03 2.28544E-03 6.28011E-16
 -1      1498 6.73362E-03 2.17828E-03 7.24627E-16
 -1      1499 6.65532E-03 2.13137E-03 5.40028E-16
 -1      1500 7.22657E-03 2.50228E-03 4.00206E-16
 -1      1501 7.06683E-03 2.39348E-03 5.19279E-16
 -1      1502 6.98187E-03 2.34824E-03 3.25193E-16
 -1      1503 7.53632E-03 2.71977E-03 1.33181E-16
 -1      1504 7.38279E-03 2.61104E-03 2.71186E-16
 -1      1505 7.29449E-03 2.56704E-03 6.82370E-17
 -1      1506 7.83715E-03 2.93630E-03-1.68404E-16
 -1      1507 7.68759E-03 2.82818E-03-1.33492E-17
 -1      1508 7.59768E-03 2.78507E-03-2.26924E-16
 -1      1509 8.13233E-03 3.15146E-03-5.18086E-16
 -1      1510 7.98527E-03 3.04405E-03-3.37295E-16
 -1      1511 7.89467E-03 3.00156E-03-5.61657E-16
 -1      1512 8.42394E-03 3.36532E-03-9.10255E-16
 -1      1513 8.27847E-03 3.25854E-03-7.09529E-16
 -1      1514 8.18762E-03 3.21647E-03-9.40776E-16
 -1      1515 8.71333E-03 3.57808E-03-1.31869E-15
 -1      1516 8.56884E-03 3.47182E-03-1.11205E-15
 -1      1517 8.47795E-03 3.43003E-03-1.35012E-15
 -1      1518 9.00130E-03 3.78997E-03-1.75440E-15
 -1      1519 8.85744E-03 3.68412E-03-1.53392E-15
 -1      1520 8.76660E-03 3.64252E-03-1.78312E-15
 -1      1521 9.28839E-03 4.00119E-03-2.21603E-15
 -1      1522 9.14493E-03 3.89565E-03-1.98042E-15
 -1      1523 9.05417E-03 3.85418E-03-2.24129E-15
 -1      1524 9.57493E-03 4.21189E-03-2.71721E-15
 -1      1525 9.43171E-03 4.10660E-03-2.46160E-15
 -1      1526 9.34104E-03 4.06520E-03-2.73224E-15
 -1      1527 9.86111E-03 4.42220E-03-3.25682E-15
 -1      1528 9.71805E-03 4.31709E-03-2.98141E-15
 -1      1529 9.62746E-03 4.27575E-03-3.26161E-15
 -1      1530 1.01471E-02 4.63221E-03-3.84043E-15
 -1      1531 1.00041E-02 4.52724E-03-3.54259E-15
 -1      1532 9.91359E-03 4.48594E-03-3.83180E-15
 -1      1533 1.04329E-02 4.84199E-03-4.45741E-15
 -1      1534 1.02900E-02 4.73713E-03-4.14443E-15
 -1      1535 1.01995E-02 4.69586E-03-4.44016E-15
 -1      1536 1.07186E-02 5.05160E-03-5.10788E-15
 -1      1537 1.05758E-02 4.94682E-03-4.77777E-15
 -1      1538 1.04854E-02 4.90556E-03-5.08494E-15
 -1      1539 1.10043E-02 5.26107E-03-5.80372E-15
 -1      1540 1.08615E-02 5.15635E-03-5.45220E-15
 -1      1541 1.07711E-02 5.11511E-03-5.76694E-15
 -1      1542 1.12900E-02 5.47044E-03-6.52158E-15
 -1      1543 1.11471E-02 5.36577E-03-6.16014E-15
 -1      1544 1.10568E-02 5.32454E-03-6.48112E-15
 -1      1545 1.15756E-02 5.67973E-03-7.26577E-15
 -1      1546 1.14328E-02 5.57510E-03-6.89057E-15
 -1      1547 1.13425E-02 5.53387E-03-7.21963E-15
 -1      1548 1.18613E-02 5.88896E-03-8.04116E-15
 -1      1549 1.17185E-02 5.78435E-03-7.64937E-15
 -1      1550 1.16282E-02 5.74312E-03-7.98619E-15
 -1      1551 1.21469E-02 6.09814E-03-8.81760E-15
 -1      1552 1.20041E-02 5.99355E-03-8.43001E-15
 -1      1553 1.19138E-02 5.95233E-03-8.77130E-15
 -1      1554 1.24326E-02 6.30728E-03-9.60252E-15
 -1      1555 1.22898E-02 6.20271E-03-9.20717E-15
 -1      1556 1.21995E-02 6.16149E-03-9.56093E-15
 -1      1557 1.27183E-02 6.51640E-03-1.04251E-14
 -1      1558 1.25754E-02 6.41184E-03-1.00075E-14
 -1      1559 1.24852E-02 6.37062E-03-1.03748E-14
 -1      1560 1.30039E-02 6.72549E-03-1.12891E-14
 -1      1561 1.28611E-02 6.62095E-03-1.08513E-14
 -1      1562 1.27708E-02 6.57973E-03-1.12231E-14
 -1      1563 1.32896E-02 6.93458E-03-1.21679E-14
 -1      1564 1.31468E-02 6.83004E-03-1.17284E-14
 -1      1565 1.30565E-02 6.78882E-03-1.21015E-14
 -1      1566 1.35753E-02 7.14365E-03-1.30685E-14
 -1      1567 1.34324E-02 7.03911E-03-1.26147E-14
 -1      1568 1.33422E-02 6.99789E-03-1.30018E-14
 -1      1569 1.38610E-02 7.35272E-03-1.40127E-14
 -1      1570 1.37181E-02 7.24818E-03-1.35349E-14
 -1      1571 1.36279E-02 7.20696E-03-1.39310E-14
 -1      1572 1.41467E-02 7.56178E-03-1.49775E-14
 -1      1573 1.40038E-02 7.45725E-03-1.44915E-14
 -1      1574 1.39136E-02 7.41602E-03-1.48920E-14
 -1      1575 1.44324E-02 7.77083E-03-1.59584E-14
 -1      1576 1.42895E-02 7.66631E-03-1.54659E-14
 -1      1577 1.41993E-02 7.62508E-03-1.58717E-14
 -1      1578 1.47181E-02 7.97989E-03-1.69576E-14
 -1      1579 1.45752E-02 7.87536E-03-1.64552E-14
 -1      1580 1.44850E-02 7.83414E-03-1.68653E-14
 -1      1581 1.50038E-02 8.18895E-03-1.79729E-14
 -1      1582 1.48609E-02 8.08442E-03-1.74634E-14
 -1      1583 1.47707E-02 8.04320E-03-1.78783E-14
 -1      1584 1.52895E-02 8.39800E-03-1.90064E-14
 -1      1585 1.51466E-02 8.29347E-03-1.84881E-14
 -1      1586 1.50564E-02 8.25225E-03-1.89091E-14
 -1      1587 1.55752E-02 8.60705E-03-2.00602E-14
 -1      1588 1.54323E-02 8.50253E-03-1.95305E-14
 -1      1589 1.53421E-02 8.46130E-03-1.99590E-14
 -1      1590 1.58609E-02 8.81611E-03-2.11443E-14
 -1      1591 1.57181E-02 8.71158E-03-2.05991E-14
 -1      1592 1.56278E-02 8.67036E-03-2.10286E-14
 -1      1593 1.61466E-02 9.02517E-03-2.22435E-14
 -1      1594 1.60038E-02 8.92064E-03-2.16919E-14
 -1      1595 1.59135E-02 8.87941E-03-2.21200E-14
 -1      1596 1.64323E-02 9.23422E-03-2.33618E-14
 -1      1597 1.62895E-02 9.12969E-03-2.28027E-14
 -1      1598 1.61992E-02 9.08847E-03-2.32314E-14
 -1      1599 1.67180E-02 9.44328E-03-2.44748E-14
 -1      1600 1.65752E-02 9.33875E-03-2.39186E-14
 -1      1601 1.64850E-02 9.29753E-03-2.43479E-14
 -1      1602 1.68483E-02 9.54689E-03-2.52403E-14
 -1      1603 1.66105E-02 9.45554E-03-2.69489E-14
 -1      1604 1.67133E-02 9.49768E-03-2.62909E-14
 -1      1605 1.64050E-02 9.37125E-03-2.82558E-14
 -1      1606 1.65077E-02 9.41340E-03-2.76041E-14
 -1      1607 1.64354E-02 9.34395E-03-2.67861E-14
 -1      1608 1.61994E-02 9.28697E-03-2.95620E-14
 -1      1609 1.63022E-02 9.32911E-03-2.89070E-14
 -1      1610 1.62298E-02 9.25966E-03-2.80859E-14
 -1      1611 1.59938E-02 9.20268E-03-3.08762E-14
 -1      1612 1.60966E-02 9.24482E-03-3.02192E-14
 -1      1613 1.60243E-02 9.17537E-03-2.93872E-14
 -1      1614 1.57917E-02 9.11982E-03-3.21784E-14
 -1      1615 1.58928E-02 9.16125E-03-3.15254E-14
 -1      1616 1.58204E-02 9.09180E-03-3.06845E-14
 -1      1617 1.55861E-02 9.03553E-03-3.34982E-14
 -1      1618 1.56889E-02 9.07768E-03-3.28414E-14
 -1      1619 1.56166E-02 9.00823E-03-3.19828E-14
 -1      1620 1.53806E-02 8.95124E-03-3.48232E-14
 -1      1621 1.54833E-02 8.99339E-03-3.41582E-14
 -1      1622 1.54110E-02 8.92394E-03-3.32928E-14
 -1      1623 1.51750E-02 8.86695E-03-3.61702E-14
 -1      1624 1.52778E-02 8.90910E-03-3.54966E-14
 -1      1625 1.52055E-02 8.83965E-03-3.46160E-14
 -1      1626 1.49694E-02 8.78266E-03-3.75172E-14
 -1      1627 1.50722E-02 8.82481E-03-3.68443E-14
 -1      1628 1.49999E-02 8.75536E-03-3.59509E-14
 -1      1629 1.47638E-02 8.69837E-03-3.88737E-14
 -1      1630 1.48666E-02 8.74052E-03-3.81941E-14
 -1      1631 1.47943E-02 8.67107E-03-3.72897E-14
 -1      1632 1.45618E-02 8.61552E-03-4.02042E-14
 -1      1633 1.46628E-02 8.65695E-03-3.95415E-14
 -1      1634 1.45905E-02 8.58750E-03-3.86202E-14
 -1      1635 1.43562E-02 8.53123E-03-4.15438E-14
 -1      1636 1.44590E-02 8.57337E-03-4.08742E-14
 -1      1637 1.43866E-02 8.50392E-03-3.99461E-14
 -1      1638 1.41506E-02 8.44694E-03-4.28648E-14
 -1      1639 1.42534E-02 8.48908E-03-4.22087E-14
 -1      1640 1.41811E-02 8.41963E-03-4.12697E-14
 -1      1641 1.39450E-02 8.36265E-03-4.41584E-14
 -1      1642 1.40478E-02 8.40480E-03-4.35158E-14
 -1      1643 1.39755E-02 8.33535E-03-4.25746E-14
 -1      1644 1.37182E-02 8.25622E-03-4.50929E-14
 -1      1645 1.38210E-02 8.29837E-03-4.44588E-14
 -1      1646 1.37487E-02 8.22892E-03-4.35228E-14
 -1      1647 1.35005E-02 8.10034E-03-4.41223E-14
 -1      1648 5.59654E-03 1.27682E-03 9.68667E-17
 -1      1649 5.57533E-03 1.23152E-03 2.80944E-17
 -1      1650 5.53186E-03 1.39128E-03 2.52355E-16
 -1      1651 5.58113E-03 1.33522E-03 1.80730E-16
 -1      1652 5.31830E-03 1.54816E-03 4.08556E-16
 -1      1653 5.43441E-03 1.46933E-03 3.38468E-16
 -1      1654 4.98953E-03 1.75717E-03 5.33170E-16
 -1      1655 5.15207E-03 1.65387E-03 4.81840E-16
 -1      1656 4.52151E-03 2.03877E-03 6.35559E-16
 -1      1657 4.74788E-03 1.89542E-03 5.95186E-16
 -1      1658 4.05151E-03 2.31569E-03 6.73127E-16
 -1      1659 4.27274E-03 2.20141E-03 6.57623E-16
 -1      1660 3.54763E-03 2.47443E-03 6.78385E-16
 -1      1661 3.78425E-03 2.42148E-03 6.80391E-16
 -1      1662 3.02059E-03 2.41620E-03 6.49627E-16
 -1      1663 3.26530E-03 2.48296E-03 6.73371E-16
 -1      1664 2.48620E-03 2.12007E-03 5.78476E-16
 -1      1665 2.71958E-03 2.27050E-03 6.08210E-16
 -1      1666 1.95743E-03 1.73325E-03 4.99980E-16
 -1      1667 2.19777E-03 1.91868E-03 5.36653E-16
 -1      1668 1.45428E-03 1.29664E-03 4.13650E-16
 -1      1669 1.70209E-03 1.48747E-03 4.54877E-16
 -1      1670 9.66209E-04 9.82036E-04 3.27497E-16
 -1      1671 1.16424E-03 1.12157E-03 3.65457E-16
 -1      1672 6.30436E-04 7.62286E-04 2.52080E-16
 -1      1673 7.65993E-04 8.55103E-04 2.85896E-16
 -1      1674 4.31097E-04 6.05808E-04 1.83101E-16
 -1      1675 5.06725E-04 6.67297E-04 2.14184E-16
 -1      1676 3.80840E-04 5.11168E-04 1.23667E-16
 -1      1677 3.85618E-04 5.50667E-04 1.50494E-16
 -1      1678 4.70494E-04 4.36833E-04 6.53808E-17
 -1      1679 4.11336E-04 4.69617E-04 9.23063E-17
 -1      1680 6.66561E-04 3.57216E-04 1.00424E-17
 -1      1681 5.65413E-04 3.92187E-04 3.56012E-17
 -1      1682 9.56899E-04 2.65356E-04-4.95751E-17
 -1      1683 8.10315E-04 3.10481E-04-2.08099E-17
 -1      1684 1.34518E-03 1.61323E-04-1.19371E-16
 -1      1685 1.16238E-03 2.16055E-04-8.58688E-17
 -1      1686 1.72590E-03 5.65356E-05-1.88299E-16
 -1      1687 1.54732E-03 9.90051E-05-1.56911E-16
 -1      1688 2.11722E-03-7.01937E-06-2.56685E-16
 -1      1689 1.93647E-03 1.73290E-05-2.25650E-16
 -1      1690 2.53185E-03-1.84786E-05-3.31712E-16
 -1      1691 2.34156E-03-2.44497E-05-2.99999E-16
 -1      1692 2.94248E-03 5.79370E-05-3.80013E-16
 -1      1693 2.75796E-03 1.72186E-05-3.57353E-16
 -1      1694 3.34299E-03 1.87867E-04-4.17526E-16
 -1      1695 3.15825E-03 1.21378E-04-4.03025E-16
 -1      1696 3.76098E-03 3.62876E-04-4.33003E-16
 -1      1697 3.56543E-03 2.77029E-04-4.29236E-16
 -1      1698 4.18274E-03 5.57232E-04-4.19803E-16
 -1      1699 3.98871E-03 4.66616E-04-4.29805E-16
 -1      1700 4.60290E-03 7.50979E-04-3.71949E-16
 -1      1701 4.40976E-03 6.62194E-04-3.98756E-16
 -1      1702 4.99074E-03 9.24135E-04-2.89518E-16
 -1      1703 4.81767E-03 8.47652E-04-3.31820E-16
 -1      1704 5.30921E-03 1.06605E-03-1.74577E-16
 -1      1705 5.17245E-03 1.00464E-03-2.31125E-16
 -1      1706 5.51400E-03 1.17568E-03-4.66681E-17
 -1      1707 5.43490E-03 1.12899E-03-1.06238E-16
 -1      1708 4.79604E-03 1.77767E-03 6.11097E-16
 -1      1709 5.19935E-03 1.54282E-03 4.69629E-16
 -1      1710 1.67581E-02 9.50567E-03-2.56742E-14
 -1      1711 1.65830E-02 9.39407E-03-2.55195E-14
 -1      1712 5.59785E-03 1.30039E-03 1.23321E-16
 -1      1713 5.47416E-03 1.39105E-03 3.03019E-16
 -1      1714 5.55550E-03 1.23614E-03-4.47572E-17
 -1      1715 4.33317E-03 2.09326E-03 6.98633E-16
 -1      1716 3.86557E-03 2.38570E-03 7.27066E-16
 -1      1717 3.40421E-03 2.52205E-03 7.24843E-16
 -1      1718 2.95978E-03 2.37641E-03 6.68655E-16
 -1      1719 2.45620E-03 2.00382E-03 5.78747E-16
 -1      1720 1.94351E-03 1.53900E-03 4.87755E-16
 -1      1721 1.41119E-03 1.11499E-03 3.91898E-16
 -1      1722 9.20588E-04 8.27407E-04 3.03299E-16
 -1      1723 5.84603E-04 6.40686E-04 2.26915E-16
 -1      1724 4.05431E-04 5.41125E-04 1.61590E-16
 -1      1725 3.89189E-04 4.86083E-04 1.02952E-16
 -1      1726 5.19663E-04 4.42279E-04 4.86740E-17
 -1      1727 7.62968E-04 3.72847E-04-7.00666E-18
 -1      1728 1.10503E-03 2.76745E-04-7.07035E-17
 -1      1729 1.48890E-03 1.49674E-04-1.43196E-16
 -1      1730 1.87110E-03 3.24629E-05-2.20012E-16
 -1      1731 2.25092E-03-3.93865E-05-3.04851E-16
 -1      1732 2.61468E-03-3.03485E-05-3.83509E-16
 -1      1733 2.99399E-03 7.27756E-05-4.40078E-16
 -1      1734 3.37662E-03 2.40238E-04-4.82416E-16
 -1      1735 3.78661E-03 4.51145E-04-4.97703E-16
 -1      1736 4.21839E-03 6.73898E-04-4.78906E-16
 -1      1737 4.65288E-03 8.78751E-04-4.21456E-16
 -1      1738 5.05247E-03 1.04330E-03-3.23791E-16
 -1      1739 5.36587E-03 1.15782E-03-1.94441E-16
 -1      1740 2.68712E-04-1.97161E-04-8.87962E-17
 -1      1741 3.41669E-04-1.53721E-04-1.07336E-16
 -1      1742 3.37580E-04-1.70245E-04-1.13814E-16
 -1      1743 3.35516E-04-1.88282E-04-1.19154E-16
 -1      1744 3.37879E-04-2.07970E-04-1.22867E-16
 -1      1745 4.54184E-04-2.31708E-04-1.67672E-16
 -1      1746 3.66022E-04-8.40428E-05-7.85911E-17
 -1      1747 3.59965E-04-1.02790E-04-8.63974E-17
 -1      1748 3.75713E-04-4.16403E-05-6.31548E-17
 -1      1749 3.71636E-04-6.36709E-05-7.11914E-17
 -1      1750 4.99817E-04-9.70919E-05-1.09152E-16
 -1      1751 3.77812E-04 7.93143E-06-4.77591E-17
 -1      1752 3.78196E-04-1.76796E-05-5.57551E-17
 -1      1753 5.12502E-04-4.25352E-05-8.74274E-17
 -1      1754 3.66347E-04 6.28668E-05-3.20246E-17
 -1      1755 3.74253E-04 3.51278E-05-4.01155E-17
 -1      1756 5.13291E-04 2.06463E-05-6.54045E-17
 -1      1757 3.35574E-04 1.16194E-04-1.69542E-17
 -1      1758 3.53511E-04 9.06147E-05-2.46520E-17
 -1      1759 4.92940E-04 8.99594E-05-4.32326E-17
 -1      1760 2.84966E-04 1.54873E-04-2.11419E-18
 -1      1761 3.11833E-04 1.38649E-04-9.67650E-18
 -1      1762 4.42940E-04 1.56175E-04-2.15214E-17
 -1      1763 2.27485E-04 1.63918E-04 1.18991E-17
 -1      1764 2.54928E-04 1.63966E-04 4.71628E-18
 -1      1765 3.64852E-04 2.02334E-04-7.31836E-19
 -1      1766 1.91126E-04 1.39548E-04 2.61564E-17
 -1      1767 2.04177E-04 1.55210E-04 1.87160E-17
 -1      1768 2.83344E-04 2.10558E-04 1.92175E-17
 -1      1769 2.01915E-04 9.69166E-05 4.19586E-17
 -1      1770 1.89091E-04 1.18243E-04 3.36713E-17
 -1      1771 2.40640E-04 1.80166E-04 3.98783E-17
 -1      1772 2.74029E-04 6.63254E-05 6.08102E-17
 -1      1773 2.31069E-04 7.70428E-05 5.07813E-17
 -1      1774 2.75704E-04 1.34256E-04 6.31277E-17
 -1      1775 3.94683E-04 8.30268E-05 8.15456E-17
 -1      1776 3.30894E-04 6.68388E-05 7.05680E-17
 -1      1777 3.99463E-04 1.14684E-04 8.98533E-17
 -1      1778 5.36830E-04 1.47122E-04 1.04639E-16
 -1      1779 4.60329E-04 1.08427E-04 9.25096E-17
 -1      1780 5.64683E-04 1.49862E-04 1.18259E-16
 -1      1781 7.42134E-04 2.20873E-04 1.48712E-16
 -1      1782 3.20882E-04-2.20006E-04-1.14180E-16
 -1      1783 1.14025E-03 4.01872E-04 2.50464E-16
 -1      1784 9.38772E-04 3.02034E-04 1.97677E-16
 -1      1785 8.28315E-04 2.57947E-04 1.78053E-16
 -1      1786 4.35353E-04-2.74743E-04-1.67143E-16
 -1      1787 7.58643E-04-4.19626E-04-3.76665E-16
 -1      1788 8.91870E-04-4.57513E-04-4.92174E-16
 -1      1789 1.02135E-03-4.84067E-04-6.21587E-16
 -1      1790 1.14847E-03-4.99607E-04-7.64390E-16
 -1      1791 9.55576E-04-4.40088E-04-5.39309E-16
 -1      1792 1.27306E-03-5.04899E-04-9.19946E-16
 -1      1793 1.39599E-03-4.99795E-04-1.08808E-15
 -1      1794 1.21952E-03-4.72105E-04-8.15185E-16
 -1      1795 1.51741E-03-4.84698E-04-1.26759E-15
 -1      1796 1.63805E-03-4.59516E-04-1.45813E-15
 -1      1797 1.47605E-03-4.62834E-04-1.13966E-15
 -1      1798 1.75807E-03-4.24587E-04-1.65967E-15
 -1      1799 1.87818E-03-3.80027E-04-1.87170E-15
 -1      1800 1.72790E-03-4.12994E-04-1.50857E-15
 -1      1801 1.99851E-03-3.26342E-04-2.09370E-15
 -1      1802 2.11968E-03-2.63915E-04-2.32542E-15
 -1      1803 1.97818E-03-3.23844E-04-1.91902E-15
 -1      1804 2.24178E-03-1.93492E-04-2.56660E-15
 -1      1805 2.36527E-03-1.15683E-04-2.81754E-15
 -1      1806 2.22993E-03-1.98429E-04-2.36852E-15
 -1      1807 2.49020E-03-3.14220E-05-3.07798E-15
 -1      1808 2.61681E-03 5.85580E-05-3.34700E-15
 -1      1809 2.48557E-03-4.18866E-05-2.85568E-15
 -1      1810 2.74514E-03 1.53271E-04-3.62468E-15
 -1      1811 2.87518E-03 2.51983E-04-3.91084E-15
 -1      1812 2.74659E-03 1.39137E-04-3.37919E-15
 -1      1813 3.00697E-03 3.53795E-04-4.20494E-15
 -1      1814 3.14030E-03 4.58068E-04-4.50748E-15
 -1      1815 3.01343E-03 3.37556E-04-3.93628E-15
 -1      1816 3.27523E-03 5.64085E-04-4.81790E-15
 -1      1817 3.41146E-03 6.71354E-04-5.13546E-15
 -1      1818 3.28572E-03 5.46900E-04-4.52596E-15
 -1      1819 3.54901E-03 7.79375E-04-5.45966E-15
 -1      1820 3.68756E-03 8.87810E-04-5.79150E-15
 -1      1821 3.56257E-03 7.62000E-04-5.14626E-15
 -1      1822 3.82714E-03 9.96359E-04-6.13009E-15
 -1      1823 3.96743E-03 1.10482E-03-6.47457E-15
 -1      1824 3.84292E-03 9.79217E-04-5.79448E-15
 -1      1825 4.10848E-03 1.21304E-03-6.82528E-15
 -1      1826 4.25001E-03 1.32092E-03-7.18166E-15
 -1      1827 4.12578E-03 1.19631E-03-6.46988E-15
 -1      1828 4.39204E-03 1.42842E-03-7.54393E-15
 -1      1829 4.53438E-03 1.53550E-03-7.91138E-15
 -1      1830 4.41030E-03 1.41215E-03-7.16996E-15
 -1      1831 4.67704E-03 1.64219E-03-8.28429E-15
 -1      1832 4.81986E-03 1.74848E-03-8.66454E-15
 -1      1833 4.69584E-03 1.62633E-03-7.89256E-15
 -1      1834 4.96287E-03 1.85443E-03-9.05232E-15
 -1      1835 5.10596E-03 1.96004E-03-9.44572E-15
 -1      1836 4.98194E-03 1.83888E-03-8.64054E-15
 -1      1837 5.24913E-03 2.06538E-03-9.84633E-15
 -1      1838 5.39233E-03 2.17047E-03-1.02555E-14
 -1      1839 5.26831E-03 2.05008E-03-9.41665E-15
 -1      1840 5.53556E-03 2.27538E-03-1.06730E-14
 -1      1841 5.67878E-03 2.38010E-03-1.10991E-14
 -1      1842 5.55475E-03 2.26023E-03-1.02239E-14
 -1      1843 5.82199E-03 2.48471E-03-1.15333E-14
 -1      1844 5.96519E-03 2.58920E-03-1.19773E-14
 -1      1845 5.84115E-03 2.46966E-03-1.10644E-14
 -1      1846 6.10835E-03 2.69362E-03-1.24283E-14
 -1      1847 6.25149E-03 2.79798E-03-1.28892E-14
 -1      1848 6.12747E-03 2.67862E-03-1.19385E-14
 -1      1849 6.39460E-03 2.90230E-03-1.33597E-14
 -1      1850 6.53768E-03 3.00659E-03-1.38370E-14
 -1      1851 6.41367E-03 2.88731E-03-1.28474E-14
 -1      1852 6.68072E-03 3.11087E-03-1.43238E-14
 -1      1853 6.82374E-03 3.21514E-03-1.48204E-14
 -1      1854 6.69977E-03 3.09588E-03-1.37910E-14
 -1      1855 6.96674E-03 3.31942E-03-1.53264E-14
 -1      1856 7.10971E-03 3.42371E-03-1.58402E-14
 -1      1857 6.98576E-03 3.30442E-03-1.47701E-14
 -1      1858 7.25266E-03 3.52800E-03-1.63650E-14
 -1      1859 7.39559E-03 3.63232E-03-1.68976E-14
 -1      1860 7.27167E-03 3.51298E-03-1.57873E-14
 -1      1861 7.53851E-03 3.73664E-03-1.74362E-14
 -1      1862 7.68141E-03 3.84099E-03-1.79857E-14
 -1      1863 7.55752E-03 3.72160E-03-1.68380E-14
 -1      1864 7.82430E-03 3.94535E-03-1.85450E-14
 -1      1865 7.96718E-03 4.04973E-03-1.91097E-14
 -1      1866 7.84332E-03 3.93028E-03-1.79227E-14
 -1      1867 8.11005E-03 4.15412E-03-1.96802E-14
 -1      1868 8.25291E-03 4.25853E-03-2.02564E-14
 -1      1869 8.12907E-03 4.13903E-03-1.90383E-14
 -1      1870 8.39577E-03 4.36295E-03-2.08397E-14
 -1      1871 8.53863E-03 4.46739E-03-2.14267E-14
 -1      1872 8.41481E-03 4.34785E-03-2.01769E-14
 -1      1873 8.68148E-03 4.57184E-03-2.20178E-14
 -1      1874 8.82433E-03 4.67630E-03-2.26097E-14
 -1      1875 8.70052E-03 4.55672E-03-2.13358E-14
 -1      1876 8.96717E-03 4.78077E-03-2.32066E-14
 -1      1877 9.11002E-03 4.88524E-03-2.38074E-14
 -1      1878 8.98623E-03 4.76564E-03-2.25082E-14
 -1      1879 9.25286E-03 4.98973E-03-2.44092E-14
 -1      1880 9.39571E-03 5.09422E-03-2.50143E-14
 -1      1881 9.27192E-03 4.97460E-03-2.36939E-14
 -1      1882 9.53855E-03 5.19872E-03-2.56243E-14
 -1      1883 9.68140E-03 5.30323E-03-2.62364E-14
 -1      1884 9.55762E-03 5.18358E-03-2.48921E-14
 -1      1885 9.82424E-03 5.40773E-03-2.68535E-14
 -1      1886 9.96709E-03 5.51225E-03-2.74737E-14
 -1      1887 9.84332E-03 5.39259E-03-2.61083E-14
 -1      1888 1.01099E-02 5.61676E-03-2.80935E-14
 -1      1889 1.02528E-02 5.72128E-03-2.87199E-14
 -1      1890 1.01290E-02 5.60162E-03-2.73358E-14
 -1      1891 1.03956E-02 5.82580E-03-2.93472E-14
 -1      1892 1.05385E-02 5.93033E-03-2.99765E-14
 -1      1893 1.04147E-02 5.81065E-03-2.85741E-14
 -1      1894 1.06813E-02 6.03485E-03-3.06100E-14
 -1      1895 1.08242E-02 6.13938E-03-3.12476E-14
 -1      1896 1.07004E-02 6.01970E-03-2.98262E-14
 -1      1897 1.09670E-02 6.24390E-03-3.18938E-14
 -1      1898 1.11099E-02 6.34843E-03-3.25441E-14
 -1      1899 1.09861E-02 6.22875E-03-3.10933E-14
 -1      1900 1.12527E-02 6.45296E-03-3.32010E-14
 -1      1901 1.13956E-02 6.55749E-03-3.38657E-14
 -1      1902 1.12718E-02 6.43781E-03-3.23860E-14
 -1      1903 1.15384E-02 6.66202E-03-3.45336E-14
 -1      1904 1.16813E-02 6.76655E-03-3.52060E-14
 -1      1905 1.15575E-02 6.64687E-03-3.36998E-14
 -1      1906 1.18241E-02 6.87108E-03-3.58846E-14
 -1      1907 1.19670E-02 6.97561E-03-3.65668E-14
 -1      1908 1.18432E-02 6.85593E-03-3.50342E-14
 -1      1909 1.21098E-02 7.08014E-03-3.72524E-14
 -1      1910 1.22527E-02 7.18467E-03-3.79391E-14
 -1      1911 1.21289E-02 7.06499E-03-3.63861E-14
 -1      1912 1.23956E-02 7.28920E-03-3.86264E-14
 -1      1913 1.25384E-02 7.39373E-03-3.93171E-14
 -1      1914 1.24147E-02 7.27405E-03-3.77492E-14
 -1      1915 1.26813E-02 7.49826E-03-4.00117E-14
 -1      1916 1.28241E-02 7.60279E-03-4.07066E-14
 -1      1917 1.27004E-02 7.48311E-03-3.91233E-14
 -1      1918 1.29670E-02 7.70732E-03-4.14046E-14
 -1      1919 1.31098E-02 7.81185E-03-4.21042E-14
 -1      1920 1.29861E-02 7.69217E-03-4.05095E-14
 -1      1921 1.32338E-02 7.90383E-03-4.27570E-14
 -1      1922 1.33766E-02 8.00836E-03-4.34626E-14
 -1      1923 1.35007E-02 8.07265E-03-4.31637E-14
 -1      1924 1.32528E-02 7.88868E-03-4.18543E-14
 -1      1925 1.56526E-03 6.94426E-04 3.65417E-16
 -1      1926 1.34918E-03 5.29041E-04 3.06572E-16
 -1      1927 1.19739E-03 4.69497E-04 2.77840E-16
 -1      1928 3.35636E-03 2.56303E-03 7.94395E-16
 -1      1929 3.15411E-03 2.48320E-03 7.53439E-16
 -1      1930 3.74798E-03 2.47202E-03 8.38414E-16
 -1      1931 3.52368E-03 2.55370E-03 8.06917E-16
 -1      1932 4.79850E-03 1.69426E-03 8.87474E-16
 -1      1933 4.54738E-03 1.85751E-03 8.90835E-16
 -1      1934 5.25293E-03 1.55527E-03 8.44865E-16
 -1      1935 5.03714E-03 1.59917E-03 8.72308E-16
 -1      1936 5.02500E-03 1.56620E-03 7.45335E-16
 -1      1937 5.64995E-03 1.59818E-03 7.60771E-16
 -1      1938 5.45777E-03 1.55977E-03 8.07107E-16
 -1      1939 5.41825E-03 1.50160E-03 6.76298E-16
 -1      1940 6.01209E-03 1.74327E-03 6.38053E-16
 -1      1941 5.83419E-03 1.66198E-03 7.04149E-16
 -1      1942 5.75937E-03 1.58840E-03 5.66807E-16
 -1      1943 6.35226E-03 1.93610E-03 4.78973E-16
 -1      1944 6.18404E-03 1.83577E-03 5.63731E-16
 -1      1945 6.07919E-03 1.75318E-03 4.20847E-16
 -1      1946 6.67676E-03 2.14840E-03 2.82231E-16
 -1      1947 6.51582E-03 2.04081E-03 3.84932E-16
 -1      1948 6.39007E-03 1.95365E-03 2.37210E-16
 -1      1949 6.98961E-03 2.36697E-03 4.25549E-17
 -1      1950 6.83416E-03 2.25736E-03 1.67794E-16
 -1      1951 6.69540E-03 2.16843E-03 1.58971E-17
 -1      1952 7.29395E-03 2.58628E-03-2.36017E-16
 -1      1953 7.14251E-03 2.47673E-03-9.15609E-17
 -1      1954 6.99615E-03 2.38747E-03-2.45829E-16
 -1      1955 7.59226E-03 2.80436E-03-5.52997E-16
 -1      1956 7.44363E-03 2.69555E-03-3.90204E-16
 -1      1957 7.29305E-03 2.60657E-03-5.47265E-16
 -1      1958 7.88641E-03 3.02072E-03-9.11855E-16
 -1      1959 7.73971E-03 2.91278E-03-7.27432E-16
 -1      1960 7.58686E-03 2.82426E-03-8.87501E-16
 -1      1961 8.17772E-03 3.23547E-03-1.30873E-15
 -1      1962 8.03232E-03 3.12830E-03-1.10496E-15
 -1      1963 7.87831E-03 3.04025E-03-1.26636E-15
 -1      1964 8.46713E-03 3.44888E-03-1.73363E-15
 -1      1965 8.32260E-03 3.34234E-03-1.51786E-15
 -1      1966 8.16803E-03 3.25469E-03-1.68065E-15
 -1      1967 8.75527E-03 3.66124E-03-2.18667E-15
 -1      1968 8.61132E-03 3.55519E-03-1.95698E-15
 -1      1969 8.45650E-03 3.46786E-03-2.12514E-15
 -1      1970 9.04256E-03 3.87279E-03-2.66557E-15
 -1      1971 8.89899E-03 3.76711E-03-2.42222E-15
 -1      1972 8.74410E-03 3.68003E-03-2.59605E-15
 -1      1973 9.32929E-03 4.08373E-03-3.17923E-15
 -1      1974 9.18598E-03 3.97833E-03-2.91736E-15
 -1      1975 9.03108E-03 3.89143E-03-3.09738E-15
 -1      1976 9.61564E-03 4.29421E-03-3.73079E-15
 -1      1977 9.47250E-03 4.18902E-03-3.45047E-15
 -1      1978 9.31764E-03 4.10227E-03-3.63246E-15
 -1      1979 9.90174E-03 4.50434E-03-4.32170E-15
 -1      1980 9.75872E-03 4.39931E-03-4.02083E-15
 -1      1981 9.60390E-03 4.31267E-03-4.20608E-15
 -1      1982 1.01877E-02 4.71421E-03-4.95100E-15
 -1      1983 1.00447E-02 4.60930E-03-4.63126E-15
 -1      1984 9.88996E-03 4.52274E-03-4.81731E-15
 -1      1985 1.04735E-02 4.92388E-03-5.61422E-15
 -1      1986 1.03306E-02 4.81907E-03-5.27917E-15
 -1      1987 1.01759E-02 4.73256E-03-5.46575E-15
 -1      1988 1.07593E-02 5.13340E-03-6.31553E-15
 -1      1989 1.06164E-02 5.02866E-03-5.96035E-15
 -1      1990 1.04617E-02 4.94220E-03-6.15054E-15
 -1      1991 1.10450E-02 5.34280E-03-7.04546E-15
 -1      1992 1.09022E-02 5.23811E-03-6.67787E-15
 -1      1993 1.07475E-02 5.15168E-03-6.86736E-15
 -1      1994 1.13307E-02 5.55211E-03-7.80150E-15
 -1      1995 1.11879E-02 5.44747E-03-7.42039E-15
 -1      1996 1.10332E-02 5.36106E-03-7.61504E-15
 -1      1997 1.16164E-02 5.76136E-03-8.58059E-15
 -1      1998 1.14736E-02 5.65674E-03-8.18632E-15
 -1      1999 1.13189E-02 5.57036E-03-8.38499E-15
 -1      2000 1.19021E-02 5.97055E-03-9.37625E-15
 -1      2001 1.17592E-02 5.86596E-03-8.97797E-15
 -1      2002 1.16046E-02 5.77959E-03-9.17880E-15
 -1      2003 1.21878E-02 6.17970E-03-1.01846E-14
 -1      2004 1.20449E-02 6.07513E-03-9.77961E-15
 -1      2005 1.18903E-02 5.98877E-03-9.98875E-15
 -1      2006 1.24734E-02 6.38883E-03-1.10189E-14
 -1      2007 1.23306E-02 6.28427E-03-1.05975E-14
 -1      2008 1.21760E-02 6.19791E-03-1.08151E-14
 -1      2009 1.27591E-02 6.59793E-03-1.18851E-14
 -1      2010 1.26163E-02 6.49338E-03-1.14485E-14
 -1      2011 1.24617E-02 6.40703E-03-1.16662E-14
 -1      2012 1.30448E-02 6.80701E-03-1.27784E-14
 -1      2013 1.29020E-02 6.70247E-03-1.23293E-14
 -1      2014 1.27474E-02 6.61613E-03-1.25509E-14
 -1      2015 1.33305E-02 7.01609E-03-1.36917E-14
 -1      2016 1.31876E-02 6.91155E-03-1.32307E-14
 -1      2017 1.30331E-02 6.82521E-03-1.34555E-14
 -1      2018 1.36162E-02 7.22515E-03-1.46396E-14
 -1      2019 1.34733E-02 7.12062E-03-1.41612E-14
 -1      2020 1.33188E-02 7.03428E-03-1.43856E-14
 -1      2021 1.39019E-02 7.43421E-03-1.56129E-14
 -1      2022 1.37590E-02 7.32968E-03-1.51254E-14
 -1      2023 1.36045E-02 7.24334E-03-1.53502E-14
 -1      2024 1.41876E-02 7.64327E-03-1.66035E-14
 -1      2025 1.40447E-02 7.53874E-03-1.61062E-14
 -1      2026 1.38902E-02 7.45240E-03-1.63370E-14
 -1      2027 1.44733E-02 7.85233E-03-1.76121E-14
 -1      2028 1.43304E-02 7.74780E-03-1.71054E-14
 -1      2029 1.41759E-02 7.66146E-03-1.73403E-14
 -1      2030 1.47590E-02 8.06138E-03-1.86327E-14
 -1      2031 1.46161E-02 7.95685E-03-1.81196E-14
 -1      2032 1.44616E-02 7.87051E-03-1.83575E-14
 -1      2033 1.50447E-02 8.27044E-03-1.96768E-14
 -1      2034 1.49019E-02 8.16591E-03-1.91537E-14
 -1      2035 1.47473E-02 8.07957E-03-1.93916E-14
 -1      2036 1.53304E-02 8.47949E-03-2.07390E-14
 -1      2037 1.51876E-02 8.37496E-03-2.02064E-14
 -1      2038 1.50330E-02 8.28862E-03-2.04483E-14
 -1      2039 1.56161E-02 8.68855E-03-2.18149E-14
 -1      2040 1.54733E-02 8.58402E-03-2.12721E-14
 -1      2041 1.53187E-02 8.49768E-03-2.15176E-14
 -1      2042 1.59018E-02 8.89760E-03-2.29135E-14
 -1      2043 1.57590E-02 8.79307E-03-2.23636E-14
 -1      2044 1.56044E-02 8.70673E-03-2.26028E-14
 -1      2045 1.61876E-02 9.10666E-03-2.40290E-14
 -1      2046 1.60447E-02 9.00213E-03-2.34686E-14
 -1      2047 1.58902E-02 8.91579E-03-2.37084E-14
 -1      2048 1.64567E-02 9.30263E-03-2.50527E-14
 -1      2049 1.63139E-02 9.19810E-03-2.44926E-14
 -1      2050 1.61593E-02 9.11176E-03-2.47328E-14
 -1      2051 1.64119E-02 9.29464E-03-2.56651E-14
 -1      2052 1.58492E-02 9.06378E-03-2.92128E-14
 -1      2053 1.59519E-02 9.10592E-03-2.85634E-14
 -1      2054 1.60547E-02 9.14807E-03-2.79103E-14
 -1      2055 1.61575E-02 9.19021E-03-2.72661E-14
 -1      2056 1.58796E-02 9.03647E-03-2.77391E-14
 -1      2057 1.63091E-02 9.25250E-03-2.63135E-14
 -1      2058 1.56471E-02 8.98092E-03-3.04860E-14
 -1      2059 1.57481E-02 9.02235E-03-2.98463E-14
 -1      2060 1.56758E-02 8.95290E-03-2.90176E-14
 -1      2061 1.54415E-02 8.89663E-03-3.17847E-14
 -1      2062 1.55443E-02 8.93878E-03-3.11326E-14
 -1      2063 1.54720E-02 8.86933E-03-3.02902E-14
 -1      2064 1.52359E-02 8.81234E-03-3.30862E-14
 -1      2065 1.53387E-02 8.85449E-03-3.24381E-14
 -1      2066 1.52664E-02 8.78504E-03-3.15784E-14
 -1      2067 1.50303E-02 8.72805E-03-3.44056E-14
 -1      2068 1.51331E-02 8.77020E-03-3.37433E-14
 -1      2069 1.50608E-02 8.70075E-03-3.28768E-14
 -1      2070 1.48248E-02 8.64377E-03-3.57278E-14
 -1      2071 1.49276E-02 8.68591E-03-3.50653E-14
 -1      2072 1.48552E-02 8.61646E-03-3.41844E-14
 -1      2073 1.46192E-02 8.55948E-03-3.70538E-14
 -1      2074 1.47220E-02 8.60162E-03-3.63882E-14
 -1      2075 1.46497E-02 8.53217E-03-3.54959E-14
 -1      2076 1.44171E-02 8.47662E-03-3.83620E-14
 -1      2077 1.45182E-02 8.51805E-03-3.77072E-14
 -1      2078 1.44458E-02 8.44860E-03-3.68014E-14
 -1      2079 1.42115E-02 8.39233E-03-3.96836E-14
 -1      2080 1.43143E-02 8.43447E-03-3.90257E-14
 -1      2081 1.42420E-02 8.36502E-03-3.81075E-14
 -1      2082 1.40060E-02 8.30804E-03-4.09931E-14
 -1      2083 1.41088E-02 8.35018E-03-4.03402E-14
 -1      2084 1.40364E-02 8.28073E-03-3.94172E-14
 -1      2085 1.38004E-02 8.22375E-03-4.22857E-14
 -1      2086 1.39032E-02 8.26590E-03-4.16413E-14
 -1      2087 1.38309E-02 8.19645E-03-4.07130E-14
 -1      2088 5.41216E-03 1.38709E-03 3.59399E-16
 -1      2089 5.51700E-03 1.34619E-03 2.64426E-16
 -1      2090 5.58482E-03 1.27702E-03-5.56365E-17
 -1      2091 5.52515E-03 1.26210E-03-1.38500E-16
 -1      2092 5.58830E-03 1.31209E-03 1.52330E-16
 -1      2093 5.61007E-03 1.29450E-03 5.89806E-17
 -1      2094 5.08892E-03 1.54691E-03 5.41932E-16
 -1      2095 5.25474E-03 1.46234E-03 4.62466E-16
 -1      2096 4.66783E-03 1.78304E-03 7.19382E-16
 -1      2097 4.87544E-03 1.65000E-03 6.50603E-16
 -1      2098 3.53412E-04-1.20464E-04-9.37293E-17
 -1      2099 3.47301E-04-1.37136E-04-1.01007E-16
 -1      2100 4.65265E-04-1.87690E-04-1.50379E-16
 -1      2101 4.82308E-04-1.44382E-04-1.30470E-16
 -1      2102 3.92400E-03 2.34972E-03 8.35378E-16
 -1      2103 2.96159E-03 2.33719E-03 7.04027E-16
 -1      2104 2.42863E-03 1.86628E-03 5.79696E-16
 -1      2105 2.65179E-03 2.08192E-03 6.26560E-16
 -1      2106 1.94433E-03 1.38148E-03 4.80613E-16
 -1      2107 2.18498E-03 1.62605E-03 5.29226E-16
 -1      2108 2.37838E-03 1.71280E-03 5.72106E-16
 -1      2109 1.32782E-03 9.33559E-04 3.64949E-16
 -1      2110 1.59654E-03 1.10237E-03 4.12959E-16
 -1      2111 8.64334E-04 6.89835E-04 2.78260E-16
 -1      2112 1.06883E-03 7.92233E-04 3.17536E-16
 -1      2113 5.50405E-04 5.39709E-04 2.04039E-16
 -1      2114 6.84393E-04 5.94317E-04 2.37854E-16
 -1      2115 3.84908E-04 4.90063E-04 1.40252E-16
 -1      2116 4.35550E-04 5.03846E-04 1.67785E-16
 -1      2117 4.01689E-04 4.69417E-04 8.67455E-17
 -1      2118 3.73212E-04 4.76367E-04 1.12669E-16
 -1      2119 5.80421E-04 4.41903E-04 3.11403E-17
 -1      2120 4.83146E-04 4.55766E-04 5.52274E-17
 -1      2121 8.33906E-04 3.82726E-04-1.94004E-17
 -1      2122 6.94791E-04 4.16898E-04 7.02360E-18
 -1      2123 6.31919E-04 4.30810E-04 1.75302E-17
 -1      2124 1.20136E-03 2.74137E-04-8.77662E-17
 -1      2125 1.02115E-03 3.31865E-04-5.41966E-17
 -1      2126 1.62330E-03 1.16949E-04-1.73689E-16
 -1      2127 1.44189E-03 1.87113E-04-1.35336E-16
 -1      2128 1.97639E-03-7.76147E-07-2.59287E-16
 -1      2129 1.81284E-03 5.27335E-05-2.18711E-16
 -1      2130 2.30381E-03-6.50970E-05-3.54344E-16
 -1      2131 2.14569E-03-3.96290E-05-3.05230E-16
 -1      2132 2.04665E-03-2.80804E-05-3.01788E-16
 -1      2133 2.68654E-03-2.80118E-05-4.54687E-16
 -1      2134 2.52692E-03-6.04893E-05-4.20372E-16
 -1      2135 3.00041E-03 9.18598E-05-5.15538E-16
 -1      2136 2.84288E-03 2.15770E-05-4.84665E-16
 -1      2137 2.72618E-03-1.13368E-05-5.24130E-16
 -1      2138 3.39638E-03 3.02478E-04-5.63433E-16
 -1      2139 3.22003E-03 2.00417E-04-5.44812E-16
 -1      2140 3.80970E-03 5.43568E-04-5.79479E-16
 -1      2141 3.61379E-03 4.27656E-04-5.76633E-16
 -1      2142 4.25819E-03 7.82281E-04-5.50341E-16
 -1      2143 4.04859E-03 6.71303E-04-5.66997E-16
 -1      2144 4.70766E-03 9.89617E-04-4.81894E-16
 -1      2145 4.49881E-03 8.98290E-04-5.19733E-16
 -1      2146 5.11351E-03 1.14269E-03-3.71131E-16
 -1      2147 4.93124E-03 1.08182E-03-4.30354E-16
 -1      2148 5.43559E-03 1.23426E-03-2.11494E-16
 -1      2149 5.31175E-03 1.20348E-03-2.84352E-16
 -1      2150 5.48868E-03 1.28595E-03-2.25422E-16
 -1      2151 5.75548E-04-3.42020E-04-2.46222E-16
 -1      2152 4.02389E-03 2.27919E-03 9.17343E-16
 -1      2153 4.15493E-03 2.18174E-03 7.94259E-16
 -1      2154 6.38423E-04-3.40329E-04-2.84142E-16
 -1      2155 4.96327E-04 4.72954E-04 1.78376E-16
 -1      2156 1.81104E-03 1.19057E-03 4.49104E-16
 -1      2157 1.92095E-03 1.04941E-03 4.60569E-16
 -1      2158 1.69832E-03 8.13174E-04 4.01453E-16
 -1      2159 2.44544E-03 1.70256E-03 5.91785E-16
 -1      2160 2.18499E-03 1.35815E-03 5.26936E-16
 -1      2161 2.89366E-03 2.22636E-03 7.05572E-16
 -1      2162 2.65898E-03 1.93539E-03 6.47757E-16
 -1      2163 4.26908E-03 2.07289E-03 9.39028E-16
 -1      2164 1.61340E-02 9.14091E-03-2.61438E-14
 -1      2165 5.60766E-03 1.30228E-03-2.91583E-17
 -1      2166 5.56196E-03 1.33139E-03 2.05412E-16
 -1      2167 1.36763E-02 8.15947E-03-4.25911E-14
 -1      2168 5.33868E-03 1.40973E-03 4.32238E-16
 -1      2169 1.51564E-03 7.33042E-04 3.65064E-16
 -1      2170 4.98385E-03 1.57512E-03 6.51307E-16
 -1      2171 5.21607E-03 1.22114E-03-3.90110E-16
 -1      2172 4.79848E-03 1.08459E-03-5.30005E-16
 -1      2173 4.34429E-03 8.83207E-04-6.10690E-16
 -1      2174 3.88368E-03 6.38978E-04-6.49640E-16
 -1      2175 3.05732E-03 1.43093E-04-5.91486E-16
 -1      2176 2.39702E-03-7.82764E-05-4.17879E-16
 -1      2177 2.28245E-03-8.02471E-05-4.13108E-16
 -1      2178 2.46453E-03-7.57950E-05-4.86400E-16
 -1      2179 1.72763E-03 8.02183E-05-2.07923E-16
 -1      2180 9.17893E-04 3.67128E-04-3.61107E-17
 -1      2181 4.34489E-04 4.49389E-04 6.69681E-17
 -1      2182 3.75092E-04 4.51501E-04 1.20154E-16
 -1      2183 7.95366E-04 5.74317E-04 2.50298E-16
 -1      2184 1.22722E-03 7.90598E-04 3.35608E-16
 -1      2185 1.32201E-03 2.36327E-04-1.13977E-16
 -1      2186 1.20463E-03 2.74059E-04-9.43527E-17
 -1      2187 1.42396E-03 1.93232E-04-1.40757E-16
 -1      2188 3.45684E-03 3.82213E-04-6.42281E-16
 -1      2189 4.36510E-03 2.01198E-03 7.71708E-16
 -1      2190 4.52131E-03 1.87893E-03 8.25918E-16
 -1      2191 1.88667E-03 1.14187E-03 4.58848E-16
 -1      2192 1.11100E-03 4.87090E-04 2.73382E-16
 -1      2193 9.47799E-04 3.62730E-04 2.26341E-16
 -1      2194 6.54414E-04-4.00011E-05-1.16118E-16
 -1      2195 6.48375E-04-7.37962E-05-1.31107E-16
 -1      2196 6.39116E-04-1.05102E-04-1.45907E-16
 -1      2197 6.28418E-04-1.34287E-04-1.60557E-16
 -1      2198 7.83591E-04-1.08796E-04-1.86429E-16
 -1      2199 6.20755E-04 1.18139E-04-5.59719E-17
 -1      2200 6.41504E-04 7.64728E-05-7.12321E-17
 -1      2201 5.47084E-04 1.97289E-04-2.62241E-17
 -1      2202 5.89361E-04 1.59750E-04-4.11319E-17
 -1      2203 7.47554E-04 1.47647E-04-6.89282E-17
 -1      2204 4.35889E-04 2.52416E-04 1.93801E-18
 -1      2205 4.93912E-04 2.30597E-04-1.21295E-17
 -1      2206 6.43088E-04 2.40373E-04-3.02899E-17
 -1      2207 3.28912E-04 2.60374E-04 2.90634E-17
 -1      2208 3.77459E-04 2.62760E-04 1.53076E-17
 -1      2209 4.94153E-04 3.01824E-04 5.97666E-18
 -1      2210 2.85052E-04 2.24904E-04 5.80116E-17
 -1      2211 2.93652E-04 2.45952E-04 4.32732E-17
 -1      2212 3.60083E-04 3.08474E-04 4.20399E-17
 -1      2213 3.60108E-04 1.78825E-04 9.11679E-17
 -1      2214 3.06469E-04 1.98140E-04 7.41391E-17
 -1      2215 3.29574E-04 2.69799E-04 8.12000E-17
 -1      2216 5.56779E-03 1.46981E-03 4.88298E-16
 -1      2217 5.41755E-03 1.44624E-03 5.42738E-16
 -1      2218 5.85151E-03 1.59286E-03 3.52935E-16
 -1      2219 5.71022E-03 1.52193E-03 4.24438E-16
 -1      2220 5.68261E-03 1.46284E-03 2.91203E-16
 -1      2221 8.90284E-04-3.94239E-04-4.62439E-16
 -1      2222 1.02814E-03-4.20392E-04-5.83030E-16
 -1      2223 5.80327E-04-2.86363E-04-2.37806E-16
 -1      2224 7.64606E-04-3.55376E-04-3.61514E-16
 -1      2225 8.40666E-04-3.44508E-04-3.97577E-16
 -1      2226 5.85386E-04-2.59159E-04-2.26463E-16
 -1      2227 1.16410E-03-4.36453E-04-7.16305E-16
 -1      2228 1.29861E-03-4.42258E-04-8.61643E-16
 -1      2229 1.10757E-03-3.98372E-04-6.23809E-16
 -1      2230 1.43137E-03-4.38025E-04-1.01859E-15
 -1      2231 1.56298E-03-4.23463E-04-1.18637E-15
 -1      2232 1.38420E-03-4.10371E-04-9.04048E-16
 -1      2233 1.69342E-03-3.98798E-04-1.36432E-15
 -1      2234 1.82337E-03-3.63920E-04-1.55313E-15
 -1      2235 1.65560E-03-3.81960E-04-1.22770E-15
 -1      2236 1.95287E-03-3.19213E-04-1.75164E-15
 -1      2237 2.08262E-03-2.64908E-04-1.96009E-15
 -1      2238 1.92358E-03-3.12416E-04-1.59188E-15
 -1      2239 2.21268E-03-2.01650E-04-2.17769E-15
 -1      2240 2.34361E-03-1.30027E-04-2.40469E-15
 -1      2241 2.19098E-03-2.03198E-04-1.99447E-15
 -1      2242 2.47543E-03-5.09219E-05-2.64152E-15
 -1      2243 2.60848E-03 3.48417E-05-2.88712E-15
 -1      2244 2.46057E-03-5.86353E-05-2.43505E-15
 -1      2245 2.74275E-03 1.26263E-04-3.14122E-15
 -1      2246 2.87831E-03 2.22458E-04-3.40416E-15
 -1      2247 2.73419E-03 1.14531E-04-2.91139E-15
 -1      2248 3.01515E-03 3.22465E-04-3.67532E-15
 -1      2249 3.15311E-03 4.25498E-04-3.95460E-15
 -1      2250 3.01242E-03 3.08451E-04-3.42232E-15
 -1      2251 3.29219E-03 5.30751E-04-4.24227E-15
 -1      2252 3.43212E-03 6.37624E-04-4.53796E-15
 -1      2253 3.29476E-03 5.15639E-04-3.96657E-15
 -1      2254 3.57294E-03 7.45521E-04-4.84035E-15
 -1      2255 3.71432E-03 8.54043E-04-5.14997E-15
 -1      2256 3.58011E-03 7.30006E-04-4.54212E-15
 -1      2257 3.85633E-03 9.62805E-04-5.46638E-15
 -1      2258 3.99866E-03 1.07158E-03-5.79033E-15
 -1      2259 3.86727E-03 9.47236E-04-5.14646E-15
 -1      2260 4.14141E-03 1.18015E-03-6.12145E-15
 -1      2261 4.28431E-03 1.28841E-03-6.45874E-15
 -1      2262 4.15525E-03 1.16467E-03-5.77953E-15
 -1      2263 4.42745E-03 1.39628E-03-6.80214E-15
 -1      2264 4.57065E-03 1.50372E-03-7.15199E-15
 -1      2265 4.44340E-03 1.38093E-03-6.44099E-15
 -1      2266 4.71397E-03 1.61073E-03-7.50651E-15
 -1      2267 4.85729E-03 1.71731E-03-7.86713E-15
 -1      2268 4.73134E-03 1.59550E-03-7.12658E-15
 -1      2269 5.00065E-03 1.82351E-03-8.23542E-15
 -1      2270 5.14399E-03 1.92934E-03-8.61126E-15
 -1      2271 5.01892E-03 1.80837E-03-7.83790E-15
 -1      2272 5.28732E-03 2.03486E-03-8.99377E-15
 -1      2273 5.43062E-03 2.14011E-03-9.38286E-15
 -1      2274 5.30612E-03 2.01980E-03-8.57573E-15
 -1      2275 5.57390E-03 2.24513E-03-9.78057E-15
 -1      2276 5.71713E-03 2.34995E-03-1.01864E-14
 -1      2277 5.59296E-03 2.23011E-03-9.34420E-15
 -1      2278 5.86034E-03 2.45462E-03-1.06005E-14
 -1      2279 6.00350E-03 2.55916E-03-1.10239E-14
 -1      2280 5.87952E-03 2.43963E-03-1.01435E-14
 -1      2281 6.14664E-03 2.66362E-03-1.14556E-14
 -1      2282 6.28974E-03 2.76799E-03-1.18948E-14
 -1      2283 6.16585E-03 2.64863E-03-1.09777E-14
 -1      2284 6.43281E-03 2.87232E-03-1.23431E-14
 -1      2285 6.57585E-03 2.97661E-03-1.27999E-14
 -1      2286 6.45200E-03 2.85733E-03-1.18465E-14
 -1      2287 6.71887E-03 3.08088E-03-1.32659E-14
 -1      2288 6.86186E-03 3.18514E-03-1.37391E-14
 -1      2289 6.73803E-03 3.06588E-03-1.27469E-14
 -1      2290 7.00483E-03 3.28941E-03-1.42225E-14
 -1      2291 7.14779E-03 3.39367E-03-1.47159E-14
 -1      2292 7.02396E-03 3.27439E-03-1.36823E-14
 -1      2293 7.29073E-03 3.49795E-03-1.52176E-14
 -1      2294 7.43365E-03 3.60224E-03-1.57286E-14
 -1      2295 7.30982E-03 3.48291E-03-1.46550E-14
 -1      2296 7.57656E-03 3.70655E-03-1.62472E-14
 -1      2297 7.71946E-03 3.81087E-03-1.67732E-14
 -1      2298 7.59563E-03 3.69149E-03-1.56619E-14
 -1      2299 7.86235E-03 3.91521E-03-1.73088E-14
 -1      2300 8.00524E-03 4.01957E-03-1.78540E-14
 -1      2301 7.88141E-03 3.90014E-03-1.67037E-14
 -1      2302 8.14811E-03 4.12395E-03-1.84047E-14
 -1      2303 8.29098E-03 4.22834E-03-1.89599E-14
 -1      2304 8.16716E-03 4.10886E-03-1.77768E-14
 -1      2305 8.43385E-03 4.33275E-03-1.95220E-14
 -1      2306 8.57671E-03 4.43717E-03-2.00902E-14
 -1      2307 8.45290E-03 4.31764E-03-1.88757E-14
 -1      2308 8.71957E-03 4.54161E-03-2.06612E-14
 -1      2309 8.86243E-03 4.64606E-03-2.12370E-14
 -1      2310 8.73862E-03 4.52649E-03-1.99951E-14
 -1      2311 9.00528E-03 4.75051E-03-2.18166E-14
 -1      2312 9.14813E-03 4.85499E-03-2.23987E-14
 -1      2313 9.02434E-03 4.73539E-03-2.11310E-14
 -1      2314 9.29098E-03 4.95946E-03-2.29855E-14
 -1      2315 9.43384E-03 5.06395E-03-2.35755E-14
 -1      2316 9.31004E-03 4.94433E-03-2.22843E-14
 -1      2317 9.57669E-03 5.16844E-03-2.41670E-14
 -1      2318 9.71954E-03 5.27294E-03-2.47645E-14
 -1      2319 9.59575E-03 5.15331E-03-2.34508E-14
 -1      2320 9.86239E-03 5.37745E-03-2.53683E-14
 -1      2321 1.00052E-02 5.48196E-03-2.59741E-14
 -1      2322 9.88146E-03 5.36231E-03-2.46344E-14
 -1      2323 1.01481E-02 5.58647E-03-2.65824E-14
 -1      2324 1.02909E-02 5.69099E-03-2.71932E-14
 -1      2325 1.01672E-02 5.57133E-03-2.58341E-14
 -1      2326 1.04338E-02 5.79551E-03-2.78065E-14
 -1      2327 1.05766E-02 5.90003E-03-2.84249E-14
 -1      2328 1.04529E-02 5.78036E-03-2.70475E-14
 -1      2329 1.07195E-02 6.00455E-03-2.90474E-14
 -1      2330 1.08623E-02 6.10908E-03-2.96713E-14
 -1      2331 1.07386E-02 5.98940E-03-2.82720E-14
 -1      2332 1.10052E-02 6.21360E-03-3.03019E-14
 -1      2333 1.11481E-02 6.31813E-03-3.09371E-14
 -1      2334 1.10243E-02 6.19845E-03-2.95138E-14
 -1      2335 1.12909E-02 6.42266E-03-3.15760E-14
 -1      2336 1.14338E-02 6.52719E-03-3.22224E-14
 -1      2337 1.13100E-02 6.40751E-03-3.07739E-14
 -1      2338 1.15766E-02 6.63172E-03-3.28722E-14
 -1      2339 1.17195E-02 6.73625E-03-3.35282E-14
 -1      2340 1.15957E-02 6.61657E-03-3.20527E-14
 -1      2341 1.18623E-02 6.84078E-03-3.41904E-14
 -1      2342 1.20052E-02 6.94531E-03-3.48562E-14
 -1      2343 1.18814E-02 6.82563E-03-3.33523E-14
 -1      2344 1.21480E-02 7.04984E-03-3.55255E-14
 -1      2345 1.22909E-02 7.15437E-03-3.61994E-14
 -1      2346 1.21671E-02 7.03469E-03-3.46712E-14
 -1      2347 1.24337E-02 7.25890E-03-3.68778E-14
 -1      2348 1.25766E-02 7.36343E-03-3.75552E-14
 -1      2349 1.24528E-02 7.24375E-03-3.60070E-14
 -1      2350 1.27195E-02 7.46796E-03-3.82381E-14
 -1      2351 1.28623E-02 7.57249E-03-3.89242E-14
 -1      2352 1.27385E-02 7.45281E-03-3.73574E-14
 -1      2353 1.30052E-02 7.67702E-03-3.96139E-14
 -1      2354 1.31480E-02 7.78155E-03-4.03062E-14
 -1      2355 1.30243E-02 7.66187E-03-3.87203E-14
 -1      2356 1.57477E-03 8.95076E-04 3.92359E-16
 -1      2357 5.17845E-03 1.48459E-03 6.23199E-16
 -1      2358 6.13251E-03 1.77099E-03 1.83122E-16
 -1      2359 5.99092E-03 1.67701E-03 2.73449E-16
 -1      2360 5.91943E-03 1.60957E-03 1.31432E-16
 -1      2361 6.41762E-03 1.97498E-03-2.54110E-17
 -1      2362 6.27399E-03 1.87064E-03 8.39444E-17
 -1      2363 6.17049E-03 1.79481E-03-6.29921E-17
 -1      2364 6.70611E-03 2.18971E-03-2.72040E-16
 -1      2365 6.56120E-03 2.08143E-03-1.44158E-16
 -1      2366 6.43600E-03 1.99948E-03-2.96475E-16
 -1      2367 6.99606E-03 2.40771E-03-5.57578E-16
 -1      2368 6.85077E-03 2.29850E-03-4.10167E-16
 -1      2369 6.71158E-03 2.21281E-03-5.66916E-16
 -1      2370 7.28615E-03 2.62570E-03-8.81741E-16
 -1      2371 7.14100E-03 2.51679E-03-7.14638E-16
 -1      2372 6.99310E-03 2.42905E-03-8.75615E-16
 -1      2373 7.57572E-03 2.84248E-03-1.24374E-15
 -1      2374 7.43093E-03 2.73427E-03-1.05699E-15
 -1      2375 7.27774E-03 2.64551E-03-1.22287E-15
 -1      2376 7.86457E-03 3.05779E-03-1.64438E-15
 -1      2377 7.72019E-03 2.95032E-03-1.44057E-15
 -1      2378 7.56384E-03 2.86113E-03-1.60635E-15
 -1      2379 8.15270E-03 3.27174E-03-2.07728E-15
 -1      2380 8.00869E-03 3.16493E-03-1.85698E-15
 -1      2381 7.85049E-03 3.07560E-03-2.02758E-15
 -1      2382 8.44021E-03 3.48456E-03-2.54259E-15
 -1      2383 8.29651E-03 3.37828E-03-2.30650E-15
 -1      2384 8.13724E-03 3.28896E-03-2.48136E-15
 -1      2385 8.72723E-03 3.69648E-03-3.03463E-15
 -1      2386 8.58376E-03 3.59063E-03-2.78586E-15
 -1      2387 8.42390E-03 3.50137E-03-2.96634E-15
 -1      2388 9.01387E-03 3.90772E-03-3.55755E-15
 -1      2389 8.87058E-03 3.80218E-03-3.29077E-15
 -1      2390 8.71039E-03 3.71301E-03-3.47855E-15
 -1      2391 9.30023E-03 4.11843E-03-4.11480E-15
 -1      2392 9.15708E-03 4.01313E-03-3.83112E-15
 -1      2393 8.99670E-03 3.92404E-03-4.02270E-15
 -1      2394 9.58638E-03 4.32874E-03-4.70937E-15
 -1      2395 9.44332E-03 4.22363E-03-4.40786E-15
 -1      2396 9.28287E-03 4.13461E-03-4.60114E-15
 -1      2397 9.87238E-03 4.53874E-03-5.34188E-15
 -1      2398 9.72940E-03 4.43377E-03-5.02053E-15
 -1      2399 9.56890E-03 4.34482E-03-5.21691E-15
 -1      2400 1.01583E-02 4.74851E-03-6.01177E-15
 -1      2401 1.00153E-02 4.64365E-03-5.67299E-15
 -1      2402 9.85484E-03 4.55475E-03-5.87205E-15
 -1      2403 1.04441E-02 4.95811E-03-6.71406E-15
 -1      2404 1.03012E-02 4.85333E-03-6.35929E-15
 -1      2405 1.01407E-02 4.76447E-03-6.56167E-15
 -1      2406 1.07299E-02 5.16757E-03-7.44957E-15
 -1      2407 1.05870E-02 5.06286E-03-7.07846E-15
 -1      2408 1.04265E-02 4.97402E-03-7.28368E-15
 -1      2409 1.10156E-02 5.37693E-03-8.21369E-15
 -1      2410 1.08728E-02 5.27226E-03-7.82784E-15
 -1      2411 1.07123E-02 5.18345E-03-8.03555E-15
 -1      2412 1.13013E-02 5.58620E-03-9.00132E-15
 -1      2413 1.11585E-02 5.48157E-03-8.60577E-15
 -1      2414 1.09980E-02 5.39279E-03-8.81721E-15
 -1      2415 1.15871E-02 5.79542E-03-9.81069E-15
 -1      2416 1.14442E-02 5.69082E-03-9.40261E-15
 -1      2417 1.12838E-02 5.60205E-03-9.62305E-15
 -1      2418 1.18728E-02 6.00459E-03-1.06359E-14
 -1      2419 1.17299E-02 5.90001E-03-1.02198E-14
 -1      2420 1.15695E-02 5.81125E-03-1.04456E-14
 -1      2421 1.21585E-02 6.21373E-03-1.14779E-14
 -1      2422 1.20156E-02 6.10916E-03-1.10554E-14
 -1      2423 1.18552E-02 6.02041E-03-1.12861E-14
 -1      2424 1.24442E-02 6.42284E-03-1.23497E-14
 -1      2425 1.23013E-02 6.31828E-03-1.19107E-14
 -1      2426 1.21409E-02 6.22954E-03-1.21474E-14
 -1      2427 1.27299E-02 6.63193E-03-1.32472E-14
 -1      2428 1.25870E-02 6.52738E-03-1.27945E-14
 -1      2429 1.24266E-02 6.43864E-03-1.30341E-14
 -1      2430 1.30156E-02 6.84101E-03-1.41665E-14
 -1      2431 1.28727E-02 6.73647E-03-1.37042E-14
 -1      2432 1.27123E-02 6.64773E-03-1.39455E-14
 -1      2433 1.33013E-02 7.05008E-03-1.51188E-14
 -1      2434 1.31584E-02 6.94554E-03-1.46389E-14
 -1      2435 1.29980E-02 6.85681E-03-1.48848E-14
 -1      2436 1.35870E-02 7.25914E-03-1.60979E-14
 -1      2437 1.34441E-02 7.15461E-03-1.56045E-14
 -1      2438 1.32837E-02 7.06587E-03-1.58528E-14
 -1      2439 1.38727E-02 7.46820E-03-1.70950E-14
 -1      2440 1.37298E-02 7.36367E-03-1.65943E-14
 -1      2441 1.35694E-02 7.27493E-03-1.68463E-14
 -1      2442 1.41584E-02 7.67725E-03-1.81132E-14
 -1      2443 1.40155E-02 7.57273E-03-1.76034E-14
 -1      2444 1.38551E-02 7.48399E-03-1.78598E-14
 -1      2445 1.44441E-02 7.88631E-03-1.91391E-14
 -1      2446 1.43012E-02 7.78178E-03-1.86243E-14
 -1      2447 1.41408E-02 7.69305E-03-1.88848E-14
 -1      2448 1.47298E-02 8.09536E-03-2.01904E-14
 -1      2449 1.45869E-02 7.99084E-03-1.96626E-14
 -1      2450 1.44265E-02 7.90210E-03-1.99273E-14
 -1      2451 1.50155E-02 8.30442E-03-2.12528E-14
 -1      2452 1.48726E-02 8.19989E-03-2.07186E-14
 -1      2453 1.47123E-02 8.11115E-03-2.09865E-14
 -1      2454 1.53012E-02 8.51347E-03-2.23322E-14
 -1      2455 1.51584E-02 8.40894E-03-2.17923E-14
 -1      2456 1.49980E-02 8.32021E-03-2.20606E-14
 -1      2457 1.55869E-02 8.72253E-03-2.34295E-14
 -1      2458 1.54441E-02 8.61800E-03-2.28761E-14
 -1      2459 1.52837E-02 8.52926E-03-2.31493E-14
 -1      2460 1.58726E-02 8.93158E-03-2.45395E-14
 -1      2461 1.57298E-02 8.82705E-03-2.39812E-14
 -1      2462 1.55694E-02 8.73832E-03-2.42527E-14
 -1      2463 1.52968E-02 8.75773E-03-3.00940E-14
 -1      2464 1.53996E-02 8.79988E-03-2.94555E-14
 -1      2465 1.55007E-02 8.84131E-03-2.88267E-14
 -1      2466 1.56017E-02 8.88273E-03-2.82020E-14
 -1      2467 1.53256E-02 8.72971E-03-2.86385E-14
 -1      2468 1.57045E-02 8.92488E-03-2.75599E-14
 -1      2469 1.58073E-02 8.96702E-03-2.69157E-14
 -1      2470 1.55294E-02 8.81329E-03-2.73774E-14
 -1      2471 5.62715E-03 1.32622E-03 3.82520E-18
 -1      2472 5.60697E-03 1.33169E-03-1.19631E-16
 -1      2473 1.50913E-02 8.67344E-03-3.13757E-14
 -1      2474 1.51941E-02 8.71559E-03-3.07330E-14
 -1      2475 1.51217E-02 8.64614E-03-2.98989E-14
 -1      2476 1.48857E-02 8.58915E-03-3.26636E-14
 -1      2477 1.49885E-02 8.63130E-03-3.20173E-14
 -1      2478 1.49162E-02 8.56185E-03-3.11690E-14
 -1      2479 1.46801E-02 8.50487E-03-3.39627E-14
 -1      2480 1.47829E-02 8.54701E-03-3.33123E-14
 -1      2481 1.47106E-02 8.47756E-03-3.24503E-14
 -1      2482 1.44746E-02 8.42058E-03-3.52625E-14
 -1      2483 1.45773E-02 8.46272E-03-3.46113E-14
 -1      2484 1.45050E-02 8.39327E-03-3.37360E-14
 -1      2485 1.42725E-02 8.33772E-03-3.65490E-14
 -1      2486 1.43735E-02 8.37915E-03-3.59058E-14
 -1      2487 1.43012E-02 8.30970E-03-3.50165E-14
 -1      2488 1.40669E-02 8.25343E-03-3.78531E-14
 -1      2489 1.41697E-02 8.29557E-03-3.72015E-14
 -1      2490 1.40974E-02 8.22612E-03-3.63017E-14
 -1      2491 1.38613E-02 8.16914E-03-3.91464E-14
 -1      2492 1.39641E-02 8.21128E-03-3.85012E-14
 -1      2493 1.38918E-02 8.14183E-03-3.75940E-14
 -1      2494 1.36558E-02 8.08485E-03-4.04322E-14
 -1      2495 1.37585E-02 8.12700E-03-3.97889E-14
 -1      2496 1.36862E-02 8.05755E-03-3.88753E-14
 -1      2497 4.45423E-04 4.08478E-04 1.51665E-16
 -1      2498 5.54723E-04 4.20672E-04 1.82231E-16
 -1      2499 5.54891E-03 1.34898E-03 2.48885E-16
 -1      2500 5.60823E-03 1.33476E-03 1.26958E-16
 -1      2501 5.64156E-03 1.35517E-03 4.24635E-17
 -1      2502 1.38199E-03 7.19206E-04 3.45779E-16
 -1      2503 1.27301E-03 6.07771E-04 3.15530E-16
 -1      2504 9.91856E-04 4.76822E-04 2.58271E-16
 -1      2505 1.30275E-03 7.47153E-04 3.39301E-16
 -1      2506 5.52589E-03 1.32207E-03-2.51085E-16
 -1      2507 5.43927E-03 1.31119E-03-3.29073E-16
 -1      2508 1.78552E-03 4.59307E-05-2.40801E-16
 -1      2509 1.62925E-03 1.10731E-04-1.94641E-16
 -1      2510 5.29777E-03 1.28818E-03-4.34157E-16
 -1      2511 5.11195E-03 1.24617E-03-5.24601E-16
 -1      2512 1.35524E-02 8.06748E-03-4.19353E-14
 -1      2513 6.52681E-04 3.53071E-05-8.61128E-17
 -1      2514 6.56647E-04-3.54189E-06-1.01373E-16
 -1      2515 8.01125E-04-3.46868E-05-1.47655E-16
 -1      2516 7.95211E-04 5.16685E-05-1.08542E-16
 -1      2517 4.58694E-04 4.23909E-04 4.98767E-17
 -1      2518 3.89999E-04 4.17518E-04 7.46914E-17
 -1      2519 1.07152E-03 6.28263E-04 2.95079E-16
 -1      2520 5.38433E-03 1.40556E-03 4.57737E-16
 -1      2521 6.93358E-04 4.68813E-04 2.16800E-16
 -1      2522 8.60562E-04 5.37995E-04 2.53493E-16
 -1      2523 9.27348E-04 5.07853E-04 2.56204E-16
 -1      2524 6.00716E-04 3.91326E-04 1.84836E-16
 -1      2525 3.68368E-04 4.19070E-04 1.02217E-16
 -1      2526 3.83906E-04 4.12209E-04 1.24915E-16
 -1      2527 6.86883E-04 4.10250E-04 2.21584E-18
 -1      2528 5.81428E-04 4.20685E-04 2.19822E-17
 -1      2529 3.50569E-03 4.64938E-04-7.45443E-16
 -1      2530 3.32045E-03 3.40849E-04-7.24979E-16
 -1      2531 9.92987E-04 3.36461E-04-5.46980E-17
 -1      2532 8.32286E-04 3.80504E-04-2.43810E-17
 -1      2533 7.51654E-04 3.75128E-04-1.49891E-17
 -1      2534 2.08979E-03-5.56125E-05-3.51715E-16
 -1      2535 1.95613E-03-1.62326E-05-3.01977E-16
 -1      2536 2.76739E-03 1.74602E-05-6.03711E-16
 -1      2537 2.64485E-03-3.18184E-05-5.66523E-16
 -1      2538 3.11300E-03 2.09946E-04-6.90962E-16
 -1      2539 2.93535E-03 1.02051E-04-6.52419E-16
 -1      2540 3.95850E-03 7.37845E-04-7.39670E-16
 -1      2541 3.74706E-03 6.11915E-04-7.46704E-16
 -1      2542 4.42263E-03 9.79612E-04-6.93022E-16
 -1      2543 4.20167E-03 8.69662E-04-7.20656E-16
 -1      2544 4.87306E-03 1.17087E-03-6.09295E-16
 -1      2545 4.66293E-03 1.09117E-03-6.60381E-16
 -1      2546 8.36466E-04 2.87233E-04 1.92161E-16
 -1      2547 6.79733E-04 2.04062E-04 1.49240E-16
 -1      2548 5.86185E-04 1.76862E-04 1.32354E-16
 -1      2549 7.73137E-04 3.02413E-04 1.91470E-16
 -1      2550 3.66478E-04 3.83083E-04 8.05833E-17
 -1      2551 7.55921E-04-1.73147E-04-2.24050E-16
 -1      2552 6.16648E-04-1.61757E-04-1.74787E-16
 -1      2553 6.05031E-04-1.87987E-04-1.88936E-16
 -1      2554 4.22738E-04 1.62736E-04 1.03717E-16
 -1      2555 4.44501E-04 2.28146E-04 1.19228E-16
 -1      2556 5.36099E-03 1.33074E-03-4.64591E-16
 -1      2557 5.22421E-04 1.67471E-04 1.21905E-16
 -1      2558 1.58473E-02 8.96073E-03-2.59463E-14
 -1      2559 1.59989E-02 9.02302E-03-2.50072E-14
 -1      2560 5.58677E-03 1.35289E-03-2.21994E-16
 -1      2561 3.18540E-03 2.84518E-04-7.90465E-16
 -1      2562 2.83934E-03 7.09145E-05-6.97820E-16
 -1      2563 5.50723E-03 1.37489E-03 3.39362E-16
 -1      2564 5.58870E-03 1.38599E-03 2.62540E-16
 -1      2565 1.56722E-02 8.84914E-03-2.57748E-14
 -1      2566 4.08474E-04 3.67019E-04 1.29728E-16
 -1      2567 1.84137E-03 7.72970E-06-2.83465E-16
 -1      2568 1.49334E-03 1.51477E-04-1.68051E-16
 -1      2569 2.51991E-03-6.39440E-05-5.58174E-16
 -1      2570 2.40692E-03-8.31873E-05-5.48444E-16
 -1      2571 2.56554E-03-4.30489E-05-6.34692E-16
 -1      2572 4.99481E-03 1.24611E-03-6.58328E-16
 -1      2573 1.33665E-02 7.94336E-03-4.14355E-14
 -1      2574 1.35421E-02 8.03018E-03-4.08601E-14
 -1      2575 1.34698E-02 7.96073E-03-3.99381E-14
 -1      2576 1.32426E-02 7.85138E-03-4.07862E-14
 -1      2577 1.08720E-03 2.99466E-04-7.64769E-17
 -1      2578 9.75491E-04 3.09288E-04-6.04849E-17
 -1      2579 1.17202E-03 2.56587E-04-9.85946E-17
 -1      2580 1.32617E-02 7.83622E-03-3.98842E-14
 -1      2581 5.98738E-04-2.10494E-04-2.01797E-16
 -1      2582 5.88888E-04-2.36044E-04-2.14523E-16
 -1      2583 7.17548E-04-2.78710E-04-2.90837E-16
 -1      2584 7.32316E-04-2.28179E-04-2.58745E-16
 -1      2585 3.60338E-03 5.58343E-04-8.34863E-16
 -1      2586 4.93814E-04 3.99279E-04 3.40304E-17
 -1      2587 4.53014E-03 1.06954E-03-7.74893E-16
 -1      2588 2.17006E-03-7.85944E-05-4.10750E-16
 -1      2589 4.06399E-03 8.33099E-04-8.23180E-16
 -1      2590 7.90526E-04 2.95615E-04-3.85840E-17
 -1      2591 8.79908E-04 2.40733E-04-6.54452E-17
 -1      2592 3.59426E-04 3.42783E-04 6.04578E-17
 -1      2593 4.14977E-04 3.50539E-04 3.83740E-17
 -1      2594 3.71926E-04 3.13396E-04 1.06841E-16
 -1      2595 3.45099E-04 3.33700E-04 8.14439E-17
 -1      2596 5.44654E-03 1.38119E-03-4.99736E-16
 -1      2597 5.31609E-03 1.36549E-03-6.10250E-16
 -1      2598 4.29535E-04 2.98242E-04 1.27211E-16
 -1      2599 5.78071E-03 1.49858E-03 1.11110E-16
 -1      2600 5.68153E-03 1.43281E-03 1.91402E-16
 -1      2601 5.68173E-03 1.40750E-03 9.44001E-17
 -1      2602 5.64121E-03 1.39129E-03-2.20838E-16
 -1      2603 5.56384E-03 1.39101E-03-3.61049E-16
 -1      2604 5.53992E-03 1.42673E-03-5.07501E-16
 -1      2605 1.05051E-03-3.58867E-04-5.37439E-16
 -1      2606 1.19355E-03-3.74328E-04-6.60903E-16
 -1      2607 8.20027E-04-3.06563E-04-3.57638E-16
 -1      2608 9.48876E-04-3.39758E-04-4.54633E-16
 -1      2609 1.03602E-03-3.22133E-04-4.86888E-16
 -1      2610 8.28271E-04-2.79557E-04-3.38908E-16
 -1      2611 6.19197E-03 1.82393E-03-3.20246E-16
 -1      2612 6.07310E-03 1.72729E-03-2.06351E-16
 -1      2613 1.33528E-03-3.80525E-04-7.95913E-16
 -1      2614 1.47593E-03-3.76781E-04-9.41724E-16
 -1      2615 1.28486E-03-3.48433E-04-6.94906E-16
 -1      2616 1.61517E-03-3.62999E-04-1.09758E-15
 -1      2617 1.75357E-03-3.38689E-04-1.26345E-15
 -1      2618 1.57264E-03-3.41655E-04-9.74413E-16
 -1      2619 1.89104E-03-3.03970E-04-1.43933E-15
 -1      2620 2.02835E-03-2.58776E-04-1.62481E-15
 -1      2621 1.85598E-03-2.93624E-04-1.29413E-15
 -1      2622 2.16551E-03-2.03571E-04-1.81979E-15
 -1      2623 2.30325E-03-1.38856E-04-2.02347E-15
 -1      2624 2.13710E-03-2.02715E-04-1.65219E-15
 -1      2625 2.44158E-03-6.54310E-05-2.23622E-15
 -1      2626 2.58099E-03 1.57603E-05-2.45850E-15
 -1      2627 2.41928E-03-7.14706E-05-2.04608E-15
 -1      2628 2.72142E-03 1.03709E-04-2.69001E-15
 -1      2629 2.86303E-03 1.97291E-04-2.92954E-15
 -1      2630 2.70509E-03 9.35131E-05-2.47586E-15
 -1      2631 3.00572E-03 2.95480E-04-3.17735E-15
 -1      2632 3.14936E-03 3.97243E-04-3.43368E-15
 -1      2633 2.99548E-03 2.83276E-04-2.94082E-15
 -1      2634 3.29384E-03 5.01702E-04-3.69866E-15
 -1      2635 3.43887E-03 6.08074E-04-3.97170E-15
 -1      2636 3.28966E-03 4.88755E-04-3.43898E-15
 -1      2637 3.58440E-03 7.15703E-04-4.25129E-15
 -1      2638 3.73009E-03 8.24091E-04-4.53911E-15
 -1      2639 3.58591E-03 7.02546E-04-3.96893E-15
 -1      2640 3.87597E-03 9.32803E-04-4.83435E-15
 -1      2641 4.02173E-03 1.04158E-03-5.13588E-15
 -1      2642 3.88247E-03 9.19537E-04-4.52962E-15
 -1      2643 4.16745E-03 1.15016E-03-5.44518E-15
 -1      2644 4.31291E-03 1.25846E-03-5.76229E-15
 -1      2645 4.17803E-03 1.13672E-03-5.11918E-15
 -1      2646 4.45821E-03 1.36635E-03-6.08620E-15
 -1      2647 4.60319E-03 1.47382E-03-6.41654E-15
 -1      2648 4.47188E-03 1.35266E-03-5.73829E-15
 -1      2649 4.74797E-03 1.58084E-03-6.75293E-15
 -1      2650 4.89246E-03 1.68744E-03-7.09574E-15
 -1      2651 4.76386E-03 1.56686E-03-6.38537E-15
 -1      2652 5.03675E-03 1.79364E-03-7.44467E-15
 -1      2653 5.18080E-03 1.89948E-03-7.80134E-15
 -1      2654 5.05413E-03 1.77939E-03-7.05896E-15
 -1      2655 5.32468E-03 2.00500E-03-8.16509E-15
 -1      2656 5.46837E-03 2.11024E-03-8.53564E-15
 -1      2657 5.34299E-03 1.99052E-03-7.75969E-15
 -1      2658 5.61193E-03 2.21525E-03-8.91335E-15
 -1      2659 5.75535E-03 2.32006E-03-9.29932E-15
 -1      2660 5.63078E-03 2.20059E-03-8.48933E-15
 -1      2661 5.89868E-03 2.42472E-03-9.69411E-15
 -1      2662 6.04191E-03 2.52925E-03-1.00961E-14
 -1      2663 5.91782E-03 2.40993E-03-9.25014E-15
 -1      2664 6.18508E-03 2.63369E-03-1.05073E-14
 -1      2665 6.32818E-03 2.73804E-03-1.09281E-14
 -1      2666 6.20433E-03 2.61880E-03-1.00439E-14
 -1      2667 6.47124E-03 2.84235E-03-1.13550E-14
 -1      2668 6.61425E-03 2.94663E-03-1.17905E-14
 -1      2669 6.49052E-03 2.82740E-03-1.08712E-14
 -1      2670 6.75724E-03 3.05088E-03-1.22355E-14
 -1      2671 6.90019E-03 3.15512E-03-1.26879E-14
 -1      2672 6.77649E-03 3.03588E-03-1.17301E-14
 -1      2673 7.04313E-03 3.25936E-03-1.31501E-14
 -1      2674 7.18605E-03 3.36361E-03-1.36202E-14
 -1      2675 7.06235E-03 3.24433E-03-1.26242E-14
 -1      2676 7.32896E-03 3.46787E-03-1.40991E-14
 -1      2677 7.47185E-03 3.57214E-03-1.45880E-14
 -1      2678 7.34813E-03 3.45281E-03-1.35518E-14
 -1      2679 7.61474E-03 3.67642E-03-1.50865E-14
 -1      2680 7.75762E-03 3.78073E-03-1.55912E-14
 -1      2681 7.63388E-03 3.66135E-03-1.45158E-14
 -1      2682 7.90049E-03 3.88506E-03-1.61054E-14
 -1      2683 8.04337E-03 3.98940E-03-1.66272E-14
 -1      2684 7.91960E-03 3.86997E-03-1.55149E-14
 -1      2685 8.18623E-03 4.09376E-03-1.71577E-14
 -1      2686 8.32910E-03 4.19814E-03-1.76951E-14
 -1      2687 8.20532E-03 4.07866E-03-1.65455E-14
 -1      2688 8.47196E-03 4.30254E-03-1.82367E-14
 -1      2689 8.61482E-03 4.40695E-03-1.87846E-14
 -1      2690 8.49103E-03 4.28742E-03-1.76052E-14
 -1      2691 8.75768E-03 4.51137E-03-1.93378E-14
 -1      2692 8.90054E-03 4.61581E-03-1.98938E-14
 -1      2693 8.77674E-03 4.49625E-03-1.86875E-14
 -1      2694 9.04339E-03 4.72027E-03-2.04551E-14
 -1      2695 9.18625E-03 4.82473E-03-2.10202E-14
 -1      2696 9.06246E-03 4.70514E-03-1.97875E-14
 -1      2697 9.32911E-03 4.92920E-03-2.15908E-14
 -1      2698 9.47196E-03 5.03368E-03-2.21653E-14
 -1      2699 9.34817E-03 4.91407E-03-2.09056E-14
 -1      2700 9.61482E-03 5.13817E-03-2.27414E-14
 -1      2701 9.75767E-03 5.24266E-03-2.33217E-14
 -1      2702 9.63388E-03 5.12303E-03-2.20390E-14
 -1      2703 9.90053E-03 5.34717E-03-2.39075E-14
 -1      2704 1.00434E-02 5.45167E-03-2.44994E-14
 -1      2705 9.91959E-03 5.33203E-03-2.31888E-14
 -1      2706 1.01862E-02 5.55618E-03-2.50942E-14
 -1      2707 1.03291E-02 5.66070E-03-2.56921E-14
 -1      2708 1.02053E-02 5.54104E-03-2.43593E-14
 -1      2709 1.04719E-02 5.76521E-03-2.62922E-14
 -1      2710 1.06148E-02 5.86973E-03-2.68961E-14
 -1      2711 1.04910E-02 5.75007E-03-2.55447E-14
 -1      2712 1.07577E-02 5.97426E-03-2.75044E-14
 -1      2713 1.09005E-02 6.07878E-03-2.81148E-14
 -1      2714 1.07767E-02 5.95911E-03-2.67428E-14
 -1      2715 1.10434E-02 6.18330E-03-2.87298E-14
 -1      2716 1.11862E-02 6.28783E-03-2.93520E-14
 -1      2717 1.10624E-02 6.16816E-03-2.79542E-14
 -1      2718 1.13291E-02 6.39236E-03-2.99760E-14
 -1      2719 1.14719E-02 6.49689E-03-3.06053E-14
 -1      2720 1.13482E-02 6.37721E-03-2.91838E-14
 -1      2721 1.16148E-02 6.60142E-03-3.12387E-14
 -1      2722 1.17576E-02 6.70595E-03-3.18771E-14
 -1      2723 1.16339E-02 6.58627E-03-3.04303E-14
 -1      2724 1.19005E-02 6.81048E-03-3.25225E-14
 -1      2725 1.20434E-02 6.91501E-03-3.31714E-14
 -1      2726 1.19196E-02 6.79533E-03-3.16990E-14
 -1      2727 1.21862E-02 7.01954E-03-3.38246E-14
 -1      2728 1.23291E-02 7.12407E-03-3.44820E-14
 -1      2729 1.22053E-02 7.00439E-03-3.29841E-14
 -1      2730 1.24719E-02 7.22860E-03-3.51450E-14
 -1      2731 1.26148E-02 7.33313E-03-3.58121E-14
 -1      2732 1.24910E-02 7.21345E-03-3.42893E-14
 -1      2733 1.27576E-02 7.43766E-03-3.64823E-14
 -1      2734 1.29005E-02 7.54219E-03-3.71529E-14
 -1      2735 1.27767E-02 7.42251E-03-3.56116E-14
 -1      2736 1.30434E-02 7.64672E-03-3.78308E-14
 -1      2737 1.31862E-02 7.75125E-03-3.85111E-14
 -1      2738 1.30624E-02 7.63157E-03-3.69470E-14
 -1      2739 1.86075E-03-2.36911E-05-3.23905E-16
 -1      2740 1.71641E-03 3.39789E-05-2.61686E-16
 -1      2741 1.54893E-02 8.75090E-03-2.61710E-14
 -1      2742 1.55294E-02 8.74461E-03-2.52110E-14
 -1      2743 1.53865E-02 8.64008E-03-2.46507E-14
 -1      2744 9.32563E-04-1.09857E-04-2.29593E-16
 -1      2745 9.17160E-04-1.45973E-04-2.53676E-16
 -1      2746 1.45355E-02 8.36597E-03-3.22298E-14
 -1      2747 1.46383E-02 8.40811E-03-3.15938E-14
 -1      2748 1.51513E-02 8.61848E-03-2.84409E-14
 -1      2749 1.52524E-02 8.65991E-03-2.78204E-14
 -1      2750 6.44401E-03 2.02663E-03-5.78517E-16
 -1      2751 6.31547E-03 1.92352E-03-4.44916E-16
 -1      2752 6.19916E-03 1.85437E-03-5.86269E-16
 -1      2753 6.71046E-03 2.23716E-03-8.71522E-16
 -1      2754 6.57562E-03 2.13106E-03-7.19422E-16
 -1      2755 6.44324E-03 2.05417E-03-8.65993E-16
 -1      2756 6.98580E-03 2.45086E-03-1.20417E-15
 -1      2757 6.84716E-03 2.34369E-03-1.03385E-15
 -1      2758 6.70406E-03 2.26163E-03-1.18305E-15
 -1      2759 7.26630E-03 2.66536E-03-1.57295E-15
 -1      2760 7.12549E-03 2.55805E-03-1.38381E-15
 -1      2761 6.97538E-03 2.47275E-03-1.53897E-15
 -1      2762 7.54965E-03 2.87955E-03-1.98042E-15
 -1      2763 7.40766E-03 2.77251E-03-1.77221E-15
 -1      2764 7.25304E-03 2.68527E-03-1.93167E-15
 -1      2765 7.83449E-03 3.09301E-03-2.42193E-15
 -1      2766 7.69191E-03 2.98637E-03-2.19818E-15
 -1      2767 7.53442E-03 2.89802E-03-2.35960E-15
 -1      2768 8.12007E-03 3.30568E-03-2.89672E-15
 -1      2769 7.97720E-03 3.19944E-03-2.65593E-15
 -1      2770 7.81793E-03 3.11048E-03-2.82268E-15
 -1      2771 8.40598E-03 3.51762E-03-3.40093E-15
 -1      2772 8.26299E-03 3.41174E-03-3.14470E-15
 -1      2773 8.10260E-03 3.32245E-03-3.31710E-15
 -1      2774 8.69199E-03 3.72894E-03-3.93311E-15
 -1      2775 8.54897E-03 3.62335E-03-3.66351E-15
 -1      2776 8.38790E-03 3.53390E-03-3.83963E-15
 -1      2777 8.97800E-03 3.93975E-03-4.49978E-15
 -1      2778 8.83499E-03 3.83440E-03-4.21217E-15
 -1      2779 8.67352E-03 3.74489E-03-4.39401E-15
 -1      2780 9.26397E-03 4.15016E-03-5.10017E-15
 -1      2781 9.12099E-03 4.04500E-03-4.79566E-15
 -1      2782 8.95927E-03 3.95547E-03-4.98244E-15
 -1      2783 9.54989E-03 4.36026E-03-5.73829E-15
 -1      2784 9.40694E-03 4.25525E-03-5.41484E-15
 -1      2785 9.24508E-03 4.16573E-03-5.60325E-15
 -1      2786 9.83576E-03 4.57012E-03-6.41278E-15
 -1      2787 9.69283E-03 4.46522E-03-6.07019E-15
 -1      2788 9.53089E-03 4.37571E-03-6.26261E-15
 -1      2789 1.01216E-02 4.77978E-03-7.12265E-15
 -1      2790 9.97868E-03 4.67497E-03-6.76434E-15
 -1      2791 9.81670E-03 4.58549E-03-6.95779E-15
 -1      2792 1.04074E-02 4.98929E-03-7.86365E-15
 -1      2793 1.02645E-02 4.88455E-03-7.48890E-15
 -1      2794 1.01025E-02 4.79509E-03-7.68794E-15
 -1      2795 1.06931E-02 5.19869E-03-8.63591E-15
 -1      2796 1.05503E-02 5.09400E-03-8.24659E-15
 -1      2797 1.03883E-02 5.00456E-03-8.44917E-15
 -1      2798 1.09789E-02 5.40800E-03-9.43451E-15
 -1      2799 1.08360E-02 5.30336E-03-9.03155E-15
 -1      2800 1.06740E-02 5.21393E-03-9.24033E-15
 -1      2801 1.12646E-02 5.61724E-03-1.02552E-14
 -1      2802 1.11218E-02 5.51263E-03-9.84266E-15
 -1      2803 1.09597E-02 5.42321E-03-1.00546E-14
 -1      2804 1.15503E-02 5.82643E-03-1.10924E-14
 -1      2805 1.14075E-02 5.72184E-03-1.06722E-14
 -1      2806 1.12455E-02 5.63244E-03-1.08910E-14
 -1      2807 1.18361E-02 6.03558E-03-1.19477E-14
 -1      2808 1.16932E-02 5.93101E-03-1.15167E-14
 -1      2809 1.15312E-02 5.84161E-03-1.17419E-14
 -1      2810 1.21218E-02 6.24470E-03-1.28269E-14
 -1      2811 1.19789E-02 6.14015E-03-1.23852E-14
 -1      2812 1.18169E-02 6.05075E-03-1.26142E-14
 -1      2813 1.24075E-02 6.45380E-03-1.37280E-14
 -1      2814 1.22646E-02 6.34925E-03-1.32746E-14
 -1      2815 1.21026E-02 6.25987E-03-1.35075E-14
 -1      2816 1.26932E-02 6.66289E-03-1.46553E-14
 -1      2817 1.25503E-02 6.55835E-03-1.41881E-14
 -1      2818 1.23884E-02 6.46896E-03-1.44247E-14
 -1      2819 1.29789E-02 6.87196E-03-1.56133E-14
 -1      2820 1.28360E-02 6.76742E-03-1.51307E-14
 -1      2821 1.26741E-02 6.67804E-03-1.53717E-14
 -1      2822 1.32646E-02 7.08102E-03-1.65985E-14
 -1      2823 1.31217E-02 6.97649E-03-1.61016E-14
 -1      2824 1.29598E-02 6.88711E-03-1.63453E-14
 -1      2825 1.35503E-02 7.29008E-03-1.76067E-14
 -1      2826 1.34075E-02 7.18555E-03-1.71005E-14
 -1      2827 1.32455E-02 7.09617E-03-1.73469E-14
 -1      2828 1.38360E-02 7.49914E-03-1.86307E-14
 -1      2829 1.36932E-02 7.39461E-03-1.81156E-14
 -1      2830 1.35312E-02 7.30523E-03-1.83679E-14
 -1      2831 1.41217E-02 7.70820E-03-1.96668E-14
 -1      2832 1.39789E-02 7.60367E-03-1.91490E-14
 -1      2833 1.38169E-02 7.51429E-03-1.94030E-14
 -1      2834 1.44074E-02 7.91725E-03-2.07229E-14
 -1      2835 1.42646E-02 7.81272E-03-2.01922E-14
 -1      2836 1.41026E-02 7.72334E-03-2.04554E-14
 -1      2837 1.46932E-02 8.12630E-03-2.17921E-14
 -1      2838 1.45503E-02 8.02178E-03-2.12549E-14
 -1      2839 1.43883E-02 7.93240E-03-2.15186E-14
 -1      2840 1.49789E-02 8.33536E-03-2.28762E-14
 -1      2841 1.48360E-02 8.23083E-03-2.23319E-14
 -1      2842 1.46741E-02 8.14145E-03-2.26010E-14
 -1      2843 1.52541E-02 8.53998E-03-2.40366E-14
 -1      2844 1.51113E-02 8.43546E-03-2.34846E-14
 -1      2845 1.49493E-02 8.34608E-03-2.37546E-14
 -1      2846 1.52141E-02 8.54627E-03-2.49840E-14
 -1      2847 1.47411E-02 8.45026E-03-3.09596E-14
 -1      2848 1.48438E-02 8.49240E-03-3.03270E-14
 -1      2849 1.45659E-02 8.33866E-03-3.07483E-14
 -1      2850 3.25086E-03 3.62361E-04-9.20420E-16
 -1      2851 3.07204E-03 2.39853E-04-8.76442E-16
 -1      2852 1.53866E-02 8.70876E-03-2.68051E-14
 -1      2853 8.07874E-04 4.08393E-04 2.21435E-16
 -1      2854 1.49462E-02 8.53437E-03-2.97004E-14
 -1      2855 1.50490E-02 8.57651E-03-2.90684E-14
 -1      2856 1.49758E-02 8.50670E-03-2.82504E-14
 -1      2857 1.47711E-02 8.42277E-03-2.94975E-14
 -1      2858 1.43299E-02 8.28168E-03-3.35055E-14
 -1      2859 1.44327E-02 8.32382E-03-3.28710E-14
 -1      2860 1.43604E-02 8.25437E-03-3.20099E-14
 -1      2861 1.41278E-02 8.19882E-03-3.47665E-14
 -1      2862 1.42289E-02 8.24025E-03-3.41357E-14
 -1      2863 1.41565E-02 8.17080E-03-3.32668E-14
 -1      2864 1.39223E-02 8.11453E-03-3.60506E-14
 -1      2865 1.40250E-02 8.15667E-03-3.54084E-14
 -1      2866 1.39527E-02 8.08722E-03-3.45265E-14
 -1      2867 1.37167E-02 8.03024E-03-3.73300E-14
 -1      2868 1.38195E-02 8.07238E-03-3.66915E-14
 -1      2869 1.37471E-02 8.00293E-03-3.57975E-14
 -1      2870 5.69491E-03 1.40938E-03-4.11319E-17
 -1      2871 5.22824E-04 2.85072E-04 1.47831E-16
 -1      2872 3.70450E-03 6.55255E-04-9.43757E-16
 -1      2873 3.49115E-03 5.16395E-04-9.35612E-16
 -1      2874 1.33753E-02 7.89090E-03-3.94617E-14
 -1      2875 1.34889E-02 7.94558E-03-3.90378E-14
 -1      2876 1.32807E-02 7.82107E-03-3.89864E-14
 -1      2877 5.97822E-03 1.64951E-03-8.55164E-17
 -1      2878 5.86984E-03 1.56389E-03 1.03812E-17
 -1      2879 5.83612E-03 1.53555E-03-9.26519E-17
 -1      2880 5.99851E-03 1.68072E-03-3.28283E-16
 -1      2881 6.04040E-04 2.24388E-04 1.48400E-16
 -1      2882 1.53713E-03 1.08012E-04-1.97623E-16
 -1      2883 1.36077E-03 1.83584E-04-1.45608E-16
 -1      2884 2.88233E-03 1.19644E-04-8.07568E-16
 -1      2885 2.73775E-03 3.70595E-05-7.49672E-16
 -1      2886 5.10295E-03 1.31364E-03-7.25772E-16
 -1      2887 4.88475E-03 1.24867E-03-8.12156E-16
 -1      2888 4.16106E-03 9.26925E-04-9.48175E-16
 -1      2889 3.94513E-03 8.05338E-04-9.62284E-16
 -1      2890 4.60204E-03 1.13988E-03-8.91350E-16
 -1      2891 4.38184E-03 1.03864E-03-9.21152E-16
 -1      2892 4.26165E-03 1.00371E-03-1.06821E-15
 -1      2893 5.14635E-04 3.61944E-04 1.82688E-17
 -1      2894 2.23553E-03-9.51615E-05-4.95182E-16
 -1      2895 2.06955E-03-7.91912E-05-4.25387E-16
 -1      2896 6.13311E-04 3.38882E-04-4.47911E-18
 -1      2897 6.80592E-04 2.87628E-04 1.75668E-16
 -1      2898 8.99731E-04-1.79799E-04-2.76905E-16
 -1      2899 8.81893E-04-2.12198E-04-3.00039E-16
 -1      2900 1.04795E-03-1.82437E-04-3.33040E-16
 -1      2901 3.36143E-03 4.53814E-04-1.02959E-15
 -1      2902 2.00304E-03-9.47326E-05-4.71763E-16
 -1      2903 1.94270E-03-6.56929E-05-3.95029E-16
 -1      2904 1.81686E-03-4.89085E-05-3.64685E-16
 -1      2905 8.62471E-04 1.76295E-04-7.94178E-17
 -1      2906 9.04203E-04 1.21654E-04-1.03975E-16
 -1      2907 5.22580E-03 1.37328E-03-7.69485E-16
 -1      2908 2.95983E-03 1.88011E-04-9.31980E-16
 -1      2909 5.71972E-03 1.44943E-03-1.79984E-16
 -1      2910 1.57413E-03 6.53550E-05-2.30461E-16
 -1      2911 9.52067E-04-2.88694E-05-1.80858E-16
 -1      2912 9.45173E-04-7.10847E-05-2.05375E-16
 -1      2913 1.08637E-03-1.08987E-04-2.74913E-16
 -1      2914 6.55988E-04 3.61019E-04 1.87662E-16
 -1      2915 1.52123E-02 8.59752E-03-2.66196E-14
 -1      2916 1.35917E-02 7.98772E-03-3.84048E-14
 -1      2917 1.22865E-03 2.07926E-04-1.22257E-16
 -1      2918 2.61958E-03-1.04799E-05-7.34737E-16
 -1      2919 2.51052E-03-4.64686E-05-7.18474E-16
 -1      2920 2.66886E-03 2.73954E-05-8.40582E-16
 -1      2921 4.74651E-03 1.22086E-03-9.65997E-16
 -1      2922 1.32998E-02 7.80592E-03-3.80919E-14
 -1      2923 9.40946E-04 6.69103E-05-1.31216E-16
 -1      2924 9.52102E-04 1.72085E-05-1.56301E-16
 -1      2925 1.10784E-03-2.29046E-05-2.14957E-16
 -1      2926 2.28823E-03-9.52627E-05-5.63108E-16
 -1      2927 7.26600E-04 3.22877E-04-2.40693E-17
 -1      2928 3.82388E-03 7.52837E-04-1.07053E-15
 -1      2929 1.05991E-03 2.05992E-04-1.01915E-16
 -1      2930 1.34096E-02 7.86210E-03-3.77963E-14
 -1      2931 1.36069E-02 7.97407E-03-3.76306E-14
 -1      2932 1.35346E-02 7.90462E-03-3.67324E-14
 -1      2933 1.33151E-02 7.79227E-03-3.73257E-14
 -1      2934 1.07670E-03 8.27740E-05-1.50745E-16
 -1      2935 5.34060E-03 1.43458E-03-8.40799E-16
 -1      2936 5.14480E-03 1.38619E-03-9.60522E-16
 -1      2937 6.43444E-03 2.08195E-03-1.16213E-15
 -1      2938 6.31106E-03 1.98221E-03-1.00680E-15
 -1      2939 1.23311E-03-3.14648E-04-6.00540E-16
 -1      2940 1.38141E-03-3.21080E-04-7.24532E-16
 -1      2941 2.34962E-03-8.72938E-05-6.52907E-16
 -1      2942 2.19370E-03-1.05307E-04-5.90538E-16
 -1      2943 2.40403E-03-6.91262E-05-7.48777E-16
 -1      2944 1.52838E-03-3.18376E-04-8.58580E-16
 -1      2945 1.67427E-03-3.05413E-04-1.00240E-15
 -1      2946 1.48224E-03-2.92569E-04-7.49712E-16
 -1      2947 1.81880E-03-2.81880E-04-1.15618E-15
 -1      2948 1.96279E-03-2.47102E-04-1.31920E-15
 -1      2949 1.77983E-03-2.68071E-04-1.02552E-15
 -1      2950 2.10616E-03-2.01191E-04-1.49156E-15
 -1      2951 2.24990E-03-1.44365E-04-1.67322E-15
 -1      2952 2.07335E-03-1.98643E-04-1.33881E-15
 -1      2953 2.39401E-03-7.72789E-05-1.86361E-15
 -1      2954 2.53924E-03-9.67141E-07-2.06225E-15
 -1      2955 2.36659E-03-8.29288E-05-1.68829E-15
 -1      2956 2.68553E-03 8.35668E-05-2.27037E-15
 -1      2957 2.83319E-03 1.74830E-04-2.48740E-15
 -1      2958 2.66349E-03 7.34430E-05-2.07306E-15
 -1      2959 2.98204E-03 2.71682E-04-2.71178E-15
 -1      2960 3.13192E-03 3.72680E-04-2.94509E-15
 -1      2961 2.96597E-03 2.60199E-04-2.49120E-15
 -1      2962 3.28262E-03 4.76846E-04-3.18731E-15
 -1      2963 3.43372E-03 5.83097E-04-3.43756E-15
 -1      2964 3.27309E-03 4.65578E-04-2.94342E-15
 -1      2965 3.58508E-03 6.90716E-04-3.69468E-15
 -1      2966 3.73624E-03 7.99065E-04-3.95945E-15
 -1      2967 3.58213E-03 6.79998E-04-3.42844E-15
 -1      2968 3.88718E-03 9.07684E-04-4.23281E-15
 -1      2969 4.03751E-03 1.01628E-03-4.51292E-15
 -1      2970 3.89024E-03 8.97185E-04-3.94408E-15
 -1      2971 4.18730E-03 1.12460E-03-4.80100E-15
 -1      2972 4.33631E-03 1.23258E-03-5.09579E-15
 -1      2973 4.19539E-03 1.11384E-03-4.49030E-15
 -1      2974 4.48467E-03 1.34008E-03-5.39883E-15
 -1      2975 4.63224E-03 1.44716E-03-5.70887E-15
 -1      2976 4.49667E-03 1.32871E-03-5.06642E-15
 -1      2977 4.77919E-03 1.55376E-03-6.02541E-15
 -1      2978 4.92545E-03 1.65997E-03-6.34887E-15
 -1      2979 4.79401E-03 1.54162E-03-5.67223E-15
 -1      2980 5.07117E-03 1.76578E-03-6.68011E-15
 -1      2981 5.21635E-03 1.87128E-03-7.01716E-15
 -1      2982 5.08793E-03 1.75289E-03-6.30701E-15
 -1      2983 5.36112E-03 1.97647E-03-7.36114E-15
 -1      2984 5.50549E-03 2.08145E-03-7.71365E-15
 -1      2985 5.37911E-03 1.96293E-03-6.97057E-15
 -1      2986 5.64956E-03 2.18621E-03-8.07175E-15
 -1      2987 5.79335E-03 2.29082E-03-8.43809E-15
 -1      2988 5.66828E-03 2.17216E-03-7.66070E-15
 -1      2989 5.93694E-03 2.39530E-03-8.81298E-15
 -1      2990 6.08034E-03 2.49969E-03-9.19586E-15
 -1      2991 5.95606E-03 2.38087E-03-8.38241E-15
 -1      2992 6.22361E-03 2.60400E-03-9.58658E-15
 -1      2993 6.36676E-03 2.70826E-03-9.98602E-15
 -1      2994 6.24291E-03 2.58931E-03-9.13564E-15
 -1      2995 6.50983E-03 2.81249E-03-1.03939E-14
 -1      2996 6.65284E-03 2.91669E-03-1.08086E-14
 -1      2997 6.52919E-03 2.79762E-03-9.92213E-15
 -1      2998 6.79579E-03 3.02089E-03-1.12323E-14
 -1      2999 6.93871E-03 3.12509E-03-1.16647E-14
 -1      3000 6.81514E-03 3.00591E-03-1.07416E-14
 -1      3001 7.08161E-03 3.22929E-03-1.21044E-14
 -1      3002 7.22448E-03 3.33351E-03-1.25529E-14
 -1      3003 7.10091E-03 3.21425E-03-1.15922E-14
 -1      3004 7.36734E-03 3.43774E-03-1.30116E-14
 -1      3005 7.51020E-03 3.54199E-03-1.34774E-14
 -1      3006 7.38659E-03 3.42266E-03-1.24770E-14
 -1      3007 7.65304E-03 3.64626E-03-1.39518E-14
 -1      3008 7.79589E-03 3.75055E-03-1.44372E-14
 -1      3009 7.67224E-03 3.63116E-03-1.33977E-14
 -1      3010 7.93873E-03 3.85486E-03-1.49308E-14
 -1      3011 8.08158E-03 3.95919E-03-1.54310E-14
 -1      3012 7.95789E-03 3.83975E-03-1.43535E-14
 -1      3013 8.22442E-03 4.06355E-03-1.59415E-14
 -1      3014 8.36727E-03 4.16792E-03-1.64574E-14
 -1      3015 8.24355E-03 4.04842E-03-1.53439E-14
 -1      3016 8.51012E-03 4.27230E-03-1.69797E-14
 -1      3017 8.65297E-03 4.37671E-03-1.75088E-14
 -1      3018 8.52922E-03 4.25717E-03-1.63629E-14
 -1      3019 8.79582E-03 4.48113E-03-1.80431E-14
 -1      3020 8.93867E-03 4.58556E-03-1.85832E-14
 -1      3021 8.81491E-03 4.46599E-03-1.74074E-14
 -1      3022 9.08153E-03 4.69001E-03-1.91268E-14
 -1      3023 9.22438E-03 4.79447E-03-1.96746E-14
 -1      3024 9.10060E-03 4.67487E-03-1.84725E-14
 -1      3025 9.36724E-03 4.89893E-03-2.02256E-14
 -1      3026 9.51009E-03 5.00341E-03-2.07836E-14
 -1      3027 9.38631E-03 4.88379E-03-1.95560E-14
 -1      3028 9.65295E-03 5.10789E-03-2.13458E-14
 -1      3029 9.79581E-03 5.21239E-03-2.19078E-14
 -1      3030 9.67202E-03 5.09275E-03-2.06575E-14
 -1      3031 9.93866E-03 5.31688E-03-2.24775E-14
 -1      3032 1.00815E-02 5.42139E-03-2.30518E-14
 -1      3033 9.95773E-03 5.30174E-03-2.17734E-14
 -1      3034 1.02244E-02 5.52590E-03-2.36297E-14
 -1      3035 1.03672E-02 5.63041E-03-2.42153E-14
 -1      3036 1.02435E-02 5.51075E-03-2.29094E-14
 -1      3037 1.05101E-02 5.73492E-03-2.48032E-14
 -1      3038 1.06530E-02 5.83944E-03-2.53921E-14
 -1      3039 1.05292E-02 5.71978E-03-2.40657E-14
 -1      3040 1.07958E-02 5.94396E-03-2.59858E-14
 -1      3041 1.09387E-02 6.04848E-03-2.65832E-14
 -1      3042 1.08149E-02 5.92882E-03-2.52371E-14
 -1      3043 1.10815E-02 6.15301E-03-2.71836E-14
 -1      3044 1.12244E-02 6.25753E-03-2.77889E-14
 -1      3045 1.11006E-02 6.13786E-03-2.64196E-14
 -1      3046 1.13672E-02 6.36206E-03-2.83978E-14
 -1      3047 1.15101E-02 6.46659E-03-2.90111E-14
 -1      3048 1.13863E-02 6.34691E-03-2.76171E-14
 -1      3049 1.16530E-02 6.57112E-03-2.96313E-14
 -1      3050 1.17958E-02 6.67565E-03-3.02523E-14
 -1      3051 1.16720E-02 6.55597E-03-2.88357E-14
 -1      3052 1.19387E-02 6.78018E-03-3.08799E-14
 -1      3053 1.20815E-02 6.88471E-03-3.15132E-14
 -1      3054 1.19578E-02 6.76503E-03-3.00692E-14
 -1      3055 1.22244E-02 6.98924E-03-3.21499E-14
 -1      3056 1.23672E-02 7.09377E-03-3.27909E-14
 -1      3057 1.22435E-02 6.97409E-03-3.13211E-14
 -1      3058 1.25101E-02 7.19830E-03-3.34372E-14
 -1      3059 1.26530E-02 7.30283E-03-3.40888E-14
 -1      3060 1.25292E-02 7.18315E-03-3.25908E-14
 -1      3061 1.27958E-02 7.40736E-03-3.47445E-14
 -1      3062 1.29387E-02 7.51189E-03-3.54033E-14
 -1      3063 1.28149E-02 7.39221E-03-3.38828E-14
 -1      3064 1.30554E-02 7.59981E-03-3.60273E-14
 -1      3065 1.31983E-02 7.70434E-03-3.66942E-14
 -1      3066 1.33081E-02 7.76052E-03-3.63992E-14
 -1      3067 1.30745E-02 7.58466E-03-3.51535E-14
 -1      3068 1.41853E-02 8.14278E-03-3.17896E-14
 -1      3069 1.42881E-02 8.18492E-03-3.11632E-14
 -1      3070 6.19307E-03 1.88577E-03-8.59542E-16
 -1      3071 6.08140E-03 1.79166E-03-7.21062E-16
 -1      3072 6.17732E-03 1.91508E-03-1.13931E-15
 -1      3073 6.96209E-03 2.49465E-03-1.88152E-15
 -1      3074 6.82634E-03 2.38993E-03-1.68798E-15
 -1      3075 7.23810E-03 2.70520E-03-2.29669E-15
 -1      3076 7.09940E-03 2.59971E-03-2.08449E-15
 -1      3077 6.94636E-03 2.51591E-03-2.23045E-15
 -1      3078 7.51823E-03 2.91652E-03-2.74454E-15
 -1      3079 7.37774E-03 2.81078E-03-2.51638E-15
 -1      3080 7.22165E-03 2.72473E-03-2.66677E-15
 -1      3081 7.80081E-03 3.12796E-03-3.22702E-15
 -1      3082 7.65927E-03 3.02224E-03-2.98213E-15
 -1      3083 7.50111E-03 2.93478E-03-3.13452E-15
 -1      3084 8.08483E-03 3.33923E-03-3.74193E-15
 -1      3085 7.94268E-03 3.23362E-03-3.48071E-15
 -1      3086 7.78315E-03 3.14532E-03-3.63701E-15
 -1      3087 8.36968E-03 3.55020E-03-4.28462E-15
 -1      3088 8.22717E-03 3.44475E-03-4.00934E-15
 -1      3089 8.06674E-03 3.35594E-03-4.17217E-15
 -1      3090 8.65497E-03 3.76085E-03-4.86113E-15
 -1      3091 8.51228E-03 3.65557E-03-4.56895E-15
 -1      3092 8.35126E-03 3.56646E-03-4.73639E-15
 -1      3093 8.94051E-03 3.97120E-03-5.46877E-15
 -1      3094 8.79772E-03 3.86606E-03-5.16067E-15
 -1      3095 8.63632E-03 3.77679E-03-5.33316E-15
 -1      3096 9.22617E-03 4.18130E-03-6.11380E-15
 -1      3097 9.08333E-03 4.07628E-03-5.78790E-15
 -1      3098 8.92170E-03 3.98692E-03-5.96262E-15
 -1      3099 9.51190E-03 4.39117E-03-6.79215E-15
 -1      3100 9.36903E-03 4.28626E-03-6.44802E-15
 -1      3101 9.20725E-03 4.19685E-03-6.62727E-15
 -1      3102 9.79764E-03 4.60086E-03-7.50889E-15
 -1      3103 9.65477E-03 4.49603E-03-7.14583E-15
 -1      3104 9.49289E-03 4.40661E-03-7.32785E-15
 -1      3105 1.00834E-02 4.81040E-03-8.25964E-15
 -1      3106 9.94052E-03 4.70564E-03-7.88126E-15
 -1      3107 9.77859E-03 4.61622E-03-8.06610E-15
 -1      3108 1.03691E-02 5.01982E-03-9.04101E-15
 -1      3109 1.02263E-02 4.91513E-03-8.64535E-15
 -1      3110 1.00643E-02 4.82570E-03-8.83665E-15
 -1      3111 1.06549E-02 5.22916E-03-9.84796E-15
 -1      3112 1.05120E-02 5.12450E-03-9.44072E-15
 -1      3113 1.03500E-02 5.03509E-03-9.63484E-15
 -1      3114 1.09406E-02 5.43842E-03-1.06788E-14
 -1      3115 1.07978E-02 5.33380E-03-1.02607E-14
 -1      3116 1.06358E-02 5.24439E-03-1.04604E-14
 -1      3117 1.12264E-02 5.64763E-03-1.15304E-14
 -1      3118 1.10835E-02 5.54303E-03-1.11031E-14
 -1      3119 1.09215E-02 5.45363E-03-1.13069E-14
 -1      3120 1.15121E-02 5.85679E-03-1.23983E-14
 -1      3121 1.13692E-02 5.75221E-03-1.19637E-14
 -1      3122 1.12072E-02 5.66281E-03-1.21747E-14
 -1      3123 1.17978E-02 6.06592E-03-1.32836E-14
 -1      3124 1.16549E-02 5.96136E-03-1.28361E-14
 -1      3125 1.14930E-02 5.87197E-03-1.30563E-14
 -1      3126 1.20835E-02 6.27503E-03-1.41931E-14
 -1      3127 1.19407E-02 6.17048E-03-1.37364E-14
 -1      3128 1.17787E-02 6.08109E-03-1.39556E-14
 -1      3129 1.23692E-02 6.48412E-03-1.51273E-14
 -1      3130 1.22264E-02 6.37957E-03-1.46572E-14
 -1      3131 1.20644E-02 6.29019E-03-1.48815E-14
 -1      3132 1.26550E-02 6.69319E-03-1.60914E-14
 -1      3133 1.25121E-02 6.58866E-03-1.56045E-14
 -1      3134 1.23501E-02 6.49927E-03-1.58340E-14
 -1      3135 1.29407E-02 6.90226E-03-1.70819E-14
 -1      3136 1.27978E-02 6.79773E-03-1.65844E-14
 -1      3137 1.26359E-02 6.70835E-03-1.68149E-14
 -1      3138 1.32264E-02 7.11132E-03-1.80977E-14
 -1      3139 1.30835E-02 7.00679E-03-1.75864E-14
 -1      3140 1.29216E-02 6.91741E-03-1.78207E-14
 -1      3141 1.35121E-02 7.32038E-03-1.91308E-14
 -1      3142 1.33693E-02 7.21585E-03-1.86133E-14
 -1      3143 1.32073E-02 7.12647E-03-1.88519E-14
 -1      3144 1.37978E-02 7.52944E-03-2.01841E-14
 -1      3145 1.36550E-02 7.42491E-03-1.96556E-14
 -1      3146 1.34930E-02 7.33553E-03-1.99012E-14
 -1      3147 1.40835E-02 7.73849E-03-2.12427E-14
 -1      3148 1.39407E-02 7.63397E-03-2.07103E-14
 -1      3149 1.37787E-02 7.54459E-03-2.09610E-14
 -1      3150 1.43693E-02 7.94755E-03-2.23221E-14
 -1      3151 1.42264E-02 7.84302E-03-2.17816E-14
 -1      3152 1.40644E-02 7.75364E-03-2.20349E-14
 -1      3153 1.46550E-02 8.15660E-03-2.34129E-14
 -1      3154 1.45121E-02 8.05207E-03-2.28654E-14
 -1      3155 1.43502E-02 7.96270E-03-2.31270E-14
 -1      3156 1.43908E-02 8.22707E-03-3.05366E-14
 -1      3157 1.44936E-02 8.26921E-03-2.99143E-14
 -1      3158 1.42157E-02 8.11547E-03-3.03264E-14
 -1      3159 3.48968E-03 5.60211E-04-1.17754E-15
 -1      3160 3.27449E-03 4.16288E-04-1.15276E-15
 -1      3161 5.77316E-03 1.50740E-03-2.91901E-16
 -1      3162 5.67539E-03 1.48775E-03-4.80918E-16
 -1      3163 5.83530E-03 1.57512E-03-4.09618E-16
 -1      3164 1.35720E-02 7.89134E-03-3.55423E-14
 -1      3165 1.36748E-02 7.93348E-03-3.49119E-14
 -1      3166 1.58566E-03 2.32347E-05-2.65182E-16
 -1      3167 1.42960E-03 8.83301E-05-2.03085E-16
 -1      3168 6.69283E-03 2.28615E-03-1.50341E-15
 -1      3169 6.56188E-03 2.18313E-03-1.32746E-15
 -1      3170 6.67773E-03 2.30965E-03-1.82947E-15
 -1      3171 1.37776E-02 7.97563E-03-3.42827E-14
 -1      3172 1.38804E-02 8.01777E-03-3.36517E-14
 -1      3173 1.36025E-02 7.86403E-03-3.40372E-14
 -1      3174 8.59505E-04-2.32742E-04-3.10190E-16
 -1      3175 8.48691E-04-2.59571E-04-3.30031E-16
 -1      3176 9.54188E-04-2.81414E-04-3.98688E-16
 -1      3177 1.00169E-03-2.38421E-04-3.74592E-16
 -1      3178 1.39823E-02 8.05956E-03-3.30272E-14
 -1      3179 1.40834E-02 8.10099E-03-3.24099E-14
 -1      3180 1.40110E-02 8.03154E-03-3.15600E-14
 -1      3181 1.38072E-02 7.94797E-03-3.27927E-14
 -1      3182 1.21240E-03 1.47076E-04-1.44687E-16
 -1      3183 3.01569E-03 2.46070E-04-1.07692E-15
 -1      3184 2.84499E-03 1.35639E-04-9.95989E-16
 -1      3185 4.88845E-03 1.30421E-03-1.08617E-15
 -1      3186 4.63362E-03 1.20427E-03-1.16420E-15
 -1      3187 1.49458E-02 8.44857E-03-2.69944E-14
 -1      3188 1.50799E-02 8.49742E-03-2.59921E-14
 -1      3189 1.49475E-02 8.39732E-03-2.53705E-14
 -1      3190 4.37035E-03 1.07986E-03-1.19757E-15
 -1      3191 4.17292E-03 9.77567E-04-1.22055E-15
 -1      3192 5.58710E-03 1.47173E-03-5.90822E-16
 -1      3193 5.47015E-03 1.46180E-03-7.37305E-16
 -1      3194 5.40921E-03 1.48327E-03-9.35951E-16
 -1      3195 5.63559E-03 1.53059E-03-7.19687E-16
 -1      3196 3.91327E-03 8.30918E-04-1.23501E-15
 -1      3197 3.69716E-03 6.94812E-04-1.20800E-15
 -1      3198 3.59531E-03 6.42862E-04-1.34316E-15
 -1      3199 1.23321E-03 9.84139E-05-1.69827E-16
 -1      3200 2.07268E-03-1.10385E-04-5.50748E-16
 -1      3201 1.95258E-03-1.08640E-04-5.11079E-16
 -1      3202 2.13280E-03-1.15832E-04-6.35004E-16
 -1      3203 5.04022E-03 1.37900E-03-1.17072E-15
 -1      3204 1.73700E-03-7.12928E-05-3.91736E-16
 -1      3205 1.67024E-03-2.82738E-05-3.26006E-16
 -1      3206 1.52436E-03-9.10522E-06-2.88479E-16
 -1      3207 1.47410E-02 8.36464E-03-2.82296E-14
 -1      3208 1.48434E-02 8.40660E-03-2.76101E-14
 -1      3209 1.47110E-02 8.30651E-03-2.69775E-14
 -1      3210 3.14451E-03 3.42461E-04-1.22465E-15
 -1      3211 1.05952E-03-2.99927E-04-4.73986E-16
 -1      3212 4.03846E-03 9.14807E-04-1.36912E-15
 -1      3213 1.48674E-02 8.32701E-03-2.46937E-14
 -1      3214 1.47351E-02 8.22691E-03-2.40791E-14
 -1      3215 1.45731E-02 8.13753E-03-2.43394E-14
 -1      3216 1.47333E-02 8.27816E-03-2.56855E-14
 -1      3217 1.27170E-03 3.74844E-05-2.10200E-16
 -1      3218 1.15429E-03-2.79709E-04-5.00725E-16
 -1      3219 1.45662E-02 8.29594E-03-2.93800E-14
 -1      3220 1.46685E-02 8.33791E-03-2.87615E-14
 -1      3221 1.45361E-02 8.23781E-03-2.81179E-14
 -1      3222 1.43911E-02 8.18435E-03-2.91760E-14
 -1      3223 6.41954E-03 2.10821E-03-1.46580E-15
 -1      3224 2.73138E-03 7.60441E-05-9.73749E-16
 -1      3225 2.62480E-03 2.50491E-05-9.50168E-16
 -1      3226 2.79211E-03 1.24750E-04-1.11493E-15
 -1      3227 1.19969E-03-1.82031E-04-3.91248E-16
 -1      3228 1.17516E-03-2.16607E-04-4.25021E-16
 -1      3229 5.98960E-03 1.71661E-03-6.27035E-16
 -1      3230 5.91284E-03 1.64169E-03-4.92201E-16
 -1      3231 5.79947E-03 1.61081E-03-6.94547E-16
 -1      3232 5.97005E-03 1.74857E-03-8.86498E-16
 -1      3233 4.54186E-03 1.17826E-03-1.32723E-15
 -1      3234 1.24366E-03-1.07887E-04-3.21276E-16
 -1      3235 1.22309E-03-1.46407E-04-3.56906E-16
 -1      3236 1.35518E-03-1.79323E-04-4.50784E-16
 -1      3237 1.34837E-03-1.21142E-05-2.59233E-16
 -1      3238 1.34301E-03-5.89943E-05-2.98969E-16
 -1      3239 1.33852E-02 7.79784E-03-3.61210E-14
 -1      3240 1.34949E-02 7.85401E-03-3.58241E-14
 -1      3241 1.34226E-02 7.78456E-03-3.49418E-14
 -1      3242 1.32684E-02 7.70992E-03-3.54983E-14
 -1      3243 1.81267E-03-1.01355E-04-4.60745E-16
 -1      3244 1.67225E-03-9.00860E-05-4.12268E-16
 -1      3245 1.87885E-03-1.23116E-04-5.35515E-16
 -1      3246 5.20009E-03 1.46085E-03-1.27752E-15
 -1      3247 4.96864E-03 1.38189E-03-1.40674E-15
 -1      3248 1.43421E-03-2.64453E-04-6.48543E-16
 -1      3249 1.58757E-03-2.63399E-04-7.70583E-16
 -1      3250 1.73913E-03-2.52579E-04-9.02422E-16
 -1      3251 1.88960E-03-2.30112E-04-1.04364E-15
 -1      3252 1.69625E-03-2.34015E-04-7.86697E-16
 -1      3253 2.03878E-03-1.95580E-04-1.19360E-15
 -1      3254 2.18796E-03-1.48480E-04-1.35245E-15
 -1      3255 2.00268E-03-1.91031E-04-1.05603E-15
 -1      3256 2.33715E-03-8.90597E-05-1.52066E-15
 -1      3257 2.48759E-03-1.82892E-05-1.69743E-15
 -1      3258 2.30640E-03-9.53829E-05-1.36055E-15
 -1      3259 2.63906E-03 6.26387E-05-1.88277E-15
 -1      3260 2.79246E-03 1.52071E-04-2.07684E-15
 -1      3261 2.61310E-03 5.06798E-05-1.70045E-15
 -1      3262 2.94743E-03 2.48583E-04-2.27899E-15
 -1      3263 3.10388E-03 3.49918E-04-2.48911E-15
 -1      3264 2.92720E-03 2.36069E-04-2.07407E-15
 -1      3265 3.26141E-03 4.54977E-04-2.70771E-15
 -1      3266 3.41939E-03 5.62123E-04-2.93530E-15
 -1      3267 3.24805E-03 4.44328E-04-2.48060E-15
 -1      3268 3.57755E-03 6.70561E-04-3.17017E-15
 -1      3269 3.73518E-03 7.79435E-04-3.41291E-15
 -1      3270 3.57164E-03 6.61994E-04-2.91974E-15
 -1      3271 3.89220E-03 8.88273E-04-3.66360E-15
 -1      3272 4.04806E-03 9.96762E-04-3.92171E-15
 -1      3273 3.89330E-03 8.80786E-04-3.39132E-15
 -1      3274 4.20283E-03 1.10467E-03-4.18734E-15
 -1      3275 4.35618E-03 1.21203E-03-4.46053E-15
 -1      3276 4.20981E-03 1.09710E-03-3.89252E-15
 -1      3277 4.50831E-03 1.31874E-03-4.74172E-15
 -1      3278 4.65907E-03 1.42494E-03-5.02988E-15
 -1      3279 4.51978E-03 1.31025E-03-4.42481E-15
 -1      3280 4.80868E-03 1.53061E-03-5.32624E-15
 -1      3281 4.95713E-03 1.63591E-03-5.62990E-15
 -1      3282 4.82334E-03 1.52082E-03-4.98722E-15
 -1      3283 5.10463E-03 1.74084E-03-5.94007E-15
 -1      3284 5.25123E-03 1.84553E-03-6.25857E-15
 -1      3285 5.12142E-03 1.72971E-03-5.58093E-15
 -1      3286 5.39711E-03 1.94998E-03-6.58455E-15
 -1      3287 5.54233E-03 2.05430E-03-6.91707E-15
 -1      3288 5.41522E-03 1.93768E-03-6.20496E-15
 -1      3289 5.68705E-03 2.15849E-03-7.25628E-15
 -1      3290 5.83131E-03 2.26262E-03-7.60317E-15
 -1      3291 5.70592E-03 2.14526E-03-6.85777E-15
 -1      3292 5.97523E-03 2.36668E-03-7.95779E-15
 -1      3293 6.11886E-03 2.47072E-03-8.32112E-15
 -1      3294 5.99450E-03 2.35276E-03-7.53999E-15
 -1      3295 6.26227E-03 2.57475E-03-8.69205E-15
 -1      3296 6.40550E-03 2.67878E-03-9.07045E-15
 -1      3297 6.28171E-03 2.56034E-03-8.25422E-15
 -1      3298 6.54861E-03 2.78282E-03-9.45911E-15
 -1      3299 6.69161E-03 2.88688E-03-9.85411E-15
 -1      3300 6.56809E-03 2.76810E-03-9.00052E-15
 -1      3301 6.83454E-03 2.99096E-03-1.02566E-14
 -1      3302 6.97741E-03 3.09507E-03-1.06679E-14
 -1      3303 6.85399E-03 2.97604E-03-9.77884E-15
 -1      3304 7.12026E-03 3.19921E-03-1.10874E-14
 -1      3305 7.26308E-03 3.30337E-03-1.15147E-14
 -1      3306 7.13965E-03 3.18417E-03-1.05885E-14
 -1      3307 7.40588E-03 3.40756E-03-1.19509E-14
 -1      3308 7.54868E-03 3.51179E-03-1.23967E-14
 -1      3309 7.42520E-03 3.39246E-03-1.14315E-14
 -1      3310 7.69147E-03 3.61603E-03-1.28517E-14
 -1      3311 7.83427E-03 3.72031E-03-1.33138E-14
 -1      3312 7.71073E-03 3.60089E-03-1.23100E-14
 -1      3313 7.97707E-03 3.82461E-03-1.37845E-14
 -1      3314 8.11988E-03 3.92893E-03-1.42651E-14
 -1      3315 7.99628E-03 3.80946E-03-1.32241E-14
 -1      3316 8.26269E-03 4.03328E-03-1.47519E-14
 -1      3317 8.40551E-03 4.13765E-03-1.52485E-14
 -1      3318 8.28185E-03 4.01812E-03-1.41689E-14
 -1      3319 8.54834E-03 4.24203E-03-1.57530E-14
 -1      3320 8.69117E-03 4.34643E-03-1.62621E-14
 -1      3321 8.56746E-03 4.22687E-03-1.51479E-14
 -1      3322 8.83400E-03 4.45085E-03-1.67790E-14
 -1      3323 8.97684E-03 4.55528E-03-1.73000E-14
 -1      3324 8.85311E-03 4.43570E-03-1.61565E-14
 -1      3325 9.11968E-03 4.65973E-03-1.78272E-14
 -1      3326 9.26253E-03 4.76418E-03-1.83596E-14
 -1      3327 9.13878E-03 4.64458E-03-1.71884E-14
 -1      3328 9.40538E-03 4.86865E-03-1.88937E-14
 -1      3329 9.54824E-03 4.97313E-03-1.94334E-14
 -1      3330 9.42446E-03 4.85350E-03-1.82391E-14
 -1      3331 9.69109E-03 5.07761E-03-1.99772E-14
 -1      3332 9.83395E-03 5.18210E-03-2.05260E-14
 -1      3333 9.71017E-03 5.06246E-03-1.93057E-14
 -1      3334 9.97681E-03 5.28660E-03-2.10785E-14
 -1      3335 1.01197E-02 5.39110E-03-2.16344E-14
 -1      3336 9.99588E-03 5.27145E-03-2.03898E-14
 -1      3337 1.02625E-02 5.49561E-03-2.21974E-14
 -1      3338 1.04054E-02 5.60012E-03-2.27636E-14
 -1      3339 1.02816E-02 5.48046E-03-2.14908E-14
 -1      3340 1.05482E-02 5.70463E-03-2.33349E-14
 -1      3341 1.06911E-02 5.80915E-03-2.39125E-14
 -1      3342 1.05673E-02 5.68949E-03-2.26134E-14
 -1      3343 1.08340E-02 5.91367E-03-2.44930E-14
 -1      3344 1.09768E-02 6.01819E-03-2.50745E-14
 -1      3345 1.08530E-02 5.89852E-03-2.37539E-14
 -1      3346 1.11197E-02 6.12271E-03-2.56613E-14
 -1      3347 1.12625E-02 6.22724E-03-2.62512E-14
 -1      3348 1.11388E-02 6.10757E-03-2.49075E-14
 -1      3349 1.14054E-02 6.33177E-03-2.68454E-14
 -1      3350 1.15483E-02 6.43629E-03-2.74436E-14
 -1      3351 1.14245E-02 6.31662E-03-2.60769E-14
 -1      3352 1.16911E-02 6.54082E-03-2.80447E-14
 -1      3353 1.18340E-02 6.64535E-03-2.86533E-14
 -1      3354 1.17102E-02 6.52567E-03-2.72630E-14
 -1      3355 1.19768E-02 6.74988E-03-2.92659E-14
 -1      3356 1.21197E-02 6.85441E-03-2.98798E-14
 -1      3357 1.19959E-02 6.73473E-03-2.84658E-14
 -1      3358 1.22626E-02 6.95894E-03-3.05011E-14
 -1      3359 1.24054E-02 7.06347E-03-3.11252E-14
 -1      3360 1.22817E-02 6.94379E-03-2.96883E-14
 -1      3361 1.25483E-02 7.16800E-03-3.17545E-14
 -1      3362 1.26911E-02 7.27253E-03-3.23887E-14
 -1      3363 1.25674E-02 7.15285E-03-3.09242E-14
 -1      3364 1.28340E-02 7.37706E-03-3.30283E-14
 -1      3365 1.29769E-02 7.48159E-03-3.36738E-14
 -1      3366 1.28531E-02 7.36191E-03-3.21817E-14
 -1      3367 1.49148E-03-1.00747E-04-3.83984E-16
 -1      3368 7.48321E-03 2.95281E-03-3.53000E-15
 -1      3369 7.34316E-03 2.84818E-03-3.28202E-15
 -1      3370 7.20391E-03 2.74388E-03-3.04113E-15
 -1      3371 7.06562E-03 2.63990E-03-2.80841E-15
 -1      3372 7.18518E-03 2.76243E-03-3.42171E-15
 -1      3373 6.92857E-03 2.53655E-03-2.58569E-15
 -1      3374 6.79302E-03 2.43381E-03-2.36927E-15
 -1      3375 6.90929E-03 2.55626E-03-2.94557E-15
 -1      3376 7.76500E-03 3.16253E-03-4.05265E-15
 -1      3377 7.62385E-03 3.05759E-03-3.78679E-15
 -1      3378 7.46465E-03 2.97047E-03-3.93143E-15
 -1      3379 8.04836E-03 3.37256E-03-4.60705E-15
 -1      3380 7.90652E-03 3.26752E-03-4.32690E-15
 -1      3381 7.74644E-03 3.17951E-03-4.47365E-15
 -1      3382 8.33268E-03 3.58267E-03-5.19276E-15
 -1      3383 8.19042E-03 3.47761E-03-4.89581E-15
 -1      3384 8.02972E-03 3.38905E-03-5.04813E-15
 -1      3385 8.61758E-03 3.79270E-03-5.80918E-15
 -1      3386 8.47507E-03 3.68770E-03-5.49696E-15
 -1      3387 8.31394E-03 3.59879E-03-5.65265E-15
 -1      3388 8.90284E-03 4.00262E-03-6.46080E-15
 -1      3389 8.76017E-03 3.89768E-03-6.13027E-15
 -1      3390 8.59874E-03 3.80856E-03-6.29217E-15
 -1      3391 9.18830E-03 4.21240E-03-7.14592E-15
 -1      3392 9.04555E-03 4.10753E-03-6.80037E-15
 -1      3393 8.88392E-03 4.01829E-03-6.96414E-15
 -1      3394 9.47388E-03 4.42205E-03-7.87005E-15
 -1      3395 9.33108E-03 4.31724E-03-7.50413E-15
 -1      3396 9.16932E-03 4.22793E-03-7.67230E-15
 -1      3397 9.75953E-03 4.63158E-03-8.62797E-15
 -1      3398 9.61670E-03 4.52683E-03-8.24313E-15
 -1      3399 9.45485E-03 4.43748E-03-8.41657E-15
 -1      3400 1.00452E-02 4.84100E-03-9.41731E-15
 -1      3401 9.90237E-03 4.73630E-03-9.01883E-15
 -1      3402 9.74047E-03 4.64693E-03-9.19355E-15
 -1      3403 1.03309E-02 5.05034E-03-1.02349E-14
 -1      3404 1.01881E-02 4.94568E-03-9.82270E-15
 -1      3405 1.00261E-02 4.85630E-03-1.00032E-14
 -1      3406 1.06167E-02 5.25961E-03-1.10769E-14
 -1      3407 1.04738E-02 5.15499E-03-1.06528E-14
 -1      3408 1.03118E-02 5.06560E-03-1.08394E-14
 -1      3409 1.09024E-02 5.46883E-03-1.19407E-14
 -1      3410 1.07595E-02 5.36423E-03-1.15063E-14
 -1      3411 1.05976E-02 5.27484E-03-1.16976E-14
 -1      3412 1.11881E-02 5.67800E-03-1.28207E-14
 -1      3413 1.10452E-02 5.57342E-03-1.23780E-14
 -1      3414 1.08833E-02 5.48403E-03-1.25773E-14
 -1      3415 1.14738E-02 5.88714E-03-1.37168E-14
 -1      3416 1.13310E-02 5.78257E-03-1.32688E-14
 -1      3417 1.11690E-02 5.69318E-03-1.34715E-14
 -1      3418 1.17596E-02 6.09625E-03-1.46331E-14
 -1      3419 1.16167E-02 5.99170E-03-1.41714E-14
 -1      3420 1.14547E-02 5.90231E-03-1.43845E-14
 -1      3421 1.20453E-02 6.30535E-03-1.55766E-14
 -1      3422 1.19024E-02 6.20080E-03-1.51020E-14
 -1      3423 1.17405E-02 6.11141E-03-1.53164E-14
 -1      3424 1.23310E-02 6.51443E-03-1.65453E-14
 -1      3425 1.21882E-02 6.40989E-03-1.60583E-14
 -1      3426 1.20262E-02 6.32050E-03-1.62766E-14
 -1      3427 1.26167E-02 6.72350E-03-1.75443E-14
 -1      3428 1.24739E-02 6.61896E-03-1.70402E-14
 -1      3429 1.23119E-02 6.52958E-03-1.72645E-14
 -1      3430 1.29025E-02 6.93256E-03-1.85664E-14
 -1      3431 1.27596E-02 6.82803E-03-1.80527E-14
 -1      3432 1.25976E-02 6.73865E-03-1.82778E-14
 -1      3433 1.31882E-02 7.14162E-03-1.96089E-14
 -1      3434 1.30453E-02 7.03709E-03-1.90844E-14
 -1      3435 1.28834E-02 6.94771E-03-1.93153E-14
 -1      3436 1.34739E-02 7.35068E-03-2.06709E-14
 -1      3437 1.33310E-02 7.24615E-03-2.01369E-14
 -1      3438 1.31691E-02 7.15677E-03-2.03696E-14
 -1      3439 1.37596E-02 7.55973E-03-2.17412E-14
 -1      3440 1.36168E-02 7.45521E-03-2.12064E-14
 -1      3441 1.34548E-02 7.36583E-03-2.14420E-14
 -1      3442 1.40453E-02 7.76879E-03-2.28302E-14
 -1      3443 1.39025E-02 7.66426E-03-2.22822E-14
 -1      3444 1.37405E-02 7.57488E-03-2.25278E-14
 -1      3445 1.43311E-02 7.97784E-03-2.39300E-14
 -1      3446 1.41882E-02 7.87332E-03-2.33808E-14
 -1      3447 1.40262E-02 7.78394E-03-2.36267E-14
 -1      3448 6.39951E-03 2.13303E-03-1.77588E-15
 -1      3449 6.27451E-03 2.03614E-03-1.59692E-15
 -1      3450 1.40406E-02 8.00388E-03-3.01130E-14
 -1      3451 1.41434E-02 8.04602E-03-2.94995E-14
 -1      3452 1.34274E-02 7.75244E-03-3.37901E-14
 -1      3453 1.35302E-02 7.79458E-03-3.31706E-14
 -1      3454 1.18175E-03-2.57194E-04-4.83988E-16
 -1      3455 3.26577E-03 4.36660E-04-1.41879E-15
 -1      3456 3.02680E-03 2.78255E-04-1.32656E-15
 -1      3457 4.18006E-03 1.00679E-03-1.52528E-15
 -1      3458 3.94446E-03 8.71014E-04-1.53261E-15
 -1      3459 4.66818E-03 1.25344E-03-1.47924E-15
 -1      3460 4.42736E-03 1.13767E-03-1.50711E-15
 -1      3461 6.65937E-03 2.33220E-03-2.16243E-15
 -1      3462 6.52803E-03 2.23166E-03-1.96443E-15
 -1      3463 6.63880E-03 2.35331E-03-2.50117E-15
 -1      3464 2.47012E-03-4.04472E-05-8.70845E-16
 -1      3465 2.32109E-03-8.65599E-05-7.94124E-16
 -1      3466 2.53347E-03-5.36239E-06-1.00108E-15
 -1      3467 3.69441E-03 7.17180E-04-1.51100E-15
 -1      3468 3.50601E-03 5.94057E-04-1.47094E-15
 -1      3469 6.15357E-03 1.94234E-03-1.42577E-15
 -1      3470 6.03793E-03 1.85114E-03-1.26479E-15
 -1      3471 6.12541E-03 1.96654E-03-1.71995E-15
 -1      3472 5.38446E-03 1.51723E-03-1.16063E-15
 -1      3473 5.32334E-03 1.53108E-03-1.40956E-15
 -1      3474 2.20478E-03-1.11574E-04-7.44007E-16
 -1      3475 2.09008E-03-1.27700E-04-6.94865E-16
 -1      3476 2.27069E-03-9.74399E-05-8.61412E-16
 -1      3477 5.93906E-03 1.77752E-03-1.15213E-15
 -1      3478 5.84525E-03 1.70657E-03-1.04451E-15
 -1      3479 5.90219E-03 1.80251E-03-1.42480E-15
 -1      3480 1.30642E-02 7.55179E-03-3.42750E-14
 -1      3481 1.31810E-02 7.63972E-03-3.48898E-14
 -1      3482 1.32581E-02 7.67704E-03-3.46151E-14
 -1      3483 1.30833E-02 7.53664E-03-3.34132E-14
 -1      3484 1.45286E-02 8.19423E-03-2.69030E-14
 -1      3485 1.46309E-02 8.23619E-03-2.62953E-14
 -1      3486 1.45508E-02 8.16588E-03-2.56171E-14
 -1      3487 1.44111E-02 8.04816E-03-2.45959E-14
 -1      3488 6.37632E-03 2.15572E-03-2.09290E-15
 -1      3489 1.40408E-02 7.96116E-03-2.87666E-14
 -1      3490 1.42159E-02 8.07276E-03-2.89718E-14
 -1      3491 1.42885E-02 8.09949E-03-2.84460E-14
 -1      3492 1.34570E-02 7.72478E-03-3.23201E-14
 -1      3493 1.36321E-02 7.83637E-03-3.25591E-14
 -1      3494 1.37340E-02 7.87816E-03-3.19463E-14
 -1      3495 4.85721E-03 1.35141E-03-1.60162E-15
 -1      3496 2.91314E-03 2.08265E-04-1.29760E-15
 -1      3497 2.80560E-03 1.44958E-04-1.26703E-15
 -1      3498 3.03326E-03 2.92669E-04-1.49320E-15
 -1      3499 3.37008E-03 5.11644E-04-1.58707E-15
 -1      3500 1.33352E-02 7.71436E-03-3.43369E-14
 -1      3501 5.77562E-03 1.64692E-03-9.25943E-16
 -1      3502 5.69310E-03 1.58312E-03-8.29069E-16
 -1      3503 5.59081E-03 1.56087E-03-9.41989E-16
 -1      3504 5.72700E-03 1.67204E-03-1.18139E-15
 -1      3505 1.32977E-03-2.51863E-04-5.57402E-16
 -1      3506 1.32629E-02 7.64491E-03-3.34693E-14
 -1      3507 3.84343E-03 8.15563E-04-1.67265E-15
 -1      3508 1.38364E-02 7.92012E-03-3.13313E-14
 -1      3509 1.39383E-02 7.96191E-03-3.07236E-14
 -1      3510 1.38659E-02 7.89246E-03-2.98932E-14
 -1      3511 1.36612E-02 7.80853E-03-3.11046E-14
 -1      3512 4.32424E-03 1.09348E-03-1.68459E-15
 -1      3513 1.43488E-03-2.27865E-04-5.74708E-16
 -1      3514 1.46628E-03-1.96471E-04-5.30351E-16
 -1      3515 1.57523E-03-2.08443E-04-6.16816E-16
 -1      3516 1.49683E-03-1.64065E-04-4.84787E-16
 -1      3517 5.50906E-03 1.54788E-03-1.05321E-15
 -1      3518 1.31755E-02 7.57471E-03-3.28754E-14
 -1      3519 1.55971E-03-1.30650E-04-4.48372E-16
 -1      3520 1.96481E-03-1.85314E-04-9.25868E-16
 -1      3521 2.11985E-03-1.51263E-04-1.06272E-15
 -1      3522 2.27356E-03-1.02787E-04-1.20871E-15
 -1      3523 2.42878E-03-3.95384E-05-1.36318E-15
 -1      3524 2.23997E-03-1.09744E-04-1.06424E-15
 -1      3525 2.67948E-03 8.79189E-05-1.50318E-15
 -1      3526 2.84289E-03 1.82935E-04-1.67158E-15
 -1      3527 3.23326E-03 4.33728E-04-2.26113E-15
 -1      3528 3.39892E-03 5.43686E-04-2.46526E-15
 -1      3529 3.56500E-03 6.54548E-04-2.67772E-15
 -1      3530 3.73013E-03 7.65146E-04-2.89798E-15
 -1      3531 3.55789E-03 6.47664E-04-2.44315E-15
 -1      3532 3.89432E-03 8.75021E-04-3.12634E-15
 -1      3533 4.05656E-03 9.83775E-04-3.36219E-15
 -1      3534 3.89553E-03 8.70713E-04-2.86921E-15
 -1      3535 4.21710E-03 1.09135E-03-3.60534E-15
 -1      3536 4.37539E-03 1.19788E-03-3.85599E-15
 -1      3537 4.22500E-03 1.08745E-03-3.32606E-15
 -1      3538 4.53175E-03 1.30339E-03-4.11501E-15
 -1      3539 4.68601E-03 1.40820E-03-4.38190E-15
 -1      3540 4.54450E-03 1.29828E-03-3.81330E-15
 -1      3541 4.83852E-03 1.51235E-03-4.65586E-15
 -1      3542 4.98930E-03 1.61614E-03-4.93815E-15
 -1      3543 4.85447E-03 1.50531E-03-4.33194E-15
 -1      3544 5.13865E-03 1.71957E-03-5.22908E-15
 -1      3545 5.28670E-03 1.82289E-03-5.52667E-15
 -1      3546 5.15655E-03 1.71050E-03-4.88300E-15
 -1      3547 5.43368E-03 1.92607E-03-5.83234E-15
 -1      3548 5.57975E-03 2.02928E-03-6.14596E-15
 -1      3549 5.45267E-03 1.91521E-03-5.46720E-15
 -1      3550 5.72506E-03 2.13248E-03-6.46554E-15
 -1      3551 5.86976E-03 2.23577E-03-6.79320E-15
 -1      3552 5.74459E-03 2.12019E-03-6.08037E-15
 -1      3553 6.01397E-03 2.33911E-03-7.12936E-15
 -1      3554 6.15779E-03 2.44256E-03-7.47236E-15
 -1      3555 6.03371E-03 2.32576E-03-6.72338E-15
 -1      3556 6.30130E-03 2.54610E-03-7.82269E-15
 -1      3557 6.44457E-03 2.64973E-03-8.18200E-15
 -1      3558 6.32106E-03 2.53201E-03-7.39809E-15
 -1      3559 6.58767E-03 2.75345E-03-8.54820E-15
 -1      3560 6.73064E-03 2.85726E-03-8.92355E-15
 -1      3561 6.60738E-03 2.73889E-03-8.10327E-15
 -1      3562 6.87351E-03 2.96114E-03-9.30710E-15
 -1      3563 7.01633E-03 3.06510E-03-9.69685E-15
 -1      3564 6.89312E-03 2.94627E-03-8.83957E-15
 -1      3565 7.15909E-03 3.16912E-03-1.00971E-14
 -1      3566 7.30184E-03 3.27320E-03-1.05040E-14
 -1      3567 7.17859E-03 3.15408E-03-9.61054E-15
 -1      3568 7.44457E-03 3.37733E-03-1.09185E-14
 -1      3569 7.58729E-03 3.48151E-03-1.13432E-14
 -1      3570 7.46397E-03 3.36219E-03-1.04122E-14
 -1      3571 7.73002E-03 3.58573E-03-1.17753E-14
 -1      3572 7.87276E-03 3.68999E-03-1.22193E-14
 -1      3573 7.74934E-03 3.57055E-03-1.12482E-14
 -1      3574 8.01551E-03 3.79428E-03-1.26700E-14
 -1      3575 8.15826E-03 3.89860E-03-1.31272E-14
 -1      3576 8.03475E-03 3.77908E-03-1.21207E-14
 -1      3577 8.30103E-03 4.00294E-03-1.35954E-14
 -1      3578 8.44381E-03 4.10731E-03-1.40697E-14
 -1      3579 8.32023E-03 3.98774E-03-1.30266E-14
 -1      3580 8.58661E-03 4.21170E-03-1.45526E-14
 -1      3581 8.72941E-03 4.31611E-03-1.50446E-14
 -1      3582 8.60576E-03 4.19651E-03-1.39651E-14
 -1      3583 8.87222E-03 4.42053E-03-1.55417E-14
 -1      3584 9.01504E-03 4.52497E-03-1.60451E-14
 -1      3585 8.89135E-03 4.40535E-03-1.49333E-14
 -1      3586 9.15787E-03 4.62941E-03-1.65547E-14
 -1      3587 9.30071E-03 4.73388E-03-1.70702E-14
 -1      3588 9.17698E-03 4.61424E-03-1.59284E-14
 -1      3589 9.44355E-03 4.83835E-03-1.75895E-14
 -1      3590 9.58640E-03 4.94282E-03-1.81124E-14
 -1      3591 9.46264E-03 4.82318E-03-1.69455E-14
 -1      3592 9.72925E-03 5.04731E-03-1.86396E-14
 -1      3593 9.87210E-03 5.15180E-03-1.91712E-14
 -1      3594 9.74833E-03 5.03215E-03-1.79808E-14
 -1      3595 1.00150E-02 5.25630E-03-1.97058E-14
 -1      3596 1.01578E-02 5.36080E-03-2.02473E-14
 -1      3597 1.00340E-02 5.24115E-03-1.90307E-14
 -1      3598 1.03007E-02 5.46531E-03-2.07943E-14
 -1      3599 1.04435E-02 5.56982E-03-2.13436E-14
 -1      3600 1.03197E-02 5.45016E-03-2.01007E-14
 -1      3601 1.05864E-02 5.67434E-03-2.18981E-14
 -1      3602 1.07293E-02 5.77886E-03-2.24571E-14
 -1      3603 1.06055E-02 5.65919E-03-2.11898E-14
 -1      3604 1.08721E-02 5.88338E-03-2.30210E-14
 -1      3605 1.10150E-02 5.98790E-03-2.35880E-14
 -1      3606 1.08912E-02 5.86823E-03-2.22960E-14
 -1      3607 1.11578E-02 6.09242E-03-2.41610E-14
 -1      3608 1.13007E-02 6.19695E-03-2.47361E-14
 -1      3609 1.11769E-02 6.07727E-03-2.34206E-14
 -1      3610 1.14436E-02 6.30147E-03-2.53161E-14
 -1      3611 1.15864E-02 6.40600E-03-2.59004E-14
 -1      3612 1.14627E-02 6.28632E-03-2.45604E-14
 -1      3613 1.17293E-02 6.51053E-03-2.64873E-14
 -1      3614 1.18722E-02 6.61505E-03-2.70785E-14
 -1      3615 1.17484E-02 6.49538E-03-2.57182E-14
 -1      3616 1.20150E-02 6.71958E-03-2.76726E-14
 -1      3617 1.21579E-02 6.82411E-03-2.82742E-14
 -1      3618 1.20341E-02 6.70444E-03-2.68894E-14
 -1      3619 1.23007E-02 6.92864E-03-2.88807E-14
 -1      3620 1.24436E-02 7.03317E-03-2.94887E-14
 -1      3621 1.23198E-02 6.91349E-03-2.80796E-14
 -1      3622 1.25865E-02 7.13770E-03-3.01029E-14
 -1      3623 1.27293E-02 7.24223E-03-3.07190E-14
 -1      3624 1.26055E-02 7.12255E-03-2.92856E-14
 -1      3625 1.28722E-02 7.34676E-03-3.13411E-14
 -1      3626 1.30150E-02 7.45129E-03-3.19699E-14
 -1      3627 1.28913E-02 7.33161E-03-3.05096E-14
 -1      3628 7.16566E-03 2.78045E-03-3.80848E-15
 -1      3629 7.02678E-03 2.67744E-03-3.55462E-15
 -1      3630 7.72753E-03 3.19628E-03-4.90069E-15
 -1      3631 7.58634E-03 3.09192E-03-4.61529E-15
 -1      3632 3.98366E-03 9.07951E-04-1.88338E-15
 -1      3633 3.75228E-03 7.64535E-04-1.85088E-15
 -1      3634 1.43088E-02 8.00619E-03-2.51981E-14
 -1      3635 7.44556E-03 2.98779E-03-4.33773E-15
 -1      3636 7.30530E-03 2.88391E-03-4.06991E-15
 -1      3637 7.14562E-03 2.79788E-03-4.20031E-15
 -1      3638 7.42611E-03 3.00472E-03-4.75055E-15
 -1      3639 6.88883E-03 2.57513E-03-3.31050E-15
 -1      3640 6.75202E-03 2.47358E-03-3.07500E-15
 -1      3641 6.86769E-03 2.59311E-03-3.68259E-15
 -1      3642 8.01085E-03 3.40541E-03-5.49501E-15
 -1      3643 7.86906E-03 3.30079E-03-5.19357E-15
 -1      3644 7.70837E-03 3.21281E-03-5.33243E-15
 -1      3645 8.29506E-03 3.61483E-03-6.12038E-15
 -1      3646 8.15287E-03 3.51009E-03-5.80394E-15
 -1      3647 7.99181E-03 3.42160E-03-5.94715E-15
 -1      3648 8.57982E-03 3.82437E-03-6.78068E-15
 -1      3649 8.43738E-03 3.71959E-03-6.44641E-15
 -1      3650 8.27606E-03 3.63077E-03-6.59443E-15
 -1      3651 8.86495E-03 4.03393E-03-7.47304E-15
 -1      3652 8.72235E-03 3.92915E-03-7.12196E-15
 -1      3653 8.56082E-03 3.84012E-03-7.27340E-15
 -1      3654 9.15031E-03 4.24344E-03-8.20287E-15
 -1      3655 9.00760E-03 4.13869E-03-7.83378E-15
 -1      3656 8.84593E-03 4.04952E-03-7.98859E-15
 -1      3657 9.43581E-03 4.45289E-03-8.96782E-15
 -1      3658 9.29304E-03 4.34817E-03-8.58138E-15
 -1      3659 9.13127E-03 4.25892E-03-8.74043E-15
 -1      3660 9.72140E-03 4.66227E-03-9.76678E-15
 -1      3661 9.57860E-03 4.55759E-03-9.36331E-15
 -1      3662 9.41675E-03 4.46828E-03-9.52604E-15
 -1      3663 1.00071E-02 4.87158E-03-1.05954E-14
 -1      3664 9.86422E-03 4.76693E-03-1.01773E-14
 -1      3665 9.70233E-03 4.67760E-03-1.03448E-14
 -1      3666 1.02927E-02 5.08084E-03-1.14469E-14
 -1      3667 1.01499E-02 4.97622E-03-1.10189E-14
 -1      3668 9.98797E-03 4.88686E-03-1.11918E-14
 -1      3669 1.05784E-02 5.29005E-03-1.23250E-14
 -1      3670 1.04356E-02 5.18545E-03-1.18843E-14
 -1      3671 1.02736E-02 5.09608E-03-1.20637E-14
 -1      3672 1.08642E-02 5.49922E-03-1.32168E-14
 -1      3673 1.07213E-02 5.39464E-03-1.27682E-14
 -1      3674 1.05593E-02 5.30527E-03-1.29553E-14
 -1      3675 1.11499E-02 5.70836E-03-1.41280E-14
 -1      3676 1.10070E-02 5.60380E-03-1.36698E-14
 -1      3677 1.08451E-02 5.51441E-03-1.38640E-14
 -1      3678 1.14356E-02 5.91748E-03-1.50546E-14
 -1      3679 1.12928E-02 5.81292E-03-1.45897E-14
 -1      3680 1.11308E-02 5.72354E-03-1.47891E-14
 -1      3681 1.17214E-02 6.12657E-03-1.60047E-14
 -1      3682 1.15785E-02 6.02203E-03-1.55260E-14
 -1      3683 1.14165E-02 5.93264E-03-1.57321E-14
 -1      3684 1.20071E-02 6.33566E-03-1.69812E-14
 -1      3685 1.18642E-02 6.23112E-03-1.64892E-14
 -1      3686 1.17023E-02 6.14173E-03-1.66978E-14
 -1      3687 1.22928E-02 6.54473E-03-1.79852E-14
 -1      3688 1.21499E-02 6.44019E-03-1.74806E-14
 -1      3689 1.19880E-02 6.35081E-03-1.76915E-14
 -1      3690 1.25785E-02 6.75380E-03-1.90142E-14
 -1      3691 1.24357E-02 6.64926E-03-1.84970E-14
 -1      3692 1.22737E-02 6.55988E-03-1.87123E-14
 -1      3693 1.28643E-02 6.96286E-03-2.00646E-14
 -1      3694 1.27214E-02 6.85833E-03-1.95392E-14
 -1      3695 1.25594E-02 6.76895E-03-1.97562E-14
 -1      3696 1.31500E-02 7.17192E-03-2.11345E-14
 -1      3697 1.30071E-02 7.06739E-03-2.05970E-14
 -1      3698 1.28452E-02 6.97801E-03-2.08202E-14
 -1      3699 1.34357E-02 7.38097E-03-2.22200E-14
 -1      3700 1.32928E-02 7.27645E-03-2.16750E-14
 -1      3701 1.31309E-02 7.18706E-03-2.19034E-14
 -1      3702 1.37214E-02 7.59003E-03-2.33142E-14
 -1      3703 1.35786E-02 7.48550E-03-2.27635E-14
 -1      3704 1.34166E-02 7.39612E-03-2.29968E-14
 -1      3705 1.40071E-02 7.79908E-03-2.44287E-14
 -1      3706 1.38643E-02 7.69456E-03-2.38708E-14
 -1      3707 1.37023E-02 7.60518E-03-2.41082E-14
 -1      3708 5.45532E-03 1.60447E-03-1.52474E-15
 -1      3709 5.28173E-03 1.54497E-03-1.64467E-15
 -1      3710 6.09396E-03 1.98792E-03-2.02022E-15
 -1      3711 5.97007E-03 1.89757E-03-1.83604E-15
 -1      3712 6.61654E-03 2.37316E-03-2.84619E-15
 -1      3713 6.48272E-03 2.27393E-03-2.62603E-15
 -1      3714 6.59341E-03 2.39167E-03-3.19758E-15
 -1      3715 6.35073E-03 2.17650E-03-2.41600E-15
 -1      3716 6.22113E-03 2.08088E-03-2.21420E-15
 -1      3717 6.06161E-03 2.00663E-03-2.32727E-15
 -1      3718 6.32417E-03 2.19535E-03-2.74519E-15
 -1      3719 1.95694E-03-1.38562E-04-6.32944E-16
 -1      3720 1.82370E-03-1.41508E-04-5.72472E-16
 -1      3721 2.02747E-03-1.43794E-04-7.38165E-16
 -1      3722 4.46493E-03 1.17908E-03-1.88470E-15
 -1      3723 4.23786E-03 1.05586E-03-1.89514E-15
 -1      3724 1.43723E-02 8.13349E-03-2.79362E-14
 -1      3725 1.44448E-02 8.16022E-03-2.74115E-14
 -1      3726 1.43647E-02 8.08991E-03-2.67278E-14
 -1      3727 1.41971E-02 8.02190E-03-2.77396E-14
 -1      3728 5.02034E-03 1.44220E-03-1.77576E-15
 -1      3729 4.74073E-03 1.31666E-03-1.84427E-15
 -1      3730 1.69268E-03-2.10133E-04-7.04352E-16
 -1      3731 1.85059E-03-1.99824E-04-8.25403E-16
 -1      3732 1.96698E-03-1.70070E-04-8.30174E-16
 -1      3733 1.73027E-03-1.83008E-04-6.48732E-16
 -1      3734 3.50675E-03 6.07091E-04-1.79796E-15
 -1      3735 3.28419E-03 4.60448E-04-1.73181E-15
 -1      3736 5.57840E-03 1.60121E-03-1.17462E-15
 -1      3737 2.53567E-03 5.38234E-06-1.15297E-15
 -1      3738 2.39187E-03-5.65691E-05-1.05954E-15
 -1      3739 1.67700E-03-1.48208E-04-5.26001E-16
 -1      3740 1.31946E-02 7.55956E-03-3.20232E-14
 -1      3741 4.13508E-03 1.00243E-03-2.09167E-15
 -1      3742 5.86144E-03 1.82326E-03-1.70430E-15
 -1      3743 5.75525E-03 1.75160E-03-1.57842E-15
 -1      3744 5.82029E-03 1.84074E-03-1.99100E-15
 -1      3745 3.65094E-03 7.03077E-04-2.01332E-15
 -1      3746 2.65221E-03 6.91374E-05-1.33463E-15
 -1      3747 2.90495E-03 2.22448E-04-1.87697E-15
 -1      3748 3.06819E-03 3.25756E-04-2.06496E-15
 -1      3749 1.42558E-02 8.00336E-03-2.60848E-14
 -1      3750 1.41161E-02 7.88563E-03-2.50621E-14
 -1      3751 1.39541E-02 7.79625E-03-2.53066E-14
 -1      3752 1.41720E-02 7.96935E-03-2.65860E-14
 -1      3753 5.17232E-03 1.52390E-03-1.90561E-15
 -1      3754 5.59624E-03 1.67374E-03-1.56144E-15
 -1      3755 5.56674E-03 1.69471E-03-1.81209E-15
 -1      3756 1.38737E-02 7.85450E-03-2.85589E-14
 -1      3757 1.39463E-02 7.88123E-03-2.80413E-14
 -1      3758 1.32965E-02 7.60135E-03-3.14258E-14
 -1      3759 4.64858E-03 1.28367E-03-2.07287E-15
 -1      3760 3.09488E-03 3.38399E-04-1.69408E-15
 -1      3761 2.98711E-03 2.69462E-04-1.65669E-15
 -1      3762 5.65216E-03 1.65795E-03-1.29936E-15
 -1      3763 1.36690E-02 7.77056E-03-2.97569E-14
 -1      3764 1.37714E-02 7.81253E-03-2.91594E-14
 -1      3765 1.36768E-02 7.73260E-03-2.84293E-14
 -1      3766 3.21761E-03 4.21982E-04-2.04933E-15
 -1      3767 2.23036E-03-1.09259E-04-9.27345E-16
 -1      3768 5.78189E-03 1.85481E-03-2.27333E-15
 -1      3769 5.66537E-03 1.78028E-03-2.12864E-15
 -1      3770 7.68901E-03 3.22911E-03-5.77086E-15
 -1      3771 7.54754E-03 3.12509E-03-5.46579E-15
 -1      3772 4.28396E-03 1.09550E-03-2.31988E-15
 -1      3773 4.04703E-03 9.54998E-04-2.29675E-15
 -1      3774 3.95493E-03 9.03650E-04-2.60042E-15
 -1      3775 4.12499E-03 1.01302E-03-2.81197E-15
 -1      3776 4.29215E-03 1.11964E-03-3.03181E-15
 -1      3777 4.45565E-03 1.22446E-03-3.25880E-15
 -1      3778 4.36614E-03 1.15521E-03-2.74208E-15
 -1      3779 4.61611E-03 1.32741E-03-3.49418E-15
 -1      3780 4.77349E-03 1.42953E-03-3.73682E-15
 -1      3781 4.69336E-03 1.35891E-03-3.17904E-15
 -1      3782 4.92828E-03 1.53072E-03-3.98772E-15
 -1      3783 5.08071E-03 1.63171E-03-4.24626E-15
 -1      3784 5.00637E-03 1.55758E-03-3.64762E-15
 -1      3785 5.23115E-03 1.73243E-03-4.51356E-15
 -1      3786 5.37993E-03 1.83331E-03-4.79015E-15
 -1      3787 5.30881E-03 1.75511E-03-4.14977E-15
 -1      3788 5.52731E-03 1.93428E-03-5.07516E-15
 -1      3789 5.67358E-03 2.03557E-03-5.36714E-15
 -1      3790 5.60401E-03 1.95368E-03-4.68791E-15
 -1      3791 5.81893E-03 2.13711E-03-5.66680E-15
 -1      3792 5.96357E-03 2.23900E-03-5.97271E-15
 -1      3793 5.89459E-03 2.15410E-03-5.25623E-15
 -1      3794 6.10763E-03 2.34117E-03-6.28704E-15
 -1      3795 6.25128E-03 2.44366E-03-6.60912E-15
 -1      3796 6.18237E-03 2.35652E-03-5.85532E-15
 -1      3797 6.39458E-03 2.54641E-03-6.93937E-15
 -1      3798 6.53765E-03 2.64942E-03-7.27635E-15
 -1      3799 6.46856E-03 2.56069E-03-6.48324E-15
 -1      3800 6.68053E-03 2.75264E-03-7.62225E-15
 -1      3801 6.82330E-03 2.85607E-03-7.97551E-15
 -1      3802 6.75395E-03 2.76628E-03-7.14390E-15
 -1      3803 6.96599E-03 2.95966E-03-8.33701E-15
 -1      3804 7.10862E-03 3.06340E-03-8.70636E-15
 -1      3805 7.03898E-03 2.97293E-03-7.83695E-15
 -1      3806 7.25123E-03 3.16726E-03-9.08343E-15
 -1      3807 7.39383E-03 3.27123E-03-9.46930E-15
 -1      3808 7.32393E-03 3.18034E-03-8.56189E-15
 -1      3809 7.53643E-03 3.37529E-03-9.86390E-15
 -1      3810 7.67905E-03 3.47942E-03-1.02655E-14
 -1      3811 7.60892E-03 3.38829E-03-9.31801E-15
 -1      3812 7.82167E-03 3.58362E-03-1.06771E-14
 -1      3813 7.96432E-03 3.68786E-03-1.10984E-14
 -1      3814 7.89402E-03 3.59661E-03-1.01100E-14
 -1      3815 8.10699E-03 3.79216E-03-1.15261E-14
 -1      3816 8.24969E-03 3.89649E-03-1.19645E-14
 -1      3817 8.17924E-03 3.80518E-03-1.09358E-14
 -1      3818 8.39240E-03 4.00085E-03-1.24110E-14
 -1      3819 8.53513E-03 4.10523E-03-1.28653E-14
 -1      3820 8.46457E-03 4.01391E-03-1.17982E-14
 -1      3821 8.67789E-03 4.20964E-03-1.33274E-14
 -1      3822 8.82066E-03 4.31407E-03-1.37968E-14
 -1      3823 8.75001E-03 4.22274E-03-1.26928E-14
 -1      3824 8.96344E-03 4.41851E-03-1.42744E-14
 -1      3825 9.10624E-03 4.52297E-03-1.47573E-14
 -1      3826 9.03554E-03 4.43165E-03-1.36189E-14
 -1      3827 9.24905E-03 4.62743E-03-1.52480E-14
 -1      3828 9.39187E-03 4.73191E-03-1.57449E-14
 -1      3829 9.32113E-03 4.64061E-03-1.45720E-14
 -1      3830 9.53470E-03 4.83639E-03-1.62467E-14
 -1      3831 9.67754E-03 4.94089E-03-1.67524E-14
 -1      3832 9.60676E-03 4.84960E-03-1.55502E-14
 -1      3833 9.82038E-03 5.04538E-03-1.72613E-14
 -1      3834 9.96323E-03 5.14989E-03-1.77745E-14
 -1      3835 9.89244E-03 5.05861E-03-1.65464E-14
 -1      3836 1.01061E-02 5.25439E-03-1.82951E-14
 -1      3837 1.02489E-02 5.35890E-03-1.88156E-14
 -1      3838 1.01781E-02 5.26763E-03-1.75591E-14
 -1      3839 1.03918E-02 5.46342E-03-1.93421E-14
 -1      3840 1.05347E-02 5.56793E-03-1.98772E-14
 -1      3841 1.04638E-02 5.47667E-03-1.85905E-14
 -1      3842 1.06775E-02 5.67245E-03-2.04109E-14
 -1      3843 1.08204E-02 5.77697E-03-2.09520E-14
 -1      3844 1.07496E-02 5.68571E-03-1.96364E-14
 -1      3845 1.09632E-02 5.88149E-03-2.14999E-14
 -1      3846 1.11061E-02 5.98602E-03-2.20486E-14
 -1      3847 1.10353E-02 5.89476E-03-2.07040E-14
 -1      3848 1.12490E-02 6.09054E-03-2.26022E-14
 -1      3849 1.13918E-02 6.19507E-03-2.31612E-14
 -1      3850 1.13210E-02 6.10381E-03-2.17900E-14
 -1      3851 1.15347E-02 6.29959E-03-2.37240E-14
 -1      3852 1.16776E-02 6.40412E-03-2.42931E-14
 -1      3853 1.16068E-02 6.31286E-03-2.28940E-14
 -1      3854 1.18204E-02 6.50865E-03-2.48669E-14
 -1      3855 1.19633E-02 6.61318E-03-2.54426E-14
 -1      3856 1.18925E-02 6.52192E-03-2.40178E-14
 -1      3857 1.21062E-02 6.71771E-03-2.60239E-14
 -1      3858 1.22490E-02 6.82223E-03-2.66061E-14
 -1      3859 1.21782E-02 6.73098E-03-2.51616E-14
 -1      3860 1.23919E-02 6.92676E-03-2.71945E-14
 -1      3861 1.25347E-02 7.03129E-03-2.77867E-14
 -1      3862 1.24639E-02 6.94003E-03-2.63163E-14
 -1      3863 1.26776E-02 7.13582E-03-2.83836E-14
 -1      3864 1.28205E-02 7.24035E-03-2.89853E-14
 -1      3865 1.27497E-02 7.14909E-03-2.74886E-14
 -1      3866 1.29871E-02 7.36859E-03-2.98880E-14
 -1      3867 1.31299E-02 7.47312E-03-3.05006E-14
 -1      3868 1.33923E-02 7.63833E-03-3.07896E-14
 -1      3869 1.30591E-02 7.38186E-03-2.89720E-14
 -1      3870 6.84608E-03 2.61031E-03-4.06022E-15
 -1      3871 6.70752E-03 2.50916E-03-3.80392E-15
 -1      3872 8.25696E-03 3.64662E-03-7.07363E-15
 -1      3873 8.11473E-03 3.54210E-03-6.73615E-15
 -1      3874 8.54176E-03 3.85580E-03-7.77426E-15
 -1      3875 8.39931E-03 3.75119E-03-7.41975E-15
 -1      3876 8.23779E-03 3.66237E-03-7.55959E-15
 -1      3877 8.82687E-03 4.06507E-03-8.51160E-15
 -1      3878 8.68428E-03 3.96043E-03-8.13733E-15
 -1      3879 8.52264E-03 3.87142E-03-8.28104E-15
 -1      3880 9.11220E-03 4.27437E-03-9.28332E-15
 -1      3881 8.96951E-03 4.16972E-03-8.89253E-15
 -1      3882 8.80778E-03 4.08058E-03-9.03857E-15
 -1      3883 9.39768E-03 4.48365E-03-1.00911E-14
 -1      3884 9.25492E-03 4.37901E-03-9.68333E-15
 -1      3885 9.09312E-03 4.28979E-03-9.83285E-15
 -1      3886 9.68324E-03 4.69291E-03-1.09280E-14
 -1      3887 9.54045E-03 4.58829E-03-1.05051E-14
 -1      3888 9.37859E-03 4.49901E-03-1.06601E-14
 -1      3889 9.96888E-03 4.90213E-03-1.17930E-14
 -1      3890 9.82605E-03 4.79752E-03-1.13585E-14
 -1      3891 9.66415E-03 4.70821E-03-1.15160E-14
 -1      3892 1.02545E-02 5.11132E-03-1.26838E-14
 -1      3893 1.01117E-02 5.00673E-03-1.22347E-14
 -1      3894 9.94978E-03 4.91739E-03-1.24002E-14
 -1      3895 1.05402E-02 5.32047E-03-1.35898E-14
 -1      3896 1.03974E-02 5.21590E-03-1.31358E-14
 -1      3897 1.02355E-02 5.12654E-03-1.33064E-14
 -1      3898 1.08260E-02 5.52960E-03-1.45136E-14
 -1      3899 1.06831E-02 5.42504E-03-1.40490E-14
 -1      3900 1.05212E-02 5.33567E-03-1.42300E-14
 -1      3901 1.11117E-02 5.73871E-03-1.54542E-14
 -1      3902 1.09688E-02 5.63416E-03-1.49826E-14
 -1      3903 1.08069E-02 5.54479E-03-1.51700E-14
 -1      3904 1.13974E-02 5.94781E-03-1.64152E-14
 -1      3905 1.12546E-02 5.84326E-03-1.59329E-14
 -1      3906 1.10926E-02 5.75388E-03-1.61276E-14
 -1      3907 1.16832E-02 6.15689E-03-1.73992E-14
 -1      3908 1.15403E-02 6.05235E-03-1.69045E-14
 -1      3909 1.13783E-02 5.96297E-03-1.71056E-14
 -1      3910 1.19689E-02 6.36596E-03-1.84107E-14
 -1      3911 1.18260E-02 6.26143E-03-1.79018E-14
 -1      3912 1.16641E-02 6.17205E-03-1.81068E-14
 -1      3913 1.22546E-02 6.57503E-03-1.94449E-14
 -1      3914 1.21117E-02 6.47050E-03-1.89240E-14
 -1      3915 1.19498E-02 6.38112E-03-1.91336E-14
 -1      3916 1.25403E-02 6.78409E-03-2.05033E-14
 -1      3917 1.23975E-02 6.67956E-03-1.99722E-14
 -1      3918 1.22355E-02 6.59018E-03-2.01818E-14
 -1      3919 1.28261E-02 6.99315E-03-2.15788E-14
 -1      3920 1.26832E-02 6.88862E-03-2.10389E-14
 -1      3921 1.25212E-02 6.79924E-03-2.12545E-14
 -1      3922 1.31118E-02 7.20221E-03-2.26749E-14
 -1      3923 1.29689E-02 7.09768E-03-2.21251E-14
 -1      3924 1.28070E-02 7.00830E-03-2.23436E-14
 -1      3925 1.33975E-02 7.41127E-03-2.37786E-14
 -1      3926 1.32547E-02 7.30674E-03-2.32255E-14
 -1      3927 1.30927E-02 7.21736E-03-2.34479E-14
 -1      3928 1.36832E-02 7.62032E-03-2.49035E-14
 -1      3929 1.35404E-02 7.51580E-03-2.43379E-14
 -1      3930 1.33784E-02 7.42641E-03-2.45664E-14
 -1      3931 3.22840E-03 4.27986E-04-1.91022E-15
 -1      3932 3.40233E-03 5.43118E-04-2.09507E-15
 -1      3933 1.75251E-03-1.69159E-04-6.19513E-16
 -1      3934 5.34845E-03 1.62091E-03-2.05628E-15
 -1      3935 5.10114E-03 1.51595E-03-2.18757E-15
 -1      3936 1.34947E-02 7.68029E-03-3.01880E-14
 -1      3937 6.56973E-03 2.40904E-03-3.55522E-15
 -1      3938 6.43292E-03 2.31004E-03-3.31488E-15
 -1      3939 6.54605E-03 2.42539E-03-3.91893E-15
 -1      3940 7.97264E-03 3.43766E-03-6.40572E-15
 -1      3941 7.83072E-03 3.33331E-03-6.08393E-15
 -1      3942 7.66952E-03 3.24519E-03-6.21587E-15
 -1      3943 7.95336E-03 3.45356E-03-6.87140E-15
 -1      3944 4.81188E-03 1.37918E-03-2.27966E-15
 -1      3945 4.55437E-03 1.24603E-03-2.31481E-15
 -1      3946 5.51930E-03 1.70421E-03-2.07797E-15
 -1      3947 1.87369E-03-1.68040E-04-7.04379E-16
 -1      3948 3.80369E-03 8.05440E-04-2.35922E-15
 -1      3949 7.12521E-03 2.81479E-03-4.59813E-15
 -1      3950 6.98535E-03 2.71222E-03-4.32509E-15
 -1      3951 6.82433E-03 2.62681E-03-4.44438E-15
 -1      3952 4.45732E-03 1.20070E-03-2.53911E-15
 -1      3953 2.12024E-03-1.36392E-04-8.68473E-16
 -1      3954 6.27026E-03 2.22838E-03-3.42451E-15
 -1      3955 6.29707E-03 2.21254E-03-3.08035E-15
 -1      3956 6.16247E-03 2.11670E-03-2.85663E-15
 -1      3957 1.99289E-03-1.58585E-04-7.94774E-16
 -1      3958 6.03723E-03 2.02944E-03-2.66188E-15
 -1      3959 5.90507E-03 1.93781E-03-2.45378E-15
 -1      3960 5.75167E-03 1.87329E-03-2.59237E-15
 -1      3961 6.00575E-03 2.04399E-03-2.98221E-15
 -1      3962 7.40638E-03 3.02132E-03-5.16883E-15
 -1      3963 7.26559E-03 2.91784E-03-4.87964E-15
 -1      3964 7.38650E-03 3.03758E-03-5.59299E-15
 -1      3965 5.00445E-03 1.48712E-03-2.44872E-15
 -1      3966 1.35019E-02 7.62109E-03-2.82129E-14
 -1      3967 1.36043E-02 7.66306E-03-2.76250E-14
 -1      3968 1.38814E-02 7.81615E-03-2.72342E-14
 -1      3969 1.40485E-02 7.92281E-03-2.74339E-14
 -1      3970 3.57629E-03 6.58309E-04-2.28795E-15
 -1      3971 1.34001E-02 7.60036E-03-2.94506E-14
 -1      3972 5.45656E-03 1.70486E-03-2.38045E-15
 -1      3973 1.34753E-02 7.54125E-03-2.62675E-14
 -1      3974 1.36502E-02 7.65275E-03-2.64747E-14
 -1      3975 1.37525E-02 7.69434E-03-2.58801E-14
 -1      3976 1.31933E-02 7.45634E-03-2.88054E-14
 -1      3977 1.33677E-02 7.54661E-03-2.83856E-14
 -1      3978 1.32952E-02 7.47707E-03-2.75821E-14
 -1      3979 1.30267E-02 7.32810E-03-2.79172E-14
 -1      3980 1.41323E-02 7.95682E-03-2.69311E-14
 -1      3981 1.40233E-02 7.87027E-03-2.62873E-14
 -1      3982 1.37922E-02 7.70687E-03-2.55427E-14
 -1      3983 5.03097E-03 1.55472E-03-3.34478E-15
 -1      3984 5.18322E-03 1.65171E-03-3.58035E-15
 -1      3985 5.33302E-03 1.74869E-03-3.82581E-15
 -1      3986 5.48095E-03 1.84625E-03-4.07992E-15
 -1      3987 5.35982E-03 1.74304E-03-3.50799E-15
 -1      3988 5.62734E-03 1.94434E-03-4.34070E-15
 -1      3989 5.77262E-03 2.04315E-03-4.61157E-15
 -1      3990 5.65246E-03 1.93539E-03-4.00178E-15
 -1      3991 5.91698E-03 2.14260E-03-4.88979E-15
 -1      3992 6.06070E-03 2.24275E-03-5.17435E-15
 -1      3993 5.94052E-03 2.13125E-03-4.52911E-15
 -1      3994 6.20391E-03 2.34351E-03-5.46729E-15
 -1      3995 6.34680E-03 2.44484E-03-5.76764E-15
 -1      3996 6.22619E-03 2.33052E-03-5.08658E-15
 -1      3997 6.48943E-03 2.54668E-03-6.07628E-15
 -1      3998 6.63192E-03 2.64897E-03-6.39170E-15
 -1      3999 6.51073E-03 2.53263E-03-5.67443E-15
 -1      4000 6.77430E-03 2.75164E-03-6.71572E-15
 -1      4001 6.91664E-03 2.85464E-03-7.04801E-15
 -1      4002 6.79490E-03 2.73692E-03-6.29360E-15
 -1      4003 7.05895E-03 2.95792E-03-7.38831E-15
 -1      4004 7.20128E-03 3.06143E-03-7.73693E-15
 -1      4005 7.07906E-03 2.94283E-03-6.94606E-15
 -1      4006 7.34363E-03 3.16513E-03-8.09316E-15
 -1      4007 7.48600E-03 3.26900E-03-8.45731E-15
 -1      4008 7.36339E-03 3.14985E-03-7.63052E-15
 -1      4009 7.62842E-03 3.37299E-03-8.82810E-15
 -1      4010 7.77088E-03 3.47709E-03-9.20929E-15
 -1      4011 7.64796E-03 3.35763E-03-8.34693E-15
 -1      4012 7.91338E-03 3.58128E-03-9.59954E-15
 -1      4013 8.05593E-03 3.68554E-03-9.99782E-15
 -1      4014 7.93276E-03 3.56590E-03-9.09487E-15
 -1      4015 8.19851E-03 3.78985E-03-1.04056E-14
 -1      4016 8.34113E-03 3.89421E-03-1.08210E-14
 -1      4017 8.21779E-03 3.77448E-03-9.87995E-15
 -1      4018 8.48378E-03 3.99860E-03-1.12469E-14
 -1      4019 8.62647E-03 4.10302E-03-1.16808E-14
 -1      4020 8.50299E-03 3.98326E-03-1.07025E-14
 -1      4021 8.76918E-03 4.20747E-03-1.21235E-14
 -1      4022 8.91191E-03 4.31193E-03-1.25722E-14
 -1      4023 8.78834E-03 4.19216E-03-1.15591E-14
 -1      4024 9.05467E-03 4.41640E-03-1.30280E-14
 -1      4025 9.19745E-03 4.52089E-03-1.34926E-14
 -1      4026 9.07381E-03 4.40113E-03-1.24454E-14
 -1      4027 9.34024E-03 4.62539E-03-1.39624E-14
 -1      4028 9.48305E-03 4.72989E-03-1.44396E-14
 -1      4029 9.35936E-03 4.61015E-03-1.33603E-14
 -1      4030 9.62586E-03 4.83439E-03-1.49238E-14
 -1      4031 9.76869E-03 4.93891E-03-1.54108E-14
 -1      4032 9.64497E-03 4.81918E-03-1.43018E-14
 -1      4033 9.91153E-03 5.04342E-03-1.59031E-14
 -1      4034 1.00544E-02 5.14794E-03-1.63989E-14
 -1      4035 9.93062E-03 5.02823E-03-1.52645E-14
 -1      4036 1.01972E-02 5.25246E-03-1.69000E-14
 -1      4037 1.03401E-02 5.35698E-03-1.74055E-14
 -1      4038 1.02163E-02 5.23728E-03-1.62471E-14
 -1      4039 1.04829E-02 5.46150E-03-1.79142E-14
 -1      4040 1.06258E-02 5.56603E-03-1.84281E-14
 -1      4041 1.05020E-02 5.44633E-03-1.72430E-14
 -1      4042 1.07687E-02 5.67055E-03-1.89453E-14
 -1      4043 1.09115E-02 5.77508E-03-1.94653E-14
 -1      4044 1.07877E-02 5.65539E-03-1.82559E-14
 -1      4045 1.10544E-02 5.87960E-03-1.99950E-14
 -1      4046 1.11972E-02 5.98413E-03-2.05279E-14
 -1      4047 1.10735E-02 5.86445E-03-1.92898E-14
 -1      4048 1.13401E-02 6.08866E-03-2.10665E-14
 -1      4049 1.14830E-02 6.19319E-03-2.16074E-14
 -1      4050 1.13592E-02 6.07351E-03-2.03464E-14
 -1      4051 1.16258E-02 6.29771E-03-2.21550E-14
 -1      4052 1.17687E-02 6.40224E-03-2.27084E-14
 -1      4053 1.16449E-02 6.28257E-03-2.14215E-14
 -1      4054 1.19116E-02 6.50677E-03-2.32636E-14
 -1      4055 1.20544E-02 6.61130E-03-2.38267E-14
 -1      4056 1.19307E-02 6.49162E-03-2.25161E-14
 -1      4057 1.21973E-02 6.71583E-03-2.43933E-14
 -1      4058 1.23402E-02 6.82036E-03-2.49635E-14
 -1      4059 1.22164E-02 6.70068E-03-2.36314E-14
 -1      4060 1.24830E-02 6.92489E-03-2.55348E-14
 -1      4061 1.26259E-02 7.02942E-03-2.61111E-14
 -1      4062 1.25021E-02 6.90974E-03-2.47603E-14
 -1      4063 1.27688E-02 7.13394E-03-2.66918E-14
 -1      4064 1.29116E-02 7.23847E-03-2.72787E-14
 -1      4065 1.27878E-02 7.11880E-03-2.59033E-14
 -1      4066 8.50349E-03 3.88698E-03-8.79428E-15
 -1      4067 8.36099E-03 3.78249E-03-8.41749E-15
 -1      4068 8.21857E-03 3.67804E-03-8.04962E-15
 -1      4069 8.07624E-03 3.57365E-03-7.69193E-15
 -1      4070 8.19932E-03 3.69362E-03-8.54727E-15
 -1      4071 9.07401E-03 4.30519E-03-1.03891E-14
 -1      4072 8.93132E-03 4.20062E-03-9.97672E-15
 -1      4073 9.35949E-03 4.51434E-03-1.12352E-14
 -1      4074 9.21674E-03 4.40976E-03-1.08089E-14
 -1      4075 9.05489E-03 4.32055E-03-1.09501E-14
 -1      4076 9.64506E-03 4.72349E-03-1.21107E-14
 -1      4077 9.50227E-03 4.61892E-03-1.16693E-14
 -1      4078 9.34038E-03 4.52965E-03-1.18158E-14
 -1      4079 9.93069E-03 4.93263E-03-1.30125E-14
 -1      4080 9.78787E-03 4.82806E-03-1.25588E-14
 -1      4081 9.62596E-03 4.73876E-03-1.27114E-14
 -1      4082 1.02164E-02 5.14176E-03-1.39359E-14
 -1      4083 1.00735E-02 5.03720E-03-1.34722E-14
 -1      4084 9.91159E-03 4.94786E-03-1.36303E-14
 -1      4085 1.05021E-02 5.35087E-03-1.48748E-14
 -1      4086 1.03592E-02 5.24631E-03-1.44033E-14
 -1      4087 1.01973E-02 5.15696E-03-1.45695E-14
 -1      4088 1.07878E-02 5.55996E-03-1.58309E-14
 -1      4089 1.06449E-02 5.45542E-03-1.53500E-14
 -1      4090 1.04830E-02 5.36606E-03-1.55255E-14
 -1      4091 1.10735E-02 5.76905E-03-1.68046E-14
 -1      4092 1.09306E-02 5.66451E-03-1.63152E-14
 -1      4093 1.07687E-02 5.57514E-03-1.64975E-14
 -1      4094 1.13592E-02 5.97813E-03-1.77992E-14
 -1      4095 1.12164E-02 5.87359E-03-1.72986E-14
 -1      4096 1.10544E-02 5.78422E-03-1.74872E-14
 -1      4097 1.16450E-02 6.18720E-03-1.88164E-14
 -1      4098 1.15021E-02 6.08266E-03-1.83040E-14
 -1      4099 1.13401E-02 5.99329E-03-1.84977E-14
 -1      4100 1.19307E-02 6.39627E-03-1.98587E-14
 -1      4101 1.17878E-02 6.29173E-03-1.93361E-14
 -1      4102 1.16259E-02 6.20235E-03-1.95324E-14
 -1      4103 1.22164E-02 6.60533E-03-2.09240E-14
 -1      4104 1.20736E-02 6.50080E-03-2.03889E-14
 -1      4105 1.19116E-02 6.41142E-03-2.05915E-14
 -1      4106 1.25022E-02 6.81439E-03-2.20076E-14
 -1      4107 1.23593E-02 6.70986E-03-2.14626E-14
 -1      4108 1.21973E-02 6.62048E-03-2.16693E-14
 -1      4109 1.27879E-02 7.02345E-03-2.31102E-14
 -1      4110 1.26450E-02 6.91892E-03-2.25573E-14
 -1      4111 1.24831E-02 6.82953E-03-2.27663E-14
 -1      4112 1.30736E-02 7.23250E-03-2.42269E-14
 -1      4113 1.29307E-02 7.12798E-03-2.36679E-14
 -1      4114 1.27688E-02 7.03859E-03-2.38817E-14
 -1      4115 1.33459E-02 7.43914E-03-2.55251E-14
 -1      4116 1.32030E-02 7.33461E-03-2.49567E-14
 -1      4117 1.30411E-02 7.24523E-03-2.51751E-14
 -1      4118 1.33000E-02 7.44944E-03-2.66588E-14
 -1      4119 4.62299E-03 1.30132E-03-2.74464E-15
 -1      4120 6.52250E-03 2.44092E-03-4.28764E-15
 -1      4121 6.38306E-03 2.34140E-03-4.02777E-15
 -1      4122 5.52181E-03 1.76226E-03-2.65326E-15
 -1      4123 5.35010E-03 1.67319E-03-2.61764E-15
 -1      4124 5.12807E-03 1.56326E-03-2.64690E-15
 -1      4125 4.85198E-03 1.42525E-03-2.73378E-15
 -1      4126 4.75614E-03 1.38388E-03-2.95330E-15
 -1      4127 5.20209E-03 1.62028E-03-2.92309E-15
 -1      4128 8.78866E-03 4.09605E-03-9.57304E-15
 -1      4129 8.64605E-03 3.99151E-03-9.17926E-15
 -1      4130 8.48431E-03 3.90248E-03-9.31345E-15
 -1      4131 8.76952E-03 4.11148E-03-1.01144E-14
 -1      4132 7.10464E-03 2.83120E-03-5.00210E-15
 -1      4133 6.24391E-03 2.24306E-03-3.77376E-15
 -1      4134 6.10518E-03 2.14605E-03-3.52695E-15
 -1      4135 6.21845E-03 2.25693E-03-4.12913E-15
 -1      4136 6.80257E-03 2.64272E-03-4.83374E-15
 -1      4137 6.66238E-03 2.54140E-03-4.55740E-15
 -1      4138 6.49938E-03 2.45581E-03-4.66450E-15
 -1      4139 7.64994E-03 3.26109E-03-6.66592E-15
 -1      4140 7.50814E-03 3.15721E-03-6.34123E-15
 -1      4141 4.91398E-03 1.48164E-03-3.17460E-15
 -1      4142 1.30458E-02 7.31296E-03-2.71145E-14
 -1      4143 1.31657E-02 7.37496E-03-2.68285E-14
 -1      4144 5.65258E-03 1.84609E-03-2.84522E-15
 -1      4145 7.34654E-03 3.06931E-03-6.46033E-15
 -1      4146 7.36653E-03 3.05357E-03-6.02324E-15
 -1      4147 7.22514E-03 2.95021E-03-5.71391E-15
 -1      4148 7.93401E-03 3.46935E-03-7.34246E-15
 -1      4149 7.79191E-03 3.36515E-03-7.00096E-15
 -1      4150 7.63033E-03 3.27682E-03-7.12351E-15
 -1      4151 7.91463E-03 3.48501E-03-7.81975E-15
 -1      4152 5.09647E-03 1.57641E-03-3.10518E-15
 -1      4153 5.67966E-03 1.92645E-03-3.66983E-15
 -1      4154 5.82291E-03 2.02252E-03-3.91828E-15
 -1      4155 5.93783E-03 2.09681E-03-4.06939E-15
 -1      4156 6.07983E-03 2.19478E-03-4.33198E-15
 -1      4157 6.22150E-03 2.29373E-03-4.60180E-15
 -1      4158 6.36308E-03 2.39361E-03-4.87758E-15
 -1      4159 6.50456E-03 2.49428E-03-5.16237E-15
 -1      4160 6.64609E-03 2.59566E-03-5.45484E-15
 -1      4161 6.81574E-03 2.72206E-03-5.87884E-15
 -1      4162 6.95748E-03 2.82464E-03-6.19044E-15
 -1      4163 7.07107E-03 2.90295E-03-6.38003E-15
 -1      4164 7.21292E-03 3.00616E-03-6.70518E-15
 -1      4165 7.35488E-03 3.10966E-03-7.03766E-15
 -1      4166 7.49695E-03 3.21338E-03-7.37931E-15
 -1      4167 7.63910E-03 3.31729E-03-7.72933E-15
 -1      4168 7.78135E-03 3.42134E-03-8.08570E-15
 -1      4169 7.92368E-03 3.52551E-03-8.45004E-15
 -1      4170 8.06608E-03 3.62977E-03-8.82344E-15
 -1      4171 8.20854E-03 3.73410E-03-9.20711E-15
 -1      4172 8.35107E-03 3.83848E-03-9.59961E-15
 -1      4173 8.49365E-03 3.94291E-03-1.00007E-14
 -1      4174 8.63627E-03 4.04737E-03-1.04105E-14
 -1      4175 8.77893E-03 4.15185E-03-1.08305E-14
 -1      4176 8.92163E-03 4.25635E-03-1.12582E-14
 -1      4177 9.06435E-03 4.36086E-03-1.16923E-14
 -1      4178 9.20710E-03 4.46539E-03-1.21331E-14
 -1      4179 9.34987E-03 4.56991E-03-1.25827E-14
 -1      4180 9.49266E-03 4.67445E-03-1.30392E-14
 -1      4181 9.63546E-03 4.77898E-03-1.35006E-14
 -1      4182 9.77828E-03 4.88352E-03-1.39686E-14
 -1      4183 9.92111E-03 4.98806E-03-1.44420E-14
 -1      4184 1.00639E-02 5.09259E-03-1.49196E-14
 -1      4185 1.02068E-02 5.19713E-03-1.54017E-14
 -1      4186 1.03496E-02 5.30167E-03-1.58897E-14
 -1      4187 1.04925E-02 5.40620E-03-1.63789E-14
 -1      4188 1.06353E-02 5.51074E-03-1.68716E-14
 -1      4189 1.07782E-02 5.61527E-03-1.73718E-14
 -1      4190 1.09211E-02 5.71980E-03-1.78731E-14
 -1      4191 1.10639E-02 5.82433E-03-1.83820E-14
 -1      4192 1.12068E-02 5.92887E-03-1.88970E-14
 -1      4193 1.13497E-02 6.03340E-03-1.94159E-14
 -1      4194 1.14925E-02 6.13793E-03-1.99418E-14
 -1      4195 1.16354E-02 6.24246E-03-2.04727E-14
 -1      4196 1.17783E-02 6.34699E-03-2.10080E-14
 -1      4197 1.19211E-02 6.45152E-03-2.15496E-14
 -1      4198 1.20640E-02 6.55605E-03-2.20959E-14
 -1      4199 1.22069E-02 6.66058E-03-2.26450E-14
 -1      4200 1.23497E-02 6.76511E-03-2.32018E-14
 -1      4201 1.24926E-02 6.86964E-03-2.37609E-14
 -1      4202 1.26355E-02 6.97417E-03-2.43210E-14
 -1      4203 1.27783E-02 7.07870E-03-2.48881E-14
 -1      4204 1.29212E-02 7.18322E-03-2.54585E-14
 -1      4205 5.31451E-03 1.69021E-03-3.08626E-15
 -1      4206 5.99290E-03 2.07304E-03-3.38786E-15
 -1      4207 5.86298E-03 1.98515E-03-3.17696E-15
 -1      4208 5.46107E-03 1.78374E-03-3.31392E-15
 -1      4209 5.63623E-03 1.86986E-03-3.22878E-15
 -1      4210 1.30506E-02 7.28533E-03-2.61986E-14
 -1      4211 7.11201E-03 2.87190E-03-5.53579E-15
 -1      4212 6.97103E-03 2.76924E-03-5.23817E-15
 -1      4213 6.80889E-03 2.68254E-03-5.34979E-15
 -1      4214 5.96461E-03 2.08528E-03-3.72619E-15
 -1      4215 7.09149E-03 2.88756E-03-5.95478E-15
 -3
    1PSTEP                         2           1           1          
  100CL  101 1.000000000        4215                     0    1           1
 -4  STRESS      6    1
 -5  SXX         1    4    1    1
 -5  SYY         1    4    2    2
 -5  SZZ         1    4    3    3
 -5  SXY         1    4    1    2
 -5  SYZ         1    4    2    3
 -5  SZX         1    4    3    1
 -1         1 7.07158E+01 8.89285E-01 3.44278E+00 4.91194E-01-1.95573E-14 2.07831E-12
 -1         2-6.92096E-01-2.67849E+01-3.47182E+00-2.79790E-01 1.97675E-12 7.71432E-14
 -1         3 1.99998E+01 1.36210E-06-5.48957E-06 1.45695E-06 5.69651E-13 4.49094E-13
 -1         4 1.99998E+01 1.25801E-06-5.57636E-06-1.30459E-06 2.78745E-13-5.92184E-14
 -1         5 4.08307E+01 7.86965E+00 2.85638E+00 6.09391E+00-2.38698E-14 1.46019E-12
 -1         6 3.55457E+01 1.22663E+01 5.34172E+00-8.96033E+00-1.40221E-13-3.83693E-13
 -1         7 1.96813E+01 5.81013E+00-2.61465E-01-5.32811E+00-2.30094E-14-1.01986E-12
 -1         8 1.92199E+01 5.81272E+00 8.66820E-03-4.16322E+00 9.83848E-15-9.52350E-13
 -1         9 1.94521E+01 5.86924E+00 4.35158E-02-3.50348E+00 1.85615E-14-8.15422E-13
 -1        10 2.00248E+01 6.02682E+00 7.94188E-02-2.83684E+00 2.14447E-14-6.51968E-13
 -1        11 2.06339E+01 6.19904E+00 1.15715E-01-2.05691E+00 2.05461E-14-4.94799E-13
 -1        12 2.10725E+01 6.32224E+00 1.57437E-01-1.10548E+00 2.31941E-14-3.40682E-13
 -1        13 2.11235E+01 6.33195E+00 2.00233E-01 4.43570E-02 2.63817E-14-1.93234E-13
 -1        14 2.05469E+01 6.15925E+00 2.25947E-01 1.34866E+00 2.80609E-14-5.81306E-14
 -1        15 1.91494E+01 5.75043E+00 2.00703E-01 2.63431E+00 2.81858E-14 7.15057E-14
 -1        16 1.69677E+01 5.11990E+00 9.19090E-02 3.57103E+00 2.62013E-14 1.72853E-13
 -1        17 1.45163E+01 4.41870E+00-9.59468E-02 3.76603E+00 2.75058E-14 2.62345E-13
 -1        18 1.28716E+01 3.96016E+00-2.84857E-01 3.03000E+00 3.00558E-14 3.51847E-13
 -1        19 1.31780E+01 4.06311E+00-3.63099E-01 1.71993E+00 2.87409E-14 4.70530E-13
 -1        20 1.59140E+01 4.86997E+00-2.67874E-01 5.29269E-01 2.79221E-14 6.57976E-13
 -1        21 2.09601E+01 6.32226E+00 9.34163E-03 3.51836E-01 2.13163E-14 9.27477E-13
 -1        22 2.72008E+01 7.94643E+00 3.97941E-01 2.23640E+00-3.41394E-15 1.27035E-12
 -1        23 2.15179E+01-1.26596E+00-9.05012E-01-9.15196E-01-1.03542E-13-8.01220E-13
 -1        24 1.68830E+01-1.03896E-01-3.32994E-01 3.24332E-02-2.26451E-14-1.15989E-12
 -1        25 1.54713E+01-6.26976E-02-8.08987E-02 4.20860E-02-5.17707E-15-1.39101E-12
 -1        26 1.46431E+01-2.99196E-02-1.66372E-02 1.39809E-02-6.95537E-15-1.50092E-12
 -1        27 1.41454E+01-2.34830E-02-1.44223E-02 6.82512E-03-2.11094E-15-1.61728E-12
 -1        28 1.39424E+01-2.13407E-02-2.07491E-02 8.38721E-03-1.88331E-14-1.67972E-12
 -1        29 1.40466E+01-1.94175E-02-2.35818E-02 1.53137E-02-4.71736E-15-1.74587E-12
 -1        30 1.44542E+01-1.58607E-02-2.07581E-02 2.36909E-02 1.65538E-14-1.80533E-12
 -1        31 1.51168E+01-1.05271E-02-1.33782E-02 3.00635E-02 3.10608E-15-1.77026E-12
 -1        32 1.59453E+01-4.35995E-03-4.00075E-03 3.23977E-02-1.45114E-14-1.82759E-12
 -1        33 1.68318E+01 1.35107E-03 4.63262E-03 3.04537E-02-2.51214E-15-1.88214E-12
 -1        34 1.76772E+01 5.60002E-03 1.06411E-02 2.53878E-02 1.75964E-14-1.80551E-12
 -1        35 1.84107E+01 7.97324E-03 1.34296E-02 1.89160E-02 8.48914E-15-1.75654E-12
 -1        36 1.89964E+01 8.61504E-03 1.34563E-02 1.25618E-02-1.53764E-14-1.69826E-12
 -1        37 1.94298E+01 7.99885E-03 1.16918E-02 7.27850E-03-1.34560E-14-1.66708E-12
 -1        38 1.97268E+01 6.67878E-03 9.12843E-03 3.42644E-03-6.29347E-15-1.67833E-12
 -1        39 1.99142E+01 5.12243E-03 6.50691E-03 9.43576E-04 4.24584E-14-1.54420E-12
 -1        40 2.00207E+01 3.64325E-03 4.25014E-03-4.45857E-04-6.83443E-15-1.38297E-12
 -1        41 2.00719E+01 2.40485E-03 2.51919E-03-1.07094E-03 2.46105E-14-1.50081E-12
 -1        42 2.00886E+01 1.45916E-03 1.30851E-03-1.22316E-03 5.39739E-15-1.54193E-12
 -1        43 2.00855E+01 7.90348E-04 5.31169E-04-1.12160E-03-5.53310E-14-1.57029E-12
 -1        44 2.00730E+01 3.50579E-04 7.67112E-05-9.11893E-04 8.51116E-14-1.47747E-12
 -1        45 2.00572E+01 8.35696E-05-1.57285E-04-6.80199E-04-6.66381E-14-1.33522E-12
 -1        46 2.00417E+01-6.24892E-05-2.52417E-04-4.70734E-04-3.30208E-15-1.51963E-12
 -1        47 2.00283E+01-1.29528E-04-2.67508E-04-3.01193E-04 4.16536E-14-1.57587E-12
 -1        48 2.00176E+01-1.48639E-04-2.41730E-04-1.74252E-04-1.79468E-14-1.41007E-12
 -1        49 2.00095E+01-1.41322E-04-1.99295E-04-8.52275E-05-1.06503E-14-1.45054E-12
 -1        50 2.00038E+01-1.21516E-04-1.53973E-04-2.67012E-05 4.73245E-15-1.60830E-12
 -1        51 2.00000E+01-9.76599E-05-1.12743E-04 8.96935E-06-4.20194E-14-1.79121E-12
 -1        52 1.99977E+01-7.44370E-05-7.84575E-05 2.84760E-05 4.83434E-14-1.51889E-12
 -1        53 1.99964E+01-5.41166E-05-5.16521E-05 3.71623E-05-1.19374E-14-1.32749E-12
 -1        54 1.99958E+01-3.75095E-05-3.16945E-05 3.90292E-05 1.59706E-14-1.51539E-12
 -1        55 1.99958E+01-2.46125E-05-1.74739E-05 3.69223E-05-1.03816E-14-1.55145E-12
 -1        56 1.99960E+01-1.50195E-05-7.78355E-06 3.27713E-05-5.57753E-15-1.47841E-12
 -1        57 1.99964E+01-8.16910E-06-1.51206E-06 2.78215E-05 1.37300E-13-1.31831E-12
 -1        58 1.99969E+01-3.48379E-06 2.27773E-06 2.28305E-05 1.72342E-14-1.31444E-12
 -1        59 1.99974E+01-4.39541E-07 4.33205E-06 1.82216E-05-7.99816E-14-1.26391E-12
 -1        60 1.99978E+01 1.40547E-06 5.22044E-06 1.41992E-05 2.96833E-14-6.23373E-13
 -1        61 1.99982E+01 2.40576E-06 5.36288E-06 1.08301E-05 4.32663E-14-3.26602E-13
 -1        62 1.99986E+01 2.83554E-06 5.05994E-06 8.10075E-06-1.72236E-14-5.74198E-13
 -1        63 1.99989E+01 2.90083E-06 4.52124E-06 5.95422E-06-1.50212E-13-9.33602E-13
 -1        64 1.99991E+01 2.75311E-06 3.89053E-06 4.31340E-06-2.69613E-14-1.60932E-12
 -1        65 1.99993E+01 2.50213E-06 3.26769E-06 3.09391E-06-1.41355E-14-1.27623E-12
 -1        66 1.99995E+01 2.22697E-06 2.72927E-06 2.20835E-06 5.90604E-14-6.95346E-13
 -1        67 1.99996E+01 1.98377E-06 2.34848E-06 1.56183E-06 1.23518E-13-1.02439E-13
 -1        68 1.99997E+01 1.80634E-06 2.20309E-06 1.03262E-06-4.57857E-14-4.17091E-14
 -1        69 1.99998E+01 1.68137E-06 2.30773E-06 4.29095E-07-2.35838E-13-8.27670E-13
 -1        70 1.99998E+01 1.34860E-06 2.20770E-06-6.86741E-07 1.50643E-13-9.81383E-13
 -1        71 1.99998E+01-2.43968E-07-2.17396E-07-2.12796E-06 4.95115E-14-6.13116E-13
 -1        72 3.28946E+01-5.36811E-01-1.10082E+00-6.91729E-01-3.62627E-14 1.70600E-12
 -1        73 3.60194E+01-3.45993E-02-2.36985E-01-2.73186E-01-1.21487E-14 1.90423E-12
 -1        74 3.99977E+01 1.02796E-01 2.71679E-01-3.75221E-01-4.56232E-16 2.03293E-12
 -1        75 4.25361E+01 1.63423E-01 7.91348E-01-2.53179E-01 1.84072E-14 2.11212E-12
 -1        76 3.89725E+01 9.16971E-03 6.53986E-01 5.36850E-01 1.75519E-14 2.34307E-12
 -1        77 2.67211E+01-2.85761E-01-1.19824E+00 1.68750E+00-8.77319E-14 2.89235E-12
 -1        78 1.60418E+01-1.99312E-01-3.00620E+00 1.01706E+00-3.15789E-14 3.10225E-12
 -1        79 1.61064E+01-1.17578E-01-3.02806E+00-4.85732E-01-1.36419E-14 3.12977E-12
 -1        80 2.56078E+01 6.72558E-02-1.32767E+00-1.55047E+00-3.11175E-14 2.78627E-12
 -1        81 3.75418E+01 9.28034E-02 4.91101E-01-1.16385E+00 8.68741E-14 2.39861E-12
 -1        82 4.16251E+01 6.76391E-02 7.94667E-01-1.65402E-01-2.58118E-14 1.89850E-12
 -1        83 3.83909E+01 1.39935E-02 3.13645E-01 2.45317E-01-4.97101E-15 1.74866E-12
 -1        84 3.31603E+01-2.65573E-02-3.70786E-02 2.58745E-01 3.72764E-14 1.73805E-12
 -1        85 2.86578E+01-3.74700E-02-1.35555E-01 1.74457E-01-4.32887E-14 1.84548E-12
 -1        86 2.54670E+01-3.28154E-02-1.18290E-01 1.01672E-01 2.91035E-14 2.14111E-12
 -1        87 2.33846E+01-2.42322E-02-7.84571E-02 5.58070E-02-1.56780E-14 1.92800E-12
 -1        88 2.20762E+01-1.65397E-02-4.68657E-02 2.97901E-02-8.70690E-15 1.90584E-12
 -1        89 2.12684E+01-1.08473E-02-2.69526E-02 1.56502E-02-4.44766E-14 1.74815E-12
 -1        90 2.07733E+01-6.96606E-03-1.53768E-02 8.11104E-03-2.52532E-14 1.65466E-12
 -1        91 2.04705E+01-4.42602E-03-8.80624E-03 4.13197E-03 9.80628E-14 7.07350E-13
 -1        92 2.02851E+01-2.79971E-03-5.07954E-03 2.04935E-03-7.62343E-14 1.10474E-12
 -1        93 2.01712E+01-1.77035E-03-2.95200E-03 9.70846E-04-2.54389E-14 1.45989E-12
 -1        94 2.01011E+01-1.12225E-03-1.72840E-03 4.21068E-04 1.33788E-14 1.31079E-12
 -1        95 2.00578E+01-7.14604E-04-1.01981E-03 1.47482E-04-4.10913E-15 1.13067E-12
 -1        96 2.00311E+01-4.57607E-04-6.06499E-04 1.64807E-05 5.67816E-14 1.07459E-12
 -1        97 2.00147E+01-2.94755E-04-3.63326E-04-4.21385E-05-8.51855E-14 1.04358E-12
 -1        98 2.00048E+01-1.90776E-04-2.18655E-04-6.48604E-05-9.85207E-15 1.52800E-12
 -1        99 1.99990E+01-1.23755E-04-1.31382E-04-7.03534E-05 6.80063E-15 2.04564E-12
 -1       100 1.99958E+01-8.00984E-05-7.78854E-05-6.79732E-05 6.81118E-14 1.17844E-12
 -1       101 1.99942E+01-5.13665E-05-4.45608E-05-6.22893E-05-5.26780E-14 1.03961E-12
 -1       102 1.99936E+01-3.22948E-05-2.35303E-05-5.54673E-05-6.20864E-14 9.71464E-13
 -1       103 1.99936E+01-1.95730E-05-1.01840E-05-4.85004E-05 1.15584E-13 3.69712E-13
 -1       104 1.99940E+01-1.10921E-05-1.77375E-06-4.18297E-05-1.36279E-14 8.08224E-13
 -1       105 1.99946E+01-5.48530E-06 3.38415E-06-3.56450E-05 3.83470E-14 1.79535E-12
 -1       106 1.99953E+01-1.84838E-06 6.35882E-06-3.00250E-05-4.56253E-14 1.54359E-12
 -1       107 1.99960E+01 4.30334E-07 7.85656E-06-2.49976E-05 1.63817E-13 8.84955E-13
 -1       108 1.99966E+01 1.77338E-06 8.36164E-06-2.05647E-05-8.20124E-14 8.30113E-13
 -1       109 1.99972E+01 2.47790E-06 8.21571E-06-1.67122E-05-4.50181E-14 1.61413E-12
 -1       110 1.99977E+01 2.75543E-06 7.66376E-06-1.34137E-05-1.00166E-13 1.09893E-12
 -1       111 1.99982E+01 2.75756E-06 6.88207E-06-1.06336E-05-1.19364E-13 8.75184E-13
 -1       112 1.99986E+01 2.59310E-06 5.99661E-06-8.32981E-06 1.22714E-13 1.05862E-12
 -1       113 1.99989E+01 2.34009E-06 5.09645E-06-6.45648E-06-7.51453E-15 5.73030E-13
 -1       114 1.99991E+01 2.05433E-06 4.24414E-06-4.96647E-06-3.43211E-14 9.19622E-13
 -1       115 1.99993E+01 1.77566E-06 3.48584E-06-3.81248E-06 6.19665E-14 1.11183E-12
 -1       116 1.99995E+01 1.53314E-06 2.86401E-06-2.94804E-06 1.76935E-14 9.55944E-13
 -1       117 1.99996E+01 1.34677E-06 2.43477E-06-2.32450E-06 2.47777E-14 2.56903E-14
 -1       118 1.99997E+01 1.22830E-06 2.28080E-06-1.86502E-06 8.69516E-14-4.14849E-13
 -1       119 1.99998E+01 1.13106E-06 2.37751E-06-1.39191E-06-4.45621E-14-3.56819E-13
 -1       120 1.99998E+01 8.78120E-07 2.28585E-06-5.57560E-07-5.76065E-14-1.37683E-14
 -1       121 1.99998E+01-8.95915E-07-2.23776E-07 1.54878E-06-2.98711E-13 7.26126E-13
 -1       122 1.99998E+01 5.20160E-06-2.26755E-07 2.38311E-06 5.18405E-13-1.38375E-13
 -1       123 1.99998E+01-4.32355E-06 2.35162E-06 1.85366E-07-3.17121E-13-1.75444E-13
 -1       124 1.99998E+01-4.19456E-05 1.88104E-06-1.43046E-06-3.89509E-13 2.58616E-13
 -1       125 1.99998E+01-9.74744E-05 6.85884E-07-2.00419E-06-8.69845E-13 2.57941E-13
 -1       126 1.99998E+01-1.59124E-04-3.56478E-07-2.07550E-06-1.42927E-12-3.09361E-13
 -1       127 1.99998E+01-2.15348E-04-1.19186E-06-1.77326E-06-1.55393E-12 1.88874E-13
 -1       128 1.99998E+01-2.58934E-04-1.76923E-06-1.17434E-06-7.95305E-13-1.65362E-13
 -1       129 1.99998E+01-2.82394E-04-2.06464E-06-4.11116E-07-1.72067E-12 1.24613E-13
 -1       130 1.99998E+01-2.82380E-04-2.06351E-06 4.05056E-07-1.58181E-12 9.45291E-14
 -1       131 1.99998E+01-2.58905E-04-1.76770E-06 1.16527E-06-1.36193E-12-1.57727E-13
 -1       132 1.99998E+01-2.15349E-04-1.18341E-06 1.77919E-06-1.72868E-12-1.55683E-13
 -1       133 1.99998E+01-1.59163E-04-3.59473E-07 2.07615E-06-1.31304E-12 3.53739E-13
 -1       134 1.99998E+01-9.74781E-05 6.95018E-07 2.00236E-06-1.30967E-12-1.75308E-13
 -1       135 1.99998E+01-4.18142E-05 1.90741E-06 1.51530E-06-6.58440E-13 1.60347E-13
 -1       136 1.99998E+01-4.87745E-06 2.03253E-06-8.61428E-08 3.61653E-13 4.11603E-14
 -1       137 1.99998E+01 4.78641E-06-2.19140E-07-3.87225E-06 2.73513E-13-6.18092E-14
 -1       138-1.84605E+00-2.56327E+01-3.65282E+00-5.13015E+00 2.49883E-12 4.77018E-13
 -1       139-3.45903E+00-1.63798E+01-3.45133E+00-6.55265E+00 1.69526E-12 6.49009E-13
 -1       140-9.68994E-01-3.64682E+00-2.75435E+00-1.45655E+00 1.11011E-12 9.52682E-13
 -1       141 1.06430E+01 6.25804E+00-1.29997E+00 8.59239E+00 1.03961E-12 1.05560E-12
 -1       142 3.71531E+01 9.86650E+00 1.55702E+00 1.87397E+01 4.80505E-13 7.61946E-13
 -1       143 6.79580E+01 6.35849E+00 4.96091E+00 1.91279E+01 1.20931E-13 2.26708E-13
 -1       144 8.91234E+01 2.22646E+00 7.37139E+00 5.71496E+00-3.79766E-14-1.83520E-13
 -1       145 8.31288E+01 3.23969E+00 6.67059E+00-1.11527E+01 1.81730E-14-3.16580E-13
 -1       146 5.69483E+01 7.52258E+00 3.70502E+00-1.94185E+01 8.93730E-14-2.82108E-13
 -1       147 2.71253E+01 8.71780E+00 3.40010E-01-1.54387E+01 1.12133E-14 1.95399E-14
 -1       148 5.18901E+00 2.69089E+00-2.15580E+00-4.37481E+00-2.25042E-13 1.50657E-13
 -1       149-3.29440E+00-8.68079E+00-3.40261E+00 4.62386E+00-5.91194E-13 3.79752E-13
 -1       150-3.27713E+00-1.95081E+01-3.70344E+00 6.91793E+00-9.20652E-13 3.50352E-13
 -1       151-1.27257E+00-2.44791E+01-3.43623E+00 3.72452E+00-1.00411E-12 1.50720E-13
 -1       152-6.37439E-01-2.09384E+01-2.87674E+00-9.81237E-01-1.02579E-12-7.57961E-14
 -1       153-9.19132E-01-1.05290E+01-2.16114E+00-2.27811E+00-8.87956E-13-2.43458E-13
 -1       154 7.82728E-01 1.25128E+00-1.36064E+00 1.38460E+00-5.53113E-13-2.88020E-13
 -1       155 8.89957E+00 1.05950E+01-2.99471E-01 9.74250E+00-8.70415E-14-3.15303E-14
 -1       156 2.56763E+01 1.32856E+01 9.66352E-01 1.82266E+01 3.55049E-13 4.85278E-13
 -1       157 4.56489E+01 9.48369E+00 2.13062E+00 2.02068E+01 4.88720E-13 1.19205E-12
 -1       158 6.29720E+01 3.72736E+00 3.02086E+00 1.34956E+01 3.95996E-13 1.73866E-12
 -1       159 6.53241E+01 3.18375E+00 3.28122E+00-1.26335E+01-3.86864E-13 1.98125E-12
 -1       160 5.04644E+01 8.57822E+00 2.63382E+00-1.99496E+01-6.46955E-13 1.60344E-12
 -1       161 3.13419E+01 1.29695E+01 1.58763E+00-1.97749E+01-8.63476E-13 1.26005E-12
 -1       162 1.45201E+01 1.23832E+01 3.52818E-01-1.33053E+01-8.18678E-13 8.69249E-13
 -1       163 3.31849E+00 5.03993E+00-9.47853E-01-4.31432E+00-5.55445E-13 4.27658E-13
 -1       164-1.07402E+00-7.34541E+00-2.10737E+00 2.27159E+00 1.27787E-13-1.13520E-14
 -1       165-1.15024E+00-1.99047E+01-2.97580E+00 3.36558E+00 1.17750E-12-2.78125E-13
 -1       166 2.00513E+01 3.83205E+00-6.45218E-02-4.41773E+00-1.03251E-13-8.64968E-13
 -1       167 1.98479E+01 4.29212E+00-5.08458E-02-3.69406E+00 6.24132E-14-7.68403E-13
 -1       168 2.03080E+01 4.52704E+00-3.50700E-02-3.07355E+00 1.56069E-13-6.40172E-13
 -1       169 2.10050E+01 4.58471E+00-2.83816E-02-2.41083E+00 2.17803E-13-5.05849E-13
 -1       170 2.16872E+01 4.49232E+00-2.54865E-02-1.63966E+00 2.51184E-13-3.58756E-13
 -1       171 2.21267E+01 4.25325E+00-2.31014E-02-6.99892E-01 2.77264E-13-2.19495E-13
 -1       172 2.20393E+01 3.91711E+00-1.98770E-02 4.43141E-01 3.01685E-13-8.37334E-14
 -1       173 2.10877E+01 3.62700E+00-1.63490E-02 1.74835E+00 3.11126E-13 3.63320E-14
 -1       174 1.90185E+01 3.61717E+00-1.53987E-02 3.01758E+00 3.38606E-13 1.55971E-13
 -1       175 1.59907E+01 4.09253E+00-1.53145E-02 3.84879E+00 3.64105E-13 2.39838E-13
 -1       176 1.29643E+01 4.97181E+00-1.65288E-02 3.78315E+00 3.66492E-13 3.02685E-13
 -1       177 1.16074E+01 5.76567E+00-1.91675E-02 2.77345E+00 3.48239E-13 3.82969E-13
 -1       178 1.31449E+01 5.98696E+00-2.74966E-02 1.36076E+00 2.98199E-13 5.06101E-13
 -1       179 1.80307E+01 5.42272E+00-3.50094E-02 4.13182E-01 2.11747E-13 6.90446E-13
 -1       180 2.52781E+01 4.00914E+00-1.87550E-02 6.52096E-01 4.17340E-14 9.52027E-13
 -1       181 3.11669E+01 9.05654E-01-3.17778E-01 6.75778E-01-8.17714E-14 1.23052E-12
 -1       182 2.04811E+01 9.36174E-01-1.77843E-03-2.55280E+00-1.45394E-13-7.73295E-13
 -1       183 1.85142E+01 2.17845E-01-1.17072E-02-1.30408E+00-1.01634E-13-7.58965E-13
 -1       184 1.72820E+01 1.27659E-01 1.47849E-02-7.62008E-01-5.52076E-14-7.62721E-13
 -1       185 1.65463E+01 9.21668E-02 1.24224E-02-4.54130E-01-5.91051E-14-7.79742E-13
 -1       186 1.61268E+01 9.18444E-02 7.93750E-03-2.00617E-01-3.23435E-14-7.87250E-13
 -1       187 1.59804E+01 9.47948E-02 5.28841E-03 4.89368E-02-2.62269E-14-7.71775E-13
 -1       188 1.60832E+01 8.70122E-02 3.82668E-03 2.87517E-01-3.16598E-14-7.54356E-13
 -1       189 1.64010E+01 6.52423E-02 2.76744E-03 4.85702E-01-3.12966E-15-7.50153E-13
 -1       190 1.68780E+01 3.40389E-02 1.76078E-03 6.15101E-01-2.15737E-14-7.59103E-13
 -1       191 1.74429E+01 1.62990E-03 7.54462E-04 6.63008E-01 9.87982E-15-7.50524E-13
 -1       192 1.80238E+01-2.44973E-02-1.72806E-04 6.36218E-01 1.25438E-14-7.45495E-13
 -1       193 1.85619E+01-4.03965E-02-9.12565E-04 5.55704E-01 2.99472E-14-7.72966E-13
 -1       194 1.90196E+01-4.59877E-02-1.38993E-03 4.47390E-01 2.71994E-14-7.17129E-13
 -1       195 1.93809E+01-4.37178E-02-1.59182E-03 3.34217E-01 1.41215E-14-6.40392E-13
 -1       196 1.96470E+01-3.68664E-02-1.56254E-03 2.31983E-01-3.00561E-14-5.63337E-13
 -1       197 1.98298E+01-2.83257E-02-1.37672E-03 1.48774E-01 6.43472E-14-5.81397E-13
 -1       198 1.99461E+01-2.00698E-02-1.11273E-03 8.65684E-02 4.50122E-14-6.68567E-13
 -1       199 2.00133E+01-1.31386E-02-8.33969E-04 4.35171E-02-4.22116E-14-6.35509E-13
 -1       200 2.00465E+01-7.86965E-03-5.81614E-04 1.59812E-02-6.90369E-14-5.91878E-13
 -1       201 2.00582E+01-4.17838E-03-3.75898E-04-5.86181E-05 2.81596E-14-6.78486E-13
 -1       202 2.00572E+01-1.78403E-03-2.21567E-04-8.21092E-03-4.58982E-15-6.51714E-13
 -1       203 2.00498E+01-3.57012E-04-1.14041E-04-1.13481E-02 2.41333E-16-7.71876E-13
 -1       204 2.00400E+01 4.02686E-04-4.44928E-05-1.15659E-02-8.24699E-15-5.82172E-13
 -1       205 2.00300E+01 7.34319E-04-3.23059E-06-1.02849E-02-2.19680E-14-4.01938E-13
 -1       206 2.00212E+01 8.12316E-04 1.84445E-05-8.40141E-03 2.51406E-14-4.60527E-13
 -1       207 2.00139E+01 7.54990E-04 2.74844E-05-6.43641E-03-1.44485E-14-5.02192E-13
 -1       208 2.00082E+01 6.37361E-04 2.90008E-05-4.65972E-03 1.15213E-15-4.76414E-13
 -1       209 2.00041E+01 5.03619E-04 2.65005E-05-3.18404E-03-7.55524E-14-4.88518E-13
 -1       210 2.00012E+01 3.77388E-04 2.22349E-05-2.03091E-03 1.80902E-13-3.05460E-13
 -1       211 1.99993E+01 2.69392E-04 1.75471E-05-1.17431E-03 2.95358E-14-3.56277E-13
 -1       212 1.99982E+01 1.82806E-04 1.31635E-05-5.67667E-04-1.40192E-15-2.75807E-13
 -1       213 1.99976E+01 1.16756E-04 9.41708E-06-1.59495E-04-7.94617E-14-2.79444E-13
 -1       214 1.99974E+01 6.85024E-05 6.40572E-06 9.83428E-05 2.85089E-14-4.04640E-13
 -1       215 1.99975E+01 3.47023E-05 4.09893E-06 2.47003E-04 1.23570E-13-3.02586E-13
 -1       216 1.99976E+01 1.20955E-05 2.40525E-06 3.19635E-04-2.84566E-14-5.61953E-13
 -1       217 1.99979E+01-2.17905E-06 1.21262E-06 3.41764E-04 1.84735E-14-4.30970E-13
 -1       218 1.99982E+01-1.04733E-05 4.10568E-07 3.32304E-04 2.45149E-13-4.32287E-13
 -1       219 1.99984E+01-1.46341E-05-9.89666E-08 3.04774E-04 2.75907E-13-1.21244E-13
 -1       220 1.99987E+01-1.60609E-05-3.97672E-07 2.68470E-04-9.97889E-14 2.78111E-14
 -1       221 1.99989E+01-1.57838E-05-5.50696E-07 2.29496E-04-3.91681E-13-1.10647E-13
 -1       222 1.99991E+01-1.45435E-05-6.08337E-07 1.91606E-04-3.52879E-13 4.13591E-14
 -1       223 1.99993E+01-1.28658E-05-6.08390E-07 1.56856E-04 1.37715E-13-9.85768E-14
 -1       224 1.99994E+01-1.11256E-05-5.77819E-07 1.26089E-04 1.09869E-13-8.11290E-14
 -1       225 1.99995E+01-9.60087E-06-5.32412E-07 9.92722E-05 3.22152E-13-5.25160E-14
 -1       226 1.99996E+01-8.51675E-06-4.74264E-07 7.57228E-05 2.98250E-14 2.32690E-15
 -1       227 1.99997E+01-8.05752E-06-3.91404E-07 5.42672E-05-3.00248E-13-3.01880E-13
 -1       228 1.99998E+01-8.27065E-06-3.19054E-07 3.35839E-05-1.90784E-16 3.24233E-14
 -1       229 1.99998E+01-8.52199E-06-2.34526E-07 1.32443E-05 2.16226E-13-1.04970E-13
 -1       230 3.15389E+01 4.48049E-01-1.64119E-02-1.59543E+00-5.34815E-14 1.11254E-12
 -1       231 3.29130E+01-9.10252E-03 9.41076E-02-2.35608E+00-4.94483E-14 1.08834E-12
 -1       232 3.47877E+01-1.13833E+00 1.59708E-01-1.06679E+00-8.48835E-14 1.17226E-12
 -1       233 3.59958E+01-2.27775E+00 6.34381E-02 2.63618E+00-1.67005E-13 1.37933E-12
 -1       234 3.60779E+01-7.06278E-01-2.68257E-01 6.38854E+00-3.30583E-13 1.56378E-12
 -1       235 3.56261E+01 3.07303E+00-3.98304E-01 4.35486E+00-6.43929E-14 1.70600E-12
 -1       236 3.54335E+01 3.58785E+00-4.10068E-01-1.89535E+00 1.48659E-13 1.66081E-12
 -1       237 3.59088E+01 8.80442E-01-2.86426E-01-6.40490E+00 2.63428E-13 1.36738E-12
 -1       238 3.62659E+01-1.96403E+00 2.36879E-02-4.44613E+00 2.90389E-13 1.10454E-12
 -1       239 3.45006E+01-1.70032E+00 1.27167E-01 1.70036E-01 1.21059E-13 9.55094E-13
 -1       240 3.16148E+01-4.53353E-01 5.46229E-02 2.75880E+00 1.58103E-14 9.67913E-13
 -1       241 2.86777E+01 1.50587E-01-5.74706E-03 3.09889E+00 2.10786E-14 9.96359E-13
 -1       242 2.61506E+01 2.84129E-01-1.42789E-02 2.49057E+00-7.43633E-14 9.79168E-13
 -1       243 2.41959E+01 2.43089E-01-5.51991E-03 1.74948E+00-1.22270E-13 9.34829E-13
 -1       244 2.27887E+01 1.70993E-01 1.63786E-03 1.15248E+00 7.94477E-14 9.47884E-13
 -1       245 2.18229E+01 1.11039E-01 4.20843E-03 7.35205E-01 5.35114E-14 8.68123E-13
 -1       246 2.11796E+01 6.94924E-02 4.12522E-03 4.61650E-01 7.81688E-14 7.59162E-13
 -1       247 2.07588E+01 4.27563E-02 3.18576E-03 2.87879E-01 2.39844E-13 5.81924E-13
 -1       248 2.04862E+01 2.61273E-02 2.22402E-03 1.79177E-01 2.39989E-13 4.63469E-13
 -1       249 2.03105E+01 1.59461E-02 1.48156E-03 1.11628E-01-2.19507E-13 5.99459E-13
 -1       250 2.01973E+01 9.75319E-03 9.66125E-04 6.97136E-02 1.58518E-14 4.58084E-13
 -1       251 2.01244E+01 5.99229E-03 6.24551E-04 4.36564E-02 1.69304E-13 3.73026E-13
 -1       252 2.00774E+01 3.70472E-03 4.02870E-04 2.73885E-02 1.40676E-14 4.15398E-13
 -1       253 2.00470E+01 2.30757E-03 2.60267E-04 1.71710E-02-8.59180E-14 5.86302E-13
 -1       254 2.00274E+01 1.44865E-03 1.68783E-04 1.07086E-02-8.11607E-14 6.75664E-13
 -1       255 2.00149E+01 9.15807E-04 1.10032E-04 6.59189E-03-2.57062E-13 6.34254E-13
 -1       256 2.00069E+01 5.81478E-04 7.21556E-05 3.95397E-03-2.36117E-14 5.39866E-13
 -1       257 2.00020E+01 3.68945E-04 4.75857E-05 2.25864E-03 4.04621E-13 5.48743E-13
 -1       258 1.99990E+01 2.32005E-04 3.15163E-05 1.17157E-03 4.16680E-14 5.33315E-13
 -1       259 1.99974E+01 1.42702E-04 2.09062E-05 4.81750E-04 2.04033E-13 3.36931E-13
 -1       260 1.99966E+01 8.39848E-05 1.38308E-05 5.40097E-05 1.70979E-13 1.59608E-13
 -1       261 1.99963E+01 4.53037E-05 9.06954E-06-1.99815E-04-4.63459E-13 2.15494E-13
 -1       262 1.99964E+01 2.00078E-05 5.84341E-06-3.38283E-04-2.60471E-13 6.32009E-13
 -1       263 1.99966E+01 3.79811E-06 3.65041E-06-4.00950E-04 1.67086E-13 7.64263E-13
 -1       264 1.99970E+01-6.18172E-06 2.16250E-06-4.14886E-04 2.48543E-13 6.15357E-13
 -1       265 1.99973E+01-1.18827E-05 1.16159E-06-3.98742E-04-1.43931E-13 7.12583E-13
 -1       266 1.99977E+01-1.46691E-05 4.99832E-07-3.65354E-04-6.15488E-14 4.85001E-13
 -1       267 1.99981E+01-1.55113E-05 7.49254E-08-3.23469E-04 1.87406E-13 3.91956E-13
 -1       268 1.99984E+01-1.51053E-05-1.85225E-07-2.78907E-04 4.53446E-14 4.87463E-13
 -1       269 1.99987E+01-1.39516E-05-3.32230E-07-2.35393E-04 2.03687E-13 5.45917E-13
 -1       270 1.99990E+01-1.24088E-05-4.03443E-07-1.95139E-04 1.91136E-13 4.46118E-13
 -1       271 1.99992E+01-1.07340E-05-4.26147E-07-1.59273E-04-1.42456E-13 4.66658E-13
 -1       272 1.99993E+01-9.11280E-06-4.20064E-07-1.28146E-04-5.86419E-14 3.82183E-13
 -1       273 1.99995E+01-7.68352E-06-3.95783E-07-1.01536E-04 3.05969E-13 1.62865E-13
 -1       274 1.99996E+01-6.56537E-06-3.51918E-07-7.87922E-05 3.33412E-13-2.73825E-13
 -1       275 1.99997E+01-5.89290E-06-2.74610E-07-5.88833E-05 2.00677E-14-2.65859E-13
 -1       276 1.99997E+01-5.75650E-06-1.44489E-07-4.04520E-05-2.36247E-14-1.71619E-13
 -1       277 1.99998E+01-6.09528E-06-9.17017E-08-2.24476E-05-5.26317E-14-3.23770E-13
 -1       278 1.99998E+01-5.39280E-06-3.92590E-07-5.28603E-06-3.45736E-13-3.11607E-13
 -1       279 1.99998E+01-1.79805E-05-2.12252E-07-1.45262E-05-2.79977E-13-3.84952E-13
 -1       280 1.99998E+01-4.58670E-05-6.56106E-08-3.19622E-05-3.29260E-13-2.09467E-13
 -1       281 1.99998E+01-8.45549E-05-5.56063E-08-4.40660E-05-4.30618E-13-1.27122E-13
 -1       282 1.99998E+01-1.28639E-04 1.61135E-08-4.82811E-05-6.18218E-13-1.66165E-13
 -1       283 1.99998E+01-1.71268E-04 1.11707E-07-4.45460E-05-4.24054E-13-1.95828E-13
 -1       284 1.99998E+01-2.07593E-04 1.96298E-07-3.38683E-05-4.37154E-13 1.19298E-13
 -1       285 1.99998E+01-2.31589E-04 2.56553E-07-1.82084E-05-3.81284E-13-3.62347E-13
 -1       286 1.99998E+01-2.39932E-04 2.77483E-07 2.86582E-08-5.55905E-13 2.43412E-13
 -1       287 1.99998E+01-2.31473E-04 2.56347E-07 1.82502E-05-1.50042E-13 3.87104E-14
 -1       288 1.99998E+01-2.07385E-04 1.96747E-07 3.38817E-05-5.33293E-13-3.17323E-13
 -1       289 1.99998E+01-1.71748E-04 1.08335E-07 4.44239E-05-6.60441E-13 2.36091E-13
 -1       290 1.99998E+01-1.28405E-04 2.36395E-08 4.83059E-05-4.97937E-13 1.94175E-13
 -1       291 1.99998E+01-8.42337E-05-2.89081E-08 4.40568E-05-1.62144E-13 2.95007E-13
 -1       292 1.99998E+01-4.61728E-05-1.95515E-07 3.16555E-05-2.54465E-13 4.94726E-13
 -1       293 1.99998E+01-2.58923E-05-2.12589E-07 2.49985E-05-9.90142E-14 2.75551E-13
 -1       294-1.67831E+00-1.15678E+01-9.87985E-01-8.56159E-01 8.18720E-13 3.10363E-13
 -1       295 7.79785E-01-1.05410E+01-1.00892E+00 1.38001E+00 9.07802E-13 4.32987E-14
 -1       296 7.48471E+00-8.08989E+00-9.28948E-01 3.80614E+00 8.66807E-13 2.73826E-13
 -1       297 1.87804E+01-5.35517E+00-5.89224E-01 5.47906E+00 6.11844E-13 5.81174E-13
 -1       298 3.37587E+01-3.02413E+00-1.90004E-02 4.07658E+00 6.44984E-13 5.73763E-13
 -1       299 4.71759E+01 2.01871E+00 1.03182E+00 2.86536E+00 5.06494E-13 6.87062E-13
 -1       300 5.60425E+01 6.02175E+00 1.99290E+00 8.90901E-01 3.13360E-13 7.54674E-13
 -1       301 5.33736E+01 7.18034E+00 1.56421E+00 8.11266E-01 4.76286E-14 9.25329E-13
 -1       302 5.26143E+01 4.38912E+00 1.54555E+00-2.24974E-01-1.64174E-13 6.40821E-13
 -1       303 4.25903E+01 2.44067E-01 6.10614E-01-3.37804E+00-2.63567E-13 4.53970E-13
 -1       304 2.95879E+01-4.56089E+00-2.72974E-01-3.99261E+00-3.63126E-13 3.83527E-13
 -1       305 1.41657E+01-6.16876E+00-8.42935E-01-4.57188E+00-4.13947E-13 1.45439E-13
 -1       306 3.90121E+00-8.45421E+00-1.13941E+00-2.00981E+00-4.12004E-13 9.73423E-14
 -1       307-7.69538E-01-9.36317E+00-1.02027E+00 2.81795E-01-3.32109E-13 1.05638E-13
 -1       308-1.61324E+00-9.56597E+00-9.36565E-01 2.42458E+00-3.25254E-13 3.92186E-14
 -1       309 9.85514E-01-6.29847E+00-6.07801E-01 4.56742E+00-1.62120E-13 6.24917E-14
 -1       310 5.84483E+00-3.43673E+00-5.12643E-01 6.03526E+00-1.31478E-13 1.27131E-13
 -1       311 1.35068E+01 4.98542E-01-2.49471E-01 8.18539E+00-3.56104E-14 2.82011E-13
 -1       312 2.52424E+01 2.43965E+00 6.20563E-02 8.87024E+00 4.58522E-14 5.08066E-13
 -1       313 3.55124E+01 5.68175E+00 4.61710E-01 9.19963E+00 5.56222E-14 7.13207E-13
 -1       314 4.45366E+01 6.72644E+00 7.66936E-01 6.70196E+00 4.60187E-14 8.91370E-13
 -1       315 4.72698E+01 7.91836E+00 6.98982E-01 1.68128E+00-6.40044E-14 7.84178E-13
 -1       316 5.02293E+01 7.31970E+00 9.87877E-01-2.40520E+00-2.27596E-14 8.73523E-13
 -1       317 4.59713E+01 6.91858E+00 9.00162E-01-6.26611E+00-8.46129E-14 7.62890E-13
 -1       318 3.81950E+01 5.72347E+00 6.41710E-01-8.76257E+00-1.12133E-13 5.73430E-13
 -1       319 2.85485E+01 3.49559E+00 2.96823E-01-9.47473E+00-1.22596E-13 4.75120E-13
 -1       320 1.85720E+01 2.06700E-01-8.59391E-02-8.64465E+00-1.35031E-13 3.56909E-13
 -1       321 9.69736E+00-3.98250E+00-4.58543E-01-6.79187E+00 5.44009E-14 4.46740E-13
 -1       322 3.01175E+00-8.20106E+00-7.76085E-01-4.65174E+00 3.58130E-13 4.23467E-13
 -1       323-6.88399E-01-1.11423E+01-9.47682E-01-2.75900E+00 7.09571E-13 2.71907E-13
 -1       324 2.04465E+01 3.02842E+00-2.41117E-02-3.06224E+00 9.26039E-14-5.68896E-13
 -1       325 2.00851E+01 2.32063E+00-1.90426E-02-3.26164E+00-3.13183E-14-6.40864E-13
 -1       326 2.19764E+01 3.28556E+00-2.39963E-02-2.15498E+00 2.55625E-13-3.61366E-13
 -1       327 2.27312E+01 3.01990E+00-2.51751E-02-1.47241E+00 2.92526E-13-2.32882E-13
 -1       328 2.31739E+01 2.56185E+00-2.58210E-02-5.34587E-01 3.27022E-13-9.00738E-14
 -1       329 2.29415E+01 2.05884E+00-2.38454E-02 7.68209E-01 3.46914E-13 1.30156E-14
 -1       330 2.15468E+01 1.82557E+00-1.66130E-02 2.43990E+00 3.73929E-13 1.43739E-13
 -1       331 1.86190E+01 2.26867E+00-4.28509E-03 4.15581E+00 4.21606E-13 2.38729E-13
 -1       332 1.44516E+01 3.61483E+00 2.78136E-02 5.08373E+00 4.51630E-13 2.81932E-13
 -1       333 1.08897E+01 5.22716E+00 5.42156E-02 4.40300E+00 4.48353E-13 3.13348E-13
 -1       334 1.01781E+01 6.06322E+00 6.50675E-02 2.25082E+00 4.02679E-13 3.60437E-13
 -1       335 1.39816E+01 5.31869E+00 4.57476E-02-1.54052E-01 2.78983E-13 4.58522E-13
 -1       336 2.13365E+01 3.33271E+00 1.09811E-02-1.36707E+00 1.10882E-13 6.52215E-13
 -1       337 2.65908E+01 1.73462E+00 1.26547E-02-1.74477E+00-3.61169E-15 8.01378E-13
 -1       338 2.70523E+01 3.33787E-01 7.17573E-02-3.25583E+00-3.94754E-14 7.12617E-13
 -1       339 1.92640E+01 7.47473E-01 1.36377E-02-1.85077E+00-5.62224E-14-5.46317E-13
 -1       340 1.85438E+01 4.68342E-01 9.01258E-03-1.19002E+00-4.13675E-14-4.88633E-13
 -1       341 1.80228E+01 4.02318E-01 6.64881E-03-6.93311E-01-2.95842E-14-4.24949E-13
 -1       342 1.77065E+01 3.98344E-01 4.81909E-03-2.32481E-01-2.72536E-14-4.12588E-13
 -1       343 1.76009E+01 3.80170E-01 3.81570E-03 2.12245E-01-9.36295E-15-4.00727E-13
 -1       344 1.76917E+01 3.14550E-01 2.99647E-03 6.05421E-01 3.16435E-15-3.45368E-13
 -1       345 1.79394E+01 2.04247E-01 2.04535E-03 8.96565E-01 1.90256E-15-3.42484E-13
 -1       346 1.82847E+01 7.48446E-02 9.74737E-04 1.05214E+00-2.79114E-14-3.69921E-13
 -1       347 1.86642E+01-4.25057E-02-6.47204E-05 1.07074E+00 2.42739E-15-3.91797E-13
 -1       348 1.90256E+01-1.25831E-01-9.08506E-04 9.79997E-01 5.94886E-14-4.03436E-13
 -1       349 1.93359E+01-1.68148E-01-1.44832E-03 8.22198E-01 3.19806E-14-3.59378E-13
 -1       350 1.95811E+01-1.74808E-01-1.66524E-03 6.39134E-01 1.01089E-13-2.29969E-13
 -1       351 1.97617E+01-1.57314E-01-1.62064E-03 4.62605E-01-1.36875E-14-2.79615E-13
 -1       352 1.98861E+01-1.27700E-01-1.40767E-03 3.11470E-01-2.05272E-15-3.36664E-13
 -1       353 1.99659E+01-9.53200E-02-1.11842E-03 1.93237E-01-1.00094E-14-3.62144E-13
 -1       354 2.00128E+01-6.59361E-02-8.22568E-04 1.07580E-01 2.14032E-14-3.77591E-13
 -1       355 2.00368E+01-4.21960E-02-5.61920E-04 4.98960E-02 5.63089E-15-3.54817E-13
 -1       356 2.00459E+01-2.46211E-02-3.54644E-04 1.39992E-02 2.96687E-14-2.71118E-13
 -1       357 2.00460E+01-1.25569E-02-2.02828E-04-6.20269E-03-8.74912E-14-2.28601E-13
 -1       358 2.00413E+01-4.87225E-03-9.96069E-05-1.58755E-02-2.57782E-14-2.63061E-13
 -1       359 2.00344E+01-3.83785E-04-3.46207E-05-1.89933E-02 8.19230E-14-1.96395E-13
 -1       360 2.00271E+01 1.93436E-03 2.66190E-06-1.83901E-02 7.36932E-14-9.87658E-14
 -1       361 2.00203E+01 2.87884E-03 2.12721E-05-1.59553E-02-2.33924E-15-1.20701E-13
 -1       362 2.00144E+01 3.02106E-03 2.81842E-05-1.28638E-02 5.75182E-14-5.03752E-14
 -1       363 2.00097E+01 2.74437E-03 2.83757E-05-9.78688E-03-6.54193E-14 1.08823E-13
 -1       364 2.00060E+01 2.28969E-03 2.51648E-05-7.06293E-03-1.74070E-15 1.24623E-13
 -1       365 2.00033E+01 1.79765E-03 2.06179E-05-4.82361E-03 1.27661E-13 2.63222E-13
 -1       366 2.00013E+01 1.34238E-03 1.59225E-05-3.08185E-03 3.79013E-15 6.04113E-14
 -1       367 2.00000E+01 9.56531E-04 1.16870E-05-1.78955E-03 4.67290E-14-1.01415E-13
 -1       368 1.99992E+01 6.48566E-04 8.16173E-06-8.73254E-04-3.61679E-14-4.73650E-14
 -1       369 1.99988E+01 4.14073E-04 5.39117E-06-2.54787E-04-1.00262E-13 5.33129E-14
 -1       370 1.99985E+01 2.42800E-04 3.31331E-06 1.37986E-04-2.28231E-14 2.09291E-14
 -1       371 1.99985E+01 1.22740E-04 1.82056E-06 3.66437E-04-8.54663E-14-2.25871E-13
 -1       372 1.99985E+01 4.23302E-05 7.94719E-07 4.79987E-04 1.33700E-13-3.29557E-15
 -1       373 1.99987E+01-8.53456E-06 1.25301E-07 5.16767E-04 2.22909E-13-8.52204E-14
 -1       374 1.99988E+01-3.81570E-05-2.82422E-07 5.05138E-04 3.46014E-13 3.38117E-14
 -1       375 1.99990E+01-5.30694E-05-5.05244E-07 4.65461E-04 3.39399E-13-1.21063E-13
 -1       376 1.99991E+01-5.82397E-05-6.02965E-07 4.11816E-04-1.04638E-13 3.15439E-13
 -1       377 1.99992E+01-5.73452E-05-6.20762E-07 3.53493E-04-1.97602E-13 5.72318E-13
 -1       378 1.99994E+01-5.30517E-05-5.91947E-07 2.96236E-04-4.12055E-13 6.52211E-13
 -1       379 1.99995E+01-4.72704E-05-5.40871E-07 2.43200E-04 2.51648E-13 4.30299E-13
 -1       380 1.99996E+01-4.13754E-05-4.84337E-07 1.95682E-04 2.72631E-13 5.45740E-13
 -1       381 1.99996E+01-3.63656E-05-4.31341E-07 1.53661E-04 1.33118E-13 4.37882E-14
 -1       382 1.99997E+01-3.29442E-05-3.86846E-07 1.16254E-04-4.09489E-13-4.34986E-14
 -1       383 1.99997E+01-3.14669E-05-4.10248E-07 8.20970E-05 1.96801E-14 3.48762E-13
 -1       384 1.99998E+01-2.91509E-05-2.83954E-07 5.22742E-05 2.25507E-13 4.28969E-13
 -1       385 2.89579E+01-2.29176E+00 1.01048E-01-3.02485E+00-1.56895E-13 7.16335E-13
 -1       386 3.12526E+01-5.87538E+00-2.58064E-02 1.71714E+00 3.05464E-13 3.99347E-13
 -1       387 2.61190E+01-2.71136E+00 9.27536E-02 4.43507E+00-3.12944E-15 2.47323E-13
 -1       388 2.37250E+01-1.93195E-02 4.57221E-02 4.94130E+00-1.25743E-13 2.92169E-13
 -1       389 2.27014E+01 9.34128E-01 1.91192E-02 4.16386E+00-3.38399E-14 4.63483E-13
 -1       390 2.20869E+01 1.00006E+00 1.13134E-02 3.10517E+00-5.18335E-14 3.87228E-13
 -1       391 2.16016E+01 7.86593E-01 1.02684E-02 2.16662E+00 9.05461E-14 2.73568E-13
 -1       392 2.11942E+01 5.49549E-01 8.95636E-03 1.45431E+00 5.64223E-14 2.60953E-13
 -1       393 2.08657E+01 3.62871E-01 6.84556E-03 9.54178E-01 8.34489E-14 2.47275E-13
 -1       394 2.06140E+01 2.32757E-01 4.75972E-03 6.18108E-01 1.14013E-13 2.46778E-13
 -1       395 2.04285E+01 1.47117E-01 3.12781E-03 3.97848E-01 2.34077E-13 4.20232E-13
 -1       396 2.02954E+01 9.23704E-02 1.99456E-03 2.55471E-01 7.87293E-16 4.72578E-13
 -1       397 2.02017E+01 5.78953E-02 1.25436E-03 1.64071E-01 3.39012E-14 2.03944E-13
 -1       398 2.01364E+01 3.63440E-02 7.85106E-04 1.05529E-01 1.66258E-13 2.20478E-13
 -1       399 2.00913E+01 2.29060E-02 4.91582E-04 6.79930E-02-1.01274E-14 3.17106E-13
 -1       400 2.00603E+01 1.45196E-02 3.08801E-04 4.38423E-02-7.24683E-14 2.44607E-13
 -1       401 2.00391E+01 9.26613E-03 1.94947E-04 2.82238E-02-1.71162E-13 3.39808E-13
 -1       402 2.00247E+01 5.95417E-03 1.23769E-04 1.80627E-02-2.53082E-14 2.75861E-13
 -1       403 2.00149E+01 3.84775E-03 7.90030E-05 1.14140E-02 3.11324E-14 1.45456E-14
 -1       404 2.00084E+01 2.49355E-03 5.06176E-05 7.04526E-03 1.86578E-13-1.22546E-13
 -1       405 2.00041E+01 1.61261E-03 3.24426E-05 4.17128E-03 2.26438E-13 2.80271E-15
 -1       406 2.00014E+01 1.03290E-03 2.06832E-05 2.28776E-03 2.74758E-13 1.15415E-13
 -1       407 1.99997E+01 6.47784E-04 1.30003E-05 1.06688E-03 2.39523E-13 2.27891E-13
 -1       408 1.99987E+01 3.90547E-04 7.94373E-06 2.92513E-04-7.28666E-14 1.42572E-13
 -1       409 1.99982E+01 2.18822E-04 4.60575E-06-1.80071E-04-5.82532E-13-2.95950E-14
 -1       410 1.99980E+01 1.05197E-04 2.41029E-06-4.49289E-04-2.95801E-13 1.93162E-13
 -1       411 1.99980E+01 3.15237E-05 9.84999E-07-5.82926E-04 3.09384E-13 5.86895E-13
 -1       412 1.99981E+01-1.45061E-05 8.40156E-08-6.28082E-04 1.58665E-13 4.13054E-13
 -1       413 1.99983E+01-4.14312E-05-4.58657E-07-6.17582E-04 1.18961E-14 6.10718E-14
 -1       414 1.99985E+01-5.52858E-05-7.57466E-07-5.74221E-04 4.08627E-14-1.57844E-15
 -1       415 1.99987E+01-6.03878E-05-8.92683E-07-5.13632E-04 7.88813E-14 9.69808E-14
 -1       416 1.99989E+01-5.98450E-05-9.21304E-07-4.46293E-04 2.12245E-13-1.33669E-13
 -1       417 1.99991E+01-5.58957E-05-8.84133E-07-3.78962E-04 1.84370E-13 7.29667E-14
 -1       418 1.99992E+01-5.01488E-05-8.10491E-07-3.15705E-04-1.70399E-13 3.78567E-13
 -1       419 1.99994E+01-4.37633E-05-7.22131E-07-2.58652E-04 5.63579E-14 3.43409E-13
 -1       420 1.99995E+01-3.75789E-05-6.35692E-07-2.08531E-04 6.48371E-14-1.72058E-13
 -1       421 1.99996E+01-3.22139E-05-5.55033E-07-1.65068E-04 5.74129E-13-8.23786E-14
 -1       422 1.99996E+01-2.81825E-05-4.79346E-07-1.27265E-04 2.05345E-13-2.59114E-13
 -1       423 1.99997E+01-2.58652E-05-4.40373E-07-9.37044E-05 8.62165E-16-3.53082E-13
 -1       424 1.99997E+01-2.50191E-05-1.25870E-07-6.22565E-05-1.42775E-13-6.55642E-13
 -1       425 1.99998E+01-2.31749E-05-3.23706E-07-3.68860E-05-2.88426E-13-4.98468E-13
 -1       426 1.99998E+01-1.10592E-04-5.84780E-08-8.36283E-05-3.52524E-13-1.14536E-13
 -1       427 1.99998E+01-7.19518E-05-2.13805E-07-7.23830E-05-1.29527E-13-4.81219E-14
 -1       428 1.99998E+01-1.48210E-04 5.50929E-08-8.23722E-05-2.40463E-14-3.67714E-13
 -1       429 1.99998E+01-1.81816E-04 1.55947E-07-6.88259E-05 1.27849E-13 2.81135E-13
 -1       430 1.99998E+01-2.06669E-04 2.33163E-07-4.54492E-05 1.71415E-14-2.75633E-13
 -1       431 1.99998E+01-2.19814E-04 2.73430E-07-1.57901E-05-1.21029E-13-7.12204E-14
 -1       432 1.99998E+01-2.19683E-04 2.72725E-07 1.60012E-05 1.38295E-14 2.48387E-13
 -1       433 1.99998E+01-2.06302E-04 2.31373E-07 4.55976E-05-2.20044E-14-1.40335E-13
 -1       434 1.99998E+01-1.81813E-04 1.54249E-07 6.85608E-05 2.82783E-13-8.14220E-14
 -1       435 1.99998E+01-1.48286E-04 5.78392E-08 8.22190E-05 1.26456E-13 5.42147E-13
 -1       436 1.99998E+01-1.10068E-04-5.62856E-08 8.36394E-05-9.92173E-14 1.38311E-13
 -1       437 1.99998E+01-7.12761E-05-1.98564E-07 7.22679E-05-2.65766E-13 2.26853E-13
 -1       438 1.00407E+01-4.83288E+00 1.64423E-02 5.83879E+00 3.51316E-13-2.64372E-14
 -1       439 1.06808E+00-3.46339E+00 5.77976E-03-2.37848E+00 1.60181E-13 3.42365E-13
 -1       440 2.02631E+00-4.60974E+00-9.66409E-02 2.21770E+00 3.23200E-13 5.99520E-14
 -1       441 1.95788E+01-6.27657E+00-8.74079E-02 5.94379E+00 4.09311E-13 2.96785E-13
 -1       442 2.11535E+01 3.30195E+00-2.39602E-02-2.67665E+00 1.85874E-13-4.69823E-13
 -1       443 4.12676E+01-3.49223E-01 6.81781E-02 4.90852E+00-3.60850E-13 1.15338E-12
 -1       444 3.74380E+01-4.23745E+00 6.06437E-03 2.03949E+00-3.09440E-13 9.07524E-13
 -1       445 2.66372E+01-6.42552E+00-1.34533E-01-3.64355E+00-3.59102E-13 3.96405E-13
 -1       446 1.48701E+01-5.54180E+00-1.72312E-01-5.33264E+00-2.64094E-13 1.31554E-13
 -1       447 6.43684E+00-3.23351E+00-5.81283E-02-3.80472E+00-8.00471E-14 7.54535E-14
 -1       448 7.68825E-01-2.10546E+00-6.08264E-02 5.82730E-01 2.34691E-14 7.96307E-14
 -1       449 1.22907E+00-1.52496E+00-1.88033E-02 4.54304E+00 1.44884E-13 1.24539E-13
 -1       450 7.18235E+00-1.46511E+00 4.63161E-02 8.07546E+00 2.30232E-13 2.74974E-13
 -1       451 1.33905E+01-2.07662E+00-1.93798E-02 8.78965E+00 1.78163E-13 3.58899E-13
 -1       452 2.26721E+01-1.66518E+00 1.34755E-02 7.60317E+00 8.02275E-14 4.83731E-13
 -1       453 3.12064E+01 1.52683E+00 1.66813E-02 4.76132E+00-5.13235E-14 5.15615E-13
 -1       454 3.57050E+01 4.44844E+00 1.06696E-02 1.83537E+00-1.10578E-13 4.90913E-13
 -1       455 3.74811E+01 7.45175E+00-3.67363E-02 2.69545E-01-1.03140E-13 3.98181E-13
 -1       456 3.77432E+01 9.39139E+00-4.53896E-02-1.89183E-01 2.67286E-14 2.96404E-13
 -1       457 3.84926E+01 8.29479E+00 4.72452E-02-4.55759E-01 1.30410E-13 2.26846E-13
 -1       458 3.69423E+01 4.85189E+00 6.16638E-02-1.91733E+00 1.35253E-13 2.31148E-13
 -1       459 3.30863E+01 9.01483E-01 4.43536E-02-4.04695E+00 2.14620E-13 2.11026E-13
 -1       460 2.68985E+01-2.29787E+00 1.83834E-02-6.70258E+00 1.24456E-13 3.19744E-14
 -1       461 1.89085E+01-4.33214E+00-2.05883E-02-8.39899E+00 1.77997E-13 2.82371E-13
 -1       462 1.06582E+01-4.87717E+00-3.23301E-02-8.42306E+00 1.80661E-13 4.72906E-13
 -1       463 3.37387E+00-4.42933E+00-4.77785E-02-5.79228E+00 1.79926E-13 5.64895E-13
 -1       464 3.84777E+01-2.89728E+00-5.91764E-02-3.83752E+00 3.89060E-13 8.54247E-13
 -1       465 3.10398E+01-4.27136E+00 6.85002E-02-1.53841E+00-2.70249E-13 7.47850E-13
 -1       466 3.33610E+01 8.68180E+00-1.56947E-01-9.95467E-01-5.43315E-14 1.51344E-13
 -1       467 2.76072E+01-1.51261E+00-2.29112E-02 4.71371E+00 3.69912E-14 4.57120E-13
 -1       468 1.89200E+01-2.15259E-01 1.63337E-01-4.55480E+00-1.44676E-14 3.41088E-13
 -1       469 2.37673E+01 1.96369E+00-1.22155E-02-1.49224E+00 2.59470E-13-1.54270E-13
 -1       470 2.28782E+01 2.36131E+00-1.11007E-02-2.07083E+00 2.42956E-13-2.73379E-13
 -1       471 2.40952E+01 5.44810E-01-1.05411E-02 1.19038E+00 2.85634E-13 1.06589E-13
 -1       472 2.22050E+01 1.75104E-01 1.10610E-02 3.62425E+00 3.28775E-13 2.46696E-13
 -1       473 1.78372E+01 9.10884E-01 5.74857E-02 6.06390E+00 4.13102E-13 3.04815E-13
 -1       474 1.19056E+01 2.84989E+00 1.18540E-01 6.73175E+00 4.50468E-13 3.16528E-13
 -1       475 7.49284E+00 4.57714E+00 1.47916E-01 4.41936E+00 4.33731E-13 2.78444E-13
 -1       476 8.71442E+00 4.66682E+00 1.63869E-01 1.29080E-01 3.19115E-13 2.76557E-13
 -1       477 1.62186E+01-5.71447E-01 1.90229E-01 5.88908E+00-1.30944E-13 1.08295E-13
 -1       478 1.71538E+01 1.49935E+00 4.88806E-02 4.57147E+00-1.86967E-13 2.21387E-13
 -1       479 2.00048E+01 1.13628E+00 3.78932E-03-1.94855E+00 1.72190E-14-4.19611E-13
 -1       480 2.04242E+01 1.81809E+00-5.84858E-03-2.56094E+00 4.59932E-14-4.87416E-13
 -1       481 1.95939E+01 8.98898E-01 3.19222E-03-1.33746E+00 3.01770E-14-3.53851E-13
 -1       482 1.92252E+01 8.65430E-01 2.39801E-03-7.35442E-01 4.39590E-15-2.65249E-13
 -1       483 1.89905E+01 8.53831E-01 1.83932E-03-1.19932E-01 2.37511E-15-2.22630E-13
 -1       484 1.89285E+01 7.61371E-01 1.49106E-03 4.65589E-01 2.46152E-14-2.26707E-13
 -1       485 1.90273E+01 5.62739E-01 1.10510E-03 9.41513E-01-4.04136E-15-2.28933E-13
 -1       486 1.92341E+01 2.95577E-01 6.76045E-04 1.24178E+00 2.35228E-14-2.06811E-13
 -1       487 1.94800E+01 2.66042E-02 2.29323E-04 1.34505E+00-1.91900E-14-1.76820E-13
 -1       488 1.97061E+01-1.85436E-01-2.06122E-04 1.27954E+00 2.38724E-14-1.37357E-13
 -1       489 1.98798E+01-3.12636E-01-5.48336E-04 1.10256E+00 9.09114E-14-1.16025E-13
 -1       490 1.99942E+01-3.57577E-01-7.29067E-04 8.75142E-01 1.29570E-13-7.00576E-14
 -1       491 2.00579E+01-3.41196E-01-7.63999E-04 6.45565E-01-5.58112E-15-1.15584E-13
 -1       492 2.00855E+01-2.89455E-01-6.92535E-04 4.43563E-01-6.98128E-14-1.01549E-13
 -1       493 2.00909E+01-2.24508E-01-5.66012E-04 2.82221E-01-7.69048E-14-1.33834E-13
 -1       494 2.00846E+01-1.61262E-01-4.25783E-04 1.63021E-01-6.30647E-14-1.98555E-13
 -1       495 2.00733E+01-1.07603E-01-2.97175E-04 8.09705E-02-1.70255E-15-2.71498E-13
 -1       496 2.00607E+01-6.62265E-02-1.92102E-04 2.84680E-02 5.44438E-15-2.68252E-13
 -1       497 2.00489E+01-3.66951E-02-1.13571E-04-2.29668E-03 7.33945E-14-9.48483E-14
 -1       498 2.00384E+01-1.70700E-02-5.91282E-05-1.81230E-02-4.22240E-14-7.60360E-14
 -1       499 2.00296E+01-4.98328E-03-2.41026E-05-2.43605E-02 2.37794E-14-3.22338E-14
 -1       500 2.00224E+01 1.77823E-03-3.41121E-06-2.49147E-02 1.11475E-13-4.05098E-14
 -1       501 2.00166E+01 5.02299E-03 7.44802E-06-2.24596E-02-4.64584E-14-1.23982E-13
 -1       502 2.00120E+01 6.10369E-03 1.20287E-05-1.87140E-02 1.27184E-13-2.30545E-13
 -1       503 2.00084E+01 5.96434E-03 1.29061E-05-1.47061E-02 1.62173E-13-1.30691E-13
 -1       504 2.00057E+01 5.22383E-03 1.18259E-05-1.09932E-02-9.67746E-14 6.46247E-14
 -1       505 2.00036E+01 4.26238E-03 9.89415E-06-7.83030E-03 3.42128E-14-5.50303E-15
 -1       506 2.00021E+01 3.29572E-03 7.76135E-06-5.28966E-03-1.08715E-13-8.71595E-14
 -1       507 2.00010E+01 2.43256E-03 5.77344E-06-3.34290E-03-1.40512E-13-1.41936E-13
 -1       508 2.00003E+01 1.71601E-03 4.08512E-06-1.91318E-03-2.39580E-14-1.10460E-13
 -1       509 1.99998E+01 1.15177E-03 2.73890E-06-9.06990E-04-8.99998E-14-5.71911E-14
 -1       510 1.99995E+01 7.26268E-04 1.71731E-06-2.32012E-04-5.39778E-14 3.17720E-14
 -1       511 1.99993E+01 4.17870E-04 9.75427E-07 1.93976E-04-5.17840E-14 1.40867E-13
 -1       512 1.99992E+01 2.03209E-04 4.59817E-07 4.39616E-04 9.42694E-15 2.52552E-13
 -1       513 1.99992E+01 6.05356E-05 1.18799E-07 5.59585E-04 5.44961E-14 3.90817E-13
 -1       514 1.99993E+01-2.88180E-05-9.28044E-08 5.95817E-04 3.35923E-13 2.57072E-13
 -1       515 1.99993E+01-8.00370E-05-2.12067E-07 5.79392E-04 1.17626E-13-7.48062E-15
 -1       516 1.99994E+01-1.04999E-04-2.68099E-07 5.32578E-04 4.49688E-13-4.21294E-16
 -1       517 1.99994E+01-1.12709E-04-2.83026E-07 4.70748E-04 7.22346E-14 3.70406E-13
 -1       518 1.99995E+01-1.09831E-04-2.73226E-07 4.04022E-04-3.30026E-13 5.50948E-13
 -1       519 1.99996E+01-1.01199E-04-2.50306E-07 3.38625E-04-2.55094E-13 4.22170E-13
 -1       520 1.99996E+01-9.02855E-05-2.23743E-07 2.77944E-04 2.48141E-13 2.91532E-13
 -1       521 1.99997E+01-7.95739E-05-2.00265E-07 2.23348E-04-1.78462E-13 1.25218E-13
 -1       522 1.99997E+01-7.07299E-05-1.77320E-07 1.74820E-04-2.43657E-14 1.46228E-13
 -1       523 1.99997E+01-6.48114E-05-1.79505E-07 1.31495E-04-5.59253E-14 5.42381E-13
 -1       524 1.83337E+01 1.93835E+00 1.66393E-02 3.42994E+00-7.33164E-14 4.06254E-13
 -1       525 1.92023E+01 1.67491E+00 7.73087E-03 2.51612E+00 1.07424E-13 3.12828E-13
 -1       526 1.97201E+01 1.24911E+00 4.96305E-03 1.78997E+00 1.32479E-13 1.27701E-13
 -1       527 1.99885E+01 8.67814E-01 3.79891E-03 1.24241E+00 6.74256E-14 6.63451E-14
 -1       528 2.01047E+01 5.79820E-01 2.73020E-03 8.47557E-01 1.46814E-13 1.57748E-13
 -1       529 2.01393E+01 3.79032E-01 1.83271E-03 5.71447E-01 1.04380E-13 1.22386E-13
 -1       530 2.01351E+01 2.44832E-01 1.17958E-03 3.82497E-01 7.35725E-14 3.15702E-13
 -1       531 2.01157E+01 1.57239E-01 7.43733E-04 2.55028E-01 8.96366E-14 3.14757E-13
 -1       532 2.00924E+01 1.00829E-01 4.65110E-04 1.69766E-01 1.51911E-13 1.77076E-13
 -1       533 2.00707E+01 6.47558E-02 2.90527E-04 1.12966E-01-8.33761E-15 1.85919E-13
 -1       534 2.00524E+01 4.17482E-02 1.81896E-04 7.51519E-02 7.97860E-14 2.42440E-13
 -1       535 2.00378E+01 2.70607E-02 1.14401E-04 4.99313E-02-6.03091E-14 1.04825E-13
 -1       536 2.00265E+01 1.76481E-02 7.23246E-05 3.30530E-02-1.51810E-14 8.97895E-14
 -1       537 2.00181E+01 1.15763E-02 4.59718E-05 2.17128E-02 2.72823E-14-3.32879E-14
 -1       538 2.00120E+01 7.62497E-03 2.93500E-05 1.40679E-02 2.53783E-13-1.04695E-13
 -1       539 2.00076E+01 5.02702E-03 1.87720E-05 8.90611E-03 8.16590E-14-1.05297E-13
 -1       540 2.00045E+01 3.30063E-03 1.19718E-05 5.42637E-03 9.43857E-14 2.89529E-14
 -1       541 2.00024E+01 2.14235E-03 7.55554E-06 3.09515E-03 9.65761E-14 2.15982E-13
 -1       542 2.00010E+01 1.35982E-03 4.66275E-06 1.55312E-03 1.30158E-13 3.98319E-13
 -1       543 2.00001E+01 8.29781E-04 2.75822E-06 5.55307E-04-1.18267E-13 5.31041E-13
 -1       544 1.99995E+01 4.71972E-04 1.50516E-06-6.74706E-05-3.61890E-13 1.19584E-13
 -1       545 1.99992E+01 2.33149E-04 6.88091E-07-4.33338E-04-3.19509E-13 1.11020E-13
 -1       546 1.99991E+01 7.72115E-05 1.66370E-07-6.25469E-04 3.73812E-13 4.04152E-13
 -1       547 1.99990E+01-2.08415E-05-1.53919E-07-7.02666E-04 4.28081E-13 3.87127E-13
 -1       548 1.99991E+01-7.86487E-05-3.36888E-07-7.06457E-04 1.56821E-13 3.60864E-13
 -1       549 1.99991E+01-1.08830E-04-4.27161E-07-6.65959E-04-3.27106E-14-8.85962E-14
 -1       550 1.99992E+01-1.20489E-04-4.56240E-07-6.01295E-04 2.00397E-13 1.02958E-13
 -1       551 1.99993E+01-1.20213E-04-4.46609E-07-5.26042E-04-2.89779E-14 6.52741E-13
 -1       552 1.99994E+01-1.12759E-04-4.14512E-07-4.49012E-04-6.55797E-14 6.32413E-13
 -1       553 1.99995E+01-1.01558E-04-3.71473E-07-3.75566E-04-3.95747E-15 4.26918E-13
 -1       554 1.99995E+01-8.90915E-05-3.27574E-07-3.08568E-04 3.61068E-13 2.59152E-13
 -1       555 1.99996E+01-7.71083E-05-2.95735E-07-2.49100E-04 4.50042E-13-5.61681E-14
 -1       556 1.99997E+01-6.69140E-05-2.50781E-07-1.97106E-04 3.60455E-13 2.53800E-13
 -1       557 1.99997E+01-5.94307E-05-2.24246E-07-1.51510E-04 1.08995E-13 3.36826E-14
 -1       558 1.99997E+01-5.51063E-05-3.31154E-07-1.10416E-04 1.33053E-13 7.45923E-14
 -1       559 1.99998E+01-1.69298E-04 5.33887E-08-1.05773E-04 2.42659E-13 3.55093E-13
 -1       560 1.99998E+01-1.34487E-04-8.11321E-08-1.17787E-04 1.56986E-13-9.84755E-14
 -1       561 1.99998E+01-9.54673E-05-9.69660E-08-1.14152E-04 6.89850E-14-1.59806E-13
 -1       562 4.77085E+00 1.21689E-01 1.96388E-01 9.03919E-01-1.00210E-13 1.93387E-13
 -1       563 1.99998E+01-1.97307E-04 9.88612E-08-7.92336E-05 5.03273E-13 3.14468E-14
 -1       564 1.99999E+01-2.15205E-04 1.19712E-07-4.22137E-05 3.01072E-13-3.79050E-13
 -1       565 1.99999E+01-2.21208E-04 1.23471E-07 2.68387E-07 1.86811E-13 1.27119E-13
 -1       566 1.99999E+01-2.14745E-04 1.13869E-07 4.26743E-05 2.51850E-13 3.11249E-13
 -1       567 1.99998E+01-1.96909E-04 8.61014E-08 7.89769E-05 7.90042E-14-9.16205E-14
 -1       568 1.99998E+01-1.68807E-04 6.02137E-08 1.05539E-04-6.77807E-14 1.46779E-14
 -1       569 1.99998E+01-1.33455E-04 3.80610E-08 1.17893E-04-1.17082E-13 2.35414E-13
 -1       570 1.99998E+01-9.46738E-05-8.74278E-08 1.13651E-04-2.23786E-14 6.10703E-14
 -1       571 6.67250E+00 1.46962E+00 1.71402E-01-2.09204E+00 1.62113E-13 1.39347E-13
 -1       572 9.33771E+00-7.65488E-01 2.24887E-01 4.74004E+00-5.46369E-14-1.13076E-13
 -1       573 2.16661E+01-3.76365E+00 9.67981E-02-4.86382E+00-1.91444E-13 3.14235E-13
 -1       574 5.15761E+00-7.73015E-01 1.95365E-01-4.52661E+00 1.17822E-14 4.63865E-13
 -1       575 3.18582E+01 1.52732E+00-9.03960E-02 8.76574E-01-9.88550E-14 3.57797E-13
 -1       576 1.00354E+01-2.35389E+00 1.59214E-01-7.71926E+00 1.99091E-13 4.25202E-13
 -1       577 2.43307E+01 1.30098E+00-1.25872E-02-4.91309E-01 2.84661E-13-1.79301E-14
 -1       578 6.49496E+00 2.11106E+00 1.90741E-01 6.57824E+00 4.03053E-13 2.64913E-13
 -1       579 1.26411E+01-1.43899E+00 1.63515E-01-4.56461E+00-2.62776E-14 1.57929E-13
 -1       580 3.35157E+00 2.17147E+00 1.86851E-01 2.47234E+00 2.94698E-13 1.71169E-13
 -1       581 1.35095E+01-4.46953E-01 1.34449E-01 8.52592E+00 3.56042E-13 3.61166E-13
 -1       582 3.24026E+01 1.33439E+00-1.09291E-01-1.04788E-01 2.48801E-13 5.18474E-14
 -1       583 2.02894E+01-1.86303E+00 4.64535E-02 7.58226E+00 2.29136E-13 4.30737E-13
 -1       584 3.23558E+01 5.18889E+00-1.56595E-01-1.38022E+00-1.30583E-13 1.84915E-13
 -1       585 3.24744E+01 8.35991E+00-1.92931E-01 5.02727E-01 1.30645E-13 6.46184E-14
 -1       586 3.27946E+01 5.73102E+00-1.53976E-01 1.08423E+00 2.39433E-13 6.87575E-14
 -1       587 2.99263E+01-2.64715E+00-4.55649E-02-3.23590E+00 2.71685E-13 1.50352E-13
 -1       588 2.48461E+01-4.69379E+00 2.41023E-02-6.46375E+00 1.89369E-13-4.31946E-14
 -1       589 1.79665E+01-4.45005E+00 9.44904E-02-8.41195E+00 2.25223E-13 2.78003E-13
 -1       590 2.01888E+01 2.02093E+00 8.54338E-02-3.01692E+00 6.72084E-14 5.06581E-13
 -1       591 2.19115E+01 2.44564E+00-1.03910E-02-2.40739E+00 1.90735E-13-3.48175E-13
 -1       592 1.49941E+01 3.34599E+00 1.16993E-01-2.32361E+00 1.67797E-13 3.77667E-13
 -1       593 3.00442E+01 8.33326E+00-1.74871E-01-3.85275E-01 5.23193E-14-4.50586E-14
 -1       594 1.99998E+01-6.17641E-05-1.96677E-07 1.03796E-04 1.33704E-13 8.50574E-13
 -1       595 2.44423E+01-2.05390E+00 7.98897E-03 5.23725E+00 1.77532E-13 4.01401E-13
 -1       596 2.11363E+01 2.25378E+00-8.13952E-03-2.55826E+00 1.23520E-13-3.99494E-13
 -1       597 1.03765E+01 3.28099E-01 1.57425E-01-5.38025E+00 2.48586E-14 3.52461E-13
 -1       598 1.25295E+01 2.12783E+00 1.34291E-01 3.52147E+00-3.07702E-13 6.68944E-14
 -1       599 8.00362E+00 1.84122E+00 1.72943E-01-1.53559E+00-2.66855E-13 2.01374E-13
 -1       600 2.08573E+01 1.47229E+00 8.83729E-07-1.92357E+00 1.00506E-13-3.35260E-13
 -1       601 2.10652E+01 1.76140E+00 5.38877E-04-2.28135E+00 8.94091E-14-3.70036E-13
 -1       602 1.62504E+01 2.44683E+00 1.25751E-02 1.72833E+00 5.34742E-14-2.69511E-14
 -1       603 2.05509E+01 1.41529E+00 1.30435E-03-1.33601E+00 6.86738E-14-2.93499E-13
 -1       604 2.02584E+01 1.45613E+00 9.13223E-04-6.36018E-01 2.08547E-14-2.57515E-13
 -1       605 2.00912E+01 1.39689E+00 7.11267E-04 1.16489E-01 1.88102E-14-1.93540E-13
 -1       606 2.00916E+01 1.13995E+00 3.44284E-04 7.95495E-01 3.82082E-14-2.03383E-13
 -1       607 2.02208E+01 7.19251E-01 2.11739E-04 1.27642E+00 3.27500E-14-1.40638E-13
 -1       608 2.03973E+01 2.41951E-01 1.52974E-04 1.49569E+00 3.68049E-14-1.29034E-13
 -1       609 2.05376E+01-1.68378E-01 7.22590E-05 1.47285E+00 5.87432E-14-2.77443E-14
 -1       610 2.05996E+01-4.40540E-01-1.11171E-04 1.28518E+00 8.11303E-14 2.64575E-14
 -1       611 2.05830E+01-5.64154E-01-2.30778E-04 1.02036E+00 7.03001E-14 2.00305E-14
 -1       612 2.05116E+01-5.69283E-01-2.84041E-04 7.47581E-01 4.15539E-14-2.14152E-15
 -1       613 2.04146E+01-5.00811E-01-2.69846E-04 5.08071E-01-8.78923E-15-4.51838E-14
 -1       614 2.03155E+01-3.99639E-01-2.21361E-04 3.18695E-01-1.13560E-13-1.12203E-13
 -1       615 2.02282E+01-2.94624E-01-1.65901E-04 1.80502E-01-1.55285E-13-1.82872E-13
 -1       616 2.01584E+01-2.02046E-01-1.15446E-04 8.65190E-02-2.64342E-14-2.17016E-13
 -1       617 2.01065E+01-1.28531E-01-7.43692E-05 2.70426E-02 2.97768E-14-1.51424E-13
 -1       618 2.00697E+01-7.46352E-02-4.41937E-05-7.43269E-03 2.04124E-13-4.44128E-14
 -1       619 2.00449E+01-3.77982E-02-2.34294E-05-2.49144E-02-4.93336E-15 3.68321E-14
 -1       620 2.00286E+01-1.43370E-02-1.01233E-05-3.15610E-02-9.49619E-15 6.01772E-14
 -1       621 2.00182E+01-5.88208E-04-2.24950E-06-3.18029E-02 9.83528E-14-3.30313E-14
 -1       622 2.00117E+01 6.55941E-03 1.93418E-06-2.86506E-02 7.49502E-15-2.24840E-14
 -1       623 2.00076E+01 9.50493E-03 3.78416E-06-2.40372E-02-7.82497E-14-3.17497E-14
 -1       624 2.00050E+01 9.97031E-03 4.24999E-06-1.91247E-02 8.53368E-14-1.37612E-13
 -1       625 2.00034E+01 9.11802E-03 3.97482E-06-1.45510E-02 1.95496E-13-7.75195E-14
 -1       626 2.00023E+01 7.68695E-03 3.36581E-06-1.06152E-02 5.98265E-15 9.41452E-14
 -1       627 2.00015E+01 6.11568E-03 2.66296E-06-7.41021E-03-1.11577E-13 5.64136E-14
 -1       628 2.00010E+01 4.64150E-03 1.99515E-06-4.91192E-03-1.34942E-13 1.94009E-13
 -1       629 2.00006E+01 3.37401E-03 1.42161E-06-3.03810E-03 2.82037E-14 3.06327E-13
 -1       630 2.00003E+01 2.34670E-03 9.60693E-07-1.68422E-03 3.66195E-14 1.11335E-13
 -1       631 2.00001E+01 1.55121E-03 6.08676E-07-7.44390E-04 1.24008E-14 2.85082E-13
 -1       632 2.00000E+01 9.59050E-04 3.51498E-07-1.22236E-04-1.35656E-13 2.59806E-13
 -1       633 1.99999E+01 5.34624E-04 1.71618E-07 2.64326E-04-8.71359E-15 3.93820E-13
 -1       634 1.99998E+01 2.42419E-04 5.17375E-08 4.82015E-04 1.70239E-14 4.05513E-13
 -1       635 1.99997E+01 5.06218E-05-2.34211E-08 5.83078E-04 2.21749E-14 1.39283E-13
 -1       636 1.99997E+01-6.74838E-05-6.64765E-08 6.07128E-04 3.45093E-14-5.11221E-14
 -1       637 1.99997E+01-1.33338E-04-8.73741E-08 5.83288E-04 3.30643E-13-1.13258E-13
 -1       638 1.99997E+01-1.63562E-04-9.37263E-08 5.32287E-04 3.18587E-13-2.08866E-13
 -1       639 1.99997E+01-1.70689E-04-9.13367E-08 4.68344E-04-6.58889E-14-3.54707E-13
 -1       640 1.99997E+01-1.63954E-04-8.43501E-08 4.00752E-04-4.57560E-13-3.27698E-13
 -1       641 1.99997E+01-1.50050E-04-7.45854E-08 3.35156E-04 1.52507E-13-1.38539E-13
 -1       642 1.99997E+01-1.33749E-04-6.44370E-08 2.74572E-04-3.26215E-14-3.81193E-13
 -1       643 1.99998E+01-1.18379E-04-6.58466E-08 2.20146E-04-1.53392E-13-4.06382E-13
 -1       644 1.99998E+01-1.06085E-04-6.33453E-08 1.71788E-04 3.05880E-13 4.50886E-15
 -1       645 3.00439E+01 2.50901E+00-9.54435E-02-1.39168E+00-6.70748E-14 1.68688E-13
 -1       646 1.99998E+01-1.02545E-04-2.17544E-08-1.57581E-04 1.38808E-13 2.40922E-13
 -1       647 2.37113E+01 1.97493E+00-6.17645E-03-2.13148E+00 1.88667E-13-2.10299E-13
 -1       648 1.99999E+01-2.32448E-04 4.62713E-08-2.65746E-05 2.98239E-13-1.76096E-13
 -1       649 1.99998E+01-1.62681E-04 9.91035E-08-1.46595E-04 3.58101E-13 3.86631E-14
 -1       650 1.78006E+01 1.94149E+00 2.75032E-03 1.35887E+00 2.44263E-13 1.07112E-13
 -1       651 1.87564E+01 1.41947E+00 1.26562E-03 1.04511E+00 1.59235E-13 8.83644E-14
 -1       652 1.93268E+01 9.91779E-01 8.76039E-04 7.82322E-01 9.87832E-14 2.51165E-14
 -1       653 1.96561E+01 6.73806E-01 6.33814E-04 5.71465E-01 1.10153E-13-9.79857E-14
 -1       654 1.98393E+01 4.49923E-01 4.28225E-04 4.09758E-01-9.09661E-14-2.89346E-14
 -1       655 1.99371E+01 2.97384E-01 2.77479E-04 2.89969E-01 2.01796E-14 2.69491E-14
 -1       656 1.99863E+01 1.95556E-01 1.75981E-04 2.03373E-01 2.29601E-13 7.23404E-14
 -1       657 2.00088E+01 1.28423E-01 1.10996E-04 1.41771E-01 1.28397E-13 1.47568E-13
 -1       658 2.00171E+01 8.44648E-02 7.00085E-05 9.83773E-02-5.57656E-15-2.92828E-14
 -1       659 2.00184E+01 5.57520E-02 4.44551E-05 6.79739E-02 8.87559E-14 6.50163E-14
 -1       660 2.00166E+01 3.69774E-02 2.83180E-05 4.67217E-02-4.97190E-14-3.84125E-16
 -1       661 2.00137E+01 2.46502E-02 1.81119E-05 3.18755E-02 2.02989E-13-7.92174E-14
 -1       662 2.00106E+01 1.65018E-02 1.16216E-05 2.15063E-02 7.66925E-14-2.37881E-13
 -1       663 2.00079E+01 1.10694E-02 7.46565E-06 1.42708E-02 1.77991E-13 1.29128E-13
 -1       664 2.00056E+01 7.41374E-03 4.78269E-06 9.23634E-03 1.80011E-14 8.41306E-14
 -1       665 2.00038E+01 4.93152E-03 3.03584E-06 5.75378E-03-1.35387E-13 3.52259E-13
 -1       666 2.00025E+01 3.23407E-03 1.88986E-06 3.36889E-03 6.08733E-15 4.87033E-13
 -1       667 2.00015E+01 2.06876E-03 1.13445E-06 1.76138E-03 6.21737E-14 4.94290E-13
 -1       668 2.00008E+01 1.26935E-03 6.36520E-07 7.03498E-04-1.27484E-13 6.27587E-13
 -1       669 2.00004E+01 7.24610E-04 3.10705E-07 3.21454E-05-3.76966E-13 3.63724E-13
 -1       670 2.00000E+01 3.58715E-04 1.01292E-07-3.70124E-04 7.17295E-14 2.40457E-13
 -1       671 1.99998E+01 1.18949E-04-2.88191E-08-5.88057E-04 4.77933E-13 2.45047E-13
 -1       672 1.99997E+01-3.19932E-05-1.04856E-07-6.82699E-04 1.80366E-13 2.52273E-13
 -1       673 1.99997E+01-1.20882E-04-1.44295E-07-6.97761E-04 4.74212E-14 4.20829E-13
 -1       674 1.99996E+01-1.67111E-04-1.59420E-07-6.64186E-04-1.23670E-13 6.15730E-13
 -1       675 1.99996E+01-1.84783E-04-1.58927E-07-6.03501E-04-1.87130E-13 5.60420E-13
 -1       676 1.99996E+01-1.84148E-04-1.49139E-07-5.30294E-04 1.29870E-13 7.05851E-13
 -1       677 1.99997E+01-1.72630E-04-1.35042E-07-4.54071E-04-2.15619E-15 3.31022E-13
 -1       678 1.99997E+01-1.55581E-04-1.17007E-07-3.80646E-04 2.03684E-13 1.19297E-13
 -1       679 1.99997E+01-1.36860E-04-1.35241E-07-3.13216E-04 4.74817E-13 3.05632E-13
 -1       680 1.99997E+01-1.19400E-04-1.74211E-07-2.53751E-04 3.00786E-13 3.36306E-13
 -1       681 1.99997E+01-1.09630E-04-1.47189E-07-2.02954E-04 3.89466E-13 2.28723E-13
 -1       682 1.99999E+01-2.20046E-04 6.69637E-08-7.76512E-05 2.44846E-13-4.15133E-13
 -1       683 2.96122E+01 2.54416E+00-1.09756E-01 1.71354E+00 2.52486E-13-4.74655E-14
 -1       684 1.99999E+01-1.96075E-04 4.55496E-08-1.19331E-04 1.92028E-13 5.02434E-13
 -1       685 1.99999E+01-2.32088E-04 3.41149E-08 2.76376E-05 3.37211E-13 4.54439E-13
 -1       686 1.99999E+01-2.19373E-04 2.72147E-08 7.76792E-05 1.33715E-13-2.04824E-13
 -1       687 1.99999E+01-1.94990E-04 3.04804E-08 1.19046E-04 1.70200E-13-2.21782E-13
 -1       688 1.99998E+01-1.61101E-04 4.22516E-08 1.45308E-04 2.94145E-13 3.58213E-13
 -1       689 2.97886E+01-1.59622E+00-7.54416E-02-4.45335E-01 2.89596E-13 3.19918E-14
 -1       690 1.99998E+01-9.94628E-05-6.35255E-08 1.41904E-04 4.89503E-13 1.81433E-13
 -1       691 1.45838E+01 2.61499E+00 5.07198E-02 2.41816E+00-1.85999E-13 1.09107E-13
 -1       692 2.88945E+01-6.54701E-01-4.00930E-02 1.54066E+00 9.38008E-15 3.13874E-13
 -1       693 2.90130E+01 6.06697E+00-1.50386E-01 1.46474E+00 2.20407E-13-1.19791E-13
 -1       694 1.59856E+01-2.50643E+00 1.00119E-01-7.47711E+00 1.93359E-13 3.54647E-13
 -1       695 2.71309E+01-4.10557E+00-1.63500E-02-3.46509E+00 2.51401E-13-4.23273E-16
 -1       696 2.31493E+01-4.43981E+00 5.44139E-02-6.13296E+00 1.67085E-13-3.93388E-14
 -1       697 2.89162E+01 6.51425E+00-1.60189E-01-1.85952E+00-8.36067E-14-8.85889E-14
 -1       698 2.25814E+01 2.06273E+00-3.18596E-03-2.28041E+00 1.52762E-13-2.79125E-13
 -1       699 2.79891E+01 4.36657E+00-8.40792E-02-2.31181E+00-2.82760E-14-8.03801E-14
 -1       700 2.55577E+01-6.66106E-01-2.13680E-02 1.67174E+00 2.05857E-13 2.15573E-13
 -1       701 2.48641E+01 1.46744E+00-9.54448E-04-1.67172E+00 1.90323E-13-6.57616E-14
 -1       702 2.74848E+01 6.80111E+00-1.16579E-01 6.11564E-01 1.54057E-13-2.10513E-13
 -1       703 2.57944E+01 5.10781E-01-1.92650E-02-6.02690E-01 1.66379E-13 5.42006E-14
 -1       704 1.99998E+01-1.35247E-04 8.29111E-09 1.63419E-04 4.50378E-13 1.16619E-13
 -1       705 1.50877E+01-3.34081E-01 5.64888E-02-5.51488E+00 8.68203E-14 2.69165E-13
 -1       706 1.75935E+01 1.75254E+00 5.04032E-04 2.54377E-01 1.89756E-13 2.19111E-13
 -1       707 2.17495E+01 1.88941E+00-3.26742E-04-1.89683E+00 1.01618E-13-2.85453E-13
 -1       708 2.68343E+01 6.60848E+00-1.01577E-01-1.03651E+00 3.88821E-14-2.48101E-13
 -1       709 2.14552E+01 2.07151E+00 1.05649E-03-1.25361E+00 7.95475E-14-2.57301E-13
 -1       710 2.12069E+01 2.16702E+00 1.01204E-03-4.09653E-01 5.10376E-14-2.40082E-13
 -1       711 2.11225E+01 1.95251E+00 2.02622E-04 4.79843E-01 3.81517E-14-1.78281E-13
 -1       712 2.12149E+01 1.39630E+00-4.17488E-04 1.18261E+00 5.47412E-14-1.60099E-13
 -1       713 2.13772E+01 6.60636E-01-4.98214E-04 1.56303E+00 7.40625E-14-1.43282E-13
 -1       714 2.14854E+01-3.35053E-02 2.45322E-05 1.59327E+00 1.24309E-13-8.66617E-14
 -1       715 2.14643E+01-5.26572E-01-3.59720E-06 1.38434E+00 9.75638E-14-5.40770E-15
 -1       716 2.13195E+01-7.79014E-01-6.91192E-05 1.06817E+00 9.57518E-14 3.43679E-14
 -1       717 2.10968E+01-8.29559E-01-1.36618E-04 7.46270E-01 6.52345E-14 3.02311E-14
 -1       718 2.08504E+01-7.50358E-01-1.24871E-04 4.74730E-01 1.14118E-14-2.16635E-14
 -1       719 2.06208E+01-6.09637E-01-8.52131E-05 2.71266E-01-1.56042E-13-3.45628E-14
 -1       720 2.04296E+01-4.56035E-01-5.47174E-05 1.31827E-01-1.76486E-13-6.14213E-14
 -1       721 2.02829E+01-3.17330E-01-3.37765E-05 4.35450E-02-9.25826E-14-1.10703E-13
 -1       722 2.01774E+01-2.05393E-01-1.78319E-05-7.69385E-03 1.06884E-13-1.05707E-14
 -1       723 2.01058E+01-1.22157E-01-8.75036E-06-3.39877E-02 1.82961E-13 4.12142E-14
 -1       724 2.00596E+01-6.44031E-02-3.43406E-06-4.45247E-02 2.13346E-13-8.36800E-14
 -1       725 2.00313E+01-2.69377E-02-5.62312E-07-4.57759E-02 7.69890E-14 9.84694E-14
 -1       726 2.00149E+01-4.42019E-03 7.56216E-07-4.20455E-02-7.48439E-14 2.10173E-13
 -1       727 2.00061E+01 7.77289E-03 1.20099E-06-3.60581E-02-2.03344E-14-2.35665E-14
 -1       728 2.00017E+01 1.32634E-02 1.26209E-06-2.94478E-02-7.82351E-15-1.50079E-13
 -1       729 1.99999E+01 1.46920E-02 1.12913E-06-2.31261E-02 7.51311E-14 2.03277E-14
 -1       730 1.99994E+01 1.38728E-02 9.22368E-07-1.75440E-02 1.63893E-13 3.50213E-14
 -1       731 1.99994E+01 1.19830E-02 7.07876E-07-1.28712E-02 9.69719E-14-1.61714E-13
 -1       732 1.99997E+01 9.74089E-03 5.16836E-07-9.11457E-03 9.35351E-15-2.36937E-14
 -1       733 2.00000E+01 7.55127E-03 3.60372E-07-6.19516E-03-6.03940E-14 1.40005E-13
 -1       734 2.00002E+01 5.61546E-03 2.39222E-07-3.99546E-03-1.07410E-13 1.94035E-13
 -1       735 2.00003E+01 4.01013E-03 1.49413E-07-2.38799E-03-1.42709E-14 2.29350E-13
 -1       736 2.00004E+01 2.74058E-03 8.53558E-08-1.25120E-03 1.02141E-13 1.68605E-13
 -1       737 2.00004E+01 1.77539E-03 4.14040E-08-4.77339E-04-5.12630E-16 1.14887E-13
 -1       738 2.00003E+01 1.06763E-03 1.25510E-08 2.44805E-05 2.40973E-13 3.81881E-13
 -1       739 2.00003E+01 5.67265E-04-5.33251E-09 3.28132E-04-1.03021E-13 3.86547E-13
 -1       740 2.00002E+01 2.27668E-04-1.54970E-08 4.91836E-04-1.63074E-13 3.71290E-13
 -1       741 2.00001E+01 8.56265E-06-2.04012E-08 5.60233E-04-6.81083E-14 1.85994E-13
 -1       742 2.00001E+01-1.23110E-04-2.18417E-08 5.66655E-04-3.27994E-14 7.07986E-14
 -1       743 2.00000E+01-1.93488E-04-2.10895E-08 5.35320E-04 3.21129E-13-3.94836E-14
 -1       744 1.99999E+01-2.22623E-04-1.92812E-08 4.83291E-04 4.92903E-14-1.14501E-13
 -1       745 1.99999E+01-2.25518E-04-1.84898E-08 4.22151E-04-2.32819E-13-1.28401E-13
 -1       746 1.99999E+01-2.13172E-04-1.81658E-08 3.59385E-04-1.82207E-13-1.79043E-13
 -1       747 1.99998E+01-1.93529E-04-1.46444E-08 2.99396E-04 9.85397E-14-5.21353E-13
 -1       748 1.99998E+01-1.72051E-04-7.02023E-09 2.44644E-04 1.22092E-13-1.20536E-13
 -1       749 1.99998E+01-1.51608E-04-3.43241E-08 2.02149E-04 3.11239E-13 3.41571E-13
 -1       750 2.00000E+01-2.55798E-04 1.49284E-08 1.02793E-06 2.17571E-13 2.35120E-13
 -1       751 1.61405E+01 2.23433E+00 7.49345E-03 3.00098E-02 3.20179E-14 6.21907E-14
 -1       752 1.91170E+01 9.25689E-01 1.31597E-05 3.19268E-01 2.56876E-13 2.25048E-13
 -1       753 1.94827E+01 6.44569E-01 3.14380E-05 2.77898E-01 3.25126E-14 2.28329E-13
 -1       754 1.97049E+01 4.41725E-01 3.37879E-05 2.26315E-01-8.02678E-14 1.58734E-13
 -1       755 1.98372E+01 2.99767E-01 2.56816E-05 1.76845E-01 6.81232E-14 1.44102E-13
 -1       756 1.99143E+01 2.02410E-01 1.79962E-05 1.34443E-01 2.16044E-13 2.52826E-13
 -1       757 1.99580E+01 1.36476E-01 1.17712E-05 1.00219E-01 1.47485E-13 2.24955E-13
 -1       758 1.99820E+01 9.21277E-02 8.44171E-06 7.35837E-02-1.13022E-15 7.45150E-14
 -1       759 1.99946E+01 6.23728E-02 5.90616E-06 5.33264E-02 1.11186E-13 1.43584E-13
 -1       760 2.00007E+01 4.23850E-02 4.10002E-06 3.81549E-02 1.68748E-13 1.37218E-13
 -1       761 2.00033E+01 2.89005E-02 2.82035E-06 2.69196E-02 1.47980E-13 2.50424E-13
 -1       762 2.00040E+01 1.97440E-02 1.92020E-06 1.86771E-02-4.65949E-14 4.28311E-14
 -1       763 2.00039E+01 1.34785E-02 1.29075E-06 1.26852E-02 4.29747E-14 7.65173E-14
 -1       764 2.00034E+01 9.15823E-03 8.52687E-07 8.37349E-03-3.08032E-13 3.69051E-13
 -1       765 2.00028E+01 6.15999E-03 5.49282E-07 5.30855E-03-1.57427E-13 6.48463E-13
 -1       766 2.00022E+01 4.07113E-03 3.40474E-07 3.16344E-03 3.93635E-14 5.88253E-13
 -1       767 2.00016E+01 2.61546E-03 1.98141E-07 1.69224E-03 3.50225E-14 4.82665E-13
 -1       768 2.00012E+01 1.60559E-03 1.02556E-07 7.10365E-04 7.10650E-14 3.88118E-13
 -1       769 2.00009E+01 9.12247E-04 3.98294E-08 7.96854E-05-2.77867E-13 2.44795E-13
 -1       770 2.00006E+01 4.44655E-04 1.18309E-10-3.02767E-04 2.51574E-13 3.03740E-13
 -1       771 2.00004E+01 1.38057E-04-2.35917E-08-5.13265E-04 2.69447E-13 6.54413E-13
 -1       772 2.00002E+01-5.43698E-05-3.63299E-08-6.07806E-04 4.97713E-14 7.50498E-13
 -1       773 2.00001E+01-1.66786E-04-4.17060E-08-6.27016E-04-1.38534E-14 6.26217E-13
 -1       774 2.00000E+01-2.24219E-04-4.23104E-08-5.99903E-04-2.78033E-13 5.75991E-13
 -1       775 1.99999E+01-2.45003E-04-3.98545E-08-5.46742E-04-1.75383E-13 5.14254E-13
 -1       776 1.99999E+01-2.42508E-04-3.59492E-08-4.81308E-04 1.66840E-13 6.89306E-13
 -1       777 1.99999E+01-2.26427E-04-3.16508E-08-4.12571E-04 4.92901E-13 6.85334E-13
 -1       778 1.99998E+01-2.03769E-04-4.82526E-08-3.46129E-04 2.75349E-13 2.02570E-13
 -1       779 1.99998E+01-1.79463E-04 2.18229E-07-2.84145E-04 4.76131E-13 6.12384E-14
 -1       780 1.99999E+01-2.49386E-04-1.31058E-08-6.41758E-05 5.74836E-14-2.97217E-13
 -1       781 2.78926E+01-3.98190E-01-5.44203E-02 1.16889E+00 2.46227E-13-1.31456E-13
 -1       782 1.17357E+01 2.53006E+00 6.86810E-02-1.27451E+00-1.86078E-13 7.83922E-15
 -1       783 1.99999E+01-1.95379E-04 4.23421E-08 1.65287E-04 5.64403E-13 3.00127E-14
 -1       784 2.80490E+01 5.63072E-01-5.31650E-02-6.70852E-01 4.45685E-14 1.46220E-13
 -1       785 1.85271E+01 1.29744E+00 1.26177E-05 3.25610E-01 1.51328E-14 2.46778E-13
 -1       786 1.99999E+01-2.27828E-04 2.23163E-08 1.22391E-04 4.47855E-13-2.32872E-13
 -1       787 2.18088E+01 1.97057E+00-2.06494E-04-2.30539E+00 1.41731E-13-3.13997E-13
 -1       788 1.99999E+01-2.48407E-04 8.55257E-09 6.54416E-05 2.44274E-13 1.18850E-13
 -1       789 2.69269E+01 3.46975E+00-6.81566E-02 1.92200E+00 2.59135E-13-1.24947E-13
 -1       790 2.04446E+01-2.85772E+00 3.55561E-02-5.67299E+00 1.72754E-13 8.90035E-14
 -1       791 1.99998E+01-1.76907E-04-8.29115E-09-1.90095E-04 3.95450E-13-1.26272E-13
 -1       792 2.48489E+01-3.91312E+00 6.15672E-03-3.77167E+00 8.73763E-14-1.95386E-14
 -1       793 1.25885E+01 1.38355E+00 7.40627E-02-3.79119E+00-1.83551E-14 1.79311E-13
 -1       794 2.73577E+01-2.74311E+00-1.78477E-02-8.51788E-01 2.22751E-13 6.26001E-14
 -1       795 2.63245E+01 5.26308E+00-6.18503E-02-1.91553E+00 2.10283E-14-1.76140E-13
 -1       796 2.71561E+01 2.26325E+00-3.78299E-02-2.12433E+00 3.72541E-14-1.20633E-14
 -1       797 1.99999E+01-2.14988E-04-3.51519E-08-1.55082E-04 4.41908E-14 2.84536E-13
 -1       798 1.99998E+01-1.78687E-04 1.59558E-07-2.35082E-04 2.39598E-13 5.10644E-14
 -1       799 1.99999E+01-2.36203E-04-2.19907E-08-1.13028E-04-1.79860E-13-1.81595E-13
 -1       800 2.57682E+01 4.63508E+00-4.27329E-02 1.43024E+00 1.30777E-13-1.72829E-13
 -1       801 2.31301E+01 2.24329E+00-9.02569E-04-2.18751E+00 1.13420E-13-2.31026E-13
 -1       802 1.43129E+01 2.52517E+00 2.38808E-02-4.91860E-01-5.10009E-15-1.68194E-14
 -1       803 2.44649E+01 2.24731E+00-7.72236E-03-2.27217E+00 1.05217E-13-1.47441E-13
 -1       804 1.99998E+01-1.74994E-04-1.55044E-07 1.86837E-04 3.48387E-13 2.94670E-13
 -1       805 2.59757E+01 3.55703E+00-3.58887E-02-2.30080E+00 5.59804E-14-1.00503E-13
 -1       806 1.85643E+01-1.05624E+00 1.13607E-02-4.53800E+00 1.36806E-13 9.57108E-14
 -1       807 2.26681E+01 2.49219E+00 1.28675E-03-1.85409E+00 9.38939E-14-2.64629E-13
 -1       808 2.23601E+01 2.92887E+00 1.36477E-03-1.07846E+00 8.99718E-14-2.52728E-13
 -1       809 2.21778E+01 2.96451E+00-1.94433E-04-2.01978E-02 9.32182E-14-1.94788E-13
 -1       810 2.22011E+01 2.41036E+00-5.42760E-03 9.74208E-01 3.37404E-14-2.15075E-13
 -1       811 2.24382E+01 1.35111E+00 5.93569E-03 1.58603E+00 8.93066E-14-1.80421E-13
 -1       812 2.25464E+01 2.63750E-01-8.34631E-04 1.67791E+00 1.39160E-13-9.09965E-14
 -1       813 2.24719E+01-5.60084E-01-8.84058E-04 1.42443E+00 1.55323E-13-6.30840E-14
 -1       814 2.21938E+01-1.00471E+00-3.61963E-04 1.01945E+00 1.15669E-13-5.17909E-14
 -1       815 2.17920E+01-1.12338E+00-4.20781E-04 6.23407E-01 5.45413E-14-8.82047E-14
 -1       816 2.13646E+01-1.03311E+00-2.05859E-04 3.15853E-01-1.56843E-16-1.86232E-13
 -1       817 2.09770E+01-8.43632E-01-4.25762E-05 1.10667E-01-4.52087E-15-1.40535E-13
 -1       818 2.06617E+01-6.31769E-01 1.95810E-05-9.19535E-03-1.90799E-13-2.24514E-14
 -1       819 2.04248E+01-4.39822E-01 3.20671E-05-6.92018E-02-1.83738E-13 1.43101E-13
 -1       820 2.02577E+01-2.85044E-01 3.90571E-05-9.18519E-02-2.33712E-14 1.46274E-13
 -1       821 2.01462E+01-1.70074E-01 3.33027E-05-9.35282E-02 1.70847E-13 1.33658E-13
 -1       822 2.00758E+01-9.02537E-02 2.55381E-05-8.48498E-02 1.75396E-13 8.73364E-14
 -1       823 2.00338E+01-3.83258E-02 1.82263E-05-7.21194E-02 1.90533E-13 6.46610E-14
 -1       824 2.00106E+01-6.91405E-03 1.21940E-05-5.87547E-02 1.21569E-13 4.06053E-15
 -1       825 1.99990E+01 1.03004E-02 7.44294E-06-4.64192E-02-6.33938E-14 1.04636E-13
 -1       826 1.99942E+01 1.82503E-02 4.29571E-06-3.57837E-02-8.47436E-14 1.69579E-13
 -1       827 1.99932E+01 2.05322E-02 2.27940E-06-2.69931E-02-1.94302E-14-4.16522E-14
 -1       828 1.99939E+01 1.96266E-02 1.04386E-06-1.99380E-02 2.76527E-13-9.21891E-14
 -1       829 1.99953E+01 1.71558E-02 3.31303E-07-1.44034E-02 1.60916E-14 9.19836E-14
 -1       830 1.99968E+01 1.41219E-02-4.56542E-08-1.01458E-02 1.00779E-13 5.30329E-14
 -1       831 1.99981E+01 1.11002E-02-2.17961E-07-6.93081E-03-5.47120E-14-1.68040E-13
 -1       832 1.99991E+01 8.38689E-03-2.72935E-07-4.54869E-03 6.14311E-14-1.14822E-13
 -1       833 1.99998E+01 6.10428E-03-2.66081E-07-2.81993E-03-7.40966E-14 5.51276E-14
 -1       834 2.00003E+01 4.27291E-03-2.30955E-07-1.59500E-03 5.61046E-15 9.90520E-14
 -1       835 2.00005E+01 2.85907E-03-1.86685E-07-7.52025E-04-2.53170E-14-1.79039E-13
 -1       836 2.00006E+01 1.80450E-03-1.43320E-07-1.93348E-04 2.01331E-13-2.24064E-13
 -1       837 2.00006E+01 1.04393E-03-1.05468E-07 1.57955E-04 1.73403E-13-2.26637E-13
 -1       838 2.00006E+01 5.14839E-04-7.46457E-08 3.61519E-04-6.69962E-15 1.08277E-13
 -1       839 2.00005E+01 1.62091E-04-5.07427E-08 4.62787E-04-2.74055E-13 2.79945E-13
 -1       840 2.00004E+01-6.03742E-05-3.28625E-08 4.95766E-04-8.51295E-14 3.12519E-13
 -1       841 2.00003E+01-1.89545E-04-1.97438E-08 4.85379E-04 2.22182E-13 3.43549E-13
 -1       842 2.00002E+01-2.54223E-04-1.01321E-08 4.49464E-04-7.15978E-14 4.59662E-14
 -1       843 2.00001E+01-2.76261E-04-2.67018E-09 4.00408E-04-1.60359E-14-2.26418E-13
 -1       844 2.00000E+01-2.71819E-04-7.29016E-09 3.46467E-04-2.16619E-13-3.33360E-14
 -1       845 2.00000E+01-2.52825E-04-3.33543E-08 2.93080E-04-8.52084E-14 2.83308E-15
 -1       846 1.99999E+01-2.27525E-04-3.21214E-08 2.42831E-04 4.90516E-13-2.41850E-14
 -1       847 1.96856E+01 3.80340E-01-1.97215E-05 7.39172E-02 3.87892E-14 5.11687E-13
 -1       848 1.94889E+01 5.37127E-01-4.19642E-05 4.68125E-02 3.53896E-14 5.26589E-13
 -1       849 1.91838E+01 7.45544E-01-8.41698E-05-2.58280E-02 1.19379E-13 4.92406E-13
 -1       850 1.98101E+01 2.66429E-01-1.15281E-05 7.76495E-02 7.17821E-14 3.74152E-13
 -1       851 1.98876E+01 1.85588E-01-1.04020E-05 7.04972E-02 1.47181E-13 3.76801E-13
 -1       852 1.99352E+01 1.28971E-01-4.92556E-06 5.93084E-02 9.74293E-14 4.51777E-13
 -1       853 1.99639E+01 8.96387E-02-2.40249E-06 4.75593E-02 5.76204E-14 5.14352E-13
 -1       854 1.99809E+01 6.23945E-02-1.08902E-06 3.68341E-02 1.80097E-13 3.08388E-13
 -1       855 1.99907E+01 4.35031E-02-4.22378E-07 2.77327E-02 1.82639E-13 2.58761E-13
 -1       856 1.99963E+01 3.03542E-02-1.04943E-07 2.03527E-02 1.86936E-13 2.32241E-13
 -1       857 1.99993E+01 2.11534E-02 2.93083E-08 1.45585E-02-5.59477E-14 2.94626E-13
 -1       858 2.00009E+01 1.46787E-02 7.20492E-08 1.01245E-02-1.90191E-13 3.82988E-13
 -1       859 2.00016E+01 1.01003E-02 7.29970E-08 6.80706E-03-2.84275E-13 2.74378E-13
 -1       860 2.00018E+01 6.85361E-03 5.79628E-08 4.37859E-03 7.60622E-14-6.30188E-14
 -1       861 2.00017E+01 4.55166E-03 3.94636E-08 2.64125E-03 8.50100E-15 2.20435E-13
 -1       862 2.00016E+01 2.92599E-03 2.29142E-08 1.43028E-03 5.57604E-14 2.71099E-13
 -1       863 2.00013E+01 1.78780E-03 1.01202E-08 6.12513E-04-1.66394E-13 5.18958E-13
 -1       864 2.00011E+01 1.00227E-03 1.19303E-09 8.27197E-05-3.16861E-14 2.47791E-13
 -1       865 2.00009E+01 4.71807E-04-4.44341E-09-2.40656E-04 1.32301E-13 3.44212E-13
 -1       866 2.00007E+01 1.24914E-04-7.56012E-09-4.19711E-04-1.16120E-13 4.97176E-13
 -1       867 2.00005E+01-9.11507E-05-8.89192E-09-5.00897E-04-9.83950E-14 7.41546E-13
 -1       868 2.00004E+01-2.15440E-04-9.05032E-09-5.18318E-04-1.21924E-14 6.31481E-13
 -1       869 2.00002E+01-2.76843E-04-8.52115E-09-4.96490E-04-2.30299E-13 2.85931E-13
 -1       870 2.00001E+01-2.96639E-04-6.91059E-09-4.52600E-04 3.52576E-15 2.63725E-13
 -1       871 2.00001E+01-2.90372E-04-6.08472E-09-3.98334E-04 2.82128E-13 2.40683E-13
 -1       872 2.00000E+01-2.69339E-04-1.95058E-08-3.41317E-04 5.00072E-13 5.63456E-14
 -1       873 1.99999E+01-2.41349E-04-6.03868E-08-2.86096E-04 4.58602E-13 1.83220E-13
 -1       874 1.80283E+01 1.30950E+00 2.67544E-04-4.77944E-01 1.04340E-13 2.43814E-13
 -1       875 2.00000E+01-2.82265E-04 1.29256E-08-3.78853E-05 1.40584E-13-4.18423E-14
 -1       876 1.99999E+01-2.35421E-04 9.69541E-08 1.76030E-04 5.00546E-13-2.84558E-13
 -1       877 2.57194E+01 9.38106E-01-1.61187E-02 1.83261E+00 1.70006E-13 2.70613E-14
 -1       878 2.53083E+01-3.07927E+00-4.60201E-03-1.65319E+00 3.07588E-14 1.25493E-13
 -1       879 2.28055E+01-2.99526E+00 9.24520E-03-3.72015E+00 6.24967E-14 1.22070E-13
 -1       880 1.87195E+01 1.00788E+00-7.33474E-05-1.81152E-01 9.52377E-14 3.61969E-13
 -1       881 2.51442E+01 5.51871E+00-5.03202E-02 9.21216E-02 8.67206E-14-2.28745E-13
 -1       882 2.63096E+01-1.58172E+00-1.29441E-02 5.66339E-01 1.32603E-13-4.12075E-14
 -1       883 1.70191E+01 1.60101E+00 3.44673E-03-1.01156E+00 5.30877E-14 1.52673E-13
 -1       884 1.58876E+01 7.78002E-01 1.95834E-02-3.59412E+00-3.16019E-14 1.04505E-13
 -1       885 2.47399E+01 5.10888E+00-4.12117E-02-9.36561E-01 8.10680E-14-2.53003E-13
 -1       886 1.59276E+01 1.70338E+00 1.32812E-02-1.80594E+00 5.19192E-15 1.87488E-13
 -1       887 1.99999E+01-1.99613E-04-5.27897E-08 2.14728E-04 4.76107E-13 2.71072E-14
 -1       888 1.99999E+01-2.24824E-04-5.40987E-08-2.01386E-04 3.94892E-13-1.91837E-14
 -1       889 2.00000E+01-2.74248E-04 1.67743E-08-9.94037E-05 1.61490E-13 3.26091E-14
 -1       890 2.00000E+01-2.65635E-04-3.48844E-08 1.14288E-04 6.98320E-13 2.28343E-13
 -1       891 2.49048E+01 2.15548E+00-1.94894E-02 1.86457E+00 1.43966E-13-3.27219E-14
 -1       892 1.45198E+01 1.67909E+00 2.98376E-02-2.64091E+00-1.09650E-13 1.46564E-13
 -1       893 2.00000E+01-2.81610E-04 3.40265E-08 4.03732E-05 3.83273E-13 4.17047E-13
 -1       894 2.40346E+01 2.96551E+00-5.61314E-03-2.13999E+00 9.97773E-14-1.70315E-13
 -1       895 2.33698E+01 4.04553E+00-1.02314E-02-7.32521E-01 8.22216E-14-1.74257E-13
 -1       896 2.32999E+01 3.72735E+00-1.90532E-02 5.76623E-01 6.00681E-14-1.93843E-13
 -1       897 2.36491E+01-5.02348E-01 3.75641E-03 1.44340E+00 1.66315E-13-6.34824E-14
 -1       898 2.32199E+01-1.27041E+00-2.10953E-03 8.76611E-01 1.32370E-13-1.07203E-13
 -1       899 2.25986E+01-1.46757E+00-1.42861E-04 3.62983E-01 1.14140E-14-1.45465E-13
 -1       900 2.19339E+01-1.35464E+00-1.44136E-04-2.09607E-04-1.10000E-14-1.87347E-13
 -1       901 2.13496E+01-1.09524E+00 9.75264E-05-1.94742E-01 9.93533E-15-1.89957E-13
 -1       902 2.08886E+01-8.07945E-01 7.87083E-05-2.68908E-01 3.85073E-14-1.59533E-13
 -1       903 2.05527E+01-5.53343E-01-1.00099E-05-2.71388E-01 3.54908E-14 1.32997E-13
 -1       904 2.03224E+01-3.52259E-01-1.45563E-06-2.39361E-01 3.82484E-15 3.66919E-13
 -1       905 2.01729E+01-2.05755E-01-1.12983E-05-1.95504E-01 5.84957E-14 4.86516E-13
 -1       906 2.00812E+01-1.05733E-01-1.04824E-05-1.52103E-01 1.17794E-13 3.18568E-13
 -1       907 2.00284E+01-4.16640E-02-1.02936E-05-1.14514E-01 9.01908E-14 1.23768E-13
 -1       908 2.00005E+01-3.49550E-03-7.18964E-06-8.43022E-02 9.14714E-14-8.03526E-14
 -1       909 1.99879E+01 1.70275E-02-6.50772E-06-6.10699E-02 4.58284E-14-1.06668E-13
 -1       910 1.99839E+01 2.61723E-02-4.98512E-06-4.37076E-02-1.76230E-14-8.64046E-14
 -1       911 1.99844E+01 2.84225E-02-3.50390E-06-3.09673E-02-2.13959E-13 1.85685E-13
 -1       912 1.99869E+01 2.68314E-02-2.29325E-06-2.17255E-02-6.43229E-14 1.65888E-13
 -1       913 1.99900E+01 2.33801E-02-1.37652E-06-1.50703E-02 1.51593E-13-1.96689E-13
 -1       914 1.99930E+01 1.92867E-02-7.20770E-07-1.03025E-02 2.25318E-13-8.05961E-14
 -1       915 1.99955E+01 1.52496E-02-2.77749E-07-6.90323E-03-4.66710E-14 2.22924E-14
 -1       916 1.99974E+01 1.16283E-02 1.77569E-09-4.49425E-03-8.75422E-14 6.37996E-14
 -1       917 1.99988E+01 8.57087E-03 1.62089E-07-2.80182E-03 2.23937E-13 4.04269E-14
 -1       918 1.99998E+01 6.10159E-03 2.39948E-07-1.62790E-03-5.36952E-14 2.91228E-13
 -1       919 2.00004E+01 4.17782E-03 2.64016E-07-8.28646E-04-1.22569E-13 6.07207E-14
 -1       920 2.00007E+01 2.72617E-03 2.55490E-07-2.99009E-04-1.52944E-14-7.03776E-14
 -1       921 2.00009E+01 1.66397E-03 2.29280E-07 3.81475E-05 2.34814E-13-4.30490E-14
 -1       922 2.00009E+01 9.11403E-04 1.95352E-07 2.39628E-04 3.62002E-13-4.75271E-15
 -1       923 2.00008E+01 3.97426E-04 1.59981E-07 3.47252E-04-1.07154E-13-4.01334E-15
 -1       924 2.00007E+01 6.21135E-05 1.26857E-07 3.91668E-04-1.00491E-13-1.19630E-13
 -1       925 2.00006E+01-1.43172E-04 9.80742E-08 3.95141E-04 7.98684E-14-4.47833E-14
 -1       926 2.00004E+01-2.56718E-04 7.51185E-08 3.73608E-04 3.09954E-14-9.52706E-14
 -1       927 2.00003E+01-3.07894E-04 5.97649E-08 3.38253E-04-2.05047E-13 2.28979E-14
 -1       928 2.00002E+01-3.18768E-04 2.18840E-08 2.96790E-04 3.48956E-14-2.38225E-13
 -1       929 2.00001E+01-3.05793E-04-1.17038E-07 2.53729E-04-2.21859E-13-1.55084E-13
 -1       930 2.00000E+01-2.79297E-04-6.51310E-08 2.12258E-04 1.72648E-13-3.87598E-13
 -1       931 1.95852E+01 3.99388E-01-1.16958E-05-9.84488E-02-3.08381E-15 4.52215E-13
 -1       932 1.98262E+01 2.15352E-01-2.01306E-05 6.48319E-03 2.03831E-13 1.60160E-13
 -1       933 2.47457E+01-2.13929E+00-4.28840E-03-8.82332E-02 1.04460E-14-1.13177E-13
 -1       934 1.97296E+01 2.94978E-01-3.06134E-05-2.87117E-02 1.47654E-13 3.61825E-13
 -1       935 1.93743E+01 5.28493E-01-2.97074E-05-2.26551E-01-3.13651E-14 4.26631E-13
 -1       936 1.98901E+01 1.55751E-01-6.08460E-06 2.17701E-02 1.55156E-13 2.10164E-13
 -1       937 1.99316E+01 1.12148E-01-3.30707E-06 2.62724E-02 1.39761E-14 2.33229E-13
 -1       938 1.99582E+01 8.05713E-02-1.80086E-06 2.52857E-02 1.64387E-13 2.00810E-13
 -1       939 1.99752E+01 5.77999E-02-9.46265E-07 2.18786E-02 2.23353E-13 1.57170E-13
 -1       940 1.99858E+01 4.13901E-02-4.70092E-07 1.77279E-02 1.55667E-13 2.10341E-13
 -1       941 1.99925E+01 2.95469E-02-2.12495E-07 1.36908E-02 1.35741E-13 3.04144E-13
 -1       942 1.99965E+01 2.09792E-02-8.19447E-08 1.01548E-02-1.31198E-13 2.24611E-13
 -1       943 1.99989E+01 1.47693E-02-2.15650E-08 7.24861E-03-9.95854E-14 1.63004E-13
 -1       944 2.00003E+01 1.02665E-02 2.49335E-09 4.96605E-03 6.06576E-14-6.97081E-14
 -1       945 2.00010E+01 7.00765E-03 9.22459E-09 3.23805E-03-2.81733E-13-1.61627E-14
 -1       946 2.00014E+01 4.66083E-03 8.67338E-09 1.97271E-03-5.41384E-14 1.38200E-13
 -1       947 2.00014E+01 2.98529E-03 5.79459E-09 1.07661E-03-8.87596E-14 1.59760E-13
 -1       948 2.00014E+01 1.80451E-03 2.79002E-09 4.65104E-04 8.82342E-14 1.76678E-13
 -1       949 2.00012E+01 9.87684E-04 4.63678E-10 6.63867E-05-1.80971E-13 1.74461E-13
 -1       950 2.00011E+01 4.37090E-04-1.04257E-09-1.77789E-04-7.16471E-14 2.74580E-13
 -1       951 2.00009E+01 7.93877E-05-1.86388E-09-3.13088E-04-2.02382E-13 2.37451E-13
 -1       952 2.00007E+01-1.40525E-04-2.22662E-09-3.74295E-04 9.14290E-14 1.07853E-13
 -1       953 2.00005E+01-2.63937E-04-2.38009E-09-3.87222E-04 8.79606E-15-1.05955E-13
 -1       954 2.00004E+01-3.21609E-04-3.67702E-09-3.70521E-04-1.70209E-13-7.59430E-14
 -1       955 2.00003E+01-3.36309E-04 3.34541E-09-3.37260E-04 1.16420E-13-3.65675E-14
 -1       956 2.00002E+01-3.24609E-04-1.44842E-08-2.96370E-04 5.09549E-13 2.34498E-14
 -1       957 2.00001E+01-2.98555E-04 5.15115E-08-2.53838E-04 3.66326E-13 1.54189E-14
 -1       958 1.80886E+01 2.00719E-02 1.88013E-03-3.22909E+00-3.28458E-14 6.14563E-14
 -1       959 1.81208E+01 9.04625E-01 8.36092E-04-1.41486E+00 8.86475E-14 1.12465E-13
 -1       960 1.90741E+01 6.75802E-01-8.08729E-05-4.48729E-01 6.25634E-14 3.39487E-13
 -1       961 1.86631E+01 8.16813E-01 7.47572E-08-8.20625E-01-2.90955E-14 2.11363E-13
 -1       962 2.45618E+01 4.20395E+00-2.31743E-02-1.78163E+00 1.00451E-13-1.78539E-13
 -1       963 2.35163E+01-2.59284E+00-2.36449E-04-1.89237E+00 6.09720E-14 8.70988E-14
 -1       964 2.00000E+01-2.53799E-04 2.10982E-08-1.56041E-04 7.78798E-14-2.64097E-13
 -1       965 2.10160E+01-1.75131E+00 4.38870E-03-3.25447E+00 1.35940E-13 2.34831E-13
 -1       966 2.37177E+01 3.65220E+00-8.98806E-03-1.60328E+00 1.18857E-13-1.58542E-13
 -1       967 2.47381E+01-6.42259E-01-3.49822E-03 1.33260E+00 1.93477E-13 2.52923E-14
 -1       968 1.76980E+01 7.87081E-01 9.83560E-04-2.17793E+00 1.36322E-14 1.13905E-13
 -1       969 2.37345E+01 7.98595E-01-5.40499E-03 1.76799E+00 1.76445E-13-9.19538E-14
 -1       970 2.00000E+01-2.76983E-04 5.38259E-08-2.01263E-04 7.38535E-13 1.48270E-13
 -1       971 2.00001E+01-3.11774E-04 4.59968E-08-7.35762E-05 7.13939E-13-2.57747E-13
 -1       972 2.00001E+01-3.15109E-04-1.66239E-08 1.85425E-05 5.63289E-13 4.17880E-13
 -1       973 1.89912E+01 1.25529E-01 1.33293E-04-2.00529E+00 2.88365E-15 1.90897E-13
 -1       974 1.98619E+01 1.60965E-01-6.66696E-06-3.57678E-02 7.02122E-14 2.06486E-13
 -1       975 2.34139E+01-2.06064E+00-5.90311E-05-5.23293E-01-4.13460E-15-1.39575E-13
 -1       976 2.23319E+01-1.73176E+00 8.27507E-04-8.55223E-01 3.80729E-14-9.38773E-14
 -1       977 2.14919E+01-1.28389E+00 2.53462E-03-9.06748E-01 4.81521E-14 2.06118E-14
 -1       978 2.08878E+01-8.71517E-01 4.09633E-04-8.11564E-01 8.80607E-14 4.59176E-15
 -1       979 2.04888E+01-5.43828E-01-9.75998E-05-6.55900E-01 3.08560E-13-9.08160E-14
 -1       980 2.02412E+01-3.10424E-01-5.29333E-05-4.98691E-01 1.93505E-13-2.99888E-14
 -1       981 2.00954E+01-1.54187E-01-9.47919E-05-3.61252E-01 9.85725E-14 6.52863E-14
 -1       982 2.00159E+01-5.63933E-02-9.63721E-05-2.52782E-01 6.72545E-14-2.40464E-14
 -1       983 1.99769E+01 9.16974E-04-4.27928E-05-1.71914E-01-8.84440E-14-1.08855E-13
 -1       984 1.99617E+01 3.07229E-02-3.58726E-05-1.14452E-01 1.84603E-14-5.87021E-14
 -1       985 1.99594E+01 4.36797E-02-2.60117E-05-7.47587E-02 5.29401E-14 2.02534E-15
 -1       986 1.99634E+01 4.64917E-02-1.62050E-05-4.81121E-02 1.02811E-13 3.96190E-14
 -1       987 1.99699E+01 4.37233E-02-9.57069E-06-3.05720E-02 2.03093E-13 1.91804E-13
 -1       988 1.99768E+01 3.82727E-02-5.42213E-06-1.92103E-02-1.03258E-13 3.24683E-13
 -1       989 1.99831E+01 3.18996E-02-2.96314E-06-1.19404E-02-6.36686E-14 3.89474E-13
 -1       990 1.99884E+01 2.56090E-02-1.56598E-06-7.33013E-03 8.58932E-14 2.76292E-13
 -1       991 1.99925E+01 1.99222E-02-8.05738E-07-4.42438E-03 1.99606E-14-9.97263E-14
 -1       992 1.99956E+01 1.50610E-02-4.11414E-07-2.60044E-03 1.40805E-13-1.99001E-13
 -1       993 1.99978E+01 1.10710E-02-2.17471E-07-1.45941E-03 1.91102E-13 5.06912E-14
 -1       994 1.99993E+01 7.90044E-03-1.27151E-07-7.48990E-04 6.34808E-14 4.96772E-14
 -1       995 2.00002E+01 5.45084E-03-8.66485E-08-3.10762E-04-1.46012E-13 1.56733E-13
 -1       996 2.00008E+01 3.60720E-03-6.78069E-08-4.54852E-05-1.27049E-13 2.26327E-13
 -1       997 2.00010E+01 2.25552E-03-5.70397E-08 1.09263E-04 1.83336E-13-5.13565E-14
 -1       998 2.00011E+01 1.29194E-03-4.85567E-08 1.93117E-04 2.37183E-13-6.19381E-14
 -1       999 2.00011E+01 6.26817E-04-4.04226E-08 2.31601E-04-2.94097E-14-2.60677E-13
 -1      1000 2.00010E+01 1.85681E-04-3.23601E-08 2.41415E-04-1.53843E-13-1.81198E-13
 -1      1001 2.00008E+01-9.14764E-05-2.45103E-08 2.33649E-04 2.90997E-13-3.36153E-13
 -1      1002 2.00007E+01-2.51824E-04-1.65675E-08 2.15739E-04-1.54722E-13-9.85791E-14
 -1      1003 2.00005E+01-3.31628E-04-5.50719E-09 1.92670E-04 2.60619E-14-1.71970E-13
 -1      1004 2.00004E+01-3.58188E-04-3.18891E-09 1.67737E-04-2.54219E-13-2.58385E-13
 -1      1005 2.00003E+01-3.51366E-04 9.07964E-08 1.43284E-04-3.21959E-14-4.07304E-13
 -1      1006 2.00001E+01-3.13304E-04 7.67012E-08 1.30361E-04 1.61053E-13 8.29783E-14
 -1      1007 1.95865E+01 3.27247E-01-5.78952E-05-3.05886E-01 7.04827E-14 1.23372E-13
 -1      1008 1.99388E+01 9.17427E-02-8.17173E-06 3.18683E-03 3.33667E-14 6.92693E-15
 -1      1009 1.99603E+01 6.84067E-02-5.43440E-06 8.60444E-03 3.55134E-13 1.03632E-13
 -1      1010 1.99749E+01 5.06682E-02-3.52730E-06 9.96155E-03-2.97594E-14 2.18271E-13
 -1      1011 1.99847E+01 3.72667E-02-2.24866E-06 9.30464E-03 8.35996E-14 2.92326E-13
 -1      1012 1.99911E+01 2.71826E-02-1.42471E-06 7.80671E-03 7.94249E-14 4.62049E-13
 -1      1013 1.99953E+01 1.96213E-02-9.05799E-07 6.10435E-03 1.58201E-15 2.80867E-13
 -1      1014 1.99980E+01 1.39751E-02-5.82459E-07 4.51443E-03 1.13503E-13 2.28492E-13
 -1      1015 1.99997E+01 9.78251E-03-3.81060E-07 3.17023E-03 2.29526E-14 1.61070E-13
 -1      1016 2.00006E+01 6.69320E-03-2.54406E-07 2.10496E-03-1.56596E-13-8.63985E-14
 -1      1017 2.00011E+01 4.44017E-03-1.73214E-07 1.30162E-03-9.21452E-14-1.06925E-13
 -1      1018 2.00014E+01 2.81908E-03-1.19748E-07 7.21742E-04-1.32182E-13 1.87286E-14
 -1      1019 2.00014E+01 1.67294E-03-8.34434E-08 3.21123E-04 5.34246E-14-3.73388E-14
 -1      1020 2.00013E+01 8.80901E-04-5.80668E-08 5.78419E-05-1.38570E-13 7.04036E-14
 -1      1021 2.00011E+01 3.49994E-04-3.99319E-08-1.04245E-04-2.48467E-13 9.21338E-14
 -1      1022 2.00010E+01 8.93820E-06-2.68559E-08-1.94482E-04 1.25326E-13-2.45992E-14
 -1      1023 2.00008E+01-1.96599E-04-1.75923E-08-2.35675E-04 3.59412E-13-9.45458E-14
 -1      1024 2.00006E+01-3.07685E-04-1.14189E-08-2.44910E-04-2.25930E-13-2.00391E-13
 -1      1025 2.00005E+01-3.54992E-04-1.98112E-09-2.34554E-04-1.22978E-13-1.52239E-13
 -1      1026 2.00003E+01-3.61563E-04 6.95344E-09-2.13189E-04-2.73987E-14 1.68582E-13
 -1      1027 2.00002E+01-3.44001E-04-1.46918E-08-1.87170E-04 4.78479E-13 4.12063E-14
 -1      1028 1.98471E+01-6.89898E-01-1.20060E-03-2.55769E+00-2.99469E-14 2.25872E-13
 -1      1029 1.94323E+01 3.80531E-01 7.04144E-05-5.29651E-01-7.00972E-14 1.27118E-13
 -1      1030 1.99073E+01 1.22120E-01-1.30160E-05-9.72151E-03 5.96604E-14 1.33178E-13
 -1      1031 2.20634E+01-1.87371E+00 1.91325E-03-1.90215E+00 8.88098E-14 1.78671E-13
 -1      1032 1.97080E+01 2.66136E-01 1.25663E-04-1.67362E-01 1.34325E-13-4.42029E-14
 -1      1033 1.92484E+01 3.99208E-01-2.60329E-04-8.77357E-01-3.51285E-14 1.70407E-13
 -1      1034 1.90809E+01 3.41280E-01 1.12107E-03-1.35368E+00 2.55751E-14 3.73618E-13
 -1      1035 1.97969E+01 2.09126E-01-9.17698E-05-8.39434E-02 2.24795E-13 1.21872E-14
 -1      1036 2.00002E+01-3.44936E-04-1.52716E-07-3.04784E-05 7.09336E-13-1.50160E-13
 -1      1037 2.00000E+01-2.90042E-04-1.36005E-07-1.60393E-04 1.02633E-12-3.55526E-13
 -1      1038 2.00002E+01-3.54580E-04-3.81102E-08 5.24147E-05 2.72747E-13 2.63822E-14
 -1      1039 2.07259E+01-8.82776E-01-3.04802E-03-1.37004E+00 1.55103E-14-1.03931E-14
 -1      1040 2.03212E+01-4.83393E-01 6.65187E-04-1.04049E+00 1.21101E-13-6.90583E-16
 -1      1041 2.00884E+01-2.29935E-01 6.21848E-04-7.56089E-01 2.33218E-13-9.94908E-14
 -1      1042 1.99735E+01-7.52395E-02 2.37290E-04-5.21160E-01 1.86278E-13-2.07519E-13
 -1      1043 1.99230E+01 1.23254E-02 1.26958E-04-3.47999E-01-9.09429E-15-8.55148E-14
 -1      1044 1.99094E+01 5.61686E-02 6.25105E-05-2.25648E-01-6.15565E-14-1.55691E-13
 -1      1045 1.99139E+01 7.33619E-02 4.90004E-05-1.42304E-01 9.56979E-14-2.02790E-13
 -1      1046 1.99269E+01 7.51746E-02 4.91999E-05-8.70565E-02 1.62485E-13-4.71529E-14
 -1      1047 1.99414E+01 6.96156E-02 2.81249E-05-5.17805E-02 1.34546E-13 2.20145E-13
 -1      1048 1.99551E+01 6.05432E-02 1.72318E-05-2.98096E-02 2.41368E-13 2.52193E-13
 -1      1049 1.99670E+01 5.04764E-02 1.00881E-05-1.65119E-02 6.21400E-14 1.22404E-13
 -1      1050 1.99766E+01 4.07648E-02 5.59836E-06-8.70067E-03 3.89687E-14 2.20519E-13
 -1      1051 1.99842E+01 3.20682E-02 2.87871E-06-4.26478E-03 4.91006E-14 3.18533E-13
 -1      1052 1.99898E+01 2.46424E-02 1.29232E-06-1.84655E-03-9.04792E-14 2.59617E-13
 -1      1053 1.99939E+01 1.85157E-02 4.06827E-07-5.97357E-04 4.11904E-14 2.62853E-13
 -1      1054 1.99968E+01 1.35967E-02-5.81621E-08-1.56217E-06 2.62846E-13 2.07387E-13
 -1      1055 1.99987E+01 9.73884E-03-2.78350E-07 2.44939E-04 9.48060E-14 5.73416E-14
 -1      1056 1.99999E+01 6.77772E-03-3.60942E-07 3.15646E-04 1.12252E-13-4.97093E-15
 -1      1057 2.00007E+01 4.55246E-03-3.69849E-07 3.05733E-04-5.70257E-14 9.15231E-14
 -1      1058 2.00011E+01 2.91647E-03-3.42286E-07 2.64850E-04-2.01827E-13 2.82468E-13
 -1      1059 2.00012E+01 1.74228E-03-2.99322E-07 2.17132E-04 1.01213E-14-4.10614E-14
 -1      1060 2.00012E+01 9.22692E-04-2.52446E-07 1.73024E-04 6.18942E-14-2.46816E-13
 -1      1061 2.00011E+01 3.69917E-04-2.07562E-07 1.36047E-04-1.71539E-14-1.96718E-13
 -1      1062 2.00010E+01 1.36726E-05-1.67295E-07 1.06515E-04 1.46536E-13-1.67514E-13
 -1      1063 2.00008E+01-2.01202E-04-1.31998E-07 8.34774E-05 2.92062E-13-2.23795E-13
 -1      1064 2.00007E+01-3.17185E-04-9.85786E-08 6.56554E-05-2.27612E-14-1.39663E-13
 -1      1065 2.00005E+01-3.66489E-04-9.65153E-08 5.19984E-05-1.45111E-13-3.18121E-13
 -1      1066 2.00004E+01-3.72939E-04-1.08130E-07 4.14060E-05-1.48837E-13-9.21949E-14
 -1      1067 1.99664E+01 5.57590E-02-2.29222E-06-2.68410E-03 2.17939E-13 3.51472E-14
 -1      1068 1.99506E+01 7.18081E-02-3.76669E-06-1.10163E-02 6.08915E-14-9.54595E-14
 -1      1069 1.99858E+01 3.21836E-02-4.21401E-07 2.79756E-03-5.61075E-14 8.25589E-14
 -1      1070 1.99915E+01 2.39238E-02 3.84334E-08 3.05374E-03 2.57776E-14 2.44866E-13
 -1      1071 1.99953E+01 1.74993E-02 3.00537E-07 2.72241E-03 9.64521E-14 3.41590E-13
 -1      1072 1.99979E+01 1.25649E-02 4.31516E-07 2.17891E-03 5.58941E-14 1.74718E-13
 -1      1073 1.99995E+01 8.82401E-03 4.78351E-07 1.61624E-03 6.01977E-14 2.52038E-13
 -1      1074 2.00005E+01 6.02751E-03 4.73417E-07 1.12210E-03 7.43641E-16 1.95865E-13
 -1      1075 2.00010E+01 3.96980E-03 4.38694E-07 7.26340E-04-4.60579E-14-4.46843E-15
 -1      1076 2.00013E+01 2.48321E-03 3.88845E-07 4.29362E-04-3.01697E-14 8.32886E-14
 -1      1077 2.00013E+01 1.43255E-03 3.33413E-07 2.18399E-04-1.82409E-13 2.82521E-13
 -1      1078 2.00013E+01 7.09953E-04 2.78365E-07 7.64332E-05 7.23697E-14 3.29439E-14
 -1      1079 2.00011E+01 2.30335E-04 2.27195E-07-1.33055E-05-1.58296E-13-3.46936E-13
 -1      1080 2.00010E+01-7.26383E-05 1.81720E-07-6.53525E-05 2.30903E-13-8.33527E-14
 -1      1081 2.00008E+01-2.50034E-04 1.42724E-07-9.13989E-05 1.23390E-13-3.03847E-13
 -1      1082 2.00006E+01-3.40657E-04 1.11354E-07-1.00372E-04-3.37495E-13-2.38341E-13
 -1      1083 2.00005E+01-3.73413E-04 9.66830E-08-9.87539E-05-1.73444E-13-3.94112E-13
 -1      1084 2.00003E+01-3.70352E-04 1.71839E-07-6.21556E-05 3.40002E-13-4.33693E-13
 -1      1085 1.97182E+01 1.57087E-01 1.86756E-05-4.91348E-01 8.69424E-14-1.33466E-13
 -1      1086 2.00476E+01-4.96667E-01 2.06485E-03-1.76599E+00-8.94310E-15 1.72143E-13
 -1      1087 2.12420E+01-1.29921E+00-2.77100E-03-1.62017E+00 5.69067E-14 4.57593E-14
 -1      1088 1.99778E+01 4.26633E-02-1.16758E-06 1.27471E-03 3.60608E-14 6.48245E-15
 -1      1089 1.96871E+01 9.67911E-02-5.85667E-04-7.67596E-01 7.86414E-14 8.18979E-14
 -1      1090 1.97685E+01 1.67950E-01-7.36375E-05-3.02756E-01 4.26480E-14-8.55111E-14
 -1      1091 1.99007E+01 1.12816E-01 2.39695E-07-5.49569E-02 1.35030E-13 5.21946E-14
 -1      1092 1.98639E+01 1.35814E-01-2.84438E-05-1.02910E-01 1.23764E-13 2.48667E-13
 -1      1093 1.99292E+01 9.09423E-02-4.75410E-06-2.68284E-02 2.07982E-13 3.26719E-14
 -1      1094 1.97567E+01-3.85643E-02-3.54055E-04-1.02714E+00 1.86730E-13 1.00551E-13
 -1      1095 1.98421E+01 1.41068E-01 5.78880E-05-1.59575E-01 1.22818E-13 1.99200E-13
 -1      1096 2.71972E+01 8.85191E+00 2.30901E+00-7.10648E+00-5.42899E-14-7.09960E-13
 -1      1097 1.97944E+01 5.97825E+00 1.33014E-01-4.67283E+00-8.04912E-15-9.66206E-13
 -1      1098 1.93608E+01 5.82219E+00 4.64707E-02-3.83312E+00 1.03390E-15-8.76708E-13
 -1      1099 1.97537E+01 5.94893E+00 7.60664E-02-3.17827E+00 6.85563E-15-7.27236E-13
 -1      1100 2.03501E+01 6.14038E+00 1.17836E-01-2.45762E+00 9.04832E-15-5.70736E-13
 -1      1101 2.08807E+01 6.31349E+00 1.64220E-01-1.59399E+00 9.89486E-15-4.10508E-13
 -1      1102 2.11284E+01 6.40214E+00 2.11988E-01-5.42857E-01 1.05436E-14-2.62540E-13
 -1      1103 2.08589E+01 6.33137E+00 2.45632E-01 6.90942E-01 1.13104E-14-1.22785E-13
 -1      1104 1.98516E+01 6.02597E+00 2.34905E-01 2.00244E+00 1.10190E-14 1.32463E-14
 -1      1105 1.80322E+01 5.45327E+00 1.45347E-01 3.13890E+00 1.05471E-14 1.22506E-13
 -1      1106 1.56963E+01 4.70033E+00-2.85114E-02 3.72685E+00 1.16018E-14 2.20092E-13
 -1      1107 1.36489E+01 4.02390E+00-2.35888E-01 3.45531E+00 1.21014E-14 3.10342E-13
 -1      1108 1.29997E+01 3.78712E+00-3.75900E-01 2.39857E+00 1.27121E-14 4.12090E-13
 -1      1109 1.45518E+01 4.26025E+00-3.50906E-01 1.09386E+00 1.13798E-14 5.64821E-13
 -1      1110 1.84661E+01 5.50263E+00-1.24018E-01 3.42920E-01 9.21485E-15 7.93074E-13
 -1      1111 2.42198E+01 7.36991E+00 3.46452E-01 1.11767E+00 0.00000E+00 1.10436E-12
 -1      1112 3.26959E+01 1.03850E+01 1.92060E+00 4.42431E+00-3.26406E-14 1.40299E-12
 -1      1113 2.80310E+01 3.77797E+00 1.43214E+00-4.50327E+00-1.50407E-13-6.03406E-13
 -1      1114 1.82436E+01-1.63159E-01-6.13340E-01-2.00561E-01-6.05557E-14-9.61231E-13
 -1      1115 1.59678E+01-1.00858E-01-2.57677E-01 3.86593E-02-1.42889E-14-1.31937E-12
 -1      1116 1.49611E+01-5.74599E-02-7.55854E-02 2.11325E-02-1.31388E-14-1.46158E-12
 -1      1117 1.43273E+01-4.10408E-02-3.73790E-02 9.29300E-03-1.19379E-14-1.58727E-12
 -1      1118 1.39820E+01-3.75334E-02-3.79728E-02 7.24130E-03-1.29163E-14-1.68061E-12
 -1      1119 1.39333E+01-3.62185E-02-4.20802E-02 1.18087E-02-1.19618E-14-1.73860E-12
 -1      1120 1.41952E+01-3.21626E-02-3.99710E-02 1.95857E-02-1.24900E-15-1.80171E-12
 -1      1121 1.47441E+01-2.39846E-02-3.03543E-02 2.70158E-02 4.87739E-15-1.81884E-12
 -1      1122 1.55089E+01-1.29553E-02-1.57997E-02 3.14192E-02 7.13839E-16-1.81762E-12
 -1      1123 1.63864E+01-1.63607E-03-4.34310E-04 3.16804E-02-2.36631E-14-1.88212E-12
 -1      1124 1.72687E+01 7.56892E-03 1.20494E-02 2.82504E-02 1.65591E-14-1.88079E-12
 -1      1125 1.80684E+01 1.33495E-02 1.96649E-02 2.25443E-02 2.53617E-15-1.80756E-12
 -1      1126 1.87320E+01 1.56321E-02 2.23072E-02 1.61626E-02 4.76333E-15-1.77553E-12
 -1      1127 1.92406E+01 1.51806E-02 2.11332E-02 1.03357E-02-1.82499E-14-1.70544E-12
 -1      1128 1.96018E+01 1.30627E-02 1.77360E-02 5.72560E-03-1.62444E-14-1.67756E-12
 -1      1129 1.98389E+01 1.02514E-02 1.35353E-02 2.49429E-03-5.56196E-17-1.64870E-12
 -1      1130 1.99807E+01 7.43716E-03 9.50147E-03 4.87044E-04 4.80959E-14-1.45631E-12
 -1      1131 2.00551E+01 5.00706E-03 6.14088E-03-5.87338E-04-1.55599E-14-1.46661E-12
 -1      1132 2.00856E+01 3.10992E-03 3.61051E-03-1.03253E-03 2.01569E-14-1.58307E-12
 -1      1133 2.00900E+01 1.74340E-03 1.85875E-03-1.10142E-03-2.89517E-14-1.54966E-12
 -1      1134 2.00806E+01 8.28673E-04 7.39675E-04-9.76854E-04 1.57536E-15-1.58196E-12
 -1      1135 2.00654E+01 2.61618E-04 8.65639E-05-7.76735E-04-2.29407E-15-1.33811E-12
 -1      1136 2.00493E+01-5.80024E-05-2.49721E-04-5.68755E-04-4.66225E-14-1.46582E-12
 -1      1137 2.00346E+01-2.13381E-04-3.86301E-04-3.86236E-04 8.05136E-15-1.62127E-12
 -1      1138 2.00224E+01-2.67298E-04-4.07254E-04-2.41307E-04 4.72036E-15-1.51395E-12
 -1      1139 2.00131E+01-2.63793E-04-3.68664E-04-1.34417E-04-7.97861E-15-1.41411E-12
 -1      1140 2.00063E+01-2.31821E-04-3.05411E-04-6.05185E-05-2.51904E-14-1.58537E-12
 -1      1141 2.00016E+01-1.89194E-04-2.37537E-04-1.27270E-05-4.68367E-14-1.71721E-12
 -1      1142 1.99986E+01-1.46024E-04-1.75365E-04 1.57378E-05 1.27449E-15-1.76623E-12
 -1      1143 1.99968E+01-1.07410E-04-1.23253E-04 3.06840E-05-1.76665E-15-1.30174E-12
 -1      1144 1.99960E+01-7.53832E-05-8.21505E-05 3.66865E-05 6.78736E-15-1.49876E-12
 -1      1145 1.99957E+01-5.02242E-05-5.12526E-05 3.71374E-05 2.60237E-15-1.62716E-12
 -1      1146 1.99959E+01-3.13207E-05-2.90012E-05 3.44287E-05 1.35609E-14-1.40839E-12
 -1      1147 1.99962E+01-1.76859E-05-1.36530E-05 3.01691E-05 7.78889E-14-1.40246E-12
 -1      1148 1.99966E+01-8.25504E-06-3.57246E-06 2.53865E-05 4.69122E-14-1.32546E-12
 -1      1149 1.99971E+01-2.03965E-06 2.64029E-06 2.06970E-05-5.90152E-14-1.42438E-12
 -1      1150 1.99976E+01 1.80557E-06 6.11510E-06 1.64366E-05-1.46423E-15-9.33481E-13
 -1      1151 1.99980E+01 3.96547E-06 7.72577E-06 1.27589E-05 4.35676E-14-4.11184E-13
 -1      1152 1.99984E+01 4.97331E-06 8.12543E-06 9.70408E-06 5.37370E-15-5.05503E-13
 -1      1153 1.99987E+01 5.23159E-06 7.78870E-06 7.24674E-06-3.49723E-14-6.90267E-13
 -1      1154 1.99990E+01 5.03674E-06 7.05288E-06 5.32650E-06-4.90419E-14-1.30225E-12
 -1      1155 1.99992E+01 4.60329E-06 6.15538E-06 3.86689E-06-2.14775E-14-1.59595E-12
 -1      1156 1.99994E+01 4.08536E-06 5.26715E-06 2.78441E-06-1.41998E-14-8.88885E-13
 -1      1157 1.99995E+01 3.59385E-06 4.52284E-06 1.98909E-06 1.12262E-13-3.79875E-13
 -1      1158 1.99997E+01 3.20714E-06 4.04185E-06 1.37383E-06-1.36833E-14 1.16521E-14
 -1      1159 1.99997E+01 2.96776E-06 3.89738E-06 7.87084E-07-5.96654E-14-3.48637E-13
 -1      1160 1.99998E+01 2.79649E-06 3.88801E-06-2.63094E-08-6.95575E-14-9.75583E-13
 -1      1161 1.99998E+01 2.81361E-06 2.68311E-06-1.55537E-06 4.56686E-14-8.63594E-13
 -1      1162 1.99998E+01-1.43084E-06-3.16427E-06-1.38920E-06 1.63635E-13-3.10167E-13
 -1      1163 3.67121E+01 4.91373E-01-8.40499E-02 1.85717E+00-2.72629E-14 1.52947E-12
 -1      1164 3.42055E+01-1.46498E-01-6.44839E-01-3.53606E-02-2.97609E-14 1.81358E-12
 -1      1165 3.78482E+01 5.89260E-02-9.26652E-03-2.33980E-01-1.40604E-14 1.98691E-12
 -1      1166 4.18056E+01 3.91671E-01 7.07498E-01-3.45549E-01 9.66588E-15 2.08711E-12
 -1      1167 4.23113E+01 6.44299E-01 1.21494E+00-3.37412E-02 7.80626E-15 2.20091E-12
 -1      1168 3.44379E+01 6.25568E-02 1.78404E-01 8.40495E-01-3.56729E-14 2.64200E-12
 -1      1169 2.08963E+01-6.09519E-01-2.31273E+00 1.32566E+00-4.47142E-14 3.02280E-12
 -1      1170 1.43400E+01-7.16862E-01-3.62276E+00 3.53813E-01-5.99520E-14 3.14551E-12
 -1      1171 1.91199E+01-3.24990E-01-2.70774E+00-8.08035E-01 1.72085E-14 2.97873E-12
 -1      1172 3.11992E+01 2.32960E-01-4.78816E-01-1.19092E+00 2.08236E-14 2.64611E-12
 -1      1173 4.03358E+01 2.10722E-01 8.47566E-01-6.90154E-01 2.32453E-14 2.15322E-12
 -1      1174 4.05714E+01 6.55414E-02 6.74869E-01-7.15305E-02-3.70190E-15 1.83840E-12
 -1      1175 3.59594E+01-1.98616E-02 1.65496E-01 1.76877E-01 3.15564E-14 1.73422E-12
 -1      1176 3.09037E+01-4.65612E-02-9.50363E-02 1.93901E-01 5.89719E-15 1.86035E-12
 -1      1177 2.70019E+01-4.59330E-02-1.43445E-01 1.41808E-01-2.15305E-14 2.00984E-12
 -1      1178 2.43638E+01-3.62981E-02-1.13707E-01 9.00047E-02 2.69854E-14 2.10967E-12
 -1      1179 2.26817E+01-2.60080E-02-7.46187E-02 5.36783E-02-2.21516E-14 1.88601E-12
 -1      1180 2.16378E+01-1.77239E-02-4.55451E-02 3.10998E-02 8.02136E-15 1.81206E-12
 -1      1181 2.09975E+01-1.17595E-02-2.71476E-02 1.77743E-02-7.41828E-14 1.81647E-12
 -1      1182 2.06065E+01-7.69282E-03-1.61383E-02 1.00913E-02 7.14025E-14 1.22268E-12
 -1      1183 2.03677E+01-4.99876E-03-9.64418E-03 5.70765E-03 3.77302E-15 6.75963E-13
 -1      1184 2.02216E+01-3.24202E-03-5.80794E-03 3.21804E-03-2.87762E-14 1.49463E-12
 -1      1185 2.01319E+01-2.10603E-03-3.52803E-03 1.80698E-03 5.22794E-15 1.34631E-12
 -1      1186 2.00766E+01-1.37388E-03-2.16359E-03 1.00794E-03 1.74373E-14 1.36196E-12
 -1      1187 2.00426E+01-9.01781E-04-1.34085E-03 5.55557E-04 1.97017E-14 1.10133E-12
 -1      1188 2.00217E+01-5.96195E-04-8.40313E-04 2.99358E-04-4.37431E-14 1.13402E-12
 -1      1189 2.00090E+01-3.97051E-04-5.32402E-04 1.54193E-04 3.46210E-14 1.16630E-12
 -1      1190 2.00014E+01-2.66065E-04-3.40381E-04 7.19721E-05-6.12650E-14 1.84876E-12
 -1      1191 1.99970E+01-1.78953E-04-2.18705E-04 2.55775E-05 3.48737E-14 1.76308E-12
 -1      1192 1.99947E+01-1.20336E-04-1.40269E-04-2.75044E-07 3.84177E-15 9.93406E-13
 -1      1193 1.99937E+01-8.04572E-05-8.88690E-05-1.42219E-05-6.57019E-14 1.09586E-12
 -1      1194 1.99935E+01-5.30856E-05-5.47377E-05-2.11785E-05 5.32386E-14 7.26840E-13
 -1      1195 1.99937E+01-3.42019E-05-3.19033E-05-2.39830E-05 8.82224E-14 3.60932E-13
 -1      1196 1.99943E+01-2.11723E-05-1.66396E-05-2.43108E-05-3.92144E-14 1.50308E-12
 -1      1197 1.99949E+01-1.22374E-05-6.55721E-06-2.31805E-05 1.50216E-14 1.74041E-12
 -1      1198 1.99956E+01-6.19604E-06-7.43373E-08-2.12318E-05 8.12851E-15 1.35224E-12
 -1      1199 1.99963E+01-2.20944E-06 3.89102E-06-1.88772E-05 1.13708E-13 5.61272E-13
 -1      1200 1.99969E+01 3.19536E-07 6.10076E-06-1.63874E-05-1.03603E-13 1.39368E-12
 -1      1201 1.99975E+01 1.82281E-06 7.10314E-06-1.39394E-05-7.01665E-14 1.45350E-12
 -1      1202 1.99980E+01 2.61610E-06 7.29779E-06-1.16461E-05 2.93707E-14 8.83539E-13
 -1      1203 1.99984E+01 2.93160E-06 6.97737E-06-9.57479E-06-1.48368E-14 1.00779E-12
 -1      1204 1.99987E+01 2.94084E-06 6.35625E-06-7.76119E-06 1.80892E-14 8.01315E-13
 -1      1205 1.99990E+01 2.77141E-06 5.59181E-06-6.21894E-06 4.95110E-15 6.53554E-13
 -1      1206 1.99992E+01 2.51928E-06 4.80170E-06-4.94691E-06-2.00375E-14 1.12660E-12
 -1      1207 1.99994E+01 2.25954E-06 4.08126E-06-3.93420E-06-5.62770E-14 9.63557E-13
 -1      1208 1.99995E+01 2.05617E-06 3.52419E-06-3.16342E-06 1.09202E-13 6.99166E-13
 -1      1209 1.99996E+01 1.96432E-06 3.24263E-06-2.60311E-06 9.80617E-15-3.96303E-13
 -1      1210 1.99997E+01 2.01201E-06 3.31349E-06-2.16155E-06 7.77462E-14-3.35059E-13
 -1      1211 1.99998E+01 2.05734E-06 3.48108E-06-1.61474E-06-9.72353E-14-3.43850E-13
 -1      1212 1.99998E+01 1.43040E-06 2.43511E-06-3.44037E-07-8.39591E-14 3.67652E-13
 -1      1213 1.99998E+01-1.27984E-06-3.12256E-06 1.23095E-06 3.77109E-14 7.54135E-13
 -1      1214 1.99998E+01 3.69817E-06-3.03091E-06 1.37190E-06 8.19994E-13-9.77640E-14
 -1      1215 1.99998E+01 5.47542E-06 2.55567E-06 1.36081E-06-1.83122E-13-1.43448E-13
 -1      1216 1.99998E+01-1.90184E-05 3.41717E-06-6.42037E-07-2.41350E-13 4.02347E-14
 -1      1217 1.99998E+01-6.75384E-05 1.91571E-06-1.68961E-06-6.04052E-13 1.54245E-13
 -1      1218 1.99998E+01-1.28255E-04 1.51991E-07-2.02223E-06-1.03243E-12-2.41998E-14
 -1      1219 1.99998E+01-1.89102E-04-1.39089E-06-1.89446E-06-1.84008E-12-1.57344E-13
 -1      1220 1.99998E+01-2.40521E-04-2.56530E-06-1.46482E-06-8.81983E-13 1.07066E-13
 -1      1221 1.99998E+01-2.75022E-04-3.31155E-06-7.87515E-07-1.35077E-12-2.41616E-13
 -1      1222 1.99998E+01-2.87073E-04-3.56222E-06-3.32056E-09-1.53238E-12 8.98220E-14
 -1      1223 1.99998E+01-2.74994E-04-3.30728E-06 7.80714E-07-1.76220E-12-5.05520E-15
 -1      1224 1.99998E+01-2.40501E-04-2.55796E-06 1.45534E-06-1.50811E-12-2.61729E-13
 -1      1225 1.99998E+01-1.89094E-04-1.38488E-06 1.91388E-06-1.56861E-12 1.27587E-13
 -1      1226 1.99998E+01-1.28273E-04 1.54895E-07 2.02590E-06-1.42685E-12-3.63065E-14
 -1      1227 1.99998E+01-6.75305E-05 1.91848E-06 1.70312E-06-9.75429E-13 1.30501E-14
 -1      1228 1.99998E+01-1.84079E-05 3.44479E-06 8.20156E-07-1.43039E-13 1.47106E-13
 -1      1229 1.99998E+01 4.18984E-06 2.25845E-06-2.32243E-06 4.50491E-13-2.07116E-13
 -1      1230 1.99998E+01 4.20895E-06-2.95503E-06-1.47754E-06 2.10487E-13 8.30323E-14
 -1      1231-1.33960E+00-2.80679E+01-4.08563E+00-2.88058E+00 2.42598E-12 3.18731E-13
 -1      1232-2.94242E+00-2.26158E+01-4.06333E+00-6.57275E+00 2.17582E-12 6.31439E-13
 -1      1233-2.99051E+00-1.08290E+01-3.52683E+00-4.90497E+00 1.34115E-12 7.46403E-13
 -1      1234 3.80190E+00 1.33658E+00-2.28010E+00 2.91501E+00 1.14198E-12 1.06626E-12
 -1      1235 2.31193E+01 8.82654E+00 1.29505E-01 1.39414E+01 7.63833E-13 9.35252E-13
 -1      1236 5.36965E+01 8.93134E+00 3.79791E+00 2.01135E+01 2.79554E-13 5.45786E-13
 -1      1237 8.28081E+01 4.54963E+00 7.42854E+00 1.37065E+01 2.42306E-14-5.48450E-14
 -1      1238 9.07953E+01 3.34171E+00 8.44921E+00-3.07453E+00 2.31759E-15-2.97484E-13
 -1      1239 7.33574E+01 6.13568E+00 6.35661E+00-1.66132E+01 9.23150E-14-3.48166E-13
 -1      1240 4.24108E+01 8.92064E+00 2.34087E+00-1.84263E+01 3.06422E-14-1.41664E-13
 -1      1241 1.51592E+01 6.21508E+00-1.03248E+00-9.82451E+00-7.63833E-14 5.59552E-14
 -1      1242-1.26084E-01-3.30899E+00-3.12910E+00 9.90225E-01-4.07896E-13 2.85771E-13
 -1      1243-3.87778E+00-1.53336E+01-4.04916E+00 6.70574E+00-7.95364E-13 3.85358E-13
 -1      1244-2.44414E+00-2.36361E+01-4.04874E+00 5.83434E+00-9.92317E-13 2.63005E-13
 -1      1245-8.80799E-01-2.44458E+01-3.61126E+00 1.33930E+00-1.04278E-12 4.03705E-14
 -1      1246-9.39210E-01-1.68232E+01-2.84986E+00-2.06956E+00-1.00275E-12-1.70447E-13
 -1      1247-4.24228E-01-5.15474E+00-2.00491E+00-1.00605E+00-7.62279E-13-2.80775E-13
 -1      1248 4.40012E+00 6.21955E+00-8.48199E-01 5.24595E+00-3.43281E-13-1.86517E-13
 -1      1249 1.70862E+01 1.26800E+01 4.86626E-01 1.42072E+01 1.39888E-13 2.16716E-13
 -1      1250 3.62487E+01 1.21027E+01 1.90819E+00 1.99735E+01 4.36429E-13 8.35998E-13
 -1      1251 5.60314E+01 7.06124E+00 3.19488E+00 1.77132E+01 4.65072E-13 1.51101E-12
 -1      1252 6.90443E+01 2.65523E+00 3.92893E+00 7.32237E+00 1.97696E-13 1.99402E-12
 -1      1253 7.05562E+01 2.15406E+00 4.10934E+00-6.40080E+00-2.24359E-13 2.10559E-12
 -1      1254 5.95893E+01 6.36265E+00 3.57384E+00-1.69843E+01-5.25996E-13 1.83575E-12
 -1      1255 4.17886E+01 1.14999E+01 2.56482E+00-2.06348E+01-7.47291E-13 1.47971E-12
 -1      1256 2.30445E+01 1.34775E+01 1.23178E+00-1.69719E+01-8.65530E-13 1.05738E-12
 -1      1257 8.53237E+00 9.22677E+00-2.57156E-01-8.75935E+00-7.52953E-13 6.77902E-13
 -1      1258 6.33750E-01-1.29812E+00-1.69820E+00-5.24592E-01-2.18492E-13 2.37699E-13
 -1      1259-1.38937E+00-1.46148E+01-2.88237E+00 3.42167E+00 6.88338E-13-1.41887E-13
 -1      1260-1.02571E+00-2.49727E+01-3.70612E+00 1.85046E+00 1.59373E-12-1.21837E-13
 -1      1261 2.09938E+01 1.82160E+00-7.55578E-01-3.19710E+00-6.77791E-14-9.02500E-13
 -1      1262 1.96856E+01 4.72505E+00-5.64143E-02-4.12527E+00-2.41127E-14-9.40650E-13
 -1      1263 1.98359E+01 4.78809E+00-1.59177E-01-4.89627E+00-8.71525E-14-9.84775E-13
 -1      1264 1.96371E+01 5.09865E+00-1.52505E-02-3.58150E+00 5.40158E-14-8.20372E-13
 -1      1265 1.95165E+01 5.07948E+00-2.59041E-02-3.93730E+00 3.40526E-14-8.93965E-13
 -1      1266 1.99699E+01 4.03987E+00-3.68159E-02-3.90773E+00-1.00614E-14-8.18359E-13
 -1      1267 2.01659E+01 5.27940E+00 1.44472E-02-2.95438E+00 1.02349E-13-6.72552E-13
 -1      1268 1.98689E+01 5.20714E+00-2.91080E-03-3.28983E+00 9.14407E-14-7.60572E-13
 -1      1269 2.00840E+01 4.43550E+00-2.66716E-02-3.37658E+00 9.96163E-14-7.04443E-13
 -1      1270 2.08245E+01 5.38279E+00 3.57615E-02-2.23909E+00 1.34726E-13-5.22103E-13
 -1      1271 2.04919E+01 5.29455E+00 9.21847E-03-2.61762E+00 1.28814E-13-6.07740E-13
 -1      1272 2.06686E+01 4.58482E+00-1.63282E-02-2.74468E+00 1.74961E-13-5.71827E-13
 -1      1273 2.13866E+01 5.38704E+00 5.56920E-02-1.38159E+00 1.51618E-13-3.69638E-13
 -1      1274 2.11258E+01 5.31766E+00 2.03797E-02-1.83409E+00 1.46570E-13-4.54366E-13
 -1      1275 2.13646E+01 4.58148E+00-8.13635E-03-2.03118E+00 2.21762E-13-4.30961E-13
 -1      1276 2.16277E+01 5.26007E+00 7.32948E-02-3.38989E-01 1.67056E-13-2.19241E-13
 -1      1277 2.15569E+01 5.24490E+00 3.55911E-02-8.80943E-01 1.62068E-13-3.00815E-13
 -1      1278 2.19321E+01 4.42885E+00-2.14107E-03-1.17846E+00 2.47104E-13-2.88866E-13
 -1      1279 2.12806E+01 4.99387E+00 7.96164E-02 8.85070E-01 1.80349E-13-8.28226E-14
 -1      1280 2.15413E+01 5.07260E+00 5.68138E-02 2.69344E-01 1.80474E-13-1.59990E-13
 -1      1281 2.21121E+01 4.14474E+00 4.11998E-04-1.38268E-01 2.74605E-13-1.50699E-13
 -1      1282 2.00760E+01 4.63912E+00 5.84995E-02 2.18416E+00 1.83728E-13 4.40828E-14
 -1      1283 2.08010E+01 4.84693E+00 8.05758E-02 1.56808E+00 1.82993E-13-2.74780E-14
 -1      1284 2.15882E+01 3.81476E+00-4.07417E-03 1.08941E+00 2.86878E-13-1.81105E-14
 -1      1285 1.79114E+01 4.33070E+00-2.47186E-03 3.29316E+00 1.98314E-13 1.59966E-13
 -1      1286 1.91190E+01 4.66861E+00 9.33797E-02 2.82442E+00 1.99452E-13 9.93164E-14
 -1      1287 2.00605E+01 3.62227E+00-1.82102E-02 2.38973E+00 3.04978E-13 9.68739E-14
 -1      1288 1.51520E+01 4.25595E+00-8.96059E-02 3.81229E+00 2.12774E-13 2.51127E-13
 -1      1289 1.65809E+01 4.64846E+00 7.56244E-02 3.67608E+00 2.08278E-13 1.98210E-13
 -1      1290 1.74818E+01 3.79870E+00-3.71053E-02 3.46454E+00 3.29382E-13 2.00021E-13
 -1      1291 1.28509E+01 4.52837E+00-1.55315E-01 3.42034E+00 2.14606E-13 3.30627E-13
 -1      1292 1.38799E+01 4.80045E+00 1.05940E-02 3.71707E+00 2.12344E-13 2.78562E-13
 -1      1293 1.44330E+01 4.43602E+00-4.39427E-02 3.86858E+00 3.48582E-13 2.73245E-13
 -1      1294 1.24188E+01 5.03627E+00-1.51204E-01 2.27355E+00 2.04017E-13 4.33360E-13
 -1      1295 1.23522E+01 5.00351E+00-8.45880E-02 2.84063E+00 2.04371E-13 3.69699E-13
 -1      1296 1.22340E+01 5.26169E+00-4.14619E-02 3.32312E+00 3.39027E-13 3.46951E-13
 -1      1297 1.46620E+01 5.57547E+00-7.09637E-02 9.87958E-01 1.75582E-13 5.90110E-13
 -1      1298 1.31749E+01 5.13867E+00-1.66938E-01 1.50061E+00 1.77858E-13 4.92238E-13
 -1      1299 1.23410E+01 5.78480E+00-3.23264E-02 2.07131E+00 3.07851E-13 4.45868E-13
 -1      1300 1.96770E+01 5.97021E+00 6.16017E-02 4.16859E-01 1.26787E-13 8.24122E-13
 -1      1301 1.68470E+01 5.18132E+00-1.88730E-01 4.57753E-01 1.32894E-13 6.88519E-13
 -1      1302 1.55430E+01 5.65936E+00-2.98712E-02 8.36223E-01 2.36797E-13 6.04013E-13
 -1      1303 2.63300E+01 5.82964E+00 1.69417E-01 1.44728E+00 1.93179E-14 1.13524E-12
 -1      1304 2.28912E+01 5.05954E+00-1.25707E-01 5.24797E-01 4.36873E-14 9.59371E-13
 -1      1305 2.16206E+01 4.81828E+00 3.42448E-03 4.55020E-01 1.21736E-13 8.21551E-13
 -1      1306 3.58883E+01 3.74912E+00 1.01704E+00 3.36340E+00-5.58581E-14 1.38017E-12
 -1      1307 2.91406E+01 3.79342E+00-2.10051E-01 1.71862E+00-3.51941E-14 1.26762E-12
 -1      1308 2.86517E+01 2.93269E+00 8.77213E-02 7.60836E-01-2.70166E-14 1.09199E-12
 -1      1309 3.19008E+01 2.31632E-01-7.32622E-01-3.43433E-01-6.52881E-14 1.46652E-12
 -1      1310 2.04008E+01 1.72540E-01-4.17832E-01-1.66217E+00-1.12091E-13-8.05245E-13
 -1      1311 1.86768E+01 3.42384E-01-1.85465E-01-1.11331E+00-8.14349E-14-9.53460E-13
 -1      1312 1.78731E+01 1.65396E-01-8.08553E-02-6.87946E-01-6.49272E-14-9.60509E-13
 -1      1313 1.70523E+01 1.03317E-01-1.99129E-02-6.04463E-01-4.73857E-14-1.05996E-12
 -1      1314 1.92598E+01 4.16764E-01-1.09176E-01-1.84267E+00-1.34434E-13-7.82423E-13
 -1      1315 1.64598E+01 7.47585E-02 1.90983E-03-3.84051E-01-3.55705E-14-1.05659E-12
 -1      1316 1.60034E+01 5.64928E-02 1.28147E-02-3.60678E-01-2.97887E-14-1.10496E-12
 -1      1317 1.77501E+01 1.58228E-01-3.77352E-02-1.01217E+00-7.77954E-14-7.74363E-13
 -1      1318 1.56371E+01 4.94994E-02 1.37391E-02-2.33251E-01-3.08841E-14-1.12481E-12
 -1      1319 1.53761E+01 4.46046E-02 1.10921E-02-2.12822E-01-3.02909E-14-1.18057E-12
 -1      1320 1.68392E+01 8.45671E-02-1.28446E-02-6.04014E-01-5.71713E-14-7.82227E-13
 -1      1321 1.51693E+01 4.56050E-02 8.50231E-03-1.08211E-01-1.69951E-14-1.17925E-12
 -1      1322 1.50632E+01 4.47063E-02 5.60279E-03-8.57057E-02-2.23762E-14-1.20806E-12
 -1      1323 1.62770E+01 7.00423E-02-1.12412E-02-3.27539E-01-5.45258E-14-8.02471E-13
 -1      1324 1.49939E+01 4.66866E-02 3.28365E-03 1.73973E-02-2.27032E-14-1.19354E-12
 -1      1325 1.50394E+01 4.43487E-02 2.13085E-03 4.16385E-02-1.05463E-14-1.23277E-12
 -1      1326 1.60003E+01 7.16575E-02-1.31681E-02-7.60989E-02-3.39936E-14-7.93202E-13
 -1      1327 1.50972E+01 4.43659E-02 5.41510E-04 1.40366E-01-1.68325E-14-1.22572E-12
 -1      1328 1.52882E+01 3.83362E-02 7.70093E-04 1.62939E-01-8.31757E-15-1.25173E-12
 -1      1329 1.59839E+01 7.04368E-02-1.35475E-02 1.69444E-01-2.20700E-14-7.84995E-13
 -1      1330 1.54564E+01 3.57613E-02-3.02806E-04 2.45058E-01 8.47499E-15-1.24714E-12
 -1      1331 1.57690E+01 2.62231E-02 7.87553E-04 2.61952E-01 2.95597E-15-1.23635E-12
 -1      1332 1.62034E+01 5.93565E-02-1.14335E-02 3.89666E-01-2.28897E-14-7.66257E-13
 -1      1333 1.60191E+01 2.20262E-02-1.21612E-04 3.15631E-01-7.56079E-15-1.24396E-12
 -1      1334 1.64114E+01 1.07739E-02 1.44526E-03 3.24238E-01-1.87743E-14-1.27045E-12
 -1      1335 1.66139E+01 3.88288E-02-7.36817E-03 5.54698E-01-1.15155E-14-7.88105E-13
 -1      1336 1.67064E+01 6.61205E-03 3.70447E-04 3.44125E-01-6.34865E-15-1.27212E-12
 -1      1337 1.71284E+01-4.08822E-03 2.12843E-03 3.44165E-01 1.47885E-15-1.29529E-12
 -1      1338 1.71498E+01 1.38570E-02-2.55819E-03 6.43536E-01-1.13544E-14-7.71926E-13
 -1      1339 1.74306E+01-6.81018E-03 7.11858E-04 3.32999E-01-2.59038E-15-1.28337E-12
 -1      1340 1.78357E+01-1.52236E-02 2.45235E-03 3.26241E-01 1.00354E-14-1.26278E-12
 -1      1341 1.77363E+01-9.33473E-03 1.72967E-03 6.53319E-01 4.79261E-15-7.59899E-13
 -1      1342 1.81148E+01-1.59039E-02 7.27677E-04 2.92681E-01 1.96509E-14-1.25440E-12
 -1      1343 1.84691E+01-2.12960E-02 2.31692E-03 2.81915E-01 9.96989E-15-1.23802E-12
 -1      1344 1.83057E+01-2.61186E-02 4.67355E-03 5.98380E-01 2.38496E-14-7.94238E-13
 -1      1345 1.87056E+01-2.01305E-02 4.68966E-04 2.36728E-01 2.69537E-14-1.19657E-12
 -1      1346 1.89912E+01-2.26765E-02 1.83900E-03 2.24695E-01 1.24813E-14-1.18411E-12
 -1      1347 1.88091E+01-3.47644E-02 6.06621E-03 5.02650E-01 3.03724E-14-7.55824E-13
 -1      1348 1.91773E+01-2.03145E-02 9.00655E-05 1.77449E-01-2.26425E-15-1.13776E-12
 -1      1349 1.93909E+01-2.07164E-02 1.22038E-03 1.66179E-01 1.20375E-14-1.14521E-12
 -1      1350 1.92201E+01-3.61254E-02 6.16600E-03 3.90879E-01 1.25663E-14-7.05543E-13
 -1      1351 1.95273E+01-1.78855E-02-2.61140E-04 1.23480E-01-2.29320E-14-1.10686E-12
 -1      1352 1.96755E+01-1.69801E-02 6.36808E-04 1.14107E-01-2.11712E-14-1.11964E-12
 -1      1353 1.95324E+01-3.24576E-02 5.43436E-03 2.82544E-01 4.96651E-15-6.32883E-13
 -1      1354 1.97687E+01-1.42470E-02-4.98651E-04 7.93474E-02 3.33533E-14-1.14376E-12
 -1      1355 1.98638E+01-1.27495E-02 1.89143E-04 7.22451E-02 5.21844E-14-1.07980E-12
 -1      1356 1.97539E+01-2.62395E-02 4.32241E-03 1.89546E-01-2.21741E-15-5.69497E-13
 -1      1357 1.99227E+01-1.04425E-02-6.02358E-04 4.62612E-02 6.16619E-14-1.06860E-12
 -1      1358 1.99779E+01-8.84636E-03-9.56327E-05 4.13015E-02 2.52436E-14-1.00001E-12
 -1      1359 1.98999E+01-1.94451E-02 3.16093E-03 1.16811E-01 7.87070E-14-6.31875E-13
 -1      1360 2.00115E+01-7.08457E-03-5.95704E-04 2.33252E-02-2.77974E-14-1.01704E-12
 -1      1361 2.00392E+01-5.66645E-03-2.38328E-04 2.01314E-02-1.49277E-14-1.01926E-12
 -1      1362 1.99882E+01-1.33037E-02 2.13987E-03 6.42923E-02-1.14804E-14-7.14560E-13
 -1      1363 2.00556E+01-4.43019E-03-5.19108E-04 8.64152E-03-5.05103E-15-1.04570E-12
 -1      1364 2.00657E+01-3.30395E-03-2.79511E-04 6.76836E-03-1.54617E-14-1.07769E-12
 -1      1365 2.00356E+01-8.37836E-03 1.33624E-03 2.91625E-02-5.65452E-14-5.96207E-13
 -1      1366 2.00711E+01-2.50389E-03-4.11266E-04 8.30372E-05 2.67823E-14-1.12933E-12
 -1      1367 2.00710E+01-1.68182E-03-2.60190E-04-8.79497E-04-1.30391E-14-1.14902E-12
 -1      1368 2.00558E+01-4.77142E-03 7.55046E-04 7.53996E-03-2.68238E-14-6.52438E-13
 -1      1369 2.00701E+01-1.20833E-03-3.00449E-04-4.27060E-03-3.41005E-14-1.08794E-12
 -1      1370 2.00648E+01-6.51028E-04-2.12534E-04-4.65246E-03 5.89069E-14-1.07332E-12
 -1      1371 2.00596E+01-2.33201E-03 3.64886E-04-4.41531E-03-8.98592E-15-6.78678E-13
 -1      1372 2.00608E+01-4.02356E-04-2.03081E-04-5.95118E-03 8.50589E-14-1.10175E-12
 -1      1373 2.00536E+01-5.19130E-05-1.57710E-04-5.99415E-03-2.74775E-14-1.04000E-12
 -1      1374 2.00544E+01-8.09420E-04 1.22081E-04-9.95216E-03 3.09556E-14-7.33117E-13
 -1      1375 2.00484E+01 5.37364E-05-1.26016E-04-6.07675E-03-2.27261E-14-9.88028E-13
 -1      1376 2.00411E+01 2.54913E-04-1.07446E-04-5.94490E-03 3.42577E-15-1.01689E-12
 -1      1377 2.00452E+01 5.40643E-05-1.57990E-05-1.15533E-02-3.27231E-14-6.89920E-13
 -1      1378 2.00359E+01 2.77185E-04-6.98575E-05-5.40479E-03-2.36393E-14-9.67278E-13
 -1      1379 2.00295E+01 3.77770E-04-6.67850E-05-5.20159E-03 6.54877E-15-9.76444E-13
 -1      1380 2.00349E+01 4.78337E-04-8.39637E-05-1.09714E-02-2.23626E-14-5.06336E-13
 -1      1381 2.00249E+01 3.56852E-04-3.19009E-05-4.41267E-03 6.61485E-14-9.99022E-13
 -1      1382 2.00197E+01 3.94114E-04-3.67104E-05-4.19816E-03 4.32137E-14-9.60547E-13
 -1      1383 2.00253E+01 6.31305E-04-1.08927E-04-9.35825E-03-6.97912E-15-4.41490E-13
 -1      1384 2.00159E+01 3.55130E-04-8.20685E-06-3.37732E-03 5.80124E-15-9.48401E-13
 -1      1385 2.00119E+01 3.55604E-04-1.61146E-05-3.18260E-03-6.47631E-15-9.71443E-13
 -1      1386 2.00172E+01 6.31129E-04-1.09256E-04-7.41671E-03 3.46419E-14-4.73681E-13
 -1      1387 2.00091E+01 3.12994E-04 5.17270E-06-2.44181E-03 3.99515E-15-9.48759E-13
 -1      1388 2.00062E+01 2.94432E-04-3.08069E-06-2.27991E-03 1.98955E-14-1.05864E-12
 -1      1389 2.00107E+01 5.55312E-04-9.71612E-05-5.53739E-03-3.79790E-14-4.87309E-13
 -1      1390 2.00041E+01 2.55593E-04 1.16040E-05-1.66564E-03-5.32052E-14-1.04702E-12
 -1      1391 2.00022E+01 2.29164E-04 4.39560E-06-1.53916E-03-5.18335E-14-1.12064E-12
 -1      1392 2.00059E+01 4.51230E-04-8.01764E-05-3.90814E-03-5.10550E-14-5.31939E-13
 -1      1393 2.00008E+01 1.97162E-04 1.36843E-05-1.05993E-03 2.46446E-14-1.04096E-12
 -1      1394 1.99995E+01 1.69412E-04 8.06046E-06-9.66051E-04 1.04117E-13-9.39270E-13
 -1      1395 2.00024E+01 3.45499E-04-6.26147E-05-2.59370E-03 4.64845E-14-4.18743E-13
 -1      1396 1.99986E+01 1.44854E-04 1.32726E-05-6.10681E-04 6.67986E-14-8.96366E-13
 -1      1397 1.99979E+01 1.19260E-04 9.28523E-06-5.44260E-04 3.43768E-14-8.05504E-13
 -1      1398 2.00001E+01 2.51333E-04-4.66902E-05-1.59032E-03 1.29082E-13-3.48738E-13
 -1      1399 1.99974E+01 1.01506E-04 1.16148E-05-2.93091E-04-1.62672E-14-7.88110E-13
 -1      1400 1.99971E+01 7.96168E-05 9.06995E-06-2.48440E-04 1.20976E-15-8.34906E-13
 -1      1401 1.99986E+01 1.73833E-04-3.33271E-05-8.60779E-04 4.96531E-15-2.99328E-13
 -1      1402 1.99968E+01 6.75120E-05 9.49215E-06-7.98707E-05-3.14451E-14-8.85097E-13
 -1      1403 1.99967E+01 4.97381E-05 8.10002E-06-5.16779E-05-4.62982E-14-9.52620E-13
 -1      1404 1.99978E+01 1.13564E-04-2.27081E-05-3.55517E-04-3.97881E-14-2.82228E-13
 -1      1405 1.99966E+01 4.20256E-05 7.35710E-06 5.44351E-05 1.47021E-14-9.87380E-13
 -1      1406 1.99967E+01 2.81606E-05 6.81765E-06 7.07004E-05 2.88204E-14-9.69368E-13
 -1      1407 1.99975E+01 6.88252E-05-1.46294E-05-2.44640E-05-3.56977E-14-3.79088E-13
 -1      1408 1.99968E+01 2.36872E-05 5.44296E-06 1.31539E-04 3.75247E-14-8.87714E-13
 -1      1409 1.99969E+01 1.32345E-05 5.48916E-06 1.39515E-04 1.46065E-13-8.07012E-13
 -1      1410 1.99974E+01 3.70158E-05-8.71778E-06 1.77138E-04 8.22549E-14-3.23471E-13
 -1      1411 1.99970E+01 1.10364E-05 3.84561E-06 1.68893E-04 5.03750E-14-9.46837E-13
 -1      1412 1.99973E+01 3.40268E-06 4.26049E-06 1.71373E-04 5.46831E-14-8.68834E-13
 -1      1413 1.99975E+01 1.53957E-05-4.55580E-06 2.86465E-04 4.86428E-14-5.23059E-13
 -1      1414 1.99974E+01 2.72300E-06 2.58053E-06 1.79907E-04-1.96775E-14-8.72681E-13
 -1      1415 1.99976E+01-2.67515E-06 3.19948E-06 1.78955E-04-4.52193E-14-8.11100E-13
 -1      1416 1.99977E+01 1.46555E-06-1.74827E-06 3.32828E-04 1.82882E-14-5.10062E-13
 -1      1417 1.99978E+01-2.40266E-06 1.62064E-06 1.74500E-04 1.41255E-13-7.87367E-13
 -1      1418 1.99980E+01-6.08633E-06 2.32609E-06 1.71587E-04 1.51790E-13-5.65290E-13
 -1      1419 1.99980E+01-6.87803E-06 4.76341E-08 3.38406E-04 1.55286E-13-4.25858E-13
 -1      1420 1.99981E+01-5.26799E-06 9.20008E-07 1.59745E-04 1.35191E-13-3.32912E-13
 -1      1421 1.99983E+01-7.67620E-06 1.63312E-06 1.55881E-04 1.30316E-13-2.15199E-13
 -1      1422 1.99983E+01-1.13127E-05 1.11305E-06 3.19366E-04 2.48949E-13-3.15988E-13
 -1      1423 1.99985E+01-6.59188E-06 4.27817E-07 1.40497E-04-6.23411E-14-1.16758E-13
 -1      1424 1.99986E+01-8.07999E-06 1.09960E-06 1.36344E-04-1.23414E-13-3.06538E-13
 -1      1425 1.99986E+01-1.31239E-05 1.66929E-06 2.87068E-04 8.45052E-14-1.23989E-15
 -1      1426 1.99987E+01-6.91442E-06 9.59541E-08 1.19935E-04-1.68941E-13-3.43137E-13
 -1      1427 1.99989E+01-7.76187E-06 6.99224E-07 1.15902E-04-2.34100E-13-5.65040E-13
 -1      1428 1.99988E+01-1.32653E-05 1.88508E-06 2.49175E-04-2.31450E-13-1.18526E-13
 -1      1429 1.99990E+01-6.63144E-06-1.17278E-07 1.00011E-04-2.76174E-13-5.14847E-13
 -1      1430 1.99991E+01-7.05359E-06 4.05392E-07 9.63254E-05-1.36719E-13-7.71074E-13
 -1      1431 1.99990E+01-1.24264E-05 1.88570E-06 2.10583E-04-3.87466E-13-1.15049E-13
 -1      1432 1.99992E+01-6.02841E-06-2.45521E-07 8.17895E-05 3.82918E-15-7.65133E-13
 -1      1433 1.99993E+01-6.18923E-06 1.94697E-07 7.85514E-05 7.85637E-14-7.22492E-13
 -1      1434 1.99992E+01-1.10962E-05 1.76231E-06 1.74172E-04-1.25253E-13 4.55267E-14
 -1      1435 1.99994E+01-5.31095E-06-3.12912E-07 6.57075E-05-7.33531E-15-6.36680E-13
 -1      1436 1.99995E+01-5.33478E-06 5.06408E-08 6.29248E-05 4.96836E-14-3.89983E-13
 -1      1437 1.99994E+01-9.62052E-06 1.58073E-06 1.41374E-04 1.65220E-13-2.02070E-13
 -1      1438 1.99995E+01-4.63103E-06-3.30964E-07 5.17462E-05 1.52782E-13-4.09897E-13
 -1      1439 1.99996E+01-4.61199E-06-3.08181E-08 4.93595E-05 1.84869E-13-1.98269E-13
 -1      1440 1.99995E+01-8.25087E-06 1.38983E-06 1.12580E-04 1.64029E-13 2.34616E-15
 -1      1441 1.99996E+01-4.10837E-06-2.92649E-07 3.95481E-05 1.01635E-13-2.24517E-14
 -1      1442 1.99997E+01-4.11567E-06-3.72854E-08 3.74405E-05-4.96818E-14-5.94289E-14
 -1      1443 1.99996E+01-7.18556E-06 1.22873E-06 8.74255E-05 2.24970E-13-6.28462E-14
 -1      1444 1.99997E+01-3.83959E-06-1.70353E-07 2.84917E-05-1.96210E-13-2.01697E-13
 -1      1445 1.99997E+01-3.89896E-06 4.40204E-08 2.64914E-05-3.24525E-13-5.81299E-13
 -1      1446 1.99997E+01-6.60099E-06 1.12636E-06 6.49773E-05-1.94574E-13-8.40445E-14
 -1      1447 1.99998E+01-3.83902E-06 4.37469E-08 1.78584E-05-1.53414E-13-4.40428E-13
 -1      1448 1.99998E+01-3.86525E-06 1.09721E-07 1.57543E-05 1.32025E-13-4.72882E-13
 -1      1449 1.99997E+01-6.59705E-06 1.05969E-06 4.39597E-05-2.04575E-13-1.55207E-13
 -1      1450 1.99998E+01-4.31461E-06 6.72535E-08 7.15250E-06 1.42580E-13-5.05743E-13
 -1      1451 1.99998E+01-3.35630E-06-3.78046E-07 4.89573E-06 1.26277E-13-3.48224E-13
 -1      1452 1.99998E+01-6.98090E-06 9.16630E-07 2.35645E-05 1.94160E-13-2.48223E-14
 -1      1453 1.99998E+01 1.22050E-07-1.04689E-06-1.82615E-06 1.35670E-13-2.12390E-13
 -1      1454 1.99998E+01-3.51620E-06 1.02164E-07 3.83665E-06 2.83272E-13-1.07113E-13
 -1      1455 3.39488E+01 1.23192E-01-8.66912E-02-1.04245E+00-3.46494E-14 1.50108E-12
 -1      1456 3.31155E+01 3.73958E-01-1.62073E-01-7.58827E-01-3.75533E-14 1.41214E-12
 -1      1457 3.10061E+01 8.28469E-01-1.63027E-01-4.37485E-01-7.03118E-14 1.14030E-12
 -1      1458 3.63802E+01-6.78083E-02 1.42259E-01-1.34321E+00-2.52073E-14 1.54249E-12
 -1      1459 3.47557E+01 1.08611E-01 1.99260E-02-1.25753E+00-2.93775E-14 1.49220E-12
 -1      1460 3.19941E+01 1.76659E-01-3.68620E-02-2.01302E+00-4.98733E-14 1.11091E-12
 -1      1461 3.82771E+01-4.81209E-01 3.51743E-01-5.10563E-01-3.84311E-14 1.63419E-12
 -1      1462 3.73320E+01-4.27865E-01 1.88229E-01-7.89907E-01-4.16195E-14 1.58029E-12
 -1      1463 3.38632E+01-4.95547E-01 1.51549E-01-1.83228E+00-7.51760E-14 1.12057E-12
 -1      1464 3.69803E+01-7.99058E-01 2.44123E-01 1.86147E+00-7.86662E-14 1.83875E-12
 -1      1465 3.86007E+01-1.10684E+00 2.46190E-01 1.00535E+00-7.81528E-14 1.73075E-12
 -1      1466 3.56168E+01-1.54739E+00 2.26732E-01 5.94939E-01-1.35322E-13 1.28980E-12
 -1      1467 3.12373E+01-1.24051E-01-6.82930E-01 4.21173E+00-2.11720E-13 2.20390E-12
 -1      1468 3.63206E+01-8.71318E-01-8.46762E-02 3.33659E+00-1.54168E-13 1.96582E-12
 -1      1469 3.64792E+01-1.48445E+00 7.54940E-02 4.59838E+00-2.46053E-13 1.48722E-12
 -1      1470 2.63130E+01 1.23943E+00-1.50358E+00 2.48762E+00-2.30926E-14 2.41140E-12
 -1      1471 3.03672E+01 7.32527E-01-9.36107E-01 3.06997E+00-8.21565E-14 2.29644E-12
 -1      1472 3.60924E+01 1.31534E+00-2.38220E-01 5.58687E+00-2.00062E-13 1.63855E-12
 -1      1473 2.66808E+01 1.29036E+00-1.45992E+00-1.23236E+00 6.66134E-14 2.33813E-12
 -1      1474 2.64777E+01 1.68808E+00-1.39152E+00-1.45180E-01 3.27516E-14 2.35585E-12
 -1      1475 3.60235E+01 3.53266E+00-2.10866E-01 1.25722E+00 2.87548E-14 1.75046E-12
 -1      1476 3.10817E+01 2.12509E-01-6.72452E-01-3.89187E+00 1.00919E-13 2.05314E-12
 -1      1477 2.72532E+01 9.80471E-01-1.18012E+00-3.12646E+00 1.20459E-13 2.19214E-12
 -1      1478 3.59055E+01 2.43302E+00-2.20084E-01-4.31051E+00 2.27596E-13 1.47388E-12
 -1      1479 3.67853E+01-8.07420E-01 3.05302E-01-2.83619E+00 2.05169E-13 1.75210E-12
 -1      1480 3.19456E+01-4.27956E-01-3.63647E-01-3.22582E+00 1.22194E-13 1.93817E-12
 -1      1481 3.57029E+01-7.83140E-01-2.66882E-01-5.43157E+00 2.30704E-13 1.25627E-12
 -1      1482 3.79016E+01-5.63546E-01 4.75664E-01 8.76616E-02 4.64490E-14 1.42422E-12
 -1      1483 3.62845E+01-7.36914E-01 2.84601E-01-6.94092E-01 1.19044E-13 1.64246E-12
 -1      1484 3.51210E+01-1.94627E+00 3.03300E-03-2.08985E+00 2.35329E-13 1.04430E-12
 -1      1485 3.49119E+01-1.15457E-01 1.75989E-01 1.55424E+00 7.50094E-15 1.35243E-12
 -1      1486 3.63372E+01-3.78913E-01 2.65282E-01 1.19341E+00 1.12063E-14 1.41699E-12
 -1      1487 3.30403E+01-1.05067E+00 1.00967E-01 1.61325E+00 5.85088E-14 9.71464E-13
 -1      1488 3.08950E+01 8.18098E-02-3.08617E-02 1.68601E+00 3.44499E-14 1.35267E-12
 -1      1489 3.32466E+01-5.88806E-02 6.18030E-02 1.65277E+00 3.91319E-14 1.36537E-12
 -1      1490 3.02263E+01-1.40050E-01 5.42802E-02 2.99056E+00 2.91572E-14 1.00860E-12
 -1      1491 2.74149E+01 1.15163E-01-8.03016E-02 1.31823E+00-7.11506E-14 1.38693E-12
 -1      1492 2.95090E+01 7.83550E-02-3.98111E-02 1.39614E+00-3.44377E-14 1.32644E-12
 -1      1493 2.74482E+01 2.20539E-01 2.74499E-03 2.80345E+00-4.77951E-14 9.93795E-13
 -1      1494 2.48523E+01 9.35876E-02-6.36581E-02 9.07206E-01-6.30138E-14 1.50312E-12
 -1      1495 2.63789E+01 1.01749E-01-5.10348E-02 9.92606E-01-1.14558E-13 1.34756E-12
 -1      1496 2.51584E+01 2.55869E-01-1.59782E-02 2.11300E+00-1.13812E-13 9.98531E-13
 -1      1497 2.31065E+01 6.47101E-02-3.82133E-02 5.88597E-01 5.10217E-14 1.46118E-12
 -1      1498 2.41240E+01 8.43173E-02-3.34809E-02 6.53825E-01 8.74665E-14 1.56203E-12
 -1      1499 2.34560E+01 1.95126E-01-1.60690E-02 1.44281E+00 2.93342E-15 9.97723E-13
 -1      1500 2.19650E+01 4.17857E-02-2.03795E-02 3.71135E-01 1.60254E-14 1.40216E-12
 -1      1501 2.26142E+01 6.01396E-02-1.67758E-02 4.15388E-01-1.06989E-14 1.37729E-12
 -1      1502 2.22677E+01 1.29358E-01-1.16073E-02 9.37873E-01 3.51837E-14 8.89331E-13
 -1      1503 2.12350E+01 2.61301E-02-1.03352E-02 2.30888E-01 1.39550E-14 1.25799E-12
 -1      1504 2.16404E+01 4.01050E-02-6.93655E-03 2.59447E-01 6.09695E-14 1.32009E-12
 -1      1505 2.14696E+01 8.07258E-02-7.70187E-03 5.94643E-01 1.07067E-13 8.25646E-13
 -1      1506 2.07736E+01 1.60999E-02-5.14656E-03 1.42867E-01 8.95811E-14 1.10845E-12
 -1      1507 2.10242E+01 2.58854E-02-2.25370E-03 1.60885E-01 4.75605E-14 1.15938E-12
 -1      1508 2.09455E+01 4.89891E-02-5.07530E-03 3.72511E-01 9.79095E-14 7.19867E-13
 -1      1509 2.04834E+01 9.86239E-03-2.54296E-03 8.83216E-02 1.79744E-13 5.93155E-13
 -1      1510 2.06378E+01 1.64483E-02-3.28489E-04 9.95790E-02 1.58243E-13 9.38428E-13
 -1      1511 2.06058E+01 2.93617E-02-3.38275E-03 2.32229E-01 2.74848E-13 5.02337E-13
 -1      1512 2.03011E+01 6.03641E-03-1.24206E-03 5.46876E-02-1.84498E-13 7.16849E-13
 -1      1513 2.03963E+01 1.03843E-02 3.41157E-04 6.16994E-02-6.16163E-14 6.28022E-13
 -1      1514 2.03869E+01 1.75202E-02-2.27313E-03 1.44668E-01 4.48292E-14 6.03582E-13
 -1      1515 2.01864E+01 3.70287E-03-5.91287E-04 3.39557E-02-2.63832E-14 9.36801E-13
 -1      1516 2.02452E+01 6.54872E-03 4.96881E-04 3.83277E-02-4.46971E-14 8.53522E-13
 -1      1517 2.02462E+01 1.04538E-02-1.53161E-03 9.02615E-02-1.30165E-13 5.10783E-13
 -1      1518 2.01142E+01 2.28134E-03-2.67177E-04 2.11429E-02 5.58470E-14 8.07929E-13
 -1      1519 2.01506E+01 4.13998E-03 4.65090E-04 2.38799E-02 7.40151E-14 8.60380E-13
 -1      1520 2.01557E+01 6.25353E-03-1.03252E-03 5.64600E-02 1.22319E-13 3.80480E-13
 -1      1521 2.00685E+01 1.41391E-03-1.08221E-04 1.31862E-02 5.53890E-14 7.53139E-13
 -1      1522 2.00911E+01 2.63047E-03 3.79497E-04 1.49104E-02 2.62620E-14 8.18769E-13
 -1      1523 2.00975E+01 3.75727E-03-6.96851E-04 3.54010E-02 3.35777E-14 4.04372E-13
 -1      1524 2.00397E+01 8.82394E-04-3.26093E-05 8.21325E-03 5.89047E-16 7.73168E-13
 -1      1525 2.00537E+01 1.68312E-03 2.90933E-04 9.30832E-03-6.37980E-14 7.66912E-13
 -1      1526 2.00599E+01 2.27010E-03-4.71662E-04 2.22158E-02-1.58472E-14 5.49662E-13
 -1      1527 2.00215E+01 5.54578E-04 1.46300E-06 5.08230E-03-7.76600E-14 8.21928E-13
 -1      1528 2.00302E+01 1.08592E-03 2.15990E-04 5.78430E-03-2.63638E-14 8.31475E-13
 -1      1529 2.00357E+01 1.37995E-03-3.20717E-04 1.39073E-02-9.91630E-14 6.62982E-13
 -1      1530 2.00102E+01 3.50587E-04 1.53196E-05 3.09668E-03-1.14944E-13 1.00751E-12
 -1      1531 2.00154E+01 7.06717E-04 1.57736E-04 3.55102E-03-1.31716E-13 7.93940E-13
 -1      1532 2.00201E+01 8.43400E-04-2.19311E-04 8.63470E-03-9.59756E-14 6.74278E-13
 -1      1533 2.00032E+01 2.22241E-04 1.97099E-05 1.83008E-03 3.87205E-15 1.24884E-12
 -1      1534 2.00063E+01 4.63552E-04 1.14388E-04 2.12663E-03-9.60896E-14 1.08624E-12
 -1      1535 2.00102E+01 5.16948E-04-1.50817E-04 5.26628E-03-2.12148E-13 6.16425E-13
 -1      1536 1.99990E+01 1.40477E-04 1.99282E-05 1.02016E-03 2.44831E-13 9.17554E-13
 -1      1537 2.00008E+01 3.05738E-04 8.28851E-05 1.21485E-03 2.36489E-13 1.27274E-12
 -1      1538 2.00040E+01 3.16029E-04-1.04180E-04 3.10414E-03 2.25711E-13 5.39839E-13
 -1      1539 1.99967E+01 8.77328E-05 1.84899E-05 5.04012E-04-5.14718E-14 7.56536E-13
 -1      1540 1.99976E+01 2.01951E-04 6.02544E-05 6.31975E-04 4.76623E-14 8.05941E-13
 -1      1541 2.00002E+01 1.90793E-04-7.21190E-05 1.71506E-03 2.71193E-13 6.01428E-13
 -1      1542 1.99955E+01 5.33446E-05 1.65284E-05 1.79206E-04 3.65996E-14 6.66946E-13
 -1      1543 1.99959E+01 1.32790E-04 4.40510E-05 2.62832E-04 5.43694E-14 7.25851E-13
 -1      1544 1.99980E+01 1.11781E-04-4.98583E-05 8.27506E-04 6.37454E-14 4.43668E-13
 -1      1545 1.99951E+01 3.07792E-05 1.45145E-05-1.97233E-05 1.28299E-13 3.34605E-13
 -1      1546 1.99952E+01 8.61772E-05 3.24175E-05 3.40846E-05 5.43738E-14 5.52033E-13
 -1      1547 1.99968E+01 6.14853E-05-3.42644E-05 2.69010E-04 1.75417E-13 1.86260E-13
 -1      1548 1.99952E+01 1.59772E-05 1.26189E-05-1.35386E-04-2.03685E-13 4.36965E-13
 -1      1549 1.99950E+01 5.45164E-05 2.40056E-05-1.01793E-04-1.08752E-13 3.53688E-13
 -1      1550 1.99963E+01 2.93910E-05-2.32696E-05-7.17759E-05-8.69184E-14 2.78921E-13
 -1      1551 1.99955E+01 6.36640E-06 1.08876E-05-1.96055E-04-1.57556E-13 1.20972E-12
 -1      1552 1.99953E+01 3.29592E-05 1.78631E-05-1.76193E-04-2.17987E-13 7.39616E-13
 -1      1553 1.99963E+01 9.07957E-06-1.54942E-05-2.68042E-04-4.18226E-13 3.32297E-13
 -1      1554 1.99960E+01 2.76962E-07 9.32220E-06-2.20814E-04 5.11653E-14 1.13194E-12
 -1      1555 1.99957E+01 1.83486E-05 1.33287E-05-2.10224E-04 1.28520E-13 1.20036E-12
 -1      1556 1.99964E+01-3.45890E-06-1.00035E-05-3.68762E-04 3.74825E-14 7.62300E-13
 -1      1557 1.99965E+01-3.40477E-06 7.91325E-06-2.22712E-04 2.01310E-13 7.57241E-13
 -1      1558 1.99962E+01 8.57971E-06 9.94653E-06-2.18283E-04 7.89148E-14 9.77696E-13
 -1      1559 1.99968E+01-1.08010E-05-6.15230E-06-4.07214E-04 1.47244E-13 7.44531E-13
 -1      1560 1.99970E+01-5.44104E-06 6.65131E-06-2.10727E-04-1.04901E-13 7.39861E-13
 -1      1561 1.99967E+01 2.21306E-06 7.40205E-06-2.10273E-04 9.61781E-14 7.55130E-13
 -1      1562 1.99971E+01-1.46539E-05-3.48604E-06-4.06241E-04 1.33389E-13 6.50996E-13
 -1      1563 1.99975E+01-6.36506E-06 5.52929E-06-1.91022E-04-7.05949E-14 1.00333E-12
 -1      1564 1.99972E+01-1.75946E-06 5.47651E-06-1.93005E-04-8.98297E-14 7.40222E-13
 -1      1565 1.99975E+01-1.61811E-05-1.67829E-06-3.81585E-04-1.75647E-13 6.18033E-13
 -1      1566 1.99979E+01-6.55542E-06 4.54142E-06-1.67777E-04-2.68722E-14 7.18612E-13
 -1      1567 1.99977E+01-4.05799E-06 4.01542E-06-1.71123E-04 7.00179E-14 8.98346E-13
 -1      1568 1.99979E+01-1.61938E-05-4.90866E-07-3.44038E-04 7.44844E-14 4.46346E-13
 -1      1569 1.99983E+01-6.28283E-06 3.68188E-06-1.43754E-04-9.82195E-14 7.00905E-13
 -1      1570 1.99981E+01-5.20413E-06 2.90736E-06-1.47726E-04-3.14681E-14 7.33200E-13
 -1      1571 1.99983E+01-1.52649E-05 2.52064E-07-3.00886E-04 1.20810E-13 4.19766E-13
 -1      1572 1.99986E+01-5.74082E-06 2.94387E-06-1.20696E-04 1.26711E-13 8.50098E-13
 -1      1573 1.99985E+01-5.57874E-06 2.07007E-06-1.24805E-04-4.61701E-14 7.58602E-13
 -1      1574 1.99986E+01-1.38008E-05 6.81204E-07-2.56906E-04 3.23605E-14 5.36117E-13
 -1      1575 1.99989E+01-5.06708E-06 2.31941E-06-9.96146E-05 5.90145E-14 5.43913E-13
 -1      1576 1.99988E+01-5.46103E-06 1.44139E-06-1.03552E-04 1.99061E-13 7.61170E-13
 -1      1577 1.99988E+01-1.20885E-05 8.93998E-07-2.15069E-04 2.87612E-13 4.99866E-13
 -1      1578 1.99991E+01-4.35931E-06 1.79977E-06-8.09969E-05-6.62048E-14 6.36479E-13
 -1      1579 1.99990E+01-5.05668E-06 9.73371E-07-8.45868E-05-5.72875E-14 5.31886E-13
 -1      1580 1.99991E+01-1.03301E-05 9.63224E-07-1.77050E-04-4.32163E-14 4.53786E-13
 -1      1581 1.99993E+01-3.68703E-06 1.37713E-06-6.49526E-05 6.38711E-14 7.70018E-13
 -1      1582 1.99992E+01-4.51895E-06 6.28711E-07-6.81188E-05-8.09375E-15 7.11164E-13
 -1      1583 1.99993E+01-8.66771E-06 9.43667E-07-1.43591E-04-6.72791E-14 4.43273E-13
 -1      1584 1.99995E+01-3.10053E-06 1.04938E-06-5.13163E-05 9.27492E-14 5.45099E-13
 -1      1585 1.99994E+01-3.96510E-06 3.80408E-07-5.40579E-05 1.26267E-13 6.84050E-13
 -1      1586 1.99994E+01-7.20390E-06 8.78573E-07-1.14761E-04 9.03677E-14 3.25170E-13
 -1      1587 1.99996E+01-2.64129E-06 8.27697E-07-3.97088E-05 2.44694E-13-1.26029E-13
 -1      1588 1.99995E+01-3.49370E-06 2.14283E-07-4.20884E-05 2.78327E-13 3.11347E-13
 -1      1589 1.99995E+01-6.02089E-06 8.07632E-07-9.01304E-05 2.88415E-13-1.07614E-13
 -1      1590 1.99997E+01-2.35238E-06 7.41362E-07-2.95511E-05 5.83741E-15-3.31133E-13
 -1      1591 1.99996E+01-3.20459E-06 1.33084E-07-3.17014E-05-6.88261E-15-1.23732E-13
 -1      1592 1.99996E+01-5.20529E-06 7.72534E-07-6.88702E-05 2.26680E-13-2.26065E-13
 -1      1593 1.99997E+01-2.25297E-06 7.84266E-07-2.00670E-05-6.46135E-14-2.25395E-13
 -1      1594 1.99997E+01-3.18226E-06 1.57266E-07-2.22134E-05 7.78217E-14-1.81190E-13
 -1      1595 1.99997E+01-4.86675E-06 8.07366E-07-4.97978E-05 2.54543E-14-2.10360E-13
 -1      1596 1.99998E+01-2.26193E-06 7.38578E-07-1.06477E-05-1.16034E-13-2.28082E-13
 -1      1597 1.99998E+01-3.38841E-06 2.12324E-07-1.30054E-05-8.30491E-14-3.07677E-13
 -1      1598 1.99998E+01-4.89377E-06 8.87224E-07-3.16897E-05 1.49584E-14-2.20056E-13
 -1      1599 1.99998E+01-2.09180E-06-3.79480E-07-1.57097E-06-3.48239E-13 1.81182E-13
 -1      1600 1.99998E+01-3.37886E-06-1.89984E-10-4.04035E-06-2.11239E-13-1.15063E-13
 -1      1601 1.99998E+01-4.86805E-06 7.26145E-07-1.40208E-05-2.33049E-13-4.28420E-13
 -1      1602 1.99998E+01 1.85727E-08-1.06138E-06 1.36508E-06 2.44692E-13 2.10233E-13
 -1      1603 1.99998E+01-1.31265E-05 5.13785E-07-7.75533E-06-2.87744E-13-3.17015E-13
 -1      1604 1.99998E+01-6.55063E-06-4.01807E-07-5.51881E-06-1.75158E-14-1.45061E-13
 -1      1605 1.99998E+01-4.53090E-05 4.04241E-07-1.70836E-05-2.83102E-13 1.74705E-14
 -1      1606 1.99998E+01-2.71798E-05 3.49299E-07-1.50418E-05-1.49434E-13-1.28278E-13
 -1      1607 1.99998E+01-2.96844E-05 7.50616E-07-2.31657E-05-3.04960E-13-2.83822E-13
 -1      1608 1.99998E+01-9.12455E-05 1.79685E-07-2.31083E-05-7.12072E-13-8.33380E-14
 -1      1609 1.99998E+01-6.50451E-05 3.01996E-07-2.21949E-05-3.97217E-13 2.28199E-14
 -1      1610 1.99998E+01-6.34560E-05 6.73838E-07-3.84620E-05-3.11072E-13-2.40263E-13
 -1      1611 1.99998E+01-1.43075E-04 3.50309E-08-2.49168E-05-9.59944E-13-1.69175E-13
 -1      1612 1.99998E+01-1.13970E-04 1.21553E-07-2.49077E-05-8.32646E-13 2.38376E-13
 -1      1613 1.99998E+01-1.06052E-04 1.96291E-07-4.66085E-05-6.18089E-13-1.19385E-13
 -1      1614 1.99998E+01-1.91662E-04-3.37913E-08-2.26265E-05-9.62567E-13 7.43093E-14
 -1      1615 1.99998E+01-1.65084E-04 3.28224E-08-2.33836E-05-9.56482E-13-2.73576E-13
 -1      1616 1.99998E+01-1.50806E-04-2.65176E-07-4.67893E-05-5.77370E-13-4.31268E-13
 -1      1617 1.99998E+01-2.31106E-04-6.41802E-08-1.68087E-05-7.05549E-13-2.48313E-14
 -1      1618 1.99998E+01-2.10471E-04-2.09714E-08-1.81977E-05-8.92226E-13 2.30708E-13
 -1      1619 1.99998E+01-1.91527E-04-6.53101E-07-3.95206E-05-2.81802E-13 1.66869E-13
 -1      1620 1.99998E+01-2.54644E-04-6.80867E-08-8.52516E-06-1.02071E-12-1.64356E-13
 -1      1621 1.99998E+01-2.43527E-04-4.55055E-08-1.02978E-05-7.07956E-13-2.84747E-13
 -1      1622 1.99998E+01-2.22603E-04-9.33830E-07-2.62341E-05-5.69865E-13-1.63667E-13
 -1      1623 1.99998E+01-2.58957E-04-6.08908E-08 9.63597E-07-9.59540E-13 1.22395E-13
 -1      1624 1.99998E+01-2.58964E-04-5.98756E-08-9.38571E-07-1.11982E-12 2.79009E-13
 -1      1625 1.99998E+01-2.39257E-04-1.07826E-06-9.15622E-06-4.25555E-13-1.87308E-14
 -1      1626 1.99998E+01-2.43454E-04-4.51092E-08 1.03129E-05-7.94969E-13 2.54935E-14
 -1      1627 1.99998E+01-2.54582E-04-6.76927E-08 8.54437E-06-8.53392E-13 7.51317E-14
 -1      1628 1.99998E+01-2.39195E-04-1.07694E-06 9.20765E-06-3.61733E-13 9.05227E-14
 -1      1629 1.99998E+01-2.10363E-04-1.60663E-08 1.81935E-05-1.15529E-12-2.83106E-13
 -1      1630 1.99998E+01-2.30997E-04-6.86458E-08 1.68139E-05-7.88726E-13-2.24506E-13
 -1      1631 1.99998E+01-2.22438E-04-9.28546E-07 2.62627E-05-2.97325E-13-4.51995E-14
 -1      1632 1.99998E+01-1.65377E-04 2.93708E-08 2.33333E-05-9.64049E-13 3.53244E-13
 -1      1633 1.99998E+01-1.91929E-04-3.86269E-08 2.25755E-05-1.10988E-12-5.00036E-14
 -1      1634 1.99998E+01-1.91628E-04-6.56753E-07 3.94512E-05-7.11722E-13-2.18449E-13
 -1      1635 1.99998E+01-1.13849E-04 1.26330E-07 2.49155E-05-9.55726E-13-4.61737E-14
 -1      1636 1.99998E+01-1.42974E-04 3.72305E-08 2.49227E-05-8.56066E-13 3.11466E-13
 -1      1637 1.99998E+01-1.50931E-04-2.60830E-07 4.67551E-05-6.00414E-13 4.64342E-13
 -1      1638 1.99998E+01-6.48680E-05 3.08680E-07 2.22178E-05-4.49650E-13 2.39952E-13
 -1      1639 1.99998E+01-9.11119E-05 1.91931E-07 2.30983E-05-6.63394E-13 1.41628E-13
 -1      1640 1.99998E+01-1.05785E-04 2.07257E-07 4.66239E-05-3.28843E-13 1.98123E-13
 -1      1641 1.99998E+01-2.75684E-05 1.15018E-07 1.53704E-05 2.82850E-14 2.81984E-13
 -1      1642 1.99998E+01-4.54229E-05 4.24945E-07 1.71644E-05-4.00502E-13 3.13625E-13
 -1      1643 1.99998E+01-6.34243E-05 6.41764E-07 3.82534E-05-2.43214E-13 3.23518E-13
 -1      1644 1.99998E+01-1.08949E-05-5.01125E-07 9.26874E-06 1.84603E-13-1.23952E-14
 -1      1645 1.99998E+01-1.80752E-05 3.71467E-07 1.25324E-05 1.40923E-13 1.29535E-13
 -1      1646 1.99998E+01-3.49479E-05 3.30481E-07 2.83850E-05-2.28591E-13 4.51202E-13
 -1      1647 1.99998E+01-1.73044E-05-3.34365E-07 1.93377E-05 1.09264E-13 7.00849E-15
 -1      1648-1.26603E+00-1.78725E+01-1.94623E+00-2.60787E+00 1.61771E-12 3.31679E-13
 -1      1649-9.29388E-01-1.83527E+01-1.89677E+00-8.73138E-01 1.35755E-12 2.72449E-13
 -1      1650-4.91678E-01-1.30179E+01-1.81116E+00-2.26948E+00 1.31295E-12 3.51982E-13
 -1      1651-5.37999E-01-1.71289E+01-2.05451E+00-1.93014E+00 1.62453E-12 2.69451E-13
 -1      1652 4.10136E+00-5.59445E+00-1.45187E+00 1.12341E+00 9.75886E-13 5.93525E-13
 -1      1653 1.79825E+00-1.13762E+01-2.02973E+00-1.11124E+00 1.25400E-12 4.41924E-13
 -1      1654 1.49599E+01 7.74574E-01-6.94728E-01 6.68529E+00 8.15348E-13 7.92255E-13
 -1      1655 8.57223E+00-4.05541E+00-1.68532E+00 2.59267E+00 8.37330E-13 8.00471E-13
 -1      1656 3.50135E+01 3.53801E+00 7.70614E-01 1.08250E+01 5.76761E-13 6.51257E-13
 -1      1657 2.24344E+01 1.17686E+00-8.22556E-01 6.97490E+00 7.94032E-13 7.90479E-13
 -1      1658 5.59597E+01 4.54120E+00 2.67743E+00 1.12999E+01 3.21188E-13 4.73843E-13
 -1      1659 4.19828E+01 5.12905E+00 9.12195E-01 1.12798E+01 4.85612E-13 7.16982E-13
 -1      1660 7.05058E+01 3.67039E+00 3.92059E+00 4.02037E+00 1.12521E-13 3.05866E-13
 -1      1661 6.13296E+01 5.10884E+00 2.86407E+00 9.48194E+00 1.84255E-13 4.67848E-13
 -1      1662 6.66435E+01 4.39563E+00 3.30874E+00-4.12559E+00 1.43774E-14 3.26406E-13
 -1      1663 6.91873E+01 4.17764E+00 3.64347E+00 2.28319E+00 3.17524E-14 3.91853E-13
 -1      1664 5.42773E+01 4.82966E+00 2.06910E+00-9.56322E+00-3.94684E-14 1.85629E-13
 -1      1665 6.52510E+01 3.49870E+00 3.28913E+00-6.12014E+00-5.51781E-14 1.78968E-13
 -1      1666 3.48257E+01 4.00411E+00 2.42155E-01-9.83186E+00-1.36335E-13 2.20712E-13
 -1      1667 4.84600E+01 4.17005E+00 1.91114E+00-1.12299E+01-1.05360E-13 1.10134E-13
 -1      1668 1.79857E+01-1.12040E+00-1.18512E+00-4.95042E+00-2.92877E-13 2.42917E-13
 -1      1669 2.84245E+01 1.91686E+00 1.18520E-01-8.97742E+00-1.82521E-13 2.14495E-13
 -1      1670 5.20314E+00-6.81912E+00-2.04844E+00-4.72811E-01-4.81393E-13 2.52687E-13
 -1      1671 1.01898E+01-1.59962E+00-1.23171E+00-4.20600E+00-3.28182E-13 1.64757E-13
 -1      1672 1.32062E-01-1.30553E+01-2.21890E+00 2.35741E+00-6.49814E-13 2.21427E-13
 -1      1673 1.16242E+00-8.22956E+00-1.87461E+00 1.20952E+00-5.14921E-13 2.27263E-13
 -1      1674-9.54156E-01-1.60872E+01-1.95726E+00 2.17462E+00-6.46330E-13 1.37834E-13
 -1      1675-1.28882E+00-1.39150E+01-1.96641E+00 3.20727E+00-6.17451E-13 2.16743E-13
 -1      1676-7.70679E-01-1.46884E+01-1.61545E+00 9.83246E-01-6.58529E-13-7.77156E-15
 -1      1677-1.13802E+00-1.63054E+01-1.88643E+00 2.70673E+00-6.55753E-13 8.57647E-14
 -1      1678 6.46216E-01-8.18660E+00-1.09272E+00 1.39417E+00-5.09814E-13-7.11653E-14
 -1      1679 1.38668E-01-1.27792E+01-1.52852E+00 1.71663E+00-5.73763E-13-1.94844E-14
 -1      1680 3.84093E+00-9.56514E-01-7.00137E-01 3.62730E+00-3.44613E-13-7.12208E-14
 -1      1681 2.22447E+00-6.34407E+00-1.25438E+00 1.97067E+00-4.90274E-13-6.48093E-14
 -1      1682 1.12898E+01 5.58997E+00-1.86470E-01 8.61623E+00-6.68354E-14 1.19793E-13
 -1      1683 6.80126E+00 1.09713E+00-8.82402E-01 5.07302E+00-2.70450E-13-6.43929E-15
 -1      1684 2.51467E+01 7.86970E+00 4.82271E-01 1.30226E+01 1.93512E-13 4.73510E-13
 -1      1685 1.70962E+01 6.23509E+00-2.68423E-01 9.78020E+00 7.77156E-16 2.61791E-13
 -1      1686 3.97838E+01 7.82232E+00 1.16547E+00 1.44985E+01 2.70062E-13 9.25704E-13
 -1      1687 3.03998E+01 8.87845E+00 4.29210E-01 1.38720E+01 2.20934E-13 6.18838E-13
 -1      1688 5.25170E+01 5.19164E+00 1.53589E+00 1.01847E+01 2.41078E-13 1.26799E-12
 -1      1689 4.47337E+01 7.32039E+00 1.06936E+00 1.32387E+01 2.61291E-13 1.05249E-12
 -1      1690 5.78605E+01 4.14003E+00 1.64198E+00 1.50402E+00-2.06779E-14 1.38406E-12
 -1      1691 5.44999E+01 5.12403E+00 1.42085E+00 7.05811E+00 1.28730E-13 1.26421E-12
 -1      1692 5.70127E+01 4.70114E+00 1.72190E+00-7.09450E+00-1.71474E-13 1.39833E-12
 -1      1693 5.93252E+01 3.76470E+00 1.76890E+00-1.35145E+00-3.63043E-14 1.46567E-12
 -1      1694 4.77714E+01 6.89826E+00 1.35020E+00-1.28240E+01-3.46612E-13 1.17217E-12
 -1      1695 5.44847E+01 5.03401E+00 1.76028E+00-9.57817E+00-2.44429E-13 1.33860E-12
 -1      1696 3.45797E+01 8.54977E+00 7.75924E-01-1.42521E+01-4.64240E-13 9.14380E-13
 -1      1697 4.34059E+01 7.27253E+00 1.43094E+00-1.41496E+01-3.89133E-13 1.05327E-12
 -1      1698 2.14306E+01 7.43712E+00 9.52705E-02-1.16480E+01-4.55080E-13 6.67022E-13
 -1      1699 2.94692E+01 8.30850E+00 8.67827E-01-1.42074E+01-4.89053E-13 8.47322E-13
 -1      1700 1.07920E+01 2.61180E+00-6.15736E-01-6.86729E+00-3.41061E-13 3.96350E-13
 -1      1701 1.65929E+01 6.28765E+00 1.94293E-01-1.05749E+01-4.60965E-13 5.90861E-13
 -1      1702 4.08538E+00-5.17533E+00-1.24786E+00-2.53218E+00 6.77236E-14 2.34146E-13
 -1      1703 6.97571E+00 5.35379E-01-5.13960E-01-5.35644E+00-2.23821E-13 4.27436E-13
 -1      1704 8.03949E-01-1.32440E+01-1.70365E+00-6.44612E-01 7.38298E-13 6.63428E-14
 -1      1705 1.61013E+00-7.60062E+00-1.16027E+00-1.27463E+00 2.64233E-13 2.04753E-13
 -1      1706-5.86192E-01-1.80927E+01-1.93153E+00-1.24167E+00 1.28259E-12 1.41193E-13
 -1      1707-4.15993E-01-1.50429E+01-1.64256E+00 3.64700E-02 9.24816E-13-1.37945E-14
 -1      1708 2.65289E+01-4.15714E+00-2.31099E-01 5.00006E+00 6.46483E-13 5.73652E-13
 -1      1709 1.26646E+01-7.09227E+00-9.70432E-01 4.55138E+00 7.25420E-13 5.02820E-13
 -1      1710 1.99998E+01-1.38265E-06-9.67015E-08-1.01228E-06-3.78383E-15-9.02923E-14
 -1      1711 1.99998E+01-1.16054E-05-1.99009E-07-9.49866E-06-2.82902E-13-3.66822E-13
 -1      1712-9.88867E-01-1.20990E+01-1.41947E+00 1.11300E-01 9.22484E-13 1.16018E-13
 -1      1713 3.51799E+00-1.01093E+01-1.34477E+00 2.43196E+00 9.32032E-13 1.46119E-13
 -1      1714-1.72639E+00-1.23471E+01-1.38614E+00-1.81939E+00 8.05633E-13 3.75644E-13
 -1      1715 4.12019E+01-1.21359E-01 8.52721E-01 3.49906E+00 5.96523E-13 6.46816E-13
 -1      1716 5.35620E+01 5.01319E+00 2.33447E+00 1.90732E+00 3.99458E-13 6.83897E-13
 -1      1717 5.73737E+01 7.98647E+00 2.87218E+00 7.19914E-01 2.00728E-13 8.37330E-13
 -1      1718 5.53309E+01 7.09226E+00 2.55737E+00 5.91032E-01-5.91749E-14 7.38964E-13
 -1      1719 4.93895E+01 2.95192E+00 1.75210E+00-2.06758E+00-2.26270E-13 5.48894E-13
 -1      1720 3.60180E+01-2.16361E+00 1.99623E-01-3.43131E+00-3.03091E-13 4.11227E-13
 -1      1721 2.19606E+01-5.45815E+00-5.86006E-01-4.58486E+00-3.86802E-13 2.51910E-13
 -1      1722 8.43567E+00-7.84134E+00-1.28950E+00-3.18473E+00-4.23772E-13 1.15991E-13
 -1      1723 9.49724E-01-9.80750E+00-1.47977E+00-6.75074E-01-3.89744E-13 1.13382E-13
 -1      1724-1.70719E+00-1.04295E+01-1.37138E+00 1.47542E+00-3.43836E-13 8.05467E-14
 -1      1725-7.37483E-01-8.65538E+00-1.08314E+00 3.48858E+00-2.68618E-13 3.84137E-14
 -1      1726 3.09795E+00-5.57609E+00-8.26205E-01 5.18430E+00-1.71196E-13 8.93452E-14
 -1      1727 9.44404E+00-1.67242E+00-4.87983E-01 7.04545E+00-9.75886E-14 1.88294E-13
 -1      1728 1.96450E+01 1.85186E+00 6.92877E-02 8.87821E+00 3.33067E-15 4.15001E-13
 -1      1729 3.04682E+01 4.32254E+00 3.79512E-01 9.03104E+00 6.22835E-14 5.91083E-13
 -1      1730 4.09643E+01 6.77746E+00 1.03592E+00 8.16711E+00 4.20913E-14 8.23119E-13
 -1      1731 4.74233E+01 7.87201E+00 1.28031E+00 4.36383E+00-1.79856E-14 8.88900E-13
 -1      1732 5.01908E+01 8.22677E+00 1.39571E+00-2.98245E-01-4.70179E-14 8.81288E-13
 -1      1733 4.94645E+01 7.79138E+00 1.51514E+00-4.45230E+00-5.56777E-14 8.25895E-13
 -1      1734 4.30939E+01 6.92999E+00 1.22927E+00-7.73783E+00-1.02703E-13 7.01550E-13
 -1      1735 3.39716E+01 5.07623E+00 7.71945E-01-9.29130E+00-1.19849E-13 5.47340E-13
 -1      1736 2.37795E+01 2.09263E+00 2.39833E-01-9.15249E+00-1.46549E-13 4.25326E-13
 -1      1737 1.40323E+01-1.97888E+00-3.20219E-01-7.69976E+00-4.95159E-14 4.13225E-13
 -1      1738 6.06427E+00-6.56148E+00-8.21840E-01-5.62734E+00 2.17271E-13 4.64045E-13
 -1      1739 7.16955E-01-1.05041E+01-1.20781E+00-3.65546E+00 5.38791E-13 3.14138E-13
 -1      1740 2.15819E+01 2.07763E+00-2.71514E-02-3.25716E+00-1.19887E-13-8.21204E-13
 -1      1741 2.03890E+01 3.75986E+00-3.30064E-02-3.07430E+00 1.27854E-13-5.73548E-13
 -1      1742 2.01216E+01 3.60721E+00-5.38041E-02-3.36322E+00 7.62511E-14-6.39322E-13
 -1      1743 1.99708E+01 3.28869E+00-4.27366E-02-3.46153E+00 1.99359E-14-6.72962E-13
 -1      1744 1.97237E+01 2.91968E+00-1.62935E-01-3.69439E+00-5.75581E-14-7.32997E-13
 -1      1745 2.02443E+01 2.76896E+00-2.12130E-03-3.14842E+00 2.95250E-14-6.20413E-13
 -1      1746 2.18440E+01 3.87295E+00-2.15557E-02-1.90688E+00 2.57311E-13-3.28845E-13
 -1      1747 2.14659E+01 3.90321E+00-3.79517E-02-2.26632E+00 2.33305E-13-4.07424E-13
 -1      1748 2.24493E+01 3.62187E+00-1.65464E-02-1.09871E+00 2.88147E-13-2.06841E-13
 -1      1749 2.21744E+01 3.71732E+00-4.07368E-02-1.53445E+00 2.74481E-13-2.73372E-13
 -1      1750 2.23791E+01 3.21453E+00-3.32117E-03-1.82171E+00 2.72052E-13-2.98980E-13
 -1      1751 2.26327E+01 3.23224E+00-1.03280E-02-5.84599E-02 3.14845E-13-6.93230E-14
 -1      1752 2.26074E+01 3.36700E+00-4.08914E-02-5.93549E-01 3.02176E-13-1.42223E-13
 -1      1753 2.29815E+01 2.85540E+00-4.91340E-03-1.01735E+00 2.99824E-13-1.64837E-13
 -1      1754 2.20310E+01 2.84788E+00-6.66162E-03 1.25128E+00 3.35301E-13 4.35936E-14
 -1      1755 2.24523E+01 2.96123E+00-3.13849E-02 6.22699E-01 3.23244E-13-2.33216E-14
 -1      1756 2.30837E+01 2.35920E+00-1.22838E-02 9.65257E-02 3.24749E-13-3.87919E-14
 -1      1757 2.02563E+01 2.73271E+00-1.44282E-02 2.73135E+00 3.60049E-13 1.61735E-13
 -1      1758 2.13150E+01 2.73710E+00-5.51523E-03 2.08865E+00 3.49176E-13 9.51149E-14
 -1      1759 2.22507E+01 1.94487E+00-2.78559E-02 1.58619E+00 3.49527E-13 7.78440E-14
 -1      1760 1.71957E+01 3.18270E+00-3.68300E-02 4.00995E+00 3.94219E-13 2.42854E-13
 -1      1761 1.88888E+01 3.01202E+00 3.40382E-02 3.54349E+00 3.78971E-13 1.99301E-13
 -1      1762 2.00571E+01 1.98692E+00-4.25913E-02 3.30235E+00 3.82982E-13 1.98289E-13
 -1      1763 1.35530E+01 4.27343E+00-4.74073E-02 4.43068E+00 4.12847E-13 2.92301E-13
 -1      1764 1.53797E+01 3.96144E+00 7.51546E-02 4.39898E+00 4.10418E-13 2.57599E-13
 -1      1765 1.64845E+01 2.83840E+00-2.95065E-02 4.68553E+00 4.25285E-13 2.58947E-13
 -1      1766 1.11446E+01 5.47784E+00-2.77014E-02 3.57918E+00 3.99374E-13 3.40516E-13
 -1      1767 1.21010E+01 5.19784E+00 7.86620E-02 4.03530E+00 4.07632E-13 3.02064E-13
 -1      1768 1.26283E+01 4.33684E+00 2.27247E-02 4.83791E+00 4.41303E-13 3.01086E-13
 -1      1769 1.17033E+01 6.04017E+00 1.94809E-02 1.81631E+00 3.52853E-13 4.23259E-13
 -1      1770 1.09681E+01 5.94602E+00 3.02500E-02 2.49982E+00 3.73778E-13 3.62148E-13
 -1      1771 1.05285E+01 5.61773E+00 7.93095E-02 3.38780E+00 4.14616E-13 3.40044E-13
 -1      1772 1.61415E+01 5.39736E+00 4.30772E-02 1.71368E-01 2.47052E-13 5.62168E-13
 -1      1773 1.34603E+01 5.61708E+00-4.39887E-02 6.26743E-01 2.87544E-13 4.72729E-13
 -1      1774 1.20530E+01 5.70530E+00 8.72051E-02 1.01134E+00 3.29981E-13 4.10776E-13
 -1      1775 2.33851E+01 3.63431E+00 2.32930E-02-3.58051E-01 8.09075E-14 7.73687E-13
 -1      1776 1.95371E+01 4.27771E+00-8.09117E-02-4.32306E-01 1.62356E-13 6.45900E-13
 -1      1777 1.76319E+01 4.34392E+00 4.89793E-02-8.33331E-01 1.89501E-13 5.61239E-13
 -1      1778 2.88551E+01 1.52988E+00-7.12088E-02-6.14921E-01-3.64431E-14 9.83956E-13
 -1      1779 2.59368E+01 2.75933E+00-1.33541E-02-4.75874E-01 1.81001E-14 8.46670E-13
 -1      1780 2.40443E+01 2.51308E+00 3.22551E-02-1.53014E+00 5.25417E-14 7.32065E-13
 -1      1781 2.90321E+01 1.09285E+00-9.11679E-03-1.75976E+00-3.34351E-14 9.63049E-13
 -1      1782 2.06222E+01 2.58649E+00 1.03535E-01-3.76491E+00-1.25195E-13-7.62640E-13
 -1      1783 2.99264E+01-2.53265E-03 3.26025E-02-2.85837E+00-3.87260E-14 9.14685E-13
 -1      1784 2.93317E+01 5.69219E-01 5.02310E-02-2.36616E+00-3.31306E-14 9.09064E-13
 -1      1785 2.67033E+01 1.06295E+00 2.01095E-02-2.51476E+00-2.37206E-14 7.56617E-13
 -1      1786 2.04433E+01 1.84037E+00 8.49786E-02-3.10194E+00-9.59025E-14-6.97477E-13
 -1      1787 1.89536E+01 5.46614E-01 3.16840E-02-1.60200E+00-7.69489E-14-6.43517E-13
 -1      1788 1.82983E+01 4.08312E-01 8.76806E-03-1.27495E+00-4.14096E-14-6.64309E-13
 -1      1789 1.79565E+01 3.30129E-01 2.94938E-02-9.97100E-01-5.27304E-14-6.31281E-13
 -1      1790 1.75760E+01 2.78108E-01 1.63268E-02-8.07099E-01-4.54220E-14-6.40121E-13
 -1      1791 1.88522E+01 5.83782E-01-4.87559E-03-1.50311E+00-4.60170E-14-5.24852E-13
 -1      1792 1.73169E+01 2.62056E-01 2.04178E-02-5.89360E-01-4.70908E-14-6.05437E-13
 -1      1793 1.71020E+01 2.54050E-01 1.55689E-02-4.33196E-01-2.58986E-14-6.10375E-13
 -1      1794 1.82341E+01 4.16890E-01-8.44843E-03-9.39167E-01-4.05205E-14-4.68361E-13
 -1      1795 1.69431E+01 2.54751E-01 1.43094E-02-2.29958E-01-2.33407E-14-6.03601E-13
 -1      1796 1.68671E+01 2.53574E-01 1.33489E-02-7.89797E-02-1.99519E-14-5.94238E-13
 -1      1797 1.78191E+01 3.82116E-01-1.04055E-02-4.63028E-01-2.88311E-14-4.22833E-13
 -1      1798 1.68143E+01 2.48709E-01 1.16987E-02 1.17979E-01-2.32089E-14-6.03105E-13
 -1      1799 1.68609E+01 2.35596E-01 1.04620E-02 2.60562E-01-1.66872E-14-5.88948E-13
 -1      1800 1.76121E+01 3.71706E-01-1.11335E-02-9.21308E-03-2.48959E-14-4.18955E-13
 -1      1801 1.69084E+01 2.15472E-01 1.01254E-02 4.35216E-01-2.12525E-14-5.56235E-13
 -1      1802 1.70590E+01 1.85519E-01 7.06994E-03 5.52903E-01 9.19403E-16-5.40814E-13
 -1      1803 1.76112E+01 3.32163E-01-9.92860E-03 4.12366E-01-3.60996E-15-3.77545E-13
 -1      1804 1.71867E+01 1.51270E-01 7.93053E-03 6.82516E-01-2.08123E-15-5.45051E-13
 -1      1805 1.74146E+01 1.09928E-01 3.73630E-03 7.59284E-01 3.97252E-16-5.34865E-13
 -1      1806 1.77902E+01 2.48539E-01-7.07016E-03 7.56889E-01 8.26162E-16-3.55983E-13
 -1      1807 1.75917E+01 6.95828E-02 4.68820E-03 8.28624E-01-1.86700E-14-5.52825E-13
 -1      1808 1.78639E+01 2.72309E-02 1.06236E-03 8.57493E-01-2.69977E-15-5.46014E-13
 -1      1809 1.80982E+01 1.34086E-01-3.44814E-03 9.81182E-01-9.70209E-15-3.57255E-13
 -1      1810 1.80573E+01-9.54962E-03 8.89817E-04 8.65644E-01 4.93860E-15-5.61782E-13
 -1      1811 1.83399E+01-4.34000E-02-6.81897E-04 8.50877E-01 1.57512E-14-5.50001E-13
 -1      1812 1.84717E+01 1.57583E-02-1.29057E-04 1.06753E+00-1.88548E-14-3.89515E-13
 -1      1813 1.85226E+01-6.98156E-02-2.60951E-03 8.09976E-01 4.75696E-14-5.78002E-13
 -1      1814 1.87873E+01-9.01870E-02-1.57418E-03 7.63916E-01 6.26786E-14-5.79700E-13
 -1      1815 1.88505E+01-8.09520E-02 2.14855E-03 1.02962E+00 2.18030E-14-4.08259E-13
 -1      1816 1.89426E+01-1.04059E-01-5.11963E-03 6.92817E-01 3.03503E-14-5.63801E-13
 -1      1817 1.91705E+01-1.10931E-01-1.85675E-03 6.30520E-01 2.48508E-14-5.37799E-13
 -1      1818 1.91913E+01-1.41822E-01 3.24358E-03 9.03231E-01 5.43756E-14-3.85292E-13
 -1      1819 1.92919E+01-1.13864E-01-6.37522E-03 5.48001E-01 5.85482E-14-5.30893E-13
 -1      1820 1.94742E+01-1.10448E-01-1.77939E-03 4.82723E-01 5.45080E-14-4.36341E-13
 -1      1821 1.94709E+01-1.65766E-01 3.41301E-03 7.31021E-01 6.30821E-14-3.11967E-13
 -1      1822 1.95624E+01-1.05926E-01-6.50246E-03 4.03138E-01-4.92943E-15-4.72788E-13
 -1      1823 1.96985E+01-9.64995E-02-1.53088E-03 3.44000E-01 5.75885E-15-4.01034E-13
 -1      1824 1.96835E+01-1.60738E-01 3.03305E-03 5.50054E-01 3.49256E-14-2.75360E-13
 -1      1825 1.97585E+01-8.81717E-02-5.84257E-03 2.75887E-01 3.50284E-15-4.20396E-13
 -1      1826 1.98534E+01-7.65155E-02-1.22596E-03 2.27585E-01 4.21286E-14-3.79485E-13
 -1      1827 1.98344E+01-1.38049E-01 2.42657E-03 3.85652E-01 1.91709E-15-3.40656E-13
 -1      1828 1.98912E+01-6.72206E-02-4.77473E-03 1.74347E-01 3.44945E-14-4.38174E-13
 -1      1829 1.99526E+01-5.59337E-02-9.26511E-04 1.38075E-01 2.38065E-14-5.02501E-13
 -1      1830 1.99344E+01-1.08061E-01 1.79956E-03 2.50844E-01-7.44272E-15-3.35030E-13
 -1      1831 1.99744E+01-4.74261E-02-3.60629E-03 9.95609E-02 7.17698E-15-5.46941E-13
 -1      1832 2.00107E+01-3.78964E-02-6.62297E-04 7.43166E-02-1.36971E-14-5.26450E-13
 -1      1833 1.99956E+01-7.81350E-02 1.25344E-03 1.49044E-01 6.64865E-15-3.90933E-13
 -1      1834 2.00214E+01-3.09920E-02-2.53461E-03 4.84319E-02 5.74627E-15-4.89592E-13
 -1      1835 2.00402E+01-2.36884E-02-4.45100E-04 3.21662E-02-2.61387E-14-4.51750E-13
 -1      1836 2.00292E+01-5.23779E-02 8.21769E-04 7.76374E-02 1.44942E-14-3.80721E-13
 -1      1837 2.00438E+01-1.85630E-02-1.65606E-03 1.61028E-02-4.93470E-14-3.80625E-13
 -1      1838 2.00511E+01-1.33922E-02-2.76685E-04 6.52969E-03 2.40251E-14-3.80851E-13
 -1      1839 2.00442E+01-3.23454E-02 5.02447E-04 3.11328E-02 4.94803E-15-3.12370E-13
 -1      1840 2.00506E+01-9.86669E-03-9.94590E-04-2.47341E-03-2.58583E-14-4.00936E-13
 -1      1841 2.00512E+01-6.46778E-03-1.53198E-04-7.42242E-03-5.72820E-14-4.42788E-13
 -1      1842 2.00477E+01-1.79797E-02 2.78452E-04 3.33777E-03-2.57622E-14-2.82438E-13
 -1      1843 2.00484E+01-4.21771E-03-5.31764E-04-1.17017E-02-8.62435E-15-4.59555E-13
 -1      1844 2.00454E+01-2.15561E-03-6.78404E-05-1.36848E-02-7.86766E-15-4.99454E-13
 -1      1845 2.00446E+01-8.41509E-03 1.29069E-04-1.13976E-02-6.19725E-14-2.52961E-13
 -1      1846 2.00418E+01-8.38278E-04-2.30269E-04-1.50333E-02-1.21482E-14-4.48161E-13
 -1      1847 2.00372E+01 2.89550E-04-1.27679E-05-1.52694E-02 1.25349E-14-3.69000E-13
 -1      1848 2.00383E+01-2.52646E-03 3.49750E-05-1.76452E-02 2.24000E-14-2.28593E-13
 -1      1849 2.00335E+01 9.72398E-04-4.90163E-05-1.49623E-02 2.87205E-14-3.41063E-13
 -1      1850 2.00287E+01 1.49165E-03 1.96539E-05-1.42846E-02 4.21273E-14-2.36524E-13
 -1      1851 2.00308E+01 7.60366E-04-1.99322E-05-1.88018E-02 7.05074E-14-1.66372E-13
 -1      1852 2.00252E+01 1.77212E-03 4.88124E-05-1.31693E-02-1.64571E-14-2.52363E-13
 -1      1853 2.00208E+01 1.92367E-03 3.61072E-05-1.21087E-02-7.75184E-15-2.60637E-13
 -1      1854 2.00236E+01 2.33108E-03-4.82345E-05-1.72187E-02 1.01394E-14-1.20456E-13
 -1      1855 2.00179E+01 1.96849E-03 9.25808E-05-1.07099E-02 4.85469E-15-2.14867E-13
 -1      1856 2.00143E+01 1.91818E-03 4.19977E-05-9.57889E-03 1.75676E-14-2.30677E-13
 -1      1857 2.00172E+01 2.84990E-03-5.93277E-05-1.44177E-02 5.70336E-14-1.09991E-13
 -1      1858 2.00119E+01 1.83938E-03 1.03858E-04-8.19490E-03-3.02838E-14-2.06660E-13
 -1      1859 2.00091E+01 1.69419E-03 4.14204E-05-7.15875E-03-2.64934E-14-1.48906E-13
 -1      1860 2.00118E+01 2.77980E-03-5.99627E-05-1.13135E-02 2.20259E-14 8.01120E-15
 -1      1861 2.00073E+01 1.56233E-03 9.74512E-05-5.93857E-03-3.68242E-14-1.73149E-13
 -1      1862 2.00051E+01 1.38661E-03 3.72981E-05-5.06916E-03-5.15615E-14-1.69245E-13
 -1      1863 2.00076E+01 2.42301E-03-5.48054E-05-8.40422E-03-6.08216E-14 1.34886E-13
 -1      1864 2.00038E+01 1.24298E-03 8.28919E-05-4.06955E-03 1.73428E-14-8.49347E-14
 -1      1865 2.00023E+01 1.07216E-03 3.15962E-05-3.38396E-03 1.68517E-13-2.28621E-14
 -1      1866 2.00044E+01 1.96384E-03-4.69438E-05-5.92043E-03 6.25150E-14 1.55334E-13
 -1      1867 2.00014E+01 9.38659E-04 6.59037E-05-2.60903E-03 1.41226E-13-9.55914E-14
 -1      1868 2.00004E+01 7.89726E-04 2.55501E-05-2.09508E-03 4.65068E-14-1.55256E-13
 -1      1869 2.00021E+01 1.50576E-03-3.83160E-05-3.93131E-03 5.67380E-14 1.83021E-13
 -1      1870 1.99998E+01 6.76096E-04 4.96246E-05-1.52209E-03 7.01409E-15-2.32700E-13
 -1      1871 1.99992E+01 5.54960E-04 1.98708E-05-1.15449E-03 6.34795E-14-1.77110E-13
 -1      1872 2.00006E+01 1.09994E-03-3.00519E-05-2.41733E-03 2.41234E-14-6.41686E-14
 -1      1873 1.99988E+01 4.63850E-04 3.55402E-05-7.49770E-04-1.57703E-14-1.98580E-13
 -1      1874 1.99985E+01 3.70319E-04 1.49131E-05-4.99480E-04-6.32678E-14-8.63956E-14
 -1      1875 1.99995E+01 7.65875E-04-2.27359E-05-1.31657E-03 2.03293E-14-7.56752E-14
 -1      1876 1.99982E+01 3.00580E-04 2.41452E-05-2.27593E-04-1.04545E-13-1.22639E-13
 -1      1877 1.99981E+01 2.31484E-04 1.08038E-05-6.69559E-05-2.80428E-14-9.19747E-14
 -1      1878 1.99989E+01 5.05215E-04-1.66014E-05-5.52594E-04-9.36542E-14-1.18557E-14
 -1      1879 1.99980E+01 1.80221E-04 1.53873E-05 1.04608E-04 6.36487E-14-1.09305E-13
 -1      1880 1.99980E+01 1.31285E-04 7.53399E-06 1.99543E-04 9.62752E-14-8.84425E-14
 -1      1881 1.99986E+01 3.10658E-04-1.16696E-05-4.99411E-05-4.33945E-14 5.43322E-14
 -1      1882 1.99980E+01 9.50584E-05 8.94933E-06 2.98318E-04 5.11792E-14-2.99677E-13
 -1      1883 1.99981E+01 6.19350E-05 5.02217E-06 3.47039E-04-2.19007E-14-3.93490E-13
 -1      1884 1.99985E+01 1.71308E-04-7.84376E-06 2.58237E-04-1.08162E-13-1.91563E-13
 -1      1885 1.99981E+01 3.74048E-05 4.41780E-06 3.95117E-04 3.36507E-14-2.75127E-13
 -1      1886 1.99982E+01 1.61851E-05 3.15521E-06 4.12764E-04 1.37091E-13-2.05934E-13
 -1      1887 1.99985E+01 7.56993E-05-4.97228E-06 4.27330E-04 6.82635E-14-6.30642E-14
 -1      1888 1.99983E+01 4.19113E-07 1.37660E-06 4.27131E-04 1.05337E-13-2.70875E-13
 -1      1889 1.99984E+01-1.21659E-05 1.81302E-06 4.25022E-04 2.16130E-13-2.37341E-13
 -1      1890 1.99986E+01 1.33290E-05-2.88691E-06 5.01056E-04 1.44267E-13-6.36356E-14
 -1      1891 1.99985E+01-2.15894E-05-5.46723E-07 4.18271E-04 2.62511E-13-1.61289E-13
 -1      1892 1.99986E+01-2.81417E-05 8.82483E-07 4.04567E-04 3.40053E-13-1.39572E-14
 -1      1893 1.99987E+01-2.47001E-05-1.42542E-06 5.12581E-04 3.09361E-13 2.00356E-14
 -1      1894 1.99987E+01-3.31368E-05-1.66297E-06 3.85709E-04 2.81799E-13-9.13723E-14
 -1      1895 1.99988E+01-3.56511E-05 2.64011E-07 3.66077E-04 1.02793E-13 1.87470E-14
 -1      1896 1.99989E+01-4.55419E-05-4.43121E-07 4.86189E-04 3.35099E-13-3.78481E-14
 -1      1897 1.99989E+01-3.76811E-05-2.21907E-06 3.41317E-04-3.53309E-14 1.48464E-13
 -1      1898 1.99990E+01-3.76403E-05-1.26397E-07 3.19526E-04-2.50570E-13 2.20574E-13
 -1      1899 1.99990E+01-5.47294E-05 1.82425E-07 4.39029E-04 1.42267E-13 3.78889E-14
 -1      1900 1.99991E+01-3.77945E-05-2.40380E-06 2.92939E-04-3.50022E-13 2.47220E-13
 -1      1901 1.99992E+01-3.62750E-05-3.57678E-07 2.71346E-04-2.56630E-13 3.49234E-13
 -1      1902 1.99992E+01-5.64131E-05 5.50797E-07 3.82724E-04-2.31833E-13 4.47820E-13
 -1      1903 1.99992E+01-3.53484E-05-2.35660E-06 2.45433E-04-3.73451E-13 4.68376E-13
 -1      1904 1.99993E+01-3.31178E-05-4.85523E-07 2.25368E-04-1.26282E-13 3.77945E-13
 -1      1905 1.99993E+01-5.36323E-05 7.40354E-07 3.24746E-04-2.30505E-13 6.27994E-13
 -1      1906 1.99994E+01-3.16850E-05-2.17702E-06 2.01486E-04 1.83864E-13 1.08200E-13
 -1      1907 1.99994E+01-2.92886E-05-5.54252E-07 1.83543E-04 2.91827E-13 1.96321E-13
 -1      1908 1.99994E+01-4.85756E-05 8.10805E-07 2.69506E-04-1.80036E-13 5.34043E-13
 -1      1909 1.99995E+01-2.77669E-05-1.93226E-06 1.62225E-04 2.26628E-13 3.06342E-13
 -1      1910 1.99995E+01-2.55974E-05-5.96467E-07 1.46466E-04 3.08663E-13 4.67185E-13
 -1      1911 1.99995E+01-4.28136E-05 8.05798E-07 2.19204E-04 3.95116E-13 4.37800E-13
 -1      1912 1.99996E+01-2.42950E-05-1.66161E-06 1.27662E-04 2.79912E-13 8.60262E-14
 -1      1913 1.99996E+01-2.26396E-05-6.29413E-07 1.13766E-04 1.58321E-13 1.03017E-14
 -1      1914 1.99996E+01-3.74815E-05 7.56700E-07 1.74458E-04 1.15093E-13 3.77479E-13
 -1      1915 1.99997E+01-2.17828E-05-1.37857E-06 9.70335E-05-1.95900E-13-6.50143E-14
 -1      1916 1.99997E+01-2.08430E-05-6.54979E-07 8.44196E-05-3.11712E-13-1.28936E-13
 -1      1917 1.99997E+01-3.34064E-05 6.80123E-07 1.34795E-04-1.02219E-13-1.04336E-13
 -1      1918 1.99997E+01-2.04929E-05-1.06500E-06 6.90909E-05-4.86171E-14 5.13290E-15
 -1      1919 1.99997E+01-2.01839E-05-6.47195E-07 5.71083E-05-6.93606E-15 2.51129E-13
 -1      1920 1.99997E+01-3.11307E-05 5.55886E-07 9.90867E-05-2.13174E-13 2.04453E-13
 -1      1921 1.99998E+01-1.96407E-05-8.14476E-07 4.34669E-05 1.35700E-13 1.72501E-13
 -1      1922 1.99998E+01-1.91990E-05-6.71873E-07 3.22868E-05 2.32663E-13 1.29856E-13
 -1      1923 1.99998E+01-2.59625E-05 4.47076E-07 3.85037E-05 5.30328E-14 3.81725E-13
 -1      1924 1.99997E+01-2.92119E-05 6.89844E-07 6.69246E-05 1.58830E-13 3.50523E-13
 -1      1925 3.18443E+01-1.90992E+00 5.83420E-02-1.98945E+00-1.09510E-13 9.51600E-13
 -1      1926 3.09299E+01-8.95991E-01 1.36185E-01-2.60868E+00-9.59233E-14 9.04317E-13
 -1      1927 2.78227E+01-9.30741E-01 6.32810E-02-3.25184E+00-9.60065E-14 7.15268E-13
 -1      1928 4.29799E+01 5.17519E+00 1.13028E-01-3.95483E-01 1.03029E-13 1.34130E-12
 -1      1929 4.33638E+01 4.61591E+00 1.65056E-01 2.18568E+00-1.19904E-14 1.30057E-12
 -1      1930 4.41603E+01 2.75855E+00 3.27606E-01-2.94675E+00 3.31735E-13 1.08419E-12
 -1      1931 4.47249E+01 4.90120E+00 4.64851E-01-1.17149E+00 2.54019E-13 1.21531E-12
 -1      1932 3.29317E+01-3.58261E+00 1.54171E-01 7.84297E-01 1.92540E-13 6.66453E-13
 -1      1933 3.38405E+01-3.68955E+00-3.66879E-02-1.28685E+00 3.20480E-13 7.28015E-13
 -1      1934 2.90260E+01-1.27953E+00 1.66747E-01 3.53713E+00-3.46945E-15 5.89702E-13
 -1      1935 3.03246E+01-2.39042E+00 7.69916E-02 2.41504E+00 4.94882E-14 6.00422E-13
 -1      1936 2.80181E+01-4.23806E+00-6.73826E-02 3.16472E+00 1.34781E-13 3.56954E-13
 -1      1937 2.62998E+01 1.84525E-01 4.26721E-02 3.99713E+00-6.12912E-14 6.36702E-13
 -1      1938 2.77177E+01-4.32209E-01 4.51157E-02 3.87464E+00-6.18394E-14 6.22898E-13
 -1      1939 2.47104E+01-1.40826E+00-1.11001E-03 4.82176E+00-5.59414E-14 2.45665E-13
 -1      1940 2.44792E+01 6.27133E-01-1.01726E-02 3.31459E+00-3.74223E-14 6.88321E-13
 -1      1941 2.57645E+01 4.76275E-01 3.27302E-02 3.62454E+00-2.20639E-14 6.76972E-13
 -1      1942 2.31775E+01 4.68407E-01 1.84415E-02 4.57506E+00-8.13169E-14 3.96018E-13
 -1      1943 2.31767E+01 6.03295E-01-1.56812E-02 2.41467E+00-8.88629E-14 6.60625E-13
 -1      1944 2.41942E+01 6.41526E-01 2.99257E-02 2.79370E+00-5.38753E-14 7.08072E-13
 -1      1945 2.23937E+01 9.71388E-01 1.23397E-02 3.63347E+00-3.23016E-14 4.64830E-13
 -1      1946 2.22204E+01 4.55171E-01-8.62537E-03 1.64701E+00 7.65655E-14 5.82875E-13
 -1      1947 2.29624E+01 5.36931E-01 2.96317E-02 1.95940E+00 1.68927E-14 6.08380E-13
 -1      1948 2.18390E+01 8.89482E-01 7.16643E-03 2.62701E+00 1.07032E-14 3.21497E-13
 -1      1949 2.15266E+01 3.11259E-01-2.77642E-03 1.08403E+00 5.25170E-14 5.33223E-13
 -1      1950 2.20397E+01 3.84976E-01 2.61345E-02 1.30731E+00 3.58776E-14 5.18737E-13
 -1      1951 2.13841E+01 6.60683E-01 4.06506E-03 1.80085E+00 5.85851E-14 2.39602E-13
 -1      1952 2.10352E+01 2.02993E-01 4.52004E-05 6.99635E-01 7.46989E-14 4.75105E-13
 -1      1953 2.13786E+01 2.57429E-01 2.04293E-02 8.48936E-01 8.46927E-14 5.14514E-13
 -1      1954 2.10131E+01 4.48737E-01 1.91316E-03 1.19645E+00 6.64200E-14 2.65679E-13
 -1      1955 2.06950E+01 1.29252E-01 9.97893E-04 4.46985E-01 1.94954E-13 3.85317E-13
 -1      1956 2.09201E+01 1.66197E-01 1.46504E-02 5.43507E-01 7.11020E-14 4.76048E-13
 -1      1957 2.07241E+01 2.91499E-01 4.72722E-04 7.80540E-01 7.68986E-14 2.80583E-13
 -1      1958 2.04631E+01 8.13425E-02 1.12709E-03 2.84311E-01 1.72606E-13 4.71973E-13
 -1      1959 2.06091E+01 1.05390E-01 9.95129E-03 3.45657E-01 2.97148E-13 4.81594E-13
 -1      1960 2.05084E+01 1.85055E-01-3.25083E-04 5.04185E-01 2.26068E-13 3.40149E-13
 -1      1961 2.03067E+01 5.09502E-02 9.74280E-04 1.80676E-01-1.14412E-13 6.18573E-13
 -1      1962 2.04009E+01 6.62660E-02 6.54751E-03 2.19359E-01 7.51031E-14 5.36845E-13
 -1      1963 2.03522E+01 1.16154E-01-6.52518E-04 3.24173E-01 6.27250E-14 4.44036E-13
 -1      1964 2.02020E+01 3.19002E-02 7.63153E-04 1.14951E-01 4.08003E-14 3.59390E-13
 -1      1965 2.02626E+01 4.15462E-02 4.23289E-03 1.39286E-01-7.68396E-14 4.15963E-13
 -1      1966 2.02415E+01 7.25690E-02-7.05784E-04 2.08168E-01 4.85796E-14 3.48331E-13
 -1      1967 2.01320E+01 2.00239E-02 5.70947E-04 7.32890E-02 2.01916E-13 3.00598E-13
 -1      1968 2.01710E+01 2.60681E-02 2.71255E-03 8.86166E-02 1.31497E-13 3.32531E-13
 -1      1969 2.01640E+01 4.53203E-02-6.31762E-04 1.33776E-01 5.12232E-14 2.11575E-13
 -1      1970 2.00854E+01 1.26289E-02 4.17174E-04 4.68170E-02-5.89914E-14 4.07815E-13
 -1      1971 2.01105E+01 1.64122E-02 1.73240E-03 5.65078E-02 9.55742E-14 4.08312E-13
 -1      1972 2.01104E+01 2.83745E-02-5.16368E-04 8.61097E-02 8.97009E-14 2.95828E-13
 -1      1973 2.00544E+01 8.01509E-03 3.01025E-04 2.99204E-02-9.60168E-14 4.52347E-13
 -1      1974 2.00706E+01 1.03883E-02 1.10645E-03 3.60821E-02-3.87607E-14 3.89477E-13
 -1      1975 2.00734E+01 1.78479E-02-4.01218E-04 5.55032E-02-3.54771E-14 2.43774E-13
 -1      1976 2.00337E+01 5.12306E-03 2.15842E-04 1.90715E-02-1.39318E-13 6.01837E-13
 -1      1977 2.00442E+01 6.61900E-03 7.08242E-04 2.30160E-02-1.26445E-13 5.43474E-13
 -1      1978 2.00480E+01 1.12956E-02-3.02464E-04 3.57683E-02-1.69906E-13 2.91513E-13
 -1      1979 2.00201E+01 3.29704E-03 1.54321E-04 1.20606E-02-1.31112E-13 5.07058E-13
 -1      1980 2.00268E+01 4.24702E-03 4.54923E-04 1.46034E-02-3.93170E-14 5.82488E-13
 -1      1981 2.00307E+01 7.19749E-03-2.23758E-04 2.29730E-02-1.02029E-13 3.45715E-13
 -1      1982 2.00111E+01 2.13300E-03 1.10214E-04 7.50315E-03 2.22677E-14 2.50587E-13
 -1      1983 2.00154E+01 2.74210E-03 2.93313E-04 9.15221E-03-1.42736E-13 3.56153E-13
 -1      1984 2.00190E+01 4.61553E-03-1.63482E-04 1.46279E-02 1.53066E-14 1.31179E-13
 -1      1985 2.00053E+01 1.38248E-03 7.86613E-05 4.52911E-03 2.18078E-13 1.62214E-13
 -1      1986 2.00080E+01 1.77739E-03 1.89669E-04 5.60217E-03 1.21110E-13 1.54098E-13
 -1      1987 2.00111E+01 2.97308E-03-1.18360E-04 9.15714E-03 1.30326E-13-5.64718E-14
 -1      1988 2.00017E+01 8.92705E-04 5.60704E-05 2.58809E-03 1.95190E-13 2.68663E-13
 -1      1989 2.00033E+01 1.15172E-03 1.22727E-04 3.28555E-03 3.30443E-13 2.73170E-13
 -1      1990 2.00059E+01 1.91645E-03-8.50271E-05 5.56009E-03 1.75983E-13-4.66822E-14
 -1      1991 1.99994E+01 5.69450E-04 3.98562E-05 1.32853E-03 2.10073E-13 1.82635E-13
 -1      1992 2.00003E+01 7.41113E-04 7.91360E-05 1.77821E-03 1.20805E-13 3.07070E-13
 -1      1993 2.00025E+01 1.22859E-03-6.05958E-05 3.19711E-03 2.36337E-13 9.06965E-14
 -1      1994 1.99982E+01 3.54231E-04 2.81865E-05 5.22932E-04 1.49626E-13 1.19658E-13
 -1      1995 1.99986E+01 4.68853E-04 5.05191E-05 8.07574E-04 2.99693E-13 2.26342E-13
 -1      1996 2.00004E+01 7.75922E-04-4.27800E-05 1.65529E-03 2.95402E-13 1.59193E-13
 -1      1997 1.99975E+01 2.10345E-04 1.97708E-05 2.18068E-05-3.25888E-13 1.38512E-13
 -1      1998 1.99977E+01 2.87080E-04 3.16067E-05 1.95855E-04 1.03803E-13 8.79983E-14
 -1      1999 1.99991E+01 4.75644E-04-2.98417E-05 6.64622E-04 8.16144E-14 1.80696E-13
 -1      2000 1.99973E+01 1.14391E-04 1.36996E-05-2.74735E-04-4.14486E-13 3.25534E-13
 -1      2001 1.99973E+01 1.65542E-04 1.90633E-05-1.74819E-04-5.87370E-13 6.06519E-15
 -1      2002 1.99984E+01 2.75856E-04-2.04874E-05 4.58904E-05-3.29504E-13 6.29760E-14
 -1      2003 1.99973E+01 5.11368E-05 9.32853E-06-4.34488E-04-1.48102E-14 6.05573E-13
 -1      2004 1.99972E+01 8.47721E-05 1.07558E-05-3.83895E-04-2.04792E-13 4.32637E-13
 -1      2005 1.99980E+01 1.43483E-04-1.37641E-05-3.21727E-04-4.92783E-13 1.19654E-14
 -1      2006 1.99975E+01 1.04336E-05 6.19746E-06-5.04059E-04 2.72683E-13 6.71665E-13
 -1      2007 1.99973E+01 3.19669E-05 5.30115E-06-4.85700E-04 1.79725E-13 6.86897E-13
 -1      2008 1.99980E+01 5.70041E-05-8.97131E-06-5.20852E-04 4.17014E-14 4.93535E-13
 -1      2009 1.99977E+01-1.46497E-05 3.97401E-06-5.15750E-04-8.81254E-14 5.76450E-13
 -1      2010 1.99975E+01-1.49971E-06 1.78639E-06-5.17774E-04 1.66262E-13 5.46355E-13
 -1      2011 1.99980E+01 2.08086E-06-5.59334E-06-6.08624E-04 2.92291E-13 5.42125E-13
 -1      2012 1.99980E+01-2.89507E-05 2.41555E-06-4.91985E-04-8.48206E-14 3.16353E-13
 -1      2013 1.99978E+01-2.15775E-05-4.02332E-07-5.06174E-04-1.65799E-13 4.48997E-13
 -1      2014 1.99982E+01-3.10761E-05-3.24946E-06-6.24804E-04 1.11235E-13 2.50142E-13
 -1      2015 1.99983E+01-3.59040E-05 1.34307E-06-4.48241E-04 1.98048E-13 2.42013E-13
 -1      2016 1.99981E+01-3.24527E-05-1.68566E-06-4.68947E-04 5.08723E-14 2.57862E-13
 -1      2017 1.99984E+01-4.92947E-05-1.65754E-06-5.97069E-04 3.87662E-14-4.43659E-15
 -1      2018 1.99986E+01-3.79748E-05 6.23278E-07-3.95030E-04 1.07836E-13 2.28531E-13
 -1      2019 1.99984E+01-3.71132E-05-2.35647E-06-4.18446E-04 1.72756E-13 3.12565E-13
 -1      2020 1.99986E+01-5.74164E-05-6.07927E-07-5.44537E-04 8.98994E-14 1.54456E-13
 -1      2021 1.99988E+01-3.69395E-05 1.56115E-07-3.39298E-04 1.70199E-13 1.69040E-13
 -1      2022 1.99987E+01-3.77085E-05-2.62106E-06-3.62944E-04 1.63888E-13 2.80349E-13
 -1      2023 1.99988E+01-5.89085E-05 5.52411E-08-4.80199E-04 1.55821E-13-4.05398E-14
 -1      2024 1.99990E+01-3.40783E-05-1.34227E-07-2.85416E-04 2.10508E-13 3.21837E-13
 -1      2025 1.99989E+01-3.57877E-05-2.62552E-06-3.07769E-04 3.10030E-13 3.23410E-13
 -1      2026 1.99990E+01-5.62635E-05 4.47632E-07-4.12623E-04 1.97149E-13-1.10808E-13
 -1      2027 1.99992E+01-3.03124E-05-3.05958E-07-2.35898E-04-2.00842E-13 3.77995E-13
 -1      2028 1.99991E+01-3.24660E-05-2.47316E-06-2.56127E-04 1.04898E-15 3.97306E-13
 -1      2029 1.99992E+01-5.12731E-05 6.54611E-07-3.47185E-04 1.22467E-15 2.74013E-13
 -1      2030 1.99993E+01-2.63064E-05-4.04540E-07-1.91921E-04 9.68884E-15 3.82543E-13
 -1      2031 1.99993E+01-2.85467E-05-2.23671E-06-2.09694E-04-7.87624E-14 4.23575E-13
 -1      2032 1.99993E+01-4.52248E-05 7.38432E-07-2.86958E-04-1.68323E-13 3.38056E-13
 -1      2033 1.99995E+01-2.25451E-05-4.63736E-07-1.53693E-04 2.32635E-13-7.32348E-14
 -1      2034 1.99994E+01-2.46120E-05-1.96660E-06-1.69045E-04-7.69456E-14 7.09780E-14
 -1      2035 1.99994E+01-3.90466E-05 7.43897E-07-2.33351E-04 1.21431E-13 1.60232E-13
 -1      2036 1.99996E+01-1.93977E-05-5.02377E-07-1.20718E-04 3.75184E-13-1.81912E-13
 -1      2037 1.99995E+01-2.10903E-05-1.69061E-06-1.33955E-04 5.31122E-13-2.66351E-14
 -1      2038 1.99995E+01-3.34196E-05 7.04783E-07-1.86576E-04 3.21105E-13-1.58369E-13
 -1      2039 1.99997E+01-1.71777E-05-5.24684E-07-9.19667E-05 1.56202E-13-3.74957E-13
 -1      2040 1.99996E+01-1.83269E-05-1.41746E-06-1.03620E-04 2.38698E-13-1.58366E-13
 -1      2041 1.99996E+01-2.88599E-05 6.52339E-07-1.45988E-04 3.24343E-13-1.21198E-13
 -1      2042 1.99997E+01-1.61711E-05-5.64556E-07-6.60721E-05-8.98094E-14-4.81920E-13
 -1      2043 1.99997E+01-1.66113E-05-1.13975E-06-7.68038E-05 3.53472E-14-4.61303E-13
 -1      2044 1.99997E+01-2.58348E-05 5.75301E-07-1.10340E-04 2.02367E-13-3.53140E-13
 -1      2045 1.99998E+01-1.57612E-05-4.74463E-07-4.16006E-05 1.57472E-14-4.34643E-13
 -1      2046 1.99997E+01-1.58292E-05-7.36975E-07-5.18699E-05-3.87139E-14-4.79230E-13
 -1      2047 1.99997E+01-2.48250E-05 4.11507E-07-7.81049E-05-1.36890E-13-5.07534E-13
 -1      2048 1.99998E+01-1.45736E-05-5.56978E-07-2.01939E-05-2.94366E-13-3.72174E-13
 -1      2049 1.99998E+01-1.53180E-05-5.97389E-07-2.97366E-05-1.90283E-13-3.61110E-13
 -1      2050 1.99998E+01-2.36640E-05 3.44679E-07-4.87001E-05-1.82486E-13-6.03471E-13
 -1      2051 1.99998E+01-2.05974E-05-1.65429E-07-2.53313E-05-3.82769E-13-4.05843E-13
 -1      2052 1.99998E+01-1.19183E-04 2.73246E-07-6.57459E-05-3.71128E-13-2.48842E-13
 -1      2053 1.99998E+01-9.81925E-05-4.49370E-07-6.35550E-05-3.53707E-13 4.22292E-14
 -1      2054 1.99998E+01-7.82939E-05 7.24837E-08-5.81272E-05-3.00569E-13-8.27859E-14
 -1      2055 1.99998E+01-5.98338E-05-6.13314E-07-5.17184E-05-3.45087E-13-1.87598E-13
 -1      2056 1.99998E+01-9.07733E-05 1.00615E-07-7.84983E-05-2.70039E-13-2.01692E-14
 -1      2057 1.99998E+01-3.45675E-05-5.06728E-08-3.56697E-05-4.63891E-13-3.18973E-13
 -1      2058 1.99998E+01-1.58831E-04 5.02670E-07-6.29785E-05-3.07816E-13-4.52537E-13
 -1      2059 1.99998E+01-1.38468E-04-1.18275E-07-6.52878E-05-2.63502E-13-3.01810E-13
 -1      2060 1.99998E+01-1.29832E-04-1.45530E-07-8.35747E-05-1.65207E-13-2.14628E-13
 -1      2061 1.99998E+01-1.93411E-04 6.90034E-07-5.06548E-05-1.27633E-13 1.65808E-13
 -1      2062 1.99998E+01-1.76068E-04 2.03335E-07-5.69950E-05-1.63006E-13 1.59673E-13
 -1      2063 1.99998E+01-1.66349E-04-4.12133E-07-7.61279E-05 1.19604E-13-1.56474E-13
 -1      2064 1.99998E+01-2.17615E-04 7.93900E-07-3.10045E-05-1.97653E-13-2.60035E-13
 -1      2065 1.99998E+01-2.06134E-04 4.93342E-07-4.02351E-05-1.47104E-13-4.18610E-14
 -1      2066 1.99998E+01-1.96320E-04-6.11829E-07-5.75206E-05 3.80383E-14-5.58955E-14
 -1      2067 1.99998E+01-2.28336E-04 7.97717E-07-7.03148E-06-3.17866E-13 1.26045E-14
 -1      2068 1.99998E+01-2.24340E-04 6.99441E-07-1.77649E-05-1.67482E-13-2.21300E-13
 -1      2069 1.99998E+01-2.15803E-04-7.41151E-07-3.08193E-05-7.23249E-14-1.60998E-13
 -1      2070 1.99998E+01-2.24221E-04 6.95207E-07 1.78886E-05-1.38579E-13 1.56450E-13
 -1      2071 1.99998E+01-2.28269E-04 8.00855E-07 7.16542E-06-2.40808E-13 2.43363E-13
 -1      2072 1.99998E+01-2.22476E-04-7.84946E-07 1.08008E-07-1.49163E-14 2.27786E-14
 -1      2073 1.99998E+01-2.05849E-04 4.96511E-07 4.03065E-05-3.68020E-13-2.30226E-13
 -1      2074 1.99998E+01-2.17384E-04 7.88868E-07 3.11040E-05-1.20898E-13-6.25059E-14
 -1      2075 1.99998E+01-2.15551E-04-7.36035E-07 3.10033E-05-2.34122E-14 1.03486E-13
 -1      2076 1.99998E+01-1.76285E-04 2.09367E-07 5.67865E-05-2.50498E-13-2.11283E-15
 -1      2077 1.99998E+01-1.93315E-04 6.84977E-07 5.05418E-05-2.11033E-13-2.24860E-13
 -1      2078 1.99998E+01-1.96100E-04-6.15065E-07 5.74521E-05 9.84897E-14-1.33718E-13
 -1      2079 1.99998E+01-1.38425E-04-1.17908E-07 6.52409E-05-2.57594E-13 4.17211E-13
 -1      2080 1.99998E+01-1.59110E-04 5.04854E-07 6.28481E-05-2.92615E-13 4.73213E-13
 -1      2081 1.99998E+01-1.66385E-04-4.04507E-07 7.59171E-05 2.11586E-13 2.05499E-13
 -1      2082 1.99998E+01-9.77159E-05-4.11664E-07 6.35389E-05-8.32372E-14 2.92341E-13
 -1      2083 1.99998E+01-1.18810E-04 2.85294E-07 6.57853E-05-2.18055E-13 1.95427E-13
 -1      2084 1.99998E+01-1.29630E-04-1.53693E-07 8.35298E-05 9.78757E-15 3.88210E-13
 -1      2085 1.99998E+01-5.82133E-05-1.61391E-07 5.13682E-05-2.28210E-13 3.72472E-13
 -1      2086 1.99998E+01-7.78245E-05 7.42981E-08 5.82328E-05-2.10526E-13 1.44097E-13
 -1      2087 1.99998E+01-9.05459E-05 1.75688E-08 7.84443E-05-2.39016E-13 9.16547E-14
 -1      2088 9.16996E+00-6.44123E+00-3.06739E-01 5.10645E+00 6.16840E-13 9.76441E-14
 -1      2089 5.33870E+00-7.28822E+00-4.57460E-01 3.64413E+00 6.11511E-13 4.45199E-14
 -1      2090-1.35946E-01-7.12560E+00-3.59640E-01-1.39291E+00 4.98577E-13 3.08253E-13
 -1      2091 3.45459E-01-6.92665E+00-3.30750E-01-2.82108E+00 4.25326E-13 3.13194E-13
 -1      2092 1.67105E+00-7.34377E+00-4.10030E-01 2.01037E+00 6.17728E-13 2.54796E-14
 -1      2093 1.39437E-01-7.77504E+00-4.75328E-01 4.97714E-01 5.66006E-13 1.65645E-13
 -1      2094 1.93570E+01-6.00717E+00-3.03468E-01 5.53524E+00 5.05151E-13 4.69125E-13
 -1      2095 1.34118E+01-6.94252E+00-5.41086E-01 4.83504E+00 6.09957E-13 3.30729E-13
 -1      2096 3.21790E+01-4.87973E+00-7.36076E-02 2.78666E+00 4.87277E-13 5.20028E-13
 -1      2097 2.55532E+01-5.99907E+00-3.44196E-01 3.54113E+00 4.64351E-13 4.55247E-13
 -1      2098 2.10875E+01 3.92957E+00-2.58927E-02-2.54975E+00 2.02571E-13-4.59292E-13
 -1      2099 2.07131E+01 3.88522E+00-3.87562E-02-2.86386E+00 1.74840E-13-5.27384E-13
 -1      2100 2.08151E+01 3.22039E+00-5.34494E-03-2.87239E+00 1.37218E-13-5.26426E-13
 -1      2101 2.15851E+01 3.34904E+00-4.46929E-03-2.41991E+00 2.08656E-13-4.15879E-13
 -1      2102 4.09720E+01 9.41373E-01-5.46918E-02-2.86901E+00 3.85636E-13 1.05183E-12
 -1      2103 4.38944E+01 3.84075E+00 3.77755E-01 2.88110E+00-1.12577E-13 1.14420E-12
 -1      2104 4.16681E+01-2.76604E-01 1.47162E-01 1.30155E+00-3.02626E-13 8.27116E-13
 -1      2105 4.60591E+01 1.76888E+00 5.84407E-01 2.22341E+00-2.68230E-13 9.03499E-13
 -1      2106 3.33762E+01-4.30572E+00-2.38590E-01-8.47747E-01-3.19522E-13 6.59583E-13
 -1      2107 3.97624E+01-2.31811E+00 2.50404E-01-5.94331E-01-2.84994E-13 7.14206E-13
 -1      2108 3.97602E+01-1.93327E+00 2.20814E-01 3.66869E+00-3.16913E-13 1.06237E-12
 -1      2109 2.05697E+01-6.32578E+00-5.31249E-01-4.01977E+00-3.85247E-13 2.83773E-13
 -1      2110 2.78513E+01-5.39382E+00-2.01405E-01-3.95123E+00-3.64153E-13 4.05231E-13
 -1      2111 9.30507E+00-6.72555E+00-6.60997E-01-3.71419E+00-3.22520E-13 1.14048E-13
 -1      2112 1.47608E+01-5.83843E+00-3.98874E-01-4.99519E+00-3.46723E-13 1.46036E-13
 -1      2113 2.75267E+00-5.84097E+00-4.69656E-01-1.72752E+00-1.95954E-13 9.81437E-14
 -1      2114 5.67663E+00-5.73404E+00-4.19948E-01-3.16185E+00-2.40030E-13 9.20930E-14
 -1      2115-4.20469E-01-5.50649E+00-4.18111E-01 1.70379E+00-1.38584E-13 6.91669E-14
 -1      2116 2.65962E-01-5.43523E+00-3.90197E-01 1.87787E-01-1.54154E-13 8.56537E-14
 -1      2117 1.16097E+00-3.65973E+00-2.09755E-01 4.69975E+00-9.60343E-15 1.01474E-13
 -1      2118-4.36988E-02-5.28276E+00-4.00173E-01 3.28571E+00-8.57370E-14 7.36633E-14
 -1      2119 6.82825E+00-2.38596E+00-1.06191E-01 7.26191E+00 5.61773E-14 2.15133E-13
 -1      2120 4.11715E+00-3.59261E+00-2.40464E-01 6.24882E+00 4.53526E-14 1.63425E-13
 -1      2121 1.35136E+01-8.61914E-01-6.98494E-02 8.47739E+00 6.67244E-14 3.13694E-13
 -1      2122 9.53873E+00-2.69370E+00-3.14334E-01 7.39954E+00 4.08562E-14 2.38223E-13
 -1      2123 1.02372E+01-2.03772E+00-6.22931E-02 8.36734E+00 1.92402E-13 3.13305E-13
 -1      2124 2.35345E+01 2.22634E-01-6.70265E-02 8.06415E+00 5.41234E-14 4.87499E-13
 -1      2125 1.81918E+01-8.35406E-01-2.22586E-01 7.86982E+00 2.85327E-14 4.02622E-13
 -1      2126 3.32552E+01 3.66509E+00 2.79406E-01 7.01326E+00 6.85563E-15 5.92859E-13
 -1      2127 2.82888E+01 1.94747E+00 2.92887E-03 6.88879E+00 1.66256E-14 5.10925E-13
 -1      2128 3.95040E+01 5.53121E+00 2.54394E-01 4.29140E+00-2.96707E-14 6.69187E-13
 -1      2129 3.55780E+01 4.60605E+00 4.91388E-02 5.24181E+00-4.36734E-14 6.03739E-13
 -1      2130 4.18073E+01 7.65913E+00 1.93064E-01 1.16146E+00-7.19425E-14 5.83977E-13
 -1      2131 4.09305E+01 6.85126E+00 2.62819E-01 3.03932E+00-4.86833E-14 6.54699E-13
 -1      2132 3.72052E+01 6.34633E+00 2.62753E-01 1.06103E+00-1.08746E-13 4.60187E-13
 -1      2133 4.37385E+01 8.29967E+00 3.87785E-01-9.21110E-01 1.27121E-14 5.72278E-13
 -1      2134 4.20429E+01 8.50324E+00 1.41762E-01 4.61057E-01-1.15463E-14 5.27009E-13
 -1      2135 4.19070E+01 7.29047E+00 2.59826E-01-2.95736E+00 3.10307E-14 4.90219E-13
 -1      2136 4.36885E+01 7.64843E+00 3.15038E-01-1.61403E+00 3.38618E-14 5.47673E-13
 -1      2137 3.88301E+01 9.27422E+00 3.11940E-01-3.48210E-01 8.07132E-14 2.78874E-13
 -1      2138 3.73462E+01 4.84895E+00 1.34032E-01-5.07833E+00 2.85882E-14 4.20108E-13
 -1      2139 4.09069E+01 5.90377E+00 3.67364E-01-4.17638E+00 1.41553E-14 4.90830E-13
 -1      2140 3.07528E+01 1.80434E+00-7.16471E-03-6.63190E+00 5.35127E-14 3.11196E-13
 -1      2141 3.52806E+01 3.32876E+00 2.97377E-01-6.37113E+00 2.96152E-14 3.64930E-13
 -1      2142 2.26696E+01-1.26901E+00-1.68941E-01-7.64849E+00-1.84297E-14 2.20601E-13
 -1      2143 2.75886E+01 6.34540E-01 1.78352E-01-8.03859E+00-1.12688E-14 2.78444E-13
 -1      2144 1.42326E+01-4.15075E+00-3.13638E-01-7.59995E+00 1.17240E-13 3.76588E-13
 -1      2145 1.88254E+01-2.01033E+00 3.17966E-02-8.52044E+00-7.88258E-15 3.38174E-13
 -1      2146 6.82001E+00-6.32370E+00-3.98909E-01-6.50240E+00 2.60125E-13 4.63740E-13
 -1      2147 1.04138E+01-4.34692E+00-1.19765E-01-7.72473E+00 1.15352E-13 4.45782E-13
 -1      2148 1.43379E+00-7.43188E+00-4.13478E-01-4.15007E+00 4.58633E-13 4.07396E-13
 -1      2149 3.33775E+00-6.15043E+00-2.79730E-01-5.44838E+00 2.62679E-13 4.63296E-13
 -1      2150 2.06257E+00-4.36702E+00-1.81339E-01-4.07031E+00 1.81799E-13 4.45088E-13
 -1      2151 1.94551E+01 1.19060E+00-2.03857E-02-2.35577E+00-6.42542E-14-6.89754E-13
 -1      2152 3.80157E+01-3.66726E-01 1.46220E-01-4.98928E+00 3.15414E-13 1.12149E-12
 -1      2153 4.20111E+01-7.23977E-01 2.94270E-01-8.30413E-01 4.31943E-13 8.09242E-13
 -1      2154 1.97198E+01 1.41781E+00-1.62892E-02-2.54814E+00-5.08205E-14-5.82770E-13
 -1      2155 3.22305E+00-3.04722E+00-2.21923E-01-1.62011E+00-3.72757E-14 8.47100E-14
 -1      2156 3.24073E+01-5.54623E+00-3.51813E-02-1.05119E+00-3.32623E-13 6.26832E-13
 -1      2157 3.37172E+01-3.35752E+00 4.81733E-02 5.18780E-01-2.21906E-13 1.06713E-12
 -1      2158 3.30488E+01-2.56616E+00 1.70632E-01-1.19848E+00-1.76470E-13 9.76032E-13
 -1      2159 3.73289E+01-2.05087E+00-7.29601E-02 4.32693E+00-3.10876E-13 1.24142E-12
 -1      2160 3.68381E+01-3.61275E+00 5.16631E-02 2.57087E+00-2.41918E-13 1.14381E-12
 -1      2161 3.96052E+01 2.24633E+00 2.21032E-01 4.71008E+00-2.13940E-13 1.39544E-12
 -1      2162 3.92836E+01-8.46732E-01-7.06545E-02 5.50116E+00-3.48721E-13 1.35264E-12
 -1      2163 3.75081E+01-2.74161E+00 6.93184E-03-4.02365E+00 3.17024E-13 9.62924E-13
 -1      2164 1.99998E+01-4.63153E-05 3.81988E-08-5.56738E-05-2.26770E-13-2.75196E-13
 -1      2165 1.21816E+00-4.47662E+00-2.09767E-01-1.53275E-01 2.68272E-13 2.43083E-13
 -1      2166 5.69042E+00-5.01807E+00-1.89405E-01 4.08948E+00 3.76921E-13 1.66533E-16
 -1      2167 1.99998E+01-4.78241E-05-2.93587E-07 4.87256E-05-1.73211E-13 3.90594E-13
 -1      2168 1.44798E+01-5.96284E+00-1.95583E-01 6.04481E+00 4.14890E-13 1.04972E-13
 -1      2169 2.97982E+01-3.29966E+00 1.88916E-02-2.36213E+00-2.17826E-13 7.39275E-13
 -1      2170 2.59741E+01-6.02992E+00 4.72618E-02 4.15679E+00 3.34233E-13 3.59102E-13
 -1      2171 6.77849E+00-4.97991E+00-1.45805E-01-7.18155E+00 1.66200E-13 5.37709E-13
 -1      2172 1.47705E+01-4.81507E+00-7.17243E-02-8.41746E+00 2.06946E-13 3.82782E-13
 -1      2173 2.30522E+01-3.32171E+00 4.48370E-02-7.60297E+00 1.32394E-13 1.58956E-13
 -1      2174 3.03709E+01-5.50419E-01 1.70053E-01-5.46329E+00 1.86268E-13 1.28952E-13
 -1      2175 3.84687E+01 6.93804E+00 3.24308E-01-1.23742E+00 1.28508E-13 2.18103E-13
 -1      2176 3.94995E+01 8.43170E+00 1.68056E-01 1.74744E-01-5.34017E-14 4.15917E-13
 -1      2177 3.54882E+01 8.18421E+00-5.59151E-02-4.18509E-01-7.96030E-14 2.51299E-13
 -1      2178 3.55756E+01 9.08453E+00-6.68370E-02-5.72849E-01-2.72005E-14 2.18610E-13
 -1      2179 3.40374E+01 3.14540E+00 2.00833E-01 3.38729E+00-8.97771E-14 5.15699E-13
 -1      2180 1.82009E+01-1.77668E+00 7.57330E-02 8.33163E+00 1.20681E-13 4.34472E-13
 -1      2181 3.98161E+00-1.78180E+00-8.30370E-02 6.41678E+00 1.75915E-13 1.94844E-13
 -1      2182 7.70659E-01-2.17897E+00-1.82961E-01 2.60657E+00 7.34274E-14 9.82547E-14
 -1      2183 1.03762E+01-4.75979E+00-2.68090E-01-4.55868E+00-1.79301E-13 9.60898E-14
 -1      2184 2.08315E+01-6.04061E+00-1.51810E-01-4.61927E+00-3.13416E-13 2.62894E-13
 -1      2185 2.66864E+01 1.86222E-01 4.18560E-02 6.57784E+00 3.41949E-14 4.85223E-13
 -1      2186 2.55184E+01-1.30311E+00 1.70407E-01 6.26025E+00 6.75848E-14 4.60965E-13
 -1      2187 2.90089E+01-4.33438E-01-2.05203E-01 4.69622E+00-1.42247E-14 4.87388E-13
 -1      2188 3.55321E+01 3.15186E+00 2.71292E-01-3.02537E+00 1.61565E-13 2.61624E-13
 -1      2189 3.56386E+01-3.04516E+00-3.00385E-01-2.80734E-01 5.07705E-13 7.19425E-13
 -1      2190 3.52635E+01-4.50834E+00 4.45932E-02-1.24143E+00 3.93935E-13 6.29718E-13
 -1      2191 3.36867E+01-4.62992E+00-5.36423E-02 2.03542E-01-3.00343E-13 8.09020E-13
 -1      2192 2.40161E+01-1.53177E+00 1.04756E-01-3.84433E+00-9.58678E-14 5.21853E-13
 -1      2193 2.31892E+01 1.52643E-01 1.54674E-01-3.82042E+00-3.06422E-14 5.27890E-13
 -1      2194 2.35103E+01 2.24992E+00-8.85640E-03-1.02621E+00 3.00197E-13-1.13312E-13
 -1      2195 2.31972E+01 2.44263E+00-4.10898E-02-1.45506E+00 2.72346E-13-1.98347E-13
 -1      2196 2.28247E+01 2.66929E+00-1.71678E-02-1.78516E+00 2.71894E-13-2.52140E-13
 -1      2197 2.23925E+01 2.78064E+00-3.47086E-02-2.09144E+00 2.52448E-13-3.20629E-13
 -1      2198 2.33530E+01 2.23954E+00 1.36759E-02-1.79436E+00 2.41811E-13-2.19900E-13
 -1      2199 2.28673E+01 1.21189E+00 1.58694E-02 1.82435E+00 3.31435E-13 1.27520E-13
 -1      2200 2.34444E+01 1.27526E+00-3.62101E-02 1.00187E+00 3.21276E-13 5.06747E-14
 -1      2201 2.03628E+01 1.25096E+00 2.75698E-03 3.88997E+00 3.82101E-13 2.55863E-13
 -1      2202 2.18573E+01 1.04428E+00 3.66298E-03 3.00790E+00 3.53462E-13 1.95314E-13
 -1      2203 2.31637E+01 3.81116E-01-1.20058E-02 2.37119E+00 2.94553E-13 1.78043E-13
 -1      2204 1.59316E+01 2.24867E+00-1.79455E-02 5.54972E+00 4.33670E-13 2.90871E-13
 -1      2205 1.83659E+01 1.70050E+00 7.48767E-02 5.03770E+00 4.20936E-13 2.61993E-13
 -1      2206 1.99992E+01 4.88802E-01 4.56841E-03 4.89625E+00 3.58522E-13 2.78541E-13
 -1      2207 1.11266E+01 3.99754E+00 5.43918E-03 5.51955E+00 4.54510E-13 3.09586E-13
 -1      2208 1.34504E+01 3.33814E+00 1.51320E-01 5.82832E+00 4.55341E-13 2.93758E-13
 -1      2209 1.49789E+01 1.76832E+00 6.22997E-02 6.51165E+00 4.21954E-13 3.14561E-13
 -1      2210 8.71293E+00 5.31914E+00 5.65135E-02 3.30235E+00 4.22953E-13 3.18023E-13
 -1      2211 9.40984E+00 4.97301E+00 1.40882E-01 4.38237E+00 4.42821E-13 2.97491E-13
 -1      2212 9.67780E+00 3.66453E+00 1.43940E-01 5.69391E+00 4.32515E-13 2.97554E-13
 -1      2213 1.14923E+01 5.01111E+00 1.14134E-01 2.07545E-03 2.99516E-13 3.66096E-13
 -1      2214 9.40467E+00 5.37597E+00 8.67792E-02 1.22215E+00 3.64330E-13 3.21937E-13
 -1      2215 7.93192E+00 4.65735E+00 1.85109E-01 2.29574E+00 3.73768E-13 2.80415E-13
 -1      2216 2.01186E+01-1.76177E-01 1.41904E-01 5.36663E+00-1.43899E-13 2.08576E-13
 -1      2217 2.11959E+01-1.92791E+00 1.31917E-01 5.37946E+00-8.35998E-14 1.75207E-13
 -1      2218 1.99422E+01 1.22239E+00 1.61185E-02 4.39996E+00-1.18131E-13 3.45144E-13
 -1      2219 2.04811E+01 6.89795E-01 8.05997E-02 4.76308E+00-1.55660E-13 2.84873E-13
 -1      2220 1.67367E+01 4.86134E-01 1.00413E-01 5.14423E+00-1.45405E-13 1.98300E-13
 -1      2221 1.96244E+01 9.57442E-01 8.95819E-03-1.91357E+00-1.77393E-14-4.83845E-13
 -1      2222 1.92775E+01 7.89507E-01 7.61398E-05-1.55826E+00-6.93889E-17-4.55901E-13
 -1      2223 2.02133E+01 2.02258E+00-2.13456E-02-2.85668E+00 1.40860E-14-5.74568E-13
 -1      2224 1.98314E+01 1.30084E+00-3.73031E-03-2.22785E+00-9.31113E-15-5.24073E-13
 -1      2225 2.02308E+01 1.49133E+00 6.91123E-03-2.26109E+00 2.88376E-14-4.46314E-13
 -1      2226 2.04695E+01 2.40389E+00-7.20629E-03-2.82806E+00 6.69300E-14-5.23241E-13
 -1      2227 1.90865E+01 6.98392E-01 1.43227E-02-1.27502E+00-6.04117E-15-4.20087E-13
 -1      2228 1.88252E+01 6.53286E-01 8.26524E-03-1.00498E+00 6.63055E-15-3.91825E-13
 -1      2229 1.97845E+01 1.00503E+00-6.98852E-04-1.63865E+00 1.42794E-14-4.00917E-13
 -1      2230 1.86424E+01 6.41664E-01 1.09814E-02-7.24573E-01-1.19596E-14-3.34623E-13
 -1      2231 1.84844E+01 6.38211E-01 9.83965E-03-4.73615E-01-1.39160E-14-3.34480E-13
 -1      2232 1.93821E+01 8.70421E-01-6.27626E-03-1.03746E+00 2.26568E-14-3.06979E-13
 -1      2233 1.83672E+01 6.35184E-01 9.83163E-03-1.86594E-01-1.50359E-14-3.08319E-13
 -1      2234 1.83111E+01 6.18320E-01 7.98889E-03 5.49522E-02 8.56390E-15-2.98430E-13
 -1      2235 1.90768E+01 8.46077E-01-9.48430E-03-4.28331E-01-2.63027E-16-2.40879E-13
 -1      2236 1.82836E+01 5.86081E-01 1.03266E-02 3.28416E-01 1.01264E-14-2.98163E-13
 -1      2237 1.83196E+01 5.30440E-01 4.29812E-03 5.41083E-01 2.15726E-14-2.93638E-13
 -1      2238 1.89300E+01 7.94392E-01-1.00088E-02 1.75730E-01 9.38843E-15-2.29927E-13
 -1      2239 1.83770E+01 4.59713E-01 1.02648E-02 7.64104E-01-7.47362E-15-2.89131E-13
 -1      2240 1.84863E+01 3.68417E-01 4.55385E-04 9.20826E-01-3.91657E-15-2.99921E-13
 -1      2241 1.89550E+01 6.52007E-01-7.81277E-03 7.10441E-01 1.09592E-14-2.17925E-13
 -1      2242 1.86004E+01 2.72558E-01 8.43750E-03 1.06224E+00 1.16448E-14-2.89561E-13
 -1      2243 1.87572E+01 1.67076E-01-2.14447E-03 1.14552E+00 3.60356E-15-2.85690E-13
 -1      2244 1.91175E+01 4.23797E-01-4.10323E-03 1.10082E+00 1.11293E-14-2.48639E-13
 -1      2245 1.88905E+01 6.99116E-02 4.97867E-03 1.19480E+00-2.79363E-14-2.72715E-13
 -1      2246 1.90672E+01-2.42073E-02-3.00839E-03 1.20465E+00-1.01247E-14-2.80348E-13
 -1      2247 1.93536E+01 1.60451E-01-3.21406E-04 1.30230E+00 6.66277E-15-1.78821E-13
 -1      2248 1.91876E+01-1.01519E-01 9.36057E-04 1.17419E+00 1.05364E-14-2.82657E-13
 -1      2249 1.93604E+01-1.66935E-01-2.55070E-03 1.12611E+00 3.47817E-14-2.83142E-13
 -1      2250 1.95964E+01-7.70824E-02 2.09839E-03 1.31886E+00-1.43380E-14-1.62617E-13
 -1      2251 1.94508E+01-2.14091E-01-2.51539E-03 1.04235E+00 7.55609E-14-2.74013E-13
 -1      2252 1.96032E+01-2.46032E-01-1.49521E-03 9.59194E-01 7.63563E-14-2.57073E-13
 -1      2253 1.97995E+01-2.45558E-01 2.92205E-03 1.19465E+00 6.55775E-14-1.22168E-13
 -1      2254 1.96604E+01-2.63631E-01-4.71734E-03 8.50877E-01 8.74747E-14-2.08067E-13
 -1      2255 1.97844E+01-2.67139E-01-4.28267E-04 7.54766E-01 1.27930E-13-9.17031E-14
 -1      2256 1.99441E+01-3.31718E-01 2.65327E-03 9.89856E-01 1.06008E-13-1.06599E-13
 -1      2257 1.98137E+01-2.62480E-01-5.59956E-03 6.44954E-01 5.07986E-14-1.24744E-13
 -1      2258 1.99078E+01-2.47161E-01 3.34346E-04 5.52500E-01-2.76420E-14-1.66386E-13
 -1      2259 2.00322E+01-3.46666E-01 1.91406E-03 7.59607E-01 8.15813E-14-8.18463E-14
 -1      2260 1.99179E+01-2.29486E-01-5.46054E-03 4.55606E-01-6.17234E-14-1.76038E-13
 -1      2261 1.99847E+01-2.05025E-01 7.32938E-04 3.76543E-01-5.22143E-14-2.46999E-13
 -1      2262 2.00763E+01-3.13368E-01 1.15710E-03 5.42921E-01-5.79847E-14-1.15840E-13
 -1      2263 1.99835E+01-1.82317E-01-4.71345E-03 2.99027E-01-6.12141E-14-2.45230E-13
 -1      2264 2.00279E+01-1.56062E-01 8.42469E-04 2.37173E-01-4.96398E-14-2.46710E-13
 -1      2265 2.00915E+01-2.55668E-01 5.85045E-04 3.60995E-01-5.93165E-14-1.25638E-13
 -1      2266 2.00213E+01-1.33744E-01-3.71984E-03 1.79870E-01-5.50595E-14-2.83950E-13
 -1      2267 2.00486E+01-1.10125E-01 7.76056E-04 1.35008E-01-2.74688E-15-2.81747E-13
 -1      2268 2.00900E+01-1.92045E-01 2.26624E-04 2.20857E-01-8.61795E-14-1.66732E-13
 -1      2269 2.00401E+01-9.11012E-02-2.72569E-03 9.55756E-02 2.18636E-14-3.34744E-13
 -1      2270 2.00551E+01-7.20984E-02 6.30985E-04 6.52983E-02 5.64240E-15-3.40388E-13
 -1      2271 2.00804E+01-1.33919E-01 3.45067E-05 1.20543E-01-2.15025E-14-2.27407E-13
 -1      2272 2.00467E+01-5.73932E-02-1.86445E-03 4.00941E-02-6.11333E-15-3.12124E-13
 -1      2273 2.00534E+01-4.33445E-02 4.71180E-04 2.11895E-02 2.58256E-14-2.88242E-13
 -1      2274 2.00679E+01-8.66206E-02-5.22985E-05 5.36212E-02 1.43493E-14-2.87656E-13
 -1      2275 2.00460E+01-3.28365E-02-1.18660E-03 6.44921E-03 5.00575E-14-2.60798E-13
 -1      2276 2.00476E+01-2.31860E-02 3.29828E-04-4.24290E-03-9.14329E-15-1.89384E-13
 -1      2277 2.00553E+01-5.13117E-02-8.24000E-05 1.23128E-02 2.70467E-14-2.10857E-13
 -1      2278 2.00414E+01-1.62006E-02-6.91680E-04-1.18022E-02-7.28291E-14-1.38651E-13
 -1      2279 2.00400E+01-1.00380E-02 2.19105E-04-1.69655E-02-5.03050E-14-1.77028E-13
 -1      2280 2.00439E+01-2.68280E-02-8.64601E-05-1.07185E-02 9.37846E-15-4.74562E-14
 -1      2281 2.00350E+01-5.73709E-03-3.53746E-04-1.99260E-02-4.44130E-14-1.31208E-13
 -1      2282 2.00321E+01-2.12138E-03 1.39244E-04-2.16304E-02 6.07498E-14-1.35560E-13
 -1      2283 2.00341E+01-1.10322E-02-8.07796E-05-2.15527E-02-1.35381E-14-8.11238E-14
 -1      2284 2.00282E+01 2.82537E-04-1.38227E-04-2.18745E-02 1.48567E-13-1.33089E-13
 -1      2285 2.00249E+01 2.16435E-03 8.51835E-05-2.16019E-02 1.16652E-13-8.60469E-14
 -1      2286 2.00260E+01-1.64406E-03-7.26262E-05-2.48103E-02 8.64858E-14-2.57999E-14
 -1      2287 2.00218E+01 3.31601E-03-1.14562E-05-2.04151E-02 2.56002E-14-1.07485E-13
 -1      2288 2.00185E+01 4.09551E-03 5.04762E-05-1.91582E-02-3.38469E-14-9.23992E-14
 -1      2289 2.00194E+01 3.34005E-03-6.45347E-05-2.37688E-02 3.41313E-14-1.21922E-13
 -1      2290 2.00162E+01 4.47733E-03 5.49511E-05-1.73641E-02 6.28553E-14-1.74035E-13
 -1      2291 2.00133E+01 4.60878E-03 2.92196E-05-1.57439E-02 9.57937E-14-1.40795E-13
 -1      2292 2.00142E+01 5.49547E-03-5.70153E-05-2.06126E-02 9.09682E-15-1.40721E-13
 -1      2293 2.00115E+01 4.55727E-03 8.28386E-05-1.38328E-02 1.07298E-13-4.92428E-14
 -1      2294 2.00091E+01 4.34674E-03 1.67544E-05-1.22073E-02 3.85671E-14 2.10910E-14
 -1      2295 2.00101E+01 5.96658E-03-4.99579E-05-1.67042E-02 1.52181E-13-1.87112E-13
 -1      2296 2.00078E+01 4.08226E-03 8.78987E-05-1.04433E-02-1.13205E-13 1.06097E-13
 -1      2297 2.00059E+01 3.72334E-03 9.73446E-06-8.99529E-03 8.33234E-15 1.41164E-13
 -1      2298 2.00069E+01 5.53185E-03-4.32104E-05-1.28283E-02 1.73993E-14-3.05113E-14
 -1      2299 2.00049E+01 3.38104E-03 8.07507E-05-7.49762E-03 5.26537E-14 5.86084E-14
 -1      2300 2.00035E+01 2.98768E-03 5.91817E-06-6.30039E-03 1.22192E-13 1.17931E-13
 -1      2301 2.00045E+01 4.68861E-03-3.67390E-05-9.38471E-03-6.75592E-14 4.32333E-14
 -1      2302 2.00028E+01 2.64406E-03 6.81676E-05-5.10147E-03 2.39990E-14 1.00901E-13
 -1      2303 2.00017E+01 2.27712E-03 3.89063E-06-4.16490E-03-9.95892E-14 5.97661E-15
 -1      2304 2.00027E+01 3.73326E-03-3.06160E-05-6.53286E-03 3.39419E-14-4.10363E-14
 -1      2305 2.00012E+01 1.97063E-03 5.41875E-05-3.24955E-03-1.14801E-13-4.74535E-14
 -1      2306 2.00005E+01 1.65756E-03 2.80725E-06-2.55034E-03-1.08757E-14-1.43014E-13
 -1      2307 2.00015E+01 2.82699E-03-2.49593E-05-4.29196E-03-1.72549E-13-1.02373E-13
 -1      2308 2.00002E+01 1.40333E-03 4.10087E-05-1.88081E-03 2.61507E-16-1.61020E-13
 -1      2309 1.99998E+01 1.15191E-03 2.19239E-06-1.38150E-03-3.24144E-14-1.37244E-13
 -1      2310 2.00006E+01 2.04510E-03-1.98799E-05-2.60770E-03-4.56392E-14-1.57417E-13
 -1      2311 1.99995E+01 9.51833E-04 2.96575E-05-9.12538E-04-7.38532E-14-9.82359E-14
 -1      2312 1.99993E+01 7.59239E-04 1.79556E-06-5.72535E-04-9.28835E-14-5.67429E-15
 -1      2313 2.00000E+01 1.41164E-03-1.54518E-05-1.39391E-03-6.13853E-14-7.79301E-14
 -1      2314 1.99991E+01 6.08408E-04 2.04577E-05-2.59839E-04-6.05815E-14 1.61079E-15
 -1      2315 1.99990E+01 4.66851E-04 1.49561E-06-4.12986E-05-3.69796E-14 1.94569E-14
 -1      2316 1.99996E+01 9.22576E-04-1.17019E-05-5.57156E-04-8.06519E-14-3.79768E-14
 -1      2317 1.99989E+01 3.57534E-04 1.33451E-05 1.54385E-04-7.16518E-14 4.18345E-14
 -1      2318 1.99989E+01 2.57616E-04 1.24086E-06 2.83914E-04-1.25860E-13-1.03571E-14
 -1      2319 1.99994E+01 5.60317E-04-8.61435E-06-9.93714E-06-2.54574E-14 2.91103E-14
 -1      2320 1.99989E+01 1.81502E-04 8.06684E-06 3.95204E-04-7.04525E-14 4.57947E-14
 -1      2321 1.99989E+01 1.14033E-04 1.01361E-06 4.62030E-04 1.23836E-13 9.91637E-14
 -1      2322 1.99992E+01 3.02458E-04-6.14013E-06 3.23233E-04-7.04336E-14 2.58596E-13
 -1      2323 1.99989E+01 6.34004E-05 4.30217E-06 5.14804E-04 1.92746E-14 1.67722E-13
 -1      2324 1.99989E+01 2.02659E-05 8.10534E-07 5.39350E-04 1.24395E-13 1.28344E-13
 -1      2325 1.99992E+01 1.26582E-04-4.20970E-06 5.03981E-04 1.04781E-13 3.11918E-13
 -1      2326 1.99990E+01-1.14998E-05 1.72932E-06 5.53376E-04 3.18655E-13 1.59168E-13
 -1      2327 1.99990E+01-3.70219E-05 6.32613E-07 5.50927E-04 3.29568E-13 1.28871E-13
 -1      2328 1.99992E+01 1.26269E-05-2.74367E-06 5.80536E-04 2.23171E-13 3.62729E-13
 -1      2329 1.99991E+01-5.52959E-05 5.94612E-08 5.40797E-04 2.10999E-13-6.39491E-14
 -1      2330 1.99991E+01-6.85326E-05 4.80576E-07 5.22403E-04 2.66917E-13-6.41258E-14
 -1      2331 1.99993E+01-5.61876E-05-1.66136E-06 5.89317E-04 1.85890E-13 7.33039E-14
 -1      2332 1.99992E+01-7.75152E-05-9.49849E-07 4.98528E-04 4.36303E-13-1.15255E-13
 -1      2333 1.99992E+01-8.25444E-05 3.53196E-07 4.71883E-04 1.89865E-13 9.05466E-14
 -1      2334 1.99993E+01-9.32631E-05-8.86690E-07 5.56908E-04 2.43532E-13 3.76105E-14
 -1      2335 1.99993E+01-8.54192E-05-1.49257E-06 4.41412E-04-9.60980E-14 2.27590E-13
 -1      2336 1.99993E+01-8.52772E-05 2.46964E-07 4.11645E-04-7.42718E-14 4.43354E-13
 -1      2337 1.99994E+01-1.08930E-04-3.51830E-07 5.02055E-04 2.31378E-13 1.26652E-13
 -1      2338 1.99994E+01-8.43991E-05-1.71796E-06 3.79256E-04-1.80508E-13 5.22515E-13
 -1      2339 1.99994E+01-8.12976E-05 1.56440E-07 3.49579E-04-3.53850E-13 4.99374E-13
 -1      2340 1.99995E+01-1.10929E-04 9.76118E-10 4.37438E-04-6.49381E-14 5.38882E-13
 -1      2341 1.99995E+01-7.83779E-05-1.73670E-06 3.18118E-04-3.86842E-13 4.57191E-13
 -1      2342 1.99995E+01-7.39046E-05 7.49700E-08 2.90341E-04-3.24328E-14 4.04436E-13
 -1      2343 1.99995E+01-1.04938E-04 2.18928E-07 3.71180E-04-3.90877E-13 4.97584E-13
 -1      2344 1.99995E+01-7.01765E-05-1.62851E-06 2.61329E-04 2.75210E-13 3.77889E-13
 -1      2345 1.99996E+01-6.54653E-05-4.53644E-09 2.36253E-04 2.83008E-13 3.23686E-13
 -1      2346 1.99996E+01-9.50526E-05 3.38816E-07 3.08045E-04 4.49258E-14 3.59398E-13
 -1      2347 1.99996E+01-6.18190E-05-1.44811E-06 2.10260E-04-4.31471E-14 1.89221E-13
 -1      2348 1.99996E+01-5.76735E-05-8.45934E-08 1.87972E-04-9.27787E-14 4.43946E-14
 -1      2349 1.99996E+01-8.42099E-05 3.85491E-07 2.50384E-04 2.87758E-14 1.37197E-13
 -1      2350 1.99997E+01-5.47226E-05-1.22732E-06 1.64917E-04 6.62664E-14 2.78343E-14
 -1      2351 1.99997E+01-5.16892E-05-1.69550E-07 1.45056E-04-1.70624E-13 7.36398E-14
 -1      2352 1.99997E+01-7.44647E-05 3.80761E-07 1.98834E-04-1.13309E-13 1.06456E-13
 -1      2353 1.99997E+01-4.97418E-05-9.68025E-07 1.24439E-04-2.40850E-13 3.14174E-13
 -1      2354 1.99997E+01-4.81633E-05-3.62821E-07 1.06433E-04-6.20688E-14 4.87568E-13
 -1      2355 1.99997E+01-6.71966E-05 3.24884E-07 1.52948E-04-1.58749E-14 3.78710E-13
 -1      2356 2.91336E+01-5.35881E+00 4.77684E-02-2.37418E+00-2.98706E-13 5.69406E-13
 -1      2357 2.33844E+01-4.36647E+00 1.45243E-01 5.03989E+00 1.91291E-13 2.63149E-13
 -1      2358 2.01828E+01 1.44319E+00-1.66337E-02 3.29713E+00-2.95783E-14 3.75539E-13
 -1      2359 2.05129E+01 1.44415E+00 4.35986E-02 3.78803E+00-4.29470E-14 4.52837E-13
 -1      2360 1.78481E+01 1.79551E+00 6.40895E-02 3.97576E+00-1.31844E-13 3.20237E-13
 -1      2361 2.03776E+01 1.19618E+00-1.79693E-02 2.35605E+00 8.06091E-14 2.85007E-13
 -1      2362 2.06348E+01 1.35552E+00 2.69617E-02 2.80320E+00 2.77139E-14 3.34505E-13
 -1      2363 1.88576E+01 1.84676E+00 3.99801E-02 2.96591E+00 2.63409E-14 3.83503E-13
 -1      2364 2.04425E+01 8.69651E-01-1.25588E-02 1.62956E+00 8.55253E-14 2.21550E-13
 -1      2365 2.06597E+01 1.04052E+00 2.20376E-02 1.97763E+00 9.34357E-14 2.44384E-13
 -1      2366 1.95227E+01 1.48262E+00 2.63246E-02 2.14524E+00 1.33788E-13 2.13352E-13
 -1      2367 2.04197E+01 5.93073E-01-7.58731E-03 1.10157E+00 9.05938E-14 1.53694E-13
 -1      2368 2.05963E+01 7.30310E-01 1.83143E-02 1.35115E+00 9.57116E-14 1.87131E-13
 -1      2369 1.98883E+01 1.06918E+00 1.59773E-02 1.50876E+00 8.78455E-14 4.59001E-14
 -1      2370 2.03564E+01 3.90792E-01-4.33378E-03 7.33906E-01 1.17294E-13 2.38876E-13
 -1      2371 2.04924E+01 4.88941E-01 1.40754E-02 9.04669E-01 1.15277E-13 2.38391E-13
 -1      2372 2.00627E+01 7.28409E-01 9.07590E-03 1.03907E+00 8.60984E-14 1.56315E-13
 -1      2373 2.02832E+01 2.52753E-01-2.40462E-03 4.84701E-01 1.99917E-13 2.46843E-13
 -1      2374 2.03838E+01 3.19064E-01 1.01735E-02 5.98363E-01 1.17382E-13 2.26785E-13
 -1      2375 2.01282E+01 4.80908E-01 4.76079E-03 7.05113E-01 1.28553E-13 1.58374E-13
 -1      2376 2.02156E+01 1.61912E-01-1.29832E-03 3.18640E-01 3.67918E-14 3.69343E-13
 -1      2377 2.02879E+01 2.05358E-01 7.05852E-03 3.93107E-01 1.55507E-13 3.70499E-13
 -1      2378 2.01385E+01 3.11979E-01 2.26115E-03 4.73861E-01 1.06675E-13 1.97780E-13
 -1      2379 2.01593E+01 1.03308E-01-6.74121E-04 2.09103E-01 5.07118E-14 2.23077E-13
 -1      2380 2.02103E+01 1.31290E-01 4.77446E-03 2.57483E-01 6.77122E-14 3.53610E-13
 -1      2381 2.01246E+01 2.00514E-01 9.15918E-04 3.16625E-01 6.89377E-14 3.02159E-13
 -1      2382 2.01151E+01 6.59041E-02-3.28415E-04 1.37225E-01 1.54615E-13 1.65755E-13
 -1      2383 2.01506E+01 8.37596E-02 3.18119E-03 1.68550E-01 9.13473E-14 1.83308E-13
 -1      2384 2.01025E+01 1.28362E-01 2.44269E-04 2.10957E-01 1.10060E-13 2.79984E-13
 -1      2385 2.00816E+01 4.21532E-02-1.42013E-04 9.01245E-02-2.33499E-14 2.40742E-13
 -1      2386 2.01061E+01 5.34987E-02 2.10205E-03 1.10410E-01 6.50970E-14 2.53941E-13
 -1      2387 2.00800E+01 8.21507E-02-6.01777E-05 1.40408E-01 7.62298E-14 1.60368E-13
 -1      2388 2.00569E+01 2.70878E-02-4.55323E-05 5.92162E-02 5.38915E-14 2.02203E-13
 -1      2389 2.00736E+01 3.42934E-02 1.38375E-03 7.23900E-02 3.91618E-14 2.62488E-13
 -1      2390 2.00601E+01 5.27067E-02-1.75888E-04 9.34257E-02-1.36084E-14 2.57426E-13
 -1      2391 2.00388E+01 1.75112E-02 1.23536E-06 3.88628E-02-1.52913E-13 8.58420E-14
 -1      2392 2.00503E+01 2.20994E-02 9.10314E-04 4.74571E-02-7.60323E-14 1.95451E-13
 -1      2393 2.00439E+01 3.39677E-02-2.00748E-04 6.21237E-02 5.90818E-14 1.95446E-13
 -1      2394 2.00259E+01 1.13933E-02 2.12323E-05 2.53973E-02-3.46881E-14 1.22396E-13
 -1      2395 2.00337E+01 1.43305E-02 5.99750E-04 3.10348E-02-1.00535E-13 1.14374E-13
 -1      2396 2.00312E+01 2.20164E-02-1.86018E-04 4.12158E-02-1.02217E-13 5.74118E-14
 -1      2397 2.00168E+01 7.45541E-03 2.74016E-05 1.64453E-02 7.11095E-14 2.54036E-14
 -1      2398 2.00220E+01 9.35032E-03 3.96217E-04 2.01631E-02 6.72849E-14 8.53720E-14
 -1      2399 2.00217E+01 1.43564E-02-1.57181E-04 2.71993E-02 1.61750E-14 6.53521E-15
 -1      2400 2.00104E+01 4.89632E-03 2.68830E-05 1.04707E-02 2.32997E-13-7.30798E-14
 -1      2401 2.00139E+01 6.13063E-03 2.62542E-04 1.29323E-02 9.41022E-14-4.40348E-14
 -1      2402 2.00146E+01 9.40997E-03-1.26160E-04 1.77674E-02 9.96182E-14-1.14939E-14
 -1      2403 2.00060E+01 3.21515E-03 2.35158E-05 6.47687E-03 7.96082E-14-1.90749E-14
 -1      2404 2.00083E+01 4.02770E-03 1.74333E-04 8.10857E-03 1.58128E-13-9.92453E-14
 -1      2405 2.00094E+01 6.18554E-03-9.79946E-05 1.14040E-02 2.21333E-13-1.31931E-13
 -1      2406 2.00030E+01 2.09865E-03 1.92854E-05 3.81308E-03 2.19362E-13 1.12429E-13
 -1      2407 2.00045E+01 2.63905E-03 1.15749E-04 4.89106E-03 1.48789E-13 1.12565E-14
 -1      2408 2.00058E+01 4.06141E-03-7.43644E-05 7.10959E-03 4.53069E-14-2.64784E-14
 -1      2409 2.00011E+01 1.35018E-03 1.51541E-05 2.05011E-03 1.90850E-13 2.59616E-13
 -1      2410 2.00020E+01 1.71259E-03 7.65552E-05 2.75526E-03 2.46013E-13 1.47915E-13
 -1      2411 2.00033E+01 2.64757E-03-5.54040E-05 4.22181E-03 8.44353E-14 1.03508E-13
 -1      2412 1.99999E+01 8.45305E-04 1.15332E-05 9.01453E-04 3.32279E-14 3.16773E-13
 -1      2413 2.00004E+01 1.08949E-03 5.01510E-05 1.35386E-03 1.80378E-13 3.39092E-13
 -1      2414 2.00016E+01 1.69834E-03-4.06165E-05 2.29720E-03 1.23078E-13 3.12179E-13
 -1      2415 1.99992E+01 5.04300E-04 8.54807E-06 1.73139E-04-2.87992E-13 2.34787E-13
 -1      2416 1.99995E+01 6.68722E-04 3.22699E-05 4.53718E-04-9.21523E-14 3.71902E-13
 -1      2417 2.00004E+01 1.05767E-03-2.93113E-05 1.03555E-03 1.83299E-14 5.17343E-13
 -1      2418 1.99988E+01 2.75217E-04 6.18494E-06-2.67930E-04-3.90992E-13 5.44432E-14
 -1      2419 1.99989E+01 3.85055E-04 2.01352E-05-1.03862E-04-5.17742E-13 3.47651E-14
 -1      2420 1.99997E+01 6.25180E-04-2.08016E-05 2.31020E-04-2.85384E-13 3.55913E-13
 -1      2421 1.99986E+01 1.23503E-04 4.36967E-06-5.14194E-04 1.35814E-14 2.87728E-13
 -1      2422 1.99986E+01 1.95590E-04 1.19211E-05-4.28366E-04-3.20031E-13 9.93569E-14
 -1      2423 1.99993E+01 3.35167E-04-1.44817E-05-2.59237E-04-3.43585E-13 8.43802E-14
 -1      2424 1.99986E+01 2.56559E-05 3.00925E-06-6.30406E-04 2.84699E-13 3.89531E-13
 -1      2425 1.99986E+01 7.14921E-05 6.40969E-06-5.96113E-04 2.99539E-13 4.71807E-13
 -1      2426 1.99991E+01 1.43755E-04-9.84814E-06-5.35352E-04 1.48380E-14 2.98536E-13
 -1      2427 1.99987E+01-3.46501E-05 2.01204E-06-6.62094E-04 2.69583E-13 1.27775E-13
 -1      2428 1.99986E+01-7.04653E-06 2.77508E-06-6.60649E-04 3.52369E-13 2.72460E-13
 -1      2429 1.99990E+01 2.09950E-05-6.49676E-06-6.67966E-04 4.10670E-13 3.51385E-13
 -1      2430 1.99988E+01-6.89667E-05 1.29655E-06-6.41202E-04 7.32504E-14 6.44028E-14
 -1      2431 1.99987E+01-5.39116E-05 4.47518E-07-6.59576E-04 1.38871E-13 9.67534E-14
 -1      2432 1.99990E+01-5.39787E-05-4.10931E-06-7.07008E-04 2.99265E-13 4.52342E-13
 -1      2433 1.99989E+01-8.55727E-05 7.94247E-07-5.89949E-04 1.11213E-14 1.72367E-14
 -1      2434 1.99988E+01-7.89910E-05-9.72255E-07-6.19155E-04-1.03926E-13-9.12026E-14
 -1      2435 1.99991E+01-9.59535E-05-2.43885E-06-6.87638E-04 4.04033E-14 1.31484E-13
 -1      2436 1.99991E+01-9.04430E-05 4.49367E-07-5.23516E-04 2.42108E-13-6.87789E-14
 -1      2437 1.99990E+01-8.93979E-05-1.76750E-06-5.57488E-04 1.42740E-13-5.43772E-15
 -1      2438 1.99992E+01-1.15534E-04-1.29568E-06-6.34359E-04 9.33642E-14-3.88650E-14
 -1      2439 1.99992E+01-8.78973E-05 2.17323E-07-4.51983E-04 5.72356E-14 2.35079E-13
 -1      2440 1.99991E+01-9.02717E-05-2.14067E-06-4.86766E-04 1.20011E-13 2.05049E-13
 -1      2441 1.99993E+01-1.20371E-04-5.35334E-07-5.63935E-04 1.03891E-13 4.58549E-13
 -1      2442 1.99993E+01-8.10530E-05 6.27157E-08-3.81725E-04-3.93503E-14 4.34996E-13
 -1      2443 1.99992E+01-8.53244E-05-2.23667E-06-4.14894E-04 7.34055E-14 2.79318E-13
 -1      2444 1.99994E+01-1.15993E-04-4.89193E-08-4.87497E-04-4.45759E-14 6.05515E-13
 -1      2445 1.99994E+01-7.21584E-05-4.34239E-08-3.16439E-04 4.10713E-15 3.02681E-13
 -1      2446 1.99994E+01-7.72316E-05-2.15829E-06-3.46672E-04-1.02060E-13 4.53525E-13
 -1      2447 1.99994E+01-1.06386E-04 2.44604E-07-4.12086E-04-4.83558E-14 5.45526E-13
 -1      2448 1.99995E+01-6.28376E-05-1.24865E-07-2.57888E-04 1.94403E-13 9.09401E-14
 -1      2449 1.99995E+01-6.79261E-05-1.97885E-06-2.84661E-04 1.95763E-13 2.33911E-13
 -1      2450 1.99995E+01-9.44281E-05 4.03712E-07-3.41782E-04 1.40657E-13 2.85092E-13
 -1      2451 1.99996E+01-5.42596E-05-1.95207E-07-2.06440E-04 4.40038E-13-9.62784E-14
 -1      2452 1.99995E+01-5.88056E-05-1.75220E-06-2.29804E-04 2.20349E-13-1.20315E-13
 -1      2453 1.99996E+01-8.21797E-05 4.73100E-07-2.78521E-04 4.61973E-13 1.52972E-13
 -1      2454 1.99996E+01-4.72932E-05-2.26587E-07-1.61490E-04 2.92125E-13 4.97113E-14
 -1      2455 1.99996E+01-5.08976E-05-1.50147E-06-1.81911E-04 4.87909E-13 1.14897E-13
 -1      2456 1.99996E+01-7.10275E-05 5.37806E-07-2.22801E-04 3.63782E-13 7.65259E-14
 -1      2457 1.99997E+01-4.25844E-05-2.96564E-07-1.21903E-04 8.49790E-14-1.40331E-14
 -1      2458 1.99997E+01-4.49398E-05-1.26861E-06-1.40016E-04 1.92886E-13-1.26677E-13
 -1      2459 1.99997E+01-6.21658E-05 5.55970E-07-1.74018E-04 3.09215E-13 7.14341E-14
 -1      2460 1.99997E+01-4.00618E-05-4.80851E-07-8.61670E-05-1.65503E-14-3.30488E-13
 -1      2461 1.99997E+01-4.09562E-05-9.43557E-07-1.02693E-04 7.10576E-14-2.47457E-14
 -1      2462 1.99997E+01-5.65617E-05 4.11217E-07-1.30764E-04 4.37348E-15 8.60098E-14
 -1      2463 1.99998E+01-1.74353E-04 7.89614E-07-8.67056E-05 2.39058E-13 2.51046E-13
 -1      2464 1.99998E+01-1.58816E-04-2.17592E-07-9.41116E-05 1.49366E-13-4.93442E-14
 -1      2465 1.99998E+01-1.40300E-04 6.32421E-07-9.96318E-05 1.97532E-14-1.89958E-13
 -1      2466 1.99998E+01-1.22967E-04-5.28983E-07-1.00285E-04-1.21566E-13-1.39109E-13
 -1      2467 1.99998E+01-1.52776E-04-4.01322E-07-1.12678E-04 1.90924E-13 9.72634E-14
 -1      2468 1.99998E+01-1.02561E-04 4.46795E-07-9.86477E-05-2.38178E-13-1.84630E-13
 -1      2469 1.99998E+01-8.41247E-05-7.25908E-07-9.27869E-05-6.36121E-16-1.48227E-13
 -1      2470 1.99998E+01-1.15251E-04 2.22992E-07-1.16320E-04 1.15316E-13-7.40515E-14
 -1      2471 3.53064E+00-2.13146E+00 9.36053E-02 1.66488E+00 1.01169E-13 1.39277E-13
 -1      2472 2.86302E+00-1.60529E+00 1.12075E-01-7.73938E-01 6.35811E-14 3.00704E-13
 -1      2473 1.99998E+01-2.00693E-04 8.07513E-07-6.16558E-05 2.49616E-13-1.97565E-13
 -1      2474 1.99998E+01-1.89155E-04 8.98475E-08-7.42741E-05 3.09664E-13 2.83306E-13
 -1      2475 1.99998E+01-1.84829E-04-5.32330E-07-9.30834E-05 3.14393E-13 2.77964E-13
 -1      2476 1.99998E+01-2.16252E-04 7.36882E-07-2.83235E-05 5.19669E-14-1.23492E-13
 -1      2477 1.99998E+01-2.10145E-04 3.66959E-07-4.42742E-05 1.50808E-13-3.30016E-13
 -1      2478 1.99999E+01-2.08180E-04-6.61875E-07-6.10850E-05 4.30469E-13-3.08129E-13
 -1      2479 1.99998E+01-2.19364E-04 5.82445E-07 8.72573E-06 1.38093E-13 2.28214E-13
 -1      2480 1.99998E+01-2.19422E-04 5.90318E-07-8.35390E-06-3.20620E-15 7.61170E-14
 -1      2481 1.99999E+01-2.20343E-04-7.40189E-07-2.10945E-05 2.22085E-13-1.66097E-13
 -1      2482 1.99998E+01-2.09737E-04 3.63884E-07 4.45698E-05 1.47533E-13 9.71408E-14
 -1      2483 1.99998E+01-2.15961E-04 7.34641E-07 2.86643E-05 1.10545E-13 2.71415E-13
 -1      2484 1.99999E+01-2.20109E-04-7.37994E-07 2.16033E-05 2.74242E-13 2.41674E-13
 -1      2485 1.99998E+01-1.88961E-04 8.31495E-08 7.40015E-05 2.67542E-13-6.42958E-15
 -1      2486 1.99998E+01-2.00305E-04 8.00400E-07 6.16137E-05 1.59528E-13-7.01482E-14
 -1      2487 1.99999E+01-2.07707E-04-6.74623E-07 6.11838E-05 1.51948E-13 5.36004E-14
 -1      2488 1.99998E+01-1.58571E-04-2.03159E-07 9.38779E-05 1.30854E-13 2.94992E-13
 -1      2489 1.99998E+01-1.74129E-04 7.81006E-07 8.64345E-05 1.58637E-13-2.21374E-14
 -1      2490 1.99998E+01-1.84362E-04-5.23235E-07 9.28444E-05-3.58992E-14-1.05124E-13
 -1      2491 1.99998E+01-1.22017E-04-4.24583E-07 1.00476E-04-5.69316E-14 1.55930E-13
 -1      2492 1.99998E+01-1.39983E-04 6.39304E-07 9.95749E-05 1.14850E-13 4.50330E-13
 -1      2493 1.99998E+01-1.52136E-04-2.90372E-07 1.12411E-04-6.25504E-14 2.41333E-13
 -1      2494 1.99998E+01-8.33549E-05-5.58598E-07 9.24388E-05-2.42643E-13 7.95958E-14
 -1      2495 1.99998E+01-1.01832E-04 3.91665E-07 9.84546E-05-1.46835E-13-3.85301E-14
 -1      2496 1.99998E+01-1.14265E-04 7.01954E-08 1.16379E-04-9.48922E-15 7.37376E-14
 -1      2497 3.78910E+00-1.67042E-01 9.72883E-02-6.13160E-01 9.67212E-14 1.17073E-13
 -1      2498 6.61898E+00-7.59550E-01 1.13127E-01-2.99787E+00 3.61655E-14 1.05804E-13
 -1      2499 9.56150E+00-2.61473E+00 1.46327E-01 5.19597E+00 1.34615E-13-6.88338E-14
 -1      2500 5.72075E+00-2.57732E+00 6.53969E-02 3.40032E+00 1.48048E-13-3.06977E-14
 -1      2501 7.06885E+00-5.11708E-01 1.76700E-01 2.78898E+00-7.70772E-14 2.49245E-14
 -1      2502 2.66329E+01-4.04060E+00 1.38715E-01-3.30605E+00-2.21823E-13 5.18804E-13
 -1      2503 2.56488E+01-2.90425E+00 1.97255E-01-3.85348E+00-1.79967E-13 5.13568E-13
 -1      2504 1.99063E+01-2.16441E+00-2.06900E-02-4.79006E+00-1.06748E-13 3.31513E-13
 -1      2505 2.36713E+01-5.14035E+00-1.09060E-01-4.28292E+00-2.65177E-13 3.52982E-13
 -1      2506 3.21214E+00-2.01096E+00 1.35947E-01-3.36435E+00 6.65440E-14 3.50109E-13
 -1      2507 4.31039E+00-2.53516E+00 8.02658E-02-5.24499E+00 6.81677E-14 4.94937E-13
 -1      2508 3.34007E+01 2.83907E+00-1.54879E-01 1.45492E+00-9.70335E-14 4.26659E-13
 -1      2509 3.17440E+01 1.47121E+00-1.43118E-02 2.62670E+00-8.29666E-14 4.50306E-13
 -1      2510 6.81258E+00-3.18782E+00 9.58735E-02-6.70107E+00 1.59289E-13 5.04041E-13
 -1      2511 1.02221E+01-3.63462E+00 4.93852E-02-8.17857E+00 1.73916E-13 4.27491E-13
 -1      2512 1.99998E+01-5.03526E-05-5.09298E-07 6.31849E-05-2.10655E-14 4.90665E-13
 -1      2513 2.36989E+01 1.68448E+00 5.06494E-03 1.31737E-01 3.19787E-13 5.41234E-16
 -1      2514 2.36813E+01 1.88071E+00-4.56086E-02-4.81755E-01 3.08322E-13-5.47305E-14
 -1      2515 2.40843E+01 1.71284E+00 1.23130E-02-1.01576E+00 2.67553E-13-7.90566E-14
 -1      2516 2.42424E+01 9.84843E-01 1.54173E-03 3.06772E-01 2.82713E-13 3.97633E-14
 -1      2517 6.63217E+00 3.08104E-01 8.39298E-02 7.38231E+00 3.20410E-13 2.68507E-13
 -1      2518 4.07431E+00 4.81045E-01 1.48800E-01 5.51393E+00 2.83301E-13 1.97176E-13
 -1      2519 1.85481E+01-4.55345E+00 3.54271E-02-4.96571E+00-2.26485E-13 2.35534E-13
 -1      2520 1.74562E+01-3.52232E+00 1.93421E-02 6.05173E+00 1.48020E-13 1.46827E-13
 -1      2521 9.52825E+00-2.18791E+00 5.14116E-02-4.03613E+00-5.27633E-14 1.13021E-13
 -1      2522 1.35568E+01-3.54647E+00-4.20663E-02-5.03725E+00-1.49769E-13 1.48381E-13
 -1      2523 1.72332E+01-2.72986E+00 1.40111E-01-4.88412E+00-1.16046E-13 2.41557E-13
 -1      2524 9.23196E+00-2.04523E-01 1.60667E-02-3.39309E+00 6.56142E-14 1.39999E-13
 -1      2525 2.18370E+00 3.93677E-01 6.65566E-02 3.56528E+00 2.25500E-13 1.49436E-13
 -1      2526 2.18776E+00 1.32340E-01 1.02739E-01 1.41643E+00 1.60347E-13 1.20903E-13
 -1      2527 1.34230E+01-1.30281E+00 4.22030E-02 8.74262E+00 2.66953E-13 3.63445E-13
 -1      2528 1.04494E+01-8.17930E-01 1.19628E-01 8.22100E+00 2.92738E-13 3.18967E-13
 -1      2529 3.27581E+01 1.08176E+00-6.50504E-02-1.91371E+00 2.43749E-13 1.62981E-13
 -1      2530 3.43103E+01 2.95708E+00-1.13752E-01-1.07763E+00 1.93928E-13 1.24234E-13
 -1      2531 2.12817E+01-1.80859E+00-9.11143E-03 7.53846E+00 1.47715E-13 4.53304E-13
 -1      2532 1.70340E+01-1.92555E+00 8.54883E-03 8.14664E+00 2.09388E-13 4.05910E-13
 -1      2533 1.70684E+01-1.31480E+00 8.82012E-02 8.08152E+00 2.94376E-13 3.95545E-13
 -1      2534 3.47410E+01 6.21593E+00-1.49247E-01-3.38731E-01-1.01918E-13 2.82774E-13
 -1      2535 3.40361E+01 4.80354E+00-8.68684E-02 7.24813E-02-1.19543E-13 3.23158E-13
 -1      2536 3.53703E+01 8.28726E+00-1.06152E-01 1.51868E-01 1.43774E-13 1.45953E-13
 -1      2537 3.48581E+01 8.75019E+00-2.22356E-01 1.06383E-02 6.65024E-14 1.94601E-13
 -1      2538 3.48111E+01 5.23891E+00-9.37523E-02-2.16321E-01 1.80467E-13 1.10967E-13
 -1      2539 3.53151E+01 6.90788E+00-1.49493E-01 1.83622E-01 1.82798E-13 1.20320E-13
 -1      2540 2.85055E+01-2.48639E+00-2.87560E-02-4.84360E+00 2.13829E-13 5.73430E-14
 -1      2541 3.11978E+01-1.00516E+00-8.46675E-02-3.68341E+00 2.63775E-13 1.89626E-13
 -1      2542 2.19731E+01-4.44956E+00 5.80746E-04-7.36648E+00 2.17215E-13 9.21346E-14
 -1      2543 2.56540E+01-3.59806E+00-2.66425E-02-6.63383E+00 1.75804E-13-2.43416E-14
 -1      2544 1.44770E+01-4.51585E+00 6.07283E-02-8.37870E+00 2.17104E-13 3.47486E-13
 -1      2545 1.83341E+01-4.47426E+00 1.51761E-02-8.48510E+00 2.16771E-13 2.45411E-13
 -1      2546 2.36627E+01 1.07223E+00 7.97815E-02-3.13032E+00 7.92422E-15 6.06779E-13
 -1      2547 2.34263E+01 1.99608E+00 6.60836E-02-2.35551E+00 3.52357E-14 6.54338E-13
 -1      2548 2.07226E+01 2.69994E+00 2.46071E-02-2.19746E+00 8.80893E-14 5.83714E-13
 -1      2549 1.95861E+01 9.30538E-01 1.19963E-01-3.71974E+00 3.19744E-14 4.30253E-13
 -1      2550 4.90178E+00 2.09148E+00 1.96983E-01 4.62726E+00 3.42906E-13 2.19547E-13
 -1      2551 2.24194E+01 2.46939E+00 1.11332E-02-2.24666E+00 2.11036E-13-3.11415E-13
 -1      2552 2.19571E+01 2.84326E+00-2.02054E-02-2.29630E+00 2.22561E-13-3.57806E-13
 -1      2553 2.15096E+01 2.83395E+00-3.11523E-02-2.52737E+00 1.86230E-13-4.09424E-13
 -1      2554 1.43684E+01 4.25357E+00 1.99189E-02-1.23937E+00 2.26199E-13 4.18041E-13
 -1      2555 1.19947E+01 3.92969E+00 1.73985E-01-1.20318E+00 2.33126E-13 3.20910E-13
 -1      2556 7.57690E+00-1.68359E+00 1.50499E-01-6.16711E+00 1.01030E-13 4.92412E-13
 -1      2557 1.82699E+01 3.40282E+00 8.53107E-02-1.83632E+00 1.40997E-13 5.26593E-13
 -1      2558 1.99998E+01-6.34535E-05 1.45203E-07-9.12308E-05 9.70903E-15 9.52861E-14
 -1      2559 1.99998E+01-3.87993E-05-5.71528E-07-7.20853E-05 1.58641E-14-3.03309E-13
 -1      2560 4.74189E+00-4.78852E-01 1.70074E-01-1.82598E+00-1.00614E-15 3.72258E-13
 -1      2561 3.29352E+01 3.66590E+00-1.93020E-02 5.23352E-01 2.31593E-13 4.83502E-14
 -1      2562 3.29859E+01 7.25747E+00-5.07470E-02 7.67105E-01 2.02061E-13 9.71723E-14
 -1      2563 1.34786E+01-2.40149E+00 2.24835E-01 5.68101E+00 8.99281E-14 3.68039E-14
 -1      2564 1.27749E+01-7.50624E-01 1.47521E-01 5.43650E+00-9.03722E-14 6.63358E-15
 -1      2565 1.99998E+01-7.55907E-05-2.71182E-07-1.13125E-04 1.04033E-13 7.67295E-15
 -1      2566 4.92759E+00 1.71024E+00 1.69407E-01 2.77885E-01 2.19547E-13 1.63480E-13
 -1      2567 3.24100E+01 3.47755E+00-3.87448E-02-2.44744E-01-1.19196E-13 2.71394E-13
 -1      2568 3.00591E+01 6.83594E-02 2.46127E-02 2.90965E+00-2.74086E-14 4.20219E-13
 -1      2569 3.38075E+01 8.79166E+00-9.56924E-02-2.99322E-01 3.03646E-14 1.49361E-13
 -1      2570 3.15723E+01 8.47696E+00-2.12916E-01-6.12375E-01 1.66811E-14 8.02552E-14
 -1      2571 3.13997E+01 8.45318E+00-1.13626E-01 4.53790E-02 7.27474E-14 1.24154E-14
 -1      2572 1.40202E+01-3.54082E+00 1.30791E-01-8.18477E+00 2.24792E-13 3.40797E-13
 -1      2573 1.99998E+01-4.57637E-05-6.19370E-07 7.77487E-05 2.37056E-13 6.84633E-13
 -1      2574 1.99998E+01-6.60382E-05 3.79477E-07 8.78583E-05-9.32819E-14 5.15914E-13
 -1      2575 1.99998E+01-7.84617E-05-3.17405E-07 1.09175E-04 3.09661E-14 4.56953E-13
 -1      2576 1.99997E+01-4.73447E-05-9.42404E-07 9.32475E-05 9.28181E-14 5.74736E-13
 -1      2577 2.37990E+01-1.85223E+00 5.77644E-02 6.36305E+00 1.26288E-13 4.28380E-13
 -1      2578 2.24296E+01-1.80135E+00 9.53800E-02 6.47926E+00 2.02033E-13 4.13383E-13
 -1      2579 2.55869E+01-1.98009E+00-1.79253E-01 4.95504E+00 1.05235E-13 4.15237E-13
 -1      2580 1.99997E+01-6.22790E-05 5.26990E-07 1.17305E-04-2.13875E-14 7.35660E-13
 -1      2581 2.11611E+01 2.75159E+00-1.86467E-02-2.63092E+00 1.57174E-13-4.36777E-13
 -1      2582 2.07619E+01 2.59831E+00-3.05415E-02-2.79104E+00 1.10711E-13-4.92235E-13
 -1      2583 2.07866E+01 2.08211E+00 4.80147E-03-2.56441E+00 8.27585E-14-4.52101E-13
 -1      2584 2.15441E+01 2.40220E+00 8.82232E-03-2.48500E+00 1.50793E-13-3.72253E-13
 -1      2585 3.14876E+01-6.04787E-01 4.76352E-03-1.70425E+00 2.59027E-13 1.33810E-13
 -1      2586 9.86860E+00 6.91221E-01 1.50548E-01 7.67507E+00 3.69954E-13 3.11667E-13
 -1      2587 2.15316E+01-4.65687E+00 9.13766E-02-7.43529E+00 2.19214E-13 1.11924E-13
 -1      2588 3.31312E+01 7.00931E+00-1.09777E-01-1.24770E+00-8.70415E-14 1.92457E-13
 -1      2589 2.76067E+01-3.67552E+00 5.06169E-02-4.89873E+00 2.11733E-13 4.14668E-14
 -1      2590 2.08583E+01-7.37104E-01 2.52062E-02 5.76791E+00 3.08052E-13 3.52586E-13
 -1      2591 2.31788E+01-9.48553E-01 5.57204E-03 4.46392E+00 2.62720E-13 3.13505E-13
 -1      2592 6.82323E+00 3.28079E+00 8.75456E-02 5.51697E+00 4.16583E-13 2.69978E-13
 -1      2593 9.39212E+00 2.57530E+00 1.96856E-01 6.60852E+00 4.26471E-13 2.97526E-13
 -1      2594 5.94680E+00 3.48606E+00 1.48001E-01 1.29084E+00 3.11065E-13 2.23627E-13
 -1      2595 5.54795E+00 3.47353E+00 1.91586E-01 3.43716E+00 3.67852E-13 2.26624E-13
 -1      2596 7.88789E+00-1.49265E-01 1.83832E-01-4.85830E+00 5.95357E-15 4.04177E-13
 -1      2597 1.00145E+01-1.01475E+00 1.04960E-01-6.56816E+00 1.07747E-13 4.00263E-13
 -1      2598 7.69429E+00 3.14500E+00 1.46097E-01-9.62798E-01 2.44998E-13 2.10998E-13
 -1      2599 1.46827E+01 1.63162E+00-1.44738E-02 4.08905E+00-2.27911E-13 1.46536E-13
 -1      2600 1.42853E+01 6.66741E-01 1.21312E-01 4.57033E+00-1.74104E-13 7.86315E-14
 -1      2601 1.12719E+01 7.89856E-01 2.46228E-01 4.17420E+00-1.95427E-13-2.58127E-14
 -1      2602 6.29410E+00 1.01066E+00 1.52124E-01-2.07094E-01-1.96225E-13 1.67089E-13
 -1      2603 6.53862E+00 5.91699E-01 1.82287E-01-3.04960E+00-1.01252E-13 3.40505E-13
 -1      2604 9.10449E+00 1.02317E+00 1.51339E-01-3.51292E+00-1.02966E-13 3.19050E-13
 -1      2605 2.04255E+01 1.30197E+00 7.40667E-04-1.93284E+00 5.62731E-14-3.76934E-13
 -1      2606 2.02286E+01 1.19319E+00 1.71052E-03-1.62831E+00 6.60275E-14-3.50991E-13
 -1      2607 2.07206E+01 1.76913E+00-1.27826E-02-2.40277E+00 7.30865E-14-4.26780E-13
 -1      2608 2.05279E+01 1.46790E+00 1.30373E-03-2.12058E+00 4.98165E-14-4.03646E-13
 -1      2609 2.09640E+01 1.62808E+00 3.41043E-03-2.10324E+00 8.75710E-14-3.58793E-13
 -1      2610 2.11099E+01 1.99332E+00-3.51244E-03-2.42396E+00 1.10118E-13-3.67602E-13
 -1      2611 1.76688E+01 2.01895E+00-2.76460E-02 2.16267E+00 8.88447E-14 1.68480E-13
 -1      2612 1.72438E+01 2.20436E+00 2.19090E-02 2.53546E+00-3.38883E-14 1.84991E-13
 -1      2613 2.00764E+01 1.15371E+00 2.82083E-03-1.33999E+00 6.09610E-14-3.09387E-13
 -1      2614 1.99000E+01 1.15076E+00 6.50345E-03-1.02831E+00 4.51076E-14-2.83404E-13
 -1      2615 2.06993E+01 1.44378E+00 1.56078E-03-1.63683E+00 8.60829E-14-3.12713E-13
 -1      2616 1.97513E+01 1.16025E+00 4.20562E-03-6.91792E-01 9.48213E-15-2.63524E-13
 -1      2617 1.96372E+01 1.15995E+00 6.25581E-03-3.70076E-01 5.82824E-15-2.51876E-13
 -1      2618 2.03892E+01 1.42833E+00-4.72096E-03-9.91197E-01 4.31758E-14-2.69523E-13
 -1      2619 1.95553E+01 1.13525E+00 7.47156E-03-1.03496E-02 3.68715E-15-2.23732E-13
 -1      2620 1.95174E+01 1.07142E+00 2.27175E-03 2.96290E-01 2.24320E-14-2.14776E-13
 -1      2621 2.01534E+01 1.41608E+00-8.55068E-03-2.60083E-01 1.36777E-14-2.27491E-13
 -1      2622 1.95271E+01 9.72721E-01 1.03801E-02 6.21225E-01 3.92373E-14-1.97337E-13
 -1      2623 1.95594E+01 8.31450E-01-2.75238E-03 8.69243E-01 3.32238E-14-1.95110E-13
 -1      2624 2.00719E+01 1.25884E+00-8.40259E-03 4.62790E-01 2.86322E-14-1.96465E-13
 -1      2625 1.96399E+01 6.69635E-01 1.07476E-02 1.10099E+00 7.35512E-15-1.72989E-13
 -1      2626 1.97213E+01 4.81028E-01-6.08557E-03 1.25593E+00 1.87988E-14-1.68864E-13
 -1      2627 2.01451E+01 9.24682E-01-4.71186E-03 1.04731E+00 4.02429E-14-1.69385E-13
 -1      2628 1.98269E+01 2.96288E-01 8.24962E-03 1.36387E+00 3.47142E-14-1.67033E-13
 -1      2629 1.99299E+01 1.09837E-01-6.42466E-03 1.41528E+00 2.02998E-14-1.54062E-13
 -1      2630 2.03082E+01 4.81302E-01 2.40553E-04 1.39861E+00 4.03842E-14-1.54901E-13
 -1      2631 2.00140E+01-5.10597E-02 3.95279E-03 1.40699E+00 2.31547E-14-1.34030E-13
 -1      2632 2.01141E+01-1.93876E-01-4.49039E-03 1.37152E+00 4.87086E-14-8.33265E-14
 -1      2633 2.04731E+01 4.04301E-02 3.40574E-03 1.49385E+00 3.81389E-14-7.16408E-14
 -1      2634 2.01533E+01-3.02817E-01-2.23177E-04 1.28235E+00 5.59727E-14-4.78707E-14
 -1      2635 2.02350E+01-3.84755E-01-1.77442E-03 1.19080E+00 7.51166E-14-2.57509E-14
 -1      2636 2.05757E+01-3.00629E-01 3.97838E-03 1.38432E+00 8.59760E-14 7.48451E-15
 -1      2637 2.02290E+01-4.36417E-01-3.09577E-03 1.06240E+00 6.37510E-14-2.58211E-14
 -1      2638 2.02871E+01-4.61768E-01 6.23366E-04 9.46446E-01 8.49851E-14-4.15559E-14
 -1      2639 2.05963E+01-4.99864E-01 2.85297E-03 1.15433E+00 6.05236E-14 3.66145E-14
 -1      2640 2.02494E+01-4.66760E-01-4.42702E-03 8.12555E-01 7.30080E-14-6.83208E-14
 -1      2641 2.02856E+01-4.51579E-01 2.14420E-03 6.96589E-01 2.92629E-14-8.43263E-14
 -1      2642 2.05491E+01-5.65947E-01 1.18616E-03 8.83077E-01 5.72730E-14 2.09571E-15
 -1      2643 2.02327E+01-4.26832E-01-4.55638E-03 5.77924E-01-1.28030E-14-1.05555E-13
 -1      2644 2.02522E+01-3.89427E-01 2.77396E-03 4.76558E-01-3.91124E-14-8.35698E-14
 -1      2645 2.04622E+01-5.35527E-01-1.91560E-04 6.25771E-01 3.00357E-14-2.02341E-15
 -1      2646 2.01975E+01-3.50873E-01-3.99325E-03 3.82037E-01-8.88320E-14-9.48312E-14
 -1      2647 2.02057E+01-3.06085E-01 2.75146E-03 3.01446E-01-1.02771E-13-1.09866E-13
 -1      2648 2.03626E+01-4.51343E-01-9.95641E-04 4.11060E-01-6.20352E-14-8.82302E-14
 -1      2649 2.01573E+01-2.65259E-01-3.15987E-03 2.32065E-01-1.17208E-13-1.63759E-13
 -1      2650 2.01588E+01-2.22649E-01 2.36486E-03 1.72709E-01-1.08129E-13-1.81065E-13
 -1      2651 2.02690E+01-3.48403E-01-1.28608E-03 2.47494E-01-1.40695E-13-1.52003E-13
 -1      2652 2.01199E+01-1.86244E-01-2.31731E-03 1.25297E-01-3.90002E-14-2.07774E-13
 -1      2653 2.01178E+01-1.50612E-01 1.84480E-03 8.45208E-02-3.53958E-14-2.25009E-13
 -1      2654 2.01907E+01-2.49481E-01-1.24275E-03 1.31817E-01-8.91509E-14-1.71748E-13
 -1      2655 2.00888E+01-1.21484E-01-1.59171E-03 5.43869E-02 8.80090E-15-2.15785E-13
 -1      2656 2.00850E+01-9.42790E-02 1.33500E-03 2.83314E-02 2.67302E-14-2.17883E-13
 -1      2657 2.01303E+01-1.66197E-01-1.03665E-03 5.55245E-02 5.29890E-15-1.91982E-13
 -1      2658 2.00645E+01-7.28091E-02-1.02407E-03 1.07799E-02 9.17019E-14-1.50653E-13
 -1      2659 2.00603E+01-5.35298E-02 9.04891E-04-4.46634E-03 1.47547E-13-6.20366E-14
 -1      2660 2.00865E+01-1.02245E-01-7.86742E-04 8.93205E-03 1.01400E-13-1.04396E-13
 -1      2661 2.00464E+01-3.87959E-02-6.09904E-04-1.34369E-02 5.67475E-14-2.34207E-15
 -1      2662 2.00423E+01-2.60540E-02 5.75646E-04-2.12581E-02-3.24314E-14 1.29317E-14
 -1      2663 2.00562E+01-5.66717E-02-5.57683E-04-1.67436E-02 1.33472E-13-4.63730E-14
 -1      2664 2.00333E+01-1.66385E-02-3.25030E-04-2.47453E-02-1.99013E-14-1.69955E-14
 -1      2665 2.00295E+01-8.82949E-03 3.41473E-04-2.77976E-02 2.14493E-14-8.37902E-15
 -1      2666 2.00360E+01-2.63675E-02-3.75292E-04-2.85853E-02-2.96768E-14 8.90993E-14
 -1      2667 2.00238E+01-3.29274E-03-1.40173E-04-2.80380E-02 5.19389E-14 1.46392E-14
 -1      2668 2.00206E+01 1.04991E-03 1.85167E-04-2.82601E-02 6.54936E-14-1.06885E-14
 -1      2669 2.00229E+01-7.65566E-03-2.42815E-04-3.18753E-02 1.26039E-14-6.59077E-15
 -1      2670 2.00170E+01 3.94281E-03-2.80142E-05-2.67758E-02 1.97402E-14-3.71872E-14
 -1      2671 2.00143E+01 6.00401E-03 8.71202E-05-2.54967E-02-1.09244E-14-7.93349E-14
 -1      2672 2.00146E+01 2.86177E-03-1.52911E-04-3.03190E-02 8.67540E-14-4.22234E-14
 -1      2673 2.00121E+01 7.21047E-03 3.40306E-05-2.32651E-02-7.20476E-14-1.14285E-13
 -1      2674 2.00099E+01 7.87106E-03 2.97589E-05-2.13412E-02 4.67614E-14-1.57845E-13
 -1      2675 2.00094E+01 7.95116E-03-9.50995E-05-2.63737E-02-6.80310E-14-8.90653E-15
 -1      2676 2.00086E+01 8.08041E-03 6.32837E-05-1.89494E-02 1.02670E-13-2.27152E-13
 -1      2677 2.00067E+01 7.95320E-03-8.61840E-07-1.68947E-02 1.43433E-13-2.16644E-13
 -1      2678 2.00062E+01 9.68227E-03-5.95244E-05-2.15751E-02 5.37365E-15-7.57118E-14
 -1      2679 2.00060E+01 7.63154E-03 7.23109E-05-1.46644E-02 1.71155E-13-1.90200E-13
 -1      2680 2.00045E+01 7.11779E-03-1.49292E-05-1.27591E-02 5.47756E-14-6.41271E-14
 -1      2681 2.00041E+01 9.50406E-03-3.83628E-05-1.68139E-02 1.57303E-13-1.62872E-13
 -1      2682 2.00041E+01 6.56159E-03 6.98009E-05-1.08409E-02-5.30314E-14-1.11978E-14
 -1      2683 2.00029E+01 5.90782E-03-1.94270E-05-9.21394E-03-1.10977E-14 2.17254E-14
 -1      2684 2.00027E+01 8.37169E-03-2.60168E-05-1.25521E-02 9.68997E-14 3.14546E-15
 -1      2685 2.00026E+01 5.29312E-03 6.14824E-05-7.65454E-03-2.96046E-14-1.30534E-14
 -1      2686 2.00018E+01 4.63930E-03-1.88792E-05-6.34345E-03-8.96530E-14-5.24433E-14
 -1      2687 2.00018E+01 6.87659E-03-1.87838E-05-8.98115E-03-4.46757E-14 1.32955E-13
 -1      2688 2.00016E+01 4.06135E-03 5.09387E-05-5.13097E-03-1.57700E-13-1.19568E-14
 -1      2689 2.00010E+01 3.47810E-03-1.60528E-05-4.12235E-03-1.74732E-13 9.19077E-15
 -1      2690 2.00012E+01 5.35826E-03-1.43742E-05-6.13229E-03-1.47312E-13 7.49956E-14
 -1      2691 2.00009E+01 2.98094E-03 4.02661E-05-3.21588E-03-5.34023E-14 4.09172E-14
 -1      2692 2.00004E+01 2.49626E-03-1.25310E-05-2.47155E-03 4.91420E-14 1.18636E-13
 -1      2693 2.00007E+01 3.99094E-03-1.14612E-05-3.95054E-03-7.62632E-14 2.09566E-13
 -1      2694 2.00003E+01 2.09343E-03 3.05738E-05-1.81926E-03-4.47844E-15 7.31103E-14
 -1      2695 2.00000E+01 1.71090E-03-9.14019E-06-1.29228E-03-3.04769E-14 5.46244E-14
 -1      2696 2.00004E+01 2.84654E-03-9.32730E-06-2.34134E-03 3.68966E-14 2.10978E-13
 -1      2697 2.00000E+01 1.39923E-03 2.23464E-05-8.41805E-04-3.84276E-14 1.45499E-13
 -1      2698 1.99998E+01 1.10985E-03-6.24928E-06-4.85520E-04-7.49228E-14 1.89689E-13
 -1      2699 2.00002E+01 1.93776E-03-7.61422E-06-1.19887E-03 3.43894E-14 1.25245E-13
 -1      2700 1.99997E+01 8.78111E-04 1.56952E-05-1.89364E-04-1.06085E-13 2.23048E-13
 -1      2701 1.99996E+01 6.67518E-04-3.96768E-06 3.79862E-05-4.93829E-14 1.39300E-13
 -1      2702 2.00000E+01 1.24623E-03-6.16042E-06-4.21706E-04-8.74008E-14 3.30562E-13
 -1      2703 1.99996E+01 5.01660E-04 1.05263E-05 2.20144E-04-3.25597E-15 2.71651E-13
 -1      2704 1.99995E+01 3.54328E-04-2.27040E-06 3.53595E-04-7.02068E-14 3.12226E-13
 -1      2705 1.99999E+01 7.39928E-04-4.90211E-06 7.94897E-05 2.96450E-14 2.21922E-13
 -1      2706 1.99995E+01 2.40341E-04 6.64812E-06 4.54407E-04 3.60798E-14 3.80216E-13
 -1      2707 1.99995E+01 1.41767E-04-1.07302E-06 5.22005E-04 8.29019E-14 4.16981E-13
 -1      2708 1.99998E+01 3.83289E-04-3.81753E-06 3.79103E-04-1.37644E-14 4.58486E-13
 -1      2709 1.99995E+01 6.71136E-05 3.83606E-06 5.66950E-04 8.31337E-14 3.00025E-13
 -1      2710 1.99995E+01 4.80663E-06-2.73836E-07 5.90305E-04 2.11405E-13 2.00505E-13
 -1      2711 1.99997E+01 1.42670E-04-2.89831E-06 5.36549E-04 1.19373E-14 2.52397E-13
 -1      2712 1.99995E+01-4.10259E-05 1.87013E-06 5.98624E-04 1.40698E-13 9.66351E-14
 -1      2713 1.99995E+01-7.72686E-05 2.24392E-07 5.93838E-04 1.10812E-13-1.06427E-14
 -1      2714 1.99997E+01-1.11720E-05-2.13672E-06 5.97668E-04-4.26847E-15 5.51014E-14
 -1      2715 1.99995E+01-1.02703E-04 5.53489E-07 5.79617E-04 2.17172E-13-7.79290E-14
 -1      2716 1.99995E+01-1.20894E-04 5.04823E-07 5.58293E-04 3.48355E-13-7.87256E-14
 -1      2717 1.99997E+01-1.02284E-04-1.52136E-06 5.96735E-04 2.12000E-13-4.16137E-14
 -1      2718 1.99995E+01-1.32450E-04-2.79790E-07 5.31510E-04 4.14357E-13-1.05711E-13
 -1      2719 1.99996E+01-1.38691E-04 6.33728E-07 5.01712E-04 1.97680E-13 5.57493E-14
 -1      2720 1.99997E+01-1.49661E-04-1.03705E-06 5.58590E-04 3.35294E-13-8.46013E-14
 -1      2721 1.99996E+01-1.41277E-04-7.63611E-07 4.69171E-04 8.66465E-14 1.07926E-13
 -1      2722 1.99996E+01-1.40097E-04 6.61115E-07 4.36255E-04-1.56252E-13 1.26643E-13
 -1      2723 1.99997E+01-1.67846E-04-6.66473E-07 5.00633E-04 1.21008E-13-2.51115E-13
 -1      2724 1.99996E+01-1.37326E-04-1.00190E-06 4.02369E-04-4.17799E-13 1.25849E-13
 -1      2725 1.99996E+01-1.32024E-04 6.23200E-07 3.69672E-04-3.57690E-13 6.86525E-14
 -1      2726 1.99997E+01-1.67688E-04-3.92300E-07 4.34559E-04-2.75182E-13-3.67902E-13
 -1      2727 1.99996E+01-1.26516E-04-1.07201E-06 3.37089E-04-1.80318E-14 1.37348E-13
 -1      2728 1.99997E+01-1.19456E-04 5.45428E-07 3.06471E-04 2.14303E-13 9.63529E-14
 -1      2729 1.99997E+01-1.57127E-04-1.98325E-07 3.67790E-04-1.52927E-13-2.14214E-13
 -1      2730 1.99997E+01-1.13084E-04-1.03266E-06 2.76567E-04 1.05446E-13-7.20016E-14
 -1      2731 1.99997E+01-1.05947E-04 4.44982E-07 2.48845E-04-5.69744E-16-5.94607E-14
 -1      2732 1.99997E+01-1.41866E-04-6.94598E-08 3.04618E-04 6.84112E-14-2.73664E-13
 -1      2733 1.99997E+01-1.00080E-04-9.40453E-07 2.22097E-04-1.09303E-13 2.68741E-14
 -1      2734 1.99997E+01-9.39663E-05 3.14853E-07 1.97314E-04-1.15214E-13-1.20862E-13
 -1      2735 1.99997E+01-1.25967E-04-3.35170E-09 2.47097E-04-1.22239E-13-3.67987E-13
 -1      2736 1.99997E+01-8.93356E-05-7.53178E-07 1.73712E-04 5.52357E-14 9.63242E-14
 -1      2737 1.99997E+01-8.52597E-05 6.18368E-08 1.51589E-04 1.21193E-13 2.29177E-13
 -1      2738 1.99998E+01-1.11905E-04 1.46030E-07 1.95656E-04 1.20852E-13-2.38007E-13
 -1      2739 3.09942E+01 3.75969E+00-1.83696E-01-1.33498E+00-1.02474E-13 1.78219E-13
 -1      2740 3.10912E+01 2.14555E+00-3.04274E-02-3.87737E-01-8.87901E-14 2.56600E-13
 -1      2741 1.99998E+01-9.88867E-05-1.31895E-07-1.35217E-04 1.03532E-13 5.55049E-14
 -1      2742 1.99998E+01-7.88685E-05-6.88418E-08-1.33907E-04 4.84083E-14 7.23183E-14
 -1      2743 1.99997E+01-8.21100E-05-1.03390E-06-1.55051E-04 6.52569E-14 1.61948E-13
 -1      2744 2.37721E+01 1.94212E+00-9.21491E-03-1.82869E+00 2.29218E-13-1.83722E-13
 -1      2745 2.32509E+01 2.11593E+00-2.98318E-02-2.07480E+00 2.16361E-13-2.42988E-13
 -1      2746 1.99999E+01-2.25826E-04 5.26422E-07-1.26194E-05 2.23490E-13-3.87531E-14
 -1      2747 1.99999E+01-2.23083E-04 3.08785E-07-3.47827E-05 3.19611E-13-2.84631E-13
 -1      2748 1.99998E+01-1.64864E-04 9.93845E-07-1.25152E-04 3.09624E-13 2.18172E-13
 -1      2749 1.99998E+01-1.49159E-04-6.57217E-07-1.32492E-04 2.81840E-13-3.42927E-14
 -1      2750 1.87096E+01 1.56326E+00-2.41321E-02 1.59851E+00 2.13520E-13 1.31526E-13
 -1      2751 1.84525E+01 1.80904E+00 2.48393E-03 1.91166E+00 1.80840E-13 1.63916E-13
 -1      2752 1.71838E+01 2.24563E+00 5.51806E-02 1.54411E+00 1.49736E-13 2.31056E-14
 -1      2753 1.93398E+01 1.12025E+00-1.67485E-02 1.15785E+00 1.16880E-13 9.20650E-15
 -1      2754 1.92082E+01 1.33952E+00 2.39433E-03 1.40316E+00 1.72062E-13 1.03846E-13
 -1      2755 1.83715E+01 1.71168E+00 3.33006E-02 1.19968E+00 2.10542E-13 1.76964E-13
 -1      2756 1.96962E+01 7.68749E-01-1.09984E-02 8.22879E-01 1.40190E-13 3.30172E-14
 -1      2757 1.96419E+01 9.36985E-01 3.55420E-03 1.00539E+00 8.51112E-14 7.46615E-14
 -1      2758 1.90966E+01 1.22407E+00 2.02579E-02 9.11455E-01 1.00131E-13 5.21412E-14
 -1      2759 1.98864E+01 5.14303E-01-7.06324E-03 5.75804E-01 1.11525E-13 2.35132E-14
 -1      2760 1.98733E+01 6.34230E-01 3.84702E-03 7.06619E-01 1.75416E-13 3.85054E-14
 -1      2761 1.95230E+01 8.43277E-01 1.20882E-02 6.74576E-01 1.40038E-13-4.05639E-14
 -1      2762 1.99810E+01 3.38996E-01-4.46951E-03 3.98432E-01-3.22713E-15 1.94161E-13
 -1      2763 1.99869E+01 4.21007E-01 3.44645E-03 4.89760E-01-1.48072E-14 7.52860E-14
 -1      2764 1.97651E+01 5.67600E-01 6.99529E-03 4.88566E-01-1.44629E-14-1.20404E-13
 -1      2765 2.00230E+01 2.21641E-01-2.78997E-03 2.73668E-01 5.47082E-14 2.18515E-13
 -1      2766 2.00359E+01 2.76351E-01 2.78836E-03 3.36316E-01 5.25565E-14 1.77496E-13
 -1      2767 1.98975E+01 3.76662E-01 3.91321E-03 3.48218E-01 5.82707E-15 6.95760E-15
 -1      2768 2.00376E+01 1.44421E-01-1.71962E-03 1.87124E-01 1.75003E-13 1.75512E-13
 -1      2769 2.00517E+01 1.80374E-01 2.12592E-03 2.29633E-01 1.61426E-13 2.31328E-13
 -1      2770 1.99663E+01 2.47957E-01 2.10702E-03 2.45423E-01 8.35962E-14 7.42875E-14
 -1      2771 2.00389E+01 9.41099E-02-1.04745E-03 1.27600E-01 7.78345E-14 1.20179E-13
 -1      2772 2.00516E+01 1.17536E-01 1.56292E-03 1.56277E-01 1.62074E-13 1.85574E-13
 -1      2773 1.99997E+01 1.62653E-01 1.07909E-03 1.71661E-01 2.09720E-13 1.56223E-13
 -1      2774 2.00344E+01 6.14877E-02-6.31082E-04 8.68342E-02 3.11070E-14 1.02269E-13
 -1      2775 2.00449E+01 7.66921E-02 1.12325E-03 1.06142E-01-3.07584E-15 7.97571E-14
 -1      2776 2.00137E+01 1.06679E-01 5.11218E-04 1.19425E-01 4.19670E-14 8.28894E-14
 -1      2777 2.00280E+01 4.03530E-02-3.76097E-04 5.89460E-02 4.28418E-14 8.84247E-14
 -1      2778 2.00362E+01 5.02197E-02 7.95978E-04 7.19556E-02 8.97446E-14 1.28485E-13
 -1      2779 2.00179E+01 7.01346E-02 2.08539E-04 8.27190E-02 5.47239E-14-8.66629E-15
 -1      2780 2.00216E+01 2.66270E-02-2.21704E-04 3.98498E-02-3.93533E-14 1.10198E-13
 -1      2781 2.00278E+01 3.30491E-02 5.59314E-04 4.86377E-02-8.97128E-14 1.43271E-13
 -1      2782 2.00174E+01 4.62983E-02 5.45682E-05 5.70292E-02 4.81453E-15 6.19732E-14
 -1      2783 2.00159E+01 1.76652E-02-1.29143E-04 2.67482E-02 7.47905E-14-9.21467E-14
 -1      2784 2.00206E+01 2.18693E-02 3.91187E-04 3.27033E-02 1.51781E-13 9.08810E-14
 -1      2785 2.00149E+01 3.07153E-02-1.79225E-05 3.90767E-02 7.70419E-14 4.01071E-15
 -1      2786 2.00114E+01 1.17688E-02-7.41816E-05 1.77431E-02 2.06710E-13-1.89691E-13
 -1      2787 2.00148E+01 1.45428E-02 2.72952E-04 2.17898E-02 2.02277E-14-9.09347E-14
 -1      2788 2.00119E+01 2.04750E-02-4.71047E-05 2.65361E-02 1.49491E-13-1.24921E-13
 -1      2789 2.00078E+01 7.85294E-03-4.18508E-05 1.15507E-02 2.17697E-13-4.26154E-14
 -1      2790 2.00102E+01 9.70036E-03 1.90177E-04 1.43034E-02 2.83298E-13 7.49296E-15
 -1      2791 2.00090E+01 1.36950E-02-5.43188E-05 1.77802E-02 1.00207E-13-2.82286E-15
 -1      2792 2.00051E+01 5.22653E-03-2.30111E-05 7.30078E-03 3.90790E-14 8.11140E-15
 -1      2793 2.00068E+01 6.46864E-03 1.32268E-04 9.17003E-03 9.16565E-14 1.73807E-15
 -1      2794 2.00065E+01 9.16573E-03-5.12278E-05 1.16773E-02 1.40772E-13 1.27214E-13
 -1      2795 2.00032E+01 3.44879E-03-1.21414E-05 4.40070E-03-6.98135E-14 2.94968E-13
 -1      2796 2.00043E+01 4.29095E-03 9.16907E-05 5.66230E-03-3.70047E-14 2.19007E-13
 -1      2797 2.00046E+01 6.11183E-03-4.40163E-05 7.44118E-03-8.20350E-14 1.56772E-13
 -1      2798 2.00018E+01 2.23711E-03-5.94060E-06 2.44307E-03 8.87162E-14 4.54404E-13
 -1      2799 2.00026E+01 2.81142E-03 6.31840E-05 3.28441E-03 8.23467E-14 3.87949E-13
 -1      2800 2.00030E+01 4.03552E-03-3.58185E-05 4.52315E-03-5.10723E-14 4.18258E-13
 -1      2801 2.00008E+01 1.40856E-03-2.45386E-06 1.14513E-03-1.77028E-14 5.79870E-13
 -1      2802 2.00013E+01 1.80089E-03 4.31101E-05 1.69491E-03 6.23004E-14 4.86030E-13
 -1      2803 2.00019E+01 2.61549E-03-2.81039E-05 2.53807E-03-1.14750E-14 4.42528E-13
 -1      2804 2.00002E+01 8.43045E-04-5.34671E-07 3.08484E-04-1.70845E-13 4.22939E-13
 -1      2805 2.00005E+01 1.11005E-03 2.89616E-05 6.56187E-04-8.79344E-14 5.99836E-13
 -1      2806 2.00011E+01 1.64228E-03-2.14595E-05 1.21331E-03 2.99887E-14 6.43735E-13
 -1      2807 1.99998E+01 4.60344E-04 4.83942E-07-2.07325E-04-3.63268E-13 2.78102E-13
 -1      2808 2.00000E+01 6.40070E-04 1.90050E-05 1.13030E-06-2.95669E-13 2.68486E-13
 -1      2809 2.00005E+01 9.77388E-04-1.60251E-05 3.54410E-04-2.85544E-13 5.27192E-13
 -1      2810 1.99996E+01 2.05772E-04 9.87404E-07-5.02441E-04 2.34734E-13 3.98724E-13
 -1      2811 1.99997E+01 3.24301E-04 1.20334E-05-3.88776E-04-1.89579E-13 3.12758E-13
 -1      2812 2.00002E+01 5.27582E-04-1.17301E-05-1.78271E-04-2.27596E-13 3.23378E-13
 -1      2813 1.99995E+01 4.13061E-05 1.19759E-06-6.48484E-04 4.25985E-13 3.78303E-13
 -1      2814 1.99995E+01 1.16855E-04 7.19790E-06-5.98040E-04 5.24971E-13 3.20561E-13
 -1      2815 1.99999E+01 2.28909E-04-8.42011E-06-4.85388E-04 3.78652E-13 2.29767E-13
 -1      2816 1.99994E+01-5.99685E-05 1.24219E-06-6.96608E-04 1.32064E-13 4.09732E-13
 -1      2817 1.99994E+01-1.44608E-05 3.89463E-06-6.86997E-04 3.53176E-13 4.12267E-13
 -1      2818 1.99998E+01 3.66418E-05-5.91993E-06-6.39526E-04 3.41228E-13 2.56332E-13
 -1      2819 1.99994E+01-1.17367E-04 1.19490E-06-6.83121E-04 6.99673E-14 2.52802E-13
 -1      2820 1.99994E+01-9.25980E-05 1.68923E-06-6.98575E-04 1.04033E-13 4.25755E-13
 -1      2821 1.99997E+01-8.10155E-05-4.06417E-06-6.92845E-04 3.33262E-14 3.01472E-13
 -1      2822 1.99994E+01-1.44872E-04 1.09847E-06-6.33469E-04 6.19684E-15 4.51796E-13
 -1      2823 1.99994E+01-1.34107E-04 2.66454E-07-6.63037E-04-7.20066E-14 3.18984E-13
 -1      2824 1.99996E+01-1.46949E-04-2.70921E-06-6.82510E-04-2.81976E-14 5.84341E-13
 -1      2825 1.99995E+01-1.52636E-04 9.77709E-07-5.65140E-04-1.14705E-13 6.88380E-13
 -1      2826 1.99994E+01-1.50992E-04-6.03725E-07-6.01382E-04-1.92963E-14 4.37491E-13
 -1      2827 1.99996E+01-1.77749E-04-1.73629E-06-6.34637E-04-1.56385E-13 5.44481E-13
 -1      2828 1.99995E+01-1.48026E-04 8.46695E-07-4.89782E-04-2.39277E-14 6.95888E-13
 -1      2829 1.99995E+01-1.51968E-04-1.08943E-06-5.27824E-04 6.14312E-14 6.62304E-13
 -1      2830 1.99996E+01-1.85470E-04-1.05034E-06-5.67197E-04 4.05782E-14 6.59640E-13
 -1      2831 1.99996E+01-1.36364E-04 7.13464E-07-4.14794E-04 5.78602E-14 4.47238E-13
 -1      2832 1.99995E+01-1.43348E-04-1.31318E-06-4.51621E-04-6.59868E-14 6.26604E-13
 -1      2833 1.99996E+01-1.78855E-04-5.77392E-07-4.92168E-04-1.14380E-14 5.15218E-13
 -1      2834 1.99996E+01-1.21492E-04 5.82883E-07-3.44489E-04 3.62181E-13 2.38987E-13
 -1      2835 1.99996E+01-1.29684E-04-1.36187E-06-3.78434E-04 1.52618E-13 4.25285E-13
 -1      2836 1.99997E+01-1.64217E-04-2.60417E-07-4.17162E-04 8.01242E-14 2.58156E-13
 -1      2837 1.99997E+01-1.06195E-04 4.22366E-07-2.80950E-04 5.22133E-13 1.47894E-13
 -1      2838 1.99996E+01-1.14302E-04-1.30986E-06-3.11333E-04 5.05943E-13 3.08928E-13
 -1      2839 1.99997E+01-1.46119E-04-6.18692E-08-3.46633E-04 3.67759E-13 1.54332E-13
 -1      2840 1.99997E+01-9.24712E-05 2.89732E-07-2.24572E-04 2.51604E-13 3.51345E-13
 -1      2841 1.99997E+01-9.96403E-05-1.23248E-06-2.51425E-04 3.96398E-13 2.30566E-13
 -1      2842 1.99997E+01-1.27579E-04 2.35450E-07-2.83098E-04 3.67853E-13 3.14774E-13
 -1      2843 1.99997E+01-8.38381E-05 2.33282E-07-1.76346E-04 2.89015E-13 1.25653E-13
 -1      2844 1.99997E+01-8.96630E-05-1.18796E-06-2.00198E-04 4.14971E-13 1.69116E-13
 -1      2845 1.99997E+01-1.13185E-04 8.57233E-07-2.27903E-04 3.80463E-13 2.26488E-13
 -1      2846 1.99998E+01-1.04455E-04 9.52230E-07-1.79608E-04 1.79087E-13 2.89784E-13
 -1      2847 1.99999E+01-2.16509E-04 6.98777E-07-5.93468E-05 2.62376E-13-3.95944E-13
 -1      2848 1.99999E+01-2.08228E-04 6.41845E-08-7.86574E-05 3.69221E-13-2.28335E-13
 -1      2849 1.99999E+01-2.28112E-04-6.94728E-07-5.23887E-05 2.82135E-13-2.85719E-13
 -1      2850 3.10540E+01 2.06347E+00-6.99175E-02 9.23969E-01 2.48468E-13-1.72085E-14
 -1      2851 3.09625E+01 3.97445E+00-2.04128E-01 1.31690E+00 2.51077E-13 1.68476E-14
 -1      2852 1.99998E+01-1.17950E-04 5.74586E-07-1.37063E-04 2.50893E-13 1.13845E-13
 -1      2853 1.61445E+01-6.16022E-01 3.10270E-01-4.54659E+00-1.88738E-14 2.52742E-13
 -1      2854 1.99999E+01-1.95557E-04 8.03574E-07-9.85817E-05 3.49075E-13 2.65479E-13
 -1      2855 1.99998E+01-1.82520E-04-1.94416E-07-1.12550E-04 1.58045E-13 5.13656E-13
 -1      2856 1.99998E+01-1.81061E-04-7.52195E-07-1.33272E-04 2.35122E-13 3.52489E-13
 -1      2857 1.99999E+01-2.09879E-04-6.89521E-07-9.89944E-05 1.80543E-13-3.36390E-14
 -1      2858 1.99999E+01-2.22690E-04 2.83214E-07 3.55471E-05 3.32729E-13 4.02070E-13
 -1      2859 1.99999E+01-2.25625E-04 5.32388E-07 1.34181E-05 2.53852E-13 2.48766E-13
 -1      2860 1.99999E+01-2.34119E-04-7.55790E-07 5.29957E-07 3.09703E-13 1.21135E-13
 -1      2861 1.99999E+01-2.07784E-04-3.42422E-09 7.85436E-05 6.43537E-14-2.05395E-13
 -1      2862 1.99999E+01-2.15823E-04 7.25321E-07 5.95665E-05 2.51771E-13 1.12313E-13
 -1      2863 1.99999E+01-2.27458E-04-7.32224E-07 5.29456E-05 2.63317E-13 2.32961E-13
 -1      2864 1.99998E+01-1.81915E-04-2.55755E-07 1.12316E-04 1.34487E-15-1.15260E-13
 -1      2865 1.99999E+01-1.94657E-04 8.47732E-07 9.83672E-05 6.73002E-14-1.00590E-13
 -1      2866 1.99999E+01-2.08712E-04-6.24195E-07 9.89442E-05 5.23567E-14-2.72096E-13
 -1      2867 1.99998E+01-1.47254E-04-1.71730E-07 1.31210E-04 1.00131E-13 3.19648E-13
 -1      2868 1.99998E+01-1.63860E-04 7.89554E-07 1.25029E-04 1.22738E-13 1.82980E-13
 -1      2869 1.99998E+01-1.79399E-04-4.20280E-07 1.33142E-04 2.45460E-13 9.01791E-14
 -1      2870 8.90994E+00 1.30352E+00 1.99843E-01 2.26577E+00-2.50147E-13 7.05824E-14
 -1      2871 1.11401E+01 2.59001E+00 2.09141E-01-2.23248E+00 1.73674E-13 2.50328E-13
 -1      2872 2.99571E+01-1.98952E+00-1.56658E-02-1.72812E+00 2.74694E-13 1.16879E-13
 -1      2873 3.08436E+01-2.88411E-01-1.81618E-01-3.53707E-01 2.49772E-13 4.46310E-14
 -1      2874 1.99998E+01-8.06450E-05-1.11993E-07 1.23014E-04 2.55490E-13 5.54386E-13
 -1      2875 1.99998E+01-9.70879E-05-7.35321E-08 1.27726E-04 2.42596E-13 2.12673E-13
 -1      2876 1.99998E+01-8.30141E-05-6.70399E-07 1.37093E-04 2.57797E-13 3.53726E-13
 -1      2877 1.63730E+01 2.18263E+00-3.37284E-02 2.95408E+00-1.27212E-13 2.92044E-13
 -1      2878 1.58542E+01 2.10848E+00 7.51691E-02 3.39523E+00-1.94897E-13 1.71939E-13
 -1      2879 1.38601E+01 2.48183E+00 1.98118E-01 2.90115E+00-2.57667E-13 1.49908E-13
 -1      2880 1.56430E+01 2.61913E+00 1.06737E-01 2.06110E+00-5.55085E-14 3.17177E-14
 -1      2881 1.75395E+01 2.63986E+00 9.22550E-02-2.68879E+00 1.14644E-13 4.50903E-13
 -1      2882 3.00527E+01 2.31754E-01-1.86973E-01 1.28657E+00-4.71585E-14 3.22520E-13
 -1      2883 2.84584E+01-8.55934E-01 5.76146E-02 3.02799E+00 2.05044E-14 3.96405E-13
 -1      2884 3.08574E+01 5.96519E+00-1.52169E-01 1.34630E+00 2.44471E-13-6.67522E-15
 -1      2885 3.05793E+01 7.16282E+00-2.20069E-01 9.28575E-01 1.80522E-13-4.60951E-14
 -1      2886 1.31780E+01-2.31085E+00 1.74128E-01-7.52692E+00 2.01200E-13 3.61156E-13
 -1      2887 1.66960E+01-3.59938E+00 2.15339E-03-8.00987E+00 2.03282E-13 3.25226E-13
 -1      2888 2.61180E+01-4.27921E+00 3.32785E-02-4.86677E+00 1.97897E-13-2.54380E-14
 -1      2889 2.82476E+01-3.54386E+00-1.13942E-01-3.43588E+00 2.53783E-13 7.64389E-14
 -1      2890 2.07613E+01-4.32169E+00 1.19495E-01-7.17757E+00 1.95441E-13 1.24820E-13
 -1      2891 2.37877E+01-4.67863E+00-3.55504E-02-6.34891E+00 1.50407E-13-3.39520E-14
 -1      2892 2.52927E+01-4.29007E+00 5.47305E-02-4.79651E+00 1.96773E-13-3.82125E-14
 -1      2893 1.24768E+01 1.15147E+00 6.39217E-02 7.65393E+00 4.06661E-13 3.41269E-13
 -1      2894 3.10997E+01 7.48140E+00-1.79721E-01-1.31243E+00-6.86118E-14 6.00145E-14
 -1      2895 3.05973E+01 5.98249E+00-1.54468E-01-1.66353E+00-1.09190E-13 6.31578E-14
 -1      2896 1.59980E+01 3.97556E-01 1.50749E-01 7.17302E+00 3.89015E-13 3.40034E-13
 -1      2897 1.66475E+01 1.57563E+00 8.64159E-02-3.46970E+00 8.24410E-14 3.53995E-13
 -1      2898 2.27378E+01 2.19097E+00-1.25935E-02-2.18929E+00 1.98197E-13-2.73239E-13
 -1      2899 2.22168E+01 2.21851E+00-2.02234E-02-2.32155E+00 1.73670E-13-3.12523E-13
 -1      2900 2.31707E+01 2.09422E+00 2.07471E-02-2.21401E+00 1.68046E-13-2.44962E-13
 -1      2901 2.99089E+01 4.81467E-01-6.84403E-02 6.44306E-01 2.61652E-13-6.85563E-15
 -1      2902 2.84558E+01 5.44823E+00-1.11531E-01-2.12142E+00-4.87249E-14-8.67917E-14
 -1      2903 3.00692E+01 4.73515E+00-1.13424E-01-1.88375E+00-7.23449E-14 5.48589E-14
 -1      2904 2.90276E+01 3.52559E+00-8.00831E-02-1.83967E+00-3.92741E-14 4.17305E-14
 -1      2905 2.40262E+01-2.45142E-01 4.15502E-02 2.64017E+00 2.68695E-13 2.29912E-13
 -1      2906 2.47214E+01-1.05380E-01-5.44014E-02 1.47758E+00 2.48811E-13 1.52046E-13
 -1      2907 1.31127E+01-1.07652E+00 1.57513E-01-6.53705E+00 1.21958E-13 3.57298E-13
 -1      2908 2.94841E+01 4.39079E+00-8.50581E-02 1.63765E+00 2.40752E-13-7.13318E-14
 -1      2909 9.87328E+00 1.87577E+00 6.46739E-02 1.23982E+00-3.19002E-13 8.79574E-14
 -1      2910 2.96740E+01 9.31054E-01-4.36578E-02 4.48767E-02-2.70617E-14 2.36963E-13
 -1      2911 2.46699E+01 1.37163E+00 2.56567E-03-1.10629E+00 2.36347E-13-3.35140E-14
 -1      2912 2.42399E+01 1.65481E+00-4.41909E-02-1.55172E+00 2.31455E-13-1.16162E-13
 -1      2913 2.43311E+01 1.82903E+00 2.64613E-02-1.92505E+00 1.88718E-13-1.44625E-13
 -1      2914 1.27470E+01 5.79756E-01 1.78742E-01-3.56347E+00 7.21090E-14 2.24987E-13
 -1      2915 1.99998E+01-1.34189E-04-6.95830E-07-1.54070E-04 3.00603E-13 1.30922E-13
 -1      2916 1.99998E+01-1.16577E-04-8.08232E-08 1.30158E-04 1.26001E-13 8.85640E-14
 -1      2917 2.69958E+01-1.39761E+00 3.81129E-02 3.43420E+00 9.09481E-14 3.72466E-13
 -1      2918 2.99138E+01 7.51616E+00-1.42532E-01 5.85487E-01 1.31423E-13-8.59417E-14
 -1      2919 2.86507E+01 7.56722E+00-1.77241E-01 1.26000E-01 9.98646E-14-1.51159E-13
 -1      2920 2.83418E+01 6.50154E+00-8.96797E-02 9.94196E-01 1.82410E-13-1.53093E-13
 -1      2921 1.96964E+01-3.57202E+00 1.08943E-01-6.92480E+00 2.00381E-13 1.52357E-13
 -1      2922 1.99998E+01-1.02315E-04 2.76140E-07 1.56563E-04 4.47396E-13 1.25675E-13
 -1      2923 2.50666E+01 5.53255E-01 2.23227E-02 2.90982E-01 2.30717E-13 8.15155E-14
 -1      2924 2.49500E+01 8.41424E-01-5.99431E-02-4.88421E-01 2.30860E-13 7.38559E-15
 -1      2925 2.53475E+01 1.10387E+00 2.20931E-02-1.17043E+00 1.67352E-13-2.85796E-16
 -1      2926 2.96369E+01 7.47936E+00-1.36724E-01-1.19538E+00-2.23155E-14-6.68771E-14
 -1      2927 1.89345E+01-5.59847E-01 3.78441E-02 6.88345E+00 3.31166E-13 3.63876E-13
 -1      2928 2.86493E+01-2.89150E+00 6.72329E-03-1.95438E+00 2.91824E-13 5.27078E-14
 -1      2929 2.51295E+01-1.20523E+00 1.22659E-02 3.33910E+00 1.81678E-13 3.19446E-13
 -1      2930 1.99998E+01-1.17175E-04 1.97506E-07 1.52414E-04 4.71978E-13 4.95173E-14
 -1      2931 1.99998E+01-1.34039E-04 2.09450E-07 1.40263E-04 1.40601E-13 1.26845E-13
 -1      2932 1.99998E+01-1.48740E-04-4.39468E-07 1.54578E-04 3.88659E-13 2.81153E-13
 -1      2933 1.99998E+01-1.21604E-04-5.92203E-07 1.67707E-04 4.07708E-13-2.53562E-14
 -1      2934 2.57420E+01 8.76849E-02 1.67580E-02 5.04371E-01 1.82738E-13 1.26387E-13
 -1      2935 1.27908E+01 3.91908E-02 1.10328E-01-5.43472E+00 6.83585E-14 2.87215E-13
 -1      2936 1.52848E+01-1.48163E+00-2.20391E-03-6.52281E+00 1.35773E-13 3.18010E-13
 -1      2937 1.81251E+01 1.57387E+00-1.75285E-02 6.71429E-01 1.62271E-13 1.70922E-13
 -1      2938 1.76286E+01 1.82013E+00-1.93657E-02 7.75867E-01 2.21953E-13 1.71803E-13
 -1      2939 2.13017E+01 1.66458E+00-1.93626E-03-1.90370E+00 9.92177E-14-3.07050E-13
 -1      2940 2.11551E+01 1.67833E+00 6.64217E-03-1.60767E+00 7.36555E-14-3.10919E-13
 -1      2941 2.84200E+01 7.39512E+00-1.49560E-01-6.93135E-01 4.32987E-14-1.58647E-13
 -1      2942 2.78719E+01 6.62346E+00-1.25477E-01-1.44247E+00-2.20796E-14-1.72921E-13
 -1      2943 2.72688E+01 6.78003E+00-8.76788E-02-2.55258E-01 9.85184E-14-2.38862E-13
 -1      2944 2.09988E+01 1.72403E+00-4.01426E-03-1.29354E+00 6.23542E-14-2.82531E-13
 -1      2945 2.08676E+01 1.78056E+00 7.69924E-03-9.37863E-01 5.39044E-14-2.67454E-13
 -1      2946 2.16027E+01 1.98463E+00 2.22730E-03-1.58122E+00 8.81559E-14-2.69489E-13
 -1      2947 2.07374E+01 1.80682E+00 1.83416E-03-5.27030E-01 2.87285E-14-2.40733E-13
 -1      2948 2.06561E+01 1.78147E+00 3.50240E-03-1.40788E-01 2.53292E-14-2.13530E-13
 -1      2949 2.13218E+01 2.11430E+00-4.16937E-03-8.39057E-01 6.84139E-14-2.45960E-13
 -1      2950 2.06214E+01 1.69067E+00 8.74378E-03 2.89300E-01 2.21520E-14-1.82694E-13
 -1      2951 2.06055E+01 1.52228E+00-4.63031E-03 6.38189E-01 2.24008E-14-2.00573E-13
 -1      2952 2.11514E+01 2.05093E+00-7.84229E-03 3.73694E-02 4.03706E-14-2.06102E-13
 -1      2953 2.06702E+01 1.30133E+00 1.24443E-02 9.80660E-01 4.31684E-14-1.76478E-13
 -1      2954 2.07056E+01 1.02266E+00-1.05242E-02 1.22495E+00 5.79662E-14-1.58025E-13
 -1      2955 2.11622E+01 1.66900E+00-5.13513E-03 8.46307E-01 4.94619E-14-1.53578E-13
 -1      2956 2.08129E+01 7.27527E-01 1.14277E-02 1.41437E+00 6.32773E-14-1.51760E-13
 -1      2957 2.08729E+01 4.15129E-01-1.13309E-02 1.52085E+00 5.71814E-14-1.26595E-13
 -1      2958 2.12990E+01 1.03398E+00 1.10436E-03 1.39040E+00 5.36450E-14-1.73094E-13
 -1      2959 2.09480E+01 1.32917E-01 6.49987E-03 1.54240E+00 7.79790E-14-1.02332E-13
 -1      2960 2.09990E+01-1.25985E-01-7.87285E-03 1.52573E+00 7.76034E-14-5.37037E-14
 -1      2961 2.14440E+01 3.19739E-01 5.66233E-03 1.59223E+00 1.10377E-13-1.08704E-13
 -1      2962 2.10020E+01-3.32225E-01 1.10012E-03 1.42867E+00 6.60144E-14-3.03252E-14
 -1      2963 2.10253E+01-4.95165E-01-3.05260E-03 1.33076E+00 9.71975E-14-7.95803E-15
 -1      2964 2.14868E+01-2.73745E-01 6.49511E-03 1.49634E+00 1.02207E-13-5.30606E-14
 -1      2965 2.09577E+01-6.05991E-01-2.66531E-03 1.17731E+00 7.64062E-14 1.79966E-14
 -1      2966 2.09506E+01-6.72152E-01 1.14657E-03 1.04356E+00 8.29688E-14 1.60850E-14
 -1      2967 2.13979E+01-6.49862E-01 4.05083E-03 1.22816E+00 8.79373E-14 2.58954E-14
 -1      2968 2.08375E+01-7.00259E-01-4.26999E-03 8.83628E-01 6.38582E-14 7.84094E-15
 -1      2969 2.08077E+01-6.93471E-01 3.69713E-03 7.48524E-01 4.85277E-14 1.60060E-14
 -1      2970 2.12070E+01-8.05057E-01 7.44906E-04 9.05577E-01 7.67874E-14 3.95948E-14
 -1      2971 2.06793E+01-6.66216E-01-4.25478E-03 6.10982E-01 1.56920E-14-1.19358E-15
 -1      2972 2.06381E+01-6.17116E-01 4.66713E-03 4.94057E-01-9.55894E-15-3.00395E-14
 -1      2973 2.09673E+01-7.92997E-01-1.75690E-03 6.07515E-01 5.01695E-14 5.10345E-15
 -1      2974 2.05169E+01-5.61928E-01-3.45827E-03 3.89164E-01-6.06812E-14-5.92004E-14
 -1      2975 2.04740E+01-4.96218E-01 4.53579E-03 2.97778E-01-1.21395E-13-8.77184E-14
 -1      2976 2.07269E+01-6.83921E-01-3.03400E-03 3.69960E-01-6.34494E-14-6.36120E-14
 -1      2977 2.03725E+01-4.33558E-01-2.48653E-03 2.24643E-01-1.43548E-13-1.36957E-13
 -1      2978 2.03341E+01-3.68206E-01 3.82825E-03 1.58600E-01-1.56391E-13-1.49800E-13
 -1      2979 2.05163E+01-5.36660E-01-3.31279E-03 1.99031E-01-1.86900E-13-4.75120E-14
 -1      2980 2.02559E+01-3.10337E-01-1.63790E-03 1.11448E-01-1.40140E-13-1.73163E-13
 -1      2981 2.02248E+01-2.54231E-01 2.94114E-03 6.69249E-02-5.57613E-14-1.62402E-13
 -1      2982 2.03485E+01-3.89895E-01-2.98881E-03 8.58243E-02-1.55083E-13-1.08977E-13
 -1      2983 2.01684E+01-2.06794E-01-9.99478E-04 3.89505E-02 3.03191E-14-1.23304E-13
 -1      2984 2.01450E+01-1.63075E-01 2.10291E-03 1.10293E-02 5.12144E-14-7.51830E-14
 -1      2985 2.02241E+01-2.63814E-01-2.40484E-03 1.66489E-02 2.81198E-14-2.38263E-14
 -1      2986 2.01066E+01-1.27377E-01-5.60898E-04-3.80871E-03 1.07212E-13-1.89509E-14
 -1      2987 2.00898E+01-9.57953E-02 1.41129E-03-1.98033E-02 1.75440E-13 1.07566E-14
 -1      2988 2.01373E+01-1.65517E-01-1.78425E-03-2.16630E-02 1.56540E-13 1.99830E-14
 -1      2989 2.00651E+01-7.07792E-02-2.78423E-04-2.62070E-02 2.26098E-13-4.03438E-14
 -1      2990 2.00536E+01-4.94642E-02 8.89768E-04-3.41491E-02 1.16853E-13-3.54745E-14
 -1      2991 2.00797E+01-9.44461E-02-1.24191E-03-3.97533E-02 1.67676E-13-1.97729E-14
 -1      2992 2.00384E+01-3.30876E-02-1.06029E-04-3.54934E-02 1.18872E-14 8.32170E-14
 -1      2993 2.00307E+01-1.96795E-02 5.22343E-04-3.83317E-02 2.70229E-14 9.28688E-14
 -1      2994 2.00435E+01-4.64090E-02-8.17470E-04-4.54281E-02 1.51221E-13 6.89951E-15
 -1      2995 2.00220E+01-9.73899E-03-6.76122E-06-3.68983E-02-3.72697E-14 1.13600E-13
 -1      2996 2.00170E+01-1.99815E-03 2.78352E-04-3.67397E-02 1.51446E-14 7.56953E-14
 -1      2997 2.00219E+01-1.61229E-02-5.10793E-04-4.40475E-02 8.46573E-15 1.27254E-13
 -1      2998 2.00123E+01 3.45917E-03 4.59632E-05-3.39931E-02 8.38623E-14-4.35333E-14
 -1      2999 2.00091E+01 7.38753E-03 1.25626E-04-3.22633E-02 5.44534E-16-5.56969E-14
 -1      3000 2.00098E+01 1.42394E-03-3.02719E-04-3.91021E-02-3.48348E-14 1.37296E-13
 -1      3001 2.00068E+01 9.91324E-03 7.00290E-05-2.90935E-02-1.14000E-14-1.02273E-13
 -1      3002 2.00047E+01 1.14373E-02 3.63663E-05-2.67051E-02-7.88436E-14-1.83478E-14
 -1      3003 2.00035E+01 1.03835E-02-1.69158E-04-3.27535E-02-2.32862E-14-1.19636E-13
 -1      3004 2.00038E+01 1.21734E-02 7.70523E-05-2.36161E-02-5.20465E-15 2.46641E-14
 -1      3005 2.00025E+01 1.22934E-02-1.11650E-05-2.11163E-02 9.42570E-14 2.26379E-14
 -1      3006 2.00006E+01 1.39113E-02-8.79843E-05-2.62613E-02 2.62928E-14-1.17381E-13
 -1      3007 2.00023E+01 1.20296E-02 7.44333E-05-1.83634E-02 1.04126E-13-5.25824E-14
 -1      3008 2.00014E+01 1.14154E-02-3.27382E-05-1.60515E-02 2.02166E-13-3.38961E-14
 -1      3009 1.99995E+01 1.42528E-02-4.15057E-05-2.02980E-02 9.16296E-14 5.95571E-14
 -1      3010 2.00015E+01 1.06671E-02 6.68294E-05-1.37368E-02 1.55693E-13-5.94978E-14
 -1      3011 2.00008E+01 9.74196E-03-3.91744E-05-1.17519E-02 5.70624E-14-2.08801E-14
 -1      3012 1.99994E+01 1.29164E-02-1.67528E-05-1.51679E-02 1.94529E-13-1.18861E-13
 -1      3013 2.00010E+01 8.82496E-03 5.71154E-05-9.88812E-03-1.67627E-14 8.92875E-14
 -1      3014 2.00006E+01 7.83835E-03-3.75304E-05-8.27143E-03-5.06885E-14 8.45018E-14
 -1      3015 1.99996E+01 1.08582E-02-4.84214E-06-1.09553E-02 2.58362E-14-1.14451E-13
 -1      3016 2.00008E+01 6.93181E-03 4.70131E-05-6.82344E-03-1.29096E-13 1.22869E-13
 -1      3017 2.00005E+01 6.01733E-03-3.21755E-05-5.56108E-03-3.83759E-14 2.29548E-13
 -1      3018 1.99998E+01 8.64477E-03-3.09284E-08-7.62184E-03-6.40617E-14 9.03480E-14
 -1      3019 2.00006E+01 5.21129E-03 3.74991E-05-4.47191E-03-1.24658E-13 2.66119E-13
 -1      3020 2.00004E+01 4.42942E-03-2.56549E-05-3.52227E-03-9.61136E-14 2.95534E-13
 -1      3021 2.00001E+01 6.58210E-03 1.19154E-06-5.06766E-03-5.29097E-14 1.41008E-13
 -1      3022 2.00005E+01 3.75915E-03 2.90714E-05-2.72866E-03-6.17515E-14 3.27772E-13
 -1      3023 2.00003E+01 3.12689E-03-1.93329E-05-2.03966E-03 2.69640E-15 2.42517E-13
 -1      3024 2.00003E+01 4.81078E-03 8.45299E-07-3.16943E-03-5.59904E-14 1.78727E-13
 -1      3025 2.00004E+01 2.59624E-03 2.19251E-05-1.48076E-03 9.66567E-14 1.56871E-13
 -1      3026 2.00002E+01 2.10678E-03-1.38458E-05-9.99773E-04 8.62511E-14 2.33778E-13
 -1      3027 2.00003E+01 3.37255E-03 8.34670E-09-1.80218E-03 5.96654E-14 1.78807E-13
 -1      3028 2.00003E+01 1.70332E-03 1.60714E-05-6.21491E-04 2.67412E-14 1.90370E-13
 -1      3029 2.00002E+01 1.33857E-03-9.40587E-06-3.00611E-04-1.40064E-13 2.24900E-13
 -1      3030 2.00004E+01 2.25466E-03-8.04376E-07-8.51051E-04 6.06367E-14 1.24535E-13
 -1      3031 2.00002E+01 1.04293E-03 1.14165E-05-5.73168E-05-6.47932E-15 2.67432E-13
 -1      3032 2.00001E+01 7.80882E-04-5.99673E-06 1.44353E-04 1.43896E-13 3.45088E-13
 -1      3033 2.00003E+01 1.41798E-03-1.39358E-06-2.16674E-04 2.70502E-14 3.02747E-13
 -1      3034 2.00001E+01 5.72157E-04 7.81378E-06 2.89697E-04-1.05720E-13 4.57349E-13
 -1      3035 2.00000E+01 3.91110E-04-3.49374E-06 4.05491E-04-6.01966E-14 3.95901E-13
 -1      3036 2.00003E+01 8.14002E-04-1.72255E-06 1.83296E-04 1.40378E-13 3.40425E-13
 -1      3037 2.00000E+01 2.49732E-04 5.09798E-06 4.82002E-04-1.13687E-13 3.27079E-13
 -1      3038 2.00000E+01 1.30291E-04-1.73398E-06 5.38118E-04-1.18313E-13 2.54639E-13
 -1      3039 2.00002E+01 3.94297E-04-1.82753E-06 4.14828E-04-1.52600E-13 3.61967E-13
 -1      3040 1.99999E+01 3.93390E-05 3.10575E-06 5.68048E-04-4.25922E-14 1.36385E-13
 -1      3041 1.99999E+01-3.47762E-05-5.54128E-07 5.84431E-04-1.09381E-14 3.60305E-15
 -1      3042 2.00001E+01 1.15333E-04-1.76880E-06 5.29257E-04-1.43590E-13 3.02704E-13
 -1      3043 1.99999E+01-8.91920E-05 1.68756E-06 5.84333E-04 1.84302E-14 1.47348E-15
 -1      3044 1.99999E+01-1.31058E-04 1.91134E-07 5.75712E-04 1.53229E-13-8.48833E-14
 -1      3045 2.00001E+01-5.96206E-05-1.60637E-06 5.65473E-04-3.21163E-14 1.55739E-13
 -1      3046 1.99999E+01-1.59913E-04 7.13416E-07 5.57559E-04 3.52423E-13-1.43561E-13
 -1      3047 1.99998E+01-1.79688E-04 6.22307E-07 5.34477E-04 2.69643E-13-1.72069E-13
 -1      3048 2.00000E+01-1.60212E-04-1.38983E-06 5.52164E-04 2.11582E-13 7.75279E-15
 -1      3049 1.99998E+01-1.91392E-04 7.45680E-08 5.06658E-04 1.50948E-13-2.20474E-13
 -1      3050 1.99998E+01-1.96752E-04 8.34544E-07 4.76395E-04-4.60858E-14-2.45987E-13
 -1      3051 2.00000E+01-2.09566E-04-1.15592E-06 5.09893E-04 1.42665E-13-9.94830E-14
 -1      3052 1.99998E+01-1.97590E-04-3.17359E-07 4.44567E-04-1.61332E-13-3.25294E-13
 -1      3053 1.99998E+01-1.94204E-04 8.99833E-07 4.11922E-04-3.29060E-13-2.51849E-13
 -1      3054 1.99999E+01-2.25226E-04-9.29823E-07 4.52918E-04-7.86351E-14-1.41098E-13
 -1      3055 1.99998E+01-1.88780E-04-5.30315E-07 3.79704E-04-3.65618E-13-1.93119E-13
 -1      3056 1.99998E+01-1.80767E-04 8.70518E-07 3.47640E-04-5.23818E-14-2.02599E-13
 -1      3057 1.99999E+01-2.20203E-04-7.29273E-07 3.90720E-04-2.48288E-13-4.04859E-14
 -1      3058 1.99998E+01-1.72400E-04-6.12192E-07 3.17137E-04 3.66979E-14-3.07121E-13
 -1      3059 1.99998E+01-1.62676E-04 7.92289E-07 2.87273E-04 1.20016E-14-3.99472E-13
 -1      3060 1.99999E+01-2.03983E-04-5.63444E-07 3.29219E-04-4.02651E-15-4.53306E-13
 -1      3061 1.99998E+01-1.53752E-04-6.10059E-07 2.59589E-04-4.47234E-14-2.43393E-13
 -1      3062 1.99998E+01-1.44396E-04 5.89490E-07 2.32572E-04-9.07897E-14-2.45735E-13
 -1      3063 1.99998E+01-1.83354E-04-4.61410E-07 2.71773E-04 1.22653E-13-3.40616E-13
 -1      3064 1.99998E+01-1.35866E-04-5.97441E-07 2.11251E-04 8.39079E-14-1.09769E-13
 -1      3065 1.99998E+01-1.28251E-04 3.45142E-07 1.86843E-04 3.05482E-13 1.04513E-13
 -1      3066 1.99998E+01-1.42905E-04 2.10595E-07 1.82491E-04 3.46422E-13 2.36047E-13
 -1      3067 1.99998E+01-1.61836E-04-1.64625E-07 2.23223E-04 2.26768E-13 1.91642E-13
 -1      3068 1.99999E+01-2.43203E-04 3.15555E-07 1.47136E-05 3.29113E-13 3.07474E-13
 -1      3069 1.99999E+01-2.43322E-04 3.65808E-07-1.31843E-05 3.12580E-13-2.36275E-15
 -1      3070 1.68868E+01 2.07812E+00-2.27045E-02 7.31681E-01 1.41355E-13 5.21857E-14
 -1      3071 1.60571E+01 2.30413E+00-3.04657E-02 8.38280E-01 4.60036E-14 7.58508E-15
 -1      3072 1.70011E+01 2.03579E+00 4.54706E-02 1.52415E-01 1.11830E-13 1.25573E-13
 -1      3073 1.93675E+01 7.91701E-01-8.41758E-03 4.53386E-01 1.68235E-13 7.58223E-14
 -1      3074 1.91990E+01 9.51984E-01-5.69414E-03 5.40347E-01 1.49007E-13 1.18500E-13
 -1      3075 1.96493E+01 5.40901E-01-5.72506E-03 3.48598E-01-3.07535E-14 3.11775E-14
 -1      3076 1.95566E+01 6.56954E-01-2.54439E-03 4.18932E-01 4.55159E-14 7.63536E-16
 -1      3077 1.93312E+01 7.96065E-01 1.13132E-02 2.99318E-01 1.55059E-13 2.36941E-13
 -1      3078 1.98139E+01 3.64751E-01-3.83788E-03 2.60938E-01-1.09316E-14 1.14192E-14
 -1      3079 1.97653E+01 4.45861E-01-8.64400E-04 3.15017E-01-6.86507E-14 2.49612E-14
 -1      3080 1.96126E+01 5.49732E-01 6.98586E-03 2.52117E-01-1.10200E-14 2.28852E-13
 -1      3081 1.99076E+01 2.44151E-01-2.53660E-03 1.91722E-01 1.82565E-13 3.53672E-14
 -1      3082 1.98837E+01 2.99561E-01-5.15620E-05 2.31919E-01 6.71170E-14 4.70467E-14
 -1      3083 1.97822E+01 3.74622E-01 4.22529E-03 2.01287E-01 1.30513E-14 1.54226E-13
 -1      3084 1.99590E+01 1.62918E-01-1.65521E-03 1.39017E-01 1.47695E-13 1.31282E-13
 -1      3085 1.99487E+01 2.00224E-01 2.89186E-04 1.68247E-01 2.58121E-13 1.13380E-13
 -1      3086 1.98821E+01 2.53319E-01 2.50242E-03 1.55268E-01 1.52383E-13 2.09792E-13
 -1      3087 1.99861E+01 1.08723E-01-1.06959E-03 9.97994E-02 5.20606E-14 5.87285E-14
 -1      3088 1.99828E+01 1.33632E-01 3.91983E-04 1.20763E-01 1.13713E-13 1.29812E-13
 -1      3089 1.99397E+01 1.70688E-01 1.44656E-03 1.16971E-01 1.35427E-13 2.11992E-13
 -1      3090 1.99994E+01 7.27316E-02-6.85540E-04 7.10449E-02 4.18389E-14 5.30759E-14
 -1      3091 1.99994E+01 8.93018E-02 3.84927E-04 8.59567E-02-6.71368E-15 1.28718E-14
 -1      3092 1.99719E+01 1.14973E-01 8.14873E-04 8.65948E-02 7.09000E-14 1.83867E-13
 -1      3093 2.00051E+01 4.88447E-02-4.37163E-04 5.01579E-02 8.87203E-14-2.86606E-14
 -1      3094 2.00066E+01 5.98686E-02 3.34083E-04 6.07176E-02 1.33831E-13 1.38988E-13
 -1      3095 1.99893E+01 7.75912E-02 4.42916E-04 6.32093E-02 5.46874E-14 8.37390E-14
 -1      3096 2.00069E+01 3.29478E-02-2.77956E-04 3.50766E-02 1.70616E-13-8.10584E-14
 -1      3097 2.00088E+01 4.03064E-02 2.72132E-04 4.25371E-02 1.05960E-13-2.09722E-14
 -1      3098 1.99981E+01 5.25359E-02 2.28431E-04 4.55501E-02 1.40403E-13 1.48760E-13
 -1      3099 2.00068E+01 2.23094E-02-1.76512E-04 2.42360E-02 1.30115E-13-6.02619E-14
 -1      3100 2.00087E+01 2.72506E-02 2.13522E-04 2.94986E-02 1.72027E-13-1.24837E-14
 -1      3101 2.00022E+01 3.57008E-02 1.07970E-04 3.23923E-02 1.24359E-13 1.58741E-13
 -1      3102 2.00059E+01 1.51364E-02-1.12058E-04 1.64779E-02 1.13684E-14 2.09128E-14
 -1      3103 2.00075E+01 1.84797E-02 1.63483E-04 2.01824E-02-2.17178E-14-1.42961E-13
 -1      3104 2.00037E+01 2.43300E-02 4.26211E-05 2.26894E-02 5.06287E-14 2.33648E-13
 -1      3105 2.00047E+01 1.02587E-02-7.11066E-05 1.09561E-02 1.81176E-14 1.44562E-13
 -1      3106 2.00060E+01 1.25397E-02 1.22994E-04 1.35542E-02 5.73695E-14 5.71082E-14
 -1      3107 2.00039E+01 1.65958E-02 8.93259E-06 1.55998E-02-6.86228E-15-3.79878E-14
 -1      3108 2.00036E+01 6.91435E-03-4.50201E-05 7.05575E-03-2.37174E-13 3.08207E-13
 -1      3109 2.00046E+01 8.48259E-03 9.12439E-05 8.86640E-03-1.73675E-13 1.70269E-13
 -1      3110 2.00036E+01 1.12942E-02-7.01878E-06 1.04690E-02-7.24134E-14 2.33850E-13
 -1      3111 2.00026E+01 4.60593E-03-2.83260E-05 4.33034E-03-9.83454E-14 5.01684E-13
 -1      3112 2.00034E+01 5.69040E-03 6.68366E-05 5.57942E-03-9.89205E-14 4.63288E-13
 -1      3113 2.00030E+01 7.63358E-03-1.33642E-05 6.79639E-03-2.49879E-13 5.29717E-13
 -1      3114 2.00019E+01 3.00641E-03-1.75817E-05 2.45475E-03 7.12106E-14 5.18625E-13
 -1      3115 2.00024E+01 3.75831E-03 4.83308E-05 3.30328E-03-2.22326E-15 5.65690E-13
 -1      3116 2.00024E+01 5.09214E-03-1.47608E-05 4.20320E-03-5.71338E-14 6.03916E-13
 -1      3117 2.00012E+01 1.89831E-03-1.06299E-05 1.19136E-03-6.17068E-14 5.47556E-13
 -1      3118 2.00016E+01 2.41874E-03 3.44494E-05 1.75488E-03 9.43917E-14 4.95962E-13
 -1      3119 2.00018E+01 3.32329E-03-1.38104E-05 2.40392E-03 4.43935E-14 4.93717E-13
 -1      3120 2.00008E+01 1.13482E-03-6.11879E-06 3.65954E-04-1.52989E-13 3.32556E-13
 -1      3121 2.00011E+01 1.49242E-03 2.41366E-05 7.27852E-04-9.08351E-14 4.51023E-13
 -1      3122 2.00014E+01 2.09417E-03-1.19190E-05 1.18403E-03 5.67912E-14 5.05454E-13
 -1      3123 2.00005E+01 6.15054E-04-3.19699E-06-1.49425E-04-9.50685E-14 1.51553E-13
 -1      3124 2.00006E+01 8.57290E-04 1.65500E-05 7.12807E-05-3.31372E-13 2.19608E-13
 -1      3125 2.00010E+01 1.24593E-03-9.80932E-06 3.82723E-04-1.39578E-13 3.26036E-13
 -1      3126 2.00002E+01 2.68393E-04-1.32314E-06-4.48691E-04 3.49206E-13 2.37058E-13
 -1      3127 2.00003E+01 4.28663E-04 1.10304E-05-3.25332E-04 2.45818E-13 1.06915E-13
 -1      3128 2.00007E+01 6.68355E-04-7.82437E-06-1.20152E-04 5.73141E-14 2.77560E-13
 -1      3129 2.00001E+01 4.45956E-05-1.47936E-07-6.00506E-04 2.02244E-13 4.29196E-13
 -1      3130 2.00001E+01 1.46773E-04 7.06721E-06-5.42759E-04 3.30673E-13 3.97332E-13
 -1      3131 2.00005E+01 2.83645E-04-6.10229E-06-4.13904E-04 2.71090E-13 4.97091E-13
 -1      3132 1.99999E+01-9.25798E-05 5.58110E-07-6.54708E-04 4.61732E-14 4.44625E-13
 -1      3133 2.00000E+01-3.12237E-05 4.26766E-06-6.39749E-04 7.35990E-14 4.55146E-13
 -1      3134 2.00003E+01 3.60412E-05-4.67637E-06-5.64435E-04 6.68930E-14 7.95130E-13
 -1      3135 1.99999E+01-1.69509E-04 9.48660E-07-6.47055E-04-5.56107E-14 4.83742E-13
 -1      3136 1.99999E+01-1.36387E-04 2.33075E-06-6.58652E-04 4.34745E-14 4.72906E-13
 -1      3137 2.00001E+01-1.14882E-04-3.53039E-06-6.19879E-04 8.74066E-14 7.32951E-13
 -1      3138 1.99998E+01-2.05465E-04 1.12841E-06-6.02790E-04-2.20776E-13 4.45595E-13
 -1      3139 1.99998E+01-1.91380E-04 1.02705E-06-6.29592E-04-1.16129E-13 4.96565E-13
 -1      3140 2.00000E+01-1.98648E-04-2.62822E-06-6.14916E-04-1.28238E-13 5.82353E-13
 -1      3141 1.99998E+01-2.14522E-04 1.16970E-06-5.39321E-04 4.13637E-14 6.37934E-13
 -1      3142 1.99998E+01-2.12768E-04 1.82681E-07-5.73587E-04-1.83324E-13 5.65966E-13
 -1      3143 2.00000E+01-2.36871E-04-1.92894E-06-5.74081E-04-2.80760E-13 5.17597E-13
 -1      3144 1.99998E+01-2.06915E-04 1.12185E-06-4.68272E-04 6.28435E-14 4.89032E-13
 -1      3145 1.99998E+01-2.12626E-04-3.33387E-07-5.04909E-04 1.04725E-13 6.84479E-13
 -1      3146 1.99999E+01-2.45348E-04-1.39382E-06-5.14318E-04 1.85320E-14 5.25810E-13
 -1      3147 1.99998E+01-1.90035E-04 1.02699E-06-3.97018E-04 2.64733E-13 3.71228E-13
 -1      3148 1.99998E+01-1.99713E-04-6.19572E-07-4.32870E-04 1.93091E-13 4.51427E-13
 -1      3149 1.99999E+01-2.35564E-04-9.90326E-07-4.46941E-04 3.48052E-13 6.85546E-13
 -1      3150 1.99998E+01-1.69393E-04 7.77663E-07-3.29981E-04 3.15181E-13 2.45335E-13
 -1      3151 1.99998E+01-1.80349E-04-7.46011E-07-3.63194E-04 2.30058E-13 7.18322E-14
 -1      3152 1.99998E+01-2.15789E-04-6.88663E-07-3.79131E-04 4.03862E-13 5.17523E-13
 -1      3153 1.99998E+01-1.48608E-04 1.94104E-07-2.69173E-04 3.78527E-13 1.40758E-13
 -1      3154 1.99998E+01-1.59061E-04-8.31013E-07-2.98456E-04 4.12144E-13 2.30243E-13
 -1      3155 1.99998E+01-1.92551E-04-4.59040E-07-3.15092E-04 3.83341E-13 1.17258E-13
 -1      3156 1.99999E+01-2.39932E-04 5.21922E-07-4.49122E-05 1.54771E-13-2.99765E-13
 -1      3157 1.99999E+01-2.33903E-04 2.76948E-07-7.10186E-05 2.92075E-13-3.93197E-13
 -1      3158 2.00000E+01-2.54323E-04-7.30715E-07-3.17975E-05 1.28953E-13-3.29299E-14
 -1      3159 2.89076E+01-8.41810E-01-8.86676E-03 4.32957E-01 2.74031E-13-6.99232E-14
 -1      3160 2.85955E+01 9.12894E-01-1.50434E-01 1.38994E+00 2.55754E-13-8.96228E-14
 -1      3161 1.16697E+01 2.32128E+00 5.41267E-02 1.02130E+00-2.61886E-13 8.89427E-14
 -1      3162 1.02407E+01 2.34067E+00 2.36057E-01-1.43387E+00-2.46051E-13 1.07886E-13
 -1      3163 1.27691E+01 2.50358E+00-3.02160E-02 6.84681E-01-1.98666E-13 5.68504E-14
 -1      3164 1.99998E+01-1.78195E-04-1.35591E-07 1.55173E-04 3.48327E-13 1.89715E-13
 -1      3165 1.99999E+01-1.93862E-04 8.86688E-07 1.41722E-04 3.95752E-13-1.03515E-13
 -1      3166 2.89005E+01 1.47317E+00-1.18877E-01-1.00705E+00-1.65562E-14 1.53919E-13
 -1      3167 2.85248E+01 9.64678E-02-7.83793E-03 3.27176E-01 2.80262E-14 2.23113E-13
 -1      3168 1.88961E+01 1.13473E+00-1.22374E-02 5.67294E-01 1.48183E-14 1.34650E-13
 -1      3169 1.86021E+01 1.34392E+00-1.10129E-02 6.67158E-01 7.01813E-14 1.66465E-13
 -1      3170 1.88732E+01 1.12936E+00 1.79949E-02 3.24602E-01 1.15962E-13 1.62036E-13
 -1      3171 1.99999E+01-2.11442E-04-2.90177E-07 1.20792E-04 3.15559E-13-3.13614E-13
 -1      3172 1.99999E+01-2.22279E-04 8.38791E-07 9.94099E-05 2.33534E-13-2.38293E-13
 -1      3173 1.99999E+01-2.12911E-04-4.94060E-07 1.44929E-04 5.71720E-13-1.34200E-13
 -1      3174 2.18620E+01 2.17623E+00-1.22442E-02-2.35825E+00 1.72470E-13-3.32707E-13
 -1      3175 2.14512E+01 2.08225E+00-1.47143E-02-2.41298E+00 1.35626E-13-3.55026E-13
 -1      3176 2.14381E+01 1.88763E+00 4.99493E-03-2.29190E+00 1.15867E-13-3.38366E-13
 -1      3177 2.22161E+01 2.04952E+00 1.34864E-02-2.29112E+00 1.41709E-13-2.99200E-13
 -1      3178 1.99999E+01-2.33498E-04-1.71697E-09 7.17645E-05 1.97468E-13-9.48912E-14
 -1      3179 1.99999E+01-2.39130E-04 6.10164E-07 4.59902E-05 3.31437E-13 3.29508E-13
 -1      3180 2.00000E+01-2.53635E-04-7.34497E-07 3.33789E-05 2.83895E-13 2.42027E-13
 -1      3181 1.99999E+01-2.39475E-04-6.32065E-07 9.44522E-05 2.52476E-13-2.41156E-14
 -1      3182 2.69216E+01-8.59870E-01-1.21760E-01 1.70279E+00 1.10995E-13 2.64670E-13
 -1      3183 2.83095E+01 3.17497E+00-4.11472E-02 1.88570E+00 2.36811E-13-1.01773E-13
 -1      3184 2.78516E+01 4.68498E+00-1.45794E-01 1.63813E+00 2.26638E-13-1.13260E-13
 -1      3185 1.84512E+01-2.57609E+00 1.21554E-01-6.50326E+00 1.80425E-13 1.94969E-13
 -1      3186 2.14817E+01-3.77679E+00-5.68671E-02-5.96417E+00 1.62870E-13 1.24900E-16
 -1      3187 1.99998E+01-1.67637E-04 1.10854E-06-1.67877E-04 3.86919E-13-1.55130E-13
 -1      3188 1.99998E+01-1.39665E-04-1.52158E-08-1.75349E-04 2.58401E-13 1.22477E-13
 -1      3189 1.99998E+01-1.45524E-04-1.17417E-06-1.98828E-04 3.07604E-13 1.45183E-13
 -1      3190 2.41142E+01-4.02682E+00 8.50544E-02-4.82252E+00 1.21094E-13-3.72289E-14
 -1      3191 2.57380E+01-4.12836E+00-9.67055E-02-3.68836E+00 1.64185E-13-4.04139E-14
 -1      3192 1.02686E+01 1.64083E+00 1.04673E-01-2.85128E+00-1.35614E-13 2.08708E-13
 -1      3193 1.15330E+01 8.77919E-01 1.17156E-01-4.58991E+00 5.21111E-15 2.55934E-13
 -1      3194 1.38851E+01 5.30901E-01 9.15417E-02-4.60664E+00 4.66831E-14 2.12934E-13
 -1      3195 1.20615E+01 1.89385E+00 2.32255E-02-2.47572E+00-1.12820E-13 7.90340E-14
 -1      3196 2.73655E+01-3.25439E+00 3.93482E-02-2.06619E+00 2.34529E-13 4.44367E-14
 -1      3197 2.83360E+01-2.31362E+00-1.19026E-01-7.36879E-01 2.75314E-13 9.58261E-15
 -1      3198 2.77280E+01-1.60069E+00-1.39035E-02 1.54621E-01 2.43481E-13-4.38191E-14
 -1      3199 2.69711E+01-1.63604E-01 7.15806E-04 5.02625E-01 1.32814E-13 1.88433E-13
 -1      3200 2.76263E+01 5.77745E+00-1.15982E-01-1.87068E+00-1.94289E-14-1.35163E-13
 -1      3201 2.71696E+01 4.86968E+00-6.86185E-02-2.07602E+00-1.16157E-14-1.23242E-13
 -1      3202 2.66212E+01 5.97496E+00-5.95650E-02-1.51888E+00 2.54935E-14-2.07903E-13
 -1      3203 1.78464E+01-1.59926E+00 9.00129E-02-5.72151E+00 1.30881E-13 1.77330E-13
 -1      3204 2.75207E+01 3.33000E+00-7.85014E-02-2.24115E+00 6.28664E-15-4.59008E-14
 -1      3205 2.85730E+01 2.40266E+00-5.72054E-02-1.78263E+00-7.16094E-15 7.17135E-14
 -1      3206 2.76661E+01 1.53792E+00-1.83949E-02-1.39841E+00 3.42677E-14 6.71650E-14
 -1      3207 1.99999E+01-2.03873E-04 7.58806E-07-1.36870E-04 6.66088E-14 3.93738E-13
 -1      3208 1.99999E+01-1.88256E-04 2.19845E-07-1.50998E-04 1.88390E-13 3.39647E-13
 -1      3209 1.99999E+01-1.97822E-04-1.15805E-06-1.72819E-04 2.71202E-13 1.12829E-13
 -1      3210 2.75437E+01 1.58832E+00-4.68611E-02 1.64308E+00 2.57839E-13-1.31992E-13
 -1      3211 2.13316E+01 1.73160E+00-2.56658E-03-2.12157E+00 1.18689E-13-3.25882E-13
 -1      3212 2.62565E+01-3.37537E+00 1.49071E-02-2.31891E+00 1.50952E-13 4.87735E-14
 -1      3213 1.99998E+01-1.44434E-04-3.13359E-07-2.19914E-04 3.26064E-13 1.60083E-13
 -1      3214 1.99998E+01-1.51015E-04-1.10556E-06-2.46072E-04 3.25386E-13 1.48008E-13
 -1      3215 1.99998E+01-1.77838E-04 1.24005E-06-2.58773E-04 3.67770E-13 5.66495E-14
 -1      3216 1.99998E+01-1.75762E-04 1.59672E-06-2.11779E-04 2.76595E-13-7.05238E-14
 -1      3217 2.68251E+01 3.54792E-01-8.88763E-02-5.88928E-01 1.12245E-13 1.00902E-13
 -1      3218 2.17827E+01 1.90391E+00-3.38488E-03-2.10933E+00 1.19164E-13-2.86350E-13
 -1      3219 1.99999E+01-2.26857E-04 6.27724E-07-9.49512E-05 4.44878E-14-3.26491E-13
 -1      3220 1.99999E+01-2.15460E-04 2.92172E-07-1.16456E-04 4.66925E-14 1.00908E-13
 -1      3221 1.99999E+01-2.27156E-04-9.23911E-07-1.34280E-04-3.76891E-14-7.85870E-14
 -1      3222 1.99999E+01-2.44207E-04-8.37614E-07-8.88072E-05-2.70503E-14-2.22809E-13
 -1      3223 1.81423E+01 1.55345E+00 2.83325E-02 2.94283E-01 1.15180E-13 2.75027E-13
 -1      3224 2.73523E+01 5.27676E+00-9.22643E-02 1.44697E+00 1.62759E-13-1.42643E-13
 -1      3225 2.65590E+01 5.69475E+00-9.72108E-02 1.03569E+00 1.40360E-13-1.97068E-13
 -1      3226 2.63648E+01 4.09173E+00-3.86308E-02 1.59898E+00 1.86025E-13-1.33482E-13
 -1      3227 2.34369E+01 2.08007E+00-1.16765E-02-2.17185E+00 1.47443E-13-2.19997E-13
 -1      3228 2.28322E+01 2.11105E+00-1.77213E-02-2.22162E+00 1.35470E-13-2.60705E-13
 -1      3229 1.50797E+01 2.45758E+00-3.54613E-02 6.61133E-01 2.59731E-14-3.85560E-14
 -1      3230 1.41617E+01 2.53145E+00-2.57177E-02 9.28410E-01-8.24349E-14 1.66152E-14
 -1      3231 1.33629E+01 2.63873E+00 1.51815E-01-8.87850E-01-8.37646E-14-3.38618E-14
 -1      3232 1.54299E+01 2.45814E+00 8.52632E-02-2.28821E-01 5.88852E-15 2.54059E-14
 -1      3233 2.27506E+01-3.42745E+00 5.76379E-02-4.76462E+00 1.26055E-13 2.69674E-14
 -1      3234 2.47171E+01 1.81142E+00-7.62945E-03-1.98305E+00 1.54770E-13-1.07189E-13
 -1      3235 2.40452E+01 2.05777E+00-3.50217E-02-2.17004E+00 1.41712E-13-1.80525E-13
 -1      3236 2.38317E+01 2.31332E+00 1.69759E-02-2.22406E+00 1.02734E-13-1.91502E-13
 -1      3237 2.65642E+01 1.22991E+00-2.89285E-02-1.38712E+00 9.74325E-14 4.13523E-14
 -1      3238 2.58839E+01 1.69168E+00-4.93469E-02-1.83120E+00 1.11728E-13-3.59894E-14
 -1      3239 1.99998E+01-1.54451E-04 3.08949E-07 1.75070E-04 3.16855E-13 2.98599E-13
 -1      3240 1.99998E+01-1.67189E-04 4.16535E-07 1.65747E-04 3.16555E-13 3.10869E-13
 -1      3241 1.99999E+01-1.85682E-04-3.87297E-07 1.76287E-04 5.22249E-13 1.55799E-13
 -1      3242 1.99998E+01-1.63953E-04-4.23724E-07 1.94530E-04 2.84591E-13 3.28266E-13
 -1      3243 2.70033E+01 3.90473E+00-6.15300E-02-2.28443E+00 5.68989E-15-8.38878E-14
 -1      3244 2.65957E+01 2.96618E+00-3.31935E-02-2.18985E+00 4.42459E-14-5.35500E-14
 -1      3245 2.61793E+01 4.43687E+00-3.78561E-02-2.15312E+00 3.19016E-14-1.38081E-13
 -1      3246 1.69625E+01-6.48060E-01 6.24624E-02-4.99705E+00 8.88040E-14 1.86750E-13
 -1      3247 1.92408E+01-2.04415E+00-6.59212E-02-5.13931E+00 1.62160E-13 1.23478E-13
 -1      3248 2.21870E+01 2.16303E+00-1.29240E-02-1.85494E+00 1.03500E-13-2.81218E-13
 -1      3249 2.20712E+01 2.32123E+00 1.01511E-02-1.55179E+00 9.30181E-14-2.70195E-13
 -1      3250 2.19000E+01 2.47180E+00-6.84254E-03-1.16272E+00 8.19531E-14-2.59016E-13
 -1      3251 2.17917E+01 2.56789E+00 8.08842E-03-7.37869E-01 7.65445E-14-2.62646E-13
 -1      3252 2.25207E+01 2.70910E+00 8.39790E-05-1.48489E+00 9.63756E-14-2.58212E-13
 -1      3253 2.16976E+01 2.56527E+00 3.44787E-03-2.19753E-01 7.09045E-14-2.22731E-13
 -1      3254 2.16458E+01 2.44005E+00-3.89735E-03 2.31313E-01 6.55615E-14-1.87735E-13
 -1      3255 2.22646E+01 2.95009E+00-4.83501E-03-5.55785E-01 8.82865E-14-2.24048E-13
 -1      3256 2.16973E+01 2.19453E+00 1.29418E-02 7.12110E-01 4.16644E-14-1.95407E-13
 -1      3257 2.16853E+01 1.83191E+00-2.39935E-02 1.05807E+00 4.70259E-14-1.77952E-13
 -1      3258 2.22194E+01 2.66736E+00-1.26891E-03 4.94416E-01 6.07557E-14-1.98921E-13
 -1      3259 2.18373E+01 1.43527E+00 1.81288E-02 1.38000E+00 7.94412E-14-1.88745E-13
 -1      3260 2.18799E+01 9.57114E-01-1.66673E-02 1.56202E+00 9.55179E-14-1.49815E-13
 -1      3261 2.23206E+01 1.92652E+00 9.63120E-03 1.31350E+00 5.60006E-14-2.10498E-13
 -1      3262 2.19675E+01 5.01676E-01 7.71298E-03 1.61842E+00 1.02471E-13-1.12259E-13
 -1      3263 2.19958E+01 7.82799E-02-1.32452E-02 1.62445E+00 1.24144E-13-8.57363E-14
 -1      3264 2.25135E+01 8.10397E-01 7.87313E-03 1.65094E+00 1.25756E-13-1.00581E-13
 -1      3265 2.19792E+01-2.73587E-01 1.77289E-03 1.51042E+00 1.32296E-13-9.75942E-14
 -1      3266 2.19573E+01-5.58312E-01-5.39816E-03 1.39766E+00 1.33970E-13-5.02800E-14
 -1      3267 2.25281E+01-1.39577E-01 8.62668E-03 1.56404E+00 1.34273E-13-8.84022E-14
 -1      3268 2.18250E+01-7.59658E-01-3.59534E-03 1.20330E+00 1.16241E-13-1.96922E-14
 -1      3269 2.17561E+01-8.89668E-01 1.78582E-03 1.04313E+00 1.23756E-13-1.06660E-14
 -1      3270 2.23400E+01-7.77187E-01 5.19497E-03 1.22392E+00 1.46845E-13-4.51801E-14
 -1      3271 2.15527E+01-9.56289E-01-5.57909E-03 8.45660E-01 8.44401E-14-7.63338E-15
 -1      3272 2.14513E+01-9.65661E-01 5.71535E-03 6.88182E-01 6.14993E-14 1.13337E-15
 -1      3273 2.19871E+01-1.06737E+00-6.95976E-04 8.17086E-01 9.17974E-14-7.65959E-14
 -1      3274 2.12300E+01-9.39743E-01-4.87210E-03 5.29623E-01 2.12479E-14-9.35732E-14
 -1      3275 2.11173E+01-8.78498E-01 6.98804E-03 4.00248E-01 2.19830E-14-8.54129E-14
 -1      3276 2.15644E+01-1.08537E+00-4.51735E-03 4.64417E-01 8.97974E-15-1.17679E-13
 -1      3277 2.09152E+01-8.04841E-01-3.26452E-03 2.90564E-01 1.31751E-14-6.85889E-14
 -1      3278 2.08089E+01-7.14690E-01 6.54496E-03 1.95938E-01-8.03184E-14-3.80508E-14
 -1      3279 2.11536E+01-9.46285E-01-6.07801E-03 2.08737E-01 1.26052E-14-1.71330E-13
 -1      3280 2.06440E+01-6.26528E-01-1.74652E-03 1.28785E-01-1.90628E-13-2.14686E-16
 -1      3281 2.05542E+01-5.34622E-01 5.30326E-03 6.54956E-02-1.99858E-13 4.87662E-14
 -1      3282 2.08028E+01-7.44904E-01-6.06510E-03 4.75218E-02-5.67144E-14-9.25224E-14
 -1      3283 2.04302E+01-4.51684E-01-6.80168E-04 2.93270E-02-1.89117E-13 6.75195E-14
 -1      3284 2.03605E+01-3.72018E-01 3.91361E-03-9.66564E-03-1.37132E-13 3.19962E-14
 -1      3285 2.05294E+01-5.41568E-01-5.19968E-03-4.12046E-02-2.09289E-13 7.44071E-14
 -1      3286 2.02730E+01-3.03351E-01-5.89831E-05-2.57312E-02-3.89283E-14 1.52132E-14
 -1      3287 2.02223E+01-2.40908E-01 2.69686E-03-4.75554E-02 5.33986E-14 7.52919E-14
 -1      3288 2.03307E+01-3.66696E-01-4.04275E-03-8.16588E-02-9.53151E-14 1.27880E-13
 -1      3289 2.01640E+01-1.88829E-01 2.38711E-04-5.17679E-02 1.48132E-13 3.91870E-14
 -1      3290 2.01292E+01-1.43462E-01 1.74632E-03-6.22993E-02 1.69668E-13 4.21514E-14
 -1      3291 2.01944E+01-2.30516E-01-2.92493E-03-9.32516E-02 9.68919E-14 1.64941E-13
 -1      3292 2.00924E+01-1.06654E-01 3.37774E-04-6.02164E-02 1.81377E-13 3.22247E-14
 -1      3293 2.00697E+01-7.58098E-02 1.06159E-03-6.37848E-02 1.83578E-13-9.48938E-16
 -1      3294 2.01059E+01-1.32104E-01-1.99662E-03-8.94158E-02 1.86008E-13 9.25701E-14
 -1      3295 2.00479E+01-5.14531E-02 3.34832E-04-5.88427E-02 2.15811E-13-2.09413E-14
 -1      3296 2.00337E+01-3.18451E-02 5.97841E-04-5.84256E-02 1.52518E-13 5.31251E-14
 -1      3297 2.00516E+01-6.54955E-02-1.29137E-03-7.85286E-02 1.69042E-13 7.83232E-14
 -1      3298 2.00217E+01-1.68334E-02 2.88722E-04-5.25895E-02 1.35169E-13 2.34294E-14
 -1      3299 2.00134E+01-5.32864E-03 3.00296E-04-5.01231E-02 3.18628E-14 1.02900E-13
 -1      3300 2.00203E+01-2.33261E-02-7.90964E-04-6.53936E-02 1.50929E-13 5.65400E-15
 -1      3301 2.00075E+01 3.11154E-03 2.31997E-04-4.44257E-02-1.04852E-13 1.39450E-13
 -1      3302 2.00028E+01 9.11686E-03 1.19781E-04-4.11107E-02-3.00587E-14 9.05490E-14
 -1      3303 2.00037E+01 1.30806E-03-4.55812E-04-5.25078E-02-2.17190E-15-1.02480E-14
 -1      3304 2.00005E+01 1.32065E-02 1.79545E-04-3.60322E-02-2.39713E-14 5.45796E-14
 -1      3305 1.99981E+01 1.56999E-02 1.78242E-05-3.25724E-02-2.25115E-14 4.75780E-14
 -1      3306 1.99960E+01 1.40863E-02-2.42521E-04-4.10140E-02-1.17528E-14 1.94349E-13
 -1      3307 1.99976E+01 1.70882E-02 1.36419E-04-2.82830E-02 6.04014E-15-1.15830E-13
 -1      3308 1.99965E+01 1.74923E-02-3.40558E-05-2.50602E-02 4.97586E-14-4.05030E-14
 -1      3309 1.99934E+01 1.93146E-02-1.13969E-04-3.13058E-02-8.63877E-14 7.72535E-14
 -1      3310 1.99970E+01 1.73321E-02 1.02944E-04-2.15674E-02 1.54702E-13-1.38221E-14
 -1      3311 1.99966E+01 1.66101E-02-5.55944E-05-1.87612E-02 1.88887E-13 7.76335E-14
 -1      3312 1.99935E+01 2.00622E-02-4.14000E-05-2.33931E-02 1.36433E-13-1.08239E-13
 -1      3313 1.99974E+01 1.56646E-02 7.76744E-05-1.59947E-02 7.52469E-14 6.56130E-14
 -1      3314 1.99973E+01 1.44337E-02-5.98806E-05-1.36634E-02 7.18834E-14-3.36192E-14
 -1      3315 1.99946E+01 1.84017E-02-3.95604E-06-1.71099E-02 1.19960E-13 6.75058E-14
 -1      3316 1.99982E+01 1.31794E-02 5.87702E-05-1.15225E-02 6.95465E-14 2.94400E-15
 -1      3317 1.99982E+01 1.18109E-02-5.52379E-05-9.65521E-03 6.48927E-14-1.79739E-14
 -1      3318 1.99961E+01 1.56590E-02 1.26422E-05-1.22249E-02 1.24156E-13 1.13334E-13
 -1      3319 1.99989E+01 1.05254E-02 4.45849E-05-8.03347E-03-3.71812E-14-1.18678E-13
 -1      3320 1.99990E+01 9.22480E-03-4.67217E-05-6.58392E-03-6.92277E-14-6.27490E-14
 -1      3321 1.99975E+01 1.26317E-02 1.76861E-05-8.49859E-03-1.13605E-14-1.02414E-13
 -1      3322 1.99996E+01 8.05407E-03 3.38390E-05-5.38122E-03 7.75891E-15-2.25828E-14
 -1      3323 1.99996E+01 6.92014E-03-3.72308E-05-4.28813E-03 2.18558E-14 5.68251E-14
 -1      3324 1.99986E+01 9.76074E-03 1.69273E-05-5.70852E-03 3.46623E-14-1.71144E-13
 -1      3325 2.00000E+01 5.92746E-03 2.56078E-05-3.41616E-03-8.45110E-14 6.79395E-14
 -1      3326 2.00000E+01 4.99433E-03-2.82926E-05-2.61542E-03-2.35985E-14 6.27937E-14
 -1      3327 1.99995E+01 7.25807E-03 1.37338E-05-3.66014E-03-2.19382E-14 2.27484E-14
 -1      3328 2.00003E+01 4.19431E-03 1.92453E-05-1.99928E-03-1.31599E-15 1.37867E-13
 -1      3329 2.00003E+01 3.45942E-03-2.05995E-05-1.43073E-03 2.71768E-14 6.68223E-14
 -1      3330 2.00000E+01 5.19656E-03 9.94354E-06-2.18907E-03-2.79277E-14 1.51626E-13
 -1      3331 2.00005E+01 2.84029E-03 1.43033E-05-1.00866E-03 3.57264E-14-7.65196E-15
 -1      3332 2.00004E+01 2.28265E-03-1.43604E-05-6.19339E-04 2.22897E-14-2.10184E-14
 -1      3333 2.00004E+01 3.57025E-03 6.45841E-06-1.15975E-03 9.23523E-15-1.32176E-13
 -1      3334 2.00005E+01 1.82034E-03 1.04652E-05-3.41572E-04 7.62325E-14 2.19466E-14
 -1      3335 2.00005E+01 1.41158E-03-9.52455E-06-8.69314E-05 1.39748E-13 1.39759E-13
 -1      3336 2.00006E+01 2.33329E-03 3.63856E-06-4.62579E-04 7.77919E-14-1.04782E-13
 -1      3337 2.00005E+01 1.07812E-03 7.49972E-06 8.58646E-05 2.27390E-13 1.12744E-13
 -1      3338 2.00004E+01 7.88870E-04-5.91909E-06 2.42032E-04 7.82940E-14 7.17435E-14
 -1      3339 2.00006E+01 1.42386E-03 1.55235E-06-1.04374E-05 1.91862E-13-2.17916E-13
 -1      3340 2.00004E+01 5.57063E-04 5.23033E-06 3.40349E-04-8.23382E-14 2.52097E-13
 -1      3341 2.00004E+01 3.60329E-04-3.32854E-06 4.26626E-04-6.41451E-14 2.87686E-13
 -1      3342 2.00006E+01 7.77892E-04 1.27743E-07 2.64814E-04 7.63781E-14-7.69064E-14
 -1      3343 2.00003E+01 2.06013E-04 3.51727E-06 4.73668E-04-2.09690E-13 3.36748E-13
 -1      3344 2.00003E+01 7.86253E-05-1.53874E-06 5.12029E-04-2.22663E-13 3.00326E-13
 -1      3345 2.00005E+01 3.36382E-04-7.61019E-07 4.15587E-04-1.49917E-13 1.41416E-13
 -1      3346 2.00003E+01-1.84534E-05 2.24687E-06 5.25110E-04-7.64284E-14 2.65671E-13
 -1      3347 2.00002E+01-9.54603E-05-3.58130E-07 5.32026E-04-6.95322E-14 1.83339E-13
 -1      3348 2.00004E+01 4.85652E-05-1.24721E-06 4.81498E-04-1.91664E-13 3.65497E-13
 -1      3349 2.00002E+01-1.51591E-04 1.32554E-06 5.23785E-04 8.96543E-14 1.98171E-13
 -1      3350 2.00001E+01-1.93200E-04 3.74013E-07 5.11278E-04 3.29768E-13 1.85535E-13
 -1      3351 2.00003E+01-1.27213E-04-1.44977E-06 4.91918E-04 7.06168E-14 2.97316E-13
 -1      3352 2.00001E+01-2.21071E-04 6.76147E-07 4.90714E-04 1.02255E-13 7.19394E-14
 -1      3353 2.00001E+01-2.38781E-04 7.86114E-07 4.67301E-04 6.52890E-15-4.03133E-15
 -1      3354 2.00002E+01-2.23950E-04-1.46530E-06 4.68152E-04 1.29358E-13 2.23280E-13
 -1      3355 2.00000E+01-2.48015E-04 2.35129E-07 4.40624E-04 6.37493E-15-6.79654E-14
 -1      3356 2.00000E+01-2.50439E-04 9.77135E-07 4.12128E-04-1.03713E-13-4.95855E-14
 -1      3357 2.00002E+01-2.67045E-04-1.36788E-06 4.25250E-04-8.74718E-14-1.48015E-13
 -1      3358 2.00000E+01-2.48159E-04-5.11096E-08 3.83450E-04-2.50984E-13 1.45390E-14
 -1      3359 2.00000E+01-2.41601E-04 1.02110E-06 3.53672E-04-1.78781E-13-4.16976E-14
 -1      3360 2.00001E+01-2.75572E-04-1.21404E-06 3.73479E-04-1.00283E-13-7.94856E-14
 -1      3361 1.99999E+01-2.33026E-04-2.19258E-07 3.25626E-04-1.59870E-13-9.28015E-14
 -1      3362 1.99999E+01-2.22150E-04 9.50685E-07 2.96865E-04 5.51438E-14-2.95708E-13
 -1      3363 2.00000E+01-2.63574E-04-1.06509E-06 3.19654E-04-1.91783E-13-1.73292E-14
 -1      3364 1.99999E+01-2.10696E-04-2.04844E-07 2.70716E-04 3.41997E-13-3.31415E-13
 -1      3365 1.99999E+01-1.98811E-04 6.56393E-07 2.44422E-04 3.94597E-13-9.45142E-14
 -1      3366 1.99999E+01-2.41372E-04-9.47391E-07 2.67744E-04 2.77316E-13-7.27125E-14
 -1      3367 2.57445E+01 2.33469E+00-2.40393E-03-2.20681E+00 7.28063E-14-8.09682E-14
 -1      3368 1.97559E+01 3.38719E-01-2.23697E-03 1.27743E-01-8.02402E-15 3.55319E-13
 -1      3369 1.96874E+01 4.06997E-01-2.86576E-03 1.46605E-01-3.43588E-14 3.10409E-13
 -1      3370 1.95883E+01 4.88434E-01-3.04503E-03 1.40344E-01-2.51503E-14 3.67410E-13
 -1      3371 1.94726E+01 5.83024E-01-5.20520E-03 1.56373E-01 3.59385E-14 4.22235E-13
 -1      3372 1.96025E+01 4.64261E-01 5.58091E-03 6.16558E-02 6.51544E-14 4.56869E-13
 -1      3373 1.93199E+01 6.95129E-01-4.01030E-03 1.32016E-01 6.64427E-14 4.10946E-13
 -1      3374 1.91287E+01 8.21408E-01-9.05788E-03 1.36809E-01 2.14704E-13 4.06828E-13
 -1      3375 1.93601E+01 6.49985E-01 8.51437E-03 1.29693E-02 5.98570E-14 5.26840E-13
 -1      3376 1.98587E+01 2.33126E-01-1.59729E-03 1.07495E-01 1.72432E-13 3.36577E-13
 -1      3377 1.98191E+01 2.81211E-01-1.49746E-03 1.25235E-01 1.78408E-14 2.64834E-13
 -1      3378 1.97574E+01 3.26876E-01 3.59296E-03 7.63919E-02 1.83914E-14 4.90731E-13
 -1      3379 1.99206E+01 1.59919E-01-1.11989E-03 8.62398E-02 1.45299E-13 3.13231E-13
 -1      3380 1.98984E+01 1.93271E-01-7.22890E-04 1.01363E-01 2.09693E-13 3.31547E-13
 -1      3381 1.98548E+01 2.28140E-01 2.25050E-03 7.43199E-02 1.55406E-13 3.45115E-13
 -1      3382 1.99572E+01 1.09654E-01-7.71157E-04 6.69745E-02 4.55912E-14 3.44373E-13
 -1      3383 1.99452E+01 1.32587E-01-2.97614E-04 7.91791E-02 1.55034E-13 3.72804E-13
 -1      3384 1.99150E+01 1.58579E-01 1.39427E-03 6.49562E-02 1.04084E-13 3.37126E-13
 -1      3385 1.99784E+01 7.53139E-02-5.25674E-04 5.07546E-02 3.69699E-14 3.51610E-13
 -1      3386 1.99722E+01 9.10188E-02-7.75541E-05 6.02850E-02 6.04274E-14 3.01564E-13
 -1      3387 1.99516E+01 1.10073E-01 8.47643E-04 5.34000E-02 8.68160E-14 5.44324E-13
 -1      3388 1.99903E+01 5.18670E-02-3.56197E-04 3.76756E-02 1.47979E-13 2.76786E-13
 -1      3389 1.99874E+01 6.26239E-02 2.80461E-05 4.49582E-02 1.27340E-13 2.86533E-13
 -1      3390 1.99736E+01 7.64619E-02 5.05666E-04 4.21275E-02 1.17032E-13 4.39623E-13
 -1      3391 1.99967E+01 3.58121E-02-2.40647E-04 2.74293E-02 1.40630E-13 2.80431E-13
 -1      3392 1.99956E+01 4.32046E-02 7.15489E-05 3.29085E-02 1.64252E-13 2.96081E-13
 -1      3393 1.99865E+01 5.31991E-02 2.95354E-04 3.22058E-02 1.65284E-13 2.31319E-13
 -1      3394 2.00000E+01 2.47610E-02-1.62396E-04 1.95722E-02 8.10707E-14 2.12344E-13
 -1      3395 1.99998E+01 2.98692E-02 8.28636E-05 2.36435E-02 1.96872E-13 2.90275E-13
 -1      3396 1.99939E+01 3.70636E-02 1.68065E-04 2.39694E-02 2.20468E-13 2.15209E-13
 -1      3397 2.00015E+01 1.71041E-02-1.09530E-04 1.36525E-02-5.63789E-15 2.32890E-13
 -1      3398 2.00017E+01 2.06567E-02 7.87155E-05 1.66438E-02-6.77259E-14 2.18149E-13
 -1      3399 1.99980E+01 2.58219E-02 9.23115E-05 1.73919E-02 2.37501E-14 2.54122E-13
 -1      3400 2.00021E+01 1.17634E-02-7.37755E-05 9.26442E-03-2.54257E-13 4.40248E-13
 -1      3401 2.00025E+01 1.42495E-02 6.81440E-05 1.14365E-02-2.38299E-14 2.78104E-13
 -1      3402 2.00002E+01 1.79464E-02 4.80666E-05 1.22888E-02-4.25579E-14 3.34398E-13
 -1      3403 2.00021E+01 8.01722E-03-4.95095E-05 6.06465E-03-3.06290E-13 4.96885E-13
 -1      3404 2.00025E+01 9.76547E-03 5.58335E-05 7.62128E-03-3.56622E-13 3.72360E-13
 -1      3405 2.00012E+01 1.23993E-02 2.27973E-05 8.42349E-03-2.91095E-13 3.70852E-13
 -1      3406 2.00019E+01 5.38072E-03-3.29656E-05 3.77316E-03 3.69293E-14 2.54789E-13
 -1      3407 2.00023E+01 6.61289E-03 4.40517E-05 4.87110E-03-3.58062E-14 3.36016E-13
 -1      3408 2.00017E+01 8.47614E-03 8.77990E-06 5.55972E-03-6.62606E-14 1.51500E-13
 -1      3409 2.00017E+01 3.52507E-03-2.16395E-05 2.16640E-03 4.96077E-14 2.99194E-13
 -1      3410 2.00020E+01 4.39244E-03 3.37598E-05 2.92547E-03 7.50993E-14 3.52913E-13
 -1      3411 2.00017E+01 5.69686E-03 1.32372E-06 3.48454E-03 2.39366E-14 8.16643E-14
 -1      3412 2.00014E+01 2.22445E-03-1.38688E-05 1.06875E-03 8.81852E-14 3.05743E-13
 -1      3413 2.00016E+01 2.83155E-03 2.52381E-05 1.58000E-03 1.84731E-14 3.56384E-13
 -1      3414 2.00016E+01 3.73115E-03-2.37889E-06 2.01667E-03 3.94072E-14 2.70696E-13
 -1      3415 2.00011E+01 1.32131E-03-8.54428E-06 3.43991E-04-2.32585E-13 4.34068E-13
 -1      3416 2.00013E+01 1.74155E-03 1.84327E-05 6.76240E-04-3.76123E-14 4.11164E-13
 -1      3417 2.00014E+01 2.34895E-03-3.98401E-06 1.00731E-03-3.09016E-14 3.45760E-13
 -1      3418 2.00008E+01 7.04012E-04-4.91929E-06-1.12277E-04 1.16144E-13 3.28771E-13
 -1      3419 2.00010E+01 9.89728E-04 1.31445E-05 9.26598E-05-1.14308E-13 2.82379E-13
 -1      3420 2.00012E+01 1.38761E-03-4.45363E-06 3.37423E-04-6.33127E-14 4.79240E-13
 -1      3421 2.00006E+01 2.92197E-04-2.48404E-06-3.79149E-04 1.89529E-13 5.06529E-13
 -1      3422 2.00008E+01 4.81239E-04 9.12732E-06-2.62993E-04 1.02489E-13 3.73866E-13
 -1      3423 2.00010E+01 7.30476E-04-4.33751E-06-8.61751E-05 4.61611E-14 2.74465E-13
 -1      3424 2.00005E+01 2.73453E-05-8.85146E-07-5.15775E-04-3.82069E-14 5.80416E-13
 -1      3425 2.00005E+01 1.47382E-04 6.13801E-06-4.59958E-04 1.31127E-13 5.56628E-13
 -1      3426 2.00008E+01 2.92756E-04-3.94402E-06-3.35141E-04 1.01770E-14 4.95414E-13
 -1      3427 2.00003E+01-1.33517E-04 1.26130E-07-5.65752E-04-5.62138E-14 7.59990E-13
 -1      3428 2.00004E+01-6.21233E-05 3.95839E-06-5.49537E-04-1.62431E-14 7.44560E-13
 -1      3429 2.00006E+01 1.22114E-05-3.44228E-06-4.63598E-04-1.72280E-13 5.97817E-13
 -1      3430 2.00002E+01-2.22064E-04 7.27162E-07-5.60667E-04-2.11284E-13 6.84017E-13
 -1      3431 2.00002E+01-1.84296E-04 2.40332E-06-5.69176E-04-4.32318E-14 6.98582E-13
 -1      3432 2.00004E+01-1.57115E-04-2.92224E-06-5.11693E-04 6.57098E-15 6.90933E-13
 -1      3433 2.00001E+01-2.61628E-04 1.04544E-06-5.22937E-04-2.49618E-13 3.88831E-13
 -1      3434 2.00001E+01-2.46432E-04 1.32136E-06-5.45713E-04-2.98330E-13 4.69987E-13
 -1      3435 2.00003E+01-2.49217E-04-2.42958E-06-5.08633E-04-1.24377E-13 4.82535E-13
 -1      3436 2.00000E+01-2.69318E-04 1.17372E-06-4.68052E-04 8.67849E-14 4.75456E-13
 -1      3437 2.00000E+01-2.68605E-04 5.92259E-07-4.97945E-04-7.56473E-14 3.79539E-13
 -1      3438 2.00002E+01-2.89182E-04-1.98587E-06-4.75184E-04-1.48869E-13 2.42888E-13
 -1      3439 2.00000E+01-2.57599E-04 1.17434E-06-4.06349E-04 4.62625E-13 3.74784E-13
 -1      3440 2.00000E+01-2.65485E-04 1.21361E-07-4.38652E-04 2.90560E-13 5.18309E-13
 -1      3441 2.00001E+01-2.95411E-04-1.59798E-06-4.25711E-04 1.56912E-13 2.77736E-13
 -1      3442 1.99999E+01-2.35509E-04 1.08301E-06-3.44362E-04 3.99929E-13 1.40106E-13
 -1      3443 1.99999E+01-2.47751E-04-1.69820E-07-3.76150E-04 5.86601E-13 4.14461E-13
 -1      3444 2.00000E+01-2.81321E-04-1.26942E-06-3.69804E-04 3.94354E-13 5.96291E-14
 -1      3445 1.99999E+01-2.10342E-04 1.36573E-07-2.86580E-04 4.98698E-13 1.20093E-13
 -1      3446 1.99999E+01-2.22376E-04-1.81157E-07-3.15626E-04 3.59218E-13 2.05355E-13
 -1      3447 2.00000E+01-2.56249E-04-8.49561E-07-3.13505E-04 4.69680E-13 5.94437E-14
 -1      3448 1.82466E+01 1.31002E+00-5.92830E-03-6.16377E-02 5.51206E-14 2.79050E-13
 -1      3449 1.77567E+01 1.49144E+00-2.38249E-02-1.37387E-01 1.49055E-13 2.54671E-13
 -1      3450 2.00000E+01-2.68417E-04 3.35215E-07-1.79763E-05 1.11393E-13 1.30588E-13
 -1      3451 2.00000E+01-2.65112E-04 3.24311E-07-5.12626E-05 5.87933E-14-8.29613E-14
 -1      3452 1.99999E+01-2.15923E-04-4.35809E-07 1.70671E-04 5.67440E-13-8.64062E-14
 -1      3453 1.99999E+01-2.30129E-04 1.07238E-06 1.48927E-04 5.68330E-13-2.82779E-13
 -1      3454 2.21767E+01 1.96500E+00-6.55067E-03-2.11358E+00 1.28559E-13-2.78794E-13
 -1      3455 2.68636E+01 4.33576E-01 1.10347E-02 1.56071E+00 2.06151E-13-7.34864E-14
 -1      3456 2.62491E+01 2.08981E+00-7.94965E-02 1.87324E+00 2.39166E-13-6.51389E-14
 -1      3457 2.52122E+01-3.34101E+00 6.51840E-02-2.62588E+00 6.91062E-14 6.43183E-14
 -1      3458 2.61301E+01-3.05020E+00-9.27016E-02-1.32020E+00 1.24006E-13 1.02216E-13
 -1      3459 2.17731E+01-2.82894E+00 7.56856E-02-4.62078E+00 1.17644E-13 1.26287E-13
 -1      3460 2.35962E+01-3.57231E+00-8.15456E-02-3.80151E+00 5.06869E-14 2.16598E-14
 -1      3461 1.88980E+01 9.69153E-01-5.03852E-03 7.84285E-02 1.81493E-13 2.50122E-13
 -1      3462 1.85886E+01 1.12830E+00-1.50928E-02 5.61964E-02 7.14244E-14 3.17076E-13
 -1      3463 1.89878E+01 8.89852E-01 1.27059E-02-9.89843E-02 1.03170E-13 3.91266E-13
 -1      3464 2.63196E+01 6.12567E+00-8.86214E-02 3.75321E-01 1.30264E-13-2.13725E-13
 -1      3465 2.59567E+01 6.10372E+00-8.16889E-02-4.53795E-01 8.25243E-14-2.34833E-13
 -1      3466 2.55403E+01 5.09202E+00-3.94567E-02 7.68144E-01 1.04382E-13-2.00908E-13
 -1      3467 2.69152E+01-1.99588E+00 4.84678E-02-7.75454E-02 1.73486E-13 7.27543E-15
 -1      3468 2.69344E+01-1.10942E+00-9.71591E-02 7.83328E-01 1.77577E-13-8.08832E-14
 -1      3469 1.72603E+01 1.69340E+00-4.42818E-03-3.51399E-01 1.14248E-13 1.51622E-13
 -1      3470 1.65030E+01 1.86221E+00-2.95711E-02-5.24241E-01 3.10901E-14 1.05270E-13
 -1      3471 1.76028E+01 1.48259E+00 2.68231E-02-7.29805E-01 8.29591E-14 2.03626E-13
 -1      3472 1.54111E+01 2.08809E-01 2.91346E-03-4.53631E+00 2.87288E-14 2.10849E-13
 -1      3473 1.72903E+01-9.46524E-02 6.08436E-02-4.09265E+00 3.89636E-14 9.78358E-14
 -1      3474 2.57670E+01 5.76784E+00-8.37296E-02-9.63041E-01 6.40946E-14-2.48657E-13
 -1      3475 2.55120E+01 5.25144E+00-4.87505E-02-1.39678E+00 5.43281E-14-2.21844E-13
 -1      3476 2.49777E+01 5.34551E+00-3.09373E-02-4.36009E-01 8.45816E-14-2.39166E-13
 -1      3477 1.59658E+01 1.96465E+00-2.54696E-04-8.65340E-01 3.90820E-14 1.43927E-13
 -1      3478 1.50524E+01 2.02472E+00-2.79025E-02-1.20039E+00-3.83634E-15 1.20416E-13
 -1      3479 1.65538E+01 1.68388E+00 3.69070E-02-1.39615E+00 3.76233E-14 1.57057E-13
 -1      3480 1.99999E+01-1.86225E-04-1.46643E-07 2.29480E-04 3.59858E-13-8.14380E-14
 -1      3481 1.99998E+01-1.75017E-04 3.77335E-07 2.08736E-04 4.31079E-13 2.09689E-13
 -1      3482 1.99999E+01-1.86895E-04-8.65088E-08 2.00300E-04 4.32433E-13 1.85776E-13
 -1      3483 1.99999E+01-2.14400E-04-7.69558E-07 2.28779E-04 4.57818E-13-3.73892E-15
 -1      3484 1.99999E+01-2.18502E-04 9.11023E-07-1.77411E-04 2.00986E-13 1.36125E-13
 -1      3485 1.99999E+01-2.00909E-04-4.07995E-07-1.95114E-04 4.15584E-13-2.31406E-14
 -1      3486 1.99999E+01-2.02968E-04-7.64936E-07-2.19537E-04 2.85011E-13-3.01811E-14
 -1      3487 1.99999E+01-2.09787E-04-3.44913E-07-2.59438E-04 3.82023E-13 2.08247E-13
 -1      3488 1.84278E+01 1.17839E+00 1.86708E-02-3.21828E-01 9.49822E-14 2.97481E-13
 -1      3489 2.00000E+01-2.79160E-04-7.52710E-07-6.86508E-05 2.11617E-13 1.49559E-14
 -1      3490 2.00000E+01-2.60908E-04 4.39933E-07-8.14190E-05 2.50404E-14-5.30512E-14
 -1      3491 2.00000E+01-2.54871E-04 1.68516E-07-1.06316E-04-1.08876E-13-3.05267E-14
 -1      3492 2.00000E+01-2.51497E-04-1.29823E-07 1.46356E-04 5.54687E-13-9.69813E-14
 -1      3493 2.00000E+01-2.47064E-04-4.91458E-07 1.18385E-04 5.36796E-13 1.61604E-14
 -1      3494 2.00000E+01-2.55370E-04 8.35295E-07 8.97634E-05 4.15797E-13 1.47894E-13
 -1      3495 2.07463E+01-2.03199E+00 4.96139E-02-4.23587E+00 1.34507E-13 1.57823E-13
 -1      3496 2.59329E+01 2.68737E+00-4.39066E-02 1.88123E+00 2.19217E-13-9.97084E-14
 -1      3497 2.53181E+01 3.36465E+00-4.26936E-02 1.67251E+00 1.62172E-13-1.21937E-13
 -1      3498 2.53534E+01 1.50121E+00-1.27150E-02 1.78907E+00 1.61418E-13-3.39789E-15
 -1      3499 2.61020E+01-3.28385E-01-1.24071E-02 1.25922E+00 1.49779E-13-3.75915E-15
 -1      3500 1.99999E+01-1.96646E-04 6.28468E-07 1.89390E-04 5.08612E-13 6.39182E-14
 -1      3501 1.43385E+01 2.10121E+00 1.07143E-02-1.51563E+00-6.89902E-14 8.60475E-14
 -1      3502 1.30899E+01 2.00784E+00-8.37915E-03-2.00892E+00-1.48393E-13 6.33937E-14
 -1      3503 1.36760E+01 1.52475E+00 7.40784E-02-3.22992E+00-7.80591E-14 1.65451E-13
 -1      3504 1.53437E+01 1.75667E+00 7.24089E-02-2.19996E+00-5.40215E-14 1.81944E-13
 -1      3505 2.24508E+01 2.12540E+00 1.45251E-02-2.04738E+00 1.14718E-13-2.66317E-13
 -1      3506 1.99999E+01-2.18176E-04-7.23468E-08 1.96201E-04 4.54787E-13-4.70857E-14
 -1      3507 2.58968E+01-2.38616E+00-2.49856E-03-5.45799E-01 8.61429E-14 3.36189E-14
 -1      3508 2.00000E+01-2.64812E-04-5.23353E-08 5.31805E-05 2.63439E-13 3.12933E-13
 -1      3509 2.00000E+01-2.67567E-04 5.10316E-07 2.05013E-05 2.13413E-13 4.18509E-13
 -1      3510 2.00000E+01-2.83171E-04-6.56929E-07 1.44504E-06 2.09762E-13 1.83041E-13
 -1      3511 2.00000E+01-2.74273E-04-3.40982E-07 7.83904E-05 6.08901E-13 3.56263E-13
 -1      3512 2.41668E+01-3.05630E+00 2.85601E-02-2.68973E+00 2.91434E-14 1.05504E-13
 -1      3513 2.29110E+01 2.36276E+00-3.32362E-04-2.02889E+00 1.05590E-13-2.39422E-13
 -1      3514 2.35509E+01 2.57709E+00-1.35614E-02-2.13543E+00 9.88597E-14-1.95793E-13
 -1      3515 2.33552E+01 2.76087E+00 8.87206E-03-1.99006E+00 8.70738E-14-2.16491E-13
 -1      3516 2.42915E+01 2.59455E+00-3.60810E-03-2.20655E+00 1.02680E-13-1.62162E-13
 -1      3517 1.42888E+01 1.05415E+00 3.58705E-02-3.68509E+00-2.91538E-14 1.69770E-13
 -1      3518 1.99999E+01-2.31044E-04 5.81916E-07 2.08318E-04 4.31048E-13-1.29371E-13
 -1      3519 2.51413E+01 2.86417E+00-3.01794E-02-2.26982E+00 7.76922E-14-1.18234E-13
 -1      3520 2.28647E+01 3.45700E+00-7.66608E-03-8.96420E-01 9.88409E-14-1.97364E-13
 -1      3521 2.27726E+01 3.49909E+00-6.67933E-03-3.78111E-01 9.56847E-14-1.80923E-13
 -1      3522 2.27597E+01 3.37178E+00 6.50841E-03 2.83070E-01 9.02663E-14-2.07246E-13
 -1      3523 2.27257E+01 3.03478E+00-2.88686E-02 7.73199E-01 5.56222E-14-2.22335E-13
 -1      3524 2.33545E+01 3.89805E+00-1.14253E-02-7.44050E-02 5.90964E-14-1.96763E-13
 -1      3525 2.35169E+01 2.44563E+00 2.04033E-03 1.43162E+00 7.82690E-14-1.22170E-13
 -1      3526 2.35959E+01 1.71185E+00-2.39297E-02 1.68018E+00 8.74752E-14-1.09679E-13
 -1      3527 2.30935E+01-8.65407E-02 2.38732E-03 1.56140E+00 1.60862E-13-9.36867E-14
 -1      3528 2.30410E+01-5.62283E-01-1.03265E-02 1.42874E+00 1.57660E-13-5.45657E-14
 -1      3529 2.28443E+01-8.96456E-01-2.19767E-03 1.14324E+00 1.48001E-13-5.10638E-14
 -1      3530 2.27092E+01-1.11713E+00 6.25205E-03 9.47623E-01 1.11479E-13-7.74369E-14
 -1      3531 2.34361E+01-9.34356E-01-1.81670E-03 1.13946E+00 1.47049E-13-6.43179E-14
 -1      3532 2.23782E+01-1.24354E+00-9.50858E-03 6.82264E-01 4.79105E-14-6.50028E-14
 -1      3533 2.22035E+01-1.26906E+00 1.21458E-02 4.98872E-01 3.21798E-14-1.17349E-13
 -1      3534 2.28696E+01-1.38855E+00-1.70205E-02 6.12932E-01 8.48586E-14-1.42174E-13
 -1      3535 2.18541E+01-1.25044E+00-7.40656E-03 3.04317E-01 1.56408E-14-1.59566E-13
 -1      3536 2.16615E+01-1.16743E+00 1.21746E-02 1.67199E-01-1.39248E-14-1.76904E-13
 -1      3537 2.22197E+01-1.44138E+00-1.84455E-02 1.68232E-01 8.69205E-16-1.63805E-13
 -1      3538 2.13560E+01-1.07243E+00-3.51553E-03 5.45052E-02 2.12416E-14-2.14750E-13
 -1      3539 2.11753E+01-9.48406E-01 1.00862E-02-3.30470E-02 7.03620E-15-1.98345E-13
 -1      3540 2.15961E+01-1.24880E+00-1.74586E-02-1.06051E-01-1.65702E-14-1.86438E-13
 -1      3541 2.09360E+01-8.30143E-01-7.02842E-04-8.38604E-02 1.64842E-14-1.66774E-13
 -1      3542 2.07850E+01-7.05373E-01 7.27400E-03-1.31756E-01-5.72954E-14-1.39392E-13
 -1      3543 2.10809E+01-9.69669E-01-1.45621E-02-2.36800E-01 4.68385E-14-1.47823E-13
 -1      3544 2.06121E+01-5.93820E-01 8.87158E-04-1.43745E-01-8.92535E-14 7.54265E-15
 -1      3545 2.04959E+01-4.87593E-01 4.75829E-03-1.64978E-01-7.07973E-14 1.35213E-13
 -1      3546 2.06916E+01-6.93054E-01-1.10397E-02-2.72359E-01 2.02943E-14-6.20422E-14
 -1      3547 2.03785E+01-3.95561E-01 1.53248E-03-1.56671E-01-1.08567E-13 2.66582E-13
 -1      3548 2.02949E+01-3.13585E-01 2.90700E-03-1.61970E-01-4.06698E-14 3.05915E-13
 -1      3549 2.04171E+01-4.60748E-01-7.76297E-03-2.56020E-01 1.09980E-14 2.75457E-13
 -1      3550 2.02196E+01-2.44132E-01 1.61375E-03-1.45248E-01 3.40631E-14 3.74024E-13
 -1      3551 2.01626E+01-1.85371E-01 1.63689E-03-1.42181E-01 1.28699E-13 3.49316E-13
 -1      3552 2.02341E+01-2.83838E-01-5.14954E-03-2.17249E-01 4.09841E-14 4.50192E-13
 -1      3553 2.01170E+01-1.36459E-01 1.41087E-03-1.23797E-01 1.17635E-13 2.73996E-13
 -1      3554 2.00803E+01-9.69425E-02 8.32823E-04-1.17056E-01 1.29535E-13 1.99660E-13
 -1      3555 2.01185E+01-1.58491E-01-3.24364E-03-1.73295E-01 8.21410E-14 4.42927E-13
 -1      3556 2.00545E+01-6.46404E-02 1.11559E-03-1.00263E-01 1.28255E-13 1.55984E-13
 -1      3557 2.00321E+01-3.97604E-02 3.51775E-04-9.25127E-02 1.66165E-13 1.20161E-13
 -1      3558 2.00496E+01-7.51590E-02-1.94000E-03-1.32728E-01 9.96273E-14 1.95348E-13
 -1      3559 2.00188E+01-1.98380E-02 8.25295E-04-7.85302E-02 1.37557E-13 4.96104E-14
 -1      3560 2.00060E+01-5.36914E-03 8.56309E-05-7.11093E-02 8.69901E-14-1.01014E-14
 -1      3561 2.00116E+01-2.32477E-02-1.07956E-03-9.88846E-02 1.00883E-13-4.08702E-15
 -1      3562 2.00003E+01 5.87417E-03 5.81257E-04-6.00714E-02 4.51372E-14-1.70903E-14
 -1      3563 1.99936E+01 1.33369E-02-5.07588E-05-5.35564E-02-7.35306E-15-4.68361E-14
 -1      3564 1.99927E+01 6.53214E-03-5.47781E-04-7.22603E-02 4.81009E-14-1.06566E-13
 -1      3565 1.99921E+01 1.88339E-02 3.95291E-04-4.51296E-02-1.20942E-15 7.94718E-14
 -1      3566 1.99890E+01 2.18465E-02-1.09630E-04-3.96868E-02-6.72190E-14 6.37721E-14
 -1      3567 1.99852E+01 2.15955E-02-2.33003E-04-5.20632E-02 2.53299E-14-1.18459E-13
 -1      3568 1.99897E+01 2.37621E-02 2.62023E-04-3.33921E-02-1.90657E-13 1.35451E-13
 -1      3569 1.99887E+01 2.41351E-02-1.25606E-04-2.89874E-02-1.49489E-13 9.78347E-14
 -1      3570 1.99839E+01 2.73974E-02-5.80648E-05-3.70983E-02-9.68959E-14 3.44740E-14
 -1      3571 1.99903E+01 2.39812E-02 1.70677E-04-2.43528E-02 1.16682E-14 5.41261E-14
 -1      3572 1.99903E+01 2.29338E-02-1.19637E-04-2.08676E-02 1.76293E-13-3.28870E-14
 -1      3573 1.99857E+01 2.77616E-02 3.00705E-05-2.61751E-02-1.48715E-13 2.12064E-13
 -1      3574 1.99921E+01 2.17134E-02 1.10166E-04-1.74896E-02 2.60390E-13-1.80375E-13
 -1      3575 1.99926E+01 2.00257E-02-1.03900E-04-1.47806E-02 9.18245E-14-7.01067E-14
 -1      3576 1.99886E+01 2.52389E-02 6.69498E-05-1.82772E-02 6.84183E-14 4.03327E-15
 -1      3577 1.99942E+01 1.83695E-02 7.10949E-05-1.23381E-02 8.43354E-14-1.10298E-14
 -1      3578 1.99948E+01 1.65121E-02-8.51511E-05-1.02655E-02 1.36879E-13 1.72574E-14
 -1      3579 1.99917E+01 2.14485E-02 7.54284E-05-1.26021E-02 1.65835E-13-1.53804E-13
 -1      3580 1.99962E+01 1.47916E-02 4.62992E-05-8.51287E-03-6.94388E-15-1.43179E-14
 -1      3581 1.99967E+01 1.30262E-02-6.68988E-05-6.95154E-03-6.24526E-14-5.00950E-14
 -1      3582 1.99944E+01 1.73599E-02 6.96105E-05-8.54437E-03 1.04127E-13-4.17415E-14
 -1      3583 1.99978E+01 1.14410E-02 3.06893E-05-5.70502E-03-3.29840E-14-3.71492E-14
 -1      3584 1.99982E+01 9.89497E-03-5.07658E-05-4.54803E-03 3.64377E-14-7.42517E-14
 -1      3585 1.99966E+01 1.35077E-02 5.78084E-05-5.65824E-03-8.88472E-14 5.35492E-14
 -1      3586 1.99990E+01 8.53542E-03 2.08345E-05-3.67162E-03 1.08107E-13-6.24199E-14
 -1      3587 1.99993E+01 7.25396E-03-3.73192E-05-2.83002E-03 8.73942E-14 3.78949E-14
 -1      3588 1.99982E+01 1.01483E-02 4.46354E-05-3.62002E-03 9.88474E-14 9.29036E-14
 -1      3589 1.99998E+01 6.14506E-03 1.45181E-05-2.22337E-03-4.20540E-14 1.77890E-13
 -1      3590 2.00000E+01 5.12641E-03-2.65672E-05-1.62439E-03-1.47660E-14 2.83123E-13
 -1      3591 1.99994E+01 7.36884E-03 3.24266E-05-2.19553E-03 1.24688E-13 1.19910E-13
 -1      3592 2.00003E+01 4.25697E-03 1.03579E-05-1.21347E-03-5.03921E-14 9.24299E-14
 -1      3593 2.00004E+01 3.47517E-03-1.82483E-05-7.98457E-04-9.49351E-14-5.34732E-14
 -1      3594 2.00001E+01 5.15999E-03 2.21727E-05-1.21500E-03-1.10320E-13 2.70283E-13
 -1      3595 2.00006E+01 2.81638E-03 7.51719E-06-5.28527E-04-5.68655E-14-1.45437E-13
 -1      3596 2.00007E+01 2.23534E-03-1.19954E-05-2.50760E-04 1.09870E-13-2.16722E-13
 -1      3597 2.00006E+01 3.46331E-03 1.41153E-05-5.54796E-04-8.17855E-14-3.20890E-14
 -1      3598 2.00007E+01 1.75202E-03 5.50090E-06-8.13108E-05 3.07781E-13-2.33966E-13
 -1      3599 2.00007E+01 1.33384E-03-7.42462E-06 9.59392E-05 2.14378E-13-1.62082E-13
 -1      3600 2.00008E+01 2.20014E-03 8.11246E-06-1.24384E-04 1.27456E-13-9.57778E-14
 -1      3601 2.00008E+01 9.90852E-04 4.02017E-06 1.94871E-04 2.46262E-13-1.73238E-13
 -1      3602 2.00007E+01 7.00229E-04-4.17959E-06 3.00088E-04 1.98841E-13 4.15316E-14
 -1      3603 2.00009E+01 1.28865E-03 3.85640E-06 1.42833E-04 2.89009E-13-2.16761E-14
 -1      3604 2.00007E+01 4.65766E-04 2.90610E-06 3.50585E-04-3.67004E-14 5.14163E-14
 -1      3605 2.00006E+01 2.72024E-04-1.95138E-06 4.05533E-04-1.51554E-13 8.86770E-14
 -1      3606 2.00008E+01 6.52833E-04 9.94621E-07 2.95911E-04 8.77848E-14 5.36270E-14
 -1      3607 2.00006E+01 1.18997E-04 2.05754E-06 4.23750E-04-2.09536E-13 1.34549E-13
 -1      3608 2.00005E+01-3.27217E-06-4.83601E-07 4.44781E-04-1.71812E-13 4.84127E-14
 -1      3609 2.00007E+01 2.26778E-04-8.07012E-07 3.70906E-04-9.01453E-14-7.65490E-14
 -1      3610 2.00005E+01-9.69710E-05 1.41076E-06 4.42403E-04 4.24749E-14 7.70408E-14
 -1      3611 2.00004E+01-1.68078E-04 4.29766E-07 4.41568E-04 1.54675E-13 1.31899E-13
 -1      3612 2.00006E+01-4.41555E-05-1.83614E-06 3.94150E-04-2.72003E-14-1.30797E-13
 -1      3613 2.00004E+01-2.19908E-04 9.22596E-07 4.26907E-04 1.24246E-13 8.68015E-14
 -1      3614 2.00003E+01-2.55628E-04 9.50264E-07 4.12888E-04-1.27120E-14-2.91928E-14
 -1      3615 2.00005E+01-2.03697E-04-2.32532E-06 3.84653E-04 4.85935E-14-1.24218E-13
 -1      3616 2.00003E+01-2.79004E-04 5.61481E-07 3.91728E-04-1.83728E-13-2.75385E-14
 -1      3617 2.00002E+01-2.91288E-04 1.20526E-06 3.70605E-04-1.17665E-13-2.08939E-13
 -1      3618 2.00004E+01-2.85871E-04-2.45311E-06 3.55914E-04-7.92098E-14 7.76944E-14
 -1      3619 2.00002E+01-2.96312E-04 2.98312E-07 3.46864E-04 4.06847E-14-2.80130E-13
 -1      3620 2.00001E+01-2.94085E-04 1.23369E-06 3.22749E-04-6.02093E-14-1.01699E-13
 -1      3621 2.00003E+01-3.16502E-04-2.35214E-06 3.17302E-04-5.35221E-14-1.11578E-13
 -1      3622 2.00001E+01-2.87851E-04 1.97242E-07 2.98721E-04-1.94413E-13-1.32209E-13
 -1      3623 2.00000E+01-2.77620E-04 1.14073E-06 2.74427E-04-1.39214E-13-5.61568E-14
 -1      3624 2.00002E+01-3.15075E-04-2.13377E-06 2.75099E-04-9.79824E-14-1.65279E-13
 -1      3625 2.00000E+01-2.65861E-04 6.27584E-08 2.51921E-04 9.75187E-14-1.81663E-13
 -1      3626 2.00000E+01-2.52682E-04 6.59948E-07 2.28728E-04 3.09217E-13-1.77309E-13
 -1      3627 2.00001E+01-2.94714E-04-1.73714E-06 2.32355E-04-9.02997E-14-2.06124E-13
 -1      3628 1.96305E+01 3.92432E-01-6.92219E-04-9.94266E-03 4.90694E-14 4.84095E-13
 -1      3629 1.95263E+01 4.58626E-01-5.47918E-03-3.07503E-02 2.64249E-14 4.93785E-13
 -1      3630 1.98546E+01 2.00831E-01-6.62745E-04 3.95229E-02 1.58417E-13 2.94594E-13
 -1      3631 1.98139E+01 2.37609E-01-1.98254E-03 4.01851E-02 1.45351E-13 2.93814E-13
 -1      3632 2.51128E+01-2.47605E+00 4.78635E-02-8.14280E-01 1.87654E-14-1.70515E-14
 -1      3633 2.53811E+01-1.97137E+00-6.69498E-02 1.77737E-01 8.37080E-14-9.06562E-14
 -1      3634 1.99999E+01-2.32452E-04 6.96747E-07-2.42197E-04 4.91906E-13 6.91701E-14
 -1      3635 1.97665E+01 2.81898E-01-7.30816E-04 2.60564E-02 7.03127E-14 4.12657E-13
 -1      3636 1.97007E+01 3.32027E-01-3.33270E-03 1.94834E-02 6.31124E-14 4.87261E-13
 -1      3637 1.96674E+01 3.50990E-01 3.66128E-03-6.18093E-02 4.98680E-14 3.95242E-13
 -1      3638 1.97846E+01 2.57610E-01 2.46081E-03-9.99077E-03 1.89082E-13 2.89191E-13
 -1      3639 1.94247E+01 5.37882E-01-3.73134E-04-8.64025E-02 1.39442E-14 4.93907E-13
 -1      3640 1.92626E+01 6.21327E-01-8.75469E-03-1.33795E-01 5.60707E-14 4.47762E-13
 -1      3641 1.94944E+01 4.69498E-01 5.26120E-03-1.59453E-01-7.22252E-15 4.10206E-13
 -1      3642 1.99111E+01 1.42335E-01-5.40598E-04 4.12017E-02 1.23706E-13 2.32920E-13
 -1      3643 1.98863E+01 1.68889E-01-1.12646E-03 4.49852E-02 1.61109E-13 3.28753E-13
 -1      3644 1.98626E+01 1.87233E-01 1.68739E-03 1.46966E-02 2.05242E-13 1.72884E-13
 -1      3645 1.99467E+01 1.00705E-01-4.20101E-04 3.73383E-02 5.70241E-14 3.16558E-13
 -1      3646 1.99318E+01 1.19645E-01-6.16929E-04 4.21192E-02 6.24524E-14 3.39769E-13
 -1      3647 1.99137E+01 1.35015E-01 1.10590E-03 2.43211E-02 5.30520E-14 1.99173E-13
 -1      3648 1.99689E+01 7.12409E-02-3.17228E-04 3.13279E-02 1.81431E-13 2.38310E-13
 -1      3649 1.99602E+01 8.46895E-02-3.15799E-04 3.60421E-02 1.05763E-13 2.99900E-13
 -1      3650 1.99467E+01 9.70359E-02 7.13341E-04 2.59169E-02 7.88062E-14 1.93341E-13
 -1      3651 1.99825E+01 5.04115E-02-2.35069E-04 2.49745E-02 1.73896E-13 1.96202E-13
 -1      3652 1.99775E+01 5.99551E-02-1.44410E-04 2.91501E-02 2.10549E-13 2.12042E-13
 -1      3653 1.99678E+01 6.96070E-02 4.53887E-04 2.36310E-02 2.47197E-13 1.73892E-13
 -1      3654 1.99908E+01 3.56585E-02-1.71938E-04 1.91461E-02 1.77362E-13 2.32252E-13
 -1      3655 1.99880E+01 4.24454E-02-5.08558E-05 2.26259E-02 2.03082E-13 2.15817E-13
 -1      3656 1.99812E+01 4.98537E-02 2.85214E-04 1.98059E-02 1.63603E-13 1.43806E-13
 -1      3657 1.99957E+01 2.51709E-02-1.24539E-04 1.41904E-02 2.06723E-14 2.49660E-13
 -1      3658 1.99943E+01 3.00147E-02-2.86901E-06 1.69752E-02 7.04146E-14 3.03531E-13
 -1      3659 1.99896E+01 3.56246E-02 1.77044E-04 1.56902E-02 9.72714E-14 3.05966E-13
 -1      3660 1.99986E+01 1.76842E-02-8.94279E-05 1.01802E-02-1.40882E-13 2.31156E-13
 -1      3661 1.99979E+01 2.11541E-02 1.91817E-05 1.23418E-02-2.34723E-14 2.17809E-13
 -1      3662 1.99947E+01 2.53552E-02 1.08425E-04 1.18954E-02 3.99911E-14 2.39799E-13
 -1      3663 2.00002E+01 1.23212E-02-6.36215E-05 7.05237E-03-1.62934E-13 1.84243E-13
 -1      3664 1.99999E+01 1.48137E-02 2.70398E-05 8.68799E-03-1.91394E-13 2.70930E-13
 -1      3665 1.99979E+01 1.79270E-02 6.52774E-05 8.67342E-03-1.54253E-13 2.24585E-13
 -1      3666 2.00010E+01 8.47290E-03-4.47480E-05 4.68674E-03 4.99664E-14-7.29917E-14
 -1      3667 2.00010E+01 1.02646E-02 2.75831E-05 5.89553E-03-2.52916E-14 7.33712E-14
 -1      3668 1.99997E+01 1.25465E-02 3.83496E-05 6.08159E-03 1.77169E-15 1.59633E-14
 -1      3669 2.00014E+01 5.71425E-03-3.10027E-05 2.94765E-03-1.87572E-13 1.28659E-13
 -1      3670 2.00014E+01 6.99941E-03 2.47317E-05 3.82003E-03-6.94832E-14-6.36269E-14
 -1      3671 2.00007E+01 8.65121E-03 2.16655E-05 4.08024E-03-7.63173E-14-4.82011E-14
 -1      3672 2.00014E+01 3.74535E-03-2.10426E-05 1.70545E-03 6.82298E-15 2.94191E-13
 -1      3673 2.00016E+01 4.66192E-03 2.06385E-05 2.31890E-03-7.53242E-14 1.94672E-13
 -1      3674 2.00012E+01 5.83982E-03 1.14154E-05 2.58776E-03-2.18798E-13 4.92760E-14
 -1      3675 2.00014E+01 2.35202E-03-1.38764E-05 8.45992E-04-1.62505E-13 2.85579E-13
 -1      3676 2.00015E+01 2.99921E-03 1.64210E-05 1.26438E-03-3.92472E-14 2.39203E-13
 -1      3677 2.00014E+01 3.82371E-03 5.19422E-06 1.51094E-03-4.71297E-14 1.77465E-13
 -1      3678 2.00012E+01 1.37924E-03-8.77288E-06 2.73803E-04 5.92686E-14 1.58419E-13
 -1      3679 2.00014E+01 1.82932E-03 1.26048E-05 5.48274E-04-2.03012E-14 3.14337E-13
 -1      3680 2.00014E+01 2.39285E-03 1.49268E-06 7.60493E-04 1.28766E-14 1.54344E-13
 -1      3681 2.00011E+01 7.13390E-04-5.19056E-06-8.81393E-05-9.74908E-15 1.84588E-13
 -1      3682 2.00012E+01 1.01960E-03 9.38911E-06 8.24493E-05-1.81764E-13 1.46354E-13
 -1      3683 2.00013E+01 1.39271E-03-6.33801E-07 2.58138E-04-7.64652E-14 1.67024E-13
 -1      3684 2.00009E+01 2.70386E-04-2.72610E-06-3.00227E-04-8.18553E-14 4.26786E-13
 -1      3685 2.00010E+01 4.72274E-04 6.80228E-06-2.02805E-04 9.04869E-14 3.13736E-13
 -1      3686 2.00012E+01 7.08481E-04-1.77721E-06-6.11261E-05-1.04725E-13 2.59462E-13
 -1      3687 2.00007E+01-1.23628E-05-1.07772E-06-4.08665E-04-1.73209E-13 5.17486E-13
 -1      3688 2.00008E+01 1.14719E-04 4.79099E-06-3.61286E-04-1.65327E-13 4.14004E-13
 -1      3689 2.00010E+01 2.54292E-04-2.31029E-06-2.49185E-04-1.10350E-13 2.26828E-13
 -1      3690 2.00005E+01-1.81560E-04-1.90012E-08-4.47997E-04 6.16381E-14 3.20438E-13
 -1      3691 2.00006E+01-1.07243E-04 3.26976E-06-4.33591E-04 2.54751E-14 4.34150E-13
 -1      3692 2.00008E+01-3.42839E-05-2.46944E-06-3.46182E-04-8.30502E-14 1.87377E-13
 -1      3693 2.00004E+01-2.71993E-04 6.20238E-07-4.43455E-04-1.85112E-14 1.23354E-13
 -1      3694 2.00005E+01-2.34031E-04 2.14707E-06-4.49680E-04 8.61328E-14 1.99662E-13
 -1      3695 2.00006E+01-2.05573E-04-2.40581E-06-3.82332E-04 7.20925E-14-3.18759E-14
 -1      3696 2.00003E+01-3.09444E-04 9.66109E-07-4.13008E-04-3.16695E-14 1.53918E-13
 -1      3697 2.00003E+01-2.95691E-04 1.33811E-06-4.31157E-04-1.82639E-13 1.05586E-13
 -1      3698 2.00005E+01-2.95681E-04-2.21678E-06-3.79791E-04-1.61912E-13-8.02751E-14
 -1      3699 2.00002E+01-3.12843E-04 1.12161E-06-3.69063E-04 1.52902E-13 2.07820E-13
 -1      3700 2.00002E+01-3.14415E-04 7.72977E-07-3.93180E-04 7.68241E-14 9.86760E-14
 -1      3701 2.00003E+01-3.31418E-04-1.96703E-06-3.54378E-04 6.75534E-15-1.59774E-14
 -1      3702 2.00001E+01-2.96077E-04 1.09053E-06-3.19913E-04 4.97939E-13 8.10283E-14
 -1      3703 2.00001E+01-3.06447E-04 3.82046E-07-3.46072E-04 3.94586E-13 2.19334E-13
 -1      3704 2.00002E+01-3.32478E-04-1.69787E-06-3.16974E-04 3.20247E-13 2.64101E-14
 -1      3705 2.00000E+01-2.69314E-04 9.41788E-07-2.70330E-04 3.99638E-13 3.63879E-14
 -1      3706 2.00000E+01-2.83883E-04 7.59390E-09-2.96321E-04 4.01240E-13 8.73027E-16
 -1      3707 2.00001E+01-3.13394E-04-1.40000E-06-2.75105E-04 4.15772E-13-4.22663E-14
 -1      3708 1.70209E+01 3.73662E-01 8.36935E-03-3.40986E+00-2.11018E-14 6.94037E-14
 -1      3709 1.81985E+01-5.61913E-01-4.06595E-02-3.88087E+00 6.61845E-14 5.42448E-14
 -1      3710 1.80592E+01 1.13387E+00 6.80418E-03-9.34879E-01 9.74112E-14 1.87842E-13
 -1      3711 1.75339E+01 1.20534E+00-2.21512E-02-1.23468E+00 8.13529E-14 1.73618E-13
 -1      3712 1.91195E+01 7.20030E-01 4.85572E-04-2.32334E-01 6.36769E-14 3.75656E-13
 -1      3713 1.88724E+01 8.16907E-01-1.36128E-02-3.26291E-01 7.14581E-14 3.67405E-13
 -1      3714 1.92446E+01 6.10176E-01 7.18178E-03-3.32769E-01 9.75378E-15 3.68609E-13
 -1      3715 1.86784E+01 9.29527E-01 2.64096E-03-4.93478E-01 1.99470E-14 2.92939E-13
 -1      3716 1.83110E+01 1.02669E+00-1.97155E-02-6.65093E-01 6.22423E-14 2.24102E-13
 -1      3717 1.84221E+01 8.72573E-01 9.59259E-03-1.10543E+00 4.92162E-14 1.22720E-13
 -1      3718 1.88953E+01 7.56901E-01 9.08071E-03-6.26643E-01 1.06681E-14 3.05750E-13
 -1      3719 2.54139E+01 4.65965E+00-6.12274E-02-1.83312E+00 6.33799E-14-1.80561E-13
 -1      3720 2.52735E+01 3.92680E+00-2.92714E-02-2.04369E+00 8.11608E-14-1.44203E-13
 -1      3721 2.46694E+01 4.71432E+00-1.58434E-02-1.38679E+00 8.92203E-14-2.15104E-13
 -1      3722 2.32690E+01-2.68714E+00 5.05984E-02-2.72227E+00 8.31757E-14 1.10600E-13
 -1      3723 2.42290E+01-2.92674E+00-7.07083E-02-1.82188E+00 3.65229E-14 8.38123E-14
 -1      3724 2.00000E+01-2.44058E-04 6.09796E-07-1.34066E-04-1.20513E-13-2.59479E-13
 -1      3725 1.99999E+01-2.34015E-04 8.02930E-09-1.55187E-04 1.86651E-15-5.34939E-14
 -1      3726 1.99999E+01-2.40407E-04-7.52783E-07-1.79165E-04 1.82779E-13-1.31943E-13
 -1      3727 2.00000E+01-2.65181E-04-4.46872E-07-1.28297E-04 1.26320E-13-1.09349E-13
 -1      3728 1.98963E+01-1.36850E+00 3.66289E-02-3.87800E+00 1.41374E-13 1.64829E-13
 -1      3729 2.17161E+01-2.45378E+00-6.30926E-02-3.52062E+00 1.30012E-13 1.72666E-13
 -1      3730 2.31694E+01 3.03953E+00-8.09415E-03-1.72230E+00 1.04331E-13-2.09772E-13
 -1      3731 2.30387E+01 3.32143E+00 7.86152E-03-1.34696E+00 1.17842E-13-2.07330E-13
 -1      3732 2.35726E+01 3.87774E+00-3.78065E-03-1.18076E+00 1.13557E-13-1.59274E-13
 -1      3733 2.38858E+01 3.30149E+00-1.16500E-02-1.87213E+00 1.06238E-13-1.61262E-13
 -1      3734 2.55990E+01-9.86967E-01 4.01537E-02 1.00516E+00 1.60906E-13 2.72265E-15
 -1      3735 2.51630E+01 7.91880E-02-4.00691E-02 1.56500E+00 1.71890E-13 4.31985E-14
 -1      3736 1.51760E+01 1.19305E+00 9.96312E-03-3.11734E+00-6.40616E-14 1.31308E-13
 -1      3737 2.45311E+01 4.21823E+00-1.99043E-02 1.00876E+00 9.86919E-14-1.50734E-13
 -1      3738 2.41748E+01 4.55796E+00-4.73578E-02 3.02501E-01 5.44703E-14-2.08869E-13
 -1      3739 2.49744E+01 3.27252E+00-1.71733E-02-2.22703E+00 8.14791E-14-1.41339E-13
 -1      3740 2.00000E+01-2.58024E-04-8.07198E-07 1.93575E-04 3.39267E-13-4.11217E-13
 -1      3741 2.42117E+01-2.39010E+00 1.25948E-02-1.00012E+00 2.77131E-14-5.04327E-14
 -1      3742 1.73331E+01 1.21309E+00 1.16578E-02-1.60604E+00 2.13486E-14 1.68690E-13
 -1      3743 1.67892E+01 1.18513E+00-2.19079E-02-2.03341E+00-2.70374E-14 1.29706E-13
 -1      3744 1.79136E+01 8.56595E-01 8.28408E-03-1.78941E+00 6.09645E-14 1.61534E-13
 -1      3745 2.48147E+01-1.43220E+00-1.15332E-03 6.50052E-01 1.00164E-13-2.66818E-14
 -1      3746 2.41350E+01 3.09135E+00-7.16902E-03 1.28902E+00 1.02453E-13-9.83109E-14
 -1      3747 2.30857E+01 1.09387E+00 4.04125E-03 1.64718E+00 1.30115E-13-1.43587E-13
 -1      3748 2.31248E+01 4.80848E-01-1.77499E-02 1.70038E+00 1.81206E-13-1.04270E-13
 -1      3749 2.00000E+01-2.50514E-04 9.25298E-08-2.01041E-04 5.81026E-13 4.74172E-14
 -1      3750 2.00000E+01-2.60448E-04-5.31051E-07-2.44457E-04 4.67733E-13 1.19032E-13
 -1      3751 2.00000E+01-2.87303E-04 3.70707E-07-2.27399E-04 4.82577E-13 7.06493E-14
 -1      3752 2.00000E+01-2.64328E-04 6.32812E-07-1.78306E-04 5.77412E-13-4.36739E-14
 -1      3753 1.95862E+01-8.40080E-01 3.45671E-02-3.32124E+00 3.42972E-14 1.60433E-13
 -1      3754 1.69096E+01 7.87614E-01 2.46929E-02-2.84280E+00-1.35048E-14 6.36209E-14
 -1      3755 1.78820E+01 4.58132E-01 1.13622E-02-2.63763E+00 2.01523E-14 6.90409E-14
 -1      3756 2.00001E+01-2.95985E-04 3.34273E-07-5.56525E-05 4.30582E-13-8.58305E-14
 -1      3757 2.00000E+01-2.92890E-04-6.50248E-08-8.66522E-05 5.14144E-13-2.87823E-14
 -1      3758 2.00000E+01-2.71777E-04 9.34437E-07 1.61741E-04 4.59111E-13-1.66233E-13
 -1      3759 2.23530E+01-2.18858E+00 2.76244E-02-2.60206E+00 1.22615E-13 1.79124E-13
 -1      3760 2.47070E+01 8.88857E-01-2.35643E-03 1.80301E+00 1.55610E-13-8.25034E-15
 -1      3761 2.42930E+01 1.46026E+00-7.33121E-03 1.78756E+00 1.52854E-13-3.66773E-14
 -1      3762 1.58580E+01 1.27221E+00 1.58012E-02-2.64289E+00-1.33426E-14 1.49880E-13
 -1      3763 2.00001E+01-2.97530E-04 2.27938E-07 2.90036E-05 4.53408E-13 2.70890E-13
 -1      3764 2.00001E+01-2.98146E-04 4.78568E-07-1.01958E-05 3.51517E-13 1.11342E-13
 -1      3765 2.00001E+01-3.14134E-04-5.84734E-07-2.73808E-05 6.12437E-13 6.95573E-14
 -1      3766 2.37273E+01 1.44771E-01 5.09815E-03 1.62112E+00 1.66354E-13-8.76509E-14
 -1      3767 2.42243E+01 4.77716E+00-2.43743E-02-3.44091E-01 5.87655E-14-2.12377E-13
 -1      3768 1.85659E+01 5.36770E-01 1.50205E-02-1.72092E+00 6.02548E-14 1.68253E-13
 -1      3769 1.83234E+01 4.11870E-01-1.96274E-02-2.10686E+00 3.62293E-14 1.44095E-13
 -1      3770 1.98748E+01 1.59711E-01 2.26964E-05-6.42308E-03 1.23040E-13 2.32795E-13
 -1      3771 1.98407E+01 1.84699E-01-1.86979E-03-1.61692E-02 1.82207E-13 1.41674E-13
 -1      3772 2.35457E+01-2.23747E+00 4.25340E-02-1.15573E+00 2.82109E-14-3.29957E-14
 -1      3773 2.39643E+01-2.15828E+00-4.39340E-02-3.41790E-01-7.13427E-15-1.15649E-13
 -1      3774 2.33806E+01-1.67164E+00 4.08720E-04 2.05536E-01 5.29668E-14-1.32163E-13
 -1      3775 2.30695E+01-1.70197E+00 2.97723E-02-4.47864E-02 1.07601E-14-1.60718E-13
 -1      3776 2.25184E+01-1.62891E+00 9.60016E-04-2.42842E-01 2.00342E-14-1.42122E-13
 -1      3777 2.21901E+01-1.50450E+00 2.28022E-02-4.01126E-01 9.49631E-15-1.52464E-13
 -1      3778 2.27766E+01-1.95351E+00-3.70254E-02-7.17326E-01 3.72239E-14-1.16020E-13
 -1      3779 2.17597E+01-1.33449E+00 6.91200E-03-4.55955E-01-5.18682E-16-9.73679E-14
 -1      3780 2.14671E+01-1.16945E+00 1.68118E-02-5.33688E-01-1.89001E-14-1.24437E-13
 -1      3781 2.18332E+01-1.53736E+00-2.56064E-02-8.94927E-01 5.60253E-14-1.47616E-14
 -1      3782 2.11566E+01-9.87211E-01 8.55256E-03-5.10098E-01 3.11379E-14-8.50996E-14
 -1      3783 2.09237E+01-8.28825E-01 1.12670E-02-5.30435E-01 5.47434E-14-8.43685E-14
 -1      3784 2.11301E+01-1.09927E+00-2.00768E-02-8.65319E-01 4.89710E-14 8.40127E-15
 -1      3785 2.07164E+01-6.73890E-01 7.92146E-03-4.70606E-01 1.69550E-13-1.04285E-13
 -1      3786 2.05449E+01-5.45284E-01 6.49760E-03-4.58937E-01 1.95313E-13 5.13700E-15
 -1      3787 2.06462E+01-7.24003E-01-1.58930E-02-7.36065E-01 1.93875E-13-4.92230E-14
 -1      3788 2.04159E+01-4.27480E-01 6.50459E-03-3.92084E-01 1.10944E-13 6.57916E-14
 -1      3789 2.02969E+01-3.31715E-01 3.44479E-03-3.66890E-01 9.45004E-14 1.10547E-13
 -1      3790 2.03380E+01-4.37624E-01-1.05307E-02-5.76930E-01 2.66804E-13-8.70945E-14
 -1      3791 2.02211E+01-2.48174E-01 4.95109E-03-3.05919E-01 5.36431E-14 1.68495E-13
 -1      3792 2.01430E+01-1.81953E-01 1.55819E-03-2.77821E-01 5.73405E-14 1.95609E-13
 -1      3793 2.01513E+01-2.38640E-01-6.71918E-03-4.28565E-01 1.08060E-13 6.45671E-14
 -1      3794 2.01019E+01-1.26554E-01 3.50871E-03-2.28269E-01 4.82419E-14 1.95945E-13
 -1      3795 2.00534E+01-8.34211E-02 5.13491E-04-2.02621E-01 1.13341E-13 1.61870E-13
 -1      3796 2.00457E+01-1.08972E-01-4.05747E-03-3.05422E-01 7.80027E-14-9.04496E-16
 -1      3797 2.00334E+01-4.88299E-02 2.37057E-03-1.64920E-01 1.76471E-14 8.60297E-14
 -1      3798 2.00050E+01-2.26302E-02-2.10634E-05-1.43663E-01-1.40509E-14-1.62848E-14
 -1      3799 1.99909E+01-2.96432E-02-2.26781E-03-2.10956E-01-1.79044E-14-2.82760E-14
 -1      3800 1.99975E+01-2.78945E-03 1.53187E-03-1.16382E-01 8.54497E-15-1.96871E-14
 -1      3801 1.99821E+01 1.17939E-02-2.50454E-04-9.98687E-02 4.70497E-14-1.09707E-13
 -1      3802 1.99666E+01 1.49395E-02-1.13662E-03-1.41997E-01-3.62903E-14-1.20484E-13
 -1      3803 1.99811E+01 2.20016E-02 9.44588E-04-8.07503E-02 6.71286E-14-6.95371E-14
 -1      3804 1.99739E+01 2.89711E-02-3.19265E-04-6.83783E-02 6.27770E-14-7.14715E-14
 -1      3805 1.99594E+01 3.68688E-02-5.27070E-04-9.37275E-02 7.45643E-14-1.17480E-14
 -1      3806 1.99761E+01 3.30576E-02 5.53066E-04-5.53364E-02 4.50271E-14-6.45801E-14
 -1      3807 1.99735E+01 3.53265E-02-3.10626E-04-4.62942E-02-3.09440E-15-9.05657E-14
 -1      3808 1.99611E+01 4.50497E-02-1.70548E-04-6.08135E-02 3.12678E-14-2.33879E-14
 -1      3809 1.99770E+01 3.58019E-02 3.04761E-04-3.75736E-02 1.18251E-13 3.04861E-14
 -1      3810 1.99768E+01 3.53666E-02-2.68864E-04-3.10701E-02 2.00178E-14 1.58352E-13
 -1      3811 1.99668E+01 4.52141E-02 1.60803E-05-3.89126E-02 1.88442E-13 1.24544E-13
 -1      3812 1.99805E+01 3.38942E-02 1.53759E-04-2.53269E-02-1.74064E-13 2.93461E-13
 -1      3813 1.99815E+01 3.20693E-02-2.18057E-04-2.06936E-02-1.71156E-13 2.40785E-13
 -1      3814 1.99737E+01 4.11568E-02 1.00147E-04-2.46033E-02 3.60057E-14 2.70467E-13
 -1      3815 1.99848E+01 2.97073E-02 6.65989E-05-1.69535E-02-1.32433E-13 3.05653E-13
 -1      3816 1.99863E+01 2.73170E-02-1.69508E-04-1.36700E-02 3.51269E-15 1.02800E-13
 -1      3817 1.99803E+01 3.52495E-02 1.26826E-04-1.53869E-02-7.44506E-14 3.74421E-13
 -1      3818 1.99890E+01 2.47042E-02 1.96130E-05-1.12538E-02 7.79356E-14 8.74230E-14
 -1      3819 1.99904E+01 2.22358E-02-1.27714E-04-8.93348E-03 1.83632E-13 7.87838E-14
 -1      3820 1.99861E+01 2.88998E-02 1.23818E-04-9.51444E-03 7.17244E-15 3.28109E-13
 -1      3821 1.99926E+01 1.97314E-02-3.21227E-06-7.38122E-03 1.47026E-13-9.74126E-14
 -1      3822 1.99938E+01 1.74490E-02-9.37702E-05-5.74519E-03-1.62568E-14-9.64996E-14
 -1      3823 1.99907E+01 2.28849E-02 1.07360E-04-5.80118E-03 3.75817E-14 1.12820E-13
 -1      3824 1.99954E+01 1.52317E-02-1.22753E-05-4.75232E-03 5.45025E-14-3.71082E-14
 -1      3825 1.99964E+01 1.32577E-02-6.72131E-05-3.60242E-03-2.35597E-14-4.12961E-14
 -1      3826 1.99942E+01 1.75839E-02 8.65181E-05-3.46531E-03 7.07124E-14-1.95005E-13
 -1      3827 1.99975E+01 1.13958E-02-1.40574E-05-2.97037E-03-2.07294E-14 1.28300E-13
 -1      3828 1.99982E+01 9.76674E-03-4.69874E-05-2.16672E-03 1.83897E-13 1.32265E-13
 -1      3829 1.99968E+01 1.31340E-02 6.60192E-05-2.00126E-03 1.47770E-13-7.44788E-14
 -1      3830 1.99990E+01 8.26399E-03-1.24198E-05-1.76736E-03 1.50989E-13 1.24758E-13
 -1      3831 1.99995E+01 6.96805E-03-3.19146E-05-1.21112E-03 1.18778E-14 1.59788E-13
 -1      3832 1.99986E+01 9.53345E-03 4.80448E-05-1.08707E-03 1.70698E-13 5.48970E-14
 -1      3833 2.00000E+01 5.79417E-03-9.53817E-06-9.62168E-04-1.47056E-13 2.05515E-13
 -1      3834 2.00003E+01 4.79499E-03-2.09006E-05-5.83054E-04-1.77279E-13 9.06937E-14
 -1      3835 1.99998E+01 6.70746E-03 3.33459E-05-5.19874E-04-2.15991E-14 7.84164E-14
 -1      3836 2.00006E+01 3.90439E-03-6.54593E-06-4.31672E-04-1.74683E-13 5.32208E-14
 -1      3837 2.00007E+01 3.15599E-03-1.30110E-05-1.79269E-04-7.97191E-14 1.10010E-13
 -1      3838 2.00005E+01 4.54887E-03 2.19187E-05-1.72479E-04-2.25577E-13 2.10854E-13
 -1      3839 2.00009E+01 2.49908E-03-3.96068E-06-9.13197E-05 1.04981E-13-2.36099E-14
 -1      3840 2.00009E+01 1.95447E-03-7.48300E-06 7.08547E-05 1.86962E-13-1.69165E-14
 -1      3841 2.00009E+01 2.94254E-03 1.34012E-05 3.49007E-05 7.16035E-14 4.35114E-14
 -1      3842 2.00010E+01 1.48391E-03-1.95593E-06 1.17625E-04 1.89614E-13 3.38983E-14
 -1      3843 2.00010E+01 1.09971E-03-3.71159E-06 2.16164E-04 3.13669E-13-8.60098E-14
 -1      3844 2.00011E+01 1.77889E-03 7.29925E-06 1.52630E-04 1.99131E-13-2.46478E-14
 -1      3845 2.00010E+01 7.73539E-04-5.28049E-07 2.36433E-04 1.55837E-13-1.36163E-13
 -1      3846 2.00009E+01 5.12136E-04-1.22590E-06 2.90791E-04-6.75289E-14-8.65114E-14
 -1      3847 2.00011E+01 9.60545E-04 3.10786E-06 2.12877E-04 9.71489E-14-2.18665E-13
 -1      3848 2.00009E+01 2.94897E-04 4.05687E-07 2.94351E-04-2.05192E-13-1.17806E-13
 -1      3849 2.00008E+01 1.25020E-04 3.35008E-07 3.18748E-04-1.02109E-13-1.77858E-13
 -1      3850 2.00010E+01 4.04930E-04 3.69970E-07 2.36499E-04-1.21357E-13-1.80487E-13
 -1      3851 2.00008E+01-1.21566E-05 9.52858E-07 3.12186E-04 1.15111E-13-2.09255E-13
 -1      3852 2.00007E+01-1.15645E-04 1.24433E-06 3.16956E-04 7.97613E-14-1.36730E-13
 -1      3853 2.00009E+01 4.43817E-05-1.29978E-06 2.37236E-04 8.38333E-14-3.03023E-13
 -1      3854 2.00006E+01-1.95614E-04 1.21835E-06 3.04710E-04-1.03858E-13-7.32927E-14
 -1      3855 2.00006E+01-2.52384E-04 1.70603E-06 2.97278E-04-1.14924E-13-2.01735E-13
 -1      3856 2.00007E+01-1.75025E-04-2.21085E-06 2.24258E-04 4.86334E-14-2.38396E-13
 -1      3857 2.00005E+01-2.92795E-04 1.29229E-06 2.82314E-04 5.87096E-14-1.62825E-13
 -1      3858 2.00004E+01-3.17883E-04 1.87024E-06 2.67920E-04-1.55588E-13-1.65689E-13
 -1      3859 2.00006E+01-2.95260E-04-2.60221E-06 2.03719E-04 4.69297E-15-1.59440E-13
 -1      3860 2.00004E+01-3.32081E-04 1.23854E-06 2.52167E-04-2.64386E-13-1.27460E-13
 -1      3861 2.00003E+01-3.36754E-04 1.80282E-06 2.34444E-04-1.39771E-13-3.43933E-13
 -1      3862 2.00004E+01-3.48299E-04-2.65169E-06 1.79705E-04-1.98065E-13-2.37926E-13
 -1      3863 2.00002E+01-3.34322E-04 1.15632E-06 2.19098E-04-5.84054E-14-3.22987E-13
 -1      3864 2.00002E+01-3.27749E-04 1.19894E-06 2.00631E-04-1.61215E-13-3.04649E-13
 -1      3865 2.00003E+01-3.58011E-04-2.44260E-06 1.54964E-04-1.13860E-13-3.82217E-13
 -1      3866 2.00001E+01-3.08624E-04 1.11280E-06 1.91015E-04-7.45945E-14-1.53061E-13
 -1      3867 2.00001E+01-2.95524E-04 7.67672E-07 1.72768E-04 9.91291E-14-2.70644E-13
 -1      3868 2.00000E+01-2.90097E-04-9.35266E-07 1.21102E-04 4.72177E-13 2.11312E-13
 -1      3869 2.00002E+01-3.34262E-04-1.75837E-06 1.36991E-04-2.28273E-14-2.32050E-13
 -1      3870 1.95840E+01 3.70498E-01 1.77772E-03-2.00722E-01 1.40560E-14 3.07018E-13
 -1      3871 1.94698E+01 4.14257E-01-6.89456E-03-2.71114E-01-2.92862E-15 3.06304E-13
 -1      3872 1.99479E+01 8.64467E-02-1.35869E-04 1.45213E-02 8.09913E-14 1.92239E-13
 -1      3873 1.99338E+01 1.00742E-01-6.86720E-04 1.41267E-02 1.11115E-14 1.69490E-13
 -1      3874 1.99673E+01 6.31840E-02-1.38588E-04 1.54374E-02 3.01321E-13 1.66765E-13
 -1      3875 1.99584E+01 7.38275E-02-3.95694E-04 1.65763E-02 2.54691E-13 2.07819E-13
 -1      3876 1.99509E+01 8.05692E-02 4.97319E-04 6.11817E-03 1.86642E-13 2.64626E-14
 -1      3877 1.99801E+01 4.60041E-02-1.24275E-04 1.39784E-02 4.97438E-14 2.24206E-13
 -1      3878 1.99745E+01 5.38965E-02-2.17994E-04 1.57003E-02 1.04298E-13 1.67431E-13
 -1      3879 1.99685E+01 5.98674E-02 3.38396E-04 9.39767E-03 1.95117E-13 1.20133E-13
 -1      3880 1.99884E+01 3.33352E-02-1.04015E-04 1.15884E-02 1.76480E-13 3.48675E-13
 -1      3881 1.99850E+01 3.91780E-02-1.12444E-04 1.33893E-02 9.91342E-14 3.33298E-13
 -1      3882 1.99804E+01 4.41850E-02 2.27738E-04 9.68506E-03-2.62547E-14 3.28862E-13
 -1      3883 1.99937E+01 2.39953E-02-8.32769E-05 9.04183E-03-8.40339E-14 3.60830E-13
 -1      3884 1.99916E+01 2.83175E-02-5.18141E-05 1.06784E-02 1.34255E-13 3.49644E-13
 -1      3885 1.99883E+01 3.23665E-02 1.51808E-04 8.57289E-03 1.50982E-13 3.65472E-13
 -1      3886 1.99970E+01 1.71126E-02-6.45136E-05 6.71718E-03 1.72605E-15 1.92543E-13
 -1      3887 1.99958E+01 2.03061E-02-1.84836E-05 8.09328E-03-7.28518E-14 2.50317E-13
 -1      3888 1.99935E+01 2.34930E-02 1.00198E-04 6.95481E-03-8.00016E-15 4.38190E-13
 -1      3889 1.99991E+01 1.20486E-02-4.86166E-05 4.76690E-03 5.44195E-14 7.91505E-14
 -1      3890 1.99984E+01 1.44021E-02-1.30668E-06 5.86511E-03 6.07812E-14 1.69467E-13
 -1      3891 1.99968E+01 1.68556E-02 6.53315E-05 5.30052E-03 9.31345E-14 2.24426E-13
 -1      3892 2.00003E+01 8.33592E-03-3.57005E-05 3.22113E-03-1.79361E-13 4.58006E-14
 -1      3893 2.00000E+01 1.00624E-02 6.61601E-06 4.06297E-03 4.10624E-14 5.74749E-14
 -1      3894 1.99989E+01 1.19139E-02 4.18747E-05 3.83074E-03 6.28319E-14 2.31804E-13
 -1      3895 2.00010E+01 5.63073E-03-2.55227E-05 2.04919E-03-1.08530E-13 6.57926E-14
 -1      3896 2.00008E+01 6.88790E-03 9.45906E-06 2.67238E-03-2.40683E-13-3.41135E-14
 -1      3897 2.00002E+01 8.25837E-03 2.61537E-05 2.62610E-03-9.94810E-14 3.41962E-15
 -1      3898 2.00013E+01 3.67788E-03-1.77020E-05 1.19495E-03-7.53005E-14 2.47075E-14
 -1      3899 2.00013E+01 4.58370E-03 9.68437E-06 1.64102E-03-4.05206E-15-4.48578E-14
 -1      3900 2.00009E+01 5.57768E-03 1.56709E-05 1.69319E-03-5.17275E-14-1.10024E-13
 -1      3901 2.00014E+01 2.28648E-03-1.18290E-05 5.96234E-04-2.84421E-14 2.11328E-13
 -1      3902 2.00014E+01 2.92975E-03 8.69885E-06 9.04246E-04-9.54474E-14 1.05390E-13
 -1      3903 2.00013E+01 3.63453E-03 8.73942E-06 1.00342E-03-1.55863E-13-3.35970E-14
 -1      3904 2.00013E+01 1.31259E-03-7.51858E-06 1.94586E-04-7.01419E-14 9.58771E-14
 -1      3905 2.00014E+01 1.76061E-03 7.27363E-06 3.98416E-04-1.94271E-14 1.94911E-13
 -1      3906 2.00014E+01 2.24711E-03 4.22049E-06 5.15014E-04-3.06805E-14 5.43207E-14
 -1      3907 2.00012E+01 6.47113E-04-4.43233E-06-6.03830E-05-1.57194E-13 5.86697E-14
 -1      3908 2.00013E+01 9.51078E-04 5.80607E-06 6.71324E-05-1.31697E-13 8.65362E-14
 -1      3909 2.00013E+01 1.27575E-03 1.34267E-06 1.84693E-04-2.34478E-14 1.34265E-14
 -1      3910 2.00010E+01 2.07150E-04-2.28494E-06-2.09800E-04-2.23830E-13 1.48345E-13
 -1      3911 2.00011E+01 4.06041E-04 4.48057E-06-1.36529E-04-2.28884E-13 1.69406E-13
 -1      3912 2.00012E+01 6.13025E-04-4.20209E-07-2.66432E-05-2.19653E-13 5.65103E-14
 -1      3913 2.00008E+01-7.02061E-05-8.43088E-07-2.85893E-04 9.99420E-14-1.54447E-14
 -1      3914 2.00009E+01 5.32153E-05 3.36503E-06-2.49917E-04-6.83304E-14 1.54396E-13
 -1      3915 2.00010E+01 1.76461E-04-1.42992E-06-1.51745E-04-7.58991E-14 1.46242E-13
 -1      3916 2.00007E+01-2.32504E-04 7.92851E-08-3.13084E-04 1.38391E-13-1.36870E-13
 -1      3917 2.00008E+01-1.62190E-04 2.46731E-06-3.01740E-04 2.66958E-13-2.23532E-14
 -1      3918 2.00009E+01-9.69906E-05-1.93713E-06-2.16656E-04 2.55715E-13-1.42879E-13
 -1      3919 2.00005E+01-3.15429E-04 6.26236E-07-3.09326E-04-2.35650E-13-2.33730E-13
 -1      3920 2.00006E+01-2.81465E-04 1.76698E-06-3.13402E-04-2.18075E-13-8.75595E-14
 -1      3921 2.00007E+01-2.55194E-04-2.11651E-06-2.41282E-04 2.96479E-14-7.73017E-14
 -1      3922 2.00004E+01-3.45493E-04 9.40347E-07-2.87421E-04 6.63046E-14-7.69016E-14
 -1      3923 2.00004E+01-3.35455E-04 1.23331E-06-3.00399E-04-1.09186E-13-2.12012E-13
 -1      3924 2.00005E+01-3.34148E-04-2.08970E-06-2.40305E-04-1.58458E-13-3.10225E-13
 -1      3925 2.00002E+01-3.42232E-04 1.14940E-06-2.56480E-04 2.27508E-13 1.24716E-13
 -1      3926 2.00003E+01-3.46989E-04 8.28896E-07-2.73734E-04 1.88014E-15 4.67093E-14
 -1      3927 2.00004E+01-3.60618E-04-2.04374E-06-2.24124E-04-1.22739E-13 6.32050E-14
 -1      3928 2.00001E+01-3.20536E-04 1.94834E-07-2.22540E-04 4.61026E-13-3.75863E-15
 -1      3929 2.00002E+01-3.32531E-04 5.77409E-07-2.40284E-04 5.55375E-13 3.74584E-14
 -1      3930 2.00003E+01-3.55161E-04-2.07334E-06-2.00028E-04 3.53829E-13 2.32342E-13
 -1      3931 2.42518E+01 8.68891E-02-1.05861E-02 1.56754E+00 1.77515E-13-4.49107E-14
 -1      3932 2.41798E+01-5.52429E-01 5.10916E-03 1.37788E+00 1.84327E-13-2.49735E-14
 -1      3933 2.42976E+01 3.58627E+00-9.21997E-03-1.97452E+00 9.94274E-14-1.65735E-13
 -1      3934 1.90243E+01-3.43712E-01 8.34492E-03-2.89113E+00-4.93997E-14 1.46127E-13
 -1      3935 2.02903E+01-1.25261E+00-4.25296E-02-2.92250E+00 5.75317E-14 2.25820E-13
 -1      3936 2.00001E+01-2.97470E-04 3.79775E-07 8.35859E-05 4.30642E-13 3.53450E-13
 -1      3937 1.94013E+01 4.66156E-01 3.45672E-03-3.76368E-01-6.61080E-14 3.26451E-13
 -1      3938 1.92390E+01 5.08745E-01-9.71383E-03-4.96106E-01 9.37998E-15 2.18441E-13
 -1      3939 1.95173E+01 3.57185E-01 2.68193E-03-4.13237E-01-4.40547E-15 1.64349E-13
 -1      3940 1.99186E+01 1.17808E-01-9.51254E-05 8.68415E-03-1.83767E-15 2.16543E-13
 -1      3941 1.98965E+01 1.36839E-01-1.15634E-03 5.06147E-03 5.65077E-14 1.97002E-13
 -1      3942 1.98873E+01 1.42592E-01 1.02092E-03-2.20422E-02 6.72266E-14 2.26363E-13
 -1      3943 1.99249E+01 1.07664E-01 7.20085E-04-2.86718E-03 3.22853E-14 3.88636E-14
 -1      3944 2.16326E+01-1.76315E+00 3.48511E-02-2.52995E+00 1.15537E-13 2.42322E-13
 -1      3945 2.26397E+01-2.30811E+00-5.67051E-02-1.93355E+00 6.73676E-14 1.61544E-13
 -1      3946 1.86016E+01 8.24234E-02 8.19430E-03-2.58585E+00-5.11297E-14 1.11796E-13
 -1      3947 2.41398E+01 3.91568E+00-2.04247E-02-1.68699E+00 1.02038E-13-1.62714E-13
 -1      3948 2.40267E+01-1.60040E+00 3.12045E-02 4.50307E-01 6.71069E-14-8.74715E-14
 -1      3949 1.97170E+01 2.85112E-01 9.71006E-04-9.71981E-02 1.63369E-13 1.46987E-13
 -1      3950 1.96387E+01 3.24325E-01-4.48529E-03-1.36136E-01 4.78699E-14 2.14085E-13
 -1      3951 1.96537E+01 3.00035E-01 2.51069E-03-2.33495E-01 9.37434E-14 4.36065E-14
 -1      3952 2.27800E+01-1.99252E+00 8.21054E-03-1.23277E+00 5.72795E-14 2.84614E-15
 -1      3953 2.40216E+01 4.52790E+00-4.20791E-02-8.42608E-01 7.48993E-14-2.20648E-13
 -1      3954 1.93461E+01 3.95656E-01 2.31990E-03-6.97156E-01-2.67422E-14 1.00529E-13
 -1      3955 1.91594E+01 5.56396E-01 6.10012E-03-6.59630E-01 9.28915E-15 2.40285E-13
 -1      3956 1.89387E+01 5.80762E-01-1.30143E-02-8.55617E-01-5.48149E-14 2.06751E-13
 -1      3957 2.39862E+01 4.17970E+00-7.50229E-03-1.24828E+00 9.74186E-14-1.84028E-13
 -1      3958 1.88814E+01 6.01141E-01 1.17823E-02-1.08840E+00-1.61524E-14 2.80551E-13
 -1      3959 1.85910E+01 5.91636E-01-1.34760E-02-1.39536E+00 6.83870E-14 2.05713E-13
 -1      3960 1.90301E+01 2.45422E-01 4.11517E-03-1.67053E+00 3.22809E-14 2.98677E-13
 -1      3961 1.91653E+01 3.58974E-01-4.02834E-03-1.10741E+00-1.21494E-14 3.08762E-13
 -1      3962 1.98101E+01 2.15138E-01 3.46444E-04-3.77391E-02 2.19036E-13 9.78898E-14
 -1      3963 1.97581E+01 2.46440E-01-3.04081E-03-5.80086E-02 2.43122E-13 1.79172E-13
 -1      3964 1.98332E+01 1.86797E-01 1.39515E-03-5.87936E-02 1.51981E-13 1.04161E-13
 -1      3965 2.10036E+01-1.28086E+00 2.20421E-02-2.28896E+00 3.41194E-14 2.12656E-13
 -1      3966 2.00001E+01-3.29367E-04 5.95213E-07-5.96309E-06 6.25273E-13 2.15423E-13
 -1      3967 2.00001E+01-3.27581E-04 4.41943E-07-5.14457E-05 7.36952E-13-3.47483E-13
 -1      3968 2.00001E+01-3.02014E-04-2.63312E-07-1.18286E-04 8.85659E-13-2.91786E-13
 -1      3969 2.00000E+01-2.81064E-04 7.17274E-07-1.29675E-04 6.17021E-13-1.96862E-13
 -1      3970 2.38966E+01-1.02637E+00-2.52870E-02 1.06574E+00 1.60979E-13-3.84276E-14
 -1      3971 2.00001E+01-3.14611E-04-1.49860E-07 7.40121E-05 4.17356E-13 3.74449E-13
 -1      3972 1.94018E+01-2.33055E-01 9.57443E-03-2.24278E+00-3.04561E-14 1.82546E-13
 -1      3973 2.00002E+01-3.45198E-04-4.57599E-08-1.07286E-04 6.04013E-13-1.65629E-13
 -1      3974 2.00001E+01-3.28702E-04 1.33071E-07-1.28048E-04 5.47026E-13-2.86684E-13
 -1      3975 2.00001E+01-3.17557E-04-1.92747E-07-1.73333E-04 6.62616E-13-2.09338E-13
 -1      3976 2.00002E+01-3.33629E-04 6.13047E-07 9.33462E-05 2.07407E-13 6.59075E-14
 -1      3977 2.00002E+01-3.35426E-04-5.17735E-07 3.56786E-05 4.87798E-13 3.10252E-13
 -1      3978 2.00002E+01-3.48873E-04 4.74560E-07 9.22937E-06 4.58089E-13 2.39694E-14
 -1      3979 2.00002E+01-3.51684E-04 9.08300E-07 9.62049E-05 1.61344E-13-2.29172E-13
 -1      3980 2.00000E+01-2.71499E-04-1.91338E-08-1.57443E-04 6.31958E-13-3.02961E-13
 -1      3981 2.00000E+01-2.83943E-04-3.83045E-07-1.80488E-04 9.45389E-13-1.08692E-13
 -1      3982 2.00001E+01-3.11050E-04-5.68032E-08-1.95966E-04 5.52289E-13 2.98909E-15
 -1      3983 2.11366E+01-1.07623E+00 1.08868E-02-1.14709E+00 3.66313E-14 7.21566E-15
 -1      3984 2.08325E+01-8.66234E-01 8.04754E-03-1.07888E+00 5.64287E-14 2.08006E-14
 -1      3985 2.06168E+01-6.66187E-01 8.90089E-03-9.37633E-01 1.44952E-13 5.54447E-15
 -1      3986 2.04153E+01-5.06325E-01 5.04341E-03-8.41145E-01 2.15499E-13-3.06494E-14
 -1      3987 2.04907E+01-6.89590E-01-1.26540E-02-1.20328E+00 7.89393E-14-3.71209E-15
 -1      3988 2.02983E+01-3.77076E-01 6.78836E-03-7.10056E-01 2.71894E-13-1.14700E-13
 -1      3989 2.01689E+01-2.70974E-01 8.35546E-04-6.21483E-01 2.42623E-13-1.00079E-13
 -1      3990 2.01793E+01-3.68072E-01-9.36174E-03-8.97145E-01 1.64047E-13-3.59235E-14
 -1      3991 2.01144E+01-1.81387E-01 6.20265E-03-5.13377E-01 1.94573E-13-1.46380E-13
 -1      3992 2.00346E+01-1.16158E-01-3.87618E-04-4.38483E-01 1.70819E-13-5.44601E-14
 -1      3993 2.00140E+01-1.60698E-01-6.95405E-03-6.35291E-01 1.80128E-13-1.90884E-13
 -1      3994 2.00143E+01-6.21102E-02 4.49501E-03-3.56718E-01 6.77995E-14-1.27632E-14
 -1      3995 1.99685E+01-2.46687E-02-1.06986E-03-2.98873E-01 1.07192E-14-8.25451E-14
 -1      3996 1.99371E+01-3.70327E-02-4.70018E-03-4.32049E-01 1.26456E-13-1.20817E-13
 -1      3997 1.99665E+01 6.18478E-03 3.20085E-03-2.40538E-01 3.41801E-14-1.12174E-13
 -1      3998 1.99419E+01 2.60308E-02-1.10786E-03-1.98418E-01-5.57587E-14-1.13127E-13
 -1      3999 1.99107E+01 2.99810E-02-2.79851E-03-2.84668E-01-4.96233E-14-1.37163E-13
 -1      4000 1.99479E+01 4.14077E-02 2.07187E-03-1.57213E-01 4.73435E-15-1.68614E-13
 -1      4001 1.99368E+01 4.93727E-02-1.09597E-03-1.28012E-01 9.63908E-14-1.22515E-13
 -1      4002 1.99097E+01 6.49575E-02-5.62158E-04-1.82367E-01-1.67872E-14-1.67494E-13
 -1      4003 1.99458E+01 5.60961E-02 1.40378E-03-1.00939E-01 1.06086E-13-3.05488E-14
 -1      4004 1.99421E+01 5.77333E-02-8.03769E-04-8.08307E-02 1.23897E-13 4.08492E-14
 -1      4005 1.99196E+01 7.32060E-02-6.02448E-04-1.13692E-01 1.54320E-13-1.81957E-13
 -1      4006 1.99513E+01 5.86464E-02 8.62926E-04-6.33176E-02 6.67981E-14 9.01399E-14
 -1      4007 1.99515E+01 5.67843E-02-6.09271E-04-4.99755E-02 1.59619E-13 2.12258E-13
 -1      4008 1.99337E+01 7.18579E-02-3.04045E-04-6.86783E-02 1.22006E-13 2.57605E-14
 -1      4009 1.99598E+01 5.47681E-02 5.18912E-04-3.89280E-02 2.49150E-13 2.35855E-13
 -1      4010 1.99619E+01 5.12202E-02-4.45872E-04-3.02634E-02 1.87326E-13 2.52140E-13
 -1      4011 1.99483E+01 6.48390E-02-7.86246E-05-4.02984E-02 2.50509E-13 3.28783E-13
 -1      4012 1.99688E+01 4.78548E-02 2.98377E-04-2.34770E-02 8.03550E-14 1.84707E-13
 -1      4013 1.99715E+01 4.37355E-02-3.17655E-04-1.79427E-02 2.02054E-15 2.21005E-13
 -1      4014 1.99613E+01 5.54405E-02 3.48778E-05-2.28414E-02 7.74445E-14 1.56495E-13
 -1      4015 1.99769E+01 3.99571E-02 1.62377E-04-1.38842E-02-2.30897E-14 2.63250E-13
 -1      4016 1.99796E+01 3.58939E-02-2.22005E-04-1.03951E-02-3.18414E-15 3.30064E-13
 -1      4017 1.99721E+01 4.56369E-02 8.23330E-05-1.24053E-02 5.87184E-14 1.71473E-13
 -1      4018 1.99837E+01 3.22273E-02 8.18458E-05-8.03757E-03 1.11016E-14 3.28055E-13
 -1      4019 1.99860E+01 2.85427E-02-1.52944E-04-5.85874E-03 1.06990E-13 2.94973E-13
 -1      4020 1.99807E+01 3.64688E-02 9.40270E-05-6.35849E-03 2.91117E-14 2.70135E-13
 -1      4021 1.99891E+01 2.52534E-02 3.64323E-05-4.53462E-03-2.86506E-15 2.67500E-13
 -1      4022 1.99910E+01 2.20851E-02-1.04150E-04-3.18236E-03-8.70923E-15 1.58783E-13
 -1      4023 1.99872E+01 2.84167E-02 8.79104E-05-2.97986E-03-5.75355E-15 2.69352E-13
 -1      4024 1.99932E+01 1.92811E-02 1.24268E-05-2.46948E-03 4.14660E-14 1.24803E-13
 -1      4025 1.99946E+01 1.66585E-02-7.01669E-05-1.63276E-03 1.12162E-13 4.37251E-14
 -1      4026 1.99920E+01 2.16361E-02 7.42459E-05-1.17599E-03-2.65861E-14 2.83625E-13
 -1      4027 1.99962E+01 1.43558E-02 9.23998E-07-1.27099E-03 2.10252E-13 2.80441E-14
 -1      4028 1.99972E+01 1.22494E-02-4.67210E-05-7.53618E-04 1.98210E-13 9.48249E-14
 -1      4029 1.99955E+01 1.61033E-02 5.86303E-05-2.71502E-04 2.21377E-13 2.33481E-13
 -1      4030 1.99982E+01 1.04143E-02-3.65674E-06-5.86811E-04 1.88123E-13-3.65842E-15
 -1      4031 1.99989E+01 8.76554E-03-3.06475E-05-2.66842E-04 1.24125E-13-5.77078E-15
 -1      4032 1.99978E+01 1.17036E-02 4.38942E-05 1.38961E-04 1.41757E-13 1.31056E-13
 -1      4033 1.99996E+01 7.34077E-03-4.68120E-06-2.03818E-04 1.02423E-13-6.18214E-14
 -1      4034 2.00000E+01 6.08034E-03-1.96828E-05-6.25186E-06 6.49704E-14 7.19335E-14
 -1      4035 1.99994E+01 8.28367E-03 3.12746E-05 2.91289E-04 1.25363E-13-3.62013E-14
 -1      4036 2.00004E+01 5.00071E-03-4.09061E-06 4.65626E-06-9.06764E-14 1.19212E-13
 -1      4037 2.00007E+01 4.05922E-03-1.22427E-05 1.25738E-04-8.14870E-14 2.01923E-13
 -1      4038 2.00004E+01 5.68177E-03 2.11271E-05 3.17997E-04-1.03702E-14 2.09401E-14
 -1      4039 2.00009E+01 3.26066E-03-2.94174E-06 1.12793E-04-1.12354E-13 2.69845E-13
 -1      4040 2.00010E+01 2.57411E-03-7.23192E-06 1.85558E-04-2.41868E-14 1.38691E-13
 -1      4041 2.00009E+01 3.74436E-03 1.33524E-05 2.90394E-04-1.34787E-13 2.28369E-13
 -1      4042 2.00011E+01 1.99838E-03-1.76300E-06 1.63561E-04 1.48698E-13-2.76664E-14
 -1      4043 2.00012E+01 1.51089E-03-3.89657E-06 2.05451E-04 2.02056E-13-4.60533E-14
 -1      4044 2.00012E+01 2.33430E-03 7.64345E-06 2.44724E-04-1.00750E-13 1.34898E-13
 -1      4045 2.00012E+01 1.10763E-03-7.81429E-07 1.81698E-04 1.42894E-13-1.50369E-13
 -1      4046 2.00012E+01 7.72134E-04-1.71759E-06 2.03697E-04 3.59517E-14-2.05981E-13
 -1      4047 2.00012E+01 1.33396E-03 3.62560E-06 1.97907E-04 6.10999E-14-1.89115E-13
 -1      4048 2.00011E+01 4.99370E-04-6.25318E-08 1.81466E-04-4.93642E-14-2.32420E-13
 -1      4049 2.00011E+01 2.77410E-04-3.35827E-07 1.90643E-04-4.45874E-14-1.48152E-13
 -1      4050 2.00012E+01 6.45537E-04 9.30301E-07 1.56725E-04 1.92925E-14-1.66503E-13
 -1      4051 2.00010E+01 1.01129E-04 4.06985E-07 1.71151E-04 3.90884E-14-1.44625E-13
 -1      4052 2.00009E+01-3.79767E-05 4.98955E-07 1.72169E-04 2.83427E-13-1.66319E-13
 -1      4053 2.00011E+01 1.89702E-04-7.69546E-07 1.22987E-04 6.25311E-14-2.12599E-13
 -1      4054 2.00008E+01-1.44673E-04 6.72653E-07 1.55652E-04 3.25500E-13-2.71329E-13
 -1      4055 2.00008E+01-2.24880E-04 9.62990E-07 1.51649E-04 8.82312E-14-8.63099E-14
 -1      4056 2.00009E+01-9.65259E-05-1.74634E-06 9.63201E-05 2.49250E-13-2.18764E-13
 -1      4057 2.00007E+01-2.82814E-04 7.88478E-07 1.37920E-04-3.30410E-14-5.36977E-14
 -1      4058 2.00006E+01-3.22455E-04 1.18812E-06 1.31030E-04 9.06351E-14-9.59988E-15
 -1      4059 2.00007E+01-2.62176E-04-2.21592E-06 7.55805E-05 1.16725E-13-1.91107E-13
 -1      4060 2.00005E+01-3.47476E-04 8.00522E-07 1.19792E-04-7.04298E-14-3.22873E-14
 -1      4061 2.00004E+01-3.60422E-04 1.20002E-06 1.11478E-04-1.87105E-13-5.80143E-14
 -1      4062 2.00006E+01-3.44705E-04-2.34240E-06 5.95486E-05-6.82070E-14-2.23775E-13
 -1      4063 2.00004E+01-3.63975E-04 8.18154E-07 1.02114E-04-1.97546E-13-1.18919E-13
 -1      4064 2.00003E+01-3.60639E-04 8.72264E-07 9.35286E-05-6.58206E-14-1.55420E-13
 -1      4065 2.00004E+01-3.72435E-04-2.17597E-06 4.71670E-05-1.51133E-13-2.67862E-13
 -1      4066 1.99704E+01 5.35421E-02 4.21335E-06 3.77369E-03 8.10081E-14 1.03256E-13
 -1      4067 1.99626E+01 6.14229E-02-3.77501E-04 2.75367E-03 2.87746E-13 3.78132E-14
 -1      4068 1.99552E+01 7.07503E-02 7.57266E-05-1.03884E-03 1.91515E-13 9.52680E-15
 -1      4069 1.99436E+01 8.06715E-02-6.08740E-04-4.23803E-03 5.93560E-14-9.11594E-14
 -1      4070 1.99591E+01 6.39145E-02 2.00389E-04-6.61680E-03 1.31505E-13-1.30385E-14
 -1      4071 1.99884E+01 2.97292E-02-4.02421E-05 5.38139E-03 3.80173E-14 2.53244E-13
 -1      4072 1.99850E+01 3.45176E-02-1.34415E-04 5.97345E-03 1.84101E-14 8.09879E-14
 -1      4073 1.99933E+01 2.17681E-02-4.05787E-05 4.63727E-03-6.97890E-15 2.86243E-13
 -1      4074 1.99911E+01 2.54482E-02-7.65566E-05 5.38535E-03 7.24533E-14 3.50372E-13
 -1      4075 1.99889E+01 2.81244E-02 1.01718E-04 2.96207E-03-1.65829E-14 2.31381E-13
 -1      4076 1.99966E+01 1.57106E-02-3.57151E-05 3.66000E-03 9.26022E-14 3.09948E-13
 -1      4077 1.99952E+01 1.85142E-02-4.17298E-05 4.38919E-03 4.19525E-14 2.88200E-13
 -1      4078 1.99936E+01 2.07628E-02 7.53851E-05 2.90487E-03 8.10932E-14 2.88014E-13
 -1      4079 1.99987E+01 1.11408E-02-2.89991E-05 2.70331E-03 1.30992E-14 1.91295E-13
 -1      4080 1.99979E+01 1.32562E-02-2.12860E-05 3.33525E-03 4.82352E-14 1.83735E-13
 -1      4081 1.99967E+01 1.50672E-02 5.41948E-05 2.45713E-03 1.13559E-13 2.12575E-13
 -1      4082 2.00000E+01 7.72718E-03-2.21970E-05 1.87968E-03-1.13000E-13 8.72782E-14
 -1      4083 1.99996E+01 9.30577E-03-9.63661E-06 2.38945E-03 7.87146E-14 1.80615E-13
 -1      4084 1.99988E+01 1.07170E-02 3.77120E-05 1.89905E-03 8.26913E-14 2.34540E-13
 -1      4085 2.00008E+01 5.20730E-03-1.61465E-05 1.22383E-03-6.02135E-14 5.03115E-14
 -1      4086 2.00005E+01 6.37011E-03-3.25007E-06 1.61412E-03-2.28964E-15 5.48033E-15
 -1      4087 2.00001E+01 7.43879E-03 2.52456E-05 1.36855E-03 2.73308E-14 2.13136E-13
 -1      4088 2.00012E+01 3.37374E-03-1.11600E-05 7.30904E-04-1.11741E-13-4.26640E-14
 -1      4089 2.00011E+01 4.21700E-03 5.96483E-08 1.01690E-03-1.16828E-13-7.39396E-15
 -1      4090 2.00008E+01 5.00489E-03 1.60588E-05 9.22996E-04-7.02504E-14 1.44860E-13
 -1      4091 2.00013E+01 2.06290E-03-7.26788E-06 3.78554E-04 8.57666E-14-5.57080E-14
 -1      4092 2.00013E+01 2.66290E-03 1.61837E-06 5.79522E-04-6.61396E-14-1.49228E-14
 -1      4093 2.00012E+01 3.22809E-03 9.46658E-06 5.76702E-04-7.51720E-14 2.48691E-15
 -1      4094 2.00013E+01 1.14624E-03-4.36360E-06 1.39054E-04-1.56473E-13 1.86515E-13
 -1      4095 2.00014E+01 1.56309E-03 2.21371E-06 2.74027E-04-4.80205E-14 6.90813E-14
 -1      4096 2.00013E+01 1.95648E-03 4.87509E-06 3.23054E-04-6.75921E-14 2.32402E-13
 -1      4097 2.00012E+01 5.23200E-04-2.28634E-06-1.44834E-05-6.37429E-14 7.53575E-14
 -1      4098 2.00013E+01 8.03993E-04 2.30341E-06 7.12637E-05-5.72517E-14 1.66530E-13
 -1      4099 2.00013E+01 1.06809E-03 1.79129E-06 1.46948E-04-7.24426E-14 1.47224E-13
 -1      4100 2.00011E+01 1.15633E-04-8.66302E-07-1.05355E-04-1.58728E-14-1.70430E-13
 -1      4101 2.00011E+01 2.96971E-04 2.14696E-06-5.50194E-05-1.76940E-13-1.26417E-13
 -1      4102 2.00012E+01 4.66098E-04-1.81902E-07 3.13969E-05-3.29163E-14-1.81338E-13
 -1      4103 2.00009E+01-1.36651E-04 5.27194E-08-1.52419E-04 2.28872E-13-3.71938E-14
 -1      4104 2.00010E+01-2.66057E-05 1.88725E-06-1.26636E-04 1.82605E-13-7.77904E-14
 -1      4105 2.00010E+01 7.45225E-05-1.35664E-06-3.92784E-05 4.88464E-14-2.40856E-13
 -1      4106 2.00007E+01-2.79561E-04 6.04283E-07-1.70206E-04 9.07549E-16-1.84893E-13
 -1      4107 2.00008E+01-2.19376E-04 1.60023E-06-1.60756E-04 2.29292E-13-1.18814E-13
 -1      4108 2.00009E+01-1.65552E-04-1.97302E-06-7.81889E-05 1.87201E-13-1.60064E-13
 -1      4109 2.00005E+01-3.47674E-04 9.07476E-07-1.69444E-04-2.62837E-13-1.10688E-13
 -1      4110 2.00006E+01-3.21274E-04 1.32503E-06-1.70339E-04-2.24954E-13-2.31136E-13
 -1      4111 2.00007E+01-2.99208E-04-2.20988E-06-9.56315E-05-1.00940E-13-3.39119E-13
 -1      4112 2.00004E+01-3.66699E-04 1.40512E-06-1.57432E-04-1.44417E-13-6.03065E-14
 -1      4113 2.00005E+01-3.62332E-04 1.09193E-06-1.64806E-04-2.19438E-13-1.09780E-13
 -1      4114 2.00005E+01-3.60420E-04-2.13953E-06-9.94232E-05-2.40645E-13-2.17364E-13
 -1      4115 2.00003E+01-3.56401E-04 1.41242E-06-1.26717E-04 4.02225E-13-1.07666E-13
 -1      4116 2.00003E+01-3.65160E-04 8.35773E-07-1.36180E-04 2.08383E-13-1.84168E-13
 -1      4117 2.00004E+01-3.74791E-04-1.98771E-06-8.01693E-05 1.05942E-13-4.75350E-13
 -1      4118 2.00002E+01-3.59951E-04-1.66806E-06-4.58163E-05 4.99116E-13-2.58457E-13
 -1      4119 2.22519E+01-1.75204E+00 2.73879E-02-1.34750E+00 6.92810E-14 2.79715E-14
 -1      4120 1.96538E+01 2.54163E-01 4.51639E-03-3.99389E-01 9.07263E-14-6.14663E-14
 -1      4121 1.95682E+01 2.56399E-01-5.64049E-03-5.12734E-01-6.37543E-15-1.52166E-14
 -1      4122 1.94769E+01-2.18570E-01-1.89919E-02-1.90285E+00-9.70925E-15 1.87837E-13
 -1      4123 1.99704E+01-5.84169E-01 5.16362E-03-2.14358E+00-2.51834E-14 2.13028E-13
 -1      4124 2.06071E+01-1.01818E+00 3.34748E-03-2.10287E+00 1.85064E-14 1.92638E-13
 -1      4125 2.15780E+01-1.62078E+00-3.03992E-02-1.76412E+00 8.46504E-14 1.22669E-13
 -1      4126 2.18266E+01-1.51233E+00 1.40965E-02-1.24723E+00 5.34693E-14-1.29437E-14
 -1      4127 2.06586E+01-8.84618E-01 1.03860E-02-1.70632E+00 1.95555E-14 1.22083E-13
 -1      4128 1.99810E+01 4.01113E-02-2.87305E-05 5.39466E-03-2.96507E-15 5.52934E-14
 -1      4129 1.99759E+01 4.62861E-02-2.28358E-04 5.48951E-03-1.70148E-14 8.26935E-14
 -1      4130 1.99726E+01 4.93255E-02 1.67379E-04-5.72289E-04 1.32556E-13 3.11927E-14
 -1      4131 1.99822E+01 3.75160E-02 1.32952E-04 2.10781E-03-1.76525E-14 3.65652E-14
 -1      4132 1.97567E+01 2.37353E-01 9.58915E-04-1.23882E-01 1.92976E-13-1.51814E-14
 -1      4133 1.95650E+01 2.54779E-01 6.99055E-03-6.49960E-01 7.71258E-15 3.70927E-14
 -1      4134 1.94695E+01 2.38136E-01-3.33564E-03-8.26925E-01 5.31808E-14 9.84144E-14
 -1      4135 1.96943E+01 1.24843E-01-3.63489E-03-6.23875E-01 6.90253E-14-3.14690E-15
 -1      4136 1.97393E+01 2.25492E-01 3.06201E-03-2.34493E-01 1.01726E-13-9.66284E-14
 -1      4137 1.96708E+01 2.37773E-01-4.79705E-03-3.06563E-01 1.02504E-13-4.90581E-14
 -1      4138 1.97406E+01 1.61346E-01-1.40767E-03-3.94203E-01 7.86008E-14-1.42470E-13
 -1      4139 1.99036E+01 1.19459E-01 4.65322E-04-3.21152E-02 1.34572E-13 1.08775E-13
 -1      4140 1.98789E+01 1.34095E-01-1.44071E-03-4.60896E-02 5.75228E-14 1.42567E-13
 -1      4141 2.14011E+01-1.26921E+00 1.47317E-02-1.24878E+00 8.08686E-14 5.13580E-14
 -1      4142 2.00003E+01-3.65499E-04-1.90870E-06 4.75103E-05 1.89760E-14 2.27599E-15
 -1      4143 2.00003E+01-3.61711E-04 3.45638E-07-2.92967E-06 2.48038E-13-2.18202E-13
 -1      4144 1.95460E+01-5.18104E-02 9.67307E-03-1.58320E+00-1.24675E-14 2.50595E-13
 -1      4145 1.98831E+01 1.24322E-01 9.37573E-05-7.76352E-02 1.16815E-13 1.33769E-13
 -1      4146 1.98628E+01 1.51430E-01 8.57446E-04-6.88839E-02 3.43667E-14 1.88949E-13
 -1      4147 1.98281E+01 1.69244E-01-1.59334E-03-9.50835E-02 1.37512E-13 1.19897E-13
 -1      4148 1.99336E+01 9.25061E-02 2.13930E-04-1.16246E-02 9.61936E-14 2.21825E-14
 -1      4149 1.99166E+01 1.04744E-01-9.57434E-04-1.87708E-02 1.81459E-13 8.41488E-14
 -1      4150 1.99158E+01 1.01967E-01 2.12195E-04-4.02331E-02 2.19821E-13 3.16508E-14
 -1      4151 1.99407E+01 8.15070E-02 2.22027E-04-1.85259E-02 1.17230E-13-7.00815E-14
 -1      4152 2.09405E+01-1.08986E+00-1.34293E-02-1.50159E+00 3.19102E-14-1.45149E-14
 -1      4153 2.00536E+01-2.52490E-01 8.10237E-03-1.04139E+00 1.51203E-13 4.10245E-14
 -1      4154 1.99335E+01-1.36905E-01 1.94018E-03-8.91798E-01 2.13318E-13 2.38243E-14
 -1      4155 1.99037E+01-5.84196E-02 7.47395E-03-7.67958E-01 1.46203E-13 4.30160E-14
 -1      4156 1.98399E+01 6.96534E-03 3.71033E-04-6.42698E-01 9.90631E-14-3.32942E-15
 -1      4157 1.98591E+01 4.77467E-02 6.23304E-03-5.09732E-01 1.45032E-13-6.78616E-14
 -1      4158 1.98264E+01 7.99248E-02-1.95259E-04-4.20339E-01 6.63888E-14-8.20499E-14
 -1      4159 1.98540E+01 9.65914E-02 4.57208E-03-3.27887E-01 1.25999E-14-2.74334E-14
 -1      4160 1.98405E+01 1.06267E-01-1.44687E-03-2.64938E-01-3.58298E-14-9.63693E-14
 -1      4161 1.98791E+01 1.04291E-01 2.76168E-03-1.92180E-01 7.72734E-15 5.84253E-14
 -1      4162 1.98764E+01 1.03778E-01-1.37590E-03-1.51796E-01 9.43228E-14 4.75963E-14
 -1      4163 1.98909E+01 1.07200E-01 1.47571E-03-1.23627E-01 1.41857E-13 6.78717E-14
 -1      4164 1.98956E+01 1.02927E-01-6.99071E-04-9.57910E-02 1.97564E-13 1.08765E-13
 -1      4165 1.99154E+01 9.59428E-02 1.13017E-03-7.13980E-02 1.49539E-13 4.72404E-16
 -1      4166 1.99209E+01 8.93555E-02-5.22851E-04-5.42015E-02 1.41542E-13 5.29100E-14
 -1      4167 1.99361E+01 8.15721E-02 6.75023E-04-3.94749E-02 1.49951E-13 1.16412E-13
 -1      4168 1.99419E+01 7.44487E-02-4.06835E-04-2.89598E-02 2.37853E-13 1.13145E-13
 -1      4169 1.99532E+01 6.70121E-02 3.84868E-04-2.04834E-02 1.38462E-13 4.58243E-14
 -1      4170 1.99585E+01 6.02593E-02-3.04881E-04-1.42388E-02 7.88076E-14 2.60374E-14
 -1      4171 1.99668E+01 5.36482E-02 2.07758E-04-9.61634E-03 1.92200E-13 7.59335E-14
 -1      4172 1.99712E+01 4.76700E-02-2.22553E-04-6.03657E-03 1.50167E-13 1.24758E-13
 -1      4173 1.99772E+01 4.20455E-02 1.03640E-04-3.70692E-03 9.15450E-14 1.27632E-13
 -1      4174 1.99807E+01 3.69742E-02-1.59438E-04-1.74093E-03 3.55392E-14 2.17310E-13
 -1      4175 1.99849E+01 3.23310E-02 4.52685E-05-7.18543E-04-1.23441E-14 1.83223E-13
 -1      4176 1.99876E+01 2.81564E-02-1.12560E-04 3.01720E-04-6.50092E-14 1.70870E-13
 -1      4177 1.99906E+01 2.44098E-02 1.46059E-05 6.19716E-04-5.74273E-14 2.38068E-13
 -1      4178 1.99925E+01 2.10527E-02-7.84391E-05 1.10648E-03 8.73453E-15 2.23121E-13
 -1      4179 1.99945E+01 1.80865E-02 6.09444E-08 1.07609E-03 5.75876E-14 2.89898E-13
 -1      4180 1.99959E+01 1.54398E-02-5.39358E-05 1.27597E-03 2.19883E-13 2.54629E-13
 -1      4181 1.99973E+01 1.31311E-02-5.58418E-06 1.09848E-03 1.87942E-13 1.89304E-13
 -1      4182 1.99982E+01 1.10820E-02-3.65067E-05 1.15395E-03 7.64841E-14 1.68792E-13
 -1      4183 1.99991E+01 9.31457E-03-6.66994E-06 9.36695E-04 6.76756E-14 1.79071E-13
 -1      4184 1.99997E+01 7.75593E-03-2.42064E-05 9.26733E-04 9.42803E-14 1.59920E-13
 -1      4185 2.00002E+01 6.42543E-03-5.69873E-06 7.21868E-04-2.01136E-15 1.18037E-13
 -1      4186 2.00006E+01 5.26128E-03-1.55947E-05 6.87935E-04-4.13811E-14 1.22612E-13
 -1      4187 2.00008E+01 4.27756E-03-4.03482E-06 5.16687E-04-9.15763E-15 6.79856E-14
 -1      4188 2.00010E+01 3.42501E-03-9.62411E-06 4.78891E-04-9.05550E-14 8.67593E-14
 -1      4189 2.00012E+01 2.71216E-03-2.36203E-06 3.46147E-04-1.21434E-13 1.75156E-13
 -1      4190 2.00013E+01 2.10155E-03-5.53928E-06 3.12991E-04-9.06565E-14 6.19844E-14
 -1      4191 2.00013E+01 1.59692E-03-9.74720E-07 2.15817E-04-1.19322E-13 1.25476E-13
 -1      4192 2.00013E+01 1.17096E-03-2.79675E-06 1.89877E-04-5.97563E-14-1.92769E-14
 -1      4193 2.00012E+01 8.23765E-04 4.29499E-08 1.22270E-04 3.90931E-14-1.47793E-13
 -1      4194 2.00012E+01 5.36243E-04-1.00519E-06 1.03380E-04 4.86949E-14-9.62259E-14
 -1      4195 2.00011E+01 3.05975E-04 7.10246E-07 5.87485E-05-8.12082E-14-2.62907E-13
 -1      4196 2.00011E+01 1.20240E-04 1.17859E-07 4.56876E-05-4.90528E-15-2.24181E-13
 -1      4197 2.00010E+01-2.49126E-05 1.08918E-06 1.80271E-05 1.78703E-13-2.16731E-13
 -1      4198 2.00009E+01-1.37455E-04 7.76659E-07 9.35940E-06 3.15560E-13-1.69688E-13
 -1      4199 2.00008E+01-2.22092E-04 1.25214E-06-6.30584E-06 1.94669E-13-2.91117E-13
 -1      4200 2.00007E+01-2.83389E-04 1.11777E-06-1.18676E-05-2.30170E-14-2.71861E-13
 -1      4201 2.00006E+01-3.26248E-04 1.26338E-06-1.94332E-05-2.52010E-13-2.74335E-13
 -1      4202 2.00006E+01-3.52931E-04 1.19951E-06-2.28523E-05-2.13035E-13-3.92893E-13
 -1      4203 2.00005E+01-3.67793E-04 1.17680E-06-2.52416E-05-1.25275E-13-5.54206E-13
 -1      4204 2.00004E+01-3.72726E-04 7.65590E-07-2.69690E-05-9.60406E-14-4.35778E-13
 -1      4205 2.04074E+01-6.97938E-01 2.59408E-03-1.56570E+00 4.10149E-14 1.00336E-13
 -1      4206 1.95242E+01 1.95673E-01 1.14845E-02-9.59462E-01 6.46373E-14 1.46784E-13
 -1      4207 1.94200E+01 1.33929E-01-6.41514E-03-1.18651E+00 1.02209E-13 2.53072E-13
 -1      4208 2.01988E+01-4.88668E-01 1.05997E-03-1.37044E+00 6.55869E-14 6.54533E-14
 -1      4209 1.98612E+01-2.49425E-01-5.60384E-03-1.38058E+00 8.15178E-14 1.25562E-13
 -1      4210 2.00003E+01-3.69578E-04 1.47033E-06-1.13585E-05 1.21328E-13-3.12638E-13
 -1      4211 1.98206E+01 1.79569E-01 1.85862E-03-1.23168E-01 1.93613E-13 7.71880E-14
 -1      4212 1.97726E+01 1.96011E-01-2.82004E-03-1.65530E-01 1.44918E-13 1.73786E-14
 -1      4213 1.98064E+01 1.54393E-01-1.52124E-04-2.27592E-01 4.86430E-14 5.38009E-14
 -1      4214 1.97062E+01 1.43594E-02-9.09438E-03-8.96635E-01 1.35608E-13 9.52974E-14
 -1      4215 1.98526E+01 1.37945E-01-2.29471E-04-1.30873E-01 1.37698E-13 2.41453E-13
 -3
    1PSTEP                         3           1           1          
  100CL  101 1.000000000        4215                     0    1           1
 -4  TOSTRAIN    6    1
 -5  EXX         1    4    1    1
 -5  EYY         1    4    2    2
 -5  EZZ         1    4    3    3
 -5  EXY         1    4    1    2
 -5  EYZ         1    4    2    3
 -5  EZX         1    4    3    1
 -1         1 3.30553E-04-1.01706E-04-8.58988E-05 3.04073E-06-1.21073E-19 1.28657E-17
 -1         2 3.99282E-05-1.21599E-04 2.27204E-05-1.73203E-06 1.22364E-17 4.77727E-19
 -1         3 9.52372E-05-2.85711E-05-2.85712E-05 9.01923E-12 3.52641E-18 2.78011E-18
 -1         4 9.52372E-05-2.85711E-05-2.85712E-05-8.07603E-12 1.72556E-18-3.66590E-19
 -1         5 1.79109E-04-2.49356E-05-5.59701E-05 3.77242E-05-1.48019E-19 9.03922E-18
 -1         6 1.44111E-04 2.41000E-10-4.28661E-05-5.54687E-05-8.67785E-19-2.37550E-18
 -1         7 8.57937E-05-7.53111E-08-3.76614E-05-3.29835E-05-1.42407E-19-6.31339E-18
 -1         8 8.32069E-05 2.10276E-07-3.57196E-05-2.57723E-05 6.08673E-20-5.89549E-18
 -1         9 8.41822E-05 9.78861E-08-3.59661E-05-2.16882E-05 1.14892E-19-5.04787E-18
 -1        10 8.66332E-05-2.12430E-08-3.68385E-05-1.75614E-05 1.32719E-19-4.03601E-18
 -1        11 8.92355E-05-1.23037E-07-3.77817E-05-1.27333E-05 1.27187E-19-3.06304E-18
 -1        12 9.10885E-05-2.22552E-07-3.83856E-05-6.84348E-06 1.43618E-19-2.10898E-18
 -1        13 9.12564E-05-3.10350E-07-3.82686E-05 2.74591E-07 1.63305E-19-1.19621E-18
 -1        14 8.87209E-05-3.45820E-07-3.70758E-05 8.34887E-06 1.73748E-19-3.59867E-19
 -1        15 8.26861E-05-2.60050E-07-3.46155E-05 1.63076E-05 1.74648E-19 4.42674E-19
 -1        16 7.33531E-05 9.63831E-09-3.11160E-05 2.21064E-05 1.62630E-19 1.07003E-18
 -1        17 6.29500E-05 4.40901E-07-2.75069E-05 2.33135E-05 1.70254E-19 1.62403E-18
 -1        18 5.60430E-05 8.76841E-07-2.54019E-05 1.87572E-05 1.86030E-19 2.17811E-18
 -1        19 5.74669E-05 1.04108E-06-2.63593E-05 1.06472E-05 1.78142E-19 2.91279E-18
 -1        20 6.92064E-05 8.38784E-07-3.09669E-05 3.27643E-06 1.72054E-19 4.07318E-18
 -1        21 9.07647E-05 1.49686E-07-3.89303E-05 2.17803E-06 1.32349E-19 5.74150E-18
 -1        22 1.17607E-04-1.58667E-06-4.83154E-05 1.38444E-05-2.11758E-20 7.86405E-18
 -1        23 1.05568E-04-3.54754E-05-3.32410E-05-5.66550E-06-6.40966E-19-4.96033E-18
 -1        24 8.10194E-05-2.41376E-05-2.55558E-05 2.00777E-07-1.40177E-19-7.18019E-18
 -1        25 7.38780E-05-2.22848E-05-2.23975E-05 2.60533E-07-3.20450E-20-8.61106E-18
 -1        26 6.97955E-05-2.10374E-05-2.09552E-05 8.65481E-08-4.30498E-20-9.29140E-18
 -1        27 6.74131E-05-2.02989E-05-2.02428E-05 4.22507E-08-1.30761E-20-1.00117E-17
 -1        28 6.64523E-05-1.99896E-05-1.99860E-05 5.19209E-08-1.16593E-19-1.03982E-17
 -1        29 6.69502E-05-2.01254E-05-2.01512E-05 9.47993E-08-2.92028E-20-1.08077E-17
 -1        30 6.88818E-05-2.06947E-05-2.07250E-05 1.46658E-07 1.02478E-19-1.11758E-17
 -1        31 7.20190E-05-2.16265E-05-2.16441E-05 1.86107E-07 1.92274E-20-1.09588E-17
 -1        32 7.59420E-05-2.27941E-05-2.27918E-05 2.00557E-07-8.98320E-20-1.13137E-17
 -1        33 8.01430E-05-2.40457E-05-2.40253E-05 1.88523E-07-1.55512E-20-1.16514E-17
 -1        34 8.41541E-05-2.52417E-05-2.52105E-05 1.57162E-07 1.08931E-19-1.11770E-17
 -1        35 8.76393E-05-2.62822E-05-2.62484E-05 1.17099E-07 5.25529E-20-1.08738E-17
 -1        36 9.04277E-05-2.71160E-05-2.70860E-05 7.77634E-08-9.51853E-20-1.05131E-17
 -1        37 9.24946E-05-2.77354E-05-2.77126E-05 4.50573E-08-8.32979E-20-1.03200E-17
 -1        38 9.39147E-05-2.81624E-05-2.81473E-05 2.12113E-08-3.89594E-20-1.03896E-17
 -1        39 9.48131E-05-2.84338E-05-2.84252E-05 5.84118E-09 2.62836E-19-9.55935E-18
 -1        40 9.53253E-05-2.85897E-05-2.85860E-05-2.76007E-09-4.23080E-20-8.56126E-18
 -1        41 9.55736E-05-2.86664E-05-2.86656E-05-6.62966E-09 1.52351E-19-9.29073E-18
 -1        42 9.56558E-05-2.86929E-05-2.86938E-05-7.57196E-09 3.34125E-20-9.54529E-18
 -1        43 9.56435E-05-2.86906E-05-2.86922E-05-6.94325E-09-3.42525E-19-9.72086E-18
 -1        44 9.55850E-05-2.86741E-05-2.86758E-05-5.64505E-09 5.26881E-19-9.14623E-18
 -1        45 9.55105E-05-2.86525E-05-2.86540E-05-4.21076E-09-4.12521E-19-8.26563E-18
 -1        46 9.54372E-05-2.86310E-05-2.86321E-05-2.91407E-09-2.04415E-20-9.40724E-18
 -1        47 9.53734E-05-2.86121E-05-2.86130E-05-1.86453E-09 2.57855E-19-9.75541E-18
 -1        48 9.53224E-05-2.85969E-05-2.85975E-05-1.07870E-09-1.11100E-19-8.72898E-18
 -1        49 9.52839E-05-2.85854E-05-2.85858E-05-5.27599E-10-6.59304E-20-8.97953E-18
 -1        50 9.52567E-05-2.85772E-05-2.85774E-05-1.65293E-10 2.92961E-20-9.95617E-18
 -1        51 9.52384E-05-2.85717E-05-2.85718E-05 5.55246E-11-2.60120E-19-1.10885E-17
 -1        52 9.52272E-05-2.85683E-05-2.85684E-05 1.76280E-10 2.99269E-19-9.40264E-18
 -1        53 9.52210E-05-2.85665E-05-2.85664E-05 2.30052E-10-7.38979E-20-8.21777E-18
 -1        54 9.52184E-05-2.85656E-05-2.85656E-05 2.41610E-10 9.88656E-20-9.38096E-18
 -1        55 9.52181E-05-2.85655E-05-2.85655E-05 2.28567E-10-6.42668E-20-9.60420E-18
 -1        56 9.52192E-05-2.85658E-05-2.85658E-05 2.02870E-10-3.45275E-20-9.15203E-18
 -1        57 9.52211E-05-2.85664E-05-2.85663E-05 1.72228E-10 8.49954E-19-8.16097E-18
 -1        58 9.52233E-05-2.85670E-05-2.85670E-05 1.41332E-10 1.06688E-19-8.13704E-18
 -1        59 9.52256E-05-2.85677E-05-2.85676E-05 1.12801E-10-4.95124E-19-7.82420E-18
 -1        60 9.52277E-05-2.85683E-05-2.85683E-05 8.78995E-11 1.83754E-19-3.85897E-18
 -1        61 9.52296E-05-2.85689E-05-2.85689E-05 6.70433E-11 2.67839E-19-2.02182E-18
 -1        62 9.52313E-05-2.85694E-05-2.85694E-05 5.01475E-11-1.06622E-19-3.55456E-18
 -1        63 9.52327E-05-2.85698E-05-2.85698E-05 3.68595E-11-9.29886E-19-5.77944E-18
 -1        64 9.52339E-05-2.85702E-05-2.85702E-05 2.67020E-11-1.66903E-19-9.96247E-18
 -1        65 9.52348E-05-2.85704E-05-2.85704E-05 1.91528E-11-8.75057E-20-7.90045E-18
 -1        66 9.52356E-05-2.85707E-05-2.85707E-05 1.36708E-11 3.65612E-19-4.30452E-18
 -1        67 9.52362E-05-2.85708E-05-2.85708E-05 9.66844E-12 7.64635E-19-6.34145E-19
 -1        68 9.52366E-05-2.85710E-05-2.85710E-05 6.39242E-12-2.83436E-19-2.58199E-19
 -1        69 9.52369E-05-2.85711E-05-2.85711E-05 2.65631E-12-1.45995E-18-5.12367E-18
 -1        70 9.52371E-05-2.85711E-05-2.85711E-05-4.25125E-12 9.32555E-19-6.07523E-18
 -1        71 9.52372E-05-2.85712E-05-2.85712E-05-1.31731E-11 3.06500E-19-3.79548E-18
 -1        72 1.58981E-04-4.79760E-05-5.14675E-05-4.28214E-06-2.24437E-19 1.05609E-17
 -1        73 1.71909E-04-5.12825E-05-5.25354E-05-1.69115E-06-7.52073E-20 1.17879E-17
 -1        74 1.89930E-04-5.70382E-05-5.59927E-05-2.32279E-06-2.79918E-21 1.25847E-17
 -1        75 2.01189E-04-6.11182E-05-5.72311E-05-1.56730E-06 1.13939E-19 1.30751E-17
 -1        76 1.84636E-04-5.65655E-05-5.25738E-05 3.32336E-06 1.08698E-19 1.45048E-17
 -1        77 1.29363E-04-3.78220E-05-4.34707E-05 1.04464E-05-5.42948E-19 1.79054E-17
 -1        78 8.09690E-05-1.95714E-05-3.69474E-05 6.29606E-06-1.95135E-19 1.92044E-17
 -1        79 8.11910E-05-1.92433E-05-3.72606E-05-3.00691E-06-8.45974E-20 1.93745E-17
 -1        80 1.23742E-04-3.43656E-05-4.30008E-05-9.59817E-06-1.92634E-19 1.72477E-17
 -1        81 1.77936E-04-5.38908E-05-5.14251E-05-7.20480E-06 5.37727E-19 1.48476E-17
 -1        82 1.96983E-04-6.02776E-05-5.57769E-05-1.02392E-06-1.59752E-19 1.17526E-17
 -1        83 1.82346E-04-5.52255E-05-5.33705E-05 1.51863E-06-3.07566E-20 1.08251E-17
 -1        84 1.57997E-04-4.74454E-05-4.75105E-05 1.60175E-06 2.30764E-19 1.07596E-17
 -1        85 1.36713E-04-4.09245E-05-4.15317E-05 1.07997E-06-2.67982E-19 1.14245E-17
 -1        86 1.21487E-04-3.63687E-05-3.68979E-05 6.29398E-07 1.80152E-19 1.32544E-17
 -1        87 1.11502E-04-3.34099E-05-3.37456E-05 3.45472E-07-9.70539E-20 1.19353E-17
 -1        88 1.05215E-04-3.15492E-05-3.17369E-05 1.84415E-07-5.39016E-20 1.17980E-17
 -1        89 1.01332E-04-3.03965E-05-3.04963E-05 9.68825E-08-2.75330E-19 1.08219E-17
 -1        90 9.89525E-05-2.96874E-05-2.97394E-05 5.02112E-08-1.56330E-19 1.02432E-17
 -1        91 9.74975E-05-2.92521E-05-2.92792E-05 2.55789E-08 6.07054E-19 4.37883E-18
 -1        92 9.66068E-05-2.89847E-05-2.89988E-05 1.26864E-08-4.71926E-19 6.83887E-18
 -1        93 9.60601E-05-2.88202E-05-2.88275E-05 6.01000E-09-1.57479E-19 9.03739E-18
 -1        94 9.57235E-05-2.87187E-05-2.87225E-05 2.60661E-09 8.28206E-20 8.11439E-18
 -1        95 9.55158E-05-2.86560E-05-2.86578E-05 9.12986E-10-2.54376E-20 6.99939E-18
 -1        96 9.53878E-05-2.86172E-05-2.86181E-05 1.02024E-10 3.51505E-19 6.65222E-18
 -1        97 9.53093E-05-2.85934E-05-2.85938E-05-2.60857E-10-5.27339E-19 6.46028E-18
 -1        98 9.52617E-05-2.85789E-05-2.85791E-05-4.01517E-10-6.09890E-20 9.45907E-18
 -1        99 9.52338E-05-2.85704E-05-2.85705E-05-4.35521E-10 4.20991E-20 1.26635E-17
 -1       100 9.52182E-05-2.85657E-05-2.85657E-05-4.20787E-10 4.21644E-19 7.29511E-18
 -1       101 9.52105E-05-2.85633E-05-2.85632E-05-3.85600E-10-3.26102E-19 6.43566E-18
 -1       102 9.52076E-05-2.85624E-05-2.85623E-05-3.43369E-10-3.84344E-19 6.01382E-18
 -1       103 9.52078E-05-2.85624E-05-2.85623E-05-3.00241E-10 7.15522E-19 2.28869E-18
 -1       104 9.52097E-05-2.85629E-05-2.85629E-05-2.58946E-10-8.43631E-20 5.00329E-18
 -1       105 9.52125E-05-2.85638E-05-2.85637E-05-2.20660E-10 2.37386E-19 1.11140E-17
 -1       106 9.52157E-05-2.85647E-05-2.85647E-05-1.85869E-10-2.82442E-19 9.55558E-18
 -1       107 9.52189E-05-2.85657E-05-2.85656E-05-1.54747E-10 1.01410E-18 5.47829E-18
 -1       108 9.52220E-05-2.85666E-05-2.85666E-05-1.27305E-10-5.07696E-19 5.13879E-18
 -1       109 9.52248E-05-2.85674E-05-2.85674E-05-1.03457E-10-2.78683E-19 9.99221E-18
 -1       110 9.52273E-05-2.85682E-05-2.85682E-05-8.30374E-11-6.20078E-19 6.80289E-18
 -1       111 9.52294E-05-2.85688E-05-2.85688E-05-6.58273E-11-7.38922E-19 5.41781E-18
 -1       112 9.52312E-05-2.85694E-05-2.85693E-05-5.15655E-11 7.59660E-19 6.55337E-18
 -1       113 9.52327E-05-2.85698E-05-2.85698E-05-3.99687E-11-4.65185E-20 3.54733E-18
 -1       114 9.52339E-05-2.85702E-05-2.85701E-05-3.07448E-11-2.12464E-19 5.69290E-18
 -1       115 9.52348E-05-2.85704E-05-2.85704E-05-2.36010E-11 3.83602E-19 6.88273E-18
 -1       116 9.52356E-05-2.85707E-05-2.85707E-05-1.82498E-11 1.09531E-19 5.91775E-18
 -1       117 9.52362E-05-2.85709E-05-2.85708E-05-1.43897E-11 1.53386E-19 1.59035E-19
 -1       118 9.52366E-05-2.85710E-05-2.85710E-05-1.15454E-11 5.38272E-19-2.56811E-18
 -1       119 9.52369E-05-2.85711E-05-2.85711E-05-8.61660E-12-2.75861E-19-2.20888E-18
 -1       120 9.52371E-05-2.85711E-05-2.85711E-05-3.45156E-12-3.56611E-19-8.52325E-20
 -1       121 9.52372E-05-2.85712E-05-2.85712E-05 9.58767E-12-1.84916E-18 4.49507E-18
 -1       122 9.52371E-05-2.85711E-05-2.85712E-05 1.47526E-11 3.20917E-18-8.56604E-19
 -1       123 9.52371E-05-2.85712E-05-2.85711E-05 1.14750E-12-1.96313E-18-1.08608E-18
 -1       124 9.52372E-05-2.85713E-05-2.85711E-05-8.85526E-12-2.41125E-18 1.60096E-18
 -1       125 9.52373E-05-2.85716E-05-2.85710E-05-1.24069E-11-5.38475E-18 1.59678E-18
 -1       126 9.52374E-05-2.85719E-05-2.85709E-05-1.28483E-11-8.84787E-18-1.91509E-18
 -1       127 9.52374E-05-2.85722E-05-2.85708E-05-1.09773E-11-9.61955E-18 1.16922E-18
 -1       128 9.52375E-05-2.85724E-05-2.85708E-05-7.26973E-12-4.92332E-18-1.02367E-18
 -1       129 9.52375E-05-2.85725E-05-2.85707E-05-2.54501E-12-1.06518E-17 7.71413E-19
 -1       130 9.52375E-05-2.85725E-05-2.85707E-05 2.50749E-12-9.79217E-18 5.85180E-19
 -1       131 9.52375E-05-2.85724E-05-2.85708E-05 7.21358E-12-8.43102E-18-9.76408E-19
 -1       132 9.52374E-05-2.85722E-05-2.85708E-05 1.10140E-11-1.07013E-17-9.63752E-19
 -1       133 9.52374E-05-2.85719E-05-2.85709E-05 1.28524E-11-8.12836E-18 2.18981E-18
 -1       134 9.52373E-05-2.85716E-05-2.85710E-05 1.23956E-11-8.10749E-18-1.08524E-18
 -1       135 9.52372E-05-2.85713E-05-2.85711E-05 9.38044E-12-4.07605E-18 9.92622E-19
 -1       136 9.52371E-05-2.85712E-05-2.85711E-05-5.33265E-13 2.23880E-18 2.54802E-19
 -1       137 9.52371E-05-2.85711E-05-2.85712E-05-2.39711E-11 1.69318E-18-3.82628E-19
 -1       138 3.30457E-05-1.14205E-04 2.18610E-05-3.17581E-05 1.54689E-17 2.95297E-18
 -1       139 1.18586E-05-6.81269E-05 1.19062E-05-4.05640E-05 1.04947E-17 4.01790E-18
 -1       140 4.53027E-06-1.20468E-05-6.52191E-06-9.01672E-06 6.87071E-18 5.89916E-18
 -1       141 4.35978E-05 1.64530E-05-3.03346E-05 5.31910E-05 6.43491E-18 6.53105E-18
 -1       142 1.60600E-04-8.31677E-06-5.97565E-05 1.16008E-04 2.97605E-18 4.71628E-18
 -1       143 3.07439E-04-7.38914E-05-8.25431E-05 1.18411E-04 7.48565E-19 1.40607E-18
 -1       144 4.10686E-04-1.27247E-04-9.53979E-05 3.53783E-05-2.34893E-19-1.13629E-18
 -1       145 3.81694E-04-1.12858E-04-9.16188E-05-6.90408E-05 1.12536E-19-1.95961E-18
 -1       146 2.55143E-04-5.08258E-05-7.44583E-05-1.20210E-04 5.54171E-19-1.74319E-18
 -1       147 1.16228E-04 2.27714E-06-4.95854E-05-9.55731E-05 6.90332E-20 1.22820E-19
 -1       148 2.39452E-05 8.48062E-06-2.15227E-05-2.70821E-05-1.39125E-18 9.33854E-19
 -1       149 1.57438E-06-3.17700E-05 9.04532E-07 2.86239E-05-3.65876E-18 2.34946E-18
 -1       150 1.75539E-05-8.29234E-05 1.49149E-05 4.28253E-05-5.69863E-18 2.16877E-18
 -1       151 3.38192E-05-1.09841E-04 2.04252E-05 2.30566E-05-6.21600E-18 9.33139E-19
 -1       152 3.09862E-05-9.46863E-05 1.71238E-05-6.07432E-06-6.35042E-18-4.69230E-19
 -1       153 1.37520E-05-4.57378E-05 6.06333E-06-1.41026E-05-5.49851E-18-1.50687E-18
 -1       154 3.88351E-06 6.78408E-06-9.38498E-06 8.57131E-06-3.42244E-18-1.78322E-18
 -1       155 2.76709E-05 3.81667E-05-2.92755E-05 6.03107E-05-5.37019E-19-1.94818E-19
 -1       156 1.01908E-04 2.52039E-05-5.10581E-05 1.12832E-04 2.19805E-18 3.00739E-18
 -1       157 2.00784E-04-2.30961E-05-6.86151E-05 1.25090E-04 3.02518E-18 7.37935E-18
 -1       158 2.90227E-04-7.65262E-05-8.08998E-05 8.35443E-05 2.45153E-18 1.07643E-17
 -1       159 3.01832E-04-8.28469E-05-8.22435E-05-7.82076E-05-2.39485E-18 1.22657E-17
 -1       160 2.24289E-04-3.50059E-05-7.18046E-05-1.23498E-04-4.00445E-18 9.92469E-18
 -1       161 1.28451E-04 1.47173E-05-5.57419E-05-1.22416E-04-5.34287E-18 7.79906E-18
 -1       162 5.09491E-05 3.77207E-05-3.67533E-05-8.23659E-05-5.06780E-18 5.38120E-18
 -1       163 9.95649E-06 2.06131E-05-1.64542E-05-2.67077E-05-3.43895E-18 2.64825E-18
 -1       164 8.38959E-06-3.04333E-05 1.99266E-06 1.40622E-05 7.90705E-19-7.03037E-20
 -1       165 2.72091E-05-8.88899E-05 1.59080E-05 2.08345E-05 7.29041E-18-1.72159E-18
 -1       166 9.01004E-05-1.03047E-05-3.44264E-05-2.73479E-05-6.39205E-19-5.35462E-18
 -1       167 8.84546E-05-7.84280E-06-3.47278E-05-2.28680E-05 3.86360E-19-4.75676E-18
 -1       168 9.02877E-05-7.40403E-06-3.56456E-05-1.90268E-05 9.66159E-19-3.96295E-18
 -1       169 9.35145E-05-8.13460E-06-3.66918E-05-1.49242E-05 1.34831E-18-3.13148E-18
 -1       170 9.68911E-05-9.55327E-06-3.75206E-05-1.01503E-05 1.55494E-18-2.22084E-18
 -1       171 9.93222E-05-1.13230E-05-3.77957E-05-4.33266E-06 1.71639E-18-1.35883E-18
 -1       172 9.93815E-05-1.28034E-05-3.71752E-05 2.74325E-06 1.86755E-18-5.18411E-19
 -1       173 9.52594E-05-1.28305E-05-3.53845E-05 1.08231E-05 1.92602E-18 2.24914E-19
 -1       174 8.54187E-05-9.92261E-06-3.24099E-05 1.86803E-05 2.09616E-18 9.65525E-19
 -1       175 7.03216E-05-3.33375E-06-2.87633E-05 2.38258E-05 2.25401E-18 1.48470E-18
 -1       176 5.46558E-05 5.17848E-06-2.57017E-05 2.34195E-05 2.26876E-18 1.87377E-18
 -1       177 4.70640E-05 1.09010E-05-2.49099E-05 1.71690E-05 2.15575E-18 2.37077E-18
 -1       178 5.40812E-05 9.77023E-06-2.74622E-05 8.42374E-06 1.84596E-18 3.13300E-18
 -1       179 7.81638E-05 1.14333E-07-3.36716E-05 2.55779E-06 1.31068E-18 4.27422E-18
 -1       180 1.14672E-04-1.69937E-05-4.19283E-05 4.03678E-06 2.58372E-19 5.89352E-18
 -1       181 1.47574E-04-3.97575E-05-4.73311E-05 4.18339E-06-5.06129E-19 7.61768E-18
 -1       182 9.61943E-05-2.47982E-05-3.06046E-05-1.58031E-05-9.00184E-19-4.78714E-18
 -1       183 8.78686E-05-2.53948E-05-2.68159E-05-8.07287E-06-6.29147E-19-4.69835E-18
 -1       184 8.20917E-05-2.41018E-05-2.48005E-05-4.71720E-06-3.41771E-19-4.72160E-18
 -1       185 7.86424E-05-2.32164E-05-2.37101E-05-2.81128E-06-3.65892E-19-4.82698E-18
 -1       186 7.66519E-05-2.26123E-05-2.31318E-05-1.24191E-06-2.00219E-19-4.87345E-18
 -1       187 7.59543E-05-2.23853E-05-2.29394E-05 3.02942E-07-1.62354E-19-4.77765E-18
 -1       188 7.64569E-05-2.25671E-05-2.30821E-05 1.77987E-06-1.95991E-19-4.66982E-18
 -1       189 7.80027E-05-2.31232E-05-2.35100E-05 3.00673E-06-1.93709E-20-4.64381E-18
 -1       190 8.03200E-05-2.39518E-05-2.41516E-05 3.80777E-06-1.33557E-19-4.69921E-18
 -1       191 8.30580E-05-2.49117E-05-2.49172E-05 4.10434E-06 6.11605E-20-4.64609E-18
 -1       192 8.58627E-05-2.58646E-05-2.57141E-05 3.93849E-06 7.76524E-20-4.61498E-18
 -1       193 8.84488E-05-2.67080E-05-2.64636E-05 3.44007E-06 1.85387E-19-4.78503E-18
 -1       194 9.06370E-05-2.73878E-05-2.71117E-05 2.76955E-06 1.68378E-19-4.43937E-18
 -1       195 9.23546E-05-2.78929E-05-2.76321E-05 2.06896E-06 8.74206E-20-3.96433E-18
 -1       196 9.36120E-05-2.82405E-05-2.80219E-05 1.43608E-06-1.86062E-19-3.48732E-18
 -1       197 9.44701E-05-2.84612E-05-2.82944E-05 9.20984E-07 3.98338E-19-3.59912E-18
 -1       198 9.50118E-05-2.85885E-05-2.84711E-05 5.35900E-07 2.78647E-19-4.13875E-18
 -1       199 9.53212E-05-2.86517E-05-2.85756E-05 2.69392E-07-2.61310E-19-3.93410E-18
 -1       200 9.54717E-05-2.86745E-05-2.86294E-05 9.89312E-08-4.27371E-19-3.66401E-18
 -1       201 9.55216E-05-2.86739E-05-2.86503E-05-3.62874E-10 1.74322E-19-4.20015E-18
 -1       202 9.55133E-05-2.86613E-05-2.86516E-05-5.08295E-08-2.84133E-20-4.03442E-18
 -1       203 9.54760E-05-2.86441E-05-2.86426E-05-7.02503E-08 1.49391E-21-4.77828E-18
 -1       204 9.54281E-05-2.86266E-05-2.86294E-05-7.15985E-08-5.10528E-20-3.60393E-18
 -1       205 9.53801E-05-2.86108E-05-2.86154E-05-6.36683E-08-1.35993E-19-2.48819E-18
 -1       206 9.53377E-05-2.85978E-05-2.86027E-05-5.20087E-08 1.55632E-19-2.85088E-18
 -1       207 9.53030E-05-2.85877E-05-2.85922E-05-3.98444E-08-8.94431E-20-3.10881E-18
 -1       208 9.52763E-05-2.85802E-05-2.85840E-05-2.88459E-08 7.13225E-21-2.94923E-18
 -1       209 9.52568E-05-2.85749E-05-2.85779E-05-1.97107E-08-4.67706E-19-3.02416E-18
 -1       210 9.52433E-05-2.85714E-05-2.85736E-05-1.25723E-08 1.11987E-18-1.89094E-18
 -1       211 9.52346E-05-2.85692E-05-2.85708E-05-7.26957E-09 1.82840E-19-2.20553E-18
 -1       212 9.52293E-05-2.85680E-05-2.85691E-05-3.51413E-09-8.67851E-21-1.70737E-18
 -1       213 9.52267E-05-2.85675E-05-2.85682E-05-9.87351E-10-4.91906E-19-1.72989E-18
 -1       214 9.52257E-05-2.85674E-05-2.85678E-05 6.08789E-10 1.76484E-19-2.50492E-18
 -1       215 9.52259E-05-2.85676E-05-2.85678E-05 1.52906E-09 7.64955E-19-1.87315E-18
 -1       216 9.52268E-05-2.85680E-05-2.85681E-05 1.97869E-09-1.76160E-19-3.47875E-18
 -1       217 9.52280E-05-2.85684E-05-2.85684E-05 2.11568E-09 1.14360E-19-2.66791E-18
 -1       218 9.52293E-05-2.85688E-05-2.85688E-05 2.05712E-09 1.51759E-18-2.67606E-18
 -1       219 9.52307E-05-2.85693E-05-2.85692E-05 1.88669E-09 1.70800E-18-7.50559E-19
 -1       220 9.52319E-05-2.85696E-05-2.85695E-05 1.66196E-09-6.17741E-19 1.72164E-19
 -1       221 9.52330E-05-2.85700E-05-2.85699E-05 1.42069E-09-2.42469E-18-6.84956E-19
 -1       222 9.52340E-05-2.85702E-05-2.85702E-05 1.18613E-09-2.18449E-18 2.56033E-19
 -1       223 9.52348E-05-2.85705E-05-2.85704E-05 9.71011E-10 8.52522E-19-6.10237E-19
 -1       224 9.52354E-05-2.85707E-05-2.85706E-05 7.80550E-10 6.80144E-19-5.02227E-19
 -1       225 9.52360E-05-2.85708E-05-2.85708E-05 6.14542E-10 1.99428E-18-3.25099E-19
 -1       226 9.52364E-05-2.85709E-05-2.85709E-05 4.68760E-10 1.84631E-19 1.44046E-20
 -1       227 9.52367E-05-2.85710E-05-2.85710E-05 3.35940E-10-1.85868E-18-1.86878E-18
 -1       228 9.52369E-05-2.85711E-05-2.85711E-05 2.07900E-10-1.18104E-21 2.00716E-19
 -1       229 9.52371E-05-2.85712E-05-2.85711E-05 8.19885E-11 1.33854E-18-6.49815E-19
 -1       230 1.49568E-04-4.28985E-05-4.57737E-05-9.87647E-06-3.31084E-19 6.88711E-18
 -1       231 1.56607E-04-4.71964E-05-4.65575E-05-1.45853E-05-3.06083E-19 6.73727E-18
 -1       232 1.67054E-04-5.53455E-05-4.73100E-05-6.60394E-06-5.25399E-19 7.25681E-18
 -1       233 1.74572E-04-6.23596E-05-4.78665E-05 1.63192E-05-1.03386E-18 8.53882E-18
 -1       234 1.73192E-04-5.45199E-05-5.18083E-05 3.95481E-05-2.04654E-18 9.68079E-18
 -1       235 1.65827E-04-3.56919E-05-5.71811E-05 2.69586E-05-3.98953E-19 1.05609E-17
 -1       236 1.64191E-04-3.29485E-05-5.76975E-05-1.17331E-05 9.20301E-19 1.02812E-17
 -1       237 1.70146E-04-4.66966E-05-5.39200E-05-3.96494E-05 1.63075E-18 8.46457E-18
 -1       238 1.75467E-04-6.11947E-05-4.88898E-05-2.75237E-05 1.79762E-18 6.83767E-18
 -1       239 1.66536E-04-5.75650E-05-4.62519E-05 1.05261E-06 7.49439E-19 5.91249E-18
 -1       240 1.51116E-04-4.74008E-05-4.42562E-05 1.70783E-05 9.78323E-20 5.99186E-18
 -1       241 1.36354E-04-4.02429E-05-4.12107E-05 1.91836E-05 1.30486E-19 6.16788E-18
 -1       242 1.24141E-04-3.59845E-05-3.78318E-05 1.54178E-05-4.60346E-19 6.06150E-18
 -1       243 1.14879E-04-3.34001E-05-3.49391E-05 1.08301E-05-7.56936E-19 5.78702E-18
 -1       244 1.08271E-04-3.17434E-05-3.27918E-05 7.13442E-06 4.91812E-19 5.86785E-18
 -1       245 1.03754E-04-3.06528E-05-3.13141E-05 4.55127E-06 3.31273E-19 5.37409E-18
 -1       246 1.00750E-04-2.99316E-05-3.03362E-05 2.85784E-06 4.83892E-19 4.69957E-18
 -1       247 9.87858E-05-2.94564E-05-2.97013E-05 1.78211E-06 1.48474E-18 3.60238E-18
 -1       248 9.75129E-05-2.91448E-05-2.92928E-05 1.10919E-06 1.48564E-18 2.86909E-18
 -1       249 9.66917E-05-2.89412E-05-2.90307E-05 6.91033E-07-1.35886E-18 3.71093E-18
 -1       250 9.61624E-05-2.88082E-05-2.88626E-05 4.31560E-07 9.81305E-20 2.83576E-18
 -1       251 9.58211E-05-2.87215E-05-2.87547E-05 2.70254E-07 1.04808E-18 2.30920E-18
 -1       252 9.56007E-05-2.86649E-05-2.86853E-05 1.69548E-07 8.70846E-20 2.57151E-18
 -1       253 9.54583E-05-2.86280E-05-2.86407E-05 1.06297E-07-5.31873E-19 3.62949E-18
 -1       254 9.53665E-05-2.86040E-05-2.86119E-05 6.62912E-08-5.02423E-19 4.18268E-18
 -1       255 9.53076E-05-2.85885E-05-2.85935E-05 4.08069E-08-1.59134E-18 3.92634E-18
 -1       256 9.52702E-05-2.85787E-05-2.85818E-05 2.44769E-08-1.46167E-19 3.34202E-18
 -1       257 9.52470E-05-2.85726E-05-2.85746E-05 1.39821E-08 2.50480E-18 3.39698E-18
 -1       258 9.52331E-05-2.85690E-05-2.85702E-05 7.25255E-09 2.57945E-19 3.30147E-18
 -1       259 9.52254E-05-2.85670E-05-2.85678E-05 2.98226E-09 1.26306E-18 2.08576E-18
 -1       260 9.52216E-05-2.85661E-05-2.85666E-05 3.34346E-10 1.05844E-18 9.88051E-19
 -1       261 9.52204E-05-2.85659E-05-2.85662E-05-1.23695E-09-2.86903E-18 1.33401E-18
 -1       262 9.52207E-05-2.85661E-05-2.85662E-05-2.09413E-09-1.61244E-18 3.91244E-18
 -1       263 9.52219E-05-2.85666E-05-2.85666E-05-2.48207E-09 1.03434E-18 4.73115E-18
 -1       264 9.52236E-05-2.85671E-05-2.85671E-05-2.56834E-09 1.53860E-18 3.80935E-18
 -1       265 9.52255E-05-2.85677E-05-2.85676E-05-2.46840E-09-8.91001E-19 4.41123E-18
 -1       266 9.52273E-05-2.85683E-05-2.85682E-05-2.26172E-09-3.81016E-19 3.00239E-18
 -1       267 9.52291E-05-2.85688E-05-2.85687E-05-2.00243E-09 1.16013E-18 2.42639E-18
 -1       268 9.52306E-05-2.85693E-05-2.85692E-05-1.72657E-09 2.80705E-19 3.01763E-18
 -1       269 9.52320E-05-2.85697E-05-2.85696E-05-1.45719E-09 1.26092E-18 3.37949E-18
 -1       270 9.52332E-05-2.85700E-05-2.85699E-05-1.20800E-09 1.18323E-18 2.76168E-18
 -1       271 9.52342E-05-2.85703E-05-2.85702E-05-9.85978E-10-8.81869E-19 2.88884E-18
 -1       272 9.52350E-05-2.85705E-05-2.85705E-05-7.93283E-10-3.63021E-19 2.36589E-18
 -1       273 9.52356E-05-2.85707E-05-2.85707E-05-6.28558E-10 1.89409E-18 1.00821E-18
 -1       274 9.52361E-05-2.85709E-05-2.85708E-05-4.87761E-10 2.06398E-18-1.69511E-18
 -1       275 9.52365E-05-2.85710E-05-2.85709E-05-3.64516E-10 1.24229E-19-1.64580E-18
 -1       276 9.52368E-05-2.85711E-05-2.85710E-05-2.50417E-10-1.46248E-19-1.06241E-18
 -1       277 9.52370E-05-2.85711E-05-2.85711E-05-1.38961E-10-3.25815E-19-2.00429E-18
 -1       278 9.52371E-05-2.85712E-05-2.85711E-05-3.27230E-11-2.14027E-18-1.92899E-18
 -1       279 9.52371E-05-2.85712E-05-2.85711E-05-8.99244E-11-1.73319E-18-2.38304E-18
 -1       280 9.52372E-05-2.85714E-05-2.85711E-05-1.97861E-10-2.03828E-18-1.29670E-18
 -1       281 9.52373E-05-2.85715E-05-2.85710E-05-2.72789E-10-2.66573E-18-7.86946E-19
 -1       282 9.52373E-05-2.85718E-05-2.85710E-05-2.98883E-10-3.82706E-18-1.02864E-18
 -1       283 9.52374E-05-2.85720E-05-2.85709E-05-2.75761E-10-2.62510E-18-1.21227E-18
 -1       284 9.52375E-05-2.85721E-05-2.85709E-05-2.09661E-10-2.70619E-18 7.38508E-19
 -1       285 9.52375E-05-2.85723E-05-2.85708E-05-1.12719E-10-2.36033E-18-2.24310E-18
 -1       286 9.52375E-05-2.85723E-05-2.85708E-05 1.77408E-13-3.44132E-18 1.50684E-18
 -1       287 9.52375E-05-2.85723E-05-2.85708E-05 1.12978E-10-9.28831E-19 2.39636E-19
 -1       288 9.52375E-05-2.85721E-05-2.85709E-05 2.09744E-10-3.30134E-18-1.96438E-18
 -1       289 9.52374E-05-2.85720E-05-2.85709E-05 2.75005E-10-4.08845E-18 1.46152E-18
 -1       290 9.52373E-05-2.85718E-05-2.85710E-05 2.99037E-10-3.08247E-18 1.20203E-18
 -1       291 9.52372E-05-2.85715E-05-2.85710E-05 2.72732E-10-1.00375E-18 1.82624E-18
 -1       292 9.52372E-05-2.85714E-05-2.85711E-05 1.95963E-10-1.57526E-18 3.06259E-18
 -1       293 9.52371E-05-2.85712E-05-2.85711E-05 1.54753E-10-6.12945E-19 1.70579E-18
 -1       294 9.94487E-06-5.12758E-05 1.42183E-05-5.30003E-06 5.06828E-18 1.92171E-18
 -1       295 2.02132E-05-4.98680E-05 9.14026E-06 8.54290E-06 5.61964E-18 2.68086E-19
 -1       296 4.85255E-05-4.78887E-05-3.55902E-06 2.35618E-05 5.36532E-18 1.69520E-18
 -1       297 9.79226E-05-5.14882E-05-2.19848E-05 3.39180E-05 3.78814E-18 3.59735E-18
 -1       298 1.65103E-04-6.26003E-05-4.39971E-05 2.52359E-05 3.99270E-18 3.55246E-18
 -1       299 2.20289E-04-5.92552E-05-6.53646E-05 1.77380E-05 3.13546E-18 4.25422E-18
 -1       300 2.55420E-04-5.42327E-05-7.91732E-05 5.51510E-06 1.94013E-18 4.67202E-18
 -1       301 2.41668E-04-4.42905E-05-7.90570E-05 5.02212E-06 2.93920E-19 5.72838E-18
 -1       302 2.42066E-04-5.64706E-05-7.40737E-05-1.39270E-06-1.01623E-18 3.96708E-18
 -1       303 2.01590E-04-6.05534E-05-5.82843E-05-2.09117E-05-1.63107E-18 2.81088E-18
 -1       304 1.47800E-04-6.35971E-05-3.70528E-05-2.47162E-05-2.24803E-18 2.37381E-18
 -1       305 7.74724E-05-4.84075E-05-1.54382E-05-2.83021E-05-2.56185E-18 9.00396E-19
 -1       306 3.22824E-05-4.42036E-05 1.07852E-06-1.24417E-05-2.55084E-18 6.02532E-19
 -1       307 1.11690E-05-4.20297E-05 9.61689E-06 1.74445E-06-2.05575E-18 6.53804E-19
 -1       308 7.32150E-06-4.19096E-05 1.15105E-05 1.50093E-05-2.01345E-18 2.42781E-19
 -1       309 1.45590E-05-3.05323E-05 4.69564E-06 2.82745E-05-1.00289E-18 3.86671E-19
 -1       310 3.34745E-05-2.39828E-05-5.88130E-06 3.73611E-05-8.13787E-19 7.87039E-19
 -1       311 6.39622E-05-1.65650E-05-2.11956E-05 5.06715E-05-2.20652E-19 1.74531E-18
 -1       312 1.16628E-04-2.45318E-05-3.92503E-05 5.49110E-05 2.83968E-19 3.14503E-18
 -1       313 1.60330E-04-2.43356E-05-5.66501E-05 5.69501E-05 3.44266E-19 4.41431E-18
 -1       314 2.01374E-04-3.26887E-05-6.95808E-05 4.14883E-05 2.84815E-19 5.51778E-18
 -1       315 2.12784E-04-3.08204E-05-7.55118E-05 1.04079E-05-3.95882E-19 4.85477E-18
 -1       316 2.27319E-04-3.83116E-05-7.75086E-05-1.48893E-05-1.40925E-19 5.40778E-18
 -1       317 2.07741E-04-3.40136E-05-7.12704E-05-3.87902E-05-5.23890E-19 4.72179E-18
 -1       318 1.72788E-04-2.82264E-05-5.96849E-05-5.42445E-05-6.94117E-19 3.54907E-18
 -1       319 1.30528E-04-2.45619E-05-4.43638E-05-5.86531E-05-7.58518E-19 2.94090E-18
 -1       320 8.82654E-05-2.54243E-05-2.72359E-05-5.35145E-05-8.35174E-19 2.20970E-18
 -1       321 5.25223E-05-3.21626E-05-1.03476E-05-4.20449E-05 3.35849E-19 2.76540E-18
 -1       322 2.71662E-05-4.22465E-05 3.71766E-06-2.87965E-05 2.21711E-18 2.62167E-18
 -1       323 1.39932E-05-5.07211E-05 1.23882E-05-1.70795E-05 4.39240E-18 1.68327E-18
 -1       324 9.30725E-05-1.47538E-05-3.36504E-05-1.89567E-05 5.73264E-19-3.52173E-18
 -1       325 9.23555E-05-1.76152E-05-3.20989E-05-2.01911E-05-1.93871E-19-3.96722E-18
 -1       326 9.99903E-05-1.57151E-05-3.62028E-05-1.33404E-05 1.58244E-18-2.23703E-18
 -1       327 1.03966E-04-1.80568E-05-3.69072E-05-9.11493E-06 1.81087E-18-1.44166E-18
 -1       328 1.06729E-04-2.08694E-05-3.68883E-05-3.30935E-06 2.02442E-18-5.57586E-19
 -1       329 1.06338E-04-2.29355E-05-3.58283E-05 4.75558E-06 2.14757E-18 8.05608E-20
 -1       330 1.00020E-04-2.20642E-05-3.34682E-05 1.51042E-05 2.31480E-18 8.89828E-19
 -1       331 8.54268E-05-1.57892E-05-2.98599E-05 2.57264E-05 2.60992E-18 1.47786E-18
 -1       332 6.36136E-05-3.47146E-06-2.56768E-05 3.14707E-05 2.79580E-18 1.74526E-18
 -1       333 4.43107E-05 9.25715E-06-2.27659E-05 2.72567E-05 2.77552E-18 1.93979E-18
 -1       334 3.97123E-05 1.42394E-05-2.28920E-05 1.39336E-05 2.49276E-18 2.23131E-18
 -1       335 5.89157E-05 5.28797E-06-2.73540E-05-9.53653E-07 1.72703E-18 2.83847E-18
 -1       336 9.68257E-05-1.46264E-05-3.51895E-05-8.46283E-06 6.86414E-19 4.03749E-18
 -1       337 1.24127E-04-2.97449E-05-4.04047E-05-1.08010E-05-2.23670E-20 4.96091E-18
 -1       338 1.28241E-04-3.71592E-05-3.87813E-05-2.01551E-05-2.44409E-19 4.41145E-18
 -1       339 9.06462E-05-2.39801E-05-2.85229E-05-1.14572E-05-3.48041E-19-3.38196E-18
 -1       340 8.76218E-05-2.42738E-05-2.71173E-05-7.36678E-06-2.56077E-19-3.02487E-18
 -1       341 8.52384E-05-2.38405E-05-2.62899E-05-4.29192E-06-1.83136E-19-2.63064E-18
 -1       342 8.37406E-05-2.34050E-05-2.58411E-05-1.43917E-06-1.68714E-19-2.55412E-18
 -1       343 8.32652E-05-2.33392E-05-2.56690E-05 1.31390E-06-5.79581E-20-2.48069E-18
 -1       344 8.37927E-05-2.37803E-05-2.57090E-05 3.74784E-06 1.95893E-20-2.13799E-18
 -1       345 8.51308E-05-2.46580E-05-2.59097E-05 5.55017E-06 1.17803E-20-2.12014E-18
 -1       346 8.69616E-05-2.57660E-05-2.62232E-05 6.51327E-06-1.72785E-19-2.28999E-18
 -1       347 8.89381E-05-2.68655E-05-2.66028E-05 6.62838E-06 1.50267E-20-2.42541E-18
 -1       348 9.07793E-05-2.77774E-05-2.70040E-05 6.06665E-06 3.68262E-19-2.49746E-18
 -1       349 9.23178E-05-2.84213E-05-2.73893E-05 5.08980E-06 1.97975E-19-2.22472E-18
 -1       350 9.34954E-05-2.88030E-05-2.77312E-05 3.95654E-06 6.25788E-19-1.42362E-18
 -1       351 9.43303E-05-2.89778E-05-2.80140E-05 2.86375E-06-8.47327E-20-1.73095E-18
 -1       352 9.48801E-05-2.90148E-05-2.82330E-05 1.92815E-06-1.27063E-20-2.08411E-18
 -1       353 9.52136E-05-2.89751E-05-2.83919E-05 1.19623E-06-6.19622E-20-2.24184E-18
 -1       354 9.53945E-05-2.89025E-05-2.84995E-05 6.65971E-07 1.32495E-19-2.33747E-18
 -1       355 9.54745E-05-2.88242E-05-2.85664E-05 3.08880E-07 3.48584E-20-2.19649E-18
 -1       356 9.54925E-05-2.87538E-05-2.86036E-05 8.66615E-08 1.83663E-19-1.67835E-18
 -1       357 9.54756E-05-2.86967E-05-2.86202E-05-3.83976E-08-5.41612E-19-1.41515E-18
 -1       358 9.54419E-05-2.86535E-05-2.86239E-05-9.82772E-08-1.59579E-19-1.62847E-18
 -1       359 9.54026E-05-2.86224E-05-2.86202E-05-1.17577E-07 5.07142E-19-1.21578E-18
 -1       360 9.53644E-05-2.86009E-05-2.86129E-05-1.13843E-07 4.56196E-19-6.11407E-19
 -1       361 9.53306E-05-2.85867E-05-2.86044E-05-9.87709E-08-1.44810E-20-7.47197E-19
 -1       362 9.53024E-05-2.85777E-05-2.85962E-05-7.96329E-08 3.56065E-19-3.11846E-19
 -1       363 9.52802E-05-2.85722E-05-2.85890E-05-6.05854E-08-4.04976E-19 6.73667E-19
 -1       364 9.52633E-05-2.85691E-05-2.85831E-05-4.37229E-08-1.07757E-20 7.71475E-19
 -1       365 9.52510E-05-2.85676E-05-2.85786E-05-2.98604E-08 7.90283E-19 1.62947E-18
 -1       366 9.52425E-05-2.85670E-05-2.85752E-05-1.90781E-08 2.34627E-20 3.73974E-19
 -1       367 9.52369E-05-2.85669E-05-2.85728E-05-1.10782E-08 2.89275E-19-6.27810E-19
 -1       368 9.52334E-05-2.85672E-05-2.85712E-05-5.40586E-09-2.23897E-19-2.93212E-19
 -1       369 9.52316E-05-2.85677E-05-2.85702E-05-1.57725E-09-6.20669E-19 3.30032E-19
 -1       370 9.52308E-05-2.85682E-05-2.85697E-05 8.54197E-10-1.41286E-19 1.29561E-19
 -1       371 9.52307E-05-2.85687E-05-2.85694E-05 2.26842E-09-5.29077E-19-1.39825E-18
 -1       372 9.52311E-05-2.85691E-05-2.85694E-05 2.97135E-09 8.27666E-19-2.04011E-20
 -1       373 9.52317E-05-2.85695E-05-2.85695E-05 3.19904E-09 1.37991E-18-5.27555E-19
 -1       374 9.52324E-05-2.85699E-05-2.85697E-05 3.12704E-09 2.14199E-18 2.09310E-19
 -1       375 9.52332E-05-2.85702E-05-2.85699E-05 2.88143E-09 2.10104E-18-7.49435E-19
 -1       376 9.52339E-05-2.85704E-05-2.85701E-05 2.54934E-09-6.47758E-19 1.95272E-18
 -1       377 9.52346E-05-2.85706E-05-2.85703E-05 2.18829E-09-1.22325E-18 3.54292E-18
 -1       378 9.52351E-05-2.85708E-05-2.85704E-05 1.83384E-09-2.55082E-18 4.03750E-18
 -1       379 9.52356E-05-2.85709E-05-2.85706E-05 1.50552E-09 1.55782E-18 2.66376E-18
 -1       380 9.52360E-05-2.85710E-05-2.85707E-05 1.21136E-09 1.68771E-18 3.37839E-18
 -1       381 9.52364E-05-2.85711E-05-2.85708E-05 9.51233E-10 8.24062E-19 2.71070E-19
 -1       382 9.52366E-05-2.85711E-05-2.85709E-05 7.19667E-10-2.53493E-18-2.69277E-19
 -1       383 9.52369E-05-2.85712E-05-2.85710E-05 5.08219E-10 1.21829E-19 2.15900E-18
 -1       384 9.52370E-05-2.85712E-05-2.85710E-05 3.23602E-10 1.39599E-18 2.65552E-18
 -1       385 1.41024E-04-5.24259E-05-3.76133E-05-1.87253E-05-9.71256E-19 4.43446E-18
 -1       386 1.57252E-04-7.25877E-05-3.63761E-05 1.06299E-05 1.89105E-18 2.47191E-18
 -1       387 1.28117E-04-5.03566E-05-3.29977E-05 2.74552E-05-1.94288E-20 1.53105E-18
 -1       388 1.12939E-04-3.40502E-05-3.36476E-05 3.05890E-05-7.78397E-19 1.80869E-18
 -1       389 1.06740E-04-2.80096E-05-3.36740E-05 2.57762E-05-2.09487E-19 2.86918E-18
 -1       390 1.03731E-04-2.68067E-05-3.29275E-05 1.92225E-05-3.20870E-19 2.39712E-18
 -1       391 1.01726E-04-2.71284E-05-3.19342E-05 1.34124E-05 5.60527E-19 1.69351E-18
 -1       392 1.00127E-04-2.76733E-05-3.10198E-05 9.00285E-06 3.49280E-19 1.61542E-18
 -1       393 9.88324E-05-2.80900E-05-3.02939E-05 5.90682E-06 5.16588E-19 1.53075E-18
 -1       394 9.78226E-05-2.83470E-05-2.97584E-05 3.82638E-06 7.05796E-19 1.52767E-18
 -1       395 9.70639E-05-2.84875E-05-2.93788E-05 2.46287E-06 1.44905E-18 2.60144E-18
 -1       396 9.65101E-05-2.85565E-05-2.91159E-05 1.58149E-06 4.87458E-21 2.92548E-18
 -1       397 9.61140E-05-2.85856E-05-2.89363E-05 1.01568E-06 2.09865E-19 1.26251E-18
 -1       398 9.58347E-05-2.85944E-05-2.88145E-05 6.53273E-07 1.02922E-18 1.36486E-18
 -1       399 9.56395E-05-2.85935E-05-2.87323E-05 4.20909E-07-6.26935E-20 1.96304E-18
 -1       400 9.55042E-05-2.85889E-05-2.86769E-05 2.71405E-07-4.48614E-19 1.51423E-18
 -1       401 9.54108E-05-2.85835E-05-2.86396E-05 1.74719E-07-1.05958E-18 2.10357E-18
 -1       402 9.53469E-05-2.85785E-05-2.86146E-05 1.11817E-07-1.56670E-19 1.70771E-18
 -1       403 9.53036E-05-2.85746E-05-2.85979E-05 7.06583E-08 1.92724E-19 9.00443E-20
 -1       404 9.52745E-05-2.85716E-05-2.85868E-05 4.36135E-08 1.15501E-18-7.58619E-19
 -1       405 9.52554E-05-2.85697E-05-2.85795E-05 2.58222E-08 1.40176E-18 1.73501E-20
 -1       406 9.52431E-05-2.85685E-05-2.85748E-05 1.41623E-08 1.70088E-18 7.14472E-19
 -1       407 9.52356E-05-2.85679E-05-2.85718E-05 6.60447E-09 1.48276E-18 1.41076E-18
 -1       408 9.52313E-05-2.85677E-05-2.85701E-05 1.81079E-09-4.51079E-19 8.82590E-19
 -1       409 9.52292E-05-2.85678E-05-2.85691E-05-1.11472E-09-3.60615E-18-1.83207E-19
 -1       410 9.52284E-05-2.85681E-05-2.85687E-05-2.78131E-09-1.83115E-18 1.19576E-18
 -1       411 9.52285E-05-2.85684E-05-2.85686E-05-3.60859E-09 1.91523E-18 3.63316E-18
 -1       412 9.52291E-05-2.85688E-05-2.85687E-05-3.88812E-09 9.82210E-19 2.55700E-18
 -1       413 9.52300E-05-2.85692E-05-2.85689E-05-3.82313E-09 7.36425E-20 3.78064E-19
 -1       414 9.52310E-05-2.85695E-05-2.85692E-05-3.55470E-09 2.52959E-19-9.77130E-21
 -1       415 9.52320E-05-2.85699E-05-2.85695E-05-3.17962E-09 4.88313E-19 6.00357E-19
 -1       416 9.52329E-05-2.85701E-05-2.85698E-05-2.76277E-09 1.31390E-18-8.27473E-19
 -1       417 9.52338E-05-2.85704E-05-2.85700E-05-2.34595E-09 1.14134E-18 4.51699E-19
 -1       418 9.52345E-05-2.85706E-05-2.85703E-05-1.95437E-09-1.05485E-18 2.34351E-18
 -1       419 9.52351E-05-2.85707E-05-2.85705E-05-1.60118E-09 3.48882E-19 2.12587E-18
 -1       420 9.52357E-05-2.85709E-05-2.85706E-05-1.29091E-09 4.01372E-19-1.06512E-18
 -1       421 9.52361E-05-2.85710E-05-2.85708E-05-1.02185E-09 3.55413E-18-5.09963E-19
 -1       422 9.52364E-05-2.85711E-05-2.85709E-05-7.87829E-10 1.27118E-18-1.60404E-18
 -1       423 9.52367E-05-2.85711E-05-2.85710E-05-5.80075E-10 5.33721E-21-2.18575E-18
 -1       424 9.52369E-05-2.85712E-05-2.85710E-05-3.85397E-10-8.83848E-19-4.05874E-18
 -1       425 9.52370E-05-2.85712E-05-2.85711E-05-2.28342E-10-1.78550E-18-3.08575E-18
 -1       426 9.52373E-05-2.85717E-05-2.85710E-05-5.17699E-10-2.18229E-18-7.09030E-19
 -1       427 9.52372E-05-2.85715E-05-2.85710E-05-4.48085E-10-8.01832E-19-2.97897E-19
 -1       428 9.52374E-05-2.85719E-05-2.85709E-05-5.09923E-10-1.48858E-19-2.27633E-18
 -1       429 9.52375E-05-2.85720E-05-2.85709E-05-4.26065E-10 7.91447E-19 1.74036E-18
 -1       430 9.52376E-05-2.85722E-05-2.85709E-05-2.81352E-10 1.06114E-19-1.70630E-18
 -1       431 9.52376E-05-2.85722E-05-2.85709E-05-9.77482E-11-7.49226E-19-4.40888E-19
 -1       432 9.52376E-05-2.85722E-05-2.85709E-05 9.90548E-11 8.56112E-20 1.53764E-18
 -1       433 9.52376E-05-2.85722E-05-2.85709E-05 2.82271E-10-1.36217E-19-8.68740E-19
 -1       434 9.52375E-05-2.85720E-05-2.85709E-05 4.24424E-10 1.75056E-18-5.04041E-19
 -1       435 9.52374E-05-2.85719E-05-2.85709E-05 5.08975E-10 7.82823E-19 3.35615E-18
 -1       436 9.52373E-05-2.85717E-05-2.85710E-05 5.17768E-10-6.14202E-19 8.56209E-19
 -1       437 9.52372E-05-2.85715E-05-2.85710E-05 4.47373E-10-1.64522E-18 1.40433E-18
 -1       438 5.46936E-05-3.73811E-05-7.36149E-06 3.61449E-05 2.17518E-18-1.63636E-19
 -1       439 1.00256E-05-1.80264E-05 3.44939E-06-1.47239E-05 9.91664E-19 2.11938E-18
 -1       440 1.63725E-05-2.47078E-05 3.23043E-06 1.37286E-05 2.00048E-18 3.71847E-19
 -1       441 1.02324E-04-5.77333E-05-1.94194E-05 3.67949E-05 2.53422E-18 1.83728E-18
 -1       442 9.60483E-05-1.44615E-05-3.50505E-05-1.65697E-05 1.15065E-18-2.90843E-18
 -1       443 1.96914E-04-6.07141E-05-5.81302E-05 3.03861E-05-2.23384E-18 7.13964E-18
 -1       444 1.84321E-04-7.36699E-05-4.74005E-05 1.26254E-05-1.91530E-18 5.61848E-18
 -1       445 1.36215E-04-6.84586E-05-2.95144E-05-2.25553E-05-2.22314E-18 2.45385E-18
 -1       446 7.89732E-05-4.73864E-05-1.41467E-05-3.30116E-05-1.63499E-18 8.14316E-19
 -1       447 3.53539E-05-2.45101E-05-4.85298E-06-2.35530E-05-4.95832E-19 4.67139E-19
 -1       448 6.75577E-06-1.10374E-05 1.61983E-06 3.60738E-06 1.45306E-19 4.92761E-19
 -1       449 8.05808E-06-8.99066E-06 3.33163E-07 2.81236E-05 8.96902E-19 7.71012E-19
 -1       450 3.62285E-05-1.73034E-05-7.94693E-06 4.99910E-05 1.42513E-18 1.70254E-18
 -1       451 6.67585E-05-2.89902E-05-1.62549E-05 5.44121E-05 1.10263E-18 2.22182E-18
 -1       452 1.10322E-04-4.03375E-05-2.99458E-05 4.70672E-05 4.96361E-19 2.99447E-18
 -1       453 1.46397E-04-3.73337E-05-4.66822E-05 2.94749E-05-3.17770E-19 3.19194E-18
 -1       454 1.63654E-04-2.98393E-05-5.73112E-05 1.13618E-05-6.84561E-19 3.03915E-18
 -1       455 1.67889E-04-1.80075E-05-6.43648E-05 1.66861E-06-6.38239E-19 2.46487E-18
 -1       456 1.66378E-04-9.13309E-06-6.75512E-05-1.17114E-06 1.65383E-19 1.83491E-18
 -1       457 1.71381E-04-1.55579E-05-6.66141E-05-2.82137E-06 8.07646E-19 1.40454E-18
 -1       458 1.68896E-04-2.97585E-05-5.94123E-05-1.18692E-05 8.37292E-19 1.43127E-18
 -1       459 1.56202E-04-4.30367E-05-4.83427E-05-2.50526E-05 1.32857E-18 1.30687E-18
 -1       460 1.31345E-04-4.93949E-05-3.50562E-05-4.14921E-05 7.70800E-19 1.97465E-19
 -1       461 9.62587E-05-4.76120E-05-2.09214E-05-5.19938E-05 1.10199E-18 1.74785E-18
 -1       462 5.77667E-05-3.84044E-05-8.41252E-06-5.21428E-05 1.11787E-18 2.92729E-18
 -1       463 2.24619E-05-2.58436E-05 1.28028E-06-3.58570E-05 1.11342E-18 3.49687E-18
 -1       464 1.87451E-04-6.86802E-05-5.11110E-05-2.37561E-05 2.40849E-18 5.28792E-18
 -1       465 1.53813E-04-6.47803E-05-3.79145E-05-9.52346E-06-1.67278E-18 4.62956E-18
 -1       466 1.46683E-04-6.09244E-06-6.08085E-05-6.16242E-06-3.36484E-19 9.36818E-19
 -1       467 1.33657E-04-4.66091E-05-3.73871E-05 2.91801E-05 2.28884E-19 2.82978E-18
 -1       468 9.01693E-05-2.82869E-05-2.59432E-05-2.81964E-05-8.95208E-20 2.11157E-18
 -1       469 1.10390E-04-2.45849E-05-3.68167E-05-9.23767E-06 1.60624E-18-9.55013E-19
 -1       470 1.05586E-04-2.14229E-05-3.61093E-05-1.28194E-05 1.50402E-18-1.69234E-18
 -1       471 1.13976E-04-3.18124E-05-3.52503E-05 7.36904E-06 1.76821E-18 6.59845E-19
 -1       472 1.05472E-04-3.09034E-05-3.19189E-05 2.24359E-05 2.03526E-18 1.52717E-18
 -1       473 8.35556E-05-2.12263E-05-2.65092E-05 3.75384E-05 2.55729E-18 1.88696E-18
 -1       474 5.24527E-05-3.60645E-06-2.05148E-05 4.16727E-05 2.78859E-18 1.95945E-18
 -1       475 2.89301E-05 1.08805E-05-1.65385E-05 2.73580E-05 2.68500E-18 1.72371E-18
 -1       476 3.45962E-05 9.53969E-06-1.83357E-05 7.99067E-07 1.97545E-18 1.71196E-18
 -1       477 7.77762E-05-2.61624E-05-2.14473E-05 3.64562E-05-8.10637E-19 6.70427E-19
 -1       478 7.94732E-05-1.74356E-05-2.64147E-05 2.82996E-05-1.15738E-18 1.37051E-18
 -1       479 9.36325E-05-2.31729E-05-3.01836E-05-1.20625E-05 1.06595E-19-2.59759E-18
 -1       480 9.46694E-05-2.05115E-05-3.18026E-05-1.58535E-05 2.84721E-19-3.01734E-18
 -1       481 9.20155E-05-2.37154E-05-2.92602E-05-8.27953E-06 1.86809E-19-2.19051E-18
 -1       482 9.03087E-05-2.33469E-05-2.86894E-05-4.55273E-06 2.72118E-20-1.64202E-18
 -1       483 8.92087E-05-2.30661E-05-2.83403E-05-7.42435E-07 1.47019E-20-1.37818E-18
 -1       484 8.90461E-05-2.34173E-05-2.81214E-05 2.88222E-06 1.52379E-19-1.40343E-18
 -1       485 8.98005E-05-2.45037E-05-2.79804E-05 5.82841E-06-2.50187E-20-1.41720E-18
 -1       486 9.11678E-05-2.60708E-05-2.78963E-05 7.68722E-06 1.45617E-19-1.28026E-18
 -1       487 9.27236E-05-2.77022E-05-2.78655E-05 8.32647E-06-1.18795E-19-1.09460E-18
 -1       488 9.41036E-05-2.90343E-05-2.78876E-05 7.92095E-06 1.47782E-19-8.50305E-19
 -1       489 9.51133E-05-2.98877E-05-2.79558E-05 6.82534E-06 5.62785E-19-7.18252E-19
 -1       490 9.57224E-05-3.02649E-05-2.80558E-05 5.41755E-06 8.02100E-19-4.33690E-19
 -1       491 9.60023E-05-3.02778E-05-2.81704E-05 3.99635E-06-3.45503E-20-7.15522E-19
 -1       492 9.60598E-05-3.00709E-05-2.82834E-05 2.74586E-06-4.32174E-19-6.28634E-19
 -1       493 9.59926E-05-2.97696E-05-2.83833E-05 1.74708E-06-4.76077E-19-8.28498E-19
 -1       494 9.58720E-05-2.94596E-05-2.84640E-05 1.00918E-06-3.90400E-19-1.22915E-18
 -1       495 9.57412E-05-2.91881E-05-2.85238E-05 5.01246E-07-1.05398E-20-1.68070E-18
 -1       496 9.56222E-05-2.89733E-05-2.85645E-05 1.76231E-07 3.37034E-20-1.66060E-18
 -1       497 9.55234E-05-2.88158E-05-2.85894E-05-1.42175E-08 4.54347E-19-5.87156E-19
 -1       498 9.54456E-05-2.87075E-05-2.86022E-05-1.12190E-07-2.61387E-19-4.70699E-19
 -1       499 9.53864E-05-2.86375E-05-2.86068E-05-1.50803E-07 1.47206E-19-1.99543E-19
 -1       500 9.53424E-05-2.85950E-05-2.86060E-05-1.54234E-07 6.90082E-19-2.50775E-19
 -1       501 9.53100E-05-2.85713E-05-2.86023E-05-1.39035E-07-2.87600E-19-7.67505E-19
 -1       502 9.52866E-05-2.85595E-05-2.85972E-05-1.15848E-07 7.87327E-19-1.42718E-18
 -1       503 9.52697E-05-2.85551E-05-2.85919E-05-9.10375E-08 1.00393E-18-8.09041E-19
 -1       504 9.52576E-05-2.85547E-05-2.85869E-05-6.80534E-08-5.99081E-19 4.00058E-19
 -1       505 9.52491E-05-2.85563E-05-2.85826E-05-4.84733E-08 2.11793E-19-3.40664E-20
 -1       506 9.52433E-05-2.85587E-05-2.85791E-05-3.27455E-08-6.72995E-19-5.39559E-19
 -1       507 9.52394E-05-2.85613E-05-2.85763E-05-2.06942E-08-8.69836E-19-8.78652E-19
 -1       508 9.52369E-05-2.85636E-05-2.85742E-05-1.18435E-08-1.48311E-19-6.83799E-19
 -1       509 9.52353E-05-2.85656E-05-2.85727E-05-5.61470E-09-5.57142E-19-3.54040E-19
 -1       510 9.52345E-05-2.85672E-05-2.85717E-05-1.43626E-09-3.34148E-19 1.96684E-19
 -1       511 9.52342E-05-2.85684E-05-2.85710E-05 1.20081E-09-3.20568E-19 8.72032E-19
 -1       512 9.52341E-05-2.85694E-05-2.85706E-05 2.72143E-09 5.83572E-20 1.56342E-18
 -1       513 9.52343E-05-2.85700E-05-2.85704E-05 3.46410E-09 3.37357E-19 2.41935E-18
 -1       514 9.52346E-05-2.85705E-05-2.85703E-05 3.68839E-09 2.07952E-18 1.59140E-18
 -1       515 9.52349E-05-2.85708E-05-2.85703E-05 3.58671E-09 7.28162E-19-4.63086E-20
 -1       516 9.52353E-05-2.85710E-05-2.85704E-05 3.29691E-09 2.78378E-18-2.60801E-21
 -1       517 9.52356E-05-2.85712E-05-2.85705E-05 2.91415E-09 4.47166E-19 2.29299E-18
 -1       518 9.52359E-05-2.85712E-05-2.85706E-05 2.50109E-09-2.04302E-18 3.41063E-18
 -1       519 9.52362E-05-2.85713E-05-2.85707E-05 2.09625E-09-1.57915E-18 2.61343E-18
 -1       520 9.52364E-05-2.85713E-05-2.85708E-05 1.72061E-09 1.53611E-18 1.80472E-18
 -1       521 9.52366E-05-2.85713E-05-2.85708E-05 1.38263E-09-1.10476E-18 7.75158E-19
 -1       522 9.52368E-05-2.85713E-05-2.85709E-05 1.08222E-09-1.50835E-19 9.05221E-19
 -1       523 9.52369E-05-2.85714E-05-2.85710E-05 8.14014E-10-3.46205E-19 3.35760E-18
 -1       524 8.45106E-05-1.69846E-05-2.88809E-05 2.12329E-05-4.53860E-19 2.51491E-18
 -1       525 8.90360E-05-1.94672E-05-2.97878E-05 1.55760E-05 6.65008E-19 1.93656E-18
 -1       526 9.21137E-05-2.22305E-05-2.99324E-05 1.10807E-05 8.20107E-19 7.90527E-19
 -1       527 9.39380E-05-2.44279E-05-2.97766E-05 7.69109E-06 4.17395E-19 4.10708E-19
 -1       528 9.49043E-05-2.59638E-05-2.95363E-05 5.24678E-06 9.08847E-19 9.76537E-19
 -1       529 9.53572E-05-2.69681E-05-2.93031E-05 3.53753E-06 6.46163E-19 7.57630E-19
 -1       530 9.55302E-05-2.76003E-05-2.91086E-05 2.36784E-06 4.55449E-19 1.95435E-18
 -1       531 9.55632E-05-2.79890E-05-2.89577E-05 1.57874E-06 5.54893E-19 1.94849E-18
 -1       532 9.55336E-05-2.82240E-05-2.88453E-05 1.05093E-06 9.40399E-19 1.09618E-18
 -1       533 9.54819E-05-2.83645E-05-2.87636E-05 6.99314E-07-5.16137E-20 1.15092E-18
 -1       534 9.54276E-05-2.84477E-05-2.87050E-05 4.65226E-07 4.93914E-19 1.50082E-18
 -1       535 9.53791E-05-2.84967E-05-2.86635E-05 3.09099E-07-3.73342E-19 6.48919E-19
 -1       536 9.53391E-05-2.85254E-05-2.86342E-05 2.04614E-07-9.39774E-20 5.55840E-19
 -1       537 9.53079E-05-2.85423E-05-2.86137E-05 1.34413E-07 1.68890E-19-2.06068E-19
 -1       538 9.52844E-05-2.85523E-05-2.85993E-05 8.70873E-08 1.57103E-18-6.48111E-19
 -1       539 9.52671E-05-2.85584E-05-2.85894E-05 5.51331E-08 5.05508E-19-6.51841E-19
 -1       540 9.52549E-05-2.85622E-05-2.85825E-05 3.35918E-08 5.84292E-19 1.79232E-19
 -1       541 9.52465E-05-2.85647E-05-2.85779E-05 1.91604E-08 5.97852E-19 1.33703E-18
 -1       542 9.52409E-05-2.85664E-05-2.85748E-05 9.61457E-09 8.05739E-19 2.46578E-18
 -1       543 9.52373E-05-2.85676E-05-2.85727E-05 3.43761E-09-7.32127E-19 3.28740E-18
 -1       544 9.52352E-05-2.85685E-05-2.85714E-05-4.17675E-10-2.24027E-18 7.40281E-19
 -1       545 9.52341E-05-2.85692E-05-2.85706E-05-2.68257E-09-1.97792E-18 6.87265E-19
 -1       546 9.52336E-05-2.85697E-05-2.85702E-05-3.87195E-09 2.31407E-18 2.50190E-18
 -1       547 9.52336E-05-2.85702E-05-2.85700E-05-4.34984E-09 2.65002E-18 2.39650E-18
 -1       548 9.52338E-05-2.85705E-05-2.85700E-05-4.37330E-09 9.70798E-19 2.23392E-18
 -1       549 9.52341E-05-2.85707E-05-2.85700E-05-4.12260E-09-2.02494E-19-5.48453E-19
 -1       550 9.52346E-05-2.85709E-05-2.85701E-05-3.72230E-09 1.24055E-18 6.37358E-19
 -1       551 9.52350E-05-2.85710E-05-2.85703E-05-3.25645E-09-1.79387E-19 4.04077E-18
 -1       552 9.52354E-05-2.85711E-05-2.85704E-05-2.77960E-09-4.05969E-19 3.91494E-18
 -1       553 9.52357E-05-2.85712E-05-2.85705E-05-2.32493E-09-2.44986E-20 2.64283E-18
 -1       554 9.52361E-05-2.85712E-05-2.85707E-05-1.91018E-09 2.23518E-18 1.60428E-18
 -1       555 9.52363E-05-2.85712E-05-2.85708E-05-1.54205E-09 2.78598E-18-3.47707E-19
 -1       556 9.52366E-05-2.85713E-05-2.85708E-05-1.22018E-09 2.23139E-18 1.57114E-18
 -1       557 9.52368E-05-2.85713E-05-2.85709E-05-9.37920E-10 6.74733E-19 2.08511E-19
 -1       558 9.52369E-05-2.85713E-05-2.85710E-05-6.83525E-10 8.23659E-19 4.61762E-19
 -1       559 9.52375E-05-2.85720E-05-2.85709E-05-6.54787E-10 1.50217E-18 2.19819E-18
 -1       560 9.52374E-05-2.85718E-05-2.85710E-05-7.29157E-10 9.71817E-19-6.09610E-19
 -1       561 9.52372E-05-2.85716E-05-2.85710E-05-7.06653E-10 4.27050E-19-9.89277E-19
 -1       562 2.22639E-05-6.51658E-06-6.05416E-06 5.59569E-06-6.20385E-19 1.19718E-18
 -1       563 9.52376E-05-2.85721E-05-2.85709E-05-4.90494E-10 3.11550E-18 1.94671E-19
 -1       564 9.52377E-05-2.85723E-05-2.85709E-05-2.61323E-10 1.86378E-18-2.34650E-18
 -1       565 9.52378E-05-2.85723E-05-2.85709E-05 1.66144E-12 1.15645E-18 7.86927E-19
 -1       566 9.52377E-05-2.85722E-05-2.85709E-05 2.64174E-10 1.55907E-18 1.92678E-18
 -1       567 9.52376E-05-2.85721E-05-2.85709E-05 4.88905E-10 4.89074E-19-5.67175E-19
 -1       568 9.52375E-05-2.85720E-05-2.85709E-05 6.53335E-10-4.19595E-19 9.08630E-20
 -1       569 9.52374E-05-2.85718E-05-2.85710E-05 7.29813E-10-7.24795E-19 1.45733E-18
 -1       570 9.52372E-05-2.85716E-05-2.85710E-05 7.03555E-10-1.38534E-19 3.78054E-19
 -1       571 2.94295E-05-2.77883E-06-1.08154E-05-1.29507E-05 1.00342E-18 8.62597E-19
 -1       572 4.52376E-05-1.73060E-05-1.11751E-05 2.93431E-05-3.38178E-19-7.00073E-19
 -1       573 1.08410E-04-4.90119E-05-2.51139E-05-3.01094E-05-1.18500E-18 1.94532E-18
 -1       574 2.53853E-05-1.13281E-05-5.33340E-06-2.80219E-05 7.28713E-20 2.87144E-18
 -1       575 1.49653E-04-3.81096E-05-4.81240E-05 5.42641E-06-6.11995E-19 2.21494E-18
 -1       576 5.09229E-05-2.57727E-05-1.02154E-05-4.77859E-05 1.23249E-18 2.63205E-18
 -1       577 1.14020E-04-2.85450E-05-3.66766E-05-3.04143E-06 1.76219E-18-1.10991E-19
 -1       578 2.76401E-05 5.01646E-07-1.13860E-05 4.07224E-05 2.49494E-18 1.63991E-18
 -1       579 6.20177E-05-2.51446E-05-1.52243E-05-2.82571E-05-1.62683E-19 9.77794E-19
 -1       580 1.25908E-05 5.28543E-06-7.00029E-06 1.53050E-05 1.82438E-18 1.05985E-18
 -1       581 6.47773E-05-2.16197E-05-1.80205E-05 5.27795E-05 2.20403E-18 2.23572E-18
 -1       582 1.52548E-04-3.97790E-05-4.87161E-05-6.48689E-07 1.54014E-18 3.20867E-19
 -1       583 9.92111E-05-3.79227E-05-2.61021E-05 4.69378E-05 1.41841E-18 2.66647E-18
 -1       584 1.46886E-04-2.12899E-05-5.43810E-05-8.54422E-06-8.08228E-19 1.14466E-18
 -1       585 1.42973E-04-6.30728E-06-5.92534E-05 3.11212E-06 8.08705E-19 4.00011E-19
 -1       586 1.48197E-04-1.93388E-05-5.57698E-05 6.71193E-06 1.48210E-18 4.25581E-19
 -1       587 1.46353E-04-5.52922E-05-3.91871E-05-2.00317E-05 1.68185E-18 9.30836E-19
 -1       588 1.24986E-04-5.78802E-05-2.86743E-05-4.00137E-05 1.17203E-18-2.67424E-19
 -1       589 9.17769E-05-4.69921E-05-1.88592E-05-5.20740E-05 1.39427E-18 1.72100E-18
 -1       590 9.31282E-05-1.93398E-05-3.13214E-05-1.86761E-05 4.16065E-19 3.13597E-18
 -1       591 1.00861E-04-1.96414E-05-3.48454E-05-1.49029E-05 1.18074E-18-2.15537E-18
 -1       592 6.64536E-05-5.65404E-06-2.56431E-05-1.43842E-05 1.03875E-18 2.33794E-18
 -1       593 1.31413E-04-2.98834E-06-5.56577E-05-2.38504E-06 3.24096E-19-2.78945E-19
 -1       594 9.52370E-05-2.85714E-05-2.85710E-05 6.42545E-10 8.27689E-19 5.26546E-18
 -1       595 1.19315E-04-4.47095E-05-3.19454E-05 3.24211E-05 1.09900E-18 2.48490E-18
 -1       596 9.74409E-05-1.94508E-05-3.34532E-05-1.58369E-05 7.64649E-19-2.47306E-18
 -1       597 4.87181E-05-1.34860E-05-1.45426E-05-3.33063E-05 1.53882E-19 2.18177E-18
 -1       598 5.64329E-05-7.95867E-06-2.02996E-05 2.17996E-05-1.90482E-18 4.14093E-19
 -1       599 3.52351E-05-2.91311E-06-1.32405E-05-9.50606E-06-1.65197E-18 1.24646E-18
 -1       600 9.72172E-05-2.27852E-05-3.18994E-05-1.19078E-05 6.22182E-19-2.07542E-18
 -1       601 9.77934E-05-2.17063E-05-3.26069E-05-1.41226E-05 5.53485E-19-2.29070E-18
 -1       602 7.38695E-05-1.15813E-05-2.66505E-05 1.06992E-05 3.31028E-19-1.66836E-19
 -1       603 9.58378E-05-2.26208E-05-3.13741E-05-8.27051E-06 4.25123E-19-1.81690E-18
 -1       604 9.43872E-05-2.20080E-05-3.10164E-05-3.93725E-06 1.29100E-19-1.59414E-18
 -1       605 9.36758E-05-2.20509E-05-3.06939E-05 7.21124E-07 1.16444E-19-1.19810E-18
 -1       606 9.40454E-05-2.32745E-05-3.03292E-05 4.92449E-06 2.36527E-19-1.25904E-18
 -1       607 9.52620E-05-2.54622E-05-2.99134E-05 7.90165E-06 2.02738E-19-8.70614E-19
 -1       608 9.67840E-05-2.79870E-05-2.94839E-05 9.25901E-06 2.27841E-19-7.98779E-19
 -1       609 9.80383E-05-3.01413E-05-2.90985E-05 9.11763E-06 3.63648E-19-1.71751E-19
 -1       610 9.87228E-05-3.15256E-05-2.87992E-05 7.95590E-06 5.02236E-19 1.63784E-19
 -1       611 9.88208E-05-3.20905E-05-2.85995E-05 6.31651E-06 4.35192E-19 1.23998E-19
 -1       612 9.84879E-05-3.20127E-05-2.84903E-05 4.62788E-06 2.57239E-19-1.32571E-20
 -1       613 9.79281E-05-3.15481E-05-2.84495E-05 3.14520E-06-5.44098E-20-2.79709E-19
 -1       614 9.73115E-05-3.09248E-05-2.84522E-05 1.97287E-06-7.02990E-19-6.94591E-19
 -1       615 9.67458E-05-3.03002E-05-2.84773E-05 1.11739E-06-9.61288E-19-1.13206E-18
 -1       616 9.62814E-05-2.97597E-05-2.85097E-05 5.35594E-07-1.63640E-19-1.34343E-18
 -1       617 9.59287E-05-2.93355E-05-2.85402E-05 1.67406E-07 1.84332E-19-9.37385E-19
 -1       618 9.56769E-05-2.90264E-05-2.85646E-05-4.60119E-08 1.26363E-18-2.74937E-19
 -1       619 9.55059E-05-2.88155E-05-2.85817E-05-1.54232E-07-3.05399E-20 2.28008E-19
 -1       620 9.53948E-05-2.86806E-05-2.85919E-05-1.95378E-07-5.87859E-20 3.72525E-19
 -1       621 9.53256E-05-2.86002E-05-2.85966E-05-1.96875E-07 6.08851E-19-2.04479E-19
 -1       622 9.52843E-05-2.85569E-05-2.85975E-05-1.77361E-07 4.63977E-20-1.39187E-19
 -1       623 9.52606E-05-2.85370E-05-2.85958E-05-1.48802E-07-4.84403E-19-1.96546E-19
 -1       624 9.52477E-05-2.85311E-05-2.85928E-05-1.18391E-07 5.28275E-19-8.51887E-19
 -1       625 9.52410E-05-2.85328E-05-2.85892E-05-9.00775E-08 1.21021E-18-4.79883E-19
 -1       626 9.52379E-05-2.85381E-05-2.85856E-05-6.57134E-08 3.70354E-20 5.82804E-19
 -1       627 9.52366E-05-2.85445E-05-2.85823E-05-4.58727E-08-6.90714E-19 3.49227E-19
 -1       628 9.52362E-05-2.85507E-05-2.85795E-05-3.04071E-08-8.35353E-19 1.20101E-18
 -1       629 9.52361E-05-2.85562E-05-2.85771E-05-1.88073E-08 1.74594E-19 1.89631E-18
 -1       630 9.52362E-05-2.85607E-05-2.85752E-05-1.04261E-08 2.26692E-19 6.89219E-19
 -1       631 9.52364E-05-2.85642E-05-2.85738E-05-4.60813E-09 7.67671E-20 1.76479E-18
 -1       632 9.52365E-05-2.85668E-05-2.85727E-05-7.56699E-10-8.39776E-19 1.60832E-18
 -1       633 9.52366E-05-2.85687E-05-2.85720E-05 1.63631E-09-5.39413E-20 2.43793E-18
 -1       634 9.52367E-05-2.85700E-05-2.85715E-05 2.98390E-09 1.05386E-19 2.51032E-18
 -1       635 9.52368E-05-2.85708E-05-2.85711E-05 3.60953E-09 1.37273E-19 8.62226E-19
 -1       636 9.52368E-05-2.85713E-05-2.85709E-05 3.75841E-09 2.13629E-19-3.16470E-19
 -1       637 9.52369E-05-2.85716E-05-2.85708E-05 3.61083E-09 2.04684E-18-7.01118E-19
 -1       638 9.52369E-05-2.85718E-05-2.85708E-05 3.29511E-09 1.97221E-18-1.29298E-18
 -1       639 9.52369E-05-2.85718E-05-2.85708E-05 2.89927E-09-4.07883E-19-2.19581E-18
 -1       640 9.52370E-05-2.85718E-05-2.85708E-05 2.48084E-09-2.83251E-18-2.02860E-18
 -1       641 9.52370E-05-2.85718E-05-2.85708E-05 2.07478E-09 9.44091E-19-8.57624E-19
 -1       642 9.52370E-05-2.85717E-05-2.85709E-05 1.69973E-09-2.01942E-19-2.35977E-18
 -1       643 9.52371E-05-2.85716E-05-2.85709E-05 1.36281E-09-9.49568E-19-2.51570E-18
 -1       644 9.52371E-05-2.85716E-05-2.85709E-05 1.06345E-09 1.89354E-18 2.79120E-20
 -1       645 1.39618E-04-3.08359E-05-4.69587E-05-8.61515E-06-4.15205E-19 1.04426E-18
 -1       646 9.52371E-05-2.85716E-05-2.85709E-05-9.75504E-10 8.59288E-19 1.49142E-18
 -1       647 1.10098E-04-2.44600E-05-3.67240E-05-1.31949E-05 1.16794E-18-1.30185E-18
 -1       648 9.52380E-05-2.85724E-05-2.85710E-05-1.64510E-10 1.84624E-18-1.09012E-18
 -1       649 9.52375E-05-2.85720E-05-2.85710E-05-9.07494E-10 2.21682E-18 2.39343E-19
 -1       650 8.19873E-05-1.61882E-05-2.81899E-05 8.41205E-06 1.51211E-18 6.63075E-19
 -1       651 8.72865E-05-2.00372E-05-2.88166E-05 6.46972E-06 9.85741E-19 5.47017E-19
 -1       652 9.06144E-05-2.28882E-05-2.90224E-05 4.84295E-06 6.11515E-19 1.55481E-19
 -1       653 9.26368E-05-2.48724E-05-2.90397E-05 3.53764E-06 6.81902E-19-6.06578E-19
 -1       654 9.38297E-05-2.62000E-05-2.89826E-05 2.53660E-06-5.63123E-19-1.79120E-19
 -1       655 9.45135E-05-2.70659E-05-2.89051E-05 1.79505E-06 1.24921E-19 1.66827E-19
 -1       656 9.48933E-05-2.76209E-05-2.88304E-05 1.25898E-06 1.42134E-18 4.47821E-19
 -1       657 9.50962E-05-2.79726E-05-2.87669E-05 8.77629E-07 7.94838E-19 9.13517E-19
 -1       658 9.51988E-05-2.81938E-05-2.87162E-05 6.09002E-07-3.45216E-20-1.81274E-19
 -1       659 9.52461E-05-2.83323E-05-2.86772E-05 4.20791E-07 5.49442E-19 4.02482E-19
 -1       660 9.52643E-05-2.84191E-05-2.86478E-05 2.89230E-07-3.07784E-19-2.37792E-21
 -1       661 9.52679E-05-2.84736E-05-2.86261E-05 1.97325E-07 1.25660E-18-4.90393E-19
 -1       662 9.52649E-05-2.85080E-05-2.86101E-05 1.33134E-07 4.74763E-19-1.47260E-18
 -1       663 9.52597E-05-2.85299E-05-2.85984E-05 8.83431E-08 1.10185E-18 7.99366E-19
 -1       664 9.52542E-05-2.85441E-05-2.85900E-05 5.71773E-08 1.11435E-19 5.20808E-19
 -1       665 9.52493E-05-2.85534E-05-2.85839E-05 3.56186E-08-8.38109E-19 2.18065E-18
 -1       666 9.52454E-05-2.85596E-05-2.85796E-05 2.08550E-08 3.76835E-20 3.01497E-18
 -1       667 9.52424E-05-2.85638E-05-2.85766E-05 1.09038E-08 3.84885E-19 3.05989E-18
 -1       668 9.52403E-05-2.85666E-05-2.85744E-05 4.35499E-09-7.89185E-19 3.88506E-18
 -1       669 9.52388E-05-2.85685E-05-2.85730E-05 1.98995E-10-2.33360E-18 2.25162E-18
 -1       670 9.52378E-05-2.85698E-05-2.85720E-05-2.29125E-09 4.44040E-19 1.48854E-18
 -1       671 9.52372E-05-2.85706E-05-2.85714E-05-3.64035E-09 2.95863E-18 1.51696E-18
 -1       672 9.52369E-05-2.85712E-05-2.85710E-05-4.22623E-09 1.11655E-18 1.56169E-18
 -1       673 9.52367E-05-2.85715E-05-2.85708E-05-4.31947E-09 2.93560E-19 2.60513E-18
 -1       674 9.52366E-05-2.85717E-05-2.85707E-05-4.11163E-09-7.65578E-19 3.81166E-18
 -1       675 9.52366E-05-2.85718E-05-2.85706E-05-3.73596E-09-1.15842E-18 3.46927E-18
 -1       676 9.52367E-05-2.85718E-05-2.85707E-05-3.28277E-09 8.03959E-19 4.36955E-18
 -1       677 9.52367E-05-2.85718E-05-2.85707E-05-2.81092E-09-1.33478E-20 2.04918E-18
 -1       678 9.52368E-05-2.85717E-05-2.85707E-05-2.35638E-09 1.26090E-18 7.38503E-19
 -1       679 9.52369E-05-2.85717E-05-2.85708E-05-1.93896E-09 2.93934E-18 1.89201E-18
 -1       680 9.52369E-05-2.85716E-05-2.85709E-05-1.57084E-09 1.86201E-18 2.08190E-18
 -1       681 9.52370E-05-2.85716E-05-2.85709E-05-1.25638E-09 2.41098E-18 1.41591E-18
 -1       682 9.52379E-05-2.85723E-05-2.85710E-05-4.80698E-10 1.51571E-18-2.56987E-18
 -1       683 1.37533E-04-3.00312E-05-4.64602E-05 1.06076E-05 1.56304E-18-2.93815E-19
 -1       684 9.52377E-05-2.85722E-05-2.85710E-05-7.38717E-10 1.18874E-18 3.11030E-18
 -1       685 9.52380E-05-2.85724E-05-2.85710E-05 1.71090E-10 2.08750E-18 2.81319E-18
 -1       686 9.52379E-05-2.85723E-05-2.85710E-05 4.80871E-10 8.27762E-19-1.26796E-18
 -1       687 9.52377E-05-2.85722E-05-2.85710E-05 7.36953E-10 1.05362E-18-1.37294E-18
 -1       688 9.52375E-05-2.85720E-05-2.85710E-05 8.99528E-10 1.82090E-18 2.21751E-18
 -1       689 1.44239E-04-5.00484E-05-4.06341E-05-2.75683E-06 1.79271E-18 1.98073E-19
 -1       690 9.52371E-05-2.85716E-05-2.85710E-05 8.78452E-10 3.03025E-18 1.12315E-18
 -1       691 6.56383E-05-8.45407E-06-2.43281E-05 1.49696E-05-1.15142E-18 6.75423E-19
 -1       692 1.38586E-04-4.43383E-05-4.05335E-05 9.53743E-06 5.80648E-20 1.94307E-18
 -1       693 1.29705E-04-1.23419E-05-5.08303E-05 9.06744E-06 1.36420E-18-7.41564E-19
 -1       694 7.95596E-05-3.49150E-05-1.87793E-05-4.62869E-05 1.19691E-18 2.19546E-18
 -1       695 1.35083E-04-5.82854E-05-3.29712E-05-2.14506E-05 1.55629E-18-2.62051E-21
 -1       696 1.16500E-04-5.42902E-05-2.64688E-05-3.79660E-05 1.03436E-18-2.43534E-19
 -1       697 1.28619E-04-1.00597E-05-5.13777E-05-1.15113E-05-5.17537E-19-5.48388E-19
 -1       698 1.04588E-04-2.24320E-05-3.52210E-05-1.41168E-05 9.45667E-19-1.72791E-18
 -1       699 1.27163E-04-1.90711E-05-4.66227E-05-1.43112E-05-1.75018E-19-4.97605E-19
 -1       700 1.22685E-04-3.96524E-05-3.56612E-05 1.03488E-05 1.27437E-18 1.33450E-18
 -1       701 1.16306E-04-2.85310E-05-3.76210E-05-1.03487E-05 1.17819E-18-4.07105E-19
 -1       702 1.21331E-04-6.71125E-06-4.95351E-05 3.78587E-06 9.53680E-19-1.30317E-18
 -1       703 1.22128E-04-3.43894E-05-3.76706E-05-3.73094E-06 1.02996E-18 3.35521E-19
 -1       704 9.52373E-05-2.85718E-05-2.85709E-05 1.01164E-09 2.78805E-18 7.21928E-19
 -1       705 7.22429E-05-2.32255E-05-2.08076E-05-3.41398E-05 5.37462E-19 1.66626E-18
 -1       706 8.12743E-05-1.67889E-05-2.76348E-05 1.57472E-06 1.17468E-18 1.35640E-18
 -1       707 1.00870E-04-2.20730E-05-3.37714E-05-1.17423E-05 6.29064E-19-1.76709E-18
 -1       708 1.18487E-04-6.72060E-06-4.82591E-05-6.41652E-06 2.40663E-19-1.53585E-18
 -1       709 9.92067E-05-2.07874E-05-3.36045E-05-7.76045E-06 4.92437E-19-1.59282E-18
 -1       710 9.78882E-05-1.99779E-05-3.33865E-05-2.53595E-06 3.15946E-19-1.48622E-18
 -1       711 9.77936E-05-2.08776E-05-3.29633E-05 2.97046E-06 2.36177E-19-1.10365E-18
 -1       712 9.90293E-05-2.36574E-05-3.23037E-05 7.32091E-06 3.38873E-19-9.91089E-19
 -1       713 1.00853E-04-2.73923E-05-3.14850E-05 9.67587E-06 4.58483E-19-8.86985E-19
 -1       714 1.02359E-04-3.08530E-05-3.06455E-05 9.86307E-06 7.69534E-19-5.36477E-19
 -1       715 1.02963E-04-3.31708E-05-2.99111E-05 8.56973E-06 6.03967E-19-3.34764E-20
 -1       716 1.02635E-04-3.41660E-05-2.93439E-05 6.61247E-06 5.92749E-19 2.12754E-19
 -1       717 1.01646E-04-3.40884E-05-2.89539E-05 4.61977E-06 4.03832E-19 1.87145E-19
 -1       718 1.00360E-04-3.33593E-05-2.87150E-05 2.93880E-06 7.06441E-20-1.34107E-19
 -1       719 9.90654E-05-3.23612E-05-2.85878E-05 1.67927E-06-9.65975E-19-2.13961E-19
 -1       720 9.79353E-05-3.13566E-05-2.85339E-05 8.16070E-07-1.09253E-18-3.80227E-19
 -1       721 9.70384E-05-3.04866E-05-2.85224E-05 2.69564E-07-5.73130E-19-6.85307E-19
 -1       722 9.63764E-05-2.98029E-05-2.85316E-05-4.76286E-08 6.61666E-19-6.54378E-20
 -1       723 9.59164E-05-2.93043E-05-2.85481E-05-2.10400E-07 1.13261E-18 2.55135E-19
 -1       724 9.56138E-05-2.89632E-05-2.85646E-05-2.75629E-07 1.32071E-18-5.18019E-19
 -1       725 9.54256E-05-2.87444E-05-2.85776E-05-2.83375E-07 4.76599E-19 6.09573E-19
 -1       726 9.53154E-05-2.86138E-05-2.85864E-05-2.60281E-07-4.63319E-19 1.30107E-18
 -1       727 9.52559E-05-2.85431E-05-2.85912E-05-2.23217E-07-1.25880E-19-1.45888E-19
 -1       728 9.52273E-05-2.85107E-05-2.85928E-05-1.82296E-07-4.84313E-20-9.29061E-19
 -1       729 9.52166E-05-2.85013E-05-2.85923E-05-1.43162E-07 4.65097E-19 1.25838E-19
 -1       730 9.52153E-05-2.85045E-05-2.85903E-05-1.08606E-07 1.01457E-18 2.16799E-19
 -1       731 9.52183E-05-2.85136E-05-2.85877E-05-7.96786E-08 6.00302E-19-1.00109E-18
 -1       732 9.52227E-05-2.85246E-05-2.85849E-05-5.64235E-08 5.79026E-20-1.46675E-19
 -1       733 9.52272E-05-2.85354E-05-2.85822E-05-3.83510E-08-3.73868E-19 8.66699E-19
 -1       734 9.52310E-05-2.85450E-05-2.85797E-05-2.47338E-08-6.64922E-19 1.20117E-18
 -1       735 9.52339E-05-2.85528E-05-2.85776E-05-1.47828E-08-8.83434E-20 1.41978E-18
 -1       736 9.52360E-05-2.85589E-05-2.85759E-05-7.74553E-09 6.32304E-19 1.04374E-18
 -1       737 9.52373E-05-2.85635E-05-2.85745E-05-2.95496E-09-3.17342E-21 7.11206E-19
 -1       738 9.52381E-05-2.85668E-05-2.85734E-05 1.51546E-10 1.49174E-18 2.36402E-18
 -1       739 9.52385E-05-2.85691E-05-2.85726E-05 2.03129E-09-6.37751E-19 2.39291E-18
 -1       740 9.52387E-05-2.85706E-05-2.85720E-05 3.04470E-09-1.00950E-18 2.29846E-18
 -1       741 9.52387E-05-2.85716E-05-2.85716E-05 3.46811E-09-4.21623E-19 1.15139E-18
 -1       742 9.52385E-05-2.85721E-05-2.85713E-05 3.50786E-09-2.03044E-19 4.38277E-19
 -1       743 9.52383E-05-2.85723E-05-2.85711E-05 3.31389E-09 1.98794E-18-2.44423E-19
 -1       744 9.52382E-05-2.85724E-05-2.85710E-05 2.99180E-09 3.05130E-19-7.08816E-19
 -1       745 9.52380E-05-2.85724E-05-2.85710E-05 2.61331E-09-1.44126E-18-7.94866E-19
 -1       746 9.52378E-05-2.85723E-05-2.85709E-05 2.22476E-09-1.12795E-18-1.10836E-18
 -1       747 9.52376E-05-2.85721E-05-2.85709E-05 1.85340E-09 6.10007E-19-3.22743E-18
 -1       748 9.52375E-05-2.85720E-05-2.85709E-05 1.51446E-09 7.55811E-19-7.46173E-19
 -1       749 9.52374E-05-2.85719E-05-2.85709E-05 1.25140E-09 1.92672E-18 2.11449E-18
 -1       750 9.52383E-05-2.85726E-05-2.85710E-05 6.36336E-12 1.34687E-18 1.45550E-18
 -1       751 7.36567E-05-1.24288E-05-2.62140E-05 1.85775E-07 1.98205E-19 3.84990E-19
 -1       752 8.97111E-05-2.29020E-05-2.86324E-05 1.97642E-06 1.59018E-18 1.39315E-18
 -1       753 9.18538E-05-2.47631E-05-2.87531E-05 1.72032E-06 2.01268E-19 1.41346E-18
 -1       754 9.32018E-05-2.60465E-05-2.87807E-05 1.40100E-06-4.96896E-19 9.82642E-19
 -1       755 9.40347E-05-2.69115E-05-2.87670E-05 1.09476E-06 4.21715E-19 8.92060E-19
 -1       756 9.45407E-05-2.74851E-05-2.87380E-05 8.32263E-07 1.33742E-18 1.56511E-18
 -1       757 9.48431E-05-2.78616E-05-2.87063E-05 6.20405E-07 9.13002E-19 1.39258E-18
 -1       758 9.50208E-05-2.81070E-05-2.86773E-05 4.55518E-07-6.99662E-21 4.61283E-19
 -1       759 9.51231E-05-2.82667E-05-2.86528E-05 3.30116E-07 6.88293E-19 8.88851E-19
 -1       760 9.51809E-05-2.83706E-05-2.86330E-05 2.36197E-07 1.04463E-18 8.49443E-19
 -1       761 9.52125E-05-2.84385E-05-2.86174E-05 1.66645E-07 9.16065E-19 1.55024E-18
 -1       762 9.52291E-05-2.84832E-05-2.86054E-05 1.15620E-07-2.88444E-19 2.65145E-19
 -1       763 9.52374E-05-2.85128E-05-2.85963E-05 7.85277E-08 2.66034E-19 4.73678E-19
 -1       764 9.52412E-05-2.85327E-05-2.85893E-05 5.18359E-08-1.90686E-18 2.28460E-18
 -1       765 9.52425E-05-2.85460E-05-2.85842E-05 3.28625E-08-9.74549E-19 4.01430E-18
 -1       766 9.52426E-05-2.85551E-05-2.85803E-05 1.95832E-08 2.43679E-19 3.64157E-18
 -1       767 9.52422E-05-2.85613E-05-2.85775E-05 1.04758E-08 2.16806E-19 2.98793E-18
 -1       768 9.52415E-05-2.85655E-05-2.85754E-05 4.39750E-09 4.39926E-19 2.40264E-18
 -1       769 9.52408E-05-2.85683E-05-2.85739E-05 4.93291E-10-1.72013E-18 1.51539E-18
 -1       770 9.52402E-05-2.85701E-05-2.85729E-05-1.87427E-09 1.55736E-18 1.88030E-18
 -1       771 9.52397E-05-2.85713E-05-2.85722E-05-3.17735E-09 1.66801E-18 4.05113E-18
 -1       772 9.52392E-05-2.85720E-05-2.85716E-05-3.76261E-09 3.08108E-19 4.64594E-18
 -1       773 9.52388E-05-2.85724E-05-2.85713E-05-3.88153E-09-8.57591E-20 3.87658E-18
 -1       774 9.52384E-05-2.85725E-05-2.85711E-05-3.71368E-09-1.72116E-18 3.56566E-18
 -1       775 9.52381E-05-2.85725E-05-2.85710E-05-3.38460E-09-1.08570E-18 3.18348E-18
 -1       776 9.52379E-05-2.85724E-05-2.85709E-05-2.97953E-09 1.03282E-18 4.26714E-18
 -1       777 9.52377E-05-2.85723E-05-2.85709E-05-2.55401E-09 3.05129E-18 4.24254E-18
 -1       778 9.52376E-05-2.85722E-05-2.85709E-05-2.14271E-09 1.70454E-18 1.25400E-18
 -1       779 9.52375E-05-2.85720E-05-2.85709E-05-1.75900E-09 2.94748E-18 3.79095E-19
 -1       780 9.52382E-05-2.85725E-05-2.85710E-05-3.97279E-10 3.55851E-19-1.83991E-18
 -1       781 1.33468E-04-4.16649E-05-3.95369E-05 7.23600E-06 1.52426E-18-8.13747E-19
 -1       782 5.21718E-05-4.81549E-06-2.00526E-05-7.88981E-06-1.15192E-18 4.85456E-20
 -1       783 9.52378E-05-2.85722E-05-2.85710E-05 1.02320E-09 3.49392E-18 1.85793E-19
 -1       784 1.32838E-04-3.73128E-05-4.11276E-05-4.15289E-06 2.75881E-19 9.05141E-19
 -1       785 8.63709E-05-2.02890E-05-2.83208E-05 2.01568E-06 9.36779E-20 1.52767E-18
 -1       786 9.52380E-05-2.85724E-05-2.85710E-05 7.57657E-10 2.77243E-18-1.44159E-18
 -1       787 1.01037E-04-2.17715E-05-3.39716E-05-1.42715E-05 8.77383E-19-1.94379E-18
 -1       788 9.52382E-05-2.85725E-05-2.85710E-05 4.05114E-10 1.51217E-18 7.35736E-19
 -1       789 1.23364E-04-2.18470E-05-4.37484E-05 1.18981E-05 1.60420E-18-7.73500E-19
 -1       790 1.01387E-04-4.28655E-05-2.49548E-05-3.51185E-05 1.06943E-18 5.50955E-19
 -1       791 9.52376E-05-2.85720E-05-2.85710E-05-1.17678E-09 2.44802E-18-7.81686E-19
 -1       792 1.23910E-04-5.41412E-05-2.98790E-05-2.33485E-05 5.40903E-19-1.20950E-19
 -1       793 5.78629E-05-1.15011E-05-1.96074E-05-2.34693E-05-1.13612E-19 1.10998E-18
 -1       794 1.34219E-04-5.21193E-05-3.52487E-05-5.27298E-06 1.37893E-18 3.87511E-19
 -1       795 1.17924E-04-1.24558E-05-4.54196E-05-1.18580E-05 1.30165E-19-1.09042E-18
 -1       796 1.26136E-04-2.79630E-05-4.22078E-05-1.31506E-05 2.30598E-19-7.46646E-20
 -1       797 9.52379E-05-2.85723E-05-2.85710E-05-9.60034E-10 2.73562E-19 1.76141E-18
 -1       798 9.52376E-05-2.85720E-05-2.85709E-05-1.45527E-09 1.48322E-18 3.16113E-19
 -1       799 9.52381E-05-2.85725E-05-2.85710E-05-6.99700E-10-1.11342E-18-1.12416E-18
 -1       800 1.16145E-04-1.46789E-05-4.36367E-05 8.85385E-06 8.09605E-19-1.06990E-18
 -1       801 1.06940E-04-2.23594E-05-3.62520E-05-1.35417E-05 7.02125E-19-1.43016E-18
 -1       802 6.45154E-05-8.45656E-06-2.39407E-05-3.04485E-06-3.15751E-20-1.04122E-19
 -1       803 1.13300E-04-2.42374E-05-3.81971E-05-1.40658E-05 6.51345E-19-9.12724E-19
 -1       804 9.52376E-05-2.85720E-05-2.85710E-05 1.15661E-09 2.15668E-18 1.82415E-18
 -1       805 1.18664E-04-2.01187E-05-4.23606E-05-1.42431E-05 3.46562E-19-6.22162E-19
 -1       806 8.98941E-05-3.15664E-05-2.49574E-05-2.80924E-05 8.46891E-19 5.92483E-19
 -1       807 1.04381E-04-2.05173E-05-3.59371E-05-1.14777E-05 5.81247E-19-1.63818E-18
 -1       808 1.02291E-04-1.79979E-05-3.61206E-05-6.67620E-06 5.56969E-19-1.56451E-18
 -1       809 1.01374E-04-1.75656E-05-3.59186E-05-1.25034E-07 5.77064E-19-1.20583E-18
 -1       810 1.02284E-04-2.02301E-05-3.51850E-05 6.03081E-06 2.08866E-19-1.33142E-18
 -1       811 1.04910E-04-2.56291E-05-3.39564E-05 9.81831E-06 5.52849E-19-1.11690E-18
 -1       812 1.06988E-04-3.09520E-05-3.25899E-05 1.03871E-05 8.61470E-19-5.63312E-19
 -1       813 1.07810E-04-3.47685E-05-3.13067E-05 8.81787E-06 9.61521E-19-3.90520E-19
 -1       814 1.07121E-04-3.64893E-05-3.02719E-05 6.31087E-06 7.16049E-19-3.20610E-19
 -1       815 1.05377E-04-3.64802E-05-2.95286E-05 3.85918E-06 3.37637E-19-5.46029E-19
 -1       816 1.03212E-04-3.54401E-05-2.90460E-05 1.95528E-06-9.70852E-22-1.15286E-18
 -1       817 1.01096E-04-3.39844E-05-2.87622E-05 6.85082E-07-2.79857E-20-8.69980E-19
 -1       818 9.92917E-05-3.25252E-05-2.86141E-05-5.69236E-08-1.18114E-18-1.38985E-19
 -1       819 9.78892E-05-3.12727E-05-2.85498E-05-4.28392E-07-1.13742E-18 8.85866E-19
 -1       820 9.68723E-05-3.02969E-05-2.85321E-05-5.68607E-07-1.44679E-19 9.05508E-19
 -1       821 9.61772E-05-2.95902E-05-2.85371E-05-5.78984E-07 1.05763E-18 8.27406E-19
 -1       822 9.57277E-05-2.91095E-05-2.85506E-05-5.25261E-07 1.08578E-18 5.40654E-19
 -1       823 9.54538E-05-2.88022E-05-2.85649E-05-4.46453E-07 1.17949E-18 4.00282E-19
 -1       824 9.52982E-05-2.86195E-05-2.85766E-05-3.63720E-07 7.52569E-19 2.51366E-20
 -1       825 9.52185E-05-2.85209E-05-2.85846E-05-2.87357E-07-3.92438E-19 6.47747E-19
 -1       826 9.51845E-05-2.84763E-05-2.85892E-05-2.21518E-07-5.24604E-19 1.04977E-18
 -1       827 9.51762E-05-2.84639E-05-2.85910E-05-1.67100E-07-1.20282E-19-2.57847E-19
 -1       828 9.51810E-05-2.84693E-05-2.85907E-05-1.23426E-07 1.71183E-18-5.70695E-19
 -1       829 9.51913E-05-2.84830E-05-2.85892E-05-8.91636E-08 9.96146E-20 5.69422E-19
 -1       830 9.52027E-05-2.84996E-05-2.85870E-05-6.28074E-08 6.23870E-19 3.28299E-19
 -1       831 9.52132E-05-2.85159E-05-2.85846E-05-4.29050E-08-3.38693E-19-1.04025E-18
 -1       832 9.52218E-05-2.85302E-05-2.85821E-05-2.81586E-08 3.80288E-19-7.10802E-19
 -1       833 9.52284E-05-2.85421E-05-2.85799E-05-1.74567E-08-4.58693E-19 3.41266E-19
 -1       834 9.52332E-05-2.85514E-05-2.85779E-05-9.87383E-09 3.47314E-20 6.13179E-19
 -1       835 9.52364E-05-2.85585E-05-2.85762E-05-4.65539E-09-1.56725E-19-1.10833E-18
 -1       836 9.52385E-05-2.85637E-05-2.85749E-05-1.19692E-09 1.24633E-18-1.38706E-18
 -1       837 9.52396E-05-2.85674E-05-2.85738E-05 9.77818E-10 1.07345E-18-1.40299E-18
 -1       838 9.52401E-05-2.85698E-05-2.85730E-05 2.23797E-09-4.14738E-20 6.70287E-19
 -1       839 9.52402E-05-2.85714E-05-2.85724E-05 2.86487E-09-1.69653E-18 1.73299E-18
 -1       840 9.52401E-05-2.85723E-05-2.85719E-05 3.06903E-09-5.26992E-19 1.93464E-18
 -1       841 9.52398E-05-2.85728E-05-2.85716E-05 3.00473E-09 1.37541E-18 2.12673E-18
 -1       842 9.52394E-05-2.85729E-05-2.85713E-05 2.78240E-09-4.43225E-19 2.84553E-19
 -1       843 9.52390E-05-2.85729E-05-2.85712E-05 2.47872E-09-9.92696E-20-1.40164E-18
 -1       844 9.52387E-05-2.85728E-05-2.85711E-05 2.14480E-09-1.34097E-18-2.06366E-19
 -1       845 9.52383E-05-2.85726E-05-2.85710E-05 1.81431E-09-5.27481E-19 1.75381E-20
 -1       846 9.52381E-05-2.85724E-05-2.85710E-05 1.50324E-09 3.03653E-18-1.49717E-19
 -1       847 9.31976E-05-2.63111E-05-2.86657E-05 4.57582E-07 2.40124E-19 3.16759E-18
 -1       848 9.20372E-05-2.52835E-05-2.86089E-05 2.89791E-07 2.19078E-19 3.25983E-18
 -1       849 9.02865E-05-2.38551E-05-2.84709E-05-1.59888E-07 7.39010E-19 3.04823E-18
 -1       850 9.39532E-05-2.70314E-05-2.86808E-05 4.80687E-07 4.44365E-19 2.31618E-18
 -1       851 9.44378E-05-2.75271E-05-2.86761E-05 4.36411E-07 9.11118E-19 2.33258E-18
 -1       852 9.47451E-05-2.78647E-05-2.86631E-05 3.67147E-07 6.03134E-19 2.79671E-18
 -1       853 9.49379E-05-2.80929E-05-2.86479E-05 2.94414E-07 3.56698E-19 3.18408E-18
 -1       854 9.50578E-05-2.82470E-05-2.86332E-05 2.28021E-07 1.11488E-18 1.90907E-18
 -1       855 9.51318E-05-2.83510E-05-2.86203E-05 1.71679E-07 1.13062E-18 1.60185E-18
 -1       856 9.51771E-05-2.84216E-05-2.86095E-05 1.25993E-07 1.15722E-18 1.43768E-18
 -1       857 9.52047E-05-2.84697E-05-2.86007E-05 9.01243E-08-3.46343E-19 1.82388E-18
 -1       858 9.52213E-05-2.85028E-05-2.85936E-05 6.26757E-08-1.17737E-18 2.37088E-18
 -1       859 9.52311E-05-2.85256E-05-2.85881E-05 4.21390E-08-1.75980E-18 1.69853E-18
 -1       860 9.52367E-05-2.85413E-05-2.85837E-05 2.71056E-08 4.70861E-19-3.90116E-19
 -1       861 9.52398E-05-2.85522E-05-2.85804E-05 1.63506E-08 5.26252E-20 1.36460E-18
 -1       862 9.52414E-05-2.85597E-05-2.85778E-05 8.85411E-09 3.45184E-19 1.67823E-18
 -1       863 9.52419E-05-2.85648E-05-2.85759E-05 3.79174E-09-1.03006E-18 3.21260E-18
 -1       864 9.52420E-05-2.85683E-05-2.85745E-05 5.12074E-10-1.96152E-19 1.53394E-18
 -1       865 9.52417E-05-2.85705E-05-2.85734E-05-1.48977E-09 8.19006E-19 2.13084E-18
 -1       866 9.52412E-05-2.85718E-05-2.85726E-05-2.59821E-09-7.18841E-19 3.07776E-18
 -1       867 9.52407E-05-2.85726E-05-2.85720E-05-3.10079E-09-6.09112E-19 4.59052E-18
 -1       868 9.52402E-05-2.85730E-05-2.85717E-05-3.20863E-09-7.54770E-20 3.90917E-18
 -1       869 9.52397E-05-2.85731E-05-2.85714E-05-3.07351E-09-1.42566E-18 1.77005E-18
 -1       870 9.52392E-05-2.85730E-05-2.85712E-05-2.80181E-09 2.18261E-20 1.63258E-18
 -1       871 9.52388E-05-2.85729E-05-2.85711E-05-2.46588E-09 1.74651E-18 1.48994E-18
 -1       872 9.52384E-05-2.85727E-05-2.85710E-05-2.11291E-09 3.09569E-18 3.48806E-19
 -1       873 9.52381E-05-2.85725E-05-2.85710E-05-1.77107E-09 2.83897E-18 1.13422E-18
 -1       874 8.39779E-05-1.95194E-05-2.76241E-05-2.95870E-06 6.45912E-19 1.50933E-18
 -1       875 9.52386E-05-2.85728E-05-2.85711E-05-2.34528E-10 8.70283E-19-2.59024E-19
 -1       876 9.52382E-05-2.85725E-05-2.85710E-05 1.08971E-09 3.09862E-18-1.76155E-18
 -1       877 1.21156E-04-3.22518E-05-3.81589E-05 1.13448E-05 1.05244E-18 1.67511E-19
 -1       878 1.24921E-04-5.08114E-05-3.17777E-05-1.02340E-05 1.90410E-19 7.76871E-19
 -1       879 1.12864E-04-4.68557E-05-2.82564E-05-2.30295E-05 3.86892E-19 7.55674E-19
 -1       880 8.77007E-05-2.19426E-05-2.81823E-05-1.12142E-06 5.89567E-19 2.24076E-18
 -1       881 1.11922E-04-9.56878E-06-4.40437E-05 5.70277E-07 5.36834E-19-1.41604E-18
 -1       882 1.27562E-04-4.50987E-05-3.53872E-05 3.50591E-06 8.20877E-19-2.55101E-19
 -1       883 7.87511E-05-1.66940E-05-2.65837E-05-6.26205E-06 3.28636E-19 9.45117E-19
 -1       884 7.45161E-05-1.90198E-05-2.37148E-05-2.22493E-05-1.95627E-19 6.46928E-19
 -1       885 1.10569E-04-1.09558E-05-4.28373E-05-5.79776E-06 5.01837E-19-1.56621E-18
 -1       886 7.33934E-05-1.46614E-05-2.51239E-05-1.11796E-05 3.21343E-20 1.16066E-18
 -1       887 9.52378E-05-2.85722E-05-2.85710E-05 1.32927E-09 2.94733E-18 1.67806E-19
 -1       888 9.52380E-05-2.85724E-05-2.85710E-05-1.24668E-09 2.44457E-18-1.18756E-19
 -1       889 9.52385E-05-2.85727E-05-2.85710E-05-6.15356E-10 9.99703E-19 2.01866E-19
 -1       890 9.52384E-05-2.85727E-05-2.85710E-05 7.07497E-10 4.32293E-18 1.41355E-18
 -1       891 1.15543E-04-2.52862E-05-3.87503E-05 1.15426E-05 8.91224E-19-2.02562E-19
 -1       892 6.67007E-05-1.27896E-05-2.29992E-05-1.63485E-05-6.78778E-19 9.07291E-19
 -1       893 9.52386E-05-2.85728E-05-2.85711E-05 2.49930E-10 2.37264E-18 2.58172E-18
 -1       894 1.10222E-04-2.02057E-05-3.85984E-05-1.32476E-05 6.17671E-19-1.05432E-18
 -1       895 1.05520E-04-1.41064E-05-3.92134E-05-4.53465E-06 5.08994E-19-1.07874E-18
 -1       896 1.05654E-04-1.55091E-05-3.87011E-05 3.56957E-06 3.71847E-19-1.19998E-18
 -1       897 1.13327E-04-3.61820E-05-3.30490E-05 8.93535E-06 1.02957E-18-3.92988E-19
 -1       898 1.12389E-04-3.92179E-05-3.13665E-05 5.42664E-06 8.19438E-19-6.63631E-19
 -1       899 1.09709E-04-3.92719E-05-3.01879E-05 2.24704E-06 7.06569E-20-9.00501E-19
 -1       900 1.06382E-04-3.77845E-05-2.93996E-05-1.29757E-09-6.80968E-20-1.15977E-18
 -1       901 1.03229E-04-3.57150E-05-2.89344E-05-1.20555E-06 6.15046E-20-1.17592E-18
 -1       902 1.00624E-04-3.36884E-05-2.86863E-05-1.66467E-06 2.38378E-19-9.87584E-19
 -1       903 9.86604E-05-3.19959E-05-2.85705E-05-1.68002E-06 2.19705E-19 8.23319E-19
 -1       904 9.72765E-05-3.07094E-05-2.85288E-05-1.48176E-06 2.36777E-20 2.27140E-18
 -1       905 9.63555E-05-2.97982E-05-2.85246E-05-1.21026E-06 3.62116E-19 3.01177E-18
 -1       906 9.57757E-05-2.91909E-05-2.85364E-05-9.41590E-07 7.29200E-19 1.97209E-18
 -1       907 9.54328E-05-2.88104E-05-2.85525E-05-7.08893E-07 5.58324E-19 7.66183E-19
 -1       908 9.52457E-05-2.85888E-05-2.85672E-05-5.21871E-07 5.66252E-19-4.97421E-19
 -1       909 9.51560E-05-2.84730E-05-2.85785E-05-3.78052E-07 2.83700E-19-6.60323E-19
 -1       910 9.51239E-05-2.84237E-05-2.85858E-05-2.70571E-07-1.09094E-19-5.34885E-19
 -1       911 9.51230E-05-2.84137E-05-2.85897E-05-1.91702E-07-1.32451E-18 1.14948E-18
 -1       912 9.51373E-05-2.84249E-05-2.85910E-05-1.34491E-07-3.98189E-19 1.02693E-18
 -1       913 9.51571E-05-2.84458E-05-2.85906E-05-9.32923E-08 9.38433E-19-1.21760E-18
 -1       914 9.51771E-05-2.84696E-05-2.85890E-05-6.37773E-08 1.39483E-18-4.98928E-19
 -1       915 9.51948E-05-2.84924E-05-2.85868E-05-4.27343E-08-2.88916E-19 1.38000E-19
 -1       916 9.52092E-05-2.85124E-05-2.85844E-05-2.78216E-08-5.41928E-19 3.94950E-19
 -1       917 9.52203E-05-2.85290E-05-2.85820E-05-1.73446E-08 1.38628E-18 2.50261E-19
 -1       918 9.52284E-05-2.85421E-05-2.85798E-05-1.00775E-08-3.32399E-19 1.80284E-18
 -1       919 9.52340E-05-2.85521E-05-2.85779E-05-5.12971E-09-7.58762E-19 3.75890E-19
 -1       920 9.52376E-05-2.85595E-05-2.85763E-05-1.85101E-09-9.46794E-20-4.35671E-19
 -1       921 9.52398E-05-2.85647E-05-2.85750E-05 2.36151E-10 1.45361E-18-2.66494E-19
 -1       922 9.52409E-05-2.85683E-05-2.85740E-05 1.48341E-09 2.24096E-18-2.94215E-20
 -1       923 9.52414E-05-2.85707E-05-2.85731E-05 2.14965E-09-6.63334E-19-2.48445E-20
 -1       924 9.52413E-05-2.85721E-05-2.85725E-05 2.42461E-09-6.22085E-19-7.40566E-19
 -1       925 9.52410E-05-2.85729E-05-2.85720E-05 2.44611E-09 4.94423E-19-2.77230E-19
 -1       926 9.52406E-05-2.85733E-05-2.85717E-05 2.31281E-09 1.91876E-19-5.89770E-19
 -1       927 9.52401E-05-2.85734E-05-2.85715E-05 2.09395E-09-1.26934E-18 1.41749E-19
 -1       928 9.52396E-05-2.85733E-05-2.85713E-05 1.83727E-09 2.16020E-19-1.47473E-18
 -1       929 9.52391E-05-2.85731E-05-2.85712E-05 1.57071E-09-1.37341E-18-9.60045E-19
 -1       930 9.52387E-05-2.85728E-05-2.85711E-05 1.31398E-09 1.06877E-18-2.39942E-18
 -1       931 9.26922E-05-2.60770E-05-2.85494E-05-6.09445E-07-1.90902E-20 2.79943E-18
 -1       932 9.41030E-05-2.72977E-05-2.86309E-05 4.01340E-08 1.26181E-18 9.91469E-19
 -1       933 1.20899E-04-4.55320E-05-3.23153E-05-5.46205E-07 6.46615E-20-7.00617E-19
 -1       934 9.35294E-05-2.67805E-05-2.86068E-05-1.77739E-07 9.14046E-19 2.23987E-18
 -1       935 9.15035E-05-2.51609E-05-2.84327E-05-1.40246E-06-1.94166E-19 2.64105E-18
 -1       936 9.44922E-05-2.76727E-05-2.86369E-05 1.34767E-07 9.60492E-19 1.30102E-18
 -1       937 9.47520E-05-2.79396E-05-2.86339E-05 1.62639E-07 8.65185E-20 1.44380E-18
 -1       938 9.49240E-05-2.81281E-05-2.86269E-05 1.56530E-07 1.01763E-18 1.24311E-18
 -1       939 9.50373E-05-2.82607E-05-2.86185E-05 1.35439E-07 1.38266E-18 9.72956E-19
 -1       940 9.51116E-05-2.83541E-05-2.86103E-05 1.09744E-07 9.63650E-19 1.30211E-18
 -1       941 9.51601E-05-2.84200E-05-2.86029E-05 8.47523E-08 8.40299E-19 1.88280E-18
 -1       942 9.51916E-05-2.84666E-05-2.85964E-05 6.28630E-08-8.12179E-19 1.39045E-18
 -1       943 9.52119E-05-2.84996E-05-2.85910E-05 4.48723E-08-6.16481E-19 1.00907E-18
 -1       944 9.52249E-05-2.85230E-05-2.85865E-05 3.07422E-08 3.75500E-19-4.31527E-19
 -1       945 9.52330E-05-2.85395E-05-2.85829E-05 2.00451E-08-1.74406E-18-1.00055E-19
 -1       946 9.52379E-05-2.85512E-05-2.85800E-05 1.22120E-08-3.35143E-19 8.55522E-19
 -1       947 9.52407E-05-2.85593E-05-2.85778E-05 6.66472E-09-5.49464E-19 9.88989E-19
 -1       948 9.52421E-05-2.85648E-05-2.85760E-05 2.87921E-09 5.46211E-19 1.09372E-18
 -1       949 9.52426E-05-2.85685E-05-2.85746E-05 4.10965E-10-1.12030E-18 1.08000E-18
 -1       950 9.52426E-05-2.85709E-05-2.85736E-05-1.10060E-09-4.43529E-19 1.69978E-18
 -1       951 9.52422E-05-2.85723E-05-2.85728E-05-1.93816E-09-1.25284E-18 1.46994E-18
 -1       952 9.52417E-05-2.85731E-05-2.85722E-05-2.31707E-09 5.65989E-19 6.67659E-19
 -1       953 9.52411E-05-2.85735E-05-2.85718E-05-2.39709E-09 5.44518E-20-6.55913E-19
 -1       954 9.52404E-05-2.85735E-05-2.85715E-05-2.29370E-09-1.05368E-18-4.70124E-19
 -1       955 9.52398E-05-2.85734E-05-2.85713E-05-2.08780E-09 7.20695E-19-2.26370E-19
 -1       956 9.52393E-05-2.85732E-05-2.85712E-05-1.83467E-09 3.15435E-18 1.45165E-19
 -1       957 9.52388E-05-2.85729E-05-2.85711E-05-1.57138E-09 2.26773E-18 9.54503E-20
 -1       958 8.61049E-05-2.57480E-05-2.58606E-05-1.99896E-05-2.03336E-19 3.80440E-19
 -1       959 8.49959E-05-2.15803E-05-2.71752E-05-8.75863E-06 5.48770E-19 6.96213E-19
 -1       960 8.98639E-05-2.40305E-05-2.82146E-05-2.77784E-06 3.87297E-19 2.10159E-18
 -1       961 8.77050E-05-2.27720E-05-2.78284E-05-5.08006E-06-1.80115E-19 1.30844E-18
 -1       962 1.10988E-04-1.50364E-05-4.12043E-05-1.10291E-05 6.21855E-19-1.10524E-18
 -1       963 1.15687E-04-4.59412E-05-2.98917E-05-1.17147E-05 3.77440E-19 5.39183E-19
 -1       964 9.52383E-05-2.85726E-05-2.85710E-05-9.65966E-10 4.82113E-19-1.63488E-18
 -1       965 1.02572E-04-3.83687E-05-2.75001E-05-2.01467E-05 8.41535E-19 1.45371E-18
 -1       966 1.07737E-04-1.64781E-05-3.91427E-05-9.92509E-06 7.35777E-19-9.81450E-19
 -1       967 1.18723E-04-3.83936E-05-3.44393E-05 8.24944E-06 1.19771E-18 1.56576E-19
 -1       968 8.31505E-05-2.15363E-05-2.64026E-05-1.34824E-05 8.43901E-20 7.05129E-19
 -1       969 1.11889E-04-3.00959E-05-3.50731E-05 1.09447E-05 1.09228E-18-5.69243E-19
 -1       970 9.52386E-05-2.85728E-05-2.85711E-05-1.24592E-09 4.57188E-18 9.17865E-19
 -1       971 9.52390E-05-2.85730E-05-2.85711E-05-4.55472E-10 4.41962E-18-1.59558E-18
 -1       972 9.52390E-05-2.85731E-05-2.85711E-05 1.14787E-10 3.48703E-18 2.58688E-18
 -1       973 9.02547E-05-2.65327E-05-2.73090E-05-1.24137E-05 1.78489E-20 1.18174E-18
 -1       974 9.43504E-05-2.76076E-05-2.86041E-05-2.21419E-07 4.34647E-19 1.27825E-18
 -1       975 1.14439E-04-4.32610E-05-3.05050E-05-3.23944E-06-2.55880E-20-8.64036E-19
 -1       976 1.08815E-04-4.01504E-05-2.94249E-05-5.29424E-06 2.35689E-19-5.81146E-19
 -1       977 1.04173E-04-3.68200E-05-2.88565E-05-5.61320E-06 2.98084E-19 1.27595E-19
 -1       978 1.00710E-04-3.39903E-05-2.85927E-05-5.02397E-06 5.45138E-19 2.84256E-20
 -1       979 9.83429E-05-3.18593E-05-2.84933E-05-4.06033E-06 1.91013E-18-5.62194E-19
 -1       980 9.68301E-05-3.03941E-05-2.84728E-05-3.08713E-06 1.19789E-18-1.85645E-19
 -1       981 9.59128E-05-2.94418E-05-2.84879E-05-2.23632E-06 6.10212E-19 4.04153E-19
 -1       982 9.53944E-05-2.88625E-05-2.85140E-05-1.56484E-06 4.16338E-19-1.48859E-19
 -1       983 9.51267E-05-2.85340E-05-2.85399E-05-1.06423E-06-5.47511E-19-6.73866E-19
 -1       984 9.50121E-05-2.83704E-05-2.85608E-05-7.08511E-07 1.14278E-19-3.63394E-19
 -1       985 9.49825E-05-2.83054E-05-2.85760E-05-4.62792E-07 3.27725E-19 1.25379E-20
 -1       986 9.49975E-05-2.82978E-05-2.85857E-05-2.97837E-07 6.36450E-19 2.45261E-19
 -1       987 9.50324E-05-2.83202E-05-2.85910E-05-1.89255E-07 1.25724E-18 1.18736E-18
 -1       988 9.50731E-05-2.83561E-05-2.85930E-05-1.18921E-07-6.39216E-19 2.00994E-18
 -1       989 9.51122E-05-2.83954E-05-2.85929E-05-7.39167E-08-3.94139E-19 2.41103E-18
 -1       990 9.51462E-05-2.84329E-05-2.85914E-05-4.53770E-08 5.31720E-19 1.71038E-18
 -1       991 9.51739E-05-2.84658E-05-2.85892E-05-2.73890E-08 1.23566E-19-6.17353E-19
 -1       992 9.51955E-05-2.84934E-05-2.85866E-05-1.60979E-08 8.71651E-19-1.23191E-18
 -1       993 9.52117E-05-2.85155E-05-2.85841E-05-9.03447E-09 1.18301E-18 3.13802E-19
 -1       994 9.52233E-05-2.85328E-05-2.85817E-05-4.63661E-09 3.92977E-19 3.07525E-19
 -1       995 9.52313E-05-2.85458E-05-2.85795E-05-1.92377E-09-9.03881E-19 9.70254E-19
 -1       996 9.52366E-05-2.85553E-05-2.85777E-05-2.81575E-10-7.86494E-19 1.40107E-18
 -1       997 9.52398E-05-2.85622E-05-2.85761E-05 6.76387E-10 1.13494E-18-3.17921E-19
 -1       998 9.52416E-05-2.85669E-05-2.85749E-05 1.19549E-09 1.46827E-18-3.83426E-19
 -1       999 9.52424E-05-2.85700E-05-2.85739E-05 1.43372E-09-1.82060E-19-1.61371E-18
 -1      1000 9.52425E-05-2.85719E-05-2.85731E-05 1.49447E-09-9.52361E-19-1.12170E-18
 -1      1001 9.52422E-05-2.85731E-05-2.85725E-05 1.44640E-09 1.80141E-18-2.08094E-18
 -1      1002 9.52417E-05-2.85736E-05-2.85720E-05 1.33553E-09-9.57800E-19-6.10251E-19
 -1      1003 9.52411E-05-2.85738E-05-2.85717E-05 1.19272E-09 1.61336E-19-1.06457E-18
 -1      1004 9.52404E-05-2.85737E-05-2.85715E-05 1.03837E-09-1.57374E-18-1.59953E-18
 -1      1005 9.52398E-05-2.85735E-05-2.85713E-05 8.86994E-10-1.99308E-19-2.52141E-18
 -1      1006 9.52391E-05-2.85731E-05-2.85711E-05 8.06994E-10 9.96994E-19 5.13675E-19
 -1      1007 9.28017E-05-2.64223E-05-2.84485E-05-1.89358E-06 4.36322E-19 7.63733E-19
 -1      1008 9.48156E-05-2.80471E-05-2.86151E-05 1.97280E-08 2.06555E-19 4.28810E-20
 -1      1009 9.49515E-05-2.81890E-05-2.86125E-05 5.32656E-08 2.19845E-18 6.41528E-19
 -1      1010 9.50462E-05-2.82943E-05-2.86080E-05 6.16667E-08-1.84225E-19 1.35120E-18
 -1      1011 9.51119E-05-2.83721E-05-2.86028E-05 5.76001E-08 5.17521E-19 1.80964E-18
 -1      1012 9.51570E-05-2.84293E-05-2.85976E-05 4.83272E-08 4.91678E-19 2.86030E-18
 -1      1013 9.51879E-05-2.84713E-05-2.85928E-05 3.77888E-08 9.79341E-21 1.73870E-18
 -1      1014 9.52087E-05-2.85021E-05-2.85886E-05 2.79465E-08 7.02639E-19 1.41447E-18
 -1      1015 9.52226E-05-2.85244E-05-2.85849E-05 1.96252E-08 1.42087E-19 9.97103E-19
 -1      1016 9.52316E-05-2.85405E-05-2.85819E-05 1.30307E-08-9.69404E-19-5.34848E-19
 -1      1017 9.52372E-05-2.85519E-05-2.85794E-05 8.05766E-09-5.70423E-19-6.61918E-19
 -1      1018 9.52405E-05-2.85599E-05-2.85774E-05 4.46793E-09-8.18270E-19 1.15939E-19
 -1      1019 9.52423E-05-2.85654E-05-2.85758E-05 1.98790E-09 3.30724E-19-2.31145E-19
 -1      1020 9.52430E-05-2.85691E-05-2.85745E-05 3.58069E-10-8.57817E-19 4.35832E-19
 -1      1021 9.52430E-05-2.85714E-05-2.85736E-05-6.45324E-10-1.53813E-18 5.70352E-19
 -1      1022 9.52427E-05-2.85728E-05-2.85728E-05-1.20394E-09 7.75829E-19-1.52281E-19
 -1      1023 9.52421E-05-2.85735E-05-2.85723E-05-1.45894E-09 2.22493E-18-5.85283E-19
 -1      1024 9.52415E-05-2.85738E-05-2.85719E-05-1.51611E-09-1.39861E-18-1.24052E-18
 -1      1025 9.52408E-05-2.85738E-05-2.85716E-05-1.45200E-09-7.61294E-19-9.42434E-19
 -1      1026 9.52401E-05-2.85736E-05-2.85714E-05-1.31974E-09-1.69611E-19 1.04360E-18
 -1      1027 9.52395E-05-2.85734E-05-2.85712E-05-1.15867E-09 2.96201E-18 2.55086E-19
 -1      1028 9.54972E-05-3.16365E-05-2.73731E-05-1.58333E-05-1.85386E-19 1.39825E-18
 -1      1029 9.19910E-05-2.59485E-05-2.83037E-05-3.27879E-06-4.33935E-19 7.86924E-19
 -1      1030 9.46221E-05-2.78574E-05-2.86135E-05-6.01808E-08 3.69326E-19 8.24432E-19
 -1      1031 1.07738E-04-4.04443E-05-2.88333E-05-1.17752E-05 5.49774E-19 1.10606E-18
 -1      1032 9.34672E-05-2.68871E-05-2.85339E-05-1.03605E-06 8.31536E-19-2.73637E-19
 -1      1033 9.10890E-05-2.55963E-05-2.80692E-05-5.43126E-06-2.17463E-19 1.05490E-18
 -1      1034 9.03723E-05-2.56349E-05-2.77406E-05-8.37994E-06 1.58322E-19 2.31287E-18
 -1      1035 9.39724E-05-2.72853E-05-2.85805E-05-5.19650E-07 1.39159E-18 7.54448E-20
 -1      1036 9.52395E-05-2.85733E-05-2.85712E-05-1.88676E-10 4.39113E-18-9.29563E-19
 -1      1037 9.52387E-05-2.85729E-05-2.85711E-05-9.92911E-10 6.35346E-18-2.20087E-18
 -1      1038 9.52397E-05-2.85735E-05-2.85713E-05 3.24472E-10 1.68843E-18 1.63318E-19
 -1      1039 9.99602E-05-3.38078E-05-2.83618E-05-8.48120E-06 9.60171E-20-6.43365E-20
 -1      1040 9.74570E-05-3.13330E-05-2.83365E-05-6.44112E-06 7.49671E-19-4.27432E-21
 -1      1041 9.59866E-05-2.97935E-05-2.83663E-05-4.68055E-06 1.44373E-18-6.15895E-19
 -1      1042 9.52191E-05-2.88922E-05-2.84250E-05-3.22623E-06 1.15315E-18-1.28464E-18
 -1      1043 9.48535E-05-2.84029E-05-2.84784E-05-2.15428E-06-5.62979E-20-5.29377E-19
 -1      1044 9.47262E-05-2.81746E-05-2.85219E-05-1.39687E-06-3.81064E-19-9.63799E-19
 -1      1045 9.47233E-05-2.80992E-05-2.85530E-05-8.80929E-07 5.92416E-19-1.25536E-18
 -1      1046 9.47826E-05-2.81091E-05-2.85742E-05-5.38921E-07 1.00586E-18-2.91899E-19
 -1      1047 9.48593E-05-2.81562E-05-2.85870E-05-3.20546E-07 8.32904E-19 1.36280E-18
 -1      1048 9.49379E-05-2.82190E-05-2.85937E-05-1.84535E-07 1.49418E-18 1.56120E-18
 -1      1049 9.50088E-05-2.82839E-05-2.85964E-05-1.02216E-07 3.84676E-19 7.57738E-19
 -1      1050 9.50687E-05-2.83440E-05-2.85963E-05-5.38613E-08 2.41235E-19 1.36512E-18
 -1      1051 9.51168E-05-2.83961E-05-2.85946E-05-2.64010E-08 3.03956E-19 1.97187E-18
 -1      1052 9.51542E-05-2.84395E-05-2.85920E-05-1.14310E-08-5.60109E-19 1.60716E-18
 -1      1053 9.51825E-05-2.84745E-05-2.85891E-05-3.69792E-09 2.54988E-19 1.62718E-18
 -1      1054 9.52032E-05-2.85020E-05-2.85862E-05-9.67059E-12 1.62714E-18 1.28383E-18
 -1      1055 9.52180E-05-2.85232E-05-2.85835E-05 1.51629E-09 5.86894E-19 3.54972E-19
 -1      1056 9.52281E-05-2.85391E-05-2.85810E-05 1.95400E-09 6.94896E-19-3.07724E-20
 -1      1057 9.52348E-05-2.85507E-05-2.85789E-05 1.89263E-09-3.53016E-19 5.66571E-19
 -1      1058 9.52391E-05-2.85591E-05-2.85771E-05 1.63955E-09-1.24941E-18 1.74861E-18
 -1      1059 9.52415E-05-2.85649E-05-2.85757E-05 1.34415E-09 6.26559E-20-2.54189E-19
 -1      1060 9.52426E-05-2.85688E-05-2.85745E-05 1.07110E-09 3.83154E-19-1.52791E-18
 -1      1061 9.52430E-05-2.85713E-05-2.85736E-05 8.42194E-10-1.06191E-19-1.21778E-18
 -1      1062 9.52428E-05-2.85728E-05-2.85729E-05 6.59381E-10 9.07128E-19-1.03699E-18
 -1      1063 9.52423E-05-2.85736E-05-2.85723E-05 5.16765E-10 1.80800E-18-1.38540E-18
 -1      1064 9.52417E-05-2.85739E-05-2.85719E-05 4.06438E-10-1.40902E-19-8.64581E-19
 -1      1065 9.52410E-05-2.85739E-05-2.85716E-05 3.21895E-10-8.98305E-19-1.96932E-18
 -1      1066 9.52403E-05-2.85737E-05-2.85714E-05 2.56323E-10-9.21370E-19-5.70731E-19
 -1      1067 9.49983E-05-2.82579E-05-2.86031E-05-1.66159E-08 1.34914E-18 2.17578E-19
 -1      1068 9.49003E-05-2.81589E-05-2.86035E-05-6.81963E-08 3.76947E-19-5.90940E-19
 -1      1069 9.51247E-05-2.83979E-05-2.85972E-05 1.73182E-08-3.47332E-19 5.11079E-19
 -1      1070 9.51633E-05-2.84453E-05-2.85934E-05 1.89041E-08 1.59575E-19 1.51583E-18
 -1      1071 9.51908E-05-2.84814E-05-2.85897E-05 1.68530E-08 5.97085E-19 2.11461E-18
 -1      1072 9.52100E-05-2.85086E-05-2.85863E-05 1.34885E-08 3.46011E-19 1.08159E-18
 -1      1073 9.52231E-05-2.85287E-05-2.85833E-05 1.00053E-08 3.72652E-19 1.56023E-18
 -1      1074 9.52319E-05-2.85434E-05-2.85807E-05 6.94631E-09 4.60349E-21 1.21250E-18
 -1      1075 9.52374E-05-2.85540E-05-2.85786E-05 4.49639E-09-2.85120E-19-2.76617E-20
 -1      1076 9.52407E-05-2.85614E-05-2.85768E-05 2.65796E-09-1.86764E-19 5.15596E-19
 -1      1077 9.52424E-05-2.85665E-05-2.85754E-05 1.35200E-09-1.12920E-18 1.74894E-18
 -1      1078 9.52431E-05-2.85699E-05-2.85743E-05 4.73158E-10 4.48003E-19 2.03939E-19
 -1      1079 9.52432E-05-2.85719E-05-2.85734E-05-8.23672E-11-9.79926E-19-2.14770E-18
 -1      1080 9.52428E-05-2.85732E-05-2.85727E-05-4.04563E-10 1.42940E-18-5.15993E-19
 -1      1081 9.52422E-05-2.85737E-05-2.85722E-05-5.65802E-10 7.63844E-19-1.88095E-18
 -1      1082 9.52415E-05-2.85739E-05-2.85718E-05-6.21347E-10-2.08925E-18-1.47544E-18
 -1      1083 9.52408E-05-2.85739E-05-2.85715E-05-6.11334E-10-1.07370E-18-2.43974E-18
 -1      1084 9.52401E-05-2.85736E-05-2.85714E-05-3.84773E-10 2.10478E-18-2.68476E-18
 -1      1085 9.36717E-05-2.74208E-05-2.83931E-05-3.04168E-06 5.38214E-19-8.26218E-19
 -1      1086 9.61712E-05-3.10074E-05-2.79200E-05-1.09323E-05-5.53624E-20 1.06565E-18
 -1      1087 1.03012E-04-3.65284E-05-2.85029E-05-1.00296E-05 3.52279E-19 2.83270E-19
 -1      1088 9.50712E-05-2.83365E-05-2.86006E-05 7.89108E-09 2.23234E-19 4.01295E-20
 -1      1089 9.36105E-05-2.76626E-05-2.82654E-05-4.75178E-06 4.86828E-19 5.06988E-19
 -1      1090 9.38960E-05-2.74409E-05-2.84810E-05-1.87420E-06 2.64011E-19-5.29355E-19
 -1      1091 9.46041E-05-2.78924E-05-2.85907E-05-3.40209E-07 8.35902E-19 3.23109E-19
 -1      1092 9.43962E-05-2.77303E-05-2.85712E-05-6.37061E-07 7.66160E-19 1.53937E-18
 -1      1093 9.47709E-05-2.80372E-05-2.86002E-05-1.66080E-07 1.28751E-18 2.02255E-19
 -1      1094 9.41350E-05-2.84070E-05-2.81704E-05-6.35851E-06 1.15595E-18 6.22458E-19
 -1      1095 9.42844E-05-2.76741E-05-2.85471E-05-9.87844E-07 7.60302E-19 1.23314E-18
 -1      1096 1.13566E-04 2.41000E-10-4.05035E-05-4.39925E-05-3.36272E-19-4.39483E-18
 -1      1097 8.55288E-05 6.01874E-11-3.61847E-05-2.89271E-05-4.96573E-20-5.98138E-18
 -1      1098 8.38105E-05 3.76791E-11-3.57544E-05-2.37288E-05 6.40569E-21-5.42722E-18
 -1      1099 8.54579E-05 3.66588E-11-3.63558E-05-1.96750E-05 4.23516E-20-4.50195E-18
 -1      1100 8.79647E-05 4.12807E-11-3.72824E-05-1.52138E-05 5.60101E-20-3.53315E-18
 -1      1101 9.01781E-05 4.91943E-11-3.80669E-05-9.86754E-06 6.13040E-20-2.54122E-18
 -1      1102 9.11629E-05 5.87395E-11-3.83199E-05-3.36054E-06 6.52877E-20-1.62523E-18
 -1      1103 8.99323E-05 6.64778E-11-3.76736E-05 4.27726E-06 6.99861E-20-7.60080E-19
 -1      1104 8.55874E-05 6.61469E-11-3.58494E-05 1.23960E-05 6.83979E-20 8.20431E-20
 -1      1105 7.78695E-05 4.99658E-11-3.28585E-05 1.94313E-05 6.54333E-20 7.58372E-19
 -1      1106 6.80701E-05 1.44308E-11-2.92738E-05 2.30710E-05 7.24213E-20 1.36247E-18
 -1      1107 5.95833E-05-3.08106E-11-2.63701E-05 2.13900E-05 7.47507E-20 1.92116E-18
 -1      1108 5.70301E-05-6.10685E-11-2.57712E-05 1.48483E-05 7.88270E-20 2.55104E-18
 -1      1109 6.37094E-05-5.49507E-11-2.85453E-05 6.77154E-06 7.03037E-20 3.49651E-18
 -1      1110 8.02502E-05-3.62849E-12-3.48317E-05 2.12284E-06 5.71747E-20 4.90950E-18
 -1      1111 1.04309E-04 9.25939E-11-4.34784E-05 6.91892E-06-1.69407E-21 6.83654E-18
 -1      1112 1.38115E-04 2.58184E-10-5.23984E-05 2.73886E-05-2.02017E-19 8.68516E-18
 -1      1113 1.26038E-04-2.40998E-05-3.86216E-05-2.78774E-05-9.30889E-19-3.73584E-18
 -1      1114 8.79834E-05-2.59630E-05-2.87498E-05-1.24157E-06-3.74812E-19-5.95019E-18
 -1      1115 7.65494E-05-2.29233E-05-2.38941E-05 2.39320E-07-8.84488E-20-8.16749E-18
 -1      1116 7.14333E-05-2.15386E-05-2.16508E-05 1.30820E-07-8.13218E-20-9.04790E-18
 -1      1117 6.83375E-05-2.06097E-05-2.05870E-05 5.75281E-08-7.39136E-20-9.82594E-18
 -1      1118 6.66886E-05-2.00987E-05-2.01014E-05 4.48271E-08-7.99619E-20-1.04038E-17
 -1      1119 6.64609E-05-2.00171E-05-2.00533E-05 7.31017E-08-7.40525E-20-1.07627E-17
 -1      1120 6.76992E-05-2.03749E-05-2.04232E-05 1.21245E-07-7.72918E-21-1.11534E-17
 -1      1121 7.02875E-05-2.11338E-05-2.11732E-05 1.67241E-07 3.01937E-20-1.12595E-17
 -1      1122 7.38928E-05-2.21946E-05-2.22123E-05 1.94500E-07 4.41880E-21-1.12519E-17
 -1      1123 7.80334E-05-2.34163E-05-2.34089E-05 1.96117E-07-1.46486E-19-1.16513E-17
 -1      1124 8.22040E-05-2.46508E-05-2.46230E-05 1.74883E-07 1.02509E-19-1.16430E-17
 -1      1125 8.59930E-05-2.57766E-05-2.57375E-05 1.39560E-07 1.57007E-20-1.11897E-17
 -1      1126 8.91459E-05-2.67175E-05-2.66761E-05 1.00054E-07 2.94890E-20-1.09914E-17
 -1      1127 9.15701E-05-2.74445E-05-2.74076E-05 6.39827E-08-1.12975E-19-1.05575E-17
 -1      1128 9.32981E-05-2.79658E-05-2.79368E-05 3.54442E-08-1.00559E-19-1.03849E-17
 -1      1129 9.44369E-05-2.83118E-05-2.82915E-05 1.54408E-08-3.45761E-22-1.02062E-17
 -1      1130 9.51218E-05-2.85220E-05-2.85092E-05 3.01504E-09 2.97736E-19-9.01528E-18
 -1      1131 9.54846E-05-2.86351E-05-2.86281E-05-3.63590E-09-9.63223E-20-9.07900E-18
 -1      1132 9.56362E-05-2.86841E-05-2.86810E-05-6.39188E-09 1.24781E-19-9.79995E-18
 -1      1133 9.56615E-05-2.86943E-05-2.86936E-05-6.81833E-09-1.79224E-19-9.59316E-18
 -1      1134 9.56196E-05-2.86837E-05-2.86842E-05-6.04719E-09 9.75220E-21-9.79311E-18
 -1      1135 9.55492E-05-2.86638E-05-2.86649E-05-4.80836E-09-1.42014E-20-8.28354E-18
 -1      1136 9.54732E-05-2.86417E-05-2.86429E-05-3.52087E-09-2.88615E-19-9.07412E-18
 -1      1137 9.54036E-05-2.86213E-05-2.86224E-05-2.39099E-09 4.98418E-20-1.00365E-17
 -1      1138 9.53459E-05-2.86042E-05-2.86050E-05-1.49381E-09 2.92213E-20-9.37207E-18
 -1      1139 9.53013E-05-2.85908E-05-2.85915E-05-8.32107E-10-4.93914E-20-8.75402E-18
 -1      1140 9.52687E-05-2.85810E-05-2.85815E-05-3.74638E-10-1.55941E-19-9.81420E-18
 -1      1141 9.52462E-05-2.85743E-05-2.85746E-05-7.87862E-11-2.89942E-19-1.06304E-17
 -1      1142 9.52318E-05-2.85699E-05-2.85700E-05 9.74245E-11 7.88966E-21-1.09338E-17
 -1      1143 9.52234E-05-2.85673E-05-2.85674E-05 1.89949E-10-1.09364E-20-8.05837E-18
 -1      1144 9.52192E-05-2.85659E-05-2.85660E-05 2.27107E-10 4.20170E-20-9.27801E-18
 -1      1145 9.52179E-05-2.85655E-05-2.85655E-05 2.29898E-10 1.61099E-20-1.00729E-17
 -1      1146 9.52184E-05-2.85656E-05-2.85656E-05 2.13130E-10 8.39486E-20-8.71861E-18
 -1      1147 9.52200E-05-2.85661E-05-2.85660E-05 1.86761E-10 4.82170E-19-8.68188E-18
 -1      1148 9.52221E-05-2.85667E-05-2.85666E-05 1.57155E-10 2.90409E-19-8.20526E-18
 -1      1149 9.52244E-05-2.85673E-05-2.85673E-05 1.28124E-10-3.65332E-19-8.81758E-18
 -1      1150 9.52266E-05-2.85680E-05-2.85680E-05 1.01750E-10-9.06426E-21-5.77869E-18
 -1      1151 9.52287E-05-2.85686E-05-2.85686E-05 7.89835E-11 2.69704E-19-2.54542E-18
 -1      1152 9.52305E-05-2.85691E-05-2.85691E-05 6.00729E-11 3.32658E-20-3.12931E-18
 -1      1153 9.52320E-05-2.85696E-05-2.85696E-05 4.48608E-11-2.16495E-19-4.27308E-18
 -1      1154 9.52333E-05-2.85700E-05-2.85700E-05 3.29736E-11-3.03593E-19-8.06153E-18
 -1      1155 9.52344E-05-2.85703E-05-2.85703E-05 2.39379E-11-1.32956E-19-9.87967E-18
 -1      1156 9.52352E-05-2.85706E-05-2.85706E-05 1.72368E-11-8.79034E-20-5.50262E-18
 -1      1157 9.52359E-05-2.85708E-05-2.85708E-05 1.23134E-11 6.94956E-19-2.35161E-18
 -1      1158 9.52364E-05-2.85709E-05-2.85709E-05 8.50467E-12-8.47063E-20 7.21318E-20
 -1      1159 9.52368E-05-2.85710E-05-2.85710E-05 4.87243E-12-3.69357E-19-2.15823E-18
 -1      1160 9.52371E-05-2.85711E-05-2.85711E-05-1.62868E-13-4.30594E-19-6.03933E-18
 -1      1161 9.52372E-05-2.85711E-05-2.85711E-05-9.62849E-12 2.82710E-19-5.34606E-18
 -1      1162 9.52372E-05-2.85712E-05-2.85712E-05-8.59980E-12 1.01298E-18-1.92008E-18
 -1      1163 1.74238E-04-4.99859E-05-5.35480E-05 1.14967E-05-1.68771E-19 9.46813E-18
 -1      1164 1.64014E-04-4.86414E-05-5.17264E-05-2.18899E-07-1.84256E-19 1.12269E-17
 -1      1165 1.80159E-04-5.37751E-05-5.41972E-05-1.44845E-06-8.70359E-20 1.23000E-17
 -1      1166 1.97504E-04-5.88679E-05-5.69128E-05-2.13911E-06 5.98746E-20 1.29204E-17
 -1      1167 1.98826E-04-5.91123E-05-5.55797E-05-2.08874E-07 4.83338E-20 1.36237E-17
 -1      1168 1.63646E-04-4.91540E-05-4.84369E-05 5.20307E-06-2.20758E-19 1.63554E-17
 -1      1169 1.03681E-04-2.94504E-05-3.99941E-05 8.20645E-06-2.76715E-19 1.87127E-17
 -1      1170 7.44854E-05-1.87240E-05-3.67129E-05 2.19027E-06-3.71106E-19 1.94728E-17
 -1      1171 9.53795E-05-2.49935E-05-3.97438E-05-5.00212E-06 1.06514E-19 1.84408E-17
 -1      1172 1.48919E-04-4.27770E-05-4.71832E-05-7.37239E-06 1.28961E-19 1.63791E-17
 -1      1173 1.90563E-04-5.78299E-05-5.38875E-05-4.27238E-06 1.43837E-19 1.33293E-17
 -1      1174 1.92140E-04-5.86112E-05-5.48392E-05-4.42808E-07-2.28699E-20 1.13806E-17
 -1      1175 1.71027E-04-5.17016E-05-5.05542E-05 1.09495E-06 1.95357E-19 1.07353E-17
 -1      1176 1.47363E-04-4.42342E-05-4.45342E-05 1.20034E-06 3.65084E-20 1.15167E-17
 -1      1177 1.28851E-04-3.85879E-05-3.91915E-05 8.77862E-07-1.33289E-19 1.24416E-17
 -1      1178 1.16232E-04-3.48158E-05-3.52950E-05 5.57172E-07 1.67038E-19 1.30600E-17
 -1      1179 1.08152E-04-3.24197E-05-3.27207E-05 3.32294E-07-1.37127E-19 1.16753E-17
 -1      1180 1.03127E-04-3.09304E-05-3.11027E-05 1.92523E-07 4.96507E-20 1.12175E-17
 -1      1181 1.00044E-04-3.00137E-05-3.01089E-05 1.10031E-07-4.59221E-19 1.12448E-17
 -1      1182 9.81602E-05-2.94514E-05-2.95037E-05 6.24697E-08 4.42016E-19 7.56899E-18
 -1      1183 9.70100E-05-2.91067E-05-2.91355E-05 3.53331E-08 2.33563E-20 4.18454E-18
 -1      1184 9.63061E-05-2.88951E-05-2.89110E-05 1.99212E-08-1.78139E-19 9.25244E-18
 -1      1185 9.58741E-05-2.87648E-05-2.87736E-05 1.11861E-08 3.23630E-20 8.33430E-18
 -1      1186 9.56081E-05-2.86844E-05-2.86893E-05 6.23964E-09 1.07945E-19 8.43120E-18
 -1      1187 9.54443E-05-2.86347E-05-2.86374E-05 3.43916E-09 1.21963E-19 6.81774E-18
 -1      1188 9.53435E-05-2.86041E-05-2.86056E-05 1.85317E-09-2.70791E-19 7.02013E-18
 -1      1189 9.52822E-05-2.85854E-05-2.85862E-05 9.54528E-10 2.14321E-19 7.21994E-18
 -1      1190 9.52455E-05-2.85742E-05-2.85746E-05 4.45541E-10-3.79260E-19 1.14447E-17
 -1      1191 9.52245E-05-2.85677E-05-2.85680E-05 1.58337E-10 2.15885E-19 1.09143E-17
 -1      1192 9.52133E-05-2.85642E-05-2.85644E-05-1.70265E-12 2.37824E-20 6.14965E-18
 -1      1193 9.52083E-05-2.85627E-05-2.85627E-05-8.80401E-11-4.06726E-19 6.78387E-18
 -1      1194 9.52072E-05-2.85623E-05-2.85623E-05-1.31105E-10 3.29572E-19 4.49949E-18
 -1      1195 9.52084E-05-2.85626E-05-2.85626E-05-1.48466E-10 5.46139E-19 2.23434E-18
 -1      1196 9.52109E-05-2.85633E-05-2.85633E-05-1.50495E-10-2.42756E-19 9.30481E-18
 -1      1197 9.52139E-05-2.85642E-05-2.85642E-05-1.43499E-10 9.29908E-20 1.07740E-17
 -1      1198 9.52172E-05-2.85652E-05-2.85652E-05-1.31435E-10 5.03194E-20 8.37098E-18
 -1      1199 9.52204E-05-2.85661E-05-2.85661E-05-1.16859E-10 7.03907E-19 3.47454E-18
 -1      1200 9.52234E-05-2.85670E-05-2.85670E-05-1.01446E-10-6.41353E-19 8.62752E-18
 -1      1201 9.52260E-05-2.85678E-05-2.85678E-05-8.62917E-11-4.34364E-19 8.99786E-18
 -1      1202 9.52283E-05-2.85685E-05-2.85685E-05-7.20948E-11 1.81818E-19 5.46953E-18
 -1      1203 9.52303E-05-2.85691E-05-2.85691E-05-5.92725E-11-9.18470E-20 6.23871E-18
 -1      1204 9.52319E-05-2.85696E-05-2.85696E-05-4.80455E-11 1.11981E-19 4.96052E-18
 -1      1205 9.52333E-05-2.85700E-05-2.85700E-05-3.84982E-11 3.06497E-20 4.04581E-18
 -1      1206 9.52343E-05-2.85703E-05-2.85703E-05-3.06237E-11-1.24042E-19 6.97421E-18
 -1      1207 9.52352E-05-2.85706E-05-2.85705E-05-2.43546E-11-3.48382E-19 5.96488E-18
 -1      1208 9.52359E-05-2.85708E-05-2.85708E-05-1.95831E-11 6.76013E-19 4.32817E-18
 -1      1209 9.52364E-05-2.85709E-05-2.85709E-05-1.61145E-11 6.07049E-20-2.45330E-18
 -1      1210 9.52368E-05-2.85710E-05-2.85710E-05-1.33810E-11 4.81286E-19-2.07418E-18
 -1      1211 9.52370E-05-2.85711E-05-2.85711E-05-9.99601E-12-6.01933E-19-2.12860E-18
 -1      1212 9.52372E-05-2.85711E-05-2.85711E-05-2.12976E-12-5.19746E-19 2.27594E-18
 -1      1213 9.52372E-05-2.85712E-05-2.85712E-05 7.62018E-12 2.33448E-19 4.66846E-18
 -1      1214 9.52371E-05-2.85711E-05-2.85712E-05 8.49269E-12 5.07615E-18-6.05206E-19
 -1      1215 9.52371E-05-2.85711E-05-2.85711E-05 8.42406E-12-1.13361E-18-8.88008E-19
 -1      1216 9.52372E-05-2.85712E-05-2.85711E-05-3.97451E-12-1.49407E-18 2.49072E-19
 -1      1217 9.52372E-05-2.85715E-05-2.85710E-05-1.04595E-11-3.73937E-18 9.54852E-19
 -1      1218 9.52373E-05-2.85718E-05-2.85710E-05-1.25186E-11-6.39123E-18-1.49808E-19
 -1      1219 9.52374E-05-2.85720E-05-2.85709E-05-1.17276E-11-1.13910E-17-9.74032E-19
 -1      1220 9.52375E-05-2.85723E-05-2.85708E-05-9.06793E-12-5.45989E-18 6.62792E-19
 -1      1221 9.52375E-05-2.85724E-05-2.85708E-05-4.87509E-12-8.36190E-18-1.49572E-18
 -1      1222 9.52375E-05-2.85725E-05-2.85707E-05-2.05559E-14-9.48619E-18 5.56041E-19
 -1      1223 9.52375E-05-2.85724E-05-2.85708E-05 4.83299E-12-1.09089E-17-3.12941E-20
 -1      1224 9.52375E-05-2.85723E-05-2.85708E-05 9.00923E-12-9.33590E-18-1.62023E-18
 -1      1225 9.52374E-05-2.85720E-05-2.85709E-05 1.18478E-11-9.71047E-18 7.89824E-19
 -1      1226 9.52373E-05-2.85718E-05-2.85710E-05 1.25413E-11-8.83288E-18-2.24755E-19
 -1      1227 9.52372E-05-2.85715E-05-2.85710E-05 1.05431E-11-6.03837E-18 8.07862E-20
 -1      1228 9.52372E-05-2.85712E-05-2.85711E-05 5.07716E-12-8.85482E-19 9.10658E-19
 -1      1229 9.52371E-05-2.85711E-05-2.85711E-05-1.43770E-11 2.78875E-18-1.28214E-18
 -1      1230 9.52371E-05-2.85711E-05-2.85712E-05-9.14671E-12 1.30302E-18 5.14010E-19
 -1      1231 3.95546E-05-1.25906E-04 2.25554E-05-1.78322E-05 1.50176E-17 1.97322E-18
 -1      1232 2.41016E-05-9.76863E-05 1.71626E-05-4.06885E-05 1.34712E-17 3.90863E-18
 -1      1233 6.26773E-06-4.22560E-05 2.94768E-06-3.03641E-05 8.30092E-18 4.61972E-18
 -1      1234 1.94522E-05 4.19067E-06-1.81983E-05 1.80453E-05 7.06764E-18 6.60177E-18
 -1      1235 9.72976E-05 8.81853E-06-4.50202E-05 8.63038E-05 4.72983E-18 5.78862E-18
 -1      1236 2.37513E-04-3.96046E-05-7.13830E-05 1.24512E-04 1.73134E-18 3.38136E-18
 -1      1237 3.77213E-04-1.07245E-04-8.94228E-05 8.48500E-05 1.49713E-19-3.37119E-19
 -1      1238 4.15514E-04-1.25865E-04-9.42471E-05-1.90328E-05 1.45054E-20-1.84145E-18
 -1      1239 3.31475E-04-8.46597E-05-8.32921E-05-1.02843E-04 5.70900E-19-2.15316E-18
 -1      1240 1.85868E-04-2.14517E-05-6.21836E-05-1.14067E-04 1.91429E-19-8.70750E-19
 -1      1241 6.47830E-05 9.41456E-06-3.54513E-05-6.08184E-05-4.69256E-19 3.45589E-19
 -1      1242 8.59687E-06-1.11068E-05-9.99321E-06 6.12997E-06-2.52077E-18 1.76691E-18
 -1      1243 9.22405E-06-6.16930E-05 8.16311E-06 4.15117E-05-4.92380E-18 2.38440E-18
 -1      1244 2.79111E-05-1.03277E-04 1.79778E-05 3.61174E-05-6.14353E-18 1.62816E-18
 -1      1245 3.58872E-05-1.09991E-04 1.89844E-05 8.29090E-06-6.45651E-18 2.49981E-19
 -1      1246 2.36319E-05-7.46974E-05 1.18041E-05-1.28115E-05-6.20790E-18-1.05530E-18
 -1      1247 8.20795E-06-2.10762E-05-1.57725E-06-6.22794E-06-4.71797E-18-1.73769E-18
 -1      1248 1.32796E-05 2.45427E-05-1.92100E-05 3.24749E-05-2.12436E-18-1.15535E-18
 -1      1249 6.25536E-05 3.52769E-05-4.02060E-05 8.79493E-05 8.66515E-19 1.34170E-18
 -1      1250 1.52597E-04 3.12201E-06-5.99868E-05 1.23646E-04 2.70119E-18 5.17707E-18
 -1      1251 2.52165E-04-5.09840E-05-7.49186E-05 1.09653E-04 2.87949E-18 9.35463E-18
 -1      1252 3.19376E-04-9.16035E-05-8.37187E-05 4.53289E-05 1.22386E-18 1.23455E-17
 -1      1253 3.27034E-04-9.64076E-05-8.43035E-05-3.96240E-05-1.38887E-18 1.30346E-17
 -1      1254 2.69564E-04-5.99348E-05-7.71988E-05-1.05141E-04-3.25599E-18 1.13638E-17
 -1      1255 1.78901E-04-8.60076E-06-6.39129E-05-1.27739E-04-4.62565E-18 9.15812E-18
 -1      1256 8.87226E-05 2.94983E-05-4.63088E-05-1.05064E-04-5.35494E-18 6.54756E-18
 -1      1257 2.78166E-05 3.21153E-05-2.65948E-05-5.42246E-05-4.66376E-18 4.19705E-18
 -1      1258 7.29831E-06-4.66090E-06-7.13755E-06-3.24747E-06-1.35525E-18 1.47130E-18
 -1      1259 1.83799E-05-6.34917E-05 9.13747E-06 2.11817E-05 4.26227E-18-8.77950E-19
 -1      1260 3.60854E-05-1.12158E-04 1.94923E-05 1.14553E-05 9.86624E-18-7.54230E-19
 -1      1261 9.84477E-05-2.02375E-05-3.61914E-05-1.97915E-05-4.19493E-19-5.58724E-18
 -1      1262 8.70714E-05-5.54145E-06-3.51410E-05-2.55374E-05-1.49342E-19-5.82306E-18
 -1      1263 8.78437E-05-5.30912E-06-3.59350E-05-3.03103E-05-5.39348E-19-6.09620E-18
 -1      1264 8.62482E-05-3.75198E-06-3.54095E-05-2.21712E-05 3.34379E-19-5.07849E-18
 -1      1265 8.57162E-05-3.65566E-06-3.52604E-05-2.43738E-05 2.10792E-19-5.53409E-18
 -1      1266 8.93760E-05-9.23831E-06-3.44750E-05-2.41907E-05-6.23363E-20-5.06610E-18
 -1      1267 8.84657E-05-3.68913E-06-3.62817E-05-1.82890E-05 6.33634E-19-4.16341E-18
 -1      1268 8.71791E-05-3.58404E-06-3.58368E-05-2.03656E-05 5.66083E-19-4.70839E-18
 -1      1269 8.93396E-05-7.53183E-06-3.51548E-05-2.09026E-05 6.16671E-19-4.36084E-18
 -1      1270 9.14233E-05-4.16799E-06-3.72686E-05-1.38610E-05 8.34010E-19-3.23204E-18
 -1      1271 9.00036E-05-4.07514E-06-3.67939E-05-1.62043E-05 7.97455E-19-3.76215E-18
 -1      1272 9.18955E-05-7.67079E-06-3.61541E-05-1.69909E-05 1.08310E-18-3.53986E-18
 -1      1273 9.40656E-05-4.97928E-06-3.79829E-05-8.55272E-06 9.38605E-19-2.28826E-18
 -1      1274 9.29734E-05-4.88666E-06-3.76793E-05-1.13539E-05 9.07305E-19-2.81268E-18
 -1      1275 9.52027E-05-8.69260E-06-3.71045E-05-1.25740E-05 1.37282E-18-2.66778E-18
 -1      1276 9.53698E-05-5.95345E-06-3.80620E-05-2.09850E-06 1.03417E-18-1.35721E-18
 -1      1277 9.51082E-05-5.87065E-06-3.81188E-05-5.45345E-06 1.00328E-18-1.86220E-18
 -1      1278 9.81146E-05-1.02387E-05-3.76687E-05-7.29520E-06 1.52968E-18-1.78822E-18
 -1      1279 9.40883E-05-6.73426E-06-3.71558E-05 5.47901E-06 1.11644E-18-5.12746E-19
 -1      1280 9.52500E-05-6.69923E-06-3.77494E-05 1.66737E-06 1.11716E-18-9.90393E-19
 -1      1281 9.93742E-05-1.18525E-05-3.75079E-05-8.55944E-07 1.69993E-18-9.32954E-19
 -1      1282 8.88889E-05-6.67244E-06-3.50287E-05 1.35210E-05 1.13746E-18 2.72903E-19
 -1      1283 9.20132E-05-6.75024E-06-3.62562E-05 9.70717E-06 1.13275E-18-1.70068E-19
 -1      1284 9.73570E-05-1.26689E-05-3.63093E-05 6.74394E-06 1.77591E-18-1.12126E-19
 -1      1285 7.91094E-05-4.96186E-06-3.17863E-05 2.03863E-05 1.22767E-18 9.90234E-19
 -1      1286 8.42401E-05-5.21483E-06-3.35377E-05 1.74845E-05 1.23476E-18 6.14840E-19
 -1      1287 9.03777E-05-1.13830E-05-3.39193E-05 1.47936E-05 1.88793E-18 5.99673E-19
 -1      1288 6.62005E-05-1.25128E-06-2.81523E-05 2.35999E-05 1.31724E-18 1.55461E-18
 -1      1289 7.22081E-05-1.65954E-06-2.99676E-05 2.27567E-05 1.28950E-18 1.22699E-18
 -1      1290 7.78731E-05-6.83198E-06-3.05774E-05 2.14471E-05 2.03907E-18 1.23820E-18
 -1      1291 5.49478E-05 3.42707E-06-2.55672E-05 2.11735E-05 1.32841E-18 2.04674E-18
 -1      1292 5.92220E-05 3.01570E-06-2.66358E-05 2.30104E-05 1.31438E-18 1.72443E-18
 -1      1293 6.24540E-05 5.68163E-07-2.71649E-05 2.39484E-05 2.15787E-18 1.69154E-18
 -1      1294 5.21587E-05 6.45703E-06-2.56559E-05 1.40744E-05 1.26314E-18 2.68270E-18
 -1      1295 5.17929E-05 6.30109E-06-2.51966E-05 1.75848E-05 1.26510E-18 2.28862E-18
 -1      1296 5.07995E-05 7.63782E-06-2.51912E-05 2.05717E-05 2.09871E-18 2.14779E-18
 -1      1297 6.19553E-05 5.70558E-06-2.92485E-05 6.11593E-06 1.08674E-18 3.65306E-18
 -1      1298 5.56352E-05 5.88703E-06-2.69572E-05 9.28951E-06 1.10093E-18 3.04718E-18
 -1      1299 5.05488E-05 9.96287E-06-2.60479E-05 1.28224E-05 1.90572E-18 2.76014E-18
 -1      1300 8.50829E-05 2.31640E-07-3.63455E-05 2.58055E-06 7.85200E-19 5.10173E-18
 -1      1301 7.30914E-05 8.75457E-07-3.23677E-05 2.83371E-06 8.22045E-19 4.26224E-18
 -1      1302 6.59720E-05 4.78775E-06-3.04313E-05 5.17662E-06 1.46584E-18 3.73915E-18
 -1      1303 1.16811E-04-1.00961E-05-4.51356E-05 8.95933E-06 1.19432E-19 7.02778E-18
 -1      1304 1.01957E-04-8.42905E-06-4.05282E-05 3.24875E-06 2.70204E-19 5.93897E-18
 -1      1305 9.60670E-05-7.94725E-06-3.77535E-05 2.81679E-06 7.53542E-19 5.08580E-18
 -1      1306 1.64088E-04-3.48690E-05-5.17818E-05 2.08211E-05-3.45801E-19 8.54444E-18
 -1      1307 1.33646E-04-2.32654E-05-4.80488E-05 1.06391E-05-2.17264E-19 7.84734E-18
 -1      1308 1.32122E-04-2.70911E-05-4.47028E-05 4.70994E-06-1.67223E-19 6.76017E-18
 -1      1309 1.52624E-04-4.34230E-05-4.93922E-05-2.12602E-06-4.04141E-19 9.07871E-18
 -1      1310 9.74969E-05-2.77254E-05-3.13801E-05-1.02896E-05-6.93932E-19-4.98458E-18
 -1      1311 8.87128E-05-2.47857E-05-2.80534E-05-6.89189E-06-5.04143E-19-5.90239E-18
 -1      1312 8.49890E-05-2.46298E-05-2.61542E-05-4.25871E-06-4.01891E-19-5.94604E-18
 -1      1313 8.10821E-05-2.38399E-05-2.46028E-05-3.74191E-06-2.93338E-19-6.56167E-18
 -1      1314 9.12738E-05-2.53734E-05-2.86292E-05-1.14070E-05-8.32263E-19-4.84357E-18
 -1      1315 7.82706E-05-2.31608E-05-2.36117E-05-2.37746E-06-2.20202E-19-6.54079E-18
 -1      1316 7.61078E-05-2.26113E-05-2.28817E-05-2.23277E-06-1.84402E-19-6.84025E-18
 -1      1317 8.43522E-05-2.45499E-05-2.57630E-05-6.26582E-06-4.81618E-19-4.79365E-18
 -1      1318 7.43720E-05-2.21226E-05-2.23440E-05-1.44393E-06-1.91191E-19-6.96313E-18
 -1      1319 7.31402E-05-2.17694E-05-2.19768E-05-1.31747E-06-1.87525E-19-7.30832E-18
 -1      1320 8.00842E-05-2.36350E-05-2.42380E-05-3.73913E-06-3.53927E-19-4.84234E-18
 -1      1321 7.21575E-05-2.14654E-05-2.16951E-05-6.69880E-07-1.05204E-19-7.30011E-18
 -1      1322 7.16577E-05-2.13140E-05-2.15561E-05-5.30559E-07-1.38520E-19-7.47847E-18
 -1      1323 7.74253E-05-2.29032E-05-2.34064E-05-2.02762E-06-3.37536E-19-4.96768E-18
 -1      1324 7.13282E-05-2.12023E-05-2.14709E-05 1.07698E-07-1.40545E-19-7.38860E-18
 -1      1325 7.15497E-05-2.12767E-05-2.15380E-05 2.57762E-07-6.52877E-20-7.63142E-18
 -1      1326 7.61083E-05-2.24975E-05-2.30226E-05-4.71089E-07-2.10448E-19-4.91030E-18
 -1      1327 7.18272E-05-2.13569E-05-2.16282E-05 8.68932E-07-1.04195E-19-7.58779E-18
 -1      1328 7.27451E-05-2.16588E-05-2.18914E-05 1.00867E-06-5.14870E-20-7.74883E-18
 -1      1329 7.60327E-05-2.24794E-05-2.29993E-05 1.04894E-06-1.36630E-19-4.85950E-18
 -1      1330 7.35514E-05-2.19099E-05-2.21332E-05 1.51703E-06 5.24631E-20-7.72039E-18
 -1      1331 7.50519E-05-2.24034E-05-2.25609E-05 1.62161E-06 1.83005E-20-7.65364E-18
 -1      1332 7.70904E-05-2.28487E-05-2.32869E-05 2.41222E-06-1.41699E-19-4.74350E-18
 -1      1333 7.62501E-05-2.27793E-05-2.29165E-05 1.95391E-06-4.68052E-20-7.70071E-18
 -1      1334 7.81323E-05-2.33957E-05-2.34534E-05 2.00719E-06-1.16224E-19-7.86467E-18
 -1      1335 7.90689E-05-2.35387E-05-2.38247E-05 3.43385E-06-7.12831E-20-4.87874E-18
 -1      1336 7.95442E-05-2.38353E-05-2.38739E-05 2.13030E-06-3.93010E-20-7.87508E-18
 -1      1337 8.15664E-05-2.44916E-05-2.44531E-05 2.13055E-06 9.15524E-21-8.01846E-18
 -1      1338 8.16495E-05-2.44300E-05-2.45317E-05 3.98379E-06-7.02922E-20-4.77859E-18
 -1      1339 8.30116E-05-2.49343E-05-2.48877E-05 2.06142E-06-1.60366E-20-7.94468E-18
 -1      1340 8.49501E-05-2.55556E-05-2.54461E-05 2.01959E-06 6.21229E-20-7.81720E-18
 -1      1341 8.44694E-05-2.53845E-05-2.53160E-05 4.04436E-06 2.96689E-20-4.70414E-18
 -1      1342 8.62825E-05-2.59550E-05-2.58521E-05 1.81183E-06 1.21648E-19-7.76535E-18
 -1      1343 8.79750E-05-2.64891E-05-2.63429E-05 1.74519E-06 6.17193E-20-7.66393E-18
 -1      1344 8.72008E-05-2.62821E-05-2.60915E-05 3.70426E-06 1.47640E-19-4.91671E-18
 -1      1345 8.91025E-05-2.68189E-05-2.66913E-05 1.46546E-06 1.66857E-19-7.40734E-18
 -1      1346 9.04643E-05-2.72410E-05-2.70892E-05 1.39097E-06 7.72686E-20-7.33021E-18
 -1      1347 8.96084E-05-2.70444E-05-2.67917E-05 3.11165E-06 1.88023E-19-4.67891E-18
 -1      1348 9.13493E-05-2.74930E-05-2.73667E-05 1.09849E-06-1.40157E-20-7.04329E-18
 -1      1349 9.23653E-05-2.78016E-05-2.76658E-05 1.02873E-06 7.45157E-20-7.08937E-18
 -1      1350 9.15672E-05-2.76382E-05-2.73764E-05 2.41973E-06 7.77947E-20-4.36765E-18
 -1      1351 9.30128E-05-2.79809E-05-2.78718E-05 7.64397E-07-1.41961E-19-6.85201E-18
 -1      1352 9.37164E-05-2.81897E-05-2.80806E-05 7.06378E-07-1.31060E-19-6.93111E-18
 -1      1353 9.30502E-05-2.80658E-05-2.78312E-05 1.74908E-06 3.07446E-20-3.91785E-18
 -1      1354 9.41579E-05-2.83082E-05-2.82231E-05 4.91198E-07 2.06473E-19-7.08043E-18
 -1      1355 9.46074E-05-2.84378E-05-2.83577E-05 4.47232E-07 3.23044E-19-6.68446E-18
 -1      1356 9.40974E-05-2.83510E-05-2.81618E-05 1.17338E-06-1.37312E-20-3.52546E-18
 -1      1357 9.48857E-05-2.85098E-05-2.84489E-05 2.86379E-07 3.81716E-19-6.61513E-18
 -1      1358 9.51456E-05-2.85818E-05-2.85277E-05 2.55676E-07 1.56271E-19-6.19054E-18
 -1      1359 9.47846E-05-2.85255E-05-2.83856E-05 7.23114E-07 4.87233E-19-3.91161E-18
 -1      1360 9.53040E-05-2.86208E-05-2.85806E-05 1.44394E-07-1.72079E-19-6.29597E-18
 -1      1361 9.54332E-05-2.86541E-05-2.86205E-05 1.24623E-07-9.24093E-20-6.30971E-18
 -1      1362 9.51979E-05-2.86210E-05-2.85254E-05 3.98000E-07-7.10680E-20-4.42346E-18
 -1      1363 9.55099E-05-2.86712E-05-2.86470E-05 5.34951E-08-3.12674E-20-6.47337E-18
 -1      1364 9.55559E-05-2.86806E-05-2.86618E-05 4.18993E-08-9.57147E-20-6.67139E-18
 -1      1365 9.54175E-05-2.86640E-05-2.86039E-05 1.80530E-07-3.50041E-19-3.69081E-18
 -1      1366 9.55809E-05-2.86844E-05-2.86714E-05 5.14040E-10 1.65796E-19-6.99112E-18
 -1      1367 9.55789E-05-2.86805E-05-2.86717E-05-5.44451E-09-8.07179E-20-7.11296E-18
 -1      1368 9.55097E-05-2.86750E-05-2.86408E-05 4.66759E-08-1.66052E-19-4.03890E-18
 -1      1369 9.55741E-05-2.86769E-05-2.86713E-05-2.64371E-08-2.11098E-19-6.73489E-18
 -1      1370 9.55481E-05-2.86669E-05-2.86641E-05-2.88009E-08 3.64662E-19-6.64438E-18
 -1      1371 9.55247E-05-2.86682E-05-2.86515E-05-2.73329E-08-5.56267E-20-4.20134E-18
 -1      1372 9.55286E-05-2.86599E-05-2.86587E-05-3.68406E-08 5.26555E-19-6.82035E-18
 -1      1373 9.54936E-05-2.86480E-05-2.86487E-05-3.71066E-08-1.70099E-19-6.43810E-18
 -1      1374 9.54981E-05-2.86532E-05-2.86474E-05-6.16086E-08 1.91630E-19-4.53834E-18
 -1      1375 9.54688E-05-2.86402E-05-2.86413E-05-3.76180E-08-1.40685E-19-6.11636E-18
 -1      1376 9.54336E-05-2.86288E-05-2.86310E-05-3.68018E-08 2.12072E-20-6.29503E-18
 -1      1377 9.54530E-05-2.86357E-05-2.86361E-05-7.15205E-08-2.02571E-19-4.27094E-18
 -1      1378 9.54089E-05-2.86213E-05-2.86235E-05-3.34582E-08-1.46339E-19-5.98791E-18
 -1      1379 9.53780E-05-2.86116E-05-2.86144E-05-3.22003E-08 4.05400E-20-6.04465E-18
 -1      1380 9.54037E-05-2.86189E-05-2.86224E-05-6.79180E-08-1.38435E-19-3.13446E-18
 -1      1381 9.53562E-05-2.86053E-05-2.86077E-05-2.73165E-08 4.09491E-19-6.18442E-18
 -1      1382 9.53312E-05-2.85976E-05-2.86003E-05-2.59886E-08 2.67514E-19-5.94624E-18
 -1      1383 9.53579E-05-2.86044E-05-2.86090E-05-5.79320E-08-4.32041E-20-2.73303E-18
 -1      1384 9.53135E-05-2.85925E-05-2.85947E-05-2.09072E-08 3.59125E-20-5.87106E-18
 -1      1385 9.52945E-05-2.85868E-05-2.85891E-05-1.97018E-08-4.00915E-20-6.01369E-18
 -1      1386 9.53192E-05-2.85928E-05-2.85974E-05-4.59129E-08 2.14450E-19-2.93231E-18
 -1      1387 9.52809E-05-2.85829E-05-2.85848E-05-1.51160E-08 2.47319E-20-5.87327E-18
 -1      1388 9.52673E-05-2.85789E-05-2.85807E-05-1.41137E-08 1.23163E-19-6.55350E-18
 -1      1389 9.52885E-05-2.85840E-05-2.85880E-05-3.42791E-08-2.35108E-19-3.01667E-18
 -1      1390 9.52574E-05-2.85761E-05-2.85776E-05-1.03111E-08-3.29366E-19-6.48158E-18
 -1      1391 9.52482E-05-2.85735E-05-2.85749E-05-9.52812E-09-3.20874E-19-6.93731E-18
 -1      1392 9.52655E-05-2.85776E-05-2.85808E-05-2.41932E-08-3.16055E-19-3.29296E-18
 -1      1393 9.52414E-05-2.85716E-05-2.85727E-05-6.56150E-09 1.52562E-19-6.44404E-18
 -1      1394 9.52357E-05-2.85700E-05-2.85710E-05-5.98032E-09 6.44533E-19-5.81453E-18
 -1      1395 9.52492E-05-2.85732E-05-2.85757E-05-1.60562E-08 2.87761E-19-2.59222E-18
 -1      1396 9.52313E-05-2.85688E-05-2.85696E-05-3.78041E-09 4.13515E-19-5.54893E-18
 -1      1397 9.52281E-05-2.85679E-05-2.85686E-05-3.36923E-09 2.12809E-19-4.98645E-18
 -1      1398 9.52383E-05-2.85703E-05-2.85722E-05-9.84487E-09 7.99079E-19-2.15885E-18
 -1      1399 9.52255E-05-2.85672E-05-2.85678E-05-1.81437E-09-1.00702E-19-4.87878E-18
 -1      1400 9.52240E-05-2.85669E-05-2.85673E-05-1.53796E-09 7.48897E-21-5.16846E-18
 -1      1401 9.52315E-05-2.85686E-05-2.85699E-05-5.32863E-09 3.07376E-20-1.85298E-18
 -1      1402 9.52227E-05-2.85666E-05-2.85669E-05-4.94437E-10-1.94660E-19-5.47917E-18
 -1      1403 9.52225E-05-2.85665E-05-2.85668E-05-3.19911E-10-2.86608E-19-5.89717E-18
 -1      1404 9.52277E-05-2.85678E-05-2.85686E-05-2.20082E-09-2.46307E-19-1.74713E-18
 -1      1405 9.52221E-05-2.85664E-05-2.85667E-05 3.36979E-10 9.10128E-20-6.11235E-18
 -1      1406 9.52225E-05-2.85666E-05-2.85668E-05 4.37669E-10 1.78412E-19-6.00085E-18
 -1      1407 9.52260E-05-2.85675E-05-2.85680E-05-1.51444E-10-2.20986E-19-2.34674E-18
 -1      1408 9.52227E-05-2.85667E-05-2.85668E-05 8.14288E-10 2.32296E-19-5.49537E-18
 -1      1409 9.52235E-05-2.85670E-05-2.85671E-05 8.63665E-10 9.04212E-19-4.99579E-18
 -1      1410 9.52257E-05-2.85675E-05-2.85678E-05 1.09657E-09 5.09197E-19-2.00244E-18
 -1      1411 9.52240E-05-2.85672E-05-2.85672E-05 1.04553E-09 3.11845E-19-5.86137E-18
 -1      1412 9.52250E-05-2.85675E-05-2.85675E-05 1.06088E-09 3.38514E-19-5.37850E-18
 -1      1413 9.52263E-05-2.85678E-05-2.85679E-05 1.77335E-09 3.01122E-19-3.23799E-18
 -1      1414 9.52257E-05-2.85677E-05-2.85677E-05 1.11371E-09-1.21813E-19-5.40231E-18
 -1      1415 9.52268E-05-2.85680E-05-2.85680E-05 1.10782E-09-2.79929E-19-5.02110E-18
 -1      1416 9.52274E-05-2.85682E-05-2.85682E-05 2.06037E-09 1.13213E-19-3.15753E-18
 -1      1417 9.52275E-05-2.85682E-05-2.85682E-05 1.08024E-09 8.74437E-19-4.87418E-18
 -1      1418 9.52285E-05-2.85686E-05-2.85685E-05 1.06221E-09 9.39650E-19-3.49941E-18
 -1      1419 9.52287E-05-2.85686E-05-2.85686E-05 2.09490E-09 9.61293E-19-2.63626E-18
 -1      1420 9.52292E-05-2.85688E-05-2.85687E-05 9.88898E-10 8.36898E-19-2.06088E-18
 -1      1421 9.52301E-05-2.85691E-05-2.85690E-05 9.64977E-10 8.06720E-19-1.33218E-18
 -1      1422 9.52300E-05-2.85691E-05-2.85690E-05 1.97702E-09 1.54111E-18-1.95612E-18
 -1      1423 9.52308E-05-2.85693E-05-2.85692E-05 8.69742E-10-3.85921E-19-7.22785E-19
 -1      1424 9.52316E-05-2.85695E-05-2.85695E-05 8.44034E-10-7.63990E-19-1.89761E-18
 -1      1425 9.52313E-05-2.85695E-05-2.85694E-05 1.77709E-09 5.23128E-19-7.67553E-21
 -1      1426 9.52321E-05-2.85697E-05-2.85696E-05 7.42455E-10-1.04583E-18-2.12418E-18
 -1      1427 9.52328E-05-2.85699E-05-2.85698E-05 7.17491E-10-1.44919E-18-3.49787E-18
 -1      1428 9.52325E-05-2.85698E-05-2.85697E-05 1.54251E-09-1.43278E-18-7.33730E-19
 -1      1429 9.52333E-05-2.85700E-05-2.85700E-05 6.19113E-10-1.70965E-18-3.18715E-18
 -1      1430 9.52339E-05-2.85702E-05-2.85702E-05 5.96300E-10-8.46356E-19-4.77331E-18
 -1      1431 9.52335E-05-2.85701E-05-2.85700E-05 1.30361E-09-2.39860E-18-7.12206E-19
 -1      1432 9.52343E-05-2.85703E-05-2.85703E-05 5.06316E-10 2.37044E-20-4.73654E-18
 -1      1433 9.52348E-05-2.85705E-05-2.85704E-05 4.86270E-10 4.86347E-19-4.47257E-18
 -1      1434 9.52344E-05-2.85704E-05-2.85703E-05 1.07821E-09-7.75376E-19 2.81832E-19
 -1      1435 9.52351E-05-2.85706E-05-2.85705E-05 4.06761E-10-4.54091E-20-3.94135E-18
 -1      1436 9.52355E-05-2.85707E-05-2.85706E-05 3.89534E-10 3.07565E-19-2.41418E-18
 -1      1437 9.52351E-05-2.85706E-05-2.85705E-05 8.75169E-10 1.02279E-18-1.25091E-18
 -1      1438 9.52358E-05-2.85707E-05-2.85707E-05 3.20334E-10 9.45795E-19-2.53746E-18
 -1      1439 9.52360E-05-2.85708E-05-2.85708E-05 3.05559E-10 1.14443E-18-1.22738E-18
 -1      1440 9.52357E-05-2.85708E-05-2.85707E-05 6.96925E-10 1.01542E-18 1.45239E-20
 -1      1441 9.52363E-05-2.85709E-05-2.85709E-05 2.44822E-10 6.29169E-19-1.38987E-19
 -1      1442 9.52365E-05-2.85710E-05-2.85709E-05 2.31775E-10-3.07554E-19-3.67893E-19
 -1      1443 9.52362E-05-2.85709E-05-2.85708E-05 5.41205E-10 1.39267E-18-3.89048E-19
 -1      1444 9.52366E-05-2.85710E-05-2.85710E-05 1.76377E-10-1.21463E-18-1.24860E-18
 -1      1445 9.52368E-05-2.85711E-05-2.85710E-05 1.63994E-10-2.00896E-18-3.59852E-18
 -1      1446 9.52366E-05-2.85710E-05-2.85709E-05 4.02241E-10-1.20450E-18-5.20275E-19
 -1      1447 9.52369E-05-2.85711E-05-2.85711E-05 1.10552E-10-9.49704E-19-2.72646E-18
 -1      1448 9.52370E-05-2.85711E-05-2.85711E-05 9.75263E-11 8.17298E-19-2.92737E-18
 -1      1449 9.52368E-05-2.85711E-05-2.85710E-05 2.72132E-10-1.26641E-18-9.60808E-19
 -1      1450 9.52371E-05-2.85711E-05-2.85711E-05 4.42774E-11 8.82638E-19-3.13079E-18
 -1      1451 9.52371E-05-2.85711E-05-2.85711E-05 3.03069E-11 7.81718E-19-2.15567E-18
 -1      1452 9.52370E-05-2.85711E-05-2.85711E-05 1.45876E-10 1.20194E-18-1.53662E-19
 -1      1453 9.52371E-05-2.85711E-05-2.85712E-05-1.13047E-11 8.39863E-19-1.31479E-18
 -1      1454 9.52371E-05-2.85712E-05-2.85711E-05 2.37507E-11 1.75359E-18-6.63079E-19
 -1      1455 1.61609E-04-4.77879E-05-4.90871E-05-6.45327E-06-2.14485E-19 9.29216E-18
 -1      1456 1.57390E-04-4.52956E-05-4.86138E-05-4.69750E-06-2.32511E-19 8.74170E-18
 -1      1457 1.46697E-04-4.01164E-05-4.62542E-05-2.70824E-06-4.35322E-19 7.05899E-18
 -1      1458 1.73133E-04-5.24978E-05-5.11974E-05-8.31512E-06-1.56053E-19 9.54881E-18
 -1      1459 1.65320E-04-4.91622E-05-4.97112E-05-7.78470E-06-1.81867E-19 9.23732E-18
 -1      1460 1.52153E-04-4.48120E-05-4.61338E-05-1.24615E-05-3.08750E-19 6.87711E-18
 -1      1461 1.82457E-04-5.74755E-05-5.23191E-05-3.16063E-06-2.37857E-19 1.01164E-17
 -1      1462 1.78114E-04-5.56378E-05-5.18239E-05-4.88990E-06-2.57551E-19 9.78281E-18
 -1      1463 1.61745E-04-5.09522E-05-4.69464E-05-1.13427E-05-4.65339E-19 6.93683E-18
 -1      1464 1.76890E-04-5.69828E-05-5.05250E-05 1.15234E-05-4.86991E-19 1.13824E-17
 -1      1465 1.85043E-04-6.07663E-05-5.23904E-05 6.22358E-06-4.83868E-19 1.07141E-17
 -1      1466 1.71490E-04-5.85736E-05-4.75909E-05 3.68296E-06-8.37663E-19 7.98450E-18
 -1      1467 1.49902E-04-4.42398E-05-4.76995E-05 2.60726E-05-1.31057E-18 1.36432E-17
 -1      1468 1.74321E-04-5.59147E-05-5.10450E-05 2.06551E-05-9.54288E-19 1.21693E-17
 -1      1469 1.75723E-04-5.92898E-05-4.96330E-05 2.84662E-05-1.52297E-18 9.20677E-18
 -1      1470 1.25677E-04-2.95399E-05-4.65205E-05 1.53995E-05-1.42302E-19 1.49272E-17
 -1      1471 1.44897E-04-3.85562E-05-4.88859E-05 1.90046E-05-5.08643E-19 1.42158E-17
 -1      1472 1.70330E-04-4.49567E-05-5.45739E-05 3.45854E-05-1.23921E-18 1.01435E-17
 -1      1473 1.27294E-04-2.98852E-05-4.69108E-05-7.62889E-06 4.12082E-19 1.44737E-17
 -1      1474 1.25661E-04-2.77989E-05-4.68631E-05-8.98736E-07 2.02441E-19 1.45840E-17
 -1      1475 1.66795E-04-3.43387E-05-5.75129E-05 7.78281E-06 1.77877E-19 1.08362E-17
 -1      1476 1.48665E-04-4.24299E-05-4.79082E-05-2.40925E-05 6.25110E-19 1.27102E-17
 -1      1477 1.30062E-04-3.25783E-05-4.59534E-05-1.93543E-05 7.44965E-19 1.35703E-17
 -1      1478 1.67817E-04-3.93933E-05-5.58173E-05-2.66841E-05 1.40777E-18 9.12413E-18
 -1      1479 1.75885E-04-5.68314E-05-4.99431E-05-1.75574E-05 1.27002E-18 1.08463E-17
 -1      1480 1.53253E-04-4.71549E-05-4.67568E-05-1.99694E-05 7.56400E-19 1.19974E-17
 -1      1481 1.71514E-04-5.43521E-05-5.11562E-05-3.36240E-05 1.42789E-18 7.77677E-18
 -1      1482 1.80610E-04-5.75083E-05-5.10751E-05 5.42667E-07 2.87488E-19 8.81666E-18
 -1      1483 1.73429E-04-5.57506E-05-4.94270E-05-4.29676E-06 7.36919E-19 1.01674E-17
 -1      1484 1.70019E-04-5.94451E-05-4.73780E-05-1.29371E-05 1.45679E-18 6.46482E-18
 -1      1485 1.66161E-04-5.06753E-05-4.88711E-05 9.62151E-06 4.64545E-20 8.37239E-18
 -1      1486 1.73196E-04-5.40936E-05-5.01057E-05 7.38776E-06 6.94038E-20 8.77177E-18
 -1      1487 1.58691E-04-5.23479E-05-4.52187E-05 9.98676E-06 3.62107E-19 6.01389E-18
 -1      1488 1.47046E-04-4.37020E-05-4.43995E-05 1.04372E-05 2.13260E-19 8.37366E-18
 -1      1489 1.58313E-04-4.78638E-05-4.71167E-05 1.02314E-05 2.42258E-19 8.45212E-18
 -1      1490 1.44057E-04-4.39248E-05-4.27218E-05 1.85130E-05 1.80524E-19 6.24359E-18
 -1      1491 1.30497E-04-3.85010E-05-3.97110E-05 8.16047E-06-4.40451E-19 8.58563E-18
 -1      1492 1.40464E-04-4.17257E-05-4.24572E-05 8.64277E-06-2.13188E-19 8.21146E-18
 -1      1493 1.30387E-04-3.81654E-05-3.95136E-05 1.73547E-05-2.95892E-19 6.15205E-18
 -1      1494 1.18301E-04-3.49667E-05-3.59401E-05 5.61604E-06-3.90105E-19 9.30487E-18
 -1      1495 1.25541E-04-3.71268E-05-3.80726E-05 6.14470E-06-7.09152E-19 8.34200E-18
 -1      1496 1.19459E-04-3.46993E-05-3.63822E-05 1.30805E-05-7.04546E-19 6.18133E-18
 -1      1497 1.09993E-04-3.26465E-05-3.32837E-05 3.64370E-06 3.15844E-19 9.04541E-18
 -1      1498 1.14804E-04-3.40135E-05-3.47428E-05 4.04749E-06 5.41439E-19 9.66968E-18
 -1      1499 1.11439E-04-3.25564E-05-3.38638E-05 8.93167E-06 1.81186E-20 6.17637E-18
 -1      1500 1.04565E-04-3.11505E-05-3.15353E-05 2.29750E-06 9.92021E-20 8.68004E-18
 -1      1501 1.07625E-04-3.19956E-05-3.24718E-05 2.57145E-06-6.62274E-20 8.52607E-18
 -1      1502 1.05869E-04-3.11784E-05-3.20511E-05 5.80588E-06 2.17820E-19 5.50538E-18
 -1      1503 1.01097E-04-3.01966E-05-3.04223E-05 1.42931E-06 8.63907E-20 7.78759E-18
 -1      1504 1.03002E-04-3.07140E-05-3.10052E-05 1.60610E-06 3.77426E-19 8.17200E-18
 -1      1505 1.02132E-04-3.02754E-05-3.08228E-05 3.68112E-06 6.62797E-19 5.11113E-18
 -1      1506 9.89063E-05-2.95926E-05-2.97241E-05 8.84412E-07 5.54545E-19 6.86183E-18
 -1      1507 1.00082E-04-2.99081E-05-3.00823E-05 9.95957E-07 2.94420E-19 7.17711E-18
 -1      1508 9.96777E-05-2.96816E-05-3.00163E-05 2.30602E-06 6.06098E-19 4.45632E-18
 -1      1509 9.75296E-05-2.92114E-05-2.92882E-05 5.46753E-07 1.11270E-18 3.67191E-18
 -1      1510 9.82523E-05-2.94038E-05-2.95077E-05 6.16441E-07 9.79597E-19 5.80932E-18
 -1      1511 9.80855E-05-2.92921E-05-2.94949E-05 1.43761E-06 1.70143E-18 3.10971E-18
 -1      1512 9.66651E-05-2.89711E-05-2.90161E-05 3.38542E-07-1.14213E-18 4.43763E-18
 -1      1513 9.71097E-05-2.90885E-05-2.91507E-05 3.81949E-07-3.81436E-19 3.88775E-18
 -1      1514 9.70586E-05-2.90374E-05-2.91600E-05 8.95566E-07 2.77512E-19 3.73646E-18
 -1      1515 9.61215E-05-2.88193E-05-2.88459E-05 2.10202E-07-1.63324E-19 5.79924E-18
 -1      1516 9.63957E-05-2.88912E-05-2.89287E-05 2.37267E-07-2.76697E-19 5.28371E-18
 -1      1517 9.63976E-05-2.88711E-05-2.89453E-05 5.58761E-07-8.05780E-19 3.16199E-18
 -1      1518 9.57789E-05-2.87233E-05-2.87391E-05 1.30885E-07 3.45720E-19 5.00147E-18
 -1      1519 9.59485E-05-2.87675E-05-2.87902E-05 1.47828E-07 4.58189E-19 5.32616E-18
 -1      1520 9.59721E-05-2.87626E-05-2.88077E-05 3.49514E-07 7.57214E-19 2.35535E-18
 -1      1521 9.55626E-05-2.86625E-05-2.86719E-05 8.16287E-08 3.42884E-19 4.66229E-18
 -1      1522 9.56677E-05-2.86896E-05-2.87035E-05 9.23025E-08 1.62574E-19 5.06857E-18
 -1      1523 9.56978E-05-2.86918E-05-2.87194E-05 2.19149E-07 2.07862E-19 2.50326E-18
 -1      1524 9.54259E-05-2.86239E-05-2.86296E-05 5.08439E-08 3.64663E-21 4.78628E-18
 -1      1525 9.54910E-05-2.86405E-05-2.86492E-05 5.76230E-08-3.94940E-19 4.74755E-18
 -1      1526 9.55208E-05-2.86455E-05-2.86625E-05 1.37526E-07-9.81020E-20 3.40267E-18
 -1      1527 9.53398E-05-2.85995E-05-2.86030E-05 3.14619E-08-4.80752E-19 5.08812E-18
 -1      1528 9.53799E-05-2.86097E-05-2.86150E-05 3.58076E-08-1.63205E-19 5.14723E-18
 -1      1529 9.54066E-05-2.86154E-05-2.86259E-05 8.60930E-08-6.13867E-19 4.10417E-18
 -1      1530 9.52859E-05-2.85843E-05-2.85864E-05 1.91699E-08-7.11555E-19 6.23697E-18
 -1      1531 9.53104E-05-2.85903E-05-2.85937E-05 2.19825E-08-8.15386E-19 4.91486E-18
 -1      1532 9.53331E-05-2.85959E-05-2.86025E-05 5.34529E-08-5.94135E-19 4.17410E-18
 -1      1533 9.52529E-05-2.85749E-05-2.85762E-05 1.13291E-08 2.39698E-20 7.73093E-18
 -1      1534 9.52674E-05-2.85784E-05-2.85806E-05 1.31649E-08-5.94840E-19 6.72435E-18
 -1      1535 9.52863E-05-2.85834E-05-2.85875E-05 3.26008E-08-1.31330E-18 3.81596E-18
 -1      1536 9.52332E-05-2.85694E-05-2.85701E-05 6.31526E-09 1.51562E-18 5.68010E-18
 -1      1537 9.52414E-05-2.85712E-05-2.85726E-05 7.52048E-09 1.46398E-18 7.87885E-18
 -1      1538 9.52568E-05-2.85755E-05-2.85781E-05 1.92161E-08 1.39726E-18 3.34186E-18
 -1      1539 9.52222E-05-2.85663E-05-2.85667E-05 3.12008E-09-3.18635E-19 4.68332E-18
 -1      1540 9.52264E-05-2.85672E-05-2.85680E-05 3.91223E-09 2.95052E-19 4.98916E-18
 -1      1541 9.52389E-05-2.85707E-05-2.85723E-05 1.06170E-08 1.67882E-18 3.72313E-18
 -1      1542 9.52168E-05-2.85648E-05-2.85651E-05 1.10937E-09 2.26569E-19 4.12871E-18
 -1      1543 9.52185E-05-2.85650E-05-2.85656E-05 1.62705E-09 3.36572E-19 4.49337E-18
 -1      1544 9.52284E-05-2.85680E-05-2.85690E-05 5.12266E-09 3.94615E-19 2.74651E-18
 -1      1545 9.52149E-05-2.85644E-05-2.85645E-05-1.22097E-10 7.94232E-19 2.07136E-18
 -1      1546 9.52150E-05-2.85642E-05-2.85645E-05 2.11000E-10 3.36600E-19 3.41735E-18
 -1      1547 9.52229E-05-2.85666E-05-2.85671E-05 1.66530E-09 1.08591E-18 1.15304E-18
 -1      1548 9.52152E-05-2.85645E-05-2.85645E-05-8.38105E-10-1.26091E-18 2.70502E-18
 -1      1549 9.52144E-05-2.85641E-05-2.85643E-05-6.30146E-10-6.73224E-19 2.18950E-18
 -1      1550 9.52206E-05-2.85660E-05-2.85663E-05-4.44327E-10-5.38066E-19 1.72665E-18
 -1      1551 9.52167E-05-2.85650E-05-2.85650E-05-1.21367E-09-9.75346E-19 7.48877E-18
 -1      1552 9.52154E-05-2.85645E-05-2.85646E-05-1.09072E-09-1.34944E-18 4.57857E-18
 -1      1553 9.52203E-05-2.85660E-05-2.85662E-05-1.65931E-09-2.58902E-18 2.05707E-18
 -1      1554 9.52189E-05-2.85657E-05-2.85656E-05-1.36695E-09 3.16738E-19 7.00725E-18
 -1      1555 9.52174E-05-2.85652E-05-2.85652E-05-1.30138E-09 7.95597E-19 7.43083E-18
 -1      1556 9.52212E-05-2.85663E-05-2.85664E-05-2.28282E-09 2.32035E-19 4.71900E-18
 -1      1557 9.52213E-05-2.85664E-05-2.85664E-05-1.37869E-09 1.24621E-18 4.68768E-18
 -1      1558 9.52198E-05-2.85659E-05-2.85659E-05-1.35128E-09 4.88520E-19 6.05240E-18
 -1      1559 9.52227E-05-2.85668E-05-2.85668E-05-2.52085E-09 9.11512E-19 4.60900E-18
 -1      1560 9.52238E-05-2.85672E-05-2.85671E-05-1.30450E-09-6.49387E-19 4.58009E-18
 -1      1561 9.52223E-05-2.85667E-05-2.85667E-05-1.30169E-09 5.95388E-19 4.67461E-18
 -1      1562 9.52245E-05-2.85674E-05-2.85673E-05-2.51482E-09 8.25740E-19 4.02998E-18
 -1      1563 9.52261E-05-2.85679E-05-2.85678E-05-1.18252E-09-4.37016E-19 6.21110E-18
 -1      1564 9.52247E-05-2.85674E-05-2.85674E-05-1.19479E-09-5.56089E-19 4.58233E-18
 -1      1565 9.52264E-05-2.85680E-05-2.85679E-05-2.36219E-09-1.08734E-18 3.82592E-18
 -1      1566 9.52282E-05-2.85685E-05-2.85684E-05-1.03862E-09-1.66352E-19 4.44855E-18
 -1      1567 9.52270E-05-2.85681E-05-2.85681E-05-1.05933E-09 4.33444E-19 5.56119E-18
 -1      1568 9.52282E-05-2.85685E-05-2.85684E-05-2.12976E-09 4.61094E-19 2.76310E-18
 -1      1569 9.52300E-05-2.85690E-05-2.85690E-05-8.89907E-10-6.08025E-19 4.33894E-18
 -1      1570 9.52290E-05-2.85687E-05-2.85687E-05-9.14495E-10-1.94802E-19 4.53886E-18
 -1      1571 9.52299E-05-2.85690E-05-2.85689E-05-1.86263E-09 7.47874E-19 2.59855E-18
 -1      1572 9.52316E-05-2.85695E-05-2.85695E-05-7.47166E-10 7.84400E-19 5.26251E-18
 -1      1573 9.52307E-05-2.85692E-05-2.85692E-05-7.72602E-10-2.85815E-19 4.69611E-18
 -1      1574 9.52313E-05-2.85695E-05-2.85694E-05-1.59037E-09 2.00327E-19 3.31882E-18
 -1      1575 9.52329E-05-2.85699E-05-2.85699E-05-6.16662E-10 3.65328E-19 3.36708E-18
 -1      1576 9.52322E-05-2.85697E-05-2.85696E-05-6.41034E-10 1.23228E-18 4.71200E-18
 -1      1577 9.52326E-05-2.85698E-05-2.85698E-05-1.33138E-09 1.78045E-18 3.09441E-18
 -1      1578 9.52340E-05-2.85702E-05-2.85702E-05-5.01410E-10-4.09839E-19 3.94011E-18
 -1      1579 9.52334E-05-2.85700E-05-2.85700E-05-5.23632E-10-3.54637E-19 3.29263E-18
 -1      1580 9.52337E-05-2.85701E-05-2.85701E-05-1.09602E-09-2.67529E-19 2.80915E-18
 -1      1581 9.52349E-05-2.85705E-05-2.85705E-05-4.02087E-10 3.95393E-19 4.76678E-18
 -1      1582 9.52344E-05-2.85703E-05-2.85703E-05-4.21688E-10-5.01042E-20 4.40244E-18
 -1      1583 9.52346E-05-2.85704E-05-2.85703E-05-8.88895E-10-4.16489E-19 2.74407E-18
 -1      1584 9.52356E-05-2.85707E-05-2.85707E-05-3.17672E-10 5.74162E-19 3.37442E-18
 -1      1585 9.52352E-05-2.85706E-05-2.85706E-05-3.34644E-10 7.81656E-19 4.23460E-18
 -1      1586 9.52353E-05-2.85706E-05-2.85706E-05-7.10424E-10 5.59419E-19 2.01296E-18
 -1      1587 9.52361E-05-2.85709E-05-2.85708E-05-2.45817E-10 1.51477E-18-7.80180E-19
 -1      1588 9.52358E-05-2.85708E-05-2.85707E-05-2.60547E-10 1.72297E-18 1.92738E-18
 -1      1589 9.52359E-05-2.85708E-05-2.85707E-05-5.57950E-10 1.78543E-18-6.66181E-19
 -1      1590 9.52366E-05-2.85710E-05-2.85710E-05-1.82935E-10 3.61363E-20-2.04987E-18
 -1      1591 9.52363E-05-2.85709E-05-2.85709E-05-1.96247E-10-4.26066E-20-7.65962E-19
 -1      1592 9.52363E-05-2.85709E-05-2.85709E-05-4.26339E-10 1.40326E-18-1.39945E-18
 -1      1593 9.52369E-05-2.85711E-05-2.85711E-05-1.24224E-10-3.99989E-19-1.39530E-18
 -1      1594 9.52367E-05-2.85710E-05-2.85710E-05-1.37511E-10 4.81753E-19-1.12166E-18
 -1      1595 9.52367E-05-2.85710E-05-2.85710E-05-3.08272E-10 1.57574E-19-1.30223E-18
 -1      1596 9.52371E-05-2.85711E-05-2.85711E-05-6.59144E-11-7.18304E-19-1.41194E-18
 -1      1597 9.52370E-05-2.85711E-05-2.85711E-05-8.05096E-11-5.14114E-19-1.90467E-18
 -1      1598 9.52369E-05-2.85711E-05-2.85711E-05-1.96174E-10 9.25995E-20-1.36225E-18
 -1      1599 9.52371E-05-2.85711E-05-2.85711E-05-9.72507E-12-2.15576E-18 1.12160E-18
 -1      1600 9.52371E-05-2.85711E-05-2.85711E-05-2.50117E-11-1.30767E-18-7.12292E-19
 -1      1601 9.52371E-05-2.85711E-05-2.85711E-05-8.67953E-11-1.44268E-18-2.65213E-18
 -1      1602 9.52371E-05-2.85711E-05-2.85711E-05 8.45047E-12 1.51476E-18 1.30145E-18
 -1      1603 9.52371E-05-2.85712E-05-2.85711E-05-4.80092E-11-1.78127E-18-1.96248E-18
 -1      1604 9.52371E-05-2.85712E-05-2.85711E-05-3.41641E-11-1.08431E-19-8.97994E-19
 -1      1605 9.52372E-05-2.85714E-05-2.85711E-05-1.05756E-10-1.75254E-18 1.08151E-19
 -1      1606 9.52372E-05-2.85713E-05-2.85711E-05-9.31159E-11-9.25069E-19-7.94105E-19
 -1      1607 9.52372E-05-2.85713E-05-2.85711E-05-1.43406E-10-1.88785E-18-1.75699E-18
 -1      1608 9.52373E-05-2.85716E-05-2.85710E-05-1.43051E-10-4.40807E-18-5.15902E-19
 -1      1609 9.52372E-05-2.85715E-05-2.85710E-05-1.37397E-10-2.45896E-18 1.41266E-19
 -1      1610 9.52372E-05-2.85714E-05-2.85710E-05-2.38098E-10-1.92568E-18-1.48735E-18
 -1      1611 9.52374E-05-2.85718E-05-2.85709E-05-1.54247E-10-5.94251E-18-1.04727E-18
 -1      1612 9.52373E-05-2.85717E-05-2.85710E-05-1.54191E-10-5.15448E-18 1.47566E-18
 -1      1613 9.52373E-05-2.85716E-05-2.85710E-05-2.88529E-10-3.82627E-18-7.39048E-19
 -1      1614 9.52374E-05-2.85721E-05-2.85709E-05-1.40069E-10-5.95875E-18 4.60010E-19
 -1      1615 9.52374E-05-2.85719E-05-2.85709E-05-1.44756E-10-5.92108E-18-1.69357E-18
 -1      1616 9.52374E-05-2.85719E-05-2.85709E-05-2.89648E-10-3.57419E-18-2.66976E-18
 -1      1617 9.52375E-05-2.85722E-05-2.85708E-05-1.04054E-10-4.36768E-18-1.53718E-19
 -1      1618 9.52375E-05-2.85721E-05-2.85708E-05-1.12652E-10-5.52330E-18 1.42819E-18
 -1      1619 9.52374E-05-2.85721E-05-2.85709E-05-2.44651E-10-1.74449E-18 1.03300E-18
 -1      1620 9.52375E-05-2.85724E-05-2.85708E-05-5.27748E-11-6.31871E-18-1.01744E-18
 -1      1621 9.52375E-05-2.85723E-05-2.85708E-05-6.37485E-11-4.38258E-18-1.76272E-18
 -1      1622 9.52375E-05-2.85722E-05-2.85708E-05-1.62402E-10-3.52774E-18-1.01318E-18
 -1      1623 9.52375E-05-2.85724E-05-2.85708E-05 5.96513E-12-5.94001E-18 7.57683E-19
 -1      1624 9.52375E-05-2.85724E-05-2.85708E-05-5.81020E-12-6.93225E-18 1.72720E-18
 -1      1625 9.52375E-05-2.85723E-05-2.85708E-05-5.66814E-11-2.63439E-18-1.15953E-19
 -1      1626 9.52375E-05-2.85723E-05-2.85708E-05 6.38419E-11-4.92123E-18 1.57817E-19
 -1      1627 9.52375E-05-2.85724E-05-2.85708E-05 5.28937E-11-5.28291E-18 4.65101E-19
 -1      1628 9.52375E-05-2.85723E-05-2.85708E-05 5.69997E-11-2.23930E-18 5.60378E-19
 -1      1629 9.52375E-05-2.85721E-05-2.85708E-05 1.12627E-10-7.15179E-18-1.75256E-18
 -1      1630 9.52375E-05-2.85722E-05-2.85708E-05 1.04086E-10-4.88259E-18-1.38980E-18
 -1      1631 9.52375E-05-2.85722E-05-2.85708E-05 1.62579E-10-1.84058E-18-2.79806E-19
 -1      1632 9.52374E-05-2.85719E-05-2.85709E-05 1.44444E-10-5.96793E-18 2.18675E-18
 -1      1633 9.52374E-05-2.85721E-05-2.85709E-05 1.39753E-10-6.87072E-18-3.09546E-19
 -1      1634 9.52374E-05-2.85721E-05-2.85709E-05 2.44221E-10-4.40590E-18-1.35230E-18
 -1      1635 9.52373E-05-2.85717E-05-2.85710E-05 1.54239E-10-5.91640E-18-2.85837E-19
 -1      1636 9.52374E-05-2.85718E-05-2.85709E-05 1.54284E-10-5.29945E-18 1.92812E-18
 -1      1637 9.52374E-05-2.85719E-05-2.85709E-05 2.89436E-10-3.71685E-18 2.87450E-18
 -1      1638 9.52372E-05-2.85714E-05-2.85710E-05 1.37539E-10-2.78355E-18 1.48542E-18
 -1      1639 9.52373E-05-2.85716E-05-2.85710E-05 1.42990E-10-4.10672E-18 8.76747E-19
 -1      1640 9.52373E-05-2.85716E-05-2.85710E-05 2.88624E-10-2.03570E-18 1.22647E-18
 -1      1641 9.52372E-05-2.85713E-05-2.85711E-05 9.51503E-11 1.75098E-19 1.74561E-18
 -1      1642 9.52372E-05-2.85714E-05-2.85711E-05 1.06256E-10-2.47930E-18 1.94149E-18
 -1      1643 9.52372E-05-2.85714E-05-2.85710E-05 2.36807E-10-1.50561E-18 2.00273E-18
 -1      1644 9.52371E-05-2.85712E-05-2.85711E-05 5.73779E-11 1.14278E-18-7.67324E-20
 -1      1645 9.52371E-05-2.85712E-05-2.85711E-05 7.75816E-11 8.72380E-19 8.01886E-19
 -1      1646 9.52371E-05-2.85713E-05-2.85711E-05 1.75717E-10-1.41508E-18 2.79315E-18
 -1      1647 9.52371E-05-2.85712E-05-2.85711E-05 1.19709E-10 6.76398E-19 4.33859E-20
 -1      1648 2.22838E-05-8.05184E-05 1.80731E-05-1.61440E-05 1.00143E-17 2.05342E-18
 -1      1649 2.45022E-05-8.33566E-05 1.85137E-05-5.40514E-06 8.40384E-18 1.68708E-18
 -1      1650 1.88430E-05-5.87001E-05 1.06748E-05-1.40492E-05 8.12813E-18 2.17920E-18
 -1      1651 2.48429E-05-7.78624E-05 1.54550E-05-1.19485E-05 1.00564E-17 1.66781E-18
 -1      1652 2.95965E-05-3.04252E-05-4.78068E-06 6.95443E-06 6.04104E-18 3.67443E-18
 -1      1653 2.77144E-05-5.38417E-05 4.01741E-06-6.87909E-06 7.76136E-18 2.73592E-18
 -1      1654 7.11235E-05-1.66903E-05-2.57860E-05 4.13851E-05 5.04832E-18 4.90263E-18
 -1      1655 4.90212E-05-2.91499E-05-1.44779E-05 1.60499E-05 5.18215E-18 4.95599E-18
 -1      1656 1.60576E-04-3.42725E-05-5.14040E-05 6.70121E-05 3.57194E-18 4.03188E-18
 -1      1657 1.06324E-04-2.52700E-05-3.76473E-05 4.31780E-05 4.91449E-18 4.89077E-18
 -1      1658 2.56162E-04-6.21425E-05-7.36802E-05 6.99519E-05 1.98841E-18 2.93243E-18
 -1      1659 1.91288E-04-3.68544E-05-6.29588E-05 6.98273E-05 3.00612E-18 4.44015E-18
 -1      1660 3.24898E-04-8.88454E-05-8.72965E-05 2.48880E-05 6.96685E-19 1.89312E-18
 -1      1661 2.80656E-04-6.73774E-05-8.12736E-05 5.86977E-05 1.14042E-18 2.89855E-18
 -1      1662 3.06344E-04-7.90002E-05-8.57285E-05-2.55394E-05 8.85149E-20 2.01933E-18
 -1      1663 3.18290E-04-8.41505E-05-8.74572E-05 1.41341E-05 1.95665E-19 2.42537E-18
 -1      1664 2.48608E-04-5.74965E-05-7.45857E-05-5.92009E-05-2.44581E-19 1.15196E-18
 -1      1665 3.01022E-04-8.12540E-05-8.25513E-05-3.78866E-05-3.41566E-19 1.10792E-18
 -1      1666 1.59770E-04-3.10297E-05-5.43180E-05-6.08639E-05-8.43645E-19 1.36881E-18
 -1      1667 2.22074E-04-5.21013E-05-6.60851E-05-6.95182E-05-6.51792E-19 6.84403E-19
 -1      1668 8.89398E-05-2.93361E-05-2.97367E-05-3.06455E-05-1.81096E-18 1.50433E-18
 -1      1669 1.32447E-04-3.16478E-05-4.27804E-05-5.55745E-05-1.12825E-18 1.32815E-18
 -1      1670 3.74448E-05-3.69787E-05-7.44592E-06-2.92692E-06-2.97901E-18 1.56362E-18
 -1      1671 5.25679E-05-2.04146E-05-1.81371E-05-2.60371E-05-2.02780E-18 1.02067E-18
 -1      1672 2.24491E-05-5.91868E-05 7.89554E-06 1.45935E-05-4.02256E-18 1.37061E-18
 -1      1673 1.99698E-05-3.81709E-05 1.16920E-06 7.48752E-06-3.18654E-18 1.40607E-18
 -1      1674 2.12342E-05-7.24467E-05 1.50246E-05 1.34619E-05-4.00128E-18 8.52962E-19
 -1      1675 1.65505E-05-6.16116E-05 1.23559E-05 1.98545E-05-3.82266E-18 1.34149E-18
 -1      1676 1.96213E-05-6.65359E-05 1.43918E-05 6.08676E-06-4.07677E-18-4.82809E-20
 -1      1677 2.05692E-05-7.33242E-05 1.59362E-05 1.67559E-05-4.05951E-18 5.31090E-19
 -1      1678 1.63334E-05-3.83460E-05 5.56857E-06 8.63059E-06-3.15435E-18-4.40828E-19
 -1      1679 2.10999E-05-5.88679E-05 1.07793E-05 1.06267E-05-3.55161E-18-1.20279E-19
 -1      1680 2.06568E-05-9.04167E-06-7.45457E-06 2.24547E-05-2.13113E-18-4.40457E-19
 -1      1681 2.14476E-05-3.15957E-05-8.80841E-08 1.21994E-05-3.03492E-18-4.00647E-19
 -1      1682 4.60419E-05 1.07569E-05-2.50020E-05 5.33386E-05-4.13352E-19 7.41154E-19
 -1      1683 3.20802E-05-3.23107E-06-1.54853E-05 3.14044E-05-1.67204E-18-3.98105E-20
 -1      1684 1.07815E-04 8.61918E-07-4.48698E-05 8.06164E-05 1.19686E-18 2.93243E-18
 -1      1685 7.28867E-05 5.65120E-06-3.46086E-05 6.05441E-05 5.08220E-21 1.62037E-18
 -1      1686 1.76607E-04-2.12498E-05-6.24589E-05 8.97525E-05 1.67162E-18 5.72933E-18
 -1      1687 1.31464E-04-1.76310E-06-5.40679E-05 8.58745E-05 1.36796E-18 3.83282E-18
 -1      1688 2.40470E-04-5.24963E-05-7.51271E-05 6.30479E-05 1.49249E-18 7.85030E-18
 -1      1689 2.01032E-04-3.05739E-05-6.92708E-05 8.19540E-05 1.61783E-18 6.51622E-18
 -1      1690 2.67266E-04-6.52891E-05-8.07532E-05 9.31063E-06-1.27902E-19 8.56816E-18
 -1      1691 2.50173E-04-5.54866E-05-7.84111E-05 4.36930E-05 7.96846E-19 7.82701E-18
 -1      1692 2.62313E-04-6.15202E-05-7.99631E-05-4.39183E-05-1.06154E-18 8.65668E-18
 -1      1693 2.74596E-04-6.93502E-05-8.17051E-05-8.36610E-06-2.24464E-19 9.07310E-18
 -1      1694 2.15699E-04-3.73249E-05-7.16700E-05-7.93865E-05-2.14553E-18 7.25568E-18
 -1      1695 2.49745E-04-5.63785E-05-7.66445E-05-5.92934E-05-1.51322E-18 8.28737E-18
 -1      1696 1.51343E-04-9.79478E-06-5.79186E-05-8.82275E-05-2.87314E-18 5.65903E-18
 -1      1697 1.94261E-04-2.94216E-05-6.55838E-05-8.75928E-05-2.40896E-18 6.51877E-18
 -1      1698 9.12901E-05 4.66357E-06-4.07860E-05-7.21064E-05-2.81554E-18 4.12844E-18
 -1      1699 1.27221E-04-3.77435E-06-4.98357E-05-8.79507E-05-3.02645E-18 5.24568E-18
 -1      1700 4.85389E-05-2.10035E-06-2.20803E-05-4.25118E-05-2.11250E-18 2.45301E-18
 -1      1701 6.97540E-05 5.95943E-06-3.17613E-05-6.54637E-05-2.85365E-18 3.65749E-18
 -1      1702 2.86302E-05-2.86980E-05-4.38512E-06-1.56754E-05 4.19281E-19 1.44927E-18
 -1      1703 3.31871E-05-6.68164E-06-1.31776E-05-3.31589E-05-1.38659E-18 2.64613E-18
 -1      1704 2.51822E-05-6.17815E-05 9.65890E-06-3.99046E-06 4.57059E-18 4.10837E-19
 -1      1705 2.01828E-05-3.68361E-05 3.03274E-06-7.89057E-06 1.63477E-18 1.26758E-18
 -1      1706 2.58147E-05-8.25590E-05 1.74864E-05-7.68654E-06 7.94009E-18 8.73714E-19
 -1      1707 2.18555E-05-6.86923E-05 1.42625E-05 2.25766E-07 5.72510E-18-8.53386E-20
 -1      1708 1.32597E-04-5.73641E-05-3.30601E-05 3.09528E-05 4.00223E-18 3.55246E-18
 -1      1709 7.18258E-05-5.04787E-05-1.25816E-05 2.81752E-05 4.49182E-18 3.11285E-18
 -1      1710 9.52371E-05-2.85711E-05-2.85711E-05-6.26647E-12-2.34237E-20-5.58953E-19
 -1      1711 9.52371E-05-2.85712E-05-2.85711E-05-5.88012E-11-1.75130E-18-2.27080E-18
 -1      1712 1.46032E-05-5.41737E-05 1.19376E-05 6.89002E-07 5.71027E-18 7.18284E-19
 -1      1713 3.31153E-05-5.12442E-05 3.01253E-06 1.50550E-05 5.76914E-18 9.04631E-19
 -1      1714 1.13980E-05-5.43492E-05 1.35043E-05-1.12629E-05 4.98733E-18 2.32511E-18
 -1      1715 1.95155E-04-6.06559E-05-5.46259E-05 2.16608E-05 3.69349E-18 4.00562E-18
 -1      1716 2.44561E-04-5.59798E-05-7.25623E-05 1.18072E-05 2.47312E-18 4.23178E-18
 -1      1717 2.57696E-04-4.80347E-05-7.96947E-05 4.45661E-06 1.24260E-18 5.18321E-18
 -1      1718 2.49695E-04-4.89248E-05-7.69980E-05 3.65877E-06-3.65918E-19 4.57482E-18
 -1      1719 2.28468E-04-5.90026E-05-6.64301E-05-1.27993E-05-1.40052E-18 3.39830E-18
 -1      1720 1.74320E-04-6.20423E-05-4.74128E-05-2.12414E-05-1.87660E-18 2.54533E-18
 -1      1721 1.13209E-04-5.65264E-05-2.63655E-05-2.83825E-05-2.39372E-18 1.55981E-18
 -1      1722 5.32139E-05-4.75485E-05-6.98952E-06-1.97150E-05-2.62326E-18 7.18072E-19
 -1      1723 2.06472E-05-4.59452E-05 5.60744E-06-4.17903E-06-2.41277E-18 7.01767E-19
 -1      1724 8.72901E-06-4.52666E-05 1.08078E-05 9.13356E-06-2.12849E-18 4.98902E-19
 -1      1725 1.04003E-05-3.86152E-05 8.26057E-06 2.15960E-05-1.66357E-18 2.37169E-19
 -1      1726 2.38983E-05-2.97981E-05-3.94114E-07 3.20933E-05-1.05879E-18 5.53007E-19
 -1      1727 4.80579E-05-2.07583E-05-1.34260E-05 4.36147E-05-6.04782E-19 1.16531E-18
 -1      1728 9.08030E-05-1.93448E-05-3.03798E-05 5.49604E-05 2.11758E-20 2.56905E-18
 -1      1729 1.38369E-04-2.34846E-05-4.78939E-05 5.59064E-05 3.85824E-19 3.65918E-18
 -1      1730 1.83906E-04-2.77267E-05-6.32696E-05 5.05583E-05 2.60463E-19 5.09575E-18
 -1      1731 2.12750E-04-3.20908E-05-7.28965E-05 2.70142E-05-1.11173E-19 5.50275E-18
 -1      1732 2.25257E-04-3.45199E-05-7.68075E-05-1.84628E-06-2.90532E-19 5.45579E-18
 -1      1733 2.22250E-04-3.57263E-05-7.45792E-05-2.75619E-05-3.44742E-19 5.11227E-18
 -1      1734 1.93553E-04-3.03190E-05-6.56091E-05-4.79009E-05-6.35698E-19 4.34274E-18
 -1      1735 1.53415E-04-2.54611E-05-5.21067E-05-5.75176E-05-7.42001E-19 3.38813E-18
 -1      1736 1.09904E-04-2.43485E-05-3.58182E-05-5.66583E-05-9.07172E-19 2.63258E-18
 -1      1737 7.01051E-05-2.90120E-05-1.87441E-05-4.76652E-05-3.06626E-19 2.55804E-18
 -1      1738 3.94251E-05-3.87343E-05-3.20322E-06-3.48359E-05 1.34424E-18 2.87271E-18
 -1      1739 2.01454E-05-4.93183E-05 8.23018E-06-2.26290E-05 3.33562E-18 1.94479E-18
 -1      1740 9.98418E-05-2.08990E-05-3.39286E-05-2.01634E-05-7.42186E-19-5.08368E-18
 -1      1741 9.17666E-05-1.11760E-05-3.46556E-05-1.90313E-05 7.91476E-19-3.55055E-18
 -1      1742 9.07407E-05-1.14911E-05-3.41545E-05-2.08199E-05 4.72026E-19-3.95766E-18
 -1      1743 9.04620E-05-1.28082E-05-3.34314E-05-2.14285E-05 1.23419E-19-4.16597E-18
 -1      1744 8.99844E-05-1.40408E-05-3.31236E-05-2.28701E-05-3.56349E-19-4.53766E-18
 -1      1745 9.24487E-05-1.57318E-05-3.28862E-05-1.94902E-05 1.82767E-19-3.84066E-18
 -1      1746 9.85171E-05-1.27323E-05-3.68412E-05-1.18045E-05 1.59288E-18-2.03571E-18
 -1      1747 9.66966E-05-1.20246E-05-3.64223E-05-1.40296E-05 1.44426E-18-2.52217E-18
 -1      1748 1.01751E-04-1.47998E-05-3.73233E-05-6.80156E-06 1.78376E-18-1.28045E-18
 -1      1749 1.00340E-04-1.39180E-05-3.71821E-05-9.49900E-06 1.69916E-18-1.69232E-18
 -1      1750 1.01980E-04-1.66581E-05-3.65781E-05-1.12773E-05 1.68413E-18-1.85082E-18
 -1      1751 1.03172E-04-1.69261E-05-3.69992E-05-3.61895E-07 1.94903E-18-4.29155E-19
 -1      1752 1.02903E-04-1.62046E-05-3.73010E-05-3.67435E-06 1.87061E-18-8.80411E-19
 -1      1753 1.05363E-04-1.92265E-05-3.69332E-05-6.29787E-06 1.85606E-18-1.02044E-18
 -1      1754 1.00851E-04-1.79020E-05-3.55729E-05 7.74602E-06 2.07569E-18 2.69859E-19
 -1      1755 1.02730E-04-1.79288E-05-3.64545E-05 3.85480E-06 2.00103E-18-1.44366E-19
 -1      1756 1.06570E-04-2.17249E-05-3.64055E-05 5.97540E-07 2.01035E-18-2.40134E-19
 -1      1757 9.25753E-05-1.59040E-05-3.29101E-05 1.69084E-05 2.22889E-18 1.00122E-18
 -1      1758 9.75975E-05-1.74083E-05-3.43863E-05 1.29297E-05 2.16155E-18 5.88820E-19
 -1      1759 1.03217E-04-2.24857E-05-3.46978E-05 9.81925E-06 2.16375E-18 4.81909E-19
 -1      1760 7.73900E-05-9.35691E-06-2.92873E-05 2.48235E-05 2.44038E-18 1.50336E-18
 -1      1761 8.55952E-05-1.26897E-05-3.11248E-05 2.19359E-05 2.34602E-18 1.23376E-18
 -1      1762 9.27323E-05-1.91306E-05-3.16943E-05 2.04431E-05 2.37083E-18 1.22751E-18
 -1      1763 5.85010E-05 1.05595E-06-2.56921E-05 2.74280E-05 2.55570E-18 1.80950E-18
 -1      1764 6.74703E-05-3.21443E-06-2.72724E-05 2.72318E-05 2.54070E-18 1.59465E-18
 -1      1765 7.44848E-05-9.99090E-06-2.77446E-05 2.90057E-05 2.63266E-18 1.60298E-18
 -1      1766 4.52837E-05 1.02036E-05-2.38783E-05 2.21568E-05 2.47232E-18 2.10795E-18
 -1      1767 5.00860E-05 7.35208E-06-2.43381E-05 2.49804E-05 2.52342E-18 1.86993E-18
 -1      1768 5.39069E-05 2.57868E-06-2.41277E-05 2.99490E-05 2.73181E-18 1.86384E-18
 -1      1769 4.70733E-05 1.20159E-05-2.52551E-05 1.12438E-05 2.18431E-18 2.62011E-18
 -1      1770 4.36917E-05 1.26024E-05-2.40190E-05 1.54750E-05 2.31386E-18 2.24186E-18
 -1      1771 4.19973E-05 1.15970E-05-2.26884E-05 2.09721E-05 2.56668E-18 2.10504E-18
 -1      1772 6.90920E-05 2.58096E-06-3.05646E-05 1.06085E-06 1.52937E-18 3.48006E-18
 -1      1773 5.61350E-05 7.58185E-06-2.74628E-05 3.87983E-06 1.78004E-18 2.92645E-18
 -1      1774 4.91200E-05 9.82499E-06-2.49537E-05 6.26067E-06 2.04271E-18 2.54290E-18
 -1      1775 1.06133E-04-1.61344E-05-3.84883E-05-2.21651E-06 5.00861E-19 4.78949E-18
 -1      1776 8.70385E-05-7.42453E-06-3.44065E-05-2.67618E-06 1.00506E-18 3.99842E-18
 -1      1777 7.76859E-05-4.57307E-06-3.11608E-05-5.15871E-06 1.17317E-18 3.47429E-18
 -1      1778 1.35321E-04-3.38347E-05-4.37461E-05-3.80665E-06-2.25575E-19 6.09107E-18
 -1      1779 1.19586E-04-2.38938E-05-4.10580E-05-2.94589E-06 1.12033E-19 5.24128E-18
 -1      1780 1.10860E-04-2.24280E-05-3.77855E-05-9.47227E-06 3.25247E-19 4.53180E-18
 -1      1781 1.36700E-04-3.62573E-05-4.30790E-05-1.08937E-05-2.06941E-19 5.96174E-18
 -1      1782 9.43583E-05-1.72916E-05-3.26623E-05-2.33066E-05-7.75088E-19-4.72126E-18
 -1      1783 1.42464E-04-4.28106E-05-4.25931E-05-1.76947E-05-2.39710E-19 5.66231E-18
 -1      1784 1.38790E-04-3.92636E-05-4.24764E-05-1.46476E-05-2.05121E-19 5.62755E-18
 -1      1785 1.25611E-04-3.31146E-05-3.95702E-05-1.55676E-05-1.46868E-19 4.68383E-18
 -1      1786 9.45986E-05-2.05625E-05-3.14292E-05-1.92025E-05-5.93691E-19-4.31770E-18
 -1      1787 8.94292E-05-2.45190E-05-2.77066E-05-9.91713E-06-4.76377E-19-3.98367E-18
 -1      1788 8.65391E-05-2.42087E-05-2.66820E-05-7.89254E-06-2.56360E-19-4.11238E-18
 -1      1789 8.49932E-05-2.41222E-05-2.59832E-05-6.17253E-06-3.26412E-19-3.90792E-18
 -1      1790 8.32746E-05-2.38076E-05-2.54281E-05-4.99633E-06-2.81188E-19-3.96265E-18
 -1      1791 8.89452E-05-2.41448E-05-2.77889E-05-9.30500E-06-2.84861E-19-3.24908E-18
 -1      1792 8.20578E-05-2.35197E-05-2.50156E-05-3.64842E-06-2.91518E-19-3.74795E-18
 -1      1793 8.10527E-05-2.32438E-05-2.47202E-05-2.68169E-06-1.60327E-19-3.77851E-18
 -1      1794 8.62456E-05-2.40515E-05-2.66845E-05-5.81389E-06-2.50828E-19-2.89938E-18
 -1      1795 8.02970E-05-2.30118E-05-2.45002E-05-1.42355E-06-1.44495E-19-3.73658E-18
 -1      1796 7.99382E-05-2.29074E-05-2.43945E-05-4.88922E-07-1.23508E-19-3.67861E-18
 -1      1797 8.43220E-05-2.36214E-05-2.60513E-05-2.86637E-06-1.78479E-19-2.61754E-18
 -1      1798 7.96963E-05-2.28529E-05-2.43201E-05 7.30346E-07-1.43671E-19-3.73351E-18
 -1      1799 7.99385E-05-2.29801E-05-2.43738E-05 1.61300E-06-1.03302E-19-3.64587E-18
 -1      1800 8.33520E-05-2.33742E-05-2.57442E-05-5.70334E-08-1.54114E-19-2.59353E-18
 -1      1801 8.01939E-05-2.31433E-05-2.44145E-05 2.69420E-06-1.31565E-19-3.44336E-18
 -1      1802 8.09582E-05-2.34967E-05-2.46014E-05 3.42273E-06 5.69762E-21-3.34790E-18
 -1      1803 8.34025E-05-2.35629E-05-2.56807E-05 2.55274E-06-2.23438E-20-2.33718E-18
 -1      1804 8.16139E-05-2.38434E-05-2.47307E-05 4.22510E-06-1.28775E-20-3.37412E-18
 -1      1805 8.27644E-05-2.43599E-05-2.50173E-05 4.70033E-06 2.45838E-21-3.31107E-18
 -1      1806 8.43702E-05-2.42209E-05-2.58033E-05 4.68550E-06 5.11198E-21-2.20371E-18
 -1      1807 8.36641E-05-2.48064E-05-2.52081E-05 5.12958E-06-1.15577E-19-3.42225E-18
 -1      1808 8.50256E-05-2.53917E-05-2.55537E-05 5.30829E-06-1.67140E-20-3.38008E-18
 -1      1809 8.59955E-05-2.52112E-05-2.60626E-05 6.07399E-06-6.00566E-20-2.21158E-18
 -1      1810 8.59996E-05-2.58429E-05-2.57783E-05 5.35875E-06 3.05722E-20-3.47770E-18
 -1      1811 8.73956E-05-2.64055E-05-2.61410E-05 5.26733E-06 9.75072E-20-3.40477E-18
 -1      1812 8.79380E-05-2.63129E-05-2.64112E-05 6.60851E-06-1.16721E-19-2.41128E-18
 -1      1813 8.83061E-05-2.67895E-05-2.63735E-05 5.01414E-06 2.94479E-19-3.57811E-18
 -1      1814 8.95942E-05-2.72661E-05-2.67176E-05 4.72900E-06 3.88011E-19-3.58862E-18
 -1      1815 8.98768E-05-2.73178E-05-2.68034E-05 6.37382E-06 1.34970E-19-2.52732E-18
 -1      1816 9.03587E-05-2.75490E-05-2.69365E-05 4.28887E-06 1.87882E-19-3.49020E-18
 -1      1817 9.14492E-05-2.79120E-05-2.72368E-05 3.90322E-06 1.53837E-19-3.32923E-18
 -1      1818 9.15849E-05-2.80961E-05-2.71980E-05 5.59143E-06 3.36609E-19-2.38514E-18
 -1      1819 9.20379E-05-2.80929E-05-2.74275E-05 3.39238E-06 3.62442E-19-3.28648E-18
 -1      1820 9.28944E-05-2.83436E-05-2.76709E-05 2.98828E-06 3.37432E-19-2.70116E-18
 -1      1821 9.29504E-05-2.86098E-05-2.75625E-05 4.52537E-06 3.90505E-19-1.93122E-18
 -1      1822 9.33151E-05-2.84415E-05-2.78260E-05 2.49562E-06-3.05163E-20-2.92678E-18
 -1      1823 9.39425E-05-2.85981E-05-2.80102E-05 2.12952E-06 3.56515E-20-2.48259E-18
 -1      1824 9.39561E-05-2.88890E-05-2.78752E-05 3.40510E-06 2.16207E-19-1.70461E-18
 -1      1825 9.42223E-05-2.86379E-05-2.81283E-05 1.70787E-06 2.16837E-20-2.60245E-18
 -1      1826 9.46509E-05-2.87246E-05-2.82585E-05 1.40886E-06 2.60795E-19-2.34919E-18
 -1      1827 9.46432E-05-2.89957E-05-2.81261E-05 2.38737E-06 1.18684E-20-2.10882E-18
 -1      1828 9.48228E-05-2.87293E-05-2.83427E-05 1.07929E-06 2.13537E-19-2.71251E-18
 -1      1829 9.50938E-05-2.87688E-05-2.84283E-05 8.54753E-07 1.47373E-19-3.11072E-18
 -1      1830 9.50775E-05-2.89949E-05-2.83148E-05 1.55285E-06-4.60731E-20-2.07399E-18
 -1      1831 9.51890E-05-2.87555E-05-2.84842E-05 6.16330E-07 4.44295E-20-3.38582E-18
 -1      1832 9.53441E-05-2.87662E-05-2.85357E-05 4.60055E-07-8.47918E-20-3.25898E-18
 -1      1833 9.53271E-05-2.89391E-05-2.84476E-05 9.22651E-07 4.11580E-20-2.42006E-18
 -1      1834 9.53879E-05-2.87460E-05-2.85698E-05 2.99816E-07 3.55708E-20-3.03081E-18
 -1      1835 9.54638E-05-2.87410E-05-2.85971E-05 1.99124E-07-1.61812E-19-2.79655E-18
 -1      1836 9.54508E-05-2.88637E-05-2.85344E-05 4.80613E-07 8.97259E-20-2.35684E-18
 -1      1837 9.54756E-05-2.87200E-05-2.86154E-05 9.96841E-08-3.05482E-19-2.35625E-18
 -1      1838 9.55012E-05-2.87079E-05-2.86267E-05 4.04219E-08 1.48726E-19-2.35765E-18
 -1      1839 9.54943E-05-2.87894E-05-2.85860E-05 1.92727E-07 3.06305E-20-1.93372E-18
 -1      1840 9.54947E-05-2.86893E-05-2.86344E-05-1.53116E-08-1.60075E-19-2.48199E-18
 -1      1841 9.54911E-05-2.86751E-05-2.86360E-05-4.59483E-08-3.54603E-19-2.74107E-18
 -1      1842 9.54906E-05-2.87256E-05-2.86126E-05 2.06624E-08-1.59481E-19-1.74842E-18
 -1      1843 9.54755E-05-2.86599E-05-2.86371E-05-7.24390E-08-5.33889E-20-2.84487E-18
 -1      1844 9.54573E-05-2.86464E-05-2.86335E-05-8.47156E-08-4.87045E-20-3.09186E-18
 -1      1845 9.54623E-05-2.86754E-05-2.86225E-05-7.05566E-08-3.83639E-19-1.56595E-18
 -1      1846 9.54385E-05-2.86347E-05-2.86310E-05-9.30631E-08-7.52034E-20-2.77433E-18
 -1      1847 9.54148E-05-2.86232E-05-2.86250E-05-9.45251E-08 7.75973E-20-2.28429E-18
 -1      1848 9.54239E-05-2.86382E-05-2.86223E-05-1.09232E-07 1.38667E-19-1.41510E-18
 -1      1849 9.53961E-05-2.86145E-05-2.86208E-05-9.26238E-08 1.77793E-19-2.11134E-18
 -1      1850 9.53724E-05-2.86053E-05-2.86144E-05-8.84287E-08 2.60788E-19-1.46420E-18
 -1      1851 9.53839E-05-2.86118E-05-2.86167E-05-1.16392E-07 4.36474E-19-1.02992E-18
 -1      1852 9.53556E-05-2.85991E-05-2.86098E-05-8.15241E-08-1.01877E-19-1.56225E-18
 -1      1853 9.53345E-05-2.85921E-05-2.86038E-05-7.49584E-08-4.79876E-20-1.61346E-18
 -1      1854 9.53471E-05-2.85940E-05-2.86087E-05-1.06592E-07 6.27680E-20-7.45682E-19
 -1      1855 9.53205E-05-2.85878E-05-2.85994E-05-6.62991E-08 3.00528E-20-1.33013E-18
 -1      1856 9.53033E-05-2.85827E-05-2.85944E-05-5.92979E-08 1.08752E-19-1.42800E-18
 -1      1857 9.53158E-05-2.85823E-05-2.86003E-05-8.92527E-08 3.53065E-19-6.80899E-19
 -1      1858 9.52921E-05-2.85798E-05-2.85906E-05-5.07303E-08-1.87471E-19-1.27932E-18
 -1      1859 9.52788E-05-2.85764E-05-2.85866E-05-4.43161E-08-1.64007E-19-9.21798E-19
 -1      1860 9.52905E-05-2.85750E-05-2.85926E-05-7.00357E-08 1.36351E-19 4.95932E-20
 -1      1861 9.52703E-05-2.85745E-05-2.85836E-05-3.67626E-08-2.27959E-19-1.07187E-18
 -1      1862 9.52605E-05-2.85722E-05-2.85806E-05-3.13805E-08-3.19190E-19-1.04771E-18
 -1      1863 9.52710E-05-2.85707E-05-2.85860E-05-5.20261E-08-3.76515E-19 8.35006E-19
 -1      1864 9.52543E-05-2.85711E-05-2.85782E-05-2.51925E-08 1.07360E-19-5.25786E-19
 -1      1865 9.52476E-05-2.85697E-05-2.85761E-05-2.09483E-08 1.04320E-18-1.41527E-19
 -1      1866 9.52565E-05-2.85683E-05-2.85808E-05-3.66503E-08 3.86997E-19 9.61591E-19
 -1      1867 9.52432E-05-2.85690E-05-2.85744E-05-1.61511E-08 8.74257E-19-5.91756E-19
 -1      1868 9.52388E-05-2.85683E-05-2.85730E-05-1.29696E-08 2.87899E-19-9.61107E-19
 -1      1869 9.52462E-05-2.85673E-05-2.85768E-05-2.43367E-08 3.51235E-19 1.13299E-18
 -1      1870 9.52360E-05-2.85680E-05-2.85718E-05-9.42247E-09 4.34205E-20-1.44052E-18
 -1      1871 9.52334E-05-2.85676E-05-2.85709E-05-7.14682E-09 3.92968E-19-1.09639E-18
 -1      1872 9.52392E-05-2.85670E-05-2.85739E-05-1.49645E-08 1.49335E-19-3.97234E-19
 -1      1873 9.52316E-05-2.85675E-05-2.85702E-05-4.64143E-09-9.76258E-20-1.22930E-18
 -1      1874 9.52302E-05-2.85675E-05-2.85697E-05-3.09202E-09-3.91658E-19-5.34830E-19
 -1      1875 9.52348E-05-2.85671E-05-2.85720E-05-8.15023E-09 1.25848E-19-4.68466E-19
 -1      1876 9.52293E-05-2.85675E-05-2.85692E-05-1.40891E-09-6.47182E-19-7.59192E-19
 -1      1877 9.52288E-05-2.85676E-05-2.85690E-05-4.14489E-10-1.73598E-19-5.69367E-19
 -1      1878 9.52323E-05-2.85675E-05-2.85707E-05-3.42082E-09-5.79764E-19-7.33925E-20
 -1      1879 9.52284E-05-2.85678E-05-2.85688E-05 6.47573E-10 3.94016E-19-6.76648E-19
 -1      1880 9.52284E-05-2.85680E-05-2.85687E-05 1.23527E-09 5.95989E-19-5.47501E-19
 -1      1881 9.52310E-05-2.85679E-05-2.85699E-05-3.09159E-10-2.68632E-19 3.36342E-19
 -1      1882 9.52284E-05-2.85681E-05-2.85687E-05 1.84673E-09 3.16823E-19-1.85515E-18
 -1      1883 9.52288E-05-2.85684E-05-2.85687E-05 2.14834E-09-1.35576E-19-2.43589E-18
 -1      1884 9.52306E-05-2.85684E-05-2.85695E-05 1.59861E-09-6.69575E-19-1.18587E-18
 -1      1885 9.52290E-05-2.85685E-05-2.85687E-05 2.44596E-09 2.08314E-19-1.70317E-18
 -1      1886 9.52296E-05-2.85688E-05-2.85689E-05 2.55521E-09 8.48660E-19-1.27483E-18
 -1      1887 9.52308E-05-2.85689E-05-2.85694E-05 2.64538E-09 4.22584E-19-3.90397E-19
 -1      1888 9.52299E-05-2.85690E-05-2.85690E-05 2.64414E-09 6.52084E-19-1.67685E-18
 -1      1889 9.52305E-05-2.85692E-05-2.85691E-05 2.63109E-09 1.33795E-18-1.46925E-18
 -1      1890 9.52313E-05-2.85693E-05-2.85694E-05 3.10177E-09 8.93084E-19-3.93935E-19
 -1      1891 9.52309E-05-2.85694E-05-2.85692E-05 2.58930E-09 1.62507E-18-9.98456E-19
 -1      1892 9.52316E-05-2.85696E-05-2.85694E-05 2.50446E-09 2.10509E-18-8.64018E-20
 -1      1893 9.52320E-05-2.85697E-05-2.85696E-05 3.17312E-09 1.91509E-18 1.24030E-19
 -1      1894 9.52319E-05-2.85697E-05-2.85695E-05 2.38772E-09 1.74447E-18-5.65638E-19
 -1      1895 9.52325E-05-2.85699E-05-2.85697E-05 2.26619E-09 6.36339E-19 1.16053E-19
 -1      1896 9.52328E-05-2.85700E-05-2.85698E-05 3.00974E-09 2.07442E-18-2.34298E-19
 -1      1897 9.52329E-05-2.85700E-05-2.85698E-05 2.11291E-09-2.18715E-19 9.19060E-19
 -1      1898 9.52335E-05-2.85702E-05-2.85700E-05 1.97802E-09-1.55114E-18 1.36546E-18
 -1      1899 9.52336E-05-2.85703E-05-2.85700E-05 2.71780E-09 8.80702E-19 2.34551E-19
 -1      1900 9.52338E-05-2.85703E-05-2.85701E-05 1.81343E-09-2.16680E-18 1.53041E-18
 -1      1901 9.52343E-05-2.85704E-05-2.85702E-05 1.67976E-09-1.58866E-18 2.16192E-18
 -1      1902 9.52342E-05-2.85705E-05-2.85702E-05 2.36925E-09-1.43516E-18 2.77222E-18
 -1      1903 9.52345E-05-2.85705E-05-2.85703E-05 1.51935E-09-2.31184E-18 2.89947E-18
 -1      1904 9.52349E-05-2.85706E-05-2.85704E-05 1.39514E-09-7.81747E-19 2.33966E-18
 -1      1905 9.52349E-05-2.85707E-05-2.85704E-05 2.01033E-09-1.42694E-18 3.88758E-18
 -1      1906 9.52352E-05-2.85707E-05-2.85705E-05 1.24729E-09 1.13821E-18 6.69811E-19
 -1      1907 9.52355E-05-2.85708E-05-2.85706E-05 1.13622E-09 1.80655E-18 1.21532E-18
 -1      1908 9.52354E-05-2.85708E-05-2.85705E-05 1.66837E-09-1.11451E-18 3.30598E-18
 -1      1909 9.52357E-05-2.85708E-05-2.85707E-05 1.00425E-09 1.40294E-18 1.89640E-18
 -1      1910 9.52360E-05-2.85709E-05-2.85708E-05 9.06694E-10 1.91077E-18 2.89210E-18
 -1      1911 9.52358E-05-2.85709E-05-2.85707E-05 1.35697E-09 2.44596E-18 2.71019E-18
 -1      1912 9.52362E-05-2.85709E-05-2.85708E-05 7.90289E-10 1.73279E-18 5.32543E-19
 -1      1913 9.52364E-05-2.85710E-05-2.85709E-05 7.04267E-10 9.80083E-19 6.37724E-20
 -1      1914 9.52362E-05-2.85710E-05-2.85708E-05 1.07998E-09 7.12482E-19 2.33678E-18
 -1      1915 9.52365E-05-2.85710E-05-2.85709E-05 6.00684E-10-1.21271E-18-4.02469E-19
 -1      1916 9.52367E-05-2.85711E-05-2.85710E-05 5.22598E-10-1.92964E-18-7.98175E-19
 -1      1917 9.52365E-05-2.85711E-05-2.85709E-05 8.34444E-10-6.32787E-19-6.45892E-19
 -1      1918 9.52368E-05-2.85711E-05-2.85710E-05 4.27706E-10-3.00963E-19 3.17751E-20
 -1      1919 9.52369E-05-2.85712E-05-2.85710E-05 3.53528E-10-4.29375E-20 1.55461E-18
 -1      1920 9.52368E-05-2.85712E-05-2.85710E-05 6.13394E-10-1.31965E-18 1.26566E-18
 -1      1921 9.52370E-05-2.85712E-05-2.85711E-05 2.69081E-10 8.40047E-19 1.06786E-18
 -1      1922 9.52370E-05-2.85712E-05-2.85711E-05 1.99870E-10 1.44030E-18 8.03871E-19
 -1      1923 9.52371E-05-2.85712E-05-2.85711E-05 2.38356E-10 3.28298E-19 2.36306E-18
 -1      1924 9.52369E-05-2.85712E-05-2.85710E-05 4.14295E-10 9.83236E-19 2.16991E-18
 -1      1925 1.54285E-04-5.46700E-05-4.24856E-05-1.23156E-05-6.77944E-19 5.89085E-18
 -1      1926 1.48371E-04-4.86467E-05-4.22571E-05-1.61489E-05-5.93982E-19 5.59812E-18
 -1      1927 1.33728E-04-4.42692E-05-3.81158E-05-2.01304E-05-5.94352E-19 4.42784E-18
 -1      1928 1.97112E-04-3.69176E-05-6.82547E-05-2.44823E-06 6.38663E-19 8.30331E-18
 -1      1929 1.99664E-04-4.02036E-05-6.77565E-05 1.35304E-05-7.45389E-20 8.05100E-18
 -1      1930 2.05878E-04-5.04182E-05-6.54669E-05-1.82418E-05 2.05448E-18 6.71104E-18
 -1      1931 2.05310E-04-4.12177E-05-6.86808E-05-7.25210E-06 1.57209E-18 7.52292E-18
 -1      1932 1.61715E-04-6.43256E-05-4.11931E-05 4.85517E-06 1.19178E-18 4.12558E-18
 -1      1933 1.66468E-04-6.58604E-05-4.32475E-05-7.96618E-06 1.98396E-18 4.50680E-18
 -1      1934 1.39809E-04-4.77969E-05-3.88438E-05 2.18965E-05-2.14935E-20 3.65050E-18
 -1      1935 1.47708E-04-5.48138E-05-3.95394E-05 1.49502E-05 3.06202E-19 3.71693E-18
 -1      1936 1.39570E-04-6.01108E-05-3.42923E-05 1.95911E-05 8.34327E-19 2.20975E-18
 -1      1937 1.24913E-04-3.67534E-05-3.76315E-05 2.47442E-05-3.79471E-19 3.94151E-18
 -1      1938 1.32542E-04-4.17193E-05-3.87644E-05 2.39858E-05-3.82806E-19 3.85606E-18
 -1      1939 1.19682E-04-4.20049E-05-3.32940E-05 2.98490E-05-3.46119E-19 1.52074E-18
 -1      1940 1.15686E-04-3.19694E-05-3.59147E-05 2.05189E-05-2.31665E-19 4.26105E-18
 -1      1941 1.21961E-04-3.45852E-05-3.73310E-05 2.24376E-05-1.36592E-19 4.19072E-18
 -1      1942 1.09673E-04-3.09065E-05-3.36920E-05 2.83218E-05-5.03402E-19 2.45154E-18
 -1      1943 1.09526E-04-3.02144E-05-3.40461E-05 1.49479E-05-5.50121E-19 4.08957E-18
 -1      1944 1.14251E-04-3.15510E-05-3.53371E-05 1.72943E-05-3.33519E-19 4.38332E-18
 -1      1945 1.05231E-04-2.73830E-05-3.33199E-05 2.24929E-05-1.99956E-19 2.87752E-18
 -1      1946 1.05174E-04-2.95637E-05-3.24348E-05 1.01958E-05 4.73981E-19 3.60828E-18
 -1      1947 1.08535E-04-3.02889E-05-3.34293E-05 1.21296E-05 1.04556E-19 3.76615E-18
 -1      1948 1.02714E-04-2.69731E-05-3.24351E-05 1.62624E-05 6.62671E-20 1.99022E-18
 -1      1949 1.02067E-04-2.92661E-05-3.12101E-05 6.71064E-06 3.25108E-19 3.30090E-18
 -1      1950 1.04364E-04-2.96894E-05-3.19108E-05 8.09288E-06 2.22095E-19 3.21123E-18
 -1      1951 1.00879E-04-2.74084E-05-3.14732E-05 1.11481E-05 3.62696E-19 1.48325E-18
 -1      1952 9.98778E-05-2.90838E-05-3.03401E-05 4.33108E-06 4.62420E-19 2.94113E-18
 -1      1953 1.01406E-04-2.93442E-05-3.08113E-05 5.25532E-06 5.24294E-19 3.18509E-18
 -1      1954 9.94184E-05-2.78845E-05-3.06506E-05 7.40660E-06 4.11175E-19 1.64468E-18
 -1      1955 9.83614E-05-2.89502E-05-2.97441E-05 2.76705E-06 1.20686E-18 2.38529E-18
 -1      1956 9.93613E-05-2.91154E-05-3.00536E-05 3.36457E-06 4.40146E-19 2.94696E-18
 -1      1957 9.82693E-05-2.82185E-05-3.00201E-05 4.83192E-06 4.76039E-19 1.73694E-18
 -1      1958 9.73254E-05-2.88472E-05-2.93438E-05 1.76002E-06 1.06852E-18 2.92173E-18
 -1      1959 9.79738E-05-2.89539E-05-2.95447E-05 2.13978E-06 1.83949E-18 2.98130E-18
 -1      1960 9.73952E-05-2.84160E-05-2.95636E-05 3.12115E-06 1.39947E-18 2.10568E-18
 -1      1961 9.66246E-05-2.87684E-05-2.90778E-05 1.11847E-06-7.08267E-19 3.82926E-18
 -1      1962 9.70431E-05-2.88379E-05-2.92076E-05 1.35794E-06 4.64920E-19 3.32333E-18
 -1      1963 9.67502E-05-2.85205E-05-2.92436E-05 2.00678E-06 3.88298E-19 2.74879E-18
 -1      1964 9.61533E-05-2.87092E-05-2.89019E-05 7.11600E-07 2.52572E-19 2.22479E-18
 -1      1965 9.64231E-05-2.87547E-05-2.89857E-05 8.62246E-07-4.75675E-19 2.57501E-18
 -1      1966 9.62852E-05-2.85698E-05-2.90234E-05 1.28866E-06 3.00731E-19 2.15633E-18
 -1      1967 9.58375E-05-2.86655E-05-2.87860E-05 4.53694E-07 1.24995E-18 1.86085E-18
 -1      1968 9.60115E-05-2.86955E-05-2.88401E-05 5.48579E-07 8.14028E-19 2.05852E-18
 -1      1969 9.59553E-05-2.85890E-05-2.88735E-05 8.28140E-07 3.17097E-19 1.30975E-18
 -1      1970 9.56262E-05-2.86339E-05-2.87095E-05 2.89820E-07-3.65185E-19 2.52457E-18
 -1      1971 9.57385E-05-2.86537E-05-2.87445E-05 3.49810E-07 5.91650E-19 2.52765E-18
 -1      1972 9.57238E-05-2.85932E-05-2.87721E-05 5.33060E-07 5.55292E-19 1.83131E-18
 -1      1973 9.54851E-05-2.86114E-05-2.86591E-05 1.85221E-07-5.94390E-19 2.80025E-18
 -1      1974 9.55577E-05-2.86244E-05-2.86818E-05 2.23365E-07-2.39947E-19 2.41105E-18
 -1      1975 9.55627E-05-2.85907E-05-2.87037E-05 3.43591E-07-2.19620E-19 1.50908E-18
 -1      1976 9.53912E-05-2.85956E-05-2.86259E-05 1.18062E-07-8.62444E-19 3.72566E-18
 -1      1977 9.54380E-05-2.86040E-05-2.86406E-05 1.42480E-07-7.82757E-19 3.36436E-18
 -1      1978 9.54512E-05-2.85858E-05-2.86576E-05 2.21423E-07-1.05180E-18 1.80460E-18
 -1      1979 9.53289E-05-2.85847E-05-2.86041E-05 7.46606E-08-8.11646E-19 3.13893E-18
 -1      1980 9.53589E-05-2.85901E-05-2.86136E-05 9.04020E-08-2.43391E-19 3.60588E-18
 -1      1981 9.53745E-05-2.85808E-05-2.86267E-05 1.42214E-07-6.31607E-19 2.14014E-18
 -1      1982 9.52879E-05-2.85773E-05-2.85899E-05 4.64480E-08 1.37848E-19 1.55125E-18
 -1      1983 9.53070E-05-2.85808E-05-2.85959E-05 5.66565E-08-8.83601E-19 2.20476E-18
 -1      1984 9.53223E-05-2.85764E-05-2.86060E-05 9.05536E-08 9.47552E-20 8.12057E-19
 -1      1985 9.52614E-05-2.85726E-05-2.85807E-05 2.80374E-08 1.35001E-18 1.00418E-18
 -1      1986 9.52733E-05-2.85746E-05-2.85845E-05 3.46801E-08 7.49727E-19 9.53943E-19
 -1      1987 9.52870E-05-2.85730E-05-2.85921E-05 5.66871E-08 8.06783E-19-3.49587E-19
 -1      1988 9.52447E-05-2.85696E-05-2.85748E-05 1.60215E-08 1.20832E-18 1.66315E-18
 -1      1989 9.52518E-05-2.85708E-05-2.85771E-05 2.03391E-08 2.04560E-18 1.69105E-18
 -1      1990 9.52635E-05-2.85706E-05-2.85830E-05 3.44196E-08 1.08942E-18-2.88985E-19
 -1      1991 9.52345E-05-2.85680E-05-2.85712E-05 8.22420E-09 1.30045E-18 1.13060E-18
 -1      1992 9.52385E-05-2.85685E-05-2.85726E-05 1.10080E-08 7.47840E-19 1.90091E-18
 -1      1993 9.52483E-05-2.85691E-05-2.85770E-05 1.97916E-08 1.46304E-18 5.61454E-19
 -1      1994 9.52288E-05-2.85672E-05-2.85692E-05 3.23720E-09 9.26256E-19 7.40741E-19
 -1      1995 9.52307E-05-2.85673E-05-2.85699E-05 4.99927E-09 1.85524E-18 1.40117E-18
 -1      1996 9.52387E-05-2.85682E-05-2.85732E-05 1.02470E-08 1.82868E-18 9.85481E-19
 -1      1997 9.52259E-05-2.85669E-05-2.85681E-05 1.34994E-10-2.01740E-18 8.57453E-19
 -1      1998 9.52266E-05-2.85668E-05-2.85684E-05 1.21244E-09 6.42589E-19 5.44751E-19
 -1      1999 9.52330E-05-2.85678E-05-2.85709E-05 4.11433E-09 5.05232E-19 1.11860E-18
 -1      2000 9.52250E-05-2.85670E-05-2.85676E-05-1.70074E-09-2.56586E-18 2.01521E-18
 -1      2001 9.52248E-05-2.85668E-05-2.85677E-05-1.08221E-09-3.63610E-18 3.75464E-20
 -1      2002 9.52299E-05-2.85677E-05-2.85696E-05 2.84084E-10-2.03979E-18 3.89852E-19
 -1      2003 9.52252E-05-2.85673E-05-2.85676E-05-2.68969E-09-9.16819E-20 3.74879E-18
 -1      2004 9.52246E-05-2.85670E-05-2.85675E-05-2.37649E-09-1.26776E-18 2.67823E-18
 -1      2005 9.52286E-05-2.85679E-05-2.85689E-05-1.99164E-09-3.05056E-18 7.40717E-20
 -1      2006 9.52261E-05-2.85678E-05-2.85678E-05-3.12037E-09 1.68804E-18 4.15793E-18
 -1      2007 9.52252E-05-2.85674E-05-2.85676E-05-3.00672E-09 1.11258E-18 4.25222E-18
 -1      2008 9.52283E-05-2.85682E-05-2.85686E-05-3.22432E-09 2.58152E-19 3.05522E-18
 -1      2009 9.52273E-05-2.85683E-05-2.85681E-05-3.19274E-09-5.45538E-19 3.56850E-18
 -1      2010 9.52264E-05-2.85679E-05-2.85679E-05-3.20527E-09 1.02924E-18 3.38220E-18
 -1      2011 9.52287E-05-2.85686E-05-2.85686E-05-3.76767E-09 1.80942E-18 3.35601E-18
 -1      2012 9.52287E-05-2.85687E-05-2.85685E-05-3.04562E-09-5.25080E-19 1.95838E-18
 -1      2013 9.52277E-05-2.85684E-05-2.85683E-05-3.13346E-09-1.02638E-18 2.77950E-18
 -1      2014 9.52295E-05-2.85690E-05-2.85688E-05-3.86784E-09 6.88596E-19 1.54850E-18
 -1      2015 9.52300E-05-2.85692E-05-2.85689E-05-2.77482E-09 1.22601E-18 1.49818E-18
 -1      2016 9.52291E-05-2.85689E-05-2.85687E-05-2.90301E-09 3.14924E-19 1.59629E-18
 -1      2017 9.52305E-05-2.85694E-05-2.85691E-05-3.69614E-09 2.39982E-19-2.74646E-20
 -1      2018 9.52313E-05-2.85696E-05-2.85693E-05-2.44542E-09 6.67554E-19 1.41472E-18
 -1      2019 9.52305E-05-2.85693E-05-2.85691E-05-2.59038E-09 1.06944E-18 1.93493E-18
 -1      2020 9.52315E-05-2.85697E-05-2.85693E-05-3.37095E-09 5.56520E-19 9.56158E-19
 -1      2021 9.52325E-05-2.85699E-05-2.85697E-05-2.10042E-09 1.05361E-18 1.04644E-18
 -1      2022 9.52318E-05-2.85697E-05-2.85695E-05-2.24680E-09 1.01455E-18 1.73549E-18
 -1      2023 9.52325E-05-2.85700E-05-2.85696E-05-2.97266E-09 9.64607E-19-2.50961E-19
 -1      2024 9.52335E-05-2.85702E-05-2.85700E-05-1.76686E-09 1.30315E-18 1.99232E-18
 -1      2025 9.52329E-05-2.85700E-05-2.85698E-05-1.90524E-09 1.91924E-18 2.00206E-18
 -1      2026 9.52334E-05-2.85703E-05-2.85699E-05-2.55433E-09 1.22045E-18-6.85956E-19
 -1      2027 9.52343E-05-2.85704E-05-2.85702E-05-1.46032E-09-1.24331E-18 2.33997E-18
 -1      2028 9.52338E-05-2.85703E-05-2.85701E-05-1.58555E-09 6.49366E-21 2.45951E-18
 -1      2029 9.52342E-05-2.85705E-05-2.85701E-05-2.14924E-09 7.58129E-21 1.69627E-18
 -1      2030 9.52350E-05-2.85706E-05-2.85705E-05-1.18808E-09 5.99785E-20 2.36812E-18
 -1      2031 9.52346E-05-2.85705E-05-2.85703E-05-1.29811E-09-4.87577E-19 2.62213E-18
 -1      2032 9.52348E-05-2.85706E-05-2.85704E-05-1.77641E-09-1.04200E-18 2.09273E-18
 -1      2033 9.52356E-05-2.85708E-05-2.85706E-05-9.51433E-10 1.44012E-18-4.53358E-19
 -1      2034 9.52353E-05-2.85707E-05-2.85706E-05-1.04647E-09-4.76330E-19 4.39388E-19
 -1      2035 9.52354E-05-2.85708E-05-2.85705E-05-1.44455E-09 7.51717E-19 9.91913E-19
 -1      2036 9.52361E-05-2.85709E-05-2.85708E-05-7.47301E-10 2.32257E-18-1.12612E-18
 -1      2037 9.52358E-05-2.85708E-05-2.85707E-05-8.29248E-10 3.28790E-18-1.64884E-19
 -1      2038 9.52359E-05-2.85709E-05-2.85707E-05-1.15499E-09 1.98779E-18-9.80379E-19
 -1      2039 9.52365E-05-2.85710E-05-2.85709E-05-5.69318E-10 9.66965E-19-2.32116E-18
 -1      2040 9.52363E-05-2.85710E-05-2.85709E-05-6.41457E-10 1.47766E-18-9.80363E-19
 -1      2041 9.52363E-05-2.85710E-05-2.85708E-05-9.03738E-10 2.00784E-18-7.50275E-19
 -1      2042 9.52367E-05-2.85711E-05-2.85710E-05-4.09018E-10-5.55963E-19-2.98331E-18
 -1      2043 9.52366E-05-2.85710E-05-2.85710E-05-4.75452E-10 2.18816E-19-2.85568E-18
 -1      2044 9.52366E-05-2.85711E-05-2.85709E-05-6.83057E-10 1.25275E-18-2.18611E-18
 -1      2045 9.52369E-05-2.85712E-05-2.85711E-05-2.57528E-10 9.74825E-20-2.69065E-18
 -1      2046 9.52368E-05-2.85711E-05-2.85710E-05-3.21099E-10-2.39657E-19-2.96666E-18
 -1      2047 9.52368E-05-2.85712E-05-2.85710E-05-4.83507E-10-8.47413E-19-3.14188E-18
 -1      2048 9.52371E-05-2.85712E-05-2.85711E-05-1.25010E-10-1.82227E-18-2.30394E-18
 -1      2049 9.52370E-05-2.85712E-05-2.85711E-05-1.84084E-10-1.17794E-18-2.23545E-18
 -1      2050 9.52370E-05-2.85712E-05-2.85710E-05-3.01477E-10-1.12968E-18-3.73577E-18
 -1      2051 9.52371E-05-2.85712E-05-2.85711E-05-1.56813E-10-2.36953E-18-2.51236E-18
 -1      2052 9.52373E-05-2.85717E-05-2.85710E-05-4.06998E-10-2.29746E-18-1.54045E-18
 -1      2053 9.52373E-05-2.85716E-05-2.85710E-05-3.93436E-10-2.18961E-18 2.61419E-19
 -1      2054 9.52372E-05-2.85715E-05-2.85710E-05-3.59835E-10-1.86066E-18-5.12484E-19
 -1      2055 9.52372E-05-2.85714E-05-2.85710E-05-3.20161E-10-2.13626E-18-1.16132E-18
 -1      2056 9.52372E-05-2.85716E-05-2.85710E-05-4.85942E-10-1.67167E-18-1.24857E-19
 -1      2057 9.52371E-05-2.85713E-05-2.85711E-05-2.20812E-10-2.87171E-18-1.97460E-18
 -1      2058 9.52374E-05-2.85719E-05-2.85709E-05-3.89867E-10-1.90553E-18-2.80142E-18
 -1      2059 9.52374E-05-2.85718E-05-2.85709E-05-4.04162E-10-1.63121E-18-1.86835E-18
 -1      2060 9.52373E-05-2.85718E-05-2.85710E-05-5.17367E-10-1.02271E-18-1.32865E-18
 -1      2061 9.52375E-05-2.85721E-05-2.85709E-05-3.13577E-10-7.90107E-19 1.02643E-18
 -1      2062 9.52374E-05-2.85720E-05-2.85709E-05-3.52826E-10-1.00908E-18 9.88455E-19
 -1      2063 9.52374E-05-2.85720E-05-2.85709E-05-4.71268E-10 7.40403E-19-9.68647E-19
 -1      2064 9.52375E-05-2.85722E-05-2.85709E-05-1.91933E-10-1.22357E-18-1.60974E-18
 -1      2065 9.52375E-05-2.85721E-05-2.85709E-05-2.49075E-10-9.10644E-19-2.59139E-19
 -1      2066 9.52375E-05-2.85721E-05-2.85709E-05-3.56080E-10 2.35475E-19-3.46020E-19
 -1      2067 9.52376E-05-2.85723E-05-2.85708E-05-4.35282E-11-1.96774E-18 7.80279E-20
 -1      2068 9.52375E-05-2.85722E-05-2.85708E-05-1.09973E-10-1.03680E-18-1.36995E-18
 -1      2069 9.52376E-05-2.85722E-05-2.85709E-05-1.90786E-10-4.47726E-19-9.96654E-19
 -1      2070 9.52375E-05-2.85722E-05-2.85708E-05 1.10739E-10-8.57869E-19 9.68500E-19
 -1      2071 9.52376E-05-2.85723E-05-2.85708E-05 4.43574E-11-1.49072E-18 1.50653E-18
 -1      2072 9.52376E-05-2.85722E-05-2.85709E-05 6.68619E-13-9.23388E-20 1.41011E-19
 -1      2073 9.52375E-05-2.85721E-05-2.85709E-05 2.49516E-10-2.27822E-18-1.42521E-18
 -1      2074 9.52375E-05-2.85722E-05-2.85709E-05 1.92549E-10-7.48414E-19-3.86941E-19
 -1      2075 9.52376E-05-2.85722E-05-2.85709E-05 1.91925E-10-1.44933E-19 6.40629E-19
 -1      2076 9.52374E-05-2.85720E-05-2.85709E-05 3.51536E-10-1.55070E-18-1.30794E-20
 -1      2077 9.52375E-05-2.85721E-05-2.85709E-05 3.12878E-10-1.30640E-18-1.39199E-18
 -1      2078 9.52375E-05-2.85721E-05-2.85709E-05 3.55656E-10 6.09698E-19-8.27779E-19
 -1      2079 9.52374E-05-2.85718E-05-2.85709E-05 4.03872E-10-1.59463E-18 2.58273E-18
 -1      2080 9.52374E-05-2.85719E-05-2.85709E-05 3.89060E-10-1.81143E-18 2.92941E-18
 -1      2081 9.52374E-05-2.85720E-05-2.85709E-05 4.69963E-10 1.30982E-18 1.27214E-18
 -1      2082 9.52373E-05-2.85716E-05-2.85710E-05 3.93336E-10-5.15278E-19 1.80973E-18
 -1      2083 9.52373E-05-2.85717E-05-2.85710E-05 4.07242E-10-1.34986E-18 1.20979E-18
 -1      2084 9.52373E-05-2.85718E-05-2.85710E-05 5.17090E-10 6.05897E-20 2.40320E-18
 -1      2085 9.52372E-05-2.85714E-05-2.85710E-05 3.17993E-10-1.41273E-18 2.30578E-18
 -1      2086 9.52372E-05-2.85715E-05-2.85710E-05 3.60489E-10-1.30326E-18 8.92031E-19
 -1      2087 9.52372E-05-2.85716E-05-2.85710E-05 4.85608E-10-1.47963E-18 5.67386E-19
 -1      2088 5.33064E-05-4.33343E-05-5.35885E-06 3.16114E-05 3.81758E-18 6.04252E-19
 -1      2089 3.64876E-05-4.16790E-05 6.06658E-07 2.25589E-05 3.78539E-18 2.75709E-19
 -1      2090 1.00458E-05-3.32234E-05 8.66106E-06-8.62280E-06 3.08648E-18 1.90921E-18
 -1      2091 1.20128E-05-3.30051E-05 7.82671E-06-1.74638E-05 2.63343E-18 1.93801E-18
 -1      2092 1.90343E-05-3.67718E-05 6.15136E-06 1.24452E-05 3.82393E-18 1.57548E-19
 -1      2093 1.24502E-05-3.65442E-05 8.64454E-06 3.08109E-06 3.50375E-18 1.02576E-18
 -1      2094 1.01191E-04-5.58249E-05-2.05163E-05 3.42658E-05 3.12725E-18 2.90426E-18
 -1      2095 7.45565E-05-5.14463E-05-1.18184E-05 2.99312E-05 3.77607E-18 2.04738E-18
 -1      2096 1.60310E-04-6.91017E-05-3.93495E-05 1.72507E-05 3.01671E-18 3.21915E-18
 -1      2097 1.30744E-04-6.45799E-05-2.95736E-05 2.19213E-05 2.87483E-18 2.81808E-18
 -1      2098 9.48401E-05-1.13758E-05-3.58620E-05-1.57841E-05 1.25401E-18-2.84322E-18
 -1      2099 9.31386E-05-1.10336E-05-3.53249E-05-1.77286E-05 1.08234E-18-3.26473E-18
 -1      2100 9.45267E-05-1.43931E-05-3.43619E-05-1.77815E-05 8.49447E-19-3.25883E-18
 -1      2101 9.80085E-05-1.48817E-05-3.56416E-05-1.49804E-05 1.29169E-18-2.57448E-18
 -1      2102 1.93838E-04-5.39706E-05-6.01367E-05-1.77605E-05 2.38694E-18 6.51284E-18
 -1      2103 2.02995E-04-4.49567E-05-6.63942E-05 1.78354E-05-6.96261E-19 7.08374E-18
 -1      2104 1.98604E-04-6.10532E-05-5.84299E-05 8.05721E-06-1.87348E-18 5.12116E-18
 -1      2105 2.15967E-04-5.82103E-05-6.55428E-05 1.37639E-05-1.66018E-18 5.59211E-18
 -1      2106 1.65426E-04-6.78428E-05-4.26654E-05-5.24796E-06-1.97867E-18 4.08228E-18
 -1      2107 1.92298E-04-6.81997E-05-5.22994E-05-3.67919E-06-1.76395E-18 4.42236E-18
 -1      2108 1.91780E-04-6.63217E-05-5.29869E-05 2.27109E-05-1.96194E-18 6.57763E-18
 -1      2109 1.07747E-04-5.87491E-05-2.28782E-05-2.48843E-05-2.38482E-18 1.75632E-18
 -1      2110 1.40619E-04-6.51847E-05-3.30412E-05-2.44600E-05-2.25480E-18 2.50849E-18
 -1      2111 5.48621E-05-4.43751E-05-6.83264E-06-2.29926E-05-1.99730E-18 7.05896E-19
 -1      2112 7.92000E-05-4.83191E-05-1.46457E-05-3.09226E-05-2.14638E-18 9.03996E-19
 -1      2113 2.21231E-05-3.10756E-05 2.17540E-06-1.06942E-05-1.21316E-18 6.07323E-19
 -1      2114 3.58230E-05-3.48145E-05-1.91774E-06-1.95734E-05-1.48612E-18 5.70053E-19
 -1      2115 6.46148E-06-2.50234E-05 6.47608E-06 1.05473E-05-8.57833E-19 4.28175E-19
 -1      2116 9.58852E-06-2.57046E-05 5.52658E-06 1.16249E-06-9.54394E-19 5.30243E-19
 -1      2117 1.10563E-05-1.87862E-05 2.57082E-06 2.90937E-05-5.92923E-20 6.27651E-19
 -1      2118 7.91038E-06-2.45219E-05 5.70364E-06 2.03401E-05-5.30666E-19 4.55280E-19
 -1      2119 3.60757E-05-2.09646E-05-6.85180E-06 4.49547E-05 3.47707E-19 1.33185E-18
 -1      2120 2.50813E-05-2.26458E-05-1.89442E-06 3.86832E-05 2.81215E-19 1.01199E-18
 -1      2121 6.56813E-05-2.33096E-05-1.84064E-05 5.24791E-05 4.13352E-19 1.94172E-18
 -1      2122 4.97197E-05-2.60048E-05-1.12755E-05 4.58067E-05 2.53263E-19 1.47470E-18
 -1      2123 5.17484E-05-2.42390E-05-1.20101E-05 5.17978E-05 1.19093E-18 1.93960E-18
 -1      2124 1.11847E-04-3.24648E-05-3.42580E-05 4.99209E-05 3.34578E-19 3.01713E-18
 -1      2125 8.81390E-05-2.96484E-05-2.58548E-05 4.87179E-05 1.75759E-19 2.49176E-18
 -1      2126 1.52723E-04-3.04538E-05-5.14128E-05 4.34154E-05 4.23516E-20 3.67019E-18
 -1      2127 1.31922E-04-3.11430E-05-4.31807E-05 4.26449E-05 1.02915E-19 3.16367E-18
 -1      2128 1.79849E-04-3.04586E-05-6.31246E-05 2.65658E-05-1.83700E-19 4.14199E-18
 -1      2129 1.62769E-04-2.89624E-05-5.71719E-05 3.24493E-05-2.70256E-19 3.73669E-18
 -1      2130 1.87865E-04-2.35284E-05-6.97469E-05 7.19000E-06-4.45963E-19 3.61514E-18
 -1      2131 1.84744E-04-2.62226E-05-6.70082E-05 1.88148E-05-3.01120E-19 4.05263E-18
 -1      2132 1.67726E-04-2.33050E-05-6.09652E-05 6.56828E-06-6.72968E-19 2.84900E-18
 -1      2133 1.95868E-04-2.35154E-05-7.24937E-05-5.70211E-06 7.83505E-20 3.54282E-18
 -1      2134 1.87854E-04-1.97722E-05-7.15337E-05 2.85416E-06-7.11508E-20 3.26277E-18
 -1      2135 1.88771E-04-2.55219E-05-6.90449E-05-1.83074E-05 1.91853E-19 3.03492E-18
 -1      2136 1.96664E-04-2.64411E-05-7.18383E-05-9.99160E-06 2.09217E-19 3.39067E-18
 -1      2137 1.71211E-04-1.17543E-05-6.72351E-05-2.15559E-06 5.00173E-19 1.72657E-18
 -1      2138 1.70721E-04-3.04530E-05-5.96405E-05-3.14373E-05 1.76924E-19 2.60081E-18
 -1      2139 1.85836E-04-3.08501E-05-6.51231E-05-2.58538E-05 8.76679E-20 3.03788E-18
 -1      2140 1.43875E-04-3.53303E-05-4.65444E-05-4.10546E-05 3.31190E-19 1.92700E-18
 -1      2141 1.62823E-04-3.49745E-05-5.37402E-05-3.94403E-05 1.83277E-19 2.25904E-18
 -1      2142 1.10005E-04-3.81867E-05-3.13767E-05-4.73478E-05-1.14349E-19 1.36457E-18
 -1      2143 1.30213E-04-3.66454E-05-3.94694E-05-4.97627E-05-7.03037E-20 1.72414E-18
 -1      2144 7.41522E-05-3.96498E-05-1.58962E-05-4.70473E-05 7.25484E-19 2.33125E-18
 -1      2145 9.24711E-05-3.65118E-05-2.38701E-05-5.27456E-05-4.91279E-20 2.09365E-18
 -1      2146 4.20800E-05-3.92859E-05-2.60857E-06-4.02529E-05 1.61021E-18 2.87081E-18
 -1      2147 5.59703E-05-3.54053E-05-9.23723E-06-4.78198E-05 7.14049E-19 2.75942E-18
 -1      2148 1.80352E-05-3.68475E-05 6.59976E-06-2.56909E-05 2.83925E-18 2.52246E-18
 -1      2149 2.50800E-05-3.36563E-05 2.68607E-06-3.37281E-05 1.62546E-18 2.86784E-18
 -1      2150 1.63194E-05-2.34828E-05 2.42856E-06-2.51971E-05 1.12550E-18 2.75497E-18
 -1      2151 9.09718E-05-2.20944E-05-2.95910E-05-1.45833E-05-3.97761E-19-4.26988E-18
 -1      2152 1.81342E-04-5.62633E-05-5.30879E-05-3.08860E-05 1.95241E-18 6.94207E-18
 -1      2153 2.00667E-04-6.38837E-05-5.75803E-05-5.14065E-06 2.67398E-18 5.00935E-18
 -1      2154 9.19016E-05-2.13964E-05-3.02741E-05-1.57742E-05-3.14620E-19-3.60762E-18
 -1      2155 2.00181E-05-1.87979E-05-1.30797E-06-1.00293E-05-2.31028E-19 5.24313E-19
 -1      2156 1.62294E-04-7.26564E-05-3.85405E-05-6.50734E-06-2.05871E-18 3.87983E-18
 -1      2157 1.65286E-04-6.42244E-05-4.31416E-05 3.21150E-06-1.37378E-18 6.60606E-18
 -1      2158 1.60798E-04-5.96762E-05-4.27342E-05-7.41915E-06-1.09235E-18 6.04204E-18
 -1      2159 1.80791E-04-6.29888E-05-5.07446E-05 2.67858E-05-1.92446E-18 7.68555E-18
 -1      2160 1.80507E-04-6.99032E-05-4.72188E-05 1.59149E-05-1.49734E-18 7.08098E-18
 -1      2161 1.85071E-04-4.61978E-05-5.87354E-05 2.91577E-05-1.32434E-18 8.63804E-18
 -1      2162 1.88375E-04-6.00505E-05-5.52462E-05 3.40548E-05-2.15930E-18 8.37356E-18
 -1      2163 1.82517E-04-6.66483E-05-4.96334E-05-2.49083E-05 1.96244E-18 5.96078E-18
 -1      2164 9.52371E-05-2.85713E-05-2.85710E-05-3.44647E-10-1.40381E-18-1.70359E-18
 -1      2165 1.24956E-05-2.27578E-05 3.65605E-06-9.48847E-07 1.66082E-18 1.50518E-18
 -1      2166 3.45365E-05-3.17542E-05-1.86243E-06 2.53158E-05 2.33336E-18 8.47033E-22
 -1      2167 9.52371E-05-2.85713E-05-2.85711E-05 3.01634E-10-1.07226E-18 2.41797E-18
 -1      2168 7.77490E-05-4.88005E-05-1.30984E-05 3.74202E-05 2.56905E-18 6.49780E-19
 -1      2169 1.46583E-04-5.83086E-05-3.77652E-05-1.46227E-05-1.34837E-18 4.57648E-18
 -1      2170 1.32233E-04-6.58873E-05-2.82667E-05 2.57325E-05 2.06888E-18 2.22304E-18
 -1      2171 3.96010E-05-3.31891E-05-3.26371E-06-4.44572E-05 1.02830E-18 3.32842E-18
 -1      2172 7.73169E-05-4.39272E-05-1.45636E-05-5.21081E-05 1.28071E-18 2.36947E-18
 -1      2173 1.14453E-04-4.88134E-05-2.79728E-05-4.70660E-05 8.19504E-19 9.83829E-19
 -1      2174 1.45166E-04-4.62509E-05-4.17908E-05-3.38204E-05 1.15281E-18 7.98752E-19
 -1      2175 1.72809E-04-2.23803E-05-6.33224E-05-7.66021E-06 7.95787E-19 1.35059E-18
 -1      2176 1.75807E-04-1.65169E-05-6.76728E-05 1.08175E-06-3.30766E-19 2.57477E-18
 -1      2177 1.57379E-04-1.16450E-05-6.26554E-05-2.59077E-06-4.92550E-19 1.55536E-18
 -1      2178 1.56525E-04-7.46720E-06-6.41185E-05-3.54621E-06-1.68983E-19 1.35335E-18
 -1      2179 1.57302E-04-3.39336E-05-5.21619E-05 2.09690E-05-5.55720E-19 3.19289E-18
 -1      2180 8.91007E-05-3.45698E-05-2.31025E-05 5.15767E-05 7.46660E-19 2.68933E-18
 -1      2181 2.16241E-05-1.40542E-05-3.53800E-06 3.97229E-05 1.08907E-18 1.20617E-18
 -1      2182 7.04400E-06-1.12156E-05 1.14063E-06 1.61359E-05 4.54433E-19 6.07746E-19
 -1      2183 5.65932E-05-3.71058E-05-9.30007E-06-2.82204E-05-1.11004E-18 5.95041E-19
 -1      2184 1.08044E-04-5.83072E-05-2.18527E-05-2.85955E-05-1.94055E-18 1.62747E-18
 -1      2185 1.26752E-04-3.72965E-05-3.81902E-05 4.07200E-05 2.11758E-19 3.00400E-18
 -1      2186 1.23134E-04-4.29036E-05-3.37818E-05 3.87539E-05 4.18434E-19 2.85344E-18
 -1      2187 1.39050E-04-4.32121E-05-4.17992E-05 2.90719E-05-8.80914E-20 3.01671E-18
 -1      2188 1.64310E-04-3.61389E-05-5.39710E-05-1.87285E-05 1.00024E-18 1.61953E-18
 -1      2189 1.74487E-04-6.49839E-05-4.79925E-05-1.73788E-06 3.14313E-18 4.45370E-18
 -1      2190 1.74298E-04-7.19084E-05-4.37236E-05-7.68506E-06 2.43882E-18 3.89826E-18
 -1      2191 1.67104E-04-7.00945E-05-4.17651E-05 1.26002E-06-1.85924E-18 5.00808E-18
 -1      2192 1.16401E-04-4.17525E-05-3.16216E-05-2.37982E-05-5.93558E-19 3.23048E-18
 -1      2193 1.09986E-04-3.26216E-05-3.26090E-05-2.36502E-05-1.89682E-19 3.26791E-18
 -1      2194 1.08752E-04-2.28595E-05-3.68424E-05-6.35270E-06 1.85837E-18-7.01462E-19
 -1      2195 1.07032E-04-2.14485E-05-3.68240E-05-9.00754E-06 1.68595E-18-1.22787E-18
 -1      2196 1.04900E-04-1.98712E-05-3.65017E-05-1.10510E-05 1.68315E-18-1.56087E-18
 -1      2197 1.02708E-04-1.86986E-05-3.61269E-05-1.29470E-05 1.56278E-18-1.98484E-18
 -1      2198 1.07986E-04-2.27165E-05-3.64957E-05-1.11079E-05 1.49693E-18-1.36129E-18
 -1      2199 1.07138E-04-2.69194E-05-3.43233E-05 1.12936E-05 2.05173E-18 7.89408E-19
 -1      2200 1.09870E-04-2.73676E-05-3.54862E-05 6.20205E-06 1.98885E-18 3.13707E-19
 -1      2201 9.51747E-05-2.31367E-05-3.08637E-05 2.40808E-05 2.36539E-18 1.58393E-18
 -1      2202 1.02586E-04-2.62573E-05-3.26992E-05 1.86203E-05 2.18811E-18 1.20910E-18
 -1      2203 1.09776E-04-3.12590E-05-3.36926E-05 1.46788E-05 1.82342E-18 1.10218E-18
 -1      2204 7.26778E-05-1.20258E-05-2.60572E-05 3.43554E-05 2.68460E-18 1.80058E-18
 -1      2205 8.49205E-05-1.82464E-05-2.83098E-05 3.11858E-05 2.60578E-18 1.62187E-18
 -1      2206 9.45293E-05-2.62491E-05-2.92468E-05 3.03101E-05 2.21939E-18 1.72432E-18
 -1      2207 4.72653E-05 3.13299E-06-2.15800E-05 3.41687E-05 2.81363E-18 1.91652E-18
 -1      2208 5.90644E-05-3.53507E-06-2.32630E-05 3.60801E-05 2.81879E-18 1.81853E-18
 -1      2209 6.87131E-05-1.30669E-05-2.36280E-05 4.03102E-05 2.61204E-18 1.94738E-18
 -1      2210 3.38106E-05 1.28015E-05-1.97767E-05 2.04431E-05 2.61828E-18 1.96861E-18
 -1      2211 3.75032E-05 1.00371E-05-1.98761E-05 2.71290E-05 2.74128E-18 1.84161E-18
 -1      2212 4.06441E-05 3.41909E-06-1.83750E-05 3.52480E-05 2.67752E-18 1.84198E-18
 -1      2213 4.74035E-05 7.28181E-06-2.30328E-05 1.28480E-08 1.85412E-18 2.26613E-18
 -1      2214 3.69802E-05 1.20406E-05-2.07020E-05 7.56568E-06 2.25537E-18 1.99296E-18
 -1      2215 3.08532E-05 1.05821E-05-1.71032E-05 1.42117E-05 2.31380E-18 1.73599E-18
 -1      2216 9.58520E-05-2.97826E-05-2.78135E-05 3.32220E-05-8.90761E-19 1.29120E-18
 -1      2217 1.03498E-04-3.96488E-05-2.68975E-05 3.33014E-05-5.17325E-19 1.08463E-18
 -1      2218 9.31934E-05-2.26909E-05-3.01583E-05 2.72378E-05-7.31267E-19 2.13659E-18
 -1      2219 9.64284E-05-2.60891E-05-2.98603E-05 2.94857E-05-9.63553E-19 1.76352E-18
 -1      2220 7.88607E-05-2.17381E-05-2.41259E-05 3.18452E-05-9.00131E-19 1.22762E-18
 -1      2221 9.20689E-05-2.34884E-05-2.93600E-05-1.18459E-05-1.09810E-19-2.99523E-18
 -1      2222 9.06695E-05-2.37798E-05-2.86668E-05-9.64638E-06-4.36751E-22-2.82225E-18
 -1      2223 9.33949E-05-1.92143E-05-3.18672E-05-1.76842E-05 8.72047E-20-3.55685E-18
 -1      2224 9.25820E-05-2.21307E-05-3.02066E-05-1.37915E-05-5.76446E-20-3.24427E-18
 -1      2225 9.41967E-05-2.18094E-05-3.09987E-05-1.39972E-05 1.78519E-19-2.76290E-18
 -1      2226 9.40499E-05-1.77847E-05-3.27106E-05-1.75070E-05 4.14338E-19-3.23912E-18
 -1      2227 8.98699E-05-2.39612E-05-2.81959E-05-7.89297E-06-3.73952E-20-2.60054E-18
 -1      2228 8.86986E-05-2.37940E-05-2.77870E-05-6.22127E-06 4.10513E-20-2.42558E-18
 -1      2229 9.27770E-05-2.34767E-05-2.97026E-05-1.01440E-05 8.83975E-20-2.48187E-18
 -1      2230 8.78412E-05-2.35922E-05-2.74964E-05-4.48545E-06-7.40343E-20-2.07148E-18
 -1      2231 8.70951E-05-2.33812E-05-2.72711E-05-2.93191E-06-8.61492E-20-2.07059E-18
 -1      2232 9.10614E-05-2.35349E-05-2.89621E-05-6.42235E-06 1.40253E-19-1.90035E-18
 -1      2233 8.65413E-05-2.32282E-05-2.70994E-05-1.15510E-06-9.30810E-20-1.90864E-18
 -1      2234 8.63012E-05-2.32258E-05-2.70040E-05 3.40180E-07 5.30157E-20-1.84742E-18
 -1      2235 8.96469E-05-2.32101E-05-2.85065E-05-2.65158E-06-1.62872E-21-1.49116E-18
 -1      2236 8.62128E-05-2.33433E-05-2.69075E-05 2.03305E-06 6.26904E-20-1.84577E-18
 -1      2237 8.64725E-05-2.36512E-05-2.69082E-05 3.34956E-06 1.33547E-19-1.81776E-18
 -1      2238 8.90224E-05-2.32458E-05-2.82254E-05 1.08785E-06 5.81202E-20-1.42336E-18
 -1      2239 8.68379E-05-2.40784E-05-2.68607E-05 4.73017E-06-4.62659E-20-1.78986E-18
 -1      2240 8.75028E-05-2.46552E-05-2.69331E-05 5.70035E-06-2.42447E-20-1.85666E-18
 -1      2241 8.93418E-05-2.39627E-05-2.80473E-05 4.39797E-06 6.78429E-20-1.34906E-18
 -1      2242 8.81718E-05-2.52861E-05-2.69212E-05 6.57580E-06 7.20871E-20-1.79252E-18
 -1      2243 8.90843E-05-2.59973E-05-2.70449E-05 7.09131E-06 2.23082E-20-1.76856E-18
 -1      2244 9.04363E-05-2.52868E-05-2.79357E-05 6.81461E-06 6.88950E-20-1.53920E-18
 -1      2245 8.98477E-05-2.66606E-05-2.70626E-05 7.39639E-06-1.72939E-19-1.68824E-18
 -1      2246 9.08348E-05-2.73498E-05-2.72185E-05 7.45734E-06-6.26766E-20-1.73549E-18
 -1      2247 9.19312E-05-2.68835E-05-2.78787E-05 8.06186E-06 4.12457E-20-1.10699E-18
 -1      2248 9.15134E-05-2.78957E-05-2.72614E-05 7.26877E-06 6.52257E-20-1.74978E-18
 -1      2249 9.24343E-05-2.84489E-05-2.74313E-05 6.97119E-06 2.15315E-19-1.75278E-18
 -1      2250 9.34232E-05-2.83649E-05-2.78747E-05 8.16439E-06-8.87581E-20-1.00668E-18
 -1      2251 9.29322E-05-2.88027E-05-2.74930E-05 6.45267E-06 4.67757E-19-1.69627E-18
 -1      2252 9.37022E-05-2.91740E-05-2.76602E-05 5.93787E-06 4.72681E-19-1.59141E-18
 -1      2253 9.46302E-05-2.94586E-05-2.79203E-05 7.39545E-06 4.05956E-19-7.56279E-19
 -1      2254 9.40042E-05-2.93349E-05-2.77321E-05 5.26733E-06 5.41509E-19-1.28803E-18
 -1      2255 9.45935E-05-2.95349E-05-2.78838E-05 4.67236E-06 7.91950E-19-5.67685E-19
 -1      2256 9.54421E-05-3.00750E-05-2.80051E-05 6.12768E-06 6.56240E-19-6.59902E-19
 -1      2257 9.47341E-05-2.95472E-05-2.79570E-05 3.99257E-06 3.14468E-19-7.72225E-19
 -1      2258 9.51516E-05-2.96171E-05-2.80850E-05 3.42024E-06-1.71117E-19-1.03001E-18
 -1      2259 9.58837E-05-3.02709E-05-2.81130E-05 4.70233E-06 5.05027E-19-5.06668E-19
 -1      2260 9.51827E-05-2.95391E-05-2.81523E-05 2.82042E-06-3.82099E-19-1.08976E-18
 -1      2261 9.54572E-05-2.95270E-05-2.82532E-05 2.33098E-06-3.23231E-19-1.52904E-18
 -1      2262 9.60476E-05-3.01744E-05-2.82273E-05 3.36094E-06-3.58953E-19-7.17104E-19
 -1      2263 9.54269E-05-2.94093E-05-2.83099E-05 1.85112E-06-3.78942E-19-1.51809E-18
 -1      2264 9.55929E-05-2.93557E-05-2.83844E-05 1.46822E-06-3.07293E-19-1.52725E-18
 -1      2265 9.60381E-05-2.99204E-05-2.83341E-05 2.23473E-06-3.67197E-19-7.77759E-19
 -1      2266 9.55358E-05-2.92334E-05-2.84285E-05 1.11348E-06-3.40844E-19-1.75779E-18
 -1      2267 9.56255E-05-2.91663E-05-2.84798E-05 8.35765E-07-1.70044E-20-1.74415E-18
 -1      2268 9.59405E-05-2.96148E-05-2.84245E-05 1.36721E-06-5.33492E-19-1.03215E-18
 -1      2269 9.55629E-05-2.90586E-05-2.85115E-05 5.91658E-07 1.35347E-19-2.07222E-18
 -1      2270 9.56024E-05-2.89943E-05-2.85441E-05 4.04228E-07 3.49296E-20-2.10717E-18
 -1      2271 9.58120E-05-2.93240E-05-2.84947E-05 7.46217E-07-1.33111E-19-1.40776E-18
 -1      2272 9.55451E-05-2.89088E-05-2.85650E-05 2.48201E-07-3.78441E-20-1.93219E-18
 -1      2273 9.55537E-05-2.88548E-05-2.85836E-05 1.31173E-07 1.59873E-19-1.78436E-18
 -1      2274 9.56852E-05-2.90808E-05-2.85449E-05 3.31941E-07 8.88290E-20-1.78073E-18
 -1      2275 9.55059E-05-2.87919E-05-2.85959E-05 3.99237E-08 3.09879E-19-1.61446E-18
 -1      2276 9.54972E-05-2.87502E-05-2.86047E-05-2.62655E-08-5.66015E-20-1.17237E-18
 -1      2277 9.55749E-05-2.88947E-05-2.85775E-05 7.62220E-08 1.67432E-19-1.30531E-18
 -1      2278 9.54594E-05-2.87067E-05-2.86107E-05-7.30612E-08-4.50847E-19-8.58315E-19
 -1      2279 9.54425E-05-2.86766E-05-2.86131E-05-1.05024E-07-3.11412E-19-1.09589E-18
 -1      2280 9.54856E-05-2.87618E-05-2.85962E-05-6.63526E-08 5.80572E-20-2.93776E-19
 -1      2281 9.54136E-05-2.86483E-05-2.86150E-05-1.23352E-07-2.74938E-19-8.12243E-19
 -1      2282 9.53939E-05-2.86276E-05-2.86136E-05-1.33902E-07 3.76070E-19-8.39182E-19
 -1      2283 9.54164E-05-2.86726E-05-2.86048E-05-1.33422E-07-8.38073E-20-5.02195E-19
 -1      2284 9.53724E-05-2.86102E-05-2.86128E-05-1.35414E-07 9.19700E-19-8.23884E-19
 -1      2285 9.53533E-05-2.85968E-05-2.86096E-05-1.33726E-07 7.22129E-19-5.32671E-19
 -1      2286 9.53644E-05-2.86163E-05-2.86066E-05-1.53587E-07 5.35388E-19-1.59714E-19
 -1      2287 9.53373E-05-2.85868E-05-2.86074E-05-1.26379E-07 1.58478E-19-6.65385E-19
 -1      2288 9.53204E-05-2.85785E-05-2.86035E-05-1.18598E-07-2.09529E-19-5.71995E-19
 -1      2289 9.53259E-05-2.85832E-05-2.86043E-05-1.47140E-07 2.11289E-19-7.54755E-19
 -1      2290 9.53088E-05-2.85733E-05-2.86007E-05-1.07492E-07 3.89104E-19-1.07736E-18
 -1      2291 9.52947E-05-2.85685E-05-2.85969E-05-9.74623E-08 5.93009E-19-8.71590E-19
 -1      2292 9.52979E-05-2.85654E-05-2.85998E-05-1.27602E-07 5.63137E-20-8.71132E-19
 -1      2293 9.52863E-05-2.85663E-05-2.85940E-05-8.56318E-08 6.64226E-19-3.04836E-19
 -1      2294 9.52752E-05-2.85638E-05-2.85906E-05-7.55691E-08 2.38749E-19 1.30563E-19
 -1      2295 9.52776E-05-2.85573E-05-2.85946E-05-1.03407E-07 9.42075E-19-1.15831E-18
 -1      2296 9.52692E-05-2.85632E-05-2.85880E-05-6.46492E-08-7.00791E-19 6.56793E-19
 -1      2297 9.52608E-05-2.85621E-05-2.85851E-05-5.56851E-08 5.15812E-20 8.73870E-19
 -1      2298 9.52631E-05-2.85549E-05-2.85894E-05-7.94133E-08 1.07710E-19-1.88879E-19
 -1      2299 9.52565E-05-2.85624E-05-2.85829E-05-4.64138E-08 3.25951E-19 3.62814E-19
 -1      2300 9.52504E-05-2.85622E-05-2.85806E-05-3.90024E-08 7.56427E-19 7.30047E-19
 -1      2301 9.52529E-05-2.85555E-05-2.85847E-05-5.80959E-08-4.18223E-19 2.67634E-19
 -1      2302 9.52474E-05-2.85629E-05-2.85788E-05-3.15805E-08 1.48565E-19 6.24625E-19
 -1      2303 9.52431E-05-2.85631E-05-2.85772E-05-2.57827E-08-6.16504E-19 3.69981E-20
 -1      2304 9.52458E-05-2.85575E-05-2.85808E-05-4.04415E-08 2.10116E-19-2.54034E-19
 -1      2305 9.52411E-05-2.85639E-05-2.85758E-05-2.01162E-08-7.10675E-19-2.93760E-19
 -1      2306 9.52383E-05-2.85643E-05-2.85746E-05-1.57878E-08-6.73260E-20-8.85322E-19
 -1      2307 9.52410E-05-2.85600E-05-2.85777E-05-2.65693E-08-1.06816E-18-6.33738E-19
 -1      2308 9.52370E-05-2.85651E-05-2.85735E-05-1.16431E-08 1.61885E-21-9.96791E-19
 -1      2309 9.52353E-05-2.85656E-05-2.85727E-05-8.55211E-09-2.00660E-19-8.49604E-19
 -1      2310 9.52379E-05-2.85625E-05-2.85752E-05-1.61429E-08-2.82528E-19-9.74487E-19
 -1      2311 9.52345E-05-2.85663E-05-2.85720E-05-5.64904E-09-4.57187E-19-6.08127E-19
 -1      2312 9.52336E-05-2.85668E-05-2.85715E-05-3.54426E-09-5.74993E-19-3.51265E-20
 -1      2313 9.52359E-05-2.85646E-05-2.85735E-05-8.62897E-09-3.80004E-19-4.82424E-19
 -1      2314 9.52331E-05-2.85673E-05-2.85710E-05-1.60853E-09-3.75028E-19 9.97155E-21
 -1      2315 9.52327E-05-2.85678E-05-2.85707E-05-2.55658E-10-2.28921E-19 1.20448E-19
 -1      2316 9.52348E-05-2.85664E-05-2.85722E-05-3.44906E-09-4.99274E-19-2.35095E-19
 -1      2317 9.52325E-05-2.85682E-05-2.85704E-05 9.55715E-10-4.43559E-19 2.58975E-19
 -1      2318 9.52325E-05-2.85686E-05-2.85702E-05 1.75757E-09-7.79132E-19-6.41156E-20
 -1      2319 9.52342E-05-2.85678E-05-2.85713E-05-6.15156E-11-1.57593E-19 1.80206E-19
 -1      2320 9.52325E-05-2.85690E-05-2.85700E-05 2.44650E-09-4.36134E-19 2.83491E-19
 -1      2321 9.52326E-05-2.85693E-05-2.85700E-05 2.86018E-09 7.66602E-19 6.13870E-19
 -1      2322 9.52341E-05-2.85689E-05-2.85708E-05 2.00097E-09-4.36018E-19 1.60083E-18
 -1      2323 9.52327E-05-2.85695E-05-2.85699E-05 3.18688E-09 1.19319E-19 1.03828E-18
 -1      2324 9.52330E-05-2.85698E-05-2.85699E-05 3.33883E-09 7.70066E-19 7.94508E-19
 -1      2325 9.52342E-05-2.85697E-05-2.85705E-05 3.11988E-09 6.48645E-19 1.93092E-18
 -1      2326 9.52332E-05-2.85700E-05-2.85699E-05 3.42566E-09 1.97262E-18 9.85325E-19
 -1      2327 9.52335E-05-2.85702E-05-2.85700E-05 3.41050E-09 2.04018E-18 7.97771E-19
 -1      2328 9.52344E-05-2.85703E-05-2.85704E-05 3.59380E-09 1.38153E-18 2.24546E-18
 -1      2329 9.52337E-05-2.85703E-05-2.85700E-05 3.34779E-09 1.30618E-18-3.95876E-19
 -1      2330 9.52341E-05-2.85705E-05-2.85701E-05 3.23392E-09 1.65234E-18-3.96969E-19
 -1      2331 9.52347E-05-2.85707E-05-2.85703E-05 3.64815E-09 1.15075E-18 4.53786E-19
 -1      2332 9.52342E-05-2.85706E-05-2.85701E-05 3.08612E-09 2.70092E-18-7.13481E-19
 -1      2333 9.52346E-05-2.85707E-05-2.85702E-05 2.92118E-09 1.17535E-18 5.60527E-19
 -1      2334 9.52351E-05-2.85709E-05-2.85704E-05 3.44753E-09 1.50758E-18 2.32827E-19
 -1      2335 9.52347E-05-2.85708E-05-2.85703E-05 2.73255E-09-5.94892E-19 1.40889E-18
 -1      2336 9.52351E-05-2.85709E-05-2.85704E-05 2.54828E-09-4.59778E-19 2.74457E-18
 -1      2337 9.52354E-05-2.85711E-05-2.85704E-05 3.10796E-09 1.43234E-18 7.84039E-19
 -1      2338 9.52352E-05-2.85709E-05-2.85704E-05 2.34778E-09-1.11743E-18 3.23462E-18
 -1      2339 9.52355E-05-2.85710E-05-2.85705E-05 2.16406E-09-2.19050E-18 3.09136E-18
 -1      2340 9.52357E-05-2.85712E-05-2.85705E-05 2.70795E-09-4.01998E-19 3.33594E-18
 -1      2341 9.52356E-05-2.85710E-05-2.85706E-05 1.96930E-09-2.39474E-18 2.83023E-18
 -1      2342 9.52359E-05-2.85711E-05-2.85706E-05 1.79735E-09-2.00774E-19 2.50365E-18
 -1      2343 9.52360E-05-2.85713E-05-2.85706E-05 2.29778E-09-2.41972E-18 3.08028E-18
 -1      2344 9.52360E-05-2.85711E-05-2.85707E-05 1.61775E-09 1.70368E-18 2.33931E-18
 -1      2345 9.52362E-05-2.85711E-05-2.85707E-05 1.46252E-09 1.75196E-18 2.00377E-18
 -1      2346 9.52363E-05-2.85713E-05-2.85707E-05 1.90695E-09 2.78112E-19 2.22485E-18
 -1      2347 9.52363E-05-2.85712E-05-2.85708E-05 1.30161E-09-2.67101E-19 1.17137E-18
 -1      2348 9.52365E-05-2.85712E-05-2.85708E-05 1.16364E-09-5.74344E-19 2.74823E-19
 -1      2349 9.52365E-05-2.85713E-05-2.85708E-05 1.54999E-09 1.78136E-19 8.49315E-19
 -1      2350 9.52366E-05-2.85712E-05-2.85709E-05 1.02091E-09 4.10221E-19 1.72308E-19
 -1      2351 9.52367E-05-2.85712E-05-2.85709E-05 8.97965E-10-1.05624E-18 4.55865E-19
 -1      2352 9.52367E-05-2.85713E-05-2.85709E-05 1.23088E-09-7.01439E-19 6.59014E-19
 -1      2353 9.52368E-05-2.85712E-05-2.85709E-05 7.70338E-10-1.49097E-18 1.94488E-18
 -1      2354 9.52369E-05-2.85713E-05-2.85710E-05 6.58872E-10-3.84236E-19 3.01828E-18
 -1      2355 9.52369E-05-2.85713E-05-2.85709E-05 9.46823E-10-9.82735E-20 2.34439E-18
 -1      2356 1.46319E-04-6.72058E-05-3.37366E-05-1.46973E-05-1.84865E-18 3.52503E-18
 -1      2357 1.17385E-04-5.44065E-05-2.64769E-05 3.11993E-05 1.18436E-18 1.62912E-18
 -1      2358 9.40704E-05-2.19364E-05-3.09734E-05 2.04108E-05-1.83109E-19 2.32476E-18
 -1      2359 9.55551E-05-2.24895E-05-3.11596E-05 2.34497E-05-2.65866E-19 2.80327E-18
 -1      2360 8.23344E-05-1.70388E-05-2.77571E-05 2.46119E-05-8.16169E-19 1.98239E-18
 -1      2361 9.53532E-05-2.33892E-05-3.09053E-05 1.45851E-05 4.99012E-19 1.76433E-18
 -1      2362 9.62860E-05-2.30619E-05-3.12864E-05 1.73531E-05 1.71577E-19 2.07075E-18
 -1      2363 8.71029E-05-1.82025E-05-2.93873E-05 1.83604E-05 1.63065E-19 2.37406E-18
 -1      2364 9.61209E-05-2.50445E-05-3.05058E-05 1.00878E-05 5.29445E-19 1.37150E-18
 -1      2365 9.68616E-05-2.45905E-05-3.08954E-05 1.22425E-05 5.78418E-19 1.51285E-18
 -1      2366 9.08098E-05-2.08672E-05-2.98823E-05 1.32800E-05 8.28213E-19 1.32075E-18
 -1      2367 9.64004E-05-2.63361E-05-3.00544E-05 6.81924E-06 5.60819E-19 9.51440E-19
 -1      2368 9.70080E-05-2.59717E-05-3.03793E-05 8.36429E-06 5.92493E-19 1.15843E-18
 -1      2369 9.31559E-05-2.33433E-05-2.98632E-05 9.33994E-06 5.43808E-19 2.84144E-19
 -1      2370 9.63830E-05-2.72134E-05-2.96594E-05 4.54323E-06 7.26106E-19 1.47876E-18
 -1      2371 9.68643E-05-2.69667E-05-2.99063E-05 5.60033E-06 7.13622E-19 1.47575E-18
 -1      2372 9.44833E-05-2.52054E-05-2.96584E-05 6.43236E-06 5.32991E-19 9.67666E-19
 -1      2373 9.62289E-05-2.77689E-05-2.93485E-05 3.00053E-06 1.23758E-18 1.52808E-18
 -1      2374 9.65953E-05-2.76149E-05-2.95271E-05 3.70415E-06 7.26652E-19 1.40391E-18
 -1      2375 9.51547E-05-2.64713E-05-2.94189E-05 4.36499E-06 7.95807E-19 9.80414E-19
 -1      2376 9.60352E-05-2.81065E-05-2.91169E-05 1.97253E-06 2.27758E-19 2.28641E-18
 -1      2377 9.63055E-05-2.80149E-05-2.92425E-05 2.43352E-06 9.62663E-19 2.29356E-18
 -1      2378 9.54487E-05-2.72869E-05-2.92042E-05 2.93343E-06 6.60368E-19 1.22435E-18
 -1      2379 9.58501E-05-2.83061E-05-2.89498E-05 1.29445E-06 3.13932E-19 1.38095E-18
 -1      2380 9.60450E-05-2.82535E-05-2.90366E-05 1.59394E-06 4.19172E-19 2.18901E-18
 -1      2381 9.55435E-05-2.77958E-05-2.90315E-05 1.96006E-06 4.26757E-19 1.87051E-18
 -1      2382 9.56926E-05-2.84216E-05-2.88316E-05 8.49488E-07 9.57140E-19 1.02610E-18
 -1      2383 9.58309E-05-2.83922E-05-2.88911E-05 1.04340E-06 5.65483E-19 1.13476E-18
 -1      2384 9.55424E-05-2.81069E-05-2.89001E-05 1.30592E-06 6.81322E-19 1.73323E-18
 -1      2385 9.55668E-05-2.84871E-05-2.87489E-05 5.57914E-07-1.44547E-19 1.49031E-18
 -1      2386 9.56639E-05-2.84712E-05-2.87894E-05 6.83494E-07 4.02981E-19 1.57202E-18
 -1      2387 9.55015E-05-2.82944E-05-2.88033E-05 8.69192E-07 4.71899E-19 9.92754E-19
 -1      2388 9.54702E-05-2.85236E-05-2.86916E-05 3.66577E-07 3.33614E-19 1.25173E-18
 -1      2389 9.55378E-05-2.85153E-05-2.87190E-05 4.48129E-07 2.42430E-19 1.62493E-18
 -1      2390 9.54493E-05-2.84061E-05-2.87334E-05 5.78350E-07-8.42428E-20 1.59359E-18
 -1      2391 9.53980E-05-2.85435E-05-2.86519E-05 2.40579E-07-9.46602E-19 5.31403E-19
 -1      2392 9.54447E-05-2.85393E-05-2.86705E-05 2.93782E-07-4.70676E-19 1.20993E-18
 -1      2393 9.53989E-05-2.84721E-05-2.86836E-05 3.84576E-07 3.65744E-19 1.20991E-18
 -1      2394 9.53452E-05-2.85542E-05-2.86246E-05 1.57221E-07-2.14736E-19 7.57690E-19
 -1      2395 9.53773E-05-2.85522E-05-2.86372E-05 1.92120E-07-6.22359E-19 7.08032E-19
 -1      2396 9.53557E-05-2.85109E-05-2.86484E-05 2.55146E-07-6.32770E-19 3.55406E-19
 -1      2397 9.53072E-05-2.85599E-05-2.86059E-05 1.01804E-07 4.40202E-19 1.57260E-19
 -1      2398 9.53291E-05-2.85589E-05-2.86144E-05 1.24819E-07 4.16526E-19 5.28493E-19
 -1      2399 9.53209E-05-2.85338E-05-2.86236E-05 1.68377E-07 1.00131E-19 4.04561E-20
 -1      2400 9.52805E-05-2.85630E-05-2.85931E-05 6.48184E-08 1.44236E-18-4.52398E-19
 -1      2401 9.52951E-05-2.85625E-05-2.85988E-05 8.00568E-08 5.82538E-19-2.72596E-19
 -1      2402 9.52942E-05-2.85472E-05-2.86063E-05 1.09989E-07 6.16684E-19-7.11529E-20
 -1      2403 9.52620E-05-2.85647E-05-2.85845E-05 4.00949E-08 4.92812E-19-1.18083E-19
 -1      2404 9.52717E-05-2.85644E-05-2.85882E-05 5.01959E-08 9.78891E-19-6.14376E-19
 -1      2405 9.52743E-05-2.85553E-05-2.85942E-05 7.05959E-08 1.37016E-18-8.16715E-19
 -1      2406 9.52495E-05-2.85658E-05-2.85787E-05 2.36048E-08 1.35796E-18 6.95991E-19
 -1      2407 9.52557E-05-2.85655E-05-2.85811E-05 3.02780E-08 9.21075E-19 6.96831E-20
 -1      2408 9.52600E-05-2.85603E-05-2.85859E-05 4.40118E-08 2.80471E-19-1.63914E-19
 -1      2409 9.52414E-05-2.85666E-05-2.85749E-05 1.26912E-08 1.18145E-18 1.60715E-18
 -1      2410 9.52452E-05-2.85663E-05-2.85764E-05 1.70564E-08 1.52294E-18 9.15663E-19
 -1      2411 9.52499E-05-2.85634E-05-2.85801E-05 2.61350E-08 5.22695E-19 6.40761E-19
 -1      2412 9.52363E-05-2.85673E-05-2.85724E-05 5.58042E-09 2.05696E-19 1.96097E-18
 -1      2413 9.52385E-05-2.85669E-05-2.85734E-05 8.38102E-09 1.11662E-18 2.09914E-18
 -1      2414 9.52431E-05-2.85655E-05-2.85763E-05 1.42208E-08 7.61914E-19 1.93254E-18
 -1      2415 9.52334E-05-2.85678E-05-2.85709E-05 1.07181E-09-1.78281E-18 1.45344E-18
 -1      2416 9.52345E-05-2.85675E-05-2.85715E-05 2.80873E-09-5.70467E-19 2.30225E-18
 -1      2417 9.52387E-05-2.85670E-05-2.85737E-05 6.41054E-09 1.13471E-19 3.20260E-18
 -1      2418 9.52319E-05-2.85684E-05-2.85700E-05-1.65861E-09-2.42042E-18 3.37029E-19
 -1      2419 9.52323E-05-2.85681E-05-2.85703E-05-6.42958E-10-3.20507E-18 2.15212E-19
 -1      2420 9.52360E-05-2.85680E-05-2.85720E-05 1.43013E-09-1.76666E-18 2.20327E-18
 -1      2421 9.52313E-05-2.85689E-05-2.85696E-05-3.18311E-09 8.40752E-20 1.78118E-18
 -1      2422 9.52313E-05-2.85686E-05-2.85697E-05-2.65179E-09-1.98115E-18 6.15067E-19
 -1      2423 9.52344E-05-2.85689E-05-2.85710E-05-1.60480E-09-2.12695E-18 5.22354E-19
 -1      2424 9.52314E-05-2.85693E-05-2.85695E-05-3.90251E-09 1.76242E-18 2.41138E-18
 -1      2425 9.52311E-05-2.85690E-05-2.85694E-05-3.69022E-09 1.85429E-18 2.92071E-18
 -1      2426 9.52337E-05-2.85695E-05-2.85704E-05-3.31408E-09 9.18546E-20 1.84808E-18
 -1      2427 9.52318E-05-2.85697E-05-2.85695E-05-4.09867E-09 1.66885E-18 7.90988E-19
 -1      2428 9.52314E-05-2.85694E-05-2.85694E-05-4.08973E-09 2.18133E-18 1.68666E-18
 -1      2429 9.52335E-05-2.85699E-05-2.85701E-05-4.13503E-09 2.54224E-18 2.17524E-18
 -1      2430 9.52324E-05-2.85700E-05-2.85696E-05-3.96935E-09 4.53455E-19 3.98684E-19
 -1      2431 9.52319E-05-2.85698E-05-2.85695E-05-4.08309E-09 8.59677E-19 5.98950E-19
 -1      2432 9.52336E-05-2.85703E-05-2.85700E-05-4.37672E-09 1.85259E-18 2.80021E-18
 -1      2433 9.52331E-05-2.85703E-05-2.85698E-05-3.65206E-09 6.88461E-20 1.06703E-19
 -1      2434 9.52326E-05-2.85701E-05-2.85696E-05-3.83287E-09-6.43354E-19-5.64588E-19
 -1      2435 9.52339E-05-2.85706E-05-2.85700E-05-4.25681E-09 2.50116E-19 8.13950E-19
 -1      2436 9.52337E-05-2.85705E-05-2.85700E-05-3.24081E-09 1.49876E-18-4.25774E-19
 -1      2437 9.52333E-05-2.85704E-05-2.85698E-05-3.45112E-09 8.83626E-19-3.36621E-20
 -1      2438 9.52343E-05-2.85708E-05-2.85701E-05-3.92698E-09 5.77969E-19-2.40593E-19
 -1      2439 9.52344E-05-2.85707E-05-2.85701E-05-2.79799E-09 3.54316E-19 1.45525E-18
 -1      2440 9.52340E-05-2.85706E-05-2.85700E-05-3.01331E-09 7.42923E-19 1.26935E-18
 -1      2441 9.52348E-05-2.85710E-05-2.85702E-05-3.49102E-09 6.43132E-19 2.83864E-18
 -1      2442 9.52349E-05-2.85708E-05-2.85703E-05-2.36306E-09-2.43597E-19 2.69283E-18
 -1      2443 9.52346E-05-2.85707E-05-2.85702E-05-2.56839E-09 4.54415E-19 1.72911E-18
 -1      2444 9.52352E-05-2.85711E-05-2.85703E-05-3.01784E-09-2.75946E-19 3.74842E-18
 -1      2445 9.52354E-05-2.85709E-05-2.85705E-05-1.95891E-09 2.54251E-20 1.87374E-18
 -1      2446 9.52351E-05-2.85709E-05-2.85704E-05-2.14607E-09-6.31803E-19 2.80754E-18
 -1      2447 9.52356E-05-2.85711E-05-2.85705E-05-2.55101E-09-2.99345E-19 3.37707E-18
 -1      2448 9.52359E-05-2.85710E-05-2.85706E-05-1.59645E-09 1.20345E-18 5.62963E-19
 -1      2449 9.52356E-05-2.85710E-05-2.85706E-05-1.76219E-09 1.21186E-18 1.44802E-18
 -1      2450 9.52359E-05-2.85712E-05-2.85706E-05-2.11579E-09 8.70737E-19 1.76485E-18
 -1      2451 9.52362E-05-2.85711E-05-2.85708E-05-1.27796E-09 2.72405E-18-5.96009E-19
 -1      2452 9.52360E-05-2.85711E-05-2.85707E-05-1.42260E-09 1.36407E-18-7.44808E-19
 -1      2453 9.52362E-05-2.85712E-05-2.85707E-05-1.72417E-09 2.85983E-18 9.46971E-19
 -1      2454 9.52365E-05-2.85712E-05-2.85709E-05-9.99698E-10 1.80839E-18 3.07737E-19
 -1      2455 9.52363E-05-2.85711E-05-2.85708E-05-1.12611E-09 3.02039E-18 7.11268E-19
 -1      2456 9.52365E-05-2.85712E-05-2.85708E-05-1.37924E-09 2.25198E-18 4.73732E-19
 -1      2457 9.52367E-05-2.85712E-05-2.85709E-05-7.54639E-10 5.26060E-19-8.68714E-20
 -1      2458 9.52366E-05-2.85712E-05-2.85709E-05-8.66765E-10 1.19405E-18-7.84191E-19
 -1      2459 9.52367E-05-2.85713E-05-2.85709E-05-1.07726E-09 1.91419E-18 4.42211E-19
 -1      2460 9.52369E-05-2.85712E-05-2.85710E-05-5.33415E-10-1.02454E-19-2.04588E-18
 -1      2461 9.52368E-05-2.85712E-05-2.85710E-05-6.35717E-10 4.39881E-19-1.53188E-19
 -1      2462 9.52369E-05-2.85713E-05-2.85709E-05-8.09491E-10 2.70739E-20 5.32441E-19
 -1      2463 9.52375E-05-2.85720E-05-2.85709E-05-5.36749E-10 1.47988E-18 1.55410E-18
 -1      2464 9.52374E-05-2.85719E-05-2.85709E-05-5.82595E-10 9.24647E-19-3.05464E-19
 -1      2465 9.52374E-05-2.85718E-05-2.85709E-05-6.16768E-10 1.22282E-19-1.17593E-18
 -1      2466 9.52373E-05-2.85717E-05-2.85710E-05-6.20811E-10-7.52553E-19-8.61151E-19
 -1      2467 9.52374E-05-2.85719E-05-2.85709E-05-6.97528E-10 1.18191E-18 6.02107E-19
 -1      2468 9.52372E-05-2.85716E-05-2.85710E-05-6.10676E-10-1.47444E-18-1.14295E-18
 -1      2469 9.52372E-05-2.85715E-05-2.85710E-05-5.74395E-10-3.93789E-21-9.17594E-19
 -1      2470 9.52373E-05-2.85717E-05-2.85710E-05-7.20079E-10 7.13861E-19-4.58414E-19
 -1      2471 1.97238E-05-1.53273E-05-1.55310E-06 1.03064E-05 6.26169E-19 8.62280E-19
 -1      2472 1.57666E-05-1.18944E-05-1.26307E-06-4.79105E-06 3.93606E-19 1.86178E-18
 -1      2473 9.52376E-05-2.85722E-05-2.85709E-05-3.81679E-10 1.54524E-18-1.22302E-18
 -1      2474 9.52376E-05-2.85721E-05-2.85709E-05-4.59792E-10 1.91697E-18 1.75380E-18
 -1      2475 9.52376E-05-2.85721E-05-2.85709E-05-5.76231E-10 1.94624E-18 1.72073E-18
 -1      2476 9.52377E-05-2.85722E-05-2.85709E-05-1.75336E-10 3.21700E-19-7.64474E-19
 -1      2477 9.52376E-05-2.85722E-05-2.85709E-05-2.74078E-10 9.33574E-19-2.04296E-18
 -1      2478 9.52377E-05-2.85722E-05-2.85709E-05-3.78145E-10 2.66481E-18-1.90746E-18
 -1      2479 9.52377E-05-2.85723E-05-2.85709E-05 5.40164E-11 8.54861E-19 1.41275E-18
 -1      2480 9.52377E-05-2.85723E-05-2.85709E-05-5.17146E-11-1.98479E-20 4.71200E-19
 -1      2481 9.52377E-05-2.85723E-05-2.85709E-05-1.30585E-10 1.37481E-18-1.02822E-18
 -1      2482 9.52376E-05-2.85722E-05-2.85709E-05 2.75908E-10 9.13301E-19 6.01348E-19
 -1      2483 9.52377E-05-2.85722E-05-2.85709E-05 1.77446E-10 6.84327E-19 1.68019E-18
 -1      2484 9.52377E-05-2.85723E-05-2.85709E-05 1.33734E-10 1.69769E-18 1.49608E-18
 -1      2485 9.52376E-05-2.85721E-05-2.85709E-05 4.58105E-10 1.65621E-18-3.98021E-20
 -1      2486 9.52376E-05-2.85722E-05-2.85709E-05 3.81418E-10 9.87554E-19-4.34251E-19
 -1      2487 9.52377E-05-2.85722E-05-2.85709E-05 3.78757E-10 9.40628E-19 3.31812E-19
 -1      2488 9.52374E-05-2.85719E-05-2.85709E-05 5.81149E-10 8.10050E-19 1.82614E-18
 -1      2489 9.52375E-05-2.85720E-05-2.85709E-05 5.35071E-10 9.82038E-19-1.37041E-19
 -1      2490 9.52376E-05-2.85721E-05-2.85709E-05 5.74751E-10-2.22233E-19-6.50765E-19
 -1      2491 9.52373E-05-2.85717E-05-2.85710E-05 6.21995E-10-3.52434E-19 9.65282E-19
 -1      2492 9.52374E-05-2.85718E-05-2.85709E-05 6.16416E-10 7.10979E-19 2.78775E-18
 -1      2493 9.52374E-05-2.85719E-05-2.85709E-05 6.95876E-10-3.87217E-19 1.49396E-18
 -1      2494 9.52372E-05-2.85715E-05-2.85710E-05 5.72240E-10-1.50208E-18 4.92736E-19
 -1      2495 9.52372E-05-2.85716E-05-2.85710E-05 6.09481E-10-9.08981E-19-2.38520E-19
 -1      2496 9.52373E-05-2.85717E-05-2.85710E-05 7.20443E-10-5.87428E-20 4.56471E-19
 -1      2497 1.81430E-05-6.34743E-06-4.71109E-06-3.79575E-06 5.98746E-19 7.24213E-19
 -1      2498 3.24424E-05-1.32342E-05-7.83191E-06-1.85583E-05 2.23617E-19 6.53909E-19
 -1      2499 4.90573E-05-2.63194E-05-9.22716E-06 3.21655E-05 8.33269E-19-4.26269E-19
 -1      2500 3.08301E-05-2.05389E-05-4.17920E-06 2.10496E-05 9.16596E-19-1.89735E-19
 -1      2501 3.41398E-05-1.27875E-05-8.52592E-06 1.72651E-05-4.77197E-19 1.54160E-19
 -1      2502 1.32398E-04-5.74861E-05-3.16142E-05-2.04660E-05-1.37304E-18 3.21171E-18
 -1      2503 1.26004E-04-5.07527E-05-3.15530E-05-2.38549E-05-1.11385E-18 3.17929E-18
 -1      2504 9.79133E-05-3.87147E-05-2.54440E-05-2.96528E-05-6.60686E-19 2.05236E-18
 -1      2505 1.20220E-04-5.81382E-05-2.69922E-05-2.65133E-05-1.64113E-18 2.18527E-18
 -1      2506 1.79745E-05-1.43590E-05-1.06860E-06-2.08269E-05 4.11976E-19 2.16713E-18
 -1      2507 2.40326E-05-1.83445E-05-2.15382E-06-3.24690E-05 4.22246E-19 3.06414E-18
 -1      2508 1.55216E-04-3.39746E-05-5.25086E-05 9.00664E-06-6.00652E-19 2.64126E-18
 -1      2509 1.49081E-04-3.83223E-05-4.75184E-05 1.62605E-05-5.13567E-19 2.78695E-18
 -1      2510 3.68579E-05-2.50493E-05-4.72168E-06-4.14828E-05 9.85735E-19 3.12047E-18
 -1      2511 5.37985E-05-3.19813E-05-9.17554E-06-5.06292E-05 1.07637E-18 2.64613E-18
 -1      2512 9.52371E-05-2.85713E-05-2.85710E-05 3.91144E-10-1.30405E-19 3.03745E-18
 -1      2513 1.10438E-04-2.58414E-05-3.62378E-05 8.15516E-07 1.97964E-18 3.36166E-21
 -1      2514 1.10147E-04-2.48095E-05-3.67343E-05-2.98229E-06 1.90866E-18-3.38813E-19
 -1      2515 1.12223E-04-2.62674E-05-3.67945E-05-6.28807E-06 1.65628E-18-4.89413E-19
 -1      2516 1.14031E-04-2.99445E-05-3.60316E-05 1.89907E-06 1.75013E-18 2.46162E-19
 -1      2517 3.10217E-05-8.12727E-06-9.51502E-06 4.57000E-05 1.98333E-18 1.66230E-18
 -1      2518 1.85017E-05-3.74232E-06-5.79907E-06 3.41339E-05 1.75357E-18 1.22079E-18
 -1      2519 9.47786E-05-4.82310E-05-1.98236E-05-3.07401E-05-1.40184E-18 1.45790E-18
 -1      2520 8.81292E-05-4.17381E-05-1.98135E-05 3.74631E-05 9.16278E-19 9.09078E-19
 -1      2521 4.84248E-05-2.41039E-05-1.02414E-05-2.49855E-05-3.26955E-19 6.99861E-19
 -1      2522 6.96825E-05-3.61947E-05-1.45007E-05-3.11830E-05-9.27501E-19 9.18607E-19
 -1      2523 8.57623E-05-3.78183E-05-2.00518E-05-3.02350E-05-7.18496E-19 1.49544E-18
 -1      2524 4.42309E-05-1.41854E-05-1.28198E-05-2.10049E-05 4.06152E-19 8.66515E-19
 -1      2525 9.74108E-06-1.34000E-06-3.36503E-06 2.20708E-05 1.39591E-18 9.25383E-19
 -1      2526 1.00821E-05-2.64195E-06-2.82519E-06 8.76840E-06 9.92617E-19 7.48777E-19
 -1      2527 6.57198E-05-2.54398E-05-1.71136E-05 5.41210E-05 1.65256E-18 2.24983E-18
 -1      2528 5.07566E-05-1.89935E-05-1.31896E-05 5.08919E-05 1.81223E-18 1.97475E-18
 -1      2529 1.54539E-04-4.15531E-05-4.86524E-05-1.18468E-05 1.50883E-18 1.00903E-18
 -1      2530 1.59321E-04-3.47709E-05-5.37809E-05-6.67105E-06 1.20067E-18 7.68894E-19
 -1      2531 1.03938E-04-3.90017E-05-2.78621E-05 4.66666E-05 9.14372E-19 2.80617E-18
 -1      2532 8.38527E-05-3.35157E-05-2.15427E-05 5.04316E-05 1.29638E-18 2.51276E-18
 -1      2533 8.30302E-05-3.07704E-05-2.20851E-05 5.00285E-05 1.82239E-18 2.44856E-18
 -1      2534 1.56766E-04-1.98171E-05-5.92205E-05-2.09691E-06-6.31040E-19 1.75039E-18
 -1      2535 1.55338E-04-2.56249E-05-5.58988E-05 4.48694E-07-7.40095E-19 1.99984E-18
 -1      2536 1.56743E-04-1.09142E-05-6.28734E-05 9.40138E-07 8.90232E-19 9.03678E-19
 -1      2537 1.53808E-04-7.81209E-06-6.33564E-05 6.58563E-08 4.11234E-19 1.20464E-18
 -1      2538 1.58417E-04-2.46490E-05-5.76607E-05-1.33913E-06 1.11702E-18 6.86944E-19
 -1      2539 1.58513E-04-1.73420E-05-6.10305E-05 1.13670E-06 1.13185E-18 7.44860E-19
 -1      2540 1.39333E-04-5.25210E-05-3.73071E-05-2.99842E-05 1.32391E-18 3.55119E-19
 -1      2541 1.50118E-04-4.92338E-05-4.35356E-05-2.28021E-05 1.63287E-18 1.17441E-18
 -1      2542 1.10989E-04-5.25793E-05-2.50308E-05-4.56020E-05 1.34509E-18 5.70477E-19
 -1      2543 1.27340E-04-5.37442E-05-3.16354E-05-4.10666E-05 1.08823E-18-1.51195E-19
 -1      2544 7.53027E-05-4.22723E-05-1.39411E-05-5.18681E-05 1.34424E-18 2.15109E-18
 -1      2545 9.36753E-05-4.75192E-05-1.97275E-05-5.25268E-05 1.34191E-18 1.51921E-18
 -1      2546 1.11034E-04-2.88120E-05-3.49557E-05-1.93781E-05 4.89691E-20 3.75625E-18
 -1      2547 1.08608E-04-2.40553E-05-3.60029E-05-1.45817E-05 2.18111E-19 4.05067E-18
 -1      2548 9.47868E-05-1.67820E-05-3.33436E-05-1.36033E-05 5.45330E-19 3.61344E-18
 -1      2549 9.17666E-05-2.37204E-05-2.87383E-05-2.30270E-05 1.97888E-19 2.66350E-18
 -1      2550 2.00726E-05 2.67548E-06-9.05236E-06 2.86449E-05 2.12288E-18 1.35906E-18
 -1      2551 1.03216E-04-2.02846E-05-3.55025E-05-1.39079E-05 1.30641E-18-1.92781E-18
 -1      2552 1.00525E-04-1.77991E-05-3.55253E-05-1.42152E-05 1.37776E-18-2.21498E-18
 -1      2553 9.84229E-05-1.71886E-05-3.49249E-05-1.56456E-05 1.15285E-18-2.53452E-18
 -1      2554 6.23161E-05-2.99675E-07-2.65080E-05-7.67228E-06 1.40029E-18 2.58784E-18
 -1      2555 5.12554E-05 1.32895E-06-2.19207E-05-7.44824E-06 1.44311E-18 1.98650E-18
 -1      2556 3.82706E-05-1.90562E-05-7.70237E-06-3.81774E-05 6.25322E-19 3.04826E-18
 -1      2557 8.20167E-05-1.00179E-05-3.05548E-05-1.13677E-05 8.72854E-19 3.25986E-18
 -1      2558 9.52371E-05-2.85714E-05-2.85710E-05-5.64762E-10 6.01035E-20 5.89866E-19
 -1      2559 9.52370E-05-2.85713E-05-2.85710E-05-4.46242E-10 9.82060E-20-1.87763E-18
 -1      2560 2.30215E-05-9.29734E-06-5.28018E-06-1.13037E-05-6.24687E-21 2.30393E-18
 -1      2561 1.51625E-04-2.95661E-05-5.23792E-05 3.23980E-06 1.43371E-18 2.99003E-19
 -1      2562 1.46781E-04-1.24909E-05-5.77322E-05 4.74874E-06 1.25086E-18 6.01605E-19
 -1      2563 6.72932E-05-3.10120E-05-1.47538E-05 3.51681E-05 5.56712E-19 2.27640E-19
 -1      2564 6.16946E-05-2.20351E-05-1.64751E-05 3.36545E-05-5.59465E-19 4.08693E-20
 -1      2565 9.52370E-05-2.85714E-05-2.85710E-05-7.00299E-10 6.44014E-19 4.74992E-20
 -1      2566 2.07795E-05 8.62605E-07-8.67591E-06 1.72024E-06 1.35909E-18 1.01220E-18
 -1      2567 1.49421E-04-2.96849E-05-5.14524E-05-1.51508E-06-7.38083E-19 1.68009E-18
 -1      2568 1.43006E-04-4.26513E-05-4.29221E-05 1.80121E-05-1.69777E-19 2.60103E-18
 -1      2569 1.48565E-04-6.29469E-06-6.13116E-05-1.85295E-06 1.88041E-19 9.24616E-19
 -1      2570 1.38539E-04-4.43267E-06-5.82271E-05-3.79089E-06 1.03126E-19 4.96811E-19
 -1      2571 1.37609E-04-4.44119E-06-5.74738E-05 2.80917E-07 4.50198E-19 7.68186E-20
 -1      2572 7.16344E-05-3.70768E-05-1.43478E-05-5.06676E-05 1.39168E-18 2.10964E-18
 -1      2573 9.52370E-05-2.85713E-05-2.85710E-05 4.81301E-10 1.46749E-18 4.23821E-18
 -1      2574 9.52371E-05-2.85714E-05-2.85710E-05 5.43885E-10-5.77460E-19 3.19375E-18
 -1      2575 9.52371E-05-2.85715E-05-2.85710E-05 6.75847E-10 1.91695E-19 2.82876E-18
 -1      2576 9.52369E-05-2.85713E-05-2.85710E-05 5.77246E-10 5.74588E-19 3.55789E-18
 -1      2577 1.15892E-04-4.29013E-05-3.10775E-05 3.93903E-05 7.81811E-19 2.65185E-18
 -1      2578 1.09245E-04-4.07564E-05-2.90148E-05 4.01097E-05 1.25064E-18 2.55903E-18
 -1      2579 1.24927E-04-4.57256E-05-3.45776E-05 3.06741E-05 6.51368E-19 2.57053E-18
 -1      2580 9.52370E-05-2.85714E-05-2.85710E-05 7.26177E-10-1.32399E-19 4.55409E-18
 -1      2581 9.68629E-05-1.71007E-05-3.42498E-05-1.62867E-05 9.72983E-19-2.70385E-18
 -1      2582 9.51981E-05-1.72434E-05-3.35172E-05-1.72779E-05 6.85354E-19-3.04717E-18
 -1      2583 9.60026E-05-1.97872E-05-3.26467E-05-1.58749E-05 5.12309E-19-2.79872E-18
 -1      2584 9.91467E-05-1.93509E-05-3.41670E-05-1.53833E-05 9.33485E-19-2.30442E-18
 -1      2585 1.50798E-04-4.78690E-05-4.40956E-05-1.05501E-05 1.60343E-18 8.28398E-19
 -1      2586 4.57908E-05-1.10215E-05-1.43686E-05 4.75124E-05 2.28995E-18 1.92922E-18
 -1      2587 1.09053E-04-5.30655E-05-2.36716E-05-4.60280E-05 1.35695E-18 6.92846E-19
 -1      2588 1.47911E-04-1.37958E-05-5.78664E-05-7.72388E-06-5.38289E-19 1.19114E-18
 -1      2589 1.36639E-04-5.70129E-05-3.39463E-05-3.03254E-05 1.31078E-18 2.56863E-19
 -1      2590 1.00342E-04-3.33436E-05-2.86245E-05 3.57061E-05 1.90696E-18 2.18267E-18
 -1      2591 1.11722E-04-3.76374E-05-3.17309E-05 2.76338E-05 1.62638E-18 1.94073E-18
 -1      2592 2.76797E-05 5.75029E-06-1.40174E-05 3.41527E-05 2.57884E-18 1.67120E-18
 -1      2593 4.07641E-05-1.43519E-06-1.61589E-05 4.09099E-05 2.64004E-18 1.84177E-18
 -1      2594 2.31266E-05 7.89343E-06-1.27707E-05 7.99092E-06 1.92565E-18 1.38448E-18
 -1      2595 2.11829E-05 8.34127E-06-1.19755E-05 2.12776E-05 2.27717E-18 1.40269E-18
 -1      2596 3.75120E-05-1.22418E-05-1.01798E-05-3.00752E-05 3.68459E-20 2.50192E-18
 -1      2597 4.89879E-05-1.92885E-05-1.23570E-05-4.06601E-05 6.67038E-19 2.47757E-18
 -1      2598 3.19379E-05 3.77562E-06-1.47890E-05-5.96018E-06 1.51672E-18 1.30570E-18
 -1      2599 6.76076E-05-1.31851E-05-2.33752E-05 2.53132E-05-1.41084E-18 9.07066E-19
 -1      2600 6.68993E-05-1.74059E-05-2.07823E-05 2.82925E-05-1.07780E-18 4.86620E-19
 -1      2601 5.21954E-05-1.26932E-05-1.60585E-05 2.58403E-05-1.20967E-18-1.59666E-19
 -1      2602 2.83108E-05-4.39623E-06-9.71098E-06-1.28201E-06-1.21472E-18 1.03402E-18
 -1      2603 3.00306E-05-6.78369E-06-9.31814E-06-1.88785E-05-6.26804E-19 2.10742E-18
 -1      2604 4.16768E-05-8.35036E-06-1.37474E-05-2.17467E-05-6.37419E-19 1.97496E-18
 -1      2605 9.54033E-05-2.29805E-05-3.10357E-05-1.19652E-05 3.48358E-19-2.33340E-18
 -1      2606 9.46196E-05-2.32186E-05-3.05944E-05-1.00800E-05 4.08743E-19-2.17280E-18
 -1      2607 9.61607E-05-2.11582E-05-3.21891E-05-1.48743E-05 4.52438E-19-2.64197E-18
 -1      2608 9.56530E-05-2.23374E-05-3.14163E-05-1.31274E-05 3.08386E-19-2.49876E-18
 -1      2609 9.74977E-05-2.22006E-05-3.22581E-05-1.30200E-05 5.42108E-19-2.22110E-18
 -1      2610 9.76807E-05-2.06600E-05-3.30213E-05-1.50055E-05 6.81686E-19-2.27563E-18
 -1      2611 8.12926E-05-1.55876E-05-2.82571E-05 1.33880E-05 5.49982E-19 1.04298E-18
 -1      2612 7.89329E-05-1.41683E-05-2.76787E-05 1.56957E-05-2.09780E-19 1.14518E-18
 -1      2613 9.39495E-05-2.31907E-05-3.03152E-05-8.29517E-06 3.77378E-19-1.91525E-18
 -1      2614 9.31085E-05-2.29580E-05-3.00415E-05-6.36575E-06 2.79235E-19-1.75441E-18
 -1      2615 9.65034E-05-2.26975E-05-3.16256E-05-1.01328E-05 5.32895E-19-1.93584E-18
 -1      2616 9.23901E-05-2.26971E-05-2.98536E-05-4.28252E-06 5.86982E-20-1.63134E-18
 -1      2617 9.18445E-05-2.25385E-05-2.96804E-05-2.29094E-06 3.60767E-20-1.55923E-18
 -1      2618 9.50577E-05-2.23191E-05-3.11904E-05-6.13598E-06 2.67278E-19-1.66848E-18
 -1      2619 9.14878E-05-2.25408E-05-2.95223E-05-6.40689E-08 2.28240E-20-1.38501E-18
 -1      2620 9.14062E-05-2.27833E-05-2.94018E-05 1.83418E-06 1.38864E-19-1.32957E-18
 -1      2621 9.39576E-05-2.20351E-05-3.08542E-05-1.61004E-06 8.46721E-20-1.40827E-18
 -1      2622 9.15820E-05-2.32787E-05-2.92361E-05 3.84568E-06 2.42896E-19-1.22161E-18
 -1      2623 9.19562E-05-2.39788E-05-2.91429E-05 5.38103E-06 2.05671E-19-1.20783E-18
 -1      2624 9.37941E-05-2.26677E-05-3.05125E-05 2.86489E-06 1.77247E-19-1.21621E-18
 -1      2625 9.25512E-05-2.48836E-05-2.89624E-05 6.81563E-06 4.55317E-20-1.07089E-18
 -1      2626 9.32325E-05-2.58740E-05-2.88894E-05 7.77483E-06 1.16374E-19-1.04535E-18
 -1      2627 9.46149E-05-2.43688E-05-3.01222E-05 6.48335E-06 2.49123E-19-1.04858E-18
 -1      2628 9.39787E-05-2.69250E-05-2.87081E-05 8.44299E-06 2.14897E-19-1.03401E-18
 -1      2629 9.47568E-05-2.79391E-05-2.86589E-05 8.76128E-06 1.25665E-19-9.53718E-19
 -1      2630 9.60179E-05-2.67202E-05-2.96982E-05 8.65809E-06 2.49998E-19-9.58911E-19
 -1      2631 9.53723E-05-2.88403E-05-2.84997E-05 8.70991E-06 1.43339E-19-8.29709E-19
 -1      2632 9.60650E-05-2.96513E-05-2.84789E-05 8.49033E-06 3.01530E-19-5.15831E-19
 -1      2633 9.74285E-05-2.90597E-05-2.92889E-05 9.24763E-06 2.36099E-19-4.43491E-19
 -1      2634 9.64008E-05-3.02320E-05-2.83588E-05 7.93837E-06 3.46497E-19-2.96343E-19
 -1      2635 9.69094E-05-3.07368E-05-2.83660E-05 7.37160E-06 4.65008E-19-1.59410E-19
 -1      2636 9.84032E-05-3.08311E-05-2.89454E-05 8.56958E-06 5.32232E-19 4.63322E-20
 -1      2637 9.69564E-05-3.09723E-05-2.82899E-05 6.57675E-06 3.94650E-19-1.59845E-19
 -1      2638 9.72641E-05-3.11814E-05-2.83190E-05 5.85895E-06 5.26098E-19-2.57251E-19
 -1      2639 9.87878E-05-3.18077E-05-2.86957E-05 7.14587E-06 3.74670E-19 2.26661E-19
 -1      2640 9.70986E-05-3.11440E-05-2.82819E-05 5.03010E-06 4.51954E-19-4.22938E-19
 -1      2641 9.72401E-05-3.11329E-05-2.83241E-05 4.31222E-06 1.81152E-19-5.22020E-19
 -1      2642 9.86598E-05-3.20526E-05-2.85417E-05 5.46666E-06 3.54548E-19 1.29734E-20
 -1      2643 9.69626E-05-3.09299E-05-2.83158E-05 3.57762E-06-7.92567E-20-6.53436E-19
 -1      2644 9.69914E-05-3.07901E-05-2.83622E-05 2.95012E-06-2.42125E-19-5.17337E-19
 -1      2645 9.82044E-05-3.17816E-05-2.84676E-05 3.87382E-06 1.85935E-19-1.25257E-20
 -1      2646 9.66857E-05-3.05187E-05-2.83714E-05 2.36499E-06-5.49912E-19-5.87051E-19
 -1      2647 9.66511E-05-3.03268E-05-2.84150E-05 1.86610E-06-6.36200E-19-6.80121E-19
 -1      2648 9.76111E-05-3.12373E-05-2.84494E-05 2.54466E-06-3.84028E-19-5.46187E-19
 -1      2649 9.63706E-05-3.00548E-05-2.84322E-05 1.43660E-06-7.25573E-19-1.01375E-18
 -1      2650 9.63088E-05-2.98618E-05-2.84689E-05 1.06915E-06-6.69373E-19-1.12088E-18
 -1      2651 9.70184E-05-3.06129E-05-2.84641E-05 1.53210E-06-8.70970E-19-9.40973E-19
 -1      2652 9.60784E-05-2.96263E-05-2.84877E-05 7.75646E-07-2.41430E-19-1.28622E-18
 -1      2653 9.60115E-05-2.94595E-05-2.85157E-05 5.23224E-07-2.19117E-19-1.39291E-18
 -1      2654 9.65041E-05-3.00300E-05-2.84933E-05 8.16011E-07-5.51886E-19-1.06320E-18
 -1      2655 9.58366E-05-2.92744E-05-2.85323E-05 3.36681E-07 5.44817E-20-1.33581E-18
 -1      2656 9.57758E-05-2.91438E-05-2.85519E-05 1.75385E-07 1.65473E-19-1.34880E-18
 -1      2657 9.60974E-05-2.95475E-05-2.85251E-05 3.43723E-07 3.28026E-20-1.18846E-18
 -1      2658 9.56508E-05-2.90088E-05-2.85645E-05 6.67325E-08 5.67679E-19-9.32614E-19
 -1      2659 9.56004E-05-2.89138E-05-2.85768E-05-2.76488E-08 9.13389E-19-3.84036E-19
 -1      2660 9.57972E-05-2.91808E-05-2.85527E-05 5.52936E-08 6.27717E-19-6.46260E-19
 -1      2661 9.55155E-05-2.88216E-05-2.85853E-05-8.31811E-08 3.51294E-19-1.44986E-20
 -1      2662 9.54759E-05-2.87568E-05-2.85919E-05-1.31598E-07-2.00766E-19 8.00534E-20
 -1      2663 9.55875E-05-2.89208E-05-2.85734E-05-1.03651E-07 8.26254E-19-2.87071E-19
 -1      2664 9.54209E-05-2.86978E-05-2.85968E-05-1.53185E-07-1.23199E-19-1.05210E-19
 -1      2665 9.53908E-05-2.86561E-05-2.85994E-05-1.72080E-07 1.32781E-19-5.18702E-20
 -1      2666 9.54478E-05-2.87479E-05-2.85870E-05-1.76957E-07-1.83713E-19 5.51567E-19
 -1      2667 9.53565E-05-2.86210E-05-2.86014E-05-1.73569E-07 3.21527E-19 9.06237E-20
 -1      2668 9.53342E-05-2.85961E-05-2.86014E-05-1.74943E-07 4.05437E-19-6.61669E-20
 -1      2669 9.53586E-05-2.86403E-05-2.85944E-05-1.97323E-07 7.80243E-20-4.08000E-20
 -1      2670 9.53137E-05-2.85770E-05-2.86015E-05-1.65755E-07 1.22201E-19-2.30207E-19
 -1      2671 9.52974E-05-2.85634E-05-2.86000E-05-1.57836E-07-6.76270E-20-4.91121E-19
 -1      2672 9.53039E-05-2.85785E-05-2.85972E-05-1.87689E-07 5.37048E-19-2.61383E-19
 -1      2673 9.52856E-05-2.85545E-05-2.85989E-05-1.44022E-07-4.46009E-19-7.07479E-19
 -1      2674 9.52738E-05-2.85481E-05-2.85966E-05-1.32112E-07 2.89475E-19-9.77136E-19
 -1      2675 9.52718E-05-2.85469E-05-2.85967E-05-1.63266E-07-4.21144E-19-5.51356E-20
 -1      2676 9.52673E-05-2.85453E-05-2.85949E-05-1.17306E-07 6.35579E-19-1.40618E-18
 -1      2677 9.52589E-05-2.85432E-05-2.85924E-05-1.04587E-07 8.87919E-19-1.34113E-18
 -1      2678 9.52537E-05-2.85340E-05-2.85944E-05-1.33560E-07 3.32654E-20-4.68692E-19
 -1      2679 9.52555E-05-2.85437E-05-2.85905E-05-9.07797E-08 1.05953E-18-1.17743E-18
 -1      2680 9.52495E-05-2.85440E-05-2.85881E-05-7.89849E-08 3.39087E-19-3.96977E-19
 -1      2681 9.52440E-05-2.85320E-05-2.85910E-05-1.04086E-07 9.73784E-19-1.00826E-18
 -1      2682 9.52479E-05-2.85461E-05-2.85863E-05-6.71104E-08-3.28289E-19-6.93197E-20
 -1      2683 9.52437E-05-2.85475E-05-2.85842E-05-5.70387E-08-6.87000E-20 1.34491E-19
 -1      2684 9.52392E-05-2.85354E-05-2.85874E-05-7.77036E-08 5.99855E-19 1.94719E-20
 -1      2685 9.52430E-05-2.85501E-05-2.85825E-05-4.73852E-08-1.83267E-19-8.08065E-20
 -1      2686 9.52401E-05-2.85519E-05-2.85807E-05-3.92690E-08-5.54995E-19-3.24649E-19
 -1      2687 9.52370E-05-2.85413E-05-2.85840E-05-5.55976E-08-2.76564E-19 8.23055E-19
 -1      2688 9.52398E-05-2.85545E-05-2.85793E-05-3.17632E-08-9.76238E-19-7.40184E-20
 -1      2689 9.52379E-05-2.85563E-05-2.85779E-05-2.55193E-08-1.08167E-18 5.68953E-20
 -1      2690 9.52362E-05-2.85476E-05-2.85809E-05-3.79618E-08-9.11934E-19 4.64258E-19
 -1      2691 9.52379E-05-2.85585E-05-2.85767E-05-1.99079E-08-3.30586E-19 2.53297E-19
 -1      2692 9.52366E-05-2.85601E-05-2.85757E-05-1.53001E-08 3.04212E-19 7.34414E-19
 -1      2693 9.52360E-05-2.85535E-05-2.85783E-05-2.44557E-08-4.72106E-19 1.29731E-18
 -1      2694 9.52366E-05-2.85620E-05-2.85747E-05-1.12621E-08-2.77237E-20 4.52588E-19
 -1      2695 9.52359E-05-2.85633E-05-2.85740E-05-7.99982E-09-1.88667E-19 3.38151E-19
 -1      2696 9.52360E-05-2.85585E-05-2.85761E-05-1.44940E-08 2.28408E-19 1.30605E-18
 -1      2697 9.52359E-05-2.85648E-05-2.85733E-05-5.21118E-09-2.37885E-19 9.00706E-19
 -1      2698 9.52355E-05-2.85658E-05-2.85727E-05-3.00560E-09-4.63808E-19 1.17426E-18
 -1      2699 9.52362E-05-2.85625E-05-2.85745E-05-7.42160E-09 2.12887E-19 7.75328E-19
 -1      2700 9.52356E-05-2.85669E-05-2.85722E-05-1.17225E-09-6.56716E-19 1.38077E-18
 -1      2701 9.52354E-05-2.85677E-05-2.85719E-05 2.35153E-10-3.05704E-19 8.62333E-19
 -1      2702 9.52364E-05-2.85655E-05-2.85733E-05-2.61056E-09-5.41053E-19 2.04633E-18
 -1      2703 9.52354E-05-2.85685E-05-2.85715E-05 1.36279E-09-2.01560E-20 1.68165E-18
 -1      2704 9.52354E-05-2.85691E-05-2.85713E-05 2.18892E-09-4.34613E-19 1.93283E-18
 -1      2705 9.52365E-05-2.85677E-05-2.85723E-05 4.92079E-10 1.83517E-19 1.37380E-18
 -1      2706 9.52355E-05-2.85696E-05-2.85711E-05 2.81300E-09 2.23351E-19 2.35372E-18
 -1      2707 9.52355E-05-2.85700E-05-2.85709E-05 3.23146E-09 5.13202E-19 2.58131E-18
 -1      2708 9.52366E-05-2.85693E-05-2.85717E-05 2.34683E-09-8.52082E-20 2.83825E-18
 -1      2709 9.52356E-05-2.85704E-05-2.85708E-05 3.50969E-09 5.14637E-19 1.85730E-18
 -1      2710 9.52357E-05-2.85707E-05-2.85707E-05 3.65427E-09 1.30870E-18 1.24122E-18
 -1      2711 9.52367E-05-2.85704E-05-2.85713E-05 3.32149E-09 7.38975E-20 1.56246E-18
 -1      2712 9.52357E-05-2.85709E-05-2.85706E-05 3.70577E-09 8.70988E-19 5.98217E-19
 -1      2713 9.52359E-05-2.85711E-05-2.85706E-05 3.67614E-09 6.85981E-19-6.58834E-20
 -1      2714 9.52368E-05-2.85711E-05-2.85710E-05 3.69985E-09-2.64239E-20 3.41104E-19
 -1      2715 9.52359E-05-2.85712E-05-2.85706E-05 3.58810E-09 1.34440E-18-4.82418E-19
 -1      2716 9.52361E-05-2.85713E-05-2.85706E-05 3.45610E-09 2.15648E-18-4.87349E-19
 -1      2717 9.52368E-05-2.85715E-05-2.85709E-05 3.69407E-09 1.31238E-18-2.57609E-19
 -1      2718 9.52361E-05-2.85714E-05-2.85706E-05 3.29030E-09 2.56507E-18-6.54404E-19
 -1      2719 9.52362E-05-2.85715E-05-2.85706E-05 3.10583E-09 1.22373E-18 3.45114E-19
 -1      2720 9.52369E-05-2.85717E-05-2.85708E-05 3.45794E-09 2.07563E-18-5.23722E-19
 -1      2721 9.52363E-05-2.85715E-05-2.85706E-05 2.90439E-09 5.36383E-19 6.68112E-19
 -1      2722 9.52364E-05-2.85715E-05-2.85707E-05 2.70062E-09-9.67271E-19 7.83979E-19
 -1      2723 9.52369E-05-2.85718E-05-2.85708E-05 3.09916E-09 7.49094E-19-1.55452E-18
 -1      2724 9.52364E-05-2.85715E-05-2.85707E-05 2.49086E-09-2.58638E-18 7.79064E-19
 -1      2725 9.52366E-05-2.85715E-05-2.85707E-05 2.28844E-09-2.21427E-18 4.24992E-19
 -1      2726 9.52370E-05-2.85718E-05-2.85708E-05 2.69013E-09-1.70351E-18-2.27749E-18
 -1      2727 9.52366E-05-2.85715E-05-2.85707E-05 2.08674E-09-1.11625E-19 8.50249E-19
 -1      2728 9.52367E-05-2.85715E-05-2.85708E-05 1.89720E-09 1.32664E-18 5.96470E-19
 -1      2729 9.52370E-05-2.85718E-05-2.85708E-05 2.27680E-09-9.46694E-19-1.32608E-18
 -1      2730 9.52367E-05-2.85715E-05-2.85708E-05 1.71208E-09 6.52759E-19-4.45724E-19
 -1      2731 9.52368E-05-2.85715E-05-2.85708E-05 1.54047E-09-3.52699E-21-3.68090E-19
 -1      2732 9.52370E-05-2.85717E-05-2.85708E-05 1.88573E-09 4.23498E-19-1.69411E-18
 -1      2733 9.52368E-05-2.85715E-05-2.85709E-05 1.37488E-09-6.76635E-19 1.66364E-19
 -1      2734 9.52369E-05-2.85715E-05-2.85709E-05 1.22146E-09-7.13231E-19-7.48192E-19
 -1      2735 9.52371E-05-2.85717E-05-2.85709E-05 1.52965E-09-7.56716E-19-2.27801E-18
 -1      2736 9.52369E-05-2.85715E-05-2.85709E-05 1.07536E-09 3.41935E-19 5.96293E-19
 -1      2737 9.52370E-05-2.85715E-05-2.85709E-05 9.38411E-10 7.50242E-19 1.41872E-18
 -1      2738 9.52371E-05-2.85716E-05-2.85709E-05 1.21121E-09 7.48129E-19-1.47338E-18
 -1      2739 1.42483E-04-2.61118E-05-5.05232E-05-8.26415E-06-6.34216E-19 1.10337E-18
 -1      2740 1.45032E-04-3.41557E-05-4.76260E-05-2.40028E-06-5.49619E-19 1.58819E-18
 -1      2741 9.52371E-05-2.85716E-05-2.85710E-05-8.37057E-10 6.40913E-19 3.43602E-19
 -1      2742 9.52370E-05-2.85714E-05-2.85710E-05-8.28950E-10 2.99671E-19 4.47685E-19
 -1      2743 9.52369E-05-2.85714E-05-2.85709E-05-9.59838E-10 4.03972E-19 1.00253E-18
 -1      2744 1.10439E-04-2.46988E-05-3.67785E-05-1.13205E-05 1.41897E-18-1.13733E-18
 -1      2745 1.07738E-04-2.30971E-05-3.63803E-05-1.28440E-05 1.33938E-18-1.50420E-18
 -1      2746 9.52379E-05-2.85723E-05-2.85709E-05-7.81200E-11 1.38351E-18-2.39900E-19
 -1      2747 9.52378E-05-2.85723E-05-2.85709E-05-2.15322E-10 1.97855E-18-1.76200E-18
 -1      2748 9.52375E-05-2.85720E-05-2.85709E-05-7.74749E-10 1.91672E-18 1.35059E-18
 -1      2749 9.52374E-05-2.85719E-05-2.85710E-05-8.20191E-10 1.74472E-18-2.12288E-19
 -1      2750 8.68948E-05-1.92495E-05-2.90762E-05 9.89554E-06 1.32179E-18 8.14205E-19
 -1      2751 8.52813E-05-1.77498E-05-2.89333E-05 1.18341E-05 1.11949E-18 1.01472E-18
 -1      2752 7.85408E-05-1.39336E-05-2.74936E-05 9.55877E-06 9.26930E-19 1.43043E-19
 -1      2753 9.05177E-05-2.22698E-05-2.93084E-05 7.16765E-06 7.23543E-19 5.69936E-20
 -1      2754 8.95504E-05-2.10650E-05-2.93424E-05 8.68623E-06 1.06514E-18 6.42855E-19
 -1      2755 8.49907E-05-1.81418E-05-2.85317E-05 7.42662E-06 1.30336E-18 1.09549E-18
 -1      2756 9.27090E-05-2.44610E-05-2.92880E-05 5.09401E-06 8.67846E-19 2.04391E-19
 -1      2757 9.21894E-05-2.36032E-05-2.93815E-05 6.22386E-06 5.26879E-19 4.62190E-19
 -1      2758 8.91588E-05-2.14810E-05-2.89331E-05 5.64234E-06 6.19863E-19 3.22776E-19
 -1      2759 9.39726E-05-2.59500E-05-2.91775E-05 3.56450E-06 6.90396E-19 1.45559E-19
 -1      2760 9.37234E-05-2.53758E-05-2.92782E-05 4.37431E-06 1.08591E-18 2.38366E-19
 -1      2761 9.17446E-05-2.38916E-05-2.90371E-05 4.17595E-06 8.66900E-19-2.51109E-19
 -1      2762 9.46696E-05-2.69236E-05-2.90498E-05 2.46648E-06-1.99768E-20 1.20195E-18
 -1      2763 9.45694E-05-2.65528E-05-2.91377E-05 3.03185E-06-9.16632E-20 4.66057E-19
 -1      2764 9.32987E-05-2.55430E-05-2.90134E-05 3.02446E-06-8.95315E-20-7.45358E-19
 -1      2765 9.50350E-05-2.75449E-05-2.89342E-05 1.69414E-06 3.38671E-19 1.35271E-18
 -1      2766 9.50105E-05-2.73108E-05-2.90043E-05 2.08196E-06 3.25350E-19 1.09879E-18
 -1      2767 9.42061E-05-2.66369E-05-2.89444E-05 2.15563E-06 3.60726E-20 4.30707E-20
 -1      2768 9.52134E-05-2.79350E-05-2.88397E-05 1.15839E-06 1.08335E-18 1.08650E-18
 -1      2769 9.52236E-05-2.77894E-05-2.88928E-05 1.42154E-06 9.99303E-19 1.43203E-18
 -1      2770 9.47206E-05-2.73456E-05-2.88675E-05 1.51928E-06 5.17500E-19 4.59875E-19
 -1      2771 9.52903E-05-2.81773E-05-2.87664E-05 7.89907E-07 4.81833E-19 7.43967E-19
 -1      2772 9.53136E-05-2.80877E-05-2.88056E-05 9.67430E-07 1.00331E-18 1.14879E-18
 -1      2773 9.50026E-05-2.77979E-05-2.87982E-05 1.06266E-06 1.29827E-18 9.67098E-19
 -1      2774 9.53148E-05-2.83268E-05-2.87114E-05 5.37545E-07 1.92567E-19 6.33096E-19
 -1      2775 9.53406E-05-2.82719E-05-2.87397E-05 6.57068E-07-1.90409E-20 4.93735E-19
 -1      2776 9.51504E-05-2.80838E-05-2.87410E-05 7.39295E-07 2.59796E-19 5.13125E-19
 -1      2777 9.53141E-05-2.84187E-05-2.86708E-05 3.64904E-07 2.65211E-19 5.47391E-19
 -1      2778 9.53377E-05-2.83852E-05-2.86911E-05 4.45439E-07 5.55562E-19 7.95385E-19
 -1      2779 9.52230E-05-2.82634E-05-2.86962E-05 5.12070E-07 3.38767E-19-5.36484E-20
 -1      2780 9.53030E-05-2.84751E-05-2.86413E-05 2.46689E-07-2.43616E-19 6.82176E-19
 -1      2781 9.53226E-05-2.84546E-05-2.86557E-05 3.01090E-07-5.55365E-19 8.86915E-19
 -1      2782 9.52547E-05-2.83759E-05-2.86621E-05 3.53038E-07 2.98042E-20 3.83644E-19
 -1      2783 9.52889E-05-2.85099E-05-2.86201E-05 1.65584E-07 4.62989E-19-5.70432E-19
 -1      2784 9.53044E-05-2.84973E-05-2.86302E-05 2.02449E-07 9.39598E-19 5.62597E-19
 -1      2785 9.52651E-05-2.84464E-05-2.86367E-05 2.41904E-07 4.76926E-19 2.48282E-20
 -1      2786 9.52755E-05-2.85315E-05-2.86048E-05 1.09838E-07 1.27963E-18-1.17428E-18
 -1      2787 9.52872E-05-2.85236E-05-2.86120E-05 1.34889E-07 1.25219E-19-5.62929E-19
 -1      2788 9.52654E-05-2.84908E-05-2.86178E-05 1.64271E-07 9.25422E-19-7.73323E-19
 -1      2789 9.52640E-05-2.85451E-05-2.85940E-05 7.15041E-08 1.34765E-18-2.63810E-19
 -1      2790 9.52726E-05-2.85401E-05-2.85990E-05 8.85451E-08 1.75375E-18 4.63850E-20
 -1      2791 9.52614E-05-2.85190E-05-2.86041E-05 1.10068E-07 6.20327E-19-1.74748E-20
 -1      2792 9.52550E-05-2.85538E-05-2.85863E-05 4.51953E-08 2.41918E-19 5.02134E-20
 -1      2793 9.52611E-05-2.85506E-05-2.85898E-05 5.67668E-08 5.67397E-19 1.07595E-20
 -1      2794 9.52562E-05-2.85370E-05-2.85941E-05 7.22883E-08 8.71444E-19 7.87514E-19
 -1      2795 9.52482E-05-2.85595E-05-2.85809E-05 2.72424E-08-4.32179E-19 1.82599E-18
 -1      2796 9.52525E-05-2.85573E-05-2.85833E-05 3.50524E-08-2.29077E-19 1.35576E-18
 -1      2797 9.52511E-05-2.85488E-05-2.85869E-05 4.60645E-08-5.07835E-19 9.70493E-19
 -1      2798 9.52434E-05-2.85633E-05-2.85772E-05 1.51238E-08 5.49195E-19 2.81298E-18
 -1      2799 9.52462E-05-2.85618E-05-2.85788E-05 2.03320E-08 5.09765E-19 2.40159E-18
 -1      2800 9.52469E-05-2.85565E-05-2.85817E-05 2.80005E-08-3.16162E-19 2.58922E-18
 -1      2801 9.52400E-05-2.85659E-05-2.85746E-05 7.08888E-09-1.09589E-19 3.58967E-18
 -1      2802 9.52418E-05-2.85648E-05-2.85757E-05 1.04923E-08 3.85669E-19 3.00876E-18
 -1      2803 9.52435E-05-2.85617E-05-2.85780E-05 1.57118E-08-7.10358E-20 2.73946E-18
 -1      2804 9.52379E-05-2.85677E-05-2.85729E-05 1.90966E-09-1.05761E-18 2.61819E-18
 -1      2805 9.52389E-05-2.85669E-05-2.85736E-05 4.06211E-09-5.44356E-19 3.71327E-18
 -1      2806 9.52411E-05-2.85652E-05-2.85755E-05 7.51097E-09 1.85645E-19 3.98503E-18
 -1      2807 9.52365E-05-2.85690E-05-2.85718E-05-1.28344E-09-2.24880E-18 1.72158E-18
 -1      2808 9.52371E-05-2.85684E-05-2.85722E-05 6.99707E-12-1.83033E-18 1.66206E-18
 -1      2809 9.52393E-05-2.85675E-05-2.85737E-05 2.19397E-09-1.76765E-18 3.26357E-18
 -1      2810 9.52358E-05-2.85698E-05-2.85711E-05-3.11035E-09 1.45312E-18 2.46829E-18
 -1      2811 9.52360E-05-2.85694E-05-2.85714E-05-2.40671E-09-1.17359E-18 1.93612E-18
 -1      2812 9.52382E-05-2.85691E-05-2.85725E-05-1.10359E-09-1.40893E-18 2.00187E-18
 -1      2813 9.52354E-05-2.85705E-05-2.85707E-05-4.01442E-09 2.63705E-18 2.34187E-18
 -1      2814 9.52355E-05-2.85701E-05-2.85708E-05-3.70215E-09 3.24982E-18 1.98442E-18
 -1      2815 9.52374E-05-2.85702E-05-2.85717E-05-3.00478E-09 2.34403E-18 1.42237E-18
 -1      2816 9.52353E-05-2.85709E-05-2.85705E-05-4.31234E-09 8.17541E-19 2.53644E-18
 -1      2817 9.52352E-05-2.85706E-05-2.85705E-05-4.25284E-09 2.18633E-18 2.55213E-18
 -1      2818 9.52370E-05-2.85709E-05-2.85712E-05-3.95897E-09 2.11237E-18 1.58682E-18
 -1      2819 9.52354E-05-2.85711E-05-2.85704E-05-4.22884E-09 4.33131E-19 1.56497E-18
 -1      2820 9.52352E-05-2.85710E-05-2.85704E-05-4.32451E-09 6.44011E-19 2.63562E-18
 -1      2821 9.52367E-05-2.85714E-05-2.85709E-05-4.28904E-09 2.06305E-19 1.86626E-18
 -1      2822 9.52356E-05-2.85713E-05-2.85704E-05-3.92148E-09 3.83614E-20 2.79683E-18
 -1      2823 9.52354E-05-2.85712E-05-2.85704E-05-4.10451E-09-4.45755E-19 1.97467E-18
 -1      2824 9.52366E-05-2.85716E-05-2.85707E-05-4.22506E-09-1.74556E-19 3.61735E-18
 -1      2825 9.52358E-05-2.85714E-05-2.85705E-05-3.49848E-09-7.10079E-19 4.26140E-18
 -1      2826 9.52356E-05-2.85713E-05-2.85704E-05-3.72284E-09-1.19453E-19 2.70828E-18
 -1      2827 9.52366E-05-2.85717E-05-2.85707E-05-3.92871E-09-9.68097E-19 3.37060E-18
 -1      2828 9.52360E-05-2.85714E-05-2.85705E-05-3.03199E-09-1.48124E-19 4.30788E-18
 -1      2829 9.52358E-05-2.85714E-05-2.85705E-05-3.26748E-09 3.80288E-19 4.09998E-18
 -1      2830 9.52366E-05-2.85718E-05-2.85706E-05-3.51122E-09 2.51199E-19 4.08348E-18
 -1      2831 9.52362E-05-2.85715E-05-2.85706E-05-2.56777E-09 3.58182E-19 2.76862E-18
 -1      2832 9.52360E-05-2.85714E-05-2.85706E-05-2.79575E-09-4.08490E-19 3.87898E-18
 -1      2833 9.52367E-05-2.85718E-05-2.85707E-05-3.04675E-09-7.08067E-20 3.18944E-18
 -1      2834 9.52364E-05-2.85715E-05-2.85707E-05-2.13255E-09 2.24207E-18 1.47945E-18
 -1      2835 9.52363E-05-2.85714E-05-2.85706E-05-2.34269E-09 9.44781E-19 2.63272E-18
 -1      2836 9.52367E-05-2.85717E-05-2.85707E-05-2.58243E-09 4.96007E-19 1.59811E-18
 -1      2837 9.52366E-05-2.85714E-05-2.85708E-05-1.73921E-09 3.23225E-18 9.15534E-19
 -1      2838 9.52365E-05-2.85714E-05-2.85707E-05-1.92730E-09 3.13203E-18 1.91241E-18
 -1      2839 9.52368E-05-2.85717E-05-2.85708E-05-2.14582E-09 2.27661E-18 9.55390E-19
 -1      2840 9.52367E-05-2.85714E-05-2.85709E-05-1.39021E-09 1.55755E-18 2.17500E-18
 -1      2841 9.52366E-05-2.85714E-05-2.85708E-05-1.55644E-09 2.45389E-18 1.42732E-18
 -1      2842 9.52369E-05-2.85716E-05-2.85708E-05-1.75251E-09 2.27718E-18 1.94860E-18
 -1      2843 9.52369E-05-2.85714E-05-2.85709E-05-1.09167E-09 1.78914E-18 7.77853E-19
 -1      2844 9.52368E-05-2.85714E-05-2.85709E-05-1.23932E-09 2.56887E-18 1.04691E-18
 -1      2845 9.52370E-05-2.85716E-05-2.85709E-05-1.41083E-09 2.35525E-18 1.40207E-18
 -1      2846 9.52371E-05-2.85716E-05-2.85709E-05-1.11186E-09 1.10863E-18 1.79390E-18
 -1      2847 9.52378E-05-2.85723E-05-2.85709E-05-3.67385E-10 1.62423E-18-2.45108E-18
 -1      2848 9.52378E-05-2.85722E-05-2.85709E-05-4.86927E-10 2.28565E-18-1.41350E-18
 -1      2849 9.52379E-05-2.85724E-05-2.85710E-05-3.24311E-10 1.74655E-18-1.76874E-18
 -1      2850 1.45028E-04-3.44370E-05-4.76436E-05 5.71981E-06 1.53821E-18-1.06409E-19
 -1      2851 1.42055E-04-2.50146E-05-5.08820E-05 8.15225E-06 1.55441E-18 1.04185E-19
 -1      2852 9.52373E-05-2.85717E-05-2.85710E-05-8.48487E-10 1.55315E-18 7.04756E-19
 -1      2853 7.73153E-05-2.64402E-05-2.07061E-05-2.81456E-05-1.16891E-19 1.56489E-18
 -1      2854 9.52377E-05-2.85722E-05-2.85709E-05-6.10268E-10 2.16094E-18 1.64344E-18
 -1      2855 9.52376E-05-2.85721E-05-2.85709E-05-6.96736E-10 9.78377E-19 3.17978E-18
 -1      2856 9.52376E-05-2.85721E-05-2.85710E-05-8.25019E-10 1.45552E-18 2.18207E-18
 -1      2857 9.52378E-05-2.85723E-05-2.85710E-05-6.12822E-10 1.11765E-18-2.08241E-19
 -1      2858 9.52378E-05-2.85723E-05-2.85709E-05 2.20054E-10 2.05975E-18 2.48901E-18
 -1      2859 9.52379E-05-2.85723E-05-2.85709E-05 8.30646E-11 1.57147E-18 1.53998E-18
 -1      2860 9.52380E-05-2.85724E-05-2.85710E-05 3.28069E-12 1.91721E-18 7.49881E-19
 -1      2861 9.52378E-05-2.85722E-05-2.85709E-05 4.86222E-10 3.98380E-19-1.27149E-18
 -1      2862 9.52378E-05-2.85723E-05-2.85709E-05 3.68745E-10 1.55858E-18 6.95273E-19
 -1      2863 9.52379E-05-2.85724E-05-2.85710E-05 3.27759E-10 1.63006E-18 1.44214E-18
 -1      2864 9.52376E-05-2.85721E-05-2.85709E-05 6.95289E-10 8.32536E-21-7.13513E-19
 -1      2865 9.52377E-05-2.85722E-05-2.85709E-05 6.08940E-10 4.16620E-19-6.22701E-19
 -1      2866 9.52378E-05-2.85722E-05-2.85710E-05 6.12512E-10 3.24113E-19-1.68440E-18
 -1      2867 9.52374E-05-2.85719E-05-2.85710E-05 8.12254E-10 6.19858E-19 1.97877E-18
 -1      2868 9.52375E-05-2.85720E-05-2.85709E-05 7.73991E-10 7.59807E-19 1.13274E-18
 -1      2869 9.52376E-05-2.85721E-05-2.85710E-05 8.24211E-10 1.51952E-18 5.58252E-19
 -1      2870 4.02806E-05-6.80671E-06-1.36390E-05 1.40262E-05-1.54856E-18 4.37493E-19
 -1      2871 4.90493E-05-3.87980E-06-1.86185E-05-1.38201E-05 1.07526E-18 1.54975E-18
 -1      2872 1.45517E-04-5.22474E-05-4.00283E-05-1.06979E-05 1.70048E-18 7.23366E-19
 -1      2873 1.47546E-04-4.51762E-05-4.45151E-05-2.18961E-06 1.54605E-18 2.76344E-19
 -1      2874 9.52371E-05-2.85715E-05-2.85710E-05 7.61517E-10 1.58161E-18 3.43191E-18
 -1      2875 9.52372E-05-2.85716E-05-2.85710E-05 7.90685E-10 1.50178E-18 1.31655E-18
 -1      2876 9.52370E-05-2.85715E-05-2.85710E-05 8.48672E-10 1.59589E-18 2.18973E-18
 -1      2877 7.48970E-05-1.29484E-05-2.66687E-05 1.82872E-05-7.87502E-19 1.80790E-18
 -1      2878 7.23768E-05-1.27159E-05-2.53030E-05 2.10181E-05-1.20649E-18 1.06440E-18
 -1      2879 6.21718E-05-8.26487E-06-2.24021E-05 1.79595E-05-1.59507E-18 9.27978E-19
 -1      2880 7.05966E-05-1.00276E-05-2.55805E-05 1.27592E-05-3.43624E-19 1.96373E-19
 -1      2881 7.96184E-05-1.26175E-05-2.83883E-05-1.66449E-05 7.09761E-19 2.79129E-18
 -1      2882 1.43044E-04-4.15617E-05-4.41539E-05 7.96447E-06-2.91948E-19 1.99646E-18
 -1      2883 1.36657E-04-4.48130E-05-3.91577E-05 1.87447E-05 1.26949E-19 2.45396E-18
 -1      2884 1.38636E-04-1.54589E-05-5.33283E-05 8.33425E-06 1.51322E-18-4.15046E-20
 -1      2885 1.35698E-04-9.26170E-06-5.49653E-05 5.74832E-06 1.11766E-18-2.85344E-19
 -1      2886 6.58049E-05-3.00785E-05-1.46953E-05-4.65952E-05 1.24556E-18 2.23564E-18
 -1      2887 8.46437E-05-4.09944E-05-1.86992E-05-4.95849E-05 1.25816E-18 2.01340E-18
 -1      2888 1.30437E-04-5.77362E-05-3.10398E-05-3.01276E-05 1.22513E-18-1.57548E-19
 -1      2889 1.39738E-04-5.70665E-05-3.58337E-05-2.12697E-05 1.57109E-18 4.73280E-19
 -1      2890 1.04866E-04-5.04092E-05-2.29161E-05-4.44326E-05 1.20988E-18 7.72706E-19
 -1      2891 1.20009E-04-5.62108E-05-2.74679E-05-3.93028E-05 9.30995E-19-2.10276E-19
 -1      2892 1.26492E-04-5.66395E-05-2.97432E-05-2.96927E-05 1.21819E-18-2.36587E-19
 -1      2893 5.76769E-05-1.24321E-05-1.91645E-05 4.73815E-05 2.51738E-18 2.11250E-18
 -1      2894 1.37663E-04-8.54567E-06-5.59716E-05-8.12459E-06-4.24787E-19 3.71477E-19
 -1      2895 1.37376E-04-1.50017E-05-5.29925E-05-1.02980E-05-6.75721E-19 3.91117E-19
 -1      2896 7.53977E-05-2.11765E-05-2.27044E-05 4.44044E-05 2.40822E-18 2.10498E-18
 -1      2897 7.68994E-05-1.64026E-05-2.56215E-05-2.14791E-05 5.10390E-19 2.19138E-18
 -1      2898 1.05163E-04-2.20314E-05-3.56725E-05-1.35528E-05 1.22693E-18-1.69148E-18
 -1      2899 1.02654E-04-2.11450E-05-3.50038E-05-1.43715E-05 1.07510E-18-1.93467E-18
 -1      2900 1.07315E-04-2.31582E-05-3.59939E-05-1.37058E-05 1.04028E-18-1.51644E-18
 -1      2901 1.41833E-04-4.03365E-05-4.37407E-05 3.98856E-06 1.61979E-18-4.22458E-20
 -1      2902 1.27880E-04-1.45479E-05-4.89654E-05-1.31326E-05-3.01650E-19-5.37231E-19
 -1      2903 1.36584E-04-2.02457E-05-5.02606E-05-1.16613E-05-4.47657E-19 3.39448E-19
 -1      2904 1.33304E-04-2.45650E-05-4.68858E-05-1.13884E-05-2.42993E-19 2.58451E-19
 -1      2905 1.14701E-04-3.55498E-05-3.37751E-05 1.63439E-05 1.66337E-18 1.42326E-18
 -1      2906 1.17949E-04-3.57403E-05-3.54248E-05 9.14691E-06 1.54026E-18 9.41242E-19
 -1      2907 6.37543E-05-2.40837E-05-1.64445E-05-4.04674E-05 7.54971E-19 2.21192E-18
 -1      2908 1.34249E-04-2.10901E-05-4.87977E-05 1.01378E-05 1.49035E-18-4.41516E-19
 -1      2909 4.42435E-05-5.26483E-06-1.64764E-05 7.67506E-06-1.97480E-18 5.44325E-19
 -1      2910 1.40037E-04-3.78955E-05-4.39294E-05 2.77808E-07-1.67554E-19 1.46685E-18
 -1      2911 1.15513E-04-2.87148E-05-3.71900E-05-6.84849E-06 1.46310E-18-2.07467E-19
 -1      2912 1.13127E-04-2.66852E-05-3.72028E-05-9.60589E-06 1.43282E-18-7.19111E-19
 -1      2913 1.13212E-04-2.60868E-05-3.72456E-05-1.19170E-05 1.16826E-18-8.95302E-19
 -1      2914 5.96167E-05-1.57047E-05-1.81871E-05-2.20596E-05 4.46492E-19 1.39273E-18
 -1      2915 9.52373E-05-2.85718E-05-2.85709E-05-9.53765E-10 1.86087E-18 8.10470E-19
 -1      2916 9.52373E-05-2.85717E-05-2.85710E-05 8.05737E-10 7.80009E-19 5.48253E-19
 -1      2917 1.30494E-04-4.52752E-05-3.63874E-05 2.12593E-05 5.62959E-19 2.30573E-18
 -1      2918 1.31913E-04-6.73915E-06-5.41501E-05 3.62444E-06 8.13787E-19-5.32043E-19
 -1      2919 1.25875E-04-4.64192E-06-5.25838E-05 7.79999E-07 6.18546E-19-9.35753E-19
 -1      2920 1.25801E-04-9.40046E-06-5.02032E-05 6.15455E-06 1.12920E-18-9.47698E-19
 -1      2921 9.87396E-05-4.53029E-05-2.25160E-05-4.28678E-05 1.24037E-18 9.43171E-19
 -1      2922 9.52371E-05-2.85716E-05-2.85709E-05 9.69197E-10 2.76960E-18 7.77987E-19
 -1      2923 1.18542E-04-3.32067E-05-3.64934E-05 1.80131E-06 1.42824E-18 5.04626E-19
 -1      2924 1.17693E-04-3.15504E-05-3.71303E-05-3.02356E-06 1.42913E-18 4.57265E-20
 -1      2925 1.19094E-04-3.09858E-05-3.76825E-05-7.24554E-06 1.03599E-18-1.78340E-21
 -1      2926 1.30638E-04-6.52706E-06-5.36743E-05-7.39996E-06-1.37960E-19-4.14040E-19
 -1      2927 9.09100E-05-2.97693E-05-2.60693E-05 4.26118E-05 2.04998E-18 2.25253E-18
 -1      2928 1.40547E-04-5.47063E-05-3.67649E-05-1.20985E-05 1.80651E-18 3.26319E-19
 -1      2929 1.21368E-04-4.16560E-05-3.41191E-05 2.06706E-05 1.12469E-18 1.97758E-18
 -1      2930 9.52372E-05-2.85717E-05-2.85710E-05 9.43516E-10 2.92177E-18 3.06536E-19
 -1      2931 9.52373E-05-2.85718E-05-2.85710E-05 8.68293E-10 8.70385E-19 7.85229E-19
 -1      2932 9.52374E-05-2.85719E-05-2.85710E-05 9.56914E-10 2.40599E-18 1.74047E-18
 -1      2933 9.52372E-05-2.85717E-05-2.85709E-05 1.03819E-09 2.52391E-18-1.56967E-19
 -1      2934 1.22432E-04-3.63807E-05-3.68198E-05 3.12230E-06 1.13124E-18 7.82394E-19
 -1      2935 6.06949E-05-1.82436E-05-1.78032E-05-3.36435E-05 4.23146E-19 1.77819E-18
 -1      2936 7.49043E-05-2.88876E-05-1.97292E-05-4.03793E-05 8.40468E-19 1.96872E-18
 -1      2937 8.40868E-05-1.83734E-05-2.82249E-05 4.15646E-06 1.00454E-18 1.05809E-18
 -1      2938 8.13730E-05-1.64887E-05-2.78761E-05 4.80299E-06 1.37399E-18 1.06354E-18
 -1      2939 9.90613E-05-2.25016E-05-3.28182E-05-1.17848E-05 6.14206E-19-1.90079E-18
 -1      2940 9.83315E-05-2.22390E-05-3.25876E-05-9.95224E-06 4.55963E-19-1.92473E-18
 -1      2941 1.24982E-04-5.17142E-06-5.18766E-05-4.29084E-06 2.68086E-19-9.82102E-19
 -1      2942 1.23440E-04-8.09741E-06-4.98765E-05-8.92956E-06-1.36902E-19-1.07048E-18
 -1      2943 1.20291E-04-6.54426E-06-4.90586E-05-1.58017E-06 6.09864E-19-1.47865E-18
 -1      2944 9.75372E-05-2.17829E-05-3.24803E-05-8.00764E-06 3.86002E-19-1.74900E-18
 -1      2945 9.68151E-05-2.13430E-05-3.23179E-05-5.80582E-06 3.33694E-19-1.65567E-18
 -1      2946 1.00032E-04-2.14136E-05-3.36856E-05-9.78849E-06 5.45724E-19-1.66826E-18
 -1      2947 9.61658E-05-2.10236E-05-3.21973E-05-3.26256E-06 1.77843E-19-1.49025E-18
 -1      2948 9.58126E-05-2.10306E-05-3.20370E-05-8.71547E-07 1.56800E-19-1.32185E-18
 -1      2949 9.85179E-05-2.03857E-05-3.35000E-05-5.19416E-06 4.23516E-19-1.52261E-18
 -1      2950 9.57692E-05-2.14208E-05-3.18327E-05 1.79091E-06 1.37132E-19-1.13096E-18
 -1      2951 9.59536E-05-2.21809E-05-3.16332E-05 3.95069E-06 1.38672E-19-1.24164E-18
 -1      2952 9.78023E-05-2.04388E-05-3.31836E-05 2.31334E-07 2.49913E-19-1.27587E-18
 -1      2953 9.65527E-05-2.33498E-05-3.13286E-05 6.07075E-06 2.67233E-19-1.09248E-18
 -1      2954 9.71524E-05-2.46947E-05-3.10905E-05 7.58300E-06 3.58839E-19-9.78247E-19
 -1      2955 9.83956E-05-2.22768E-05-3.26405E-05 5.23904E-06 3.06192E-19-9.50723E-19
 -1      2956 9.80533E-05-2.62846E-05-3.07176E-05 8.75561E-06 3.91717E-19-9.39465E-19
 -1      2957 9.88180E-05-2.78255E-05-3.04654E-05 9.41479E-06 3.53981E-19-7.83685E-19
 -1      2958 9.99450E-05-2.55050E-05-3.18990E-05 8.60724E-06 3.32086E-19-1.07154E-18
 -1      2959 9.95532E-05-2.93021E-05-3.00846E-05 9.54820E-06 4.82727E-19-6.33486E-19
 -1      2960 1.00187E-04-3.05873E-05-2.98561E-05 9.44499E-06 4.80403E-19-3.32451E-19
 -1      2961 1.01649E-04-2.91198E-05-3.10641E-05 9.85668E-06 6.83290E-19-6.72926E-19
 -1      2962 1.00483E-04-3.15865E-05-2.95231E-05 8.84415E-06 4.08660E-19-1.87728E-19
 -1      2963 1.00832E-04-3.23898E-05-2.93434E-05 8.23801E-06 6.01699E-19-4.92641E-20
 -1      2964 1.02700E-04-3.20082E-05-3.02734E-05 9.26303E-06 6.32712E-19-3.28470E-19
 -1      2965 1.00668E-04-3.28214E-05-2.90865E-05 7.28811E-06 4.72991E-19 1.11408E-19
 -1      2966 1.00723E-04-3.31318E-05-2.89638E-05 6.46014E-06 5.13617E-19 9.95737E-20
 -1      2967 1.02817E-04-3.36688E-05-2.96208E-05 7.60291E-06 5.44374E-19 1.60305E-19
 -1      2968 1.00233E-04-3.30963E-05-2.87878E-05 5.47008E-06 3.95313E-19 4.85390E-20
 -1      2969 1.00070E-04-3.30329E-05-2.87171E-05 4.63372E-06 3.00409E-19 9.90855E-20
 -1      2970 1.02135E-04-3.41304E-05-2.91421E-05 5.60595E-06 4.75350E-19 2.45111E-19
 -1      2971 9.94306E-05-3.27082E-05-2.86104E-05 3.78227E-06 9.71408E-20-7.38910E-21
 -1      2972 9.91514E-05-3.24283E-05-2.85791E-05 3.05845E-06-5.91746E-20-1.85959E-19
 -1      2973 1.00980E-04-3.37269E-05-2.88288E-05 3.76080E-06 3.10573E-19 3.15927E-20
 -1      2974 9.85074E-05-3.19808E-05-2.85236E-05 2.40911E-06-3.75646E-19-3.66479E-19
 -1      2975 9.81979E-05-3.16181E-05-2.85182E-05 1.84339E-06-7.51494E-19-5.43018E-19
 -1      2976 9.96808E-05-3.28623E-05-2.86473E-05 2.29023E-06-3.92782E-19-3.93789E-19
 -1      2977 9.76349E-05-3.11646E-05-2.84961E-05 1.39065E-06-8.88632E-19-8.47827E-19
 -1      2978 9.73497E-05-3.08076E-05-2.85045E-05 9.81812E-07-9.68136E-19-9.27333E-19
 -1      2979 9.84682E-05-3.18598E-05-2.85582E-05 1.23209E-06-1.15700E-18-2.94122E-19
 -1      2980 9.69024E-05-3.04125E-05-2.85015E-05 6.89919E-07-8.67536E-19-1.07196E-18
 -1      2981 9.66676E-05-3.01074E-05-2.85154E-05 4.14297E-07-3.45189E-19-1.00534E-18
 -1      2982 9.74591E-05-3.09217E-05-2.85266E-05 5.31293E-07-9.60038E-19-6.74622E-19
 -1      2983 9.63370E-05-2.97954E-05-2.85214E-05 2.41122E-07 1.87690E-19-7.63308E-19
 -1      2984 9.61584E-05-2.95581E-05-2.85356E-05 6.82766E-08 3.17042E-19-4.65419E-19
 -1      2985 9.66857E-05-3.01444E-05-2.85262E-05 1.03064E-07 1.74075E-19-1.47496E-19
 -1      2986 9.59285E-05-2.93295E-05-2.85444E-05-2.35777E-08 6.63695E-19-1.17315E-19
 -1      2987 9.58007E-05-2.91580E-05-2.85562E-05-1.22592E-07 1.08606E-18 6.65884E-20
 -1      2988 9.61307E-05-2.95531E-05-2.85396E-05-1.34104E-07 9.69058E-19 1.23705E-19
 -1      2989 9.56494E-05-2.90010E-05-2.85646E-05-1.62234E-07 1.39965E-18-2.49748E-19
 -1      2990 9.55626E-05-2.88848E-05-2.85731E-05-2.11399E-07 7.23375E-19-2.19604E-19
 -1      2991 9.57544E-05-2.91333E-05-2.85563E-05-2.46092E-07 1.03799E-18-1.22404E-19
 -1      2992 9.54683E-05-2.87837E-05-2.85795E-05-2.19721E-07 7.35873E-20 5.15153E-19
 -1      2993 9.54119E-05-2.87098E-05-2.85848E-05-2.37291E-07 1.67285E-19 5.74902E-19
 -1      2994 9.55129E-05-2.88534E-05-2.85712E-05-2.81222E-07 9.36128E-19 4.27112E-20
 -1      2995 9.53567E-05-2.86492E-05-2.85890E-05-2.28418E-07-2.30717E-19 7.03236E-19
 -1      2996 9.53215E-05-2.86056E-05-2.85915E-05-2.27436E-07 9.37522E-20 4.68590E-19
 -1      2997 9.53663E-05-2.86788E-05-2.85822E-05-2.72675E-07 5.24068E-20 7.87766E-19
 -1      2998 9.52917E-05-2.85726E-05-2.85937E-05-2.10434E-07 5.19148E-19-2.69492E-19
 -1      2999 9.52707E-05-2.85494E-05-2.85944E-05-1.99725E-07 3.37092E-21-3.44790E-19
 -1      3000 9.52833E-05-2.85782E-05-2.85889E-05-2.42061E-07-2.15644E-19 8.49925E-19
 -1      3001 9.52563E-05-2.85341E-05-2.85950E-05-1.80103E-07-7.05716E-20-6.33119E-19
 -1      3002 9.52443E-05-2.85238E-05-2.85944E-05-1.65317E-07-4.88079E-19-1.13581E-19
 -1      3003 9.52403E-05-2.85268E-05-2.85921E-05-2.02760E-07-1.44153E-19-7.40607E-19
 -1      3004 9.52389E-05-2.85191E-05-2.85939E-05-1.46195E-07-3.22192E-20 1.52682E-19
 -1      3005 9.52323E-05-2.85164E-05-2.85926E-05-1.30720E-07 5.83496E-19 1.40139E-19
 -1      3006 9.52213E-05-2.85059E-05-2.85926E-05-1.62570E-07 1.62765E-19-7.26645E-19
 -1      3007 9.52316E-05-2.85175E-05-2.85915E-05-1.13678E-07 6.44591E-19-3.25510E-19
 -1      3008 9.52283E-05-2.85190E-05-2.85898E-05-9.93664E-08 1.25150E-18-2.09833E-19
 -1      3009 9.52156E-05-2.85028E-05-2.85913E-05-1.25654E-07 5.67231E-19 3.68687E-19
 -1      3010 9.52297E-05-2.85228E-05-2.85884E-05-8.50376E-08 9.63812E-19-3.68320E-19
 -1      3011 9.52282E-05-2.85262E-05-2.85867E-05-7.27497E-08 3.53243E-19-1.29258E-19
 -1      3012 9.52166E-05-2.85090E-05-2.85891E-05-9.38965E-08 1.20423E-18-7.35803E-19
 -1      3013 9.52304E-05-2.85310E-05-2.85853E-05-6.12121E-08-1.03769E-19 5.52732E-19
 -1      3014 9.52297E-05-2.85349E-05-2.85836E-05-5.12041E-08-3.13786E-19 5.23107E-19
 -1      3015 9.52205E-05-2.85191E-05-2.85863E-05-6.78187E-08 1.59938E-19-7.08508E-19
 -1      3016 9.52319E-05-2.85396E-05-2.85822E-05-4.22404E-08-7.99165E-19 7.60618E-19
 -1      3017 9.52317E-05-2.85434E-05-2.85808E-05-3.44257E-08-2.37565E-19 1.42101E-18
 -1      3018 9.52250E-05-2.85300E-05-2.85835E-05-4.71828E-08-3.96572E-19 5.59297E-19
 -1      3019 9.52336E-05-2.85476E-05-2.85796E-05-2.76832E-08-7.71690E-19 1.64740E-18
 -1      3020 9.52336E-05-2.85508E-05-2.85784E-05-2.18045E-08-5.94989E-19 1.82950E-18
 -1      3021 9.52291E-05-2.85402E-05-2.85809E-05-3.13712E-08-3.27536E-19 8.72909E-19
 -1      3022 9.52350E-05-2.85543E-05-2.85774E-05-1.68917E-08-3.82271E-19 2.02907E-18
 -1      3023 9.52351E-05-2.85569E-05-2.85764E-05-1.26265E-08 1.66920E-20 1.50129E-18
 -1      3024 9.52324E-05-2.85489E-05-2.85787E-05-1.96203E-08-3.46608E-19 1.10640E-18
 -1      3025 9.52361E-05-2.85596E-05-2.85756E-05-9.16659E-09 5.98351E-19 9.71109E-19
 -1      3026 9.52362E-05-2.85617E-05-2.85748E-05-6.18907E-09 5.33935E-19 1.44720E-18
 -1      3027 9.52349E-05-2.85559E-05-2.85767E-05-1.11564E-08 3.69357E-19 1.10690E-18
 -1      3028 9.52369E-05-2.85637E-05-2.85742E-05-3.84733E-09 1.65541E-19 1.17848E-18
 -1      3029 9.52370E-05-2.85653E-05-2.85736E-05-1.86093E-09-8.67064E-19 1.39224E-18
 -1      3030 9.52366E-05-2.85612E-05-2.85752E-05-5.26841E-09 3.75370E-19 7.70933E-19
 -1      3031 9.52374E-05-2.85667E-05-2.85731E-05-3.54818E-10-4.01101E-20 1.65553E-18
 -1      3032 9.52374E-05-2.85678E-05-2.85727E-05 8.93615E-10 8.90782E-19 2.13626E-18
 -1      3033 9.52377E-05-2.85652E-05-2.85739E-05-1.34132E-09 1.67454E-19 1.87414E-18
 -1      3034 9.52376E-05-2.85688E-05-2.85723E-05 1.79336E-09-6.54456E-19 2.83121E-18
 -1      3035 9.52377E-05-2.85696E-05-2.85720E-05 2.51018E-09-3.72646E-19 2.45081E-18
 -1      3036 9.52383E-05-2.85680E-05-2.85730E-05 1.13469E-09 8.69009E-19 2.10739E-18
 -1      3037 9.52377E-05-2.85702E-05-2.85718E-05 2.98382E-09-7.03775E-19 2.02478E-18
 -1      3038 9.52377E-05-2.85708E-05-2.85716E-05 3.33121E-09-7.32414E-19 1.57633E-18
 -1      3039 9.52386E-05-2.85699E-05-2.85723E-05 2.56798E-09-9.44666E-19 2.24075E-18
 -1      3040 9.52377E-05-2.85712E-05-2.85714E-05 3.51649E-09-2.63666E-19 8.44286E-19
 -1      3041 9.52378E-05-2.85715E-05-2.85713E-05 3.61790E-09-6.77123E-20 2.23046E-20
 -1      3042 9.52386E-05-2.85711E-05-2.85718E-05 3.27635E-09-8.88888E-19 1.87388E-18
 -1      3043 9.52377E-05-2.85717E-05-2.85711E-05 3.61730E-09 1.14092E-19 9.12152E-21
 -1      3044 9.52377E-05-2.85719E-05-2.85711E-05 3.56393E-09 9.48563E-19-5.25468E-19
 -1      3045 9.52386E-05-2.85718E-05-2.85715E-05 3.50055E-09-1.98815E-19 9.64099E-19
 -1      3046 9.52376E-05-2.85720E-05-2.85710E-05 3.45156E-09 2.18167E-18-8.88711E-19
 -1      3047 9.52376E-05-2.85721E-05-2.85710E-05 3.30866E-09 1.66922E-18-1.06519E-18
 -1      3048 9.52384E-05-2.85722E-05-2.85712E-05 3.41816E-09 1.30979E-18 4.79935E-20
 -1      3049 9.52375E-05-2.85721E-05-2.85709E-05 3.13646E-09 9.34440E-19-1.36484E-18
 -1      3050 9.52375E-05-2.85721E-05-2.85709E-05 2.94911E-09-2.85293E-19-1.52278E-18
 -1      3051 9.52382E-05-2.85724E-05-2.85711E-05 3.15648E-09 8.83165E-19-6.15847E-19
 -1      3052 9.52375E-05-2.85721E-05-2.85709E-05 2.75208E-09-9.98721E-19-2.01372E-18
 -1      3053 9.52375E-05-2.85721E-05-2.85709E-05 2.54999E-09-2.03704E-18-1.55907E-18
 -1      3054 9.52380E-05-2.85724E-05-2.85710E-05 2.80378E-09-4.86789E-19-8.73463E-19
 -1      3055 9.52374E-05-2.85720E-05-2.85709E-05 2.35055E-09-2.26335E-18-1.19550E-18
 -1      3056 9.52374E-05-2.85720E-05-2.85709E-05 2.15206E-09-3.24268E-19-1.25419E-18
 -1      3057 9.52379E-05-2.85723E-05-2.85710E-05 2.41874E-09-1.53702E-18-2.50627E-19
 -1      3058 9.52373E-05-2.85719E-05-2.85709E-05 1.96323E-09 2.27178E-19-1.90122E-18
 -1      3059 9.52373E-05-2.85719E-05-2.85709E-05 1.77836E-09 7.42954E-20-2.47292E-18
 -1      3060 9.52377E-05-2.85722E-05-2.85709E-05 2.03802E-09-2.49260E-20-2.80618E-18
 -1      3061 9.52373E-05-2.85718E-05-2.85709E-05 1.60698E-09-2.76859E-19-1.50672E-18
 -1      3062 9.52373E-05-2.85718E-05-2.85709E-05 1.43973E-09-5.62031E-19-1.52122E-18
 -1      3063 9.52376E-05-2.85721E-05-2.85709E-05 1.68240E-09 7.59278E-19-2.10858E-18
 -1      3064 9.52372E-05-2.85718E-05-2.85709E-05 1.30775E-09 5.19430E-19-6.79521E-19
 -1      3065 9.52373E-05-2.85717E-05-2.85709E-05 1.15664E-09 1.89108E-18 6.46982E-19
 -1      3066 9.52374E-05-2.85718E-05-2.85709E-05 1.12970E-09 2.14452E-18 1.46124E-18
 -1      3067 9.52375E-05-2.85719E-05-2.85709E-05 1.38185E-09 1.40380E-18 1.18636E-18
 -1      3068 9.52381E-05-2.85725E-05-2.85710E-05 9.10843E-11 2.03737E-18 1.90341E-18
 -1      3069 9.52381E-05-2.85725E-05-2.85710E-05-8.16169E-11 1.93502E-18-1.46266E-20
 -1      3070 7.74770E-05-1.41958E-05-2.72008E-05 4.52945E-06 8.75051E-19 3.23047E-19
 -1      3071 7.32144E-05-1.19232E-05-2.63754E-05 5.18935E-06 2.84782E-19 4.69640E-20
 -1      3072 7.79842E-05-1.46579E-05-2.69790E-05 9.43519E-07 6.92276E-19 7.77358E-19
 -1      3073 9.11071E-05-2.38858E-05-2.88389E-05 2.80668E-06 1.04146E-18 4.69375E-19
 -1      3074 9.00719E-05-2.28857E-05-2.88142E-05 3.34501E-06 9.22427E-19 7.33567E-19
 -1      3075 9.28037E-05-2.54866E-05-2.88704E-05 2.15799E-06-1.90379E-19 1.93003E-19
 -1      3076 9.21916E-05-2.48060E-05-2.88886E-05 2.59339E-06 2.81765E-19 4.72734E-21
 -1      3077 9.08998E-05-2.38413E-05-2.86993E-05 1.85292E-06 9.59887E-19 1.46678E-18
 -1      3078 9.38365E-05-2.65632E-05-2.88450E-05 1.61533E-06-6.76712E-20 7.06898E-20
 -1      3079 9.34847E-05-2.61117E-05-2.88772E-05 1.95011E-06-4.24980E-19 1.54521E-19
 -1      3080 9.25981E-05-2.54102E-05-2.87701E-05 1.56073E-06-6.82192E-20 1.41670E-18
 -1      3081 9.44527E-05-2.72731E-05-2.88002E-05 1.18685E-06 1.13017E-18 2.18940E-19
 -1      3082 9.42566E-05-2.69788E-05-2.88335E-05 1.43569E-06 4.15486E-19 2.91241E-19
 -1      3083 9.36596E-05-2.64824E-05-2.87753E-05 1.24606E-06 8.07939E-20 9.54733E-19
 -1      3084 9.48127E-05-2.77348E-05-2.87535E-05 8.60581E-07 9.14299E-19 8.12697E-19
 -1      3085 9.47074E-05-2.75451E-05-2.87828E-05 1.04153E-06 1.59789E-18 7.01874E-19
 -1      3086 9.43114E-05-2.72004E-05-2.87530E-05 9.61184E-07 9.43321E-19 1.29871E-18
 -1      3087 9.50182E-05-2.80324E-05-2.87120E-05 6.17806E-07 3.22280E-19 3.63557E-19
 -1      3088 9.49647E-05-2.79111E-05-2.87359E-05 7.47580E-07 7.03936E-19 8.03596E-19
 -1      3089 9.47051E-05-2.76746E-05-2.87223E-05 7.24108E-07 8.38357E-19 1.31233E-18
 -1      3090 9.51324E-05-2.82233E-05-2.86778E-05 4.39802E-07 2.59003E-19 3.28565E-19
 -1      3091 9.51073E-05-2.81459E-05-2.86964E-05 5.32113E-07-4.15609E-20 7.96827E-20
 -1      3092 9.49390E-05-2.79850E-05-2.86917E-05 5.36063E-07 4.38905E-19 1.13823E-18
 -1      3093 9.51934E-05-2.83456E-05-2.86506E-05 3.10501E-07 5.49221E-19-1.77423E-19
 -1      3094 9.51836E-05-2.82963E-05-2.86648E-05 3.75871E-07 8.28478E-19 8.60404E-19
 -1      3095 9.50756E-05-2.81873E-05-2.86648E-05 3.91296E-07 3.38541E-19 5.18384E-19
 -1      3096 9.52245E-05-2.84241E-05-2.86297E-05 2.17141E-07 1.05620E-18-5.01790E-19
 -1      3097 9.52222E-05-2.83925E-05-2.86403E-05 2.63325E-07 6.55942E-19-1.29828E-19
 -1      3098 9.51537E-05-2.83189E-05-2.86427E-05 2.81977E-07 8.69159E-19 9.20895E-19
 -1      3099 9.52390E-05-2.84747E-05-2.86139E-05 1.50033E-07 8.05475E-19-3.73050E-19
 -1      3100 9.52402E-05-2.84544E-05-2.86217E-05 1.82610E-07 1.06493E-18-7.72798E-20
 -1      3101 9.51973E-05-2.84047E-05-2.86250E-05 2.00524E-07 7.69842E-19 9.82679E-19
 -1      3102 9.52447E-05-2.85076E-05-2.86020E-05 1.02006E-07 7.03759E-20 1.29460E-19
 -1      3103 9.52472E-05-2.84944E-05-2.86078E-05 1.24939E-07-1.34444E-19-8.84996E-19
 -1      3104 9.52209E-05-2.84609E-05-2.86113E-05 1.40458E-07 3.13416E-19 1.44639E-18
 -1      3105 9.52461E-05-2.85292E-05-2.85932E-05 6.78235E-08 1.12157E-19 8.94910E-19
 -1      3106 9.52488E-05-2.85205E-05-2.85974E-05 8.39072E-08 3.55145E-19 3.53527E-19
 -1      3107 9.52331E-05-2.84980E-05-2.86007E-05 9.65703E-08-4.24808E-20-2.35163E-19
 -1      3108 9.52455E-05-2.85436E-05-2.85867E-05 4.36784E-08-1.46822E-18 1.90795E-18
 -1      3109 9.52479E-05-2.85378E-05-2.85897E-05 5.48872E-08-1.07513E-18 1.05404E-18
 -1      3110 9.52390E-05-2.85228E-05-2.85927E-05 6.48079E-08-4.48273E-19 1.44764E-18
 -1      3111 9.52441E-05-2.85532E-05-2.85819E-05 2.68069E-08-6.08805E-19 3.10566E-18
 -1      3112 9.52461E-05-2.85493E-05-2.85841E-05 3.45393E-08-6.12365E-19 2.86797E-18
 -1      3113 9.52415E-05-2.85394E-05-2.85867E-05 4.20729E-08-1.54687E-18 3.27920E-18
 -1      3114 9.52427E-05-2.85597E-05-2.85785E-05 1.51961E-08 4.40828E-19 3.21053E-18
 -1      3115 9.52441E-05-2.85570E-05-2.85800E-05 2.04489E-08-1.37630E-20 3.50189E-18
 -1      3116 9.52423E-05-2.85506E-05-2.85822E-05 2.60198E-08-3.53686E-19 3.73853E-18
 -1      3117 9.52413E-05-2.85642E-05-2.85760E-05 7.37508E-09-3.81995E-19 3.38963E-18
 -1      3118 9.52424E-05-2.85623E-05-2.85771E-05 1.08635E-08 5.84330E-19 3.07024E-18
 -1      3119 9.52422E-05-2.85582E-05-2.85789E-05 1.48814E-08 2.74817E-19 3.05634E-18
 -1      3120 9.52402E-05-2.85671E-05-2.85742E-05 2.26543E-09-9.47073E-19 2.05868E-18
 -1      3121 9.52410E-05-2.85659E-05-2.85750E-05 4.50575E-09-5.62313E-19 2.79205E-18
 -1      3122 9.52417E-05-2.85634E-05-2.85764E-05 7.32973E-09 3.51565E-19 3.12900E-18
 -1      3123 9.52394E-05-2.85691E-05-2.85730E-05-9.25012E-10-5.88520E-19 9.38186E-19
 -1      3124 9.52399E-05-2.85683E-05-2.85735E-05 4.41262E-10-2.05135E-18 1.35948E-18
 -1      3125 9.52410E-05-2.85669E-05-2.85747E-05 2.36924E-09-8.64053E-19 2.01832E-18
 -1      3126 9.52388E-05-2.85705E-05-2.85721E-05-2.77761E-09 2.16175E-18 1.46750E-18
 -1      3127 9.52391E-05-2.85699E-05-2.85725E-05-2.01396E-09 1.52173E-18 6.61852E-19
 -1      3128 9.52404E-05-2.85692E-05-2.85734E-05-7.43799E-10 3.54801E-19 1.71823E-18
 -1      3129 9.52383E-05-2.85713E-05-2.85716E-05-3.71742E-09 1.25198E-18 2.65693E-18
 -1      3130 9.52385E-05-2.85709E-05-2.85718E-05-3.35994E-09 2.04702E-18 2.45968E-18
 -1      3131 9.52398E-05-2.85707E-05-2.85725E-05-2.56226E-09 1.67818E-18 3.07723E-18
 -1      3132 9.52379E-05-2.85718E-05-2.85712E-05-4.05295E-09 2.85834E-19 2.75244E-18
 -1      3133 9.52380E-05-2.85716E-05-2.85713E-05-3.96035E-09 4.55613E-19 2.81757E-18
 -1      3134 9.52393E-05-2.85716E-05-2.85719E-05-3.49412E-09 4.14100E-19 4.92223E-18
 -1      3135 9.52377E-05-2.85720E-05-2.85710E-05-4.00558E-09-3.44257E-19 2.99459E-18
 -1      3136 9.52377E-05-2.85719E-05-2.85711E-05-4.07737E-09 2.69128E-19 2.92752E-18
 -1      3137 9.52389E-05-2.85722E-05-2.85715E-05-3.83735E-09 5.41088E-19 4.53732E-18
 -1      3138 9.52375E-05-2.85722E-05-2.85709E-05-3.73155E-09-1.36671E-18 2.75844E-18
 -1      3139 9.52375E-05-2.85721E-05-2.85709E-05-3.89747E-09-7.18897E-19 3.07397E-18
 -1      3140 9.52386E-05-2.85724E-05-2.85712E-05-3.80662E-09-7.93853E-19 3.60504E-18
 -1      3141 9.52374E-05-2.85722E-05-2.85708E-05-3.33865E-09 2.56061E-19 3.94911E-18
 -1      3142 9.52374E-05-2.85721E-05-2.85708E-05-3.55078E-09-1.13486E-18 3.50360E-18
 -1      3143 9.52383E-05-2.85725E-05-2.85710E-05-3.55383E-09-1.73804E-18 3.20417E-18
 -1      3144 9.52373E-05-2.85721E-05-2.85708E-05-2.89882E-09 3.89031E-19 3.02734E-18
 -1      3145 9.52373E-05-2.85721E-05-2.85708E-05-3.12563E-09 6.48297E-19 4.23725E-18
 -1      3146 9.52380E-05-2.85725E-05-2.85710E-05-3.18388E-09 1.14722E-19 3.25501E-18
 -1      3147 9.52373E-05-2.85720E-05-2.85708E-05-2.45773E-09 1.63882E-18 2.29808E-18
 -1      3148 9.52372E-05-2.85720E-05-2.85708E-05-2.67967E-09 1.19532E-18 2.79455E-18
 -1      3149 9.52378E-05-2.85724E-05-2.85709E-05-2.76678E-09 2.15461E-18 4.24386E-18
 -1      3150 9.52372E-05-2.85719E-05-2.85708E-05-2.04274E-09 1.95112E-18 1.51874E-18
 -1      3151 9.52372E-05-2.85719E-05-2.85708E-05-2.24835E-09 1.42417E-18 4.44676E-19
 -1      3152 9.52376E-05-2.85722E-05-2.85709E-05-2.34700E-09 2.50010E-18 3.20371E-18
 -1      3153 9.52372E-05-2.85718E-05-2.85709E-05-1.66631E-09 2.34326E-18 8.71360E-19
 -1      3154 9.52372E-05-2.85718E-05-2.85709E-05-1.84759E-09 2.55137E-18 1.42532E-18
 -1      3155 9.52375E-05-2.85721E-05-2.85709E-05-1.95057E-09 2.37307E-18 7.25883E-19
 -1      3156 9.52381E-05-2.85725E-05-2.85710E-05-2.78028E-10 9.58109E-19-1.85569E-18
 -1      3157 9.52380E-05-2.85724E-05-2.85710E-05-4.39639E-10 1.80808E-18-2.43408E-18
 -1      3158 9.52382E-05-2.85726E-05-2.85710E-05-1.96842E-10 7.98283E-19-2.03852E-19
 -1      3159 1.38871E-04-4.52926E-05-4.01363E-05 2.68021E-06 1.69640E-18-4.32887E-19
 -1      3160 1.35080E-04-3.62887E-05-4.28712E-05 8.60442E-06 1.58332E-18-5.54807E-19
 -1      3161 5.21766E-05-5.69459E-06-1.97294E-05 6.32236E-06-1.62119E-18 5.50783E-19
 -1      3162 4.50843E-05-3.82079E-06-1.68493E-05-8.87636E-06-1.52323E-18 6.67885E-19
 -1      3163 5.72719E-05-6.27663E-06-2.19620E-05 4.23850E-06-1.22983E-18 3.51995E-19
 -1      3164 9.52376E-05-2.85721E-05-2.85710E-05 9.60592E-10 2.15631E-18 1.17443E-18
 -1      3165 9.52378E-05-2.85722E-05-2.85710E-05 8.77327E-10 2.44989E-18-6.40804E-19
 -1      3166 1.35687E-04-3.41015E-05-4.39570E-05-6.23411E-06-1.02491E-19 9.52859E-19
 -1      3167 1.35706E-04-4.02792E-05-4.09249E-05 2.02537E-06 1.73483E-19 1.38119E-18
 -1      3168 8.83781E-05-2.15735E-05-2.86738E-05 3.51182E-06 9.17327E-20 8.33543E-19
 -1      3169 8.66771E-05-2.01590E-05-2.85467E-05 4.13002E-06 4.34453E-19 1.03050E-18
 -1      3170 8.82332E-05-2.16095E-05-2.84894E-05 2.00944E-06 7.17859E-19 1.00308E-18
 -1      3171 9.52379E-05-2.85723E-05-2.85710E-05 7.47761E-10 1.95346E-18-1.94142E-18
 -1      3172 9.52380E-05-2.85724E-05-2.85710E-05 6.15395E-10 1.44569E-18-1.47515E-18
 -1      3173 9.52379E-05-2.85723E-05-2.85710E-05 8.97178E-10 3.53922E-18-8.30765E-19
 -1      3174 1.01013E-04-2.08509E-05-3.43986E-05-1.45987E-05 1.06767E-18-2.05961E-18
 -1      3175 9.91952E-05-2.07082E-05-3.36893E-05-1.49375E-05 8.39588E-19-2.19779E-18
 -1      3176 9.93823E-05-2.16442E-05-3.32986E-05-1.41880E-05 7.17271E-19-2.09465E-18
 -1      3177 1.02844E-04-2.19969E-05-3.46010E-05-1.41831E-05 8.77242E-19-1.85219E-18
 -1      3178 9.52380E-05-2.85724E-05-2.85710E-05 4.44257E-10 1.22242E-18-5.87422E-19
 -1      3179 9.52381E-05-2.85725E-05-2.85710E-05 2.84701E-10 2.05175E-18 2.03981E-18
 -1      3180 9.52382E-05-2.85726E-05-2.85710E-05 2.06632E-10 1.75744E-18 1.49826E-18
 -1      3181 9.52381E-05-2.85725E-05-2.85710E-05 5.84704E-10 1.56295E-18-1.49287E-19
 -1      3182 1.29601E-04-4.23801E-05-3.78109E-05 1.05411E-05 6.87116E-19 1.63845E-18
 -1      3183 1.30330E-04-2.52645E-05-4.51738E-05 1.16734E-05 1.46600E-18-6.30087E-19
 -1      3184 1.26142E-04-1.72703E-05-4.71751E-05 1.01408E-05 1.40295E-18-7.01158E-19
 -1      3185 9.13692E-05-3.87995E-05-2.20999E-05-4.02583E-05 1.11689E-18 1.20692E-18
 -1      3186 1.07770E-04-4.85916E-05-2.55635E-05-3.69211E-05 1.00818E-18 7.67624E-22
 -1      3187 9.52376E-05-2.85720E-05-2.85710E-05-1.03924E-09 2.39521E-18-9.60331E-19
 -1      3188 9.52373E-05-2.85718E-05-2.85709E-05-1.08549E-09 1.59963E-18 7.58189E-19
 -1      3189 9.52373E-05-2.85718E-05-2.85709E-05-1.23084E-09 1.90421E-18 8.98750E-19
 -1      3190 1.20461E-04-5.37458E-05-2.82913E-05-2.98537E-05 7.49571E-19-2.30446E-19
 -1      3191 1.28598E-04-5.62892E-05-3.13314E-05-2.28327E-05 1.01639E-18-2.50192E-19
 -1      3192 4.64045E-05-7.00548E-06-1.65150E-05-1.76508E-05-8.39489E-19 1.29194E-18
 -1      3193 5.34973E-05-1.24625E-05-1.71719E-05-2.84137E-05 3.22931E-20 1.58422E-18
 -1      3194 6.52303E-05-1.74385E-05-2.01584E-05-2.85173E-05 2.88997E-19 1.31820E-18
 -1      3195 5.46970E-05-8.24558E-06-1.98256E-05-1.53259E-05-6.98430E-19 4.89267E-19
 -1      3196 1.34905E-04-5.46469E-05-3.42571E-05-1.27907E-05 1.45185E-18 2.75100E-19
 -1      3197 1.38408E-04-5.13271E-05-3.77416E-05-4.56163E-06 1.70434E-18 5.92394E-20
 -1      3198 1.34345E-04-4.72139E-05-3.73910E-05 9.57177E-07 1.50726E-18-2.71289E-19
 -1      3199 1.28666E-04-3.93102E-05-3.82930E-05 3.11149E-06 8.22175E-19 1.16647E-18
 -1      3200 1.23466E-04-1.17888E-05-4.82720E-05-1.15804E-05-1.20279E-19-8.36736E-19
 -1      3201 1.22521E-04-1.55268E-05-4.60972E-05-1.28516E-05-7.19449E-20-7.62965E-19
 -1      3202 1.18317E-04-9.49296E-06-4.68495E-05-9.40258E-06 1.57760E-19-1.28703E-18
 -1      3203 8.71391E-05-3.32390E-05-2.27816E-05-3.54189E-05 8.10213E-19 1.09778E-18
 -1      3204 1.26406E-04-2.33460E-05-4.44462E-05-1.38738E-05 3.89106E-20-2.84153E-19
 -1      3205 1.32711E-04-2.92957E-05-4.45234E-05-1.10353E-05-4.42575E-20 4.44004E-19
 -1      3206 1.29572E-04-3.21733E-05-4.18076E-05-8.65685E-06 2.12076E-19 4.15787E-19
 -1      3207 9.52378E-05-2.85722E-05-2.85710E-05-8.47291E-10 4.12340E-19 2.43742E-18
 -1      3208 9.52377E-05-2.85721E-05-2.85710E-05-9.34751E-10 1.16622E-18 2.10257E-18
 -1      3209 9.52378E-05-2.85722E-05-2.85710E-05-1.06983E-09 1.67887E-18 6.98464E-19
 -1      3210 1.28959E-04-3.17178E-05-4.18404E-05 1.01714E-05 1.59618E-18-8.17069E-19
 -1      3211 9.91090E-05-2.22243E-05-3.29597E-05-1.31336E-05 7.34742E-19-2.01736E-18
 -1      3212 1.29832E-04-5.36038E-05-3.26163E-05-1.43552E-05 9.34463E-19 3.01941E-19
 -1      3213 9.52373E-05-2.85718E-05-2.85709E-05-1.36137E-09 2.01849E-18 9.90991E-19
 -1      3214 9.52373E-05-2.85718E-05-2.85709E-05-1.52330E-09 2.01429E-18 9.16241E-19
 -1      3215 9.52375E-05-2.85720E-05-2.85709E-05-1.60193E-09 2.27667E-18 3.50688E-19
 -1      3216 9.52376E-05-2.85720E-05-2.85709E-05-1.31101E-09 1.71225E-18-4.36576E-19
 -1      3217 1.27359E-04-3.65051E-05-3.92516E-05-3.64574E-06 6.94822E-19 6.24607E-19
 -1      3218 1.01012E-04-2.20470E-05-3.38541E-05-1.30578E-05 7.37680E-19-1.77264E-18
 -1      3219 9.52380E-05-2.85724E-05-2.85710E-05-5.87793E-10 2.75400E-19-2.02114E-18
 -1      3220 9.52379E-05-2.85723E-05-2.85710E-05-7.20917E-10 2.89049E-19 6.24668E-19
 -1      3221 9.52380E-05-2.85724E-05-2.85710E-05-8.31257E-10-2.33313E-19-4.86491E-19
 -1      3222 9.52382E-05-2.85725E-05-2.85710E-05-5.49759E-10-1.67454E-19-1.37930E-18
 -1      3223 8.41322E-05-1.85607E-05-2.80019E-05 1.82175E-06 7.13016E-19 1.70254E-18
 -1      3224 1.22842E-04-1.38155E-05-4.70522E-05 8.95745E-06 1.00739E-18-8.83032E-19
 -1      3225 1.18475E-04-1.06846E-05-4.65396E-05 6.41144E-06 8.68791E-19-1.21994E-18
 -1      3226 1.19756E-04-1.81244E-05-4.36933E-05 9.89847E-06 1.15154E-18-8.26314E-19
 -1      3227 1.08649E-04-2.35595E-05-3.65084E-05-1.34448E-05 9.12744E-19-1.36189E-18
 -1      3228 1.05734E-04-2.25394E-05-3.57175E-05-1.37529E-05 8.38621E-19-1.61389E-18
 -1      3229 6.83478E-05-9.78895E-06-2.52221E-05 4.09273E-06 1.60777E-19-2.38691E-19
 -1      3230 6.38569E-05-8.13971E-06-2.39698E-05 5.74730E-06-5.10324E-19 1.02809E-19
 -1      3231 5.96464E-05-6.74136E-06-2.21366E-05-5.49621E-06-5.18530E-19-2.09627E-19
 -1      3232 6.98422E-05-1.04591E-05-2.51483E-05-1.41651E-06 3.64423E-20 1.57285E-19
 -1      3233 1.13150E-04-4.89044E-05-2.73301E-05-2.94952E-05 7.80329E-19 1.66932E-19
 -1      3234 1.15124E-04-2.66735E-05-3.79343E-05-1.22760E-05 9.58107E-19-6.63554E-19
 -1      3235 1.11611E-04-2.45013E-05-3.74567E-05-1.34336E-05 8.77264E-19-1.11753E-18
 -1      3236 1.10155E-04-2.30537E-05-3.72692E-05-1.37680E-05 6.35975E-19-1.18549E-18
 -1      3237 1.24780E-04-3.20508E-05-3.98436E-05-8.58696E-06 6.03127E-19 2.55989E-19
 -1      3238 1.20910E-04-2.88509E-05-3.96287E-05-1.13360E-05 6.91649E-19-2.22813E-19
 -1      3239 9.52375E-05-2.85719E-05-2.85710E-05 1.08376E-09 1.96149E-18 1.84847E-18
 -1      3240 9.52376E-05-2.85720E-05-2.85710E-05 1.02605E-09 1.95963E-18 1.92443E-18
 -1      3241 9.52377E-05-2.85721E-05-2.85710E-05 1.09130E-09 3.23297E-18 9.64470E-19
 -1      3242 9.52375E-05-2.85720E-05-2.85709E-05 1.20424E-09 1.76175E-18 2.03212E-18
 -1      3243 1.23097E-04-1.98943E-05-4.44473E-05-1.41417E-05 3.52313E-20-5.19337E-19
 -1      3244 1.22456E-04-2.38218E-05-4.23893E-05-1.35562E-05 2.73883E-19-3.31481E-19
 -1      3245 1.18379E-04-1.62169E-05-4.39176E-05-1.33288E-05 1.97491E-19-8.54789E-19
 -1      3246 8.16106E-05-2.74074E-05-2.30090E-05-3.09341E-05 5.49738E-19 1.15607E-18
 -1      3247 9.46370E-05-3.71267E-05-2.48805E-05-3.18148E-05 1.00387E-18 7.64341E-19
 -1      3248 1.02581E-04-2.13771E-05-3.48473E-05-1.14830E-05 6.40714E-19-1.74087E-18
 -1      3249 1.01771E-04-2.04913E-05-3.47981E-05-9.60629E-06 5.75826E-19-1.67264E-18
 -1      3250 1.00764E-04-1.95055E-05-3.48495E-05-7.19781E-06 5.07326E-19-1.60343E-18
 -1      3251 1.00090E-04-1.89145E-05-3.47609E-05-4.56776E-06 4.73848E-19-1.62590E-18
 -1      3252 1.03371E-04-1.92720E-05-3.60421E-05-9.19218E-06 5.96607E-19-1.59846E-18
 -1      3253 9.96524E-05-1.87859E-05-3.46449E-05-1.36037E-06 4.38933E-19-1.37881E-18
 -1      3254 9.95949E-05-1.92977E-05-3.44269E-05 1.43194E-06 4.05856E-19-1.16217E-18
 -1      3255 1.01815E-04-1.77517E-05-3.60441E-05-3.44057E-06 5.46534E-19-1.38696E-18
 -1      3256 1.00167E-04-2.05645E-05-3.40696E-05 4.40830E-06 2.57922E-19-1.20967E-18
 -1      3257 1.00681E-04-2.22214E-05-3.37103E-05 6.54994E-06 2.91112E-19-1.10161E-18
 -1      3258 1.01998E-04-1.90384E-05-3.55585E-05 3.06067E-06 3.76107E-19-1.23142E-18
 -1      3259 1.01911E-04-2.43874E-05-3.31601E-05 8.54287E-06 4.91777E-19-1.16842E-18
 -1      3260 1.02846E-04-2.66755E-05-3.27037E-05 9.66965E-06 5.91301E-19-9.27428E-19
 -1      3261 1.03522E-04-2.27263E-05-3.45928E-05 8.13121E-06 3.46668E-19-1.30308E-18
 -1      3262 1.03880E-04-2.90043E-05-3.20621E-05 1.00188E-05 6.34342E-19-6.94938E-19
 -1      3263 1.04649E-04-3.10309E-05-3.15975E-05 1.00561E-05 7.68509E-19-5.30748E-19
 -1      3264 1.06038E-04-2.83144E-05-3.32824E-05 1.02201E-05 7.78491E-19-6.22642E-19
 -1      3265 1.05051E-04-3.27042E-05-3.09995E-05 9.35022E-06 8.18972E-19-6.04156E-19
 -1      3266 1.05364E-04-3.40185E-05-3.05957E-05 8.65216E-06 8.29340E-19-3.11257E-19
 -1      3267 1.07464E-04-3.28600E-05-3.19425E-05 9.68214E-06 8.31213E-19-5.47251E-19
 -1      3268 1.05019E-04-3.47909E-05-3.01105E-05 7.44900E-06 7.19590E-19-1.21905E-19
 -1      3269 1.04869E-04-3.53192E-05-2.98007E-05 6.45749E-06 7.66110E-19-6.60272E-20
 -1      3270 1.07484E-04-3.56226E-05-3.07793E-05 7.57662E-06 9.09043E-19-2.79686E-19
 -1      3271 1.04006E-04-3.53354E-05-2.94500E-05 5.23504E-06 5.22724E-19-4.72535E-20
 -1      3272 1.03520E-04-3.52513E-05-2.92380E-05 4.26018E-06 3.80709E-19 7.01594E-21
 -1      3273 1.06226E-04-3.64919E-05-2.98886E-05 5.05815E-06 5.68270E-19-4.74165E-19
 -1      3274 1.02445E-04-3.47966E-05-2.90093E-05 3.27862E-06 1.31535E-19-5.79262E-19
 -1      3275 1.01804E-04-3.43609E-05-2.88794E-05 2.47773E-06 1.36085E-19-5.28746E-19
 -1      3276 1.04245E-04-3.59683E-05-2.92773E-05 2.87496E-06 5.55894E-20-7.28487E-19
 -1      3277 1.00751E-04-3.37068E-05-2.87446E-05 1.79873E-06 8.15602E-20-4.24598E-19
 -1      3278 1.00102E-04-3.31397E-05-2.86749E-05 1.21295E-06-4.97209E-19-2.35553E-19
 -1      3279 1.02092E-04-3.47169E-05-2.88966E-05 1.29218E-06 7.80328E-20-1.06061E-18
 -1      3280 9.92021E-05-3.24724E-05-2.86047E-05 7.97242E-07-1.18008E-18-1.32949E-21
 -1      3281 9.86334E-05-3.19166E-05-2.85742E-05 4.05449E-07-1.23721E-18 3.01886E-19
 -1      3282 1.00134E-04-3.32568E-05-2.86831E-05 2.94182E-07-3.51090E-19-5.72757E-19
 -1      3283 9.79329E-05-3.13359E-05-2.85440E-05 1.81548E-07-1.17072E-18 4.17978E-19
 -1      3284 9.74804E-05-3.08635E-05-2.85363E-05-5.98349E-08-8.48915E-19 1.98071E-19
 -1      3285 9.85403E-05-3.18992E-05-2.85788E-05-2.55076E-07-1.29560E-18 4.60616E-19
 -1      3286 9.69716E-05-3.04059E-05-2.85284E-05-1.59289E-07-2.40984E-19 9.41768E-20
 -1      3287 9.66369E-05-3.00400E-05-2.85320E-05-2.94391E-07 3.30563E-19 4.66093E-19
 -1      3288 9.73424E-05-3.07842E-05-2.85392E-05-5.05507E-07-5.90046E-19 7.91641E-19
 -1      3289 9.62886E-05-2.97053E-05-2.85349E-05-3.20468E-07 9.17005E-19 2.42586E-19
 -1      3290 9.60556E-05-2.94416E-05-2.85427E-05-3.85662E-07 1.05033E-18 2.60937E-19
 -1      3291 9.64974E-05-2.99427E-05-2.85338E-05-5.77272E-07 5.99807E-19 1.02106E-18
 -1      3292 9.58301E-05-2.92118E-05-2.85495E-05-3.72768E-07 1.12281E-18 1.99486E-19
 -1      3293 9.56767E-05-2.90335E-05-2.85576E-05-3.94858E-07 1.13643E-18-5.87435E-21
 -1      3294 9.59341E-05-2.93490E-05-2.85435E-05-5.53526E-07 1.15148E-18 5.73053E-19
 -1      3295 9.55390E-05-2.88853E-05-2.85647E-05-3.64264E-07 1.33597E-18-1.29637E-19
 -1      3296 9.54434E-05-2.87721E-05-2.85713E-05-3.61682E-07 9.44157E-19 3.28870E-19
 -1      3297 9.55791E-05-2.89551E-05-2.85577E-05-4.86129E-07 1.04645E-18 4.84858E-19
 -1      3298 9.53651E-05-2.86830E-05-2.85770E-05-3.25554E-07 8.36758E-19 1.45039E-19
 -1      3299 9.53090E-05-2.86164E-05-2.85815E-05-3.10286E-07 1.97246E-19 6.36997E-19
 -1      3300 9.53690E-05-2.87103E-05-2.85708E-05-4.04817E-07 9.34321E-19 3.50010E-20
 -1      3301 9.52688E-05-2.85676E-05-2.85854E-05-2.75016E-07-6.49086E-19 8.63260E-19
 -1      3302 9.52384E-05-2.85322E-05-2.85879E-05-2.54495E-07-1.86078E-19 5.60541E-19
 -1      3303 9.52544E-05-2.85698E-05-2.85807E-05-3.25048E-07-1.34451E-20-6.34403E-20
 -1      3304 9.52212E-05-2.85095E-05-2.85901E-05-2.23056E-07-1.48394E-19 3.37873E-19
 -1      3305 9.52065E-05-2.84940E-05-2.85910E-05-2.01639E-07-1.39357E-19 2.94531E-19
 -1      3306 9.51995E-05-2.84983E-05-2.85870E-05-2.53896E-07-7.27555E-20 1.20311E-18
 -1      3307 9.52022E-05-2.84869E-05-2.85918E-05-1.75085E-07 3.73913E-20-7.17045E-19
 -1      3308 9.51967E-05-2.84831E-05-2.85916E-05-1.55135E-07 3.08029E-19-2.50733E-19
 -1      3309 9.51794E-05-2.84699E-05-2.85902E-05-1.93798E-07-5.34781E-19 4.78236E-19
 -1      3310 9.51990E-05-2.84848E-05-2.85914E-05-1.33512E-07 9.57682E-19-8.55651E-20
 -1      3311 9.51982E-05-2.84874E-05-2.85906E-05-1.16141E-07 1.16930E-18 4.80588E-19
 -1      3312 9.51783E-05-2.84665E-05-2.85909E-05-1.44814E-07 8.44588E-19-6.70051E-19
 -1      3313 9.52033E-05-2.84933E-05-2.85897E-05-9.90149E-08 4.65814E-19 4.06176E-19
 -1      3314 9.52048E-05-2.84988E-05-2.85885E-05-8.45827E-08 4.44993E-19-2.08119E-19
 -1      3315 9.51861E-05-2.84761E-05-2.85900E-05-1.05918E-07 7.42608E-19 4.17893E-19
 -1      3316 9.52105E-05-2.85061E-05-2.85874E-05-7.13298E-08 4.30526E-19 1.82248E-20
 -1      3317 9.52127E-05-2.85125E-05-2.85860E-05-5.97704E-08 4.01716E-19-1.11267E-19
 -1      3318 9.51971E-05-2.84913E-05-2.85882E-05-7.56781E-08 7.68584E-19 7.01591E-19
 -1      3319 9.52179E-05-2.85199E-05-2.85847E-05-4.97310E-08-2.30169E-19-7.34676E-19
 -1      3320 9.52202E-05-2.85260E-05-2.85834E-05-4.07576E-08-4.28552E-19-3.88446E-19
 -1      3321 9.52081E-05-2.85077E-05-2.85858E-05-5.26103E-08-7.03271E-20-6.33990E-19
 -1      3322 9.52245E-05-2.85325E-05-2.85822E-05-3.33123E-08 4.80314E-20-1.39798E-19
 -1      3323 9.52264E-05-2.85379E-05-2.85809E-05-2.65455E-08 1.35298E-19 3.51775E-19
 -1      3324 9.52176E-05-2.85230E-05-2.85833E-05-3.53384E-08 2.14576E-19-1.05946E-18
 -1      3325 9.52297E-05-2.85433E-05-2.85798E-05-2.11476E-08-5.23163E-19 4.20578E-19
 -1      3326 9.52312E-05-2.85477E-05-2.85787E-05-1.61907E-08-1.46086E-19 3.88723E-19
 -1      3327 9.52252E-05-2.85361E-05-2.85810E-05-2.26580E-08-1.35808E-19 1.40824E-19
 -1      3328 9.52335E-05-2.85519E-05-2.85778E-05-1.23765E-08-8.14661E-21 8.53461E-19
 -1      3329 9.52346E-05-2.85553E-05-2.85769E-05-8.85687E-09 1.68237E-19 4.13662E-19
 -1      3330 9.52309E-05-2.85468E-05-2.85789E-05-1.35514E-08-1.72886E-19 9.38638E-19
 -1      3331 9.52362E-05-2.85586E-05-2.85761E-05-6.24409E-09 2.21163E-19-4.73692E-20
 -1      3332 9.52369E-05-2.85611E-05-2.85754E-05-3.83401E-09 1.37984E-19-1.30114E-19
 -1      3333 9.52348E-05-2.85550E-05-2.85771E-05-7.17939E-09 5.71705E-20-8.18233E-19
 -1      3334 9.52379E-05-2.85635E-05-2.85747E-05-2.11449E-09 4.71916E-19 1.35860E-19
 -1      3335 9.52383E-05-2.85654E-05-2.85742E-05-5.38147E-10 8.65108E-19 8.65172E-19
 -1      3336 9.52374E-05-2.85611E-05-2.85756E-05-2.86358E-09 4.81569E-19-6.48649E-19
 -1      3337 9.52389E-05-2.85670E-05-2.85736E-05 5.31543E-10 1.40765E-18 6.97939E-19
 -1      3338 9.52391E-05-2.85683E-05-2.85732E-05 1.49829E-09 4.84677E-19 4.44127E-19
 -1      3339 9.52390E-05-2.85655E-05-2.85743E-05-6.46124E-11 1.18772E-18-1.34901E-18
 -1      3340 9.52393E-05-2.85694E-05-2.85728E-05 2.10692E-09-5.09713E-19 1.56060E-18
 -1      3341 9.52394E-05-2.85703E-05-2.85725E-05 2.64102E-09-3.97089E-19 1.78091E-18
 -1      3342 9.52398E-05-2.85686E-05-2.85734E-05 1.63932E-09 4.72817E-19-4.76087E-19
 -1      3343 9.52395E-05-2.85710E-05-2.85722E-05 2.93223E-09-1.29808E-18 2.08463E-18
 -1      3344 9.52394E-05-2.85715E-05-2.85720E-05 3.16971E-09-1.37839E-18 1.85916E-18
 -1      3345 9.52401E-05-2.85706E-05-2.85727E-05 2.57268E-09-9.28057E-19 8.75433E-19
 -1      3346 9.52394E-05-2.85719E-05-2.85718E-05 3.25068E-09-4.73128E-19 1.64463E-18
 -1      3347 9.52393E-05-2.85722E-05-2.85716E-05 3.29350E-09-4.30437E-19 1.13496E-18
 -1      3348 9.52401E-05-2.85718E-05-2.85721E-05 2.98070E-09-1.18649E-18 2.26260E-18
 -1      3349 9.52392E-05-2.85724E-05-2.85715E-05 3.24248E-09 5.55003E-19 1.22677E-18
 -1      3350 9.52391E-05-2.85726E-05-2.85714E-05 3.16505E-09 2.04142E-18 1.14855E-18
 -1      3351 9.52399E-05-2.85725E-05-2.85717E-05 3.04521E-09 4.37151E-19 1.84053E-18
 -1      3352 9.52389E-05-2.85726E-05-2.85713E-05 3.03775E-09 6.33006E-19 4.45339E-19
 -1      3353 9.52388E-05-2.85727E-05-2.85712E-05 2.89281E-09 4.04170E-20-2.49559E-20
 -1      3354 9.52396E-05-2.85728E-05-2.85715E-05 2.89808E-09 8.00788E-19 1.38221E-18
 -1      3355 9.52386E-05-2.85727E-05-2.85711E-05 2.72767E-09 3.94638E-20-4.20738E-19
 -1      3356 9.52385E-05-2.85726E-05-2.85711E-05 2.55127E-09-6.42036E-19-3.06958E-19
 -1      3357 9.52392E-05-2.85729E-05-2.85713E-05 2.63250E-09-5.41492E-19-9.16285E-19
 -1      3358 9.52383E-05-2.85726E-05-2.85710E-05 2.37374E-09-1.55371E-18 9.00032E-20
 -1      3359 9.52382E-05-2.85725E-05-2.85710E-05 2.18940E-09-1.10674E-18-2.58128E-19
 -1      3360 9.52388E-05-2.85728E-05-2.85711E-05 2.31201E-09-6.20798E-19-4.92054E-19
 -1      3361 9.52381E-05-2.85724E-05-2.85710E-05 2.01578E-09-9.89670E-19-5.74486E-19
 -1      3362 9.52380E-05-2.85724E-05-2.85710E-05 1.83773E-09 3.41366E-19-1.83057E-18
 -1      3363 9.52385E-05-2.85727E-05-2.85711E-05 1.97881E-09-1.18723E-18-1.07276E-19
 -1      3364 9.52379E-05-2.85723E-05-2.85710E-05 1.67586E-09 2.11713E-18-2.05162E-18
 -1      3365 9.52378E-05-2.85722E-05-2.85710E-05 1.51309E-09 2.44275E-18-5.85088E-19
 -1      3366 9.52382E-05-2.85725E-05-2.85710E-05 1.65746E-09 1.71672E-18-4.50125E-19
 -1      3367 1.19261E-04-2.56569E-05-4.01246E-05-1.36612E-05 4.50701E-19-5.01225E-19
 -1      3368 9.35949E-05-2.66065E-05-2.87172E-05 7.90788E-07-4.96727E-20 2.19959E-18
 -1      3369 9.31722E-05-2.61827E-05-2.87199E-05 9.07556E-07-2.12697E-19 1.92158E-18
 -1      3370 9.25841E-05-2.56530E-05-2.86955E-05 8.68798E-07-1.55693E-19 2.27444E-18
 -1      3371 9.19012E-05-2.50343E-05-2.86757E-05 9.68026E-07 2.22476E-19 2.61383E-18
 -1      3372 9.26740E-05-2.58008E-05-2.86402E-05 3.81679E-07 4.03337E-19 2.82824E-18
 -1      3373 9.10124E-05-2.42840E-05-2.86120E-05 8.17244E-07 4.11311E-19 2.54395E-18
 -1      3374 8.99288E-05-2.34024E-05-2.85433E-05 8.46916E-07 1.32912E-18 2.51846E-18
 -1      3375 9.12502E-05-2.45743E-05-2.85453E-05 8.02863E-08 3.70543E-19 3.26139E-18
 -1      3376 9.42344E-05-2.72571E-05-2.87102E-05 6.65444E-07 1.06744E-18 2.08357E-18
 -1      3377 9.39772E-05-2.69718E-05-2.87219E-05 7.75265E-07 1.10443E-19 1.63945E-18
 -1      3378 9.36109E-05-2.66735E-05-2.86748E-05 4.72902E-07 1.13851E-19 3.03786E-18
 -1      3379 9.46332E-05-2.76949E-05-2.86918E-05 5.33865E-07 8.99471E-19 1.93905E-18
 -1      3380 9.44793E-05-2.75049E-05-2.87058E-05 6.27484E-07 1.29810E-18 2.05243E-18
 -1      3381 9.42174E-05-2.72808E-05-2.86792E-05 4.60076E-07 9.62039E-19 2.13643E-18
 -1      3382 9.48789E-05-2.79871E-05-2.86707E-05 4.14604E-07 2.82231E-19 2.13183E-18
 -1      3383 9.47883E-05-2.78614E-05-2.86840E-05 4.90156E-07 9.59732E-19 2.30783E-18
 -1      3384 9.46047E-05-2.76968E-05-2.86699E-05 4.02110E-07 6.44332E-19 2.08697E-18
 -1      3385 9.50283E-05-2.81812E-05-2.86506E-05 3.14195E-07 2.28861E-19 2.17663E-18
 -1      3386 9.49760E-05-2.80983E-05-2.86622E-05 3.73193E-07 3.74074E-19 1.86682E-18
 -1      3387 9.48493E-05-2.79794E-05-2.86556E-05 3.30571E-07 5.37432E-19 3.36963E-18
 -1      3388 9.51182E-05-2.83100E-05-2.86333E-05 2.33230E-07 9.16061E-19 1.71344E-18
 -1      3389 9.50887E-05-2.82553E-05-2.86428E-05 2.78313E-07 7.88297E-19 1.77378E-18
 -1      3390 9.50024E-05-2.81703E-05-2.86405E-05 2.60789E-07 7.24483E-19 2.72148E-18
 -1      3391 9.51716E-05-2.83959E-05-2.86190E-05 1.69800E-07 8.70564E-19 1.73600E-18
 -1      3392 9.51554E-05-2.83595E-05-2.86265E-05 2.03719E-07 1.01680E-18 1.83288E-18
 -1      3393 9.50973E-05-2.82992E-05-2.86267E-05 1.99369E-07 1.02318E-18 1.43197E-18
 -1      3394 9.52029E-05-2.84533E-05-2.86076E-05 1.21161E-07 5.01866E-19 1.31451E-18
 -1      3395 9.51944E-05-2.84290E-05-2.86134E-05 1.46365E-07 1.21873E-18 1.79694E-18
 -1      3396 9.51558E-05-2.83864E-05-2.86148E-05 1.48382E-07 1.36480E-18 1.33224E-18
 -1      3397 9.52210E-05-2.84920E-05-2.85985E-05 8.45157E-08-3.49012E-20 1.44170E-18
 -1      3398 9.52167E-05-2.84757E-05-2.86030E-05 1.03033E-07-4.19255E-19 1.35045E-18
 -1      3399 9.51916E-05-2.84458E-05-2.86050E-05 1.07664E-07 1.47025E-19 1.57314E-18
 -1      3400 9.52313E-05-2.85183E-05-2.85915E-05 5.73512E-08-1.57397E-18 2.72534E-18
 -1      3401 9.52293E-05-2.85072E-05-2.85950E-05 7.07976E-08-1.47518E-19 1.72159E-18
 -1      3402 9.52133E-05-2.84863E-05-2.85971E-05 7.60734E-08-2.63454E-19 2.07008E-18
 -1      3403 9.52369E-05-2.85362E-05-2.85862E-05 3.75431E-08-1.89608E-18 3.07596E-18
 -1      3404 9.52361E-05-2.85286E-05-2.85887E-05 4.71793E-08-2.20766E-18 2.30508E-18
 -1      3405 9.52262E-05-2.85142E-05-2.85908E-05 5.21454E-08-1.80202E-18 2.29575E-18
 -1      3406 9.52397E-05-2.85485E-05-2.85821E-05 2.33577E-08 2.28610E-19 1.57727E-18
 -1      3407 9.52397E-05-2.85433E-05-2.85840E-05 3.01544E-08-2.21658E-19 2.08010E-18
 -1      3408 9.52339E-05-2.85334E-05-2.85859E-05 3.44173E-08-4.10184E-19 9.37855E-19
 -1      3409 9.52411E-05-2.85570E-05-2.85790E-05 1.34111E-08 3.07095E-19 1.85215E-18
 -1      3410 9.52413E-05-2.85534E-05-2.85804E-05 1.81100E-08 4.64900E-19 2.18470E-18
 -1      3411 9.52382E-05-2.85468E-05-2.85820E-05 2.15710E-08 1.48179E-19 5.05541E-19
 -1      3412 9.52415E-05-2.85628E-05-2.85766E-05 6.61605E-09 5.45908E-19 1.89269E-18
 -1      3413 9.52418E-05-2.85603E-05-2.85777E-05 9.78094E-09 1.14357E-19 2.20619E-18
 -1      3414 9.52405E-05-2.85560E-05-2.85791E-05 1.24842E-08 2.43950E-19 1.67574E-18
 -1      3415 9.52415E-05-2.85667E-05-2.85749E-05 2.12947E-09-1.43981E-18 2.68709E-18
 -1      3416 9.52418E-05-2.85650E-05-2.85757E-05 4.18625E-09-2.32838E-19 2.54530E-18
 -1      3417 9.52416E-05-2.85623E-05-2.85768E-05 6.23570E-09-1.91295E-19 2.14042E-18
 -1      3418 9.52411E-05-2.85693E-05-2.85737E-05-6.95047E-10 7.18988E-19 2.03525E-18
 -1      3419 9.52415E-05-2.85682E-05-2.85742E-05 5.73608E-10-7.07624E-19 1.74806E-18
 -1      3420 9.52419E-05-2.85665E-05-2.85752E-05 2.08881E-09-3.91936E-19 2.96672E-18
 -1      3421 9.52407E-05-2.85709E-05-2.85728E-05-2.34711E-09 1.17327E-18 3.13566E-18
 -1      3422 9.52410E-05-2.85702E-05-2.85732E-05-1.62805E-09 6.34454E-19 2.31441E-18
 -1      3423 9.52418E-05-2.85694E-05-2.85739E-05-5.33465E-10 2.85759E-19 1.69907E-18
 -1      3424 9.52402E-05-2.85720E-05-2.85721E-05-3.19289E-09-2.36519E-19 3.59305E-18
 -1      3425 9.52405E-05-2.85715E-05-2.85724E-05-2.84736E-09 8.11738E-19 3.44579E-18
 -1      3426 9.52414E-05-2.85711E-05-2.85730E-05-2.07469E-09 6.30007E-20 3.06685E-18
 -1      3427 9.52398E-05-2.85725E-05-2.85717E-05-3.50227E-09-3.47990E-19 4.70470E-18
 -1      3428 9.52400E-05-2.85723E-05-2.85719E-05-3.40189E-09-1.00553E-19 4.60918E-18
 -1      3429 9.52409E-05-2.85722E-05-2.85723E-05-2.86989E-09-1.06650E-18 3.70077E-18
 -1      3430 9.52393E-05-2.85728E-05-2.85714E-05-3.47079E-09-1.30795E-18 4.23439E-18
 -1      3431 9.52395E-05-2.85727E-05-2.85715E-05-3.52347E-09-2.67625E-19 4.32455E-18
 -1      3432 9.52404E-05-2.85728E-05-2.85718E-05-3.16763E-09 4.06775E-20 4.27720E-18
 -1      3433 9.52389E-05-2.85728E-05-2.85712E-05-3.23723E-09-1.54525E-18 2.40705E-18
 -1      3434 9.52391E-05-2.85728E-05-2.85713E-05-3.37823E-09-1.84680E-18 2.90944E-18
 -1      3435 9.52399E-05-2.85730E-05-2.85715E-05-3.14868E-09-7.69950E-19 2.98712E-18
 -1      3436 9.52386E-05-2.85727E-05-2.85711E-05-2.89746E-09 5.37240E-19 2.94330E-18
 -1      3437 9.52387E-05-2.85728E-05-2.85711E-05-3.08252E-09-4.68293E-19 2.34953E-18
 -1      3438 9.52394E-05-2.85731E-05-2.85713E-05-2.94162E-09-9.21571E-19 1.50359E-18
 -1      3439 9.52383E-05-2.85726E-05-2.85710E-05-2.51550E-09 2.86387E-18 2.32009E-18
 -1      3440 9.52384E-05-2.85727E-05-2.85710E-05-2.71547E-09 1.79871E-18 3.20858E-18
 -1      3441 9.52390E-05-2.85730E-05-2.85712E-05-2.63535E-09 9.71360E-19 1.71932E-18
 -1      3442 9.52380E-05-2.85724E-05-2.85710E-05-2.13176E-09 2.47575E-18 8.67321E-19
 -1      3443 9.52381E-05-2.85725E-05-2.85710E-05-2.32855E-09 3.63134E-18 2.56571E-18
 -1      3444 9.52386E-05-2.85728E-05-2.85711E-05-2.28926E-09 2.44124E-18 3.69133E-19
 -1      3445 9.52378E-05-2.85722E-05-2.85709E-05-1.77407E-09 3.08718E-18 7.43434E-19
 -1      3446 9.52379E-05-2.85723E-05-2.85709E-05-1.95388E-09 2.22373E-18 1.27124E-18
 -1      3447 9.52383E-05-2.85726E-05-2.85710E-05-1.94075E-09 2.90754E-18 3.67985E-19
 -1      3448 8.50258E-05-1.98200E-05-2.79663E-05-3.81567E-07 3.41221E-19 1.72745E-18
 -1      3449 8.24589E-05-1.82305E-05-2.76107E-05-8.50489E-07 9.22718E-19 1.57654E-18
 -1      3450 9.52384E-05-2.85727E-05-2.85710E-05-1.11282E-10 6.89576E-19 8.08405E-19
 -1      3451 9.52384E-05-2.85727E-05-2.85710E-05-3.17340E-10 3.63959E-19-5.13570E-19
 -1      3452 9.52380E-05-2.85723E-05-2.85710E-05 1.05654E-09 3.51272E-18-5.34896E-19
 -1      3453 9.52381E-05-2.85724E-05-2.85710E-05 9.21931E-10 3.51823E-18-1.75054E-18
 -1      3454 1.02806E-04-2.23145E-05-3.45194E-05-1.30841E-05 7.95840E-19-1.72587E-18
 -1      3455 1.27287E-04-3.63277E-05-3.89435E-05 9.66156E-06 1.27619E-18-4.54857E-19
 -1      3456 1.22124E-04-2.74337E-05-4.08627E-05 1.15962E-05 1.48056E-18-4.03241E-19
 -1      3457 1.24738E-04-5.20202E-05-3.09342E-05-1.62555E-05 4.27791E-19 3.98172E-19
 -1      3458 1.28919E-04-5.17210E-05-3.34127E-05-8.17265E-06 7.67650E-19 6.32760E-19
 -1      3459 1.07614E-04-4.46836E-05-2.67026E-05-2.86049E-05 7.28270E-19 7.81772E-19
 -1      3460 1.17583E-04-5.06033E-05-2.89938E-05-2.35331E-05 3.13786E-19 1.34089E-19
 -1      3461 8.86131E-05-2.23749E-05-2.84056E-05 4.85510E-07 1.12353E-18 1.54837E-18
 -1      3462 8.69268E-05-2.11607E-05-2.82389E-05 3.47883E-07 4.42151E-19 1.96285E-18
 -1      3463 8.91289E-05-2.29063E-05-2.83362E-05-6.12760E-07 6.38675E-19 2.42212E-18
 -1      3464 1.16707E-04-8.30296E-06-4.67724E-05 2.32341E-06 8.06322E-19-1.32304E-18
 -1      3465 1.15000E-04-7.89890E-06-4.61896E-05-2.80921E-06 5.10761E-19-1.45373E-18
 -1      3466 1.14403E-04-1.21821E-05-4.39483E-05 4.75518E-06 6.46207E-19-1.24371E-18
 -1      3467 1.30950E-04-4.80237E-05-3.53682E-05-4.80043E-07 1.07396E-18 4.50119E-20
 -1      3468 1.29983E-04-4.36219E-05-3.73555E-05 4.84917E-06 1.09928E-18-5.00689E-19
 -1      3469 7.97792E-05-1.65875E-05-2.70978E-05-2.17533E-06 7.07248E-19 9.38613E-19
 -1      3470 7.59677E-05-1.46658E-05-2.63768E-05-3.24530E-06 1.92462E-19 6.51663E-19
 -1      3471 8.16667E-05-1.81253E-05-2.71372E-05-4.51784E-06 5.13554E-19 1.26054E-18
 -1      3472 7.30839E-05-2.10257E-05-2.23003E-05-2.80819E-05 1.77837E-19 1.30525E-18
 -1      3473 8.23830E-05-2.52381E-05-2.42755E-05-2.53354E-05 2.41206E-19 6.05655E-19
 -1      3474 1.14580E-04-9.22446E-06-4.54485E-05-5.96168E-06 3.96782E-19-1.53929E-18
 -1      3475 1.14053E-04-1.13692E-05-4.41798E-05-8.64674E-06 3.36299E-19-1.37333E-18
 -1      3476 1.11349E-04-1.01835E-05-4.34663E-05-2.69911E-06 5.23572E-19-1.48054E-18
 -1      3477 7.32212E-05-1.34524E-05-2.56161E-05-5.35686E-06 2.41937E-19 8.90986E-19
 -1      3478 6.88253E-05-1.18220E-05-2.45287E-05-7.43102E-06-2.37467E-20 7.45449E-19
 -1      3479 7.63694E-05-1.56825E-05-2.58781E-05-8.64284E-06 2.32904E-19 9.72255E-19
 -1      3480 9.52377E-05-2.85721E-05-2.85710E-05 1.42059E-09 2.22769E-18-5.04140E-19
 -1      3481 9.52376E-05-2.85720E-05-2.85710E-05 1.29218E-09 2.66858E-18 1.29808E-18
 -1      3482 9.52377E-05-2.85721E-05-2.85710E-05 1.23995E-09 2.67697E-18 1.15004E-18
 -1      3483 9.52379E-05-2.85723E-05-2.85710E-05 1.41625E-09 2.83411E-18-2.31457E-20
 -1      3484 9.52380E-05-2.85723E-05-2.85710E-05-1.09826E-09 1.24420E-18 8.42677E-19
 -1      3485 9.52378E-05-2.85722E-05-2.85710E-05-1.20785E-09 2.57266E-18-1.43252E-19
 -1      3486 9.52378E-05-2.85722E-05-2.85710E-05-1.35904E-09 1.76435E-18-1.86835E-19
 -1      3487 9.52378E-05-2.85723E-05-2.85710E-05-1.60605E-09 2.36490E-18 1.28915E-18
 -1      3488 8.60412E-05-2.07407E-05-2.79199E-05-1.99227E-06 5.87985E-19 1.84155E-18
 -1      3489 9.52386E-05-2.85728E-05-2.85711E-05-4.24981E-10 1.31001E-18 9.25843E-20
 -1      3490 9.52384E-05-2.85726E-05-2.85710E-05-5.04022E-10 1.55012E-19-3.28412E-19
 -1      3491 9.52383E-05-2.85726E-05-2.85710E-05-6.58148E-10-6.73992E-19-1.88975E-19
 -1      3492 9.52383E-05-2.85726E-05-2.85710E-05 9.06015E-10 3.43378E-18-6.00360E-19
 -1      3493 9.52382E-05-2.85725E-05-2.85710E-05 7.32861E-10 3.32302E-18 1.00041E-19
 -1      3494 9.52383E-05-2.85726E-05-2.85710E-05 5.55678E-10 2.57398E-18 9.15531E-19
 -1      3495 1.01624E-04-3.93846E-05-2.64985E-05-2.62220E-05 8.32660E-19 9.76990E-19
 -1      3496 1.19714E-04-2.41873E-05-4.10952E-05 1.16457E-05 1.35704E-18-6.17249E-19
 -1      3497 1.15817E-04-2.00856E-05-4.11787E-05 1.03536E-05 1.00392E-18-7.54852E-19
 -1      3498 1.18604E-04-2.90524E-05-3.84243E-05 1.10752E-05 9.99247E-19-2.10369E-20
 -1      3499 1.24782E-04-3.88346E-05-3.68786E-05 7.79515E-06 9.27210E-19-2.32669E-20
 -1      3500 9.52378E-05-2.85722E-05-2.85710E-05 1.17242E-09 3.14855E-18 3.95684E-19
 -1      3501 6.52618E-05-1.04932E-05-2.34344E-05-9.38249E-06-4.27080E-19 5.32678E-19
 -1      3502 5.94762E-05-9.12666E-06-2.16080E-05-1.24362E-05-9.18620E-19 3.92441E-19
 -1      3503 6.28397E-05-1.23823E-05-2.13626E-05-1.99948E-05-4.83219E-19 1.02422E-18
 -1      3504 7.04525E-05-1.36580E-05-2.40844E-05-1.36188E-05-3.34423E-19 1.12632E-18
 -1      3505 1.03852E-04-2.19724E-05-3.50397E-05-1.26742E-05 7.10159E-19-1.64863E-18
 -1      3506 9.52380E-05-2.85723E-05-2.85710E-05 1.21458E-09 2.81535E-18-2.91483E-19
 -1      3507 1.26731E-04-4.83545E-05-3.35986E-05-3.37876E-06 5.33273E-19 2.08119E-19
 -1      3508 9.52384E-05-2.85727E-05-2.85710E-05 3.29213E-10 1.63082E-18 1.93720E-18
 -1      3509 9.52384E-05-2.85727E-05-2.85710E-05 1.26913E-10 1.32113E-18 2.59077E-18
 -1      3510 9.52386E-05-2.85728E-05-2.85711E-05 8.94546E-12 1.29853E-18 1.13311E-18
 -1      3511 9.52385E-05-2.85727E-05-2.85710E-05 4.85274E-10 3.76938E-18 2.20544E-18
 -1      3512 1.19405E-04-4.91186E-05-3.00219E-05-1.66507E-05 1.80411E-19 6.53142E-19
 -1      3513 1.05725E-04-2.14783E-05-3.61070E-05-1.25598E-05 6.53651E-19-1.48214E-18
 -1      3514 1.08485E-04-2.13529E-05-3.73903E-05-1.32193E-05 6.11990E-19-1.21205E-18
 -1      3515 1.07258E-04-2.02302E-05-3.72664E-05-1.23194E-05 5.39030E-19-1.34018E-18
 -1      3516 1.11972E-04-2.23419E-05-3.84258E-05-1.36596E-05 6.35639E-19-1.00387E-18
 -1      3517 6.64848E-05-1.54441E-05-2.17477E-05-2.28125E-05-1.80481E-19 1.05093E-18
 -1      3518 9.52381E-05-2.85724E-05-2.85710E-05 1.28959E-09 2.66839E-18-8.00867E-19
 -1      3519 1.15672E-04-2.22341E-05-4.01515E-05-1.40513E-05 4.80956E-19-7.31929E-19
 -1      3520 1.03952E-04-1.61910E-05-3.76389E-05-5.54927E-06 6.11873E-19-1.22178E-18
 -1      3521 1.03452E-04-1.58604E-05-3.75628E-05-2.34069E-06 5.92334E-19-1.11999E-18
 -1      3522 1.03553E-04-1.64671E-05-3.72997E-05 1.75234E-06 5.58789E-19-1.28295E-18
 -1      3523 1.03924E-04-1.79728E-05-3.69382E-05 4.78647E-06 3.44322E-19-1.37636E-18
 -1      3524 1.05660E-04-1.47851E-05-3.89866E-05-4.60602E-07 3.65836E-19-1.21806E-18
 -1      3525 1.08489E-04-2.19527E-05-3.70797E-05 8.86239E-06 4.84523E-19-7.56298E-19
 -1      3526 1.09950E-04-2.55225E-05-3.62678E-05 1.04011E-05 5.41515E-19-6.78963E-19
 -1      3527 1.10089E-04-3.34062E-05-3.28557E-05 9.66578E-06 9.95808E-19-5.79967E-19
 -1      3528 1.10537E-04-3.55785E-05-3.21617E-05 8.84457E-06 9.75995E-19-3.37787E-19
 -1      3529 1.10066E-04-3.69005E-05-3.13646E-05 7.07718E-06 9.16197E-19-3.16110E-19
 -1      3530 1.09726E-04-3.77703E-05-3.08161E-05 5.86624E-06 6.90109E-19-4.79372E-19
 -1      3531 1.12938E-04-3.79269E-05-3.21540E-05 7.05378E-06 9.10306E-19-3.98162E-19
 -1      3532 1.08353E-04-3.78768E-05-3.02376E-05 4.22354E-06 2.96589E-19-4.02398E-19
 -1      3533 1.07526E-04-3.77797E-05-2.98485E-05 3.08825E-06 1.99209E-19-7.26447E-19
 -1      3534 1.10911E-04-3.92586E-05-3.07682E-05 3.79434E-06 5.25313E-19-8.80126E-19
 -1      3535 1.05864E-04-3.71641E-05-2.94691E-05 1.88387E-06 9.68240E-20-9.87793E-19
 -1      3536 1.04800E-04-3.65216E-05-2.92192E-05 1.03504E-06-8.62009E-20-1.09512E-18
 -1      3537 1.07894E-04-3.85798E-05-2.97712E-05 1.04143E-06 5.37916E-21-1.01403E-18
 -1      3538 1.03232E-04-3.56103E-05-2.89932E-05 3.37413E-07 1.31495E-19-1.32941E-18
 -1      3539 1.02175E-04-3.47811E-05-2.88476E-05-2.04577E-07 4.35581E-20-1.22785E-18
 -1      3540 1.04648E-04-3.67734E-05-2.91508E-05-6.56507E-07-1.02577E-19-1.15414E-18
 -1      3541 1.00882E-04-3.38606E-05-2.87260E-05-5.19136E-07 1.02045E-19-1.03241E-18
 -1      3542 9.99733E-05-3.30621E-05-2.86505E-05-8.15634E-07-3.54687E-19-8.62901E-19
 -1      3543 1.01791E-04-3.47123E-05-2.87997E-05-1.46590E-06 2.89951E-19-9.15096E-19
 -1      3544 9.89999E-05-3.22748E-05-2.85933E-05-8.89848E-07-5.52522E-19 4.66934E-20
 -1      3545 9.82893E-05-3.16085E-05-2.85606E-05-1.02129E-06-4.38269E-19 8.37030E-19
 -1      3546 9.95375E-05-3.28440E-05-2.86220E-05-1.68603E-06 1.25631E-19-3.84069E-19
 -1      3547 9.76036E-05-3.09980E-05-2.85398E-05-9.69867E-07-6.72081E-19 1.65027E-18
 -1      3548 9.70861E-05-3.04901E-05-2.85309E-05-1.00267E-06-2.51765E-19 1.89376E-18
 -1      3549 9.78935E-05-3.13502E-05-2.85460E-05-1.58488E-06 6.80830E-20 1.70521E-18
 -1      3550 9.66301E-05-3.00499E-05-2.85286E-05-8.99153E-07 2.10867E-19 2.31538E-18
 -1      3551 9.62750E-05-2.96888E-05-2.85311E-05-8.80168E-07 7.96708E-19 2.16243E-18
 -1      3552 9.67655E-05-3.02501E-05-2.85248E-05-1.34488E-06 2.53711E-19 2.78690E-18
 -1      3553 9.59881E-05-2.93904E-05-2.85369E-05-7.66360E-07 7.28216E-19 1.69616E-18
 -1      3554 9.57577E-05-2.91489E-05-2.85437E-05-7.24633E-07 8.01884E-19 1.23599E-18
 -1      3555 9.60333E-05-2.94908E-05-2.85297E-05-1.07278E-06 5.08492E-19 2.74193E-18
 -1      3556 9.55882E-05-2.89586E-05-2.85516E-05-6.20677E-07 7.93960E-19 9.65616E-19
 -1      3557 9.54471E-05-2.88071E-05-2.85588E-05-5.72698E-07 1.02864E-18 7.43854E-19
 -1      3558 9.55846E-05-2.89975E-05-2.85442E-05-8.21647E-07 6.16740E-19 1.20930E-18
 -1      3559 9.53549E-05-2.86940E-05-2.85660E-05-4.86140E-07 8.51546E-19 3.07112E-19
 -1      3560 9.52743E-05-2.86057E-05-2.85720E-05-4.40200E-07 5.38510E-19-6.25325E-20
 -1      3561 9.53280E-05-2.86971E-05-2.85599E-05-6.12142E-07 6.24515E-19-2.53004E-20
 -1      3562 9.52303E-05-2.85447E-05-2.85775E-05-3.71870E-07 2.79421E-19-1.05797E-19
 -1      3563 9.51886E-05-2.84987E-05-2.85816E-05-3.31540E-07-4.55189E-20-2.89938E-19
 -1      3564 9.51950E-05-2.85292E-05-2.85730E-05-4.47326E-07 2.97767E-19-6.59692E-19
 -1      3565 9.51730E-05-2.84710E-05-2.85852E-05-2.79374E-07-7.48683E-21 4.91968E-19
 -1      3566 9.51549E-05-2.84516E-05-2.85875E-05-2.45680E-07-4.16118E-19 3.94780E-19
 -1      3567 9.51373E-05-2.84472E-05-2.85823E-05-3.22296E-07 1.56804E-19-7.33320E-19
 -1      3568 9.51548E-05-2.84440E-05-2.85894E-05-2.06713E-07-1.18026E-18 8.38509E-19
 -1      3569 9.51500E-05-2.84402E-05-2.85904E-05-1.79446E-07-9.25409E-19 6.05643E-19
 -1      3570 9.51226E-05-2.84179E-05-2.85879E-05-2.29656E-07-5.99832E-19 2.13411E-19
 -1      3571 9.51573E-05-2.84436E-05-2.85910E-05-1.50755E-07 7.22319E-20 3.35067E-19
 -1      3572 9.51593E-05-2.84482E-05-2.85909E-05-1.29180E-07 1.09134E-18-2.03586E-19
 -1      3573 9.51302E-05-2.84188E-05-2.85905E-05-1.62036E-07-9.20620E-19 1.31278E-18
 -1      3574 9.51693E-05-2.84569E-05-2.85906E-05-1.08269E-07 1.61194E-18-1.11661E-18
 -1      3575 9.51742E-05-2.84653E-05-2.85899E-05-9.14992E-08 5.68437E-19-4.33994E-19
 -1      3576 9.51477E-05-2.84351E-05-2.85909E-05-1.13144E-07 4.23542E-19 2.49678E-20
 -1      3577 9.51843E-05-2.84758E-05-2.85891E-05-7.63788E-08 5.22076E-19-6.82799E-20
 -1      3578 9.51899E-05-2.84853E-05-2.85880E-05-6.35485E-08 8.47347E-19 1.06831E-19
 -1      3579 9.51677E-05-2.84575E-05-2.85898E-05-7.80133E-08 1.02660E-18-9.52120E-19
 -1      3580 9.51988E-05-2.84956E-05-2.85869E-05-5.26987E-08-4.29859E-20-8.86343E-20
 -1      3581 9.52040E-05-2.85046E-05-2.85857E-05-4.30333E-08-3.86611E-19-3.10112E-19
 -1      3582 9.51865E-05-2.84809E-05-2.85879E-05-5.28937E-08 6.44598E-19-2.58400E-19
 -1      3583 9.52112E-05-2.85138E-05-2.85845E-05-3.53168E-08-2.04187E-19-2.29971E-19
 -1      3584 9.52155E-05-2.85217E-05-2.85832E-05-2.81545E-08 2.25567E-19-4.59653E-19
 -1      3585 9.52025E-05-2.85023E-05-2.85856E-05-3.50272E-08-5.50007E-19 3.31495E-19
 -1      3586 9.52210E-05-2.85294E-05-2.85821E-05-2.27291E-08 6.69236E-19-3.86409E-19
 -1      3587 9.52244E-05-2.85358E-05-2.85809E-05-1.75191E-08 5.41012E-19 2.34588E-19
 -1      3588 9.52151E-05-2.85206E-05-2.85832E-05-2.24097E-08 6.11912E-19 5.75117E-19
 -1      3589 9.52284E-05-2.85419E-05-2.85799E-05-1.37637E-08-2.60334E-19 1.10122E-18
 -1      3590 9.52308E-05-2.85470E-05-2.85789E-05-1.00558E-08-9.14084E-20 1.75267E-18
 -1      3591 9.52246E-05-2.85355E-05-2.85809E-05-1.35914E-08 7.71876E-19 7.42299E-19
 -1      3592 9.52336E-05-2.85516E-05-2.85779E-05-7.51196E-09-3.11951E-19 5.72185E-19
 -1      3593 9.52352E-05-2.85555E-05-2.85771E-05-4.94283E-09-5.87693E-19-3.31025E-19
 -1      3594 9.52313E-05-2.85471E-05-2.85789E-05-7.52141E-09-6.82935E-19 1.67318E-18
 -1      3595 9.52370E-05-2.85589E-05-2.85763E-05-3.27184E-09-3.52025E-19-9.00325E-19
 -1      3596 9.52380E-05-2.85617E-05-2.85756E-05-1.55232E-09 6.80146E-19-1.34161E-18
 -1      3597 9.52359E-05-2.85558E-05-2.85771E-05-3.43445E-09-5.06291E-19-1.98646E-19
 -1      3598 9.52391E-05-2.85642E-05-2.85750E-05-5.03352E-10 1.90531E-18-1.44836E-18
 -1      3599 9.52397E-05-2.85661E-05-2.85744E-05 5.93909E-10 1.32710E-18-1.00336E-18
 -1      3600 9.52387E-05-2.85621E-05-2.85757E-05-7.69996E-10 7.89016E-19-5.92910E-19
 -1      3601 9.52403E-05-2.85678E-05-2.85739E-05 1.20634E-09 1.52448E-18-1.07243E-18
 -1      3602 9.52405E-05-2.85691E-05-2.85735E-05 1.85769E-09 1.23092E-18 2.57100E-19
 -1      3603 9.52404E-05-2.85665E-05-2.85745E-05 8.84206E-10 1.78910E-18-1.34186E-19
 -1      3604 9.52407E-05-2.85702E-05-2.85731E-05 2.17029E-09-2.27193E-19 3.18291E-19
 -1      3605 9.52408E-05-2.85711E-05-2.85728E-05 2.51044E-09-9.38194E-19 5.48953E-19
 -1      3606 9.52411E-05-2.85695E-05-2.85735E-05 1.83183E-09 5.43429E-19 3.31977E-19
 -1      3607 9.52408E-05-2.85717E-05-2.85724E-05 2.62322E-09-1.29712E-18 8.32923E-19
 -1      3608 9.52407E-05-2.85722E-05-2.85722E-05 2.75341E-09-1.06360E-18 2.99698E-19
 -1      3609 9.52413E-05-2.85714E-05-2.85728E-05 2.29608E-09-5.58043E-19-4.73874E-19
 -1      3610 9.52406E-05-2.85726E-05-2.85720E-05 2.73868E-09 2.62940E-19 4.76920E-19
 -1      3611 9.52404E-05-2.85729E-05-2.85718E-05 2.73351E-09 9.57510E-19 8.16518E-19
 -1      3612 9.52412E-05-2.85725E-05-2.85723E-05 2.43997E-09-1.68383E-19-8.09698E-19
 -1      3613 9.52402E-05-2.85730E-05-2.85716E-05 2.64276E-09 7.69140E-19 5.37342E-19
 -1      3614 9.52400E-05-2.85731E-05-2.85715E-05 2.55597E-09-7.86934E-20-1.80717E-19
 -1      3615 9.52408E-05-2.85731E-05-2.85719E-05 2.38119E-09 3.00817E-19-7.68971E-19
 -1      3616 9.52397E-05-2.85731E-05-2.85714E-05 2.42498E-09-1.13736E-18-1.70477E-19
 -1      3617 9.52396E-05-2.85731E-05-2.85713E-05 2.29422E-09-7.28402E-19-1.29343E-18
 -1      3618 9.52403E-05-2.85733E-05-2.85716E-05 2.20327E-09-4.90347E-19 4.80966E-19
 -1      3619 9.52393E-05-2.85731E-05-2.85712E-05 2.14725E-09 2.51858E-19-1.73414E-18
 -1      3620 9.52391E-05-2.85730E-05-2.85712E-05 1.99797E-09-3.72724E-19-6.29563E-19
 -1      3621 9.52398E-05-2.85733E-05-2.85714E-05 1.96425E-09-3.31328E-19-6.90719E-19
 -1      3622 9.52389E-05-2.85729E-05-2.85711E-05 1.84923E-09-1.20351E-18-8.18434E-19
 -1      3623 9.52387E-05-2.85728E-05-2.85711E-05 1.69883E-09-8.61802E-19-3.47637E-19
 -1      3624 9.52393E-05-2.85732E-05-2.85712E-05 1.70300E-09-6.06558E-19-1.02315E-18
 -1      3625 9.52385E-05-2.85727E-05-2.85711E-05 1.55951E-09 6.03687E-19-1.12458E-18
 -1      3626 9.52384E-05-2.85726E-05-2.85710E-05 1.41594E-09 1.91420E-18-1.09763E-18
 -1      3627 9.52389E-05-2.85729E-05-2.85711E-05 1.43839E-09-5.58998E-19-1.27600E-18
 -1      3628 9.29188E-05-2.61738E-05-2.86074E-05-6.15498E-08 3.03763E-19 2.99678E-18
 -1      3629 9.23350E-05-2.57029E-05-2.85760E-05-1.90359E-07 1.63582E-19 3.05676E-18
 -1      3630 9.42599E-05-2.74065E-05-2.86538E-05 2.44666E-07 9.80676E-19 1.82368E-18
 -1      3631 9.40152E-05-2.71712E-05-2.86544E-05 2.48765E-07 8.99790E-19 1.81885E-18
 -1      3632 1.23053E-04-4.77345E-05-3.21102E-05-5.04078E-06 1.16163E-19-1.05558E-19
 -1      3633 1.23774E-04-4.55505E-05-3.37612E-05 1.10028E-06 5.18184E-19-5.61206E-19
 -1      3634 9.52381E-05-2.85724E-05-2.85710E-05-1.49932E-09 3.04514E-18 4.28196E-19
 -1      3635 9.37245E-05-2.68944E-05-2.86440E-05 1.61302E-07 4.35269E-19 2.55454E-18
 -1      3636 9.33435E-05-2.65581E-05-2.86341E-05 1.20611E-07 3.90695E-19 3.01638E-18
 -1      3637 9.31477E-05-2.64302E-05-2.85803E-05-3.82629E-07 3.08706E-19 2.44674E-18
 -1      3638 9.38411E-05-2.70406E-05-2.86201E-05-6.18476E-08 1.17051E-18 1.79023E-18
 -1      3639 9.17308E-05-2.51877E-05-2.85198E-05-5.34873E-07 8.63219E-20 3.05752E-18
 -1      3640 9.08516E-05-2.45468E-05-2.84473E-05-8.28256E-07 3.47104E-19 2.77186E-18
 -1      3641 9.21522E-05-2.56209E-05-2.84948E-05-9.87092E-07-4.47110E-20 2.53937E-18
 -1      3642 9.46122E-05-2.77659E-05-2.86503E-05 2.55058E-07 7.65798E-19 1.44188E-18
 -1      3643 9.44568E-05-2.76031E-05-2.86556E-05 2.78480E-07 9.97340E-19 2.03514E-18
 -1      3644 9.43140E-05-2.74860E-05-2.86346E-05 9.09791E-08 1.27054E-18 1.07024E-18
 -1      3645 9.48410E-05-2.80151E-05-2.86412E-05 2.31142E-07 3.53006E-19 1.95964E-18
 -1      3646 9.47435E-05-2.79034E-05-2.86479E-05 2.60738E-07 3.86610E-19 2.10333E-18
 -1      3647 9.46327E-05-2.78068E-05-2.86357E-05 1.50559E-07 3.28417E-19 1.23298E-18
 -1      3648 9.49886E-05-2.81873E-05-2.86303E-05 1.93934E-07 1.12314E-18 1.47525E-18
 -1      3649 9.49279E-05-2.81108E-05-2.86370E-05 2.23118E-07 6.54725E-19 1.85652E-18
 -1      3650 9.48447E-05-2.80342E-05-2.86305E-05 1.60438E-07 4.87848E-19 1.19687E-18
 -1      3651 9.50832E-05-2.83061E-05-2.86196E-05 1.54604E-07 1.07650E-18 1.21459E-18
 -1      3652 9.50457E-05-2.82536E-05-2.86257E-05 1.80453E-07 1.30340E-18 1.31264E-18
 -1      3653 9.49848E-05-2.81947E-05-2.86228E-05 1.46287E-07 1.53027E-18 1.07647E-18
 -1      3654 9.51436E-05-2.83882E-05-2.86100E-05 1.18523E-07 1.09795E-18 1.43775E-18
 -1      3655 9.51206E-05-2.83522E-05-2.86152E-05 1.40065E-07 1.25717E-18 1.33601E-18
 -1      3656 9.50770E-05-2.83076E-05-2.86144E-05 1.22608E-07 1.01278E-18 8.90230E-19
 -1      3657 9.51820E-05-2.84453E-05-2.86019E-05 8.78455E-08 1.27971E-19 1.54551E-18
 -1      3658 9.51680E-05-2.84203E-05-2.86061E-05 1.05085E-07 4.35900E-19 1.87900E-18
 -1      3659 9.51373E-05-2.83872E-05-2.86066E-05 9.71296E-08 6.02156E-19 1.89407E-18
 -1      3660 9.52062E-05-2.84851E-05-2.85951E-05 6.30201E-08-8.72128E-19 1.43096E-18
 -1      3661 9.51978E-05-2.84677E-05-2.85985E-05 7.64016E-08-1.45305E-19 1.34834E-18
 -1      3662 9.51767E-05-2.84433E-05-2.85996E-05 7.36384E-08 2.47564E-19 1.48447E-18
 -1      3663 9.52214E-05-2.85129E-05-2.85896E-05 4.36575E-08-1.00864E-18 1.14055E-18
 -1      3664 9.52164E-05-2.85008E-05-2.85923E-05 5.37828E-08-1.18482E-18 1.67718E-18
 -1      3665 9.52023E-05-2.84831E-05-2.85937E-05 5.36926E-08-9.54898E-19 1.39029E-18
 -1      3666 9.52308E-05-2.85324E-05-2.85852E-05 2.90131E-08 3.09316E-19-4.51853E-19
 -1      3667 9.52279E-05-2.85239E-05-2.85873E-05 3.64961E-08-1.56567E-19 4.54203E-19
 -1      3668 9.52187E-05-2.85113E-05-2.85887E-05 3.76479E-08 1.09676E-20 9.88206E-20
 -1      3669 9.52364E-05-2.85461E-05-2.85817E-05 1.82474E-08-1.16116E-18 7.96464E-19
 -1      3670 9.52349E-05-2.85402E-05-2.85833E-05 2.36478E-08-4.30134E-19-3.93881E-19
 -1      3671 9.52291E-05-2.85313E-05-2.85847E-05 2.52586E-08-4.72440E-19-2.98388E-19
 -1      3672 9.52397E-05-2.85556E-05-2.85789E-05 1.05576E-08 4.22375E-20 1.82118E-18
 -1      3673 9.52389E-05-2.85515E-05-2.85802E-05 1.43551E-08-4.66293E-19 1.20511E-18
 -1      3674 9.52355E-05-2.85454E-05-2.85815E-05 1.60195E-08-1.35446E-18 3.05042E-19
 -1      3675 9.52414E-05-2.85622E-05-2.85768E-05 5.23709E-09-1.00598E-18 1.76787E-18
 -1      3676 9.52411E-05-2.85594E-05-2.85778E-05 7.82712E-09-2.42959E-19 1.48078E-18
 -1      3677 9.52393E-05-2.85552E-05-2.85789E-05 9.35342E-09-2.91755E-19 1.09859E-18
 -1      3678 9.52421E-05-2.85666E-05-2.85752E-05 1.69497E-09 3.66901E-19 9.80689E-19
 -1      3679 9.52421E-05-2.85647E-05-2.85760E-05 3.39408E-09-1.25674E-19 1.94589E-18
 -1      3680 9.52414E-05-2.85620E-05-2.85769E-05 4.70782E-09 7.97124E-20 9.55460E-19
 -1      3681 9.52422E-05-2.85696E-05-2.85740E-05-5.45624E-10-6.03515E-20 1.14269E-18
 -1      3682 9.52423E-05-2.85683E-05-2.85746E-05 5.10401E-10-1.12520E-18 9.06003E-19
 -1      3683 9.52423E-05-2.85667E-05-2.85753E-05 1.59800E-09-4.73356E-19 1.03396E-18
 -1      3684 9.52419E-05-2.85714E-05-2.85731E-05-1.85855E-09-5.06723E-19 2.64201E-18
 -1      3685 9.52422E-05-2.85706E-05-2.85735E-05-1.25546E-09 5.60157E-19 1.94217E-18
 -1      3686 9.52426E-05-2.85697E-05-2.85741E-05-3.78400E-10-6.48298E-19 1.60620E-18
 -1      3687 9.52415E-05-2.85725E-05-2.85724E-05-2.52983E-09-1.07225E-18 3.20348E-18
 -1      3688 9.52418E-05-2.85720E-05-2.85727E-05-2.23654E-09-1.02345E-18 2.56288E-18
 -1      3689 9.52424E-05-2.85716E-05-2.85732E-05-1.54258E-09-6.83120E-19 1.40417E-18
 -1      3690 9.52409E-05-2.85731E-05-2.85719E-05-2.77331E-09 3.81569E-19 1.98367E-18
 -1      3691 9.52412E-05-2.85728E-05-2.85722E-05-2.68414E-09 1.57703E-19 2.68759E-18
 -1      3692 9.52419E-05-2.85727E-05-2.85725E-05-2.14303E-09-5.14120E-19 1.15995E-18
 -1      3693 9.52404E-05-2.85733E-05-2.85716E-05-2.74520E-09-1.14593E-19 7.63617E-19
 -1      3694 9.52406E-05-2.85732E-05-2.85717E-05-2.78373E-09 5.33203E-19 1.23601E-18
 -1      3695 9.52413E-05-2.85733E-05-2.85720E-05-2.36682E-09 4.46287E-19-1.97327E-19
 -1      3696 9.52398E-05-2.85733E-05-2.85714E-05-2.55672E-09-1.96049E-19 9.52824E-19
 -1      3697 9.52401E-05-2.85733E-05-2.85715E-05-2.66907E-09-1.13063E-18 6.53630E-19
 -1      3698 9.52407E-05-2.85735E-05-2.85717E-05-2.35109E-09-1.00231E-18-4.96941E-19
 -1      3699 9.52393E-05-2.85732E-05-2.85712E-05-2.28468E-09 9.46538E-19 1.28650E-18
 -1      3700 9.52395E-05-2.85732E-05-2.85713E-05-2.43397E-09 4.75578E-19 6.10852E-19
 -1      3701 9.52401E-05-2.85735E-05-2.85714E-05-2.19377E-09 4.18187E-20-9.89077E-20
 -1      3702 9.52389E-05-2.85729E-05-2.85711E-05-1.98041E-09 3.08248E-18 5.01604E-19
 -1      3703 9.52391E-05-2.85730E-05-2.85711E-05-2.14235E-09 2.44267E-18 1.35778E-18
 -1      3704 9.52396E-05-2.85733E-05-2.85713E-05-1.96222E-09 1.98248E-18 1.63491E-19
 -1      3705 9.52385E-05-2.85727E-05-2.85710E-05-1.67347E-09 2.47395E-18 2.25259E-19
 -1      3706 9.52386E-05-2.85728E-05-2.85711E-05-1.83437E-09 2.48387E-18 5.40445E-21
 -1      3707 9.52391E-05-2.85731E-05-2.85711E-05-1.70303E-09 2.57382E-18-2.61648E-19
 -1      3708 8.05061E-05-2.25482E-05-2.48095E-05-2.11087E-05-1.30628E-19 4.29644E-19
 -1      3709 8.75201E-05-2.86155E-05-2.53887E-05-2.40244E-05 4.09712E-19 3.35796E-19
 -1      3710 8.43668E-05-2.04092E-05-2.73863E-05-5.78734E-06 6.03022E-19 1.16283E-18
 -1      3711 8.18047E-05-1.92771E-05-2.68759E-05-7.64326E-06 5.03614E-19 1.07478E-18
 -1      3712 9.00159E-05-2.38856E-05-2.83399E-05-1.43826E-06 3.94192E-19 2.32549E-18
 -1      3713 8.87211E-05-2.30511E-05-2.81924E-05-2.01990E-06 4.42360E-19 2.27441E-18
 -1      3714 9.07591E-05-2.45970E-05-2.83298E-05-2.06000E-06 6.03803E-20 2.28186E-18
 -1      3715 8.76133E-05-2.22609E-05-2.79988E-05-3.05486E-06 1.23482E-19 1.81343E-18
 -1      3716 8.57568E-05-2.12414E-05-2.77192E-05-4.11724E-06 3.85309E-19 1.38730E-18
 -1      3717 8.64643E-05-2.21760E-05-2.75182E-05-6.84312E-06 3.04671E-19 7.59696E-19
 -1      3718 8.88832E-05-2.34019E-05-2.80313E-05-3.87922E-06 6.60396E-20 1.89273E-18
 -1      3719 1.14449E-04-1.40293E-05-4.32538E-05-1.13479E-05 3.92335E-19-1.11776E-18
 -1      3720 1.14782E-04-1.73642E-05-4.18541E-05-1.26514E-05 5.02449E-19-8.92680E-19
 -1      3721 1.10761E-04-1.27702E-05-4.20522E-05-8.58489E-06 5.52358E-19-1.33159E-18
 -1      3722 1.14571E-04-4.61096E-05-2.91617E-05-1.68522E-05 5.14890E-19 6.84671E-19
 -1      3723 1.19658E-04-4.84487E-05-3.07685E-05-1.12783E-05 2.26092E-19 5.18834E-19
 -1      3724 9.52382E-05-2.85725E-05-2.85710E-05-8.29933E-10-7.46032E-19-1.60630E-18
 -1      3725 9.52381E-05-2.85724E-05-2.85710E-05-9.60681E-10 1.15546E-20-3.31153E-19
 -1      3726 9.52382E-05-2.85725E-05-2.85710E-05-1.10912E-09 1.13149E-18-8.16792E-19
 -1      3727 9.52384E-05-2.85727E-05-2.85710E-05-7.94217E-10 7.81980E-19-6.76919E-19
 -1      3728 9.66471E-05-3.49923E-05-2.62939E-05-2.40067E-05 8.75174E-19 1.02035E-18
 -1      3729 1.07005E-04-4.26175E-05-2.78180E-05-2.17943E-05 8.04853E-19 1.06888E-18
 -1      3730 1.06000E-04-1.86136E-05-3.74799E-05-1.06618E-05 6.45858E-19-1.29859E-18
 -1      3731 1.04952E-04-1.71073E-05-3.76199E-05-8.33830E-06 7.29497E-19-1.28347E-18
 -1      3732 1.06716E-04-1.52043E-05-3.92327E-05-7.30944E-06 7.02965E-19-9.85984E-19
 -1      3733 1.09042E-04-1.83845E-05-3.88944E-05-1.15894E-05 6.57665E-19-9.98295E-19
 -1      3734 1.23253E-04-4.13273E-05-3.49689E-05 6.22244E-06 9.96098E-19 1.68679E-20
 -1      3735 1.19768E-04-3.55129E-05-3.62511E-05 9.68809E-06 1.06406E-18 2.67418E-19
 -1      3736 7.05482E-05-1.60131E-05-2.33369E-05-1.92978E-05-3.96577E-19 8.12834E-19
 -1      3737 1.10817E-04-1.49292E-05-4.11652E-05 6.24470E-06 6.10975E-19-9.33113E-19
 -1      3738 1.08675E-04-1.27633E-05-4.12724E-05 1.87262E-06 3.37225E-19-1.29300E-18
 -1      3739 1.14275E-04-2.00697E-05-4.04345E-05-1.37864E-05 5.04402E-19-8.74949E-19
 -1      3740 9.52384E-05-2.85726E-05-2.85710E-05 1.19832E-09 2.10023E-18-2.54563E-18
 -1      3741 1.18690E-04-4.59875E-05-3.11137E-05-6.19122E-06 1.71554E-19-3.12198E-19
 -1      3742 8.07892E-05-1.90017E-05-2.64391E-05-9.94212E-06 1.32159E-19 1.04427E-18
 -1      3743 7.82867E-05-1.83097E-05-2.57819E-05-1.25878E-05-1.67372E-19 8.02948E-19
 -1      3744 8.40675E-05-2.15237E-05-2.67752E-05-1.10773E-05 3.77400E-19 9.99975E-19
 -1      3745 1.20213E-04-4.22679E-05-3.34090E-05 4.02413E-06 6.20055E-19-1.65168E-19
 -1      3746 1.10523E-04-1.97477E-05-3.89290E-05 7.97966E-06 6.34236E-19-6.08596E-19
 -1      3747 1.08364E-04-2.77765E-05-3.45230E-05 1.01968E-05 8.05477E-19-8.88875E-19
 -1      3748 1.09457E-04-3.07203E-05-3.38069E-05 1.05262E-05 1.12176E-18-6.45482E-19
 -1      3749 9.52383E-05-2.85726E-05-2.85710E-05-1.24454E-09 3.59683E-18 2.93535E-19
 -1      3750 9.52384E-05-2.85726E-05-2.85710E-05-1.51330E-09 2.89549E-18 7.36865E-19
 -1      3751 9.52387E-05-2.85729E-05-2.85711E-05-1.40771E-09 2.98738E-18 4.37353E-19
 -1      3752 9.52384E-05-2.85727E-05-2.85710E-05-1.10380E-09 3.57446E-18-2.70362E-19
 -1      3753 9.44182E-05-3.20300E-05-2.66155E-05-2.05601E-05 2.12307E-19 9.93149E-19
 -1      3754 7.93615E-05-2.04413E-05-2.51641E-05-1.75983E-05-8.35965E-20 3.93850E-19
 -1      3755 8.44816E-05-2.33803E-05-2.61460E-05-1.63282E-05 1.24739E-19 4.27396E-19
 -1      3756 9.52388E-05-2.85729E-05-2.85711E-05-3.44515E-10 2.66551E-18-5.31332E-19
 -1      3757 9.52387E-05-2.85729E-05-2.85711E-05-5.36418E-10 3.18280E-18-1.78176E-19
 -1      3758 9.52386E-05-2.85727E-05-2.85711E-05 1.00125E-09 2.84211E-18-1.02906E-18
 -1      3759 1.09530E-04-4.23942E-05-2.86748E-05-1.61080E-05 7.59047E-19 1.10887E-18
 -1      3760 1.16386E-04-3.10596E-05-3.65767E-05 1.11615E-05 9.63301E-19-5.10751E-20
 -1      3761 1.13605E-04-2.77402E-05-3.68252E-05 1.10659E-05 9.46238E-19-2.27048E-19
 -1      3762 7.36742E-05-1.66187E-05-2.43965E-05-1.63608E-05-8.26122E-20 9.27845E-19
 -1      3763 9.52388E-05-2.85729E-05-2.85711E-05 1.79546E-10 2.80681E-18 1.67694E-18
 -1      3764 9.52388E-05-2.85729E-05-2.85711E-05-6.31171E-11 2.17606E-18 6.89259E-19
 -1      3765 9.52390E-05-2.85731E-05-2.85711E-05-1.69500E-10 3.79127E-18 4.30593E-19
 -1      3766 1.12773E-04-3.32141E-05-3.40788E-05 1.00355E-05 1.02981E-18-5.42602E-19
 -1      3767 1.08564E-04-1.18230E-05-4.15467E-05-2.13009E-06 3.63774E-19-1.31471E-18
 -1      3768 8.76207E-05-2.39881E-05-2.72180E-05-1.06533E-05 3.73009E-19 1.04156E-18
 -1      3769 8.66938E-05-2.41869E-05-2.68581E-05-1.30425E-05 2.24275E-19 8.92018E-19
 -1      3770 9.44137E-05-2.76321E-05-2.86206E-05-3.97619E-08 7.61677E-19 1.44111E-18
 -1      3771 9.42183E-05-2.74617E-05-2.86166E-05-1.00095E-07 1.12795E-18 8.77030E-19
 -1      3772 1.15258E-04-4.43521E-05-3.02377E-05-7.15453E-06 1.74651E-19-2.04259E-19
 -1      3773 1.17262E-04-4.44495E-05-3.13607E-05-2.11584E-06-4.41615E-20-7.15922E-19
 -1      3774 1.13724E-04-4.13616E-05-3.10108E-05 1.27236E-06 3.27890E-19-8.18144E-19
 -1      3775 1.12244E-04-4.11036E-05-3.03833E-05-2.77249E-07 6.66079E-20-9.94928E-19
 -1      3776 1.09556E-04-3.99272E-05-2.98375E-05-1.50330E-06 1.24021E-19-8.79806E-19
 -1      3777 1.07784E-04-3.88971E-05-2.94423E-05-2.48316E-06 5.87844E-20-9.43823E-19
 -1      3778 1.11303E-04-4.17875E-05-2.99235E-05-4.44059E-06 2.30434E-19-7.18224E-19
 -1      3779 1.05514E-04-3.74498E-05-2.91459E-05-2.82258E-06-3.21277E-21-6.02756E-19
 -1      3780 1.03871E-04-3.62602E-05-2.89166E-05-3.30378E-06-1.17000E-19-7.70324E-19
 -1      3781 1.06200E-04-3.84745E-05-2.91160E-05-5.54002E-06 3.46820E-19-9.13836E-20
 -1      3782 1.02144E-04-3.49369E-05-2.87726E-05-3.15775E-06 1.92757E-19-5.26807E-19
 -1      3783 1.00804E-04-3.38538E-05-2.86533E-05-3.28364E-06 3.38888E-19-5.22281E-19
 -1      3784 1.02219E-04-3.53919E-05-2.87111E-05-5.35674E-06 3.03154E-19 5.20065E-20
 -1      3785 9.96008E-05-3.28151E-05-2.85944E-05-2.91328E-06 1.04959E-18-6.45573E-19
 -1      3786 9.86024E-05-3.19557E-05-2.85399E-05-2.84104E-06 1.20908E-18 3.18018E-20
 -1      3787 9.93720E-05-3.29194E-05-2.85359E-05-4.55660E-06 1.20018E-18-3.04714E-19
 -1      3788 9.78197E-05-3.12104E-05-2.85238E-05-2.42719E-06 6.86793E-19 4.07281E-19
 -1      3789 9.71206E-05-3.05800E-05-2.85052E-05-2.27122E-06 5.85003E-19 6.84339E-19
 -1      3790 9.74877E-05-3.11231E-05-2.84792E-05-3.57147E-06 1.65164E-18-5.39155E-19
 -1      3791 9.66386E-05-3.00762E-05-2.85092E-05-1.89378E-06 3.32077E-19 1.04306E-18
 -1      3792 9.61769E-05-2.96444E-05-2.85084E-05-1.71984E-06 3.54965E-19 1.21091E-18
 -1      3793 9.63092E-05-2.99144E-05-2.84787E-05-2.65302E-06 6.68944E-19 3.99701E-19
 -1      3794 9.58993E-05-2.93247E-05-2.85196E-05-1.41309E-06 2.98641E-19 1.21300E-18
 -1      3795 9.56108E-05-2.90457E-05-2.85261E-05-1.25432E-06 7.01638E-19 1.00205E-18
 -1      3796 9.56172E-05-2.91498E-05-2.85004E-05-1.89071E-06 4.82874E-19-5.59919E-21
 -1      3797 9.54636E-05-2.88551E-05-2.85381E-05-1.02093E-06 1.09244E-19 5.32565E-19
 -1      3798 9.52944E-05-2.86864E-05-2.85464E-05-8.89344E-07-8.69819E-20-1.00810E-19
 -1      3799 9.52405E-05-2.86964E-05-2.85269E-05-1.30592E-06-1.10837E-19-1.75042E-19
 -1      3800 9.52278E-05-2.85833E-05-2.85565E-05-7.20458E-07 5.28972E-20-1.21873E-19
 -1      3801 9.51365E-05-2.84894E-05-2.85639E-05-6.18235E-07 2.91260E-19-6.79138E-19
 -1      3802 9.50596E-05-2.84510E-05-2.85505E-05-8.79026E-07-2.24655E-19-7.45856E-19
 -1      3803 9.51155E-05-2.84411E-05-2.85714E-05-4.99883E-07 4.15558E-19-4.30468E-19
 -1      3804 9.50727E-05-2.83957E-05-2.85770E-05-4.23294E-07 3.88619E-19-4.42443E-19
 -1      3805 9.49930E-05-2.83372E-05-2.85687E-05-5.80218E-07 4.61589E-19-7.27254E-20
 -1      3806 9.50763E-05-2.83807E-05-2.85819E-05-3.42558E-07 2.78739E-19-3.99781E-19
 -1      3807 9.50618E-05-2.83649E-05-2.85855E-05-2.86583E-07-1.91558E-20-5.60645E-19
 -1      3808 9.49889E-05-2.83011E-05-2.85811E-05-3.76465E-07 1.93563E-19-1.44782E-19
 -1      3809 9.50769E-05-2.83685E-05-2.85882E-05-2.32598E-07 7.32032E-19 1.88723E-19
 -1      3810 9.50777E-05-2.83695E-05-2.85901E-05-1.92339E-07 1.23920E-19 9.80275E-19
 -1      3811 9.50154E-05-2.83087E-05-2.85885E-05-2.40888E-07 1.16655E-18 7.70985E-19
 -1      3812 9.50966E-05-2.83824E-05-2.85913E-05-1.56786E-07-1.07754E-18 1.81666E-18
 -1      3813 9.51046E-05-2.83920E-05-2.85919E-05-1.28103E-07-1.05954E-18 1.49057E-18
 -1      3814 9.50538E-05-2.83380E-05-2.85922E-05-1.52306E-07 2.22892E-19 1.67432E-18
 -1      3815 9.51234E-05-2.84084E-05-2.85919E-05-1.04950E-07-8.19826E-19 1.89214E-18
 -1      3816 9.51339E-05-2.84215E-05-2.85916E-05-8.46240E-08 2.17452E-20 6.36380E-19
 -1      3817 9.50939E-05-2.83757E-05-2.85931E-05-9.52523E-08-4.60884E-19 2.31784E-18
 -1      3818 9.51505E-05-2.84381E-05-2.85909E-05-6.96662E-08 4.82459E-19 5.41190E-19
 -1      3819 9.51609E-05-2.84517E-05-2.85901E-05-5.53025E-08 1.13677E-18 4.87709E-19
 -1      3820 9.51303E-05-2.84141E-05-2.85922E-05-5.88989E-08 4.44008E-20 2.03115E-18
 -1      3821 9.51746E-05-2.84669E-05-2.85890E-05-4.56932E-08 9.10160E-19-6.03030E-19
 -1      3822 9.51837E-05-2.84793E-05-2.85879E-05-3.55655E-08-1.00637E-19-5.97378E-19
 -1      3823 9.51610E-05-2.84493E-05-2.85903E-05-3.59121E-08 2.32649E-19 6.98411E-19
 -1      3824 9.51945E-05-2.84923E-05-2.85867E-05-2.94191E-08 3.37397E-19-2.29717E-19
 -1      3825 9.52019E-05-2.85030E-05-2.85855E-05-2.23007E-08-1.45846E-19-2.55642E-19
 -1      3826 9.51855E-05-2.84796E-05-2.85879E-05-2.14519E-08 4.37744E-19-1.20717E-18
 -1      3827 9.52100E-05-2.85136E-05-2.85842E-05-1.83880E-08-1.28325E-19 7.94240E-19
 -1      3828 9.52156E-05-2.85223E-05-2.85830E-05-1.34130E-08 1.13841E-18 8.18784E-19
 -1      3829 9.52041E-05-2.85045E-05-2.85853E-05-1.23887E-08 9.14765E-19-4.61059E-19
 -1      3830 9.52215E-05-2.85306E-05-2.85819E-05-1.09408E-08 9.34693E-19 7.72310E-19
 -1      3831 9.52256E-05-2.85374E-05-2.85808E-05-7.49740E-09 7.35291E-20 9.89165E-19
 -1      3832 9.52179E-05-2.85241E-05-2.85829E-05-6.72947E-09 1.05670E-18 3.39838E-19
 -1      3833 9.52297E-05-2.85438E-05-2.85797E-05-5.95628E-09-9.10348E-19 1.27224E-18
 -1      3834 9.52325E-05-2.85489E-05-2.85787E-05-3.60938E-09-1.09744E-18 5.61437E-19
 -1      3835 9.52276E-05-2.85393E-05-2.85806E-05-3.21827E-09-1.33708E-19 4.85435E-19
 -1      3836 9.52352E-05-2.85536E-05-2.85778E-05-2.67225E-09-1.08137E-18 3.29462E-19
 -1      3837 9.52370E-05-2.85574E-05-2.85770E-05-1.10976E-09-4.93499E-19 6.81011E-19
 -1      3838 9.52341E-05-2.85506E-05-2.85786E-05-1.06772E-09-1.39643E-18 1.30529E-18
 -1      3839 9.52387E-05-2.85608E-05-2.85763E-05-5.65313E-10 6.49879E-19-1.46156E-19
 -1      3840 9.52398E-05-2.85634E-05-2.85756E-05 4.38624E-10 1.15738E-18-1.04721E-19
 -1      3841 9.52383E-05-2.85588E-05-2.85769E-05 2.16052E-10 4.43260E-19 2.69356E-19
 -1      3842 9.52407E-05-2.85658E-05-2.85750E-05 7.28154E-10 1.17380E-18 2.09846E-19
 -1      3843 9.52413E-05-2.85676E-05-2.85744E-05 1.33816E-09 1.94176E-18-5.32442E-19
 -1      3844 9.52407E-05-2.85645E-05-2.85755E-05 9.44852E-10 1.23272E-18-1.52581E-19
 -1      3845 9.52417E-05-2.85691E-05-2.85739E-05 1.46363E-09 9.64704E-19-8.42913E-19
 -1      3846 9.52419E-05-2.85703E-05-2.85735E-05 1.80013E-09-4.18036E-19-5.35547E-19
 -1      3847 9.52420E-05-2.85684E-05-2.85744E-05 1.31781E-09 6.01398E-19-1.35364E-18
 -1      3848 9.52420E-05-2.85713E-05-2.85731E-05 1.82217E-09-1.27024E-18-7.29276E-19
 -1      3849 9.52419E-05-2.85720E-05-2.85728E-05 1.97320E-09-6.32102E-19-1.10103E-18
 -1      3850 9.52424E-05-2.85710E-05-2.85735E-05 1.46404E-09-7.51255E-19-1.11730E-18
 -1      3851 9.52418E-05-2.85726E-05-2.85725E-05 1.93258E-09 7.12595E-19-1.29539E-18
 -1      3852 9.52417E-05-2.85730E-05-2.85723E-05 1.96211E-09 4.93761E-19-8.46426E-19
 -1      3853 9.52423E-05-2.85725E-05-2.85728E-05 1.46861E-09 5.18968E-19-1.87586E-18
 -1      3854 9.52414E-05-2.85733E-05-2.85721E-05 1.88630E-09-6.42929E-19-4.53716E-19
 -1      3855 9.52412E-05-2.85734E-05-2.85719E-05 1.84029E-09-7.11436E-19-1.24884E-18
 -1      3856 9.52419E-05-2.85733E-05-2.85723E-05 1.38826E-09 3.01064E-19-1.47578E-18
 -1      3857 9.52409E-05-2.85735E-05-2.85717E-05 1.74766E-09 3.63440E-19-1.00796E-18
 -1      3858 9.52406E-05-2.85736E-05-2.85716E-05 1.65855E-09-9.63165E-19-1.02569E-18
 -1      3859 9.52414E-05-2.85737E-05-2.85719E-05 1.26112E-09 2.90517E-20-9.87011E-19
 -1      3860 9.52403E-05-2.85735E-05-2.85715E-05 1.56103E-09-1.63668E-18-7.89039E-19
 -1      3861 9.52400E-05-2.85735E-05-2.85714E-05 1.45132E-09-8.65248E-19-2.12911E-18
 -1      3862 9.52407E-05-2.85737E-05-2.85716E-05 1.11246E-09-1.22612E-18-1.47288E-18
 -1      3863 9.52397E-05-2.85734E-05-2.85713E-05 1.35632E-09-3.61557E-19-1.99944E-18
 -1      3864 9.52395E-05-2.85733E-05-2.85712E-05 1.24200E-09-9.98000E-19-1.88592E-18
 -1      3865 9.52401E-05-2.85736E-05-2.85714E-05 9.59299E-10-7.04848E-19-2.36611E-18
 -1      3866 9.52391E-05-2.85731E-05-2.85712E-05 1.18248E-09-4.61776E-19-9.47520E-19
 -1      3867 9.52389E-05-2.85729E-05-2.85711E-05 1.06952E-09 6.13657E-19-1.67541E-18
 -1      3868 9.52387E-05-2.85729E-05-2.85711E-05 7.49679E-10 2.92300E-18 1.30812E-18
 -1      3869 9.52394E-05-2.85733E-05-2.85712E-05 8.48039E-10-1.41312E-19-1.43650E-18
 -1      3870 9.27251E-05-2.62153E-05-2.84979E-05-1.24256E-06 8.70133E-20 1.90059E-18
 -1      3871 9.21313E-05-2.58315E-05-2.84386E-05-1.67833E-06-1.81295E-20 1.89616E-18
 -1      3872 9.48666E-05-2.80851E-05-2.86211E-05 8.98937E-08 5.01375E-19 1.19005E-18
 -1      3873 9.47800E-05-2.79962E-05-2.86241E-05 8.74512E-08 6.87854E-20 1.04923E-18
 -1      3874 9.49924E-05-2.82237E-05-2.86157E-05 9.55650E-08 1.86532E-18 1.03235E-18
 -1      3875 9.49353E-05-2.81599E-05-2.86194E-05 1.02615E-07 1.57666E-18 1.28650E-18
 -1      3876 9.48883E-05-2.81183E-05-2.86140E-05 3.78744E-08 1.15541E-18 1.63816E-19
 -1      3877 9.50777E-05-2.83237E-05-2.86093E-05 8.65332E-08 3.07938E-19 1.38794E-18
 -1      3878 9.50402E-05-2.82781E-05-2.86131E-05 9.71921E-08 6.45654E-19 1.03648E-18
 -1      3879 9.50020E-05-2.82418E-05-2.86103E-05 5.81760E-08 1.20787E-18 7.43681E-19
 -1      3880 9.51352E-05-2.83959E-05-2.86029E-05 7.17377E-08 1.09250E-18 2.15846E-18
 -1      3881 9.51107E-05-2.83632E-05-2.86065E-05 8.28859E-08 6.13688E-19 2.06328E-18
 -1      3882 9.50811E-05-2.83333E-05-2.86054E-05 5.99551E-08-1.62529E-19 2.03581E-18
 -1      3883 9.51738E-05-2.84480E-05-2.85971E-05 5.59733E-08-5.20210E-19 2.23371E-18
 -1      3884 9.51579E-05-2.84246E-05-2.86002E-05 6.61047E-08 8.31105E-19 2.16446E-18
 -1      3885 9.51358E-05-2.84008E-05-2.86002E-05 5.30703E-08 9.34652E-19 2.26245E-18
 -1      3886 9.51996E-05-2.84856E-05-2.85919E-05 4.15825E-08 1.06851E-20 1.19193E-18
 -1      3887 9.51893E-05-2.84688E-05-2.85946E-05 5.01013E-08-4.50987E-19 1.54958E-18
 -1      3888 9.51733E-05-2.84504E-05-2.85952E-05 4.30536E-08-4.95248E-20 2.71261E-18
 -1      3889 9.52167E-05-2.85127E-05-2.85876E-05 2.95094E-08 3.36883E-19 4.89979E-19
 -1      3890 9.52101E-05-2.85006E-05-2.85898E-05 3.63078E-08 3.76265E-19 1.04908E-18
 -1      3891 9.51988E-05-2.84867E-05-2.85907E-05 3.28127E-08 5.76547E-19 1.38931E-18
 -1      3892 9.52277E-05-2.85321E-05-2.85840E-05 1.99403E-08-1.11033E-18 2.83528E-19
 -1      3893 9.52236E-05-2.85235E-05-2.85857E-05 2.51517E-08 2.54196E-19 3.55797E-19
 -1      3894 9.52159E-05-2.85132E-05-2.85867E-05 2.37141E-08 3.88960E-19 1.43498E-18
 -1      3895 9.52347E-05-2.85460E-05-2.85810E-05 1.26854E-08-6.71852E-19 4.07287E-19
 -1      3896 9.52322E-05-2.85398E-05-2.85824E-05 1.65433E-08-1.48994E-18-2.11178E-19
 -1      3897 9.52272E-05-2.85324E-05-2.85834E-05 1.62568E-08-6.15835E-19 2.11691E-20
 -1      3898 9.52389E-05-2.85557E-05-2.85786E-05 7.39733E-09-4.66146E-19 1.52951E-19
 -1      3899 9.52375E-05-2.85514E-05-2.85797E-05 1.01587E-08-2.50842E-20-2.77691E-19
 -1      3900 9.52345E-05-2.85462E-05-2.85806E-05 1.04817E-08-3.20218E-19-6.81103E-19
 -1      3901 9.52413E-05-2.85625E-05-2.85767E-05 3.69097E-09-1.76070E-19 1.30822E-18
 -1      3902 9.52406E-05-2.85595E-05-2.85776E-05 5.59771E-09-5.90865E-19 6.52413E-19
 -1      3903 9.52389E-05-2.85559E-05-2.85784E-05 6.21168E-09-9.64863E-19-2.07981E-19
 -1      3904 9.52425E-05-2.85670E-05-2.85752E-05 1.20458E-09-4.34212E-19 5.93525E-19
 -1      3905 9.52422E-05-2.85650E-05-2.85759E-05 2.46639E-09-1.20263E-19 1.20659E-18
 -1      3906 9.52414E-05-2.85627E-05-2.85766E-05 3.18818E-09-1.89927E-19 3.36271E-19
 -1      3907 9.52428E-05-2.85700E-05-2.85741E-05-3.73800E-10-9.73106E-19 3.63194E-19
 -1      3908 9.52428E-05-2.85687E-05-2.85746E-05 4.15581E-10-8.15269E-19 5.35700E-19
 -1      3909 9.52426E-05-2.85673E-05-2.85751E-05 1.14334E-09-1.45153E-19 8.31166E-20
 -1      3910 9.52426E-05-2.85719E-05-2.85732E-05-1.29876E-09-1.38562E-18 9.18329E-19
 -1      3911 9.52428E-05-2.85711E-05-2.85736E-05-8.45180E-10-1.41690E-18 1.04870E-18
 -1      3912 9.52430E-05-2.85702E-05-2.85740E-05-1.64934E-10-1.35976E-18 3.49825E-19
 -1      3913 9.52422E-05-2.85730E-05-2.85725E-05-1.76981E-09 6.18689E-19-9.56103E-20
 -1      3914 9.52425E-05-2.85725E-05-2.85728E-05-1.54710E-09-4.22998E-19 9.55785E-19
 -1      3915 9.52428E-05-2.85721E-05-2.85732E-05-9.39371E-10-4.69852E-19 9.05306E-19
 -1      3916 9.52416E-05-2.85735E-05-2.85721E-05-1.93814E-09 8.56704E-19-8.47291E-19
 -1      3917 9.52419E-05-2.85733E-05-2.85723E-05-1.86791E-09 1.65260E-18-1.38377E-19
 -1      3918 9.52424E-05-2.85731E-05-2.85725E-05-1.34120E-09 1.58300E-18-8.84487E-19
 -1      3919 9.52410E-05-2.85737E-05-2.85717E-05-1.91488E-09-1.45879E-18-1.44690E-18
 -1      3920 9.52413E-05-2.85736E-05-2.85719E-05-1.94010E-09-1.34999E-18-5.42035E-19
 -1      3921 9.52418E-05-2.85736E-05-2.85721E-05-1.49365E-09 1.83534E-19-4.78534E-19
 -1      3922 9.52403E-05-2.85736E-05-2.85715E-05-1.77927E-09 4.10457E-19-4.76057E-19
 -1      3923 9.52406E-05-2.85736E-05-2.85716E-05-1.85961E-09-6.75911E-19-1.31246E-18
 -1      3924 9.52411E-05-2.85738E-05-2.85717E-05-1.48760E-09-9.80931E-19-1.92044E-18
 -1      3925 9.52397E-05-2.85734E-05-2.85713E-05-1.58774E-09 1.40838E-18 7.72052E-19
 -1      3926 9.52400E-05-2.85735E-05-2.85714E-05-1.69455E-09 1.16390E-20 2.89153E-19
 -1      3927 9.52404E-05-2.85737E-05-2.85715E-05-1.38743E-09-7.59811E-19 3.91269E-19
 -1      3928 9.52392E-05-2.85731E-05-2.85712E-05-1.37763E-09 2.85397E-18-2.32677E-20
 -1      3929 9.52394E-05-2.85733E-05-2.85712E-05-1.48747E-09 3.43803E-18 2.31885E-19
 -1      3930 9.52398E-05-2.85735E-05-2.85713E-05-1.23827E-09 2.19037E-18 1.43830E-18
 -1      3931 1.15376E-04-3.42166E-05-3.48200E-05 9.70382E-06 1.09890E-18-2.78019E-19
 -1      3932 1.15924E-04-3.71806E-05-3.37291E-05 8.52973E-06 1.14107E-18-1.54600E-19
 -1      3933 1.10593E-04-1.76202E-05-3.98780E-05-1.22232E-05 6.15495E-19-1.02598E-18
 -1      3934 9.10711E-05-2.88262E-05-2.66468E-05-1.78974E-05-3.05809E-19 9.04596E-19
 -1      3935 9.84709E-05-3.48903E-05-2.73993E-05-1.80917E-05 3.56146E-19 1.39794E-18
 -1      3936 9.52388E-05-2.85729E-05-2.85711E-05 5.17437E-10 2.66588E-18 2.18802E-18
 -1      3937 9.17161E-05-2.55013E-05-2.83656E-05-2.32990E-06-4.09240E-19 2.02089E-18
 -1      3938 9.09013E-05-2.50478E-05-2.82573E-05-3.07113E-06 5.80668E-20 1.35225E-18
 -1      3939 9.24255E-05-2.61848E-05-2.83794E-05-2.55813E-06-2.72719E-20 1.01740E-18
 -1      3940 9.46822E-05-2.78940E-05-2.86239E-05 5.37590E-08-1.13760E-20 1.34050E-18
 -1      3941 9.45514E-05-2.77703E-05-2.86246E-05 3.13329E-08 3.49810E-19 1.21954E-18
 -1      3942 9.44964E-05-2.77329E-05-2.86093E-05-1.36452E-07 4.16164E-19 1.40130E-18
 -1      3943 9.47259E-05-2.79526E-05-2.86146E-05-1.77492E-08 1.99861E-19 2.40584E-19
 -1      3944 1.05481E-04-3.93495E-05-2.82190E-05-1.56616E-05 7.15227E-19 1.50010E-18
 -1      3945 1.11186E-04-4.32524E-05-2.93151E-05-1.19696E-05 4.17038E-19 1.00003E-18
 -1      3946 8.84497E-05-2.61929E-05-2.66525E-05-1.60076E-05-3.16529E-19 6.92066E-19
 -1      3947 1.09387E-04-1.58102E-05-4.01765E-05-1.04433E-05 6.31662E-19-1.00728E-18
 -1      3948 1.16655E-04-4.19894E-05-3.18890E-05 2.78761E-06 4.15420E-19-5.41481E-19
 -1      3949 9.34817E-05-2.68108E-05-2.85698E-05-6.01702E-07 1.01133E-18 9.09917E-19
 -1      3950 9.30606E-05-2.65044E-05-2.85399E-05-8.42745E-07 2.96338E-19 1.32529E-18
 -1      3951 9.31571E-05-2.66516E-05-2.84934E-05-1.44544E-06 5.80316E-19 2.69945E-19
 -1      3952 1.11311E-04-4.20428E-05-2.96573E-05-7.63142E-06 3.54594E-19 1.76098E-20
 -1      3953 1.07980E-04-1.26950E-05-4.09854E-05-5.21614E-06 4.63651E-19-1.36592E-18
 -1      3954 9.15557E-05-2.57565E-05-2.81914E-05-4.31573E-06-1.65547E-19 6.22323E-19
 -1      3955 9.04316E-05-2.47298E-05-2.81363E-05-4.08343E-06 5.75039E-20 1.48748E-18
 -1      3956 8.93732E-05-2.42712E-05-2.79469E-05-5.29668E-06-3.39329E-19 1.27989E-18
 -1      3957 1.08260E-04-1.43519E-05-4.02727E-05-7.72742E-06 6.03087E-19-1.13923E-18
 -1      3958 8.90359E-05-2.41277E-05-2.77761E-05-6.73772E-06-9.99912E-20 1.73674E-18
 -1      3959 8.77026E-05-2.37220E-05-2.74679E-05-8.63794E-06 4.23348E-19 1.27346E-18
 -1      3960 9.02631E-05-2.60231E-05-2.75169E-05-1.03414E-05 1.99834E-19 1.84895E-18
 -1      3961 9.07561E-05-2.56638E-05-2.79110E-05-6.85541E-06-7.52110E-20 1.91138E-18
 -1      3962 9.40259E-05-2.72761E-05-2.86058E-05-2.33623E-07 1.35594E-18 6.05984E-19
 -1      3963 9.37384E-05-2.70480E-05-2.85924E-05-3.59101E-07 1.50504E-18 1.10916E-18
 -1      3964 9.41750E-05-2.74456E-05-2.85934E-05-3.63961E-07 9.40835E-19 6.44808E-19
 -1      3965 1.01816E-04-3.61360E-05-2.80704E-05-1.41698E-05 2.11214E-19 1.31644E-18
 -1      3966 9.52393E-05-2.85732E-05-2.85712E-05-3.69143E-11 3.87074E-18 1.33357E-18
 -1      3967 9.52392E-05-2.85732E-05-2.85712E-05-3.18474E-10 4.56209E-18-2.15108E-18
 -1      3968 9.52389E-05-2.85730E-05-2.85711E-05-7.32244E-10 5.48265E-18-1.80629E-18
 -1      3969 9.52386E-05-2.85728E-05-2.85711E-05-8.02750E-10 3.81966E-18-1.21867E-18
 -1      3970 1.15296E-04-3.89894E-05-3.27922E-05 6.59746E-06 9.96538E-19-2.37884E-19
 -1      3971 9.52390E-05-2.85731E-05-2.85711E-05 4.58170E-10 2.58363E-18 2.31802E-18
 -1      3972 9.27089E-05-2.88404E-05-2.73384E-05-1.38839E-05-1.88541E-19 1.13004E-18
 -1      3973 9.52395E-05-2.85734E-05-2.85712E-05-6.64154E-10 3.73913E-18-1.02532E-18
 -1      3974 9.52393E-05-2.85732E-05-2.85712E-05-7.92678E-10 3.38635E-18-1.77471E-18
 -1      3975 9.52391E-05-2.85731E-05-2.85711E-05-1.07301E-09 4.10191E-18-1.29590E-18
 -1      3976 9.52394E-05-2.85733E-05-2.85712E-05 5.77858E-10 1.28395E-18 4.07999E-19
 -1      3977 9.52394E-05-2.85733E-05-2.85712E-05 2.20867E-10 3.01970E-18 1.92061E-18
 -1      3978 9.52396E-05-2.85734E-05-2.85712E-05 5.71342E-11 2.83579E-18 1.48382E-19
 -1      3979 9.52398E-05-2.85735E-05-2.85713E-05 5.95554E-10 9.98793E-19-1.41869E-18
 -1      3980 9.52385E-05-2.85727E-05-2.85710E-05-9.74650E-10 3.91212E-18-1.87547E-18
 -1      3981 9.52386E-05-2.85728E-05-2.85711E-05-1.11730E-09 5.85241E-18-6.72858E-19
 -1      3982 9.52390E-05-2.85731E-05-2.85711E-05-1.21312E-09 3.41893E-18 1.85039E-20
 -1      3983 1.02172E-04-3.53356E-05-2.86058E-05-7.10105E-06 2.26763E-19 4.46676E-20
 -1      3984 1.00428E-04-3.38971E-05-2.84849E-05-6.67876E-06 3.49322E-19 1.28767E-19
 -1      3985 9.91140E-05-3.26375E-05-2.84584E-05-5.80440E-06 8.97319E-19 3.43232E-20
 -1      3986 9.79319E-05-3.15830E-05-2.84174E-05-5.20709E-06 1.33404E-18-1.89735E-19
 -1      3987 9.85779E-05-3.25381E-05-2.83475E-05-7.44888E-06 4.88671E-19-2.29758E-20
 -1      3988 9.71875E-05-3.08028E-05-2.84265E-05-4.39559E-06 1.68315E-18-7.10044E-19
 -1      3989 9.64281E-05-3.01042E-05-2.84216E-05-3.84728E-06 1.50195E-18-6.19536E-19
 -1      3990 9.66310E-05-3.05669E-05-2.83463E-05-5.55375E-06 1.01553E-18-2.22383E-19
 -1      3991 9.60332E-05-2.96075E-05-2.84462E-05-3.17805E-06 1.20450E-18-9.06165E-19
 -1      3992 9.55693E-05-2.91734E-05-2.84567E-05-2.71442E-06 1.05745E-18-3.37134E-19
 -1      3993 9.55444E-05-2.93468E-05-2.83950E-05-3.93275E-06 1.11508E-18-1.18166E-18
 -1      3994 9.53884E-05-2.88940E-05-2.84817E-05-2.20826E-06 4.19712E-19-7.90104E-20
 -1      3995 9.51247E-05-2.86423E-05-2.84962E-05-1.85017E-06 6.63568E-20-5.10994E-19
 -1      3996 9.49983E-05-2.86512E-05-2.84511E-05-2.67459E-06 7.82826E-19-7.47913E-19
 -1      3997 9.50653E-05-2.84987E-05-2.85172E-05-1.48905E-06 2.11591E-19-6.94408E-19
 -1      3998 9.49259E-05-2.83629E-05-2.85309E-05-1.22830E-06-3.45173E-19-7.00312E-19
 -1      3999 9.47739E-05-2.82971E-05-2.85000E-05-1.76223E-06-3.07192E-19-8.49104E-19
 -1      4000 9.49279E-05-2.83028E-05-2.85463E-05-9.73224E-07 2.93078E-20-1.04380E-18
 -1      4001 9.48681E-05-2.82445E-05-2.85569E-05-7.92456E-07 5.96705E-19-7.58426E-19
 -1      4002 9.47162E-05-2.81323E-05-2.85379E-05-1.12894E-06-1.03921E-19-1.03687E-18
 -1      4003 9.48978E-05-2.82289E-05-2.85674E-05-6.24859E-07 6.56722E-19-1.89112E-19
 -1      4004 9.48809E-05-2.82126E-05-2.85750E-05-5.00381E-07 7.66982E-19 2.52876E-19
 -1      4005 9.47513E-05-2.81071E-05-2.85640E-05-7.03807E-07 9.55313E-19-1.12640E-18
 -1      4006 9.49211E-05-2.82238E-05-2.85815E-05-3.91966E-07 4.13512E-19 5.58009E-19
 -1      4007 9.49271E-05-2.82309E-05-2.85862E-05-3.09372E-07 9.88120E-19 1.31398E-18
 -1      4008 9.48202E-05-2.81341E-05-2.85808E-05-4.25151E-07 7.55273E-19 1.59470E-19
 -1      4009 9.49677E-05-2.82539E-05-2.85898E-05-2.40983E-07 1.54236E-18 1.46006E-18
 -1      4010 9.49841E-05-2.82724E-05-2.85923E-05-1.87345E-07 1.15964E-18 1.56087E-18
 -1      4011 9.48993E-05-2.81887E-05-2.85906E-05-2.49466E-07 1.55077E-18 2.03532E-18
 -1      4012 9.50205E-05-2.82993E-05-2.85937E-05-1.45334E-07 4.97436E-19 1.14343E-18
 -1      4013 9.50402E-05-2.83219E-05-2.85946E-05-1.11074E-07 1.25081E-20 1.36813E-18
 -1      4014 9.49746E-05-2.82522E-05-2.85952E-05-1.41399E-07 4.79418E-19 9.68779E-19
 -1      4015 9.50707E-05-2.83484E-05-2.85947E-05-8.59500E-08-1.42936E-19 1.62965E-18
 -1      4016 9.50898E-05-2.83710E-05-2.85946E-05-6.43507E-08-1.97114E-20 2.04325E-18
 -1      4017 9.50401E-05-2.83144E-05-2.85964E-05-7.67947E-08 3.63495E-19 1.06150E-18
 -1      4018 9.51144E-05-2.83948E-05-2.85938E-05-4.97564E-08 6.87242E-20 2.03082E-18
 -1      4019 9.51310E-05-2.84153E-05-2.85930E-05-3.62684E-08 6.62319E-19 1.82602E-18
 -1      4020 9.50939E-05-2.83703E-05-2.85955E-05-3.93621E-08 1.80215E-19 1.67226E-18
 -1      4021 9.51501E-05-2.84357E-05-2.85918E-05-2.80714E-08-1.77361E-20 1.65595E-18
 -1      4022 9.51638E-05-2.84532E-05-2.85906E-05-1.97003E-08-5.39143E-20 9.82942E-19
 -1      4023 9.51365E-05-2.84180E-05-2.85933E-05-1.84467E-08-3.56172E-20 1.66742E-18
 -1      4024 9.51781E-05-2.84699E-05-2.85892E-05-1.52873E-08 2.56694E-19 7.72587E-19
 -1      4025 9.51888E-05-2.84843E-05-2.85879E-05-1.01076E-08 6.94335E-19 2.70679E-19
 -1      4026 9.51691E-05-2.84571E-05-2.85906E-05-7.27992E-09-1.64580E-19 1.75578E-18
 -1      4027 9.51993E-05-2.84976E-05-2.85864E-05-7.86805E-09 1.30156E-18 1.73607E-19
 -1      4028 9.52073E-05-2.85090E-05-2.85851E-05-4.66525E-09 1.22701E-18 5.87011E-19
 -1      4029 9.51934E-05-2.84884E-05-2.85877E-05-1.68072E-09 1.37043E-18 1.44536E-18
 -1      4030 9.52148E-05-2.85193E-05-2.85838E-05-3.63264E-09 1.16457E-18-2.26474E-20
 -1      4031 9.52205E-05-2.85281E-05-2.85826E-05-1.65188E-09 7.68393E-19-3.57239E-20
 -1      4032 9.52110E-05-2.85127E-05-2.85848E-05 8.60233E-10 8.77546E-19 8.11300E-19
 -1      4033 9.52257E-05-2.85359E-05-2.85814E-05-1.26173E-09 6.34046E-19-3.82704E-19
 -1      4034 9.52296E-05-2.85425E-05-2.85803E-05-3.87020E-11 4.02198E-19 4.45303E-19
 -1      4035 9.52233E-05-2.85312E-05-2.85822E-05 1.80322E-09 7.76057E-19-2.24103E-19
 -1      4036 9.52331E-05-2.85482E-05-2.85792E-05 2.88245E-11-5.61330E-19 7.37982E-19
 -1      4037 9.52357E-05-2.85531E-05-2.85783E-05 7.78377E-10-5.04443E-19 1.25000E-18
 -1      4038 9.52317E-05-2.85449E-05-2.85800E-05 1.96855E-09-6.41968E-20 1.29629E-19
 -1      4039 9.52378E-05-2.85572E-05-2.85774E-05 6.98244E-10-6.95527E-19 1.67047E-18
 -1      4040 9.52394E-05-2.85607E-05-2.85766E-05 1.14869E-09-1.49728E-19 8.58566E-19
 -1      4041 9.52370E-05-2.85549E-05-2.85780E-05 1.79768E-09-8.34394E-19 1.41372E-18
 -1      4042 9.52406E-05-2.85635E-05-2.85759E-05 1.01252E-09 9.20514E-19-1.71268E-19
 -1      4043 9.52415E-05-2.85659E-05-2.85753E-05 1.27184E-09 1.25083E-18-2.85092E-19
 -1      4044 9.52403E-05-2.85620E-05-2.85764E-05 1.51496E-09-6.23689E-19 8.35084E-19
 -1      4045 9.52421E-05-2.85678E-05-2.85747E-05 1.12480E-09 8.84585E-19-9.30854E-19
 -1      4046 9.52425E-05-2.85694E-05-2.85742E-05 1.26098E-09 2.22558E-19-1.27512E-18
 -1      4047 9.52421E-05-2.85668E-05-2.85751E-05 1.22514E-09 3.78238E-19-1.17071E-18
 -1      4048 9.52427E-05-2.85706E-05-2.85737E-05 1.12336E-09-3.05588E-19-1.43879E-18
 -1      4049 9.52427E-05-2.85716E-05-2.85733E-05 1.18017E-09-2.76017E-19-9.17131E-19
 -1      4050 9.52428E-05-2.85700E-05-2.85740E-05 9.70202E-10 1.19430E-19-1.03074E-18
 -1      4051 9.52427E-05-2.85724E-05-2.85730E-05 1.05951E-09 2.41976E-19-8.95300E-19
 -1      4052 9.52425E-05-2.85729E-05-2.85727E-05 1.06581E-09 1.75455E-18-1.02959E-18
 -1      4053 9.52429E-05-2.85720E-05-2.85732E-05 7.61351E-10 3.87098E-19-1.31609E-18
 -1      4054 9.52423E-05-2.85733E-05-2.85724E-05 9.63561E-10 2.01500E-18-1.67966E-18
 -1      4055 9.52420E-05-2.85736E-05-2.85722E-05 9.38779E-10 5.46193E-19-5.34299E-19
 -1      4056 9.52425E-05-2.85732E-05-2.85726E-05 5.96267E-10 1.54298E-18-1.35425E-18
 -1      4057 9.52417E-05-2.85737E-05-2.85720E-05 8.53791E-10-2.04540E-19-3.32415E-19
 -1      4058 9.52414E-05-2.85738E-05-2.85718E-05 8.11138E-10 5.61075E-19-5.94278E-20
 -1      4059 9.52420E-05-2.85737E-05-2.85721E-05 4.67879E-10 7.22584E-19-1.18304E-18
 -1      4060 9.52410E-05-2.85738E-05-2.85717E-05 7.41570E-10-4.35994E-19-1.99874E-19
 -1      4061 9.52407E-05-2.85738E-05-2.85715E-05 6.90104E-10-1.15827E-18-3.59136E-19
 -1      4062 9.52413E-05-2.85739E-05-2.85718E-05 3.68634E-10-4.22234E-19-1.38527E-18
 -1      4063 9.52404E-05-2.85737E-05-2.85714E-05 6.32136E-10-1.22290E-18-7.36167E-19
 -1      4064 9.52401E-05-2.85736E-05-2.85714E-05 5.78987E-10-4.07461E-19-9.62124E-19
 -1      4065 9.52406E-05-2.85738E-05-2.85715E-05 2.91986E-10-9.35587E-19-1.65819E-18
 -1      4066 9.50207E-05-2.82742E-05-2.86056E-05 2.33609E-08 5.01479E-19 6.39203E-19
 -1      4067 9.49730E-05-2.82250E-05-2.86076E-05 1.70465E-08 1.78128E-18 2.34082E-19
 -1      4068 9.49235E-05-2.81706E-05-2.86081E-05-6.43094E-09 1.18557E-18 5.89754E-20
 -1      4069 9.48552E-05-2.81058E-05-2.86090E-05-2.62354E-08 3.67442E-19-5.64320E-19
 -1      4070 9.49520E-05-2.82090E-05-2.86034E-05-4.09611E-08 8.14078E-19-8.07146E-20
 -1      4071 9.51402E-05-2.84132E-05-2.85975E-05 3.33134E-08 2.35345E-19 1.56770E-18
 -1      4072 9.51174E-05-2.83854E-05-2.85999E-05 3.69785E-08 1.13967E-19 5.01354E-19
 -1      4073 9.51752E-05-2.84582E-05-2.85932E-05 2.87069E-08-4.32027E-20 1.77198E-18
 -1      4074 9.51596E-05-2.84375E-05-2.85955E-05 3.33379E-08 4.48521E-19 2.16897E-18
 -1      4075 9.51451E-05-2.84219E-05-2.85953E-05 1.83366E-08-1.02656E-19 1.43236E-18
 -1      4076 9.51995E-05-2.84917E-05-2.85892E-05 2.26571E-08 5.73252E-19 1.91873E-18
 -1      4077 9.51890E-05-2.84764E-05-2.85913E-05 2.71712E-08 2.59706E-19 1.78409E-18
 -1      4078 9.51779E-05-2.84635E-05-2.85916E-05 1.79826E-08 5.02005E-19 1.78294E-18
 -1      4079 9.52162E-05-2.85165E-05-2.85857E-05 1.67348E-08 8.10900E-20 1.18421E-18
 -1      4080 9.52091E-05-2.85053E-05-2.85874E-05 2.06468E-08 2.98599E-19 1.13741E-18
 -1      4081 9.52010E-05-2.84951E-05-2.85880E-05 1.52108E-08 7.02985E-19 1.31594E-18
 -1      4082 9.52273E-05-2.85347E-05-2.85826E-05 1.16361E-08-6.99527E-19 5.40293E-19
 -1      4083 9.52227E-05-2.85265E-05-2.85841E-05 1.47919E-08 4.87281E-19 1.11809E-18
 -1      4084 9.52170E-05-2.85187E-05-2.85848E-05 1.17560E-08 5.11899E-19 1.45192E-18
 -1      4085 9.52345E-05-2.85478E-05-2.85801E-05 7.57606E-09-3.72750E-19 3.11452E-19
 -1      4086 9.52316E-05-2.85419E-05-2.85813E-05 9.99218E-09-1.41740E-20 3.39258E-20
 -1      4087 9.52277E-05-2.85361E-05-2.85820E-05 8.47199E-09 1.69191E-19 1.31941E-18
 -1      4088 9.52389E-05-2.85570E-05-2.85780E-05 4.52464E-09-6.91730E-19-2.64111E-19
 -1      4089 9.52372E-05-2.85529E-05-2.85790E-05 6.29507E-09-7.23219E-19-4.57721E-20
 -1      4090 9.52347E-05-2.85488E-05-2.85796E-05 5.71378E-09-4.34883E-19 8.96755E-19
 -1      4091 9.52415E-05-2.85635E-05-2.85763E-05 2.34343E-09 5.30936E-19-3.44859E-19
 -1      4092 9.52406E-05-2.85606E-05-2.85771E-05 3.58752E-09-4.09436E-19-9.23791E-20
 -1      4093 9.52391E-05-2.85578E-05-2.85777E-05 3.57006E-09-4.65350E-19 1.53952E-20
 -1      4094 9.52427E-05-2.85678E-05-2.85750E-05 8.60808E-10-9.68643E-19 1.15462E-18
 -1      4095 9.52423E-05-2.85659E-05-2.85756E-05 1.69636E-09-2.97270E-19 4.27646E-19
 -1      4096 9.52416E-05-2.85640E-05-2.85761E-05 1.99986E-09-4.18427E-19 1.43868E-18
 -1      4097 9.52431E-05-2.85707E-05-2.85739E-05-8.96589E-11-3.94599E-19 4.66499E-19
 -1      4098 9.52430E-05-2.85694E-05-2.85744E-05 4.41156E-10-3.54415E-19 1.03090E-18
 -1      4099 9.52428E-05-2.85682E-05-2.85748E-05 9.09675E-10-4.48454E-19 9.11386E-19
 -1      4100 9.52429E-05-2.85724E-05-2.85731E-05-6.52200E-10-9.82605E-20-1.05504E-18
 -1      4101 9.52431E-05-2.85716E-05-2.85735E-05-3.40596E-10-1.09534E-18-7.82580E-19
 -1      4102 9.52431E-05-2.85709E-05-2.85738E-05 1.94362E-10-2.03768E-19-1.12257E-18
 -1      4103 9.52425E-05-2.85733E-05-2.85725E-05-9.43547E-10 1.41683E-18-2.30247E-19
 -1      4104 9.52428E-05-2.85729E-05-2.85728E-05-7.83938E-10 1.13041E-18-4.81560E-19
 -1      4105 9.52429E-05-2.85726E-05-2.85730E-05-2.43152E-10 3.02383E-19-1.49102E-18
 -1      4106 9.52418E-05-2.85738E-05-2.85720E-05-1.05365E-09 5.61816E-21-1.14458E-18
 -1      4107 9.52422E-05-2.85736E-05-2.85722E-05-9.95159E-10 1.41943E-18-7.35517E-19
 -1      4108 9.52425E-05-2.85735E-05-2.85724E-05-4.84027E-10 1.15886E-18-9.90875E-19
 -1      4109 9.52412E-05-2.85739E-05-2.85717E-05-1.04894E-09-1.62709E-18-6.85212E-19
 -1      4110 9.52415E-05-2.85738E-05-2.85718E-05-1.05448E-09-1.39257E-18-1.43084E-18
 -1      4111 9.52418E-05-2.85738E-05-2.85720E-05-5.92005E-10-6.24865E-19-2.09931E-18
 -1      4112 9.52405E-05-2.85737E-05-2.85715E-05-9.74576E-10-8.94008E-19-3.73326E-19
 -1      4113 9.52408E-05-2.85738E-05-2.85716E-05-1.02023E-09-1.35842E-18-6.79593E-19
 -1      4114 9.52411E-05-2.85739E-05-2.85717E-05-6.15477E-10-1.48971E-18-1.34559E-18
 -1      4115 9.52399E-05-2.85735E-05-2.85713E-05-7.84438E-10 2.48996E-18-6.66506E-19
 -1      4116 9.52402E-05-2.85736E-05-2.85714E-05-8.43022E-10 1.28999E-18-1.14009E-18
 -1      4117 9.52404E-05-2.85738E-05-2.85714E-05-4.96286E-10 6.55834E-19-2.94264E-18
 -1      4118 9.52398E-05-2.85735E-05-2.85713E-05-2.83625E-10 3.08977E-18-1.59997E-18
 -1      4119 1.08425E-04-4.01706E-05-2.91551E-05-8.34170E-06 4.28883E-19 1.73155E-19
 -1      4120 9.32199E-05-2.68730E-05-2.84184E-05-2.47241E-06 5.61639E-19-3.80505E-19
 -1      4121 9.28238E-05-2.67256E-05-2.83478E-05-3.17407E-06-3.94673E-20-9.41979E-20
 -1      4122 9.30867E-05-2.88379E-05-2.76024E-05-1.17795E-05-6.01029E-20 1.16280E-18
 -1      4123 9.59243E-05-3.13183E-05-2.76700E-05-1.32698E-05-1.55895E-19 1.31875E-18
 -1      4124 9.95786E-05-3.42919E-05-2.79682E-05-1.30178E-05 1.14563E-19 1.19252E-18
 -1      4125 1.05111E-04-3.85003E-05-2.86550E-05-1.09208E-05 5.24029E-19 7.59377E-19
 -1      4126 1.06076E-04-3.84025E-05-2.89532E-05-7.72095E-06 3.31001E-19-8.01292E-20
 -1      4127 9.96230E-05-3.37395E-05-2.81990E-05-1.05629E-05 1.21058E-19 7.55751E-19
 -1      4128 9.50906E-05-2.83533E-05-2.86018E-05 3.33955E-08-1.83552E-20 3.42292E-19
 -1      4129 9.50575E-05-2.83162E-05-2.86042E-05 3.39827E-08-1.05330E-19 5.11912E-19
 -1      4130 9.50368E-05-2.82976E-05-2.86019E-05-3.54274E-09 8.20587E-19 1.93097E-19
 -1      4131 9.50995E-05-2.83675E-05-2.85989E-05 1.30484E-08-1.09278E-19 2.26356E-19
 -1      4132 9.37392E-05-2.70950E-05-2.85584E-05-7.66886E-07 1.19461E-18-9.39801E-20
 -1      4133 9.27926E-05-2.67467E-05-2.82806E-05-4.02356E-06 4.77440E-20 2.29622E-19
 -1      4134 9.23763E-05-2.66748E-05-2.81696E-05-5.11906E-06 3.29214E-19 6.09232E-19
 -1      4135 9.36094E-05-2.75351E-05-2.83304E-05-3.86208E-06 4.27299E-19-1.94805E-20
 -1      4136 9.36703E-05-2.71296E-05-2.85066E-05-1.45163E-06 6.29733E-19-5.98175E-19
 -1      4137 9.33378E-05-2.69621E-05-2.84637E-05-1.89777E-06 6.34549E-19-3.03692E-19
 -1      4138 9.37745E-05-2.74306E-05-2.84381E-05-2.44030E-06 4.86577E-19-8.81957E-19
 -1      4139 9.46078E-05-2.78655E-05-2.86022E-05-1.98808E-07 8.33064E-19 6.73367E-19
 -1      4140 9.44719E-05-2.77578E-05-2.85969E-05-2.85317E-07 3.56094E-19 8.82556E-19
 -1      4141 1.03702E-04-3.66378E-05-2.86896E-05-7.73051E-06 5.00614E-19 3.17929E-19
 -1      4142 9.52400E-05-2.85736E-05-2.85713E-05 2.94112E-10 1.17471E-19 1.40895E-20
 -1      4143 9.52399E-05-2.85735E-05-2.85713E-05-1.81360E-11 1.53548E-18-1.35077E-18
 -1      4144 9.31364E-05-2.81834E-05-2.78028E-05-9.80076E-06-7.71797E-20 1.55131E-18
 -1      4145 9.45038E-05-2.78126E-05-2.85816E-05-4.80599E-07 7.23143E-19 8.28092E-19
 -1      4146 9.43673E-05-2.76556E-05-2.85877E-05-4.26424E-07 2.12746E-19 1.16969E-18
 -1      4147 9.41802E-05-2.75177E-05-2.85753E-05-5.88612E-07 8.51262E-19 7.42219E-19
 -1      4148 9.47896E-05-2.80364E-05-2.86078E-05-7.19621E-08 5.95484E-19 1.37320E-19
 -1      4149 9.46926E-05-2.79521E-05-2.86065E-05-1.16200E-07 1.12332E-18 5.20921E-19
 -1      4150 9.46914E-05-2.79660E-05-2.85959E-05-2.49062E-07 1.36080E-18 1.95933E-19
 -1      4151 9.48389E-05-2.80989E-05-2.86021E-05-1.14684E-07 7.25707E-19-4.33838E-19
 -1      4152 1.01293E-04-3.50856E-05-2.84220E-05-9.29554E-06 1.97540E-19-8.98566E-20
 -1      4153 9.58423E-05-2.98619E-05-2.82487E-05-6.44667E-06 9.36018E-19 2.53961E-19
 -1      4154 9.51140E-05-2.91311E-05-2.82715E-05-5.52065E-06 1.32054E-18 1.47485E-19
 -1      4155 9.48522E-05-2.87227E-05-2.83148E-05-4.75402E-06 9.05070E-19 2.66291E-19
 -1      4156 9.44654E-05-2.83101E-05-2.83509E-05-3.97860E-06 6.13247E-19-2.06107E-20
 -1      4157 9.44901E-05-2.81517E-05-2.84087E-05-3.15548E-06 8.97817E-19-4.20096E-19
 -1      4158 9.42974E-05-2.79425E-05-2.84385E-05-2.60210E-06 4.10978E-19-5.07928E-19
 -1      4159 9.43983E-05-2.79094E-05-2.84791E-05-2.02978E-06 7.79995E-20-1.69826E-19
 -1      4160 9.43289E-05-2.78355E-05-2.85023E-05-1.64009E-06-2.21803E-19-5.96572E-19
 -1      4161 9.45093E-05-2.79060E-05-2.85345E-05-1.18968E-06 4.78359E-20 3.61680E-19
 -1      4162 9.45033E-05-2.78987E-05-2.85497E-05-9.39691E-07 5.83903E-19 2.94644E-19
 -1      4163 9.45631E-05-2.79072E-05-2.85616E-05-7.65311E-07 8.78165E-19 4.20158E-19
 -1      4164 9.45948E-05-2.79311E-05-2.85726E-05-5.92992E-07 1.22302E-18 6.73305E-19
 -1      4165 9.46965E-05-2.79953E-05-2.85822E-05-4.41988E-07 9.25717E-19 2.92445E-21
 -1      4166 9.47345E-05-2.80322E-05-2.85886E-05-3.35533E-07 8.76211E-19 3.27538E-19
 -1      4167 9.48162E-05-2.80926E-05-2.85934E-05-2.44369E-07 9.28266E-19 7.20647E-19
 -1      4168 9.48555E-05-2.81333E-05-2.85967E-05-1.79275E-07 1.47242E-18 7.00424E-19
 -1      4169 9.49191E-05-2.81861E-05-2.85985E-05-1.26802E-07 8.57143E-19 2.83674E-19
 -1      4170 9.49548E-05-2.82247E-05-2.85997E-05-8.81452E-08 4.87857E-19 1.61184E-19
 -1      4171 9.50030E-05-2.82688E-05-2.85996E-05-5.95297E-08 1.18981E-18 4.70065E-19
 -1      4172 9.50333E-05-2.83030E-05-2.85995E-05-3.73693E-08 9.29604E-19 7.72309E-19
 -1      4173 9.50693E-05-2.83388E-05-2.85984E-05-2.29476E-08 5.66707E-19 7.90102E-19
 -1      4174 9.50937E-05-2.83676E-05-2.85975E-05-1.07772E-08 2.20005E-19 1.34525E-18
 -1      4175 9.51201E-05-2.83960E-05-2.85959E-05-4.44812E-09-7.64157E-20 1.13424E-18
 -1      4176 9.51391E-05-2.84195E-05-2.85945E-05 1.86779E-09-4.02438E-19 1.05776E-18
 -1      4177 9.51582E-05-2.84417E-05-2.85927E-05 3.83634E-09-3.55502E-19 1.47375E-18
 -1      4178 9.51726E-05-2.84604E-05-2.85912E-05 6.84967E-09 5.40709E-20 1.38123E-18
 -1      4179 9.51862E-05-2.84775E-05-2.85894E-05 6.66151E-09 3.56495E-19 1.79461E-18
 -1      4180 9.51968E-05-2.84920E-05-2.85879E-05 7.89884E-09 1.36118E-18 1.57627E-18
 -1      4181 9.52063E-05-2.85050E-05-2.85863E-05 6.80014E-09 1.16345E-18 1.17188E-18
 -1      4182 9.52138E-05-2.85161E-05-2.85849E-05 7.14353E-09 4.73473E-19 1.04490E-18
 -1      4183 9.52203E-05-2.85257E-05-2.85834E-05 5.79859E-09 4.18944E-19 1.10854E-18
 -1      4184 9.52255E-05-2.85340E-05-2.85822E-05 5.73692E-09 5.83640E-19 9.89984E-19
 -1      4185 9.52298E-05-2.85411E-05-2.85809E-05 4.46871E-09-1.24513E-20 7.30706E-19
 -1      4186 9.52333E-05-2.85472E-05-2.85798E-05 4.25864E-09-2.56169E-19 7.59029E-19
 -1      4187 9.52360E-05-2.85523E-05-2.85788E-05 3.19854E-09-5.66901E-20 4.20863E-19
 -1      4188 9.52382E-05-2.85566E-05-2.85779E-05 2.96456E-09-5.60578E-19 5.37081E-19
 -1      4189 9.52398E-05-2.85602E-05-2.85770E-05 2.14282E-09-7.51733E-19 1.08430E-18
 -1      4190 9.52411E-05-2.85632E-05-2.85762E-05 1.93756E-09-5.61207E-19 3.83713E-19
 -1      4191 9.52419E-05-2.85656E-05-2.85755E-05 1.33601E-09-7.38658E-19 7.76759E-19
 -1      4192 9.52425E-05-2.85677E-05-2.85749E-05 1.17543E-09-3.69920E-19-1.19333E-19
 -1      4193 9.52429E-05-2.85693E-05-2.85744E-05 7.56912E-10 2.42005E-19-9.14909E-19
 -1      4194 9.52431E-05-2.85706E-05-2.85739E-05 6.39970E-10 3.01445E-19-5.95684E-19
 -1      4195 9.52431E-05-2.85716E-05-2.85735E-05 3.63681E-10-5.02717E-19-1.62752E-18
 -1      4196 9.52430E-05-2.85724E-05-2.85731E-05 2.82828E-10-3.03660E-20-1.38778E-18
 -1      4197 9.52428E-05-2.85730E-05-2.85728E-05 1.11596E-10 1.10626E-18-1.34167E-18
 -1      4198 9.52426E-05-2.85734E-05-2.85725E-05 5.79391E-11 1.95347E-18-1.05045E-18
 -1      4199 9.52423E-05-2.85736E-05-2.85723E-05-3.90362E-11 1.20509E-18-1.80215E-18
 -1      4200 9.52420E-05-2.85738E-05-2.85721E-05-7.34658E-11-1.42486E-19-1.68295E-18
 -1      4201 9.52416E-05-2.85739E-05-2.85719E-05-1.20301E-10-1.56006E-18-1.69826E-18
 -1      4202 9.52413E-05-2.85739E-05-2.85717E-05-1.41467E-10-1.31879E-18-2.43219E-18
 -1      4203 9.52409E-05-2.85739E-05-2.85716E-05-1.56257E-10-7.75514E-19-3.43080E-18
 -1      4204 9.52406E-05-2.85738E-05-2.85715E-05-1.66951E-10-5.94537E-19-2.69768E-18
 -1      4205 9.81714E-05-3.24806E-05-2.81440E-05-9.69245E-06 2.53902E-19 6.21127E-19
 -1      4206 9.26764E-05-2.69763E-05-2.81165E-05-5.93953E-06 4.00135E-19 9.08665E-19
 -1      4207 9.22941E-05-2.70960E-05-2.79648E-05-7.34505E-06 6.32722E-19 1.56664E-18
 -1      4208 9.68813E-05-3.11839E-05-2.81523E-05-8.48367E-06 4.06013E-19 4.05189E-19
 -1      4209 9.49414E-05-2.95528E-05-2.80435E-05-8.54644E-06 5.04632E-19 7.77291E-19
 -1      4210 9.52402E-05-2.85737E-05-2.85714E-05-7.03145E-11 7.51080E-19-1.93538E-18
 -1      4211 9.41245E-05-2.74627E-05-2.85628E-05-7.62467E-07 1.19856E-18 4.77831E-19
 -1      4212 9.38794E-05-2.73092E-05-2.85401E-05-1.02471E-06 8.97111E-19 1.07582E-19
 -1      4213 9.40959E-05-2.75595E-05-2.85162E-05-1.40890E-06 3.01124E-19 3.33053E-19
 -1      4214 9.38316E-05-2.80704E-05-2.82155E-05-5.55060E-06 8.39477E-19 5.89938E-19
 -1      4215 9.43396E-05-2.77037E-05-2.85591E-05-8.10166E-07 8.52417E-19 1.49471E-18
 -3
    1PSTEP                         4           1           1          
  100CL  101 1.000000000        4215                     0    1           1
 -4  ERROR       1    1
 -5  STR(%)      1    1    0    0
 -1         1 1.23970E+01
 -1         2 2.42272E+01
 -1         3 1.15820E-05
 -1         4 1.24097E-05
 -1         5 8.67745E+00
 -1         6 1.44052E+01
 -1         7 1.44052E+01
 -1         8 3.10602E+00
 -1         9 1.09851E+00
 -1        10 1.24591E+00
 -1        11 1.40991E+00
 -1        12 1.53162E+00
 -1        13 1.72009E+00
 -1        14 2.04562E+00
 -1        15 2.40399E+00
 -1        16 3.48601E+00
 -1        17 3.94618E+00
 -1        18 3.94618E+00
 -1        19 5.62637E+00
 -1        20 7.68913E+00
 -1        21 7.68913E+00
 -1        22 8.63850E+00
 -1        23 1.44052E+01
 -1        24 5.77799E+00
 -1        25 5.50839E+00
 -1        26 4.60704E+00
 -1        27 4.11262E+00
 -1        28 3.77049E+00
 -1        29 3.50966E+00
 -1        30 3.41603E+00
 -1        31 3.11305E+00
 -1        32 2.62936E+00
 -1        33 2.05089E+00
 -1        34 1.51928E+00
 -1        35 1.07096E+00
 -1        36 7.44111E-01
 -1        37 5.55368E-01
 -1        38 3.88217E-01
 -1        39 2.52990E-01
 -1        40 1.60707E-01
 -1        41 1.19180E-01
 -1        42 8.13827E-02
 -1        43 5.40036E-02
 -1        44 4.16781E-02
 -1        45 2.95514E-02
 -1        46 1.92151E-02
 -1        47 1.54360E-02
 -1        48 1.29038E-02
 -1        49 1.00605E-02
 -1        50 7.39542E-03
 -1        51 6.59232E-03
 -1        52 5.58047E-03
 -1        53 4.52297E-03
 -1        54 3.53750E-03
 -1        55 2.68039E-03
 -1        56 2.20151E-03
 -1        57 1.82001E-03
 -1        58 1.46367E-03
 -1        59 1.14882E-03
 -1        60 8.86985E-04
 -1        61 6.89618E-04
 -1        62 5.24382E-04
 -1        63 3.89461E-04
 -1        64 2.93039E-04
 -1        65 2.40971E-04
 -1        66 1.94810E-04
 -1        67 1.54767E-04
 -1        68 1.19877E-04
 -1        69 9.27661E-05
 -1        70 8.05574E-05
 -1        71 4.91302E-05
 -1        72 8.67745E+00
 -1        73 3.91859E+00
 -1        74 5.24543E+00
 -1        75 5.55256E+00
 -1        76 6.68674E+00
 -1        77 1.47726E+01
 -1        78 1.92444E+01
 -1        79 1.92444E+01
 -1        80 1.75467E+01
 -1        81 7.53825E+00
 -1        82 6.47397E+00
 -1        83 6.47397E+00
 -1        84 6.36451E+00
 -1        85 5.09748E+00
 -1        86 3.73296E+00
 -1        87 2.53699E+00
 -1        88 1.62987E+00
 -1        89 1.00416E+00
 -1        90 6.43863E-01
 -1        91 4.10636E-01
 -1        92 2.59147E-01
 -1        93 1.62783E-01
 -1        94 1.02121E-01
 -1        95 6.40729E-02
 -1        96 4.01878E-02
 -1        97 2.51371E-02
 -1        98 1.84910E-02
 -1        99 1.37711E-02
 -1       100 1.03119E-02
 -1       101 7.75070E-03
 -1       102 5.83433E-03
 -1       103 4.38678E-03
 -1       104 3.62852E-03
 -1       105 3.03022E-03
 -1       106 2.49721E-03
 -1       107 2.03139E-03
 -1       108 1.63110E-03
 -1       109 1.30478E-03
 -1       110 1.04578E-03
 -1       111 8.25799E-04
 -1       112 6.42279E-04
 -1       113 4.91594E-04
 -1       114 3.69574E-04
 -1       115 2.71874E-04
 -1       116 1.98073E-04
 -1       117 1.56608E-04
 -1       118 1.21017E-04
 -1       119 8.87954E-05
 -1       120 5.76226E-05
 -1       121 3.97937E-05
 -1       122 1.62366E-05
 -1       123 1.62366E-05
 -1       124 1.54096E-05
 -1       125 8.48104E-06
 -1       126 6.76728E-06
 -1       127 1.19269E-05
 -1       128 1.50613E-05
 -1       129 1.59841E-05
 -1       130 1.59841E-05
 -1       131 1.50357E-05
 -1       132 1.18067E-05
 -1       133 6.85070E-06
 -1       134 8.43792E-06
 -1       135 1.46128E-05
 -1       136 2.14135E-05
 -1       137 2.29329E-05
 -1       138 2.59514E+01
 -1       139 2.59514E+01
 -1       140 3.89373E+01
 -1       141 3.89373E+01
 -1       142 1.68382E+01
 -1       143 1.41995E+01
 -1       144 1.52575E+01
 -1       145 1.52575E+01
 -1       146 1.44456E+01
 -1       147 2.04880E+01
 -1       148 4.81352E+01
 -1       149 4.81352E+01
 -1       150 2.73456E+01
 -1       151 2.64944E+01
 -1       152 2.65834E+01
 -1       153 2.98147E+01
 -1       154 2.98147E+01
 -1       155 2.78353E+01
 -1       156 1.25121E+01
 -1       157 1.15953E+01
 -1       158 1.23970E+01
 -1       159 1.15783E+01
 -1       160 1.15783E+01
 -1       161 1.11267E+01
 -1       162 1.93240E+01
 -1       163 4.65004E+01
 -1       164 4.65004E+01
 -1       165 2.42162E+01
 -1       166 5.66707E+00
 -1       167 1.57722E+00
 -1       168 1.24591E+00
 -1       169 1.40991E+00
 -1       170 1.53162E+00
 -1       171 1.72009E+00
 -1       172 2.04562E+00
 -1       173 2.68075E+00
 -1       174 3.37408E+00
 -1       175 4.29918E+00
 -1       176 4.29918E+00
 -1       177 5.34583E+00
 -1       178 8.19246E+00
 -1       179 8.55191E+00
 -1       180 7.93682E+00
 -1       181 8.67745E+00
 -1       182 5.77799E+00
 -1       183 5.50839E+00
 -1       184 4.60704E+00
 -1       185 4.11262E+00
 -1       186 3.77049E+00
 -1       187 3.50966E+00
 -1       188 3.41603E+00
 -1       189 3.11305E+00
 -1       190 2.62936E+00
 -1       191 2.07216E+00
 -1       192 1.62086E+00
 -1       193 1.24418E+00
 -1       194 9.38626E-01
 -1       195 6.68321E-01
 -1       196 4.47026E-01
 -1       197 2.78011E-01
 -1       198 1.70686E-01
 -1       199 1.19180E-01
 -1       200 8.13827E-02
 -1       201 5.40036E-02
 -1       202 4.16781E-02
 -1       203 2.95514E-02
 -1       204 2.10040E-02
 -1       205 1.54360E-02
 -1       206 1.29038E-02
 -1       207 1.00605E-02
 -1       208 7.51574E-03
 -1       209 6.59232E-03
 -1       210 5.58047E-03
 -1       211 4.52297E-03
 -1       212 3.53750E-03
 -1       213 2.68039E-03
 -1       214 2.20151E-03
 -1       215 1.82001E-03
 -1       216 1.46367E-03
 -1       217 1.16603E-03
 -1       218 9.34764E-04
 -1       219 7.49612E-04
 -1       220 6.03355E-04
 -1       221 4.74265E-04
 -1       222 3.64034E-04
 -1       223 2.72284E-04
 -1       224 1.97494E-04
 -1       225 1.54767E-04
 -1       226 1.19877E-04
 -1       227 9.27661E-05
 -1       228 8.05574E-05
 -1       229 4.91302E-05
 -1       230 4.12278E+00
 -1       231 4.87215E+00
 -1       232 5.33479E+00
 -1       233 6.11748E+00
 -1       234 8.74041E+00
 -1       235 1.48862E+01
 -1       236 1.92444E+01
 -1       237 1.75467E+01
 -1       238 7.53825E+00
 -1       239 7.67970E+00
 -1       240 6.47397E+00
 -1       241 6.36451E+00
 -1       242 5.09748E+00
 -1       243 3.78699E+00
 -1       244 2.72709E+00
 -1       245 1.83660E+00
 -1       246 1.17661E+00
 -1       247 7.27988E-01
 -1       248 4.39951E-01
 -1       249 2.61516E-01
 -1       250 1.64648E-01
 -1       251 1.05537E-01
 -1       252 6.77063E-02
 -1       253 4.34823E-02
 -1       254 2.79194E-02
 -1       255 1.84910E-02
 -1       256 1.37711E-02
 -1       257 1.03464E-02
 -1       258 7.81064E-03
 -1       259 5.88318E-03
 -1       260 4.41393E-03
 -1       261 3.62852E-03
 -1       262 3.03022E-03
 -1       263 2.49721E-03
 -1       264 2.03139E-03
 -1       265 1.63110E-03
 -1       266 1.30478E-03
 -1       267 1.04578E-03
 -1       268 8.25799E-04
 -1       269 6.52059E-04
 -1       270 5.07736E-04
 -1       271 3.88522E-04
 -1       272 2.91409E-04
 -1       273 2.13171E-04
 -1       274 1.56608E-04
 -1       275 1.21017E-04
 -1       276 8.87954E-05
 -1       277 5.83461E-05
 -1       278 3.97937E-05
 -1       279 3.01403E-05
 -1       280 3.01403E-05
 -1       281 2.37822E-05
 -1       282 1.19115E-05
 -1       283 2.16747E-05
 -1       284 2.81010E-05
 -1       285 3.07320E-05
 -1       286 3.07320E-05
 -1       287 3.07124E-05
 -1       288 2.79200E-05
 -1       289 2.17340E-05
 -1       290 1.21988E-05
 -1       291 2.34835E-05
 -1       292 2.34835E-05
 -1       293 2.96172E-05
 -1       294 3.01147E+01
 -1       295 2.81838E+01
 -1       296 3.47744E+01
 -1       297 3.89373E+01
 -1       298 1.68382E+01
 -1       299 1.29688E+01
 -1       300 1.53854E+01
 -1       301 1.53854E+01
 -1       302 1.44456E+01
 -1       303 1.25480E+01
 -1       304 2.29153E+01
 -1       305 4.81352E+01
 -1       306 4.01288E+01
 -1       307 3.64476E+01
 -1       308 3.64476E+01
 -1       309 3.21211E+01
 -1       310 3.21211E+01
 -1       311 2.90035E+01
 -1       312 1.25121E+01
 -1       313 1.05433E+01
 -1       314 1.15953E+01
 -1       315 1.23970E+01
 -1       316 1.14803E+01
 -1       317 1.15783E+01
 -1       318 1.11267E+01
 -1       319 1.03580E+01
 -1       320 2.08721E+01
 -1       321 4.65004E+01
 -1       322 2.79967E+01
 -1       323 3.01147E+01
 -1       324 9.10471E-01
 -1       325 3.78770E+00
 -1       326 1.10076E+00
 -1       327 1.12345E+00
 -1       328 1.39845E+00
 -1       329 2.58987E+00
 -1       330 4.04611E+00
 -1       331 5.15856E+00
 -1       332 6.15776E+00
 -1       333 7.41740E+00
 -1       334 1.15336E+01
 -1       335 1.15336E+01
 -1       336 9.90367E+00
 -1       337 6.21993E+00
 -1       338 8.04884E+00
 -1       339 3.48602E+00
 -1       340 3.23485E+00
 -1       341 2.97101E+00
 -1       342 2.69888E+00
 -1       343 2.52923E+00
 -1       344 2.44942E+00
 -1       345 2.24831E+00
 -1       346 1.94143E+00
 -1       347 1.61186E+00
 -1       348 1.31252E+00
 -1       349 1.00330E+00
 -1       350 7.55146E-01
 -1       351 5.47922E-01
 -1       352 3.75347E-01
 -1       353 2.40842E-01
 -1       354 1.42447E-01
 -1       355 7.49466E-02
 -1       356 3.60265E-02
 -1       357 2.62288E-02
 -1       358 2.40891E-02
 -1       359 1.94832E-02
 -1       360 1.57888E-02
 -1       361 1.20386E-02
 -1       362 9.46918E-03
 -1       363 7.51574E-03
 -1       364 5.63640E-03
 -1       365 4.00616E-03
 -1       366 3.41991E-03
 -1       367 2.92110E-03
 -1       368 2.40330E-03
 -1       369 1.91642E-03
 -1       370 1.52561E-03
 -1       371 1.32751E-03
 -1       372 1.11686E-03
 -1       373 9.13843E-04
 -1       374 7.53358E-04
 -1       375 6.10097E-04
 -1       376 4.89498E-04
 -1       377 3.93046E-04
 -1       378 3.07811E-04
 -1       379 2.34852E-04
 -1       380 1.74050E-04
 -1       381 1.24688E-04
 -1       382 9.00767E-05
 -1       383 6.56286E-05
 -1       384 4.28104E-05
 -1       385 1.04299E+01
 -1       386 1.37209E+01
 -1       387 1.14734E+01
 -1       388 8.31083E+00
 -1       389 6.53218E+00
 -1       390 4.90120E+00
 -1       391 3.44030E+00
 -1       392 2.30286E+00
 -1       393 1.49060E+00
 -1       394 9.42587E-01
 -1       395 5.86592E-01
 -1       396 3.60821E-01
 -1       397 2.19838E-01
 -1       398 1.32694E-01
 -1       399 7.92041E-02
 -1       400 4.65428E-02
 -1       401 3.08422E-02
 -1       402 2.07998E-02
 -1       403 1.39659E-02
 -1       404 1.03464E-02
 -1       405 7.81064E-03
 -1       406 5.88318E-03
 -1       407 4.51140E-03
 -1       408 3.53554E-03
 -1       409 2.74491E-03
 -1       410 2.11062E-03
 -1       411 1.70278E-03
 -1       412 1.37036E-03
 -1       413 1.12993E-03
 -1       414 9.21812E-04
 -1       415 7.56435E-04
 -1       416 6.09650E-04
 -1       417 4.82634E-04
 -1       418 3.75027E-04
 -1       419 2.85487E-04
 -1       420 2.12197E-04
 -1       421 1.53212E-04
 -1       422 1.11653E-04
 -1       423 8.42632E-05
 -1       424 5.84805E-05
 -1       425 5.89119E-05
 -1       426 2.55196E-05
 -1       427 5.89119E-05
 -1       428 2.94973E-05
 -1       429 3.89320E-05
 -1       430 4.34420E-05
 -1       431 4.34420E-05
 -1       432 4.32581E-05
 -1       433 4.32581E-05
 -1       434 3.89155E-05
 -1       435 2.93244E-05
 -1       436 2.54836E-05
 -1       437 3.88131E-05
 -1       438 2.60871E+01
 -1       439 4.56104E+01
 -1       440 4.56104E+01
 -1       441 2.29829E+01
 -1       442 1.05181E+00
 -1       443 8.51644E+00
 -1       444 9.68795E+00
 -1       445 1.65195E+01
 -1       446 2.95432E+01
 -1       447 3.24408E+01
 -1       448 4.43133E+01
 -1       449 4.43133E+01
 -1       450 3.21211E+01
 -1       451 1.97324E+01
 -1       452 1.20582E+01
 -1       453 7.68942E+00
 -1       454 8.59986E+00
 -1       455 9.04023E+00
 -1       456 1.06696E+01
 -1       457 1.03061E+01
 -1       458 8.90357E+00
 -1       459 6.59061E+00
 -1       460 9.46969E+00
 -1       461 1.63243E+01
 -1       462 2.79967E+01
 -1       463 2.64839E+01
 -1       464 7.82584E+00
 -1       465 1.05445E+01
 -1       466 9.47947E+00
 -1       467 6.27205E+00
 -1       468 2.13023E+01
 -1       469 1.27236E+00
 -1       470 1.11672E+00
 -1       471 3.34663E+00
 -1       472 6.85009E+00
 -1       473 7.89696E+00
 -1       474 1.16522E+01
 -1       475 1.65108E+01
 -1       476 1.55093E+01
 -1       477 1.41529E+01
 -1       478 7.67349E+00
 -1       479 2.22591E+00
 -1       480 1.75433E+00
 -1       481 2.29864E+00
 -1       482 2.17779E+00
 -1       483 1.97700E+00
 -1       484 1.87574E+00
 -1       485 1.83545E+00
 -1       486 1.70784E+00
 -1       487 1.50657E+00
 -1       488 1.31488E+00
 -1       489 1.07157E+00
 -1       490 8.17867E-01
 -1       491 5.85828E-01
 -1       492 4.01698E-01
 -1       493 2.69478E-01
 -1       494 1.69143E-01
 -1       495 1.03265E-01
 -1       496 5.77325E-02
 -1       497 3.32802E-02
 -1       498 2.22142E-02
 -1       499 1.59191E-02
 -1       500 1.53113E-02
 -1       501 1.32060E-02
 -1       502 1.03408E-02
 -1       503 7.79709E-03
 -1       504 5.76756E-03
 -1       505 3.95514E-03
 -1       506 2.73667E-03
 -1       507 1.89849E-03
 -1       508 1.76441E-03
 -1       509 1.58093E-03
 -1       510 1.35918E-03
 -1       511 1.13037E-03
 -1       512 9.70339E-04
 -1       513 8.50636E-04
 -1       514 7.20872E-04
 -1       515 5.99703E-04
 -1       516 4.95038E-04
 -1       517 3.98237E-04
 -1       518 3.12476E-04
 -1       519 2.46238E-04
 -1       520 1.89955E-04
 -1       521 1.42387E-04
 -1       522 1.03339E-04
 -1       523 7.22022E-05
 -1       524 5.45623E+00
 -1       525 4.18632E+00
 -1       526 2.60685E+00
 -1       527 1.61551E+00
 -1       528 1.00418E+00
 -1       529 6.32516E-01
 -1       530 4.11257E-01
 -1       531 2.65692E-01
 -1       532 1.70528E-01
 -1       533 1.08699E-01
 -1       534 6.87372E-02
 -1       535 4.30199E-02
 -1       536 2.65299E-02
 -1       537 1.59958E-02
 -1       538 9.39955E-03
 -1       539 6.64882E-03
 -1       540 5.27232E-03
 -1       541 4.25570E-03
 -1       542 3.39297E-03
 -1       543 2.67542E-03
 -1       544 2.10015E-03
 -1       545 1.72201E-03
 -1       546 1.39011E-03
 -1       547 1.12993E-03
 -1       548 9.21812E-04
 -1       549 7.56985E-04
 -1       550 6.12462E-04
 -1       551 4.86578E-04
 -1       552 3.89882E-04
 -1       553 3.07495E-04
 -1       554 2.37228E-04
 -1       555 1.78645E-04
 -1       556 1.30514E-04
 -1       557 9.88327E-05
 -1       558 7.13864E-05
 -1       559 4.97514E-05
 -1       560 5.87253E-05
 -1       561 5.44501E-05
 -1       562 4.56104E+01
 -1       563 5.70148E-05
 -1       564 5.74596E-05
 -1       565 5.74596E-05
 -1       566 5.74201E-05
 -1       567 5.70710E-05
 -1       568 4.96024E-05
 -1       569 4.50808E-05
 -1       570 4.50808E-05
 -1       571 3.24408E+01
 -1       572 2.60871E+01
 -1       573 1.38796E+01
 -1       574 2.64839E+01
 -1       575 4.51206E+00
 -1       576 2.08264E+01
 -1       577 1.82038E+00
 -1       578 2.25636E+01
 -1       579 2.13023E+01
 -1       580 4.43133E+01
 -1       581 1.37295E+01
 -1       582 4.71039E+00
 -1       583 1.01607E+01
 -1       584 5.69752E+00
 -1       585 7.64338E+00
 -1       586 6.68397E+00
 -1       587 5.48714E+00
 -1       588 8.15082E+00
 -1       589 1.27131E+01
 -1       590 7.42094E+00
 -1       591 1.09742E+00
 -1       592 1.61877E+01
 -1       593 7.79965E+00
 -1       594 4.26343E-05
 -1       595 6.85009E+00
 -1       596 1.00860E+00
 -1       597 1.45346E+01
 -1       598 1.94636E+01
 -1       599 1.94454E+01
 -1       600 1.70102E+00
 -1       601 1.39070E+00
 -1       602 5.04457E+00
 -1       603 1.76548E+00
 -1       604 1.66930E+00
 -1       605 1.50948E+00
 -1       606 1.49395E+00
 -1       607 1.48409E+00
 -1       608 1.39628E+00
 -1       609 1.28423E+00
 -1       610 1.08344E+00
 -1       611 8.92944E-01
 -1       612 7.28577E-01
 -1       613 5.56328E-01
 -1       614 3.98777E-01
 -1       615 2.68434E-01
 -1       616 1.68978E-01
 -1       617 9.82475E-02
 -1       618 5.50372E-02
 -1       619 3.43929E-02
 -1       620 2.22142E-02
 -1       621 1.69853E-02
 -1       622 1.42716E-02
 -1       623 1.16307E-02
 -1       624 8.82162E-03
 -1       625 6.30927E-03
 -1       626 4.55246E-03
 -1       627 3.08788E-03
 -1       628 1.93278E-03
 -1       629 1.18236E-03
 -1       630 1.01081E-03
 -1       631 1.02673E-03
 -1       632 9.67350E-04
 -1       633 8.65564E-04
 -1       634 7.44856E-04
 -1       635 6.50396E-04
 -1       636 5.63266E-04
 -1       637 4.72720E-04
 -1       638 3.88981E-04
 -1       639 3.14695E-04
 -1       640 2.48098E-04
 -1       641 1.90425E-04
 -1       642 1.42985E-04
 -1       643 1.07303E-04
 -1       644 7.25107E-05
 -1       645 2.94241E+00
 -1       646 1.05557E-04
 -1       647 1.35280E+00
 -1       648 7.36702E-05
 -1       649 1.04048E-04
 -1       650 3.59357E+00
 -1       651 2.22281E+00
 -1       652 1.38030E+00
 -1       653 8.58135E-01
 -1       654 5.31066E-01
 -1       655 3.26096E-01
 -1       656 1.98185E-01
 -1       657 1.23587E-01
 -1       658 7.68255E-02
 -1       659 4.89166E-02
 -1       660 3.25914E-02
 -1       661 2.13908E-02
 -1       662 1.37707E-02
 -1       663 8.62861E-03
 -1       664 5.19069E-03
 -1       665 3.17553E-03
 -1       666 2.65798E-03
 -1       667 2.31054E-03
 -1       668 1.95504E-03
 -1       669 1.62039E-03
 -1       670 1.32008E-03
 -1       671 1.09831E-03
 -1       672 9.20814E-04
 -1       673 7.56933E-04
 -1       674 6.11131E-04
 -1       675 4.84873E-04
 -1       676 3.90516E-04
 -1       677 3.07937E-04
 -1       678 2.37413E-04
 -1       679 1.81440E-04
 -1       680 1.49793E-04
 -1       681 1.35075E-04
 -1       682 8.34211E-05
 -1       683 3.65610E+00
 -1       684 9.10628E-05
 -1       685 7.49076E-05
 -1       686 7.49076E-05
 -1       687 7.24333E-05
 -1       688 5.84284E-05
 -1       689 3.34149E+00
 -1       690 4.63383E-05
 -1       691 8.91845E+00
 -1       692 5.31162E+00
 -1       693 5.23745E+00
 -1       694 1.10032E+01
 -1       695 4.65896E+00
 -1       696 8.27903E+00
 -1       697 5.05780E+00
 -1       698 1.49703E+00
 -1       699 4.00803E+00
 -1       700 3.78183E+00
 -1       701 2.44030E+00
 -1       702 6.01093E+00
 -1       703 2.67742E+00
 -1       704 5.79030E-05
 -1       705 9.11293E+00
 -1       706 2.24765E+00
 -1       707 1.54432E+00
 -1       708 4.24807E+00
 -1       709 1.45815E+00
 -1       710 1.40626E+00
 -1       711 1.42503E+00
 -1       712 1.48412E+00
 -1       713 1.35815E+00
 -1       714 1.27574E+00
 -1       715 1.17726E+00
 -1       716 1.03457E+00
 -1       717 8.77880E-01
 -1       718 6.89476E-01
 -1       719 5.05710E-01
 -1       720 3.47885E-01
 -1       721 2.24274E-01
 -1       722 1.34400E-01
 -1       723 8.76462E-02
 -1       724 5.50372E-02
 -1       725 3.43929E-02
 -1       726 2.26072E-02
 -1       727 1.69853E-02
 -1       728 1.33231E-02
 -1       729 9.93150E-03
 -1       730 7.05762E-03
 -1       731 5.07822E-03
 -1       732 3.53993E-03
 -1       733 2.29335E-03
 -1       734 1.38024E-03
 -1       735 7.04819E-04
 -1       736 5.55463E-04
 -1       737 6.74642E-04
 -1       738 7.03359E-04
 -1       739 6.73962E-04
 -1       740 6.10814E-04
 -1       741 5.35121E-04
 -1       742 4.79189E-04
 -1       743 4.13033E-04
 -1       744 3.44990E-04
 -1       745 2.80190E-04
 -1       746 2.21459E-04
 -1       747 1.70116E-04
 -1       748 1.26257E-04
 -1       749 8.94451E-05
 -1       750 9.02005E-05
 -1       751 3.36119E+00
 -1       752 8.81613E-01
 -1       753 5.79621E-01
 -1       754 3.79088E-01
 -1       755 2.45947E-01
 -1       756 1.58153E-01
 -1       757 1.00712E-01
 -1       758 6.36008E-02
 -1       759 4.10118E-02
 -1       760 2.63125E-02
 -1       761 1.65808E-02
 -1       762 1.01917E-02
 -1       763 6.70106E-03
 -1       764 4.30573E-03
 -1       765 2.62813E-03
 -1       766 1.58510E-03
 -1       767 1.42398E-03
 -1       768 1.32849E-03
 -1       769 1.18490E-03
 -1       770 1.02375E-03
 -1       771 8.62919E-04
 -1       772 7.32323E-04
 -1       773 6.26831E-04
 -1       774 5.23675E-04
 -1       775 4.28149E-04
 -1       776 3.42923E-04
 -1       777 2.68963E-04
 -1       778 2.06278E-04
 -1       779 1.54792E-04
 -1       780 9.46381E-05
 -1       781 2.35564E+00
 -1       782 9.32991E+00
 -1       783 8.63943E-05
 -1       784 3.04165E+00
 -1       785 1.34046E+00
 -1       786 9.28862E-05
 -1       787 1.21391E+00
 -1       788 9.28862E-05
 -1       789 3.34441E+00
 -1       790 6.98346E+00
 -1       791 1.35075E-04
 -1       792 4.91707E+00
 -1       793 1.13581E+01
 -1       794 3.26433E+00
 -1       795 2.91824E+00
 -1       796 2.60993E+00
 -1       797 9.46139E-05
 -1       798 1.49793E-04
 -1       799 9.46381E-05
 -1       800 4.04704E+00
 -1       801 1.54432E+00
 -1       802 5.04457E+00
 -1       803 2.59746E+00
 -1       804 7.97113E-05
 -1       805 2.59746E+00
 -1       806 5.45373E+00
 -1       807 1.54432E+00
 -1       808 1.66278E+00
 -1       809 1.61156E+00
 -1       810 3.19632E+00
 -1       811 2.50243E+00
 -1       812 1.38203E+00
 -1       813 1.34382E+00
 -1       814 1.17726E+00
 -1       815 1.01726E+00
 -1       816 7.97285E-01
 -1       817 5.77912E-01
 -1       818 4.04756E-01
 -1       819 2.95054E-01
 -1       820 2.04034E-01
 -1       821 1.33236E-01
 -1       822 8.20240E-02
 -1       823 4.74425E-02
 -1       824 3.20620E-02
 -1       825 2.34050E-02
 -1       826 1.65769E-02
 -1       827 1.17924E-02
 -1       828 8.91143E-03
 -1       829 6.91422E-03
 -1       830 5.03536E-03
 -1       831 3.43784E-03
 -1       832 2.20274E-03
 -1       833 1.33936E-03
 -1       834 8.32829E-04
 -1       835 5.07364E-04
 -1       836 4.68188E-04
 -1       837 5.32919E-04
 -1       838 5.37350E-04
 -1       839 5.04418E-04
 -1       840 4.50810E-04
 -1       841 4.06248E-04
 -1       842 3.53615E-04
 -1       843 2.98059E-04
 -1       844 2.44219E-04
 -1       845 1.94658E-04
 -1       846 1.50519E-04
 -1       847 2.49447E-01
 -1       848 4.01549E-01
 -1       849 6.35387E-01
 -1       850 1.52529E-01
 -1       851 1.04590E-01
 -1       852 7.13500E-02
 -1       853 4.79259E-02
 -1       854 3.17517E-02
 -1       855 2.12341E-02
 -1       856 1.41465E-02
 -1       857 9.23987E-03
 -1       858 5.86105E-03
 -1       859 3.56408E-03
 -1       860 2.02602E-03
 -1       861 1.20849E-03
 -1       862 7.97023E-04
 -1       863 8.55382E-04
 -1       864 8.36269E-04
 -1       865 7.70593E-04
 -1       866 6.82009E-04
 -1       867 5.85488E-04
 -1       868 5.04401E-04
 -1       869 4.32899E-04
 -1       870 3.61828E-04
 -1       871 2.95301E-04
 -1       872 2.35419E-04
 -1       873 1.83679E-04
 -1       874 1.47485E+00
 -1       875 1.10246E-04
 -1       876 1.18892E-04
 -1       877 2.33128E+00
 -1       878 3.03138E+00
 -1       879 4.88398E+00
 -1       880 9.83599E-01
 -1       881 3.41919E+00
 -1       882 2.32017E+00
 -1       883 2.53702E+00
 -1       884 4.73982E+00
 -1       885 2.59150E+00
 -1       886 3.76034E+00
 -1       887 1.10253E-04
 -1       888 1.29129E-04
 -1       889 1.10246E-04
 -1       890 1.43653E-04
 -1       891 3.19632E+00
 -1       892 5.72876E+00
 -1       893 1.43653E-04
 -1       894 1.98730E+00
 -1       895 2.36913E+00
 -1       896 3.25164E+00
 -1       897 1.60610E+00
 -1       898 1.87969E+00
 -1       899 1.28103E+00
 -1       900 9.81644E-01
 -1       901 7.43157E-01
 -1       902 6.09642E-01
 -1       903 4.56412E-01
 -1       904 3.23093E-01
 -1       905 2.17830E-01
 -1       906 1.46188E-01
 -1       907 1.00383E-01
 -1       908 6.70634E-02
 -1       909 4.42340E-02
 -1       910 2.83044E-02
 -1       911 1.77567E-02
 -1       912 1.31246E-02
 -1       913 9.42157E-03
 -1       914 6.55512E-03
 -1       915 4.42506E-03
 -1       916 2.89908E-03
 -1       917 1.82520E-03
 -1       918 1.26321E-03
 -1       919 8.32829E-04
 -1       920 5.64167E-04
 -1       921 4.33263E-04
 -1       922 4.24334E-04
 -1       923 4.37419E-04
 -1       924 4.16813E-04
 -1       925 3.85788E-04
 -1       926 3.45975E-04
 -1       927 2.99438E-04
 -1       928 2.51594E-04
 -1       929 2.04877E-04
 -1       930 1.60193E-04
 -1       931 2.84746E-01
 -1       932 1.23745E-01
 -1       933 1.94599E+00
 -1       934 1.89734E-01
 -1       935 4.30887E-01
 -1       936 7.94572E-02
 -1       937 5.01987E-02
 -1       938 3.13999E-02
 -1       939 2.23989E-02
 -1       940 1.56045E-02
 -1       941 1.08367E-02
 -1       942 7.45332E-03
 -1       943 4.98102E-03
 -1       944 3.20584E-03
 -1       945 1.95760E-03
 -1       946 1.09965E-03
 -1       947 5.25797E-04
 -1       948 5.23835E-04
 -1       949 5.73959E-04
 -1       950 5.66181E-04
 -1       951 5.24816E-04
 -1       952 4.66133E-04
 -1       953 4.00765E-04
 -1       954 3.44388E-04
 -1       955 2.92202E-04
 -1       956 2.41389E-04
 -1       957 2.09987E-04
 -1       958 3.62897E+00
 -1       959 1.72073E+00
 -1       960 7.35806E-01
 -1       961 1.25334E+00
 -1       962 1.98730E+00
 -1       963 2.92867E+00
 -1       964 1.29129E-04
 -1       965 3.80346E+00
 -1       966 1.66278E+00
 -1       967 1.92448E+00
 -1       968 2.93439E+00
 -1       969 2.42117E+00
 -1       970 2.19248E-04
 -1       971 1.91938E-04
 -1       972 1.67454E-04
 -1       973 1.72073E+00
 -1       974 8.68011E-02
 -1       975 1.79728E+00
 -1       976 1.30950E+00
 -1       977 9.87797E-01
 -1       978 7.51903E-01
 -1       979 6.09642E-01
 -1       980 4.56412E-01
 -1       981 3.23093E-01
 -1       982 2.17830E-01
 -1       983 1.43234E-01
 -1       984 8.99788E-02
 -1       985 5.43077E-02
 -1       986 3.75667E-02
 -1       987 2.54454E-02
 -1       988 1.69354E-02
 -1       989 1.10785E-02
 -1       990 7.10206E-03
 -1       991 5.02315E-03
 -1       992 3.64441E-03
 -1       993 2.60463E-03
 -1       994 1.80847E-03
 -1       995 1.19451E-03
 -1       996 7.38163E-04
 -1       997 5.64167E-04
 -1       998 4.33263E-04
 -1       999 4.08640E-04
 -1      1000 4.10660E-04
 -1      1001 3.85788E-04
 -1      1002 3.45975E-04
 -1      1003 2.99438E-04
 -1      1004 2.51594E-04
 -1      1005 2.04877E-04
 -1      1006 1.85322E-04
 -1      1007 3.55191E-01
 -1      1008 3.98069E-02
 -1      1009 2.64885E-02
 -1      1010 1.74215E-02
 -1      1011 1.13860E-02
 -1      1012 7.62992E-03
 -1      1013 5.46196E-03
 -1      1014 3.82666E-03
 -1      1015 2.57830E-03
 -1      1016 1.65636E-03
 -1      1017 9.95873E-04
 -1      1018 5.37196E-04
 -1      1019 3.16828E-04
 -1      1020 3.84200E-04
 -1      1021 4.05568E-04
 -1      1022 3.91713E-04
 -1      1023 3.57755E-04
 -1      1024 3.13930E-04
 -1      1025 2.66862E-04
 -1      1026 2.22531E-04
 -1      1027 2.19248E-04
 -1      1028 2.91640E+00
 -1      1029 5.64808E-01
 -1      1030 5.90248E-02
 -1      1031 2.67936E+00
 -1      1032 2.18428E-01
 -1      1033 8.97417E-01
 -1      1034 1.25334E+00
 -1      1035 1.66842E-01
 -1      1036 1.61955E-04
 -1      1037 2.19248E-04
 -1      1038 1.85322E-04
 -1      1039 1.30477E+00
 -1      1040 7.51903E-01
 -1      1041 5.89384E-01
 -1      1042 4.00118E-01
 -1      1043 2.83431E-01
 -1      1044 1.85237E-01
 -1      1045 9.57056E-02
 -1      1046 8.21578E-02
 -1      1047 5.15946E-02
 -1      1048 3.17941E-02
 -1      1049 2.01246E-02
 -1      1050 1.41495E-02
 -1      1051 9.77914E-03
 -1      1052 7.10206E-03
 -1      1053 5.02315E-03
 -1      1054 3.53206E-03
 -1      1055 2.43220E-03
 -1      1056 1.61174E-03
 -1      1057 1.01390E-03
 -1      1058 5.89015E-04
 -1      1059 3.74648E-04
 -1      1060 2.38247E-04
 -1      1061 2.56079E-04
 -1      1062 2.58440E-04
 -1      1063 2.54553E-04
 -1      1064 2.36470E-04
 -1      1065 2.10848E-04
 -1      1066 1.86288E-04
 -1      1067 2.01246E-02
 -1      1068 3.17941E-02
 -1      1069 9.77914E-03
 -1      1070 6.63026E-03
 -1      1071 4.55574E-03
 -1      1072 3.06816E-03
 -1      1073 2.00597E-03
 -1      1074 1.25695E-03
 -1      1075 7.41909E-04
 -1      1076 4.21715E-04
 -1      1077 2.46303E-04
 -1      1078 2.69061E-04
 -1      1079 2.79122E-04
 -1      1080 2.79028E-04
 -1      1081 2.60417E-04
 -1      1082 2.36470E-04
 -1      1083 2.10517E-04
 -1      1084 1.89971E-04
 -1      1085 3.98836E-01
 -1      1086 1.38299E+00
 -1      1087 2.05380E+00
 -1      1088 1.41495E-02
 -1      1089 5.64808E-01
 -1      1090 2.83431E-01
 -1      1091 8.21578E-02
 -1      1092 9.57056E-02
 -1      1093 5.15946E-02
 -1      1094 1.14758E+00
 -1      1095 1.85237E-01
 -1      1096 1.44052E+01
 -1      1097 8.75562E+00
 -1      1098 2.10227E+00
 -1      1099 1.17221E+00
 -1      1100 1.32791E+00
 -1      1101 1.47077E+00
 -1      1102 1.62585E+00
 -1      1103 1.88286E+00
 -1      1104 2.22481E+00
 -1      1105 2.94500E+00
 -1      1106 3.71610E+00
 -1      1107 3.94618E+00
 -1      1108 4.78627E+00
 -1      1109 6.65775E+00
 -1      1110 7.68913E+00
 -1      1111 8.16381E+00
 -1      1112 8.65797E+00
 -1      1113 1.44052E+01
 -1      1114 1.00916E+01
 -1      1115 5.64319E+00
 -1      1116 5.05771E+00
 -1      1117 4.35983E+00
 -1      1118 3.94156E+00
 -1      1119 3.64008E+00
 -1      1120 3.46284E+00
 -1      1121 3.26454E+00
 -1      1122 2.87121E+00
 -1      1123 2.34013E+00
 -1      1124 1.78508E+00
 -1      1125 1.29512E+00
 -1      1126 9.07536E-01
 -1      1127 6.49740E-01
 -1      1128 4.71792E-01
 -1      1129 3.20603E-01
 -1      1130 2.06849E-01
 -1      1131 1.39944E-01
 -1      1132 1.00281E-01
 -1      1133 6.76932E-02
 -1      1134 4.78408E-02
 -1      1135 3.56147E-02
 -1      1136 2.43833E-02
 -1      1137 1.73256E-02
 -1      1138 1.41699E-02
 -1      1139 1.14822E-02
 -1      1140 8.72798E-03
 -1      1141 6.99387E-03
 -1      1142 6.08640E-03
 -1      1143 5.05172E-03
 -1      1144 4.03024E-03
 -1      1145 3.10894E-03
 -1      1146 2.44095E-03
 -1      1147 2.01076E-03
 -1      1148 1.64184E-03
 -1      1149 1.30624E-03
 -1      1150 1.01790E-03
 -1      1151 7.88302E-04
 -1      1152 6.07000E-04
 -1      1153 4.56922E-04
 -1      1154 3.41250E-04
 -1      1155 2.67005E-04
 -1      1156 2.17891E-04
 -1      1157 1.74789E-04
 -1      1158 1.37322E-04
 -1      1159 1.06322E-04
 -1      1160 8.66617E-05
 -1      1161 6.48438E-05
 -1      1162 3.07699E-05
 -1      1163 8.67745E+00
 -1      1164 6.29802E+00
 -1      1165 4.58201E+00
 -1      1166 5.39899E+00
 -1      1167 6.11965E+00
 -1      1168 1.07297E+01
 -1      1169 1.70085E+01
 -1      1170 1.92444E+01
 -1      1171 1.83955E+01
 -1      1172 1.25425E+01
 -1      1173 7.00611E+00
 -1      1174 6.47397E+00
 -1      1175 6.41924E+00
 -1      1176 5.73099E+00
 -1      1177 4.41522E+00
 -1      1178 3.13498E+00
 -1      1179 2.08343E+00
 -1      1180 1.31701E+00
 -1      1181 8.24009E-01
 -1      1182 5.27250E-01
 -1      1183 3.34891E-01
 -1      1184 2.10965E-01
 -1      1185 1.32452E-01
 -1      1186 8.30972E-02
 -1      1187 5.21304E-02
 -1      1188 3.26624E-02
 -1      1189 2.18140E-02
 -1      1190 1.61311E-02
 -1      1191 1.20415E-02
 -1      1192 9.03129E-03
 -1      1193 6.79252E-03
 -1      1194 5.11056E-03
 -1      1195 4.00765E-03
 -1      1196 3.32937E-03
 -1      1197 2.76372E-03
 -1      1198 2.26430E-03
 -1      1199 1.83124E-03
 -1      1200 1.46794E-03
 -1      1201 1.17528E-03
 -1      1202 9.35790E-04
 -1      1203 7.34039E-04
 -1      1204 5.66936E-04
 -1      1205 4.30584E-04
 -1      1206 3.20724E-04
 -1      1207 2.34973E-04
 -1      1208 1.77341E-04
 -1      1209 1.38813E-04
 -1      1210 1.04906E-04
 -1      1211 7.32090E-05
 -1      1212 4.87081E-05
 -1      1213 2.56878E-05
 -1      1214 1.39093E-05
 -1      1215 1.62366E-05
 -1      1216 1.58231E-05
 -1      1217 1.19453E-05
 -1      1218 7.62416E-06
 -1      1219 9.34710E-06
 -1      1220 1.34941E-05
 -1      1221 1.55227E-05
 -1      1222 1.59841E-05
 -1      1223 1.55099E-05
 -1      1224 1.34212E-05
 -1      1225 9.32870E-06
 -1      1226 7.64431E-06
 -1      1227 1.15254E-05
 -1      1228 1.80132E-05
 -1      1229 2.21732E-05
 -1      1230 1.76713E-05
 -1      1231 2.50893E+01
 -1      1232 2.59514E+01
 -1      1233 3.24443E+01
 -1      1234 3.89373E+01
 -1      1235 2.78877E+01
 -1      1236 1.55188E+01
 -1      1237 1.47285E+01
 -1      1238 1.52575E+01
 -1      1239 1.48515E+01
 -1      1240 1.74668E+01
 -1      1241 3.43116E+01
 -1      1242 4.81352E+01
 -1      1243 3.77404E+01
 -1      1244 2.69200E+01
 -1      1245 2.65389E+01
 -1      1246 2.81991E+01
 -1      1247 2.98147E+01
 -1      1248 2.88250E+01
 -1      1249 2.01737E+01
 -1      1250 1.20537E+01
 -1      1251 1.19961E+01
 -1      1252 1.23970E+01
 -1      1253 1.19877E+01
 -1      1254 1.15783E+01
 -1      1255 1.13525E+01
 -1      1256 1.52253E+01
 -1      1257 3.29122E+01
 -1      1258 4.65004E+01
 -1      1259 3.53583E+01
 -1      1260 2.42217E+01
 -1      1261 1.44052E+01
 -1      1262 4.38654E+00
 -1      1263 1.00361E+01
 -1      1264 1.33787E+00
 -1      1265 2.34162E+00
 -1      1266 3.62214E+00
 -1      1267 1.24591E+00
 -1      1268 1.17221E+00
 -1      1269 1.41156E+00
 -1      1270 1.40991E+00
 -1      1271 1.32791E+00
 -1      1272 1.32791E+00
 -1      1273 1.53162E+00
 -1      1274 1.47077E+00
 -1      1275 1.47077E+00
 -1      1276 1.72009E+00
 -1      1277 1.62585E+00
 -1      1278 1.62585E+00
 -1      1279 2.04562E+00
 -1      1280 1.88286E+00
 -1      1281 1.88286E+00
 -1      1282 2.54237E+00
 -1      1283 2.36319E+00
 -1      1284 2.36319E+00
 -1      1285 3.43005E+00
 -1      1286 2.88904E+00
 -1      1287 3.02742E+00
 -1      1288 4.12268E+00
 -1      1289 3.89260E+00
 -1      1290 3.83663E+00
 -1      1291 4.12268E+00
 -1      1292 4.12268E+00
 -1      1293 4.29918E+00
 -1      1294 5.48610E+00
 -1      1295 4.64600E+00
 -1      1296 4.82250E+00
 -1      1297 7.94079E+00
 -1      1298 6.90941E+00
 -1      1299 6.76914E+00
 -1      1300 8.12052E+00
 -1      1301 8.12052E+00
 -1      1302 8.37218E+00
 -1      1303 8.28766E+00
 -1      1304 7.81297E+00
 -1      1305 8.24436E+00
 -1      1306 8.67745E+00
 -1      1307 8.65797E+00
 -1      1308 8.30713E+00
 -1      1309 8.67745E+00
 -1      1310 1.00916E+01
 -1      1311 5.77799E+00
 -1      1312 5.64319E+00
 -1      1313 5.50839E+00
 -1      1314 5.64319E+00
 -1      1315 5.05771E+00
 -1      1316 4.60704E+00
 -1      1317 5.05771E+00
 -1      1318 4.35983E+00
 -1      1319 4.11262E+00
 -1      1320 4.35983E+00
 -1      1321 3.94156E+00
 -1      1322 3.77049E+00
 -1      1323 3.94156E+00
 -1      1324 3.64008E+00
 -1      1325 3.50966E+00
 -1      1326 3.64008E+00
 -1      1327 3.46284E+00
 -1      1328 3.41603E+00
 -1      1329 3.46284E+00
 -1      1330 3.26454E+00
 -1      1331 3.11305E+00
 -1      1332 3.26454E+00
 -1      1333 2.87121E+00
 -1      1334 2.62936E+00
 -1      1335 2.87121E+00
 -1      1336 2.35076E+00
 -1      1337 2.06152E+00
 -1      1338 2.35076E+00
 -1      1339 1.83588E+00
 -1      1340 1.57007E+00
 -1      1341 1.84651E+00
 -1      1342 1.38173E+00
 -1      1343 1.15757E+00
 -1      1344 1.43252E+00
 -1      1345 1.00479E+00
 -1      1346 8.41369E-01
 -1      1347 1.09140E+00
 -1      1348 7.06216E-01
 -1      1349 6.11844E-01
 -1      1350 8.03474E-01
 -1      1351 5.01197E-01
 -1      1352 4.17621E-01
 -1      1353 5.57674E-01
 -1      1354 3.33114E-01
 -1      1355 2.65501E-01
 -1      1356 3.62518E-01
 -1      1357 2.11838E-01
 -1      1358 1.65697E-01
 -1      1359 2.24349E-01
 -1      1360 1.39944E-01
 -1      1361 1.19180E-01
 -1      1362 1.44933E-01
 -1      1363 1.00281E-01
 -1      1364 8.13827E-02
 -1      1365 1.00281E-01
 -1      1366 6.76932E-02
 -1      1367 5.40036E-02
 -1      1368 6.76932E-02
 -1      1369 4.78408E-02
 -1      1370 4.16781E-02
 -1      1371 4.78408E-02
 -1      1372 3.56147E-02
 -1      1373 2.95514E-02
 -1      1374 3.56147E-02
 -1      1375 2.52777E-02
 -1      1376 2.01096E-02
 -1      1377 2.52777E-02
 -1      1378 1.73256E-02
 -1      1379 1.54360E-02
 -1      1380 1.82200E-02
 -1      1381 1.41699E-02
 -1      1382 1.29038E-02
 -1      1383 1.41699E-02
 -1      1384 1.14822E-02
 -1      1385 1.00605E-02
 -1      1386 1.14822E-02
 -1      1387 8.78814E-03
 -1      1388 7.45558E-03
 -1      1389 8.78814E-03
 -1      1390 6.99387E-03
 -1      1391 6.59232E-03
 -1      1392 7.05403E-03
 -1      1393 6.08640E-03
 -1      1394 5.58047E-03
 -1      1395 6.08640E-03
 -1      1396 5.05172E-03
 -1      1397 4.52297E-03
 -1      1398 5.05172E-03
 -1      1399 4.03024E-03
 -1      1400 3.53750E-03
 -1      1401 4.03024E-03
 -1      1402 3.10894E-03
 -1      1403 2.68039E-03
 -1      1404 3.10894E-03
 -1      1405 2.44095E-03
 -1      1406 2.20151E-03
 -1      1407 2.44095E-03
 -1      1408 2.01076E-03
 -1      1409 1.82001E-03
 -1      1410 2.01076E-03
 -1      1411 1.64184E-03
 -1      1412 1.46367E-03
 -1      1413 1.64184E-03
 -1      1414 1.31485E-03
 -1      1415 1.15742E-03
 -1      1416 1.31485E-03
 -1      1417 1.04179E-03
 -1      1418 9.10874E-04
 -1      1419 1.05040E-03
 -1      1420 8.18298E-04
 -1      1421 7.19615E-04
 -1      1422 8.42188E-04
 -1      1423 6.46487E-04
 -1      1424 5.63869E-04
 -1      1425 6.76483E-04
 -1      1426 4.99324E-04
 -1      1427 4.31863E-04
 -1      1428 5.38810E-04
 -1      1429 3.76748E-04
 -1      1430 3.28537E-04
 -1      1431 4.19150E-04
 -1      1432 2.82662E-04
 -1      1433 2.56628E-04
 -1      1434 3.18159E-04
 -1      1435 2.19233E-04
 -1      1436 1.96152E-04
 -1      1437 2.34889E-04
 -1      1438 1.74789E-04
 -1      1439 1.54767E-04
 -1      1440 1.76131E-04
 -1      1441 1.37322E-04
 -1      1442 1.19877E-04
 -1      1443 1.37322E-04
 -1      1444 1.06322E-04
 -1      1445 9.27661E-05
 -1      1446 1.06322E-04
 -1      1447 8.66617E-05
 -1      1448 8.05574E-05
 -1      1449 8.66617E-05
 -1      1450 6.48438E-05
 -1      1451 4.91302E-05
 -1      1452 6.48438E-05
 -1      1453 3.60316E-05
 -1      1454 3.60316E-05
 -1      1455 4.02068E+00
 -1      1456 6.40011E+00
 -1      1457 6.40011E+00
 -1      1458 5.05879E+00
 -1      1459 4.39537E+00
 -1      1460 4.49747E+00
 -1      1461 5.44367E+00
 -1      1462 5.29011E+00
 -1      1463 5.10347E+00
 -1      1464 6.40211E+00
 -1      1465 5.83502E+00
 -1      1466 5.72614E+00
 -1      1467 1.17565E+01
 -1      1468 7.71357E+00
 -1      1469 7.42894E+00
 -1      1470 1.70653E+01
 -1      1471 1.48294E+01
 -1      1472 1.18133E+01
 -1      1473 1.92444E+01
 -1      1474 1.92444E+01
 -1      1475 1.70653E+01
 -1      1476 1.75467E+01
 -1      1477 1.83955E+01
 -1      1478 1.83955E+01
 -1      1479 7.53825E+00
 -1      1480 1.25425E+01
 -1      1481 1.25425E+01
 -1      1482 7.07684E+00
 -1      1483 7.60898E+00
 -1      1484 7.60898E+00
 -1      1485 6.47397E+00
 -1      1486 6.47397E+00
 -1      1487 7.07684E+00
 -1      1488 6.36451E+00
 -1      1489 6.41924E+00
 -1      1490 6.41924E+00
 -1      1491 5.09748E+00
 -1      1492 5.73099E+00
 -1      1493 5.73099E+00
 -1      1494 3.75998E+00
 -1      1495 4.44224E+00
 -1      1496 4.44224E+00
 -1      1497 2.63204E+00
 -1      1498 3.23002E+00
 -1      1499 3.25704E+00
 -1      1500 1.73324E+00
 -1      1501 2.18680E+00
 -1      1502 2.28184E+00
 -1      1503 1.09038E+00
 -1      1504 1.40324E+00
 -1      1505 1.50661E+00
 -1      1506 6.85925E-01
 -1      1507 8.66072E-01
 -1      1508 9.52301E-01
 -1      1509 4.25293E-01
 -1      1510 5.41907E-01
 -1      1511 5.83969E-01
 -1      1512 2.60331E-01
 -1      1513 3.36076E-01
 -1      1514 3.50733E-01
 -1      1515 1.63715E-01
 -1      1516 2.11897E-01
 -1      1517 2.13082E-01
 -1      1518 1.03829E-01
 -1      1519 1.34160E-01
 -1      1520 1.35092E-01
 -1      1521 6.58896E-02
 -1      1522 8.49138E-02
 -1      1523 8.66215E-02
 -1      1524 4.18351E-02
 -1      1525 5.37776E-02
 -1      1526 5.55943E-02
 -1      1527 2.65282E-02
 -1      1528 3.40536E-02
 -1      1529 3.57008E-02
 -1      1530 1.84910E-02
 -1      1531 2.18140E-02
 -1      1532 2.32052E-02
 -1      1533 1.37711E-02
 -1      1534 1.61311E-02
 -1      1535 1.61311E-02
 -1      1536 1.03291E-02
 -1      1537 1.20588E-02
 -1      1538 1.20588E-02
 -1      1539 7.78067E-03
 -1      1540 9.06125E-03
 -1      1541 9.07853E-03
 -1      1542 5.85876E-03
 -1      1543 6.81694E-03
 -1      1544 6.84691E-03
 -1      1545 4.40036E-03
 -1      1546 5.12413E-03
 -1      1547 5.14856E-03
 -1      1548 3.62852E-03
 -1      1549 4.00765E-03
 -1      1550 4.02122E-03
 -1      1551 3.03022E-03
 -1      1552 3.32937E-03
 -1      1553 3.32937E-03
 -1      1554 2.49721E-03
 -1      1555 2.76372E-03
 -1      1556 2.76372E-03
 -1      1557 2.03139E-03
 -1      1558 2.26430E-03
 -1      1559 2.26430E-03
 -1      1560 1.63110E-03
 -1      1561 1.83124E-03
 -1      1562 1.83124E-03
 -1      1563 1.30478E-03
 -1      1564 1.46794E-03
 -1      1565 1.46794E-03
 -1      1566 1.04578E-03
 -1      1567 1.17528E-03
 -1      1568 1.17528E-03
 -1      1569 8.25799E-04
 -1      1570 9.35790E-04
 -1      1571 9.35790E-04
 -1      1572 6.47169E-04
 -1      1573 7.38929E-04
 -1      1574 7.38929E-04
 -1      1575 4.99665E-04
 -1      1576 5.75007E-04
 -1      1577 5.79897E-04
 -1      1578 3.79048E-04
 -1      1579 4.40058E-04
 -1      1580 4.48129E-04
 -1      1581 2.81641E-04
 -1      1582 3.30491E-04
 -1      1583 3.39965E-04
 -1      1584 2.05622E-04
 -1      1585 2.42522E-04
 -1      1586 2.52290E-04
 -1      1587 1.56608E-04
 -1      1588 1.77341E-04
 -1      1589 1.84890E-04
 -1      1590 1.21017E-04
 -1      1591 1.38813E-04
 -1      1592 1.38813E-04
 -1      1593 8.87954E-05
 -1      1594 1.04906E-04
 -1      1595 1.04906E-04
 -1      1596 5.79844E-05
 -1      1597 7.35708E-05
 -1      1598 7.35708E-05
 -1      1599 3.97937E-05
 -1      1600 4.87081E-05
 -1      1601 4.90699E-05
 -1      1602 2.80152E-05
 -1      1603 2.31885E-05
 -1      1604 2.31885E-05
 -1      1605 2.27750E-05
 -1      1606 2.31885E-05
 -1      1607 3.01403E-05
 -1      1608 1.61316E-05
 -1      1609 1.95959E-05
 -1      1610 2.69612E-05
 -1      1611 9.33938E-06
 -1      1612 1.01963E-05
 -1      1613 1.78468E-05
 -1      1614 1.68008E-05
 -1      1615 1.42210E-05
 -1      1616 1.67931E-05
 -1      1617 2.15811E-05
 -1      1618 2.00139E-05
 -1      1619 2.48878E-05
 -1      1620 2.33581E-05
 -1      1621 2.28967E-05
 -1      1622 2.94165E-05
 -1      1623 2.33581E-05
 -1      1624 2.33581E-05
 -1      1625 3.07320E-05
 -1      1626 2.28740E-05
 -1      1627 2.33483E-05
 -1      1628 3.07222E-05
 -1      1629 1.98634E-05
 -1      1630 2.14779E-05
 -1      1631 2.93162E-05
 -1      1632 1.42923E-05
 -1      1633 1.67703E-05
 -1      1634 2.48270E-05
 -1      1635 1.03183E-05
 -1      1636 9.52473E-06
 -1      1637 1.69664E-05
 -1      1638 1.90482E-05
 -1      1639 1.59607E-05
 -1      1640 1.78411E-05
 -1      1641 2.24485E-05
 -1      1642 1.90482E-05
 -1      1643 2.34835E-05
 -1      1644 2.62751E-05
 -1      1645 2.55154E-05
 -1      1646 2.65504E-05
 -1      1647 3.93737E-05
 -1      1648 2.80330E+01
 -1      1649 2.71709E+01
 -1      1650 2.70676E+01
 -1      1651 2.70676E+01
 -1      1652 3.68558E+01
 -1      1653 3.03629E+01
 -1      1654 3.89373E+01
 -1      1655 3.89373E+01
 -1      1656 1.68382E+01
 -1      1657 2.78877E+01
 -1      1658 1.35841E+01
 -1      1659 1.49035E+01
 -1      1660 1.53215E+01
 -1      1661 1.47925E+01
 -1      1662 1.53215E+01
 -1      1663 1.53215E+01
 -1      1664 1.44456E+01
 -1      1665 1.48515E+01
 -1      1666 1.65180E+01
 -1      1667 1.34968E+01
 -1      1668 3.55253E+01
 -1      1669 2.17017E+01
 -1      1670 4.81352E+01
 -1      1671 4.81352E+01
 -1      1672 3.37372E+01
 -1      1673 4.41320E+01
 -1      1674 3.14710E+01
 -1      1675 3.18966E+01
 -1      1676 3.15155E+01
 -1      1677 3.14710E+01
 -1      1678 3.09679E+01
 -1      1679 2.93523E+01
 -1      1680 3.09679E+01
 -1      1681 3.09679E+01
 -1      1682 2.84194E+01
 -1      1683 2.94091E+01
 -1      1684 1.25121E+01
 -1      1685 2.01737E+01
 -1      1686 1.10693E+01
 -1      1687 1.15277E+01
 -1      1688 1.19961E+01
 -1      1689 1.15953E+01
 -1      1690 1.23970E+01
 -1      1691 1.23970E+01
 -1      1692 1.15293E+01
 -1      1693 1.19387E+01
 -1      1694 1.15783E+01
 -1      1695 1.15783E+01
 -1      1696 1.11267E+01
 -1      1697 1.13525E+01
 -1      1698 1.48410E+01
 -1      1699 1.07424E+01
 -1      1700 3.36863E+01
 -1      1701 2.00980E+01
 -1      1702 4.65004E+01
 -1      1703 4.65004E+01
 -1      1704 2.61065E+01
 -1      1705 3.72486E+01
 -1      1706 2.71709E+01
 -1      1707 2.71655E+01
 -1      1708 2.78877E+01
 -1      1709 3.68558E+01
 -1      1710 2.80152E-05
 -1      1711 3.49670E-05
 -1      1712 2.91492E+01
 -1      1713 3.14791E+01
 -1      1714 3.01147E+01
 -1      1715 1.49035E+01
 -1      1716 1.41771E+01
 -1      1717 1.53854E+01
 -1      1718 1.49155E+01
 -1      1719 1.34968E+01
 -1      1720 1.77317E+01
 -1      1721 3.55253E+01
 -1      1722 4.41320E+01
 -1      1723 3.82882E+01
 -1      1724 3.64476E+01
 -1      1725 3.42844E+01
 -1      1726 3.21211E+01
 -1      1727 3.05623E+01
 -1      1728 2.07578E+01
 -1      1729 1.15277E+01
 -1      1730 1.10693E+01
 -1      1731 1.19961E+01
 -1      1732 1.19387E+01
 -1      1733 1.15293E+01
 -1      1734 1.13525E+01
 -1      1735 1.07424E+01
 -1      1736 1.56151E+01
 -1      1737 3.36863E+01
 -1      1738 3.72486E+01
 -1      1739 2.90557E+01
 -1      1740 1.00361E+01
 -1      1741 1.07819E+00
 -1      1742 1.24384E+00
 -1      1743 2.68246E+00
 -1      1744 4.72738E+00
 -1      1745 2.34908E+00
 -1      1746 1.31619E+00
 -1      1747 1.25534E+00
 -1      1748 1.42177E+00
 -1      1749 1.32754E+00
 -1      1750 1.11210E+00
 -1      1751 1.72204E+00
 -1      1752 1.55927E+00
 -1      1753 1.26095E+00
 -1      1754 2.63531E+00
 -1      1755 2.31775E+00
 -1      1756 1.99416E+00
 -1      1757 3.71009E+00
 -1      1758 3.36343E+00
 -1      1759 3.31799E+00
 -1      1760 4.72887E+00
 -1      1761 4.26632E+00
 -1      1762 4.60233E+00
 -1      1763 5.22847E+00
 -1      1764 5.22847E+00
 -1      1765 5.65816E+00
 -1      1766 6.38162E+00
 -1      1767 5.85829E+00
 -1      1768 6.78758E+00
 -1      1769 9.86302E+00
 -1      1770 8.43970E+00
 -1      1771 9.47549E+00
 -1      1772 1.00427E+01
 -1      1773 9.86302E+00
 -1      1774 1.15336E+01
 -1      1775 8.92024E+00
 -1      1776 9.22779E+00
 -1      1777 1.07186E+01
 -1      1778 7.44869E+00
 -1      1779 7.07838E+00
 -1      1780 8.06180E+00
 -1      1781 5.17136E+00
 -1      1782 5.72253E+00
 -1      1783 6.46050E+00
 -1      1784 6.08581E+00
 -1      1785 7.13439E+00
 -1      1786 4.78284E+00
 -1      1787 4.49721E+00
 -1      1788 4.04653E+00
 -1      1789 3.92094E+00
 -1      1790 3.67374E+00
 -1      1791 3.36044E+00
 -1      1792 3.54182E+00
 -1      1793 3.37075E+00
 -1      1794 3.10293E+00
 -1      1795 3.23468E+00
 -1      1796 3.10427E+00
 -1      1797 2.83494E+00
 -1      1798 3.01944E+00
 -1      1799 2.97263E+00
 -1      1800 2.61405E+00
 -1      1801 2.93272E+00
 -1      1802 2.78124E+00
 -1      1803 2.48933E+00
 -1      1804 2.68068E+00
 -1      1805 2.43883E+00
 -1      1806 2.34886E+00
 -1      1807 2.28540E+00
 -1      1808 2.00680E+00
 -1      1809 2.09487E+00
 -1      1810 1.84201E+00
 -1      1811 1.61636E+00
 -1      1812 1.77665E+00
 -1      1813 1.46669E+00
 -1      1814 1.27835E+00
 -1      1815 1.46219E+00
 -1      1816 1.12374E+00
 -1      1817 9.70962E-01
 -1      1818 1.15791E+00
 -1      1819 8.46886E-01
 -1      1820 7.11734E-01
 -1      1821 8.79222E-01
 -1      1822 6.08122E-01
 -1      1823 4.97474E-01
 -1      1824 6.51534E-01
 -1      1825 4.11186E-01
 -1      1826 3.26679E-01
 -1      1827 4.61634E-01
 -1      1828 2.59427E-01
 -1      1829 2.05764E-01
 -1      1830 3.08094E-01
 -1      1831 1.56567E-01
 -1      1832 1.30814E-01
 -1      1833 1.91645E-01
 -1      1834 9.70634E-02
 -1      1835 7.81646E-02
 -1      1836 1.08697E-01
 -1      1837 5.87046E-02
 -1      1838 4.50151E-02
 -1      1839 5.54865E-02
 -1      1840 4.01162E-02
 -1      1841 3.39534E-02
 -1      1842 3.11277E-02
 -1      1843 3.28836E-02
 -1      1844 2.68202E-02
 -1      1845 2.51589E-02
 -1      1846 2.45173E-02
 -1      1847 2.02436E-02
 -1      1848 2.17861E-02
 -1      1849 1.83964E-02
 -1      1850 1.56124E-02
 -1      1851 1.76360E-02
 -1      1852 1.37373E-02
 -1      1853 1.24712E-02
 -1      1854 1.39137E-02
 -1      1855 1.11865E-02
 -1      1856 9.76486E-03
 -1      1857 1.07539E-02
 -1      1858 8.78814E-03
 -1      1859 7.51574E-03
 -1      1860 8.49246E-03
 -1      1861 6.57607E-03
 -1      1862 6.11436E-03
 -1      1863 6.57607E-03
 -1      1864 5.29924E-03
 -1      1865 4.79332E-03
 -1      1866 4.82128E-03
 -1      1867 4.50019E-03
 -1      1868 3.97144E-03
 -1      1869 3.71304E-03
 -1      1870 3.72204E-03
 -1      1871 3.22930E-03
 -1      1872 3.17051E-03
 -1      1873 2.97040E-03
 -1      1874 2.54184E-03
 -1      1875 2.66220E-03
 -1      1876 2.29840E-03
 -1      1877 2.05897E-03
 -1      1878 2.15986E-03
 -1      1879 1.86356E-03
 -1      1880 1.67281E-03
 -1      1881 1.72102E-03
 -1      1882 1.57376E-03
 -1      1883 1.39559E-03
 -1      1884 1.42656E-03
 -1      1885 1.29026E-03
 -1      1886 1.14144E-03
 -1      1887 1.22218E-03
 -1      1888 1.03994E-03
 -1      1889 9.24303E-04
 -1      1890 1.01535E-03
 -1      1891 8.44061E-04
 -1      1892 7.51485E-04
 -1      1893 8.33601E-04
 -1      1894 6.79854E-04
 -1      1895 6.06726E-04
 -1      1896 6.81728E-04
 -1      1897 5.46427E-04
 -1      1898 4.81882E-04
 -1      1899 5.49798E-04
 -1      1900 4.33656E-04
 -1      1901 3.78540E-04
 -1      1902 4.41272E-04
 -1      1903 3.35922E-04
 -1      1904 2.90047E-04
 -1      1905 3.50429E-04
 -1      1906 2.53568E-04
 -1      1907 2.16173E-04
 -1      1908 2.71331E-04
 -1      1909 1.85772E-04
 -1      1910 1.64409E-04
 -1      1911 2.04451E-04
 -1      1912 1.39727E-04
 -1      1913 1.22282E-04
 -1      1914 1.49369E-04
 -1      1915 1.04977E-04
 -1      1916 9.14214E-05
 -1      1917 1.07382E-04
 -1      1918 7.91973E-05
 -1      1919 7.30930E-05
 -1      1920 7.78527E-05
 -1      1921 6.16839E-05
 -1      1922 4.59703E-05
 -1      1923 3.62138E-05
 -1      1924 5.42195E-05
 -1      1925 7.88234E+00
 -1      1926 7.65102E+00
 -1      1927 9.23936E+00
 -1      1928 1.73149E+01
 -1      1929 1.51358E+01
 -1      1930 1.64661E+01
 -1      1931 1.73149E+01
 -1      1932 1.07003E+01
 -1      1933 1.06296E+01
 -1      1934 8.97370E+00
 -1      1935 9.57657E+00
 -1      1936 1.25972E+01
 -1      1937 7.33767E+00
 -1      1938 7.39240E+00
 -1      1939 9.89213E+00
 -1      1940 5.81483E+00
 -1      1941 6.44834E+00
 -1      1942 7.42150E+00
 -1      1943 4.34410E+00
 -1      1944 4.99934E+00
 -1      1945 5.71669E+00
 -1      1946 3.08370E+00
 -1      1947 3.61365E+00
 -1      1948 4.17075E+00
 -1      1949 2.06973E+00
 -1      1950 2.51497E+00
 -1      1951 2.87158E+00
 -1      1952 1.33361E+00
 -1      1953 1.66360E+00
 -1      1954 1.89673E+00
 -1      1955 8.35288E-01
 -1      1956 1.05960E+00
 -1      1957 1.21659E+00
 -1      1958 5.13271E-01
 -1      1959 6.57290E-01
 -1      1960 7.64589E-01
 -1      1961 3.11169E-01
 -1      1962 4.00386E-01
 -1      1963 4.73706E-01
 -1      1964 1.92243E-01
 -1      1965 2.40677E-01
 -1      1966 2.90330E-01
 -1      1967 1.19115E-01
 -1      1968 1.48671E-01
 -1      1969 1.76266E-01
 -1      1970 7.34552E-02
 -1      1971 9.23704E-02
 -1      1972 1.05949E-01
 -1      1973 4.50126E-02
 -1      1974 5.71246E-02
 -1      1975 6.28734E-02
 -1      1976 2.93808E-02
 -1      1977 3.71622E-02
 -1      1978 3.86925E-02
 -1      1979 1.96454E-02
 -1      1980 2.43596E-02
 -1      1981 2.58210E-02
 -1      1982 1.38685E-02
 -1      1983 1.62285E-02
 -1      1984 1.73828E-02
 -1      1985 1.03464E-02
 -1      1986 1.20588E-02
 -1      1987 1.21561E-02
 -1      1988 7.81064E-03
 -1      1989 9.07853E-03
 -1      1990 9.07853E-03
 -1      1991 5.88318E-03
 -1      1992 6.84691E-03
 -1      1993 6.84691E-03
 -1      1994 4.46266E-03
 -1      1995 5.19729E-03
 -1      1996 5.19729E-03
 -1      1997 3.58203E-03
 -1      1998 3.97474E-03
 -1      1999 4.02347E-03
 -1      2000 2.88756E-03
 -1      2001 3.18671E-03
 -1      2002 3.14022E-03
 -1      2003 2.30392E-03
 -1      2004 2.57042E-03
 -1      2005 2.42776E-03
 -1      2006 1.86708E-03
 -1      2007 2.10000E-03
 -1      2008 1.90670E-03
 -1      2009 1.50073E-03
 -1      2010 1.70087E-03
 -1      2011 1.53657E-03
 -1      2012 1.21735E-03
 -1      2013 1.38051E-03
 -1      2014 1.25014E-03
 -1      2015 9.83797E-04
 -1      2016 1.11329E-03
 -1      2017 1.02587E-03
 -1      2018 7.91117E-04
 -1      2019 9.01109E-04
 -1      2020 8.39124E-04
 -1      2021 6.30854E-04
 -1      2022 7.17724E-04
 -1      2023 6.83043E-04
 -1      2024 4.95185E-04
 -1      2025 5.67346E-04
 -1      2026 5.46142E-04
 -1      2027 3.81774E-04
 -1      2028 4.41381E-04
 -1      2029 4.28830E-04
 -1      2030 2.88448E-04
 -1      2031 3.37004E-04
 -1      2032 3.30257E-04
 -1      2033 2.12684E-04
 -1      2034 2.51803E-04
 -1      2035 2.48842E-04
 -1      2036 1.54910E-04
 -1      2037 1.83192E-04
 -1      2038 1.82704E-04
 -1      2039 1.16335E-04
 -1      2040 1.34131E-04
 -1      2041 1.32432E-04
 -1      2042 8.65293E-05
 -1      2043 1.02640E-04
 -1      2044 9.79579E-05
 -1      2045 5.84133E-05
 -1      2046 7.36380E-05
 -1      2047 7.13718E-05
 -1      2048 4.93528E-05
 -1      2049 5.86290E-05
 -1      2050 5.86962E-05
 -1      2051 4.45261E-05
 -1      2052 1.87155E-05
 -1      2053 2.46509E-05
 -1      2054 4.13470E-05
 -1      2055 4.45261E-05
 -1      2056 4.22157E-05
 -1      2057 4.45261E-05
 -1      2058 2.55860E-05
 -1      2059 2.07044E-05
 -1      2060 2.75085E-05
 -1      2061 3.35165E-05
 -1      2062 3.03034E-05
 -1      2063 3.42147E-05
 -1      2064 3.70870E-05
 -1      2065 3.57715E-05
 -1      2066 4.11870E-05
 -1      2067 3.70870E-05
 -1      2068 3.70870E-05
 -1      2069 4.34420E-05
 -1      2070 3.69852E-05
 -1      2071 3.69951E-05
 -1      2072 4.33501E-05
 -1      2073 3.55891E-05
 -1      2074 3.69852E-05
 -1      2075 4.32581E-05
 -1      2076 3.03247E-05
 -1      2077 3.34178E-05
 -1      2078 4.10868E-05
 -1      2079 2.07616E-05
 -1      2080 2.55292E-05
 -1      2081 3.41199E-05
 -1      2082 2.44835E-05
 -1      2083 1.88412E-05
 -1      2084 2.74040E-05
 -1      2085 3.11483E-05
 -1      2086 3.11483E-05
 -1      2087 3.21483E-05
 -1      2088 3.04307E+01
 -1      2089 2.71354E+01
 -1      2090 3.78625E+01
 -1      2091 3.78625E+01
 -1      2092 3.68971E+01
 -1      2093 3.78625E+01
 -1      2094 3.09601E+01
 -1      2095 2.88786E+01
 -1      2096 1.52795E+01
 -1      2097 2.63291E+01
 -1      2098 1.23086E+00
 -1      2099 1.14886E+00
 -1      2100 9.81142E-01
 -1      2101 1.07629E+00
 -1      2102 1.52577E+01
 -1      2103 1.46659E+01
 -1      2104 1.05322E+01
 -1      2105 1.14810E+01
 -1      2106 1.63016E+01
 -1      2107 1.11180E+01
 -1      2108 9.10219E+00
 -1      2109 3.23273E+01
 -1      2110 1.97174E+01
 -1      2111 3.48360E+01
 -1      2112 3.88392E+01
 -1      2113 3.44442E+01
 -1      2114 3.62848E+01
 -1      2115 4.03804E+01
 -1      2116 4.03804E+01
 -1      2117 3.82172E+01
 -1      2118 4.03804E+01
 -1      2119 3.21211E+01
 -1      2120 3.21211E+01
 -1      2121 2.43680E+01
 -1      2122 2.59268E+01
 -1      2123 2.59268E+01
 -1      2124 1.22852E+01
 -1      2125 2.05309E+01
 -1      2126 9.11636E+00
 -1      2127 1.01008E+01
 -1      2128 1.00976E+01
 -1      2129 9.57158E+00
 -1      2130 1.07186E+01
 -1      2131 1.03177E+01
 -1      2132 8.82004E+00
 -1      2133 1.10750E+01
 -1      2134 1.15333E+01
 -1      2135 1.09422E+01
 -1      2136 1.08932E+01
 -1      2137 1.04878E+01
 -1      2138 1.00151E+01
 -1      2139 1.02410E+01
 -1      2140 8.47432E+00
 -1      2141 8.85865E+00
 -1      2142 1.51709E+01
 -1      2143 9.91386E+00
 -1      2144 3.14124E+01
 -1      2145 1.85982E+01
 -1      2146 2.79967E+01
 -1      2147 3.72486E+01
 -1      2148 2.82993E+01
 -1      2149 2.72403E+01
 -1      2150 3.60472E+01
 -1      2151 4.64804E+00
 -1      2152 1.26863E+01
 -1      2153 1.03973E+01
 -1      2154 3.63686E+00
 -1      2155 3.83770E+01
 -1      2156 1.31037E+01
 -1      2157 8.33101E+00
 -1      2158 7.93966E+00
 -1      2159 9.21418E+00
 -1      2160 7.90272E+00
 -1      2161 1.17013E+01
 -1      2162 8.62842E+00
 -1      2163 7.68205E+00
 -1      2164 5.89119E-05
 -1      2165 4.56104E+01
 -1      2166 3.58487E+01
 -1      2167 3.42151E-05
 -1      2168 2.45350E+01
 -1      2169 1.04872E+01
 -1      2170 1.83519E+01
 -1      2171 2.72403E+01
 -1      2172 2.21605E+01
 -1      2173 1.28970E+01
 -1      2174 8.03015E+00
 -1      2175 9.60481E+00
 -1      2176 1.09382E+01
 -1      2177 9.25985E+00
 -1      2178 1.00745E+01
 -1      2179 8.14464E+00
 -1      2180 1.58953E+01
 -1      2181 3.82172E+01
 -1      2182 4.43133E+01
 -1      2183 3.09920E+01
 -1      2184 2.30314E+01
 -1      2185 9.39207E+00
 -1      2186 9.16514E+00
 -1      2187 6.98074E+00
 -1      2188 7.74709E+00
 -1      2189 1.23320E+01
 -1      2190 1.07734E+01
 -1      2191 1.01162E+01
 -1      2192 1.58661E+01
 -1      2193 1.46756E+01
 -1      2194 1.33540E+00
 -1      2195 1.19790E+00
 -1      2196 1.12008E+00
 -1      2197 1.10874E+00
 -1      2198 1.19454E+00
 -1      2199 3.69637E+00
 -1      2200 2.96825E+00
 -1      2201 6.00432E+00
 -1      2202 5.44810E+00
 -1      2203 5.09836E+00
 -1      2204 7.02736E+00
 -1      2205 6.52776E+00
 -1      2206 7.37352E+00
 -1      2207 9.53478E+00
 -1      2208 8.90496E+00
 -1      2209 9.77456E+00
 -1      2210 1.40222E+01
 -1      2211 1.19641E+01
 -1      2212 1.40815E+01
 -1      2213 1.35214E+01
 -1      2214 1.35214E+01
 -1      2215 1.60100E+01
 -1      2216 1.12318E+01
 -1      2217 1.28131E+01
 -1      2218 7.10283E+00
 -1      2219 7.99216E+00
 -1      2220 1.09132E+01
 -1      2221 2.85597E+00
 -1      2222 2.73038E+00
 -1      2223 2.77102E+00
 -1      2224 2.62018E+00
 -1      2225 1.99012E+00
 -1      2226 1.33240E+00
 -1      2227 2.76674E+00
 -1      2228 2.63482E+00
 -1      2229 2.26227E+00
 -1      2230 2.57440E+00
 -1      2231 2.43833E+00
 -1      2232 2.23822E+00
 -1      2233 2.33794E+00
 -1      2234 2.25312E+00
 -1      2235 2.07740E+00
 -1      2236 2.20248E+00
 -1      2237 2.16258E+00
 -1      2238 1.92637E+00
 -1      2239 2.14244E+00
 -1      2240 2.04188E+00
 -1      2241 1.85559E+00
 -1      2242 1.97808E+00
 -1      2243 1.82464E+00
 -1      2244 1.77165E+00
 -1      2245 1.72400E+00
 -1      2246 1.55922E+00
 -1      2247 1.60721E+00
 -1      2248 1.46337E+00
 -1      2249 1.31370E+00
 -1      2250 1.41072E+00
 -1      2251 1.19204E+00
 -1      2252 1.03743E+00
 -1      2253 1.19323E+00
 -1      2254 9.10582E-01
 -1      2255 7.86506E-01
 -1      2256 9.44717E-01
 -1      2257 6.70487E-01
 -1      2258 5.66875E-01
 -1      2259 7.01848E-01
 -1      2260 4.74810E-01
 -1      2261 3.88523E-01
 -1      2262 4.93763E-01
 -1      2263 3.22412E-01
 -1      2264 2.55160E-01
 -1      2265 3.35588E-01
 -1      2266 2.04993E-01
 -1      2267 1.55795E-01
 -1      2268 2.19310E-01
 -1      2269 1.22856E-01
 -1      2270 8.91058E-02
 -1      2271 1.36204E-01
 -1      2272 6.63396E-02
 -1      2273 4.68795E-02
 -1      2274 8.04988E-02
 -1      2275 3.46534E-02
 -1      2276 2.97545E-02
 -1      2277 4.55064E-02
 -1      2278 2.42215E-02
 -1      2279 2.31517E-02
 -1      2280 2.77472E-02
 -1      2281 2.00041E-02
 -1      2282 1.77012E-02
 -1      2283 1.90667E-02
 -1      2284 1.73972E-02
 -1      2285 1.55500E-02
 -1      2286 1.56152E-02
 -1      2287 1.44974E-02
 -1      2288 1.26223E-02
 -1      2289 1.42587E-02
 -1      2290 1.11897E-02
 -1      2291 9.90498E-03
 -1      2292 1.17734E-02
 -1      2293 8.63313E-03
 -1      2294 7.65642E-03
 -1      2295 9.06894E-03
 -1      2296 6.64165E-03
 -1      2297 5.70198E-03
 -1      2298 6.78233E-03
 -1      2299 4.79577E-03
 -1      2300 3.98065E-03
 -1      2301 4.86135E-03
 -1      2302 3.37142E-03
 -1      2303 3.07829E-03
 -1      2304 3.34591E-03
 -1      2305 2.65920E-03
 -1      2306 2.40980E-03
 -1      2307 2.31758E-03
 -1      2308 2.34275E-03
 -1      2309 2.08385E-03
 -1      2310 1.83145E-03
 -1      2311 1.99211E-03
 -1      2312 1.74868E-03
 -1      2313 1.67267E-03
 -1      2314 1.63780E-03
 -1      2315 1.44240E-03
 -1      2316 1.47006E-03
 -1      2317 1.32799E-03
 -1      2318 1.22894E-03
 -1      2319 1.24478E-03
 -1      2320 1.14892E-03
 -1      2321 1.04360E-03
 -1      2322 1.05036E-03
 -1      2323 9.83746E-04
 -1      2324 8.82239E-04
 -1      2325 9.10487E-04
 -1      2326 8.17358E-04
 -1      2327 7.37115E-04
 -1      2328 7.85754E-04
 -1      2329 6.76530E-04
 -1      2330 6.04900E-04
 -1      2331 6.60287E-04
 -1      2332 5.52568E-04
 -1      2333 4.92268E-04
 -1      2334 5.47370E-04
 -1      2335 4.43868E-04
 -1      2336 3.95642E-04
 -1      2337 4.46638E-04
 -1      2338 3.52761E-04
 -1      2339 3.10143E-04
 -1      2340 3.55357E-04
 -1      2341 2.77025E-04
 -1      2342 2.40545E-04
 -1      2343 2.79357E-04
 -1      2344 2.12403E-04
 -1      2345 1.82003E-04
 -1      2346 2.18097E-04
 -1      2347 1.58218E-04
 -1      2348 1.33537E-04
 -1      2349 1.66171E-04
 -1      2350 1.14013E-04
 -1      2351 9.67079E-05
 -1      2352 1.22863E-04
 -1      2353 8.11395E-05
 -1      2354 6.89154E-05
 -1      2355 8.77707E-05
 -1      2356 1.35320E+01
 -1      2357 1.72282E+01
 -1      2358 5.17872E+00
 -1      2359 5.99420E+00
 -1      2360 6.56486E+00
 -1      2361 3.81331E+00
 -1      2362 4.54376E+00
 -1      2363 4.82128E+00
 -1      2364 2.45486E+00
 -1      2365 3.02358E+00
 -1      2366 3.39659E+00
 -1      2367 1.55306E+00
 -1      2368 1.95919E+00
 -1      2369 2.11118E+00
 -1      2370 9.73385E-01
 -1      2371 1.24739E+00
 -1      2372 1.30985E+00
 -1      2373 6.09554E-01
 -1      2374 7.87552E-01
 -1      2375 8.18350E-01
 -1      2376 3.86039E-01
 -1      2377 4.98925E-01
 -1      2378 5.21887E-01
 -1      2379 2.42765E-01
 -1      2380 3.13257E-01
 -1      2381 3.38475E-01
 -1      2382 1.51611E-01
 -1      2383 1.95183E-01
 -1      2384 2.18110E-01
 -1      2385 9.39515E-02
 -1      2386 1.20696E-01
 -1      2387 1.39614E-01
 -1      2388 5.76400E-02
 -1      2389 7.39706E-02
 -1      2390 8.87181E-02
 -1      2391 3.69310E-02
 -1      2392 4.47814E-02
 -1      2393 5.58786E-02
 -1      2394 2.36649E-02
 -1      2395 2.86860E-02
 -1      2396 3.47749E-02
 -1      2397 1.49809E-02
 -1      2398 1.83978E-02
 -1      2399 2.12629E-02
 -1      2400 9.87299E-03
 -1      2401 1.16827E-02
 -1      2402 1.26977E-02
 -1      2403 7.22973E-03
 -1      2404 8.49762E-03
 -1      2405 8.02419E-03
 -1      2406 5.57775E-03
 -1      2407 6.54148E-03
 -1      2408 5.96057E-03
 -1      2409 4.38355E-03
 -1      2410 5.06944E-03
 -1      2411 4.76401E-03
 -1      2412 3.46425E-03
 -1      2413 3.95218E-03
 -1      2414 3.82434E-03
 -1      2415 2.71016E-03
 -1      2416 3.10548E-03
 -1      2417 3.03419E-03
 -1      2418 2.10538E-03
 -1      2419 2.42253E-03
 -1      2420 2.38778E-03
 -1      2421 1.71239E-03
 -1      2422 1.91631E-03
 -1      2423 1.91108E-03
 -1      2424 1.38023E-03
 -1      2425 1.54644E-03
 -1      2426 1.55606E-03
 -1      2427 1.12993E-03
 -1      2428 1.25014E-03
 -1      2429 1.26002E-03
 -1      2430 9.21812E-04
 -1      2431 1.02587E-03
 -1      2432 1.02587E-03
 -1      2433 7.56710E-04
 -1      2434 8.39399E-04
 -1      2435 8.39399E-04
 -1      2436 6.11056E-04
 -1      2437 6.84449E-04
 -1      2438 6.84724E-04
 -1      2439 4.84606E-04
 -1      2440 5.48114E-04
 -1      2441 5.49520E-04
 -1      2442 3.82454E-04
 -1      2443 4.36258E-04
 -1      2444 4.38230E-04
 -1      2445 2.96491E-04
 -1      2446 3.41261E-04
 -1      2447 3.48688E-04
 -1      2448 2.24713E-04
 -1      2449 2.61358E-04
 -1      2450 2.72361E-04
 -1      2451 1.65928E-04
 -1      2452 1.95421E-04
 -1      2453 2.07936E-04
 -1      2454 1.21083E-04
 -1      2455 1.41863E-04
 -1      2456 1.54579E-04
 -1      2457 9.15479E-05
 -1      2458 1.05243E-04
 -1      2459 1.14673E-04
 -1      2460 6.49334E-05
 -1      2461 7.78248E-05
 -1      2462 8.51095E-05
 -1      2463 4.43417E-05
 -1      2464 3.96244E-05
 -1      2465 4.41113E-05
 -1      2466 4.21225E-05
 -1      2467 5.42384E-05
 -1      2468 3.99848E-05
 -1      2469 5.66810E-05
 -1      2470 5.65877E-05
 -1      2471 4.56104E+01
 -1      2472 4.56104E+01
 -1      2473 5.02284E-05
 -1      2474 4.79734E-05
 -1      2475 5.33831E-05
 -1      2476 5.04508E-05
 -1      2477 5.04508E-05
 -1      2478 5.72372E-05
 -1      2479 5.03588E-05
 -1      2480 5.04508E-05
 -1      2481 5.74596E-05
 -1      2482 5.03391E-05
 -1      2483 5.03391E-05
 -1      2484 5.74399E-05
 -1      2485 4.79933E-05
 -1      2486 5.01646E-05
 -1      2487 5.72456E-05
 -1      2488 3.94634E-05
 -1      2489 4.42589E-05
 -1      2490 5.33367E-05
 -1      2491 3.52822E-05
 -1      2492 3.72026E-05
 -1      2493 4.73416E-05
 -1      2494 4.19469E-05
 -1      2495 3.52822E-05
 -1      2496 4.50808E-05
 -1      2497 3.83770E+01
 -1      2498 3.24408E+01
 -1      2499 2.60871E+01
 -1      2500 3.58487E+01
 -1      2501 3.58487E+01
 -1      2502 1.22121E+01
 -1      2503 1.21547E+01
 -1      2504 1.75910E+01
 -1      2505 1.51995E+01
 -1      2506 3.60472E+01
 -1      2507 2.64839E+01
 -1      2508 6.55596E+00
 -1      2509 6.10074E+00
 -1      2510 2.36552E+01
 -1      2511 2.44116E+01
 -1      2512 4.08117E-05
 -1      2513 2.20512E+00
 -1      2514 1.60941E+00
 -1      2515 1.54637E+00
 -1      2516 2.58350E+00
 -1      2517 2.73424E+01
 -1      2518 3.34384E+01
 -1      2519 2.17114E+01
 -1      2520 1.85679E+01
 -1      2521 2.68716E+01
 -1      2522 2.54228E+01
 -1      2523 1.75910E+01
 -1      2524 2.68716E+01
 -1      2525 4.43133E+01
 -1      2526 4.43133E+01
 -1      2527 1.67309E+01
 -1      2528 2.29253E+01
 -1      2529 5.65050E+00
 -1      2530 6.80698E+00
 -1      2531 1.11095E+01
 -1      2532 1.49466E+01
 -1      2533 1.19451E+01
 -1      2534 7.36887E+00
 -1      2535 7.14869E+00
 -1      2536 8.97472E+00
 -1      2537 9.15648E+00
 -1      2538 7.79377E+00
 -1      2539 8.49501E+00
 -1      2540 7.47841E+00
 -1      2541 6.03888E+00
 -1      2542 1.22376E+01
 -1      2543 8.81025E+00
 -1      2544 2.03549E+01
 -1      2545 1.45187E+01
 -1      2546 7.73489E+00
 -1      2547 6.82044E+00
 -1      2548 8.66230E+00
 -1      2549 1.43616E+01
 -1      2550 3.34384E+01
 -1      2551 1.10707E+00
 -1      2552 1.09909E+00
 -1      2553 1.07462E+00
 -1      2554 1.38606E+01
 -1      2555 1.58485E+01
 -1      2556 2.36552E+01
 -1      2557 1.30457E+01
 -1      2558 6.51491E-05
 -1      2559 6.51491E-05
 -1      2560 3.60472E+01
 -1      2561 5.69718E+00
 -1      2562 7.16368E+00
 -1      2563 2.01200E+01
 -1      2564 2.01200E+01
 -1      2565 6.29182E-05
 -1      2566 3.83770E+01
 -1      2567 5.10479E+00
 -1      2568 5.39206E+00
 -1      2569 9.23462E+00
 -1      2570 8.63956E+00
 -1      2571 7.72151E+00
 -1      2572 1.67698E+01
 -1      2573 4.27223E-05
 -1      2574 4.07237E-05
 -1      2575 4.38576E-05
 -1      2576 5.41314E-05
 -1      2577 9.45416E+00
 -1      2578 8.50542E+00
 -1      2579 6.56107E+00
 -1      2580 5.74183E-05
 -1      2581 1.03020E+00
 -1      2582 9.59534E-01
 -1      2583 1.38147E+00
 -1      2584 1.05301E+00
 -1      2585 5.09877E+00
 -1      2586 1.81465E+01
 -1      2587 1.04320E+01
 -1      2588 7.58849E+00
 -1      2589 6.81898E+00
 -1      2590 7.37352E+00
 -1      2591 6.85009E+00
 -1      2592 1.95372E+01
 -1      2593 1.71079E+01
 -1      2594 2.99113E+01
 -1      2595 3.04120E+01
 -1      2596 2.05093E+01
 -1      2597 1.76805E+01
 -1      2598 2.39750E+01
 -1      2599 1.35686E+01
 -1      2600 1.68083E+01
 -1      2601 2.27754E+01
 -1      2602 3.25279E+01
 -1      2603 2.29647E+01
 -1      2604 1.69900E+01
 -1      2605 1.96346E+00
 -1      2606 1.99983E+00
 -1      2607 1.57252E+00
 -1      2608 1.80830E+00
 -1      2609 1.54586E+00
 -1      2610 1.19965E+00
 -1      2611 4.61545E+00
 -1      2612 5.25040E+00
 -1      2613 2.03206E+00
 -1      2614 1.97163E+00
 -1      2615 1.73325E+00
 -1      2616 1.92355E+00
 -1      2617 1.82315E+00
 -1      2618 1.71739E+00
 -1      2619 1.74324E+00
 -1      2620 1.69261E+00
 -1      2621 1.58939E+00
 -1      2622 1.68485E+00
 -1      2623 1.66470E+00
 -1      2624 1.50172E+00
 -1      2625 1.65977E+00
 -1      2626 1.59597E+00
 -1      2627 1.48902E+00
 -1      2628 1.55206E+00
 -1      2629 1.45142E+00
 -1      2630 1.44019E+00
 -1      2631 1.39540E+00
 -1      2632 1.29956E+00
 -1      2633 1.34026E+00
 -1      2634 1.19916E+00
 -1      2635 1.07750E+00
 -1      2636 1.18383E+00
 -1      2637 9.82256E-01
 -1      2638 8.55406E-01
 -1      2639 9.88190E-01
 -1      2640 7.73222E-01
 -1      2641 6.57203E-01
 -1      2642 8.10761E-01
 -1      2643 5.71078E-01
 -1      2644 4.79013E-01
 -1      2645 6.42453E-01
 -1      2646 4.00238E-01
 -1      2647 3.34128E-01
 -1      2648 4.77553E-01
 -1      2649 2.68956E-01
 -1      2650 2.18789E-01
 -1      2651 3.33606E-01
 -1      2652 1.69061E-01
 -1      2653 1.36122E-01
 -1      2654 2.18706E-01
 -1      2655 1.00756E-01
 -1      2656 7.79900E-02
 -1      2657 1.33613E-01
 -1      2658 5.63849E-02
 -1      2659 4.41587E-02
 -1      2660 7.66424E-02
 -1      2661 3.38365E-02
 -1      2662 2.83036E-02
 -1      2663 4.47151E-02
 -1      2664 2.22142E-02
 -1      2665 1.90667E-02
 -1      2666 2.83036E-02
 -1      2667 1.64522E-02
 -1      2668 1.61483E-02
 -1      2669 1.95998E-02
 -1      2670 1.47914E-02
 -1      2671 1.37388E-02
 -1      2672 1.56284E-02
 -1      2673 1.24184E-02
 -1      2674 1.09858E-02
 -1      2675 1.29511E-02
 -1      2676 9.58121E-03
 -1      2677 8.30936E-03
 -1      2678 1.02262E-02
 -1      2679 7.05318E-03
 -1      2680 6.03842E-03
 -1      2681 7.56545E-03
 -1      2682 5.16001E-03
 -1      2683 4.25380E-03
 -1      2684 5.43087E-03
 -1      2685 3.52151E-03
 -1      2686 2.91228E-03
 -1      2687 3.82017E-03
 -1      2688 2.33472E-03
 -1      2689 1.91563E-03
 -1      2690 2.51033E-03
 -1      2691 1.54043E-03
 -1      2692 1.47339E-03
 -1      2693 1.55757E-03
 -1      2694 1.38761E-03
 -1      2695 1.29587E-03
 -1      2696 1.09659E-03
 -1      2697 1.30383E-03
 -1      2698 1.19295E-03
 -1      2699 1.01877E-03
 -1      2700 1.16327E-03
 -1      2701 1.04886E-03
 -1      2702 9.97039E-04
 -1      2703 9.97968E-04
 -1      2704 9.17952E-04
 -1      2705 9.16457E-04
 -1      2706 8.57598E-04
 -1      2707 7.97746E-04
 -1      2708 8.05210E-04
 -1      2709 7.50516E-04
 -1      2710 6.85634E-04
 -1      2711 6.97626E-04
 -1      2712 6.42069E-04
 -1      2713 5.81484E-04
 -1      2714 6.06831E-04
 -1      2715 5.36211E-04
 -1      2716 4.83879E-04
 -1      2717 5.17993E-04
 -1      2718 4.42010E-04
 -1      2719 3.93609E-04
 -1      2720 4.30851E-04
 -1      2721 3.56466E-04
 -1      2722 3.13586E-04
 -1      2723 3.51838E-04
 -1      2724 2.80287E-04
 -1      2725 2.47168E-04
 -1      2726 2.81397E-04
 -1      2727 2.18332E-04
 -1      2728 1.90190E-04
 -1      2729 2.19262E-04
 -1      2730 1.66470E-04
 -1      2731 1.42686E-04
 -1      2732 1.66705E-04
 -1      2733 1.24845E-04
 -1      2734 1.05321E-04
 -1      2735 1.25144E-04
 -1      2736 8.79249E-05
 -1      2737 7.23564E-05
 -1      2738 8.99066E-05
 -1      2739 4.31997E+00
 -1      2740 3.72724E+00
 -1      2741 8.00037E-05
 -1      2742 8.84719E-05
 -1      2743 1.02195E-04
 -1      2744 1.31258E+00
 -1      2745 1.23476E+00
 -1      2746 6.55649E-05
 -1      2747 6.55649E-05
 -1      2748 7.68996E-05
 -1      2749 8.13866E-05
 -1      2750 3.10021E+00
 -1      2751 3.88994E+00
 -1      2752 4.31907E+00
 -1      2753 1.91916E+00
 -1      2754 2.41483E+00
 -1      2755 2.90819E+00
 -1      2756 1.19224E+00
 -1      2757 1.49791E+00
 -1      2758 1.80155E+00
 -1      2759 7.45326E-01
 -1      2760 9.31160E-01
 -1      2761 1.11922E+00
 -1      2762 4.71162E-01
 -1      2763 5.81791E-01
 -1      2764 6.94601E-01
 -1      2765 2.95894E-01
 -1      2766 3.68677E-01
 -1      2767 4.28581E-01
 -1      2768 1.84357E-01
 -1      2769 2.31939E-01
 -1      2770 2.62141E-01
 -1      2771 1.16143E-01
 -1      2772 1.47058E-01
 -1      2773 1.60886E-01
 -1      2774 7.27814E-02
 -1      2775 9.27622E-02
 -1      2776 1.00206E-01
 -1      2777 4.59682E-02
 -1      2778 5.88269E-02
 -1      2779 6.28710E-02
 -1      2780 2.95606E-02
 -1      2781 3.78056E-02
 -1      2782 4.07540E-02
 -1      2783 1.86933E-02
 -1      2784 2.39603E-02
 -1      2785 2.69911E-02
 -1      2786 1.15851E-02
 -1      2787 1.48833E-02
 -1      2788 1.75807E-02
 -1      2789 7.63872E-03
 -1      2790 9.01408E-03
 -1      2791 1.11997E-02
 -1      2792 5.23151E-03
 -1      2793 5.91976E-03
 -1      2794 6.90965E-03
 -1      2795 3.71562E-03
 -1      2796 4.22393E-03
 -1      2797 4.18311E-03
 -1      2798 3.02548E-03
 -1      2799 3.45684E-03
 -1      2800 2.91676E-03
 -1      2801 2.49298E-03
 -1      2802 2.85176E-03
 -1      2803 2.48426E-03
 -1      2804 2.02759E-03
 -1      2805 2.31523E-03
 -1      2806 2.13279E-03
 -1      2807 1.67120E-03
 -1      2808 1.86027E-03
 -1      2809 1.78771E-03
 -1      2810 1.35510E-03
 -1      2811 1.52105E-03
 -1      2812 1.47023E-03
 -1      2813 1.11412E-03
 -1      2814 1.24421E-03
 -1      2815 1.20920E-03
 -1      2816 9.21313E-04
 -1      2817 1.02537E-03
 -1      2818 1.00956E-03
 -1      2819 7.56959E-04
 -1      2820 8.39373E-04
 -1      2821 8.38874E-04
 -1      2822 6.11797E-04
 -1      2823 6.84058E-04
 -1      2824 6.84032E-04
 -1      2825 4.85725E-04
 -1      2826 5.48667E-04
 -1      2827 5.48002E-04
 -1      2828 3.90199E-04
 -1      2829 4.38547E-04
 -1      2830 4.37694E-04
 -1      2831 3.07716E-04
 -1      2832 3.48909E-04
 -1      2833 3.49226E-04
 -1      2834 2.37320E-04
 -1      2835 2.72454E-04
 -1      2836 2.72675E-04
 -1      2837 1.80042E-04
 -1      2838 2.09334E-04
 -1      2839 2.09426E-04
 -1      2840 1.40154E-04
 -1      2841 1.64219E-04
 -1      2842 1.65616E-04
 -1      2843 1.16954E-04
 -1      2844 1.32795E-04
 -1      2845 1.42434E-04
 -1      2846 1.20316E-04
 -1      2847 7.04404E-05
 -1      2848 7.02180E-05
 -1      2849 7.85457E-05
 -1      2850 4.18325E+00
 -1      2851 5.17003E+00
 -1      2852 8.21414E-05
 -1      2853 2.13023E+01
 -1      2854 7.40388E-05
 -1      2855 7.04071E-05
 -1      2856 9.75553E-05
 -1      2857 8.72420E-05
 -1      2858 6.61639E-05
 -1      2859 6.61836E-05
 -1      2860 7.42889E-05
 -1      2861 6.59893E-05
 -1      2862 6.61639E-05
 -1      2863 7.49076E-05
 -1      2864 6.10178E-05
 -1      2865 6.47522E-05
 -1      2866 7.36705E-05
 -1      2867 5.17546E-05
 -1      2868 5.40154E-05
 -1      2869 6.54308E-05
 -1      2870 3.25370E+01
 -1      2871 2.43142E+01
 -1      2872 4.41432E+00
 -1      2873 4.02594E+00
 -1      2874 4.44863E-05
 -1      2875 4.57096E-05
 -1      2876 5.92703E-05
 -1      2877 7.18734E+00
 -1      2878 8.29597E+00
 -1      2879 1.41910E+01
 -1      2880 6.98151E+00
 -1      2881 1.18043E+01
 -1      2882 4.91184E+00
 -1      2883 5.79184E+00
 -1      2884 5.96071E+00
 -1      2885 6.44041E+00
 -1      2886 1.59148E+01
 -1      2887 1.18582E+01
 -1      2888 6.40489E+00
 -1      2889 5.07305E+00
 -1      2890 1.04961E+01
 -1      2891 8.21492E+00
 -1      2892 6.46900E+00
 -1      2893 1.26908E+01
 -1      2894 7.26863E+00
 -1      2895 5.37766E+00
 -1      2896 1.08132E+01
 -1      2897 1.87450E+01
 -1      2898 1.30688E+00
 -1      2899 1.29723E+00
 -1      2900 1.42491E+00
 -1      2901 3.49879E+00
 -1      2902 4.53292E+00
 -1      2903 4.85278E+00
 -1      2904 3.47522E+00
 -1      2905 5.31596E+00
 -1      2906 3.56423E+00
 -1      2907 1.27689E+01
 -1      2908 4.44677E+00
 -1      2909 1.94545E+01
 -1      2910 4.12702E+00
 -1      2911 2.13034E+00
 -1      2912 1.85633E+00
 -1      2913 1.89655E+00
 -1      2914 2.68716E+01
 -1      2915 1.04803E-04
 -1      2916 4.57096E-05
 -1      2917 6.08085E+00
 -1      2918 6.82715E+00
 -1      2919 6.90529E+00
 -1      2920 5.62419E+00
 -1      2921 9.64110E+00
 -1      2922 5.94245E-05
 -1      2923 3.01202E+00
 -1      2924 2.24890E+00
 -1      2925 2.55886E+00
 -1      2926 6.42873E+00
 -1      2927 9.02885E+00
 -1      2928 4.00023E+00
 -1      2929 5.31596E+00
 -1      2930 5.21207E-05
 -1      2931 5.14919E-05
 -1      2932 5.81657E-05
 -1      2933 6.52069E-05
 -1      2934 3.22962E+00
 -1      2935 1.18238E+01
 -1      2936 1.00581E+01
 -1      2937 2.23523E+00
 -1      2938 2.92061E+00
 -1      2939 1.62267E+00
 -1      2940 1.65490E+00
 -1      2941 6.02386E+00
 -1      2942 4.65293E+00
 -1      2943 5.12950E+00
 -1      2944 1.61182E+00
 -1      2945 1.56373E+00
 -1      2946 1.50124E+00
 -1      2947 1.53778E+00
 -1      2948 1.45787E+00
 -1      2949 1.43221E+00
 -1      2950 1.46726E+00
 -1      2951 1.45949E+00
 -1      2952 1.41564E+00
 -1      2953 1.48904E+00
 -1      2954 1.48411E+00
 -1      2955 1.45457E+00
 -1      2956 1.42112E+00
 -1      2957 1.37722E+00
 -1      2958 1.42113E+00
 -1      2959 1.33601E+00
 -1      2960 1.27999E+00
 -1      2961 1.31695E+00
 -1      2962 1.23074E+00
 -1      2963 1.13035E+00
 -1      2964 1.22650E+00
 -1      2965 1.05900E+00
 -1      2966 9.63759E-01
 -1      2967 1.10591E+00
 -1      2968 8.85412E-01
 -1      2969 8.03228E-01
 -1      2970 9.56226E-01
 -1      2971 7.09026E-01
 -1      2972 6.22902E-01
 -1      2973 7.83678E-01
 -1      2974 5.31019E-01
 -1      2975 4.52244E-01
 -1      2976 5.97593E-01
 -1      2977 3.73331E-01
 -1      2978 3.08160E-01
 -1      2979 4.26798E-01
 -1      2980 2.46354E-01
 -1      2981 1.96626E-01
 -1      2982 2.86080E-01
 -1      2983 1.51689E-01
 -1      2984 1.16324E-01
 -1      2985 1.79337E-01
 -1      2986 9.29468E-02
 -1      2987 7.13417E-02
 -1      2988 1.11023E-01
 -1      2989 5.50372E-02
 -1      2990 4.47151E-02
 -1      2991 7.13417E-02
 -1      2992 3.43929E-02
 -1      2993 2.83036E-02
 -1      2994 4.47151E-02
 -1      2995 2.24107E-02
 -1      2996 1.97962E-02
 -1      2997 2.85001E-02
 -1      2998 1.69853E-02
 -1      2999 1.56284E-02
 -1      3000 1.97962E-02
 -1      3001 1.37973E-02
 -1      3002 1.24769E-02
 -1      3003 1.51542E-02
 -1      3004 1.07811E-02
 -1      3005 9.37656E-03
 -1      3006 1.16273E-02
 -1      3007 7.93962E-03
 -1      3008 6.68345E-03
 -1      3009 8.49456E-03
 -1      3010 5.69375E-03
 -1      3011 4.81534E-03
 -1      3012 6.06792E-03
 -1      3013 4.04619E-03
 -1      3014 3.31391E-03
 -1      3015 4.30908E-03
 -1      3016 2.69062E-03
 -1      3017 2.11306E-03
 -1      3018 2.91664E-03
 -1      3019 1.65651E-03
 -1      3020 1.28130E-03
 -1      3021 1.83679E-03
 -1      3022 9.43592E-04
 -1      3023 8.57813E-04
 -1      3024 1.04253E-03
 -1      3025 7.83135E-04
 -1      3026 7.91095E-04
 -1      3027 6.30141E-04
 -1      3028 8.50685E-04
 -1      3029 8.20996E-04
 -1      3030 6.15052E-04
 -1      3031 8.35354E-04
 -1      3032 7.84461E-04
 -1      3033 6.89000E-04
 -1      3034 7.69763E-04
 -1      3035 7.09409E-04
 -1      3036 6.88660E-04
 -1      3037 6.77835E-04
 -1      3038 6.30605E-04
 -1      3039 6.42388E-04
 -1      3040 5.92758E-04
 -1      3041 5.49193E-04
 -1      3042 5.72967E-04
 -1      3043 5.21228E-04
 -1      3044 4.75954E-04
 -1      3045 5.07155E-04
 -1      3046 4.42877E-04
 -1      3047 4.01007E-04
 -1      3048 4.46111E-04
 -1      3049 3.66986E-04
 -1      3050 3.29843E-04
 -1      3051 3.79012E-04
 -1      3052 2.97442E-04
 -1      3053 2.64144E-04
 -1      3054 3.12590E-04
 -1      3055 2.34779E-04
 -1      3056 2.05942E-04
 -1      3057 2.50825E-04
 -1      3058 1.80271E-04
 -1      3059 1.56551E-04
 -1      3060 1.95788E-04
 -1      3061 1.34621E-04
 -1      3062 1.16780E-04
 -1      3063 1.48187E-04
 -1      3064 9.83738E-05
 -1      3065 8.09779E-05
 -1      3066 7.36741E-05
 -1      3067 1.07851E-04
 -1      3068 8.25540E-05
 -1      3069 8.19353E-05
 -1      3070 3.47738E+00
 -1      3071 4.20288E+00
 -1      3072 2.80442E+00
 -1      3073 8.69874E-01
 -1      3074 1.13096E+00
 -1      3075 5.55343E-01
 -1      3076 7.18878E-01
 -1      3077 7.30617E-01
 -1      3078 3.52592E-01
 -1      3079 4.55077E-01
 -1      3080 4.79355E-01
 -1      3081 2.22066E-01
 -1      3082 2.86022E-01
 -1      3083 3.12518E-01
 -1      3084 1.40870E-01
 -1      3085 1.78169E-01
 -1      3086 2.02050E-01
 -1      3087 8.87689E-02
 -1      3088 1.12150E-01
 -1      3089 1.29433E-01
 -1      3090 5.62587E-02
 -1      3091 7.02132E-02
 -1      3092 8.21566E-02
 -1      3093 3.68016E-02
 -1      3094 4.49642E-02
 -1      3095 5.23063E-02
 -1      3096 2.38516E-02
 -1      3097 2.94519E-02
 -1      3098 3.36622E-02
 -1      3099 1.51757E-02
 -1      3100 1.89858E-02
 -1      3101 2.14467E-02
 -1      3102 9.41014E-03
 -1      3103 1.19812E-02
 -1      3104 1.33862E-02
 -1      3105 5.94588E-03
 -1      3106 7.66484E-03
 -1      3107 8.44636E-03
 -1      3108 3.74063E-03
 -1      3109 4.74821E-03
 -1      3110 5.50340E-03
 -1      3111 2.64306E-03
 -1      3112 2.90183E-03
 -1      3113 3.46693E-03
 -1      3114 1.94782E-03
 -1      3115 2.12154E-03
 -1      3116 2.10661E-03
 -1      3117 1.68951E-03
 -1      3118 1.86726E-03
 -1      3119 1.50454E-03
 -1      3120 1.47444E-03
 -1      3121 1.64176E-03
 -1      3122 1.37624E-03
 -1      3123 1.25249E-03
 -1      3124 1.40264E-03
 -1      3125 1.25670E-03
 -1      3126 1.06103E-03
 -1      3127 1.17192E-03
 -1      3128 1.10433E-03
 -1      3129 8.91867E-04
 -1      3130 9.80616E-04
 -1      3131 9.43336E-04
 -1      3132 7.44628E-04
 -1      3133 8.26569E-04
 -1      3134 7.97621E-04
 -1      3135 6.18981E-04
 -1      3136 6.91882E-04
 -1      3137 6.79577E-04
 -1      3138 5.04274E-04
 -1      3139 5.67403E-04
 -1      3140 5.75253E-04
 -1      3141 4.09333E-04
 -1      3142 4.56511E-04
 -1      3143 4.75912E-04
 -1      3144 3.25430E-04
 -1      3145 3.66719E-04
 -1      3146 3.85536E-04
 -1      3147 2.53188E-04
 -1      3148 2.88450E-04
 -1      3149 3.05943E-04
 -1      3150 1.93859E-04
 -1      3151 2.21845E-04
 -1      3152 2.37620E-04
 -1      3153 1.52293E-04
 -1      3154 1.68116E-04
 -1      3155 1.80535E-04
 -1      3156 8.41542E-05
 -1      3157 8.90296E-05
 -1      3158 9.24193E-05
 -1      3159 2.84856E+00
 -1      3160 3.00587E+00
 -1      3161 1.43968E+01
 -1      3162 1.43877E+01
 -1      3163 9.12418E+00
 -1      3164 7.24113E-05
 -1      3165 7.94138E-05
 -1      3166 2.99203E+00
 -1      3167 4.17664E+00
 -1      3168 1.36038E+00
 -1      3169 1.78164E+00
 -1      3170 1.11104E+00
 -1      3171 8.26598E-05
 -1      3172 8.38969E-05
 -1      3173 8.96403E-05
 -1      3174 1.15566E+00
 -1      3175 1.11125E+00
 -1      3176 1.30230E+00
 -1      3177 1.35547E+00
 -1      3178 8.38969E-05
 -1      3179 8.38969E-05
 -1      3180 9.15434E-05
 -1      3181 9.28862E-05
 -1      3182 4.54672E+00
 -1      3183 3.50025E+00
 -1      3184 4.29093E+00
 -1      3185 8.99332E+00
 -1      3186 7.63124E+00
 -1      3187 1.19561E-04
 -1      3188 1.20316E-04
 -1      3189 1.35075E-04
 -1      3190 6.59805E+00
 -1      3191 4.78801E+00
 -1      3192 1.54018E+01
 -1      3193 1.29464E+01
 -1      3194 1.02355E+01
 -1      3195 1.03440E+01
 -1      3196 3.96165E+00
 -1      3197 3.30291E+00
 -1      3198 2.80998E+00
 -1      3199 3.41174E+00
 -1      3200 3.98802E+00
 -1      3201 3.46313E+00
 -1      3202 3.58315E+00
 -1      3203 8.04820E+00
 -1      3204 3.30898E+00
 -1      3205 2.77617E+00
 -1      3206 2.82579E+00
 -1      3207 9.28383E-05
 -1      3208 9.93309E-05
 -1      3209 1.14845E-04
 -1      3210 2.85002E+00
 -1      3211 1.45746E+00
 -1      3212 4.09070E+00
 -1      3213 1.42434E-04
 -1      3214 1.49793E-04
 -1      3215 1.52293E-04
 -1      3216 1.42434E-04
 -1      3217 2.85954E+00
 -1      3218 1.37911E+00
 -1      3219 8.90296E-05
 -1      3220 9.28505E-05
 -1      3221 9.46260E-05
 -1      3222 9.46381E-05
 -1      3223 1.79406E+00
 -1      3224 4.64224E+00
 -1      3225 5.02898E+00
 -1      3226 3.69572E+00
 -1      3227 1.44856E+00
 -1      3228 1.52068E+00
 -1      3229 5.04457E+00
 -1      3230 6.98151E+00
 -1      3231 7.18724E+00
 -1      3232 4.20288E+00
 -1      3233 5.95026E+00
 -1      3234 2.51888E+00
 -1      3235 1.97513E+00
 -1      3236 2.07089E+00
 -1      3237 2.64367E+00
 -1      3238 2.52512E+00
 -1      3239 6.88072E-05
 -1      3240 6.90698E-05
 -1      3241 8.30528E-05
 -1      3242 8.45782E-05
 -1      3243 3.30274E+00
 -1      3244 2.60369E+00
 -1      3245 2.75785E+00
 -1      3246 7.28333E+00
 -1      3247 6.21860E+00
 -1      3248 1.54432E+00
 -1      3249 1.50124E+00
 -1      3250 1.56047E+00
 -1      3251 1.53452E+00
 -1      3252 1.60355E+00
 -1      3253 1.50891E+00
 -1      3254 1.51830E+00
 -1      3255 1.63717E+00
 -1      3256 2.31068E+00
 -1      3257 2.34022E+00
 -1      3258 2.40394E+00
 -1      3259 1.99327E+00
 -1      3260 1.93029E+00
 -1      3261 2.84938E+00
 -1      3262 1.37009E+00
 -1      3263 1.32889E+00
 -1      3264 1.94223E+00
 -1      3265 1.30978E+00
 -1      3266 1.26054E+00
 -1      3267 1.36293E+00
 -1      3268 1.17726E+00
 -1      3269 1.10591E+00
 -1      3270 1.26054E+00
 -1      3271 1.02592E+00
 -1      3272 9.47570E-01
 -1      3273 1.09726E+00
 -1      3274 8.37583E-01
 -1      3275 7.43381E-01
 -1      3276 9.07273E-01
 -1      3277 6.33694E-01
 -1      3278 5.41811E-01
 -1      3279 6.87599E-01
 -1      3280 4.55233E-01
 -1      3281 3.76321E-01
 -1      3282 4.91334E-01
 -1      3283 3.21470E-01
 -1      3284 2.59664E-01
 -1      3285 3.49905E-01
 -1      3286 2.14154E-01
 -1      3287 1.69217E-01
 -1      3288 2.49544E-01
 -1      3289 1.33818E-01
 -1      3290 1.10441E-01
 -1      3291 1.68635E-01
 -1      3292 8.48351E-02
 -1      3293 6.85306E-02
 -1      3294 1.07630E-01
 -1      3295 5.12399E-02
 -1      3296 4.09177E-02
 -1      3297 6.47333E-02
 -1      3298 3.32275E-02
 -1      3299 2.73346E-02
 -1      3300 3.97523E-02
 -1      3301 2.30061E-02
 -1      3302 2.01951E-02
 -1      3303 2.77335E-02
 -1      3304 1.67811E-02
 -1      3305 1.49500E-02
 -1      3306 1.99909E-02
 -1      3307 1.25577E-02
 -1      3308 1.08619E-02
 -1      3309 1.41846E-02
 -1      3310 9.42146E-03
 -1      3311 7.98452E-03
 -1      3312 1.03519E-02
 -1      3313 6.98592E-03
 -1      3314 5.99622E-03
 -1      3315 7.91283E-03
 -1      3316 5.05679E-03
 -1      3317 4.28765E-03
 -1      3318 5.97479E-03
 -1      3319 3.48888E-03
 -1      3320 2.86560E-03
 -1      3321 4.23660E-03
 -1      3322 2.24804E-03
 -1      3323 1.79149E-03
 -1      3324 2.82029E-03
 -1      3325 1.35980E-03
 -1      3326 1.02209E-03
 -1      3327 1.77105E-03
 -1      3328 7.68824E-04
 -1      3329 6.94146E-04
 -1      3330 1.08609E-03
 -1      3331 5.31413E-04
 -1      3332 5.91003E-04
 -1      3333 6.70097E-04
 -1      3334 5.71415E-04
 -1      3335 5.85773E-04
 -1      3336 4.87776E-04
 -1      3337 6.18139E-04
 -1      3338 6.03440E-04
 -1      3339 5.00553E-04
 -1      3340 6.05656E-04
 -1      3341 5.74082E-04
 -1      3342 5.35134E-04
 -1      3343 5.57616E-04
 -1      3344 5.19769E-04
 -1      3345 5.20884E-04
 -1      3346 4.92966E-04
 -1      3347 4.65000E-04
 -1      3348 4.77614E-04
 -1      3349 4.42718E-04
 -1      3350 4.09640E-04
 -1      3351 4.28529E-04
 -1      3352 3.83324E-04
 -1      3353 3.49303E-04
 -1      3354 3.79931E-04
 -1      3355 3.21525E-04
 -1      3356 2.89124E-04
 -1      3357 3.25837E-04
 -1      3358 2.62205E-04
 -1      3359 2.32839E-04
 -1      3360 2.71139E-04
 -1      3361 2.08059E-04
 -1      3362 1.82387E-04
 -1      3363 2.19439E-04
 -1      3364 1.60317E-04
 -1      3365 1.38388E-04
 -1      3366 1.72588E-04
 -1      3367 2.60369E+00
 -1      3368 2.47697E-01
 -1      3369 3.14268E-01
 -1      3370 3.90319E-01
 -1      3371 4.90585E-01
 -1      3372 3.25498E-01
 -1      3373 6.07504E-01
 -1      3374 7.58500E-01
 -1      3375 5.18468E-01
 -1      3376 1.55341E-01
 -1      3377 1.99238E-01
 -1      3378 2.00988E-01
 -1      3379 1.02651E-01
 -1      3380 1.31372E-01
 -1      3381 1.28560E-01
 -1      3382 6.74754E-02
 -1      3383 8.60312E-02
 -1      3384 8.79702E-02
 -1      3385 4.44688E-02
 -1      3386 5.57634E-02
 -1      3387 5.96379E-02
 -1      3388 2.90321E-02
 -1      3389 3.63818E-02
 -1      3390 3.98388E-02
 -1      3391 1.89075E-02
 -1      3392 2.37733E-02
 -1      3393 2.64929E-02
 -1      3394 1.21691E-02
 -1      3395 1.53636E-02
 -1      3396 1.76903E-02
 -1      3397 7.97047E-03
 -1      3398 9.71577E-03
 -1      3399 1.16932E-02
 -1      3400 5.08339E-03
 -1      3401 6.28106E-03
 -1      3402 7.55046E-03
 -1      3403 3.09611E-03
 -1      3404 3.93491E-03
 -1      3405 4.71257E-03
 -1      3406 1.80556E-03
 -1      3407 2.32707E-03
 -1      3408 2.79505E-03
 -1      3409 1.31624E-03
 -1      3410 1.39679E-03
 -1      3411 1.61726E-03
 -1      3412 1.06276E-03
 -1      3413 1.11050E-03
 -1      3414 1.00276E-03
 -1      3415 1.02014E-03
 -1      3416 1.09194E-03
 -1      3417 8.26203E-04
 -1      3418 9.30011E-04
 -1      3419 1.01059E-03
 -1      3420 8.45826E-04
 -1      3421 8.16756E-04
 -1      3422 8.97173E-04
 -1      3423 8.03431E-04
 -1      3424 7.07166E-04
 -1      3425 7.72464E-04
 -1      3426 7.26301E-04
 -1      3427 6.06159E-04
 -1      3428 6.58906E-04
 -1      3429 6.33749E-04
 -1      3430 5.14038E-04
 -1      3431 5.65616E-04
 -1      3432 5.44945E-04
 -1      3433 4.30524E-04
 -1      3434 4.78287E-04
 -1      3435 4.68650E-04
 -1      3436 3.52375E-04
 -1      3437 3.94989E-04
 -1      3438 3.97363E-04
 -1      3439 2.82132E-04
 -1      3440 3.19112E-04
 -1      3441 3.28564E-04
 -1      3442 2.20848E-04
 -1      3443 2.52191E-04
 -1      3444 2.65360E-04
 -1      3445 1.69235E-04
 -1      3446 1.94978E-04
 -1      3447 2.09549E-04
 -1      3448 1.40766E+00
 -1      3449 1.86125E+00
 -1      3450 1.00223E-04
 -1      3451 1.02442E-04
 -1      3452 1.02643E-04
 -1      3453 1.05889E-04
 -1      3454 1.52068E+00
 -1      3455 2.34346E+00
 -1      3456 2.83784E+00
 -1      3457 3.97422E+00
 -1      3458 3.14785E+00
 -1      3459 5.93372E+00
 -1      3460 4.90052E+00
 -1      3461 9.32606E-01
 -1      3462 1.16203E+00
 -1      3463 8.09493E-01
 -1      3464 4.71506E+00
 -1      3465 3.83363E+00
 -1      3466 3.73311E+00
 -1      3467 2.79225E+00
 -1      3468 2.33790E+00
 -1      3469 2.39234E+00
 -1      3470 2.94911E+00
 -1      3471 2.00594E+00
 -1      3472 6.92637E+00
 -1      3473 5.09678E+00
 -1      3474 3.41978E+00
 -1      3475 2.75487E+00
 -1      3476 3.00534E+00
 -1      3477 3.56077E+00
 -1      3478 4.40246E+00
 -1      3479 3.14868E+00
 -1      3480 1.18255E-04
 -1      3481 9.98489E-05
 -1      3482 9.49820E-05
 -1      3483 1.30386E-04
 -1      3484 1.11872E-04
 -1      3485 1.32102E-04
 -1      3486 1.39461E-04
 -1      3487 1.66736E-04
 -1      3488 1.22923E+00
 -1      3489 1.10246E-04
 -1      3490 1.02442E-04
 -1      3491 1.02442E-04
 -1      3492 1.31272E-04
 -1      3493 1.18270E-04
 -1      3494 1.18270E-04
 -1      3495 5.16886E+00
 -1      3496 3.27037E+00
 -1      3497 3.62168E+00
 -1      3498 2.76380E+00
 -1      3499 2.32572E+00
 -1      3500 9.83235E-05
 -1      3501 5.38666E+00
 -1      3502 7.52933E+00
 -1      3503 8.54345E+00
 -1      3504 4.74455E+00
 -1      3505 1.54432E+00
 -1      3506 1.14572E-04
 -1      3507 2.67577E+00
 -1      3508 1.18270E-04
 -1      3509 1.16927E-04
 -1      3510 1.26950E-04
 -1      3511 1.43653E-04
 -1      3512 3.95768E+00
 -1      3513 1.54432E+00
 -1      3514 1.76581E+00
 -1      3515 1.76581E+00
 -1      3516 2.29238E+00
 -1      3517 8.04898E+00
 -1      3518 1.34705E-04
 -1      3519 2.59746E+00
 -1      3520 2.01595E+00
 -1      3521 1.99035E+00
 -1      3522 2.43160E+00
 -1      3523 3.22398E+00
 -1      3524 2.81038E+00
 -1      3525 3.19632E+00
 -1      3526 2.84938E+00
 -1      3527 1.49407E+00
 -1      3528 1.47496E+00
 -1      3529 1.61175E+00
 -1      3530 1.52847E+00
 -1      3531 1.74289E+00
 -1      3532 1.22914E+00
 -1      3533 1.14914E+00
 -1      3534 1.58036E+00
 -1      3535 9.99452E-01
 -1      3536 8.89465E-01
 -1      3537 1.13134E+00
 -1      3538 7.70221E-01
 -1      3539 6.60534E-01
 -1      3540 8.62400E-01
 -1      3541 5.93777E-01
 -1      3542 5.07199E-01
 -1      3543 6.76399E-01
 -1      3544 4.30584E-01
 -1      3545 3.75733E-01
 -1      3546 5.33027E-01
 -1      3547 3.09074E-01
 -1      3548 2.63564E-01
 -1      3549 3.89753E-01
 -1      3550 2.10932E-01
 -1      3551 1.75533E-01
 -1      3552 2.70461E-01
 -1      3553 1.39712E-01
 -1      3554 1.14106E-01
 -1      3555 1.82009E-01
 -1      3556 9.12035E-02
 -1      3557 7.39127E-02
 -1      3558 1.23285E-01
 -1      3559 5.72530E-02
 -1      3560 4.95627E-02
 -1      3561 8.37232E-02
 -1      3562 3.81480E-02
 -1      3563 3.38195E-02
 -1      3564 5.56487E-02
 -1      3565 2.58547E-02
 -1      3566 2.24406E-02
 -1      3567 3.62692E-02
 -1      3568 1.71668E-02
 -1      3569 1.47745E-02
 -1      3570 2.30306E-02
 -1      3571 1.24585E-02
 -1      3572 1.10180E-02
 -1      3573 1.54407E-02
 -1      3574 9.16650E-03
 -1      3575 8.16790E-03
 -1      3576 1.12731E-02
 -1      3577 6.73467E-03
 -1      3578 5.79524E-03
 -1      3579 7.98834E-03
 -1      3580 4.73021E-03
 -1      3581 3.93145E-03
 -1      3582 5.49009E-03
 -1      3583 3.16846E-03
 -1      3584 2.55091E-03
 -1      3585 3.66207E-03
 -1      3586 2.01397E-03
 -1      3587 1.58228E-03
 -1      3588 2.36214E-03
 -1      3589 1.30128E-03
 -1      3590 1.04802E-03
 -1      3591 1.54421E-03
 -1      3592 8.32829E-04
 -1      3593 6.70097E-04
 -1      3594 1.04802E-03
 -1      3595 5.35765E-04
 -1      3596 5.16177E-04
 -1      3597 6.98498E-04
 -1      3598 4.50726E-04
 -1      3599 4.83091E-04
 -1      3600 4.98715E-04
 -1      3601 4.78626E-04
 -1      3602 4.80842E-04
 -1      3603 4.28798E-04
 -1      3604 4.87385E-04
 -1      3605 4.70919E-04
 -1      3606 4.30877E-04
 -1      3607 4.60616E-04
 -1      3608 4.33812E-04
 -1      3609 4.27116E-04
 -1      3610 4.18299E-04
 -1      3611 3.96018E-04
 -1      3612 4.01301E-04
 -1      3613 3.76112E-04
 -1      3614 3.49795E-04
 -1      3615 3.65882E-04
 -1      3616 3.26526E-04
 -1      3617 2.98748E-04
 -1      3618 3.22707E-04
 -1      3619 2.74827E-04
 -1      3620 2.47907E-04
 -1      3621 2.75516E-04
 -1      3622 2.24548E-04
 -1      3623 1.99767E-04
 -1      3624 2.28236E-04
 -1      3625 1.77426E-04
 -1      3626 1.55356E-04
 -1      3627 1.82535E-04
 -1      3628 2.67097E-01
 -1      3629 3.43147E-01
 -1      3630 1.14168E-01
 -1      3631 1.38137E-01
 -1      3632 2.48869E+00
 -1      3633 2.13308E+00
 -1      3634 1.56404E-04
 -1      3635 1.71131E-01
 -1      3636 2.19590E-01
 -1      3637 2.37240E-01
 -1      3638 1.56739E-01
 -1      3639 4.16218E-01
 -1      3640 5.33137E-01
 -1      3641 3.57816E-01
 -1      3642 7.54036E-02
 -1      3643 9.20238E-02
 -1      3644 1.01601E-01
 -1      3645 4.90623E-02
 -1      3646 6.07744E-02
 -1      3647 6.48280E-02
 -1      3648 3.15758E-02
 -1      3649 3.96629E-02
 -1      3650 4.07993E-02
 -1      3651 2.18165E-02
 -1      3652 2.70753E-02
 -1      3653 2.68994E-02
 -1      3654 1.48755E-02
 -1      3655 1.84193E-02
 -1      3656 1.90017E-02
 -1      3657 1.00383E-02
 -1      3658 1.24916E-02
 -1      3659 1.32206E-02
 -1      3660 6.65719E-03
 -1      3661 8.34660E-03
 -1      3662 9.14503E-03
 -1      3663 4.27255E-03
 -1      3664 5.42103E-03
 -1      3665 6.21717E-03
 -1      3666 2.61593E-03
 -1      3667 3.38496E-03
 -1      3668 4.09343E-03
 -1      3669 1.58305E-03
 -1      3670 1.99181E-03
 -1      3671 2.58172E-03
 -1      3672 9.48337E-04
 -1      3673 1.15407E-03
 -1      3674 1.52863E-03
 -1      3675 6.90590E-04
 -1      3676 6.61410E-04
 -1      3677 8.12725E-04
 -1      3678 6.80052E-04
 -1      3679 6.89609E-04
 -1      3680 5.24816E-04
 -1      3681 6.72276E-04
 -1      3682 7.05114E-04
 -1      3683 5.48897E-04
 -1      3684 6.24095E-04
 -1      3685 6.68387E-04
 -1      3686 5.70070E-04
 -1      3687 5.55152E-04
 -1      3688 6.03413E-04
 -1      3689 5.45499E-04
 -1      3690 4.85267E-04
 -1      3691 5.25811E-04
 -1      3692 4.95475E-04
 -1      3693 4.16832E-04
 -1      3694 4.52583E-04
 -1      3695 4.33449E-04
 -1      3696 3.53108E-04
 -1      3697 3.88644E-04
 -1      3698 3.72577E-04
 -1      3699 2.93751E-04
 -1      3700 3.27015E-04
 -1      3701 3.18295E-04
 -1      3702 2.38404E-04
 -1      3703 2.68345E-04
 -1      3704 2.66796E-04
 -1      3705 1.96833E-04
 -1      3706 2.22703E-04
 -1      3707 2.25688E-04
 -1      3708 4.18439E+00
 -1      3709 4.54135E+00
 -1      3710 1.59779E+00
 -1      3711 2.12888E+00
 -1      3712 6.85596E-01
 -1      3713 8.59702E-01
 -1      3714 5.83346E-01
 -1      3715 1.11847E+00
 -1      3716 1.36410E+00
 -1      3717 1.48704E+00
 -1      3718 9.94574E-01
 -1      3719 2.45277E+00
 -1      3720 2.29238E+00
 -1      3721 2.28940E+00
 -1      3722 3.90632E+00
 -1      3723 2.98002E+00
 -1      3724 1.11884E-04
 -1      3725 1.11872E-04
 -1      3726 1.29129E-04
 -1      3727 1.19688E-04
 -1      3728 4.62860E+00
 -1      3729 4.34372E+00
 -1      3730 1.60355E+00
 -1      3731 1.66278E+00
 -1      3732 2.01595E+00
 -1      3733 1.82504E+00
 -1      3734 2.12232E+00
 -1      3735 2.12788E+00
 -1      3736 5.23429E+00
 -1      3737 3.64934E+00
 -1      3738 3.33541E+00
 -1      3739 2.29238E+00
 -1      3740 1.39543E-04
 -1      3741 2.43733E+00
 -1      3742 2.73570E+00
 -1      3743 3.34736E+00
 -1      3744 2.32756E+00
 -1      3745 1.93524E+00
 -1      3746 3.22398E+00
 -1      3747 2.46180E+00
 -1      3748 1.90160E+00
 -1      3749 1.74189E-04
 -1      3750 2.01463E-04
 -1      3751 2.14618E-04
 -1      3752 1.74189E-04
 -1      3753 3.71621E+00
 -1      3754 3.83710E+00
 -1      3755 3.28168E+00
 -1      3756 1.51092E-04
 -1      3757 1.51092E-04
 -1      3758 1.51923E-04
 -1      3759 3.36606E+00
 -1      3760 2.37622E+00
 -1      3761 2.80875E+00
 -1      3762 4.25008E+00
 -1      3763 1.55554E-04
 -1      3764 1.38850E-04
 -1      3765 1.79696E-04
 -1      3766 2.01364E+00
 -1      3767 2.89416E+00
 -1      3768 1.72073E+00
 -1      3769 2.32756E+00
 -1      3770 8.31292E-02
 -1      3771 1.05273E-01
 -1      3772 2.36297E+00
 -1      3773 1.87164E+00
 -1      3774 1.83849E+00
 -1      3775 1.53915E+00
 -1      3776 1.29527E+00
 -1      3777 1.14557E+00
 -1      3778 1.55339E+00
 -1      3779 9.84721E-01
 -1      3780 8.65477E-01
 -1      3781 1.14865E+00
 -1      3782 7.47530E-01
 -1      3783 6.80772E-01
 -1      3784 8.69850E-01
 -1      3785 6.09642E-01
 -1      3786 5.33027E-01
 -1      3787 6.80772E-01
 -1      3788 4.56412E-01
 -1      3789 3.89753E-01
 -1      3790 5.33027E-01
 -1      3791 3.23093E-01
 -1      3792 2.70461E-01
 -1      3793 3.89753E-01
 -1      3794 2.17830E-01
 -1      3795 1.82009E-01
 -1      3796 2.70461E-01
 -1      3797 1.44711E-01
 -1      3798 1.21808E-01
 -1      3799 1.80532E-01
 -1      3800 9.51809E-02
 -1      3801 7.85211E-02
 -1      3802 1.16606E-01
 -1      3803 6.06855E-02
 -1      3804 4.92708E-02
 -1      3805 7.21432E-02
 -1      3806 4.09003E-02
 -1      3807 3.29356E-02
 -1      3808 4.59372E-02
 -1      3809 2.68749E-02
 -1      3810 2.16011E-02
 -1      3811 3.15061E-02
 -1      3812 1.73461E-02
 -1      3813 1.50300E-02
 -1      3814 2.11904E-02
 -1      3815 1.21015E-02
 -1      3816 1.02500E-02
 -1      3817 1.40069E-02
 -1      3818 8.26181E-03
 -1      3819 6.82859E-03
 -1      3820 9.09028E-03
 -1      3821 5.78913E-03
 -1      3822 4.72411E-03
 -1      3823 6.06260E-03
 -1      3824 4.03473E-03
 -1      3825 3.27174E-03
 -1      3826 4.33378E-03
 -1      3827 2.75185E-03
 -1      3828 2.21492E-03
 -1      3829 3.12452E-03
 -1      3830 1.81684E-03
 -1      3831 1.53584E-03
 -1      3832 2.20655E-03
 -1      3833 1.22886E-03
 -1      3834 1.01367E-03
 -1      3835 1.50149E-03
 -1      3836 7.85496E-04
 -1      3837 6.51165E-04
 -1      3838 9.66336E-04
 -1      3839 5.64167E-04
 -1      3840 4.98715E-04
 -1      3841 6.51165E-04
 -1      3842 4.33263E-04
 -1      3843 4.28798E-04
 -1      3844 4.98715E-04
 -1      3845 4.16487E-04
 -1      3846 4.23030E-04
 -1      3847 4.20952E-04
 -1      3848 4.24040E-04
 -1      3849 4.13737E-04
 -1      3850 4.09650E-04
 -1      3851 4.01301E-04
 -1      3852 3.85788E-04
 -1      3853 3.98224E-04
 -1      3854 3.65882E-04
 -1      3855 3.45975E-04
 -1      3856 3.65882E-04
 -1      3857 3.22707E-04
 -1      3858 2.99438E-04
 -1      3859 3.22707E-04
 -1      3860 2.75516E-04
 -1      3861 2.51594E-04
 -1      3862 2.75516E-04
 -1      3863 2.28236E-04
 -1      3864 2.04877E-04
 -1      3865 2.28236E-04
 -1      3866 1.95100E-04
 -1      3867 1.72758E-04
 -1      3868 1.64488E-04
 -1      3869 1.95100E-04
 -1      3870 3.19969E-01
 -1      3871 3.93039E-01
 -1      3872 3.56034E-02
 -1      3873 4.50028E-02
 -1      3874 2.44437E-02
 -1      3875 2.89442E-02
 -1      3876 3.31477E-02
 -1      3877 1.65130E-02
 -1      3878 1.99102E-02
 -1      3879 2.19550E-02
 -1      3880 1.11114E-02
 -1      3881 1.34953E-02
 -1      3882 1.44037E-02
 -1      3883 7.54162E-03
 -1      3884 9.23333E-03
 -1      3885 9.50795E-03
 -1      3886 5.22149E-03
 -1      3887 6.45764E-03
 -1      3888 6.54594E-03
 -1      3889 3.51625E-03
 -1      3890 4.40384E-03
 -1      3891 4.64431E-03
 -1      3892 2.26795E-03
 -1      3893 2.89207E-03
 -1      3894 3.20248E-03
 -1      3895 1.37801E-03
 -1      3896 1.80698E-03
 -1      3897 2.11733E-03
 -1      3898 7.60835E-04
 -1      3899 1.04776E-03
 -1      3900 1.32612E-03
 -1      3901 5.30516E-04
 -1      3902 5.31497E-04
 -1      3903 7.66535E-04
 -1      3904 4.45394E-04
 -1      3905 4.20332E-04
 -1      3906 4.27012E-04
 -1      3907 4.75191E-04
 -1      3908 4.79080E-04
 -1      3909 3.50514E-04
 -1      3910 4.65192E-04
 -1      3911 4.85875E-04
 -1      3912 3.94884E-04
 -1      3913 4.28923E-04
 -1      3914 4.58264E-04
 -1      3915 3.98640E-04
 -1      3916 3.79260E-04
 -1      3917 4.11944E-04
 -1      3918 3.74734E-04
 -1      3919 3.29159E-04
 -1      3920 3.57348E-04
 -1      3921 3.35843E-04
 -1      3922 2.79532E-04
 -1      3923 3.05625E-04
 -1      3924 2.90396E-04
 -1      3925 2.31960E-04
 -1      3926 2.57366E-04
 -1      3927 2.44696E-04
 -1      3928 2.14618E-04
 -1      3929 2.30319E-04
 -1      3930 2.20890E-04
 -1      3931 2.17283E+00
 -1      3932 1.76529E+00
 -1      3933 1.98730E+00
 -1      3934 3.27268E+00
 -1      3935 3.35993E+00
 -1      3936 1.64488E-04
 -1      3937 4.97847E-01
 -1      3938 6.50307E-01
 -1      3939 4.60000E-01
 -1      3940 5.46118E-02
 -1      3941 6.92410E-02
 -1      3942 7.29130E-02
 -1      3943 4.94159E-02
 -1      3944 3.24141E+00
 -1      3945 2.80401E+00
 -1      3946 2.67485E+00
 -1      3947 1.82504E+00
 -1      3948 1.91284E+00
 -1      3949 2.04081E-01
 -1      3950 2.51587E-01
 -1      3951 2.86809E-01
 -1      3952 2.23832E+00
 -1      3953 2.48031E+00
 -1      3954 7.31113E-01
 -1      3955 8.16612E-01
 -1      3956 1.07538E+00
 -1      3957 2.17821E+00
 -1      3958 1.25334E+00
 -1      3959 1.48704E+00
 -1      3960 1.48704E+00
 -1      3961 1.07538E+00
 -1      3962 1.45294E-01
 -1      3963 1.78288E-01
 -1      3964 1.26822E-01
 -1      3965 2.79788E+00
 -1      3966 1.64705E-04
 -1      3967 1.76947E-04
 -1      3968 2.05593E-04
 -1      3969 1.64747E-04
 -1      3970 1.90208E+00
 -1      3971 1.76388E-04
 -1      3972 2.31857E+00
 -1      3973 1.90602E-04
 -1      3974 2.05593E-04
 -1      3975 2.19248E-04
 -1      3976 1.85322E-04
 -1      3977 1.76388E-04
 -1      3978 1.73639E-04
 -1      3979 1.95100E-04
 -1      3980 1.74189E-04
 -1      3981 2.19248E-04
 -1      3982 2.19248E-04
 -1      3983 1.14628E+00
 -1      3984 1.02834E+00
 -1      3985 7.51903E-01
 -1      3986 6.80772E-01
 -1      3987 1.02834E+00
 -1      3988 5.99513E-01
 -1      3989 5.22898E-01
 -1      3990 6.70643E-01
 -1      3991 4.28265E-01
 -1      3992 3.61605E-01
 -1      3993 4.94751E-01
 -1      3994 3.03262E-01
 -1      3995 2.50630E-01
 -1      3996 3.41774E-01
 -1      3997 2.01533E-01
 -1      3998 1.64235E-01
 -1      3999 2.34334E-01
 -1      4000 1.19470E-01
 -1      4001 9.28422E-02
 -1      4002 1.40471E-01
 -1      4003 8.60683E-02
 -1      4004 6.82327E-02
 -1      4005 8.89317E-02
 -1      4006 5.29511E-02
 -1      4007 4.45807E-02
 -1      4008 6.68762E-02
 -1      4009 3.46804E-02
 -1      4010 2.86198E-02
 -1      4011 4.16944E-02
 -1      4012 2.27850E-02
 -1      4013 1.85300E-02
 -1      4014 2.59594E-02
 -1      4015 1.55424E-02
 -1      4016 1.26140E-02
 -1      4017 1.71370E-02
 -1      4018 1.04288E-02
 -1      4019 8.44060E-03
 -1      4020 1.19643E-02
 -1      4021 7.10206E-03
 -1      4022 6.06260E-03
 -1      4023 8.44060E-03
 -1      4024 5.02315E-03
 -1      4025 4.33378E-03
 -1      4026 6.06260E-03
 -1      4027 3.58823E-03
 -1      4028 3.06835E-03
 -1      4029 4.27761E-03
 -1      4030 2.51842E-03
 -1      4031 2.12034E-03
 -1      4032 2.98213E-03
 -1      4033 1.71010E-03
 -1      4034 1.40312E-03
 -1      4035 2.02197E-03
 -1      4036 1.10420E-03
 -1      4037 8.76030E-04
 -1      4038 1.31282E-03
 -1      4039 6.63589E-04
 -1      4040 5.76591E-04
 -1      4041 8.01456E-04
 -1      4042 4.69407E-04
 -1      4043 4.03956E-04
 -1      4044 4.81832E-04
 -1      4045 3.35755E-04
 -1      4046 3.23443E-04
 -1      4047 3.06448E-04
 -1      4048 3.32359E-04
 -1      4049 3.33369E-04
 -1      4050 2.47163E-04
 -1      4051 3.34550E-04
 -1      4052 3.22114E-04
 -1      4053 2.57260E-04
 -1      4054 3.20171E-04
 -1      4055 3.00264E-04
 -1      4056 2.56497E-04
 -1      4057 2.91223E-04
 -1      4058 2.67954E-04
 -1      4059 2.45511E-04
 -1      4060 2.55143E-04
 -1      4061 2.31221E-04
 -1      4062 2.23659E-04
 -1      4063 2.18941E-04
 -1      4064 1.95582E-04
 -1      4065 1.98568E-04
 -1      4066 1.87730E-02
 -1      4067 2.33065E-02
 -1      4068 2.91413E-02
 -1      4069 3.58005E-02
 -1      4070 2.59594E-02
 -1      4071 8.70453E-03
 -1      4072 1.05826E-02
 -1      4073 6.04611E-03
 -1      4074 7.13009E-03
 -1      4075 8.20470E-03
 -1      4076 4.19120E-03
 -1      4077 5.00885E-03
 -1      4078 5.59300E-03
 -1      4079 2.82323E-03
 -1      4080 3.44741E-03
 -1      4081 3.81195E-03
 -1      4082 1.83117E-03
 -1      4083 2.29214E-03
 -1      4084 2.53707E-03
 -1      4085 1.12641E-03
 -1      4086 1.45666E-03
 -1      4087 1.63146E-03
 -1      4088 6.39553E-04
 -1      4089 8.68891E-04
 -1      4090 9.99432E-04
 -1      4091 3.69272E-04
 -1      4092 4.79456E-04
 -1      4093 5.81812E-04
 -1      4094 3.15252E-04
 -1      4095 2.81566E-04
 -1      4096 3.34009E-04
 -1      4097 3.37314E-04
 -1      4098 3.26630E-04
 -1      4099 2.57682E-04
 -1      4100 3.35417E-04
 -1      4101 3.42345E-04
 -1      4102 2.74091E-04
 -1      4103 3.18392E-04
 -1      4104 3.35370E-04
 -1      4105 2.79075E-04
 -1      4106 2.87174E-04
 -1      4107 3.09086E-04
 -1      4108 2.69723E-04
 -1      4109 2.51666E-04
 -1      4110 2.75200E-04
 -1      4111 2.48443E-04
 -1      4112 2.16524E-04
 -1      4113 2.38690E-04
 -1      4114 2.23494E-04
 -1      4115 2.04610E-04
 -1      4116 2.06251E-04
 -1      4117 2.00244E-04
 -1      4118 1.75963E-04
 -1      4119 1.99443E+00
 -1      4120 3.77014E-01
 -1      4121 4.81822E-01
 -1      4122 1.55186E+00
 -1      4123 2.14969E+00
 -1      4124 2.48510E+00
 -1      4125 2.36658E+00
 -1      4126 1.68165E+00
 -1      4127 1.71839E+00
 -1      4128 1.27677E-02
 -1      4129 1.57855E-02
 -1      4130 1.71370E-02
 -1      4131 1.19643E-02
 -1      4132 1.92635E-01
 -1      4133 5.64808E-01
 -1      4134 7.31113E-01
 -1      4135 4.81822E-01
 -1      4136 2.50929E-01
 -1      4137 3.19311E-01
 -1      4138 3.41133E-01
 -1      4139 7.05913E-02
 -1      4140 8.44795E-02
 -1      4141 1.52080E+00
 -1      4142 1.85805E-04
 -1      4143 1.87647E-04
 -1      4144 1.31816E+00
 -1      4145 8.89317E-02
 -1      4146 9.12533E-02
 -1      4147 1.31274E-01
 -1      4148 4.57008E-02
 -1      4149 5.53097E-02
 -1      4150 6.68762E-02
 -1      4151 4.16944E-02
 -1      4152 1.67928E+00
 -1      4153 9.49740E-01
 -1      4154 8.68481E-01
 -1      4155 5.77096E-01
 -1      4156 4.82463E-01
 -1      4157 3.99477E-01
 -1      4158 3.41133E-01
 -1      4159 2.83431E-01
 -1      4160 2.34334E-01
 -1      4161 1.85237E-01
 -1      4162 1.40471E-01
 -1      4163 9.57056E-02
 -1      4164 8.89317E-02
 -1      4165 8.21578E-02
 -1      4166 6.68762E-02
 -1      4167 5.15946E-02
 -1      4168 4.16944E-02
 -1      4169 3.17941E-02
 -1      4170 2.59594E-02
 -1      4171 2.01246E-02
 -1      4172 1.71370E-02
 -1      4173 1.41495E-02
 -1      4174 1.19643E-02
 -1      4175 9.77914E-03
 -1      4176 8.44060E-03
 -1      4177 6.86616E-03
 -1      4178 5.82671E-03
 -1      4179 4.78945E-03
 -1      4180 4.04390E-03
 -1      4181 3.30011E-03
 -1      4182 2.75018E-03
 -1      4183 2.21909E-03
 -1      4184 1.80885E-03
 -1      4185 1.43435E-03
 -1      4186 1.13543E-03
 -1      4187 8.77903E-04
 -1      4188 6.65462E-04
 -1      4189 5.05365E-04
 -1      4190 3.98182E-04
 -1      4191 3.10476E-04
 -1      4192 2.42275E-04
 -1      4193 2.53654E-04
 -1      4194 2.62570E-04
 -1      4195 2.67600E-04
 -1      4196 2.68781E-04
 -1      4197 2.68734E-04
 -1      4198 2.66791E-04
 -1      4199 2.57485E-04
 -1      4200 2.48443E-04
 -1      4201 2.36470E-04
 -1      4202 2.23659E-04
 -1      4203 2.10682E-04
 -1      4204 1.98403E-04
 -1      4205 1.34388E+00
 -1      4206 1.02250E+00
 -1      4207 1.20046E+00
 -1      4208 1.06744E+00
 -1      4209 1.26528E+00
 -1      4210 1.88129E-04
 -1      4211 1.76040E-01
 -1      4212 2.01832E-01
 -1      4213 2.34334E-01
 -1      4214 8.56193E-01
 -1      4215 1.40471E-01
 -3
 9999
